# vtk DataFile Version 5.1
vtk output
ASCII

DATASET UNSTRUCTURED_GRID
POINTS 18785 float
0 0 -1.1
0.125 0 -1.1
0.25 0 -1.1
0.375 0 -1.1
0.5 0 -1.1
0.625 0 -1.1
0.75 0 -1.1
0.875 0 -1.1
1 0 -1.1
1.125 0 -1.1
1.25 0 -1.1
1.375 0 -1.1
1.5 0 -1.1
1.625 0 -1.1
1.75 0 -1.1
1.875 0 -1.1
2 0 -1.1
2.125 0 -1.1
2.25 0 -1.1
2.375 0 -1.1
2.5 0 -1.1
2.625 0 -1.1
2.75 0 -1.1
2.875 0 -1.1
3 0 -1.1
3.125 0 -1.1
3.25 0 -1.1
3.375 0 -1.1
3.5 0 -1.1
3.625 0 -1.1
3.75 0 -1.1
3.875 0 -1.1
4 0 -1.1
0 0.125 -1.1
0.125 0.125 -1.1
0.25 0.125 -1.1
0.375 0.125 -1.1
0.5 0.125 -1.1
0.625 0.125 -1.1
0.75 0.125 -1.1
0.875 0.125 -1.1
1 0.125 -1.1
1.125 0.125 -1.1
1.25 0.125 -1.1
1.375 0.125 -1.1
1.5 0.125 -1.1
1.625 0.125 -1.1
1.75 0.125 -1.1
1.875 0.125 -1.1
2 0.125 -1.1
2.125 0.125 -1.1
2.25 0.125 -1.1
2.375 0.125 -1.1
2.5 0.125 -1.1
2.625 0.125 -1.1
2.75 0.125 -1.1
2.875 0.125 -1.1
3 0.125 -1.1
3.125 0.125 -1.1
3.25 0.125 -1.1
3.375 0.125 -1.1
3.5 0.125 -1.1
3.625 0.125 -1.1
3.75 0.125 -1.1
3.875 0.125 -1.1
4 0.125 -1.1
0 0.25 -1.1
0.125 0.25 -1.1
0.25 0.25 -1.1
0.375 0.25 -1.1
0.5 0.25 -1.1
0.625 0.25 -1.1
0.75 0.25 -1.1
0.875 0.25 -1.1
1 0.25 -1.1
1.125 0.25 -1.1
1.25 0.25 -1.1
1.375 0.25 -1.1
1.5 0.25 -1.1
1.625 0.25 -1.1
1.75 0.25 -1.1
1.875 0.25 -1.1
2 0.25 -1.1
2.125 0.25 -1.1
2.25 0.25 -1.1
2.375 0.25 -1.1
2.5 0.25 -1.1
2.625 0.25 -1.1
2.75 0.25 -1.1
2.875 0.25 -1.1
3 0.25 -1.1
3.125 0.25 -1.1
3.25 0.25 -1.1
3.375 0.25 -1.1
3.5 0.25 -1.1
3.625 0.25 -1.1
3.75 0.25 -1.1
3.875 0.25 -1.1
4 0.25 -1.1
0 0.375 -1.1
0.125 0.375 -1.1
0.25 0.375 -1.1
0.375 0.375 -1.1
0.5 0.375 -1.1
0.625 0.375 -1.1
0.75 0.375 -1.1
0.875 0.375 -1.1
1 0.375 -1.1
1.125 0.375 -1.1
1.25 0.375 -1.1
1.375 0.375 -1.1
1.5 0.375 -1.1
1.625 0.375 -1.1
1.75 0.375 -1.1
1.875 0.375 -1.1
2 0.375 -1.1
2.125 0.375 -1.1
2.25 0.375 -1.1
2.375 0.375 -1.1
2.5 0.375 -1.1
2.625 0.375 -1.1
2.75 0.375 -1.1
2.875 0.375 -1.1
3 0.375 -1.1
3.125 0.375 -1.1
3.25 0.375 -1.1
3.375 0.375 -1.1
3.5 0.375 -1.1
3.625 0.375 -1.1
3.75 0.375 -1.1
3.875 0.375 -1.1
4 0.375 -1.1
0 0.5 -1.1
0.125 0.5 -1.1
0.25 0.5 -1.1
0.375 0.5 -1.1
0.5 0.5 -1.1
0.625 0.5 -1.1
0.75 0.5 -1.1
0.875 0.5 -1.1
1 0.5 -1.1
1.125 0.5 -1.1
1.25 0.5 -1.1
1.375 0.5 -1.1
1.5 0.5 -1.1
1.625 0.5 -1.1
1.75 0.5 -1.1
1.875 0.5 -1.1
2 0.5 -1.1
2.125 0.5 -1.1
2.25 0.5 -1.1
2.375 0.5 -1.1
2.5 0.5 -1.1
2.625 0.5 -1.1
2.75 0.5 -1.1
2.875 0.5 -1.1
3 0.5 -1.1
3.125 0.5 -1.1
3.25 0.5 -1.1
3.375 0.5 -1.1
3.5 0.5 -1.1
3.625 0.5 -1.1
3.75 0.5 -1.1
3.875 0.5 -1.1
4 0.5 -1.1
0 0.625 -1.1
0.125 0.625 -1.1
0.25 0.625 -1.1
0.375 0.625 -1.1
0.5 0.625 -1.1
0.625 0.625 -1.1
0.75 0.625 -1.1
0.875 0.625 -1.1
1 0.625 -1.1
1.125 0.625 -1.1
1.25 0.625 -1.1
1.375 0.625 -1.1
1.5 0.625 -1.1
1.625 0.625 -1.1
1.75 0.625 -1.1
1.875 0.625 -1.1
2 0.625 -1.1
2.125 0.625 -1.1
2.25 0.625 -1.1
2.375 0.625 -1.1
2.5 0.625 -1.1
2.625 0.625 -1.1
2.75 0.625 -1.1
2.875 0.625 -1.1
3 0.625 -1.1
3.125 0.625 -1.1
3.25 0.625 -1.1
3.375 0.625 -1.1
3.5 0.625 -1.1
3.625 0.625 -1.1
3.75 0.625 -1.1
3.875 0.625 -1.1
4 0.625 -1.1
0 0.75 -1.1
0.125 0.75 -1.1
0.25 0.75 -1.1
0.375 0.75 -1.1
0.5 0.75 -1.1
0.625 0.75 -1.1
0.75 0.75 -1.1
0.875 0.75 -1.1
1 0.75 -1.1
1.125 0.75 -1.1
1.25 0.75 -1.1
1.375 0.75 -1.1
1.5 0.75 -1.1
1.625 0.75 -1.1
1.75 0.75 -1.1
1.875 0.75 -1.1
2 0.75 -1.1
2.125 0.75 -1.1
2.25 0.75 -1.1
2.375 0.75 -1.1
2.5 0.75 -1.1
2.625 0.75 -1.1
2.75 0.75 -1.1
2.875 0.75 -1.1
3 0.75 -1.1
3.125 0.75 -1.1
3.25 0.75 -1.1
3.375 0.75 -1.1
3.5 0.75 -1.1
3.625 0.75 -1.1
3.75 0.75 -1.1
3.875 0.75 -1.1
4 0.75 -1.1
0 0.875 -1.1
0.125 0.875 -1.1
0.25 0.875 -1.1
0.375 0.875 -1.1
0.5 0.875 -1.1
0.625 0.875 -1.1
0.75 0.875 -1.1
0.875 0.875 -1.1
1 0.875 -1.1
1.125 0.875 -1.1
1.25 0.875 -1.1
1.375 0.875 -1.1
1.5 0.875 -1.1
1.625 0.875 -1.1
1.75 0.875 -1.1
1.875 0.875 -1.1
2 0.875 -1.1
2.125 0.875 -1.1
2.25 0.875 -1.1
2.375 0.875 -1.1
2.5 0.875 -1.1
2.625 0.875 -1.1
2.75 0.875 -1.1
2.875 0.875 -1.1
3 0.875 -1.1
3.125 0.875 -1.1
3.25 0.875 -1.1
3.375 0.875 -1.1
3.5 0.875 -1.1
3.625 0.875 -1.1
3.75 0.875 -1.1
3.875 0.875 -1.1
4 0.875 -1.1
0 1 -1.1
0.125 1 -1.1
0.25 1 -1.1
0.375 1 -1.1
0.5 1 -1.1
0.625 1 -1.1
0.75 1 -1.1
0.875 1 -1.1
1 1 -1.1
1.125 1 -1.1
1.25 1 -1.1
1.375 1 -1.1
1.5 1 -1.1
1.625 1 -1.1
1.75 1 -1.1
1.875 1 -1.1
2 1 -1.1
2.125 1 -1.1
2.25 1 -1.1
2.375 1 -1.1
2.5 1 -1.1
2.625 1 -1.1
2.75 1 -1.1
2.875 1 -1.1
3 1 -1.1
3.125 1 -1.1
3.25 1 -1.1
3.375 1 -1.1
3.5 1 -1.1
3.625 1 -1.1
3.75 1 -1.1
3.875 1 -1.1
4 1 -1.1
0 0 -0.975
0.125 0 -0.975
0.25 0 -0.975
0.375 0 -0.975
0.5 0 -0.975
0.625 0 -0.975
0.75 0 -0.975
0.875 0 -0.975
1 0 -0.975
1.125 0 -0.975
1.25 0 -0.975
1.375 0 -0.975
1.5 0 -0.975
1.625 0 -0.975
1.75 0 -0.975
1.875 0 -0.975
2 0 -0.975
2.125 0 -0.975
2.25 0 -0.975
2.375 0 -0.975
2.5 0 -0.975
2.625 0 -0.975
2.75 0 -0.975
2.875 0 -0.975
3 0 -0.975
3.125 0 -0.975
3.25 0 -0.975
3.375 0 -0.975
3.5 0 -0.975
3.625 0 -0.975
3.75 0 -0.975
3.875 0 -0.975
4 0 -0.975
0 0.125 -0.975
0.125 0.125 -0.975
0.25 0.125 -0.975
0.375 0.125 -0.975
0.5 0.125 -0.975
0.625 0.125 -0.975
0.75 0.125 -0.975
0.875 0.125 -0.975
1 0.125 -0.975
1.125 0.125 -0.975
1.25 0.125 -0.975
1.375 0.125 -0.975
1.5 0.125 -0.975
1.625 0.125 -0.975
1.75 0.125 -0.975
1.875 0.125 -0.975
2 0.125 -0.975
2.125 0.125 -0.975
2.25 0.125 -0.975
2.375 0.125 -0.975
2.5 0.125 -0.975
2.625 0.125 -0.975
2.75 0.125 -0.975
2.875 0.125 -0.975
3 0.125 -0.975
3.125 0.125 -0.975
3.25 0.125 -0.975
3.375 0.125 -0.975
3.5 0.125 -0.975
3.625 0.125 -0.975
3.75 0.125 -0.975
3.875 0.125 -0.975
4 0.125 -0.975
0 0.25 -0.975
0.125 0.25 -0.975
0.25 0.25 -0.975
0.375 0.25 -0.975
0.5 0.25 -0.975
0.625 0.25 -0.975
0.75 0.25 -0.975
0.875 0.25 -0.975
1 0.25 -0.975
1.125 0.25 -0.975
1.25 0.25 -0.975
1.375 0.25 -0.975
1.5 0.25 -0.975
1.625 0.25 -0.975
1.75 0.25 -0.975
1.875 0.25 -0.975
2 0.25 -0.975
2.125 0.25 -0.975
2.25 0.25 -0.975
2.375 0.25 -0.975
2.5 0.25 -0.975
2.625 0.25 -0.975
2.75 0.25 -0.975
2.875 0.25 -0.975
3 0.25 -0.975
3.125 0.25 -0.975
3.25 0.25 -0.975
3.375 0.25 -0.975
3.5 0.25 -0.975
3.625 0.25 -0.975
3.75 0.25 -0.975
3.875 0.25 -0.975
4 0.25 -0.975
0 0.375 -0.975
0.125 0.375 -0.975
0.25 0.375 -0.975
0.375 0.375 -0.975
0.5 0.375 -0.975
0.625 0.375 -0.975
0.75 0.375 -0.975
0.875 0.375 -0.975
1 0.375 -0.975
1.125 0.375 -0.975
1.25 0.375 -0.975
1.375 0.375 -0.975
1.5 0.375 -0.975
1.625 0.375 -0.975
1.75 0.375 -0.975
1.875 0.375 -0.975
2 0.375 -0.975
2.125 0.375 -0.975
2.25 0.375 -0.975
2.375 0.375 -0.975
2.5 0.375 -0.975
2.625 0.375 -0.975
2.75 0.375 -0.975
2.875 0.375 -0.975
3 0.375 -0.975
3.125 0.375 -0.975
3.25 0.375 -0.975
3.375 0.375 -0.975
3.5 0.375 -0.975
3.625 0.375 -0.975
3.75 0.375 -0.975
3.875 0.375 -0.975
4 0.375 -0.975
0 0.5 -0.975
0.125 0.5 -0.975
0.25 0.5 -0.975
0.375 0.5 -0.975
0.5 0.5 -0.975
0.625 0.5 -0.975
0.75 0.5 -0.975
0.875 0.5 -0.975
1 0.5 -0.975
1.125 0.5 -0.975
1.25 0.5 -0.975
1.375 0.5 -0.975
1.5 0.5 -0.975
1.625 0.5 -0.975
1.75 0.5 -0.975
1.875 0.5 -0.975
2 0.5 -0.975
2.125 0.5 -0.975
2.25 0.5 -0.975
2.375 0.5 -0.975
2.5 0.5 -0.975
2.625 0.5 -0.975
2.75 0.5 -0.975
2.875 0.5 -0.975
3 0.5 -0.975
3.125 0.5 -0.975
3.25 0.5 -0.975
3.375 0.5 -0.975
3.5 0.5 -0.975
3.625 0.5 -0.975
3.75 0.5 -0.975
3.875 0.5 -0.975
4 0.5 -0.975
0 0.625 -0.975
0.125 0.625 -0.975
0.25 0.625 -0.975
0.375 0.625 -0.975
0.5 0.625 -0.975
0.625 0.625 -0.975
0.75 0.625 -0.975
0.875 0.625 -0.975
1 0.625 -0.975
1.125 0.625 -0.975
1.25 0.625 -0.975
1.375 0.625 -0.975
1.5 0.625 -0.975
1.625 0.625 -0.975
1.75 0.625 -0.975
1.875 0.625 -0.975
2 0.625 -0.975
2.125 0.625 -0.975
2.25 0.625 -0.975
2.375 0.625 -0.975
2.5 0.625 -0.975
2.625 0.625 -0.975
2.75 0.625 -0.975
2.875 0.625 -0.975
3 0.625 -0.975
3.125 0.625 -0.975
3.25 0.625 -0.975
3.375 0.625 -0.975
3.5 0.625 -0.975
3.625 0.625 -0.975
3.75 0.625 -0.975
3.875 0.625 -0.975
4 0.625 -0.975
0 0.75 -0.975
0.125 0.75 -0.975
0.25 0.75 -0.975
0.375 0.75 -0.975
0.5 0.75 -0.975
0.625 0.75 -0.975
0.75 0.75 -0.975
0.875 0.75 -0.975
1 0.75 -0.975
1.125 0.75 -0.975
1.25 0.75 -0.975
1.375 0.75 -0.975
1.5 0.75 -0.975
1.625 0.75 -0.975
1.75 0.75 -0.975
1.875 0.75 -0.975
2 0.75 -0.975
2.125 0.75 -0.975
2.25 0.75 -0.975
2.375 0.75 -0.975
2.5 0.75 -0.975
2.625 0.75 -0.975
2.75 0.75 -0.975
2.875 0.75 -0.975
3 0.75 -0.975
3.125 0.75 -0.975
3.25 0.75 -0.975
3.375 0.75 -0.975
3.5 0.75 -0.975
3.625 0.75 -0.975
3.75 0.75 -0.975
3.875 0.75 -0.975
4 0.75 -0.975
0 0.875 -0.975
0.125 0.875 -0.975
0.25 0.875 -0.975
0.375 0.875 -0.975
0.5 0.875 -0.975
0.625 0.875 -0.975
0.75 0.875 -0.975
0.875 0.875 -0.975
1 0.875 -0.975
1.125 0.875 -0.975
1.25 0.875 -0.975
1.375 0.875 -0.975
1.5 0.875 -0.975
1.625 0.875 -0.975
1.75 0.875 -0.975
1.875 0.875 -0.975
2 0.875 -0.975
2.125 0.875 -0.975
2.25 0.875 -0.975
2.375 0.875 -0.975
2.5 0.875 -0.975
2.625 0.875 -0.975
2.75 0.875 -0.975
2.875 0.875 -0.975
3 0.875 -0.975
3.125 0.875 -0.975
3.25 0.875 -0.975
3.375 0.875 -0.975
3.5 0.875 -0.975
3.625 0.875 -0.975
3.75 0.875 -0.975
3.875 0.875 -0.975
4 0.875 -0.975
0 1 -0.975
0.125 1 -0.975
0.25 1 -0.975
0.375 1 -0.975
0.5 1 -0.975
0.625 1 -0.975
0.75 1 -0.975
0.875 1 -0.975
1 1 -0.975
1.125 1 -0.975
1.25 1 -0.975
1.375 1 -0.975
1.5 1 -0.975
1.625 1 -0.975
1.75 1 -0.975
1.875 1 -0.975
2 1 -0.975
2.125 1 -0.975
2.25 1 -0.975
2.375 1 -0.975
2.5 1 -0.975
2.625 1 -0.975
2.75 1 -0.975
2.875 1 -0.975
3 1 -0.975
3.125 1 -0.975
3.25 1 -0.975
3.375 1 -0.975
3.5 1 -0.975
3.625 1 -0.975
3.75 1 -0.975
3.875 1 -0.975
4 1 -0.975
0 0 -0.85
0.125 0 -0.85
0.25 0 -0.85
0.375 0 -0.85
0.5 0 -0.85
0.625 0 -0.85
0.75 0 -0.85
0.875 0 -0.85
1 0 -0.85
1.125 0 -0.85
1.25 0 -0.85
1.375 0 -0.85
1.5 0 -0.85
1.625 0 -0.85
1.75 0 -0.85
1.875 0 -0.85
2 0 -0.85
2.125 0 -0.85
2.25 0 -0.85
2.375 0 -0.85
2.5 0 -0.85
2.625 0 -0.85
2.75 0 -0.85
2.875 0 -0.85
3 0 -0.85
3.125 0 -0.85
3.25 0 -0.85
3.375 0 -0.85
3.5 0 -0.85
3.625 0 -0.85
3.75 0 -0.85
3.875 0 -0.85
4 0 -0.85
0 0.125 -0.85
0.125 0.125 -0.85
0.25 0.125 -0.85
0.375 0.125 -0.85
0.5 0.125 -0.85
0.625 0.125 -0.85
0.75 0.125 -0.85
0.875 0.125 -0.85
1 0.125 -0.85
1.125 0.125 -0.85
1.25 0.125 -0.85
1.375 0.125 -0.85
1.5 0.125 -0.85
1.625 0.125 -0.85
1.75 0.125 -0.85
1.875 0.125 -0.85
2 0.125 -0.85
2.125 0.125 -0.85
2.25 0.125 -0.85
2.375 0.125 -0.85
2.5 0.125 -0.85
2.625 0.125 -0.85
2.75 0.125 -0.85
2.875 0.125 -0.85
3 0.125 -0.85
3.125 0.125 -0.85
3.25 0.125 -0.85
3.375 0.125 -0.85
3.5 0.125 -0.85
3.625 0.125 -0.85
3.75 0.125 -0.85
3.875 0.125 -0.85
4 0.125 -0.85
0 0.25 -0.85
0.125 0.25 -0.85
0.25 0.25 -0.85
0.375 0.25 -0.85
0.5 0.25 -0.85
0.625 0.25 -0.85
0.75 0.25 -0.85
0.875 0.25 -0.85
1 0.25 -0.85
1.125 0.25 -0.85
1.25 0.25 -0.85
1.375 0.25 -0.85
1.5 0.25 -0.85
1.625 0.25 -0.85
1.75 0.25 -0.85
1.875 0.25 -0.85
2 0.25 -0.85
2.125 0.25 -0.85
2.25 0.25 -0.85
2.375 0.25 -0.85
2.5 0.25 -0.85
2.625 0.25 -0.85
2.75 0.25 -0.85
2.875 0.25 -0.85
3 0.25 -0.85
3.125 0.25 -0.85
3.25 0.25 -0.85
3.375 0.25 -0.85
3.5 0.25 -0.85
3.625 0.25 -0.85
3.75 0.25 -0.85
3.875 0.25 -0.85
4 0.25 -0.85
0 0.375 -0.85
0.125 0.375 -0.85
0.25 0.375 -0.85
0.375 0.375 -0.85
0.5 0.375 -0.85
0.625 0.375 -0.85
0.75 0.375 -0.85
0.875 0.375 -0.85
1 0.375 -0.85
1.125 0.375 -0.85
1.25 0.375 -0.85
1.375 0.375 -0.85
1.5 0.375 -0.85
1.625 0.375 -0.85
1.75 0.375 -0.85
1.875 0.375 -0.85
2 0.375 -0.85
2.125 0.375 -0.85
2.25 0.375 -0.85
2.375 0.375 -0.85
2.5 0.375 -0.85
2.625 0.375 -0.85
2.75 0.375 -0.85
2.875 0.375 -0.85
3 0.375 -0.85
3.125 0.375 -0.85
3.25 0.375 -0.85
3.375 0.375 -0.85
3.5 0.375 -0.85
3.625 0.375 -0.85
3.75 0.375 -0.85
3.875 0.375 -0.85
4 0.375 -0.85
0 0.5 -0.85
0.125 0.5 -0.85
0.25 0.5 -0.85
0.375 0.5 -0.85
0.5 0.5 -0.85
0.625 0.5 -0.85
0.75 0.5 -0.85
0.875 0.5 -0.85
1 0.5 -0.85
1.125 0.5 -0.85
1.25 0.5 -0.85
1.375 0.5 -0.85
1.5 0.5 -0.85
1.625 0.5 -0.85
1.75 0.5 -0.85
1.875 0.5 -0.85
2 0.5 -0.85
2.125 0.5 -0.85
2.25 0.5 -0.85
2.375 0.5 -0.85
2.5 0.5 -0.85
2.625 0.5 -0.85
2.75 0.5 -0.85
2.875 0.5 -0.85
3 0.5 -0.85
3.125 0.5 -0.85
3.25 0.5 -0.85
3.375 0.5 -0.85
3.5 0.5 -0.85
3.625 0.5 -0.85
3.75 0.5 -0.85
3.875 0.5 -0.85
4 0.5 -0.85
0 0.625 -0.85
0.125 0.625 -0.85
0.25 0.625 -0.85
0.375 0.625 -0.85
0.5 0.625 -0.85
0.625 0.625 -0.85
0.75 0.625 -0.85
0.875 0.625 -0.85
1 0.625 -0.85
1.125 0.625 -0.85
1.25 0.625 -0.85
1.375 0.625 -0.85
1.5 0.625 -0.85
1.625 0.625 -0.85
1.75 0.625 -0.85
1.875 0.625 -0.85
2 0.625 -0.85
2.125 0.625 -0.85
2.25 0.625 -0.85
2.375 0.625 -0.85
2.5 0.625 -0.85
2.625 0.625 -0.85
2.75 0.625 -0.85
2.875 0.625 -0.85
3 0.625 -0.85
3.125 0.625 -0.85
3.25 0.625 -0.85
3.375 0.625 -0.85
3.5 0.625 -0.85
3.625 0.625 -0.85
3.75 0.625 -0.85
3.875 0.625 -0.85
4 0.625 -0.85
0 0.75 -0.85
0.125 0.75 -0.85
0.25 0.75 -0.85
0.375 0.75 -0.85
0.5 0.75 -0.85
0.625 0.75 -0.85
0.75 0.75 -0.85
0.875 0.75 -0.85
1 0.75 -0.85
1.125 0.75 -0.85
1.25 0.75 -0.85
1.375 0.75 -0.85
1.5 0.75 -0.85
1.625 0.75 -0.85
1.75 0.75 -0.85
1.875 0.75 -0.85
2 0.75 -0.85
2.125 0.75 -0.85
2.25 0.75 -0.85
2.375 0.75 -0.85
2.5 0.75 -0.85
2.625 0.75 -0.85
2.75 0.75 -0.85
2.875 0.75 -0.85
3 0.75 -0.85
3.125 0.75 -0.85
3.25 0.75 -0.85
3.375 0.75 -0.85
3.5 0.75 -0.85
3.625 0.75 -0.85
3.75 0.75 -0.85
3.875 0.75 -0.85
4 0.75 -0.85
0 0.875 -0.85
0.125 0.875 -0.85
0.25 0.875 -0.85
0.375 0.875 -0.85
0.5 0.875 -0.85
0.625 0.875 -0.85
0.75 0.875 -0.85
0.875 0.875 -0.85
1 0.875 -0.85
1.125 0.875 -0.85
1.25 0.875 -0.85
1.375 0.875 -0.85
1.5 0.875 -0.85
1.625 0.875 -0.85
1.75 0.875 -0.85
1.875 0.875 -0.85
2 0.875 -0.85
2.125 0.875 -0.85
2.25 0.875 -0.85
2.375 0.875 -0.85
2.5 0.875 -0.85
2.625 0.875 -0.85
2.75 0.875 -0.85
2.875 0.875 -0.85
3 0.875 -0.85
3.125 0.875 -0.85
3.25 0.875 -0.85
3.375 0.875 -0.85
3.5 0.875 -0.85
3.625 0.875 -0.85
3.75 0.875 -0.85
3.875 0.875 -0.85
4 0.875 -0.85
0 1 -0.85
0.125 1 -0.85
0.25 1 -0.85
0.375 1 -0.85
0.5 1 -0.85
0.625 1 -0.85
0.75 1 -0.85
0.875 1 -0.85
1 1 -0.85
1.125 1 -0.85
1.25 1 -0.85
1.375 1 -0.85
1.5 1 -0.85
1.625 1 -0.85
1.75 1 -0.85
1.875 1 -0.85
2 1 -0.85
2.125 1 -0.85
2.25 1 -0.85
2.375 1 -0.85
2.5 1 -0.85
2.625 1 -0.85
2.75 1 -0.85
2.875 1 -0.85
3 1 -0.85
3.125 1 -0.85
3.25 1 -0.85
3.375 1 -0.85
3.5 1 -0.85
3.625 1 -0.85
3.75 1 -0.85
3.875 1 -0.85
4 1 -0.85
0 0 -0.725
0.125 0 -0.725
0.25 0 -0.725
0.375 0 -0.725
0.5 0 -0.725
0.625 0 -0.725
0.75 0 -0.725
0.875 0 -0.725
1 0 -0.725
1.125 0 -0.725
1.25 0 -0.725
1.375 0 -0.725
1.5 0 -0.725
1.625 0 -0.725
1.75 0 -0.725
1.875 0 -0.725
2 0 -0.725
2.125 0 -0.725
2.25 0 -0.725
2.375 0 -0.725
2.5 0 -0.725
2.625 0 -0.725
2.75 0 -0.725
2.875 0 -0.725
3 0 -0.725
3.125 0 -0.725
3.25 0 -0.725
3.375 0 -0.725
3.5 0 -0.725
3.625 0 -0.725
3.75 0 -0.725
3.875 0 -0.725
4 0 -0.725
0 0.125 -0.725
0.125 0.125 -0.725
0.25 0.125 -0.725
0.375 0.125 -0.725
0.5 0.125 -0.725
0.625 0.125 -0.725
0.75 0.125 -0.725
0.875 0.125 -0.725
1 0.125 -0.725
1.125 0.125 -0.725
1.25 0.125 -0.725
1.375 0.125 -0.725
1.5 0.125 -0.725
1.625 0.125 -0.725
1.75 0.125 -0.725
1.875 0.125 -0.725
2 0.125 -0.725
2.125 0.125 -0.725
2.25 0.125 -0.725
2.375 0.125 -0.725
2.5 0.125 -0.725
2.625 0.125 -0.725
2.75 0.125 -0.725
2.875 0.125 -0.725
3 0.125 -0.725
3.125 0.125 -0.725
3.25 0.125 -0.725
3.375 0.125 -0.725
3.5 0.125 -0.725
3.625 0.125 -0.725
3.75 0.125 -0.725
3.875 0.125 -0.725
4 0.125 -0.725
0 0.25 -0.725
0.125 0.25 -0.725
0.25 0.25 -0.725
0.375 0.25 -0.725
0.5 0.25 -0.725
0.625 0.25 -0.725
0.75 0.25 -0.725
0.875 0.25 -0.725
1 0.25 -0.725
1.125 0.25 -0.725
1.25 0.25 -0.725
1.375 0.25 -0.725
1.5 0.25 -0.725
1.625 0.25 -0.725
1.75 0.25 -0.725
1.875 0.25 -0.725
2 0.25 -0.725
2.125 0.25 -0.725
2.25 0.25 -0.725
2.375 0.25 -0.725
2.5 0.25 -0.725
2.625 0.25 -0.725
2.75 0.25 -0.725
2.875 0.25 -0.725
3 0.25 -0.725
3.125 0.25 -0.725
3.25 0.25 -0.725
3.375 0.25 -0.725
3.5 0.25 -0.725
3.625 0.25 -0.725
3.75 0.25 -0.725
3.875 0.25 -0.725
4 0.25 -0.725
0 0.375 -0.725
0.125 0.375 -0.725
0.25 0.375 -0.725
0.375 0.375 -0.725
0.5 0.375 -0.725
0.625 0.375 -0.725
0.75 0.375 -0.725
0.875 0.375 -0.725
1 0.375 -0.725
1.125 0.375 -0.725
1.25 0.375 -0.725
1.375 0.375 -0.725
1.5 0.375 -0.725
1.625 0.375 -0.725
1.75 0.375 -0.725
1.875 0.375 -0.725
2 0.375 -0.725
2.125 0.375 -0.725
2.25 0.375 -0.725
2.375 0.375 -0.725
2.5 0.375 -0.725
2.625 0.375 -0.725
2.75 0.375 -0.725
2.875 0.375 -0.725
3 0.375 -0.725
3.125 0.375 -0.725
3.25 0.375 -0.725
3.375 0.375 -0.725
3.5 0.375 -0.725
3.625 0.375 -0.725
3.75 0.375 -0.725
3.875 0.375 -0.725
4 0.375 -0.725
0 0.5 -0.725
0.125 0.5 -0.725
0.25 0.5 -0.725
0.375 0.5 -0.725
0.5 0.5 -0.725
0.625 0.5 -0.725
0.75 0.5 -0.725
0.875 0.5 -0.725
1 0.5 -0.725
1.125 0.5 -0.725
1.25 0.5 -0.725
1.375 0.5 -0.725
1.5 0.5 -0.725
1.625 0.5 -0.725
1.75 0.5 -0.725
1.875 0.5 -0.725
2 0.5 -0.725
2.125 0.5 -0.725
2.25 0.5 -0.725
2.375 0.5 -0.725
2.5 0.5 -0.725
2.625 0.5 -0.725
2.75 0.5 -0.725
2.875 0.5 -0.725
3 0.5 -0.725
3.125 0.5 -0.725
3.25 0.5 -0.725
3.375 0.5 -0.725
3.5 0.5 -0.725
3.625 0.5 -0.725
3.75 0.5 -0.725
3.875 0.5 -0.725
4 0.5 -0.725
0 0.625 -0.725
0.125 0.625 -0.725
0.25 0.625 -0.725
0.375 0.625 -0.725
0.5 0.625 -0.725
0.625 0.625 -0.725
0.75 0.625 -0.725
0.875 0.625 -0.725
1 0.625 -0.725
1.125 0.625 -0.725
1.25 0.625 -0.725
1.375 0.625 -0.725
1.5 0.625 -0.725
1.625 0.625 -0.725
1.75 0.625 -0.725
1.875 0.625 -0.725
2 0.625 -0.725
2.125 0.625 -0.725
2.25 0.625 -0.725
2.375 0.625 -0.725
2.5 0.625 -0.725
2.625 0.625 -0.725
2.75 0.625 -0.725
2.875 0.625 -0.725
3 0.625 -0.725
3.125 0.625 -0.725
3.25 0.625 -0.725
3.375 0.625 -0.725
3.5 0.625 -0.725
3.625 0.625 -0.725
3.75 0.625 -0.725
3.875 0.625 -0.725
4 0.625 -0.725
0 0.75 -0.725
0.125 0.75 -0.725
0.25 0.75 -0.725
0.375 0.75 -0.725
0.5 0.75 -0.725
0.625 0.75 -0.725
0.75 0.75 -0.725
0.875 0.75 -0.725
1 0.75 -0.725
1.125 0.75 -0.725
1.25 0.75 -0.725
1.375 0.75 -0.725
1.5 0.75 -0.725
1.625 0.75 -0.725
1.75 0.75 -0.725
1.875 0.75 -0.725
2 0.75 -0.725
2.125 0.75 -0.725
2.25 0.75 -0.725
2.375 0.75 -0.725
2.5 0.75 -0.725
2.625 0.75 -0.725
2.75 0.75 -0.725
2.875 0.75 -0.725
3 0.75 -0.725
3.125 0.75 -0.725
3.25 0.75 -0.725
3.375 0.75 -0.725
3.5 0.75 -0.725
3.625 0.75 -0.725
3.75 0.75 -0.725
3.875 0.75 -0.725
4 0.75 -0.725
0 0.875 -0.725
0.125 0.875 -0.725
0.25 0.875 -0.725
0.375 0.875 -0.725
0.5 0.875 -0.725
0.625 0.875 -0.725
0.75 0.875 -0.725
0.875 0.875 -0.725
1 0.875 -0.725
1.125 0.875 -0.725
1.25 0.875 -0.725
1.375 0.875 -0.725
1.5 0.875 -0.725
1.625 0.875 -0.725
1.75 0.875 -0.725
1.875 0.875 -0.725
2 0.875 -0.725
2.125 0.875 -0.725
2.25 0.875 -0.725
2.375 0.875 -0.725
2.5 0.875 -0.725
2.625 0.875 -0.725
2.75 0.875 -0.725
2.875 0.875 -0.725
3 0.875 -0.725
3.125 0.875 -0.725
3.25 0.875 -0.725
3.375 0.875 -0.725
3.5 0.875 -0.725
3.625 0.875 -0.725
3.75 0.875 -0.725
3.875 0.875 -0.725
4 0.875 -0.725
0 1 -0.725
0.125 1 -0.725
0.25 1 -0.725
0.375 1 -0.725
0.5 1 -0.725
0.625 1 -0.725
0.75 1 -0.725
0.875 1 -0.725
1 1 -0.725
1.125 1 -0.725
1.25 1 -0.725
1.375 1 -0.725
1.5 1 -0.725
1.625 1 -0.725
1.75 1 -0.725
1.875 1 -0.725
2 1 -0.725
2.125 1 -0.725
2.25 1 -0.725
2.375 1 -0.725
2.5 1 -0.725
2.625 1 -0.725
2.75 1 -0.725
2.875 1 -0.725
3 1 -0.725
3.125 1 -0.725
3.25 1 -0.725
3.375 1 -0.725
3.5 1 -0.725
3.625 1 -0.725
3.75 1 -0.725
3.875 1 -0.725
4 1 -0.725
0 0 -0.6
0.125 0 -0.6
0.25 0 -0.6
0.375 0 -0.6
0.5 0 -0.6
0.625 0 -0.6
0.75 0 -0.6
0.875 0 -0.6
1 0 -0.6
1.125 0 -0.6
1.25 0 -0.6
1.375 0 -0.6
1.5 0 -0.6
1.625 0 -0.6
1.75 0 -0.6
1.875 0 -0.6
2 0 -0.6
2.125 0 -0.6
2.25 0 -0.6
2.375 0 -0.6
2.5 0 -0.6
2.625 0 -0.6
2.75 0 -0.6
2.875 0 -0.6
3 0 -0.6
3.125 0 -0.6
3.25 0 -0.6
3.375 0 -0.6
3.5 0 -0.6
3.625 0 -0.6
3.75 0 -0.6
3.875 0 -0.6
4 0 -0.6
0 0.125 -0.6
0.125 0.125 -0.6
0.25 0.125 -0.6
0.375 0.125 -0.6
0.5 0.125 -0.6
0.625 0.125 -0.6
0.75 0.125 -0.6
0.875 0.125 -0.6
1 0.125 -0.6
1.125 0.125 -0.6
1.25 0.125 -0.6
1.375 0.125 -0.6
1.5 0.125 -0.6
1.625 0.125 -0.6
1.75 0.125 -0.6
1.875 0.125 -0.6
2 0.125 -0.6
2.125 0.125 -0.6
2.25 0.125 -0.6
2.375 0.125 -0.6
2.5 0.125 -0.6
2.625 0.125 -0.6
2.75 0.125 -0.6
2.875 0.125 -0.6
3 0.125 -0.6
3.125 0.125 -0.6
3.25 0.125 -0.6
3.375 0.125 -0.6
3.5 0.125 -0.6
3.625 0.125 -0.6
3.75 0.125 -0.6
3.875 0.125 -0.6
4 0.125 -0.6
0 0.25 -0.6
0.125 0.25 -0.6
0.25 0.25 -0.6
0.375 0.25 -0.6
0.5 0.25 -0.6
0.625 0.25 -0.6
0.75 0.25 -0.6
0.875 0.25 -0.6
1 0.25 -0.6
1.125 0.25 -0.6
1.25 0.25 -0.6
1.375 0.25 -0.6
1.5 0.25 -0.6
1.625 0.25 -0.6
1.75 0.25 -0.6
1.875 0.25 -0.6
2 0.25 -0.6
2.125 0.25 -0.6
2.25 0.25 -0.6
2.375 0.25 -0.6
2.5 0.25 -0.6
2.625 0.25 -0.6
2.75 0.25 -0.6
2.875 0.25 -0.6
3 0.25 -0.6
3.125 0.25 -0.6
3.25 0.25 -0.6
3.375 0.25 -0.6
3.5 0.25 -0.6
3.625 0.25 -0.6
3.75 0.25 -0.6
3.875 0.25 -0.6
4 0.25 -0.6
0 0.375 -0.6
0.125 0.375 -0.6
0.25 0.375 -0.6
0.375 0.375 -0.6
0.5 0.375 -0.6
0.625 0.375 -0.6
0.75 0.375 -0.6
0.875 0.375 -0.6
1 0.375 -0.6
1.125 0.375 -0.6
1.25 0.375 -0.6
1.375 0.375 -0.6
1.5 0.375 -0.6
1.625 0.375 -0.6
1.75 0.375 -0.6
1.875 0.375 -0.6
2 0.375 -0.6
2.125 0.375 -0.6
2.25 0.375 -0.6
2.375 0.375 -0.6
2.5 0.375 -0.6
2.625 0.375 -0.6
2.75 0.375 -0.6
2.875 0.375 -0.6
3 0.375 -0.6
3.125 0.375 -0.6
3.25 0.375 -0.6
3.375 0.375 -0.6
3.5 0.375 -0.6
3.625 0.375 -0.6
3.75 0.375 -0.6
3.875 0.375 -0.6
4 0.375 -0.6
0 0.5 -0.6
0.125 0.5 -0.6
0.25 0.5 -0.6
0.375 0.5 -0.6
0.5 0.5 -0.6
0.625 0.5 -0.6
0.75 0.5 -0.6
0.875 0.5 -0.6
1 0.5 -0.6
1.125 0.5 -0.6
1.25 0.5 -0.6
1.375 0.5 -0.6
1.5 0.5 -0.6
1.625 0.5 -0.6
1.75 0.5 -0.6
1.875 0.5 -0.6
2 0.5 -0.6
2.125 0.5 -0.6
2.25 0.5 -0.6
2.375 0.5 -0.6
2.5 0.5 -0.6
2.625 0.5 -0.6
2.75 0.5 -0.6
2.875 0.5 -0.6
3 0.5 -0.6
3.125 0.5 -0.6
3.25 0.5 -0.6
3.375 0.5 -0.6
3.5 0.5 -0.6
3.625 0.5 -0.6
3.75 0.5 -0.6
3.875 0.5 -0.6
4 0.5 -0.6
0 0.625 -0.6
0.125 0.625 -0.6
0.25 0.625 -0.6
0.375 0.625 -0.6
0.5 0.625 -0.6
0.625 0.625 -0.6
0.75 0.625 -0.6
0.875 0.625 -0.6
1 0.625 -0.6
1.125 0.625 -0.6
1.25 0.625 -0.6
1.375 0.625 -0.6
1.5 0.625 -0.6
1.625 0.625 -0.6
1.75 0.625 -0.6
1.875 0.625 -0.6
2 0.625 -0.6
2.125 0.625 -0.6
2.25 0.625 -0.6
2.375 0.625 -0.6
2.5 0.625 -0.6
2.625 0.625 -0.6
2.75 0.625 -0.6
2.875 0.625 -0.6
3 0.625 -0.6
3.125 0.625 -0.6
3.25 0.625 -0.6
3.375 0.625 -0.6
3.5 0.625 -0.6
3.625 0.625 -0.6
3.75 0.625 -0.6
3.875 0.625 -0.6
4 0.625 -0.6
0 0.75 -0.6
0.125 0.75 -0.6
0.25 0.75 -0.6
0.375 0.75 -0.6
0.5 0.75 -0.6
0.625 0.75 -0.6
0.75 0.75 -0.6
0.875 0.75 -0.6
1 0.75 -0.6
1.125 0.75 -0.6
1.25 0.75 -0.6
1.375 0.75 -0.6
1.5 0.75 -0.6
1.625 0.75 -0.6
1.75 0.75 -0.6
1.875 0.75 -0.6
2 0.75 -0.6
2.125 0.75 -0.6
2.25 0.75 -0.6
2.375 0.75 -0.6
2.5 0.75 -0.6
2.625 0.75 -0.6
2.75 0.75 -0.6
2.875 0.75 -0.6
3 0.75 -0.6
3.125 0.75 -0.6
3.25 0.75 -0.6
3.375 0.75 -0.6
3.5 0.75 -0.6
3.625 0.75 -0.6
3.75 0.75 -0.6
3.875 0.75 -0.6
4 0.75 -0.6
0 0.875 -0.6
0.125 0.875 -0.6
0.25 0.875 -0.6
0.375 0.875 -0.6
0.5 0.875 -0.6
0.625 0.875 -0.6
0.75 0.875 -0.6
0.875 0.875 -0.6
1 0.875 -0.6
1.125 0.875 -0.6
1.25 0.875 -0.6
1.375 0.875 -0.6
1.5 0.875 -0.6
1.625 0.875 -0.6
1.75 0.875 -0.6
1.875 0.875 -0.6
2 0.875 -0.6
2.125 0.875 -0.6
2.25 0.875 -0.6
2.375 0.875 -0.6
2.5 0.875 -0.6
2.625 0.875 -0.6
2.75 0.875 -0.6
2.875 0.875 -0.6
3 0.875 -0.6
3.125 0.875 -0.6
3.25 0.875 -0.6
3.375 0.875 -0.6
3.5 0.875 -0.6
3.625 0.875 -0.6
3.75 0.875 -0.6
3.875 0.875 -0.6
4 0.875 -0.6
0 1 -0.6
0.125 1 -0.6
0.25 1 -0.6
0.375 1 -0.6
0.5 1 -0.6
0.625 1 -0.6
0.75 1 -0.6
0.875 1 -0.6
1 1 -0.6
1.125 1 -0.6
1.25 1 -0.6
1.375 1 -0.6
1.5 1 -0.6
1.625 1 -0.6
1.75 1 -0.6
1.875 1 -0.6
2 1 -0.6
2.125 1 -0.6
2.25 1 -0.6
2.375 1 -0.6
2.5 1 -0.6
2.625 1 -0.6
2.75 1 -0.6
2.875 1 -0.6
3 1 -0.6
3.125 1 -0.6
3.25 1 -0.6
3.375 1 -0.6
3.5 1 -0.6
3.625 1 -0.6
3.75 1 -0.6
3.875 1 -0.6
4 1 -0.6
0 0 -0.475
0.125 0 -0.475
0.25 0 -0.475
0.375 0 -0.475
0.5 0 -0.475
0.625 0 -0.475
0.75 0 -0.475
0.875 0 -0.475
1 0 -0.475
1.125 0 -0.475
1.25 0 -0.475
1.375 0 -0.475
1.5 0 -0.475
1.625 0 -0.475
1.75 0 -0.475
1.875 0 -0.475
2 0 -0.475
2.125 0 -0.475
2.25 0 -0.475
2.375 0 -0.475
2.5 0 -0.475
2.625 0 -0.475
2.75 0 -0.475
2.875 0 -0.475
3 0 -0.475
3.125 0 -0.475
3.25 0 -0.475
3.375 0 -0.475
3.5 0 -0.475
3.625 0 -0.475
3.75 0 -0.475
3.875 0 -0.475
4 0 -0.475
0 0.125 -0.475
0.125 0.125 -0.475
0.25 0.125 -0.475
0.375 0.125 -0.475
0.5 0.125 -0.475
0.625 0.125 -0.475
0.75 0.125 -0.475
0.875 0.125 -0.475
1 0.125 -0.475
1.125 0.125 -0.475
1.25 0.125 -0.475
1.375 0.125 -0.475
1.5 0.125 -0.475
1.625 0.125 -0.475
1.75 0.125 -0.475
1.875 0.125 -0.475
2 0.125 -0.475
2.125 0.125 -0.475
2.25 0.125 -0.475
2.375 0.125 -0.475
2.5 0.125 -0.475
2.625 0.125 -0.475
2.75 0.125 -0.475
2.875 0.125 -0.475
3 0.125 -0.475
3.125 0.125 -0.475
3.25 0.125 -0.475
3.375 0.125 -0.475
3.5 0.125 -0.475
3.625 0.125 -0.475
3.75 0.125 -0.475
3.875 0.125 -0.475
4 0.125 -0.475
0 0.25 -0.475
0.125 0.25 -0.475
0.25 0.25 -0.475
0.375 0.25 -0.475
0.5 0.25 -0.475
0.625 0.25 -0.475
0.75 0.25 -0.475
0.875 0.25 -0.475
1 0.25 -0.475
1.125 0.25 -0.475
1.25 0.25 -0.475
1.375 0.25 -0.475
1.5 0.25 -0.475
1.625 0.25 -0.475
1.75 0.25 -0.475
1.875 0.25 -0.475
2 0.25 -0.475
2.125 0.25 -0.475
2.25 0.25 -0.475
2.375 0.25 -0.475
2.5 0.25 -0.475
2.625 0.25 -0.475
2.75 0.25 -0.475
2.875 0.25 -0.475
3 0.25 -0.475
3.125 0.25 -0.475
3.25 0.25 -0.475
3.375 0.25 -0.475
3.5 0.25 -0.475
3.625 0.25 -0.475
3.75 0.25 -0.475
3.875 0.25 -0.475
4 0.25 -0.475
0 0.375 -0.475
0.125 0.375 -0.475
0.25 0.375 -0.475
0.375 0.375 -0.475
0.5 0.375 -0.475
0.625 0.375 -0.475
0.75 0.375 -0.475
0.875 0.375 -0.475
1 0.375 -0.475
1.125 0.375 -0.475
1.25 0.375 -0.475
1.375 0.375 -0.475
1.5 0.375 -0.475
1.625 0.375 -0.475
1.75 0.375 -0.475
1.875 0.375 -0.475
2 0.375 -0.475
2.125 0.375 -0.475
2.25 0.375 -0.475
2.375 0.375 -0.475
2.5 0.375 -0.475
2.625 0.375 -0.475
2.75 0.375 -0.475
2.875 0.375 -0.475
3 0.375 -0.475
3.125 0.375 -0.475
3.25 0.375 -0.475
3.375 0.375 -0.475
3.5 0.375 -0.475
3.625 0.375 -0.475
3.75 0.375 -0.475
3.875 0.375 -0.475
4 0.375 -0.475
0 0.5 -0.475
0.125 0.5 -0.475
0.25 0.5 -0.475
0.375 0.5 -0.475
0.5 0.5 -0.475
0.625 0.5 -0.475
0.75 0.5 -0.475
0.875 0.5 -0.475
1 0.5 -0.475
1.125 0.5 -0.475
1.25 0.5 -0.475
1.375 0.5 -0.475
1.5 0.5 -0.475
1.625 0.5 -0.475
1.75 0.5 -0.475
1.875 0.5 -0.475
2 0.5 -0.475
2.125 0.5 -0.475
2.25 0.5 -0.475
2.375 0.5 -0.475
2.5 0.5 -0.475
2.625 0.5 -0.475
2.75 0.5 -0.475
2.875 0.5 -0.475
3 0.5 -0.475
3.125 0.5 -0.475
3.25 0.5 -0.475
3.375 0.5 -0.475
3.5 0.5 -0.475
3.625 0.5 -0.475
3.75 0.5 -0.475
3.875 0.5 -0.475
4 0.5 -0.475
0 0.625 -0.475
0.125 0.625 -0.475
0.25 0.625 -0.475
0.375 0.625 -0.475
0.5 0.625 -0.475
0.625 0.625 -0.475
0.75 0.625 -0.475
0.875 0.625 -0.475
1 0.625 -0.475
1.125 0.625 -0.475
1.25 0.625 -0.475
1.375 0.625 -0.475
1.5 0.625 -0.475
1.625 0.625 -0.475
1.75 0.625 -0.475
1.875 0.625 -0.475
2 0.625 -0.475
2.125 0.625 -0.475
2.25 0.625 -0.475
2.375 0.625 -0.475
2.5 0.625 -0.475
2.625 0.625 -0.475
2.75 0.625 -0.475
2.875 0.625 -0.475
3 0.625 -0.475
3.125 0.625 -0.475
3.25 0.625 -0.475
3.375 0.625 -0.475
3.5 0.625 -0.475
3.625 0.625 -0.475
3.75 0.625 -0.475
3.875 0.625 -0.475
4 0.625 -0.475
0 0.75 -0.475
0.125 0.75 -0.475
0.25 0.75 -0.475
0.375 0.75 -0.475
0.5 0.75 -0.475
0.625 0.75 -0.475
0.75 0.75 -0.475
0.875 0.75 -0.475
1 0.75 -0.475
1.125 0.75 -0.475
1.25 0.75 -0.475
1.375 0.75 -0.475
1.5 0.75 -0.475
1.625 0.75 -0.475
1.75 0.75 -0.475
1.875 0.75 -0.475
2 0.75 -0.475
2.125 0.75 -0.475
2.25 0.75 -0.475
2.375 0.75 -0.475
2.5 0.75 -0.475
2.625 0.75 -0.475
2.75 0.75 -0.475
2.875 0.75 -0.475
3 0.75 -0.475
3.125 0.75 -0.475
3.25 0.75 -0.475
3.375 0.75 -0.475
3.5 0.75 -0.475
3.625 0.75 -0.475
3.75 0.75 -0.475
3.875 0.75 -0.475
4 0.75 -0.475
0 0.875 -0.475
0.125 0.875 -0.475
0.25 0.875 -0.475
0.375 0.875 -0.475
0.5 0.875 -0.475
0.625 0.875 -0.475
0.75 0.875 -0.475
0.875 0.875 -0.475
1 0.875 -0.475
1.125 0.875 -0.475
1.25 0.875 -0.475
1.375 0.875 -0.475
1.5 0.875 -0.475
1.625 0.875 -0.475
1.75 0.875 -0.475
1.875 0.875 -0.475
2 0.875 -0.475
2.125 0.875 -0.475
2.25 0.875 -0.475
2.375 0.875 -0.475
2.5 0.875 -0.475
2.625 0.875 -0.475
2.75 0.875 -0.475
2.875 0.875 -0.475
3 0.875 -0.475
3.125 0.875 -0.475
3.25 0.875 -0.475
3.375 0.875 -0.475
3.5 0.875 -0.475
3.625 0.875 -0.475
3.75 0.875 -0.475
3.875 0.875 -0.475
4 0.875 -0.475
0 1 -0.475
0.125 1 -0.475
0.25 1 -0.475
0.375 1 -0.475
0.5 1 -0.475
0.625 1 -0.475
0.75 1 -0.475
0.875 1 -0.475
1 1 -0.475
1.125 1 -0.475
1.25 1 -0.475
1.375 1 -0.475
1.5 1 -0.475
1.625 1 -0.475
1.75 1 -0.475
1.875 1 -0.475
2 1 -0.475
2.125 1 -0.475
2.25 1 -0.475
2.375 1 -0.475
2.5 1 -0.475
2.625 1 -0.475
2.75 1 -0.475
2.875 1 -0.475
3 1 -0.475
3.125 1 -0.475
3.25 1 -0.475
3.375 1 -0.475
3.5 1 -0.475
3.625 1 -0.475
3.75 1 -0.475
3.875 1 -0.475
4 1 -0.475
0 0 -0.35
0.125 0 -0.35
0.25 0 -0.35
0.375 0 -0.35
0.5 0 -0.35
0.625 0 -0.35
0.75 0 -0.35
0.875 0 -0.35
1 0 -0.35
1.125 0 -0.35
1.25 0 -0.35
1.375 0 -0.35
1.5 0 -0.35
1.625 0 -0.35
1.75 0 -0.35
1.875 0 -0.35
2 0 -0.35
2.125 0 -0.35
2.25 0 -0.35
2.375 0 -0.35
2.5 0 -0.35
2.625 0 -0.35
2.75 0 -0.35
2.875 0 -0.35
3 0 -0.35
3.125 0 -0.35
3.25 0 -0.35
3.375 0 -0.35
3.5 0 -0.35
3.625 0 -0.35
3.75 0 -0.35
3.875 0 -0.35
4 0 -0.35
0 0.125 -0.35
0.125 0.125 -0.35
0.25 0.125 -0.35
0.375 0.125 -0.35
0.5 0.125 -0.35
0.625 0.125 -0.35
0.75 0.125 -0.35
0.875 0.125 -0.35
1 0.125 -0.35
1.125 0.125 -0.35
1.25 0.125 -0.35
1.375 0.125 -0.35
1.5 0.125 -0.35
1.625 0.125 -0.35
1.75 0.125 -0.35
1.875 0.125 -0.35
2 0.125 -0.35
2.125 0.125 -0.35
2.25 0.125 -0.35
2.375 0.125 -0.35
2.5 0.125 -0.35
2.625 0.125 -0.35
2.75 0.125 -0.35
2.875 0.125 -0.35
3 0.125 -0.35
3.125 0.125 -0.35
3.25 0.125 -0.35
3.375 0.125 -0.35
3.5 0.125 -0.35
3.625 0.125 -0.35
3.75 0.125 -0.35
3.875 0.125 -0.35
4 0.125 -0.35
0 0.25 -0.35
0.125 0.25 -0.35
0.25 0.25 -0.35
0.375 0.25 -0.35
0.5 0.25 -0.35
0.625 0.25 -0.35
0.75 0.25 -0.35
0.875 0.25 -0.35
1 0.25 -0.35
1.125 0.25 -0.35
1.25 0.25 -0.35
1.375 0.25 -0.35
1.5 0.25 -0.35
1.625 0.25 -0.35
1.75 0.25 -0.35
1.875 0.25 -0.35
2 0.25 -0.35
2.125 0.25 -0.35
2.25 0.25 -0.35
2.375 0.25 -0.35
2.5 0.25 -0.35
2.625 0.25 -0.35
2.75 0.25 -0.35
2.875 0.25 -0.35
3 0.25 -0.35
3.125 0.25 -0.35
3.25 0.25 -0.35
3.375 0.25 -0.35
3.5 0.25 -0.35
3.625 0.25 -0.35
3.75 0.25 -0.35
3.875 0.25 -0.35
4 0.25 -0.35
0 0.375 -0.35
0.125 0.375 -0.35
0.25 0.375 -0.35
0.375 0.375 -0.35
0.5 0.375 -0.35
0.625 0.375 -0.35
0.75 0.375 -0.35
0.875 0.375 -0.35
1 0.375 -0.35
1.125 0.375 -0.35
1.25 0.375 -0.35
1.375 0.375 -0.35
1.5 0.375 -0.35
1.625 0.375 -0.35
1.75 0.375 -0.35
1.875 0.375 -0.35
2 0.375 -0.35
2.125 0.375 -0.35
2.25 0.375 -0.35
2.375 0.375 -0.35
2.5 0.375 -0.35
2.625 0.375 -0.35
2.75 0.375 -0.35
2.875 0.375 -0.35
3 0.375 -0.35
3.125 0.375 -0.35
3.25 0.375 -0.35
3.375 0.375 -0.35
3.5 0.375 -0.35
3.625 0.375 -0.35
3.75 0.375 -0.35
3.875 0.375 -0.35
4 0.375 -0.35
0 0.5 -0.35
0.125 0.5 -0.35
0.25 0.5 -0.35
0.375 0.5 -0.35
0.5 0.5 -0.35
0.625 0.5 -0.35
0.75 0.5 -0.35
0.875 0.5 -0.35
1 0.5 -0.35
1.125 0.5 -0.35
1.25 0.5 -0.35
1.375 0.5 -0.35
1.5 0.5 -0.35
1.625 0.5 -0.35
1.75 0.5 -0.35
1.875 0.5 -0.35
2 0.5 -0.35
2.125 0.5 -0.35
2.25 0.5 -0.35
2.375 0.5 -0.35
2.5 0.5 -0.35
2.625 0.5 -0.35
2.75 0.5 -0.35
2.875 0.5 -0.35
3 0.5 -0.35
3.125 0.5 -0.35
3.25 0.5 -0.35
3.375 0.5 -0.35
3.5 0.5 -0.35
3.625 0.5 -0.35
3.75 0.5 -0.35
3.875 0.5 -0.35
4 0.5 -0.35
0 0.625 -0.35
0.125 0.625 -0.35
0.25 0.625 -0.35
0.375 0.625 -0.35
0.5 0.625 -0.35
0.625 0.625 -0.35
0.75 0.625 -0.35
0.875 0.625 -0.35
1 0.625 -0.35
1.125 0.625 -0.35
1.25 0.625 -0.35
1.375 0.625 -0.35
1.5 0.625 -0.35
1.625 0.625 -0.35
1.75 0.625 -0.35
1.875 0.625 -0.35
2 0.625 -0.35
2.125 0.625 -0.35
2.25 0.625 -0.35
2.375 0.625 -0.35
2.5 0.625 -0.35
2.625 0.625 -0.35
2.75 0.625 -0.35
2.875 0.625 -0.35
3 0.625 -0.35
3.125 0.625 -0.35
3.25 0.625 -0.35
3.375 0.625 -0.35
3.5 0.625 -0.35
3.625 0.625 -0.35
3.75 0.625 -0.35
3.875 0.625 -0.35
4 0.625 -0.35
0 0.75 -0.35
0.125 0.75 -0.35
0.25 0.75 -0.35
0.375 0.75 -0.35
0.5 0.75 -0.35
0.625 0.75 -0.35
0.75 0.75 -0.35
0.875 0.75 -0.35
1 0.75 -0.35
1.125 0.75 -0.35
1.25 0.75 -0.35
1.375 0.75 -0.35
1.5 0.75 -0.35
1.625 0.75 -0.35
1.75 0.75 -0.35
1.875 0.75 -0.35
2 0.75 -0.35
2.125 0.75 -0.35
2.25 0.75 -0.35
2.375 0.75 -0.35
2.5 0.75 -0.35
2.625 0.75 -0.35
2.75 0.75 -0.35
2.875 0.75 -0.35
3 0.75 -0.35
3.125 0.75 -0.35
3.25 0.75 -0.35
3.375 0.75 -0.35
3.5 0.75 -0.35
3.625 0.75 -0.35
3.75 0.75 -0.35
3.875 0.75 -0.35
4 0.75 -0.35
0 0.875 -0.35
0.125 0.875 -0.35
0.25 0.875 -0.35
0.375 0.875 -0.35
0.5 0.875 -0.35
0.625 0.875 -0.35
0.75 0.875 -0.35
0.875 0.875 -0.35
1 0.875 -0.35
1.125 0.875 -0.35
1.25 0.875 -0.35
1.375 0.875 -0.35
1.5 0.875 -0.35
1.625 0.875 -0.35
1.75 0.875 -0.35
1.875 0.875 -0.35
2 0.875 -0.35
2.125 0.875 -0.35
2.25 0.875 -0.35
2.375 0.875 -0.35
2.5 0.875 -0.35
2.625 0.875 -0.35
2.75 0.875 -0.35
2.875 0.875 -0.35
3 0.875 -0.35
3.125 0.875 -0.35
3.25 0.875 -0.35
3.375 0.875 -0.35
3.5 0.875 -0.35
3.625 0.875 -0.35
3.75 0.875 -0.35
3.875 0.875 -0.35
4 0.875 -0.35
0 1 -0.35
0.125 1 -0.35
0.25 1 -0.35
0.375 1 -0.35
0.5 1 -0.35
0.625 1 -0.35
0.75 1 -0.35
0.875 1 -0.35
1 1 -0.35
1.125 1 -0.35
1.25 1 -0.35
1.375 1 -0.35
1.5 1 -0.35
1.625 1 -0.35
1.75 1 -0.35
1.875 1 -0.35
2 1 -0.35
2.125 1 -0.35
2.25 1 -0.35
2.375 1 -0.35
2.5 1 -0.35
2.625 1 -0.35
2.75 1 -0.35
2.875 1 -0.35
3 1 -0.35
3.125 1 -0.35
3.25 1 -0.35
3.375 1 -0.35
3.5 1 -0.35
3.625 1 -0.35
3.75 1 -0.35
3.875 1 -0.35
4 1 -0.35
0 0 -0.225
0.125 0 -0.225
0.25 0 -0.225
0.375 0 -0.225
0.5 0 -0.225
0.625 0 -0.225
0.75 0 -0.225
0.875 0 -0.225
1 0 -0.225
1.125 0 -0.225
1.25 0 -0.225
1.375 0 -0.225
1.5 0 -0.225
1.625 0 -0.225
1.75 0 -0.225
1.875 0 -0.225
2 0 -0.225
2.125 0 -0.225
2.25 0 -0.225
2.375 0 -0.225
2.5 0 -0.225
2.625 0 -0.225
2.75 0 -0.225
2.875 0 -0.225
3 0 -0.225
3.125 0 -0.225
3.25 0 -0.225
3.375 0 -0.225
3.5 0 -0.225
3.625 0 -0.225
3.75 0 -0.225
3.875 0 -0.225
4 0 -0.225
0 0.125 -0.225
0.125 0.125 -0.225
0.25 0.125 -0.225
0.375 0.125 -0.225
0.5 0.125 -0.225
0.625 0.125 -0.225
0.75 0.125 -0.225
0.875 0.125 -0.225
1 0.125 -0.225
1.125 0.125 -0.225
1.25 0.125 -0.225
1.375 0.125 -0.225
1.5 0.125 -0.225
1.625 0.125 -0.225
1.75 0.125 -0.225
1.875 0.125 -0.225
2 0.125 -0.225
2.125 0.125 -0.225
2.25 0.125 -0.225
2.375 0.125 -0.225
2.5 0.125 -0.225
2.625 0.125 -0.225
2.75 0.125 -0.225
2.875 0.125 -0.225
3 0.125 -0.225
3.125 0.125 -0.225
3.25 0.125 -0.225
3.375 0.125 -0.225
3.5 0.125 -0.225
3.625 0.125 -0.225
3.75 0.125 -0.225
3.875 0.125 -0.225
4 0.125 -0.225
0 0.25 -0.225
0.125 0.25 -0.225
0.25 0.25 -0.225
0.375 0.25 -0.225
0.5 0.25 -0.225
0.625 0.25 -0.225
0.75 0.25 -0.225
0.875 0.25 -0.225
1 0.25 -0.225
1.125 0.25 -0.225
1.25 0.25 -0.225
1.375 0.25 -0.225
1.5 0.25 -0.225
1.625 0.25 -0.225
1.75 0.25 -0.225
1.875 0.25 -0.225
2 0.25 -0.225
2.125 0.25 -0.225
2.25 0.25 -0.225
2.375 0.25 -0.225
2.5 0.25 -0.225
2.625 0.25 -0.225
2.75 0.25 -0.225
2.875 0.25 -0.225
3 0.25 -0.225
3.125 0.25 -0.225
3.25 0.25 -0.225
3.375 0.25 -0.225
3.5 0.25 -0.225
3.625 0.25 -0.225
3.75 0.25 -0.225
3.875 0.25 -0.225
4 0.25 -0.225
0 0.375 -0.225
0.125 0.375 -0.225
0.25 0.375 -0.225
0.375 0.375 -0.225
0.5 0.375 -0.225
0.625 0.375 -0.225
0.75 0.375 -0.225
0.875 0.375 -0.225
1 0.375 -0.225
1.125 0.375 -0.225
1.25 0.375 -0.225
1.375 0.375 -0.225
1.5 0.375 -0.225
1.625 0.375 -0.225
1.75 0.375 -0.225
1.875 0.375 -0.225
2 0.375 -0.225
2.125 0.375 -0.225
2.25 0.375 -0.225
2.375 0.375 -0.225
2.5 0.375 -0.225
2.625 0.375 -0.225
2.75 0.375 -0.225
2.875 0.375 -0.225
3 0.375 -0.225
3.125 0.375 -0.225
3.25 0.375 -0.225
3.375 0.375 -0.225
3.5 0.375 -0.225
3.625 0.375 -0.225
3.75 0.375 -0.225
3.875 0.375 -0.225
4 0.375 -0.225
0 0.5 -0.225
0.125 0.5 -0.225
0.25 0.5 -0.225
0.375 0.5 -0.225
0.5 0.5 -0.225
0.625 0.5 -0.225
0.75 0.5 -0.225
0.875 0.5 -0.225
1 0.5 -0.225
1.125 0.5 -0.225
1.25 0.5 -0.225
1.375 0.5 -0.225
1.5 0.5 -0.225
1.625 0.5 -0.225
1.75 0.5 -0.225
1.875 0.5 -0.225
2 0.5 -0.225
2.125 0.5 -0.225
2.25 0.5 -0.225
2.375 0.5 -0.225
2.5 0.5 -0.225
2.625 0.5 -0.225
2.75 0.5 -0.225
2.875 0.5 -0.225
3 0.5 -0.225
3.125 0.5 -0.225
3.25 0.5 -0.225
3.375 0.5 -0.225
3.5 0.5 -0.225
3.625 0.5 -0.225
3.75 0.5 -0.225
3.875 0.5 -0.225
4 0.5 -0.225
0 0.625 -0.225
0.125 0.625 -0.225
0.25 0.625 -0.225
0.375 0.625 -0.225
0.5 0.625 -0.225
0.625 0.625 -0.225
0.75 0.625 -0.225
0.875 0.625 -0.225
1 0.625 -0.225
1.125 0.625 -0.225
1.25 0.625 -0.225
1.375 0.625 -0.225
1.5 0.625 -0.225
1.625 0.625 -0.225
1.75 0.625 -0.225
1.875 0.625 -0.225
2 0.625 -0.225
2.125 0.625 -0.225
2.25 0.625 -0.225
2.375 0.625 -0.225
2.5 0.625 -0.225
2.625 0.625 -0.225
2.75 0.625 -0.225
2.875 0.625 -0.225
3 0.625 -0.225
3.125 0.625 -0.225
3.25 0.625 -0.225
3.375 0.625 -0.225
3.5 0.625 -0.225
3.625 0.625 -0.225
3.75 0.625 -0.225
3.875 0.625 -0.225
4 0.625 -0.225
0 0.75 -0.225
0.125 0.75 -0.225
0.25 0.75 -0.225
0.375 0.75 -0.225
0.5 0.75 -0.225
0.625 0.75 -0.225
0.75 0.75 -0.225
0.875 0.75 -0.225
1 0.75 -0.225
1.125 0.75 -0.225
1.25 0.75 -0.225
1.375 0.75 -0.225
1.5 0.75 -0.225
1.625 0.75 -0.225
1.75 0.75 -0.225
1.875 0.75 -0.225
2 0.75 -0.225
2.125 0.75 -0.225
2.25 0.75 -0.225
2.375 0.75 -0.225
2.5 0.75 -0.225
2.625 0.75 -0.225
2.75 0.75 -0.225
2.875 0.75 -0.225
3 0.75 -0.225
3.125 0.75 -0.225
3.25 0.75 -0.225
3.375 0.75 -0.225
3.5 0.75 -0.225
3.625 0.75 -0.225
3.75 0.75 -0.225
3.875 0.75 -0.225
4 0.75 -0.225
0 0.875 -0.225
0.125 0.875 -0.225
0.25 0.875 -0.225
0.375 0.875 -0.225
0.5 0.875 -0.225
0.625 0.875 -0.225
0.75 0.875 -0.225
0.875 0.875 -0.225
1 0.875 -0.225
1.125 0.875 -0.225
1.25 0.875 -0.225
1.375 0.875 -0.225
1.5 0.875 -0.225
1.625 0.875 -0.225
1.75 0.875 -0.225
1.875 0.875 -0.225
2 0.875 -0.225
2.125 0.875 -0.225
2.25 0.875 -0.225
2.375 0.875 -0.225
2.5 0.875 -0.225
2.625 0.875 -0.225
2.75 0.875 -0.225
2.875 0.875 -0.225
3 0.875 -0.225
3.125 0.875 -0.225
3.25 0.875 -0.225
3.375 0.875 -0.225
3.5 0.875 -0.225
3.625 0.875 -0.225
3.75 0.875 -0.225
3.875 0.875 -0.225
4 0.875 -0.225
0 1 -0.225
0.125 1 -0.225
0.25 1 -0.225
0.375 1 -0.225
0.5 1 -0.225
0.625 1 -0.225
0.75 1 -0.225
0.875 1 -0.225
1 1 -0.225
1.125 1 -0.225
1.25 1 -0.225
1.375 1 -0.225
1.5 1 -0.225
1.625 1 -0.225
1.75 1 -0.225
1.875 1 -0.225
2 1 -0.225
2.125 1 -0.225
2.25 1 -0.225
2.375 1 -0.225
2.5 1 -0.225
2.625 1 -0.225
2.75 1 -0.225
2.875 1 -0.225
3 1 -0.225
3.125 1 -0.225
3.25 1 -0.225
3.375 1 -0.225
3.5 1 -0.225
3.625 1 -0.225
3.75 1 -0.225
3.875 1 -0.225
4 1 -0.225
0 0 -0.1
0.125 0 -0.1
0.25 0 -0.1
0.375 0 -0.1
0.5 0 -0.1
0.625 0 -0.1
0.75 0 -0.1
0.875 0 -0.1
1 0 -0.1
1.125 0 -0.1
1.25 0 -0.1
1.375 0 -0.1
1.5 0 -0.1
1.625 0 -0.1
1.75 0 -0.1
1.875 0 -0.1
2 0 -0.1
2.125 0 -0.1
2.25 0 -0.1
2.375 0 -0.1
2.5 0 -0.1
2.625 0 -0.1
2.75 0 -0.1
2.875 0 -0.1
3 0 -0.1
3.125 0 -0.1
3.25 0 -0.1
3.375 0 -0.1
3.5 0 -0.1
3.625 0 -0.1
3.75 0 -0.1
3.875 0 -0.1
4 0 -0.1
0 0.125 -0.1
0.125 0.125 -0.1
0.25 0.125 -0.1
0.375 0.125 -0.1
0.5 0.125 -0.1
0.625 0.125 -0.1
0.75 0.125 -0.1
0.875 0.125 -0.1
1 0.125 -0.1
1.125 0.125 -0.1
1.25 0.125 -0.1
1.375 0.125 -0.1
1.5 0.125 -0.1
1.625 0.125 -0.1
1.75 0.125 -0.1
1.875 0.125 -0.1
2 0.125 -0.1
2.125 0.125 -0.1
2.25 0.125 -0.1
2.375 0.125 -0.1
2.5 0.125 -0.1
2.625 0.125 -0.1
2.75 0.125 -0.1
2.875 0.125 -0.1
3 0.125 -0.1
3.125 0.125 -0.1
3.25 0.125 -0.1
3.375 0.125 -0.1
3.5 0.125 -0.1
3.625 0.125 -0.1
3.75 0.125 -0.1
3.875 0.125 -0.1
4 0.125 -0.1
0 0.25 -0.1
0.125 0.25 -0.1
0.25 0.25 -0.1
0.375 0.25 -0.1
0.5 0.25 -0.1
0.625 0.25 -0.1
0.75 0.25 -0.1
0.875 0.25 -0.1
1 0.25 -0.1
1.125 0.25 -0.1
1.25 0.25 -0.1
1.375 0.25 -0.1
1.5 0.25 -0.1
1.625 0.25 -0.1
1.75 0.25 -0.1
1.875 0.25 -0.1
2 0.25 -0.1
2.125 0.25 -0.1
2.25 0.25 -0.1
2.375 0.25 -0.1
2.5 0.25 -0.1
2.625 0.25 -0.1
2.75 0.25 -0.1
2.875 0.25 -0.1
3 0.25 -0.1
3.125 0.25 -0.1
3.25 0.25 -0.1
3.375 0.25 -0.1
3.5 0.25 -0.1
3.625 0.25 -0.1
3.75 0.25 -0.1
3.875 0.25 -0.1
4 0.25 -0.1
0 0.375 -0.1
0.125 0.375 -0.1
0.25 0.375 -0.1
0.375 0.375 -0.1
0.5 0.375 -0.1
0.625 0.375 -0.1
0.75 0.375 -0.1
0.875 0.375 -0.1
1 0.375 -0.1
1.125 0.375 -0.1
1.25 0.375 -0.1
1.375 0.375 -0.1
1.5 0.375 -0.1
1.625 0.375 -0.1
1.75 0.375 -0.1
1.875 0.375 -0.1
2 0.375 -0.1
2.125 0.375 -0.1
2.25 0.375 -0.1
2.375 0.375 -0.1
2.5 0.375 -0.1
2.625 0.375 -0.1
2.75 0.375 -0.1
2.875 0.375 -0.1
3 0.375 -0.1
3.125 0.375 -0.1
3.25 0.375 -0.1
3.375 0.375 -0.1
3.5 0.375 -0.1
3.625 0.375 -0.1
3.75 0.375 -0.1
3.875 0.375 -0.1
4 0.375 -0.1
0 0.5 -0.1
0.125 0.5 -0.1
0.25 0.5 -0.1
0.375 0.5 -0.1
0.5 0.5 -0.1
0.625 0.5 -0.1
0.75 0.5 -0.1
0.875 0.5 -0.1
1 0.5 -0.1
1.125 0.5 -0.1
1.25 0.5 -0.1
1.375 0.5 -0.1
1.5 0.5 -0.1
1.625 0.5 -0.1
1.75 0.5 -0.1
1.875 0.5 -0.1
2 0.5 -0.1
2.125 0.5 -0.1
2.25 0.5 -0.1
2.375 0.5 -0.1
2.5 0.5 -0.1
2.625 0.5 -0.1
2.75 0.5 -0.1
2.875 0.5 -0.1
3 0.5 -0.1
3.125 0.5 -0.1
3.25 0.5 -0.1
3.375 0.5 -0.1
3.5 0.5 -0.1
3.625 0.5 -0.1
3.75 0.5 -0.1
3.875 0.5 -0.1
4 0.5 -0.1
0 0.625 -0.1
0.125 0.625 -0.1
0.25 0.625 -0.1
0.375 0.625 -0.1
0.5 0.625 -0.1
0.625 0.625 -0.1
0.75 0.625 -0.1
0.875 0.625 -0.1
1 0.625 -0.1
1.125 0.625 -0.1
1.25 0.625 -0.1
1.375 0.625 -0.1
1.5 0.625 -0.1
1.625 0.625 -0.1
1.75 0.625 -0.1
1.875 0.625 -0.1
2 0.625 -0.1
2.125 0.625 -0.1
2.25 0.625 -0.1
2.375 0.625 -0.1
2.5 0.625 -0.1
2.625 0.625 -0.1
2.75 0.625 -0.1
2.875 0.625 -0.1
3 0.625 -0.1
3.125 0.625 -0.1
3.25 0.625 -0.1
3.375 0.625 -0.1
3.5 0.625 -0.1
3.625 0.625 -0.1
3.75 0.625 -0.1
3.875 0.625 -0.1
4 0.625 -0.1
0 0.75 -0.1
0.125 0.75 -0.1
0.25 0.75 -0.1
0.375 0.75 -0.1
0.5 0.75 -0.1
0.625 0.75 -0.1
0.75 0.75 -0.1
0.875 0.75 -0.1
1 0.75 -0.1
1.125 0.75 -0.1
1.25 0.75 -0.1
1.375 0.75 -0.1
1.5 0.75 -0.1
1.625 0.75 -0.1
1.75 0.75 -0.1
1.875 0.75 -0.1
2 0.75 -0.1
2.125 0.75 -0.1
2.25 0.75 -0.1
2.375 0.75 -0.1
2.5 0.75 -0.1
2.625 0.75 -0.1
2.75 0.75 -0.1
2.875 0.75 -0.1
3 0.75 -0.1
3.125 0.75 -0.1
3.25 0.75 -0.1
3.375 0.75 -0.1
3.5 0.75 -0.1
3.625 0.75 -0.1
3.75 0.75 -0.1
3.875 0.75 -0.1
4 0.75 -0.1
0 0.875 -0.1
0.125 0.875 -0.1
0.25 0.875 -0.1
0.375 0.875 -0.1
0.5 0.875 -0.1
0.625 0.875 -0.1
0.75 0.875 -0.1
0.875 0.875 -0.1
1 0.875 -0.1
1.125 0.875 -0.1
1.25 0.875 -0.1
1.375 0.875 -0.1
1.5 0.875 -0.1
1.625 0.875 -0.1
1.75 0.875 -0.1
1.875 0.875 -0.1
2 0.875 -0.1
2.125 0.875 -0.1
2.25 0.875 -0.1
2.375 0.875 -0.1
2.5 0.875 -0.1
2.625 0.875 -0.1
2.75 0.875 -0.1
2.875 0.875 -0.1
3 0.875 -0.1
3.125 0.875 -0.1
3.25 0.875 -0.1
3.375 0.875 -0.1
3.5 0.875 -0.1
3.625 0.875 -0.1
3.75 0.875 -0.1
3.875 0.875 -0.1
4 0.875 -0.1
0 1 -0.1
0.125 1 -0.1
0.25 1 -0.1
0.375 1 -0.1
0.5 1 -0.1
0.625 1 -0.1
0.75 1 -0.1
0.875 1 -0.1
1 1 -0.1
1.125 1 -0.1
1.25 1 -0.1
1.375 1 -0.1
1.5 1 -0.1
1.625 1 -0.1
1.75 1 -0.1
1.875 1 -0.1
2 1 -0.1
2.125 1 -0.1
2.25 1 -0.1
2.375 1 -0.1
2.5 1 -0.1
2.625 1 -0.1
2.75 1 -0.1
2.875 1 -0.1
3 1 -0.1
3.125 1 -0.1
3.25 1 -0.1
3.375 1 -0.1
3.5 1 -0.1
3.625 1 -0.1
3.75 1 -0.1
3.875 1 -0.1
4 1 -0.1
0 0.0625 -1.1
0.0625 0.125 -1.0375
0.0625 0.0625 -1.0375
0.0625 0.0625 -1.1
0.0625 0.125 -1.1
0.125 0.125 -1.0375
0.0625 0.0625 -0.975
0.125 0.0625 -0.975
0.0625 0 -0.975
0 0 -1.0375
0.0625 0 -1.0375
0 0.125 -1.0375
0 0.0625 -1.0375
0.0625 0.125 -0.975
0 0.0625 -0.975
0.125 0 -1.0375
0.0625 0 -1.1
0.125 0.0625 -1.0375
0.125 0.0625 -1.1
0.1875 0.125 -1.0375
0.1875 0.0625 -1.0375
0.1875 0.0625 -1.1
0.1875 0.125 -1.1
0.25 0.125 -1.0375
0.1875 0.0625 -0.975
0.25 0.0625 -0.975
0.1875 0 -0.975
0.1875 0 -1.0375
0.1875 0.125 -0.975
0.25 0 -1.0375
0.1875 0 -1.1
0.25 0.0625 -1.0375
0.25 0.0625 -1.1
0.3125 0.125 -1.0375
0.3125 0.0625 -1.0375
0.3125 0.0625 -1.1
0.3125 0.125 -1.1
0.375 0.125 -1.0375
0.3125 0.0625 -0.975
0.375 0.0625 -0.975
0.3125 0 -0.975
0.3125 0 -1.0375
0.3125 0.125 -0.975
0.375 0 -1.0375
0.3125 0 -1.1
0.375 0.0625 -1.0375
0.375 0.0625 -1.1
0.4375 0.125 -1.0375
0.4375 0.0625 -1.0375
0.4375 0.0625 -1.1
0.4375 0.125 -1.1
0.5 0.125 -1.0375
0.4375 0.0625 -0.975
0.5 0.0625 -0.975
0.4375 0 -0.975
0.4375 0 -1.0375
0.4375 0.125 -0.975
0.5 0 -1.0375
0.4375 0 -1.1
0.5 0.0625 -1.0375
0.5 0.0625 -1.1
0.5625 0.125 -1.0375
0.5625 0.0625 -1.0375
0.5625 0.0625 -1.1
0.5625 0.125 -1.1
0.625 0.125 -1.0375
0.5625 0.0625 -0.975
0.625 0.0625 -0.975
0.5625 0 -0.975
0.5625 0 -1.0375
0.5625 0.125 -0.975
0.625 0 -1.0375
0.5625 0 -1.1
0.625 0.0625 -1.0375
0.625 0.0625 -1.1
0.6875 0.125 -1.0375
0.6875 0.0625 -1.0375
0.6875 0.0625 -1.1
0.6875 0.125 -1.1
0.75 0.125 -1.0375
0.6875 0.0625 -0.975
0.75 0.0625 -0.975
0.6875 0 -0.975
0.6875 0 -1.0375
0.6875 0.125 -0.975
0.75 0 -1.0375
0.6875 0 -1.1
0.75 0.0625 -1.0375
0.75 0.0625 -1.1
0.8125 0.125 -1.0375
0.8125 0.0625 -1.0375
0.8125 0.0625 -1.1
0.8125 0.125 -1.1
0.875 0.125 -1.0375
0.8125 0.0625 -0.975
0.875 0.0625 -0.975
0.8125 0 -0.975
0.8125 0 -1.0375
0.8125 0.125 -0.975
0.875 0 -1.0375
0.8125 0 -1.1
0.875 0.0625 -1.0375
0.875 0.0625 -1.1
0.9375 0.125 -1.0375
0.9375 0.0625 -1.0375
0.9375 0.0625 -1.1
0.9375 0.125 -1.1
1 0.125 -1.0375
0.9375 0.0625 -0.975
1 0.0625 -0.975
0.9375 0 -0.975
0.9375 0 -1.0375
0.9375 0.125 -0.975
1 0 -1.0375
0.9375 0 -1.1
1 0.0625 -1.0375
1 0.0625 -1.1
1.0625 0.125 -1.0375
1.0625 0.0625 -1.0375
1.0625 0.0625 -1.1
1.0625 0.125 -1.1
1.125 0.125 -1.0375
1.0625 0.0625 -0.975
1.125 0.0625 -0.975
1.0625 0 -0.975
1.0625 0 -1.0375
1.0625 0.125 -0.975
1.125 0 -1.0375
1.0625 0 -1.1
1.125 0.0625 -1.0375
1.125 0.0625 -1.1
1.1875 0.125 -1.0375
1.1875 0.0625 -1.0375
1.1875 0.0625 -1.1
1.1875 0.125 -1.1
1.25 0.125 -1.0375
1.1875 0.0625 -0.975
1.25 0.0625 -0.975
1.1875 0 -0.975
1.1875 0 -1.0375
1.1875 0.125 -0.975
1.25 0 -1.0375
1.1875 0 -1.1
1.25 0.0625 -1.0375
1.25 0.0625 -1.1
1.3125 0.125 -1.0375
1.3125 0.0625 -1.0375
1.3125 0.0625 -1.1
1.3125 0.125 -1.1
1.375 0.125 -1.0375
1.3125 0.0625 -0.975
1.375 0.0625 -0.975
1.3125 0 -0.975
1.3125 0 -1.0375
1.3125 0.125 -0.975
1.375 0 -1.0375
1.3125 0 -1.1
1.375 0.0625 -1.0375
1.375 0.0625 -1.1
1.4375 0.125 -1.0375
1.4375 0.0625 -1.0375
1.4375 0.0625 -1.1
1.4375 0.125 -1.1
1.5 0.125 -1.0375
1.4375 0.0625 -0.975
1.5 0.0625 -0.975
1.4375 0 -0.975
1.4375 0 -1.0375
1.4375 0.125 -0.975
1.5 0 -1.0375
1.4375 0 -1.1
1.5 0.0625 -1.0375
1.5 0.0625 -1.1
1.5625 0.125 -1.0375
1.5625 0.0625 -1.0375
1.5625 0.0625 -1.1
1.5625 0.125 -1.1
1.625 0.125 -1.0375
1.5625 0.0625 -0.975
1.625 0.0625 -0.975
1.5625 0 -0.975
1.5625 0 -1.0375
1.5625 0.125 -0.975
1.625 0 -1.0375
1.5625 0 -1.1
1.625 0.0625 -1.0375
1.625 0.0625 -1.1
1.6875 0.125 -1.0375
1.6875 0.0625 -1.0375
1.6875 0.0625 -1.1
1.6875 0.125 -1.1
1.75 0.125 -1.0375
1.6875 0.0625 -0.975
1.75 0.0625 -0.975
1.6875 0 -0.975
1.6875 0 -1.0375
1.6875 0.125 -0.975
1.75 0 -1.0375
1.6875 0 -1.1
1.75 0.0625 -1.0375
1.75 0.0625 -1.1
1.8125 0.125 -1.0375
1.8125 0.0625 -1.0375
1.8125 0.0625 -1.1
1.8125 0.125 -1.1
1.875 0.125 -1.0375
1.8125 0.0625 -0.975
1.875 0.0625 -0.975
1.8125 0 -0.975
1.8125 0 -1.0375
1.8125 0.125 -0.975
1.875 0 -1.0375
1.8125 0 -1.1
1.875 0.0625 -1.0375
1.875 0.0625 -1.1
1.9375 0.125 -1.0375
1.9375 0.0625 -1.0375
1.9375 0.0625 -1.1
1.9375 0.125 -1.1
2 0.125 -1.0375
1.9375 0.0625 -0.975
2 0.0625 -0.975
1.9375 0 -0.975
1.9375 0 -1.0375
1.9375 0.125 -0.975
2 0 -1.0375
1.9375 0 -1.1
2 0.0625 -1.0375
2 0.0625 -1.1
2.0625 0.125 -1.0375
2.0625 0.0625 -1.0375
2.0625 0.0625 -1.1
2.0625 0.125 -1.1
2.125 0.125 -1.0375
2.0625 0.0625 -0.975
2.125 0.0625 -0.975
2.0625 0 -0.975
2.0625 0 -1.0375
2.0625 0.125 -0.975
2.125 0 -1.0375
2.0625 0 -1.1
2.125 0.0625 -1.0375
2.125 0.0625 -1.1
2.1875 0.125 -1.0375
2.1875 0.0625 -1.0375
2.1875 0.0625 -1.1
2.1875 0.125 -1.1
2.25 0.125 -1.0375
2.1875 0.0625 -0.975
2.25 0.0625 -0.975
2.1875 0 -0.975
2.1875 0 -1.0375
2.1875 0.125 -0.975
2.25 0 -1.0375
2.1875 0 -1.1
2.25 0.0625 -1.0375
2.25 0.0625 -1.1
2.3125 0.125 -1.0375
2.3125 0.0625 -1.0375
2.3125 0.0625 -1.1
2.3125 0.125 -1.1
2.375 0.125 -1.0375
2.3125 0.0625 -0.975
2.375 0.0625 -0.975
2.3125 0 -0.975
2.3125 0 -1.0375
2.3125 0.125 -0.975
2.375 0 -1.0375
2.3125 0 -1.1
2.375 0.0625 -1.0375
2.375 0.0625 -1.1
2.4375 0.125 -1.0375
2.4375 0.0625 -1.0375
2.4375 0.0625 -1.1
2.4375 0.125 -1.1
2.5 0.125 -1.0375
2.4375 0.0625 -0.975
2.5 0.0625 -0.975
2.4375 0 -0.975
2.4375 0 -1.0375
2.4375 0.125 -0.975
2.5 0 -1.0375
2.4375 0 -1.1
2.5 0.0625 -1.0375
2.5 0.0625 -1.1
2.5625 0.125 -1.0375
2.5625 0.0625 -1.0375
2.5625 0.0625 -1.1
2.5625 0.125 -1.1
2.625 0.125 -1.0375
2.5625 0.0625 -0.975
2.625 0.0625 -0.975
2.5625 0 -0.975
2.5625 0 -1.0375
2.5625 0.125 -0.975
2.625 0 -1.0375
2.5625 0 -1.1
2.625 0.0625 -1.0375
2.625 0.0625 -1.1
2.6875 0.125 -1.0375
2.6875 0.0625 -1.0375
2.6875 0.0625 -1.1
2.6875 0.125 -1.1
2.75 0.125 -1.0375
2.6875 0.0625 -0.975
2.75 0.0625 -0.975
2.6875 0 -0.975
2.6875 0 -1.0375
2.6875 0.125 -0.975
2.75 0 -1.0375
2.6875 0 -1.1
2.75 0.0625 -1.0375
2.75 0.0625 -1.1
2.8125 0.125 -1.0375
2.8125 0.0625 -1.0375
2.8125 0.0625 -1.1
2.8125 0.125 -1.1
2.875 0.125 -1.0375
2.8125 0.0625 -0.975
2.875 0.0625 -0.975
2.8125 0 -0.975
2.8125 0 -1.0375
2.8125 0.125 -0.975
2.875 0 -1.0375
2.8125 0 -1.1
2.875 0.0625 -1.0375
2.875 0.0625 -1.1
2.9375 0.125 -1.0375
2.9375 0.0625 -1.0375
2.9375 0.0625 -1.1
2.9375 0.125 -1.1
3 0.125 -1.0375
2.9375 0.0625 -0.975
3 0.0625 -0.975
2.9375 0 -0.975
2.9375 0 -1.0375
2.9375 0.125 -0.975
3 0 -1.0375
2.9375 0 -1.1
3 0.0625 -1.0375
3 0.0625 -1.1
3.0625 0.125 -1.0375
3.0625 0.0625 -1.0375
3.0625 0.0625 -1.1
3.0625 0.125 -1.1
3.125 0.125 -1.0375
3.0625 0.0625 -0.975
3.125 0.0625 -0.975
3.0625 0 -0.975
3.0625 0 -1.0375
3.0625 0.125 -0.975
3.125 0 -1.0375
3.0625 0 -1.1
3.125 0.0625 -1.0375
3.125 0.0625 -1.1
3.1875 0.125 -1.0375
3.1875 0.0625 -1.0375
3.1875 0.0625 -1.1
3.1875 0.125 -1.1
3.25 0.125 -1.0375
3.1875 0.0625 -0.975
3.25 0.0625 -0.975
3.1875 0 -0.975
3.1875 0 -1.0375
3.1875 0.125 -0.975
3.25 0 -1.0375
3.1875 0 -1.1
3.25 0.0625 -1.0375
3.25 0.0625 -1.1
3.3125 0.125 -1.0375
3.3125 0.0625 -1.0375
3.3125 0.0625 -1.1
3.3125 0.125 -1.1
3.375 0.125 -1.0375
3.3125 0.0625 -0.975
3.375 0.0625 -0.975
3.3125 0 -0.975
3.3125 0 -1.0375
3.3125 0.125 -0.975
3.375 0 -1.0375
3.3125 0 -1.1
3.375 0.0625 -1.0375
3.375 0.0625 -1.1
3.4375 0.125 -1.0375
3.4375 0.0625 -1.0375
3.4375 0.0625 -1.1
3.4375 0.125 -1.1
3.5 0.125 -1.0375
3.4375 0.0625 -0.975
3.5 0.0625 -0.975
3.4375 0 -0.975
3.4375 0 -1.0375
3.4375 0.125 -0.975
3.5 0 -1.0375
3.4375 0 -1.1
3.5 0.0625 -1.0375
3.5 0.0625 -1.1
3.5625 0.125 -1.0375
3.5625 0.0625 -1.0375
3.5625 0.0625 -1.1
3.5625 0.125 -1.1
3.625 0.125 -1.0375
3.5625 0.0625 -0.975
3.625 0.0625 -0.975
3.5625 0 -0.975
3.5625 0 -1.0375
3.5625 0.125 -0.975
3.625 0 -1.0375
3.5625 0 -1.1
3.625 0.0625 -1.0375
3.625 0.0625 -1.1
3.6875 0.125 -1.0375
3.6875 0.0625 -1.0375
3.6875 0.0625 -1.1
3.6875 0.125 -1.1
3.75 0.125 -1.0375
3.6875 0.0625 -0.975
3.75 0.0625 -0.975
3.6875 0 -0.975
3.6875 0 -1.0375
3.6875 0.125 -0.975
3.75 0 -1.0375
3.6875 0 -1.1
3.75 0.0625 -1.0375
3.75 0.0625 -1.1
3.8125 0.125 -1.0375
3.8125 0.0625 -1.0375
3.8125 0.0625 -1.1
3.8125 0.125 -1.1
3.875 0.125 -1.0375
3.8125 0.0625 -0.975
3.875 0.0625 -0.975
3.8125 0 -0.975
3.8125 0 -1.0375
3.8125 0.125 -0.975
3.875 0 -1.0375
3.8125 0 -1.1
3.875 0.0625 -1.0375
3.875 0.0625 -1.1
3.9375 0.125 -1.0375
3.9375 0.0625 -1.0375
3.9375 0.0625 -1.1
3.9375 0.125 -1.1
4 0.125 -1.0375
3.9375 0.0625 -0.975
4 0.0625 -0.975
3.9375 0 -0.975
3.9375 0 -1.0375
3.9375 0.125 -0.975
4 0 -1.0375
3.9375 0 -1.1
4 0.0625 -1.0375
4 0.0625 -1.1
0 0.1875 -1.1
0.0625 0.25 -1.0375
0.0625 0.1875 -1.0375
0.0625 0.1875 -1.1
0.0625 0.25 -1.1
0.125 0.25 -1.0375
0.0625 0.1875 -0.975
0.125 0.1875 -0.975
0 0.25 -1.0375
0 0.1875 -1.0375
0.0625 0.25 -0.975
0 0.1875 -0.975
0.125 0.1875 -1.0375
0.125 0.1875 -1.1
0.1875 0.25 -1.0375
0.1875 0.1875 -1.0375
0.1875 0.1875 -1.1
0.1875 0.25 -1.1
0.25 0.25 -1.0375
0.1875 0.1875 -0.975
0.25 0.1875 -0.975
0.1875 0.25 -0.975
0.25 0.1875 -1.0375
0.25 0.1875 -1.1
0.3125 0.25 -1.0375
0.3125 0.1875 -1.0375
0.3125 0.1875 -1.1
0.3125 0.25 -1.1
0.375 0.25 -1.0375
0.3125 0.1875 -0.975
0.375 0.1875 -0.975
0.3125 0.25 -0.975
0.375 0.1875 -1.0375
0.375 0.1875 -1.1
0.4375 0.25 -1.0375
0.4375 0.1875 -1.0375
0.4375 0.1875 -1.1
0.4375 0.25 -1.1
0.5 0.25 -1.0375
0.4375 0.1875 -0.975
0.5 0.1875 -0.975
0.4375 0.25 -0.975
0.5 0.1875 -1.0375
0.5 0.1875 -1.1
0.5625 0.25 -1.0375
0.5625 0.1875 -1.0375
0.5625 0.1875 -1.1
0.5625 0.25 -1.1
0.625 0.25 -1.0375
0.5625 0.1875 -0.975
0.625 0.1875 -0.975
0.5625 0.25 -0.975
0.625 0.1875 -1.0375
0.625 0.1875 -1.1
0.6875 0.25 -1.0375
0.6875 0.1875 -1.0375
0.6875 0.1875 -1.1
0.6875 0.25 -1.1
0.75 0.25 -1.0375
0.6875 0.1875 -0.975
0.75 0.1875 -0.975
0.6875 0.25 -0.975
0.75 0.1875 -1.0375
0.75 0.1875 -1.1
0.8125 0.25 -1.0375
0.8125 0.1875 -1.0375
0.8125 0.1875 -1.1
0.8125 0.25 -1.1
0.875 0.25 -1.0375
0.8125 0.1875 -0.975
0.875 0.1875 -0.975
0.8125 0.25 -0.975
0.875 0.1875 -1.0375
0.875 0.1875 -1.1
0.9375 0.25 -1.0375
0.9375 0.1875 -1.0375
0.9375 0.1875 -1.1
0.9375 0.25 -1.1
1 0.25 -1.0375
0.9375 0.1875 -0.975
1 0.1875 -0.975
0.9375 0.25 -0.975
1 0.1875 -1.0375
1 0.1875 -1.1
1.0625 0.25 -1.0375
1.0625 0.1875 -1.0375
1.0625 0.1875 -1.1
1.0625 0.25 -1.1
1.125 0.25 -1.0375
1.0625 0.1875 -0.975
1.125 0.1875 -0.975
1.0625 0.25 -0.975
1.125 0.1875 -1.0375
1.125 0.1875 -1.1
1.1875 0.25 -1.0375
1.1875 0.1875 -1.0375
1.1875 0.1875 -1.1
1.1875 0.25 -1.1
1.25 0.25 -1.0375
1.1875 0.1875 -0.975
1.25 0.1875 -0.975
1.1875 0.25 -0.975
1.25 0.1875 -1.0375
1.25 0.1875 -1.1
1.3125 0.25 -1.0375
1.3125 0.1875 -1.0375
1.3125 0.1875 -1.1
1.3125 0.25 -1.1
1.375 0.25 -1.0375
1.3125 0.1875 -0.975
1.375 0.1875 -0.975
1.3125 0.25 -0.975
1.375 0.1875 -1.0375
1.375 0.1875 -1.1
1.4375 0.25 -1.0375
1.4375 0.1875 -1.0375
1.4375 0.1875 -1.1
1.4375 0.25 -1.1
1.5 0.25 -1.0375
1.4375 0.1875 -0.975
1.5 0.1875 -0.975
1.4375 0.25 -0.975
1.5 0.1875 -1.0375
1.5 0.1875 -1.1
1.5625 0.25 -1.0375
1.5625 0.1875 -1.0375
1.5625 0.1875 -1.1
1.5625 0.25 -1.1
1.625 0.25 -1.0375
1.5625 0.1875 -0.975
1.625 0.1875 -0.975
1.5625 0.25 -0.975
1.625 0.1875 -1.0375
1.625 0.1875 -1.1
1.6875 0.25 -1.0375
1.6875 0.1875 -1.0375
1.6875 0.1875 -1.1
1.6875 0.25 -1.1
1.75 0.25 -1.0375
1.6875 0.1875 -0.975
1.75 0.1875 -0.975
1.6875 0.25 -0.975
1.75 0.1875 -1.0375
1.75 0.1875 -1.1
1.8125 0.25 -1.0375
1.8125 0.1875 -1.0375
1.8125 0.1875 -1.1
1.8125 0.25 -1.1
1.875 0.25 -1.0375
1.8125 0.1875 -0.975
1.875 0.1875 -0.975
1.8125 0.25 -0.975
1.875 0.1875 -1.0375
1.875 0.1875 -1.1
1.9375 0.25 -1.0375
1.9375 0.1875 -1.0375
1.9375 0.1875 -1.1
1.9375 0.25 -1.1
2 0.25 -1.0375
1.9375 0.1875 -0.975
2 0.1875 -0.975
1.9375 0.25 -0.975
2 0.1875 -1.0375
2 0.1875 -1.1
2.0625 0.25 -1.0375
2.0625 0.1875 -1.0375
2.0625 0.1875 -1.1
2.0625 0.25 -1.1
2.125 0.25 -1.0375
2.0625 0.1875 -0.975
2.125 0.1875 -0.975
2.0625 0.25 -0.975
2.125 0.1875 -1.0375
2.125 0.1875 -1.1
2.1875 0.25 -1.0375
2.1875 0.1875 -1.0375
2.1875 0.1875 -1.1
2.1875 0.25 -1.1
2.25 0.25 -1.0375
2.1875 0.1875 -0.975
2.25 0.1875 -0.975
2.1875 0.25 -0.975
2.25 0.1875 -1.0375
2.25 0.1875 -1.1
2.3125 0.25 -1.0375
2.3125 0.1875 -1.0375
2.3125 0.1875 -1.1
2.3125 0.25 -1.1
2.375 0.25 -1.0375
2.3125 0.1875 -0.975
2.375 0.1875 -0.975
2.3125 0.25 -0.975
2.375 0.1875 -1.0375
2.375 0.1875 -1.1
2.4375 0.25 -1.0375
2.4375 0.1875 -1.0375
2.4375 0.1875 -1.1
2.4375 0.25 -1.1
2.5 0.25 -1.0375
2.4375 0.1875 -0.975
2.5 0.1875 -0.975
2.4375 0.25 -0.975
2.5 0.1875 -1.0375
2.5 0.1875 -1.1
2.5625 0.25 -1.0375
2.5625 0.1875 -1.0375
2.5625 0.1875 -1.1
2.5625 0.25 -1.1
2.625 0.25 -1.0375
2.5625 0.1875 -0.975
2.625 0.1875 -0.975
2.5625 0.25 -0.975
2.625 0.1875 -1.0375
2.625 0.1875 -1.1
2.6875 0.25 -1.0375
2.6875 0.1875 -1.0375
2.6875 0.1875 -1.1
2.6875 0.25 -1.1
2.75 0.25 -1.0375
2.6875 0.1875 -0.975
2.75 0.1875 -0.975
2.6875 0.25 -0.975
2.75 0.1875 -1.0375
2.75 0.1875 -1.1
2.8125 0.25 -1.0375
2.8125 0.1875 -1.0375
2.8125 0.1875 -1.1
2.8125 0.25 -1.1
2.875 0.25 -1.0375
2.8125 0.1875 -0.975
2.875 0.1875 -0.975
2.8125 0.25 -0.975
2.875 0.1875 -1.0375
2.875 0.1875 -1.1
2.9375 0.25 -1.0375
2.9375 0.1875 -1.0375
2.9375 0.1875 -1.1
2.9375 0.25 -1.1
3 0.25 -1.0375
2.9375 0.1875 -0.975
3 0.1875 -0.975
2.9375 0.25 -0.975
3 0.1875 -1.0375
3 0.1875 -1.1
3.0625 0.25 -1.0375
3.0625 0.1875 -1.0375
3.0625 0.1875 -1.1
3.0625 0.25 -1.1
3.125 0.25 -1.0375
3.0625 0.1875 -0.975
3.125 0.1875 -0.975
3.0625 0.25 -0.975
3.125 0.1875 -1.0375
3.125 0.1875 -1.1
3.1875 0.25 -1.0375
3.1875 0.1875 -1.0375
3.1875 0.1875 -1.1
3.1875 0.25 -1.1
3.25 0.25 -1.0375
3.1875 0.1875 -0.975
3.25 0.1875 -0.975
3.1875 0.25 -0.975
3.25 0.1875 -1.0375
3.25 0.1875 -1.1
3.3125 0.25 -1.0375
3.3125 0.1875 -1.0375
3.3125 0.1875 -1.1
3.3125 0.25 -1.1
3.375 0.25 -1.0375
3.3125 0.1875 -0.975
3.375 0.1875 -0.975
3.3125 0.25 -0.975
3.375 0.1875 -1.0375
3.375 0.1875 -1.1
3.4375 0.25 -1.0375
3.4375 0.1875 -1.0375
3.4375 0.1875 -1.1
3.4375 0.25 -1.1
3.5 0.25 -1.0375
3.4375 0.1875 -0.975
3.5 0.1875 -0.975
3.4375 0.25 -0.975
3.5 0.1875 -1.0375
3.5 0.1875 -1.1
3.5625 0.25 -1.0375
3.5625 0.1875 -1.0375
3.5625 0.1875 -1.1
3.5625 0.25 -1.1
3.625 0.25 -1.0375
3.5625 0.1875 -0.975
3.625 0.1875 -0.975
3.5625 0.25 -0.975
3.625 0.1875 -1.0375
3.625 0.1875 -1.1
3.6875 0.25 -1.0375
3.6875 0.1875 -1.0375
3.6875 0.1875 -1.1
3.6875 0.25 -1.1
3.75 0.25 -1.0375
3.6875 0.1875 -0.975
3.75 0.1875 -0.975
3.6875 0.25 -0.975
3.75 0.1875 -1.0375
3.75 0.1875 -1.1
3.8125 0.25 -1.0375
3.8125 0.1875 -1.0375
3.8125 0.1875 -1.1
3.8125 0.25 -1.1
3.875 0.25 -1.0375
3.8125 0.1875 -0.975
3.875 0.1875 -0.975
3.8125 0.25 -0.975
3.875 0.1875 -1.0375
3.875 0.1875 -1.1
3.9375 0.25 -1.0375
3.9375 0.1875 -1.0375
3.9375 0.1875 -1.1
3.9375 0.25 -1.1
4 0.25 -1.0375
3.9375 0.1875 -0.975
4 0.1875 -0.975
3.9375 0.25 -0.975
4 0.1875 -1.0375
4 0.1875 -1.1
0 0.3125 -1.1
0.0625 0.375 -1.0375
0.0625 0.3125 -1.0375
0.0625 0.3125 -1.1
0.0625 0.375 -1.1
0.125 0.375 -1.0375
0.0625 0.3125 -0.975
0.125 0.3125 -0.975
0 0.375 -1.0375
0 0.3125 -1.0375
0.0625 0.375 -0.975
0 0.3125 -0.975
0.125 0.3125 -1.0375
0.125 0.3125 -1.1
0.1875 0.375 -1.0375
0.1875 0.3125 -1.0375
0.1875 0.3125 -1.1
0.1875 0.375 -1.1
0.25 0.375 -1.0375
0.1875 0.3125 -0.975
0.25 0.3125 -0.975
0.1875 0.375 -0.975
0.25 0.3125 -1.0375
0.25 0.3125 -1.1
0.3125 0.375 -1.0375
0.3125 0.3125 -1.0375
0.3125 0.3125 -1.1
0.3125 0.375 -1.1
0.375 0.375 -1.0375
0.3125 0.3125 -0.975
0.375 0.3125 -0.975
0.3125 0.375 -0.975
0.375 0.3125 -1.0375
0.375 0.3125 -1.1
0.4375 0.375 -1.0375
0.4375 0.3125 -1.0375
0.4375 0.3125 -1.1
0.4375 0.375 -1.1
0.5 0.375 -1.0375
0.4375 0.3125 -0.975
0.5 0.3125 -0.975
0.4375 0.375 -0.975
0.5 0.3125 -1.0375
0.5 0.3125 -1.1
0.5625 0.375 -1.0375
0.5625 0.3125 -1.0375
0.5625 0.3125 -1.1
0.5625 0.375 -1.1
0.625 0.375 -1.0375
0.5625 0.3125 -0.975
0.625 0.3125 -0.975
0.5625 0.375 -0.975
0.625 0.3125 -1.0375
0.625 0.3125 -1.1
0.6875 0.375 -1.0375
0.6875 0.3125 -1.0375
0.6875 0.3125 -1.1
0.6875 0.375 -1.1
0.75 0.375 -1.0375
0.6875 0.3125 -0.975
0.75 0.3125 -0.975
0.6875 0.375 -0.975
0.75 0.3125 -1.0375
0.75 0.3125 -1.1
0.8125 0.375 -1.0375
0.8125 0.3125 -1.0375
0.8125 0.3125 -1.1
0.8125 0.375 -1.1
0.875 0.375 -1.0375
0.8125 0.3125 -0.975
0.875 0.3125 -0.975
0.8125 0.375 -0.975
0.875 0.3125 -1.0375
0.875 0.3125 -1.1
0.9375 0.375 -1.0375
0.9375 0.3125 -1.0375
0.9375 0.3125 -1.1
0.9375 0.375 -1.1
1 0.375 -1.0375
0.9375 0.3125 -0.975
1 0.3125 -0.975
0.9375 0.375 -0.975
1 0.3125 -1.0375
1 0.3125 -1.1
1.0625 0.375 -1.0375
1.0625 0.3125 -1.0375
1.0625 0.3125 -1.1
1.0625 0.375 -1.1
1.125 0.375 -1.0375
1.0625 0.3125 -0.975
1.125 0.3125 -0.975
1.0625 0.375 -0.975
1.125 0.3125 -1.0375
1.125 0.3125 -1.1
1.1875 0.375 -1.0375
1.1875 0.3125 -1.0375
1.1875 0.3125 -1.1
1.1875 0.375 -1.1
1.25 0.375 -1.0375
1.1875 0.3125 -0.975
1.25 0.3125 -0.975
1.1875 0.375 -0.975
1.25 0.3125 -1.0375
1.25 0.3125 -1.1
1.3125 0.375 -1.0375
1.3125 0.3125 -1.0375
1.3125 0.3125 -1.1
1.3125 0.375 -1.1
1.375 0.375 -1.0375
1.3125 0.3125 -0.975
1.375 0.3125 -0.975
1.3125 0.375 -0.975
1.375 0.3125 -1.0375
1.375 0.3125 -1.1
1.4375 0.375 -1.0375
1.4375 0.3125 -1.0375
1.4375 0.3125 -1.1
1.4375 0.375 -1.1
1.5 0.375 -1.0375
1.4375 0.3125 -0.975
1.5 0.3125 -0.975
1.4375 0.375 -0.975
1.5 0.3125 -1.0375
1.5 0.3125 -1.1
1.5625 0.375 -1.0375
1.5625 0.3125 -1.0375
1.5625 0.3125 -1.1
1.5625 0.375 -1.1
1.625 0.375 -1.0375
1.5625 0.3125 -0.975
1.625 0.3125 -0.975
1.5625 0.375 -0.975
1.625 0.3125 -1.0375
1.625 0.3125 -1.1
1.6875 0.375 -1.0375
1.6875 0.3125 -1.0375
1.6875 0.3125 -1.1
1.6875 0.375 -1.1
1.75 0.375 -1.0375
1.6875 0.3125 -0.975
1.75 0.3125 -0.975
1.6875 0.375 -0.975
1.75 0.3125 -1.0375
1.75 0.3125 -1.1
1.8125 0.375 -1.0375
1.8125 0.3125 -1.0375
1.8125 0.3125 -1.1
1.8125 0.375 -1.1
1.875 0.375 -1.0375
1.8125 0.3125 -0.975
1.875 0.3125 -0.975
1.8125 0.375 -0.975
1.875 0.3125 -1.0375
1.875 0.3125 -1.1
1.9375 0.375 -1.0375
1.9375 0.3125 -1.0375
1.9375 0.3125 -1.1
1.9375 0.375 -1.1
2 0.375 -1.0375
1.9375 0.3125 -0.975
2 0.3125 -0.975
1.9375 0.375 -0.975
2 0.3125 -1.0375
2 0.3125 -1.1
2.0625 0.375 -1.0375
2.0625 0.3125 -1.0375
2.0625 0.3125 -1.1
2.0625 0.375 -1.1
2.125 0.375 -1.0375
2.0625 0.3125 -0.975
2.125 0.3125 -0.975
2.0625 0.375 -0.975
2.125 0.3125 -1.0375
2.125 0.3125 -1.1
2.1875 0.375 -1.0375
2.1875 0.3125 -1.0375
2.1875 0.3125 -1.1
2.1875 0.375 -1.1
2.25 0.375 -1.0375
2.1875 0.3125 -0.975
2.25 0.3125 -0.975
2.1875 0.375 -0.975
2.25 0.3125 -1.0375
2.25 0.3125 -1.1
2.3125 0.375 -1.0375
2.3125 0.3125 -1.0375
2.3125 0.3125 -1.1
2.3125 0.375 -1.1
2.375 0.375 -1.0375
2.3125 0.3125 -0.975
2.375 0.3125 -0.975
2.3125 0.375 -0.975
2.375 0.3125 -1.0375
2.375 0.3125 -1.1
2.4375 0.375 -1.0375
2.4375 0.3125 -1.0375
2.4375 0.3125 -1.1
2.4375 0.375 -1.1
2.5 0.375 -1.0375
2.4375 0.3125 -0.975
2.5 0.3125 -0.975
2.4375 0.375 -0.975
2.5 0.3125 -1.0375
2.5 0.3125 -1.1
2.5625 0.375 -1.0375
2.5625 0.3125 -1.0375
2.5625 0.3125 -1.1
2.5625 0.375 -1.1
2.625 0.375 -1.0375
2.5625 0.3125 -0.975
2.625 0.3125 -0.975
2.5625 0.375 -0.975
2.625 0.3125 -1.0375
2.625 0.3125 -1.1
2.6875 0.375 -1.0375
2.6875 0.3125 -1.0375
2.6875 0.3125 -1.1
2.6875 0.375 -1.1
2.75 0.375 -1.0375
2.6875 0.3125 -0.975
2.75 0.3125 -0.975
2.6875 0.375 -0.975
2.75 0.3125 -1.0375
2.75 0.3125 -1.1
2.8125 0.375 -1.0375
2.8125 0.3125 -1.0375
2.8125 0.3125 -1.1
2.8125 0.375 -1.1
2.875 0.375 -1.0375
2.8125 0.3125 -0.975
2.875 0.3125 -0.975
2.8125 0.375 -0.975
2.875 0.3125 -1.0375
2.875 0.3125 -1.1
2.9375 0.375 -1.0375
2.9375 0.3125 -1.0375
2.9375 0.3125 -1.1
2.9375 0.375 -1.1
3 0.375 -1.0375
2.9375 0.3125 -0.975
3 0.3125 -0.975
2.9375 0.375 -0.975
3 0.3125 -1.0375
3 0.3125 -1.1
3.0625 0.375 -1.0375
3.0625 0.3125 -1.0375
3.0625 0.3125 -1.1
3.0625 0.375 -1.1
3.125 0.375 -1.0375
3.0625 0.3125 -0.975
3.125 0.3125 -0.975
3.0625 0.375 -0.975
3.125 0.3125 -1.0375
3.125 0.3125 -1.1
3.1875 0.375 -1.0375
3.1875 0.3125 -1.0375
3.1875 0.3125 -1.1
3.1875 0.375 -1.1
3.25 0.375 -1.0375
3.1875 0.3125 -0.975
3.25 0.3125 -0.975
3.1875 0.375 -0.975
3.25 0.3125 -1.0375
3.25 0.3125 -1.1
3.3125 0.375 -1.0375
3.3125 0.3125 -1.0375
3.3125 0.3125 -1.1
3.3125 0.375 -1.1
3.375 0.375 -1.0375
3.3125 0.3125 -0.975
3.375 0.3125 -0.975
3.3125 0.375 -0.975
3.375 0.3125 -1.0375
3.375 0.3125 -1.1
3.4375 0.375 -1.0375
3.4375 0.3125 -1.0375
3.4375 0.3125 -1.1
3.4375 0.375 -1.1
3.5 0.375 -1.0375
3.4375 0.3125 -0.975
3.5 0.3125 -0.975
3.4375 0.375 -0.975
3.5 0.3125 -1.0375
3.5 0.3125 -1.1
3.5625 0.375 -1.0375
3.5625 0.3125 -1.0375
3.5625 0.3125 -1.1
3.5625 0.375 -1.1
3.625 0.375 -1.0375
3.5625 0.3125 -0.975
3.625 0.3125 -0.975
3.5625 0.375 -0.975
3.625 0.3125 -1.0375
3.625 0.3125 -1.1
3.6875 0.375 -1.0375
3.6875 0.3125 -1.0375
3.6875 0.3125 -1.1
3.6875 0.375 -1.1
3.75 0.375 -1.0375
3.6875 0.3125 -0.975
3.75 0.3125 -0.975
3.6875 0.375 -0.975
3.75 0.3125 -1.0375
3.75 0.3125 -1.1
3.8125 0.375 -1.0375
3.8125 0.3125 -1.0375
3.8125 0.3125 -1.1
3.8125 0.375 -1.1
3.875 0.375 -1.0375
3.8125 0.3125 -0.975
3.875 0.3125 -0.975
3.8125 0.375 -0.975
3.875 0.3125 -1.0375
3.875 0.3125 -1.1
3.9375 0.375 -1.0375
3.9375 0.3125 -1.0375
3.9375 0.3125 -1.1
3.9375 0.375 -1.1
4 0.375 -1.0375
3.9375 0.3125 -0.975
4 0.3125 -0.975
3.9375 0.375 -0.975
4 0.3125 -1.0375
4 0.3125 -1.1
0 0.4375 -1.1
0.0625 0.5 -1.0375
0.0625 0.4375 -1.0375
0.0625 0.4375 -1.1
0.0625 0.5 -1.1
0.125 0.5 -1.0375
0.0625 0.4375 -0.975
0.125 0.4375 -0.975
0 0.5 -1.0375
0 0.4375 -1.0375
0.0625 0.5 -0.975
0 0.4375 -0.975
0.125 0.4375 -1.0375
0.125 0.4375 -1.1
0.1875 0.5 -1.0375
0.1875 0.4375 -1.0375
0.1875 0.4375 -1.1
0.1875 0.5 -1.1
0.25 0.5 -1.0375
0.1875 0.4375 -0.975
0.25 0.4375 -0.975
0.1875 0.5 -0.975
0.25 0.4375 -1.0375
0.25 0.4375 -1.1
0.3125 0.5 -1.0375
0.3125 0.4375 -1.0375
0.3125 0.4375 -1.1
0.3125 0.5 -1.1
0.375 0.5 -1.0375
0.3125 0.4375 -0.975
0.375 0.4375 -0.975
0.3125 0.5 -0.975
0.375 0.4375 -1.0375
0.375 0.4375 -1.1
0.4375 0.5 -1.0375
0.4375 0.4375 -1.0375
0.4375 0.4375 -1.1
0.4375 0.5 -1.1
0.5 0.5 -1.0375
0.4375 0.4375 -0.975
0.5 0.4375 -0.975
0.4375 0.5 -0.975
0.5 0.4375 -1.0375
0.5 0.4375 -1.1
0.5625 0.5 -1.0375
0.5625 0.4375 -1.0375
0.5625 0.4375 -1.1
0.5625 0.5 -1.1
0.625 0.5 -1.0375
0.5625 0.4375 -0.975
0.625 0.4375 -0.975
0.5625 0.5 -0.975
0.625 0.4375 -1.0375
0.625 0.4375 -1.1
0.6875 0.5 -1.0375
0.6875 0.4375 -1.0375
0.6875 0.4375 -1.1
0.6875 0.5 -1.1
0.75 0.5 -1.0375
0.6875 0.4375 -0.975
0.75 0.4375 -0.975
0.6875 0.5 -0.975
0.75 0.4375 -1.0375
0.75 0.4375 -1.1
0.8125 0.5 -1.0375
0.8125 0.4375 -1.0375
0.8125 0.4375 -1.1
0.8125 0.5 -1.1
0.875 0.5 -1.0375
0.8125 0.4375 -0.975
0.875 0.4375 -0.975
0.8125 0.5 -0.975
0.875 0.4375 -1.0375
0.875 0.4375 -1.1
0.9375 0.5 -1.0375
0.9375 0.4375 -1.0375
0.9375 0.4375 -1.1
0.9375 0.5 -1.1
1 0.5 -1.0375
0.9375 0.4375 -0.975
1 0.4375 -0.975
0.9375 0.5 -0.975
1 0.4375 -1.0375
1 0.4375 -1.1
1.0625 0.5 -1.0375
1.0625 0.4375 -1.0375
1.0625 0.4375 -1.1
1.0625 0.5 -1.1
1.125 0.5 -1.0375
1.0625 0.4375 -0.975
1.125 0.4375 -0.975
1.0625 0.5 -0.975
1.125 0.4375 -1.0375
1.125 0.4375 -1.1
1.1875 0.5 -1.0375
1.1875 0.4375 -1.0375
1.1875 0.4375 -1.1
1.1875 0.5 -1.1
1.25 0.5 -1.0375
1.1875 0.4375 -0.975
1.25 0.4375 -0.975
1.1875 0.5 -0.975
1.25 0.4375 -1.0375
1.25 0.4375 -1.1
1.3125 0.5 -1.0375
1.3125 0.4375 -1.0375
1.3125 0.4375 -1.1
1.3125 0.5 -1.1
1.375 0.5 -1.0375
1.3125 0.4375 -0.975
1.375 0.4375 -0.975
1.3125 0.5 -0.975
1.375 0.4375 -1.0375
1.375 0.4375 -1.1
1.4375 0.5 -1.0375
1.4375 0.4375 -1.0375
1.4375 0.4375 -1.1
1.4375 0.5 -1.1
1.5 0.5 -1.0375
1.4375 0.4375 -0.975
1.5 0.4375 -0.975
1.4375 0.5 -0.975
1.5 0.4375 -1.0375
1.5 0.4375 -1.1
1.5625 0.5 -1.0375
1.5625 0.4375 -1.0375
1.5625 0.4375 -1.1
1.5625 0.5 -1.1
1.625 0.5 -1.0375
1.5625 0.4375 -0.975
1.625 0.4375 -0.975
1.5625 0.5 -0.975
1.625 0.4375 -1.0375
1.625 0.4375 -1.1
1.6875 0.5 -1.0375
1.6875 0.4375 -1.0375
1.6875 0.4375 -1.1
1.6875 0.5 -1.1
1.75 0.5 -1.0375
1.6875 0.4375 -0.975
1.75 0.4375 -0.975
1.6875 0.5 -0.975
1.75 0.4375 -1.0375
1.75 0.4375 -1.1
1.8125 0.5 -1.0375
1.8125 0.4375 -1.0375
1.8125 0.4375 -1.1
1.8125 0.5 -1.1
1.875 0.5 -1.0375
1.8125 0.4375 -0.975
1.875 0.4375 -0.975
1.8125 0.5 -0.975
1.875 0.4375 -1.0375
1.875 0.4375 -1.1
1.9375 0.5 -1.0375
1.9375 0.4375 -1.0375
1.9375 0.4375 -1.1
1.9375 0.5 -1.1
2 0.5 -1.0375
1.9375 0.4375 -0.975
2 0.4375 -0.975
1.9375 0.5 -0.975
2 0.4375 -1.0375
2 0.4375 -1.1
2.0625 0.5 -1.0375
2.0625 0.4375 -1.0375
2.0625 0.4375 -1.1
2.0625 0.5 -1.1
2.125 0.5 -1.0375
2.0625 0.4375 -0.975
2.125 0.4375 -0.975
2.0625 0.5 -0.975
2.125 0.4375 -1.0375
2.125 0.4375 -1.1
2.1875 0.5 -1.0375
2.1875 0.4375 -1.0375
2.1875 0.4375 -1.1
2.1875 0.5 -1.1
2.25 0.5 -1.0375
2.1875 0.4375 -0.975
2.25 0.4375 -0.975
2.1875 0.5 -0.975
2.25 0.4375 -1.0375
2.25 0.4375 -1.1
2.3125 0.5 -1.0375
2.3125 0.4375 -1.0375
2.3125 0.4375 -1.1
2.3125 0.5 -1.1
2.375 0.5 -1.0375
2.3125 0.4375 -0.975
2.375 0.4375 -0.975
2.3125 0.5 -0.975
2.375 0.4375 -1.0375
2.375 0.4375 -1.1
2.4375 0.5 -1.0375
2.4375 0.4375 -1.0375
2.4375 0.4375 -1.1
2.4375 0.5 -1.1
2.5 0.5 -1.0375
2.4375 0.4375 -0.975
2.5 0.4375 -0.975
2.4375 0.5 -0.975
2.5 0.4375 -1.0375
2.5 0.4375 -1.1
2.5625 0.5 -1.0375
2.5625 0.4375 -1.0375
2.5625 0.4375 -1.1
2.5625 0.5 -1.1
2.625 0.5 -1.0375
2.5625 0.4375 -0.975
2.625 0.4375 -0.975
2.5625 0.5 -0.975
2.625 0.4375 -1.0375
2.625 0.4375 -1.1
2.6875 0.5 -1.0375
2.6875 0.4375 -1.0375
2.6875 0.4375 -1.1
2.6875 0.5 -1.1
2.75 0.5 -1.0375
2.6875 0.4375 -0.975
2.75 0.4375 -0.975
2.6875 0.5 -0.975
2.75 0.4375 -1.0375
2.75 0.4375 -1.1
2.8125 0.5 -1.0375
2.8125 0.4375 -1.0375
2.8125 0.4375 -1.1
2.8125 0.5 -1.1
2.875 0.5 -1.0375
2.8125 0.4375 -0.975
2.875 0.4375 -0.975
2.8125 0.5 -0.975
2.875 0.4375 -1.0375
2.875 0.4375 -1.1
2.9375 0.5 -1.0375
2.9375 0.4375 -1.0375
2.9375 0.4375 -1.1
2.9375 0.5 -1.1
3 0.5 -1.0375
2.9375 0.4375 -0.975
3 0.4375 -0.975
2.9375 0.5 -0.975
3 0.4375 -1.0375
3 0.4375 -1.1
3.0625 0.5 -1.0375
3.0625 0.4375 -1.0375
3.0625 0.4375 -1.1
3.0625 0.5 -1.1
3.125 0.5 -1.0375
3.0625 0.4375 -0.975
3.125 0.4375 -0.975
3.0625 0.5 -0.975
3.125 0.4375 -1.0375
3.125 0.4375 -1.1
3.1875 0.5 -1.0375
3.1875 0.4375 -1.0375
3.1875 0.4375 -1.1
3.1875 0.5 -1.1
3.25 0.5 -1.0375
3.1875 0.4375 -0.975
3.25 0.4375 -0.975
3.1875 0.5 -0.975
3.25 0.4375 -1.0375
3.25 0.4375 -1.1
3.3125 0.5 -1.0375
3.3125 0.4375 -1.0375
3.3125 0.4375 -1.1
3.3125 0.5 -1.1
3.375 0.5 -1.0375
3.3125 0.4375 -0.975
3.375 0.4375 -0.975
3.3125 0.5 -0.975
3.375 0.4375 -1.0375
3.375 0.4375 -1.1
3.4375 0.5 -1.0375
3.4375 0.4375 -1.0375
3.4375 0.4375 -1.1
3.4375 0.5 -1.1
3.5 0.5 -1.0375
3.4375 0.4375 -0.975
3.5 0.4375 -0.975
3.4375 0.5 -0.975
3.5 0.4375 -1.0375
3.5 0.4375 -1.1
3.5625 0.5 -1.0375
3.5625 0.4375 -1.0375
3.5625 0.4375 -1.1
3.5625 0.5 -1.1
3.625 0.5 -1.0375
3.5625 0.4375 -0.975
3.625 0.4375 -0.975
3.5625 0.5 -0.975
3.625 0.4375 -1.0375
3.625 0.4375 -1.1
3.6875 0.5 -1.0375
3.6875 0.4375 -1.0375
3.6875 0.4375 -1.1
3.6875 0.5 -1.1
3.75 0.5 -1.0375
3.6875 0.4375 -0.975
3.75 0.4375 -0.975
3.6875 0.5 -0.975
3.75 0.4375 -1.0375
3.75 0.4375 -1.1
3.8125 0.5 -1.0375
3.8125 0.4375 -1.0375
3.8125 0.4375 -1.1
3.8125 0.5 -1.1
3.875 0.5 -1.0375
3.8125 0.4375 -0.975
3.875 0.4375 -0.975
3.8125 0.5 -0.975
3.875 0.4375 -1.0375
3.875 0.4375 -1.1
3.9375 0.5 -1.0375
3.9375 0.4375 -1.0375
3.9375 0.4375 -1.1
3.9375 0.5 -1.1
4 0.5 -1.0375
3.9375 0.4375 -0.975
4 0.4375 -0.975
3.9375 0.5 -0.975
4 0.4375 -1.0375
4 0.4375 -1.1
0 0.5625 -1.1
0.0625 0.625 -1.0375
0.0625 0.5625 -1.0375
0.0625 0.5625 -1.1
0.0625 0.625 -1.1
0.125 0.625 -1.0375
0.0625 0.5625 -0.975
0.125 0.5625 -0.975
0 0.625 -1.0375
0 0.5625 -1.0375
0.0625 0.625 -0.975
0 0.5625 -0.975
0.125 0.5625 -1.0375
0.125 0.5625 -1.1
0.1875 0.625 -1.0375
0.1875 0.5625 -1.0375
0.1875 0.5625 -1.1
0.1875 0.625 -1.1
0.25 0.625 -1.0375
0.1875 0.5625 -0.975
0.25 0.5625 -0.975
0.1875 0.625 -0.975
0.25 0.5625 -1.0375
0.25 0.5625 -1.1
0.3125 0.625 -1.0375
0.3125 0.5625 -1.0375
0.3125 0.5625 -1.1
0.3125 0.625 -1.1
0.375 0.625 -1.0375
0.3125 0.5625 -0.975
0.375 0.5625 -0.975
0.3125 0.625 -0.975
0.375 0.5625 -1.0375
0.375 0.5625 -1.1
0.4375 0.625 -1.0375
0.4375 0.5625 -1.0375
0.4375 0.5625 -1.1
0.4375 0.625 -1.1
0.5 0.625 -1.0375
0.4375 0.5625 -0.975
0.5 0.5625 -0.975
0.4375 0.625 -0.975
0.5 0.5625 -1.0375
0.5 0.5625 -1.1
0.5625 0.625 -1.0375
0.5625 0.5625 -1.0375
0.5625 0.5625 -1.1
0.5625 0.625 -1.1
0.625 0.625 -1.0375
0.5625 0.5625 -0.975
0.625 0.5625 -0.975
0.5625 0.625 -0.975
0.625 0.5625 -1.0375
0.625 0.5625 -1.1
0.6875 0.625 -1.0375
0.6875 0.5625 -1.0375
0.6875 0.5625 -1.1
0.6875 0.625 -1.1
0.75 0.625 -1.0375
0.6875 0.5625 -0.975
0.75 0.5625 -0.975
0.6875 0.625 -0.975
0.75 0.5625 -1.0375
0.75 0.5625 -1.1
0.8125 0.625 -1.0375
0.8125 0.5625 -1.0375
0.8125 0.5625 -1.1
0.8125 0.625 -1.1
0.875 0.625 -1.0375
0.8125 0.5625 -0.975
0.875 0.5625 -0.975
0.8125 0.625 -0.975
0.875 0.5625 -1.0375
0.875 0.5625 -1.1
0.9375 0.625 -1.0375
0.9375 0.5625 -1.0375
0.9375 0.5625 -1.1
0.9375 0.625 -1.1
1 0.625 -1.0375
0.9375 0.5625 -0.975
1 0.5625 -0.975
0.9375 0.625 -0.975
1 0.5625 -1.0375
1 0.5625 -1.1
1.0625 0.625 -1.0375
1.0625 0.5625 -1.0375
1.0625 0.5625 -1.1
1.0625 0.625 -1.1
1.125 0.625 -1.0375
1.0625 0.5625 -0.975
1.125 0.5625 -0.975
1.0625 0.625 -0.975
1.125 0.5625 -1.0375
1.125 0.5625 -1.1
1.1875 0.625 -1.0375
1.1875 0.5625 -1.0375
1.1875 0.5625 -1.1
1.1875 0.625 -1.1
1.25 0.625 -1.0375
1.1875 0.5625 -0.975
1.25 0.5625 -0.975
1.1875 0.625 -0.975
1.25 0.5625 -1.0375
1.25 0.5625 -1.1
1.3125 0.625 -1.0375
1.3125 0.5625 -1.0375
1.3125 0.5625 -1.1
1.3125 0.625 -1.1
1.375 0.625 -1.0375
1.3125 0.5625 -0.975
1.375 0.5625 -0.975
1.3125 0.625 -0.975
1.375 0.5625 -1.0375
1.375 0.5625 -1.1
1.4375 0.625 -1.0375
1.4375 0.5625 -1.0375
1.4375 0.5625 -1.1
1.4375 0.625 -1.1
1.5 0.625 -1.0375
1.4375 0.5625 -0.975
1.5 0.5625 -0.975
1.4375 0.625 -0.975
1.5 0.5625 -1.0375
1.5 0.5625 -1.1
1.5625 0.625 -1.0375
1.5625 0.5625 -1.0375
1.5625 0.5625 -1.1
1.5625 0.625 -1.1
1.625 0.625 -1.0375
1.5625 0.5625 -0.975
1.625 0.5625 -0.975
1.5625 0.625 -0.975
1.625 0.5625 -1.0375
1.625 0.5625 -1.1
1.6875 0.625 -1.0375
1.6875 0.5625 -1.0375
1.6875 0.5625 -1.1
1.6875 0.625 -1.1
1.75 0.625 -1.0375
1.6875 0.5625 -0.975
1.75 0.5625 -0.975
1.6875 0.625 -0.975
1.75 0.5625 -1.0375
1.75 0.5625 -1.1
1.8125 0.625 -1.0375
1.8125 0.5625 -1.0375
1.8125 0.5625 -1.1
1.8125 0.625 -1.1
1.875 0.625 -1.0375
1.8125 0.5625 -0.975
1.875 0.5625 -0.975
1.8125 0.625 -0.975
1.875 0.5625 -1.0375
1.875 0.5625 -1.1
1.9375 0.625 -1.0375
1.9375 0.5625 -1.0375
1.9375 0.5625 -1.1
1.9375 0.625 -1.1
2 0.625 -1.0375
1.9375 0.5625 -0.975
2 0.5625 -0.975
1.9375 0.625 -0.975
2 0.5625 -1.0375
2 0.5625 -1.1
2.0625 0.625 -1.0375
2.0625 0.5625 -1.0375
2.0625 0.5625 -1.1
2.0625 0.625 -1.1
2.125 0.625 -1.0375
2.0625 0.5625 -0.975
2.125 0.5625 -0.975
2.0625 0.625 -0.975
2.125 0.5625 -1.0375
2.125 0.5625 -1.1
2.1875 0.625 -1.0375
2.1875 0.5625 -1.0375
2.1875 0.5625 -1.1
2.1875 0.625 -1.1
2.25 0.625 -1.0375
2.1875 0.5625 -0.975
2.25 0.5625 -0.975
2.1875 0.625 -0.975
2.25 0.5625 -1.0375
2.25 0.5625 -1.1
2.3125 0.625 -1.0375
2.3125 0.5625 -1.0375
2.3125 0.5625 -1.1
2.3125 0.625 -1.1
2.375 0.625 -1.0375
2.3125 0.5625 -0.975
2.375 0.5625 -0.975
2.3125 0.625 -0.975
2.375 0.5625 -1.0375
2.375 0.5625 -1.1
2.4375 0.625 -1.0375
2.4375 0.5625 -1.0375
2.4375 0.5625 -1.1
2.4375 0.625 -1.1
2.5 0.625 -1.0375
2.4375 0.5625 -0.975
2.5 0.5625 -0.975
2.4375 0.625 -0.975
2.5 0.5625 -1.0375
2.5 0.5625 -1.1
2.5625 0.625 -1.0375
2.5625 0.5625 -1.0375
2.5625 0.5625 -1.1
2.5625 0.625 -1.1
2.625 0.625 -1.0375
2.5625 0.5625 -0.975
2.625 0.5625 -0.975
2.5625 0.625 -0.975
2.625 0.5625 -1.0375
2.625 0.5625 -1.1
2.6875 0.625 -1.0375
2.6875 0.5625 -1.0375
2.6875 0.5625 -1.1
2.6875 0.625 -1.1
2.75 0.625 -1.0375
2.6875 0.5625 -0.975
2.75 0.5625 -0.975
2.6875 0.625 -0.975
2.75 0.5625 -1.0375
2.75 0.5625 -1.1
2.8125 0.625 -1.0375
2.8125 0.5625 -1.0375
2.8125 0.5625 -1.1
2.8125 0.625 -1.1
2.875 0.625 -1.0375
2.8125 0.5625 -0.975
2.875 0.5625 -0.975
2.8125 0.625 -0.975
2.875 0.5625 -1.0375
2.875 0.5625 -1.1
2.9375 0.625 -1.0375
2.9375 0.5625 -1.0375
2.9375 0.5625 -1.1
2.9375 0.625 -1.1
3 0.625 -1.0375
2.9375 0.5625 -0.975
3 0.5625 -0.975
2.9375 0.625 -0.975
3 0.5625 -1.0375
3 0.5625 -1.1
3.0625 0.625 -1.0375
3.0625 0.5625 -1.0375
3.0625 0.5625 -1.1
3.0625 0.625 -1.1
3.125 0.625 -1.0375
3.0625 0.5625 -0.975
3.125 0.5625 -0.975
3.0625 0.625 -0.975
3.125 0.5625 -1.0375
3.125 0.5625 -1.1
3.1875 0.625 -1.0375
3.1875 0.5625 -1.0375
3.1875 0.5625 -1.1
3.1875 0.625 -1.1
3.25 0.625 -1.0375
3.1875 0.5625 -0.975
3.25 0.5625 -0.975
3.1875 0.625 -0.975
3.25 0.5625 -1.0375
3.25 0.5625 -1.1
3.3125 0.625 -1.0375
3.3125 0.5625 -1.0375
3.3125 0.5625 -1.1
3.3125 0.625 -1.1
3.375 0.625 -1.0375
3.3125 0.5625 -0.975
3.375 0.5625 -0.975
3.3125 0.625 -0.975
3.375 0.5625 -1.0375
3.375 0.5625 -1.1
3.4375 0.625 -1.0375
3.4375 0.5625 -1.0375
3.4375 0.5625 -1.1
3.4375 0.625 -1.1
3.5 0.625 -1.0375
3.4375 0.5625 -0.975
3.5 0.5625 -0.975
3.4375 0.625 -0.975
3.5 0.5625 -1.0375
3.5 0.5625 -1.1
3.5625 0.625 -1.0375
3.5625 0.5625 -1.0375
3.5625 0.5625 -1.1
3.5625 0.625 -1.1
3.625 0.625 -1.0375
3.5625 0.5625 -0.975
3.625 0.5625 -0.975
3.5625 0.625 -0.975
3.625 0.5625 -1.0375
3.625 0.5625 -1.1
3.6875 0.625 -1.0375
3.6875 0.5625 -1.0375
3.6875 0.5625 -1.1
3.6875 0.625 -1.1
3.75 0.625 -1.0375
3.6875 0.5625 -0.975
3.75 0.5625 -0.975
3.6875 0.625 -0.975
3.75 0.5625 -1.0375
3.75 0.5625 -1.1
3.8125 0.625 -1.0375
3.8125 0.5625 -1.0375
3.8125 0.5625 -1.1
3.8125 0.625 -1.1
3.875 0.625 -1.0375
3.8125 0.5625 -0.975
3.875 0.5625 -0.975
3.8125 0.625 -0.975
3.875 0.5625 -1.0375
3.875 0.5625 -1.1
3.9375 0.625 -1.0375
3.9375 0.5625 -1.0375
3.9375 0.5625 -1.1
3.9375 0.625 -1.1
4 0.625 -1.0375
3.9375 0.5625 -0.975
4 0.5625 -0.975
3.9375 0.625 -0.975
4 0.5625 -1.0375
4 0.5625 -1.1
0 0.6875 -1.1
0.0625 0.75 -1.0375
0.0625 0.6875 -1.0375
0.0625 0.6875 -1.1
0.0625 0.75 -1.1
0.125 0.75 -1.0375
0.0625 0.6875 -0.975
0.125 0.6875 -0.975
0 0.75 -1.0375
0 0.6875 -1.0375
0.0625 0.75 -0.975
0 0.6875 -0.975
0.125 0.6875 -1.0375
0.125 0.6875 -1.1
0.1875 0.75 -1.0375
0.1875 0.6875 -1.0375
0.1875 0.6875 -1.1
0.1875 0.75 -1.1
0.25 0.75 -1.0375
0.1875 0.6875 -0.975
0.25 0.6875 -0.975
0.1875 0.75 -0.975
0.25 0.6875 -1.0375
0.25 0.6875 -1.1
0.3125 0.75 -1.0375
0.3125 0.6875 -1.0375
0.3125 0.6875 -1.1
0.3125 0.75 -1.1
0.375 0.75 -1.0375
0.3125 0.6875 -0.975
0.375 0.6875 -0.975
0.3125 0.75 -0.975
0.375 0.6875 -1.0375
0.375 0.6875 -1.1
0.4375 0.75 -1.0375
0.4375 0.6875 -1.0375
0.4375 0.6875 -1.1
0.4375 0.75 -1.1
0.5 0.75 -1.0375
0.4375 0.6875 -0.975
0.5 0.6875 -0.975
0.4375 0.75 -0.975
0.5 0.6875 -1.0375
0.5 0.6875 -1.1
0.5625 0.75 -1.0375
0.5625 0.6875 -1.0375
0.5625 0.6875 -1.1
0.5625 0.75 -1.1
0.625 0.75 -1.0375
0.5625 0.6875 -0.975
0.625 0.6875 -0.975
0.5625 0.75 -0.975
0.625 0.6875 -1.0375
0.625 0.6875 -1.1
0.6875 0.75 -1.0375
0.6875 0.6875 -1.0375
0.6875 0.6875 -1.1
0.6875 0.75 -1.1
0.75 0.75 -1.0375
0.6875 0.6875 -0.975
0.75 0.6875 -0.975
0.6875 0.75 -0.975
0.75 0.6875 -1.0375
0.75 0.6875 -1.1
0.8125 0.75 -1.0375
0.8125 0.6875 -1.0375
0.8125 0.6875 -1.1
0.8125 0.75 -1.1
0.875 0.75 -1.0375
0.8125 0.6875 -0.975
0.875 0.6875 -0.975
0.8125 0.75 -0.975
0.875 0.6875 -1.0375
0.875 0.6875 -1.1
0.9375 0.75 -1.0375
0.9375 0.6875 -1.0375
0.9375 0.6875 -1.1
0.9375 0.75 -1.1
1 0.75 -1.0375
0.9375 0.6875 -0.975
1 0.6875 -0.975
0.9375 0.75 -0.975
1 0.6875 -1.0375
1 0.6875 -1.1
1.0625 0.75 -1.0375
1.0625 0.6875 -1.0375
1.0625 0.6875 -1.1
1.0625 0.75 -1.1
1.125 0.75 -1.0375
1.0625 0.6875 -0.975
1.125 0.6875 -0.975
1.0625 0.75 -0.975
1.125 0.6875 -1.0375
1.125 0.6875 -1.1
1.1875 0.75 -1.0375
1.1875 0.6875 -1.0375
1.1875 0.6875 -1.1
1.1875 0.75 -1.1
1.25 0.75 -1.0375
1.1875 0.6875 -0.975
1.25 0.6875 -0.975
1.1875 0.75 -0.975
1.25 0.6875 -1.0375
1.25 0.6875 -1.1
1.3125 0.75 -1.0375
1.3125 0.6875 -1.0375
1.3125 0.6875 -1.1
1.3125 0.75 -1.1
1.375 0.75 -1.0375
1.3125 0.6875 -0.975
1.375 0.6875 -0.975
1.3125 0.75 -0.975
1.375 0.6875 -1.0375
1.375 0.6875 -1.1
1.4375 0.75 -1.0375
1.4375 0.6875 -1.0375
1.4375 0.6875 -1.1
1.4375 0.75 -1.1
1.5 0.75 -1.0375
1.4375 0.6875 -0.975
1.5 0.6875 -0.975
1.4375 0.75 -0.975
1.5 0.6875 -1.0375
1.5 0.6875 -1.1
1.5625 0.75 -1.0375
1.5625 0.6875 -1.0375
1.5625 0.6875 -1.1
1.5625 0.75 -1.1
1.625 0.75 -1.0375
1.5625 0.6875 -0.975
1.625 0.6875 -0.975
1.5625 0.75 -0.975
1.625 0.6875 -1.0375
1.625 0.6875 -1.1
1.6875 0.75 -1.0375
1.6875 0.6875 -1.0375
1.6875 0.6875 -1.1
1.6875 0.75 -1.1
1.75 0.75 -1.0375
1.6875 0.6875 -0.975
1.75 0.6875 -0.975
1.6875 0.75 -0.975
1.75 0.6875 -1.0375
1.75 0.6875 -1.1
1.8125 0.75 -1.0375
1.8125 0.6875 -1.0375
1.8125 0.6875 -1.1
1.8125 0.75 -1.1
1.875 0.75 -1.0375
1.8125 0.6875 -0.975
1.875 0.6875 -0.975
1.8125 0.75 -0.975
1.875 0.6875 -1.0375
1.875 0.6875 -1.1
1.9375 0.75 -1.0375
1.9375 0.6875 -1.0375
1.9375 0.6875 -1.1
1.9375 0.75 -1.1
2 0.75 -1.0375
1.9375 0.6875 -0.975
2 0.6875 -0.975
1.9375 0.75 -0.975
2 0.6875 -1.0375
2 0.6875 -1.1
2.0625 0.75 -1.0375
2.0625 0.6875 -1.0375
2.0625 0.6875 -1.1
2.0625 0.75 -1.1
2.125 0.75 -1.0375
2.0625 0.6875 -0.975
2.125 0.6875 -0.975
2.0625 0.75 -0.975
2.125 0.6875 -1.0375
2.125 0.6875 -1.1
2.1875 0.75 -1.0375
2.1875 0.6875 -1.0375
2.1875 0.6875 -1.1
2.1875 0.75 -1.1
2.25 0.75 -1.0375
2.1875 0.6875 -0.975
2.25 0.6875 -0.975
2.1875 0.75 -0.975
2.25 0.6875 -1.0375
2.25 0.6875 -1.1
2.3125 0.75 -1.0375
2.3125 0.6875 -1.0375
2.3125 0.6875 -1.1
2.3125 0.75 -1.1
2.375 0.75 -1.0375
2.3125 0.6875 -0.975
2.375 0.6875 -0.975
2.3125 0.75 -0.975
2.375 0.6875 -1.0375
2.375 0.6875 -1.1
2.4375 0.75 -1.0375
2.4375 0.6875 -1.0375
2.4375 0.6875 -1.1
2.4375 0.75 -1.1
2.5 0.75 -1.0375
2.4375 0.6875 -0.975
2.5 0.6875 -0.975
2.4375 0.75 -0.975
2.5 0.6875 -1.0375
2.5 0.6875 -1.1
2.5625 0.75 -1.0375
2.5625 0.6875 -1.0375
2.5625 0.6875 -1.1
2.5625 0.75 -1.1
2.625 0.75 -1.0375
2.5625 0.6875 -0.975
2.625 0.6875 -0.975
2.5625 0.75 -0.975
2.625 0.6875 -1.0375
2.625 0.6875 -1.1
2.6875 0.75 -1.0375
2.6875 0.6875 -1.0375
2.6875 0.6875 -1.1
2.6875 0.75 -1.1
2.75 0.75 -1.0375
2.6875 0.6875 -0.975
2.75 0.6875 -0.975
2.6875 0.75 -0.975
2.75 0.6875 -1.0375
2.75 0.6875 -1.1
2.8125 0.75 -1.0375
2.8125 0.6875 -1.0375
2.8125 0.6875 -1.1
2.8125 0.75 -1.1
2.875 0.75 -1.0375
2.8125 0.6875 -0.975
2.875 0.6875 -0.975
2.8125 0.75 -0.975
2.875 0.6875 -1.0375
2.875 0.6875 -1.1
2.9375 0.75 -1.0375
2.9375 0.6875 -1.0375
2.9375 0.6875 -1.1
2.9375 0.75 -1.1
3 0.75 -1.0375
2.9375 0.6875 -0.975
3 0.6875 -0.975
2.9375 0.75 -0.975
3 0.6875 -1.0375
3 0.6875 -1.1
3.0625 0.75 -1.0375
3.0625 0.6875 -1.0375
3.0625 0.6875 -1.1
3.0625 0.75 -1.1
3.125 0.75 -1.0375
3.0625 0.6875 -0.975
3.125 0.6875 -0.975
3.0625 0.75 -0.975
3.125 0.6875 -1.0375
3.125 0.6875 -1.1
3.1875 0.75 -1.0375
3.1875 0.6875 -1.0375
3.1875 0.6875 -1.1
3.1875 0.75 -1.1
3.25 0.75 -1.0375
3.1875 0.6875 -0.975
3.25 0.6875 -0.975
3.1875 0.75 -0.975
3.25 0.6875 -1.0375
3.25 0.6875 -1.1
3.3125 0.75 -1.0375
3.3125 0.6875 -1.0375
3.3125 0.6875 -1.1
3.3125 0.75 -1.1
3.375 0.75 -1.0375
3.3125 0.6875 -0.975
3.375 0.6875 -0.975
3.3125 0.75 -0.975
3.375 0.6875 -1.0375
3.375 0.6875 -1.1
3.4375 0.75 -1.0375
3.4375 0.6875 -1.0375
3.4375 0.6875 -1.1
3.4375 0.75 -1.1
3.5 0.75 -1.0375
3.4375 0.6875 -0.975
3.5 0.6875 -0.975
3.4375 0.75 -0.975
3.5 0.6875 -1.0375
3.5 0.6875 -1.1
3.5625 0.75 -1.0375
3.5625 0.6875 -1.0375
3.5625 0.6875 -1.1
3.5625 0.75 -1.1
3.625 0.75 -1.0375
3.5625 0.6875 -0.975
3.625 0.6875 -0.975
3.5625 0.75 -0.975
3.625 0.6875 -1.0375
3.625 0.6875 -1.1
3.6875 0.75 -1.0375
3.6875 0.6875 -1.0375
3.6875 0.6875 -1.1
3.6875 0.75 -1.1
3.75 0.75 -1.0375
3.6875 0.6875 -0.975
3.75 0.6875 -0.975
3.6875 0.75 -0.975
3.75 0.6875 -1.0375
3.75 0.6875 -1.1
3.8125 0.75 -1.0375
3.8125 0.6875 -1.0375
3.8125 0.6875 -1.1
3.8125 0.75 -1.1
3.875 0.75 -1.0375
3.8125 0.6875 -0.975
3.875 0.6875 -0.975
3.8125 0.75 -0.975
3.875 0.6875 -1.0375
3.875 0.6875 -1.1
3.9375 0.75 -1.0375
3.9375 0.6875 -1.0375
3.9375 0.6875 -1.1
3.9375 0.75 -1.1
4 0.75 -1.0375
3.9375 0.6875 -0.975
4 0.6875 -0.975
3.9375 0.75 -0.975
4 0.6875 -1.0375
4 0.6875 -1.1
0 0.8125 -1.1
0.0625 0.875 -1.0375
0.0625 0.8125 -1.0375
0.0625 0.8125 -1.1
0.0625 0.875 -1.1
0.125 0.875 -1.0375
0.0625 0.8125 -0.975
0.125 0.8125 -0.975
0 0.875 -1.0375
0 0.8125 -1.0375
0.0625 0.875 -0.975
0 0.8125 -0.975
0.125 0.8125 -1.0375
0.125 0.8125 -1.1
0.1875 0.875 -1.0375
0.1875 0.8125 -1.0375
0.1875 0.8125 -1.1
0.1875 0.875 -1.1
0.25 0.875 -1.0375
0.1875 0.8125 -0.975
0.25 0.8125 -0.975
0.1875 0.875 -0.975
0.25 0.8125 -1.0375
0.25 0.8125 -1.1
0.3125 0.875 -1.0375
0.3125 0.8125 -1.0375
0.3125 0.8125 -1.1
0.3125 0.875 -1.1
0.375 0.875 -1.0375
0.3125 0.8125 -0.975
0.375 0.8125 -0.975
0.3125 0.875 -0.975
0.375 0.8125 -1.0375
0.375 0.8125 -1.1
0.4375 0.875 -1.0375
0.4375 0.8125 -1.0375
0.4375 0.8125 -1.1
0.4375 0.875 -1.1
0.5 0.875 -1.0375
0.4375 0.8125 -0.975
0.5 0.8125 -0.975
0.4375 0.875 -0.975
0.5 0.8125 -1.0375
0.5 0.8125 -1.1
0.5625 0.875 -1.0375
0.5625 0.8125 -1.0375
0.5625 0.8125 -1.1
0.5625 0.875 -1.1
0.625 0.875 -1.0375
0.5625 0.8125 -0.975
0.625 0.8125 -0.975
0.5625 0.875 -0.975
0.625 0.8125 -1.0375
0.625 0.8125 -1.1
0.6875 0.875 -1.0375
0.6875 0.8125 -1.0375
0.6875 0.8125 -1.1
0.6875 0.875 -1.1
0.75 0.875 -1.0375
0.6875 0.8125 -0.975
0.75 0.8125 -0.975
0.6875 0.875 -0.975
0.75 0.8125 -1.0375
0.75 0.8125 -1.1
0.8125 0.875 -1.0375
0.8125 0.8125 -1.0375
0.8125 0.8125 -1.1
0.8125 0.875 -1.1
0.875 0.875 -1.0375
0.8125 0.8125 -0.975
0.875 0.8125 -0.975
0.8125 0.875 -0.975
0.875 0.8125 -1.0375
0.875 0.8125 -1.1
0.9375 0.875 -1.0375
0.9375 0.8125 -1.0375
0.9375 0.8125 -1.1
0.9375 0.875 -1.1
1 0.875 -1.0375
0.9375 0.8125 -0.975
1 0.8125 -0.975
0.9375 0.875 -0.975
1 0.8125 -1.0375
1 0.8125 -1.1
1.0625 0.875 -1.0375
1.0625 0.8125 -1.0375
1.0625 0.8125 -1.1
1.0625 0.875 -1.1
1.125 0.875 -1.0375
1.0625 0.8125 -0.975
1.125 0.8125 -0.975
1.0625 0.875 -0.975
1.125 0.8125 -1.0375
1.125 0.8125 -1.1
1.1875 0.875 -1.0375
1.1875 0.8125 -1.0375
1.1875 0.8125 -1.1
1.1875 0.875 -1.1
1.25 0.875 -1.0375
1.1875 0.8125 -0.975
1.25 0.8125 -0.975
1.1875 0.875 -0.975
1.25 0.8125 -1.0375
1.25 0.8125 -1.1
1.3125 0.875 -1.0375
1.3125 0.8125 -1.0375
1.3125 0.8125 -1.1
1.3125 0.875 -1.1
1.375 0.875 -1.0375
1.3125 0.8125 -0.975
1.375 0.8125 -0.975
1.3125 0.875 -0.975
1.375 0.8125 -1.0375
1.375 0.8125 -1.1
1.4375 0.875 -1.0375
1.4375 0.8125 -1.0375
1.4375 0.8125 -1.1
1.4375 0.875 -1.1
1.5 0.875 -1.0375
1.4375 0.8125 -0.975
1.5 0.8125 -0.975
1.4375 0.875 -0.975
1.5 0.8125 -1.0375
1.5 0.8125 -1.1
1.5625 0.875 -1.0375
1.5625 0.8125 -1.0375
1.5625 0.8125 -1.1
1.5625 0.875 -1.1
1.625 0.875 -1.0375
1.5625 0.8125 -0.975
1.625 0.8125 -0.975
1.5625 0.875 -0.975
1.625 0.8125 -1.0375
1.625 0.8125 -1.1
1.6875 0.875 -1.0375
1.6875 0.8125 -1.0375
1.6875 0.8125 -1.1
1.6875 0.875 -1.1
1.75 0.875 -1.0375
1.6875 0.8125 -0.975
1.75 0.8125 -0.975
1.6875 0.875 -0.975
1.75 0.8125 -1.0375
1.75 0.8125 -1.1
1.8125 0.875 -1.0375
1.8125 0.8125 -1.0375
1.8125 0.8125 -1.1
1.8125 0.875 -1.1
1.875 0.875 -1.0375
1.8125 0.8125 -0.975
1.875 0.8125 -0.975
1.8125 0.875 -0.975
1.875 0.8125 -1.0375
1.875 0.8125 -1.1
1.9375 0.875 -1.0375
1.9375 0.8125 -1.0375
1.9375 0.8125 -1.1
1.9375 0.875 -1.1
2 0.875 -1.0375
1.9375 0.8125 -0.975
2 0.8125 -0.975
1.9375 0.875 -0.975
2 0.8125 -1.0375
2 0.8125 -1.1
2.0625 0.875 -1.0375
2.0625 0.8125 -1.0375
2.0625 0.8125 -1.1
2.0625 0.875 -1.1
2.125 0.875 -1.0375
2.0625 0.8125 -0.975
2.125 0.8125 -0.975
2.0625 0.875 -0.975
2.125 0.8125 -1.0375
2.125 0.8125 -1.1
2.1875 0.875 -1.0375
2.1875 0.8125 -1.0375
2.1875 0.8125 -1.1
2.1875 0.875 -1.1
2.25 0.875 -1.0375
2.1875 0.8125 -0.975
2.25 0.8125 -0.975
2.1875 0.875 -0.975
2.25 0.8125 -1.0375
2.25 0.8125 -1.1
2.3125 0.875 -1.0375
2.3125 0.8125 -1.0375
2.3125 0.8125 -1.1
2.3125 0.875 -1.1
2.375 0.875 -1.0375
2.3125 0.8125 -0.975
2.375 0.8125 -0.975
2.3125 0.875 -0.975
2.375 0.8125 -1.0375
2.375 0.8125 -1.1
2.4375 0.875 -1.0375
2.4375 0.8125 -1.0375
2.4375 0.8125 -1.1
2.4375 0.875 -1.1
2.5 0.875 -1.0375
2.4375 0.8125 -0.975
2.5 0.8125 -0.975
2.4375 0.875 -0.975
2.5 0.8125 -1.0375
2.5 0.8125 -1.1
2.5625 0.875 -1.0375
2.5625 0.8125 -1.0375
2.5625 0.8125 -1.1
2.5625 0.875 -1.1
2.625 0.875 -1.0375
2.5625 0.8125 -0.975
2.625 0.8125 -0.975
2.5625 0.875 -0.975
2.625 0.8125 -1.0375
2.625 0.8125 -1.1
2.6875 0.875 -1.0375
2.6875 0.8125 -1.0375
2.6875 0.8125 -1.1
2.6875 0.875 -1.1
2.75 0.875 -1.0375
2.6875 0.8125 -0.975
2.75 0.8125 -0.975
2.6875 0.875 -0.975
2.75 0.8125 -1.0375
2.75 0.8125 -1.1
2.8125 0.875 -1.0375
2.8125 0.8125 -1.0375
2.8125 0.8125 -1.1
2.8125 0.875 -1.1
2.875 0.875 -1.0375
2.8125 0.8125 -0.975
2.875 0.8125 -0.975
2.8125 0.875 -0.975
2.875 0.8125 -1.0375
2.875 0.8125 -1.1
2.9375 0.875 -1.0375
2.9375 0.8125 -1.0375
2.9375 0.8125 -1.1
2.9375 0.875 -1.1
3 0.875 -1.0375
2.9375 0.8125 -0.975
3 0.8125 -0.975
2.9375 0.875 -0.975
3 0.8125 -1.0375
3 0.8125 -1.1
3.0625 0.875 -1.0375
3.0625 0.8125 -1.0375
3.0625 0.8125 -1.1
3.0625 0.875 -1.1
3.125 0.875 -1.0375
3.0625 0.8125 -0.975
3.125 0.8125 -0.975
3.0625 0.875 -0.975
3.125 0.8125 -1.0375
3.125 0.8125 -1.1
3.1875 0.875 -1.0375
3.1875 0.8125 -1.0375
3.1875 0.8125 -1.1
3.1875 0.875 -1.1
3.25 0.875 -1.0375
3.1875 0.8125 -0.975
3.25 0.8125 -0.975
3.1875 0.875 -0.975
3.25 0.8125 -1.0375
3.25 0.8125 -1.1
3.3125 0.875 -1.0375
3.3125 0.8125 -1.0375
3.3125 0.8125 -1.1
3.3125 0.875 -1.1
3.375 0.875 -1.0375
3.3125 0.8125 -0.975
3.375 0.8125 -0.975
3.3125 0.875 -0.975
3.375 0.8125 -1.0375
3.375 0.8125 -1.1
3.4375 0.875 -1.0375
3.4375 0.8125 -1.0375
3.4375 0.8125 -1.1
3.4375 0.875 -1.1
3.5 0.875 -1.0375
3.4375 0.8125 -0.975
3.5 0.8125 -0.975
3.4375 0.875 -0.975
3.5 0.8125 -1.0375
3.5 0.8125 -1.1
3.5625 0.875 -1.0375
3.5625 0.8125 -1.0375
3.5625 0.8125 -1.1
3.5625 0.875 -1.1
3.625 0.875 -1.0375
3.5625 0.8125 -0.975
3.625 0.8125 -0.975
3.5625 0.875 -0.975
3.625 0.8125 -1.0375
3.625 0.8125 -1.1
3.6875 0.875 -1.0375
3.6875 0.8125 -1.0375
3.6875 0.8125 -1.1
3.6875 0.875 -1.1
3.75 0.875 -1.0375
3.6875 0.8125 -0.975
3.75 0.8125 -0.975
3.6875 0.875 -0.975
3.75 0.8125 -1.0375
3.75 0.8125 -1.1
3.8125 0.875 -1.0375
3.8125 0.8125 -1.0375
3.8125 0.8125 -1.1
3.8125 0.875 -1.1
3.875 0.875 -1.0375
3.8125 0.8125 -0.975
3.875 0.8125 -0.975
3.8125 0.875 -0.975
3.875 0.8125 -1.0375
3.875 0.8125 -1.1
3.9375 0.875 -1.0375
3.9375 0.8125 -1.0375
3.9375 0.8125 -1.1
3.9375 0.875 -1.1
4 0.875 -1.0375
3.9375 0.8125 -0.975
4 0.8125 -0.975
3.9375 0.875 -0.975
4 0.8125 -1.0375
4 0.8125 -1.1
0 0.9375 -1.1
0.0625 1 -1.0375
0.0625 0.9375 -1.0375
0.0625 0.9375 -1.1
0.0625 1 -1.1
0.125 1 -1.0375
0.0625 0.9375 -0.975
0.125 0.9375 -0.975
0 1 -1.0375
0 0.9375 -1.0375
0.0625 1 -0.975
0 0.9375 -0.975
0.125 0.9375 -1.0375
0.125 0.9375 -1.1
0.1875 1 -1.0375
0.1875 0.9375 -1.0375
0.1875 0.9375 -1.1
0.1875 1 -1.1
0.25 1 -1.0375
0.1875 0.9375 -0.975
0.25 0.9375 -0.975
0.1875 1 -0.975
0.25 0.9375 -1.0375
0.25 0.9375 -1.1
0.3125 1 -1.0375
0.3125 0.9375 -1.0375
0.3125 0.9375 -1.1
0.3125 1 -1.1
0.375 1 -1.0375
0.3125 0.9375 -0.975
0.375 0.9375 -0.975
0.3125 1 -0.975
0.375 0.9375 -1.0375
0.375 0.9375 -1.1
0.4375 1 -1.0375
0.4375 0.9375 -1.0375
0.4375 0.9375 -1.1
0.4375 1 -1.1
0.5 1 -1.0375
0.4375 0.9375 -0.975
0.5 0.9375 -0.975
0.4375 1 -0.975
0.5 0.9375 -1.0375
0.5 0.9375 -1.1
0.5625 1 -1.0375
0.5625 0.9375 -1.0375
0.5625 0.9375 -1.1
0.5625 1 -1.1
0.625 1 -1.0375
0.5625 0.9375 -0.975
0.625 0.9375 -0.975
0.5625 1 -0.975
0.625 0.9375 -1.0375
0.625 0.9375 -1.1
0.6875 1 -1.0375
0.6875 0.9375 -1.0375
0.6875 0.9375 -1.1
0.6875 1 -1.1
0.75 1 -1.0375
0.6875 0.9375 -0.975
0.75 0.9375 -0.975
0.6875 1 -0.975
0.75 0.9375 -1.0375
0.75 0.9375 -1.1
0.8125 1 -1.0375
0.8125 0.9375 -1.0375
0.8125 0.9375 -1.1
0.8125 1 -1.1
0.875 1 -1.0375
0.8125 0.9375 -0.975
0.875 0.9375 -0.975
0.8125 1 -0.975
0.875 0.9375 -1.0375
0.875 0.9375 -1.1
0.9375 1 -1.0375
0.9375 0.9375 -1.0375
0.9375 0.9375 -1.1
0.9375 1 -1.1
1 1 -1.0375
0.9375 0.9375 -0.975
1 0.9375 -0.975
0.9375 1 -0.975
1 0.9375 -1.0375
1 0.9375 -1.1
1.0625 1 -1.0375
1.0625 0.9375 -1.0375
1.0625 0.9375 -1.1
1.0625 1 -1.1
1.125 1 -1.0375
1.0625 0.9375 -0.975
1.125 0.9375 -0.975
1.0625 1 -0.975
1.125 0.9375 -1.0375
1.125 0.9375 -1.1
1.1875 1 -1.0375
1.1875 0.9375 -1.0375
1.1875 0.9375 -1.1
1.1875 1 -1.1
1.25 1 -1.0375
1.1875 0.9375 -0.975
1.25 0.9375 -0.975
1.1875 1 -0.975
1.25 0.9375 -1.0375
1.25 0.9375 -1.1
1.3125 1 -1.0375
1.3125 0.9375 -1.0375
1.3125 0.9375 -1.1
1.3125 1 -1.1
1.375 1 -1.0375
1.3125 0.9375 -0.975
1.375 0.9375 -0.975
1.3125 1 -0.975
1.375 0.9375 -1.0375
1.375 0.9375 -1.1
1.4375 1 -1.0375
1.4375 0.9375 -1.0375
1.4375 0.9375 -1.1
1.4375 1 -1.1
1.5 1 -1.0375
1.4375 0.9375 -0.975
1.5 0.9375 -0.975
1.4375 1 -0.975
1.5 0.9375 -1.0375
1.5 0.9375 -1.1
1.5625 1 -1.0375
1.5625 0.9375 -1.0375
1.5625 0.9375 -1.1
1.5625 1 -1.1
1.625 1 -1.0375
1.5625 0.9375 -0.975
1.625 0.9375 -0.975
1.5625 1 -0.975
1.625 0.9375 -1.0375
1.625 0.9375 -1.1
1.6875 1 -1.0375
1.6875 0.9375 -1.0375
1.6875 0.9375 -1.1
1.6875 1 -1.1
1.75 1 -1.0375
1.6875 0.9375 -0.975
1.75 0.9375 -0.975
1.6875 1 -0.975
1.75 0.9375 -1.0375
1.75 0.9375 -1.1
1.8125 1 -1.0375
1.8125 0.9375 -1.0375
1.8125 0.9375 -1.1
1.8125 1 -1.1
1.875 1 -1.0375
1.8125 0.9375 -0.975
1.875 0.9375 -0.975
1.8125 1 -0.975
1.875 0.9375 -1.0375
1.875 0.9375 -1.1
1.9375 1 -1.0375
1.9375 0.9375 -1.0375
1.9375 0.9375 -1.1
1.9375 1 -1.1
2 1 -1.0375
1.9375 0.9375 -0.975
2 0.9375 -0.975
1.9375 1 -0.975
2 0.9375 -1.0375
2 0.9375 -1.1
2.0625 1 -1.0375
2.0625 0.9375 -1.0375
2.0625 0.9375 -1.1
2.0625 1 -1.1
2.125 1 -1.0375
2.0625 0.9375 -0.975
2.125 0.9375 -0.975
2.0625 1 -0.975
2.125 0.9375 -1.0375
2.125 0.9375 -1.1
2.1875 1 -1.0375
2.1875 0.9375 -1.0375
2.1875 0.9375 -1.1
2.1875 1 -1.1
2.25 1 -1.0375
2.1875 0.9375 -0.975
2.25 0.9375 -0.975
2.1875 1 -0.975
2.25 0.9375 -1.0375
2.25 0.9375 -1.1
2.3125 1 -1.0375
2.3125 0.9375 -1.0375
2.3125 0.9375 -1.1
2.3125 1 -1.1
2.375 1 -1.0375
2.3125 0.9375 -0.975
2.375 0.9375 -0.975
2.3125 1 -0.975
2.375 0.9375 -1.0375
2.375 0.9375 -1.1
2.4375 1 -1.0375
2.4375 0.9375 -1.0375
2.4375 0.9375 -1.1
2.4375 1 -1.1
2.5 1 -1.0375
2.4375 0.9375 -0.975
2.5 0.9375 -0.975
2.4375 1 -0.975
2.5 0.9375 -1.0375
2.5 0.9375 -1.1
2.5625 1 -1.0375
2.5625 0.9375 -1.0375
2.5625 0.9375 -1.1
2.5625 1 -1.1
2.625 1 -1.0375
2.5625 0.9375 -0.975
2.625 0.9375 -0.975
2.5625 1 -0.975
2.625 0.9375 -1.0375
2.625 0.9375 -1.1
2.6875 1 -1.0375
2.6875 0.9375 -1.0375
2.6875 0.9375 -1.1
2.6875 1 -1.1
2.75 1 -1.0375
2.6875 0.9375 -0.975
2.75 0.9375 -0.975
2.6875 1 -0.975
2.75 0.9375 -1.0375
2.75 0.9375 -1.1
2.8125 1 -1.0375
2.8125 0.9375 -1.0375
2.8125 0.9375 -1.1
2.8125 1 -1.1
2.875 1 -1.0375
2.8125 0.9375 -0.975
2.875 0.9375 -0.975
2.8125 1 -0.975
2.875 0.9375 -1.0375
2.875 0.9375 -1.1
2.9375 1 -1.0375
2.9375 0.9375 -1.0375
2.9375 0.9375 -1.1
2.9375 1 -1.1
3 1 -1.0375
2.9375 0.9375 -0.975
3 0.9375 -0.975
2.9375 1 -0.975
3 0.9375 -1.0375
3 0.9375 -1.1
3.0625 1 -1.0375
3.0625 0.9375 -1.0375
3.0625 0.9375 -1.1
3.0625 1 -1.1
3.125 1 -1.0375
3.0625 0.9375 -0.975
3.125 0.9375 -0.975
3.0625 1 -0.975
3.125 0.9375 -1.0375
3.125 0.9375 -1.1
3.1875 1 -1.0375
3.1875 0.9375 -1.0375
3.1875 0.9375 -1.1
3.1875 1 -1.1
3.25 1 -1.0375
3.1875 0.9375 -0.975
3.25 0.9375 -0.975
3.1875 1 -0.975
3.25 0.9375 -1.0375
3.25 0.9375 -1.1
3.3125 1 -1.0375
3.3125 0.9375 -1.0375
3.3125 0.9375 -1.1
3.3125 1 -1.1
3.375 1 -1.0375
3.3125 0.9375 -0.975
3.375 0.9375 -0.975
3.3125 1 -0.975
3.375 0.9375 -1.0375
3.375 0.9375 -1.1
3.4375 1 -1.0375
3.4375 0.9375 -1.0375
3.4375 0.9375 -1.1
3.4375 1 -1.1
3.5 1 -1.0375
3.4375 0.9375 -0.975
3.5 0.9375 -0.975
3.4375 1 -0.975
3.5 0.9375 -1.0375
3.5 0.9375 -1.1
3.5625 1 -1.0375
3.5625 0.9375 -1.0375
3.5625 0.9375 -1.1
3.5625 1 -1.1
3.625 1 -1.0375
3.5625 0.9375 -0.975
3.625 0.9375 -0.975
3.5625 1 -0.975
3.625 0.9375 -1.0375
3.625 0.9375 -1.1
3.6875 1 -1.0375
3.6875 0.9375 -1.0375
3.6875 0.9375 -1.1
3.6875 1 -1.1
3.75 1 -1.0375
3.6875 0.9375 -0.975
3.75 0.9375 -0.975
3.6875 1 -0.975
3.75 0.9375 -1.0375
3.75 0.9375 -1.1
3.8125 1 -1.0375
3.8125 0.9375 -1.0375
3.8125 0.9375 -1.1
3.8125 1 -1.1
3.875 1 -1.0375
3.8125 0.9375 -0.975
3.875 0.9375 -0.975
3.8125 1 -0.975
3.875 0.9375 -1.0375
3.875 0.9375 -1.1
3.9375 1 -1.0375
3.9375 0.9375 -1.0375
3.9375 0.9375 -1.1
3.9375 1 -1.1
4 1 -1.0375
3.9375 0.9375 -0.975
4 0.9375 -0.975
3.9375 1 -0.975
4 0.9375 -1.0375
4 0.9375 -1.1
0.0625 0.125 -0.9125
0.0625 0.0625 -0.9125
0.125 0.125 -0.9125
0.0625 0.0625 -0.85
0.125 0.0625 -0.85
0.0625 0 -0.85
0 0 -0.9125
0.0625 0 -0.9125
0 0.125 -0.9125
0 0.0625 -0.9125
0.0625 0.125 -0.85
0 0.0625 -0.85
0.125 0 -0.9125
0.125 0.0625 -0.9125
0.1875 0.125 -0.9125
0.1875 0.0625 -0.9125
0.25 0.125 -0.9125
0.1875 0.0625 -0.85
0.25 0.0625 -0.85
0.1875 0 -0.85
0.1875 0 -0.9125
0.1875 0.125 -0.85
0.25 0 -0.9125
0.25 0.0625 -0.9125
0.3125 0.125 -0.9125
0.3125 0.0625 -0.9125
0.375 0.125 -0.9125
0.3125 0.0625 -0.85
0.375 0.0625 -0.85
0.3125 0 -0.85
0.3125 0 -0.9125
0.3125 0.125 -0.85
0.375 0 -0.9125
0.375 0.0625 -0.9125
0.4375 0.125 -0.9125
0.4375 0.0625 -0.9125
0.5 0.125 -0.9125
0.4375 0.0625 -0.85
0.5 0.0625 -0.85
0.4375 0 -0.85
0.4375 0 -0.9125
0.4375 0.125 -0.85
0.5 0 -0.9125
0.5 0.0625 -0.9125
0.5625 0.125 -0.9125
0.5625 0.0625 -0.9125
0.625 0.125 -0.9125
0.5625 0.0625 -0.85
0.625 0.0625 -0.85
0.5625 0 -0.85
0.5625 0 -0.9125
0.5625 0.125 -0.85
0.625 0 -0.9125
0.625 0.0625 -0.9125
0.6875 0.125 -0.9125
0.6875 0.0625 -0.9125
0.75 0.125 -0.9125
0.6875 0.0625 -0.85
0.75 0.0625 -0.85
0.6875 0 -0.85
0.6875 0 -0.9125
0.6875 0.125 -0.85
0.75 0 -0.9125
0.75 0.0625 -0.9125
0.8125 0.125 -0.9125
0.8125 0.0625 -0.9125
0.875 0.125 -0.9125
0.8125 0.0625 -0.85
0.875 0.0625 -0.85
0.8125 0 -0.85
0.8125 0 -0.9125
0.8125 0.125 -0.85
0.875 0 -0.9125
0.875 0.0625 -0.9125
0.9375 0.125 -0.9125
0.9375 0.0625 -0.9125
1 0.125 -0.9125
0.9375 0.0625 -0.85
1 0.0625 -0.85
0.9375 0 -0.85
0.9375 0 -0.9125
0.9375 0.125 -0.85
1 0 -0.9125
1 0.0625 -0.9125
1.0625 0.125 -0.9125
1.0625 0.0625 -0.9125
1.125 0.125 -0.9125
1.0625 0.0625 -0.85
1.125 0.0625 -0.85
1.0625 0 -0.85
1.0625 0 -0.9125
1.0625 0.125 -0.85
1.125 0 -0.9125
1.125 0.0625 -0.9125
1.1875 0.125 -0.9125
1.1875 0.0625 -0.9125
1.25 0.125 -0.9125
1.1875 0.0625 -0.85
1.25 0.0625 -0.85
1.1875 0 -0.85
1.1875 0 -0.9125
1.1875 0.125 -0.85
1.25 0 -0.9125
1.25 0.0625 -0.9125
1.3125 0.125 -0.9125
1.3125 0.0625 -0.9125
1.375 0.125 -0.9125
1.3125 0.0625 -0.85
1.375 0.0625 -0.85
1.3125 0 -0.85
1.3125 0 -0.9125
1.3125 0.125 -0.85
1.375 0 -0.9125
1.375 0.0625 -0.9125
1.4375 0.125 -0.9125
1.4375 0.0625 -0.9125
1.5 0.125 -0.9125
1.4375 0.0625 -0.85
1.5 0.0625 -0.85
1.4375 0 -0.85
1.4375 0 -0.9125
1.4375 0.125 -0.85
1.5 0 -0.9125
1.5 0.0625 -0.9125
1.5625 0.125 -0.9125
1.5625 0.0625 -0.9125
1.625 0.125 -0.9125
1.5625 0.0625 -0.85
1.625 0.0625 -0.85
1.5625 0 -0.85
1.5625 0 -0.9125
1.5625 0.125 -0.85
1.625 0 -0.9125
1.625 0.0625 -0.9125
1.6875 0.125 -0.9125
1.6875 0.0625 -0.9125
1.75 0.125 -0.9125
1.6875 0.0625 -0.85
1.75 0.0625 -0.85
1.6875 0 -0.85
1.6875 0 -0.9125
1.6875 0.125 -0.85
1.75 0 -0.9125
1.75 0.0625 -0.9125
1.8125 0.125 -0.9125
1.8125 0.0625 -0.9125
1.875 0.125 -0.9125
1.8125 0.0625 -0.85
1.875 0.0625 -0.85
1.8125 0 -0.85
1.8125 0 -0.9125
1.8125 0.125 -0.85
1.875 0 -0.9125
1.875 0.0625 -0.9125
1.9375 0.125 -0.9125
1.9375 0.0625 -0.9125
2 0.125 -0.9125
1.9375 0.0625 -0.85
2 0.0625 -0.85
1.9375 0 -0.85
1.9375 0 -0.9125
1.9375 0.125 -0.85
2 0 -0.9125
2 0.0625 -0.9125
2.0625 0.125 -0.9125
2.0625 0.0625 -0.9125
2.125 0.125 -0.9125
2.0625 0.0625 -0.85
2.125 0.0625 -0.85
2.0625 0 -0.85
2.0625 0 -0.9125
2.0625 0.125 -0.85
2.125 0 -0.9125
2.125 0.0625 -0.9125
2.1875 0.125 -0.9125
2.1875 0.0625 -0.9125
2.25 0.125 -0.9125
2.1875 0.0625 -0.85
2.25 0.0625 -0.85
2.1875 0 -0.85
2.1875 0 -0.9125
2.1875 0.125 -0.85
2.25 0 -0.9125
2.25 0.0625 -0.9125
2.3125 0.125 -0.9125
2.3125 0.0625 -0.9125
2.375 0.125 -0.9125
2.3125 0.0625 -0.85
2.375 0.0625 -0.85
2.3125 0 -0.85
2.3125 0 -0.9125
2.3125 0.125 -0.85
2.375 0 -0.9125
2.375 0.0625 -0.9125
2.4375 0.125 -0.9125
2.4375 0.0625 -0.9125
2.5 0.125 -0.9125
2.4375 0.0625 -0.85
2.5 0.0625 -0.85
2.4375 0 -0.85
2.4375 0 -0.9125
2.4375 0.125 -0.85
2.5 0 -0.9125
2.5 0.0625 -0.9125
2.5625 0.125 -0.9125
2.5625 0.0625 -0.9125
2.625 0.125 -0.9125
2.5625 0.0625 -0.85
2.625 0.0625 -0.85
2.5625 0 -0.85
2.5625 0 -0.9125
2.5625 0.125 -0.85
2.625 0 -0.9125
2.625 0.0625 -0.9125
2.6875 0.125 -0.9125
2.6875 0.0625 -0.9125
2.75 0.125 -0.9125
2.6875 0.0625 -0.85
2.75 0.0625 -0.85
2.6875 0 -0.85
2.6875 0 -0.9125
2.6875 0.125 -0.85
2.75 0 -0.9125
2.75 0.0625 -0.9125
2.8125 0.125 -0.9125
2.8125 0.0625 -0.9125
2.875 0.125 -0.9125
2.8125 0.0625 -0.85
2.875 0.0625 -0.85
2.8125 0 -0.85
2.8125 0 -0.9125
2.8125 0.125 -0.85
2.875 0 -0.9125
2.875 0.0625 -0.9125
2.9375 0.125 -0.9125
2.9375 0.0625 -0.9125
3 0.125 -0.9125
2.9375 0.0625 -0.85
3 0.0625 -0.85
2.9375 0 -0.85
2.9375 0 -0.9125
2.9375 0.125 -0.85
3 0 -0.9125
3 0.0625 -0.9125
3.0625 0.125 -0.9125
3.0625 0.0625 -0.9125
3.125 0.125 -0.9125
3.0625 0.0625 -0.85
3.125 0.0625 -0.85
3.0625 0 -0.85
3.0625 0 -0.9125
3.0625 0.125 -0.85
3.125 0 -0.9125
3.125 0.0625 -0.9125
3.1875 0.125 -0.9125
3.1875 0.0625 -0.9125
3.25 0.125 -0.9125
3.1875 0.0625 -0.85
3.25 0.0625 -0.85
3.1875 0 -0.85
3.1875 0 -0.9125
3.1875 0.125 -0.85
3.25 0 -0.9125
3.25 0.0625 -0.9125
3.3125 0.125 -0.9125
3.3125 0.0625 -0.9125
3.375 0.125 -0.9125
3.3125 0.0625 -0.85
3.375 0.0625 -0.85
3.3125 0 -0.85
3.3125 0 -0.9125
3.3125 0.125 -0.85
3.375 0 -0.9125
3.375 0.0625 -0.9125
3.4375 0.125 -0.9125
3.4375 0.0625 -0.9125
3.5 0.125 -0.9125
3.4375 0.0625 -0.85
3.5 0.0625 -0.85
3.4375 0 -0.85
3.4375 0 -0.9125
3.4375 0.125 -0.85
3.5 0 -0.9125
3.5 0.0625 -0.9125
3.5625 0.125 -0.9125
3.5625 0.0625 -0.9125
3.625 0.125 -0.9125
3.5625 0.0625 -0.85
3.625 0.0625 -0.85
3.5625 0 -0.85
3.5625 0 -0.9125
3.5625 0.125 -0.85
3.625 0 -0.9125
3.625 0.0625 -0.9125
3.6875 0.125 -0.9125
3.6875 0.0625 -0.9125
3.75 0.125 -0.9125
3.6875 0.0625 -0.85
3.75 0.0625 -0.85
3.6875 0 -0.85
3.6875 0 -0.9125
3.6875 0.125 -0.85
3.75 0 -0.9125
3.75 0.0625 -0.9125
3.8125 0.125 -0.9125
3.8125 0.0625 -0.9125
3.875 0.125 -0.9125
3.8125 0.0625 -0.85
3.875 0.0625 -0.85
3.8125 0 -0.85
3.8125 0 -0.9125
3.8125 0.125 -0.85
3.875 0 -0.9125
3.875 0.0625 -0.9125
3.9375 0.125 -0.9125
3.9375 0.0625 -0.9125
4 0.125 -0.9125
3.9375 0.0625 -0.85
4 0.0625 -0.85
3.9375 0 -0.85
3.9375 0 -0.9125
3.9375 0.125 -0.85
4 0 -0.9125
4 0.0625 -0.9125
0.0625 0.25 -0.9125
0.0625 0.1875 -0.9125
0.125 0.25 -0.9125
0.0625 0.1875 -0.85
0.125 0.1875 -0.85
0 0.25 -0.9125
0 0.1875 -0.9125
0.0625 0.25 -0.85
0 0.1875 -0.85
0.125 0.1875 -0.9125
0.1875 0.25 -0.9125
0.1875 0.1875 -0.9125
0.25 0.25 -0.9125
0.1875 0.1875 -0.85
0.25 0.1875 -0.85
0.1875 0.25 -0.85
0.25 0.1875 -0.9125
0.3125 0.25 -0.9125
0.3125 0.1875 -0.9125
0.375 0.25 -0.9125
0.3125 0.1875 -0.85
0.375 0.1875 -0.85
0.3125 0.25 -0.85
0.375 0.1875 -0.9125
0.4375 0.25 -0.9125
0.4375 0.1875 -0.9125
0.5 0.25 -0.9125
0.4375 0.1875 -0.85
0.5 0.1875 -0.85
0.4375 0.25 -0.85
0.5 0.1875 -0.9125
0.5625 0.25 -0.9125
0.5625 0.1875 -0.9125
0.625 0.25 -0.9125
0.5625 0.1875 -0.85
0.625 0.1875 -0.85
0.5625 0.25 -0.85
0.625 0.1875 -0.9125
0.6875 0.25 -0.9125
0.6875 0.1875 -0.9125
0.75 0.25 -0.9125
0.6875 0.1875 -0.85
0.75 0.1875 -0.85
0.6875 0.25 -0.85
0.75 0.1875 -0.9125
0.8125 0.25 -0.9125
0.8125 0.1875 -0.9125
0.875 0.25 -0.9125
0.8125 0.1875 -0.85
0.875 0.1875 -0.85
0.8125 0.25 -0.85
0.875 0.1875 -0.9125
0.9375 0.25 -0.9125
0.9375 0.1875 -0.9125
1 0.25 -0.9125
0.9375 0.1875 -0.85
1 0.1875 -0.85
0.9375 0.25 -0.85
1 0.1875 -0.9125
1.0625 0.25 -0.9125
1.0625 0.1875 -0.9125
1.125 0.25 -0.9125
1.0625 0.1875 -0.85
1.125 0.1875 -0.85
1.0625 0.25 -0.85
1.125 0.1875 -0.9125
1.1875 0.25 -0.9125
1.1875 0.1875 -0.9125
1.25 0.25 -0.9125
1.1875 0.1875 -0.85
1.25 0.1875 -0.85
1.1875 0.25 -0.85
1.25 0.1875 -0.9125
1.3125 0.25 -0.9125
1.3125 0.1875 -0.9125
1.375 0.25 -0.9125
1.3125 0.1875 -0.85
1.375 0.1875 -0.85
1.3125 0.25 -0.85
1.375 0.1875 -0.9125
1.4375 0.25 -0.9125
1.4375 0.1875 -0.9125
1.5 0.25 -0.9125
1.4375 0.1875 -0.85
1.5 0.1875 -0.85
1.4375 0.25 -0.85
1.5 0.1875 -0.9125
1.5625 0.25 -0.9125
1.5625 0.1875 -0.9125
1.625 0.25 -0.9125
1.5625 0.1875 -0.85
1.625 0.1875 -0.85
1.5625 0.25 -0.85
1.625 0.1875 -0.9125
1.6875 0.25 -0.9125
1.6875 0.1875 -0.9125
1.75 0.25 -0.9125
1.6875 0.1875 -0.85
1.75 0.1875 -0.85
1.6875 0.25 -0.85
1.75 0.1875 -0.9125
1.8125 0.25 -0.9125
1.8125 0.1875 -0.9125
1.875 0.25 -0.9125
1.8125 0.1875 -0.85
1.875 0.1875 -0.85
1.8125 0.25 -0.85
1.875 0.1875 -0.9125
1.9375 0.25 -0.9125
1.9375 0.1875 -0.9125
2 0.25 -0.9125
1.9375 0.1875 -0.85
2 0.1875 -0.85
1.9375 0.25 -0.85
2 0.1875 -0.9125
2.0625 0.25 -0.9125
2.0625 0.1875 -0.9125
2.125 0.25 -0.9125
2.0625 0.1875 -0.85
2.125 0.1875 -0.85
2.0625 0.25 -0.85
2.125 0.1875 -0.9125
2.1875 0.25 -0.9125
2.1875 0.1875 -0.9125
2.25 0.25 -0.9125
2.1875 0.1875 -0.85
2.25 0.1875 -0.85
2.1875 0.25 -0.85
2.25 0.1875 -0.9125
2.3125 0.25 -0.9125
2.3125 0.1875 -0.9125
2.375 0.25 -0.9125
2.3125 0.1875 -0.85
2.375 0.1875 -0.85
2.3125 0.25 -0.85
2.375 0.1875 -0.9125
2.4375 0.25 -0.9125
2.4375 0.1875 -0.9125
2.5 0.25 -0.9125
2.4375 0.1875 -0.85
2.5 0.1875 -0.85
2.4375 0.25 -0.85
2.5 0.1875 -0.9125
2.5625 0.25 -0.9125
2.5625 0.1875 -0.9125
2.625 0.25 -0.9125
2.5625 0.1875 -0.85
2.625 0.1875 -0.85
2.5625 0.25 -0.85
2.625 0.1875 -0.9125
2.6875 0.25 -0.9125
2.6875 0.1875 -0.9125
2.75 0.25 -0.9125
2.6875 0.1875 -0.85
2.75 0.1875 -0.85
2.6875 0.25 -0.85
2.75 0.1875 -0.9125
2.8125 0.25 -0.9125
2.8125 0.1875 -0.9125
2.875 0.25 -0.9125
2.8125 0.1875 -0.85
2.875 0.1875 -0.85
2.8125 0.25 -0.85
2.875 0.1875 -0.9125
2.9375 0.25 -0.9125
2.9375 0.1875 -0.9125
3 0.25 -0.9125
2.9375 0.1875 -0.85
3 0.1875 -0.85
2.9375 0.25 -0.85
3 0.1875 -0.9125
3.0625 0.25 -0.9125
3.0625 0.1875 -0.9125
3.125 0.25 -0.9125
3.0625 0.1875 -0.85
3.125 0.1875 -0.85
3.0625 0.25 -0.85
3.125 0.1875 -0.9125
3.1875 0.25 -0.9125
3.1875 0.1875 -0.9125
3.25 0.25 -0.9125
3.1875 0.1875 -0.85
3.25 0.1875 -0.85
3.1875 0.25 -0.85
3.25 0.1875 -0.9125
3.3125 0.25 -0.9125
3.3125 0.1875 -0.9125
3.375 0.25 -0.9125
3.3125 0.1875 -0.85
3.375 0.1875 -0.85
3.3125 0.25 -0.85
3.375 0.1875 -0.9125
3.4375 0.25 -0.9125
3.4375 0.1875 -0.9125
3.5 0.25 -0.9125
3.4375 0.1875 -0.85
3.5 0.1875 -0.85
3.4375 0.25 -0.85
3.5 0.1875 -0.9125
3.5625 0.25 -0.9125
3.5625 0.1875 -0.9125
3.625 0.25 -0.9125
3.5625 0.1875 -0.85
3.625 0.1875 -0.85
3.5625 0.25 -0.85
3.625 0.1875 -0.9125
3.6875 0.25 -0.9125
3.6875 0.1875 -0.9125
3.75 0.25 -0.9125
3.6875 0.1875 -0.85
3.75 0.1875 -0.85
3.6875 0.25 -0.85
3.75 0.1875 -0.9125
3.8125 0.25 -0.9125
3.8125 0.1875 -0.9125
3.875 0.25 -0.9125
3.8125 0.1875 -0.85
3.875 0.1875 -0.85
3.8125 0.25 -0.85
3.875 0.1875 -0.9125
3.9375 0.25 -0.9125
3.9375 0.1875 -0.9125
4 0.25 -0.9125
3.9375 0.1875 -0.85
4 0.1875 -0.85
3.9375 0.25 -0.85
4 0.1875 -0.9125
0.0625 0.375 -0.9125
0.0625 0.3125 -0.9125
0.125 0.375 -0.9125
0.0625 0.3125 -0.85
0.125 0.3125 -0.85
0 0.375 -0.9125
0 0.3125 -0.9125
0.0625 0.375 -0.85
0 0.3125 -0.85
0.125 0.3125 -0.9125
0.1875 0.375 -0.9125
0.1875 0.3125 -0.9125
0.25 0.375 -0.9125
0.1875 0.3125 -0.85
0.25 0.3125 -0.85
0.1875 0.375 -0.85
0.25 0.3125 -0.9125
0.3125 0.375 -0.9125
0.3125 0.3125 -0.9125
0.375 0.375 -0.9125
0.3125 0.3125 -0.85
0.375 0.3125 -0.85
0.3125 0.375 -0.85
0.375 0.3125 -0.9125
0.4375 0.375 -0.9125
0.4375 0.3125 -0.9125
0.5 0.375 -0.9125
0.4375 0.3125 -0.85
0.5 0.3125 -0.85
0.4375 0.375 -0.85
0.5 0.3125 -0.9125
0.5625 0.375 -0.9125
0.5625 0.3125 -0.9125
0.625 0.375 -0.9125
0.5625 0.3125 -0.85
0.625 0.3125 -0.85
0.5625 0.375 -0.85
0.625 0.3125 -0.9125
0.6875 0.375 -0.9125
0.6875 0.3125 -0.9125
0.75 0.375 -0.9125
0.6875 0.3125 -0.85
0.75 0.3125 -0.85
0.6875 0.375 -0.85
0.75 0.3125 -0.9125
0.8125 0.375 -0.9125
0.8125 0.3125 -0.9125
0.875 0.375 -0.9125
0.8125 0.3125 -0.85
0.875 0.3125 -0.85
0.8125 0.375 -0.85
0.875 0.3125 -0.9125
0.9375 0.375 -0.9125
0.9375 0.3125 -0.9125
1 0.375 -0.9125
0.9375 0.3125 -0.85
1 0.3125 -0.85
0.9375 0.375 -0.85
1 0.3125 -0.9125
1.0625 0.375 -0.9125
1.0625 0.3125 -0.9125
1.125 0.375 -0.9125
1.0625 0.3125 -0.85
1.125 0.3125 -0.85
1.0625 0.375 -0.85
1.125 0.3125 -0.9125
1.1875 0.375 -0.9125
1.1875 0.3125 -0.9125
1.25 0.375 -0.9125
1.1875 0.3125 -0.85
1.25 0.3125 -0.85
1.1875 0.375 -0.85
1.25 0.3125 -0.9125
1.3125 0.375 -0.9125
1.3125 0.3125 -0.9125
1.375 0.375 -0.9125
1.3125 0.3125 -0.85
1.375 0.3125 -0.85
1.3125 0.375 -0.85
1.375 0.3125 -0.9125
1.4375 0.375 -0.9125
1.4375 0.3125 -0.9125
1.5 0.375 -0.9125
1.4375 0.3125 -0.85
1.5 0.3125 -0.85
1.4375 0.375 -0.85
1.5 0.3125 -0.9125
1.5625 0.375 -0.9125
1.5625 0.3125 -0.9125
1.625 0.375 -0.9125
1.5625 0.3125 -0.85
1.625 0.3125 -0.85
1.5625 0.375 -0.85
1.625 0.3125 -0.9125
1.6875 0.375 -0.9125
1.6875 0.3125 -0.9125
1.75 0.375 -0.9125
1.6875 0.3125 -0.85
1.75 0.3125 -0.85
1.6875 0.375 -0.85
1.75 0.3125 -0.9125
1.8125 0.375 -0.9125
1.8125 0.3125 -0.9125
1.875 0.375 -0.9125
1.8125 0.3125 -0.85
1.875 0.3125 -0.85
1.8125 0.375 -0.85
1.875 0.3125 -0.9125
1.9375 0.375 -0.9125
1.9375 0.3125 -0.9125
2 0.375 -0.9125
1.9375 0.3125 -0.85
2 0.3125 -0.85
1.9375 0.375 -0.85
2 0.3125 -0.9125
2.0625 0.375 -0.9125
2.0625 0.3125 -0.9125
2.125 0.375 -0.9125
2.0625 0.3125 -0.85
2.125 0.3125 -0.85
2.0625 0.375 -0.85
2.125 0.3125 -0.9125
2.1875 0.375 -0.9125
2.1875 0.3125 -0.9125
2.25 0.375 -0.9125
2.1875 0.3125 -0.85
2.25 0.3125 -0.85
2.1875 0.375 -0.85
2.25 0.3125 -0.9125
2.3125 0.375 -0.9125
2.3125 0.3125 -0.9125
2.375 0.375 -0.9125
2.3125 0.3125 -0.85
2.375 0.3125 -0.85
2.3125 0.375 -0.85
2.375 0.3125 -0.9125
2.4375 0.375 -0.9125
2.4375 0.3125 -0.9125
2.5 0.375 -0.9125
2.4375 0.3125 -0.85
2.5 0.3125 -0.85
2.4375 0.375 -0.85
2.5 0.3125 -0.9125
2.5625 0.375 -0.9125
2.5625 0.3125 -0.9125
2.625 0.375 -0.9125
2.5625 0.3125 -0.85
2.625 0.3125 -0.85
2.5625 0.375 -0.85
2.625 0.3125 -0.9125
2.6875 0.375 -0.9125
2.6875 0.3125 -0.9125
2.75 0.375 -0.9125
2.6875 0.3125 -0.85
2.75 0.3125 -0.85
2.6875 0.375 -0.85
2.75 0.3125 -0.9125
2.8125 0.375 -0.9125
2.8125 0.3125 -0.9125
2.875 0.375 -0.9125
2.8125 0.3125 -0.85
2.875 0.3125 -0.85
2.8125 0.375 -0.85
2.875 0.3125 -0.9125
2.9375 0.375 -0.9125
2.9375 0.3125 -0.9125
3 0.375 -0.9125
2.9375 0.3125 -0.85
3 0.3125 -0.85
2.9375 0.375 -0.85
3 0.3125 -0.9125
3.0625 0.375 -0.9125
3.0625 0.3125 -0.9125
3.125 0.375 -0.9125
3.0625 0.3125 -0.85
3.125 0.3125 -0.85
3.0625 0.375 -0.85
3.125 0.3125 -0.9125
3.1875 0.375 -0.9125
3.1875 0.3125 -0.9125
3.25 0.375 -0.9125
3.1875 0.3125 -0.85
3.25 0.3125 -0.85
3.1875 0.375 -0.85
3.25 0.3125 -0.9125
3.3125 0.375 -0.9125
3.3125 0.3125 -0.9125
3.375 0.375 -0.9125
3.3125 0.3125 -0.85
3.375 0.3125 -0.85
3.3125 0.375 -0.85
3.375 0.3125 -0.9125
3.4375 0.375 -0.9125
3.4375 0.3125 -0.9125
3.5 0.375 -0.9125
3.4375 0.3125 -0.85
3.5 0.3125 -0.85
3.4375 0.375 -0.85
3.5 0.3125 -0.9125
3.5625 0.375 -0.9125
3.5625 0.3125 -0.9125
3.625 0.375 -0.9125
3.5625 0.3125 -0.85
3.625 0.3125 -0.85
3.5625 0.375 -0.85
3.625 0.3125 -0.9125
3.6875 0.375 -0.9125
3.6875 0.3125 -0.9125
3.75 0.375 -0.9125
3.6875 0.3125 -0.85
3.75 0.3125 -0.85
3.6875 0.375 -0.85
3.75 0.3125 -0.9125
3.8125 0.375 -0.9125
3.8125 0.3125 -0.9125
3.875 0.375 -0.9125
3.8125 0.3125 -0.85
3.875 0.3125 -0.85
3.8125 0.375 -0.85
3.875 0.3125 -0.9125
3.9375 0.375 -0.9125
3.9375 0.3125 -0.9125
4 0.375 -0.9125
3.9375 0.3125 -0.85
4 0.3125 -0.85
3.9375 0.375 -0.85
4 0.3125 -0.9125
0.0625 0.5 -0.9125
0.0625 0.4375 -0.9125
0.125 0.5 -0.9125
0.0625 0.4375 -0.85
0.125 0.4375 -0.85
0 0.5 -0.9125
0 0.4375 -0.9125
0.0625 0.5 -0.85
0 0.4375 -0.85
0.125 0.4375 -0.9125
0.1875 0.5 -0.9125
0.1875 0.4375 -0.9125
0.25 0.5 -0.9125
0.1875 0.4375 -0.85
0.25 0.4375 -0.85
0.1875 0.5 -0.85
0.25 0.4375 -0.9125
0.3125 0.5 -0.9125
0.3125 0.4375 -0.9125
0.375 0.5 -0.9125
0.3125 0.4375 -0.85
0.375 0.4375 -0.85
0.3125 0.5 -0.85
0.375 0.4375 -0.9125
0.4375 0.5 -0.9125
0.4375 0.4375 -0.9125
0.5 0.5 -0.9125
0.4375 0.4375 -0.85
0.5 0.4375 -0.85
0.4375 0.5 -0.85
0.5 0.4375 -0.9125
0.5625 0.5 -0.9125
0.5625 0.4375 -0.9125
0.625 0.5 -0.9125
0.5625 0.4375 -0.85
0.625 0.4375 -0.85
0.5625 0.5 -0.85
0.625 0.4375 -0.9125
0.6875 0.5 -0.9125
0.6875 0.4375 -0.9125
0.75 0.5 -0.9125
0.6875 0.4375 -0.85
0.75 0.4375 -0.85
0.6875 0.5 -0.85
0.75 0.4375 -0.9125
0.8125 0.5 -0.9125
0.8125 0.4375 -0.9125
0.875 0.5 -0.9125
0.8125 0.4375 -0.85
0.875 0.4375 -0.85
0.8125 0.5 -0.85
0.875 0.4375 -0.9125
0.9375 0.5 -0.9125
0.9375 0.4375 -0.9125
1 0.5 -0.9125
0.9375 0.4375 -0.85
1 0.4375 -0.85
0.9375 0.5 -0.85
1 0.4375 -0.9125
1.0625 0.5 -0.9125
1.0625 0.4375 -0.9125
1.125 0.5 -0.9125
1.0625 0.4375 -0.85
1.125 0.4375 -0.85
1.0625 0.5 -0.85
1.125 0.4375 -0.9125
1.1875 0.5 -0.9125
1.1875 0.4375 -0.9125
1.25 0.5 -0.9125
1.1875 0.4375 -0.85
1.25 0.4375 -0.85
1.1875 0.5 -0.85
1.25 0.4375 -0.9125
1.3125 0.5 -0.9125
1.3125 0.4375 -0.9125
1.375 0.5 -0.9125
1.3125 0.4375 -0.85
1.375 0.4375 -0.85
1.3125 0.5 -0.85
1.375 0.4375 -0.9125
1.4375 0.5 -0.9125
1.4375 0.4375 -0.9125
1.5 0.5 -0.9125
1.4375 0.4375 -0.85
1.5 0.4375 -0.85
1.4375 0.5 -0.85
1.5 0.4375 -0.9125
1.5625 0.5 -0.9125
1.5625 0.4375 -0.9125
1.625 0.5 -0.9125
1.5625 0.4375 -0.85
1.625 0.4375 -0.85
1.5625 0.5 -0.85
1.625 0.4375 -0.9125
1.6875 0.5 -0.9125
1.6875 0.4375 -0.9125
1.75 0.5 -0.9125
1.6875 0.4375 -0.85
1.75 0.4375 -0.85
1.6875 0.5 -0.85
1.75 0.4375 -0.9125
1.8125 0.5 -0.9125
1.8125 0.4375 -0.9125
1.875 0.5 -0.9125
1.8125 0.4375 -0.85
1.875 0.4375 -0.85
1.8125 0.5 -0.85
1.875 0.4375 -0.9125
1.9375 0.5 -0.9125
1.9375 0.4375 -0.9125
2 0.5 -0.9125
1.9375 0.4375 -0.85
2 0.4375 -0.85
1.9375 0.5 -0.85
2 0.4375 -0.9125
2.0625 0.5 -0.9125
2.0625 0.4375 -0.9125
2.125 0.5 -0.9125
2.0625 0.4375 -0.85
2.125 0.4375 -0.85
2.0625 0.5 -0.85
2.125 0.4375 -0.9125
2.1875 0.5 -0.9125
2.1875 0.4375 -0.9125
2.25 0.5 -0.9125
2.1875 0.4375 -0.85
2.25 0.4375 -0.85
2.1875 0.5 -0.85
2.25 0.4375 -0.9125
2.3125 0.5 -0.9125
2.3125 0.4375 -0.9125
2.375 0.5 -0.9125
2.3125 0.4375 -0.85
2.375 0.4375 -0.85
2.3125 0.5 -0.85
2.375 0.4375 -0.9125
2.4375 0.5 -0.9125
2.4375 0.4375 -0.9125
2.5 0.5 -0.9125
2.4375 0.4375 -0.85
2.5 0.4375 -0.85
2.4375 0.5 -0.85
2.5 0.4375 -0.9125
2.5625 0.5 -0.9125
2.5625 0.4375 -0.9125
2.625 0.5 -0.9125
2.5625 0.4375 -0.85
2.625 0.4375 -0.85
2.5625 0.5 -0.85
2.625 0.4375 -0.9125
2.6875 0.5 -0.9125
2.6875 0.4375 -0.9125
2.75 0.5 -0.9125
2.6875 0.4375 -0.85
2.75 0.4375 -0.85
2.6875 0.5 -0.85
2.75 0.4375 -0.9125
2.8125 0.5 -0.9125
2.8125 0.4375 -0.9125
2.875 0.5 -0.9125
2.8125 0.4375 -0.85
2.875 0.4375 -0.85
2.8125 0.5 -0.85
2.875 0.4375 -0.9125
2.9375 0.5 -0.9125
2.9375 0.4375 -0.9125
3 0.5 -0.9125
2.9375 0.4375 -0.85
3 0.4375 -0.85
2.9375 0.5 -0.85
3 0.4375 -0.9125
3.0625 0.5 -0.9125
3.0625 0.4375 -0.9125
3.125 0.5 -0.9125
3.0625 0.4375 -0.85
3.125 0.4375 -0.85
3.0625 0.5 -0.85
3.125 0.4375 -0.9125
3.1875 0.5 -0.9125
3.1875 0.4375 -0.9125
3.25 0.5 -0.9125
3.1875 0.4375 -0.85
3.25 0.4375 -0.85
3.1875 0.5 -0.85
3.25 0.4375 -0.9125
3.3125 0.5 -0.9125
3.3125 0.4375 -0.9125
3.375 0.5 -0.9125
3.3125 0.4375 -0.85
3.375 0.4375 -0.85
3.3125 0.5 -0.85
3.375 0.4375 -0.9125
3.4375 0.5 -0.9125
3.4375 0.4375 -0.9125
3.5 0.5 -0.9125
3.4375 0.4375 -0.85
3.5 0.4375 -0.85
3.4375 0.5 -0.85
3.5 0.4375 -0.9125
3.5625 0.5 -0.9125
3.5625 0.4375 -0.9125
3.625 0.5 -0.9125
3.5625 0.4375 -0.85
3.625 0.4375 -0.85
3.5625 0.5 -0.85
3.625 0.4375 -0.9125
3.6875 0.5 -0.9125
3.6875 0.4375 -0.9125
3.75 0.5 -0.9125
3.6875 0.4375 -0.85
3.75 0.4375 -0.85
3.6875 0.5 -0.85
3.75 0.4375 -0.9125
3.8125 0.5 -0.9125
3.8125 0.4375 -0.9125
3.875 0.5 -0.9125
3.8125 0.4375 -0.85
3.875 0.4375 -0.85
3.8125 0.5 -0.85
3.875 0.4375 -0.9125
3.9375 0.5 -0.9125
3.9375 0.4375 -0.9125
4 0.5 -0.9125
3.9375 0.4375 -0.85
4 0.4375 -0.85
3.9375 0.5 -0.85
4 0.4375 -0.9125
0.0625 0.625 -0.9125
0.0625 0.5625 -0.9125
0.125 0.625 -0.9125
0.0625 0.5625 -0.85
0.125 0.5625 -0.85
0 0.625 -0.9125
0 0.5625 -0.9125
0.0625 0.625 -0.85
0 0.5625 -0.85
0.125 0.5625 -0.9125
0.1875 0.625 -0.9125
0.1875 0.5625 -0.9125
0.25 0.625 -0.9125
0.1875 0.5625 -0.85
0.25 0.5625 -0.85
0.1875 0.625 -0.85
0.25 0.5625 -0.9125
0.3125 0.625 -0.9125
0.3125 0.5625 -0.9125
0.375 0.625 -0.9125
0.3125 0.5625 -0.85
0.375 0.5625 -0.85
0.3125 0.625 -0.85
0.375 0.5625 -0.9125
0.4375 0.625 -0.9125
0.4375 0.5625 -0.9125
0.5 0.625 -0.9125
0.4375 0.5625 -0.85
0.5 0.5625 -0.85
0.4375 0.625 -0.85
0.5 0.5625 -0.9125
0.5625 0.625 -0.9125
0.5625 0.5625 -0.9125
0.625 0.625 -0.9125
0.5625 0.5625 -0.85
0.625 0.5625 -0.85
0.5625 0.625 -0.85
0.625 0.5625 -0.9125
0.6875 0.625 -0.9125
0.6875 0.5625 -0.9125
0.75 0.625 -0.9125
0.6875 0.5625 -0.85
0.75 0.5625 -0.85
0.6875 0.625 -0.85
0.75 0.5625 -0.9125
0.8125 0.625 -0.9125
0.8125 0.5625 -0.9125
0.875 0.625 -0.9125
0.8125 0.5625 -0.85
0.875 0.5625 -0.85
0.8125 0.625 -0.85
0.875 0.5625 -0.9125
0.9375 0.625 -0.9125
0.9375 0.5625 -0.9125
1 0.625 -0.9125
0.9375 0.5625 -0.85
1 0.5625 -0.85
0.9375 0.625 -0.85
1 0.5625 -0.9125
1.0625 0.625 -0.9125
1.0625 0.5625 -0.9125
1.125 0.625 -0.9125
1.0625 0.5625 -0.85
1.125 0.5625 -0.85
1.0625 0.625 -0.85
1.125 0.5625 -0.9125
1.1875 0.625 -0.9125
1.1875 0.5625 -0.9125
1.25 0.625 -0.9125
1.1875 0.5625 -0.85
1.25 0.5625 -0.85
1.1875 0.625 -0.85
1.25 0.5625 -0.9125
1.3125 0.625 -0.9125
1.3125 0.5625 -0.9125
1.375 0.625 -0.9125
1.3125 0.5625 -0.85
1.375 0.5625 -0.85
1.3125 0.625 -0.85
1.375 0.5625 -0.9125
1.4375 0.625 -0.9125
1.4375 0.5625 -0.9125
1.5 0.625 -0.9125
1.4375 0.5625 -0.85
1.5 0.5625 -0.85
1.4375 0.625 -0.85
1.5 0.5625 -0.9125
1.5625 0.625 -0.9125
1.5625 0.5625 -0.9125
1.625 0.625 -0.9125
1.5625 0.5625 -0.85
1.625 0.5625 -0.85
1.5625 0.625 -0.85
1.625 0.5625 -0.9125
1.6875 0.625 -0.9125
1.6875 0.5625 -0.9125
1.75 0.625 -0.9125
1.6875 0.5625 -0.85
1.75 0.5625 -0.85
1.6875 0.625 -0.85
1.75 0.5625 -0.9125
1.8125 0.625 -0.9125
1.8125 0.5625 -0.9125
1.875 0.625 -0.9125
1.8125 0.5625 -0.85
1.875 0.5625 -0.85
1.8125 0.625 -0.85
1.875 0.5625 -0.9125
1.9375 0.625 -0.9125
1.9375 0.5625 -0.9125
2 0.625 -0.9125
1.9375 0.5625 -0.85
2 0.5625 -0.85
1.9375 0.625 -0.85
2 0.5625 -0.9125
2.0625 0.625 -0.9125
2.0625 0.5625 -0.9125
2.125 0.625 -0.9125
2.0625 0.5625 -0.85
2.125 0.5625 -0.85
2.0625 0.625 -0.85
2.125 0.5625 -0.9125
2.1875 0.625 -0.9125
2.1875 0.5625 -0.9125
2.25 0.625 -0.9125
2.1875 0.5625 -0.85
2.25 0.5625 -0.85
2.1875 0.625 -0.85
2.25 0.5625 -0.9125
2.3125 0.625 -0.9125
2.3125 0.5625 -0.9125
2.375 0.625 -0.9125
2.3125 0.5625 -0.85
2.375 0.5625 -0.85
2.3125 0.625 -0.85
2.375 0.5625 -0.9125
2.4375 0.625 -0.9125
2.4375 0.5625 -0.9125
2.5 0.625 -0.9125
2.4375 0.5625 -0.85
2.5 0.5625 -0.85
2.4375 0.625 -0.85
2.5 0.5625 -0.9125
2.5625 0.625 -0.9125
2.5625 0.5625 -0.9125
2.625 0.625 -0.9125
2.5625 0.5625 -0.85
2.625 0.5625 -0.85
2.5625 0.625 -0.85
2.625 0.5625 -0.9125
2.6875 0.625 -0.9125
2.6875 0.5625 -0.9125
2.75 0.625 -0.9125
2.6875 0.5625 -0.85
2.75 0.5625 -0.85
2.6875 0.625 -0.85
2.75 0.5625 -0.9125
2.8125 0.625 -0.9125
2.8125 0.5625 -0.9125
2.875 0.625 -0.9125
2.8125 0.5625 -0.85
2.875 0.5625 -0.85
2.8125 0.625 -0.85
2.875 0.5625 -0.9125
2.9375 0.625 -0.9125
2.9375 0.5625 -0.9125
3 0.625 -0.9125
2.9375 0.5625 -0.85
3 0.5625 -0.85
2.9375 0.625 -0.85
3 0.5625 -0.9125
3.0625 0.625 -0.9125
3.0625 0.5625 -0.9125
3.125 0.625 -0.9125
3.0625 0.5625 -0.85
3.125 0.5625 -0.85
3.0625 0.625 -0.85
3.125 0.5625 -0.9125
3.1875 0.625 -0.9125
3.1875 0.5625 -0.9125
3.25 0.625 -0.9125
3.1875 0.5625 -0.85
3.25 0.5625 -0.85
3.1875 0.625 -0.85
3.25 0.5625 -0.9125
3.3125 0.625 -0.9125
3.3125 0.5625 -0.9125
3.375 0.625 -0.9125
3.3125 0.5625 -0.85
3.375 0.5625 -0.85
3.3125 0.625 -0.85
3.375 0.5625 -0.9125
3.4375 0.625 -0.9125
3.4375 0.5625 -0.9125
3.5 0.625 -0.9125
3.4375 0.5625 -0.85
3.5 0.5625 -0.85
3.4375 0.625 -0.85
3.5 0.5625 -0.9125
3.5625 0.625 -0.9125
3.5625 0.5625 -0.9125
3.625 0.625 -0.9125
3.5625 0.5625 -0.85
3.625 0.5625 -0.85
3.5625 0.625 -0.85
3.625 0.5625 -0.9125
3.6875 0.625 -0.9125
3.6875 0.5625 -0.9125
3.75 0.625 -0.9125
3.6875 0.5625 -0.85
3.75 0.5625 -0.85
3.6875 0.625 -0.85
3.75 0.5625 -0.9125
3.8125 0.625 -0.9125
3.8125 0.5625 -0.9125
3.875 0.625 -0.9125
3.8125 0.5625 -0.85
3.875 0.5625 -0.85
3.8125 0.625 -0.85
3.875 0.5625 -0.9125
3.9375 0.625 -0.9125
3.9375 0.5625 -0.9125
4 0.625 -0.9125
3.9375 0.5625 -0.85
4 0.5625 -0.85
3.9375 0.625 -0.85
4 0.5625 -0.9125
0.0625 0.75 -0.9125
0.0625 0.6875 -0.9125
0.125 0.75 -0.9125
0.0625 0.6875 -0.85
0.125 0.6875 -0.85
0 0.75 -0.9125
0 0.6875 -0.9125
0.0625 0.75 -0.85
0 0.6875 -0.85
0.125 0.6875 -0.9125
0.1875 0.75 -0.9125
0.1875 0.6875 -0.9125
0.25 0.75 -0.9125
0.1875 0.6875 -0.85
0.25 0.6875 -0.85
0.1875 0.75 -0.85
0.25 0.6875 -0.9125
0.3125 0.75 -0.9125
0.3125 0.6875 -0.9125
0.375 0.75 -0.9125
0.3125 0.6875 -0.85
0.375 0.6875 -0.85
0.3125 0.75 -0.85
0.375 0.6875 -0.9125
0.4375 0.75 -0.9125
0.4375 0.6875 -0.9125
0.5 0.75 -0.9125
0.4375 0.6875 -0.85
0.5 0.6875 -0.85
0.4375 0.75 -0.85
0.5 0.6875 -0.9125
0.5625 0.75 -0.9125
0.5625 0.6875 -0.9125
0.625 0.75 -0.9125
0.5625 0.6875 -0.85
0.625 0.6875 -0.85
0.5625 0.75 -0.85
0.625 0.6875 -0.9125
0.6875 0.75 -0.9125
0.6875 0.6875 -0.9125
0.75 0.75 -0.9125
0.6875 0.6875 -0.85
0.75 0.6875 -0.85
0.6875 0.75 -0.85
0.75 0.6875 -0.9125
0.8125 0.75 -0.9125
0.8125 0.6875 -0.9125
0.875 0.75 -0.9125
0.8125 0.6875 -0.85
0.875 0.6875 -0.85
0.8125 0.75 -0.85
0.875 0.6875 -0.9125
0.9375 0.75 -0.9125
0.9375 0.6875 -0.9125
1 0.75 -0.9125
0.9375 0.6875 -0.85
1 0.6875 -0.85
0.9375 0.75 -0.85
1 0.6875 -0.9125
1.0625 0.75 -0.9125
1.0625 0.6875 -0.9125
1.125 0.75 -0.9125
1.0625 0.6875 -0.85
1.125 0.6875 -0.85
1.0625 0.75 -0.85
1.125 0.6875 -0.9125
1.1875 0.75 -0.9125
1.1875 0.6875 -0.9125
1.25 0.75 -0.9125
1.1875 0.6875 -0.85
1.25 0.6875 -0.85
1.1875 0.75 -0.85
1.25 0.6875 -0.9125
1.3125 0.75 -0.9125
1.3125 0.6875 -0.9125
1.375 0.75 -0.9125
1.3125 0.6875 -0.85
1.375 0.6875 -0.85
1.3125 0.75 -0.85
1.375 0.6875 -0.9125
1.4375 0.75 -0.9125
1.4375 0.6875 -0.9125
1.5 0.75 -0.9125
1.4375 0.6875 -0.85
1.5 0.6875 -0.85
1.4375 0.75 -0.85
1.5 0.6875 -0.9125
1.5625 0.75 -0.9125
1.5625 0.6875 -0.9125
1.625 0.75 -0.9125
1.5625 0.6875 -0.85
1.625 0.6875 -0.85
1.5625 0.75 -0.85
1.625 0.6875 -0.9125
1.6875 0.75 -0.9125
1.6875 0.6875 -0.9125
1.75 0.75 -0.9125
1.6875 0.6875 -0.85
1.75 0.6875 -0.85
1.6875 0.75 -0.85
1.75 0.6875 -0.9125
1.8125 0.75 -0.9125
1.8125 0.6875 -0.9125
1.875 0.75 -0.9125
1.8125 0.6875 -0.85
1.875 0.6875 -0.85
1.8125 0.75 -0.85
1.875 0.6875 -0.9125
1.9375 0.75 -0.9125
1.9375 0.6875 -0.9125
2 0.75 -0.9125
1.9375 0.6875 -0.85
2 0.6875 -0.85
1.9375 0.75 -0.85
2 0.6875 -0.9125
2.0625 0.75 -0.9125
2.0625 0.6875 -0.9125
2.125 0.75 -0.9125
2.0625 0.6875 -0.85
2.125 0.6875 -0.85
2.0625 0.75 -0.85
2.125 0.6875 -0.9125
2.1875 0.75 -0.9125
2.1875 0.6875 -0.9125
2.25 0.75 -0.9125
2.1875 0.6875 -0.85
2.25 0.6875 -0.85
2.1875 0.75 -0.85
2.25 0.6875 -0.9125
2.3125 0.75 -0.9125
2.3125 0.6875 -0.9125
2.375 0.75 -0.9125
2.3125 0.6875 -0.85
2.375 0.6875 -0.85
2.3125 0.75 -0.85
2.375 0.6875 -0.9125
2.4375 0.75 -0.9125
2.4375 0.6875 -0.9125
2.5 0.75 -0.9125
2.4375 0.6875 -0.85
2.5 0.6875 -0.85
2.4375 0.75 -0.85
2.5 0.6875 -0.9125
2.5625 0.75 -0.9125
2.5625 0.6875 -0.9125
2.625 0.75 -0.9125
2.5625 0.6875 -0.85
2.625 0.6875 -0.85
2.5625 0.75 -0.85
2.625 0.6875 -0.9125
2.6875 0.75 -0.9125
2.6875 0.6875 -0.9125
2.75 0.75 -0.9125
2.6875 0.6875 -0.85
2.75 0.6875 -0.85
2.6875 0.75 -0.85
2.75 0.6875 -0.9125
2.8125 0.75 -0.9125
2.8125 0.6875 -0.9125
2.875 0.75 -0.9125
2.8125 0.6875 -0.85
2.875 0.6875 -0.85
2.8125 0.75 -0.85
2.875 0.6875 -0.9125
2.9375 0.75 -0.9125
2.9375 0.6875 -0.9125
3 0.75 -0.9125
2.9375 0.6875 -0.85
3 0.6875 -0.85
2.9375 0.75 -0.85
3 0.6875 -0.9125
3.0625 0.75 -0.9125
3.0625 0.6875 -0.9125
3.125 0.75 -0.9125
3.0625 0.6875 -0.85
3.125 0.6875 -0.85
3.0625 0.75 -0.85
3.125 0.6875 -0.9125
3.1875 0.75 -0.9125
3.1875 0.6875 -0.9125
3.25 0.75 -0.9125
3.1875 0.6875 -0.85
3.25 0.6875 -0.85
3.1875 0.75 -0.85
3.25 0.6875 -0.9125
3.3125 0.75 -0.9125
3.3125 0.6875 -0.9125
3.375 0.75 -0.9125
3.3125 0.6875 -0.85
3.375 0.6875 -0.85
3.3125 0.75 -0.85
3.375 0.6875 -0.9125
3.4375 0.75 -0.9125
3.4375 0.6875 -0.9125
3.5 0.75 -0.9125
3.4375 0.6875 -0.85
3.5 0.6875 -0.85
3.4375 0.75 -0.85
3.5 0.6875 -0.9125
3.5625 0.75 -0.9125
3.5625 0.6875 -0.9125
3.625 0.75 -0.9125
3.5625 0.6875 -0.85
3.625 0.6875 -0.85
3.5625 0.75 -0.85
3.625 0.6875 -0.9125
3.6875 0.75 -0.9125
3.6875 0.6875 -0.9125
3.75 0.75 -0.9125
3.6875 0.6875 -0.85
3.75 0.6875 -0.85
3.6875 0.75 -0.85
3.75 0.6875 -0.9125
3.8125 0.75 -0.9125
3.8125 0.6875 -0.9125
3.875 0.75 -0.9125
3.8125 0.6875 -0.85
3.875 0.6875 -0.85
3.8125 0.75 -0.85
3.875 0.6875 -0.9125
3.9375 0.75 -0.9125
3.9375 0.6875 -0.9125
4 0.75 -0.9125
3.9375 0.6875 -0.85
4 0.6875 -0.85
3.9375 0.75 -0.85
4 0.6875 -0.9125
0.0625 0.875 -0.9125
0.0625 0.8125 -0.9125
0.125 0.875 -0.9125
0.0625 0.8125 -0.85
0.125 0.8125 -0.85
0 0.875 -0.9125
0 0.8125 -0.9125
0.0625 0.875 -0.85
0 0.8125 -0.85
0.125 0.8125 -0.9125
0.1875 0.875 -0.9125
0.1875 0.8125 -0.9125
0.25 0.875 -0.9125
0.1875 0.8125 -0.85
0.25 0.8125 -0.85
0.1875 0.875 -0.85
0.25 0.8125 -0.9125
0.3125 0.875 -0.9125
0.3125 0.8125 -0.9125
0.375 0.875 -0.9125
0.3125 0.8125 -0.85
0.375 0.8125 -0.85
0.3125 0.875 -0.85
0.375 0.8125 -0.9125
0.4375 0.875 -0.9125
0.4375 0.8125 -0.9125
0.5 0.875 -0.9125
0.4375 0.8125 -0.85
0.5 0.8125 -0.85
0.4375 0.875 -0.85
0.5 0.8125 -0.9125
0.5625 0.875 -0.9125
0.5625 0.8125 -0.9125
0.625 0.875 -0.9125
0.5625 0.8125 -0.85
0.625 0.8125 -0.85
0.5625 0.875 -0.85
0.625 0.8125 -0.9125
0.6875 0.875 -0.9125
0.6875 0.8125 -0.9125
0.75 0.875 -0.9125
0.6875 0.8125 -0.85
0.75 0.8125 -0.85
0.6875 0.875 -0.85
0.75 0.8125 -0.9125
0.8125 0.875 -0.9125
0.8125 0.8125 -0.9125
0.875 0.875 -0.9125
0.8125 0.8125 -0.85
0.875 0.8125 -0.85
0.8125 0.875 -0.85
0.875 0.8125 -0.9125
0.9375 0.875 -0.9125
0.9375 0.8125 -0.9125
1 0.875 -0.9125
0.9375 0.8125 -0.85
1 0.8125 -0.85
0.9375 0.875 -0.85
1 0.8125 -0.9125
1.0625 0.875 -0.9125
1.0625 0.8125 -0.9125
1.125 0.875 -0.9125
1.0625 0.8125 -0.85
1.125 0.8125 -0.85
1.0625 0.875 -0.85
1.125 0.8125 -0.9125
1.1875 0.875 -0.9125
1.1875 0.8125 -0.9125
1.25 0.875 -0.9125
1.1875 0.8125 -0.85
1.25 0.8125 -0.85
1.1875 0.875 -0.85
1.25 0.8125 -0.9125
1.3125 0.875 -0.9125
1.3125 0.8125 -0.9125
1.375 0.875 -0.9125
1.3125 0.8125 -0.85
1.375 0.8125 -0.85
1.3125 0.875 -0.85
1.375 0.8125 -0.9125
1.4375 0.875 -0.9125
1.4375 0.8125 -0.9125
1.5 0.875 -0.9125
1.4375 0.8125 -0.85
1.5 0.8125 -0.85
1.4375 0.875 -0.85
1.5 0.8125 -0.9125
1.5625 0.875 -0.9125
1.5625 0.8125 -0.9125
1.625 0.875 -0.9125
1.5625 0.8125 -0.85
1.625 0.8125 -0.85
1.5625 0.875 -0.85
1.625 0.8125 -0.9125
1.6875 0.875 -0.9125
1.6875 0.8125 -0.9125
1.75 0.875 -0.9125
1.6875 0.8125 -0.85
1.75 0.8125 -0.85
1.6875 0.875 -0.85
1.75 0.8125 -0.9125
1.8125 0.875 -0.9125
1.8125 0.8125 -0.9125
1.875 0.875 -0.9125
1.8125 0.8125 -0.85
1.875 0.8125 -0.85
1.8125 0.875 -0.85
1.875 0.8125 -0.9125
1.9375 0.875 -0.9125
1.9375 0.8125 -0.9125
2 0.875 -0.9125
1.9375 0.8125 -0.85
2 0.8125 -0.85
1.9375 0.875 -0.85
2 0.8125 -0.9125
2.0625 0.875 -0.9125
2.0625 0.8125 -0.9125
2.125 0.875 -0.9125
2.0625 0.8125 -0.85
2.125 0.8125 -0.85
2.0625 0.875 -0.85
2.125 0.8125 -0.9125
2.1875 0.875 -0.9125
2.1875 0.8125 -0.9125
2.25 0.875 -0.9125
2.1875 0.8125 -0.85
2.25 0.8125 -0.85
2.1875 0.875 -0.85
2.25 0.8125 -0.9125
2.3125 0.875 -0.9125
2.3125 0.8125 -0.9125
2.375 0.875 -0.9125
2.3125 0.8125 -0.85
2.375 0.8125 -0.85
2.3125 0.875 -0.85
2.375 0.8125 -0.9125
2.4375 0.875 -0.9125
2.4375 0.8125 -0.9125
2.5 0.875 -0.9125
2.4375 0.8125 -0.85
2.5 0.8125 -0.85
2.4375 0.875 -0.85
2.5 0.8125 -0.9125
2.5625 0.875 -0.9125
2.5625 0.8125 -0.9125
2.625 0.875 -0.9125
2.5625 0.8125 -0.85
2.625 0.8125 -0.85
2.5625 0.875 -0.85
2.625 0.8125 -0.9125
2.6875 0.875 -0.9125
2.6875 0.8125 -0.9125
2.75 0.875 -0.9125
2.6875 0.8125 -0.85
2.75 0.8125 -0.85
2.6875 0.875 -0.85
2.75 0.8125 -0.9125
2.8125 0.875 -0.9125
2.8125 0.8125 -0.9125
2.875 0.875 -0.9125
2.8125 0.8125 -0.85
2.875 0.8125 -0.85
2.8125 0.875 -0.85
2.875 0.8125 -0.9125
2.9375 0.875 -0.9125
2.9375 0.8125 -0.9125
3 0.875 -0.9125
2.9375 0.8125 -0.85
3 0.8125 -0.85
2.9375 0.875 -0.85
3 0.8125 -0.9125
3.0625 0.875 -0.9125
3.0625 0.8125 -0.9125
3.125 0.875 -0.9125
3.0625 0.8125 -0.85
3.125 0.8125 -0.85
3.0625 0.875 -0.85
3.125 0.8125 -0.9125
3.1875 0.875 -0.9125
3.1875 0.8125 -0.9125
3.25 0.875 -0.9125
3.1875 0.8125 -0.85
3.25 0.8125 -0.85
3.1875 0.875 -0.85
3.25 0.8125 -0.9125
3.3125 0.875 -0.9125
3.3125 0.8125 -0.9125
3.375 0.875 -0.9125
3.3125 0.8125 -0.85
3.375 0.8125 -0.85
3.3125 0.875 -0.85
3.375 0.8125 -0.9125
3.4375 0.875 -0.9125
3.4375 0.8125 -0.9125
3.5 0.875 -0.9125
3.4375 0.8125 -0.85
3.5 0.8125 -0.85
3.4375 0.875 -0.85
3.5 0.8125 -0.9125
3.5625 0.875 -0.9125
3.5625 0.8125 -0.9125
3.625 0.875 -0.9125
3.5625 0.8125 -0.85
3.625 0.8125 -0.85
3.5625 0.875 -0.85
3.625 0.8125 -0.9125
3.6875 0.875 -0.9125
3.6875 0.8125 -0.9125
3.75 0.875 -0.9125
3.6875 0.8125 -0.85
3.75 0.8125 -0.85
3.6875 0.875 -0.85
3.75 0.8125 -0.9125
3.8125 0.875 -0.9125
3.8125 0.8125 -0.9125
3.875 0.875 -0.9125
3.8125 0.8125 -0.85
3.875 0.8125 -0.85
3.8125 0.875 -0.85
3.875 0.8125 -0.9125
3.9375 0.875 -0.9125
3.9375 0.8125 -0.9125
4 0.875 -0.9125
3.9375 0.8125 -0.85
4 0.8125 -0.85
3.9375 0.875 -0.85
4 0.8125 -0.9125
0.0625 1 -0.9125
0.0625 0.9375 -0.9125
0.125 1 -0.9125
0.0625 0.9375 -0.85
0.125 0.9375 -0.85
0 1 -0.9125
0 0.9375 -0.9125
0.0625 1 -0.85
0 0.9375 -0.85
0.125 0.9375 -0.9125
0.1875 1 -0.9125
0.1875 0.9375 -0.9125
0.25 1 -0.9125
0.1875 0.9375 -0.85
0.25 0.9375 -0.85
0.1875 1 -0.85
0.25 0.9375 -0.9125
0.3125 1 -0.9125
0.3125 0.9375 -0.9125
0.375 1 -0.9125
0.3125 0.9375 -0.85
0.375 0.9375 -0.85
0.3125 1 -0.85
0.375 0.9375 -0.9125
0.4375 1 -0.9125
0.4375 0.9375 -0.9125
0.5 1 -0.9125
0.4375 0.9375 -0.85
0.5 0.9375 -0.85
0.4375 1 -0.85
0.5 0.9375 -0.9125
0.5625 1 -0.9125
0.5625 0.9375 -0.9125
0.625 1 -0.9125
0.5625 0.9375 -0.85
0.625 0.9375 -0.85
0.5625 1 -0.85
0.625 0.9375 -0.9125
0.6875 1 -0.9125
0.6875 0.9375 -0.9125
0.75 1 -0.9125
0.6875 0.9375 -0.85
0.75 0.9375 -0.85
0.6875 1 -0.85
0.75 0.9375 -0.9125
0.8125 1 -0.9125
0.8125 0.9375 -0.9125
0.875 1 -0.9125
0.8125 0.9375 -0.85
0.875 0.9375 -0.85
0.8125 1 -0.85
0.875 0.9375 -0.9125
0.9375 1 -0.9125
0.9375 0.9375 -0.9125
1 1 -0.9125
0.9375 0.9375 -0.85
1 0.9375 -0.85
0.9375 1 -0.85
1 0.9375 -0.9125
1.0625 1 -0.9125
1.0625 0.9375 -0.9125
1.125 1 -0.9125
1.0625 0.9375 -0.85
1.125 0.9375 -0.85
1.0625 1 -0.85
1.125 0.9375 -0.9125
1.1875 1 -0.9125
1.1875 0.9375 -0.9125
1.25 1 -0.9125
1.1875 0.9375 -0.85
1.25 0.9375 -0.85
1.1875 1 -0.85
1.25 0.9375 -0.9125
1.3125 1 -0.9125
1.3125 0.9375 -0.9125
1.375 1 -0.9125
1.3125 0.9375 -0.85
1.375 0.9375 -0.85
1.3125 1 -0.85
1.375 0.9375 -0.9125
1.4375 1 -0.9125
1.4375 0.9375 -0.9125
1.5 1 -0.9125
1.4375 0.9375 -0.85
1.5 0.9375 -0.85
1.4375 1 -0.85
1.5 0.9375 -0.9125
1.5625 1 -0.9125
1.5625 0.9375 -0.9125
1.625 1 -0.9125
1.5625 0.9375 -0.85
1.625 0.9375 -0.85
1.5625 1 -0.85
1.625 0.9375 -0.9125
1.6875 1 -0.9125
1.6875 0.9375 -0.9125
1.75 1 -0.9125
1.6875 0.9375 -0.85
1.75 0.9375 -0.85
1.6875 1 -0.85
1.75 0.9375 -0.9125
1.8125 1 -0.9125
1.8125 0.9375 -0.9125
1.875 1 -0.9125
1.8125 0.9375 -0.85
1.875 0.9375 -0.85
1.8125 1 -0.85
1.875 0.9375 -0.9125
1.9375 1 -0.9125
1.9375 0.9375 -0.9125
2 1 -0.9125
1.9375 0.9375 -0.85
2 0.9375 -0.85
1.9375 1 -0.85
2 0.9375 -0.9125
2.0625 1 -0.9125
2.0625 0.9375 -0.9125
2.125 1 -0.9125
2.0625 0.9375 -0.85
2.125 0.9375 -0.85
2.0625 1 -0.85
2.125 0.9375 -0.9125
2.1875 1 -0.9125
2.1875 0.9375 -0.9125
2.25 1 -0.9125
2.1875 0.9375 -0.85
2.25 0.9375 -0.85
2.1875 1 -0.85
2.25 0.9375 -0.9125
2.3125 1 -0.9125
2.3125 0.9375 -0.9125
2.375 1 -0.9125
2.3125 0.9375 -0.85
2.375 0.9375 -0.85
2.3125 1 -0.85
2.375 0.9375 -0.9125
2.4375 1 -0.9125
2.4375 0.9375 -0.9125
2.5 1 -0.9125
2.4375 0.9375 -0.85
2.5 0.9375 -0.85
2.4375 1 -0.85
2.5 0.9375 -0.9125
2.5625 1 -0.9125
2.5625 0.9375 -0.9125
2.625 1 -0.9125
2.5625 0.9375 -0.85
2.625 0.9375 -0.85
2.5625 1 -0.85
2.625 0.9375 -0.9125
2.6875 1 -0.9125
2.6875 0.9375 -0.9125
2.75 1 -0.9125
2.6875 0.9375 -0.85
2.75 0.9375 -0.85
2.6875 1 -0.85
2.75 0.9375 -0.9125
2.8125 1 -0.9125
2.8125 0.9375 -0.9125
2.875 1 -0.9125
2.8125 0.9375 -0.85
2.875 0.9375 -0.85
2.8125 1 -0.85
2.875 0.9375 -0.9125
2.9375 1 -0.9125
2.9375 0.9375 -0.9125
3 1 -0.9125
2.9375 0.9375 -0.85
3 0.9375 -0.85
2.9375 1 -0.85
3 0.9375 -0.9125
3.0625 1 -0.9125
3.0625 0.9375 -0.9125
3.125 1 -0.9125
3.0625 0.9375 -0.85
3.125 0.9375 -0.85
3.0625 1 -0.85
3.125 0.9375 -0.9125
3.1875 1 -0.9125
3.1875 0.9375 -0.9125
3.25 1 -0.9125
3.1875 0.9375 -0.85
3.25 0.9375 -0.85
3.1875 1 -0.85
3.25 0.9375 -0.9125
3.3125 1 -0.9125
3.3125 0.9375 -0.9125
3.375 1 -0.9125
3.3125 0.9375 -0.85
3.375 0.9375 -0.85
3.3125 1 -0.85
3.375 0.9375 -0.9125
3.4375 1 -0.9125
3.4375 0.9375 -0.9125
3.5 1 -0.9125
3.4375 0.9375 -0.85
3.5 0.9375 -0.85
3.4375 1 -0.85
3.5 0.9375 -0.9125
3.5625 1 -0.9125
3.5625 0.9375 -0.9125
3.625 1 -0.9125
3.5625 0.9375 -0.85
3.625 0.9375 -0.85
3.5625 1 -0.85
3.625 0.9375 -0.9125
3.6875 1 -0.9125
3.6875 0.9375 -0.9125
3.75 1 -0.9125
3.6875 0.9375 -0.85
3.75 0.9375 -0.85
3.6875 1 -0.85
3.75 0.9375 -0.9125
3.8125 1 -0.9125
3.8125 0.9375 -0.9125
3.875 1 -0.9125
3.8125 0.9375 -0.85
3.875 0.9375 -0.85
3.8125 1 -0.85
3.875 0.9375 -0.9125
3.9375 1 -0.9125
3.9375 0.9375 -0.9125
4 1 -0.9125
3.9375 0.9375 -0.85
4 0.9375 -0.85
3.9375 1 -0.85
4 0.9375 -0.9125
0.0625 0.125 -0.7875
0.0625 0.0625 -0.7875
0.125 0.125 -0.7875
0.0625 0.0625 -0.725
0.125 0.0625 -0.725
0.0625 0 -0.725
0 0 -0.7875
0.0625 0 -0.7875
0 0.125 -0.7875
0 0.0625 -0.7875
0.0625 0.125 -0.725
0 0.0625 -0.725
0.125 0 -0.7875
0.125 0.0625 -0.7875
0.1875 0.125 -0.7875
0.1875 0.0625 -0.7875
0.25 0.125 -0.7875
0.1875 0.0625 -0.725
0.25 0.0625 -0.725
0.1875 0 -0.725
0.1875 0 -0.7875
0.1875 0.125 -0.725
0.25 0 -0.7875
0.25 0.0625 -0.7875
0.3125 0.125 -0.7875
0.3125 0.0625 -0.7875
0.375 0.125 -0.7875
0.3125 0.0625 -0.725
0.375 0.0625 -0.725
0.3125 0 -0.725
0.3125 0 -0.7875
0.3125 0.125 -0.725
0.375 0 -0.7875
0.375 0.0625 -0.7875
0.4375 0.125 -0.7875
0.4375 0.0625 -0.7875
0.5 0.125 -0.7875
0.4375 0.0625 -0.725
0.5 0.0625 -0.725
0.4375 0 -0.725
0.4375 0 -0.7875
0.4375 0.125 -0.725
0.5 0 -0.7875
0.5 0.0625 -0.7875
0.5625 0.125 -0.7875
0.5625 0.0625 -0.7875
0.625 0.125 -0.7875
0.5625 0.0625 -0.725
0.625 0.0625 -0.725
0.5625 0 -0.725
0.5625 0 -0.7875
0.5625 0.125 -0.725
0.625 0 -0.7875
0.625 0.0625 -0.7875
0.6875 0.125 -0.7875
0.6875 0.0625 -0.7875
0.75 0.125 -0.7875
0.6875 0.0625 -0.725
0.75 0.0625 -0.725
0.6875 0 -0.725
0.6875 0 -0.7875
0.6875 0.125 -0.725
0.75 0 -0.7875
0.75 0.0625 -0.7875
0.8125 0.125 -0.7875
0.8125 0.0625 -0.7875
0.875 0.125 -0.7875
0.8125 0.0625 -0.725
0.875 0.0625 -0.725
0.8125 0 -0.725
0.8125 0 -0.7875
0.8125 0.125 -0.725
0.875 0 -0.7875
0.875 0.0625 -0.7875
0.9375 0.125 -0.7875
0.9375 0.0625 -0.7875
1 0.125 -0.7875
0.9375 0.0625 -0.725
1 0.0625 -0.725
0.9375 0 -0.725
0.9375 0 -0.7875
0.9375 0.125 -0.725
1 0 -0.7875
1 0.0625 -0.7875
1.0625 0.125 -0.7875
1.0625 0.0625 -0.7875
1.125 0.125 -0.7875
1.0625 0.0625 -0.725
1.125 0.0625 -0.725
1.0625 0 -0.725
1.0625 0 -0.7875
1.0625 0.125 -0.725
1.125 0 -0.7875
1.125 0.0625 -0.7875
1.1875 0.125 -0.7875
1.1875 0.0625 -0.7875
1.25 0.125 -0.7875
1.1875 0.0625 -0.725
1.25 0.0625 -0.725
1.1875 0 -0.725
1.1875 0 -0.7875
1.1875 0.125 -0.725
1.25 0 -0.7875
1.25 0.0625 -0.7875
1.3125 0.125 -0.7875
1.3125 0.0625 -0.7875
1.375 0.125 -0.7875
1.3125 0.0625 -0.725
1.375 0.0625 -0.725
1.3125 0 -0.725
1.3125 0 -0.7875
1.3125 0.125 -0.725
1.375 0 -0.7875
1.375 0.0625 -0.7875
1.4375 0.125 -0.7875
1.4375 0.0625 -0.7875
1.5 0.125 -0.7875
1.4375 0.0625 -0.725
1.5 0.0625 -0.725
1.4375 0 -0.725
1.4375 0 -0.7875
1.4375 0.125 -0.725
1.5 0 -0.7875
1.5 0.0625 -0.7875
1.5625 0.125 -0.7875
1.5625 0.0625 -0.7875
1.625 0.125 -0.7875
1.5625 0.0625 -0.725
1.625 0.0625 -0.725
1.5625 0 -0.725
1.5625 0 -0.7875
1.5625 0.125 -0.725
1.625 0 -0.7875
1.625 0.0625 -0.7875
1.6875 0.125 -0.7875
1.6875 0.0625 -0.7875
1.75 0.125 -0.7875
1.6875 0.0625 -0.725
1.75 0.0625 -0.725
1.6875 0 -0.725
1.6875 0 -0.7875
1.6875 0.125 -0.725
1.75 0 -0.7875
1.75 0.0625 -0.7875
1.8125 0.125 -0.7875
1.8125 0.0625 -0.7875
1.875 0.125 -0.7875
1.8125 0.0625 -0.725
1.875 0.0625 -0.725
1.8125 0 -0.725
1.8125 0 -0.7875
1.8125 0.125 -0.725
1.875 0 -0.7875
1.875 0.0625 -0.7875
1.9375 0.125 -0.7875
1.9375 0.0625 -0.7875
2 0.125 -0.7875
1.9375 0.0625 -0.725
2 0.0625 -0.725
1.9375 0 -0.725
1.9375 0 -0.7875
1.9375 0.125 -0.725
2 0 -0.7875
2 0.0625 -0.7875
2.0625 0.125 -0.7875
2.0625 0.0625 -0.7875
2.125 0.125 -0.7875
2.0625 0.0625 -0.725
2.125 0.0625 -0.725
2.0625 0 -0.725
2.0625 0 -0.7875
2.0625 0.125 -0.725
2.125 0 -0.7875
2.125 0.0625 -0.7875
2.1875 0.125 -0.7875
2.1875 0.0625 -0.7875
2.25 0.125 -0.7875
2.1875 0.0625 -0.725
2.25 0.0625 -0.725
2.1875 0 -0.725
2.1875 0 -0.7875
2.1875 0.125 -0.725
2.25 0 -0.7875
2.25 0.0625 -0.7875
2.3125 0.125 -0.7875
2.3125 0.0625 -0.7875
2.375 0.125 -0.7875
2.3125 0.0625 -0.725
2.375 0.0625 -0.725
2.3125 0 -0.725
2.3125 0 -0.7875
2.3125 0.125 -0.725
2.375 0 -0.7875
2.375 0.0625 -0.7875
2.4375 0.125 -0.7875
2.4375 0.0625 -0.7875
2.5 0.125 -0.7875
2.4375 0.0625 -0.725
2.5 0.0625 -0.725
2.4375 0 -0.725
2.4375 0 -0.7875
2.4375 0.125 -0.725
2.5 0 -0.7875
2.5 0.0625 -0.7875
2.5625 0.125 -0.7875
2.5625 0.0625 -0.7875
2.625 0.125 -0.7875
2.5625 0.0625 -0.725
2.625 0.0625 -0.725
2.5625 0 -0.725
2.5625 0 -0.7875
2.5625 0.125 -0.725
2.625 0 -0.7875
2.625 0.0625 -0.7875
2.6875 0.125 -0.7875
2.6875 0.0625 -0.7875
2.75 0.125 -0.7875
2.6875 0.0625 -0.725
2.75 0.0625 -0.725
2.6875 0 -0.725
2.6875 0 -0.7875
2.6875 0.125 -0.725
2.75 0 -0.7875
2.75 0.0625 -0.7875
2.8125 0.125 -0.7875
2.8125 0.0625 -0.7875
2.875 0.125 -0.7875
2.8125 0.0625 -0.725
2.875 0.0625 -0.725
2.8125 0 -0.725
2.8125 0 -0.7875
2.8125 0.125 -0.725
2.875 0 -0.7875
2.875 0.0625 -0.7875
2.9375 0.125 -0.7875
2.9375 0.0625 -0.7875
3 0.125 -0.7875
2.9375 0.0625 -0.725
3 0.0625 -0.725
2.9375 0 -0.725
2.9375 0 -0.7875
2.9375 0.125 -0.725
3 0 -0.7875
3 0.0625 -0.7875
3.0625 0.125 -0.7875
3.0625 0.0625 -0.7875
3.125 0.125 -0.7875
3.0625 0.0625 -0.725
3.125 0.0625 -0.725
3.0625 0 -0.725
3.0625 0 -0.7875
3.0625 0.125 -0.725
3.125 0 -0.7875
3.125 0.0625 -0.7875
3.1875 0.125 -0.7875
3.1875 0.0625 -0.7875
3.25 0.125 -0.7875
3.1875 0.0625 -0.725
3.25 0.0625 -0.725
3.1875 0 -0.725
3.1875 0 -0.7875
3.1875 0.125 -0.725
3.25 0 -0.7875
3.25 0.0625 -0.7875
3.3125 0.125 -0.7875
3.3125 0.0625 -0.7875
3.375 0.125 -0.7875
3.3125 0.0625 -0.725
3.375 0.0625 -0.725
3.3125 0 -0.725
3.3125 0 -0.7875
3.3125 0.125 -0.725
3.375 0 -0.7875
3.375 0.0625 -0.7875
3.4375 0.125 -0.7875
3.4375 0.0625 -0.7875
3.5 0.125 -0.7875
3.4375 0.0625 -0.725
3.5 0.0625 -0.725
3.4375 0 -0.725
3.4375 0 -0.7875
3.4375 0.125 -0.725
3.5 0 -0.7875
3.5 0.0625 -0.7875
3.5625 0.125 -0.7875
3.5625 0.0625 -0.7875
3.625 0.125 -0.7875
3.5625 0.0625 -0.725
3.625 0.0625 -0.725
3.5625 0 -0.725
3.5625 0 -0.7875
3.5625 0.125 -0.725
3.625 0 -0.7875
3.625 0.0625 -0.7875
3.6875 0.125 -0.7875
3.6875 0.0625 -0.7875
3.75 0.125 -0.7875
3.6875 0.0625 -0.725
3.75 0.0625 -0.725
3.6875 0 -0.725
3.6875 0 -0.7875
3.6875 0.125 -0.725
3.75 0 -0.7875
3.75 0.0625 -0.7875
3.8125 0.125 -0.7875
3.8125 0.0625 -0.7875
3.875 0.125 -0.7875
3.8125 0.0625 -0.725
3.875 0.0625 -0.725
3.8125 0 -0.725
3.8125 0 -0.7875
3.8125 0.125 -0.725
3.875 0 -0.7875
3.875 0.0625 -0.7875
3.9375 0.125 -0.7875
3.9375 0.0625 -0.7875
4 0.125 -0.7875
3.9375 0.0625 -0.725
4 0.0625 -0.725
3.9375 0 -0.725
3.9375 0 -0.7875
3.9375 0.125 -0.725
4 0 -0.7875
4 0.0625 -0.7875
0.0625 0.25 -0.7875
0.0625 0.1875 -0.7875
0.125 0.25 -0.7875
0.0625 0.1875 -0.725
0.125 0.1875 -0.725
0 0.25 -0.7875
0 0.1875 -0.7875
0.0625 0.25 -0.725
0 0.1875 -0.725
0.125 0.1875 -0.7875
0.1875 0.25 -0.7875
0.1875 0.1875 -0.7875
0.25 0.25 -0.7875
0.1875 0.1875 -0.725
0.25 0.1875 -0.725
0.1875 0.25 -0.725
0.25 0.1875 -0.7875
0.3125 0.25 -0.7875
0.3125 0.1875 -0.7875
0.375 0.25 -0.7875
0.3125 0.1875 -0.725
0.375 0.1875 -0.725
0.3125 0.25 -0.725
0.375 0.1875 -0.7875
0.4375 0.25 -0.7875
0.4375 0.1875 -0.7875
0.5 0.25 -0.7875
0.4375 0.1875 -0.725
0.5 0.1875 -0.725
0.4375 0.25 -0.725
0.5 0.1875 -0.7875
0.5625 0.25 -0.7875
0.5625 0.1875 -0.7875
0.625 0.25 -0.7875
0.5625 0.1875 -0.725
0.625 0.1875 -0.725
0.5625 0.25 -0.725
0.625 0.1875 -0.7875
0.6875 0.25 -0.7875
0.6875 0.1875 -0.7875
0.75 0.25 -0.7875
0.6875 0.1875 -0.725
0.75 0.1875 -0.725
0.6875 0.25 -0.725
0.75 0.1875 -0.7875
0.8125 0.25 -0.7875
0.8125 0.1875 -0.7875
0.875 0.25 -0.7875
0.8125 0.1875 -0.725
0.875 0.1875 -0.725
0.8125 0.25 -0.725
0.875 0.1875 -0.7875
0.9375 0.25 -0.7875
0.9375 0.1875 -0.7875
1 0.25 -0.7875
0.9375 0.1875 -0.725
1 0.1875 -0.725
0.9375 0.25 -0.725
1 0.1875 -0.7875
1.0625 0.25 -0.7875
1.0625 0.1875 -0.7875
1.125 0.25 -0.7875
1.0625 0.1875 -0.725
1.125 0.1875 -0.725
1.0625 0.25 -0.725
1.125 0.1875 -0.7875
1.1875 0.25 -0.7875
1.1875 0.1875 -0.7875
1.25 0.25 -0.7875
1.1875 0.1875 -0.725
1.25 0.1875 -0.725
1.1875 0.25 -0.725
1.25 0.1875 -0.7875
1.3125 0.25 -0.7875
1.3125 0.1875 -0.7875
1.375 0.25 -0.7875
1.3125 0.1875 -0.725
1.375 0.1875 -0.725
1.3125 0.25 -0.725
1.375 0.1875 -0.7875
1.4375 0.25 -0.7875
1.4375 0.1875 -0.7875
1.5 0.25 -0.7875
1.4375 0.1875 -0.725
1.5 0.1875 -0.725
1.4375 0.25 -0.725
1.5 0.1875 -0.7875
1.5625 0.25 -0.7875
1.5625 0.1875 -0.7875
1.625 0.25 -0.7875
1.5625 0.1875 -0.725
1.625 0.1875 -0.725
1.5625 0.25 -0.725
1.625 0.1875 -0.7875
1.6875 0.25 -0.7875
1.6875 0.1875 -0.7875
1.75 0.25 -0.7875
1.6875 0.1875 -0.725
1.75 0.1875 -0.725
1.6875 0.25 -0.725
1.75 0.1875 -0.7875
1.8125 0.25 -0.7875
1.8125 0.1875 -0.7875
1.875 0.25 -0.7875
1.8125 0.1875 -0.725
1.875 0.1875 -0.725
1.8125 0.25 -0.725
1.875 0.1875 -0.7875
1.9375 0.25 -0.7875
1.9375 0.1875 -0.7875
2 0.25 -0.7875
1.9375 0.1875 -0.725
2 0.1875 -0.725
1.9375 0.25 -0.725
2 0.1875 -0.7875
2.0625 0.25 -0.7875
2.0625 0.1875 -0.7875
2.125 0.25 -0.7875
2.0625 0.1875 -0.725
2.125 0.1875 -0.725
2.0625 0.25 -0.725
2.125 0.1875 -0.7875
2.1875 0.25 -0.7875
2.1875 0.1875 -0.7875
2.25 0.25 -0.7875
2.1875 0.1875 -0.725
2.25 0.1875 -0.725
2.1875 0.25 -0.725
2.25 0.1875 -0.7875
2.3125 0.25 -0.7875
2.3125 0.1875 -0.7875
2.375 0.25 -0.7875
2.3125 0.1875 -0.725
2.375 0.1875 -0.725
2.3125 0.25 -0.725
2.375 0.1875 -0.7875
2.4375 0.25 -0.7875
2.4375 0.1875 -0.7875
2.5 0.25 -0.7875
2.4375 0.1875 -0.725
2.5 0.1875 -0.725
2.4375 0.25 -0.725
2.5 0.1875 -0.7875
2.5625 0.25 -0.7875
2.5625 0.1875 -0.7875
2.625 0.25 -0.7875
2.5625 0.1875 -0.725
2.625 0.1875 -0.725
2.5625 0.25 -0.725
2.625 0.1875 -0.7875
2.6875 0.25 -0.7875
2.6875 0.1875 -0.7875
2.75 0.25 -0.7875
2.6875 0.1875 -0.725
2.75 0.1875 -0.725
2.6875 0.25 -0.725
2.75 0.1875 -0.7875
2.8125 0.25 -0.7875
2.8125 0.1875 -0.7875
2.875 0.25 -0.7875
2.8125 0.1875 -0.725
2.875 0.1875 -0.725
2.8125 0.25 -0.725
2.875 0.1875 -0.7875
2.9375 0.25 -0.7875
2.9375 0.1875 -0.7875
3 0.25 -0.7875
2.9375 0.1875 -0.725
3 0.1875 -0.725
2.9375 0.25 -0.725
3 0.1875 -0.7875
3.0625 0.25 -0.7875
3.0625 0.1875 -0.7875
3.125 0.25 -0.7875
3.0625 0.1875 -0.725
3.125 0.1875 -0.725
3.0625 0.25 -0.725
3.125 0.1875 -0.7875
3.1875 0.25 -0.7875
3.1875 0.1875 -0.7875
3.25 0.25 -0.7875
3.1875 0.1875 -0.725
3.25 0.1875 -0.725
3.1875 0.25 -0.725
3.25 0.1875 -0.7875
3.3125 0.25 -0.7875
3.3125 0.1875 -0.7875
3.375 0.25 -0.7875
3.3125 0.1875 -0.725
3.375 0.1875 -0.725
3.3125 0.25 -0.725
3.375 0.1875 -0.7875
3.4375 0.25 -0.7875
3.4375 0.1875 -0.7875
3.5 0.25 -0.7875
3.4375 0.1875 -0.725
3.5 0.1875 -0.725
3.4375 0.25 -0.725
3.5 0.1875 -0.7875
3.5625 0.25 -0.7875
3.5625 0.1875 -0.7875
3.625 0.25 -0.7875
3.5625 0.1875 -0.725
3.625 0.1875 -0.725
3.5625 0.25 -0.725
3.625 0.1875 -0.7875
3.6875 0.25 -0.7875
3.6875 0.1875 -0.7875
3.75 0.25 -0.7875
3.6875 0.1875 -0.725
3.75 0.1875 -0.725
3.6875 0.25 -0.725
3.75 0.1875 -0.7875
3.8125 0.25 -0.7875
3.8125 0.1875 -0.7875
3.875 0.25 -0.7875
3.8125 0.1875 -0.725
3.875 0.1875 -0.725
3.8125 0.25 -0.725
3.875 0.1875 -0.7875
3.9375 0.25 -0.7875
3.9375 0.1875 -0.7875
4 0.25 -0.7875
3.9375 0.1875 -0.725
4 0.1875 -0.725
3.9375 0.25 -0.725
4 0.1875 -0.7875
0.0625 0.375 -0.7875
0.0625 0.3125 -0.7875
0.125 0.375 -0.7875
0.0625 0.3125 -0.725
0.125 0.3125 -0.725
0 0.375 -0.7875
0 0.3125 -0.7875
0.0625 0.375 -0.725
0 0.3125 -0.725
0.125 0.3125 -0.7875
0.1875 0.375 -0.7875
0.1875 0.3125 -0.7875
0.25 0.375 -0.7875
0.1875 0.3125 -0.725
0.25 0.3125 -0.725
0.1875 0.375 -0.725
0.25 0.3125 -0.7875
0.3125 0.375 -0.7875
0.3125 0.3125 -0.7875
0.375 0.375 -0.7875
0.3125 0.3125 -0.725
0.375 0.3125 -0.725
0.3125 0.375 -0.725
0.375 0.3125 -0.7875
0.4375 0.375 -0.7875
0.4375 0.3125 -0.7875
0.5 0.375 -0.7875
0.4375 0.3125 -0.725
0.5 0.3125 -0.725
0.4375 0.375 -0.725
0.5 0.3125 -0.7875
0.5625 0.375 -0.7875
0.5625 0.3125 -0.7875
0.625 0.375 -0.7875
0.5625 0.3125 -0.725
0.625 0.3125 -0.725
0.5625 0.375 -0.725
0.625 0.3125 -0.7875
0.6875 0.375 -0.7875
0.6875 0.3125 -0.7875
0.75 0.375 -0.7875
0.6875 0.3125 -0.725
0.75 0.3125 -0.725
0.6875 0.375 -0.725
0.75 0.3125 -0.7875
0.8125 0.375 -0.7875
0.8125 0.3125 -0.7875
0.875 0.375 -0.7875
0.8125 0.3125 -0.725
0.875 0.3125 -0.725
0.8125 0.375 -0.725
0.875 0.3125 -0.7875
0.9375 0.375 -0.7875
0.9375 0.3125 -0.7875
1 0.375 -0.7875
0.9375 0.3125 -0.725
1 0.3125 -0.725
0.9375 0.375 -0.725
1 0.3125 -0.7875
1.0625 0.375 -0.7875
1.0625 0.3125 -0.7875
1.125 0.375 -0.7875
1.0625 0.3125 -0.725
1.125 0.3125 -0.725
1.0625 0.375 -0.725
1.125 0.3125 -0.7875
1.1875 0.375 -0.7875
1.1875 0.3125 -0.7875
1.25 0.375 -0.7875
1.1875 0.3125 -0.725
1.25 0.3125 -0.725
1.1875 0.375 -0.725
1.25 0.3125 -0.7875
1.3125 0.375 -0.7875
1.3125 0.3125 -0.7875
1.375 0.375 -0.7875
1.3125 0.3125 -0.725
1.375 0.3125 -0.725
1.3125 0.375 -0.725
1.375 0.3125 -0.7875
1.4375 0.375 -0.7875
1.4375 0.3125 -0.7875
1.5 0.375 -0.7875
1.4375 0.3125 -0.725
1.5 0.3125 -0.725
1.4375 0.375 -0.725
1.5 0.3125 -0.7875
1.5625 0.375 -0.7875
1.5625 0.3125 -0.7875
1.625 0.375 -0.7875
1.5625 0.3125 -0.725
1.625 0.3125 -0.725
1.5625 0.375 -0.725
1.625 0.3125 -0.7875
1.6875 0.375 -0.7875
1.6875 0.3125 -0.7875
1.75 0.375 -0.7875
1.6875 0.3125 -0.725
1.75 0.3125 -0.725
1.6875 0.375 -0.725
1.75 0.3125 -0.7875
1.8125 0.375 -0.7875
1.8125 0.3125 -0.7875
1.875 0.375 -0.7875
1.8125 0.3125 -0.725
1.875 0.3125 -0.725
1.8125 0.375 -0.725
1.875 0.3125 -0.7875
1.9375 0.375 -0.7875
1.9375 0.3125 -0.7875
2 0.375 -0.7875
1.9375 0.3125 -0.725
2 0.3125 -0.725
1.9375 0.375 -0.725
2 0.3125 -0.7875
2.0625 0.375 -0.7875
2.0625 0.3125 -0.7875
2.125 0.375 -0.7875
2.0625 0.3125 -0.725
2.125 0.3125 -0.725
2.0625 0.375 -0.725
2.125 0.3125 -0.7875
2.1875 0.375 -0.7875
2.1875 0.3125 -0.7875
2.25 0.375 -0.7875
2.1875 0.3125 -0.725
2.25 0.3125 -0.725
2.1875 0.375 -0.725
2.25 0.3125 -0.7875
2.3125 0.375 -0.7875
2.3125 0.3125 -0.7875
2.375 0.375 -0.7875
2.3125 0.3125 -0.725
2.375 0.3125 -0.725
2.3125 0.375 -0.725
2.375 0.3125 -0.7875
2.4375 0.375 -0.7875
2.4375 0.3125 -0.7875
2.5 0.375 -0.7875
2.4375 0.3125 -0.725
2.5 0.3125 -0.725
2.4375 0.375 -0.725
2.5 0.3125 -0.7875
2.5625 0.375 -0.7875
2.5625 0.3125 -0.7875
2.625 0.375 -0.7875
2.5625 0.3125 -0.725
2.625 0.3125 -0.725
2.5625 0.375 -0.725
2.625 0.3125 -0.7875
2.6875 0.375 -0.7875
2.6875 0.3125 -0.7875
2.75 0.375 -0.7875
2.6875 0.3125 -0.725
2.75 0.3125 -0.725
2.6875 0.375 -0.725
2.75 0.3125 -0.7875
2.8125 0.375 -0.7875
2.8125 0.3125 -0.7875
2.875 0.375 -0.7875
2.8125 0.3125 -0.725
2.875 0.3125 -0.725
2.8125 0.375 -0.725
2.875 0.3125 -0.7875
2.9375 0.375 -0.7875
2.9375 0.3125 -0.7875
3 0.375 -0.7875
2.9375 0.3125 -0.725
3 0.3125 -0.725
2.9375 0.375 -0.725
3 0.3125 -0.7875
3.0625 0.375 -0.7875
3.0625 0.3125 -0.7875
3.125 0.375 -0.7875
3.0625 0.3125 -0.725
3.125 0.3125 -0.725
3.0625 0.375 -0.725
3.125 0.3125 -0.7875
3.1875 0.375 -0.7875
3.1875 0.3125 -0.7875
3.25 0.375 -0.7875
3.1875 0.3125 -0.725
3.25 0.3125 -0.725
3.1875 0.375 -0.725
3.25 0.3125 -0.7875
3.3125 0.375 -0.7875
3.3125 0.3125 -0.7875
3.375 0.375 -0.7875
3.3125 0.3125 -0.725
3.375 0.3125 -0.725
3.3125 0.375 -0.725
3.375 0.3125 -0.7875
3.4375 0.375 -0.7875
3.4375 0.3125 -0.7875
3.5 0.375 -0.7875
3.4375 0.3125 -0.725
3.5 0.3125 -0.725
3.4375 0.375 -0.725
3.5 0.3125 -0.7875
3.5625 0.375 -0.7875
3.5625 0.3125 -0.7875
3.625 0.375 -0.7875
3.5625 0.3125 -0.725
3.625 0.3125 -0.725
3.5625 0.375 -0.725
3.625 0.3125 -0.7875
3.6875 0.375 -0.7875
3.6875 0.3125 -0.7875
3.75 0.375 -0.7875
3.6875 0.3125 -0.725
3.75 0.3125 -0.725
3.6875 0.375 -0.725
3.75 0.3125 -0.7875
3.8125 0.375 -0.7875
3.8125 0.3125 -0.7875
3.875 0.375 -0.7875
3.8125 0.3125 -0.725
3.875 0.3125 -0.725
3.8125 0.375 -0.725
3.875 0.3125 -0.7875
3.9375 0.375 -0.7875
3.9375 0.3125 -0.7875
4 0.375 -0.7875
3.9375 0.3125 -0.725
4 0.3125 -0.725
3.9375 0.375 -0.725
4 0.3125 -0.7875
0.0625 0.5 -0.7875
0.0625 0.4375 -0.7875
0.125 0.5 -0.7875
0.0625 0.4375 -0.725
0.125 0.4375 -0.725
0 0.5 -0.7875
0 0.4375 -0.7875
0.0625 0.5 -0.725
0 0.4375 -0.725
0.125 0.4375 -0.7875
0.1875 0.5 -0.7875
0.1875 0.4375 -0.7875
0.25 0.5 -0.7875
0.1875 0.4375 -0.725
0.25 0.4375 -0.725
0.1875 0.5 -0.725
0.25 0.4375 -0.7875
0.3125 0.5 -0.7875
0.3125 0.4375 -0.7875
0.375 0.5 -0.7875
0.3125 0.4375 -0.725
0.375 0.4375 -0.725
0.3125 0.5 -0.725
0.375 0.4375 -0.7875
0.4375 0.5 -0.7875
0.4375 0.4375 -0.7875
0.5 0.5 -0.7875
0.4375 0.4375 -0.725
0.5 0.4375 -0.725
0.4375 0.5 -0.725
0.5 0.4375 -0.7875
0.5625 0.5 -0.7875
0.5625 0.4375 -0.7875
0.625 0.5 -0.7875
0.5625 0.4375 -0.725
0.625 0.4375 -0.725
0.5625 0.5 -0.725
0.625 0.4375 -0.7875
0.6875 0.5 -0.7875
0.6875 0.4375 -0.7875
0.75 0.5 -0.7875
0.6875 0.4375 -0.725
0.75 0.4375 -0.725
0.6875 0.5 -0.725
0.75 0.4375 -0.7875
0.8125 0.5 -0.7875
0.8125 0.4375 -0.7875
0.875 0.5 -0.7875
0.8125 0.4375 -0.725
0.875 0.4375 -0.725
0.8125 0.5 -0.725
0.875 0.4375 -0.7875
0.9375 0.5 -0.7875
0.9375 0.4375 -0.7875
1 0.5 -0.7875
0.9375 0.4375 -0.725
1 0.4375 -0.725
0.9375 0.5 -0.725
1 0.4375 -0.7875
1.0625 0.5 -0.7875
1.0625 0.4375 -0.7875
1.125 0.5 -0.7875
1.0625 0.4375 -0.725
1.125 0.4375 -0.725
1.0625 0.5 -0.725
1.125 0.4375 -0.7875
1.1875 0.5 -0.7875
1.1875 0.4375 -0.7875
1.25 0.5 -0.7875
1.1875 0.4375 -0.725
1.25 0.4375 -0.725
1.1875 0.5 -0.725
1.25 0.4375 -0.7875
1.3125 0.5 -0.7875
1.3125 0.4375 -0.7875
1.375 0.5 -0.7875
1.3125 0.4375 -0.725
1.375 0.4375 -0.725
1.3125 0.5 -0.725
1.375 0.4375 -0.7875
1.4375 0.5 -0.7875
1.4375 0.4375 -0.7875
1.5 0.5 -0.7875
1.4375 0.4375 -0.725
1.5 0.4375 -0.725
1.4375 0.5 -0.725
1.5 0.4375 -0.7875
1.5625 0.5 -0.7875
1.5625 0.4375 -0.7875
1.625 0.5 -0.7875
1.5625 0.4375 -0.725
1.625 0.4375 -0.725
1.5625 0.5 -0.725
1.625 0.4375 -0.7875
1.6875 0.5 -0.7875
1.6875 0.4375 -0.7875
1.75 0.5 -0.7875
1.6875 0.4375 -0.725
1.75 0.4375 -0.725
1.6875 0.5 -0.725
1.75 0.4375 -0.7875
1.8125 0.5 -0.7875
1.8125 0.4375 -0.7875
1.875 0.5 -0.7875
1.8125 0.4375 -0.725
1.875 0.4375 -0.725
1.8125 0.5 -0.725
1.875 0.4375 -0.7875
1.9375 0.5 -0.7875
1.9375 0.4375 -0.7875
2 0.5 -0.7875
1.9375 0.4375 -0.725
2 0.4375 -0.725
1.9375 0.5 -0.725
2 0.4375 -0.7875
2.0625 0.5 -0.7875
2.0625 0.4375 -0.7875
2.125 0.5 -0.7875
2.0625 0.4375 -0.725
2.125 0.4375 -0.725
2.0625 0.5 -0.725
2.125 0.4375 -0.7875
2.1875 0.5 -0.7875
2.1875 0.4375 -0.7875
2.25 0.5 -0.7875
2.1875 0.4375 -0.725
2.25 0.4375 -0.725
2.1875 0.5 -0.725
2.25 0.4375 -0.7875
2.3125 0.5 -0.7875
2.3125 0.4375 -0.7875
2.375 0.5 -0.7875
2.3125 0.4375 -0.725
2.375 0.4375 -0.725
2.3125 0.5 -0.725
2.375 0.4375 -0.7875
2.4375 0.5 -0.7875
2.4375 0.4375 -0.7875
2.5 0.5 -0.7875
2.4375 0.4375 -0.725
2.5 0.4375 -0.725
2.4375 0.5 -0.725
2.5 0.4375 -0.7875
2.5625 0.5 -0.7875
2.5625 0.4375 -0.7875
2.625 0.5 -0.7875
2.5625 0.4375 -0.725
2.625 0.4375 -0.725
2.5625 0.5 -0.725
2.625 0.4375 -0.7875
2.6875 0.5 -0.7875
2.6875 0.4375 -0.7875
2.75 0.5 -0.7875
2.6875 0.4375 -0.725
2.75 0.4375 -0.725
2.6875 0.5 -0.725
2.75 0.4375 -0.7875
2.8125 0.5 -0.7875
2.8125 0.4375 -0.7875
2.875 0.5 -0.7875
2.8125 0.4375 -0.725
2.875 0.4375 -0.725
2.8125 0.5 -0.725
2.875 0.4375 -0.7875
2.9375 0.5 -0.7875
2.9375 0.4375 -0.7875
3 0.5 -0.7875
2.9375 0.4375 -0.725
3 0.4375 -0.725
2.9375 0.5 -0.725
3 0.4375 -0.7875
3.0625 0.5 -0.7875
3.0625 0.4375 -0.7875
3.125 0.5 -0.7875
3.0625 0.4375 -0.725
3.125 0.4375 -0.725
3.0625 0.5 -0.725
3.125 0.4375 -0.7875
3.1875 0.5 -0.7875
3.1875 0.4375 -0.7875
3.25 0.5 -0.7875
3.1875 0.4375 -0.725
3.25 0.4375 -0.725
3.1875 0.5 -0.725
3.25 0.4375 -0.7875
3.3125 0.5 -0.7875
3.3125 0.4375 -0.7875
3.375 0.5 -0.7875
3.3125 0.4375 -0.725
3.375 0.4375 -0.725
3.3125 0.5 -0.725
3.375 0.4375 -0.7875
3.4375 0.5 -0.7875
3.4375 0.4375 -0.7875
3.5 0.5 -0.7875
3.4375 0.4375 -0.725
3.5 0.4375 -0.725
3.4375 0.5 -0.725
3.5 0.4375 -0.7875
3.5625 0.5 -0.7875
3.5625 0.4375 -0.7875
3.625 0.5 -0.7875
3.5625 0.4375 -0.725
3.625 0.4375 -0.725
3.5625 0.5 -0.725
3.625 0.4375 -0.7875
3.6875 0.5 -0.7875
3.6875 0.4375 -0.7875
3.75 0.5 -0.7875
3.6875 0.4375 -0.725
3.75 0.4375 -0.725
3.6875 0.5 -0.725
3.75 0.4375 -0.7875
3.8125 0.5 -0.7875
3.8125 0.4375 -0.7875
3.875 0.5 -0.7875
3.8125 0.4375 -0.725
3.875 0.4375 -0.725
3.8125 0.5 -0.725
3.875 0.4375 -0.7875
3.9375 0.5 -0.7875
3.9375 0.4375 -0.7875
4 0.5 -0.7875
3.9375 0.4375 -0.725
4 0.4375 -0.725
3.9375 0.5 -0.725
4 0.4375 -0.7875
0.0625 0.625 -0.7875
0.0625 0.5625 -0.7875
0.125 0.625 -0.7875
0.0625 0.5625 -0.725
0.125 0.5625 -0.725
0 0.625 -0.7875
0 0.5625 -0.7875
0.0625 0.625 -0.725
0 0.5625 -0.725
0.125 0.5625 -0.7875
0.1875 0.625 -0.7875
0.1875 0.5625 -0.7875
0.25 0.625 -0.7875
0.1875 0.5625 -0.725
0.25 0.5625 -0.725
0.1875 0.625 -0.725
0.25 0.5625 -0.7875
0.3125 0.625 -0.7875
0.3125 0.5625 -0.7875
0.375 0.625 -0.7875
0.3125 0.5625 -0.725
0.375 0.5625 -0.725
0.3125 0.625 -0.725
0.375 0.5625 -0.7875
0.4375 0.625 -0.7875
0.4375 0.5625 -0.7875
0.5 0.625 -0.7875
0.4375 0.5625 -0.725
0.5 0.5625 -0.725
0.4375 0.625 -0.725
0.5 0.5625 -0.7875
0.5625 0.625 -0.7875
0.5625 0.5625 -0.7875
0.625 0.625 -0.7875
0.5625 0.5625 -0.725
0.625 0.5625 -0.725
0.5625 0.625 -0.725
0.625 0.5625 -0.7875
0.6875 0.625 -0.7875
0.6875 0.5625 -0.7875
0.75 0.625 -0.7875
0.6875 0.5625 -0.725
0.75 0.5625 -0.725
0.6875 0.625 -0.725
0.75 0.5625 -0.7875
0.8125 0.625 -0.7875
0.8125 0.5625 -0.7875
0.875 0.625 -0.7875
0.8125 0.5625 -0.725
0.875 0.5625 -0.725
0.8125 0.625 -0.725
0.875 0.5625 -0.7875
0.9375 0.625 -0.7875
0.9375 0.5625 -0.7875
1 0.625 -0.7875
0.9375 0.5625 -0.725
1 0.5625 -0.725
0.9375 0.625 -0.725
1 0.5625 -0.7875
1.0625 0.625 -0.7875
1.0625 0.5625 -0.7875
1.125 0.625 -0.7875
1.0625 0.5625 -0.725
1.125 0.5625 -0.725
1.0625 0.625 -0.725
1.125 0.5625 -0.7875
1.1875 0.625 -0.7875
1.1875 0.5625 -0.7875
1.25 0.625 -0.7875
1.1875 0.5625 -0.725
1.25 0.5625 -0.725
1.1875 0.625 -0.725
1.25 0.5625 -0.7875
1.3125 0.625 -0.7875
1.3125 0.5625 -0.7875
1.375 0.625 -0.7875
1.3125 0.5625 -0.725
1.375 0.5625 -0.725
1.3125 0.625 -0.725
1.375 0.5625 -0.7875
1.4375 0.625 -0.7875
1.4375 0.5625 -0.7875
1.5 0.625 -0.7875
1.4375 0.5625 -0.725
1.5 0.5625 -0.725
1.4375 0.625 -0.725
1.5 0.5625 -0.7875
1.5625 0.625 -0.7875
1.5625 0.5625 -0.7875
1.625 0.625 -0.7875
1.5625 0.5625 -0.725
1.625 0.5625 -0.725
1.5625 0.625 -0.725
1.625 0.5625 -0.7875
1.6875 0.625 -0.7875
1.6875 0.5625 -0.7875
1.75 0.625 -0.7875
1.6875 0.5625 -0.725
1.75 0.5625 -0.725
1.6875 0.625 -0.725
1.75 0.5625 -0.7875
1.8125 0.625 -0.7875
1.8125 0.5625 -0.7875
1.875 0.625 -0.7875
1.8125 0.5625 -0.725
1.875 0.5625 -0.725
1.8125 0.625 -0.725
1.875 0.5625 -0.7875
1.9375 0.625 -0.7875
1.9375 0.5625 -0.7875
2 0.625 -0.7875
1.9375 0.5625 -0.725
2 0.5625 -0.725
1.9375 0.625 -0.725
2 0.5625 -0.7875
2.0625 0.625 -0.7875
2.0625 0.5625 -0.7875
2.125 0.625 -0.7875
2.0625 0.5625 -0.725
2.125 0.5625 -0.725
2.0625 0.625 -0.725
2.125 0.5625 -0.7875
2.1875 0.625 -0.7875
2.1875 0.5625 -0.7875
2.25 0.625 -0.7875
2.1875 0.5625 -0.725
2.25 0.5625 -0.725
2.1875 0.625 -0.725
2.25 0.5625 -0.7875
2.3125 0.625 -0.7875
2.3125 0.5625 -0.7875
2.375 0.625 -0.7875
2.3125 0.5625 -0.725
2.375 0.5625 -0.725
2.3125 0.625 -0.725
2.375 0.5625 -0.7875
2.4375 0.625 -0.7875
2.4375 0.5625 -0.7875
2.5 0.625 -0.7875
2.4375 0.5625 -0.725
2.5 0.5625 -0.725
2.4375 0.625 -0.725
2.5 0.5625 -0.7875
2.5625 0.625 -0.7875
2.5625 0.5625 -0.7875
2.625 0.625 -0.7875
2.5625 0.5625 -0.725
2.625 0.5625 -0.725
2.5625 0.625 -0.725
2.625 0.5625 -0.7875
2.6875 0.625 -0.7875
2.6875 0.5625 -0.7875
2.75 0.625 -0.7875
2.6875 0.5625 -0.725
2.75 0.5625 -0.725
2.6875 0.625 -0.725
2.75 0.5625 -0.7875
2.8125 0.625 -0.7875
2.8125 0.5625 -0.7875
2.875 0.625 -0.7875
2.8125 0.5625 -0.725
2.875 0.5625 -0.725
2.8125 0.625 -0.725
2.875 0.5625 -0.7875
2.9375 0.625 -0.7875
2.9375 0.5625 -0.7875
3 0.625 -0.7875
2.9375 0.5625 -0.725
3 0.5625 -0.725
2.9375 0.625 -0.725
3 0.5625 -0.7875
3.0625 0.625 -0.7875
3.0625 0.5625 -0.7875
3.125 0.625 -0.7875
3.0625 0.5625 -0.725
3.125 0.5625 -0.725
3.0625 0.625 -0.725
3.125 0.5625 -0.7875
3.1875 0.625 -0.7875
3.1875 0.5625 -0.7875
3.25 0.625 -0.7875
3.1875 0.5625 -0.725
3.25 0.5625 -0.725
3.1875 0.625 -0.725
3.25 0.5625 -0.7875
3.3125 0.625 -0.7875
3.3125 0.5625 -0.7875
3.375 0.625 -0.7875
3.3125 0.5625 -0.725
3.375 0.5625 -0.725
3.3125 0.625 -0.725
3.375 0.5625 -0.7875
3.4375 0.625 -0.7875
3.4375 0.5625 -0.7875
3.5 0.625 -0.7875
3.4375 0.5625 -0.725
3.5 0.5625 -0.725
3.4375 0.625 -0.725
3.5 0.5625 -0.7875
3.5625 0.625 -0.7875
3.5625 0.5625 -0.7875
3.625 0.625 -0.7875
3.5625 0.5625 -0.725
3.625 0.5625 -0.725
3.5625 0.625 -0.725
3.625 0.5625 -0.7875
3.6875 0.625 -0.7875
3.6875 0.5625 -0.7875
3.75 0.625 -0.7875
3.6875 0.5625 -0.725
3.75 0.5625 -0.725
3.6875 0.625 -0.725
3.75 0.5625 -0.7875
3.8125 0.625 -0.7875
3.8125 0.5625 -0.7875
3.875 0.625 -0.7875
3.8125 0.5625 -0.725
3.875 0.5625 -0.725
3.8125 0.625 -0.725
3.875 0.5625 -0.7875
3.9375 0.625 -0.7875
3.9375 0.5625 -0.7875
4 0.625 -0.7875
3.9375 0.5625 -0.725
4 0.5625 -0.725
3.9375 0.625 -0.725
4 0.5625 -0.7875
0.0625 0.75 -0.7875
0.0625 0.6875 -0.7875
0.125 0.75 -0.7875
0.0625 0.6875 -0.725
0.125 0.6875 -0.725
0 0.75 -0.7875
0 0.6875 -0.7875
0.0625 0.75 -0.725
0 0.6875 -0.725
0.125 0.6875 -0.7875
0.1875 0.75 -0.7875
0.1875 0.6875 -0.7875
0.25 0.75 -0.7875
0.1875 0.6875 -0.725
0.25 0.6875 -0.725
0.1875 0.75 -0.725
0.25 0.6875 -0.7875
0.3125 0.75 -0.7875
0.3125 0.6875 -0.7875
0.375 0.75 -0.7875
0.3125 0.6875 -0.725
0.375 0.6875 -0.725
0.3125 0.75 -0.725
0.375 0.6875 -0.7875
0.4375 0.75 -0.7875
0.4375 0.6875 -0.7875
0.5 0.75 -0.7875
0.4375 0.6875 -0.725
0.5 0.6875 -0.725
0.4375 0.75 -0.725
0.5 0.6875 -0.7875
0.5625 0.75 -0.7875
0.5625 0.6875 -0.7875
0.625 0.75 -0.7875
0.5625 0.6875 -0.725
0.625 0.6875 -0.725
0.5625 0.75 -0.725
0.625 0.6875 -0.7875
0.6875 0.75 -0.7875
0.6875 0.6875 -0.7875
0.75 0.75 -0.7875
0.6875 0.6875 -0.725
0.75 0.6875 -0.725
0.6875 0.75 -0.725
0.75 0.6875 -0.7875
0.8125 0.75 -0.7875
0.8125 0.6875 -0.7875
0.875 0.75 -0.7875
0.8125 0.6875 -0.725
0.875 0.6875 -0.725
0.8125 0.75 -0.725
0.875 0.6875 -0.7875
0.9375 0.75 -0.7875
0.9375 0.6875 -0.7875
1 0.75 -0.7875
0.9375 0.6875 -0.725
1 0.6875 -0.725
0.9375 0.75 -0.725
1 0.6875 -0.7875
1.0625 0.75 -0.7875
1.0625 0.6875 -0.7875
1.125 0.75 -0.7875
1.0625 0.6875 -0.725
1.125 0.6875 -0.725
1.0625 0.75 -0.725
1.125 0.6875 -0.7875
1.1875 0.75 -0.7875
1.1875 0.6875 -0.7875
1.25 0.75 -0.7875
1.1875 0.6875 -0.725
1.25 0.6875 -0.725
1.1875 0.75 -0.725
1.25 0.6875 -0.7875
1.3125 0.75 -0.7875
1.3125 0.6875 -0.7875
1.375 0.75 -0.7875
1.3125 0.6875 -0.725
1.375 0.6875 -0.725
1.3125 0.75 -0.725
1.375 0.6875 -0.7875
1.4375 0.75 -0.7875
1.4375 0.6875 -0.7875
1.5 0.75 -0.7875
1.4375 0.6875 -0.725
1.5 0.6875 -0.725
1.4375 0.75 -0.725
1.5 0.6875 -0.7875
1.5625 0.75 -0.7875
1.5625 0.6875 -0.7875
1.625 0.75 -0.7875
1.5625 0.6875 -0.725
1.625 0.6875 -0.725
1.5625 0.75 -0.725
1.625 0.6875 -0.7875
1.6875 0.75 -0.7875
1.6875 0.6875 -0.7875
1.75 0.75 -0.7875
1.6875 0.6875 -0.725
1.75 0.6875 -0.725
1.6875 0.75 -0.725
1.75 0.6875 -0.7875
1.8125 0.75 -0.7875
1.8125 0.6875 -0.7875
1.875 0.75 -0.7875
1.8125 0.6875 -0.725
1.875 0.6875 -0.725
1.8125 0.75 -0.725
1.875 0.6875 -0.7875
1.9375 0.75 -0.7875
1.9375 0.6875 -0.7875
2 0.75 -0.7875
1.9375 0.6875 -0.725
2 0.6875 -0.725
1.9375 0.75 -0.725
2 0.6875 -0.7875
2.0625 0.75 -0.7875
2.0625 0.6875 -0.7875
2.125 0.75 -0.7875
2.0625 0.6875 -0.725
2.125 0.6875 -0.725
2.0625 0.75 -0.725
2.125 0.6875 -0.7875
2.1875 0.75 -0.7875
2.1875 0.6875 -0.7875
2.25 0.75 -0.7875
2.1875 0.6875 -0.725
2.25 0.6875 -0.725
2.1875 0.75 -0.725
2.25 0.6875 -0.7875
2.3125 0.75 -0.7875
2.3125 0.6875 -0.7875
2.375 0.75 -0.7875
2.3125 0.6875 -0.725
2.375 0.6875 -0.725
2.3125 0.75 -0.725
2.375 0.6875 -0.7875
2.4375 0.75 -0.7875
2.4375 0.6875 -0.7875
2.5 0.75 -0.7875
2.4375 0.6875 -0.725
2.5 0.6875 -0.725
2.4375 0.75 -0.725
2.5 0.6875 -0.7875
2.5625 0.75 -0.7875
2.5625 0.6875 -0.7875
2.625 0.75 -0.7875
2.5625 0.6875 -0.725
2.625 0.6875 -0.725
2.5625 0.75 -0.725
2.625 0.6875 -0.7875
2.6875 0.75 -0.7875
2.6875 0.6875 -0.7875
2.75 0.75 -0.7875
2.6875 0.6875 -0.725
2.75 0.6875 -0.725
2.6875 0.75 -0.725
2.75 0.6875 -0.7875
2.8125 0.75 -0.7875
2.8125 0.6875 -0.7875
2.875 0.75 -0.7875
2.8125 0.6875 -0.725
2.875 0.6875 -0.725
2.8125 0.75 -0.725
2.875 0.6875 -0.7875
2.9375 0.75 -0.7875
2.9375 0.6875 -0.7875
3 0.75 -0.7875
2.9375 0.6875 -0.725
3 0.6875 -0.725
2.9375 0.75 -0.725
3 0.6875 -0.7875
3.0625 0.75 -0.7875
3.0625 0.6875 -0.7875
3.125 0.75 -0.7875
3.0625 0.6875 -0.725
3.125 0.6875 -0.725
3.0625 0.75 -0.725
3.125 0.6875 -0.7875
3.1875 0.75 -0.7875
3.1875 0.6875 -0.7875
3.25 0.75 -0.7875
3.1875 0.6875 -0.725
3.25 0.6875 -0.725
3.1875 0.75 -0.725
3.25 0.6875 -0.7875
3.3125 0.75 -0.7875
3.3125 0.6875 -0.7875
3.375 0.75 -0.7875
3.3125 0.6875 -0.725
3.375 0.6875 -0.725
3.3125 0.75 -0.725
3.375 0.6875 -0.7875
3.4375 0.75 -0.7875
3.4375 0.6875 -0.7875
3.5 0.75 -0.7875
3.4375 0.6875 -0.725
3.5 0.6875 -0.725
3.4375 0.75 -0.725
3.5 0.6875 -0.7875
3.5625 0.75 -0.7875
3.5625 0.6875 -0.7875
3.625 0.75 -0.7875
3.5625 0.6875 -0.725
3.625 0.6875 -0.725
3.5625 0.75 -0.725
3.625 0.6875 -0.7875
3.6875 0.75 -0.7875
3.6875 0.6875 -0.7875
3.75 0.75 -0.7875
3.6875 0.6875 -0.725
3.75 0.6875 -0.725
3.6875 0.75 -0.725
3.75 0.6875 -0.7875
3.8125 0.75 -0.7875
3.8125 0.6875 -0.7875
3.875 0.75 -0.7875
3.8125 0.6875 -0.725
3.875 0.6875 -0.725
3.8125 0.75 -0.725
3.875 0.6875 -0.7875
3.9375 0.75 -0.7875
3.9375 0.6875 -0.7875
4 0.75 -0.7875
3.9375 0.6875 -0.725
4 0.6875 -0.725
3.9375 0.75 -0.725
4 0.6875 -0.7875
0.0625 0.875 -0.7875
0.0625 0.8125 -0.7875
0.125 0.875 -0.7875
0.0625 0.8125 -0.725
0.125 0.8125 -0.725
0 0.875 -0.7875
0 0.8125 -0.7875
0.0625 0.875 -0.725
0 0.8125 -0.725
0.125 0.8125 -0.7875
0.1875 0.875 -0.7875
0.1875 0.8125 -0.7875
0.25 0.875 -0.7875
0.1875 0.8125 -0.725
0.25 0.8125 -0.725
0.1875 0.875 -0.725
0.25 0.8125 -0.7875
0.3125 0.875 -0.7875
0.3125 0.8125 -0.7875
0.375 0.875 -0.7875
0.3125 0.8125 -0.725
0.375 0.8125 -0.725
0.3125 0.875 -0.725
0.375 0.8125 -0.7875
0.4375 0.875 -0.7875
0.4375 0.8125 -0.7875
0.5 0.875 -0.7875
0.4375 0.8125 -0.725
0.5 0.8125 -0.725
0.4375 0.875 -0.725
0.5 0.8125 -0.7875
0.5625 0.875 -0.7875
0.5625 0.8125 -0.7875
0.625 0.875 -0.7875
0.5625 0.8125 -0.725
0.625 0.8125 -0.725
0.5625 0.875 -0.725
0.625 0.8125 -0.7875
0.6875 0.875 -0.7875
0.6875 0.8125 -0.7875
0.75 0.875 -0.7875
0.6875 0.8125 -0.725
0.75 0.8125 -0.725
0.6875 0.875 -0.725
0.75 0.8125 -0.7875
0.8125 0.875 -0.7875
0.8125 0.8125 -0.7875
0.875 0.875 -0.7875
0.8125 0.8125 -0.725
0.875 0.8125 -0.725
0.8125 0.875 -0.725
0.875 0.8125 -0.7875
0.9375 0.875 -0.7875
0.9375 0.8125 -0.7875
1 0.875 -0.7875
0.9375 0.8125 -0.725
1 0.8125 -0.725
0.9375 0.875 -0.725
1 0.8125 -0.7875
1.0625 0.875 -0.7875
1.0625 0.8125 -0.7875
1.125 0.875 -0.7875
1.0625 0.8125 -0.725
1.125 0.8125 -0.725
1.0625 0.875 -0.725
1.125 0.8125 -0.7875
1.1875 0.875 -0.7875
1.1875 0.8125 -0.7875
1.25 0.875 -0.7875
1.1875 0.8125 -0.725
1.25 0.8125 -0.725
1.1875 0.875 -0.725
1.25 0.8125 -0.7875
1.3125 0.875 -0.7875
1.3125 0.8125 -0.7875
1.375 0.875 -0.7875
1.3125 0.8125 -0.725
1.375 0.8125 -0.725
1.3125 0.875 -0.725
1.375 0.8125 -0.7875
1.4375 0.875 -0.7875
1.4375 0.8125 -0.7875
1.5 0.875 -0.7875
1.4375 0.8125 -0.725
1.5 0.8125 -0.725
1.4375 0.875 -0.725
1.5 0.8125 -0.7875
1.5625 0.875 -0.7875
1.5625 0.8125 -0.7875
1.625 0.875 -0.7875
1.5625 0.8125 -0.725
1.625 0.8125 -0.725
1.5625 0.875 -0.725
1.625 0.8125 -0.7875
1.6875 0.875 -0.7875
1.6875 0.8125 -0.7875
1.75 0.875 -0.7875
1.6875 0.8125 -0.725
1.75 0.8125 -0.725
1.6875 0.875 -0.725
1.75 0.8125 -0.7875
1.8125 0.875 -0.7875
1.8125 0.8125 -0.7875
1.875 0.875 -0.7875
1.8125 0.8125 -0.725
1.875 0.8125 -0.725
1.8125 0.875 -0.725
1.875 0.8125 -0.7875
1.9375 0.875 -0.7875
1.9375 0.8125 -0.7875
2 0.875 -0.7875
1.9375 0.8125 -0.725
2 0.8125 -0.725
1.9375 0.875 -0.725
2 0.8125 -0.7875
2.0625 0.875 -0.7875
2.0625 0.8125 -0.7875
2.125 0.875 -0.7875
2.0625 0.8125 -0.725
2.125 0.8125 -0.725
2.0625 0.875 -0.725
2.125 0.8125 -0.7875
2.1875 0.875 -0.7875
2.1875 0.8125 -0.7875
2.25 0.875 -0.7875
2.1875 0.8125 -0.725
2.25 0.8125 -0.725
2.1875 0.875 -0.725
2.25 0.8125 -0.7875
2.3125 0.875 -0.7875
2.3125 0.8125 -0.7875
2.375 0.875 -0.7875
2.3125 0.8125 -0.725
2.375 0.8125 -0.725
2.3125 0.875 -0.725
2.375 0.8125 -0.7875
2.4375 0.875 -0.7875
2.4375 0.8125 -0.7875
2.5 0.875 -0.7875
2.4375 0.8125 -0.725
2.5 0.8125 -0.725
2.4375 0.875 -0.725
2.5 0.8125 -0.7875
2.5625 0.875 -0.7875
2.5625 0.8125 -0.7875
2.625 0.875 -0.7875
2.5625 0.8125 -0.725
2.625 0.8125 -0.725
2.5625 0.875 -0.725
2.625 0.8125 -0.7875
2.6875 0.875 -0.7875
2.6875 0.8125 -0.7875
2.75 0.875 -0.7875
2.6875 0.8125 -0.725
2.75 0.8125 -0.725
2.6875 0.875 -0.725
2.75 0.8125 -0.7875
2.8125 0.875 -0.7875
2.8125 0.8125 -0.7875
2.875 0.875 -0.7875
2.8125 0.8125 -0.725
2.875 0.8125 -0.725
2.8125 0.875 -0.725
2.875 0.8125 -0.7875
2.9375 0.875 -0.7875
2.9375 0.8125 -0.7875
3 0.875 -0.7875
2.9375 0.8125 -0.725
3 0.8125 -0.725
2.9375 0.875 -0.725
3 0.8125 -0.7875
3.0625 0.875 -0.7875
3.0625 0.8125 -0.7875
3.125 0.875 -0.7875
3.0625 0.8125 -0.725
3.125 0.8125 -0.725
3.0625 0.875 -0.725
3.125 0.8125 -0.7875
3.1875 0.875 -0.7875
3.1875 0.8125 -0.7875
3.25 0.875 -0.7875
3.1875 0.8125 -0.725
3.25 0.8125 -0.725
3.1875 0.875 -0.725
3.25 0.8125 -0.7875
3.3125 0.875 -0.7875
3.3125 0.8125 -0.7875
3.375 0.875 -0.7875
3.3125 0.8125 -0.725
3.375 0.8125 -0.725
3.3125 0.875 -0.725
3.375 0.8125 -0.7875
3.4375 0.875 -0.7875
3.4375 0.8125 -0.7875
3.5 0.875 -0.7875
3.4375 0.8125 -0.725
3.5 0.8125 -0.725
3.4375 0.875 -0.725
3.5 0.8125 -0.7875
3.5625 0.875 -0.7875
3.5625 0.8125 -0.7875
3.625 0.875 -0.7875
3.5625 0.8125 -0.725
3.625 0.8125 -0.725
3.5625 0.875 -0.725
3.625 0.8125 -0.7875
3.6875 0.875 -0.7875
3.6875 0.8125 -0.7875
3.75 0.875 -0.7875
3.6875 0.8125 -0.725
3.75 0.8125 -0.725
3.6875 0.875 -0.725
3.75 0.8125 -0.7875
3.8125 0.875 -0.7875
3.8125 0.8125 -0.7875
3.875 0.875 -0.7875
3.8125 0.8125 -0.725
3.875 0.8125 -0.725
3.8125 0.875 -0.725
3.875 0.8125 -0.7875
3.9375 0.875 -0.7875
3.9375 0.8125 -0.7875
4 0.875 -0.7875
3.9375 0.8125 -0.725
4 0.8125 -0.725
3.9375 0.875 -0.725
4 0.8125 -0.7875
0.0625 1 -0.7875
0.0625 0.9375 -0.7875
0.125 1 -0.7875
0.0625 0.9375 -0.725
0.125 0.9375 -0.725
0 1 -0.7875
0 0.9375 -0.7875
0.0625 1 -0.725
0 0.9375 -0.725
0.125 0.9375 -0.7875
0.1875 1 -0.7875
0.1875 0.9375 -0.7875
0.25 1 -0.7875
0.1875 0.9375 -0.725
0.25 0.9375 -0.725
0.1875 1 -0.725
0.25 0.9375 -0.7875
0.3125 1 -0.7875
0.3125 0.9375 -0.7875
0.375 1 -0.7875
0.3125 0.9375 -0.725
0.375 0.9375 -0.725
0.3125 1 -0.725
0.375 0.9375 -0.7875
0.4375 1 -0.7875
0.4375 0.9375 -0.7875
0.5 1 -0.7875
0.4375 0.9375 -0.725
0.5 0.9375 -0.725
0.4375 1 -0.725
0.5 0.9375 -0.7875
0.5625 1 -0.7875
0.5625 0.9375 -0.7875
0.625 1 -0.7875
0.5625 0.9375 -0.725
0.625 0.9375 -0.725
0.5625 1 -0.725
0.625 0.9375 -0.7875
0.6875 1 -0.7875
0.6875 0.9375 -0.7875
0.75 1 -0.7875
0.6875 0.9375 -0.725
0.75 0.9375 -0.725
0.6875 1 -0.725
0.75 0.9375 -0.7875
0.8125 1 -0.7875
0.8125 0.9375 -0.7875
0.875 1 -0.7875
0.8125 0.9375 -0.725
0.875 0.9375 -0.725
0.8125 1 -0.725
0.875 0.9375 -0.7875
0.9375 1 -0.7875
0.9375 0.9375 -0.7875
1 1 -0.7875
0.9375 0.9375 -0.725
1 0.9375 -0.725
0.9375 1 -0.725
1 0.9375 -0.7875
1.0625 1 -0.7875
1.0625 0.9375 -0.7875
1.125 1 -0.7875
1.0625 0.9375 -0.725
1.125 0.9375 -0.725
1.0625 1 -0.725
1.125 0.9375 -0.7875
1.1875 1 -0.7875
1.1875 0.9375 -0.7875
1.25 1 -0.7875
1.1875 0.9375 -0.725
1.25 0.9375 -0.725
1.1875 1 -0.725
1.25 0.9375 -0.7875
1.3125 1 -0.7875
1.3125 0.9375 -0.7875
1.375 1 -0.7875
1.3125 0.9375 -0.725
1.375 0.9375 -0.725
1.3125 1 -0.725
1.375 0.9375 -0.7875
1.4375 1 -0.7875
1.4375 0.9375 -0.7875
1.5 1 -0.7875
1.4375 0.9375 -0.725
1.5 0.9375 -0.725
1.4375 1 -0.725
1.5 0.9375 -0.7875
1.5625 1 -0.7875
1.5625 0.9375 -0.7875
1.625 1 -0.7875
1.5625 0.9375 -0.725
1.625 0.9375 -0.725
1.5625 1 -0.725
1.625 0.9375 -0.7875
1.6875 1 -0.7875
1.6875 0.9375 -0.7875
1.75 1 -0.7875
1.6875 0.9375 -0.725
1.75 0.9375 -0.725
1.6875 1 -0.725
1.75 0.9375 -0.7875
1.8125 1 -0.7875
1.8125 0.9375 -0.7875
1.875 1 -0.7875
1.8125 0.9375 -0.725
1.875 0.9375 -0.725
1.8125 1 -0.725
1.875 0.9375 -0.7875
1.9375 1 -0.7875
1.9375 0.9375 -0.7875
2 1 -0.7875
1.9375 0.9375 -0.725
2 0.9375 -0.725
1.9375 1 -0.725
2 0.9375 -0.7875
2.0625 1 -0.7875
2.0625 0.9375 -0.7875
2.125 1 -0.7875
2.0625 0.9375 -0.725
2.125 0.9375 -0.725
2.0625 1 -0.725
2.125 0.9375 -0.7875
2.1875 1 -0.7875
2.1875 0.9375 -0.7875
2.25 1 -0.7875
2.1875 0.9375 -0.725
2.25 0.9375 -0.725
2.1875 1 -0.725
2.25 0.9375 -0.7875
2.3125 1 -0.7875
2.3125 0.9375 -0.7875
2.375 1 -0.7875
2.3125 0.9375 -0.725
2.375 0.9375 -0.725
2.3125 1 -0.725
2.375 0.9375 -0.7875
2.4375 1 -0.7875
2.4375 0.9375 -0.7875
2.5 1 -0.7875
2.4375 0.9375 -0.725
2.5 0.9375 -0.725
2.4375 1 -0.725
2.5 0.9375 -0.7875
2.5625 1 -0.7875
2.5625 0.9375 -0.7875
2.625 1 -0.7875
2.5625 0.9375 -0.725
2.625 0.9375 -0.725
2.5625 1 -0.725
2.625 0.9375 -0.7875
2.6875 1 -0.7875
2.6875 0.9375 -0.7875
2.75 1 -0.7875
2.6875 0.9375 -0.725
2.75 0.9375 -0.725
2.6875 1 -0.725
2.75 0.9375 -0.7875
2.8125 1 -0.7875
2.8125 0.9375 -0.7875
2.875 1 -0.7875
2.8125 0.9375 -0.725
2.875 0.9375 -0.725
2.8125 1 -0.725
2.875 0.9375 -0.7875
2.9375 1 -0.7875
2.9375 0.9375 -0.7875
3 1 -0.7875
2.9375 0.9375 -0.725
3 0.9375 -0.725
2.9375 1 -0.725
3 0.9375 -0.7875
3.0625 1 -0.7875
3.0625 0.9375 -0.7875
3.125 1 -0.7875
3.0625 0.9375 -0.725
3.125 0.9375 -0.725
3.0625 1 -0.725
3.125 0.9375 -0.7875
3.1875 1 -0.7875
3.1875 0.9375 -0.7875
3.25 1 -0.7875
3.1875 0.9375 -0.725
3.25 0.9375 -0.725
3.1875 1 -0.725
3.25 0.9375 -0.7875
3.3125 1 -0.7875
3.3125 0.9375 -0.7875
3.375 1 -0.7875
3.3125 0.9375 -0.725
3.375 0.9375 -0.725
3.3125 1 -0.725
3.375 0.9375 -0.7875
3.4375 1 -0.7875
3.4375 0.9375 -0.7875
3.5 1 -0.7875
3.4375 0.9375 -0.725
3.5 0.9375 -0.725
3.4375 1 -0.725
3.5 0.9375 -0.7875
3.5625 1 -0.7875
3.5625 0.9375 -0.7875
3.625 1 -0.7875
3.5625 0.9375 -0.725
3.625 0.9375 -0.725
3.5625 1 -0.725
3.625 0.9375 -0.7875
3.6875 1 -0.7875
3.6875 0.9375 -0.7875
3.75 1 -0.7875
3.6875 0.9375 -0.725
3.75 0.9375 -0.725
3.6875 1 -0.725
3.75 0.9375 -0.7875
3.8125 1 -0.7875
3.8125 0.9375 -0.7875
3.875 1 -0.7875
3.8125 0.9375 -0.725
3.875 0.9375 -0.725
3.8125 1 -0.725
3.875 0.9375 -0.7875
3.9375 1 -0.7875
3.9375 0.9375 -0.7875
4 1 -0.7875
3.9375 0.9375 -0.725
4 0.9375 -0.725
3.9375 1 -0.725
4 0.9375 -0.7875
0.0625 0.125 -0.6625
0.0625 0.0625 -0.6625
0.125 0.125 -0.6625
0.0625 0.0625 -0.6
0.125 0.0625 -0.6
0.0625 0 -0.6
0 0 -0.6625
0.0625 0 -0.6625
0 0.125 -0.6625
0 0.0625 -0.6625
0.0625 0.125 -0.6
0 0.0625 -0.6
0.125 0 -0.6625
0.125 0.0625 -0.6625
0.1875 0.125 -0.6625
0.1875 0.0625 -0.6625
0.25 0.125 -0.6625
0.1875 0.0625 -0.6
0.25 0.0625 -0.6
0.1875 0 -0.6
0.1875 0 -0.6625
0.1875 0.125 -0.6
0.25 0 -0.6625
0.25 0.0625 -0.6625
0.3125 0.125 -0.6625
0.3125 0.0625 -0.6625
0.375 0.125 -0.6625
0.3125 0.0625 -0.6
0.375 0.0625 -0.6
0.3125 0 -0.6
0.3125 0 -0.6625
0.3125 0.125 -0.6
0.375 0 -0.6625
0.375 0.0625 -0.6625
0.4375 0.125 -0.6625
0.4375 0.0625 -0.6625
0.5 0.125 -0.6625
0.4375 0.0625 -0.6
0.5 0.0625 -0.6
0.4375 0 -0.6
0.4375 0 -0.6625
0.4375 0.125 -0.6
0.5 0 -0.6625
0.5 0.0625 -0.6625
0.5625 0.125 -0.6625
0.5625 0.0625 -0.6625
0.625 0.125 -0.6625
0.5625 0.0625 -0.6
0.625 0.0625 -0.6
0.5625 0 -0.6
0.5625 0 -0.6625
0.5625 0.125 -0.6
0.625 0 -0.6625
0.625 0.0625 -0.6625
0.6875 0.125 -0.6625
0.6875 0.0625 -0.6625
0.75 0.125 -0.6625
0.6875 0.0625 -0.6
0.75 0.0625 -0.6
0.6875 0 -0.6
0.6875 0 -0.6625
0.6875 0.125 -0.6
0.75 0 -0.6625
0.75 0.0625 -0.6625
0.8125 0.125 -0.6625
0.8125 0.0625 -0.6625
0.875 0.125 -0.6625
0.8125 0.0625 -0.6
0.875 0.0625 -0.6
0.8125 0 -0.6
0.8125 0 -0.6625
0.8125 0.125 -0.6
0.875 0 -0.6625
0.875 0.0625 -0.6625
0.9375 0.125 -0.6625
0.9375 0.0625 -0.6625
1 0.125 -0.6625
0.9375 0.0625 -0.6
1 0.0625 -0.6
0.9375 0 -0.6
0.9375 0 -0.6625
0.9375 0.125 -0.6
1 0 -0.6625
1 0.0625 -0.6625
1.0625 0.125 -0.6625
1.0625 0.0625 -0.6625
1.125 0.125 -0.6625
1.0625 0.0625 -0.6
1.125 0.0625 -0.6
1.0625 0 -0.6
1.0625 0 -0.6625
1.0625 0.125 -0.6
1.125 0 -0.6625
1.125 0.0625 -0.6625
1.1875 0.125 -0.6625
1.1875 0.0625 -0.6625
1.25 0.125 -0.6625
1.1875 0.0625 -0.6
1.25 0.0625 -0.6
1.1875 0 -0.6
1.1875 0 -0.6625
1.1875 0.125 -0.6
1.25 0 -0.6625
1.25 0.0625 -0.6625
1.3125 0.125 -0.6625
1.3125 0.0625 -0.6625
1.375 0.125 -0.6625
1.3125 0.0625 -0.6
1.375 0.0625 -0.6
1.3125 0 -0.6
1.3125 0 -0.6625
1.3125 0.125 -0.6
1.375 0 -0.6625
1.375 0.0625 -0.6625
1.4375 0.125 -0.6625
1.4375 0.0625 -0.6625
1.5 0.125 -0.6625
1.4375 0.0625 -0.6
1.5 0.0625 -0.6
1.4375 0 -0.6
1.4375 0 -0.6625
1.4375 0.125 -0.6
1.5 0 -0.6625
1.5 0.0625 -0.6625
1.5625 0.125 -0.6625
1.5625 0.0625 -0.6625
1.625 0.125 -0.6625
1.5625 0.0625 -0.6
1.625 0.0625 -0.6
1.5625 0 -0.6
1.5625 0 -0.6625
1.5625 0.125 -0.6
1.625 0 -0.6625
1.625 0.0625 -0.6625
1.6875 0.125 -0.6625
1.6875 0.0625 -0.6625
1.75 0.125 -0.6625
1.6875 0.0625 -0.6
1.75 0.0625 -0.6
1.6875 0 -0.6
1.6875 0 -0.6625
1.6875 0.125 -0.6
1.75 0 -0.6625
1.75 0.0625 -0.6625
1.8125 0.125 -0.6625
1.8125 0.0625 -0.6625
1.875 0.125 -0.6625
1.8125 0.0625 -0.6
1.875 0.0625 -0.6
1.8125 0 -0.6
1.8125 0 -0.6625
1.8125 0.125 -0.6
1.875 0 -0.6625
1.875 0.0625 -0.6625
1.9375 0.125 -0.6625
1.9375 0.0625 -0.6625
2 0.125 -0.6625
1.9375 0.0625 -0.6
2 0.0625 -0.6
1.9375 0 -0.6
1.9375 0 -0.6625
1.9375 0.125 -0.6
2 0 -0.6625
2 0.0625 -0.6625
2.0625 0.125 -0.6625
2.0625 0.0625 -0.6625
2.125 0.125 -0.6625
2.0625 0.0625 -0.6
2.125 0.0625 -0.6
2.0625 0 -0.6
2.0625 0 -0.6625
2.0625 0.125 -0.6
2.125 0 -0.6625
2.125 0.0625 -0.6625
2.1875 0.125 -0.6625
2.1875 0.0625 -0.6625
2.25 0.125 -0.6625
2.1875 0.0625 -0.6
2.25 0.0625 -0.6
2.1875 0 -0.6
2.1875 0 -0.6625
2.1875 0.125 -0.6
2.25 0 -0.6625
2.25 0.0625 -0.6625
2.3125 0.125 -0.6625
2.3125 0.0625 -0.6625
2.375 0.125 -0.6625
2.3125 0.0625 -0.6
2.375 0.0625 -0.6
2.3125 0 -0.6
2.3125 0 -0.6625
2.3125 0.125 -0.6
2.375 0 -0.6625
2.375 0.0625 -0.6625
2.4375 0.125 -0.6625
2.4375 0.0625 -0.6625
2.5 0.125 -0.6625
2.4375 0.0625 -0.6
2.5 0.0625 -0.6
2.4375 0 -0.6
2.4375 0 -0.6625
2.4375 0.125 -0.6
2.5 0 -0.6625
2.5 0.0625 -0.6625
2.5625 0.125 -0.6625
2.5625 0.0625 -0.6625
2.625 0.125 -0.6625
2.5625 0.0625 -0.6
2.625 0.0625 -0.6
2.5625 0 -0.6
2.5625 0 -0.6625
2.5625 0.125 -0.6
2.625 0 -0.6625
2.625 0.0625 -0.6625
2.6875 0.125 -0.6625
2.6875 0.0625 -0.6625
2.75 0.125 -0.6625
2.6875 0.0625 -0.6
2.75 0.0625 -0.6
2.6875 0 -0.6
2.6875 0 -0.6625
2.6875 0.125 -0.6
2.75 0 -0.6625
2.75 0.0625 -0.6625
2.8125 0.125 -0.6625
2.8125 0.0625 -0.6625
2.875 0.125 -0.6625
2.8125 0.0625 -0.6
2.875 0.0625 -0.6
2.8125 0 -0.6
2.8125 0 -0.6625
2.8125 0.125 -0.6
2.875 0 -0.6625
2.875 0.0625 -0.6625
2.9375 0.125 -0.6625
2.9375 0.0625 -0.6625
3 0.125 -0.6625
2.9375 0.0625 -0.6
3 0.0625 -0.6
2.9375 0 -0.6
2.9375 0 -0.6625
2.9375 0.125 -0.6
3 0 -0.6625
3 0.0625 -0.6625
3.0625 0.125 -0.6625
3.0625 0.0625 -0.6625
3.125 0.125 -0.6625
3.0625 0.0625 -0.6
3.125 0.0625 -0.6
3.0625 0 -0.6
3.0625 0 -0.6625
3.0625 0.125 -0.6
3.125 0 -0.6625
3.125 0.0625 -0.6625
3.1875 0.125 -0.6625
3.1875 0.0625 -0.6625
3.25 0.125 -0.6625
3.1875 0.0625 -0.6
3.25 0.0625 -0.6
3.1875 0 -0.6
3.1875 0 -0.6625
3.1875 0.125 -0.6
3.25 0 -0.6625
3.25 0.0625 -0.6625
3.3125 0.125 -0.6625
3.3125 0.0625 -0.6625
3.375 0.125 -0.6625
3.3125 0.0625 -0.6
3.375 0.0625 -0.6
3.3125 0 -0.6
3.3125 0 -0.6625
3.3125 0.125 -0.6
3.375 0 -0.6625
3.375 0.0625 -0.6625
3.4375 0.125 -0.6625
3.4375 0.0625 -0.6625
3.5 0.125 -0.6625
3.4375 0.0625 -0.6
3.5 0.0625 -0.6
3.4375 0 -0.6
3.4375 0 -0.6625
3.4375 0.125 -0.6
3.5 0 -0.6625
3.5 0.0625 -0.6625
3.5625 0.125 -0.6625
3.5625 0.0625 -0.6625
3.625 0.125 -0.6625
3.5625 0.0625 -0.6
3.625 0.0625 -0.6
3.5625 0 -0.6
3.5625 0 -0.6625
3.5625 0.125 -0.6
3.625 0 -0.6625
3.625 0.0625 -0.6625
3.6875 0.125 -0.6625
3.6875 0.0625 -0.6625
3.75 0.125 -0.6625
3.6875 0.0625 -0.6
3.75 0.0625 -0.6
3.6875 0 -0.6
3.6875 0 -0.6625
3.6875 0.125 -0.6
3.75 0 -0.6625
3.75 0.0625 -0.6625
3.8125 0.125 -0.6625
3.8125 0.0625 -0.6625
3.875 0.125 -0.6625
3.8125 0.0625 -0.6
3.875 0.0625 -0.6
3.8125 0 -0.6
3.8125 0 -0.6625
3.8125 0.125 -0.6
3.875 0 -0.6625
3.875 0.0625 -0.6625
3.9375 0.125 -0.6625
3.9375 0.0625 -0.6625
4 0.125 -0.6625
3.9375 0.0625 -0.6
4 0.0625 -0.6
3.9375 0 -0.6
3.9375 0 -0.6625
3.9375 0.125 -0.6
4 0 -0.6625
4 0.0625 -0.6625
0.0625 0.25 -0.6625
0.0625 0.1875 -0.6625
0.125 0.25 -0.6625
0.0625 0.1875 -0.6
0.125 0.1875 -0.6
0 0.25 -0.6625
0 0.1875 -0.6625
0.0625 0.25 -0.6
0 0.1875 -0.6
0.125 0.1875 -0.6625
0.1875 0.25 -0.6625
0.1875 0.1875 -0.6625
0.25 0.25 -0.6625
0.1875 0.1875 -0.6
0.25 0.1875 -0.6
0.1875 0.25 -0.6
0.25 0.1875 -0.6625
0.3125 0.25 -0.6625
0.3125 0.1875 -0.6625
0.375 0.25 -0.6625
0.3125 0.1875 -0.6
0.375 0.1875 -0.6
0.3125 0.25 -0.6
0.375 0.1875 -0.6625
0.4375 0.25 -0.6625
0.4375 0.1875 -0.6625
0.5 0.25 -0.6625
0.4375 0.1875 -0.6
0.5 0.1875 -0.6
0.4375 0.25 -0.6
0.5 0.1875 -0.6625
0.5625 0.25 -0.6625
0.5625 0.1875 -0.6625
0.625 0.25 -0.6625
0.5625 0.1875 -0.6
0.625 0.1875 -0.6
0.5625 0.25 -0.6
0.625 0.1875 -0.6625
0.6875 0.25 -0.6625
0.6875 0.1875 -0.6625
0.75 0.25 -0.6625
0.6875 0.1875 -0.6
0.75 0.1875 -0.6
0.6875 0.25 -0.6
0.75 0.1875 -0.6625
0.8125 0.25 -0.6625
0.8125 0.1875 -0.6625
0.875 0.25 -0.6625
0.8125 0.1875 -0.6
0.875 0.1875 -0.6
0.8125 0.25 -0.6
0.875 0.1875 -0.6625
0.9375 0.25 -0.6625
0.9375 0.1875 -0.6625
1 0.25 -0.6625
0.9375 0.1875 -0.6
1 0.1875 -0.6
0.9375 0.25 -0.6
1 0.1875 -0.6625
1.0625 0.25 -0.6625
1.0625 0.1875 -0.6625
1.125 0.25 -0.6625
1.0625 0.1875 -0.6
1.125 0.1875 -0.6
1.0625 0.25 -0.6
1.125 0.1875 -0.6625
1.1875 0.25 -0.6625
1.1875 0.1875 -0.6625
1.25 0.25 -0.6625
1.1875 0.1875 -0.6
1.25 0.1875 -0.6
1.1875 0.25 -0.6
1.25 0.1875 -0.6625
1.3125 0.25 -0.6625
1.3125 0.1875 -0.6625
1.375 0.25 -0.6625
1.3125 0.1875 -0.6
1.375 0.1875 -0.6
1.3125 0.25 -0.6
1.375 0.1875 -0.6625
1.4375 0.25 -0.6625
1.4375 0.1875 -0.6625
1.5 0.25 -0.6625
1.4375 0.1875 -0.6
1.5 0.1875 -0.6
1.4375 0.25 -0.6
1.5 0.1875 -0.6625
1.5625 0.25 -0.6625
1.5625 0.1875 -0.6625
1.625 0.25 -0.6625
1.5625 0.1875 -0.6
1.625 0.1875 -0.6
1.5625 0.25 -0.6
1.625 0.1875 -0.6625
1.6875 0.25 -0.6625
1.6875 0.1875 -0.6625
1.75 0.25 -0.6625
1.6875 0.1875 -0.6
1.75 0.1875 -0.6
1.6875 0.25 -0.6
1.75 0.1875 -0.6625
1.8125 0.25 -0.6625
1.8125 0.1875 -0.6625
1.875 0.25 -0.6625
1.8125 0.1875 -0.6
1.875 0.1875 -0.6
1.8125 0.25 -0.6
1.875 0.1875 -0.6625
1.9375 0.25 -0.6625
1.9375 0.1875 -0.6625
2 0.25 -0.6625
1.9375 0.1875 -0.6
2 0.1875 -0.6
1.9375 0.25 -0.6
2 0.1875 -0.6625
2.0625 0.25 -0.6625
2.0625 0.1875 -0.6625
2.125 0.25 -0.6625
2.0625 0.1875 -0.6
2.125 0.1875 -0.6
2.0625 0.25 -0.6
2.125 0.1875 -0.6625
2.1875 0.25 -0.6625
2.1875 0.1875 -0.6625
2.25 0.25 -0.6625
2.1875 0.1875 -0.6
2.25 0.1875 -0.6
2.1875 0.25 -0.6
2.25 0.1875 -0.6625
2.3125 0.25 -0.6625
2.3125 0.1875 -0.6625
2.375 0.25 -0.6625
2.3125 0.1875 -0.6
2.375 0.1875 -0.6
2.3125 0.25 -0.6
2.375 0.1875 -0.6625
2.4375 0.25 -0.6625
2.4375 0.1875 -0.6625
2.5 0.25 -0.6625
2.4375 0.1875 -0.6
2.5 0.1875 -0.6
2.4375 0.25 -0.6
2.5 0.1875 -0.6625
2.5625 0.25 -0.6625
2.5625 0.1875 -0.6625
2.625 0.25 -0.6625
2.5625 0.1875 -0.6
2.625 0.1875 -0.6
2.5625 0.25 -0.6
2.625 0.1875 -0.6625
2.6875 0.25 -0.6625
2.6875 0.1875 -0.6625
2.75 0.25 -0.6625
2.6875 0.1875 -0.6
2.75 0.1875 -0.6
2.6875 0.25 -0.6
2.75 0.1875 -0.6625
2.8125 0.25 -0.6625
2.8125 0.1875 -0.6625
2.875 0.25 -0.6625
2.8125 0.1875 -0.6
2.875 0.1875 -0.6
2.8125 0.25 -0.6
2.875 0.1875 -0.6625
2.9375 0.25 -0.6625
2.9375 0.1875 -0.6625
3 0.25 -0.6625
2.9375 0.1875 -0.6
3 0.1875 -0.6
2.9375 0.25 -0.6
3 0.1875 -0.6625
3.0625 0.25 -0.6625
3.0625 0.1875 -0.6625
3.125 0.25 -0.6625
3.0625 0.1875 -0.6
3.125 0.1875 -0.6
3.0625 0.25 -0.6
3.125 0.1875 -0.6625
3.1875 0.25 -0.6625
3.1875 0.1875 -0.6625
3.25 0.25 -0.6625
3.1875 0.1875 -0.6
3.25 0.1875 -0.6
3.1875 0.25 -0.6
3.25 0.1875 -0.6625
3.3125 0.25 -0.6625
3.3125 0.1875 -0.6625
3.375 0.25 -0.6625
3.3125 0.1875 -0.6
3.375 0.1875 -0.6
3.3125 0.25 -0.6
3.375 0.1875 -0.6625
3.4375 0.25 -0.6625
3.4375 0.1875 -0.6625
3.5 0.25 -0.6625
3.4375 0.1875 -0.6
3.5 0.1875 -0.6
3.4375 0.25 -0.6
3.5 0.1875 -0.6625
3.5625 0.25 -0.6625
3.5625 0.1875 -0.6625
3.625 0.25 -0.6625
3.5625 0.1875 -0.6
3.625 0.1875 -0.6
3.5625 0.25 -0.6
3.625 0.1875 -0.6625
3.6875 0.25 -0.6625
3.6875 0.1875 -0.6625
3.75 0.25 -0.6625
3.6875 0.1875 -0.6
3.75 0.1875 -0.6
3.6875 0.25 -0.6
3.75 0.1875 -0.6625
3.8125 0.25 -0.6625
3.8125 0.1875 -0.6625
3.875 0.25 -0.6625
3.8125 0.1875 -0.6
3.875 0.1875 -0.6
3.8125 0.25 -0.6
3.875 0.1875 -0.6625
3.9375 0.25 -0.6625
3.9375 0.1875 -0.6625
4 0.25 -0.6625
3.9375 0.1875 -0.6
4 0.1875 -0.6
3.9375 0.25 -0.6
4 0.1875 -0.6625
0.0625 0.375 -0.6625
0.0625 0.3125 -0.6625
0.125 0.375 -0.6625
0.0625 0.3125 -0.6
0.125 0.3125 -0.6
0 0.375 -0.6625
0 0.3125 -0.6625
0.0625 0.375 -0.6
0 0.3125 -0.6
0.125 0.3125 -0.6625
0.1875 0.375 -0.6625
0.1875 0.3125 -0.6625
0.25 0.375 -0.6625
0.1875 0.3125 -0.6
0.25 0.3125 -0.6
0.1875 0.375 -0.6
0.25 0.3125 -0.6625
0.3125 0.375 -0.6625
0.3125 0.3125 -0.6625
0.375 0.375 -0.6625
0.3125 0.3125 -0.6
0.375 0.3125 -0.6
0.3125 0.375 -0.6
0.375 0.3125 -0.6625
0.4375 0.375 -0.6625
0.4375 0.3125 -0.6625
0.5 0.375 -0.6625
0.4375 0.3125 -0.6
0.5 0.3125 -0.6
0.4375 0.375 -0.6
0.5 0.3125 -0.6625
0.5625 0.375 -0.6625
0.5625 0.3125 -0.6625
0.625 0.375 -0.6625
0.5625 0.3125 -0.6
0.625 0.3125 -0.6
0.5625 0.375 -0.6
0.625 0.3125 -0.6625
0.6875 0.375 -0.6625
0.6875 0.3125 -0.6625
0.75 0.375 -0.6625
0.6875 0.3125 -0.6
0.75 0.3125 -0.6
0.6875 0.375 -0.6
0.75 0.3125 -0.6625
0.8125 0.375 -0.6625
0.8125 0.3125 -0.6625
0.875 0.375 -0.6625
0.8125 0.3125 -0.6
0.875 0.3125 -0.6
0.8125 0.375 -0.6
0.875 0.3125 -0.6625
0.9375 0.375 -0.6625
0.9375 0.3125 -0.6625
1 0.375 -0.6625
0.9375 0.3125 -0.6
1 0.3125 -0.6
0.9375 0.375 -0.6
1 0.3125 -0.6625
1.0625 0.375 -0.6625
1.0625 0.3125 -0.6625
1.125 0.375 -0.6625
1.0625 0.3125 -0.6
1.125 0.3125 -0.6
1.0625 0.375 -0.6
1.125 0.3125 -0.6625
1.1875 0.375 -0.6625
1.1875 0.3125 -0.6625
1.25 0.375 -0.6625
1.1875 0.3125 -0.6
1.25 0.3125 -0.6
1.1875 0.375 -0.6
1.25 0.3125 -0.6625
1.3125 0.375 -0.6625
1.3125 0.3125 -0.6625
1.375 0.375 -0.6625
1.3125 0.3125 -0.6
1.375 0.3125 -0.6
1.3125 0.375 -0.6
1.375 0.3125 -0.6625
1.4375 0.375 -0.6625
1.4375 0.3125 -0.6625
1.5 0.375 -0.6625
1.4375 0.3125 -0.6
1.5 0.3125 -0.6
1.4375 0.375 -0.6
1.5 0.3125 -0.6625
1.5625 0.375 -0.6625
1.5625 0.3125 -0.6625
1.625 0.375 -0.6625
1.5625 0.3125 -0.6
1.625 0.3125 -0.6
1.5625 0.375 -0.6
1.625 0.3125 -0.6625
1.6875 0.375 -0.6625
1.6875 0.3125 -0.6625
1.75 0.375 -0.6625
1.6875 0.3125 -0.6
1.75 0.3125 -0.6
1.6875 0.375 -0.6
1.75 0.3125 -0.6625
1.8125 0.375 -0.6625
1.8125 0.3125 -0.6625
1.875 0.375 -0.6625
1.8125 0.3125 -0.6
1.875 0.3125 -0.6
1.8125 0.375 -0.6
1.875 0.3125 -0.6625
1.9375 0.375 -0.6625
1.9375 0.3125 -0.6625
2 0.375 -0.6625
1.9375 0.3125 -0.6
2 0.3125 -0.6
1.9375 0.375 -0.6
2 0.3125 -0.6625
2.0625 0.375 -0.6625
2.0625 0.3125 -0.6625
2.125 0.375 -0.6625
2.0625 0.3125 -0.6
2.125 0.3125 -0.6
2.0625 0.375 -0.6
2.125 0.3125 -0.6625
2.1875 0.375 -0.6625
2.1875 0.3125 -0.6625
2.25 0.375 -0.6625
2.1875 0.3125 -0.6
2.25 0.3125 -0.6
2.1875 0.375 -0.6
2.25 0.3125 -0.6625
2.3125 0.375 -0.6625
2.3125 0.3125 -0.6625
2.375 0.375 -0.6625
2.3125 0.3125 -0.6
2.375 0.3125 -0.6
2.3125 0.375 -0.6
2.375 0.3125 -0.6625
2.4375 0.375 -0.6625
2.4375 0.3125 -0.6625
2.5 0.375 -0.6625
2.4375 0.3125 -0.6
2.5 0.3125 -0.6
2.4375 0.375 -0.6
2.5 0.3125 -0.6625
2.5625 0.375 -0.6625
2.5625 0.3125 -0.6625
2.625 0.375 -0.6625
2.5625 0.3125 -0.6
2.625 0.3125 -0.6
2.5625 0.375 -0.6
2.625 0.3125 -0.6625
2.6875 0.375 -0.6625
2.6875 0.3125 -0.6625
2.75 0.375 -0.6625
2.6875 0.3125 -0.6
2.75 0.3125 -0.6
2.6875 0.375 -0.6
2.75 0.3125 -0.6625
2.8125 0.375 -0.6625
2.8125 0.3125 -0.6625
2.875 0.375 -0.6625
2.8125 0.3125 -0.6
2.875 0.3125 -0.6
2.8125 0.375 -0.6
2.875 0.3125 -0.6625
2.9375 0.375 -0.6625
2.9375 0.3125 -0.6625
3 0.375 -0.6625
2.9375 0.3125 -0.6
3 0.3125 -0.6
2.9375 0.375 -0.6
3 0.3125 -0.6625
3.0625 0.375 -0.6625
3.0625 0.3125 -0.6625
3.125 0.375 -0.6625
3.0625 0.3125 -0.6
3.125 0.3125 -0.6
3.0625 0.375 -0.6
3.125 0.3125 -0.6625
3.1875 0.375 -0.6625
3.1875 0.3125 -0.6625
3.25 0.375 -0.6625
3.1875 0.3125 -0.6
3.25 0.3125 -0.6
3.1875 0.375 -0.6
3.25 0.3125 -0.6625
3.3125 0.375 -0.6625
3.3125 0.3125 -0.6625
3.375 0.375 -0.6625
3.3125 0.3125 -0.6
3.375 0.3125 -0.6
3.3125 0.375 -0.6
3.375 0.3125 -0.6625
3.4375 0.375 -0.6625
3.4375 0.3125 -0.6625
3.5 0.375 -0.6625
3.4375 0.3125 -0.6
3.5 0.3125 -0.6
3.4375 0.375 -0.6
3.5 0.3125 -0.6625
3.5625 0.375 -0.6625
3.5625 0.3125 -0.6625
3.625 0.375 -0.6625
3.5625 0.3125 -0.6
3.625 0.3125 -0.6
3.5625 0.375 -0.6
3.625 0.3125 -0.6625
3.6875 0.375 -0.6625
3.6875 0.3125 -0.6625
3.75 0.375 -0.6625
3.6875 0.3125 -0.6
3.75 0.3125 -0.6
3.6875 0.375 -0.6
3.75 0.3125 -0.6625
3.8125 0.375 -0.6625
3.8125 0.3125 -0.6625
3.875 0.375 -0.6625
3.8125 0.3125 -0.6
3.875 0.3125 -0.6
3.8125 0.375 -0.6
3.875 0.3125 -0.6625
3.9375 0.375 -0.6625
3.9375 0.3125 -0.6625
4 0.375 -0.6625
3.9375 0.3125 -0.6
4 0.3125 -0.6
3.9375 0.375 -0.6
4 0.3125 -0.6625
0.0625 0.5 -0.6625
0.0625 0.4375 -0.6625
0.125 0.5 -0.6625
0.0625 0.4375 -0.6
0.125 0.4375 -0.6
0 0.5 -0.6625
0 0.4375 -0.6625
0.0625 0.5 -0.6
0 0.4375 -0.6
0.125 0.4375 -0.6625
0.1875 0.5 -0.6625
0.1875 0.4375 -0.6625
0.25 0.5 -0.6625
0.1875 0.4375 -0.6
0.25 0.4375 -0.6
0.1875 0.5 -0.6
0.25 0.4375 -0.6625
0.3125 0.5 -0.6625
0.3125 0.4375 -0.6625
0.375 0.5 -0.6625
0.3125 0.4375 -0.6
0.375 0.4375 -0.6
0.3125 0.5 -0.6
0.375 0.4375 -0.6625
0.4375 0.5 -0.6625
0.4375 0.4375 -0.6625
0.5 0.5 -0.6625
0.4375 0.4375 -0.6
0.5 0.4375 -0.6
0.4375 0.5 -0.6
0.5 0.4375 -0.6625
0.5625 0.5 -0.6625
0.5625 0.4375 -0.6625
0.625 0.5 -0.6625
0.5625 0.4375 -0.6
0.625 0.4375 -0.6
0.5625 0.5 -0.6
0.625 0.4375 -0.6625
0.6875 0.5 -0.6625
0.6875 0.4375 -0.6625
0.75 0.5 -0.6625
0.6875 0.4375 -0.6
0.75 0.4375 -0.6
0.6875 0.5 -0.6
0.75 0.4375 -0.6625
0.8125 0.5 -0.6625
0.8125 0.4375 -0.6625
0.875 0.5 -0.6625
0.8125 0.4375 -0.6
0.875 0.4375 -0.6
0.8125 0.5 -0.6
0.875 0.4375 -0.6625
0.9375 0.5 -0.6625
0.9375 0.4375 -0.6625
1 0.5 -0.6625
0.9375 0.4375 -0.6
1 0.4375 -0.6
0.9375 0.5 -0.6
1 0.4375 -0.6625
1.0625 0.5 -0.6625
1.0625 0.4375 -0.6625
1.125 0.5 -0.6625
1.0625 0.4375 -0.6
1.125 0.4375 -0.6
1.0625 0.5 -0.6
1.125 0.4375 -0.6625
1.1875 0.5 -0.6625
1.1875 0.4375 -0.6625
1.25 0.5 -0.6625
1.1875 0.4375 -0.6
1.25 0.4375 -0.6
1.1875 0.5 -0.6
1.25 0.4375 -0.6625
1.3125 0.5 -0.6625
1.3125 0.4375 -0.6625
1.375 0.5 -0.6625
1.3125 0.4375 -0.6
1.375 0.4375 -0.6
1.3125 0.5 -0.6
1.375 0.4375 -0.6625
1.4375 0.5 -0.6625
1.4375 0.4375 -0.6625
1.5 0.5 -0.6625
1.4375 0.4375 -0.6
1.5 0.4375 -0.6
1.4375 0.5 -0.6
1.5 0.4375 -0.6625
1.5625 0.5 -0.6625
1.5625 0.4375 -0.6625
1.625 0.5 -0.6625
1.5625 0.4375 -0.6
1.625 0.4375 -0.6
1.5625 0.5 -0.6
1.625 0.4375 -0.6625
1.6875 0.5 -0.6625
1.6875 0.4375 -0.6625
1.75 0.5 -0.6625
1.6875 0.4375 -0.6
1.75 0.4375 -0.6
1.6875 0.5 -0.6
1.75 0.4375 -0.6625
1.8125 0.5 -0.6625
1.8125 0.4375 -0.6625
1.875 0.5 -0.6625
1.8125 0.4375 -0.6
1.875 0.4375 -0.6
1.8125 0.5 -0.6
1.875 0.4375 -0.6625
1.9375 0.5 -0.6625
1.9375 0.4375 -0.6625
2 0.5 -0.6625
1.9375 0.4375 -0.6
2 0.4375 -0.6
1.9375 0.5 -0.6
2 0.4375 -0.6625
2.0625 0.5 -0.6625
2.0625 0.4375 -0.6625
2.125 0.5 -0.6625
2.0625 0.4375 -0.6
2.125 0.4375 -0.6
2.0625 0.5 -0.6
2.125 0.4375 -0.6625
2.1875 0.5 -0.6625
2.1875 0.4375 -0.6625
2.25 0.5 -0.6625
2.1875 0.4375 -0.6
2.25 0.4375 -0.6
2.1875 0.5 -0.6
2.25 0.4375 -0.6625
2.3125 0.5 -0.6625
2.3125 0.4375 -0.6625
2.375 0.5 -0.6625
2.3125 0.4375 -0.6
2.375 0.4375 -0.6
2.3125 0.5 -0.6
2.375 0.4375 -0.6625
2.4375 0.5 -0.6625
2.4375 0.4375 -0.6625
2.5 0.5 -0.6625
2.4375 0.4375 -0.6
2.5 0.4375 -0.6
2.4375 0.5 -0.6
2.5 0.4375 -0.6625
2.5625 0.5 -0.6625
2.5625 0.4375 -0.6625
2.625 0.5 -0.6625
2.5625 0.4375 -0.6
2.625 0.4375 -0.6
2.5625 0.5 -0.6
2.625 0.4375 -0.6625
2.6875 0.5 -0.6625
2.6875 0.4375 -0.6625
2.75 0.5 -0.6625
2.6875 0.4375 -0.6
2.75 0.4375 -0.6
2.6875 0.5 -0.6
2.75 0.4375 -0.6625
2.8125 0.5 -0.6625
2.8125 0.4375 -0.6625
2.875 0.5 -0.6625
2.8125 0.4375 -0.6
2.875 0.4375 -0.6
2.8125 0.5 -0.6
2.875 0.4375 -0.6625
2.9375 0.5 -0.6625
2.9375 0.4375 -0.6625
3 0.5 -0.6625
2.9375 0.4375 -0.6
3 0.4375 -0.6
2.9375 0.5 -0.6
3 0.4375 -0.6625
3.0625 0.5 -0.6625
3.0625 0.4375 -0.6625
3.125 0.5 -0.6625
3.0625 0.4375 -0.6
3.125 0.4375 -0.6
3.0625 0.5 -0.6
3.125 0.4375 -0.6625
3.1875 0.5 -0.6625
3.1875 0.4375 -0.6625
3.25 0.5 -0.6625
3.1875 0.4375 -0.6
3.25 0.4375 -0.6
3.1875 0.5 -0.6
3.25 0.4375 -0.6625
3.3125 0.5 -0.6625
3.3125 0.4375 -0.6625
3.375 0.5 -0.6625
3.3125 0.4375 -0.6
3.375 0.4375 -0.6
3.3125 0.5 -0.6
3.375 0.4375 -0.6625
3.4375 0.5 -0.6625
3.4375 0.4375 -0.6625
3.5 0.5 -0.6625
3.4375 0.4375 -0.6
3.5 0.4375 -0.6
3.4375 0.5 -0.6
3.5 0.4375 -0.6625
3.5625 0.5 -0.6625
3.5625 0.4375 -0.6625
3.625 0.5 -0.6625
3.5625 0.4375 -0.6
3.625 0.4375 -0.6
3.5625 0.5 -0.6
3.625 0.4375 -0.6625
3.6875 0.5 -0.6625
3.6875 0.4375 -0.6625
3.75 0.5 -0.6625
3.6875 0.4375 -0.6
3.75 0.4375 -0.6
3.6875 0.5 -0.6
3.75 0.4375 -0.6625
3.8125 0.5 -0.6625
3.8125 0.4375 -0.6625
3.875 0.5 -0.6625
3.8125 0.4375 -0.6
3.875 0.4375 -0.6
3.8125 0.5 -0.6
3.875 0.4375 -0.6625
3.9375 0.5 -0.6625
3.9375 0.4375 -0.6625
4 0.5 -0.6625
3.9375 0.4375 -0.6
4 0.4375 -0.6
3.9375 0.5 -0.6
4 0.4375 -0.6625
0.0625 0.625 -0.6625
0.0625 0.5625 -0.6625
0.125 0.625 -0.6625
0.0625 0.5625 -0.6
0.125 0.5625 -0.6
0 0.625 -0.6625
0 0.5625 -0.6625
0.0625 0.625 -0.6
0 0.5625 -0.6
0.125 0.5625 -0.6625
0.1875 0.625 -0.6625
0.1875 0.5625 -0.6625
0.25 0.625 -0.6625
0.1875 0.5625 -0.6
0.25 0.5625 -0.6
0.1875 0.625 -0.6
0.25 0.5625 -0.6625
0.3125 0.625 -0.6625
0.3125 0.5625 -0.6625
0.375 0.625 -0.6625
0.3125 0.5625 -0.6
0.375 0.5625 -0.6
0.3125 0.625 -0.6
0.375 0.5625 -0.6625
0.4375 0.625 -0.6625
0.4375 0.5625 -0.6625
0.5 0.625 -0.6625
0.4375 0.5625 -0.6
0.5 0.5625 -0.6
0.4375 0.625 -0.6
0.5 0.5625 -0.6625
0.5625 0.625 -0.6625
0.5625 0.5625 -0.6625
0.625 0.625 -0.6625
0.5625 0.5625 -0.6
0.625 0.5625 -0.6
0.5625 0.625 -0.6
0.625 0.5625 -0.6625
0.6875 0.625 -0.6625
0.6875 0.5625 -0.6625
0.75 0.625 -0.6625
0.6875 0.5625 -0.6
0.75 0.5625 -0.6
0.6875 0.625 -0.6
0.75 0.5625 -0.6625
0.8125 0.625 -0.6625
0.8125 0.5625 -0.6625
0.875 0.625 -0.6625
0.8125 0.5625 -0.6
0.875 0.5625 -0.6
0.8125 0.625 -0.6
0.875 0.5625 -0.6625
0.9375 0.625 -0.6625
0.9375 0.5625 -0.6625
1 0.625 -0.6625
0.9375 0.5625 -0.6
1 0.5625 -0.6
0.9375 0.625 -0.6
1 0.5625 -0.6625
1.0625 0.625 -0.6625
1.0625 0.5625 -0.6625
1.125 0.625 -0.6625
1.0625 0.5625 -0.6
1.125 0.5625 -0.6
1.0625 0.625 -0.6
1.125 0.5625 -0.6625
1.1875 0.625 -0.6625
1.1875 0.5625 -0.6625
1.25 0.625 -0.6625
1.1875 0.5625 -0.6
1.25 0.5625 -0.6
1.1875 0.625 -0.6
1.25 0.5625 -0.6625
1.3125 0.625 -0.6625
1.3125 0.5625 -0.6625
1.375 0.625 -0.6625
1.3125 0.5625 -0.6
1.375 0.5625 -0.6
1.3125 0.625 -0.6
1.375 0.5625 -0.6625
1.4375 0.625 -0.6625
1.4375 0.5625 -0.6625
1.5 0.625 -0.6625
1.4375 0.5625 -0.6
1.5 0.5625 -0.6
1.4375 0.625 -0.6
1.5 0.5625 -0.6625
1.5625 0.625 -0.6625
1.5625 0.5625 -0.6625
1.625 0.625 -0.6625
1.5625 0.5625 -0.6
1.625 0.5625 -0.6
1.5625 0.625 -0.6
1.625 0.5625 -0.6625
1.6875 0.625 -0.6625
1.6875 0.5625 -0.6625
1.75 0.625 -0.6625
1.6875 0.5625 -0.6
1.75 0.5625 -0.6
1.6875 0.625 -0.6
1.75 0.5625 -0.6625
1.8125 0.625 -0.6625
1.8125 0.5625 -0.6625
1.875 0.625 -0.6625
1.8125 0.5625 -0.6
1.875 0.5625 -0.6
1.8125 0.625 -0.6
1.875 0.5625 -0.6625
1.9375 0.625 -0.6625
1.9375 0.5625 -0.6625
2 0.625 -0.6625
1.9375 0.5625 -0.6
2 0.5625 -0.6
1.9375 0.625 -0.6
2 0.5625 -0.6625
2.0625 0.625 -0.6625
2.0625 0.5625 -0.6625
2.125 0.625 -0.6625
2.0625 0.5625 -0.6
2.125 0.5625 -0.6
2.0625 0.625 -0.6
2.125 0.5625 -0.6625
2.1875 0.625 -0.6625
2.1875 0.5625 -0.6625
2.25 0.625 -0.6625
2.1875 0.5625 -0.6
2.25 0.5625 -0.6
2.1875 0.625 -0.6
2.25 0.5625 -0.6625
2.3125 0.625 -0.6625
2.3125 0.5625 -0.6625
2.375 0.625 -0.6625
2.3125 0.5625 -0.6
2.375 0.5625 -0.6
2.3125 0.625 -0.6
2.375 0.5625 -0.6625
2.4375 0.625 -0.6625
2.4375 0.5625 -0.6625
2.5 0.625 -0.6625
2.4375 0.5625 -0.6
2.5 0.5625 -0.6
2.4375 0.625 -0.6
2.5 0.5625 -0.6625
2.5625 0.625 -0.6625
2.5625 0.5625 -0.6625
2.625 0.625 -0.6625
2.5625 0.5625 -0.6
2.625 0.5625 -0.6
2.5625 0.625 -0.6
2.625 0.5625 -0.6625
2.6875 0.625 -0.6625
2.6875 0.5625 -0.6625
2.75 0.625 -0.6625
2.6875 0.5625 -0.6
2.75 0.5625 -0.6
2.6875 0.625 -0.6
2.75 0.5625 -0.6625
2.8125 0.625 -0.6625
2.8125 0.5625 -0.6625
2.875 0.625 -0.6625
2.8125 0.5625 -0.6
2.875 0.5625 -0.6
2.8125 0.625 -0.6
2.875 0.5625 -0.6625
2.9375 0.625 -0.6625
2.9375 0.5625 -0.6625
3 0.625 -0.6625
2.9375 0.5625 -0.6
3 0.5625 -0.6
2.9375 0.625 -0.6
3 0.5625 -0.6625
3.0625 0.625 -0.6625
3.0625 0.5625 -0.6625
3.125 0.625 -0.6625
3.0625 0.5625 -0.6
3.125 0.5625 -0.6
3.0625 0.625 -0.6
3.125 0.5625 -0.6625
3.1875 0.625 -0.6625
3.1875 0.5625 -0.6625
3.25 0.625 -0.6625
3.1875 0.5625 -0.6
3.25 0.5625 -0.6
3.1875 0.625 -0.6
3.25 0.5625 -0.6625
3.3125 0.625 -0.6625
3.3125 0.5625 -0.6625
3.375 0.625 -0.6625
3.3125 0.5625 -0.6
3.375 0.5625 -0.6
3.3125 0.625 -0.6
3.375 0.5625 -0.6625
3.4375 0.625 -0.6625
3.4375 0.5625 -0.6625
3.5 0.625 -0.6625
3.4375 0.5625 -0.6
3.5 0.5625 -0.6
3.4375 0.625 -0.6
3.5 0.5625 -0.6625
3.5625 0.625 -0.6625
3.5625 0.5625 -0.6625
3.625 0.625 -0.6625
3.5625 0.5625 -0.6
3.625 0.5625 -0.6
3.5625 0.625 -0.6
3.625 0.5625 -0.6625
3.6875 0.625 -0.6625
3.6875 0.5625 -0.6625
3.75 0.625 -0.6625
3.6875 0.5625 -0.6
3.75 0.5625 -0.6
3.6875 0.625 -0.6
3.75 0.5625 -0.6625
3.8125 0.625 -0.6625
3.8125 0.5625 -0.6625
3.875 0.625 -0.6625
3.8125 0.5625 -0.6
3.875 0.5625 -0.6
3.8125 0.625 -0.6
3.875 0.5625 -0.6625
3.9375 0.625 -0.6625
3.9375 0.5625 -0.6625
4 0.625 -0.6625
3.9375 0.5625 -0.6
4 0.5625 -0.6
3.9375 0.625 -0.6
4 0.5625 -0.6625
0.0625 0.75 -0.6625
0.0625 0.6875 -0.6625
0.125 0.75 -0.6625
0.0625 0.6875 -0.6
0.125 0.6875 -0.6
0 0.75 -0.6625
0 0.6875 -0.6625
0.0625 0.75 -0.6
0 0.6875 -0.6
0.125 0.6875 -0.6625
0.1875 0.75 -0.6625
0.1875 0.6875 -0.6625
0.25 0.75 -0.6625
0.1875 0.6875 -0.6
0.25 0.6875 -0.6
0.1875 0.75 -0.6
0.25 0.6875 -0.6625
0.3125 0.75 -0.6625
0.3125 0.6875 -0.6625
0.375 0.75 -0.6625
0.3125 0.6875 -0.6
0.375 0.6875 -0.6
0.3125 0.75 -0.6
0.375 0.6875 -0.6625
0.4375 0.75 -0.6625
0.4375 0.6875 -0.6625
0.5 0.75 -0.6625
0.4375 0.6875 -0.6
0.5 0.6875 -0.6
0.4375 0.75 -0.6
0.5 0.6875 -0.6625
0.5625 0.75 -0.6625
0.5625 0.6875 -0.6625
0.625 0.75 -0.6625
0.5625 0.6875 -0.6
0.625 0.6875 -0.6
0.5625 0.75 -0.6
0.625 0.6875 -0.6625
0.6875 0.75 -0.6625
0.6875 0.6875 -0.6625
0.75 0.75 -0.6625
0.6875 0.6875 -0.6
0.75 0.6875 -0.6
0.6875 0.75 -0.6
0.75 0.6875 -0.6625
0.8125 0.75 -0.6625
0.8125 0.6875 -0.6625
0.875 0.75 -0.6625
0.8125 0.6875 -0.6
0.875 0.6875 -0.6
0.8125 0.75 -0.6
0.875 0.6875 -0.6625
0.9375 0.75 -0.6625
0.9375 0.6875 -0.6625
1 0.75 -0.6625
0.9375 0.6875 -0.6
1 0.6875 -0.6
0.9375 0.75 -0.6
1 0.6875 -0.6625
1.0625 0.75 -0.6625
1.0625 0.6875 -0.6625
1.125 0.75 -0.6625
1.0625 0.6875 -0.6
1.125 0.6875 -0.6
1.0625 0.75 -0.6
1.125 0.6875 -0.6625
1.1875 0.75 -0.6625
1.1875 0.6875 -0.6625
1.25 0.75 -0.6625
1.1875 0.6875 -0.6
1.25 0.6875 -0.6
1.1875 0.75 -0.6
1.25 0.6875 -0.6625
1.3125 0.75 -0.6625
1.3125 0.6875 -0.6625
1.375 0.75 -0.6625
1.3125 0.6875 -0.6
1.375 0.6875 -0.6
1.3125 0.75 -0.6
1.375 0.6875 -0.6625
1.4375 0.75 -0.6625
1.4375 0.6875 -0.6625
1.5 0.75 -0.6625
1.4375 0.6875 -0.6
1.5 0.6875 -0.6
1.4375 0.75 -0.6
1.5 0.6875 -0.6625
1.5625 0.75 -0.6625
1.5625 0.6875 -0.6625
1.625 0.75 -0.6625
1.5625 0.6875 -0.6
1.625 0.6875 -0.6
1.5625 0.75 -0.6
1.625 0.6875 -0.6625
1.6875 0.75 -0.6625
1.6875 0.6875 -0.6625
1.75 0.75 -0.6625
1.6875 0.6875 -0.6
1.75 0.6875 -0.6
1.6875 0.75 -0.6
1.75 0.6875 -0.6625
1.8125 0.75 -0.6625
1.8125 0.6875 -0.6625
1.875 0.75 -0.6625
1.8125 0.6875 -0.6
1.875 0.6875 -0.6
1.8125 0.75 -0.6
1.875 0.6875 -0.6625
1.9375 0.75 -0.6625
1.9375 0.6875 -0.6625
2 0.75 -0.6625
1.9375 0.6875 -0.6
2 0.6875 -0.6
1.9375 0.75 -0.6
2 0.6875 -0.6625
2.0625 0.75 -0.6625
2.0625 0.6875 -0.6625
2.125 0.75 -0.6625
2.0625 0.6875 -0.6
2.125 0.6875 -0.6
2.0625 0.75 -0.6
2.125 0.6875 -0.6625
2.1875 0.75 -0.6625
2.1875 0.6875 -0.6625
2.25 0.75 -0.6625
2.1875 0.6875 -0.6
2.25 0.6875 -0.6
2.1875 0.75 -0.6
2.25 0.6875 -0.6625
2.3125 0.75 -0.6625
2.3125 0.6875 -0.6625
2.375 0.75 -0.6625
2.3125 0.6875 -0.6
2.375 0.6875 -0.6
2.3125 0.75 -0.6
2.375 0.6875 -0.6625
2.4375 0.75 -0.6625
2.4375 0.6875 -0.6625
2.5 0.75 -0.6625
2.4375 0.6875 -0.6
2.5 0.6875 -0.6
2.4375 0.75 -0.6
2.5 0.6875 -0.6625
2.5625 0.75 -0.6625
2.5625 0.6875 -0.6625
2.625 0.75 -0.6625
2.5625 0.6875 -0.6
2.625 0.6875 -0.6
2.5625 0.75 -0.6
2.625 0.6875 -0.6625
2.6875 0.75 -0.6625
2.6875 0.6875 -0.6625
2.75 0.75 -0.6625
2.6875 0.6875 -0.6
2.75 0.6875 -0.6
2.6875 0.75 -0.6
2.75 0.6875 -0.6625
2.8125 0.75 -0.6625
2.8125 0.6875 -0.6625
2.875 0.75 -0.6625
2.8125 0.6875 -0.6
2.875 0.6875 -0.6
2.8125 0.75 -0.6
2.875 0.6875 -0.6625
2.9375 0.75 -0.6625
2.9375 0.6875 -0.6625
3 0.75 -0.6625
2.9375 0.6875 -0.6
3 0.6875 -0.6
2.9375 0.75 -0.6
3 0.6875 -0.6625
3.0625 0.75 -0.6625
3.0625 0.6875 -0.6625
3.125 0.75 -0.6625
3.0625 0.6875 -0.6
3.125 0.6875 -0.6
3.0625 0.75 -0.6
3.125 0.6875 -0.6625
3.1875 0.75 -0.6625
3.1875 0.6875 -0.6625
3.25 0.75 -0.6625
3.1875 0.6875 -0.6
3.25 0.6875 -0.6
3.1875 0.75 -0.6
3.25 0.6875 -0.6625
3.3125 0.75 -0.6625
3.3125 0.6875 -0.6625
3.375 0.75 -0.6625
3.3125 0.6875 -0.6
3.375 0.6875 -0.6
3.3125 0.75 -0.6
3.375 0.6875 -0.6625
3.4375 0.75 -0.6625
3.4375 0.6875 -0.6625
3.5 0.75 -0.6625
3.4375 0.6875 -0.6
3.5 0.6875 -0.6
3.4375 0.75 -0.6
3.5 0.6875 -0.6625
3.5625 0.75 -0.6625
3.5625 0.6875 -0.6625
3.625 0.75 -0.6625
3.5625 0.6875 -0.6
3.625 0.6875 -0.6
3.5625 0.75 -0.6
3.625 0.6875 -0.6625
3.6875 0.75 -0.6625
3.6875 0.6875 -0.6625
3.75 0.75 -0.6625
3.6875 0.6875 -0.6
3.75 0.6875 -0.6
3.6875 0.75 -0.6
3.75 0.6875 -0.6625
3.8125 0.75 -0.6625
3.8125 0.6875 -0.6625
3.875 0.75 -0.6625
3.8125 0.6875 -0.6
3.875 0.6875 -0.6
3.8125 0.75 -0.6
3.875 0.6875 -0.6625
3.9375 0.75 -0.6625
3.9375 0.6875 -0.6625
4 0.75 -0.6625
3.9375 0.6875 -0.6
4 0.6875 -0.6
3.9375 0.75 -0.6
4 0.6875 -0.6625
0.0625 0.875 -0.6625
0.0625 0.8125 -0.6625
0.125 0.875 -0.6625
0.0625 0.8125 -0.6
0.125 0.8125 -0.6
0 0.875 -0.6625
0 0.8125 -0.6625
0.0625 0.875 -0.6
0 0.8125 -0.6
0.125 0.8125 -0.6625
0.1875 0.875 -0.6625
0.1875 0.8125 -0.6625
0.25 0.875 -0.6625
0.1875 0.8125 -0.6
0.25 0.8125 -0.6
0.1875 0.875 -0.6
0.25 0.8125 -0.6625
0.3125 0.875 -0.6625
0.3125 0.8125 -0.6625
0.375 0.875 -0.6625
0.3125 0.8125 -0.6
0.375 0.8125 -0.6
0.3125 0.875 -0.6
0.375 0.8125 -0.6625
0.4375 0.875 -0.6625
0.4375 0.8125 -0.6625
0.5 0.875 -0.6625
0.4375 0.8125 -0.6
0.5 0.8125 -0.6
0.4375 0.875 -0.6
0.5 0.8125 -0.6625
0.5625 0.875 -0.6625
0.5625 0.8125 -0.6625
0.625 0.875 -0.6625
0.5625 0.8125 -0.6
0.625 0.8125 -0.6
0.5625 0.875 -0.6
0.625 0.8125 -0.6625
0.6875 0.875 -0.6625
0.6875 0.8125 -0.6625
0.75 0.875 -0.6625
0.6875 0.8125 -0.6
0.75 0.8125 -0.6
0.6875 0.875 -0.6
0.75 0.8125 -0.6625
0.8125 0.875 -0.6625
0.8125 0.8125 -0.6625
0.875 0.875 -0.6625
0.8125 0.8125 -0.6
0.875 0.8125 -0.6
0.8125 0.875 -0.6
0.875 0.8125 -0.6625
0.9375 0.875 -0.6625
0.9375 0.8125 -0.6625
1 0.875 -0.6625
0.9375 0.8125 -0.6
1 0.8125 -0.6
0.9375 0.875 -0.6
1 0.8125 -0.6625
1.0625 0.875 -0.6625
1.0625 0.8125 -0.6625
1.125 0.875 -0.6625
1.0625 0.8125 -0.6
1.125 0.8125 -0.6
1.0625 0.875 -0.6
1.125 0.8125 -0.6625
1.1875 0.875 -0.6625
1.1875 0.8125 -0.6625
1.25 0.875 -0.6625
1.1875 0.8125 -0.6
1.25 0.8125 -0.6
1.1875 0.875 -0.6
1.25 0.8125 -0.6625
1.3125 0.875 -0.6625
1.3125 0.8125 -0.6625
1.375 0.875 -0.6625
1.3125 0.8125 -0.6
1.375 0.8125 -0.6
1.3125 0.875 -0.6
1.375 0.8125 -0.6625
1.4375 0.875 -0.6625
1.4375 0.8125 -0.6625
1.5 0.875 -0.6625
1.4375 0.8125 -0.6
1.5 0.8125 -0.6
1.4375 0.875 -0.6
1.5 0.8125 -0.6625
1.5625 0.875 -0.6625
1.5625 0.8125 -0.6625
1.625 0.875 -0.6625
1.5625 0.8125 -0.6
1.625 0.8125 -0.6
1.5625 0.875 -0.6
1.625 0.8125 -0.6625
1.6875 0.875 -0.6625
1.6875 0.8125 -0.6625
1.75 0.875 -0.6625
1.6875 0.8125 -0.6
1.75 0.8125 -0.6
1.6875 0.875 -0.6
1.75 0.8125 -0.6625
1.8125 0.875 -0.6625
1.8125 0.8125 -0.6625
1.875 0.875 -0.6625
1.8125 0.8125 -0.6
1.875 0.8125 -0.6
1.8125 0.875 -0.6
1.875 0.8125 -0.6625
1.9375 0.875 -0.6625
1.9375 0.8125 -0.6625
2 0.875 -0.6625
1.9375 0.8125 -0.6
2 0.8125 -0.6
1.9375 0.875 -0.6
2 0.8125 -0.6625
2.0625 0.875 -0.6625
2.0625 0.8125 -0.6625
2.125 0.875 -0.6625
2.0625 0.8125 -0.6
2.125 0.8125 -0.6
2.0625 0.875 -0.6
2.125 0.8125 -0.6625
2.1875 0.875 -0.6625
2.1875 0.8125 -0.6625
2.25 0.875 -0.6625
2.1875 0.8125 -0.6
2.25 0.8125 -0.6
2.1875 0.875 -0.6
2.25 0.8125 -0.6625
2.3125 0.875 -0.6625
2.3125 0.8125 -0.6625
2.375 0.875 -0.6625
2.3125 0.8125 -0.6
2.375 0.8125 -0.6
2.3125 0.875 -0.6
2.375 0.8125 -0.6625
2.4375 0.875 -0.6625
2.4375 0.8125 -0.6625
2.5 0.875 -0.6625
2.4375 0.8125 -0.6
2.5 0.8125 -0.6
2.4375 0.875 -0.6
2.5 0.8125 -0.6625
2.5625 0.875 -0.6625
2.5625 0.8125 -0.6625
2.625 0.875 -0.6625
2.5625 0.8125 -0.6
2.625 0.8125 -0.6
2.5625 0.875 -0.6
2.625 0.8125 -0.6625
2.6875 0.875 -0.6625
2.6875 0.8125 -0.6625
2.75 0.875 -0.6625
2.6875 0.8125 -0.6
2.75 0.8125 -0.6
2.6875 0.875 -0.6
2.75 0.8125 -0.6625
2.8125 0.875 -0.6625
2.8125 0.8125 -0.6625
2.875 0.875 -0.6625
2.8125 0.8125 -0.6
2.875 0.8125 -0.6
2.8125 0.875 -0.6
2.875 0.8125 -0.6625
2.9375 0.875 -0.6625
2.9375 0.8125 -0.6625
3 0.875 -0.6625
2.9375 0.8125 -0.6
3 0.8125 -0.6
2.9375 0.875 -0.6
3 0.8125 -0.6625
3.0625 0.875 -0.6625
3.0625 0.8125 -0.6625
3.125 0.875 -0.6625
3.0625 0.8125 -0.6
3.125 0.8125 -0.6
3.0625 0.875 -0.6
3.125 0.8125 -0.6625
3.1875 0.875 -0.6625
3.1875 0.8125 -0.6625
3.25 0.875 -0.6625
3.1875 0.8125 -0.6
3.25 0.8125 -0.6
3.1875 0.875 -0.6
3.25 0.8125 -0.6625
3.3125 0.875 -0.6625
3.3125 0.8125 -0.6625
3.375 0.875 -0.6625
3.3125 0.8125 -0.6
3.375 0.8125 -0.6
3.3125 0.875 -0.6
3.375 0.8125 -0.6625
3.4375 0.875 -0.6625
3.4375 0.8125 -0.6625
3.5 0.875 -0.6625
3.4375 0.8125 -0.6
3.5 0.8125 -0.6
3.4375 0.875 -0.6
3.5 0.8125 -0.6625
3.5625 0.875 -0.6625
3.5625 0.8125 -0.6625
3.625 0.875 -0.6625
3.5625 0.8125 -0.6
3.625 0.8125 -0.6
3.5625 0.875 -0.6
3.625 0.8125 -0.6625
3.6875 0.875 -0.6625
3.6875 0.8125 -0.6625
3.75 0.875 -0.6625
3.6875 0.8125 -0.6
3.75 0.8125 -0.6
3.6875 0.875 -0.6
3.75 0.8125 -0.6625
3.8125 0.875 -0.6625
3.8125 0.8125 -0.6625
3.875 0.875 -0.6625
3.8125 0.8125 -0.6
3.875 0.8125 -0.6
3.8125 0.875 -0.6
3.875 0.8125 -0.6625
3.9375 0.875 -0.6625
3.9375 0.8125 -0.6625
4 0.875 -0.6625
3.9375 0.8125 -0.6
4 0.8125 -0.6
3.9375 0.875 -0.6
4 0.8125 -0.6625
0.0625 1 -0.6625
0.0625 0.9375 -0.6625
0.125 1 -0.6625
0.0625 0.9375 -0.6
0.125 0.9375 -0.6
0 1 -0.6625
0 0.9375 -0.6625
0.0625 1 -0.6
0 0.9375 -0.6
0.125 0.9375 -0.6625
0.1875 1 -0.6625
0.1875 0.9375 -0.6625
0.25 1 -0.6625
0.1875 0.9375 -0.6
0.25 0.9375 -0.6
0.1875 1 -0.6
0.25 0.9375 -0.6625
0.3125 1 -0.6625
0.3125 0.9375 -0.6625
0.375 1 -0.6625
0.3125 0.9375 -0.6
0.375 0.9375 -0.6
0.3125 1 -0.6
0.375 0.9375 -0.6625
0.4375 1 -0.6625
0.4375 0.9375 -0.6625
0.5 1 -0.6625
0.4375 0.9375 -0.6
0.5 0.9375 -0.6
0.4375 1 -0.6
0.5 0.9375 -0.6625
0.5625 1 -0.6625
0.5625 0.9375 -0.6625
0.625 1 -0.6625
0.5625 0.9375 -0.6
0.625 0.9375 -0.6
0.5625 1 -0.6
0.625 0.9375 -0.6625
0.6875 1 -0.6625
0.6875 0.9375 -0.6625
0.75 1 -0.6625
0.6875 0.9375 -0.6
0.75 0.9375 -0.6
0.6875 1 -0.6
0.75 0.9375 -0.6625
0.8125 1 -0.6625
0.8125 0.9375 -0.6625
0.875 1 -0.6625
0.8125 0.9375 -0.6
0.875 0.9375 -0.6
0.8125 1 -0.6
0.875 0.9375 -0.6625
0.9375 1 -0.6625
0.9375 0.9375 -0.6625
1 1 -0.6625
0.9375 0.9375 -0.6
1 0.9375 -0.6
0.9375 1 -0.6
1 0.9375 -0.6625
1.0625 1 -0.6625
1.0625 0.9375 -0.6625
1.125 1 -0.6625
1.0625 0.9375 -0.6
1.125 0.9375 -0.6
1.0625 1 -0.6
1.125 0.9375 -0.6625
1.1875 1 -0.6625
1.1875 0.9375 -0.6625
1.25 1 -0.6625
1.1875 0.9375 -0.6
1.25 0.9375 -0.6
1.1875 1 -0.6
1.25 0.9375 -0.6625
1.3125 1 -0.6625
1.3125 0.9375 -0.6625
1.375 1 -0.6625
1.3125 0.9375 -0.6
1.375 0.9375 -0.6
1.3125 1 -0.6
1.375 0.9375 -0.6625
1.4375 1 -0.6625
1.4375 0.9375 -0.6625
1.5 1 -0.6625
1.4375 0.9375 -0.6
1.5 0.9375 -0.6
1.4375 1 -0.6
1.5 0.9375 -0.6625
1.5625 1 -0.6625
1.5625 0.9375 -0.6625
1.625 1 -0.6625
1.5625 0.9375 -0.6
1.625 0.9375 -0.6
1.5625 1 -0.6
1.625 0.9375 -0.6625
1.6875 1 -0.6625
1.6875 0.9375 -0.6625
1.75 1 -0.6625
1.6875 0.9375 -0.6
1.75 0.9375 -0.6
1.6875 1 -0.6
1.75 0.9375 -0.6625
1.8125 1 -0.6625
1.8125 0.9375 -0.6625
1.875 1 -0.6625
1.8125 0.9375 -0.6
1.875 0.9375 -0.6
1.8125 1 -0.6
1.875 0.9375 -0.6625
1.9375 1 -0.6625
1.9375 0.9375 -0.6625
2 1 -0.6625
1.9375 0.9375 -0.6
2 0.9375 -0.6
1.9375 1 -0.6
2 0.9375 -0.6625
2.0625 1 -0.6625
2.0625 0.9375 -0.6625
2.125 1 -0.6625
2.0625 0.9375 -0.6
2.125 0.9375 -0.6
2.0625 1 -0.6
2.125 0.9375 -0.6625
2.1875 1 -0.6625
2.1875 0.9375 -0.6625
2.25 1 -0.6625
2.1875 0.9375 -0.6
2.25 0.9375 -0.6
2.1875 1 -0.6
2.25 0.9375 -0.6625
2.3125 1 -0.6625
2.3125 0.9375 -0.6625
2.375 1 -0.6625
2.3125 0.9375 -0.6
2.375 0.9375 -0.6
2.3125 1 -0.6
2.375 0.9375 -0.6625
2.4375 1 -0.6625
2.4375 0.9375 -0.6625
2.5 1 -0.6625
2.4375 0.9375 -0.6
2.5 0.9375 -0.6
2.4375 1 -0.6
2.5 0.9375 -0.6625
2.5625 1 -0.6625
2.5625 0.9375 -0.6625
2.625 1 -0.6625
2.5625 0.9375 -0.6
2.625 0.9375 -0.6
2.5625 1 -0.6
2.625 0.9375 -0.6625
2.6875 1 -0.6625
2.6875 0.9375 -0.6625
2.75 1 -0.6625
2.6875 0.9375 -0.6
2.75 0.9375 -0.6
2.6875 1 -0.6
2.75 0.9375 -0.6625
2.8125 1 -0.6625
2.8125 0.9375 -0.6625
2.875 1 -0.6625
2.8125 0.9375 -0.6
2.875 0.9375 -0.6
2.8125 1 -0.6
2.875 0.9375 -0.6625
2.9375 1 -0.6625
2.9375 0.9375 -0.6625
3 1 -0.6625
2.9375 0.9375 -0.6
3 0.9375 -0.6
2.9375 1 -0.6
3 0.9375 -0.6625
3.0625 1 -0.6625
3.0625 0.9375 -0.6625
3.125 1 -0.6625
3.0625 0.9375 -0.6
3.125 0.9375 -0.6
3.0625 1 -0.6
3.125 0.9375 -0.6625
3.1875 1 -0.6625
3.1875 0.9375 -0.6625
3.25 1 -0.6625
3.1875 0.9375 -0.6
3.25 0.9375 -0.6
3.1875 1 -0.6
3.25 0.9375 -0.6625
3.3125 1 -0.6625
3.3125 0.9375 -0.6625
3.375 1 -0.6625
3.3125 0.9375 -0.6
3.375 0.9375 -0.6
3.3125 1 -0.6
3.375 0.9375 -0.6625
3.4375 1 -0.6625
3.4375 0.9375 -0.6625
3.5 1 -0.6625
3.4375 0.9375 -0.6
3.5 0.9375 -0.6
3.4375 1 -0.6
3.5 0.9375 -0.6625
3.5625 1 -0.6625
3.5625 0.9375 -0.6625
3.625 1 -0.6625
3.5625 0.9375 -0.6
3.625 0.9375 -0.6
3.5625 1 -0.6
3.625 0.9375 -0.6625
3.6875 1 -0.6625
3.6875 0.9375 -0.6625
3.75 1 -0.6625
3.6875 0.9375 -0.6
3.75 0.9375 -0.6
3.6875 1 -0.6
3.75 0.9375 -0.6625
3.8125 1 -0.6625
3.8125 0.9375 -0.6625
3.875 1 -0.6625
3.8125 0.9375 -0.6
3.875 0.9375 -0.6
3.8125 1 -0.6
3.875 0.9375 -0.6625
3.9375 1 -0.6625
3.9375 0.9375 -0.6625
4 1 -0.6625
3.9375 0.9375 -0.6
4 0.9375 -0.6
3.9375 1 -0.6
4 0.9375 -0.6625
0.0625 0.125 -0.5375
0.0625 0.0625 -0.5375
0.125 0.125 -0.5375
0.0625 0.0625 -0.475
0.125 0.0625 -0.475
0.0625 0 -0.475
0 0 -0.5375
0.0625 0 -0.5375
0 0.125 -0.5375
0 0.0625 -0.5375
0.0625 0.125 -0.475
0 0.0625 -0.475
0.125 0 -0.5375
0.125 0.0625 -0.5375
0.1875 0.125 -0.5375
0.1875 0.0625 -0.5375
0.25 0.125 -0.5375
0.1875 0.0625 -0.475
0.25 0.0625 -0.475
0.1875 0 -0.475
0.1875 0 -0.5375
0.1875 0.125 -0.475
0.25 0 -0.5375
0.25 0.0625 -0.5375
0.3125 0.125 -0.5375
0.3125 0.0625 -0.5375
0.375 0.125 -0.5375
0.3125 0.0625 -0.475
0.375 0.0625 -0.475
0.3125 0 -0.475
0.3125 0 -0.5375
0.3125 0.125 -0.475
0.375 0 -0.5375
0.375 0.0625 -0.5375
0.4375 0.125 -0.5375
0.4375 0.0625 -0.5375
0.5 0.125 -0.5375
0.4375 0.0625 -0.475
0.5 0.0625 -0.475
0.4375 0 -0.475
0.4375 0 -0.5375
0.4375 0.125 -0.475
0.5 0 -0.5375
0.5 0.0625 -0.5375
0.5625 0.125 -0.5375
0.5625 0.0625 -0.5375
0.625 0.125 -0.5375
0.5625 0.0625 -0.475
0.625 0.0625 -0.475
0.5625 0 -0.475
0.5625 0 -0.5375
0.5625 0.125 -0.475
0.625 0 -0.5375
0.625 0.0625 -0.5375
0.6875 0.125 -0.5375
0.6875 0.0625 -0.5375
0.75 0.125 -0.5375
0.6875 0.0625 -0.475
0.75 0.0625 -0.475
0.6875 0 -0.475
0.6875 0 -0.5375
0.6875 0.125 -0.475
0.75 0 -0.5375
0.75 0.0625 -0.5375
0.8125 0.125 -0.5375
0.8125 0.0625 -0.5375
0.875 0.125 -0.5375
0.8125 0.0625 -0.475
0.875 0.0625 -0.475
0.8125 0 -0.475
0.8125 0 -0.5375
0.8125 0.125 -0.475
0.875 0 -0.5375
0.875 0.0625 -0.5375
0.9375 0.125 -0.5375
0.9375 0.0625 -0.5375
1 0.125 -0.5375
0.9375 0.0625 -0.475
1 0.0625 -0.475
0.9375 0 -0.475
0.9375 0 -0.5375
0.9375 0.125 -0.475
1 0 -0.5375
1 0.0625 -0.5375
1.0625 0.125 -0.5375
1.0625 0.0625 -0.5375
1.125 0.125 -0.5375
1.0625 0.0625 -0.475
1.125 0.0625 -0.475
1.0625 0 -0.475
1.0625 0 -0.5375
1.0625 0.125 -0.475
1.125 0 -0.5375
1.125 0.0625 -0.5375
1.1875 0.125 -0.5375
1.1875 0.0625 -0.5375
1.25 0.125 -0.5375
1.1875 0.0625 -0.475
1.25 0.0625 -0.475
1.1875 0 -0.475
1.1875 0 -0.5375
1.1875 0.125 -0.475
1.25 0 -0.5375
1.25 0.0625 -0.5375
1.3125 0.125 -0.5375
1.3125 0.0625 -0.5375
1.375 0.125 -0.5375
1.3125 0.0625 -0.475
1.375 0.0625 -0.475
1.3125 0 -0.475
1.3125 0 -0.5375
1.3125 0.125 -0.475
1.375 0 -0.5375
1.375 0.0625 -0.5375
1.4375 0.125 -0.5375
1.4375 0.0625 -0.5375
1.5 0.125 -0.5375
1.4375 0.0625 -0.475
1.5 0.0625 -0.475
1.4375 0 -0.475
1.4375 0 -0.5375
1.4375 0.125 -0.475
1.5 0 -0.5375
1.5 0.0625 -0.5375
1.5625 0.125 -0.5375
1.5625 0.0625 -0.5375
1.625 0.125 -0.5375
1.5625 0.0625 -0.475
1.625 0.0625 -0.475
1.5625 0 -0.475
1.5625 0 -0.5375
1.5625 0.125 -0.475
1.625 0 -0.5375
1.625 0.0625 -0.5375
1.6875 0.125 -0.5375
1.6875 0.0625 -0.5375
1.75 0.125 -0.5375
1.6875 0.0625 -0.475
1.75 0.0625 -0.475
1.6875 0 -0.475
1.6875 0 -0.5375
1.6875 0.125 -0.475
1.75 0 -0.5375
1.75 0.0625 -0.5375
1.8125 0.125 -0.5375
1.8125 0.0625 -0.5375
1.875 0.125 -0.5375
1.8125 0.0625 -0.475
1.875 0.0625 -0.475
1.8125 0 -0.475
1.8125 0 -0.5375
1.8125 0.125 -0.475
1.875 0 -0.5375
1.875 0.0625 -0.5375
1.9375 0.125 -0.5375
1.9375 0.0625 -0.5375
2 0.125 -0.5375
1.9375 0.0625 -0.475
2 0.0625 -0.475
1.9375 0 -0.475
1.9375 0 -0.5375
1.9375 0.125 -0.475
2 0 -0.5375
2 0.0625 -0.5375
2.0625 0.125 -0.5375
2.0625 0.0625 -0.5375
2.125 0.125 -0.5375
2.0625 0.0625 -0.475
2.125 0.0625 -0.475
2.0625 0 -0.475
2.0625 0 -0.5375
2.0625 0.125 -0.475
2.125 0 -0.5375
2.125 0.0625 -0.5375
2.1875 0.125 -0.5375
2.1875 0.0625 -0.5375
2.25 0.125 -0.5375
2.1875 0.0625 -0.475
2.25 0.0625 -0.475
2.1875 0 -0.475
2.1875 0 -0.5375
2.1875 0.125 -0.475
2.25 0 -0.5375
2.25 0.0625 -0.5375
2.3125 0.125 -0.5375
2.3125 0.0625 -0.5375
2.375 0.125 -0.5375
2.3125 0.0625 -0.475
2.375 0.0625 -0.475
2.3125 0 -0.475
2.3125 0 -0.5375
2.3125 0.125 -0.475
2.375 0 -0.5375
2.375 0.0625 -0.5375
2.4375 0.125 -0.5375
2.4375 0.0625 -0.5375
2.5 0.125 -0.5375
2.4375 0.0625 -0.475
2.5 0.0625 -0.475
2.4375 0 -0.475
2.4375 0 -0.5375
2.4375 0.125 -0.475
2.5 0 -0.5375
2.5 0.0625 -0.5375
2.5625 0.125 -0.5375
2.5625 0.0625 -0.5375
2.625 0.125 -0.5375
2.5625 0.0625 -0.475
2.625 0.0625 -0.475
2.5625 0 -0.475
2.5625 0 -0.5375
2.5625 0.125 -0.475
2.625 0 -0.5375
2.625 0.0625 -0.5375
2.6875 0.125 -0.5375
2.6875 0.0625 -0.5375
2.75 0.125 -0.5375
2.6875 0.0625 -0.475
2.75 0.0625 -0.475
2.6875 0 -0.475
2.6875 0 -0.5375
2.6875 0.125 -0.475
2.75 0 -0.5375
2.75 0.0625 -0.5375
2.8125 0.125 -0.5375
2.8125 0.0625 -0.5375
2.875 0.125 -0.5375
2.8125 0.0625 -0.475
2.875 0.0625 -0.475
2.8125 0 -0.475
2.8125 0 -0.5375
2.8125 0.125 -0.475
2.875 0 -0.5375
2.875 0.0625 -0.5375
2.9375 0.125 -0.5375
2.9375 0.0625 -0.5375
3 0.125 -0.5375
2.9375 0.0625 -0.475
3 0.0625 -0.475
2.9375 0 -0.475
2.9375 0 -0.5375
2.9375 0.125 -0.475
3 0 -0.5375
3 0.0625 -0.5375
3.0625 0.125 -0.5375
3.0625 0.0625 -0.5375
3.125 0.125 -0.5375
3.0625 0.0625 -0.475
3.125 0.0625 -0.475
3.0625 0 -0.475
3.0625 0 -0.5375
3.0625 0.125 -0.475
3.125 0 -0.5375
3.125 0.0625 -0.5375
3.1875 0.125 -0.5375
3.1875 0.0625 -0.5375
3.25 0.125 -0.5375
3.1875 0.0625 -0.475
3.25 0.0625 -0.475
3.1875 0 -0.475
3.1875 0 -0.5375
3.1875 0.125 -0.475
3.25 0 -0.5375
3.25 0.0625 -0.5375
3.3125 0.125 -0.5375
3.3125 0.0625 -0.5375
3.375 0.125 -0.5375
3.3125 0.0625 -0.475
3.375 0.0625 -0.475
3.3125 0 -0.475
3.3125 0 -0.5375
3.3125 0.125 -0.475
3.375 0 -0.5375
3.375 0.0625 -0.5375
3.4375 0.125 -0.5375
3.4375 0.0625 -0.5375
3.5 0.125 -0.5375
3.4375 0.0625 -0.475
3.5 0.0625 -0.475
3.4375 0 -0.475
3.4375 0 -0.5375
3.4375 0.125 -0.475
3.5 0 -0.5375
3.5 0.0625 -0.5375
3.5625 0.125 -0.5375
3.5625 0.0625 -0.5375
3.625 0.125 -0.5375
3.5625 0.0625 -0.475
3.625 0.0625 -0.475
3.5625 0 -0.475
3.5625 0 -0.5375
3.5625 0.125 -0.475
3.625 0 -0.5375
3.625 0.0625 -0.5375
3.6875 0.125 -0.5375
3.6875 0.0625 -0.5375
3.75 0.125 -0.5375
3.6875 0.0625 -0.475
3.75 0.0625 -0.475
3.6875 0 -0.475
3.6875 0 -0.5375
3.6875 0.125 -0.475
3.75 0 -0.5375
3.75 0.0625 -0.5375
3.8125 0.125 -0.5375
3.8125 0.0625 -0.5375
3.875 0.125 -0.5375
3.8125 0.0625 -0.475
3.875 0.0625 -0.475
3.8125 0 -0.475
3.8125 0 -0.5375
3.8125 0.125 -0.475
3.875 0 -0.5375
3.875 0.0625 -0.5375
3.9375 0.125 -0.5375
3.9375 0.0625 -0.5375
4 0.125 -0.5375
3.9375 0.0625 -0.475
4 0.0625 -0.475
3.9375 0 -0.475
3.9375 0 -0.5375
3.9375 0.125 -0.475
4 0 -0.5375
4 0.0625 -0.5375
0.0625 0.25 -0.5375
0.0625 0.1875 -0.5375
0.125 0.25 -0.5375
0.0625 0.1875 -0.475
0.125 0.1875 -0.475
0 0.25 -0.5375
0 0.1875 -0.5375
0.0625 0.25 -0.475
0 0.1875 -0.475
0.125 0.1875 -0.5375
0.1875 0.25 -0.5375
0.1875 0.1875 -0.5375
0.25 0.25 -0.5375
0.1875 0.1875 -0.475
0.25 0.1875 -0.475
0.1875 0.25 -0.475
0.25 0.1875 -0.5375
0.3125 0.25 -0.5375
0.3125 0.1875 -0.5375
0.375 0.25 -0.5375
0.3125 0.1875 -0.475
0.375 0.1875 -0.475
0.3125 0.25 -0.475
0.375 0.1875 -0.5375
0.4375 0.25 -0.5375
0.4375 0.1875 -0.5375
0.5 0.25 -0.5375
0.4375 0.1875 -0.475
0.5 0.1875 -0.475
0.4375 0.25 -0.475
0.5 0.1875 -0.5375
0.5625 0.25 -0.5375
0.5625 0.1875 -0.5375
0.625 0.25 -0.5375
0.5625 0.1875 -0.475
0.625 0.1875 -0.475
0.5625 0.25 -0.475
0.625 0.1875 -0.5375
0.6875 0.25 -0.5375
0.6875 0.1875 -0.5375
0.75 0.25 -0.5375
0.6875 0.1875 -0.475
0.75 0.1875 -0.475
0.6875 0.25 -0.475
0.75 0.1875 -0.5375
0.8125 0.25 -0.5375
0.8125 0.1875 -0.5375
0.875 0.25 -0.5375
0.8125 0.1875 -0.475
0.875 0.1875 -0.475
0.8125 0.25 -0.475
0.875 0.1875 -0.5375
0.9375 0.25 -0.5375
0.9375 0.1875 -0.5375
1 0.25 -0.5375
0.9375 0.1875 -0.475
1 0.1875 -0.475
0.9375 0.25 -0.475
1 0.1875 -0.5375
1.0625 0.25 -0.5375
1.0625 0.1875 -0.5375
1.125 0.25 -0.5375
1.0625 0.1875 -0.475
1.125 0.1875 -0.475
1.0625 0.25 -0.475
1.125 0.1875 -0.5375
1.1875 0.25 -0.5375
1.1875 0.1875 -0.5375
1.25 0.25 -0.5375
1.1875 0.1875 -0.475
1.25 0.1875 -0.475
1.1875 0.25 -0.475
1.25 0.1875 -0.5375
1.3125 0.25 -0.5375
1.3125 0.1875 -0.5375
1.375 0.25 -0.5375
1.3125 0.1875 -0.475
1.375 0.1875 -0.475
1.3125 0.25 -0.475
1.375 0.1875 -0.5375
1.4375 0.25 -0.5375
1.4375 0.1875 -0.5375
1.5 0.25 -0.5375
1.4375 0.1875 -0.475
1.5 0.1875 -0.475
1.4375 0.25 -0.475
1.5 0.1875 -0.5375
1.5625 0.25 -0.5375
1.5625 0.1875 -0.5375
1.625 0.25 -0.5375
1.5625 0.1875 -0.475
1.625 0.1875 -0.475
1.5625 0.25 -0.475
1.625 0.1875 -0.5375
1.6875 0.25 -0.5375
1.6875 0.1875 -0.5375
1.75 0.25 -0.5375
1.6875 0.1875 -0.475
1.75 0.1875 -0.475
1.6875 0.25 -0.475
1.75 0.1875 -0.5375
1.8125 0.25 -0.5375
1.8125 0.1875 -0.5375
1.875 0.25 -0.5375
1.8125 0.1875 -0.475
1.875 0.1875 -0.475
1.8125 0.25 -0.475
1.875 0.1875 -0.5375
1.9375 0.25 -0.5375
1.9375 0.1875 -0.5375
2 0.25 -0.5375
1.9375 0.1875 -0.475
2 0.1875 -0.475
1.9375 0.25 -0.475
2 0.1875 -0.5375
2.0625 0.25 -0.5375
2.0625 0.1875 -0.5375
2.125 0.25 -0.5375
2.0625 0.1875 -0.475
2.125 0.1875 -0.475
2.0625 0.25 -0.475
2.125 0.1875 -0.5375
2.1875 0.25 -0.5375
2.1875 0.1875 -0.5375
2.25 0.25 -0.5375
2.1875 0.1875 -0.475
2.25 0.1875 -0.475
2.1875 0.25 -0.475
2.25 0.1875 -0.5375
2.3125 0.25 -0.5375
2.3125 0.1875 -0.5375
2.375 0.25 -0.5375
2.3125 0.1875 -0.475
2.375 0.1875 -0.475
2.3125 0.25 -0.475
2.375 0.1875 -0.5375
2.4375 0.25 -0.5375
2.4375 0.1875 -0.5375
2.5 0.25 -0.5375
2.4375 0.1875 -0.475
2.5 0.1875 -0.475
2.4375 0.25 -0.475
2.5 0.1875 -0.5375
2.5625 0.25 -0.5375
2.5625 0.1875 -0.5375
2.625 0.25 -0.5375
2.5625 0.1875 -0.475
2.625 0.1875 -0.475
2.5625 0.25 -0.475
2.625 0.1875 -0.5375
2.6875 0.25 -0.5375
2.6875 0.1875 -0.5375
2.75 0.25 -0.5375
2.6875 0.1875 -0.475
2.75 0.1875 -0.475
2.6875 0.25 -0.475
2.75 0.1875 -0.5375
2.8125 0.25 -0.5375
2.8125 0.1875 -0.5375
2.875 0.25 -0.5375
2.8125 0.1875 -0.475
2.875 0.1875 -0.475
2.8125 0.25 -0.475
2.875 0.1875 -0.5375
2.9375 0.25 -0.5375
2.9375 0.1875 -0.5375
3 0.25 -0.5375
2.9375 0.1875 -0.475
3 0.1875 -0.475
2.9375 0.25 -0.475
3 0.1875 -0.5375
3.0625 0.25 -0.5375
3.0625 0.1875 -0.5375
3.125 0.25 -0.5375
3.0625 0.1875 -0.475
3.125 0.1875 -0.475
3.0625 0.25 -0.475
3.125 0.1875 -0.5375
3.1875 0.25 -0.5375
3.1875 0.1875 -0.5375
3.25 0.25 -0.5375
3.1875 0.1875 -0.475
3.25 0.1875 -0.475
3.1875 0.25 -0.475
3.25 0.1875 -0.5375
3.3125 0.25 -0.5375
3.3125 0.1875 -0.5375
3.375 0.25 -0.5375
3.3125 0.1875 -0.475
3.375 0.1875 -0.475
3.3125 0.25 -0.475
3.375 0.1875 -0.5375
3.4375 0.25 -0.5375
3.4375 0.1875 -0.5375
3.5 0.25 -0.5375
3.4375 0.1875 -0.475
3.5 0.1875 -0.475
3.4375 0.25 -0.475
3.5 0.1875 -0.5375
3.5625 0.25 -0.5375
3.5625 0.1875 -0.5375
3.625 0.25 -0.5375
3.5625 0.1875 -0.475
3.625 0.1875 -0.475
3.5625 0.25 -0.475
3.625 0.1875 -0.5375
3.6875 0.25 -0.5375
3.6875 0.1875 -0.5375
3.75 0.25 -0.5375
3.6875 0.1875 -0.475
3.75 0.1875 -0.475
3.6875 0.25 -0.475
3.75 0.1875 -0.5375
3.8125 0.25 -0.5375
3.8125 0.1875 -0.5375
3.875 0.25 -0.5375
3.8125 0.1875 -0.475
3.875 0.1875 -0.475
3.8125 0.25 -0.475
3.875 0.1875 -0.5375
3.9375 0.25 -0.5375
3.9375 0.1875 -0.5375
4 0.25 -0.5375
3.9375 0.1875 -0.475
4 0.1875 -0.475
3.9375 0.25 -0.475
4 0.1875 -0.5375
0.0625 0.375 -0.5375
0.0625 0.3125 -0.5375
0.125 0.375 -0.5375
0.0625 0.3125 -0.475
0.125 0.3125 -0.475
0 0.375 -0.5375
0 0.3125 -0.5375
0.0625 0.375 -0.475
0 0.3125 -0.475
0.125 0.3125 -0.5375
0.1875 0.375 -0.5375
0.1875 0.3125 -0.5375
0.25 0.375 -0.5375
0.1875 0.3125 -0.475
0.25 0.3125 -0.475
0.1875 0.375 -0.475
0.25 0.3125 -0.5375
0.3125 0.375 -0.5375
0.3125 0.3125 -0.5375
0.375 0.375 -0.5375
0.3125 0.3125 -0.475
0.375 0.3125 -0.475
0.3125 0.375 -0.475
0.375 0.3125 -0.5375
0.4375 0.375 -0.5375
0.4375 0.3125 -0.5375
0.5 0.375 -0.5375
0.4375 0.3125 -0.475
0.5 0.3125 -0.475
0.4375 0.375 -0.475
0.5 0.3125 -0.5375
0.5625 0.375 -0.5375
0.5625 0.3125 -0.5375
0.625 0.375 -0.5375
0.5625 0.3125 -0.475
0.625 0.3125 -0.475
0.5625 0.375 -0.475
0.625 0.3125 -0.5375
0.6875 0.375 -0.5375
0.6875 0.3125 -0.5375
0.75 0.375 -0.5375
0.6875 0.3125 -0.475
0.75 0.3125 -0.475
0.6875 0.375 -0.475
0.75 0.3125 -0.5375
0.8125 0.375 -0.5375
0.8125 0.3125 -0.5375
0.875 0.375 -0.5375
0.8125 0.3125 -0.475
0.875 0.3125 -0.475
0.8125 0.375 -0.475
0.875 0.3125 -0.5375
0.9375 0.375 -0.5375
0.9375 0.3125 -0.5375
1 0.375 -0.5375
0.9375 0.3125 -0.475
1 0.3125 -0.475
0.9375 0.375 -0.475
1 0.3125 -0.5375
1.0625 0.375 -0.5375
1.0625 0.3125 -0.5375
1.125 0.375 -0.5375
1.0625 0.3125 -0.475
1.125 0.3125 -0.475
1.0625 0.375 -0.475
1.125 0.3125 -0.5375
1.1875 0.375 -0.5375
1.1875 0.3125 -0.5375
1.25 0.375 -0.5375
1.1875 0.3125 -0.475
1.25 0.3125 -0.475
1.1875 0.375 -0.475
1.25 0.3125 -0.5375
1.3125 0.375 -0.5375
1.3125 0.3125 -0.5375
1.375 0.375 -0.5375
1.3125 0.3125 -0.475
1.375 0.3125 -0.475
1.3125 0.375 -0.475
1.375 0.3125 -0.5375
1.4375 0.375 -0.5375
1.4375 0.3125 -0.5375
1.5 0.375 -0.5375
1.4375 0.3125 -0.475
1.5 0.3125 -0.475
1.4375 0.375 -0.475
1.5 0.3125 -0.5375
1.5625 0.375 -0.5375
1.5625 0.3125 -0.5375
1.625 0.375 -0.5375
1.5625 0.3125 -0.475
1.625 0.3125 -0.475
1.5625 0.375 -0.475
1.625 0.3125 -0.5375
1.6875 0.375 -0.5375
1.6875 0.3125 -0.5375
1.75 0.375 -0.5375
1.6875 0.3125 -0.475
1.75 0.3125 -0.475
1.6875 0.375 -0.475
1.75 0.3125 -0.5375
1.8125 0.375 -0.5375
1.8125 0.3125 -0.5375
1.875 0.375 -0.5375
1.8125 0.3125 -0.475
1.875 0.3125 -0.475
1.8125 0.375 -0.475
1.875 0.3125 -0.5375
1.9375 0.375 -0.5375
1.9375 0.3125 -0.5375
2 0.375 -0.5375
1.9375 0.3125 -0.475
2 0.3125 -0.475
1.9375 0.375 -0.475
2 0.3125 -0.5375
2.0625 0.375 -0.5375
2.0625 0.3125 -0.5375
2.125 0.375 -0.5375
2.0625 0.3125 -0.475
2.125 0.3125 -0.475
2.0625 0.375 -0.475
2.125 0.3125 -0.5375
2.1875 0.375 -0.5375
2.1875 0.3125 -0.5375
2.25 0.375 -0.5375
2.1875 0.3125 -0.475
2.25 0.3125 -0.475
2.1875 0.375 -0.475
2.25 0.3125 -0.5375
2.3125 0.375 -0.5375
2.3125 0.3125 -0.5375
2.375 0.375 -0.5375
2.3125 0.3125 -0.475
2.375 0.3125 -0.475
2.3125 0.375 -0.475
2.375 0.3125 -0.5375
2.4375 0.375 -0.5375
2.4375 0.3125 -0.5375
2.5 0.375 -0.5375
2.4375 0.3125 -0.475
2.5 0.3125 -0.475
2.4375 0.375 -0.475
2.5 0.3125 -0.5375
2.5625 0.375 -0.5375
2.5625 0.3125 -0.5375
2.625 0.375 -0.5375
2.5625 0.3125 -0.475
2.625 0.3125 -0.475
2.5625 0.375 -0.475
2.625 0.3125 -0.5375
2.6875 0.375 -0.5375
2.6875 0.3125 -0.5375
2.75 0.375 -0.5375
2.6875 0.3125 -0.475
2.75 0.3125 -0.475
2.6875 0.375 -0.475
2.75 0.3125 -0.5375
2.8125 0.375 -0.5375
2.8125 0.3125 -0.5375
2.875 0.375 -0.5375
2.8125 0.3125 -0.475
2.875 0.3125 -0.475
2.8125 0.375 -0.475
2.875 0.3125 -0.5375
2.9375 0.375 -0.5375
2.9375 0.3125 -0.5375
3 0.375 -0.5375
2.9375 0.3125 -0.475
3 0.3125 -0.475
2.9375 0.375 -0.475
3 0.3125 -0.5375
3.0625 0.375 -0.5375
3.0625 0.3125 -0.5375
3.125 0.375 -0.5375
3.0625 0.3125 -0.475
3.125 0.3125 -0.475
3.0625 0.375 -0.475
3.125 0.3125 -0.5375
3.1875 0.375 -0.5375
3.1875 0.3125 -0.5375
3.25 0.375 -0.5375
3.1875 0.3125 -0.475
3.25 0.3125 -0.475
3.1875 0.375 -0.475
3.25 0.3125 -0.5375
3.3125 0.375 -0.5375
3.3125 0.3125 -0.5375
3.375 0.375 -0.5375
3.3125 0.3125 -0.475
3.375 0.3125 -0.475
3.3125 0.375 -0.475
3.375 0.3125 -0.5375
3.4375 0.375 -0.5375
3.4375 0.3125 -0.5375
3.5 0.375 -0.5375
3.4375 0.3125 -0.475
3.5 0.3125 -0.475
3.4375 0.375 -0.475
3.5 0.3125 -0.5375
3.5625 0.375 -0.5375
3.5625 0.3125 -0.5375
3.625 0.375 -0.5375
3.5625 0.3125 -0.475
3.625 0.3125 -0.475
3.5625 0.375 -0.475
3.625 0.3125 -0.5375
3.6875 0.375 -0.5375
3.6875 0.3125 -0.5375
3.75 0.375 -0.5375
3.6875 0.3125 -0.475
3.75 0.3125 -0.475
3.6875 0.375 -0.475
3.75 0.3125 -0.5375
3.8125 0.375 -0.5375
3.8125 0.3125 -0.5375
3.875 0.375 -0.5375
3.8125 0.3125 -0.475
3.875 0.3125 -0.475
3.8125 0.375 -0.475
3.875 0.3125 -0.5375
3.9375 0.375 -0.5375
3.9375 0.3125 -0.5375
4 0.375 -0.5375
3.9375 0.3125 -0.475
4 0.3125 -0.475
3.9375 0.375 -0.475
4 0.3125 -0.5375
0.0625 0.5 -0.5375
0.0625 0.4375 -0.5375
0.125 0.5 -0.5375
0.0625 0.4375 -0.475
0.125 0.4375 -0.475
0 0.5 -0.5375
0 0.4375 -0.5375
0.0625 0.5 -0.475
0 0.4375 -0.475
0.125 0.4375 -0.5375
0.1875 0.5 -0.5375
0.1875 0.4375 -0.5375
0.25 0.5 -0.5375
0.1875 0.4375 -0.475
0.25 0.4375 -0.475
0.1875 0.5 -0.475
0.25 0.4375 -0.5375
0.3125 0.5 -0.5375
0.3125 0.4375 -0.5375
0.375 0.5 -0.5375
0.3125 0.4375 -0.475
0.375 0.4375 -0.475
0.3125 0.5 -0.475
0.375 0.4375 -0.5375
0.4375 0.5 -0.5375
0.4375 0.4375 -0.5375
0.5 0.5 -0.5375
0.4375 0.4375 -0.475
0.5 0.4375 -0.475
0.4375 0.5 -0.475
0.5 0.4375 -0.5375
0.5625 0.5 -0.5375
0.5625 0.4375 -0.5375
0.625 0.5 -0.5375
0.5625 0.4375 -0.475
0.625 0.4375 -0.475
0.5625 0.5 -0.475
0.625 0.4375 -0.5375
0.6875 0.5 -0.5375
0.6875 0.4375 -0.5375
0.75 0.5 -0.5375
0.6875 0.4375 -0.475
0.75 0.4375 -0.475
0.6875 0.5 -0.475
0.75 0.4375 -0.5375
0.8125 0.5 -0.5375
0.8125 0.4375 -0.5375
0.875 0.5 -0.5375
0.8125 0.4375 -0.475
0.875 0.4375 -0.475
0.8125 0.5 -0.475
0.875 0.4375 -0.5375
0.9375 0.5 -0.5375
0.9375 0.4375 -0.5375
1 0.5 -0.5375
0.9375 0.4375 -0.475
1 0.4375 -0.475
0.9375 0.5 -0.475
1 0.4375 -0.5375
1.0625 0.5 -0.5375
1.0625 0.4375 -0.5375
1.125 0.5 -0.5375
1.0625 0.4375 -0.475
1.125 0.4375 -0.475
1.0625 0.5 -0.475
1.125 0.4375 -0.5375
1.1875 0.5 -0.5375
1.1875 0.4375 -0.5375
1.25 0.5 -0.5375
1.1875 0.4375 -0.475
1.25 0.4375 -0.475
1.1875 0.5 -0.475
1.25 0.4375 -0.5375
1.3125 0.5 -0.5375
1.3125 0.4375 -0.5375
1.375 0.5 -0.5375
1.3125 0.4375 -0.475
1.375 0.4375 -0.475
1.3125 0.5 -0.475
1.375 0.4375 -0.5375
1.4375 0.5 -0.5375
1.4375 0.4375 -0.5375
1.5 0.5 -0.5375
1.4375 0.4375 -0.475
1.5 0.4375 -0.475
1.4375 0.5 -0.475
1.5 0.4375 -0.5375
1.5625 0.5 -0.5375
1.5625 0.4375 -0.5375
1.625 0.5 -0.5375
1.5625 0.4375 -0.475
1.625 0.4375 -0.475
1.5625 0.5 -0.475
1.625 0.4375 -0.5375
1.6875 0.5 -0.5375
1.6875 0.4375 -0.5375
1.75 0.5 -0.5375
1.6875 0.4375 -0.475
1.75 0.4375 -0.475
1.6875 0.5 -0.475
1.75 0.4375 -0.5375
1.8125 0.5 -0.5375
1.8125 0.4375 -0.5375
1.875 0.5 -0.5375
1.8125 0.4375 -0.475
1.875 0.4375 -0.475
1.8125 0.5 -0.475
1.875 0.4375 -0.5375
1.9375 0.5 -0.5375
1.9375 0.4375 -0.5375
2 0.5 -0.5375
1.9375 0.4375 -0.475
2 0.4375 -0.475
1.9375 0.5 -0.475
2 0.4375 -0.5375
2.0625 0.5 -0.5375
2.0625 0.4375 -0.5375
2.125 0.5 -0.5375
2.0625 0.4375 -0.475
2.125 0.4375 -0.475
2.0625 0.5 -0.475
2.125 0.4375 -0.5375
2.1875 0.5 -0.5375
2.1875 0.4375 -0.5375
2.25 0.5 -0.5375
2.1875 0.4375 -0.475
2.25 0.4375 -0.475
2.1875 0.5 -0.475
2.25 0.4375 -0.5375
2.3125 0.5 -0.5375
2.3125 0.4375 -0.5375
2.375 0.5 -0.5375
2.3125 0.4375 -0.475
2.375 0.4375 -0.475
2.3125 0.5 -0.475
2.375 0.4375 -0.5375
2.4375 0.5 -0.5375
2.4375 0.4375 -0.5375
2.5 0.5 -0.5375
2.4375 0.4375 -0.475
2.5 0.4375 -0.475
2.4375 0.5 -0.475
2.5 0.4375 -0.5375
2.5625 0.5 -0.5375
2.5625 0.4375 -0.5375
2.625 0.5 -0.5375
2.5625 0.4375 -0.475
2.625 0.4375 -0.475
2.5625 0.5 -0.475
2.625 0.4375 -0.5375
2.6875 0.5 -0.5375
2.6875 0.4375 -0.5375
2.75 0.5 -0.5375
2.6875 0.4375 -0.475
2.75 0.4375 -0.475
2.6875 0.5 -0.475
2.75 0.4375 -0.5375
2.8125 0.5 -0.5375
2.8125 0.4375 -0.5375
2.875 0.5 -0.5375
2.8125 0.4375 -0.475
2.875 0.4375 -0.475
2.8125 0.5 -0.475
2.875 0.4375 -0.5375
2.9375 0.5 -0.5375
2.9375 0.4375 -0.5375
3 0.5 -0.5375
2.9375 0.4375 -0.475
3 0.4375 -0.475
2.9375 0.5 -0.475
3 0.4375 -0.5375
3.0625 0.5 -0.5375
3.0625 0.4375 -0.5375
3.125 0.5 -0.5375
3.0625 0.4375 -0.475
3.125 0.4375 -0.475
3.0625 0.5 -0.475
3.125 0.4375 -0.5375
3.1875 0.5 -0.5375
3.1875 0.4375 -0.5375
3.25 0.5 -0.5375
3.1875 0.4375 -0.475
3.25 0.4375 -0.475
3.1875 0.5 -0.475
3.25 0.4375 -0.5375
3.3125 0.5 -0.5375
3.3125 0.4375 -0.5375
3.375 0.5 -0.5375
3.3125 0.4375 -0.475
3.375 0.4375 -0.475
3.3125 0.5 -0.475
3.375 0.4375 -0.5375
3.4375 0.5 -0.5375
3.4375 0.4375 -0.5375
3.5 0.5 -0.5375
3.4375 0.4375 -0.475
3.5 0.4375 -0.475
3.4375 0.5 -0.475
3.5 0.4375 -0.5375
3.5625 0.5 -0.5375
3.5625 0.4375 -0.5375
3.625 0.5 -0.5375
3.5625 0.4375 -0.475
3.625 0.4375 -0.475
3.5625 0.5 -0.475
3.625 0.4375 -0.5375
3.6875 0.5 -0.5375
3.6875 0.4375 -0.5375
3.75 0.5 -0.5375
3.6875 0.4375 -0.475
3.75 0.4375 -0.475
3.6875 0.5 -0.475
3.75 0.4375 -0.5375
3.8125 0.5 -0.5375
3.8125 0.4375 -0.5375
3.875 0.5 -0.5375
3.8125 0.4375 -0.475
3.875 0.4375 -0.475
3.8125 0.5 -0.475
3.875 0.4375 -0.5375
3.9375 0.5 -0.5375
3.9375 0.4375 -0.5375
4 0.5 -0.5375
3.9375 0.4375 -0.475
4 0.4375 -0.475
3.9375 0.5 -0.475
4 0.4375 -0.5375
0.0625 0.625 -0.5375
0.0625 0.5625 -0.5375
0.125 0.625 -0.5375
0.0625 0.5625 -0.475
0.125 0.5625 -0.475
0 0.625 -0.5375
0 0.5625 -0.5375
0.0625 0.625 -0.475
0 0.5625 -0.475
0.125 0.5625 -0.5375
0.1875 0.625 -0.5375
0.1875 0.5625 -0.5375
0.25 0.625 -0.5375
0.1875 0.5625 -0.475
0.25 0.5625 -0.475
0.1875 0.625 -0.475
0.25 0.5625 -0.5375
0.3125 0.625 -0.5375
0.3125 0.5625 -0.5375
0.375 0.625 -0.5375
0.3125 0.5625 -0.475
0.375 0.5625 -0.475
0.3125 0.625 -0.475
0.375 0.5625 -0.5375
0.4375 0.625 -0.5375
0.4375 0.5625 -0.5375
0.5 0.625 -0.5375
0.4375 0.5625 -0.475
0.5 0.5625 -0.475
0.4375 0.625 -0.475
0.5 0.5625 -0.5375
0.5625 0.625 -0.5375
0.5625 0.5625 -0.5375
0.625 0.625 -0.5375
0.5625 0.5625 -0.475
0.625 0.5625 -0.475
0.5625 0.625 -0.475
0.625 0.5625 -0.5375
0.6875 0.625 -0.5375
0.6875 0.5625 -0.5375
0.75 0.625 -0.5375
0.6875 0.5625 -0.475
0.75 0.5625 -0.475
0.6875 0.625 -0.475
0.75 0.5625 -0.5375
0.8125 0.625 -0.5375
0.8125 0.5625 -0.5375
0.875 0.625 -0.5375
0.8125 0.5625 -0.475
0.875 0.5625 -0.475
0.8125 0.625 -0.475
0.875 0.5625 -0.5375
0.9375 0.625 -0.5375
0.9375 0.5625 -0.5375
1 0.625 -0.5375
0.9375 0.5625 -0.475
1 0.5625 -0.475
0.9375 0.625 -0.475
1 0.5625 -0.5375
1.0625 0.625 -0.5375
1.0625 0.5625 -0.5375
1.125 0.625 -0.5375
1.0625 0.5625 -0.475
1.125 0.5625 -0.475
1.0625 0.625 -0.475
1.125 0.5625 -0.5375
1.1875 0.625 -0.5375
1.1875 0.5625 -0.5375
1.25 0.625 -0.5375
1.1875 0.5625 -0.475
1.25 0.5625 -0.475
1.1875 0.625 -0.475
1.25 0.5625 -0.5375
1.3125 0.625 -0.5375
1.3125 0.5625 -0.5375
1.375 0.625 -0.5375
1.3125 0.5625 -0.475
1.375 0.5625 -0.475
1.3125 0.625 -0.475
1.375 0.5625 -0.5375
1.4375 0.625 -0.5375
1.4375 0.5625 -0.5375
1.5 0.625 -0.5375
1.4375 0.5625 -0.475
1.5 0.5625 -0.475
1.4375 0.625 -0.475
1.5 0.5625 -0.5375
1.5625 0.625 -0.5375
1.5625 0.5625 -0.5375
1.625 0.625 -0.5375
1.5625 0.5625 -0.475
1.625 0.5625 -0.475
1.5625 0.625 -0.475
1.625 0.5625 -0.5375
1.6875 0.625 -0.5375
1.6875 0.5625 -0.5375
1.75 0.625 -0.5375
1.6875 0.5625 -0.475
1.75 0.5625 -0.475
1.6875 0.625 -0.475
1.75 0.5625 -0.5375
1.8125 0.625 -0.5375
1.8125 0.5625 -0.5375
1.875 0.625 -0.5375
1.8125 0.5625 -0.475
1.875 0.5625 -0.475
1.8125 0.625 -0.475
1.875 0.5625 -0.5375
1.9375 0.625 -0.5375
1.9375 0.5625 -0.5375
2 0.625 -0.5375
1.9375 0.5625 -0.475
2 0.5625 -0.475
1.9375 0.625 -0.475
2 0.5625 -0.5375
2.0625 0.625 -0.5375
2.0625 0.5625 -0.5375
2.125 0.625 -0.5375
2.0625 0.5625 -0.475
2.125 0.5625 -0.475
2.0625 0.625 -0.475
2.125 0.5625 -0.5375
2.1875 0.625 -0.5375
2.1875 0.5625 -0.5375
2.25 0.625 -0.5375
2.1875 0.5625 -0.475
2.25 0.5625 -0.475
2.1875 0.625 -0.475
2.25 0.5625 -0.5375
2.3125 0.625 -0.5375
2.3125 0.5625 -0.5375
2.375 0.625 -0.5375
2.3125 0.5625 -0.475
2.375 0.5625 -0.475
2.3125 0.625 -0.475
2.375 0.5625 -0.5375
2.4375 0.625 -0.5375
2.4375 0.5625 -0.5375
2.5 0.625 -0.5375
2.4375 0.5625 -0.475
2.5 0.5625 -0.475
2.4375 0.625 -0.475
2.5 0.5625 -0.5375
2.5625 0.625 -0.5375
2.5625 0.5625 -0.5375
2.625 0.625 -0.5375
2.5625 0.5625 -0.475
2.625 0.5625 -0.475
2.5625 0.625 -0.475
2.625 0.5625 -0.5375
2.6875 0.625 -0.5375
2.6875 0.5625 -0.5375
2.75 0.625 -0.5375
2.6875 0.5625 -0.475
2.75 0.5625 -0.475
2.6875 0.625 -0.475
2.75 0.5625 -0.5375
2.8125 0.625 -0.5375
2.8125 0.5625 -0.5375
2.875 0.625 -0.5375
2.8125 0.5625 -0.475
2.875 0.5625 -0.475
2.8125 0.625 -0.475
2.875 0.5625 -0.5375
2.9375 0.625 -0.5375
2.9375 0.5625 -0.5375
3 0.625 -0.5375
2.9375 0.5625 -0.475
3 0.5625 -0.475
2.9375 0.625 -0.475
3 0.5625 -0.5375
3.0625 0.625 -0.5375
3.0625 0.5625 -0.5375
3.125 0.625 -0.5375
3.0625 0.5625 -0.475
3.125 0.5625 -0.475
3.0625 0.625 -0.475
3.125 0.5625 -0.5375
3.1875 0.625 -0.5375
3.1875 0.5625 -0.5375
3.25 0.625 -0.5375
3.1875 0.5625 -0.475
3.25 0.5625 -0.475
3.1875 0.625 -0.475
3.25 0.5625 -0.5375
3.3125 0.625 -0.5375
3.3125 0.5625 -0.5375
3.375 0.625 -0.5375
3.3125 0.5625 -0.475
3.375 0.5625 -0.475
3.3125 0.625 -0.475
3.375 0.5625 -0.5375
3.4375 0.625 -0.5375
3.4375 0.5625 -0.5375
3.5 0.625 -0.5375
3.4375 0.5625 -0.475
3.5 0.5625 -0.475
3.4375 0.625 -0.475
3.5 0.5625 -0.5375
3.5625 0.625 -0.5375
3.5625 0.5625 -0.5375
3.625 0.625 -0.5375
3.5625 0.5625 -0.475
3.625 0.5625 -0.475
3.5625 0.625 -0.475
3.625 0.5625 -0.5375
3.6875 0.625 -0.5375
3.6875 0.5625 -0.5375
3.75 0.625 -0.5375
3.6875 0.5625 -0.475
3.75 0.5625 -0.475
3.6875 0.625 -0.475
3.75 0.5625 -0.5375
3.8125 0.625 -0.5375
3.8125 0.5625 -0.5375
3.875 0.625 -0.5375
3.8125 0.5625 -0.475
3.875 0.5625 -0.475
3.8125 0.625 -0.475
3.875 0.5625 -0.5375
3.9375 0.625 -0.5375
3.9375 0.5625 -0.5375
4 0.625 -0.5375
3.9375 0.5625 -0.475
4 0.5625 -0.475
3.9375 0.625 -0.475
4 0.5625 -0.5375
0.0625 0.75 -0.5375
0.0625 0.6875 -0.5375
0.125 0.75 -0.5375
0.0625 0.6875 -0.475
0.125 0.6875 -0.475
0 0.75 -0.5375
0 0.6875 -0.5375
0.0625 0.75 -0.475
0 0.6875 -0.475
0.125 0.6875 -0.5375
0.1875 0.75 -0.5375
0.1875 0.6875 -0.5375
0.25 0.75 -0.5375
0.1875 0.6875 -0.475
0.25 0.6875 -0.475
0.1875 0.75 -0.475
0.25 0.6875 -0.5375
0.3125 0.75 -0.5375
0.3125 0.6875 -0.5375
0.375 0.75 -0.5375
0.3125 0.6875 -0.475
0.375 0.6875 -0.475
0.3125 0.75 -0.475
0.375 0.6875 -0.5375
0.4375 0.75 -0.5375
0.4375 0.6875 -0.5375
0.5 0.75 -0.5375
0.4375 0.6875 -0.475
0.5 0.6875 -0.475
0.4375 0.75 -0.475
0.5 0.6875 -0.5375
0.5625 0.75 -0.5375
0.5625 0.6875 -0.5375
0.625 0.75 -0.5375
0.5625 0.6875 -0.475
0.625 0.6875 -0.475
0.5625 0.75 -0.475
0.625 0.6875 -0.5375
0.6875 0.75 -0.5375
0.6875 0.6875 -0.5375
0.75 0.75 -0.5375
0.6875 0.6875 -0.475
0.75 0.6875 -0.475
0.6875 0.75 -0.475
0.75 0.6875 -0.5375
0.8125 0.75 -0.5375
0.8125 0.6875 -0.5375
0.875 0.75 -0.5375
0.8125 0.6875 -0.475
0.875 0.6875 -0.475
0.8125 0.75 -0.475
0.875 0.6875 -0.5375
0.9375 0.75 -0.5375
0.9375 0.6875 -0.5375
1 0.75 -0.5375
0.9375 0.6875 -0.475
1 0.6875 -0.475
0.9375 0.75 -0.475
1 0.6875 -0.5375
1.0625 0.75 -0.5375
1.0625 0.6875 -0.5375
1.125 0.75 -0.5375
1.0625 0.6875 -0.475
1.125 0.6875 -0.475
1.0625 0.75 -0.475
1.125 0.6875 -0.5375
1.1875 0.75 -0.5375
1.1875 0.6875 -0.5375
1.25 0.75 -0.5375
1.1875 0.6875 -0.475
1.25 0.6875 -0.475
1.1875 0.75 -0.475
1.25 0.6875 -0.5375
1.3125 0.75 -0.5375
1.3125 0.6875 -0.5375
1.375 0.75 -0.5375
1.3125 0.6875 -0.475
1.375 0.6875 -0.475
1.3125 0.75 -0.475
1.375 0.6875 -0.5375
1.4375 0.75 -0.5375
1.4375 0.6875 -0.5375
1.5 0.75 -0.5375
1.4375 0.6875 -0.475
1.5 0.6875 -0.475
1.4375 0.75 -0.475
1.5 0.6875 -0.5375
1.5625 0.75 -0.5375
1.5625 0.6875 -0.5375
1.625 0.75 -0.5375
1.5625 0.6875 -0.475
1.625 0.6875 -0.475
1.5625 0.75 -0.475
1.625 0.6875 -0.5375
1.6875 0.75 -0.5375
1.6875 0.6875 -0.5375
1.75 0.75 -0.5375
1.6875 0.6875 -0.475
1.75 0.6875 -0.475
1.6875 0.75 -0.475
1.75 0.6875 -0.5375
1.8125 0.75 -0.5375
1.8125 0.6875 -0.5375
1.875 0.75 -0.5375
1.8125 0.6875 -0.475
1.875 0.6875 -0.475
1.8125 0.75 -0.475
1.875 0.6875 -0.5375
1.9375 0.75 -0.5375
1.9375 0.6875 -0.5375
2 0.75 -0.5375
1.9375 0.6875 -0.475
2 0.6875 -0.475
1.9375 0.75 -0.475
2 0.6875 -0.5375
2.0625 0.75 -0.5375
2.0625 0.6875 -0.5375
2.125 0.75 -0.5375
2.0625 0.6875 -0.475
2.125 0.6875 -0.475
2.0625 0.75 -0.475
2.125 0.6875 -0.5375
2.1875 0.75 -0.5375
2.1875 0.6875 -0.5375
2.25 0.75 -0.5375
2.1875 0.6875 -0.475
2.25 0.6875 -0.475
2.1875 0.75 -0.475
2.25 0.6875 -0.5375
2.3125 0.75 -0.5375
2.3125 0.6875 -0.5375
2.375 0.75 -0.5375
2.3125 0.6875 -0.475
2.375 0.6875 -0.475
2.3125 0.75 -0.475
2.375 0.6875 -0.5375
2.4375 0.75 -0.5375
2.4375 0.6875 -0.5375
2.5 0.75 -0.5375
2.4375 0.6875 -0.475
2.5 0.6875 -0.475
2.4375 0.75 -0.475
2.5 0.6875 -0.5375
2.5625 0.75 -0.5375
2.5625 0.6875 -0.5375
2.625 0.75 -0.5375
2.5625 0.6875 -0.475
2.625 0.6875 -0.475
2.5625 0.75 -0.475
2.625 0.6875 -0.5375
2.6875 0.75 -0.5375
2.6875 0.6875 -0.5375
2.75 0.75 -0.5375
2.6875 0.6875 -0.475
2.75 0.6875 -0.475
2.6875 0.75 -0.475
2.75 0.6875 -0.5375
2.8125 0.75 -0.5375
2.8125 0.6875 -0.5375
2.875 0.75 -0.5375
2.8125 0.6875 -0.475
2.875 0.6875 -0.475
2.8125 0.75 -0.475
2.875 0.6875 -0.5375
2.9375 0.75 -0.5375
2.9375 0.6875 -0.5375
3 0.75 -0.5375
2.9375 0.6875 -0.475
3 0.6875 -0.475
2.9375 0.75 -0.475
3 0.6875 -0.5375
3.0625 0.75 -0.5375
3.0625 0.6875 -0.5375
3.125 0.75 -0.5375
3.0625 0.6875 -0.475
3.125 0.6875 -0.475
3.0625 0.75 -0.475
3.125 0.6875 -0.5375
3.1875 0.75 -0.5375
3.1875 0.6875 -0.5375
3.25 0.75 -0.5375
3.1875 0.6875 -0.475
3.25 0.6875 -0.475
3.1875 0.75 -0.475
3.25 0.6875 -0.5375
3.3125 0.75 -0.5375
3.3125 0.6875 -0.5375
3.375 0.75 -0.5375
3.3125 0.6875 -0.475
3.375 0.6875 -0.475
3.3125 0.75 -0.475
3.375 0.6875 -0.5375
3.4375 0.75 -0.5375
3.4375 0.6875 -0.5375
3.5 0.75 -0.5375
3.4375 0.6875 -0.475
3.5 0.6875 -0.475
3.4375 0.75 -0.475
3.5 0.6875 -0.5375
3.5625 0.75 -0.5375
3.5625 0.6875 -0.5375
3.625 0.75 -0.5375
3.5625 0.6875 -0.475
3.625 0.6875 -0.475
3.5625 0.75 -0.475
3.625 0.6875 -0.5375
3.6875 0.75 -0.5375
3.6875 0.6875 -0.5375
3.75 0.75 -0.5375
3.6875 0.6875 -0.475
3.75 0.6875 -0.475
3.6875 0.75 -0.475
3.75 0.6875 -0.5375
3.8125 0.75 -0.5375
3.8125 0.6875 -0.5375
3.875 0.75 -0.5375
3.8125 0.6875 -0.475
3.875 0.6875 -0.475
3.8125 0.75 -0.475
3.875 0.6875 -0.5375
3.9375 0.75 -0.5375
3.9375 0.6875 -0.5375
4 0.75 -0.5375
3.9375 0.6875 -0.475
4 0.6875 -0.475
3.9375 0.75 -0.475
4 0.6875 -0.5375
0.0625 0.875 -0.5375
0.0625 0.8125 -0.5375
0.125 0.875 -0.5375
0.0625 0.8125 -0.475
0.125 0.8125 -0.475
0 0.875 -0.5375
0 0.8125 -0.5375
0.0625 0.875 -0.475
0 0.8125 -0.475
0.125 0.8125 -0.5375
0.1875 0.875 -0.5375
0.1875 0.8125 -0.5375
0.25 0.875 -0.5375
0.1875 0.8125 -0.475
0.25 0.8125 -0.475
0.1875 0.875 -0.475
0.25 0.8125 -0.5375
0.3125 0.875 -0.5375
0.3125 0.8125 -0.5375
0.375 0.875 -0.5375
0.3125 0.8125 -0.475
0.375 0.8125 -0.475
0.3125 0.875 -0.475
0.375 0.8125 -0.5375
0.4375 0.875 -0.5375
0.4375 0.8125 -0.5375
0.5 0.875 -0.5375
0.4375 0.8125 -0.475
0.5 0.8125 -0.475
0.4375 0.875 -0.475
0.5 0.8125 -0.5375
0.5625 0.875 -0.5375
0.5625 0.8125 -0.5375
0.625 0.875 -0.5375
0.5625 0.8125 -0.475
0.625 0.8125 -0.475
0.5625 0.875 -0.475
0.625 0.8125 -0.5375
0.6875 0.875 -0.5375
0.6875 0.8125 -0.5375
0.75 0.875 -0.5375
0.6875 0.8125 -0.475
0.75 0.8125 -0.475
0.6875 0.875 -0.475
0.75 0.8125 -0.5375
0.8125 0.875 -0.5375
0.8125 0.8125 -0.5375
0.875 0.875 -0.5375
0.8125 0.8125 -0.475
0.875 0.8125 -0.475
0.8125 0.875 -0.475
0.875 0.8125 -0.5375
0.9375 0.875 -0.5375
0.9375 0.8125 -0.5375
1 0.875 -0.5375
0.9375 0.8125 -0.475
1 0.8125 -0.475
0.9375 0.875 -0.475
1 0.8125 -0.5375
1.0625 0.875 -0.5375
1.0625 0.8125 -0.5375
1.125 0.875 -0.5375
1.0625 0.8125 -0.475
1.125 0.8125 -0.475
1.0625 0.875 -0.475
1.125 0.8125 -0.5375
1.1875 0.875 -0.5375
1.1875 0.8125 -0.5375
1.25 0.875 -0.5375
1.1875 0.8125 -0.475
1.25 0.8125 -0.475
1.1875 0.875 -0.475
1.25 0.8125 -0.5375
1.3125 0.875 -0.5375
1.3125 0.8125 -0.5375
1.375 0.875 -0.5375
1.3125 0.8125 -0.475
1.375 0.8125 -0.475
1.3125 0.875 -0.475
1.375 0.8125 -0.5375
1.4375 0.875 -0.5375
1.4375 0.8125 -0.5375
1.5 0.875 -0.5375
1.4375 0.8125 -0.475
1.5 0.8125 -0.475
1.4375 0.875 -0.475
1.5 0.8125 -0.5375
1.5625 0.875 -0.5375
1.5625 0.8125 -0.5375
1.625 0.875 -0.5375
1.5625 0.8125 -0.475
1.625 0.8125 -0.475
1.5625 0.875 -0.475
1.625 0.8125 -0.5375
1.6875 0.875 -0.5375
1.6875 0.8125 -0.5375
1.75 0.875 -0.5375
1.6875 0.8125 -0.475
1.75 0.8125 -0.475
1.6875 0.875 -0.475
1.75 0.8125 -0.5375
1.8125 0.875 -0.5375
1.8125 0.8125 -0.5375
1.875 0.875 -0.5375
1.8125 0.8125 -0.475
1.875 0.8125 -0.475
1.8125 0.875 -0.475
1.875 0.8125 -0.5375
1.9375 0.875 -0.5375
1.9375 0.8125 -0.5375
2 0.875 -0.5375
1.9375 0.8125 -0.475
2 0.8125 -0.475
1.9375 0.875 -0.475
2 0.8125 -0.5375
2.0625 0.875 -0.5375
2.0625 0.8125 -0.5375
2.125 0.875 -0.5375
2.0625 0.8125 -0.475
2.125 0.8125 -0.475
2.0625 0.875 -0.475
2.125 0.8125 -0.5375
2.1875 0.875 -0.5375
2.1875 0.8125 -0.5375
2.25 0.875 -0.5375
2.1875 0.8125 -0.475
2.25 0.8125 -0.475
2.1875 0.875 -0.475
2.25 0.8125 -0.5375
2.3125 0.875 -0.5375
2.3125 0.8125 -0.5375
2.375 0.875 -0.5375
2.3125 0.8125 -0.475
2.375 0.8125 -0.475
2.3125 0.875 -0.475
2.375 0.8125 -0.5375
2.4375 0.875 -0.5375
2.4375 0.8125 -0.5375
2.5 0.875 -0.5375
2.4375 0.8125 -0.475
2.5 0.8125 -0.475
2.4375 0.875 -0.475
2.5 0.8125 -0.5375
2.5625 0.875 -0.5375
2.5625 0.8125 -0.5375
2.625 0.875 -0.5375
2.5625 0.8125 -0.475
2.625 0.8125 -0.475
2.5625 0.875 -0.475
2.625 0.8125 -0.5375
2.6875 0.875 -0.5375
2.6875 0.8125 -0.5375
2.75 0.875 -0.5375
2.6875 0.8125 -0.475
2.75 0.8125 -0.475
2.6875 0.875 -0.475
2.75 0.8125 -0.5375
2.8125 0.875 -0.5375
2.8125 0.8125 -0.5375
2.875 0.875 -0.5375
2.8125 0.8125 -0.475
2.875 0.8125 -0.475
2.8125 0.875 -0.475
2.875 0.8125 -0.5375
2.9375 0.875 -0.5375
2.9375 0.8125 -0.5375
3 0.875 -0.5375
2.9375 0.8125 -0.475
3 0.8125 -0.475
2.9375 0.875 -0.475
3 0.8125 -0.5375
3.0625 0.875 -0.5375
3.0625 0.8125 -0.5375
3.125 0.875 -0.5375
3.0625 0.8125 -0.475
3.125 0.8125 -0.475
3.0625 0.875 -0.475
3.125 0.8125 -0.5375
3.1875 0.875 -0.5375
3.1875 0.8125 -0.5375
3.25 0.875 -0.5375
3.1875 0.8125 -0.475
3.25 0.8125 -0.475
3.1875 0.875 -0.475
3.25 0.8125 -0.5375
3.3125 0.875 -0.5375
3.3125 0.8125 -0.5375
3.375 0.875 -0.5375
3.3125 0.8125 -0.475
3.375 0.8125 -0.475
3.3125 0.875 -0.475
3.375 0.8125 -0.5375
3.4375 0.875 -0.5375
3.4375 0.8125 -0.5375
3.5 0.875 -0.5375
3.4375 0.8125 -0.475
3.5 0.8125 -0.475
3.4375 0.875 -0.475
3.5 0.8125 -0.5375
3.5625 0.875 -0.5375
3.5625 0.8125 -0.5375
3.625 0.875 -0.5375
3.5625 0.8125 -0.475
3.625 0.8125 -0.475
3.5625 0.875 -0.475
3.625 0.8125 -0.5375
3.6875 0.875 -0.5375
3.6875 0.8125 -0.5375
3.75 0.875 -0.5375
3.6875 0.8125 -0.475
3.75 0.8125 -0.475
3.6875 0.875 -0.475
3.75 0.8125 -0.5375
3.8125 0.875 -0.5375
3.8125 0.8125 -0.5375
3.875 0.875 -0.5375
3.8125 0.8125 -0.475
3.875 0.8125 -0.475
3.8125 0.875 -0.475
3.875 0.8125 -0.5375
3.9375 0.875 -0.5375
3.9375 0.8125 -0.5375
4 0.875 -0.5375
3.9375 0.8125 -0.475
4 0.8125 -0.475
3.9375 0.875 -0.475
4 0.8125 -0.5375
0.0625 1 -0.5375
0.0625 0.9375 -0.5375
0.125 1 -0.5375
0.0625 0.9375 -0.475
0.125 0.9375 -0.475
0 1 -0.5375
0 0.9375 -0.5375
0.0625 1 -0.475
0 0.9375 -0.475
0.125 0.9375 -0.5375
0.1875 1 -0.5375
0.1875 0.9375 -0.5375
0.25 1 -0.5375
0.1875 0.9375 -0.475
0.25 0.9375 -0.475
0.1875 1 -0.475
0.25 0.9375 -0.5375
0.3125 1 -0.5375
0.3125 0.9375 -0.5375
0.375 1 -0.5375
0.3125 0.9375 -0.475
0.375 0.9375 -0.475
0.3125 1 -0.475
0.375 0.9375 -0.5375
0.4375 1 -0.5375
0.4375 0.9375 -0.5375
0.5 1 -0.5375
0.4375 0.9375 -0.475
0.5 0.9375 -0.475
0.4375 1 -0.475
0.5 0.9375 -0.5375
0.5625 1 -0.5375
0.5625 0.9375 -0.5375
0.625 1 -0.5375
0.5625 0.9375 -0.475
0.625 0.9375 -0.475
0.5625 1 -0.475
0.625 0.9375 -0.5375
0.6875 1 -0.5375
0.6875 0.9375 -0.5375
0.75 1 -0.5375
0.6875 0.9375 -0.475
0.75 0.9375 -0.475
0.6875 1 -0.475
0.75 0.9375 -0.5375
0.8125 1 -0.5375
0.8125 0.9375 -0.5375
0.875 1 -0.5375
0.8125 0.9375 -0.475
0.875 0.9375 -0.475
0.8125 1 -0.475
0.875 0.9375 -0.5375
0.9375 1 -0.5375
0.9375 0.9375 -0.5375
1 1 -0.5375
0.9375 0.9375 -0.475
1 0.9375 -0.475
0.9375 1 -0.475
1 0.9375 -0.5375
1.0625 1 -0.5375
1.0625 0.9375 -0.5375
1.125 1 -0.5375
1.0625 0.9375 -0.475
1.125 0.9375 -0.475
1.0625 1 -0.475
1.125 0.9375 -0.5375
1.1875 1 -0.5375
1.1875 0.9375 -0.5375
1.25 1 -0.5375
1.1875 0.9375 -0.475
1.25 0.9375 -0.475
1.1875 1 -0.475
1.25 0.9375 -0.5375
1.3125 1 -0.5375
1.3125 0.9375 -0.5375
1.375 1 -0.5375
1.3125 0.9375 -0.475
1.375 0.9375 -0.475
1.3125 1 -0.475
1.375 0.9375 -0.5375
1.4375 1 -0.5375
1.4375 0.9375 -0.5375
1.5 1 -0.5375
1.4375 0.9375 -0.475
1.5 0.9375 -0.475
1.4375 1 -0.475
1.5 0.9375 -0.5375
1.5625 1 -0.5375
1.5625 0.9375 -0.5375
1.625 1 -0.5375
1.5625 0.9375 -0.475
1.625 0.9375 -0.475
1.5625 1 -0.475
1.625 0.9375 -0.5375
1.6875 1 -0.5375
1.6875 0.9375 -0.5375
1.75 1 -0.5375
1.6875 0.9375 -0.475
1.75 0.9375 -0.475
1.6875 1 -0.475
1.75 0.9375 -0.5375
1.8125 1 -0.5375
1.8125 0.9375 -0.5375
1.875 1 -0.5375
1.8125 0.9375 -0.475
1.875 0.9375 -0.475
1.8125 1 -0.475
1.875 0.9375 -0.5375
1.9375 1 -0.5375
1.9375 0.9375 -0.5375
2 1 -0.5375
1.9375 0.9375 -0.475
2 0.9375 -0.475
1.9375 1 -0.475
2 0.9375 -0.5375
2.0625 1 -0.5375
2.0625 0.9375 -0.5375
2.125 1 -0.5375
2.0625 0.9375 -0.475
2.125 0.9375 -0.475
2.0625 1 -0.475
2.125 0.9375 -0.5375
2.1875 1 -0.5375
2.1875 0.9375 -0.5375
2.25 1 -0.5375
2.1875 0.9375 -0.475
2.25 0.9375 -0.475
2.1875 1 -0.475
2.25 0.9375 -0.5375
2.3125 1 -0.5375
2.3125 0.9375 -0.5375
2.375 1 -0.5375
2.3125 0.9375 -0.475
2.375 0.9375 -0.475
2.3125 1 -0.475
2.375 0.9375 -0.5375
2.4375 1 -0.5375
2.4375 0.9375 -0.5375
2.5 1 -0.5375
2.4375 0.9375 -0.475
2.5 0.9375 -0.475
2.4375 1 -0.475
2.5 0.9375 -0.5375
2.5625 1 -0.5375
2.5625 0.9375 -0.5375
2.625 1 -0.5375
2.5625 0.9375 -0.475
2.625 0.9375 -0.475
2.5625 1 -0.475
2.625 0.9375 -0.5375
2.6875 1 -0.5375
2.6875 0.9375 -0.5375
2.75 1 -0.5375
2.6875 0.9375 -0.475
2.75 0.9375 -0.475
2.6875 1 -0.475
2.75 0.9375 -0.5375
2.8125 1 -0.5375
2.8125 0.9375 -0.5375
2.875 1 -0.5375
2.8125 0.9375 -0.475
2.875 0.9375 -0.475
2.8125 1 -0.475
2.875 0.9375 -0.5375
2.9375 1 -0.5375
2.9375 0.9375 -0.5375
3 1 -0.5375
2.9375 0.9375 -0.475
3 0.9375 -0.475
2.9375 1 -0.475
3 0.9375 -0.5375
3.0625 1 -0.5375
3.0625 0.9375 -0.5375
3.125 1 -0.5375
3.0625 0.9375 -0.475
3.125 0.9375 -0.475
3.0625 1 -0.475
3.125 0.9375 -0.5375
3.1875 1 -0.5375
3.1875 0.9375 -0.5375
3.25 1 -0.5375
3.1875 0.9375 -0.475
3.25 0.9375 -0.475
3.1875 1 -0.475
3.25 0.9375 -0.5375
3.3125 1 -0.5375
3.3125 0.9375 -0.5375
3.375 1 -0.5375
3.3125 0.9375 -0.475
3.375 0.9375 -0.475
3.3125 1 -0.475
3.375 0.9375 -0.5375
3.4375 1 -0.5375
3.4375 0.9375 -0.5375
3.5 1 -0.5375
3.4375 0.9375 -0.475
3.5 0.9375 -0.475
3.4375 1 -0.475
3.5 0.9375 -0.5375
3.5625 1 -0.5375
3.5625 0.9375 -0.5375
3.625 1 -0.5375
3.5625 0.9375 -0.475
3.625 0.9375 -0.475
3.5625 1 -0.475
3.625 0.9375 -0.5375
3.6875 1 -0.5375
3.6875 0.9375 -0.5375
3.75 1 -0.5375
3.6875 0.9375 -0.475
3.75 0.9375 -0.475
3.6875 1 -0.475
3.75 0.9375 -0.5375
3.8125 1 -0.5375
3.8125 0.9375 -0.5375
3.875 1 -0.5375
3.8125 0.9375 -0.475
3.875 0.9375 -0.475
3.8125 1 -0.475
3.875 0.9375 -0.5375
3.9375 1 -0.5375
3.9375 0.9375 -0.5375
4 1 -0.5375
3.9375 0.9375 -0.475
4 0.9375 -0.475
3.9375 1 -0.475
4 0.9375 -0.5375
0.0625 0.125 -0.4125
0.0625 0.0625 -0.4125
0.125 0.125 -0.4125
0.0625 0.0625 -0.35
0.125 0.0625 -0.35
0.0625 0 -0.35
0 0 -0.4125
0.0625 0 -0.4125
0 0.125 -0.4125
0 0.0625 -0.4125
0.0625 0.125 -0.35
0 0.0625 -0.35
0.125 0 -0.4125
0.125 0.0625 -0.4125
0.1875 0.125 -0.4125
0.1875 0.0625 -0.4125
0.25 0.125 -0.4125
0.1875 0.0625 -0.35
0.25 0.0625 -0.35
0.1875 0 -0.35
0.1875 0 -0.4125
0.1875 0.125 -0.35
0.25 0 -0.4125
0.25 0.0625 -0.4125
0.3125 0.125 -0.4125
0.3125 0.0625 -0.4125
0.375 0.125 -0.4125
0.3125 0.0625 -0.35
0.375 0.0625 -0.35
0.3125 0 -0.35
0.3125 0 -0.4125
0.3125 0.125 -0.35
0.375 0 -0.4125
0.375 0.0625 -0.4125
0.4375 0.125 -0.4125
0.4375 0.0625 -0.4125
0.5 0.125 -0.4125
0.4375 0.0625 -0.35
0.5 0.0625 -0.35
0.4375 0 -0.35
0.4375 0 -0.4125
0.4375 0.125 -0.35
0.5 0 -0.4125
0.5 0.0625 -0.4125
0.5625 0.125 -0.4125
0.5625 0.0625 -0.4125
0.625 0.125 -0.4125
0.5625 0.0625 -0.35
0.625 0.0625 -0.35
0.5625 0 -0.35
0.5625 0 -0.4125
0.5625 0.125 -0.35
0.625 0 -0.4125
0.625 0.0625 -0.4125
0.6875 0.125 -0.4125
0.6875 0.0625 -0.4125
0.75 0.125 -0.4125
0.6875 0.0625 -0.35
0.75 0.0625 -0.35
0.6875 0 -0.35
0.6875 0 -0.4125
0.6875 0.125 -0.35
0.75 0 -0.4125
0.75 0.0625 -0.4125
0.8125 0.125 -0.4125
0.8125 0.0625 -0.4125
0.875 0.125 -0.4125
0.8125 0.0625 -0.35
0.875 0.0625 -0.35
0.8125 0 -0.35
0.8125 0 -0.4125
0.8125 0.125 -0.35
0.875 0 -0.4125
0.875 0.0625 -0.4125
0.9375 0.125 -0.4125
0.9375 0.0625 -0.4125
1 0.125 -0.4125
0.9375 0.0625 -0.35
1 0.0625 -0.35
0.9375 0 -0.35
0.9375 0 -0.4125
0.9375 0.125 -0.35
1 0 -0.4125
1 0.0625 -0.4125
1.0625 0.125 -0.4125
1.0625 0.0625 -0.4125
1.125 0.125 -0.4125
1.0625 0.0625 -0.35
1.125 0.0625 -0.35
1.0625 0 -0.35
1.0625 0 -0.4125
1.0625 0.125 -0.35
1.125 0 -0.4125
1.125 0.0625 -0.4125
1.1875 0.125 -0.4125
1.1875 0.0625 -0.4125
1.25 0.125 -0.4125
1.1875 0.0625 -0.35
1.25 0.0625 -0.35
1.1875 0 -0.35
1.1875 0 -0.4125
1.1875 0.125 -0.35
1.25 0 -0.4125
1.25 0.0625 -0.4125
1.3125 0.125 -0.4125
1.3125 0.0625 -0.4125
1.375 0.125 -0.4125
1.3125 0.0625 -0.35
1.375 0.0625 -0.35
1.3125 0 -0.35
1.3125 0 -0.4125
1.3125 0.125 -0.35
1.375 0 -0.4125
1.375 0.0625 -0.4125
1.4375 0.125 -0.4125
1.4375 0.0625 -0.4125
1.5 0.125 -0.4125
1.4375 0.0625 -0.35
1.5 0.0625 -0.35
1.4375 0 -0.35
1.4375 0 -0.4125
1.4375 0.125 -0.35
1.5 0 -0.4125
1.5 0.0625 -0.4125
1.5625 0.125 -0.4125
1.5625 0.0625 -0.4125
1.625 0.125 -0.4125
1.5625 0.0625 -0.35
1.625 0.0625 -0.35
1.5625 0 -0.35
1.5625 0 -0.4125
1.5625 0.125 -0.35
1.625 0 -0.4125
1.625 0.0625 -0.4125
1.6875 0.125 -0.4125
1.6875 0.0625 -0.4125
1.75 0.125 -0.4125
1.6875 0.0625 -0.35
1.75 0.0625 -0.35
1.6875 0 -0.35
1.6875 0 -0.4125
1.6875 0.125 -0.35
1.75 0 -0.4125
1.75 0.0625 -0.4125
1.8125 0.125 -0.4125
1.8125 0.0625 -0.4125
1.875 0.125 -0.4125
1.8125 0.0625 -0.35
1.875 0.0625 -0.35
1.8125 0 -0.35
1.8125 0 -0.4125
1.8125 0.125 -0.35
1.875 0 -0.4125
1.875 0.0625 -0.4125
1.9375 0.125 -0.4125
1.9375 0.0625 -0.4125
2 0.125 -0.4125
1.9375 0.0625 -0.35
2 0.0625 -0.35
1.9375 0 -0.35
1.9375 0 -0.4125
1.9375 0.125 -0.35
2 0 -0.4125
2 0.0625 -0.4125
2.0625 0.125 -0.4125
2.0625 0.0625 -0.4125
2.125 0.125 -0.4125
2.0625 0.0625 -0.35
2.125 0.0625 -0.35
2.0625 0 -0.35
2.0625 0 -0.4125
2.0625 0.125 -0.35
2.125 0 -0.4125
2.125 0.0625 -0.4125
2.1875 0.125 -0.4125
2.1875 0.0625 -0.4125
2.25 0.125 -0.4125
2.1875 0.0625 -0.35
2.25 0.0625 -0.35
2.1875 0 -0.35
2.1875 0 -0.4125
2.1875 0.125 -0.35
2.25 0 -0.4125
2.25 0.0625 -0.4125
2.3125 0.125 -0.4125
2.3125 0.0625 -0.4125
2.375 0.125 -0.4125
2.3125 0.0625 -0.35
2.375 0.0625 -0.35
2.3125 0 -0.35
2.3125 0 -0.4125
2.3125 0.125 -0.35
2.375 0 -0.4125
2.375 0.0625 -0.4125
2.4375 0.125 -0.4125
2.4375 0.0625 -0.4125
2.5 0.125 -0.4125
2.4375 0.0625 -0.35
2.5 0.0625 -0.35
2.4375 0 -0.35
2.4375 0 -0.4125
2.4375 0.125 -0.35
2.5 0 -0.4125
2.5 0.0625 -0.4125
2.5625 0.125 -0.4125
2.5625 0.0625 -0.4125
2.625 0.125 -0.4125
2.5625 0.0625 -0.35
2.625 0.0625 -0.35
2.5625 0 -0.35
2.5625 0 -0.4125
2.5625 0.125 -0.35
2.625 0 -0.4125
2.625 0.0625 -0.4125
2.6875 0.125 -0.4125
2.6875 0.0625 -0.4125
2.75 0.125 -0.4125
2.6875 0.0625 -0.35
2.75 0.0625 -0.35
2.6875 0 -0.35
2.6875 0 -0.4125
2.6875 0.125 -0.35
2.75 0 -0.4125
2.75 0.0625 -0.4125
2.8125 0.125 -0.4125
2.8125 0.0625 -0.4125
2.875 0.125 -0.4125
2.8125 0.0625 -0.35
2.875 0.0625 -0.35
2.8125 0 -0.35
2.8125 0 -0.4125
2.8125 0.125 -0.35
2.875 0 -0.4125
2.875 0.0625 -0.4125
2.9375 0.125 -0.4125
2.9375 0.0625 -0.4125
3 0.125 -0.4125
2.9375 0.0625 -0.35
3 0.0625 -0.35
2.9375 0 -0.35
2.9375 0 -0.4125
2.9375 0.125 -0.35
3 0 -0.4125
3 0.0625 -0.4125
3.0625 0.125 -0.4125
3.0625 0.0625 -0.4125
3.125 0.125 -0.4125
3.0625 0.0625 -0.35
3.125 0.0625 -0.35
3.0625 0 -0.35
3.0625 0 -0.4125
3.0625 0.125 -0.35
3.125 0 -0.4125
3.125 0.0625 -0.4125
3.1875 0.125 -0.4125
3.1875 0.0625 -0.4125
3.25 0.125 -0.4125
3.1875 0.0625 -0.35
3.25 0.0625 -0.35
3.1875 0 -0.35
3.1875 0 -0.4125
3.1875 0.125 -0.35
3.25 0 -0.4125
3.25 0.0625 -0.4125
3.3125 0.125 -0.4125
3.3125 0.0625 -0.4125
3.375 0.125 -0.4125
3.3125 0.0625 -0.35
3.375 0.0625 -0.35
3.3125 0 -0.35
3.3125 0 -0.4125
3.3125 0.125 -0.35
3.375 0 -0.4125
3.375 0.0625 -0.4125
3.4375 0.125 -0.4125
3.4375 0.0625 -0.4125
3.5 0.125 -0.4125
3.4375 0.0625 -0.35
3.5 0.0625 -0.35
3.4375 0 -0.35
3.4375 0 -0.4125
3.4375 0.125 -0.35
3.5 0 -0.4125
3.5 0.0625 -0.4125
3.5625 0.125 -0.4125
3.5625 0.0625 -0.4125
3.625 0.125 -0.4125
3.5625 0.0625 -0.35
3.625 0.0625 -0.35
3.5625 0 -0.35
3.5625 0 -0.4125
3.5625 0.125 -0.35
3.625 0 -0.4125
3.625 0.0625 -0.4125
3.6875 0.125 -0.4125
3.6875 0.0625 -0.4125
3.75 0.125 -0.4125
3.6875 0.0625 -0.35
3.75 0.0625 -0.35
3.6875 0 -0.35
3.6875 0 -0.4125
3.6875 0.125 -0.35
3.75 0 -0.4125
3.75 0.0625 -0.4125
3.8125 0.125 -0.4125
3.8125 0.0625 -0.4125
3.875 0.125 -0.4125
3.8125 0.0625 -0.35
3.875 0.0625 -0.35
3.8125 0 -0.35
3.8125 0 -0.4125
3.8125 0.125 -0.35
3.875 0 -0.4125
3.875 0.0625 -0.4125
3.9375 0.125 -0.4125
3.9375 0.0625 -0.4125
4 0.125 -0.4125
3.9375 0.0625 -0.35
4 0.0625 -0.35
3.9375 0 -0.35
3.9375 0 -0.4125
3.9375 0.125 -0.35
4 0 -0.4125
4 0.0625 -0.4125
0.0625 0.25 -0.4125
0.0625 0.1875 -0.4125
0.125 0.25 -0.4125
0.0625 0.1875 -0.35
0.125 0.1875 -0.35
0 0.25 -0.4125
0 0.1875 -0.4125
0.0625 0.25 -0.35
0 0.1875 -0.35
0.125 0.1875 -0.4125
0.1875 0.25 -0.4125
0.1875 0.1875 -0.4125
0.25 0.25 -0.4125
0.1875 0.1875 -0.35
0.25 0.1875 -0.35
0.1875 0.25 -0.35
0.25 0.1875 -0.4125
0.3125 0.25 -0.4125
0.3125 0.1875 -0.4125
0.375 0.25 -0.4125
0.3125 0.1875 -0.35
0.375 0.1875 -0.35
0.3125 0.25 -0.35
0.375 0.1875 -0.4125
0.4375 0.25 -0.4125
0.4375 0.1875 -0.4125
0.5 0.25 -0.4125
0.4375 0.1875 -0.35
0.5 0.1875 -0.35
0.4375 0.25 -0.35
0.5 0.1875 -0.4125
0.5625 0.25 -0.4125
0.5625 0.1875 -0.4125
0.625 0.25 -0.4125
0.5625 0.1875 -0.35
0.625 0.1875 -0.35
0.5625 0.25 -0.35
0.625 0.1875 -0.4125
0.6875 0.25 -0.4125
0.6875 0.1875 -0.4125
0.75 0.25 -0.4125
0.6875 0.1875 -0.35
0.75 0.1875 -0.35
0.6875 0.25 -0.35
0.75 0.1875 -0.4125
0.8125 0.25 -0.4125
0.8125 0.1875 -0.4125
0.875 0.25 -0.4125
0.8125 0.1875 -0.35
0.875 0.1875 -0.35
0.8125 0.25 -0.35
0.875 0.1875 -0.4125
0.9375 0.25 -0.4125
0.9375 0.1875 -0.4125
1 0.25 -0.4125
0.9375 0.1875 -0.35
1 0.1875 -0.35
0.9375 0.25 -0.35
1 0.1875 -0.4125
1.0625 0.25 -0.4125
1.0625 0.1875 -0.4125
1.125 0.25 -0.4125
1.0625 0.1875 -0.35
1.125 0.1875 -0.35
1.0625 0.25 -0.35
1.125 0.1875 -0.4125
1.1875 0.25 -0.4125
1.1875 0.1875 -0.4125
1.25 0.25 -0.4125
1.1875 0.1875 -0.35
1.25 0.1875 -0.35
1.1875 0.25 -0.35
1.25 0.1875 -0.4125
1.3125 0.25 -0.4125
1.3125 0.1875 -0.4125
1.375 0.25 -0.4125
1.3125 0.1875 -0.35
1.375 0.1875 -0.35
1.3125 0.25 -0.35
1.375 0.1875 -0.4125
1.4375 0.25 -0.4125
1.4375 0.1875 -0.4125
1.5 0.25 -0.4125
1.4375 0.1875 -0.35
1.5 0.1875 -0.35
1.4375 0.25 -0.35
1.5 0.1875 -0.4125
1.5625 0.25 -0.4125
1.5625 0.1875 -0.4125
1.625 0.25 -0.4125
1.5625 0.1875 -0.35
1.625 0.1875 -0.35
1.5625 0.25 -0.35
1.625 0.1875 -0.4125
1.6875 0.25 -0.4125
1.6875 0.1875 -0.4125
1.75 0.25 -0.4125
1.6875 0.1875 -0.35
1.75 0.1875 -0.35
1.6875 0.25 -0.35
1.75 0.1875 -0.4125
1.8125 0.25 -0.4125
1.8125 0.1875 -0.4125
1.875 0.25 -0.4125
1.8125 0.1875 -0.35
1.875 0.1875 -0.35
1.8125 0.25 -0.35
1.875 0.1875 -0.4125
1.9375 0.25 -0.4125
1.9375 0.1875 -0.4125
2 0.25 -0.4125
1.9375 0.1875 -0.35
2 0.1875 -0.35
1.9375 0.25 -0.35
2 0.1875 -0.4125
2.0625 0.25 -0.4125
2.0625 0.1875 -0.4125
2.125 0.25 -0.4125
2.0625 0.1875 -0.35
2.125 0.1875 -0.35
2.0625 0.25 -0.35
2.125 0.1875 -0.4125
2.1875 0.25 -0.4125
2.1875 0.1875 -0.4125
2.25 0.25 -0.4125
2.1875 0.1875 -0.35
2.25 0.1875 -0.35
2.1875 0.25 -0.35
2.25 0.1875 -0.4125
2.3125 0.25 -0.4125
2.3125 0.1875 -0.4125
2.375 0.25 -0.4125
2.3125 0.1875 -0.35
2.375 0.1875 -0.35
2.3125 0.25 -0.35
2.375 0.1875 -0.4125
2.4375 0.25 -0.4125
2.4375 0.1875 -0.4125
2.5 0.25 -0.4125
2.4375 0.1875 -0.35
2.5 0.1875 -0.35
2.4375 0.25 -0.35
2.5 0.1875 -0.4125
2.5625 0.25 -0.4125
2.5625 0.1875 -0.4125
2.625 0.25 -0.4125
2.5625 0.1875 -0.35
2.625 0.1875 -0.35
2.5625 0.25 -0.35
2.625 0.1875 -0.4125
2.6875 0.25 -0.4125
2.6875 0.1875 -0.4125
2.75 0.25 -0.4125
2.6875 0.1875 -0.35
2.75 0.1875 -0.35
2.6875 0.25 -0.35
2.75 0.1875 -0.4125
2.8125 0.25 -0.4125
2.8125 0.1875 -0.4125
2.875 0.25 -0.4125
2.8125 0.1875 -0.35
2.875 0.1875 -0.35
2.8125 0.25 -0.35
2.875 0.1875 -0.4125
2.9375 0.25 -0.4125
2.9375 0.1875 -0.4125
3 0.25 -0.4125
2.9375 0.1875 -0.35
3 0.1875 -0.35
2.9375 0.25 -0.35
3 0.1875 -0.4125
3.0625 0.25 -0.4125
3.0625 0.1875 -0.4125
3.125 0.25 -0.4125
3.0625 0.1875 -0.35
3.125 0.1875 -0.35
3.0625 0.25 -0.35
3.125 0.1875 -0.4125
3.1875 0.25 -0.4125
3.1875 0.1875 -0.4125
3.25 0.25 -0.4125
3.1875 0.1875 -0.35
3.25 0.1875 -0.35
3.1875 0.25 -0.35
3.25 0.1875 -0.4125
3.3125 0.25 -0.4125
3.3125 0.1875 -0.4125
3.375 0.25 -0.4125
3.3125 0.1875 -0.35
3.375 0.1875 -0.35
3.3125 0.25 -0.35
3.375 0.1875 -0.4125
3.4375 0.25 -0.4125
3.4375 0.1875 -0.4125
3.5 0.25 -0.4125
3.4375 0.1875 -0.35
3.5 0.1875 -0.35
3.4375 0.25 -0.35
3.5 0.1875 -0.4125
3.5625 0.25 -0.4125
3.5625 0.1875 -0.4125
3.625 0.25 -0.4125
3.5625 0.1875 -0.35
3.625 0.1875 -0.35
3.5625 0.25 -0.35
3.625 0.1875 -0.4125
3.6875 0.25 -0.4125
3.6875 0.1875 -0.4125
3.75 0.25 -0.4125
3.6875 0.1875 -0.35
3.75 0.1875 -0.35
3.6875 0.25 -0.35
3.75 0.1875 -0.4125
3.8125 0.25 -0.4125
3.8125 0.1875 -0.4125
3.875 0.25 -0.4125
3.8125 0.1875 -0.35
3.875 0.1875 -0.35
3.8125 0.25 -0.35
3.875 0.1875 -0.4125
3.9375 0.25 -0.4125
3.9375 0.1875 -0.4125
4 0.25 -0.4125
3.9375 0.1875 -0.35
4 0.1875 -0.35
3.9375 0.25 -0.35
4 0.1875 -0.4125
0.0625 0.375 -0.4125
0.0625 0.3125 -0.4125
0.125 0.375 -0.4125
0.0625 0.3125 -0.35
0.125 0.3125 -0.35
0 0.375 -0.4125
0 0.3125 -0.4125
0.0625 0.375 -0.35
0 0.3125 -0.35
0.125 0.3125 -0.4125
0.1875 0.375 -0.4125
0.1875 0.3125 -0.4125
0.25 0.375 -0.4125
0.1875 0.3125 -0.35
0.25 0.3125 -0.35
0.1875 0.375 -0.35
0.25 0.3125 -0.4125
0.3125 0.375 -0.4125
0.3125 0.3125 -0.4125
0.375 0.375 -0.4125
0.3125 0.3125 -0.35
0.375 0.3125 -0.35
0.3125 0.375 -0.35
0.375 0.3125 -0.4125
0.4375 0.375 -0.4125
0.4375 0.3125 -0.4125
0.5 0.375 -0.4125
0.4375 0.3125 -0.35
0.5 0.3125 -0.35
0.4375 0.375 -0.35
0.5 0.3125 -0.4125
0.5625 0.375 -0.4125
0.5625 0.3125 -0.4125
0.625 0.375 -0.4125
0.5625 0.3125 -0.35
0.625 0.3125 -0.35
0.5625 0.375 -0.35
0.625 0.3125 -0.4125
0.6875 0.375 -0.4125
0.6875 0.3125 -0.4125
0.75 0.375 -0.4125
0.6875 0.3125 -0.35
0.75 0.3125 -0.35
0.6875 0.375 -0.35
0.75 0.3125 -0.4125
0.8125 0.375 -0.4125
0.8125 0.3125 -0.4125
0.875 0.375 -0.4125
0.8125 0.3125 -0.35
0.875 0.3125 -0.35
0.8125 0.375 -0.35
0.875 0.3125 -0.4125
0.9375 0.375 -0.4125
0.9375 0.3125 -0.4125
1 0.375 -0.4125
0.9375 0.3125 -0.35
1 0.3125 -0.35
0.9375 0.375 -0.35
1 0.3125 -0.4125
1.0625 0.375 -0.4125
1.0625 0.3125 -0.4125
1.125 0.375 -0.4125
1.0625 0.3125 -0.35
1.125 0.3125 -0.35
1.0625 0.375 -0.35
1.125 0.3125 -0.4125
1.1875 0.375 -0.4125
1.1875 0.3125 -0.4125
1.25 0.375 -0.4125
1.1875 0.3125 -0.35
1.25 0.3125 -0.35
1.1875 0.375 -0.35
1.25 0.3125 -0.4125
1.3125 0.375 -0.4125
1.3125 0.3125 -0.4125
1.375 0.375 -0.4125
1.3125 0.3125 -0.35
1.375 0.3125 -0.35
1.3125 0.375 -0.35
1.375 0.3125 -0.4125
1.4375 0.375 -0.4125
1.4375 0.3125 -0.4125
1.5 0.375 -0.4125
1.4375 0.3125 -0.35
1.5 0.3125 -0.35
1.4375 0.375 -0.35
1.5 0.3125 -0.4125
1.5625 0.375 -0.4125
1.5625 0.3125 -0.4125
1.625 0.375 -0.4125
1.5625 0.3125 -0.35
1.625 0.3125 -0.35
1.5625 0.375 -0.35
1.625 0.3125 -0.4125
1.6875 0.375 -0.4125
1.6875 0.3125 -0.4125
1.75 0.375 -0.4125
1.6875 0.3125 -0.35
1.75 0.3125 -0.35
1.6875 0.375 -0.35
1.75 0.3125 -0.4125
1.8125 0.375 -0.4125
1.8125 0.3125 -0.4125
1.875 0.375 -0.4125
1.8125 0.3125 -0.35
1.875 0.3125 -0.35
1.8125 0.375 -0.35
1.875 0.3125 -0.4125
1.9375 0.375 -0.4125
1.9375 0.3125 -0.4125
2 0.375 -0.4125
1.9375 0.3125 -0.35
2 0.3125 -0.35
1.9375 0.375 -0.35
2 0.3125 -0.4125
2.0625 0.375 -0.4125
2.0625 0.3125 -0.4125
2.125 0.375 -0.4125
2.0625 0.3125 -0.35
2.125 0.3125 -0.35
2.0625 0.375 -0.35
2.125 0.3125 -0.4125
2.1875 0.375 -0.4125
2.1875 0.3125 -0.4125
2.25 0.375 -0.4125
2.1875 0.3125 -0.35
2.25 0.3125 -0.35
2.1875 0.375 -0.35
2.25 0.3125 -0.4125
2.3125 0.375 -0.4125
2.3125 0.3125 -0.4125
2.375 0.375 -0.4125
2.3125 0.3125 -0.35
2.375 0.3125 -0.35
2.3125 0.375 -0.35
2.375 0.3125 -0.4125
2.4375 0.375 -0.4125
2.4375 0.3125 -0.4125
2.5 0.375 -0.4125
2.4375 0.3125 -0.35
2.5 0.3125 -0.35
2.4375 0.375 -0.35
2.5 0.3125 -0.4125
2.5625 0.375 -0.4125
2.5625 0.3125 -0.4125
2.625 0.375 -0.4125
2.5625 0.3125 -0.35
2.625 0.3125 -0.35
2.5625 0.375 -0.35
2.625 0.3125 -0.4125
2.6875 0.375 -0.4125
2.6875 0.3125 -0.4125
2.75 0.375 -0.4125
2.6875 0.3125 -0.35
2.75 0.3125 -0.35
2.6875 0.375 -0.35
2.75 0.3125 -0.4125
2.8125 0.375 -0.4125
2.8125 0.3125 -0.4125
2.875 0.375 -0.4125
2.8125 0.3125 -0.35
2.875 0.3125 -0.35
2.8125 0.375 -0.35
2.875 0.3125 -0.4125
2.9375 0.375 -0.4125
2.9375 0.3125 -0.4125
3 0.375 -0.4125
2.9375 0.3125 -0.35
3 0.3125 -0.35
2.9375 0.375 -0.35
3 0.3125 -0.4125
3.0625 0.375 -0.4125
3.0625 0.3125 -0.4125
3.125 0.375 -0.4125
3.0625 0.3125 -0.35
3.125 0.3125 -0.35
3.0625 0.375 -0.35
3.125 0.3125 -0.4125
3.1875 0.375 -0.4125
3.1875 0.3125 -0.4125
3.25 0.375 -0.4125
3.1875 0.3125 -0.35
3.25 0.3125 -0.35
3.1875 0.375 -0.35
3.25 0.3125 -0.4125
3.3125 0.375 -0.4125
3.3125 0.3125 -0.4125
3.375 0.375 -0.4125
3.3125 0.3125 -0.35
3.375 0.3125 -0.35
3.3125 0.375 -0.35
3.375 0.3125 -0.4125
3.4375 0.375 -0.4125
3.4375 0.3125 -0.4125
3.5 0.375 -0.4125
3.4375 0.3125 -0.35
3.5 0.3125 -0.35
3.4375 0.375 -0.35
3.5 0.3125 -0.4125
3.5625 0.375 -0.4125
3.5625 0.3125 -0.4125
3.625 0.375 -0.4125
3.5625 0.3125 -0.35
3.625 0.3125 -0.35
3.5625 0.375 -0.35
3.625 0.3125 -0.4125
3.6875 0.375 -0.4125
3.6875 0.3125 -0.4125
3.75 0.375 -0.4125
3.6875 0.3125 -0.35
3.75 0.3125 -0.35
3.6875 0.375 -0.35
3.75 0.3125 -0.4125
3.8125 0.375 -0.4125
3.8125 0.3125 -0.4125
3.875 0.375 -0.4125
3.8125 0.3125 -0.35
3.875 0.3125 -0.35
3.8125 0.375 -0.35
3.875 0.3125 -0.4125
3.9375 0.375 -0.4125
3.9375 0.3125 -0.4125
4 0.375 -0.4125
3.9375 0.3125 -0.35
4 0.3125 -0.35
3.9375 0.375 -0.35
4 0.3125 -0.4125
0.0625 0.5 -0.4125
0.0625 0.4375 -0.4125
0.125 0.5 -0.4125
0.0625 0.4375 -0.35
0.125 0.4375 -0.35
0 0.5 -0.4125
0 0.4375 -0.4125
0.0625 0.5 -0.35
0 0.4375 -0.35
0.125 0.4375 -0.4125
0.1875 0.5 -0.4125
0.1875 0.4375 -0.4125
0.25 0.5 -0.4125
0.1875 0.4375 -0.35
0.25 0.4375 -0.35
0.1875 0.5 -0.35
0.25 0.4375 -0.4125
0.3125 0.5 -0.4125
0.3125 0.4375 -0.4125
0.375 0.5 -0.4125
0.3125 0.4375 -0.35
0.375 0.4375 -0.35
0.3125 0.5 -0.35
0.375 0.4375 -0.4125
0.4375 0.5 -0.4125
0.4375 0.4375 -0.4125
0.5 0.5 -0.4125
0.4375 0.4375 -0.35
0.5 0.4375 -0.35
0.4375 0.5 -0.35
0.5 0.4375 -0.4125
0.5625 0.5 -0.4125
0.5625 0.4375 -0.4125
0.625 0.5 -0.4125
0.5625 0.4375 -0.35
0.625 0.4375 -0.35
0.5625 0.5 -0.35
0.625 0.4375 -0.4125
0.6875 0.5 -0.4125
0.6875 0.4375 -0.4125
0.75 0.5 -0.4125
0.6875 0.4375 -0.35
0.75 0.4375 -0.35
0.6875 0.5 -0.35
0.75 0.4375 -0.4125
0.8125 0.5 -0.4125
0.8125 0.4375 -0.4125
0.875 0.5 -0.4125
0.8125 0.4375 -0.35
0.875 0.4375 -0.35
0.8125 0.5 -0.35
0.875 0.4375 -0.4125
0.9375 0.5 -0.4125
0.9375 0.4375 -0.4125
1 0.5 -0.4125
0.9375 0.4375 -0.35
1 0.4375 -0.35
0.9375 0.5 -0.35
1 0.4375 -0.4125
1.0625 0.5 -0.4125
1.0625 0.4375 -0.4125
1.125 0.5 -0.4125
1.0625 0.4375 -0.35
1.125 0.4375 -0.35
1.0625 0.5 -0.35
1.125 0.4375 -0.4125
1.1875 0.5 -0.4125
1.1875 0.4375 -0.4125
1.25 0.5 -0.4125
1.1875 0.4375 -0.35
1.25 0.4375 -0.35
1.1875 0.5 -0.35
1.25 0.4375 -0.4125
1.3125 0.5 -0.4125
1.3125 0.4375 -0.4125
1.375 0.5 -0.4125
1.3125 0.4375 -0.35
1.375 0.4375 -0.35
1.3125 0.5 -0.35
1.375 0.4375 -0.4125
1.4375 0.5 -0.4125
1.4375 0.4375 -0.4125
1.5 0.5 -0.4125
1.4375 0.4375 -0.35
1.5 0.4375 -0.35
1.4375 0.5 -0.35
1.5 0.4375 -0.4125
1.5625 0.5 -0.4125
1.5625 0.4375 -0.4125
1.625 0.5 -0.4125
1.5625 0.4375 -0.35
1.625 0.4375 -0.35
1.5625 0.5 -0.35
1.625 0.4375 -0.4125
1.6875 0.5 -0.4125
1.6875 0.4375 -0.4125
1.75 0.5 -0.4125
1.6875 0.4375 -0.35
1.75 0.4375 -0.35
1.6875 0.5 -0.35
1.75 0.4375 -0.4125
1.8125 0.5 -0.4125
1.8125 0.4375 -0.4125
1.875 0.5 -0.4125
1.8125 0.4375 -0.35
1.875 0.4375 -0.35
1.8125 0.5 -0.35
1.875 0.4375 -0.4125
1.9375 0.5 -0.4125
1.9375 0.4375 -0.4125
2 0.5 -0.4125
1.9375 0.4375 -0.35
2 0.4375 -0.35
1.9375 0.5 -0.35
2 0.4375 -0.4125
2.0625 0.5 -0.4125
2.0625 0.4375 -0.4125
2.125 0.5 -0.4125
2.0625 0.4375 -0.35
2.125 0.4375 -0.35
2.0625 0.5 -0.35
2.125 0.4375 -0.4125
2.1875 0.5 -0.4125
2.1875 0.4375 -0.4125
2.25 0.5 -0.4125
2.1875 0.4375 -0.35
2.25 0.4375 -0.35
2.1875 0.5 -0.35
2.25 0.4375 -0.4125
2.3125 0.5 -0.4125
2.3125 0.4375 -0.4125
2.375 0.5 -0.4125
2.3125 0.4375 -0.35
2.375 0.4375 -0.35
2.3125 0.5 -0.35
2.375 0.4375 -0.4125
2.4375 0.5 -0.4125
2.4375 0.4375 -0.4125
2.5 0.5 -0.4125
2.4375 0.4375 -0.35
2.5 0.4375 -0.35
2.4375 0.5 -0.35
2.5 0.4375 -0.4125
2.5625 0.5 -0.4125
2.5625 0.4375 -0.4125
2.625 0.5 -0.4125
2.5625 0.4375 -0.35
2.625 0.4375 -0.35
2.5625 0.5 -0.35
2.625 0.4375 -0.4125
2.6875 0.5 -0.4125
2.6875 0.4375 -0.4125
2.75 0.5 -0.4125
2.6875 0.4375 -0.35
2.75 0.4375 -0.35
2.6875 0.5 -0.35
2.75 0.4375 -0.4125
2.8125 0.5 -0.4125
2.8125 0.4375 -0.4125
2.875 0.5 -0.4125
2.8125 0.4375 -0.35
2.875 0.4375 -0.35
2.8125 0.5 -0.35
2.875 0.4375 -0.4125
2.9375 0.5 -0.4125
2.9375 0.4375 -0.4125
3 0.5 -0.4125
2.9375 0.4375 -0.35
3 0.4375 -0.35
2.9375 0.5 -0.35
3 0.4375 -0.4125
3.0625 0.5 -0.4125
3.0625 0.4375 -0.4125
3.125 0.5 -0.4125
3.0625 0.4375 -0.35
3.125 0.4375 -0.35
3.0625 0.5 -0.35
3.125 0.4375 -0.4125
3.1875 0.5 -0.4125
3.1875 0.4375 -0.4125
3.25 0.5 -0.4125
3.1875 0.4375 -0.35
3.25 0.4375 -0.35
3.1875 0.5 -0.35
3.25 0.4375 -0.4125
3.3125 0.5 -0.4125
3.3125 0.4375 -0.4125
3.375 0.5 -0.4125
3.3125 0.4375 -0.35
3.375 0.4375 -0.35
3.3125 0.5 -0.35
3.375 0.4375 -0.4125
3.4375 0.5 -0.4125
3.4375 0.4375 -0.4125
3.5 0.5 -0.4125
3.4375 0.4375 -0.35
3.5 0.4375 -0.35
3.4375 0.5 -0.35
3.5 0.4375 -0.4125
3.5625 0.5 -0.4125
3.5625 0.4375 -0.4125
3.625 0.5 -0.4125
3.5625 0.4375 -0.35
3.625 0.4375 -0.35
3.5625 0.5 -0.35
3.625 0.4375 -0.4125
3.6875 0.5 -0.4125
3.6875 0.4375 -0.4125
3.75 0.5 -0.4125
3.6875 0.4375 -0.35
3.75 0.4375 -0.35
3.6875 0.5 -0.35
3.75 0.4375 -0.4125
3.8125 0.5 -0.4125
3.8125 0.4375 -0.4125
3.875 0.5 -0.4125
3.8125 0.4375 -0.35
3.875 0.4375 -0.35
3.8125 0.5 -0.35
3.875 0.4375 -0.4125
3.9375 0.5 -0.4125
3.9375 0.4375 -0.4125
4 0.5 -0.4125
3.9375 0.4375 -0.35
4 0.4375 -0.35
3.9375 0.5 -0.35
4 0.4375 -0.4125
0.0625 0.625 -0.4125
0.0625 0.5625 -0.4125
0.125 0.625 -0.4125
0.0625 0.5625 -0.35
0.125 0.5625 -0.35
0 0.625 -0.4125
0 0.5625 -0.4125
0.0625 0.625 -0.35
0 0.5625 -0.35
0.125 0.5625 -0.4125
0.1875 0.625 -0.4125
0.1875 0.5625 -0.4125
0.25 0.625 -0.4125
0.1875 0.5625 -0.35
0.25 0.5625 -0.35
0.1875 0.625 -0.35
0.25 0.5625 -0.4125
0.3125 0.625 -0.4125
0.3125 0.5625 -0.4125
0.375 0.625 -0.4125
0.3125 0.5625 -0.35
0.375 0.5625 -0.35
0.3125 0.625 -0.35
0.375 0.5625 -0.4125
0.4375 0.625 -0.4125
0.4375 0.5625 -0.4125
0.5 0.625 -0.4125
0.4375 0.5625 -0.35
0.5 0.5625 -0.35
0.4375 0.625 -0.35
0.5 0.5625 -0.4125
0.5625 0.625 -0.4125
0.5625 0.5625 -0.4125
0.625 0.625 -0.4125
0.5625 0.5625 -0.35
0.625 0.5625 -0.35
0.5625 0.625 -0.35
0.625 0.5625 -0.4125
0.6875 0.625 -0.4125
0.6875 0.5625 -0.4125
0.75 0.625 -0.4125
0.6875 0.5625 -0.35
0.75 0.5625 -0.35
0.6875 0.625 -0.35
0.75 0.5625 -0.4125
0.8125 0.625 -0.4125
0.8125 0.5625 -0.4125
0.875 0.625 -0.4125
0.8125 0.5625 -0.35
0.875 0.5625 -0.35
0.8125 0.625 -0.35
0.875 0.5625 -0.4125
0.9375 0.625 -0.4125
0.9375 0.5625 -0.4125
1 0.625 -0.4125
0.9375 0.5625 -0.35
1 0.5625 -0.35
0.9375 0.625 -0.35
1 0.5625 -0.4125
1.0625 0.625 -0.4125
1.0625 0.5625 -0.4125
1.125 0.625 -0.4125
1.0625 0.5625 -0.35
1.125 0.5625 -0.35
1.0625 0.625 -0.35
1.125 0.5625 -0.4125
1.1875 0.625 -0.4125
1.1875 0.5625 -0.4125
1.25 0.625 -0.4125
1.1875 0.5625 -0.35
1.25 0.5625 -0.35
1.1875 0.625 -0.35
1.25 0.5625 -0.4125
1.3125 0.625 -0.4125
1.3125 0.5625 -0.4125
1.375 0.625 -0.4125
1.3125 0.5625 -0.35
1.375 0.5625 -0.35
1.3125 0.625 -0.35
1.375 0.5625 -0.4125
1.4375 0.625 -0.4125
1.4375 0.5625 -0.4125
1.5 0.625 -0.4125
1.4375 0.5625 -0.35
1.5 0.5625 -0.35
1.4375 0.625 -0.35
1.5 0.5625 -0.4125
1.5625 0.625 -0.4125
1.5625 0.5625 -0.4125
1.625 0.625 -0.4125
1.5625 0.5625 -0.35
1.625 0.5625 -0.35
1.5625 0.625 -0.35
1.625 0.5625 -0.4125
1.6875 0.625 -0.4125
1.6875 0.5625 -0.4125
1.75 0.625 -0.4125
1.6875 0.5625 -0.35
1.75 0.5625 -0.35
1.6875 0.625 -0.35
1.75 0.5625 -0.4125
1.8125 0.625 -0.4125
1.8125 0.5625 -0.4125
1.875 0.625 -0.4125
1.8125 0.5625 -0.35
1.875 0.5625 -0.35
1.8125 0.625 -0.35
1.875 0.5625 -0.4125
1.9375 0.625 -0.4125
1.9375 0.5625 -0.4125
2 0.625 -0.4125
1.9375 0.5625 -0.35
2 0.5625 -0.35
1.9375 0.625 -0.35
2 0.5625 -0.4125
2.0625 0.625 -0.4125
2.0625 0.5625 -0.4125
2.125 0.625 -0.4125
2.0625 0.5625 -0.35
2.125 0.5625 -0.35
2.0625 0.625 -0.35
2.125 0.5625 -0.4125
2.1875 0.625 -0.4125
2.1875 0.5625 -0.4125
2.25 0.625 -0.4125
2.1875 0.5625 -0.35
2.25 0.5625 -0.35
2.1875 0.625 -0.35
2.25 0.5625 -0.4125
2.3125 0.625 -0.4125
2.3125 0.5625 -0.4125
2.375 0.625 -0.4125
2.3125 0.5625 -0.35
2.375 0.5625 -0.35
2.3125 0.625 -0.35
2.375 0.5625 -0.4125
2.4375 0.625 -0.4125
2.4375 0.5625 -0.4125
2.5 0.625 -0.4125
2.4375 0.5625 -0.35
2.5 0.5625 -0.35
2.4375 0.625 -0.35
2.5 0.5625 -0.4125
2.5625 0.625 -0.4125
2.5625 0.5625 -0.4125
2.625 0.625 -0.4125
2.5625 0.5625 -0.35
2.625 0.5625 -0.35
2.5625 0.625 -0.35
2.625 0.5625 -0.4125
2.6875 0.625 -0.4125
2.6875 0.5625 -0.4125
2.75 0.625 -0.4125
2.6875 0.5625 -0.35
2.75 0.5625 -0.35
2.6875 0.625 -0.35
2.75 0.5625 -0.4125
2.8125 0.625 -0.4125
2.8125 0.5625 -0.4125
2.875 0.625 -0.4125
2.8125 0.5625 -0.35
2.875 0.5625 -0.35
2.8125 0.625 -0.35
2.875 0.5625 -0.4125
2.9375 0.625 -0.4125
2.9375 0.5625 -0.4125
3 0.625 -0.4125
2.9375 0.5625 -0.35
3 0.5625 -0.35
2.9375 0.625 -0.35
3 0.5625 -0.4125
3.0625 0.625 -0.4125
3.0625 0.5625 -0.4125
3.125 0.625 -0.4125
3.0625 0.5625 -0.35
3.125 0.5625 -0.35
3.0625 0.625 -0.35
3.125 0.5625 -0.4125
3.1875 0.625 -0.4125
3.1875 0.5625 -0.4125
3.25 0.625 -0.4125
3.1875 0.5625 -0.35
3.25 0.5625 -0.35
3.1875 0.625 -0.35
3.25 0.5625 -0.4125
3.3125 0.625 -0.4125
3.3125 0.5625 -0.4125
3.375 0.625 -0.4125
3.3125 0.5625 -0.35
3.375 0.5625 -0.35
3.3125 0.625 -0.35
3.375 0.5625 -0.4125
3.4375 0.625 -0.4125
3.4375 0.5625 -0.4125
3.5 0.625 -0.4125
3.4375 0.5625 -0.35
3.5 0.5625 -0.35
3.4375 0.625 -0.35
3.5 0.5625 -0.4125
3.5625 0.625 -0.4125
3.5625 0.5625 -0.4125
3.625 0.625 -0.4125
3.5625 0.5625 -0.35
3.625 0.5625 -0.35
3.5625 0.625 -0.35
3.625 0.5625 -0.4125
3.6875 0.625 -0.4125
3.6875 0.5625 -0.4125
3.75 0.625 -0.4125
3.6875 0.5625 -0.35
3.75 0.5625 -0.35
3.6875 0.625 -0.35
3.75 0.5625 -0.4125
3.8125 0.625 -0.4125
3.8125 0.5625 -0.4125
3.875 0.625 -0.4125
3.8125 0.5625 -0.35
3.875 0.5625 -0.35
3.8125 0.625 -0.35
3.875 0.5625 -0.4125
3.9375 0.625 -0.4125
3.9375 0.5625 -0.4125
4 0.625 -0.4125
3.9375 0.5625 -0.35
4 0.5625 -0.35
3.9375 0.625 -0.35
4 0.5625 -0.4125
0.0625 0.75 -0.4125
0.0625 0.6875 -0.4125
0.125 0.75 -0.4125
0.0625 0.6875 -0.35
0.125 0.6875 -0.35
0 0.75 -0.4125
0 0.6875 -0.4125
0.0625 0.75 -0.35
0 0.6875 -0.35
0.125 0.6875 -0.4125
0.1875 0.75 -0.4125
0.1875 0.6875 -0.4125
0.25 0.75 -0.4125
0.1875 0.6875 -0.35
0.25 0.6875 -0.35
0.1875 0.75 -0.35
0.25 0.6875 -0.4125
0.3125 0.75 -0.4125
0.3125 0.6875 -0.4125
0.375 0.75 -0.4125
0.3125 0.6875 -0.35
0.375 0.6875 -0.35
0.3125 0.75 -0.35
0.375 0.6875 -0.4125
0.4375 0.75 -0.4125
0.4375 0.6875 -0.4125
0.5 0.75 -0.4125
0.4375 0.6875 -0.35
0.5 0.6875 -0.35
0.4375 0.75 -0.35
0.5 0.6875 -0.4125
0.5625 0.75 -0.4125
0.5625 0.6875 -0.4125
0.625 0.75 -0.4125
0.5625 0.6875 -0.35
0.625 0.6875 -0.35
0.5625 0.75 -0.35
0.625 0.6875 -0.4125
0.6875 0.75 -0.4125
0.6875 0.6875 -0.4125
0.75 0.75 -0.4125
0.6875 0.6875 -0.35
0.75 0.6875 -0.35
0.6875 0.75 -0.35
0.75 0.6875 -0.4125
0.8125 0.75 -0.4125
0.8125 0.6875 -0.4125
0.875 0.75 -0.4125
0.8125 0.6875 -0.35
0.875 0.6875 -0.35
0.8125 0.75 -0.35
0.875 0.6875 -0.4125
0.9375 0.75 -0.4125
0.9375 0.6875 -0.4125
1 0.75 -0.4125
0.9375 0.6875 -0.35
1 0.6875 -0.35
0.9375 0.75 -0.35
1 0.6875 -0.4125
1.0625 0.75 -0.4125
1.0625 0.6875 -0.4125
1.125 0.75 -0.4125
1.0625 0.6875 -0.35
1.125 0.6875 -0.35
1.0625 0.75 -0.35
1.125 0.6875 -0.4125
1.1875 0.75 -0.4125
1.1875 0.6875 -0.4125
1.25 0.75 -0.4125
1.1875 0.6875 -0.35
1.25 0.6875 -0.35
1.1875 0.75 -0.35
1.25 0.6875 -0.4125
1.3125 0.75 -0.4125
1.3125 0.6875 -0.4125
1.375 0.75 -0.4125
1.3125 0.6875 -0.35
1.375 0.6875 -0.35
1.3125 0.75 -0.35
1.375 0.6875 -0.4125
1.4375 0.75 -0.4125
1.4375 0.6875 -0.4125
1.5 0.75 -0.4125
1.4375 0.6875 -0.35
1.5 0.6875 -0.35
1.4375 0.75 -0.35
1.5 0.6875 -0.4125
1.5625 0.75 -0.4125
1.5625 0.6875 -0.4125
1.625 0.75 -0.4125
1.5625 0.6875 -0.35
1.625 0.6875 -0.35
1.5625 0.75 -0.35
1.625 0.6875 -0.4125
1.6875 0.75 -0.4125
1.6875 0.6875 -0.4125
1.75 0.75 -0.4125
1.6875 0.6875 -0.35
1.75 0.6875 -0.35
1.6875 0.75 -0.35
1.75 0.6875 -0.4125
1.8125 0.75 -0.4125
1.8125 0.6875 -0.4125
1.875 0.75 -0.4125
1.8125 0.6875 -0.35
1.875 0.6875 -0.35
1.8125 0.75 -0.35
1.875 0.6875 -0.4125
1.9375 0.75 -0.4125
1.9375 0.6875 -0.4125
2 0.75 -0.4125
1.9375 0.6875 -0.35
2 0.6875 -0.35
1.9375 0.75 -0.35
2 0.6875 -0.4125
2.0625 0.75 -0.4125
2.0625 0.6875 -0.4125
2.125 0.75 -0.4125
2.0625 0.6875 -0.35
2.125 0.6875 -0.35
2.0625 0.75 -0.35
2.125 0.6875 -0.4125
2.1875 0.75 -0.4125
2.1875 0.6875 -0.4125
2.25 0.75 -0.4125
2.1875 0.6875 -0.35
2.25 0.6875 -0.35
2.1875 0.75 -0.35
2.25 0.6875 -0.4125
2.3125 0.75 -0.4125
2.3125 0.6875 -0.4125
2.375 0.75 -0.4125
2.3125 0.6875 -0.35
2.375 0.6875 -0.35
2.3125 0.75 -0.35
2.375 0.6875 -0.4125
2.4375 0.75 -0.4125
2.4375 0.6875 -0.4125
2.5 0.75 -0.4125
2.4375 0.6875 -0.35
2.5 0.6875 -0.35
2.4375 0.75 -0.35
2.5 0.6875 -0.4125
2.5625 0.75 -0.4125
2.5625 0.6875 -0.4125
2.625 0.75 -0.4125
2.5625 0.6875 -0.35
2.625 0.6875 -0.35
2.5625 0.75 -0.35
2.625 0.6875 -0.4125
2.6875 0.75 -0.4125
2.6875 0.6875 -0.4125
2.75 0.75 -0.4125
2.6875 0.6875 -0.35
2.75 0.6875 -0.35
2.6875 0.75 -0.35
2.75 0.6875 -0.4125
2.8125 0.75 -0.4125
2.8125 0.6875 -0.4125
2.875 0.75 -0.4125
2.8125 0.6875 -0.35
2.875 0.6875 -0.35
2.8125 0.75 -0.35
2.875 0.6875 -0.4125
2.9375 0.75 -0.4125
2.9375 0.6875 -0.4125
3 0.75 -0.4125
2.9375 0.6875 -0.35
3 0.6875 -0.35
2.9375 0.75 -0.35
3 0.6875 -0.4125
3.0625 0.75 -0.4125
3.0625 0.6875 -0.4125
3.125 0.75 -0.4125
3.0625 0.6875 -0.35
3.125 0.6875 -0.35
3.0625 0.75 -0.35
3.125 0.6875 -0.4125
3.1875 0.75 -0.4125
3.1875 0.6875 -0.4125
3.25 0.75 -0.4125
3.1875 0.6875 -0.35
3.25 0.6875 -0.35
3.1875 0.75 -0.35
3.25 0.6875 -0.4125
3.3125 0.75 -0.4125
3.3125 0.6875 -0.4125
3.375 0.75 -0.4125
3.3125 0.6875 -0.35
3.375 0.6875 -0.35
3.3125 0.75 -0.35
3.375 0.6875 -0.4125
3.4375 0.75 -0.4125
3.4375 0.6875 -0.4125
3.5 0.75 -0.4125
3.4375 0.6875 -0.35
3.5 0.6875 -0.35
3.4375 0.75 -0.35
3.5 0.6875 -0.4125
3.5625 0.75 -0.4125
3.5625 0.6875 -0.4125
3.625 0.75 -0.4125
3.5625 0.6875 -0.35
3.625 0.6875 -0.35
3.5625 0.75 -0.35
3.625 0.6875 -0.4125
3.6875 0.75 -0.4125
3.6875 0.6875 -0.4125
3.75 0.75 -0.4125
3.6875 0.6875 -0.35
3.75 0.6875 -0.35
3.6875 0.75 -0.35
3.75 0.6875 -0.4125
3.8125 0.75 -0.4125
3.8125 0.6875 -0.4125
3.875 0.75 -0.4125
3.8125 0.6875 -0.35
3.875 0.6875 -0.35
3.8125 0.75 -0.35
3.875 0.6875 -0.4125
3.9375 0.75 -0.4125
3.9375 0.6875 -0.4125
4 0.75 -0.4125
3.9375 0.6875 -0.35
4 0.6875 -0.35
3.9375 0.75 -0.35
4 0.6875 -0.4125
0.0625 0.875 -0.4125
0.0625 0.8125 -0.4125
0.125 0.875 -0.4125
0.0625 0.8125 -0.35
0.125 0.8125 -0.35
0 0.875 -0.4125
0 0.8125 -0.4125
0.0625 0.875 -0.35
0 0.8125 -0.35
0.125 0.8125 -0.4125
0.1875 0.875 -0.4125
0.1875 0.8125 -0.4125
0.25 0.875 -0.4125
0.1875 0.8125 -0.35
0.25 0.8125 -0.35
0.1875 0.875 -0.35
0.25 0.8125 -0.4125
0.3125 0.875 -0.4125
0.3125 0.8125 -0.4125
0.375 0.875 -0.4125
0.3125 0.8125 -0.35
0.375 0.8125 -0.35
0.3125 0.875 -0.35
0.375 0.8125 -0.4125
0.4375 0.875 -0.4125
0.4375 0.8125 -0.4125
0.5 0.875 -0.4125
0.4375 0.8125 -0.35
0.5 0.8125 -0.35
0.4375 0.875 -0.35
0.5 0.8125 -0.4125
0.5625 0.875 -0.4125
0.5625 0.8125 -0.4125
0.625 0.875 -0.4125
0.5625 0.8125 -0.35
0.625 0.8125 -0.35
0.5625 0.875 -0.35
0.625 0.8125 -0.4125
0.6875 0.875 -0.4125
0.6875 0.8125 -0.4125
0.75 0.875 -0.4125
0.6875 0.8125 -0.35
0.75 0.8125 -0.35
0.6875 0.875 -0.35
0.75 0.8125 -0.4125
0.8125 0.875 -0.4125
0.8125 0.8125 -0.4125
0.875 0.875 -0.4125
0.8125 0.8125 -0.35
0.875 0.8125 -0.35
0.8125 0.875 -0.35
0.875 0.8125 -0.4125
0.9375 0.875 -0.4125
0.9375 0.8125 -0.4125
1 0.875 -0.4125
0.9375 0.8125 -0.35
1 0.8125 -0.35
0.9375 0.875 -0.35
1 0.8125 -0.4125
1.0625 0.875 -0.4125
1.0625 0.8125 -0.4125
1.125 0.875 -0.4125
1.0625 0.8125 -0.35
1.125 0.8125 -0.35
1.0625 0.875 -0.35
1.125 0.8125 -0.4125
1.1875 0.875 -0.4125
1.1875 0.8125 -0.4125
1.25 0.875 -0.4125
1.1875 0.8125 -0.35
1.25 0.8125 -0.35
1.1875 0.875 -0.35
1.25 0.8125 -0.4125
1.3125 0.875 -0.4125
1.3125 0.8125 -0.4125
1.375 0.875 -0.4125
1.3125 0.8125 -0.35
1.375 0.8125 -0.35
1.3125 0.875 -0.35
1.375 0.8125 -0.4125
1.4375 0.875 -0.4125
1.4375 0.8125 -0.4125
1.5 0.875 -0.4125
1.4375 0.8125 -0.35
1.5 0.8125 -0.35
1.4375 0.875 -0.35
1.5 0.8125 -0.4125
1.5625 0.875 -0.4125
1.5625 0.8125 -0.4125
1.625 0.875 -0.4125
1.5625 0.8125 -0.35
1.625 0.8125 -0.35
1.5625 0.875 -0.35
1.625 0.8125 -0.4125
1.6875 0.875 -0.4125
1.6875 0.8125 -0.4125
1.75 0.875 -0.4125
1.6875 0.8125 -0.35
1.75 0.8125 -0.35
1.6875 0.875 -0.35
1.75 0.8125 -0.4125
1.8125 0.875 -0.4125
1.8125 0.8125 -0.4125
1.875 0.875 -0.4125
1.8125 0.8125 -0.35
1.875 0.8125 -0.35
1.8125 0.875 -0.35
1.875 0.8125 -0.4125
1.9375 0.875 -0.4125
1.9375 0.8125 -0.4125
2 0.875 -0.4125
1.9375 0.8125 -0.35
2 0.8125 -0.35
1.9375 0.875 -0.35
2 0.8125 -0.4125
2.0625 0.875 -0.4125
2.0625 0.8125 -0.4125
2.125 0.875 -0.4125
2.0625 0.8125 -0.35
2.125 0.8125 -0.35
2.0625 0.875 -0.35
2.125 0.8125 -0.4125
2.1875 0.875 -0.4125
2.1875 0.8125 -0.4125
2.25 0.875 -0.4125
2.1875 0.8125 -0.35
2.25 0.8125 -0.35
2.1875 0.875 -0.35
2.25 0.8125 -0.4125
2.3125 0.875 -0.4125
2.3125 0.8125 -0.4125
2.375 0.875 -0.4125
2.3125 0.8125 -0.35
2.375 0.8125 -0.35
2.3125 0.875 -0.35
2.375 0.8125 -0.4125
2.4375 0.875 -0.4125
2.4375 0.8125 -0.4125
2.5 0.875 -0.4125
2.4375 0.8125 -0.35
2.5 0.8125 -0.35
2.4375 0.875 -0.35
2.5 0.8125 -0.4125
2.5625 0.875 -0.4125
2.5625 0.8125 -0.4125
2.625 0.875 -0.4125
2.5625 0.8125 -0.35
2.625 0.8125 -0.35
2.5625 0.875 -0.35
2.625 0.8125 -0.4125
2.6875 0.875 -0.4125
2.6875 0.8125 -0.4125
2.75 0.875 -0.4125
2.6875 0.8125 -0.35
2.75 0.8125 -0.35
2.6875 0.875 -0.35
2.75 0.8125 -0.4125
2.8125 0.875 -0.4125
2.8125 0.8125 -0.4125
2.875 0.875 -0.4125
2.8125 0.8125 -0.35
2.875 0.8125 -0.35
2.8125 0.875 -0.35
2.875 0.8125 -0.4125
2.9375 0.875 -0.4125
2.9375 0.8125 -0.4125
3 0.875 -0.4125
2.9375 0.8125 -0.35
3 0.8125 -0.35
2.9375 0.875 -0.35
3 0.8125 -0.4125
3.0625 0.875 -0.4125
3.0625 0.8125 -0.4125
3.125 0.875 -0.4125
3.0625 0.8125 -0.35
3.125 0.8125 -0.35
3.0625 0.875 -0.35
3.125 0.8125 -0.4125
3.1875 0.875 -0.4125
3.1875 0.8125 -0.4125
3.25 0.875 -0.4125
3.1875 0.8125 -0.35
3.25 0.8125 -0.35
3.1875 0.875 -0.35
3.25 0.8125 -0.4125
3.3125 0.875 -0.4125
3.3125 0.8125 -0.4125
3.375 0.875 -0.4125
3.3125 0.8125 -0.35
3.375 0.8125 -0.35
3.3125 0.875 -0.35
3.375 0.8125 -0.4125
3.4375 0.875 -0.4125
3.4375 0.8125 -0.4125
3.5 0.875 -0.4125
3.4375 0.8125 -0.35
3.5 0.8125 -0.35
3.4375 0.875 -0.35
3.5 0.8125 -0.4125
3.5625 0.875 -0.4125
3.5625 0.8125 -0.4125
3.625 0.875 -0.4125
3.5625 0.8125 -0.35
3.625 0.8125 -0.35
3.5625 0.875 -0.35
3.625 0.8125 -0.4125
3.6875 0.875 -0.4125
3.6875 0.8125 -0.4125
3.75 0.875 -0.4125
3.6875 0.8125 -0.35
3.75 0.8125 -0.35
3.6875 0.875 -0.35
3.75 0.8125 -0.4125
3.8125 0.875 -0.4125
3.8125 0.8125 -0.4125
3.875 0.875 -0.4125
3.8125 0.8125 -0.35
3.875 0.8125 -0.35
3.8125 0.875 -0.35
3.875 0.8125 -0.4125
3.9375 0.875 -0.4125
3.9375 0.8125 -0.4125
4 0.875 -0.4125
3.9375 0.8125 -0.35
4 0.8125 -0.35
3.9375 0.875 -0.35
4 0.8125 -0.4125
0.0625 1 -0.4125
0.0625 0.9375 -0.4125
0.125 1 -0.4125
0.0625 0.9375 -0.35
0.125 0.9375 -0.35
0 1 -0.4125
0 0.9375 -0.4125
0.0625 1 -0.35
0 0.9375 -0.35
0.125 0.9375 -0.4125
0.1875 1 -0.4125
0.1875 0.9375 -0.4125
0.25 1 -0.4125
0.1875 0.9375 -0.35
0.25 0.9375 -0.35
0.1875 1 -0.35
0.25 0.9375 -0.4125
0.3125 1 -0.4125
0.3125 0.9375 -0.4125
0.375 1 -0.4125
0.3125 0.9375 -0.35
0.375 0.9375 -0.35
0.3125 1 -0.35
0.375 0.9375 -0.4125
0.4375 1 -0.4125
0.4375 0.9375 -0.4125
0.5 1 -0.4125
0.4375 0.9375 -0.35
0.5 0.9375 -0.35
0.4375 1 -0.35
0.5 0.9375 -0.4125
0.5625 1 -0.4125
0.5625 0.9375 -0.4125
0.625 1 -0.4125
0.5625 0.9375 -0.35
0.625 0.9375 -0.35
0.5625 1 -0.35
0.625 0.9375 -0.4125
0.6875 1 -0.4125
0.6875 0.9375 -0.4125
0.75 1 -0.4125
0.6875 0.9375 -0.35
0.75 0.9375 -0.35
0.6875 1 -0.35
0.75 0.9375 -0.4125
0.8125 1 -0.4125
0.8125 0.9375 -0.4125
0.875 1 -0.4125
0.8125 0.9375 -0.35
0.875 0.9375 -0.35
0.8125 1 -0.35
0.875 0.9375 -0.4125
0.9375 1 -0.4125
0.9375 0.9375 -0.4125
1 1 -0.4125
0.9375 0.9375 -0.35
1 0.9375 -0.35
0.9375 1 -0.35
1 0.9375 -0.4125
1.0625 1 -0.4125
1.0625 0.9375 -0.4125
1.125 1 -0.4125
1.0625 0.9375 -0.35
1.125 0.9375 -0.35
1.0625 1 -0.35
1.125 0.9375 -0.4125
1.1875 1 -0.4125
1.1875 0.9375 -0.4125
1.25 1 -0.4125
1.1875 0.9375 -0.35
1.25 0.9375 -0.35
1.1875 1 -0.35
1.25 0.9375 -0.4125
1.3125 1 -0.4125
1.3125 0.9375 -0.4125
1.375 1 -0.4125
1.3125 0.9375 -0.35
1.375 0.9375 -0.35
1.3125 1 -0.35
1.375 0.9375 -0.4125
1.4375 1 -0.4125
1.4375 0.9375 -0.4125
1.5 1 -0.4125
1.4375 0.9375 -0.35
1.5 0.9375 -0.35
1.4375 1 -0.35
1.5 0.9375 -0.4125
1.5625 1 -0.4125
1.5625 0.9375 -0.4125
1.625 1 -0.4125
1.5625 0.9375 -0.35
1.625 0.9375 -0.35
1.5625 1 -0.35
1.625 0.9375 -0.4125
1.6875 1 -0.4125
1.6875 0.9375 -0.4125
1.75 1 -0.4125
1.6875 0.9375 -0.35
1.75 0.9375 -0.35
1.6875 1 -0.35
1.75 0.9375 -0.4125
1.8125 1 -0.4125
1.8125 0.9375 -0.4125
1.875 1 -0.4125
1.8125 0.9375 -0.35
1.875 0.9375 -0.35
1.8125 1 -0.35
1.875 0.9375 -0.4125
1.9375 1 -0.4125
1.9375 0.9375 -0.4125
2 1 -0.4125
1.9375 0.9375 -0.35
2 0.9375 -0.35
1.9375 1 -0.35
2 0.9375 -0.4125
2.0625 1 -0.4125
2.0625 0.9375 -0.4125
2.125 1 -0.4125
2.0625 0.9375 -0.35
2.125 0.9375 -0.35
2.0625 1 -0.35
2.125 0.9375 -0.4125
2.1875 1 -0.4125
2.1875 0.9375 -0.4125
2.25 1 -0.4125
2.1875 0.9375 -0.35
2.25 0.9375 -0.35
2.1875 1 -0.35
2.25 0.9375 -0.4125
2.3125 1 -0.4125
2.3125 0.9375 -0.4125
2.375 1 -0.4125
2.3125 0.9375 -0.35
2.375 0.9375 -0.35
2.3125 1 -0.35
2.375 0.9375 -0.4125
2.4375 1 -0.4125
2.4375 0.9375 -0.4125
2.5 1 -0.4125
2.4375 0.9375 -0.35
2.5 0.9375 -0.35
2.4375 1 -0.35
2.5 0.9375 -0.4125
2.5625 1 -0.4125
2.5625 0.9375 -0.4125
2.625 1 -0.4125
2.5625 0.9375 -0.35
2.625 0.9375 -0.35
2.5625 1 -0.35
2.625 0.9375 -0.4125
2.6875 1 -0.4125
2.6875 0.9375 -0.4125
2.75 1 -0.4125
2.6875 0.9375 -0.35
2.75 0.9375 -0.35
2.6875 1 -0.35
2.75 0.9375 -0.4125
2.8125 1 -0.4125
2.8125 0.9375 -0.4125
2.875 1 -0.4125
2.8125 0.9375 -0.35
2.875 0.9375 -0.35
2.8125 1 -0.35
2.875 0.9375 -0.4125
2.9375 1 -0.4125
2.9375 0.9375 -0.4125
3 1 -0.4125
2.9375 0.9375 -0.35
3 0.9375 -0.35
2.9375 1 -0.35
3 0.9375 -0.4125
3.0625 1 -0.4125
3.0625 0.9375 -0.4125
3.125 1 -0.4125
3.0625 0.9375 -0.35
3.125 0.9375 -0.35
3.0625 1 -0.35
3.125 0.9375 -0.4125
3.1875 1 -0.4125
3.1875 0.9375 -0.4125
3.25 1 -0.4125
3.1875 0.9375 -0.35
3.25 0.9375 -0.35
3.1875 1 -0.35
3.25 0.9375 -0.4125
3.3125 1 -0.4125
3.3125 0.9375 -0.4125
3.375 1 -0.4125
3.3125 0.9375 -0.35
3.375 0.9375 -0.35
3.3125 1 -0.35
3.375 0.9375 -0.4125
3.4375 1 -0.4125
3.4375 0.9375 -0.4125
3.5 1 -0.4125
3.4375 0.9375 -0.35
3.5 0.9375 -0.35
3.4375 1 -0.35
3.5 0.9375 -0.4125
3.5625 1 -0.4125
3.5625 0.9375 -0.4125
3.625 1 -0.4125
3.5625 0.9375 -0.35
3.625 0.9375 -0.35
3.5625 1 -0.35
3.625 0.9375 -0.4125
3.6875 1 -0.4125
3.6875 0.9375 -0.4125
3.75 1 -0.4125
3.6875 0.9375 -0.35
3.75 0.9375 -0.35
3.6875 1 -0.35
3.75 0.9375 -0.4125
3.8125 1 -0.4125
3.8125 0.9375 -0.4125
3.875 1 -0.4125
3.8125 0.9375 -0.35
3.875 0.9375 -0.35
3.8125 1 -0.35
3.875 0.9375 -0.4125
3.9375 1 -0.4125
3.9375 0.9375 -0.4125
4 1 -0.4125
3.9375 0.9375 -0.35
4 0.9375 -0.35
3.9375 1 -0.35
4 0.9375 -0.4125
0.0625 0.125 -0.2875
0.0625 0.0625 -0.2875
0.125 0.125 -0.2875
0.0625 0.0625 -0.225
0.125 0.0625 -0.225
0.0625 0 -0.225
0 0 -0.2875
0.0625 0 -0.2875
0 0.125 -0.2875
0 0.0625 -0.2875
0.0625 0.125 -0.225
0 0.0625 -0.225
0.125 0 -0.2875
0.125 0.0625 -0.2875
0.1875 0.125 -0.2875
0.1875 0.0625 -0.2875
0.25 0.125 -0.2875
0.1875 0.0625 -0.225
0.25 0.0625 -0.225
0.1875 0 -0.225
0.1875 0 -0.2875
0.1875 0.125 -0.225
0.25 0 -0.2875
0.25 0.0625 -0.2875
0.3125 0.125 -0.2875
0.3125 0.0625 -0.2875
0.375 0.125 -0.2875
0.3125 0.0625 -0.225
0.375 0.0625 -0.225
0.3125 0 -0.225
0.3125 0 -0.2875
0.3125 0.125 -0.225
0.375 0 -0.2875
0.375 0.0625 -0.2875
0.4375 0.125 -0.2875
0.4375 0.0625 -0.2875
0.5 0.125 -0.2875
0.4375 0.0625 -0.225
0.5 0.0625 -0.225
0.4375 0 -0.225
0.4375 0 -0.2875
0.4375 0.125 -0.225
0.5 0 -0.2875
0.5 0.0625 -0.2875
0.5625 0.125 -0.2875
0.5625 0.0625 -0.2875
0.625 0.125 -0.2875
0.5625 0.0625 -0.225
0.625 0.0625 -0.225
0.5625 0 -0.225
0.5625 0 -0.2875
0.5625 0.125 -0.225
0.625 0 -0.2875
0.625 0.0625 -0.2875
0.6875 0.125 -0.2875
0.6875 0.0625 -0.2875
0.75 0.125 -0.2875
0.6875 0.0625 -0.225
0.75 0.0625 -0.225
0.6875 0 -0.225
0.6875 0 -0.2875
0.6875 0.125 -0.225
0.75 0 -0.2875
0.75 0.0625 -0.2875
0.8125 0.125 -0.2875
0.8125 0.0625 -0.2875
0.875 0.125 -0.2875
0.8125 0.0625 -0.225
0.875 0.0625 -0.225
0.8125 0 -0.225
0.8125 0 -0.2875
0.8125 0.125 -0.225
0.875 0 -0.2875
0.875 0.0625 -0.2875
0.9375 0.125 -0.2875
0.9375 0.0625 -0.2875
1 0.125 -0.2875
0.9375 0.0625 -0.225
1 0.0625 -0.225
0.9375 0 -0.225
0.9375 0 -0.2875
0.9375 0.125 -0.225
1 0 -0.2875
1 0.0625 -0.2875
1.0625 0.125 -0.2875
1.0625 0.0625 -0.2875
1.125 0.125 -0.2875
1.0625 0.0625 -0.225
1.125 0.0625 -0.225
1.0625 0 -0.225
1.0625 0 -0.2875
1.0625 0.125 -0.225
1.125 0 -0.2875
1.125 0.0625 -0.2875
1.1875 0.125 -0.2875
1.1875 0.0625 -0.2875
1.25 0.125 -0.2875
1.1875 0.0625 -0.225
1.25 0.0625 -0.225
1.1875 0 -0.225
1.1875 0 -0.2875
1.1875 0.125 -0.225
1.25 0 -0.2875
1.25 0.0625 -0.2875
1.3125 0.125 -0.2875
1.3125 0.0625 -0.2875
1.375 0.125 -0.2875
1.3125 0.0625 -0.225
1.375 0.0625 -0.225
1.3125 0 -0.225
1.3125 0 -0.2875
1.3125 0.125 -0.225
1.375 0 -0.2875
1.375 0.0625 -0.2875
1.4375 0.125 -0.2875
1.4375 0.0625 -0.2875
1.5 0.125 -0.2875
1.4375 0.0625 -0.225
1.5 0.0625 -0.225
1.4375 0 -0.225
1.4375 0 -0.2875
1.4375 0.125 -0.225
1.5 0 -0.2875
1.5 0.0625 -0.2875
1.5625 0.125 -0.2875
1.5625 0.0625 -0.2875
1.625 0.125 -0.2875
1.5625 0.0625 -0.225
1.625 0.0625 -0.225
1.5625 0 -0.225
1.5625 0 -0.2875
1.5625 0.125 -0.225
1.625 0 -0.2875
1.625 0.0625 -0.2875
1.6875 0.125 -0.2875
1.6875 0.0625 -0.2875
1.75 0.125 -0.2875
1.6875 0.0625 -0.225
1.75 0.0625 -0.225
1.6875 0 -0.225
1.6875 0 -0.2875
1.6875 0.125 -0.225
1.75 0 -0.2875
1.75 0.0625 -0.2875
1.8125 0.125 -0.2875
1.8125 0.0625 -0.2875
1.875 0.125 -0.2875
1.8125 0.0625 -0.225
1.875 0.0625 -0.225
1.8125 0 -0.225
1.8125 0 -0.2875
1.8125 0.125 -0.225
1.875 0 -0.2875
1.875 0.0625 -0.2875
1.9375 0.125 -0.2875
1.9375 0.0625 -0.2875
2 0.125 -0.2875
1.9375 0.0625 -0.225
2 0.0625 -0.225
1.9375 0 -0.225
1.9375 0 -0.2875
1.9375 0.125 -0.225
2 0 -0.2875
2 0.0625 -0.2875
2.0625 0.125 -0.2875
2.0625 0.0625 -0.2875
2.125 0.125 -0.2875
2.0625 0.0625 -0.225
2.125 0.0625 -0.225
2.0625 0 -0.225
2.0625 0 -0.2875
2.0625 0.125 -0.225
2.125 0 -0.2875
2.125 0.0625 -0.2875
2.1875 0.125 -0.2875
2.1875 0.0625 -0.2875
2.25 0.125 -0.2875
2.1875 0.0625 -0.225
2.25 0.0625 -0.225
2.1875 0 -0.225
2.1875 0 -0.2875
2.1875 0.125 -0.225
2.25 0 -0.2875
2.25 0.0625 -0.2875
2.3125 0.125 -0.2875
2.3125 0.0625 -0.2875
2.375 0.125 -0.2875
2.3125 0.0625 -0.225
2.375 0.0625 -0.225
2.3125 0 -0.225
2.3125 0 -0.2875
2.3125 0.125 -0.225
2.375 0 -0.2875
2.375 0.0625 -0.2875
2.4375 0.125 -0.2875
2.4375 0.0625 -0.2875
2.5 0.125 -0.2875
2.4375 0.0625 -0.225
2.5 0.0625 -0.225
2.4375 0 -0.225
2.4375 0 -0.2875
2.4375 0.125 -0.225
2.5 0 -0.2875
2.5 0.0625 -0.2875
2.5625 0.125 -0.2875
2.5625 0.0625 -0.2875
2.625 0.125 -0.2875
2.5625 0.0625 -0.225
2.625 0.0625 -0.225
2.5625 0 -0.225
2.5625 0 -0.2875
2.5625 0.125 -0.225
2.625 0 -0.2875
2.625 0.0625 -0.2875
2.6875 0.125 -0.2875
2.6875 0.0625 -0.2875
2.75 0.125 -0.2875
2.6875 0.0625 -0.225
2.75 0.0625 -0.225
2.6875 0 -0.225
2.6875 0 -0.2875
2.6875 0.125 -0.225
2.75 0 -0.2875
2.75 0.0625 -0.2875
2.8125 0.125 -0.2875
2.8125 0.0625 -0.2875
2.875 0.125 -0.2875
2.8125 0.0625 -0.225
2.875 0.0625 -0.225
2.8125 0 -0.225
2.8125 0 -0.2875
2.8125 0.125 -0.225
2.875 0 -0.2875
2.875 0.0625 -0.2875
2.9375 0.125 -0.2875
2.9375 0.0625 -0.2875
3 0.125 -0.2875
2.9375 0.0625 -0.225
3 0.0625 -0.225
2.9375 0 -0.225
2.9375 0 -0.2875
2.9375 0.125 -0.225
3 0 -0.2875
3 0.0625 -0.2875
3.0625 0.125 -0.2875
3.0625 0.0625 -0.2875
3.125 0.125 -0.2875
3.0625 0.0625 -0.225
3.125 0.0625 -0.225
3.0625 0 -0.225
3.0625 0 -0.2875
3.0625 0.125 -0.225
3.125 0 -0.2875
3.125 0.0625 -0.2875
3.1875 0.125 -0.2875
3.1875 0.0625 -0.2875
3.25 0.125 -0.2875
3.1875 0.0625 -0.225
3.25 0.0625 -0.225
3.1875 0 -0.225
3.1875 0 -0.2875
3.1875 0.125 -0.225
3.25 0 -0.2875
3.25 0.0625 -0.2875
3.3125 0.125 -0.2875
3.3125 0.0625 -0.2875
3.375 0.125 -0.2875
3.3125 0.0625 -0.225
3.375 0.0625 -0.225
3.3125 0 -0.225
3.3125 0 -0.2875
3.3125 0.125 -0.225
3.375 0 -0.2875
3.375 0.0625 -0.2875
3.4375 0.125 -0.2875
3.4375 0.0625 -0.2875
3.5 0.125 -0.2875
3.4375 0.0625 -0.225
3.5 0.0625 -0.225
3.4375 0 -0.225
3.4375 0 -0.2875
3.4375 0.125 -0.225
3.5 0 -0.2875
3.5 0.0625 -0.2875
3.5625 0.125 -0.2875
3.5625 0.0625 -0.2875
3.625 0.125 -0.2875
3.5625 0.0625 -0.225
3.625 0.0625 -0.225
3.5625 0 -0.225
3.5625 0 -0.2875
3.5625 0.125 -0.225
3.625 0 -0.2875
3.625 0.0625 -0.2875
3.6875 0.125 -0.2875
3.6875 0.0625 -0.2875
3.75 0.125 -0.2875
3.6875 0.0625 -0.225
3.75 0.0625 -0.225
3.6875 0 -0.225
3.6875 0 -0.2875
3.6875 0.125 -0.225
3.75 0 -0.2875
3.75 0.0625 -0.2875
3.8125 0.125 -0.2875
3.8125 0.0625 -0.2875
3.875 0.125 -0.2875
3.8125 0.0625 -0.225
3.875 0.0625 -0.225
3.8125 0 -0.225
3.8125 0 -0.2875
3.8125 0.125 -0.225
3.875 0 -0.2875
3.875 0.0625 -0.2875
3.9375 0.125 -0.2875
3.9375 0.0625 -0.2875
4 0.125 -0.2875
3.9375 0.0625 -0.225
4 0.0625 -0.225
3.9375 0 -0.225
3.9375 0 -0.2875
3.9375 0.125 -0.225
4 0 -0.2875
4 0.0625 -0.2875
0.0625 0.25 -0.2875
0.0625 0.1875 -0.2875
0.125 0.25 -0.2875
0.0625 0.1875 -0.225
0.125 0.1875 -0.225
0 0.25 -0.2875
0 0.1875 -0.2875
0.0625 0.25 -0.225
0 0.1875 -0.225
0.125 0.1875 -0.2875
0.1875 0.25 -0.2875
0.1875 0.1875 -0.2875
0.25 0.25 -0.2875
0.1875 0.1875 -0.225
0.25 0.1875 -0.225
0.1875 0.25 -0.225
0.25 0.1875 -0.2875
0.3125 0.25 -0.2875
0.3125 0.1875 -0.2875
0.375 0.25 -0.2875
0.3125 0.1875 -0.225
0.375 0.1875 -0.225
0.3125 0.25 -0.225
0.375 0.1875 -0.2875
0.4375 0.25 -0.2875
0.4375 0.1875 -0.2875
0.5 0.25 -0.2875
0.4375 0.1875 -0.225
0.5 0.1875 -0.225
0.4375 0.25 -0.225
0.5 0.1875 -0.2875
0.5625 0.25 -0.2875
0.5625 0.1875 -0.2875
0.625 0.25 -0.2875
0.5625 0.1875 -0.225
0.625 0.1875 -0.225
0.5625 0.25 -0.225
0.625 0.1875 -0.2875
0.6875 0.25 -0.2875
0.6875 0.1875 -0.2875
0.75 0.25 -0.2875
0.6875 0.1875 -0.225
0.75 0.1875 -0.225
0.6875 0.25 -0.225
0.75 0.1875 -0.2875
0.8125 0.25 -0.2875
0.8125 0.1875 -0.2875
0.875 0.25 -0.2875
0.8125 0.1875 -0.225
0.875 0.1875 -0.225
0.8125 0.25 -0.225
0.875 0.1875 -0.2875
0.9375 0.25 -0.2875
0.9375 0.1875 -0.2875
1 0.25 -0.2875
0.9375 0.1875 -0.225
1 0.1875 -0.225
0.9375 0.25 -0.225
1 0.1875 -0.2875
1.0625 0.25 -0.2875
1.0625 0.1875 -0.2875
1.125 0.25 -0.2875
1.0625 0.1875 -0.225
1.125 0.1875 -0.225
1.0625 0.25 -0.225
1.125 0.1875 -0.2875
1.1875 0.25 -0.2875
1.1875 0.1875 -0.2875
1.25 0.25 -0.2875
1.1875 0.1875 -0.225
1.25 0.1875 -0.225
1.1875 0.25 -0.225
1.25 0.1875 -0.2875
1.3125 0.25 -0.2875
1.3125 0.1875 -0.2875
1.375 0.25 -0.2875
1.3125 0.1875 -0.225
1.375 0.1875 -0.225
1.3125 0.25 -0.225
1.375 0.1875 -0.2875
1.4375 0.25 -0.2875
1.4375 0.1875 -0.2875
1.5 0.25 -0.2875
1.4375 0.1875 -0.225
1.5 0.1875 -0.225
1.4375 0.25 -0.225
1.5 0.1875 -0.2875
1.5625 0.25 -0.2875
1.5625 0.1875 -0.2875
1.625 0.25 -0.2875
1.5625 0.1875 -0.225
1.625 0.1875 -0.225
1.5625 0.25 -0.225
1.625 0.1875 -0.2875
1.6875 0.25 -0.2875
1.6875 0.1875 -0.2875
1.75 0.25 -0.2875
1.6875 0.1875 -0.225
1.75 0.1875 -0.225
1.6875 0.25 -0.225
1.75 0.1875 -0.2875
1.8125 0.25 -0.2875
1.8125 0.1875 -0.2875
1.875 0.25 -0.2875
1.8125 0.1875 -0.225
1.875 0.1875 -0.225
1.8125 0.25 -0.225
1.875 0.1875 -0.2875
1.9375 0.25 -0.2875
1.9375 0.1875 -0.2875
2 0.25 -0.2875
1.9375 0.1875 -0.225
2 0.1875 -0.225
1.9375 0.25 -0.225
2 0.1875 -0.2875
2.0625 0.25 -0.2875
2.0625 0.1875 -0.2875
2.125 0.25 -0.2875
2.0625 0.1875 -0.225
2.125 0.1875 -0.225
2.0625 0.25 -0.225
2.125 0.1875 -0.2875
2.1875 0.25 -0.2875
2.1875 0.1875 -0.2875
2.25 0.25 -0.2875
2.1875 0.1875 -0.225
2.25 0.1875 -0.225
2.1875 0.25 -0.225
2.25 0.1875 -0.2875
2.3125 0.25 -0.2875
2.3125 0.1875 -0.2875
2.375 0.25 -0.2875
2.3125 0.1875 -0.225
2.375 0.1875 -0.225
2.3125 0.25 -0.225
2.375 0.1875 -0.2875
2.4375 0.25 -0.2875
2.4375 0.1875 -0.2875
2.5 0.25 -0.2875
2.4375 0.1875 -0.225
2.5 0.1875 -0.225
2.4375 0.25 -0.225
2.5 0.1875 -0.2875
2.5625 0.25 -0.2875
2.5625 0.1875 -0.2875
2.625 0.25 -0.2875
2.5625 0.1875 -0.225
2.625 0.1875 -0.225
2.5625 0.25 -0.225
2.625 0.1875 -0.2875
2.6875 0.25 -0.2875
2.6875 0.1875 -0.2875
2.75 0.25 -0.2875
2.6875 0.1875 -0.225
2.75 0.1875 -0.225
2.6875 0.25 -0.225
2.75 0.1875 -0.2875
2.8125 0.25 -0.2875
2.8125 0.1875 -0.2875
2.875 0.25 -0.2875
2.8125 0.1875 -0.225
2.875 0.1875 -0.225
2.8125 0.25 -0.225
2.875 0.1875 -0.2875
2.9375 0.25 -0.2875
2.9375 0.1875 -0.2875
3 0.25 -0.2875
2.9375 0.1875 -0.225
3 0.1875 -0.225
2.9375 0.25 -0.225
3 0.1875 -0.2875
3.0625 0.25 -0.2875
3.0625 0.1875 -0.2875
3.125 0.25 -0.2875
3.0625 0.1875 -0.225
3.125 0.1875 -0.225
3.0625 0.25 -0.225
3.125 0.1875 -0.2875
3.1875 0.25 -0.2875
3.1875 0.1875 -0.2875
3.25 0.25 -0.2875
3.1875 0.1875 -0.225
3.25 0.1875 -0.225
3.1875 0.25 -0.225
3.25 0.1875 -0.2875
3.3125 0.25 -0.2875
3.3125 0.1875 -0.2875
3.375 0.25 -0.2875
3.3125 0.1875 -0.225
3.375 0.1875 -0.225
3.3125 0.25 -0.225
3.375 0.1875 -0.2875
3.4375 0.25 -0.2875
3.4375 0.1875 -0.2875
3.5 0.25 -0.2875
3.4375 0.1875 -0.225
3.5 0.1875 -0.225
3.4375 0.25 -0.225
3.5 0.1875 -0.2875
3.5625 0.25 -0.2875
3.5625 0.1875 -0.2875
3.625 0.25 -0.2875
3.5625 0.1875 -0.225
3.625 0.1875 -0.225
3.5625 0.25 -0.225
3.625 0.1875 -0.2875
3.6875 0.25 -0.2875
3.6875 0.1875 -0.2875
3.75 0.25 -0.2875
3.6875 0.1875 -0.225
3.75 0.1875 -0.225
3.6875 0.25 -0.225
3.75 0.1875 -0.2875
3.8125 0.25 -0.2875
3.8125 0.1875 -0.2875
3.875 0.25 -0.2875
3.8125 0.1875 -0.225
3.875 0.1875 -0.225
3.8125 0.25 -0.225
3.875 0.1875 -0.2875
3.9375 0.25 -0.2875
3.9375 0.1875 -0.2875
4 0.25 -0.2875
3.9375 0.1875 -0.225
4 0.1875 -0.225
3.9375 0.25 -0.225
4 0.1875 -0.2875
0.0625 0.375 -0.2875
0.0625 0.3125 -0.2875
0.125 0.375 -0.2875
0.0625 0.3125 -0.225
0.125 0.3125 -0.225
0 0.375 -0.2875
0 0.3125 -0.2875
0.0625 0.375 -0.225
0 0.3125 -0.225
0.125 0.3125 -0.2875
0.1875 0.375 -0.2875
0.1875 0.3125 -0.2875
0.25 0.375 -0.2875
0.1875 0.3125 -0.225
0.25 0.3125 -0.225
0.1875 0.375 -0.225
0.25 0.3125 -0.2875
0.3125 0.375 -0.2875
0.3125 0.3125 -0.2875
0.375 0.375 -0.2875
0.3125 0.3125 -0.225
0.375 0.3125 -0.225
0.3125 0.375 -0.225
0.375 0.3125 -0.2875
0.4375 0.375 -0.2875
0.4375 0.3125 -0.2875
0.5 0.375 -0.2875
0.4375 0.3125 -0.225
0.5 0.3125 -0.225
0.4375 0.375 -0.225
0.5 0.3125 -0.2875
0.5625 0.375 -0.2875
0.5625 0.3125 -0.2875
0.625 0.375 -0.2875
0.5625 0.3125 -0.225
0.625 0.3125 -0.225
0.5625 0.375 -0.225
0.625 0.3125 -0.2875
0.6875 0.375 -0.2875
0.6875 0.3125 -0.2875
0.75 0.375 -0.2875
0.6875 0.3125 -0.225
0.75 0.3125 -0.225
0.6875 0.375 -0.225
0.75 0.3125 -0.2875
0.8125 0.375 -0.2875
0.8125 0.3125 -0.2875
0.875 0.375 -0.2875
0.8125 0.3125 -0.225
0.875 0.3125 -0.225
0.8125 0.375 -0.225
0.875 0.3125 -0.2875
0.9375 0.375 -0.2875
0.9375 0.3125 -0.2875
1 0.375 -0.2875
0.9375 0.3125 -0.225
1 0.3125 -0.225
0.9375 0.375 -0.225
1 0.3125 -0.2875
1.0625 0.375 -0.2875
1.0625 0.3125 -0.2875
1.125 0.375 -0.2875
1.0625 0.3125 -0.225
1.125 0.3125 -0.225
1.0625 0.375 -0.225
1.125 0.3125 -0.2875
1.1875 0.375 -0.2875
1.1875 0.3125 -0.2875
1.25 0.375 -0.2875
1.1875 0.3125 -0.225
1.25 0.3125 -0.225
1.1875 0.375 -0.225
1.25 0.3125 -0.2875
1.3125 0.375 -0.2875
1.3125 0.3125 -0.2875
1.375 0.375 -0.2875
1.3125 0.3125 -0.225
1.375 0.3125 -0.225
1.3125 0.375 -0.225
1.375 0.3125 -0.2875
1.4375 0.375 -0.2875
1.4375 0.3125 -0.2875
1.5 0.375 -0.2875
1.4375 0.3125 -0.225
1.5 0.3125 -0.225
1.4375 0.375 -0.225
1.5 0.3125 -0.2875
1.5625 0.375 -0.2875
1.5625 0.3125 -0.2875
1.625 0.375 -0.2875
1.5625 0.3125 -0.225
1.625 0.3125 -0.225
1.5625 0.375 -0.225
1.625 0.3125 -0.2875
1.6875 0.375 -0.2875
1.6875 0.3125 -0.2875
1.75 0.375 -0.2875
1.6875 0.3125 -0.225
1.75 0.3125 -0.225
1.6875 0.375 -0.225
1.75 0.3125 -0.2875
1.8125 0.375 -0.2875
1.8125 0.3125 -0.2875
1.875 0.375 -0.2875
1.8125 0.3125 -0.225
1.875 0.3125 -0.225
1.8125 0.375 -0.225
1.875 0.3125 -0.2875
1.9375 0.375 -0.2875
1.9375 0.3125 -0.2875
2 0.375 -0.2875
1.9375 0.3125 -0.225
2 0.3125 -0.225
1.9375 0.375 -0.225
2 0.3125 -0.2875
2.0625 0.375 -0.2875
2.0625 0.3125 -0.2875
2.125 0.375 -0.2875
2.0625 0.3125 -0.225
2.125 0.3125 -0.225
2.0625 0.375 -0.225
2.125 0.3125 -0.2875
2.1875 0.375 -0.2875
2.1875 0.3125 -0.2875
2.25 0.375 -0.2875
2.1875 0.3125 -0.225
2.25 0.3125 -0.225
2.1875 0.375 -0.225
2.25 0.3125 -0.2875
2.3125 0.375 -0.2875
2.3125 0.3125 -0.2875
2.375 0.375 -0.2875
2.3125 0.3125 -0.225
2.375 0.3125 -0.225
2.3125 0.375 -0.225
2.375 0.3125 -0.2875
2.4375 0.375 -0.2875
2.4375 0.3125 -0.2875
2.5 0.375 -0.2875
2.4375 0.3125 -0.225
2.5 0.3125 -0.225
2.4375 0.375 -0.225
2.5 0.3125 -0.2875
2.5625 0.375 -0.2875
2.5625 0.3125 -0.2875
2.625 0.375 -0.2875
2.5625 0.3125 -0.225
2.625 0.3125 -0.225
2.5625 0.375 -0.225
2.625 0.3125 -0.2875
2.6875 0.375 -0.2875
2.6875 0.3125 -0.2875
2.75 0.375 -0.2875
2.6875 0.3125 -0.225
2.75 0.3125 -0.225
2.6875 0.375 -0.225
2.75 0.3125 -0.2875
2.8125 0.375 -0.2875
2.8125 0.3125 -0.2875
2.875 0.375 -0.2875
2.8125 0.3125 -0.225
2.875 0.3125 -0.225
2.8125 0.375 -0.225
2.875 0.3125 -0.2875
2.9375 0.375 -0.2875
2.9375 0.3125 -0.2875
3 0.375 -0.2875
2.9375 0.3125 -0.225
3 0.3125 -0.225
2.9375 0.375 -0.225
3 0.3125 -0.2875
3.0625 0.375 -0.2875
3.0625 0.3125 -0.2875
3.125 0.375 -0.2875
3.0625 0.3125 -0.225
3.125 0.3125 -0.225
3.0625 0.375 -0.225
3.125 0.3125 -0.2875
3.1875 0.375 -0.2875
3.1875 0.3125 -0.2875
3.25 0.375 -0.2875
3.1875 0.3125 -0.225
3.25 0.3125 -0.225
3.1875 0.375 -0.225
3.25 0.3125 -0.2875
3.3125 0.375 -0.2875
3.3125 0.3125 -0.2875
3.375 0.375 -0.2875
3.3125 0.3125 -0.225
3.375 0.3125 -0.225
3.3125 0.375 -0.225
3.375 0.3125 -0.2875
3.4375 0.375 -0.2875
3.4375 0.3125 -0.2875
3.5 0.375 -0.2875
3.4375 0.3125 -0.225
3.5 0.3125 -0.225
3.4375 0.375 -0.225
3.5 0.3125 -0.2875
3.5625 0.375 -0.2875
3.5625 0.3125 -0.2875
3.625 0.375 -0.2875
3.5625 0.3125 -0.225
3.625 0.3125 -0.225
3.5625 0.375 -0.225
3.625 0.3125 -0.2875
3.6875 0.375 -0.2875
3.6875 0.3125 -0.2875
3.75 0.375 -0.2875
3.6875 0.3125 -0.225
3.75 0.3125 -0.225
3.6875 0.375 -0.225
3.75 0.3125 -0.2875
3.8125 0.375 -0.2875
3.8125 0.3125 -0.2875
3.875 0.375 -0.2875
3.8125 0.3125 -0.225
3.875 0.3125 -0.225
3.8125 0.375 -0.225
3.875 0.3125 -0.2875
3.9375 0.375 -0.2875
3.9375 0.3125 -0.2875
4 0.375 -0.2875
3.9375 0.3125 -0.225
4 0.3125 -0.225
3.9375 0.375 -0.225
4 0.3125 -0.2875
0.0625 0.5 -0.2875
0.0625 0.4375 -0.2875
0.125 0.5 -0.2875
0.0625 0.4375 -0.225
0.125 0.4375 -0.225
0 0.5 -0.2875
0 0.4375 -0.2875
0.0625 0.5 -0.225
0 0.4375 -0.225
0.125 0.4375 -0.2875
0.1875 0.5 -0.2875
0.1875 0.4375 -0.2875
0.25 0.5 -0.2875
0.1875 0.4375 -0.225
0.25 0.4375 -0.225
0.1875 0.5 -0.225
0.25 0.4375 -0.2875
0.3125 0.5 -0.2875
0.3125 0.4375 -0.2875
0.375 0.5 -0.2875
0.3125 0.4375 -0.225
0.375 0.4375 -0.225
0.3125 0.5 -0.225
0.375 0.4375 -0.2875
0.4375 0.5 -0.2875
0.4375 0.4375 -0.2875
0.5 0.5 -0.2875
0.4375 0.4375 -0.225
0.5 0.4375 -0.225
0.4375 0.5 -0.225
0.5 0.4375 -0.2875
0.5625 0.5 -0.2875
0.5625 0.4375 -0.2875
0.625 0.5 -0.2875
0.5625 0.4375 -0.225
0.625 0.4375 -0.225
0.5625 0.5 -0.225
0.625 0.4375 -0.2875
0.6875 0.5 -0.2875
0.6875 0.4375 -0.2875
0.75 0.5 -0.2875
0.6875 0.4375 -0.225
0.75 0.4375 -0.225
0.6875 0.5 -0.225
0.75 0.4375 -0.2875
0.8125 0.5 -0.2875
0.8125 0.4375 -0.2875
0.875 0.5 -0.2875
0.8125 0.4375 -0.225
0.875 0.4375 -0.225
0.8125 0.5 -0.225
0.875 0.4375 -0.2875
0.9375 0.5 -0.2875
0.9375 0.4375 -0.2875
1 0.5 -0.2875
0.9375 0.4375 -0.225
1 0.4375 -0.225
0.9375 0.5 -0.225
1 0.4375 -0.2875
1.0625 0.5 -0.2875
1.0625 0.4375 -0.2875
1.125 0.5 -0.2875
1.0625 0.4375 -0.225
1.125 0.4375 -0.225
1.0625 0.5 -0.225
1.125 0.4375 -0.2875
1.1875 0.5 -0.2875
1.1875 0.4375 -0.2875
1.25 0.5 -0.2875
1.1875 0.4375 -0.225
1.25 0.4375 -0.225
1.1875 0.5 -0.225
1.25 0.4375 -0.2875
1.3125 0.5 -0.2875
1.3125 0.4375 -0.2875
1.375 0.5 -0.2875
1.3125 0.4375 -0.225
1.375 0.4375 -0.225
1.3125 0.5 -0.225
1.375 0.4375 -0.2875
1.4375 0.5 -0.2875
1.4375 0.4375 -0.2875
1.5 0.5 -0.2875
1.4375 0.4375 -0.225
1.5 0.4375 -0.225
1.4375 0.5 -0.225
1.5 0.4375 -0.2875
1.5625 0.5 -0.2875
1.5625 0.4375 -0.2875
1.625 0.5 -0.2875
1.5625 0.4375 -0.225
1.625 0.4375 -0.225
1.5625 0.5 -0.225
1.625 0.4375 -0.2875
1.6875 0.5 -0.2875
1.6875 0.4375 -0.2875
1.75 0.5 -0.2875
1.6875 0.4375 -0.225
1.75 0.4375 -0.225
1.6875 0.5 -0.225
1.75 0.4375 -0.2875
1.8125 0.5 -0.2875
1.8125 0.4375 -0.2875
1.875 0.5 -0.2875
1.8125 0.4375 -0.225
1.875 0.4375 -0.225
1.8125 0.5 -0.225
1.875 0.4375 -0.2875
1.9375 0.5 -0.2875
1.9375 0.4375 -0.2875
2 0.5 -0.2875
1.9375 0.4375 -0.225
2 0.4375 -0.225
1.9375 0.5 -0.225
2 0.4375 -0.2875
2.0625 0.5 -0.2875
2.0625 0.4375 -0.2875
2.125 0.5 -0.2875
2.0625 0.4375 -0.225
2.125 0.4375 -0.225
2.0625 0.5 -0.225
2.125 0.4375 -0.2875
2.1875 0.5 -0.2875
2.1875 0.4375 -0.2875
2.25 0.5 -0.2875
2.1875 0.4375 -0.225
2.25 0.4375 -0.225
2.1875 0.5 -0.225
2.25 0.4375 -0.2875
2.3125 0.5 -0.2875
2.3125 0.4375 -0.2875
2.375 0.5 -0.2875
2.3125 0.4375 -0.225
2.375 0.4375 -0.225
2.3125 0.5 -0.225
2.375 0.4375 -0.2875
2.4375 0.5 -0.2875
2.4375 0.4375 -0.2875
2.5 0.5 -0.2875
2.4375 0.4375 -0.225
2.5 0.4375 -0.225
2.4375 0.5 -0.225
2.5 0.4375 -0.2875
2.5625 0.5 -0.2875
2.5625 0.4375 -0.2875
2.625 0.5 -0.2875
2.5625 0.4375 -0.225
2.625 0.4375 -0.225
2.5625 0.5 -0.225
2.625 0.4375 -0.2875
2.6875 0.5 -0.2875
2.6875 0.4375 -0.2875
2.75 0.5 -0.2875
2.6875 0.4375 -0.225
2.75 0.4375 -0.225
2.6875 0.5 -0.225
2.75 0.4375 -0.2875
2.8125 0.5 -0.2875
2.8125 0.4375 -0.2875
2.875 0.5 -0.2875
2.8125 0.4375 -0.225
2.875 0.4375 -0.225
2.8125 0.5 -0.225
2.875 0.4375 -0.2875
2.9375 0.5 -0.2875
2.9375 0.4375 -0.2875
3 0.5 -0.2875
2.9375 0.4375 -0.225
3 0.4375 -0.225
2.9375 0.5 -0.225
3 0.4375 -0.2875
3.0625 0.5 -0.2875
3.0625 0.4375 -0.2875
3.125 0.5 -0.2875
3.0625 0.4375 -0.225
3.125 0.4375 -0.225
3.0625 0.5 -0.225
3.125 0.4375 -0.2875
3.1875 0.5 -0.2875
3.1875 0.4375 -0.2875
3.25 0.5 -0.2875
3.1875 0.4375 -0.225
3.25 0.4375 -0.225
3.1875 0.5 -0.225
3.25 0.4375 -0.2875
3.3125 0.5 -0.2875
3.3125 0.4375 -0.2875
3.375 0.5 -0.2875
3.3125 0.4375 -0.225
3.375 0.4375 -0.225
3.3125 0.5 -0.225
3.375 0.4375 -0.2875
3.4375 0.5 -0.2875
3.4375 0.4375 -0.2875
3.5 0.5 -0.2875
3.4375 0.4375 -0.225
3.5 0.4375 -0.225
3.4375 0.5 -0.225
3.5 0.4375 -0.2875
3.5625 0.5 -0.2875
3.5625 0.4375 -0.2875
3.625 0.5 -0.2875
3.5625 0.4375 -0.225
3.625 0.4375 -0.225
3.5625 0.5 -0.225
3.625 0.4375 -0.2875
3.6875 0.5 -0.2875
3.6875 0.4375 -0.2875
3.75 0.5 -0.2875
3.6875 0.4375 -0.225
3.75 0.4375 -0.225
3.6875 0.5 -0.225
3.75 0.4375 -0.2875
3.8125 0.5 -0.2875
3.8125 0.4375 -0.2875
3.875 0.5 -0.2875
3.8125 0.4375 -0.225
3.875 0.4375 -0.225
3.8125 0.5 -0.225
3.875 0.4375 -0.2875
3.9375 0.5 -0.2875
3.9375 0.4375 -0.2875
4 0.5 -0.2875
3.9375 0.4375 -0.225
4 0.4375 -0.225
3.9375 0.5 -0.225
4 0.4375 -0.2875
0.0625 0.625 -0.2875
0.0625 0.5625 -0.2875
0.125 0.625 -0.2875
0.0625 0.5625 -0.225
0.125 0.5625 -0.225
0 0.625 -0.2875
0 0.5625 -0.2875
0.0625 0.625 -0.225
0 0.5625 -0.225
0.125 0.5625 -0.2875
0.1875 0.625 -0.2875
0.1875 0.5625 -0.2875
0.25 0.625 -0.2875
0.1875 0.5625 -0.225
0.25 0.5625 -0.225
0.1875 0.625 -0.225
0.25 0.5625 -0.2875
0.3125 0.625 -0.2875
0.3125 0.5625 -0.2875
0.375 0.625 -0.2875
0.3125 0.5625 -0.225
0.375 0.5625 -0.225
0.3125 0.625 -0.225
0.375 0.5625 -0.2875
0.4375 0.625 -0.2875
0.4375 0.5625 -0.2875
0.5 0.625 -0.2875
0.4375 0.5625 -0.225
0.5 0.5625 -0.225
0.4375 0.625 -0.225
0.5 0.5625 -0.2875
0.5625 0.625 -0.2875
0.5625 0.5625 -0.2875
0.625 0.625 -0.2875
0.5625 0.5625 -0.225
0.625 0.5625 -0.225
0.5625 0.625 -0.225
0.625 0.5625 -0.2875
0.6875 0.625 -0.2875
0.6875 0.5625 -0.2875
0.75 0.625 -0.2875
0.6875 0.5625 -0.225
0.75 0.5625 -0.225
0.6875 0.625 -0.225
0.75 0.5625 -0.2875
0.8125 0.625 -0.2875
0.8125 0.5625 -0.2875
0.875 0.625 -0.2875
0.8125 0.5625 -0.225
0.875 0.5625 -0.225
0.8125 0.625 -0.225
0.875 0.5625 -0.2875
0.9375 0.625 -0.2875
0.9375 0.5625 -0.2875
1 0.625 -0.2875
0.9375 0.5625 -0.225
1 0.5625 -0.225
0.9375 0.625 -0.225
1 0.5625 -0.2875
1.0625 0.625 -0.2875
1.0625 0.5625 -0.2875
1.125 0.625 -0.2875
1.0625 0.5625 -0.225
1.125 0.5625 -0.225
1.0625 0.625 -0.225
1.125 0.5625 -0.2875
1.1875 0.625 -0.2875
1.1875 0.5625 -0.2875
1.25 0.625 -0.2875
1.1875 0.5625 -0.225
1.25 0.5625 -0.225
1.1875 0.625 -0.225
1.25 0.5625 -0.2875
1.3125 0.625 -0.2875
1.3125 0.5625 -0.2875
1.375 0.625 -0.2875
1.3125 0.5625 -0.225
1.375 0.5625 -0.225
1.3125 0.625 -0.225
1.375 0.5625 -0.2875
1.4375 0.625 -0.2875
1.4375 0.5625 -0.2875
1.5 0.625 -0.2875
1.4375 0.5625 -0.225
1.5 0.5625 -0.225
1.4375 0.625 -0.225
1.5 0.5625 -0.2875
1.5625 0.625 -0.2875
1.5625 0.5625 -0.2875
1.625 0.625 -0.2875
1.5625 0.5625 -0.225
1.625 0.5625 -0.225
1.5625 0.625 -0.225
1.625 0.5625 -0.2875
1.6875 0.625 -0.2875
1.6875 0.5625 -0.2875
1.75 0.625 -0.2875
1.6875 0.5625 -0.225
1.75 0.5625 -0.225
1.6875 0.625 -0.225
1.75 0.5625 -0.2875
1.8125 0.625 -0.2875
1.8125 0.5625 -0.2875
1.875 0.625 -0.2875
1.8125 0.5625 -0.225
1.875 0.5625 -0.225
1.8125 0.625 -0.225
1.875 0.5625 -0.2875
1.9375 0.625 -0.2875
1.9375 0.5625 -0.2875
2 0.625 -0.2875
1.9375 0.5625 -0.225
2 0.5625 -0.225
1.9375 0.625 -0.225
2 0.5625 -0.2875
2.0625 0.625 -0.2875
2.0625 0.5625 -0.2875
2.125 0.625 -0.2875
2.0625 0.5625 -0.225
2.125 0.5625 -0.225
2.0625 0.625 -0.225
2.125 0.5625 -0.2875
2.1875 0.625 -0.2875
2.1875 0.5625 -0.2875
2.25 0.625 -0.2875
2.1875 0.5625 -0.225
2.25 0.5625 -0.225
2.1875 0.625 -0.225
2.25 0.5625 -0.2875
2.3125 0.625 -0.2875
2.3125 0.5625 -0.2875
2.375 0.625 -0.2875
2.3125 0.5625 -0.225
2.375 0.5625 -0.225
2.3125 0.625 -0.225
2.375 0.5625 -0.2875
2.4375 0.625 -0.2875
2.4375 0.5625 -0.2875
2.5 0.625 -0.2875
2.4375 0.5625 -0.225
2.5 0.5625 -0.225
2.4375 0.625 -0.225
2.5 0.5625 -0.2875
2.5625 0.625 -0.2875
2.5625 0.5625 -0.2875
2.625 0.625 -0.2875
2.5625 0.5625 -0.225
2.625 0.5625 -0.225
2.5625 0.625 -0.225
2.625 0.5625 -0.2875
2.6875 0.625 -0.2875
2.6875 0.5625 -0.2875
2.75 0.625 -0.2875
2.6875 0.5625 -0.225
2.75 0.5625 -0.225
2.6875 0.625 -0.225
2.75 0.5625 -0.2875
2.8125 0.625 -0.2875
2.8125 0.5625 -0.2875
2.875 0.625 -0.2875
2.8125 0.5625 -0.225
2.875 0.5625 -0.225
2.8125 0.625 -0.225
2.875 0.5625 -0.2875
2.9375 0.625 -0.2875
2.9375 0.5625 -0.2875
3 0.625 -0.2875
2.9375 0.5625 -0.225
3 0.5625 -0.225
2.9375 0.625 -0.225
3 0.5625 -0.2875
3.0625 0.625 -0.2875
3.0625 0.5625 -0.2875
3.125 0.625 -0.2875
3.0625 0.5625 -0.225
3.125 0.5625 -0.225
3.0625 0.625 -0.225
3.125 0.5625 -0.2875
3.1875 0.625 -0.2875
3.1875 0.5625 -0.2875
3.25 0.625 -0.2875
3.1875 0.5625 -0.225
3.25 0.5625 -0.225
3.1875 0.625 -0.225
3.25 0.5625 -0.2875
3.3125 0.625 -0.2875
3.3125 0.5625 -0.2875
3.375 0.625 -0.2875
3.3125 0.5625 -0.225
3.375 0.5625 -0.225
3.3125 0.625 -0.225
3.375 0.5625 -0.2875
3.4375 0.625 -0.2875
3.4375 0.5625 -0.2875
3.5 0.625 -0.2875
3.4375 0.5625 -0.225
3.5 0.5625 -0.225
3.4375 0.625 -0.225
3.5 0.5625 -0.2875
3.5625 0.625 -0.2875
3.5625 0.5625 -0.2875
3.625 0.625 -0.2875
3.5625 0.5625 -0.225
3.625 0.5625 -0.225
3.5625 0.625 -0.225
3.625 0.5625 -0.2875
3.6875 0.625 -0.2875
3.6875 0.5625 -0.2875
3.75 0.625 -0.2875
3.6875 0.5625 -0.225
3.75 0.5625 -0.225
3.6875 0.625 -0.225
3.75 0.5625 -0.2875
3.8125 0.625 -0.2875
3.8125 0.5625 -0.2875
3.875 0.625 -0.2875
3.8125 0.5625 -0.225
3.875 0.5625 -0.225
3.8125 0.625 -0.225
3.875 0.5625 -0.2875
3.9375 0.625 -0.2875
3.9375 0.5625 -0.2875
4 0.625 -0.2875
3.9375 0.5625 -0.225
4 0.5625 -0.225
3.9375 0.625 -0.225
4 0.5625 -0.2875
0.0625 0.75 -0.2875
0.0625 0.6875 -0.2875
0.125 0.75 -0.2875
0.0625 0.6875 -0.225
0.125 0.6875 -0.225
0 0.75 -0.2875
0 0.6875 -0.2875
0.0625 0.75 -0.225
0 0.6875 -0.225
0.125 0.6875 -0.2875
0.1875 0.75 -0.2875
0.1875 0.6875 -0.2875
0.25 0.75 -0.2875
0.1875 0.6875 -0.225
0.25 0.6875 -0.225
0.1875 0.75 -0.225
0.25 0.6875 -0.2875
0.3125 0.75 -0.2875
0.3125 0.6875 -0.2875
0.375 0.75 -0.2875
0.3125 0.6875 -0.225
0.375 0.6875 -0.225
0.3125 0.75 -0.225
0.375 0.6875 -0.2875
0.4375 0.75 -0.2875
0.4375 0.6875 -0.2875
0.5 0.75 -0.2875
0.4375 0.6875 -0.225
0.5 0.6875 -0.225
0.4375 0.75 -0.225
0.5 0.6875 -0.2875
0.5625 0.75 -0.2875
0.5625 0.6875 -0.2875
0.625 0.75 -0.2875
0.5625 0.6875 -0.225
0.625 0.6875 -0.225
0.5625 0.75 -0.225
0.625 0.6875 -0.2875
0.6875 0.75 -0.2875
0.6875 0.6875 -0.2875
0.75 0.75 -0.2875
0.6875 0.6875 -0.225
0.75 0.6875 -0.225
0.6875 0.75 -0.225
0.75 0.6875 -0.2875
0.8125 0.75 -0.2875
0.8125 0.6875 -0.2875
0.875 0.75 -0.2875
0.8125 0.6875 -0.225
0.875 0.6875 -0.225
0.8125 0.75 -0.225
0.875 0.6875 -0.2875
0.9375 0.75 -0.2875
0.9375 0.6875 -0.2875
1 0.75 -0.2875
0.9375 0.6875 -0.225
1 0.6875 -0.225
0.9375 0.75 -0.225
1 0.6875 -0.2875
1.0625 0.75 -0.2875
1.0625 0.6875 -0.2875
1.125 0.75 -0.2875
1.0625 0.6875 -0.225
1.125 0.6875 -0.225
1.0625 0.75 -0.225
1.125 0.6875 -0.2875
1.1875 0.75 -0.2875
1.1875 0.6875 -0.2875
1.25 0.75 -0.2875
1.1875 0.6875 -0.225
1.25 0.6875 -0.225
1.1875 0.75 -0.225
1.25 0.6875 -0.2875
1.3125 0.75 -0.2875
1.3125 0.6875 -0.2875
1.375 0.75 -0.2875
1.3125 0.6875 -0.225
1.375 0.6875 -0.225
1.3125 0.75 -0.225
1.375 0.6875 -0.2875
1.4375 0.75 -0.2875
1.4375 0.6875 -0.2875
1.5 0.75 -0.2875
1.4375 0.6875 -0.225
1.5 0.6875 -0.225
1.4375 0.75 -0.225
1.5 0.6875 -0.2875
1.5625 0.75 -0.2875
1.5625 0.6875 -0.2875
1.625 0.75 -0.2875
1.5625 0.6875 -0.225
1.625 0.6875 -0.225
1.5625 0.75 -0.225
1.625 0.6875 -0.2875
1.6875 0.75 -0.2875
1.6875 0.6875 -0.2875
1.75 0.75 -0.2875
1.6875 0.6875 -0.225
1.75 0.6875 -0.225
1.6875 0.75 -0.225
1.75 0.6875 -0.2875
1.8125 0.75 -0.2875
1.8125 0.6875 -0.2875
1.875 0.75 -0.2875
1.8125 0.6875 -0.225
1.875 0.6875 -0.225
1.8125 0.75 -0.225
1.875 0.6875 -0.2875
1.9375 0.75 -0.2875
1.9375 0.6875 -0.2875
2 0.75 -0.2875
1.9375 0.6875 -0.225
2 0.6875 -0.225
1.9375 0.75 -0.225
2 0.6875 -0.2875
2.0625 0.75 -0.2875
2.0625 0.6875 -0.2875
2.125 0.75 -0.2875
2.0625 0.6875 -0.225
2.125 0.6875 -0.225
2.0625 0.75 -0.225
2.125 0.6875 -0.2875
2.1875 0.75 -0.2875
2.1875 0.6875 -0.2875
2.25 0.75 -0.2875
2.1875 0.6875 -0.225
2.25 0.6875 -0.225
2.1875 0.75 -0.225
2.25 0.6875 -0.2875
2.3125 0.75 -0.2875
2.3125 0.6875 -0.2875
2.375 0.75 -0.2875
2.3125 0.6875 -0.225
2.375 0.6875 -0.225
2.3125 0.75 -0.225
2.375 0.6875 -0.2875
2.4375 0.75 -0.2875
2.4375 0.6875 -0.2875
2.5 0.75 -0.2875
2.4375 0.6875 -0.225
2.5 0.6875 -0.225
2.4375 0.75 -0.225
2.5 0.6875 -0.2875
2.5625 0.75 -0.2875
2.5625 0.6875 -0.2875
2.625 0.75 -0.2875
2.5625 0.6875 -0.225
2.625 0.6875 -0.225
2.5625 0.75 -0.225
2.625 0.6875 -0.2875
2.6875 0.75 -0.2875
2.6875 0.6875 -0.2875
2.75 0.75 -0.2875
2.6875 0.6875 -0.225
2.75 0.6875 -0.225
2.6875 0.75 -0.225
2.75 0.6875 -0.2875
2.8125 0.75 -0.2875
2.8125 0.6875 -0.2875
2.875 0.75 -0.2875
2.8125 0.6875 -0.225
2.875 0.6875 -0.225
2.8125 0.75 -0.225
2.875 0.6875 -0.2875
2.9375 0.75 -0.2875
2.9375 0.6875 -0.2875
3 0.75 -0.2875
2.9375 0.6875 -0.225
3 0.6875 -0.225
2.9375 0.75 -0.225
3 0.6875 -0.2875
3.0625 0.75 -0.2875
3.0625 0.6875 -0.2875
3.125 0.75 -0.2875
3.0625 0.6875 -0.225
3.125 0.6875 -0.225
3.0625 0.75 -0.225
3.125 0.6875 -0.2875
3.1875 0.75 -0.2875
3.1875 0.6875 -0.2875
3.25 0.75 -0.2875
3.1875 0.6875 -0.225
3.25 0.6875 -0.225
3.1875 0.75 -0.225
3.25 0.6875 -0.2875
3.3125 0.75 -0.2875
3.3125 0.6875 -0.2875
3.375 0.75 -0.2875
3.3125 0.6875 -0.225
3.375 0.6875 -0.225
3.3125 0.75 -0.225
3.375 0.6875 -0.2875
3.4375 0.75 -0.2875
3.4375 0.6875 -0.2875
3.5 0.75 -0.2875
3.4375 0.6875 -0.225
3.5 0.6875 -0.225
3.4375 0.75 -0.225
3.5 0.6875 -0.2875
3.5625 0.75 -0.2875
3.5625 0.6875 -0.2875
3.625 0.75 -0.2875
3.5625 0.6875 -0.225
3.625 0.6875 -0.225
3.5625 0.75 -0.225
3.625 0.6875 -0.2875
3.6875 0.75 -0.2875
3.6875 0.6875 -0.2875
3.75 0.75 -0.2875
3.6875 0.6875 -0.225
3.75 0.6875 -0.225
3.6875 0.75 -0.225
3.75 0.6875 -0.2875
3.8125 0.75 -0.2875
3.8125 0.6875 -0.2875
3.875 0.75 -0.2875
3.8125 0.6875 -0.225
3.875 0.6875 -0.225
3.8125 0.75 -0.225
3.875 0.6875 -0.2875
3.9375 0.75 -0.2875
3.9375 0.6875 -0.2875
4 0.75 -0.2875
3.9375 0.6875 -0.225
4 0.6875 -0.225
3.9375 0.75 -0.225
4 0.6875 -0.2875
0.0625 0.875 -0.2875
0.0625 0.8125 -0.2875
0.125 0.875 -0.2875
0.0625 0.8125 -0.225
0.125 0.8125 -0.225
0 0.875 -0.2875
0 0.8125 -0.2875
0.0625 0.875 -0.225
0 0.8125 -0.225
0.125 0.8125 -0.2875
0.1875 0.875 -0.2875
0.1875 0.8125 -0.2875
0.25 0.875 -0.2875
0.1875 0.8125 -0.225
0.25 0.8125 -0.225
0.1875 0.875 -0.225
0.25 0.8125 -0.2875
0.3125 0.875 -0.2875
0.3125 0.8125 -0.2875
0.375 0.875 -0.2875
0.3125 0.8125 -0.225
0.375 0.8125 -0.225
0.3125 0.875 -0.225
0.375 0.8125 -0.2875
0.4375 0.875 -0.2875
0.4375 0.8125 -0.2875
0.5 0.875 -0.2875
0.4375 0.8125 -0.225
0.5 0.8125 -0.225
0.4375 0.875 -0.225
0.5 0.8125 -0.2875
0.5625 0.875 -0.2875
0.5625 0.8125 -0.2875
0.625 0.875 -0.2875
0.5625 0.8125 -0.225
0.625 0.8125 -0.225
0.5625 0.875 -0.225
0.625 0.8125 -0.2875
0.6875 0.875 -0.2875
0.6875 0.8125 -0.2875
0.75 0.875 -0.2875
0.6875 0.8125 -0.225
0.75 0.8125 -0.225
0.6875 0.875 -0.225
0.75 0.8125 -0.2875
0.8125 0.875 -0.2875
0.8125 0.8125 -0.2875
0.875 0.875 -0.2875
0.8125 0.8125 -0.225
0.875 0.8125 -0.225
0.8125 0.875 -0.225
0.875 0.8125 -0.2875
0.9375 0.875 -0.2875
0.9375 0.8125 -0.2875
1 0.875 -0.2875
0.9375 0.8125 -0.225
1 0.8125 -0.225
0.9375 0.875 -0.225
1 0.8125 -0.2875
1.0625 0.875 -0.2875
1.0625 0.8125 -0.2875
1.125 0.875 -0.2875
1.0625 0.8125 -0.225
1.125 0.8125 -0.225
1.0625 0.875 -0.225
1.125 0.8125 -0.2875
1.1875 0.875 -0.2875
1.1875 0.8125 -0.2875
1.25 0.875 -0.2875
1.1875 0.8125 -0.225
1.25 0.8125 -0.225
1.1875 0.875 -0.225
1.25 0.8125 -0.2875
1.3125 0.875 -0.2875
1.3125 0.8125 -0.2875
1.375 0.875 -0.2875
1.3125 0.8125 -0.225
1.375 0.8125 -0.225
1.3125 0.875 -0.225
1.375 0.8125 -0.2875
1.4375 0.875 -0.2875
1.4375 0.8125 -0.2875
1.5 0.875 -0.2875
1.4375 0.8125 -0.225
1.5 0.8125 -0.225
1.4375 0.875 -0.225
1.5 0.8125 -0.2875
1.5625 0.875 -0.2875
1.5625 0.8125 -0.2875
1.625 0.875 -0.2875
1.5625 0.8125 -0.225
1.625 0.8125 -0.225
1.5625 0.875 -0.225
1.625 0.8125 -0.2875
1.6875 0.875 -0.2875
1.6875 0.8125 -0.2875
1.75 0.875 -0.2875
1.6875 0.8125 -0.225
1.75 0.8125 -0.225
1.6875 0.875 -0.225
1.75 0.8125 -0.2875
1.8125 0.875 -0.2875
1.8125 0.8125 -0.2875
1.875 0.875 -0.2875
1.8125 0.8125 -0.225
1.875 0.8125 -0.225
1.8125 0.875 -0.225
1.875 0.8125 -0.2875
1.9375 0.875 -0.2875
1.9375 0.8125 -0.2875
2 0.875 -0.2875
1.9375 0.8125 -0.225
2 0.8125 -0.225
1.9375 0.875 -0.225
2 0.8125 -0.2875
2.0625 0.875 -0.2875
2.0625 0.8125 -0.2875
2.125 0.875 -0.2875
2.0625 0.8125 -0.225
2.125 0.8125 -0.225
2.0625 0.875 -0.225
2.125 0.8125 -0.2875
2.1875 0.875 -0.2875
2.1875 0.8125 -0.2875
2.25 0.875 -0.2875
2.1875 0.8125 -0.225
2.25 0.8125 -0.225
2.1875 0.875 -0.225
2.25 0.8125 -0.2875
2.3125 0.875 -0.2875
2.3125 0.8125 -0.2875
2.375 0.875 -0.2875
2.3125 0.8125 -0.225
2.375 0.8125 -0.225
2.3125 0.875 -0.225
2.375 0.8125 -0.2875
2.4375 0.875 -0.2875
2.4375 0.8125 -0.2875
2.5 0.875 -0.2875
2.4375 0.8125 -0.225
2.5 0.8125 -0.225
2.4375 0.875 -0.225
2.5 0.8125 -0.2875
2.5625 0.875 -0.2875
2.5625 0.8125 -0.2875
2.625 0.875 -0.2875
2.5625 0.8125 -0.225
2.625 0.8125 -0.225
2.5625 0.875 -0.225
2.625 0.8125 -0.2875
2.6875 0.875 -0.2875
2.6875 0.8125 -0.2875
2.75 0.875 -0.2875
2.6875 0.8125 -0.225
2.75 0.8125 -0.225
2.6875 0.875 -0.225
2.75 0.8125 -0.2875
2.8125 0.875 -0.2875
2.8125 0.8125 -0.2875
2.875 0.875 -0.2875
2.8125 0.8125 -0.225
2.875 0.8125 -0.225
2.8125 0.875 -0.225
2.875 0.8125 -0.2875
2.9375 0.875 -0.2875
2.9375 0.8125 -0.2875
3 0.875 -0.2875
2.9375 0.8125 -0.225
3 0.8125 -0.225
2.9375 0.875 -0.225
3 0.8125 -0.2875
3.0625 0.875 -0.2875
3.0625 0.8125 -0.2875
3.125 0.875 -0.2875
3.0625 0.8125 -0.225
3.125 0.8125 -0.225
3.0625 0.875 -0.225
3.125 0.8125 -0.2875
3.1875 0.875 -0.2875
3.1875 0.8125 -0.2875
3.25 0.875 -0.2875
3.1875 0.8125 -0.225
3.25 0.8125 -0.225
3.1875 0.875 -0.225
3.25 0.8125 -0.2875
3.3125 0.875 -0.2875
3.3125 0.8125 -0.2875
3.375 0.875 -0.2875
3.3125 0.8125 -0.225
3.375 0.8125 -0.225
3.3125 0.875 -0.225
3.375 0.8125 -0.2875
3.4375 0.875 -0.2875
3.4375 0.8125 -0.2875
3.5 0.875 -0.2875
3.4375 0.8125 -0.225
3.5 0.8125 -0.225
3.4375 0.875 -0.225
3.5 0.8125 -0.2875
3.5625 0.875 -0.2875
3.5625 0.8125 -0.2875
3.625 0.875 -0.2875
3.5625 0.8125 -0.225
3.625 0.8125 -0.225
3.5625 0.875 -0.225
3.625 0.8125 -0.2875
3.6875 0.875 -0.2875
3.6875 0.8125 -0.2875
3.75 0.875 -0.2875
3.6875 0.8125 -0.225
3.75 0.8125 -0.225
3.6875 0.875 -0.225
3.75 0.8125 -0.2875
3.8125 0.875 -0.2875
3.8125 0.8125 -0.2875
3.875 0.875 -0.2875
3.8125 0.8125 -0.225
3.875 0.8125 -0.225
3.8125 0.875 -0.225
3.875 0.8125 -0.2875
3.9375 0.875 -0.2875
3.9375 0.8125 -0.2875
4 0.875 -0.2875
3.9375 0.8125 -0.225
4 0.8125 -0.225
3.9375 0.875 -0.225
4 0.8125 -0.2875
0.0625 1 -0.2875
0.0625 0.9375 -0.2875
0.125 1 -0.2875
0.0625 0.9375 -0.225
0.125 0.9375 -0.225
0 1 -0.2875
0 0.9375 -0.2875
0.0625 1 -0.225
0 0.9375 -0.225
0.125 0.9375 -0.2875
0.1875 1 -0.2875
0.1875 0.9375 -0.2875
0.25 1 -0.2875
0.1875 0.9375 -0.225
0.25 0.9375 -0.225
0.1875 1 -0.225
0.25 0.9375 -0.2875
0.3125 1 -0.2875
0.3125 0.9375 -0.2875
0.375 1 -0.2875
0.3125 0.9375 -0.225
0.375 0.9375 -0.225
0.3125 1 -0.225
0.375 0.9375 -0.2875
0.4375 1 -0.2875
0.4375 0.9375 -0.2875
0.5 1 -0.2875
0.4375 0.9375 -0.225
0.5 0.9375 -0.225
0.4375 1 -0.225
0.5 0.9375 -0.2875
0.5625 1 -0.2875
0.5625 0.9375 -0.2875
0.625 1 -0.2875
0.5625 0.9375 -0.225
0.625 0.9375 -0.225
0.5625 1 -0.225
0.625 0.9375 -0.2875
0.6875 1 -0.2875
0.6875 0.9375 -0.2875
0.75 1 -0.2875
0.6875 0.9375 -0.225
0.75 0.9375 -0.225
0.6875 1 -0.225
0.75 0.9375 -0.2875
0.8125 1 -0.2875
0.8125 0.9375 -0.2875
0.875 1 -0.2875
0.8125 0.9375 -0.225
0.875 0.9375 -0.225
0.8125 1 -0.225
0.875 0.9375 -0.2875
0.9375 1 -0.2875
0.9375 0.9375 -0.2875
1 1 -0.2875
0.9375 0.9375 -0.225
1 0.9375 -0.225
0.9375 1 -0.225
1 0.9375 -0.2875
1.0625 1 -0.2875
1.0625 0.9375 -0.2875
1.125 1 -0.2875
1.0625 0.9375 -0.225
1.125 0.9375 -0.225
1.0625 1 -0.225
1.125 0.9375 -0.2875
1.1875 1 -0.2875
1.1875 0.9375 -0.2875
1.25 1 -0.2875
1.1875 0.9375 -0.225
1.25 0.9375 -0.225
1.1875 1 -0.225
1.25 0.9375 -0.2875
1.3125 1 -0.2875
1.3125 0.9375 -0.2875
1.375 1 -0.2875
1.3125 0.9375 -0.225
1.375 0.9375 -0.225
1.3125 1 -0.225
1.375 0.9375 -0.2875
1.4375 1 -0.2875
1.4375 0.9375 -0.2875
1.5 1 -0.2875
1.4375 0.9375 -0.225
1.5 0.9375 -0.225
1.4375 1 -0.225
1.5 0.9375 -0.2875
1.5625 1 -0.2875
1.5625 0.9375 -0.2875
1.625 1 -0.2875
1.5625 0.9375 -0.225
1.625 0.9375 -0.225
1.5625 1 -0.225
1.625 0.9375 -0.2875
1.6875 1 -0.2875
1.6875 0.9375 -0.2875
1.75 1 -0.2875
1.6875 0.9375 -0.225
1.75 0.9375 -0.225
1.6875 1 -0.225
1.75 0.9375 -0.2875
1.8125 1 -0.2875
1.8125 0.9375 -0.2875
1.875 1 -0.2875
1.8125 0.9375 -0.225
1.875 0.9375 -0.225
1.8125 1 -0.225
1.875 0.9375 -0.2875
1.9375 1 -0.2875
1.9375 0.9375 -0.2875
2 1 -0.2875
1.9375 0.9375 -0.225
2 0.9375 -0.225
1.9375 1 -0.225
2 0.9375 -0.2875
2.0625 1 -0.2875
2.0625 0.9375 -0.2875
2.125 1 -0.2875
2.0625 0.9375 -0.225
2.125 0.9375 -0.225
2.0625 1 -0.225
2.125 0.9375 -0.2875
2.1875 1 -0.2875
2.1875 0.9375 -0.2875
2.25 1 -0.2875
2.1875 0.9375 -0.225
2.25 0.9375 -0.225
2.1875 1 -0.225
2.25 0.9375 -0.2875
2.3125 1 -0.2875
2.3125 0.9375 -0.2875
2.375 1 -0.2875
2.3125 0.9375 -0.225
2.375 0.9375 -0.225
2.3125 1 -0.225
2.375 0.9375 -0.2875
2.4375 1 -0.2875
2.4375 0.9375 -0.2875
2.5 1 -0.2875
2.4375 0.9375 -0.225
2.5 0.9375 -0.225
2.4375 1 -0.225
2.5 0.9375 -0.2875
2.5625 1 -0.2875
2.5625 0.9375 -0.2875
2.625 1 -0.2875
2.5625 0.9375 -0.225
2.625 0.9375 -0.225
2.5625 1 -0.225
2.625 0.9375 -0.2875
2.6875 1 -0.2875
2.6875 0.9375 -0.2875
2.75 1 -0.2875
2.6875 0.9375 -0.225
2.75 0.9375 -0.225
2.6875 1 -0.225
2.75 0.9375 -0.2875
2.8125 1 -0.2875
2.8125 0.9375 -0.2875
2.875 1 -0.2875
2.8125 0.9375 -0.225
2.875 0.9375 -0.225
2.8125 1 -0.225
2.875 0.9375 -0.2875
2.9375 1 -0.2875
2.9375 0.9375 -0.2875
3 1 -0.2875
2.9375 0.9375 -0.225
3 0.9375 -0.225
2.9375 1 -0.225
3 0.9375 -0.2875
3.0625 1 -0.2875
3.0625 0.9375 -0.2875
3.125 1 -0.2875
3.0625 0.9375 -0.225
3.125 0.9375 -0.225
3.0625 1 -0.225
3.125 0.9375 -0.2875
3.1875 1 -0.2875
3.1875 0.9375 -0.2875
3.25 1 -0.2875
3.1875 0.9375 -0.225
3.25 0.9375 -0.225
3.1875 1 -0.225
3.25 0.9375 -0.2875
3.3125 1 -0.2875
3.3125 0.9375 -0.2875
3.375 1 -0.2875
3.3125 0.9375 -0.225
3.375 0.9375 -0.225
3.3125 1 -0.225
3.375 0.9375 -0.2875
3.4375 1 -0.2875
3.4375 0.9375 -0.2875
3.5 1 -0.2875
3.4375 0.9375 -0.225
3.5 0.9375 -0.225
3.4375 1 -0.225
3.5 0.9375 -0.2875
3.5625 1 -0.2875
3.5625 0.9375 -0.2875
3.625 1 -0.2875
3.5625 0.9375 -0.225
3.625 0.9375 -0.225
3.5625 1 -0.225
3.625 0.9375 -0.2875
3.6875 1 -0.2875
3.6875 0.9375 -0.2875
3.75 1 -0.2875
3.6875 0.9375 -0.225
3.75 0.9375 -0.225
3.6875 1 -0.225
3.75 0.9375 -0.2875
3.8125 1 -0.2875
3.8125 0.9375 -0.2875
3.875 1 -0.2875
3.8125 0.9375 -0.225
3.875 0.9375 -0.225
3.8125 1 -0.225
3.875 0.9375 -0.2875
3.9375 1 -0.2875
3.9375 0.9375 -0.2875
4 1 -0.2875
3.9375 0.9375 -0.225
4 0.9375 -0.225
3.9375 1 -0.225
4 0.9375 -0.2875
0.0625 0.125 -0.1625
0.0625 0.0625 -0.1625
0.125 0.125 -0.1625
0.0625 0.0625 -0.1
0.125 0.0625 -0.1
0.0625 0 -0.1
0 0 -0.1625
0.0625 0 -0.1625
0 0.125 -0.1625
0 0.0625 -0.1625
0.0625 0.125 -0.1
0 0.0625 -0.1
0.125 0 -0.1625
0.125 0.0625 -0.1625
0.1875 0.125 -0.1625
0.1875 0.0625 -0.1625
0.25 0.125 -0.1625
0.1875 0.0625 -0.1
0.25 0.0625 -0.1
0.1875 0 -0.1
0.1875 0 -0.1625
0.1875 0.125 -0.1
0.25 0 -0.1625
0.25 0.0625 -0.1625
0.3125 0.125 -0.1625
0.3125 0.0625 -0.1625
0.375 0.125 -0.1625
0.3125 0.0625 -0.1
0.375 0.0625 -0.1
0.3125 0 -0.1
0.3125 0 -0.1625
0.3125 0.125 -0.1
0.375 0 -0.1625
0.375 0.0625 -0.1625
0.4375 0.125 -0.1625
0.4375 0.0625 -0.1625
0.5 0.125 -0.1625
0.4375 0.0625 -0.1
0.5 0.0625 -0.1
0.4375 0 -0.1
0.4375 0 -0.1625
0.4375 0.125 -0.1
0.5 0 -0.1625
0.5 0.0625 -0.1625
0.5625 0.125 -0.1625
0.5625 0.0625 -0.1625
0.625 0.125 -0.1625
0.5625 0.0625 -0.1
0.625 0.0625 -0.1
0.5625 0 -0.1
0.5625 0 -0.1625
0.5625 0.125 -0.1
0.625 0 -0.1625
0.625 0.0625 -0.1625
0.6875 0.125 -0.1625
0.6875 0.0625 -0.1625
0.75 0.125 -0.1625
0.6875 0.0625 -0.1
0.75 0.0625 -0.1
0.6875 0 -0.1
0.6875 0 -0.1625
0.6875 0.125 -0.1
0.75 0 -0.1625
0.75 0.0625 -0.1625
0.8125 0.125 -0.1625
0.8125 0.0625 -0.1625
0.875 0.125 -0.1625
0.8125 0.0625 -0.1
0.875 0.0625 -0.1
0.8125 0 -0.1
0.8125 0 -0.1625
0.8125 0.125 -0.1
0.875 0 -0.1625
0.875 0.0625 -0.1625
0.9375 0.125 -0.1625
0.9375 0.0625 -0.1625
1 0.125 -0.1625
0.9375 0.0625 -0.1
1 0.0625 -0.1
0.9375 0 -0.1
0.9375 0 -0.1625
0.9375 0.125 -0.1
1 0 -0.1625
1 0.0625 -0.1625
1.0625 0.125 -0.1625
1.0625 0.0625 -0.1625
1.125 0.125 -0.1625
1.0625 0.0625 -0.1
1.125 0.0625 -0.1
1.0625 0 -0.1
1.0625 0 -0.1625
1.0625 0.125 -0.1
1.125 0 -0.1625
1.125 0.0625 -0.1625
1.1875 0.125 -0.1625
1.1875 0.0625 -0.1625
1.25 0.125 -0.1625
1.1875 0.0625 -0.1
1.25 0.0625 -0.1
1.1875 0 -0.1
1.1875 0 -0.1625
1.1875 0.125 -0.1
1.25 0 -0.1625
1.25 0.0625 -0.1625
1.3125 0.125 -0.1625
1.3125 0.0625 -0.1625
1.375 0.125 -0.1625
1.3125 0.0625 -0.1
1.375 0.0625 -0.1
1.3125 0 -0.1
1.3125 0 -0.1625
1.3125 0.125 -0.1
1.375 0 -0.1625
1.375 0.0625 -0.1625
1.4375 0.125 -0.1625
1.4375 0.0625 -0.1625
1.5 0.125 -0.1625
1.4375 0.0625 -0.1
1.5 0.0625 -0.1
1.4375 0 -0.1
1.4375 0 -0.1625
1.4375 0.125 -0.1
1.5 0 -0.1625
1.5 0.0625 -0.1625
1.5625 0.125 -0.1625
1.5625 0.0625 -0.1625
1.625 0.125 -0.1625
1.5625 0.0625 -0.1
1.625 0.0625 -0.1
1.5625 0 -0.1
1.5625 0 -0.1625
1.5625 0.125 -0.1
1.625 0 -0.1625
1.625 0.0625 -0.1625
1.6875 0.125 -0.1625
1.6875 0.0625 -0.1625
1.75 0.125 -0.1625
1.6875 0.0625 -0.1
1.75 0.0625 -0.1
1.6875 0 -0.1
1.6875 0 -0.1625
1.6875 0.125 -0.1
1.75 0 -0.1625
1.75 0.0625 -0.1625
1.8125 0.125 -0.1625
1.8125 0.0625 -0.1625
1.875 0.125 -0.1625
1.8125 0.0625 -0.1
1.875 0.0625 -0.1
1.8125 0 -0.1
1.8125 0 -0.1625
1.8125 0.125 -0.1
1.875 0 -0.1625
1.875 0.0625 -0.1625
1.9375 0.125 -0.1625
1.9375 0.0625 -0.1625
2 0.125 -0.1625
1.9375 0.0625 -0.1
2 0.0625 -0.1
1.9375 0 -0.1
1.9375 0 -0.1625
1.9375 0.125 -0.1
2 0 -0.1625
2 0.0625 -0.1625
2.0625 0.125 -0.1625
2.0625 0.0625 -0.1625
2.125 0.125 -0.1625
2.0625 0.0625 -0.1
2.125 0.0625 -0.1
2.0625 0 -0.1
2.0625 0 -0.1625
2.0625 0.125 -0.1
2.125 0 -0.1625
2.125 0.0625 -0.1625
2.1875 0.125 -0.1625
2.1875 0.0625 -0.1625
2.25 0.125 -0.1625
2.1875 0.0625 -0.1
2.25 0.0625 -0.1
2.1875 0 -0.1
2.1875 0 -0.1625
2.1875 0.125 -0.1
2.25 0 -0.1625
2.25 0.0625 -0.1625
2.3125 0.125 -0.1625
2.3125 0.0625 -0.1625
2.375 0.125 -0.1625
2.3125 0.0625 -0.1
2.375 0.0625 -0.1
2.3125 0 -0.1
2.3125 0 -0.1625
2.3125 0.125 -0.1
2.375 0 -0.1625
2.375 0.0625 -0.1625
2.4375 0.125 -0.1625
2.4375 0.0625 -0.1625
2.5 0.125 -0.1625
2.4375 0.0625 -0.1
2.5 0.0625 -0.1
2.4375 0 -0.1
2.4375 0 -0.1625
2.4375 0.125 -0.1
2.5 0 -0.1625
2.5 0.0625 -0.1625
2.5625 0.125 -0.1625
2.5625 0.0625 -0.1625
2.625 0.125 -0.1625
2.5625 0.0625 -0.1
2.625 0.0625 -0.1
2.5625 0 -0.1
2.5625 0 -0.1625
2.5625 0.125 -0.1
2.625 0 -0.1625
2.625 0.0625 -0.1625
2.6875 0.125 -0.1625
2.6875 0.0625 -0.1625
2.75 0.125 -0.1625
2.6875 0.0625 -0.1
2.75 0.0625 -0.1
2.6875 0 -0.1
2.6875 0 -0.1625
2.6875 0.125 -0.1
2.75 0 -0.1625
2.75 0.0625 -0.1625
2.8125 0.125 -0.1625
2.8125 0.0625 -0.1625
2.875 0.125 -0.1625
2.8125 0.0625 -0.1
2.875 0.0625 -0.1
2.8125 0 -0.1
2.8125 0 -0.1625
2.8125 0.125 -0.1
2.875 0 -0.1625
2.875 0.0625 -0.1625
2.9375 0.125 -0.1625
2.9375 0.0625 -0.1625
3 0.125 -0.1625
2.9375 0.0625 -0.1
3 0.0625 -0.1
2.9375 0 -0.1
2.9375 0 -0.1625
2.9375 0.125 -0.1
3 0 -0.1625
3 0.0625 -0.1625
3.0625 0.125 -0.1625
3.0625 0.0625 -0.1625
3.125 0.125 -0.1625
3.0625 0.0625 -0.1
3.125 0.0625 -0.1
3.0625 0 -0.1
3.0625 0 -0.1625
3.0625 0.125 -0.1
3.125 0 -0.1625
3.125 0.0625 -0.1625
3.1875 0.125 -0.1625
3.1875 0.0625 -0.1625
3.25 0.125 -0.1625
3.1875 0.0625 -0.1
3.25 0.0625 -0.1
3.1875 0 -0.1
3.1875 0 -0.1625
3.1875 0.125 -0.1
3.25 0 -0.1625
3.25 0.0625 -0.1625
3.3125 0.125 -0.1625
3.3125 0.0625 -0.1625
3.375 0.125 -0.1625
3.3125 0.0625 -0.1
3.375 0.0625 -0.1
3.3125 0 -0.1
3.3125 0 -0.1625
3.3125 0.125 -0.1
3.375 0 -0.1625
3.375 0.0625 -0.1625
3.4375 0.125 -0.1625
3.4375 0.0625 -0.1625
3.5 0.125 -0.1625
3.4375 0.0625 -0.1
3.5 0.0625 -0.1
3.4375 0 -0.1
3.4375 0 -0.1625
3.4375 0.125 -0.1
3.5 0 -0.1625
3.5 0.0625 -0.1625
3.5625 0.125 -0.1625
3.5625 0.0625 -0.1625
3.625 0.125 -0.1625
3.5625 0.0625 -0.1
3.625 0.0625 -0.1
3.5625 0 -0.1
3.5625 0 -0.1625
3.5625 0.125 -0.1
3.625 0 -0.1625
3.625 0.0625 -0.1625
3.6875 0.125 -0.1625
3.6875 0.0625 -0.1625
3.75 0.125 -0.1625
3.6875 0.0625 -0.1
3.75 0.0625 -0.1
3.6875 0 -0.1
3.6875 0 -0.1625
3.6875 0.125 -0.1
3.75 0 -0.1625
3.75 0.0625 -0.1625
3.8125 0.125 -0.1625
3.8125 0.0625 -0.1625
3.875 0.125 -0.1625
3.8125 0.0625 -0.1
3.875 0.0625 -0.1
3.8125 0 -0.1
3.8125 0 -0.1625
3.8125 0.125 -0.1
3.875 0 -0.1625
3.875 0.0625 -0.1625
3.9375 0.125 -0.1625
3.9375 0.0625 -0.1625
4 0.125 -0.1625
3.9375 0.0625 -0.1
4 0.0625 -0.1
3.9375 0 -0.1
3.9375 0 -0.1625
3.9375 0.125 -0.1
4 0 -0.1625
4 0.0625 -0.1625
0.0625 0.25 -0.1625
0.0625 0.1875 -0.1625
0.125 0.25 -0.1625
0.0625 0.1875 -0.1
0.125 0.1875 -0.1
0 0.25 -0.1625
0 0.1875 -0.1625
0.0625 0.25 -0.1
0 0.1875 -0.1
0.125 0.1875 -0.1625
0.1875 0.25 -0.1625
0.1875 0.1875 -0.1625
0.25 0.25 -0.1625
0.1875 0.1875 -0.1
0.25 0.1875 -0.1
0.1875 0.25 -0.1
0.25 0.1875 -0.1625
0.3125 0.25 -0.1625
0.3125 0.1875 -0.1625
0.375 0.25 -0.1625
0.3125 0.1875 -0.1
0.375 0.1875 -0.1
0.3125 0.25 -0.1
0.375 0.1875 -0.1625
0.4375 0.25 -0.1625
0.4375 0.1875 -0.1625
0.5 0.25 -0.1625
0.4375 0.1875 -0.1
0.5 0.1875 -0.1
0.4375 0.25 -0.1
0.5 0.1875 -0.1625
0.5625 0.25 -0.1625
0.5625 0.1875 -0.1625
0.625 0.25 -0.1625
0.5625 0.1875 -0.1
0.625 0.1875 -0.1
0.5625 0.25 -0.1
0.625 0.1875 -0.1625
0.6875 0.25 -0.1625
0.6875 0.1875 -0.1625
0.75 0.25 -0.1625
0.6875 0.1875 -0.1
0.75 0.1875 -0.1
0.6875 0.25 -0.1
0.75 0.1875 -0.1625
0.8125 0.25 -0.1625
0.8125 0.1875 -0.1625
0.875 0.25 -0.1625
0.8125 0.1875 -0.1
0.875 0.1875 -0.1
0.8125 0.25 -0.1
0.875 0.1875 -0.1625
0.9375 0.25 -0.1625
0.9375 0.1875 -0.1625
1 0.25 -0.1625
0.9375 0.1875 -0.1
1 0.1875 -0.1
0.9375 0.25 -0.1
1 0.1875 -0.1625
1.0625 0.25 -0.1625
1.0625 0.1875 -0.1625
1.125 0.25 -0.1625
1.0625 0.1875 -0.1
1.125 0.1875 -0.1
1.0625 0.25 -0.1
1.125 0.1875 -0.1625
1.1875 0.25 -0.1625
1.1875 0.1875 -0.1625
1.25 0.25 -0.1625
1.1875 0.1875 -0.1
1.25 0.1875 -0.1
1.1875 0.25 -0.1
1.25 0.1875 -0.1625
1.3125 0.25 -0.1625
1.3125 0.1875 -0.1625
1.375 0.25 -0.1625
1.3125 0.1875 -0.1
1.375 0.1875 -0.1
1.3125 0.25 -0.1
1.375 0.1875 -0.1625
1.4375 0.25 -0.1625
1.4375 0.1875 -0.1625
1.5 0.25 -0.1625
1.4375 0.1875 -0.1
1.5 0.1875 -0.1
1.4375 0.25 -0.1
1.5 0.1875 -0.1625
1.5625 0.25 -0.1625
1.5625 0.1875 -0.1625
1.625 0.25 -0.1625
1.5625 0.1875 -0.1
1.625 0.1875 -0.1
1.5625 0.25 -0.1
1.625 0.1875 -0.1625
1.6875 0.25 -0.1625
1.6875 0.1875 -0.1625
1.75 0.25 -0.1625
1.6875 0.1875 -0.1
1.75 0.1875 -0.1
1.6875 0.25 -0.1
1.75 0.1875 -0.1625
1.8125 0.25 -0.1625
1.8125 0.1875 -0.1625
1.875 0.25 -0.1625
1.8125 0.1875 -0.1
1.875 0.1875 -0.1
1.8125 0.25 -0.1
1.875 0.1875 -0.1625
1.9375 0.25 -0.1625
1.9375 0.1875 -0.1625
2 0.25 -0.1625
1.9375 0.1875 -0.1
2 0.1875 -0.1
1.9375 0.25 -0.1
2 0.1875 -0.1625
2.0625 0.25 -0.1625
2.0625 0.1875 -0.1625
2.125 0.25 -0.1625
2.0625 0.1875 -0.1
2.125 0.1875 -0.1
2.0625 0.25 -0.1
2.125 0.1875 -0.1625
2.1875 0.25 -0.1625
2.1875 0.1875 -0.1625
2.25 0.25 -0.1625
2.1875 0.1875 -0.1
2.25 0.1875 -0.1
2.1875 0.25 -0.1
2.25 0.1875 -0.1625
2.3125 0.25 -0.1625
2.3125 0.1875 -0.1625
2.375 0.25 -0.1625
2.3125 0.1875 -0.1
2.375 0.1875 -0.1
2.3125 0.25 -0.1
2.375 0.1875 -0.1625
2.4375 0.25 -0.1625
2.4375 0.1875 -0.1625
2.5 0.25 -0.1625
2.4375 0.1875 -0.1
2.5 0.1875 -0.1
2.4375 0.25 -0.1
2.5 0.1875 -0.1625
2.5625 0.25 -0.1625
2.5625 0.1875 -0.1625
2.625 0.25 -0.1625
2.5625 0.1875 -0.1
2.625 0.1875 -0.1
2.5625 0.25 -0.1
2.625 0.1875 -0.1625
2.6875 0.25 -0.1625
2.6875 0.1875 -0.1625
2.75 0.25 -0.1625
2.6875 0.1875 -0.1
2.75 0.1875 -0.1
2.6875 0.25 -0.1
2.75 0.1875 -0.1625
2.8125 0.25 -0.1625
2.8125 0.1875 -0.1625
2.875 0.25 -0.1625
2.8125 0.1875 -0.1
2.875 0.1875 -0.1
2.8125 0.25 -0.1
2.875 0.1875 -0.1625
2.9375 0.25 -0.1625
2.9375 0.1875 -0.1625
3 0.25 -0.1625
2.9375 0.1875 -0.1
3 0.1875 -0.1
2.9375 0.25 -0.1
3 0.1875 -0.1625
3.0625 0.25 -0.1625
3.0625 0.1875 -0.1625
3.125 0.25 -0.1625
3.0625 0.1875 -0.1
3.125 0.1875 -0.1
3.0625 0.25 -0.1
3.125 0.1875 -0.1625
3.1875 0.25 -0.1625
3.1875 0.1875 -0.1625
3.25 0.25 -0.1625
3.1875 0.1875 -0.1
3.25 0.1875 -0.1
3.1875 0.25 -0.1
3.25 0.1875 -0.1625
3.3125 0.25 -0.1625
3.3125 0.1875 -0.1625
3.375 0.25 -0.1625
3.3125 0.1875 -0.1
3.375 0.1875 -0.1
3.3125 0.25 -0.1
3.375 0.1875 -0.1625
3.4375 0.25 -0.1625
3.4375 0.1875 -0.1625
3.5 0.25 -0.1625
3.4375 0.1875 -0.1
3.5 0.1875 -0.1
3.4375 0.25 -0.1
3.5 0.1875 -0.1625
3.5625 0.25 -0.1625
3.5625 0.1875 -0.1625
3.625 0.25 -0.1625
3.5625 0.1875 -0.1
3.625 0.1875 -0.1
3.5625 0.25 -0.1
3.625 0.1875 -0.1625
3.6875 0.25 -0.1625
3.6875 0.1875 -0.1625
3.75 0.25 -0.1625
3.6875 0.1875 -0.1
3.75 0.1875 -0.1
3.6875 0.25 -0.1
3.75 0.1875 -0.1625
3.8125 0.25 -0.1625
3.8125 0.1875 -0.1625
3.875 0.25 -0.1625
3.8125 0.1875 -0.1
3.875 0.1875 -0.1
3.8125 0.25 -0.1
3.875 0.1875 -0.1625
3.9375 0.25 -0.1625
3.9375 0.1875 -0.1625
4 0.25 -0.1625
3.9375 0.1875 -0.1
4 0.1875 -0.1
3.9375 0.25 -0.1
4 0.1875 -0.1625
0.0625 0.375 -0.1625
0.0625 0.3125 -0.1625
0.125 0.375 -0.1625
0.0625 0.3125 -0.1
0.125 0.3125 -0.1
0 0.375 -0.1625
0 0.3125 -0.1625
0.0625 0.375 -0.1
0 0.3125 -0.1
0.125 0.3125 -0.1625
0.1875 0.375 -0.1625
0.1875 0.3125 -0.1625
0.25 0.375 -0.1625
0.1875 0.3125 -0.1
0.25 0.3125 -0.1
0.1875 0.375 -0.1
0.25 0.3125 -0.1625
0.3125 0.375 -0.1625
0.3125 0.3125 -0.1625
0.375 0.375 -0.1625
0.3125 0.3125 -0.1
0.375 0.3125 -0.1
0.3125 0.375 -0.1
0.375 0.3125 -0.1625
0.4375 0.375 -0.1625
0.4375 0.3125 -0.1625
0.5 0.375 -0.1625
0.4375 0.3125 -0.1
0.5 0.3125 -0.1
0.4375 0.375 -0.1
0.5 0.3125 -0.1625
0.5625 0.375 -0.1625
0.5625 0.3125 -0.1625
0.625 0.375 -0.1625
0.5625 0.3125 -0.1
0.625 0.3125 -0.1
0.5625 0.375 -0.1
0.625 0.3125 -0.1625
0.6875 0.375 -0.1625
0.6875 0.3125 -0.1625
0.75 0.375 -0.1625
0.6875 0.3125 -0.1
0.75 0.3125 -0.1
0.6875 0.375 -0.1
0.75 0.3125 -0.1625
0.8125 0.375 -0.1625
0.8125 0.3125 -0.1625
0.875 0.375 -0.1625
0.8125 0.3125 -0.1
0.875 0.3125 -0.1
0.8125 0.375 -0.1
0.875 0.3125 -0.1625
0.9375 0.375 -0.1625
0.9375 0.3125 -0.1625
1 0.375 -0.1625
0.9375 0.3125 -0.1
1 0.3125 -0.1
0.9375 0.375 -0.1
1 0.3125 -0.1625
1.0625 0.375 -0.1625
1.0625 0.3125 -0.1625
1.125 0.375 -0.1625
1.0625 0.3125 -0.1
1.125 0.3125 -0.1
1.0625 0.375 -0.1
1.125 0.3125 -0.1625
1.1875 0.375 -0.1625
1.1875 0.3125 -0.1625
1.25 0.375 -0.1625
1.1875 0.3125 -0.1
1.25 0.3125 -0.1
1.1875 0.375 -0.1
1.25 0.3125 -0.1625
1.3125 0.375 -0.1625
1.3125 0.3125 -0.1625
1.375 0.375 -0.1625
1.3125 0.3125 -0.1
1.375 0.3125 -0.1
1.3125 0.375 -0.1
1.375 0.3125 -0.1625
1.4375 0.375 -0.1625
1.4375 0.3125 -0.1625
1.5 0.375 -0.1625
1.4375 0.3125 -0.1
1.5 0.3125 -0.1
1.4375 0.375 -0.1
1.5 0.3125 -0.1625
1.5625 0.375 -0.1625
1.5625 0.3125 -0.1625
1.625 0.375 -0.1625
1.5625 0.3125 -0.1
1.625 0.3125 -0.1
1.5625 0.375 -0.1
1.625 0.3125 -0.1625
1.6875 0.375 -0.1625
1.6875 0.3125 -0.1625
1.75 0.375 -0.1625
1.6875 0.3125 -0.1
1.75 0.3125 -0.1
1.6875 0.375 -0.1
1.75 0.3125 -0.1625
1.8125 0.375 -0.1625
1.8125 0.3125 -0.1625
1.875 0.375 -0.1625
1.8125 0.3125 -0.1
1.875 0.3125 -0.1
1.8125 0.375 -0.1
1.875 0.3125 -0.1625
1.9375 0.375 -0.1625
1.9375 0.3125 -0.1625
2 0.375 -0.1625
1.9375 0.3125 -0.1
2 0.3125 -0.1
1.9375 0.375 -0.1
2 0.3125 -0.1625
2.0625 0.375 -0.1625
2.0625 0.3125 -0.1625
2.125 0.375 -0.1625
2.0625 0.3125 -0.1
2.125 0.3125 -0.1
2.0625 0.375 -0.1
2.125 0.3125 -0.1625
2.1875 0.375 -0.1625
2.1875 0.3125 -0.1625
2.25 0.375 -0.1625
2.1875 0.3125 -0.1
2.25 0.3125 -0.1
2.1875 0.375 -0.1
2.25 0.3125 -0.1625
2.3125 0.375 -0.1625
2.3125 0.3125 -0.1625
2.375 0.375 -0.1625
2.3125 0.3125 -0.1
2.375 0.3125 -0.1
2.3125 0.375 -0.1
2.375 0.3125 -0.1625
2.4375 0.375 -0.1625
2.4375 0.3125 -0.1625
2.5 0.375 -0.1625
2.4375 0.3125 -0.1
2.5 0.3125 -0.1
2.4375 0.375 -0.1
2.5 0.3125 -0.1625
2.5625 0.375 -0.1625
2.5625 0.3125 -0.1625
2.625 0.375 -0.1625
2.5625 0.3125 -0.1
2.625 0.3125 -0.1
2.5625 0.375 -0.1
2.625 0.3125 -0.1625
2.6875 0.375 -0.1625
2.6875 0.3125 -0.1625
2.75 0.375 -0.1625
2.6875 0.3125 -0.1
2.75 0.3125 -0.1
2.6875 0.375 -0.1
2.75 0.3125 -0.1625
2.8125 0.375 -0.1625
2.8125 0.3125 -0.1625
2.875 0.375 -0.1625
2.8125 0.3125 -0.1
2.875 0.3125 -0.1
2.8125 0.375 -0.1
2.875 0.3125 -0.1625
2.9375 0.375 -0.1625
2.9375 0.3125 -0.1625
3 0.375 -0.1625
2.9375 0.3125 -0.1
3 0.3125 -0.1
2.9375 0.375 -0.1
3 0.3125 -0.1625
3.0625 0.375 -0.1625
3.0625 0.3125 -0.1625
3.125 0.375 -0.1625
3.0625 0.3125 -0.1
3.125 0.3125 -0.1
3.0625 0.375 -0.1
3.125 0.3125 -0.1625
3.1875 0.375 -0.1625
3.1875 0.3125 -0.1625
3.25 0.375 -0.1625
3.1875 0.3125 -0.1
3.25 0.3125 -0.1
3.1875 0.375 -0.1
3.25 0.3125 -0.1625
3.3125 0.375 -0.1625
3.3125 0.3125 -0.1625
3.375 0.375 -0.1625
3.3125 0.3125 -0.1
3.375 0.3125 -0.1
3.3125 0.375 -0.1
3.375 0.3125 -0.1625
3.4375 0.375 -0.1625
3.4375 0.3125 -0.1625
3.5 0.375 -0.1625
3.4375 0.3125 -0.1
3.5 0.3125 -0.1
3.4375 0.375 -0.1
3.5 0.3125 -0.1625
3.5625 0.375 -0.1625
3.5625 0.3125 -0.1625
3.625 0.375 -0.1625
3.5625 0.3125 -0.1
3.625 0.3125 -0.1
3.5625 0.375 -0.1
3.625 0.3125 -0.1625
3.6875 0.375 -0.1625
3.6875 0.3125 -0.1625
3.75 0.375 -0.1625
3.6875 0.3125 -0.1
3.75 0.3125 -0.1
3.6875 0.375 -0.1
3.75 0.3125 -0.1625
3.8125 0.375 -0.1625
3.8125 0.3125 -0.1625
3.875 0.375 -0.1625
3.8125 0.3125 -0.1
3.875 0.3125 -0.1
3.8125 0.375 -0.1
3.875 0.3125 -0.1625
3.9375 0.375 -0.1625
3.9375 0.3125 -0.1625
4 0.375 -0.1625
3.9375 0.3125 -0.1
4 0.3125 -0.1
3.9375 0.375 -0.1
4 0.3125 -0.1625
0.0625 0.5 -0.1625
0.0625 0.4375 -0.1625
0.125 0.5 -0.1625
0.0625 0.4375 -0.1
0.125 0.4375 -0.1
0 0.5 -0.1625
0 0.4375 -0.1625
0.0625 0.5 -0.1
0 0.4375 -0.1
0.125 0.4375 -0.1625
0.1875 0.5 -0.1625
0.1875 0.4375 -0.1625
0.25 0.5 -0.1625
0.1875 0.4375 -0.1
0.25 0.4375 -0.1
0.1875 0.5 -0.1
0.25 0.4375 -0.1625
0.3125 0.5 -0.1625
0.3125 0.4375 -0.1625
0.375 0.5 -0.1625
0.3125 0.4375 -0.1
0.375 0.4375 -0.1
0.3125 0.5 -0.1
0.375 0.4375 -0.1625
0.4375 0.5 -0.1625
0.4375 0.4375 -0.1625
0.5 0.5 -0.1625
0.4375 0.4375 -0.1
0.5 0.4375 -0.1
0.4375 0.5 -0.1
0.5 0.4375 -0.1625
0.5625 0.5 -0.1625
0.5625 0.4375 -0.1625
0.625 0.5 -0.1625
0.5625 0.4375 -0.1
0.625 0.4375 -0.1
0.5625 0.5 -0.1
0.625 0.4375 -0.1625
0.6875 0.5 -0.1625
0.6875 0.4375 -0.1625
0.75 0.5 -0.1625
0.6875 0.4375 -0.1
0.75 0.4375 -0.1
0.6875 0.5 -0.1
0.75 0.4375 -0.1625
0.8125 0.5 -0.1625
0.8125 0.4375 -0.1625
0.875 0.5 -0.1625
0.8125 0.4375 -0.1
0.875 0.4375 -0.1
0.8125 0.5 -0.1
0.875 0.4375 -0.1625
0.9375 0.5 -0.1625
0.9375 0.4375 -0.1625
1 0.5 -0.1625
0.9375 0.4375 -0.1
1 0.4375 -0.1
0.9375 0.5 -0.1
1 0.4375 -0.1625
1.0625 0.5 -0.1625
1.0625 0.4375 -0.1625
1.125 0.5 -0.1625
1.0625 0.4375 -0.1
1.125 0.4375 -0.1
1.0625 0.5 -0.1
1.125 0.4375 -0.1625
1.1875 0.5 -0.1625
1.1875 0.4375 -0.1625
1.25 0.5 -0.1625
1.1875 0.4375 -0.1
1.25 0.4375 -0.1
1.1875 0.5 -0.1
1.25 0.4375 -0.1625
1.3125 0.5 -0.1625
1.3125 0.4375 -0.1625
1.375 0.5 -0.1625
1.3125 0.4375 -0.1
1.375 0.4375 -0.1
1.3125 0.5 -0.1
1.375 0.4375 -0.1625
1.4375 0.5 -0.1625
1.4375 0.4375 -0.1625
1.5 0.5 -0.1625
1.4375 0.4375 -0.1
1.5 0.4375 -0.1
1.4375 0.5 -0.1
1.5 0.4375 -0.1625
1.5625 0.5 -0.1625
1.5625 0.4375 -0.1625
1.625 0.5 -0.1625
1.5625 0.4375 -0.1
1.625 0.4375 -0.1
1.5625 0.5 -0.1
1.625 0.4375 -0.1625
1.6875 0.5 -0.1625
1.6875 0.4375 -0.1625
1.75 0.5 -0.1625
1.6875 0.4375 -0.1
1.75 0.4375 -0.1
1.6875 0.5 -0.1
1.75 0.4375 -0.1625
1.8125 0.5 -0.1625
1.8125 0.4375 -0.1625
1.875 0.5 -0.1625
1.8125 0.4375 -0.1
1.875 0.4375 -0.1
1.8125 0.5 -0.1
1.875 0.4375 -0.1625
1.9375 0.5 -0.1625
1.9375 0.4375 -0.1625
2 0.5 -0.1625
1.9375 0.4375 -0.1
2 0.4375 -0.1
1.9375 0.5 -0.1
2 0.4375 -0.1625
2.0625 0.5 -0.1625
2.0625 0.4375 -0.1625
2.125 0.5 -0.1625
2.0625 0.4375 -0.1
2.125 0.4375 -0.1
2.0625 0.5 -0.1
2.125 0.4375 -0.1625
2.1875 0.5 -0.1625
2.1875 0.4375 -0.1625
2.25 0.5 -0.1625
2.1875 0.4375 -0.1
2.25 0.4375 -0.1
2.1875 0.5 -0.1
2.25 0.4375 -0.1625
2.3125 0.5 -0.1625
2.3125 0.4375 -0.1625
2.375 0.5 -0.1625
2.3125 0.4375 -0.1
2.375 0.4375 -0.1
2.3125 0.5 -0.1
2.375 0.4375 -0.1625
2.4375 0.5 -0.1625
2.4375 0.4375 -0.1625
2.5 0.5 -0.1625
2.4375 0.4375 -0.1
2.5 0.4375 -0.1
2.4375 0.5 -0.1
2.5 0.4375 -0.1625
2.5625 0.5 -0.1625
2.5625 0.4375 -0.1625
2.625 0.5 -0.1625
2.5625 0.4375 -0.1
2.625 0.4375 -0.1
2.5625 0.5 -0.1
2.625 0.4375 -0.1625
2.6875 0.5 -0.1625
2.6875 0.4375 -0.1625
2.75 0.5 -0.1625
2.6875 0.4375 -0.1
2.75 0.4375 -0.1
2.6875 0.5 -0.1
2.75 0.4375 -0.1625
2.8125 0.5 -0.1625
2.8125 0.4375 -0.1625
2.875 0.5 -0.1625
2.8125 0.4375 -0.1
2.875 0.4375 -0.1
2.8125 0.5 -0.1
2.875 0.4375 -0.1625
2.9375 0.5 -0.1625
2.9375 0.4375 -0.1625
3 0.5 -0.1625
2.9375 0.4375 -0.1
3 0.4375 -0.1
2.9375 0.5 -0.1
3 0.4375 -0.1625
3.0625 0.5 -0.1625
3.0625 0.4375 -0.1625
3.125 0.5 -0.1625
3.0625 0.4375 -0.1
3.125 0.4375 -0.1
3.0625 0.5 -0.1
3.125 0.4375 -0.1625
3.1875 0.5 -0.1625
3.1875 0.4375 -0.1625
3.25 0.5 -0.1625
3.1875 0.4375 -0.1
3.25 0.4375 -0.1
3.1875 0.5 -0.1
3.25 0.4375 -0.1625
3.3125 0.5 -0.1625
3.3125 0.4375 -0.1625
3.375 0.5 -0.1625
3.3125 0.4375 -0.1
3.375 0.4375 -0.1
3.3125 0.5 -0.1
3.375 0.4375 -0.1625
3.4375 0.5 -0.1625
3.4375 0.4375 -0.1625
3.5 0.5 -0.1625
3.4375 0.4375 -0.1
3.5 0.4375 -0.1
3.4375 0.5 -0.1
3.5 0.4375 -0.1625
3.5625 0.5 -0.1625
3.5625 0.4375 -0.1625
3.625 0.5 -0.1625
3.5625 0.4375 -0.1
3.625 0.4375 -0.1
3.5625 0.5 -0.1
3.625 0.4375 -0.1625
3.6875 0.5 -0.1625
3.6875 0.4375 -0.1625
3.75 0.5 -0.1625
3.6875 0.4375 -0.1
3.75 0.4375 -0.1
3.6875 0.5 -0.1
3.75 0.4375 -0.1625
3.8125 0.5 -0.1625
3.8125 0.4375 -0.1625
3.875 0.5 -0.1625
3.8125 0.4375 -0.1
3.875 0.4375 -0.1
3.8125 0.5 -0.1
3.875 0.4375 -0.1625
3.9375 0.5 -0.1625
3.9375 0.4375 -0.1625
4 0.5 -0.1625
3.9375 0.4375 -0.1
4 0.4375 -0.1
3.9375 0.5 -0.1
4 0.4375 -0.1625
0.0625 0.625 -0.1625
0.0625 0.5625 -0.1625
0.125 0.625 -0.1625
0.0625 0.5625 -0.1
0.125 0.5625 -0.1
0 0.625 -0.1625
0 0.5625 -0.1625
0.0625 0.625 -0.1
0 0.5625 -0.1
0.125 0.5625 -0.1625
0.1875 0.625 -0.1625
0.1875 0.5625 -0.1625
0.25 0.625 -0.1625
0.1875 0.5625 -0.1
0.25 0.5625 -0.1
0.1875 0.625 -0.1
0.25 0.5625 -0.1625
0.3125 0.625 -0.1625
0.3125 0.5625 -0.1625
0.375 0.625 -0.1625
0.3125 0.5625 -0.1
0.375 0.5625 -0.1
0.3125 0.625 -0.1
0.375 0.5625 -0.1625
0.4375 0.625 -0.1625
0.4375 0.5625 -0.1625
0.5 0.625 -0.1625
0.4375 0.5625 -0.1
0.5 0.5625 -0.1
0.4375 0.625 -0.1
0.5 0.5625 -0.1625
0.5625 0.625 -0.1625
0.5625 0.5625 -0.1625
0.625 0.625 -0.1625
0.5625 0.5625 -0.1
0.625 0.5625 -0.1
0.5625 0.625 -0.1
0.625 0.5625 -0.1625
0.6875 0.625 -0.1625
0.6875 0.5625 -0.1625
0.75 0.625 -0.1625
0.6875 0.5625 -0.1
0.75 0.5625 -0.1
0.6875 0.625 -0.1
0.75 0.5625 -0.1625
0.8125 0.625 -0.1625
0.8125 0.5625 -0.1625
0.875 0.625 -0.1625
0.8125 0.5625 -0.1
0.875 0.5625 -0.1
0.8125 0.625 -0.1
0.875 0.5625 -0.1625
0.9375 0.625 -0.1625
0.9375 0.5625 -0.1625
1 0.625 -0.1625
0.9375 0.5625 -0.1
1 0.5625 -0.1
0.9375 0.625 -0.1
1 0.5625 -0.1625
1.0625 0.625 -0.1625
1.0625 0.5625 -0.1625
1.125 0.625 -0.1625
1.0625 0.5625 -0.1
1.125 0.5625 -0.1
1.0625 0.625 -0.1
1.125 0.5625 -0.1625
1.1875 0.625 -0.1625
1.1875 0.5625 -0.1625
1.25 0.625 -0.1625
1.1875 0.5625 -0.1
1.25 0.5625 -0.1
1.1875 0.625 -0.1
1.25 0.5625 -0.1625
1.3125 0.625 -0.1625
1.3125 0.5625 -0.1625
1.375 0.625 -0.1625
1.3125 0.5625 -0.1
1.375 0.5625 -0.1
1.3125 0.625 -0.1
1.375 0.5625 -0.1625
1.4375 0.625 -0.1625
1.4375 0.5625 -0.1625
1.5 0.625 -0.1625
1.4375 0.5625 -0.1
1.5 0.5625 -0.1
1.4375 0.625 -0.1
1.5 0.5625 -0.1625
1.5625 0.625 -0.1625
1.5625 0.5625 -0.1625
1.625 0.625 -0.1625
1.5625 0.5625 -0.1
1.625 0.5625 -0.1
1.5625 0.625 -0.1
1.625 0.5625 -0.1625
1.6875 0.625 -0.1625
1.6875 0.5625 -0.1625
1.75 0.625 -0.1625
1.6875 0.5625 -0.1
1.75 0.5625 -0.1
1.6875 0.625 -0.1
1.75 0.5625 -0.1625
1.8125 0.625 -0.1625
1.8125 0.5625 -0.1625
1.875 0.625 -0.1625
1.8125 0.5625 -0.1
1.875 0.5625 -0.1
1.8125 0.625 -0.1
1.875 0.5625 -0.1625
1.9375 0.625 -0.1625
1.9375 0.5625 -0.1625
2 0.625 -0.1625
1.9375 0.5625 -0.1
2 0.5625 -0.1
1.9375 0.625 -0.1
2 0.5625 -0.1625
2.0625 0.625 -0.1625
2.0625 0.5625 -0.1625
2.125 0.625 -0.1625
2.0625 0.5625 -0.1
2.125 0.5625 -0.1
2.0625 0.625 -0.1
2.125 0.5625 -0.1625
2.1875 0.625 -0.1625
2.1875 0.5625 -0.1625
2.25 0.625 -0.1625
2.1875 0.5625 -0.1
2.25 0.5625 -0.1
2.1875 0.625 -0.1
2.25 0.5625 -0.1625
2.3125 0.625 -0.1625
2.3125 0.5625 -0.1625
2.375 0.625 -0.1625
2.3125 0.5625 -0.1
2.375 0.5625 -0.1
2.3125 0.625 -0.1
2.375 0.5625 -0.1625
2.4375 0.625 -0.1625
2.4375 0.5625 -0.1625
2.5 0.625 -0.1625
2.4375 0.5625 -0.1
2.5 0.5625 -0.1
2.4375 0.625 -0.1
2.5 0.5625 -0.1625
2.5625 0.625 -0.1625
2.5625 0.5625 -0.1625
2.625 0.625 -0.1625
2.5625 0.5625 -0.1
2.625 0.5625 -0.1
2.5625 0.625 -0.1
2.625 0.5625 -0.1625
2.6875 0.625 -0.1625
2.6875 0.5625 -0.1625
2.75 0.625 -0.1625
2.6875 0.5625 -0.1
2.75 0.5625 -0.1
2.6875 0.625 -0.1
2.75 0.5625 -0.1625
2.8125 0.625 -0.1625
2.8125 0.5625 -0.1625
2.875 0.625 -0.1625
2.8125 0.5625 -0.1
2.875 0.5625 -0.1
2.8125 0.625 -0.1
2.875 0.5625 -0.1625
2.9375 0.625 -0.1625
2.9375 0.5625 -0.1625
3 0.625 -0.1625
2.9375 0.5625 -0.1
3 0.5625 -0.1
2.9375 0.625 -0.1
3 0.5625 -0.1625
3.0625 0.625 -0.1625
3.0625 0.5625 -0.1625
3.125 0.625 -0.1625
3.0625 0.5625 -0.1
3.125 0.5625 -0.1
3.0625 0.625 -0.1
3.125 0.5625 -0.1625
3.1875 0.625 -0.1625
3.1875 0.5625 -0.1625
3.25 0.625 -0.1625
3.1875 0.5625 -0.1
3.25 0.5625 -0.1
3.1875 0.625 -0.1
3.25 0.5625 -0.1625
3.3125 0.625 -0.1625
3.3125 0.5625 -0.1625
3.375 0.625 -0.1625
3.3125 0.5625 -0.1
3.375 0.5625 -0.1
3.3125 0.625 -0.1
3.375 0.5625 -0.1625
3.4375 0.625 -0.1625
3.4375 0.5625 -0.1625
3.5 0.625 -0.1625
3.4375 0.5625 -0.1
3.5 0.5625 -0.1
3.4375 0.625 -0.1
3.5 0.5625 -0.1625
3.5625 0.625 -0.1625
3.5625 0.5625 -0.1625
3.625 0.625 -0.1625
3.5625 0.5625 -0.1
3.625 0.5625 -0.1
3.5625 0.625 -0.1
3.625 0.5625 -0.1625
3.6875 0.625 -0.1625
3.6875 0.5625 -0.1625
3.75 0.625 -0.1625
3.6875 0.5625 -0.1
3.75 0.5625 -0.1
3.6875 0.625 -0.1
3.75 0.5625 -0.1625
3.8125 0.625 -0.1625
3.8125 0.5625 -0.1625
3.875 0.625 -0.1625
3.8125 0.5625 -0.1
3.875 0.5625 -0.1
3.8125 0.625 -0.1
3.875 0.5625 -0.1625
3.9375 0.625 -0.1625
3.9375 0.5625 -0.1625
4 0.625 -0.1625
3.9375 0.5625 -0.1
4 0.5625 -0.1
3.9375 0.625 -0.1
4 0.5625 -0.1625
0.0625 0.75 -0.1625
0.0625 0.6875 -0.1625
0.125 0.75 -0.1625
0.0625 0.6875 -0.1
0.125 0.6875 -0.1
0 0.75 -0.1625
0 0.6875 -0.1625
0.0625 0.75 -0.1
0 0.6875 -0.1
0.125 0.6875 -0.1625
0.1875 0.75 -0.1625
0.1875 0.6875 -0.1625
0.25 0.75 -0.1625
0.1875 0.6875 -0.1
0.25 0.6875 -0.1
0.1875 0.75 -0.1
0.25 0.6875 -0.1625
0.3125 0.75 -0.1625
0.3125 0.6875 -0.1625
0.375 0.75 -0.1625
0.3125 0.6875 -0.1
0.375 0.6875 -0.1
0.3125 0.75 -0.1
0.375 0.6875 -0.1625
0.4375 0.75 -0.1625
0.4375 0.6875 -0.1625
0.5 0.75 -0.1625
0.4375 0.6875 -0.1
0.5 0.6875 -0.1
0.4375 0.75 -0.1
0.5 0.6875 -0.1625
0.5625 0.75 -0.1625
0.5625 0.6875 -0.1625
0.625 0.75 -0.1625
0.5625 0.6875 -0.1
0.625 0.6875 -0.1
0.5625 0.75 -0.1
0.625 0.6875 -0.1625
0.6875 0.75 -0.1625
0.6875 0.6875 -0.1625
0.75 0.75 -0.1625
0.6875 0.6875 -0.1
0.75 0.6875 -0.1
0.6875 0.75 -0.1
0.75 0.6875 -0.1625
0.8125 0.75 -0.1625
0.8125 0.6875 -0.1625
0.875 0.75 -0.1625
0.8125 0.6875 -0.1
0.875 0.6875 -0.1
0.8125 0.75 -0.1
0.875 0.6875 -0.1625
0.9375 0.75 -0.1625
0.9375 0.6875 -0.1625
1 0.75 -0.1625
0.9375 0.6875 -0.1
1 0.6875 -0.1
0.9375 0.75 -0.1
1 0.6875 -0.1625
1.0625 0.75 -0.1625
1.0625 0.6875 -0.1625
1.125 0.75 -0.1625
1.0625 0.6875 -0.1
1.125 0.6875 -0.1
1.0625 0.75 -0.1
1.125 0.6875 -0.1625
1.1875 0.75 -0.1625
1.1875 0.6875 -0.1625
1.25 0.75 -0.1625
1.1875 0.6875 -0.1
1.25 0.6875 -0.1
1.1875 0.75 -0.1
1.25 0.6875 -0.1625
1.3125 0.75 -0.1625
1.3125 0.6875 -0.1625
1.375 0.75 -0.1625
1.3125 0.6875 -0.1
1.375 0.6875 -0.1
1.3125 0.75 -0.1
1.375 0.6875 -0.1625
1.4375 0.75 -0.1625
1.4375 0.6875 -0.1625
1.5 0.75 -0.1625
1.4375 0.6875 -0.1
1.5 0.6875 -0.1
1.4375 0.75 -0.1
1.5 0.6875 -0.1625
1.5625 0.75 -0.1625
1.5625 0.6875 -0.1625
1.625 0.75 -0.1625
1.5625 0.6875 -0.1
1.625 0.6875 -0.1
1.5625 0.75 -0.1
1.625 0.6875 -0.1625
1.6875 0.75 -0.1625
1.6875 0.6875 -0.1625
1.75 0.75 -0.1625
1.6875 0.6875 -0.1
1.75 0.6875 -0.1
1.6875 0.75 -0.1
1.75 0.6875 -0.1625
1.8125 0.75 -0.1625
1.8125 0.6875 -0.1625
1.875 0.75 -0.1625
1.8125 0.6875 -0.1
1.875 0.6875 -0.1
1.8125 0.75 -0.1
1.875 0.6875 -0.1625
1.9375 0.75 -0.1625
1.9375 0.6875 -0.1625
2 0.75 -0.1625
1.9375 0.6875 -0.1
2 0.6875 -0.1
1.9375 0.75 -0.1
2 0.6875 -0.1625
2.0625 0.75 -0.1625
2.0625 0.6875 -0.1625
2.125 0.75 -0.1625
2.0625 0.6875 -0.1
2.125 0.6875 -0.1
2.0625 0.75 -0.1
2.125 0.6875 -0.1625
2.1875 0.75 -0.1625
2.1875 0.6875 -0.1625
2.25 0.75 -0.1625
2.1875 0.6875 -0.1
2.25 0.6875 -0.1
2.1875 0.75 -0.1
2.25 0.6875 -0.1625
2.3125 0.75 -0.1625
2.3125 0.6875 -0.1625
2.375 0.75 -0.1625
2.3125 0.6875 -0.1
2.375 0.6875 -0.1
2.3125 0.75 -0.1
2.375 0.6875 -0.1625
2.4375 0.75 -0.1625
2.4375 0.6875 -0.1625
2.5 0.75 -0.1625
2.4375 0.6875 -0.1
2.5 0.6875 -0.1
2.4375 0.75 -0.1
2.5 0.6875 -0.1625
2.5625 0.75 -0.1625
2.5625 0.6875 -0.1625
2.625 0.75 -0.1625
2.5625 0.6875 -0.1
2.625 0.6875 -0.1
2.5625 0.75 -0.1
2.625 0.6875 -0.1625
2.6875 0.75 -0.1625
2.6875 0.6875 -0.1625
2.75 0.75 -0.1625
2.6875 0.6875 -0.1
2.75 0.6875 -0.1
2.6875 0.75 -0.1
2.75 0.6875 -0.1625
2.8125 0.75 -0.1625
2.8125 0.6875 -0.1625
2.875 0.75 -0.1625
2.8125 0.6875 -0.1
2.875 0.6875 -0.1
2.8125 0.75 -0.1
2.875 0.6875 -0.1625
2.9375 0.75 -0.1625
2.9375 0.6875 -0.1625
3 0.75 -0.1625
2.9375 0.6875 -0.1
3 0.6875 -0.1
2.9375 0.75 -0.1
3 0.6875 -0.1625
3.0625 0.75 -0.1625
3.0625 0.6875 -0.1625
3.125 0.75 -0.1625
3.0625 0.6875 -0.1
3.125 0.6875 -0.1
3.0625 0.75 -0.1
3.125 0.6875 -0.1625
3.1875 0.75 -0.1625
3.1875 0.6875 -0.1625
3.25 0.75 -0.1625
3.1875 0.6875 -0.1
3.25 0.6875 -0.1
3.1875 0.75 -0.1
3.25 0.6875 -0.1625
3.3125 0.75 -0.1625
3.3125 0.6875 -0.1625
3.375 0.75 -0.1625
3.3125 0.6875 -0.1
3.375 0.6875 -0.1
3.3125 0.75 -0.1
3.375 0.6875 -0.1625
3.4375 0.75 -0.1625
3.4375 0.6875 -0.1625
3.5 0.75 -0.1625
3.4375 0.6875 -0.1
3.5 0.6875 -0.1
3.4375 0.75 -0.1
3.5 0.6875 -0.1625
3.5625 0.75 -0.1625
3.5625 0.6875 -0.1625
3.625 0.75 -0.1625
3.5625 0.6875 -0.1
3.625 0.6875 -0.1
3.5625 0.75 -0.1
3.625 0.6875 -0.1625
3.6875 0.75 -0.1625
3.6875 0.6875 -0.1625
3.75 0.75 -0.1625
3.6875 0.6875 -0.1
3.75 0.6875 -0.1
3.6875 0.75 -0.1
3.75 0.6875 -0.1625
3.8125 0.75 -0.1625
3.8125 0.6875 -0.1625
3.875 0.75 -0.1625
3.8125 0.6875 -0.1
3.875 0.6875 -0.1
3.8125 0.75 -0.1
3.875 0.6875 -0.1625
3.9375 0.75 -0.1625
3.9375 0.6875 -0.1625
4 0.75 -0.1625
3.9375 0.6875 -0.1
4 0.6875 -0.1
3.9375 0.75 -0.1
4 0.6875 -0.1625
0.0625 0.875 -0.1625
0.0625 0.8125 -0.1625
0.125 0.875 -0.1625
0.0625 0.8125 -0.1
0.125 0.8125 -0.1
0 0.875 -0.1625
0 0.8125 -0.1625
0.0625 0.875 -0.1
0 0.8125 -0.1
0.125 0.8125 -0.1625
0.1875 0.875 -0.1625
0.1875 0.8125 -0.1625
0.25 0.875 -0.1625
0.1875 0.8125 -0.1
0.25 0.8125 -0.1
0.1875 0.875 -0.1
0.25 0.8125 -0.1625
0.3125 0.875 -0.1625
0.3125 0.8125 -0.1625
0.375 0.875 -0.1625
0.3125 0.8125 -0.1
0.375 0.8125 -0.1
0.3125 0.875 -0.1
0.375 0.8125 -0.1625
0.4375 0.875 -0.1625
0.4375 0.8125 -0.1625
0.5 0.875 -0.1625
0.4375 0.8125 -0.1
0.5 0.8125 -0.1
0.4375 0.875 -0.1
0.5 0.8125 -0.1625
0.5625 0.875 -0.1625
0.5625 0.8125 -0.1625
0.625 0.875 -0.1625
0.5625 0.8125 -0.1
0.625 0.8125 -0.1
0.5625 0.875 -0.1
0.625 0.8125 -0.1625
0.6875 0.875 -0.1625
0.6875 0.8125 -0.1625
0.75 0.875 -0.1625
0.6875 0.8125 -0.1
0.75 0.8125 -0.1
0.6875 0.875 -0.1
0.75 0.8125 -0.1625
0.8125 0.875 -0.1625
0.8125 0.8125 -0.1625
0.875 0.875 -0.1625
0.8125 0.8125 -0.1
0.875 0.8125 -0.1
0.8125 0.875 -0.1
0.875 0.8125 -0.1625
0.9375 0.875 -0.1625
0.9375 0.8125 -0.1625
1 0.875 -0.1625
0.9375 0.8125 -0.1
1 0.8125 -0.1
0.9375 0.875 -0.1
1 0.8125 -0.1625
1.0625 0.875 -0.1625
1.0625 0.8125 -0.1625
1.125 0.875 -0.1625
1.0625 0.8125 -0.1
1.125 0.8125 -0.1
1.0625 0.875 -0.1
1.125 0.8125 -0.1625
1.1875 0.875 -0.1625
1.1875 0.8125 -0.1625
1.25 0.875 -0.1625
1.1875 0.8125 -0.1
1.25 0.8125 -0.1
1.1875 0.875 -0.1
1.25 0.8125 -0.1625
1.3125 0.875 -0.1625
1.3125 0.8125 -0.1625
1.375 0.875 -0.1625
1.3125 0.8125 -0.1
1.375 0.8125 -0.1
1.3125 0.875 -0.1
1.375 0.8125 -0.1625
1.4375 0.875 -0.1625
1.4375 0.8125 -0.1625
1.5 0.875 -0.1625
1.4375 0.8125 -0.1
1.5 0.8125 -0.1
1.4375 0.875 -0.1
1.5 0.8125 -0.1625
1.5625 0.875 -0.1625
1.5625 0.8125 -0.1625
1.625 0.875 -0.1625
1.5625 0.8125 -0.1
1.625 0.8125 -0.1
1.5625 0.875 -0.1
1.625 0.8125 -0.1625
1.6875 0.875 -0.1625
1.6875 0.8125 -0.1625
1.75 0.875 -0.1625
1.6875 0.8125 -0.1
1.75 0.8125 -0.1
1.6875 0.875 -0.1
1.75 0.8125 -0.1625
1.8125 0.875 -0.1625
1.8125 0.8125 -0.1625
1.875 0.875 -0.1625
1.8125 0.8125 -0.1
1.875 0.8125 -0.1
1.8125 0.875 -0.1
1.875 0.8125 -0.1625
1.9375 0.875 -0.1625
1.9375 0.8125 -0.1625
2 0.875 -0.1625
1.9375 0.8125 -0.1
2 0.8125 -0.1
1.9375 0.875 -0.1
2 0.8125 -0.1625
2.0625 0.875 -0.1625
2.0625 0.8125 -0.1625
2.125 0.875 -0.1625
2.0625 0.8125 -0.1
2.125 0.8125 -0.1
2.0625 0.875 -0.1
2.125 0.8125 -0.1625
2.1875 0.875 -0.1625
2.1875 0.8125 -0.1625
2.25 0.875 -0.1625
2.1875 0.8125 -0.1
2.25 0.8125 -0.1
2.1875 0.875 -0.1
2.25 0.8125 -0.1625
2.3125 0.875 -0.1625
2.3125 0.8125 -0.1625
2.375 0.875 -0.1625
2.3125 0.8125 -0.1
2.375 0.8125 -0.1
2.3125 0.875 -0.1
2.375 0.8125 -0.1625
2.4375 0.875 -0.1625
2.4375 0.8125 -0.1625
2.5 0.875 -0.1625
2.4375 0.8125 -0.1
2.5 0.8125 -0.1
2.4375 0.875 -0.1
2.5 0.8125 -0.1625
2.5625 0.875 -0.1625
2.5625 0.8125 -0.1625
2.625 0.875 -0.1625
2.5625 0.8125 -0.1
2.625 0.8125 -0.1
2.5625 0.875 -0.1
2.625 0.8125 -0.1625
2.6875 0.875 -0.1625
2.6875 0.8125 -0.1625
2.75 0.875 -0.1625
2.6875 0.8125 -0.1
2.75 0.8125 -0.1
2.6875 0.875 -0.1
2.75 0.8125 -0.1625
2.8125 0.875 -0.1625
2.8125 0.8125 -0.1625
2.875 0.875 -0.1625
2.8125 0.8125 -0.1
2.875 0.8125 -0.1
2.8125 0.875 -0.1
2.875 0.8125 -0.1625
2.9375 0.875 -0.1625
2.9375 0.8125 -0.1625
3 0.875 -0.1625
2.9375 0.8125 -0.1
3 0.8125 -0.1
2.9375 0.875 -0.1
3 0.8125 -0.1625
3.0625 0.875 -0.1625
3.0625 0.8125 -0.1625
3.125 0.875 -0.1625
3.0625 0.8125 -0.1
3.125 0.8125 -0.1
3.0625 0.875 -0.1
3.125 0.8125 -0.1625
3.1875 0.875 -0.1625
3.1875 0.8125 -0.1625
3.25 0.875 -0.1625
3.1875 0.8125 -0.1
3.25 0.8125 -0.1
3.1875 0.875 -0.1
3.25 0.8125 -0.1625
3.3125 0.875 -0.1625
3.3125 0.8125 -0.1625
3.375 0.875 -0.1625
3.3125 0.8125 -0.1
3.375 0.8125 -0.1
3.3125 0.875 -0.1
3.375 0.8125 -0.1625
3.4375 0.875 -0.1625
3.4375 0.8125 -0.1625
3.5 0.875 -0.1625
3.4375 0.8125 -0.1
3.5 0.8125 -0.1
3.4375 0.875 -0.1
3.5 0.8125 -0.1625
3.5625 0.875 -0.1625
3.5625 0.8125 -0.1625
3.625 0.875 -0.1625
3.5625 0.8125 -0.1
3.625 0.8125 -0.1
3.5625 0.875 -0.1
3.625 0.8125 -0.1625
3.6875 0.875 -0.1625
3.6875 0.8125 -0.1625
3.75 0.875 -0.1625
3.6875 0.8125 -0.1
3.75 0.8125 -0.1
3.6875 0.875 -0.1
3.75 0.8125 -0.1625
3.8125 0.875 -0.1625
3.8125 0.8125 -0.1625
3.875 0.875 -0.1625
3.8125 0.8125 -0.1
3.875 0.8125 -0.1
3.8125 0.875 -0.1
3.875 0.8125 -0.1625
3.9375 0.875 -0.1625
3.9375 0.8125 -0.1625
4 0.875 -0.1625
3.9375 0.8125 -0.1
4 0.8125 -0.1
3.9375 0.875 -0.1
4 0.8125 -0.1625
0.0625 1 -0.1625
0.0625 0.9375 -0.1625
0.125 1 -0.1625
0.0625 0.9375 -0.1
0.125 0.9375 -0.1
0 1 -0.1625
0 0.9375 -0.1625
0.0625 1 -0.1
0 0.9375 -0.1
0.125 0.9375 -0.1625
0.1875 1 -0.1625
0.1875 0.9375 -0.1625
0.25 1 -0.1625
0.1875 0.9375 -0.1
0.25 0.9375 -0.1
0.1875 1 -0.1
0.25 0.9375 -0.1625
0.3125 1 -0.1625
0.3125 0.9375 -0.1625
0.375 1 -0.1625
0.3125 0.9375 -0.1
0.375 0.9375 -0.1
0.3125 1 -0.1
0.375 0.9375 -0.1625
0.4375 1 -0.1625
0.4375 0.9375 -0.1625
0.5 1 -0.1625
0.4375 0.9375 -0.1
0.5 0.9375 -0.1
0.4375 1 -0.1
0.5 0.9375 -0.1625
0.5625 1 -0.1625
0.5625 0.9375 -0.1625
0.625 1 -0.1625
0.5625 0.9375 -0.1
0.625 0.9375 -0.1
0.5625 1 -0.1
0.625 0.9375 -0.1625
0.6875 1 -0.1625
0.6875 0.9375 -0.1625
0.75 1 -0.1625
0.6875 0.9375 -0.1
0.75 0.9375 -0.1
0.6875 1 -0.1
0.75 0.9375 -0.1625
0.8125 1 -0.1625
0.8125 0.9375 -0.1625
0.875 1 -0.1625
0.8125 0.9375 -0.1
0.875 0.9375 -0.1
0.8125 1 -0.1
0.875 0.9375 -0.1625
0.9375 1 -0.1625
0.9375 0.9375 -0.1625
1 1 -0.1625
0.9375 0.9375 -0.1
1 0.9375 -0.1
0.9375 1 -0.1
1 0.9375 -0.1625
1.0625 1 -0.1625
1.0625 0.9375 -0.1625
1.125 1 -0.1625
1.0625 0.9375 -0.1
1.125 0.9375 -0.1
1.0625 1 -0.1
1.125 0.9375 -0.1625
1.1875 1 -0.1625
1.1875 0.9375 -0.1625
1.25 1 -0.1625
1.1875 0.9375 -0.1
1.25 0.9375 -0.1
1.1875 1 -0.1
1.25 0.9375 -0.1625
1.3125 1 -0.1625
1.3125 0.9375 -0.1625
1.375 1 -0.1625
1.3125 0.9375 -0.1
1.375 0.9375 -0.1
1.3125 1 -0.1
1.375 0.9375 -0.1625
1.4375 1 -0.1625
1.4375 0.9375 -0.1625
1.5 1 -0.1625
1.4375 0.9375 -0.1
1.5 0.9375 -0.1
1.4375 1 -0.1
1.5 0.9375 -0.1625
1.5625 1 -0.1625
1.5625 0.9375 -0.1625
1.625 1 -0.1625
1.5625 0.9375 -0.1
1.625 0.9375 -0.1
1.5625 1 -0.1
1.625 0.9375 -0.1625
1.6875 1 -0.1625
1.6875 0.9375 -0.1625
1.75 1 -0.1625
1.6875 0.9375 -0.1
1.75 0.9375 -0.1
1.6875 1 -0.1
1.75 0.9375 -0.1625
1.8125 1 -0.1625
1.8125 0.9375 -0.1625
1.875 1 -0.1625
1.8125 0.9375 -0.1
1.875 0.9375 -0.1
1.8125 1 -0.1
1.875 0.9375 -0.1625
1.9375 1 -0.1625
1.9375 0.9375 -0.1625
2 1 -0.1625
1.9375 0.9375 -0.1
2 0.9375 -0.1
1.9375 1 -0.1
2 0.9375 -0.1625
2.0625 1 -0.1625
2.0625 0.9375 -0.1625
2.125 1 -0.1625
2.0625 0.9375 -0.1
2.125 0.9375 -0.1
2.0625 1 -0.1
2.125 0.9375 -0.1625
2.1875 1 -0.1625
2.1875 0.9375 -0.1625
2.25 1 -0.1625
2.1875 0.9375 -0.1
2.25 0.9375 -0.1
2.1875 1 -0.1
2.25 0.9375 -0.1625
2.3125 1 -0.1625
2.3125 0.9375 -0.1625
2.375 1 -0.1625
2.3125 0.9375 -0.1
2.375 0.9375 -0.1
2.3125 1 -0.1
2.375 0.9375 -0.1625
2.4375 1 -0.1625
2.4375 0.9375 -0.1625
2.5 1 -0.1625
2.4375 0.9375 -0.1
2.5 0.9375 -0.1
2.4375 1 -0.1
2.5 0.9375 -0.1625
2.5625 1 -0.1625
2.5625 0.9375 -0.1625
2.625 1 -0.1625
2.5625 0.9375 -0.1
2.625 0.9375 -0.1
2.5625 1 -0.1
2.625 0.9375 -0.1625
2.6875 1 -0.1625
2.6875 0.9375 -0.1625
2.75 1 -0.1625
2.6875 0.9375 -0.1
2.75 0.9375 -0.1
2.6875 1 -0.1
2.75 0.9375 -0.1625
2.8125 1 -0.1625
2.8125 0.9375 -0.1625
2.875 1 -0.1625
2.8125 0.9375 -0.1
2.875 0.9375 -0.1
2.8125 1 -0.1
2.875 0.9375 -0.1625
2.9375 1 -0.1625
2.9375 0.9375 -0.1625
3 1 -0.1625
2.9375 0.9375 -0.1
3 0.9375 -0.1
2.9375 1 -0.1
3 0.9375 -0.1625
3.0625 1 -0.1625
3.0625 0.9375 -0.1625
3.125 1 -0.1625
3.0625 0.9375 -0.1
3.125 0.9375 -0.1
3.0625 1 -0.1
3.125 0.9375 -0.1625
3.1875 1 -0.1625
3.1875 0.9375 -0.1625
3.25 1 -0.1625
3.1875 0.9375 -0.1
3.25 0.9375 -0.1
3.1875 1 -0.1
3.25 0.9375 -0.1625
3.3125 1 -0.1625
3.3125 0.9375 -0.1625
3.375 1 -0.1625
3.3125 0.9375 -0.1
3.375 0.9375 -0.1
3.3125 1 -0.1
3.375 0.9375 -0.1625
3.4375 1 -0.1625
3.4375 0.9375 -0.1625
3.5 1 -0.1625
3.4375 0.9375 -0.1
3.5 0.9375 -0.1
3.4375 1 -0.1
3.5 0.9375 -0.1625
3.5625 1 -0.1625
3.5625 0.9375 -0.1625
3.625 1 -0.1625
3.5625 0.9375 -0.1
3.625 0.9375 -0.1
3.5625 1 -0.1
3.625 0.9375 -0.1625
3.6875 1 -0.1625
3.6875 0.9375 -0.1625
3.75 1 -0.1625
3.6875 0.9375 -0.1
3.75 0.9375 -0.1
3.6875 1 -0.1
3.75 0.9375 -0.1625
3.8125 1 -0.1625
3.8125 0.9375 -0.1625
3.875 1 -0.1625
3.8125 0.9375 -0.1
3.875 0.9375 -0.1
3.8125 1 -0.1
3.875 0.9375 -0.1625
3.9375 1 -0.1625
3.9375 0.9375 -0.1625
4 1 -0.1625
3.9375 0.9375 -0.1
4 0.9375 -0.1
3.9375 1 -0.1
4 0.9375 -0.1625

CELLS 12289 122880
OFFSETS vtktypeint64
0 10 20 30 40 50 60 70 80 90 100 110 120 130 140 150 160 170 180 190 200 210 220 230 240 250 260 270 280 290 300 310 320 330 340 350 360 370 380 390 400 410 420 430 440 450 460 470 480 490 500 510 520 530 540 550 560 570 580 590 600 610 620 630 640 650 660 670 680 690 700 710 720 730 740 750 760 770 780 790 800 810 820 830 840 850 860 870 880 890 900 910 920 930 940 950 960 970 980 990 1000 1010 1020 1030 1040 1050 1060 1070 1080 1090 1100 1110 1120 1130 1140 1150 1160 1170 1180 1190 1200 1210 1220 1230 1240 1250 1260 1270 1280 1290 1300 1310 1320 1330 1340 1350 1360 1370 1380 1390 1400 1410 1420 1430 1440 1450 1460 1470 1480 1490 1500 1510 1520 1530 1540 1550 1560 1570 1580 1590 1600 1610 1620 1630 1640 1650 1660 1670 1680 1690 1700 1710 1720 1730 1740 1750 1760 1770 1780 1790 1800 1810 1820 1830 1840 1850 1860 1870 1880 1890 1900 1910 1920 1930 1940 1950 1960 1970 1980 1990 2000 2010 2020 2030 2040 2050 2060 2070 2080 2090 2100 2110 2120 2130 2140 2150 2160 2170 2180 2190 2200 2210 2220 2230 2240 2250 2260 2270 2280 2290 2300 2310 2320 2330 2340 2350 2360 2370 2380 2390 2400 2410 2420 2430 2440 2450 2460 2470 2480 2490 2500 2510 2520 2530 2540 2550 2560 2570 2580 2590 2600 2610 2620 2630 2640 2650 2660 2670 2680 2690 2700 2710 2720 2730 2740 2750 2760 2770 2780 2790 2800 2810 2820 2830 2840 2850 2860 2870 2880 2890 2900 2910 2920 2930 2940 2950 2960 2970 2980 2990 3000 3010 3020 3030 3040 3050 3060 3070 3080 3090 3100 3110 3120 3130 3140 3150 3160 3170 3180 3190 3200 3210 3220 3230 3240 3250 3260 3270 3280 3290 3300 3310 3320 3330 3340 3350 3360 3370 3380 3390 3400 3410 3420 3430 3440 3450 3460 3470 3480 3490 3500 3510 3520 3530 3540 3550 3560 3570 3580 3590 3600 3610 3620 3630 3640 3650 3660 3670 3680 3690 3700 3710 3720 3730 3740 3750 3760 3770 3780 3790 3800 3810 3820 3830 3840 3850 3860 3870 3880 3890 3900 3910 3920 3930 3940 3950 3960 3970 3980 3990 4000 4010 4020 4030 4040 4050 4060 4070 4080 4090 4100 4110 4120 4130 4140 4150 4160 4170 4180 4190 4200 4210 4220 4230 4240 4250 4260 4270 4280 4290 4300 4310 4320 4330 4340 4350 4360 4370 4380 4390 4400 4410 4420 4430 4440 4450 4460 4470 4480 4490 4500 4510 4520 4530 4540 4550 4560 4570 4580 4590 4600 4610 4620 4630 4640 4650 4660 4670 4680 4690 4700 4710 4720 4730 4740 4750 4760 4770 4780 4790 4800 4810 4820 4830 4840 4850 4860 4870 4880 4890 4900 4910 4920 4930 4940 4950 4960 4970 4980 4990 5000 5010 5020 5030 5040 5050 5060 5070 5080 5090 5100 5110 5120 5130 5140 5150 5160 5170 5180 5190 5200 5210 5220 5230 5240 5250 5260 5270 5280 5290 5300 5310 5320 5330 5340 5350 5360 5370 5380 5390 5400 5410 5420 5430 5440 5450 5460 5470 5480 5490 5500 5510 5520 5530 5540 5550 5560 5570 5580 5590 5600 5610 5620 5630 5640 5650 5660 5670 5680 5690 5700 5710 5720 5730 5740 5750 5760 5770 5780 5790 5800 5810 5820 5830 5840 5850 5860 5870 5880 5890 5900 5910 5920 5930 5940 5950 5960 5970 5980 5990 6000 6010 6020 6030 6040 6050 6060 6070 6080 6090 6100 6110 6120 6130 6140 6150 6160 6170 6180 6190 6200 6210 6220 6230 6240 6250 6260 6270 6280 6290 6300 6310 6320 6330 6340 6350 6360 6370 6380 6390 6400 6410 6420 6430 6440 6450 6460 6470 6480 6490 6500 6510 6520 6530 6540 6550 6560 6570 6580 6590 6600 6610 6620 6630 6640 6650 6660 6670 6680 6690 6700 6710 6720 6730 6740 6750 6760 6770 6780 6790 6800 6810 6820 6830 6840 6850 6860 6870 6880 6890 6900 6910 6920 6930 6940 6950 6960 6970 6980 6990 7000 7010 7020 7030 7040 7050 7060 7070 7080 7090 7100 7110 7120 7130 7140 7150 7160 7170 7180 7190 7200 7210 7220 7230 7240 7250 7260 7270 7280 7290 7300 7310 7320 7330 7340 7350 7360 7370 7380 7390 7400 7410 7420 7430 7440 7450 7460 7470 7480 7490 7500 7510 7520 7530 7540 7550 7560 7570 7580 7590 7600 7610 7620 7630 7640 7650 7660 7670 7680 7690 7700 7710 7720 7730 7740 7750 7760 7770 7780 7790 7800 7810 7820 7830 7840 7850 7860 7870 7880 7890 7900 7910 7920 7930 7940 7950 7960 7970 7980 7990 8000 8010 8020 8030 8040 8050 8060 8070 8080 8090 8100 8110 8120 8130 8140 8150 8160 8170 8180 8190 8200 8210 8220 8230 8240 8250 8260 8270 8280 8290 8300 8310 8320 8330 8340 8350 8360 8370 8380 8390 8400 8410 8420 8430 8440 8450 8460 8470 8480 8490 8500 8510 8520 8530 8540 8550 8560 8570 8580 8590 8600 8610 8620 8630 8640 8650 8660 8670 8680 8690 8700 8710 8720 8730 8740 8750 8760 8770 8780 8790 8800 8810 8820 8830 8840 8850 8860 8870 8880 8890 8900 8910 8920 8930 8940 8950 8960 8970 8980 8990 9000 9010 9020 9030 9040 9050 9060 9070 9080 9090 9100 9110 9120 9130 9140 9150 9160 9170 9180 9190 9200 9210 9220 9230 9240 9250 9260 9270 9280 9290 9300 9310 9320 9330 9340 9350 9360 9370 9380 9390 9400 9410 9420 9430 9440 9450 9460 9470 9480 9490 9500 9510 9520 9530 9540 9550 9560 9570 9580 9590 9600 9610 9620 9630 9640 9650 9660 9670 9680 9690 9700 9710 9720 9730 9740 9750 9760 9770 9780 9790 9800 9810 9820 9830 9840 9850 9860 9870 9880 9890 9900 9910 9920 9930 9940 9950 9960 9970 9980 9990 10000 10010 10020 10030 10040 10050 10060 10070 10080 10090 10100 10110 10120 10130 10140 10150 10160 10170 10180 10190 10200 10210 10220 10230 10240 10250 10260 10270 10280 10290 10300 10310 10320 10330 10340 10350 10360 10370 10380 10390 10400 10410 10420 10430 10440 10450 10460 10470 10480 10490 10500 10510 10520 10530 10540 10550 10560 10570 10580 10590 10600 10610 10620 10630 10640 10650 10660 10670 10680 10690 10700 10710 10720 10730 10740 10750 10760 10770 10780 10790 10800 10810 10820 10830 10840 10850 10860 10870 10880 10890 10900 10910 10920 10930 10940 10950 10960 10970 10980 10990 11000 11010 11020 11030 11040 11050 11060 11070 11080 11090 11100 11110 11120 11130 11140 11150 11160 11170 11180 11190 11200 11210 11220 11230 11240 11250 11260 11270 11280 11290 11300 11310 11320 11330 11340 11350 11360 11370 11380 11390 11400 11410 11420 11430 11440 11450 11460 11470 11480 11490 11500 11510 11520 11530 11540 11550 11560 11570 11580 11590 11600 11610 11620 11630 11640 11650 11660 11670 11680 11690 11700 11710 11720 11730 11740 11750 11760 11770 11780 11790 11800 11810 11820 11830 11840 11850 11860 11870 11880 11890 11900 11910 11920 11930 11940 11950 11960 11970 11980 11990 12000 12010 12020 12030 12040 12050 12060 12070 12080 12090 12100 12110 12120 12130 12140 12150 12160 12170 12180 12190 12200 12210 12220 12230 12240 12250 12260 12270 12280 12290 12300 12310 12320 12330 12340 12350 12360 12370 12380 12390 12400 12410 12420 12430 12440 12450 12460 12470 12480 12490 12500 12510 12520 12530 12540 12550 12560 12570 12580 12590 12600 12610 12620 12630 12640 12650 12660 12670 12680 12690 12700 12710 12720 12730 12740 12750 12760 12770 12780 12790 12800 12810 12820 12830 12840 12850 12860 12870 12880 12890 12900 12910 12920 12930 12940 12950 12960 12970 12980 12990 13000 13010 13020 13030 13040 13050 13060 13070 13080 13090 13100 13110 13120 13130 13140 13150 13160 13170 13180 13190 13200 13210 13220 13230 13240 13250 13260 13270 13280 13290 13300 13310 13320 13330 13340 13350 13360 13370 13380 13390 13400 13410 13420 13430 13440 13450 13460 13470 13480 13490 13500 13510 13520 13530 13540 13550 13560 13570 13580 13590 13600 13610 13620 13630 13640 13650 13660 13670 13680 13690 13700 13710 13720 13730 13740 13750 13760 13770 13780 13790 13800 13810 13820 13830 13840 13850 13860 13870 13880 13890 13900 13910 13920 13930 13940 13950 13960 13970 13980 13990 14000 14010 14020 14030 14040 14050 14060 14070 14080 14090 14100 14110 14120 14130 14140 14150 14160 14170 14180 14190 14200 14210 14220 14230 14240 14250 14260 14270 14280 14290 14300 14310 14320 14330 14340 14350 14360 14370 14380 14390 14400 14410 14420 14430 14440 14450 14460 14470 14480 14490 14500 14510 14520 14530 14540 14550 14560 14570 14580 14590 14600 14610 14620 14630 14640 14650 14660 14670 14680 14690 14700 14710 14720 14730 14740 14750 14760 14770 14780 14790 14800 14810 14820 14830 14840 14850 14860 14870 14880 14890 14900 14910 14920 14930 14940 14950 14960 14970 14980 14990 15000 15010 15020 15030 15040 15050 15060 15070 15080 15090 15100 15110 15120 15130 15140 15150 15160 15170 15180 15190 15200 15210 15220 15230 15240 15250 15260 15270 15280 15290 15300 15310 15320 15330 15340 15350 15360 15370 15380 15390 15400 15410 15420 15430 15440 15450 15460 15470 15480 15490 15500 15510 15520 15530 15540 15550 15560 15570 15580 15590 15600 15610 15620 15630 15640 15650 15660 15670 15680 15690 15700 15710 15720 15730 15740 15750 15760 15770 15780 15790 15800 15810 15820 15830 15840 15850 15860 15870 15880 15890 15900 15910 15920 15930 15940 15950 15960 15970 15980 15990 16000 16010 16020 16030 16040 16050 16060 16070 16080 16090 16100 16110 16120 16130 16140 16150 16160 16170 16180 16190 16200 16210 16220 16230 16240 16250 16260 16270 16280 16290 16300 16310 16320 16330 16340 16350 16360 16370 16380 16390 16400 16410 16420 16430 16440 16450 16460 16470 16480 16490 16500 16510 16520 16530 16540 16550 16560 16570 16580 16590 16600 16610 16620 16630 16640 16650 16660 16670 16680 16690 16700 16710 16720 16730 16740 16750 16760 16770 16780 16790 16800 16810 16820 16830 16840 16850 16860 16870 16880 16890 16900 16910 16920 16930 16940 16950 16960 16970 16980 16990 17000 17010 17020 17030 17040 17050 17060 17070 17080 17090 17100 17110 17120 17130 17140 17150 17160 17170 17180 17190 17200 17210 17220 17230 17240 17250 17260 17270 17280 17290 17300 17310 17320 17330 17340 17350 17360 17370 17380 17390 17400 17410 17420 17430 17440 17450 17460 17470 17480 17490 17500 17510 17520 17530 17540 17550 17560 17570 17580 17590 17600 17610 17620 17630 17640 17650 17660 17670 17680 17690 17700 17710 17720 17730 17740 17750 17760 17770 17780 17790 17800 17810 17820 17830 17840 17850 17860 17870 17880 17890 17900 17910 17920 17930 17940 17950 17960 17970 17980 17990 18000 18010 18020 18030 18040 18050 18060 18070 18080 18090 18100 18110 18120 18130 18140 18150 18160 18170 18180 18190 18200 18210 18220 18230 18240 18250 18260 18270 18280 18290 18300 18310 18320 18330 18340 18350 18360 18370 18380 18390 18400 18410 18420 18430 18440 18450 18460 18470 18480 18490 18500 18510 18520 18530 18540 18550 18560 18570 18580 18590 18600 18610 18620 18630 18640 18650 18660 18670 18680 18690 18700 18710 18720 18730 18740 18750 18760 18770 18780 18790 18800 18810 18820 18830 18840 18850 18860 18870 18880 18890 18900 18910 18920 18930 18940 18950 18960 18970 18980 18990 19000 19010 19020 19030 19040 19050 19060 19070 19080 19090 19100 19110 19120 19130 19140 19150 19160 19170 19180 19190 19200 19210 19220 19230 19240 19250 19260 19270 19280 19290 19300 19310 19320 19330 19340 19350 19360 19370 19380 19390 19400 19410 19420 19430 19440 19450 19460 19470 19480 19490 19500 19510 19520 19530 19540 19550 19560 19570 19580 19590 19600 19610 19620 19630 19640 19650 19660 19670 19680 19690 19700 19710 19720 19730 19740 19750 19760 19770 19780 19790 19800 19810 19820 19830 19840 19850 19860 19870 19880 19890 19900 19910 19920 19930 19940 19950 19960 19970 19980 19990 20000 20010 20020 20030 20040 20050 20060 20070 20080 20090 20100 20110 20120 20130 20140 20150 20160 20170 20180 20190 20200 20210 20220 20230 20240 20250 20260 20270 20280 20290 20300 20310 20320 20330 20340 20350 20360 20370 20380 20390 20400 20410 20420 20430 20440 20450 20460 20470 20480 20490 20500 20510 20520 20530 20540 20550 20560 20570 20580 20590 20600 20610 20620 20630 20640 20650 20660 20670 20680 20690 20700 20710 20720 20730 20740 20750 20760 20770 20780 20790 20800 20810 20820 20830 20840 20850 20860 20870 20880 20890 20900 20910 20920 20930 20940 20950 20960 20970 20980 20990 21000 21010 21020 21030 21040 21050 21060 21070 21080 21090 21100 21110 21120 21130 21140 21150 21160 21170 21180 21190 21200 21210 21220 21230 21240 21250 21260 21270 21280 21290 21300 21310 21320 21330 21340 21350 21360 21370 21380 21390 21400 21410 21420 21430 21440 21450 21460 21470 21480 21490 21500 21510 21520 21530 21540 21550 21560 21570 21580 21590 21600 21610 21620 21630 21640 21650 21660 21670 21680 21690 21700 21710 21720 21730 21740 21750 21760 21770 21780 21790 21800 21810 21820 21830 21840 21850 21860 21870 21880 21890 21900 21910 21920 21930 21940 21950 21960 21970 21980 21990 22000 22010 22020 22030 22040 22050 22060 22070 22080 22090 22100 22110 22120 22130 22140 22150 22160 22170 22180 22190 22200 22210 22220 22230 22240 22250 22260 22270 22280 22290 22300 22310 22320 22330 22340 22350 22360 22370 22380 22390 22400 22410 22420 22430 22440 22450 22460 22470 22480 22490 22500 22510 22520 22530 22540 22550 22560 22570 22580 22590 22600 22610 22620 22630 22640 22650 22660 22670 22680 22690 22700 22710 22720 22730 22740 22750 22760 22770 22780 22790 22800 22810 22820 22830 22840 22850 22860 22870 22880 22890 22900 22910 22920 22930 22940 22950 22960 22970 22980 22990 23000 23010 23020 23030 23040 23050 23060 23070 23080 23090 23100 23110 23120 23130 23140 23150 23160 23170 23180 23190 23200 23210 23220 23230 23240 23250 23260 23270 23280 23290 23300 23310 23320 23330 23340 23350 23360 23370 23380 23390 23400 23410 23420 23430 23440 23450 23460 23470 23480 23490 23500 23510 23520 23530 23540 23550 23560 23570 23580 23590 23600 23610 23620 23630 23640 23650 23660 23670 23680 23690 23700 23710 23720 23730 23740 23750 23760 23770 23780 23790 23800 23810 23820 23830 23840 23850 23860 23870 23880 23890 23900 23910 23920 23930 23940 23950 23960 23970 23980 23990 24000 24010 24020 24030 24040 24050 24060 24070 24080 24090 24100 24110 24120 24130 24140 24150 24160 24170 24180 24190 24200 24210 24220 24230 24240 24250 24260 24270 24280 24290 24300 24310 24320 24330 24340 24350 24360 24370 24380 24390 24400 24410 24420 24430 24440 24450 24460 24470 24480 24490 24500 24510 24520 24530 24540 24550 24560 24570 24580 24590 24600 24610 24620 24630 24640 24650 24660 24670 24680 24690 24700 24710 24720 24730 24740 24750 24760 24770 24780 24790 24800 24810 24820 24830 24840 24850 24860 24870 24880 24890 24900 24910 24920 24930 24940 24950 24960 24970 24980 24990 25000 25010 25020 25030 25040 25050 25060 25070 25080 25090 25100 25110 25120 25130 25140 25150 25160 25170 25180 25190 25200 25210 25220 25230 25240 25250 25260 25270 25280 25290 25300 25310 25320 25330 25340 25350 25360 25370 25380 25390 25400 25410 25420 25430 25440 25450 25460 25470 25480 25490 25500 25510 25520 25530 25540 25550 25560 25570 25580 25590 25600 25610 25620 25630 25640 25650 25660 25670 25680 25690 25700 25710 25720 25730 25740 25750 25760 25770 25780 25790 25800 25810 25820 25830 25840 25850 25860 25870 25880 25890 25900 25910 25920 25930 25940 25950 25960 25970 25980 25990 26000 26010 26020 26030 26040 26050 26060 26070 26080 26090 26100 26110 26120 26130 26140 26150 26160 26170 26180 26190 26200 26210 26220 26230 26240 26250 26260 26270 26280 26290 26300 26310 26320 26330 26340 26350 26360 26370 26380 26390 26400 26410 26420 26430 26440 26450 26460 26470 26480 26490 26500 26510 26520 26530 26540 26550 26560 26570 26580 26590 26600 26610 26620 26630 26640 26650 26660 26670 26680 26690 26700 26710 26720 26730 26740 26750 26760 26770 26780 26790 26800 26810 26820 26830 26840 26850 26860 26870 26880 26890 26900 26910 26920 26930 26940 26950 26960 26970 26980 26990 27000 27010 27020 27030 27040 27050 27060 27070 27080 27090 27100 27110 27120 27130 27140 27150 27160 27170 27180 27190 27200 27210 27220 27230 27240 27250 27260 27270 27280 27290 27300 27310 27320 27330 27340 27350 27360 27370 27380 27390 27400 27410 27420 27430 27440 27450 27460 27470 27480 27490 27500 27510 27520 27530 27540 27550 27560 27570 27580 27590 27600 27610 27620 27630 27640 27650 27660 27670 27680 27690 27700 27710 27720 27730 27740 27750 27760 27770 27780 27790 27800 27810 27820 27830 27840 27850 27860 27870 27880 27890 27900 27910 27920 27930 27940 27950 27960 27970 27980 27990 28000 28010 28020 28030 28040 28050 28060 28070 28080 28090 28100 28110 28120 28130 28140 28150 28160 28170 28180 28190 28200 28210 28220 28230 28240 28250 28260 28270 28280 28290 28300 28310 28320 28330 28340 28350 28360 28370 28380 28390 28400 28410 28420 28430 28440 28450 28460 28470 28480 28490 28500 28510 28520 28530 28540 28550 28560 28570 28580 28590 28600 28610 28620 28630 28640 28650 28660 28670 28680 28690 28700 28710 28720 28730 28740 28750 28760 28770 28780 28790 28800 28810 28820 28830 28840 28850 28860 28870 28880 28890 28900 28910 28920 28930 28940 28950 28960 28970 28980 28990 29000 29010 29020 29030 29040 29050 29060 29070 29080 29090 29100 29110 29120 29130 29140 29150 29160 29170 29180 29190 29200 29210 29220 29230 29240 29250 29260 29270 29280 29290 29300 29310 29320 29330 29340 29350 29360 29370 29380 29390 29400 29410 29420 29430 29440 29450 29460 29470 29480 29490 29500 29510 29520 29530 29540 29550 29560 29570 29580 29590 29600 29610 29620 29630 29640 29650 29660 29670 29680 29690 29700 29710 29720 29730 29740 29750 29760 29770 29780 29790 29800 29810 29820 29830 29840 29850 29860 29870 29880 29890 29900 29910 29920 29930 29940 29950 29960 29970 29980 29990 30000 30010 30020 30030 30040 30050 30060 30070 30080 30090 30100 30110 30120 30130 30140 30150 30160 30170 30180 30190 30200 30210 30220 30230 30240 30250 30260 30270 30280 30290 30300 30310 30320 30330 30340 30350 30360 30370 30380 30390 30400 30410 30420 30430 30440 30450 30460 30470 30480 30490 30500 30510 30520 30530 30540 30550 30560 30570 30580 30590 30600 30610 30620 30630 30640 30650 30660 30670 30680 30690 30700 30710 30720 30730 30740 30750 30760 30770 30780 30790 30800 30810 30820 30830 30840 30850 30860 30870 30880 30890 30900 30910 30920 30930 30940 30950 30960 30970 30980 30990 31000 31010 31020 31030 31040 31050 31060 31070 31080 31090 31100 31110 31120 31130 31140 31150 31160 31170 31180 31190 31200 31210 31220 31230 31240 31250 31260 31270 31280 31290 31300 31310 31320 31330 31340 31350 31360 31370 31380 31390 31400 31410 31420 31430 31440 31450 31460 31470 31480 31490 31500 31510 31520 31530 31540 31550 31560 31570 31580 31590 31600 31610 31620 31630 31640 31650 31660 31670 31680 31690 31700 31710 31720 31730 31740 31750 31760 31770 31780 31790 31800 31810 31820 31830 31840 31850 31860 31870 31880 31890 31900 31910 31920 31930 31940 31950 31960 31970 31980 31990 32000 32010 32020 32030 32040 32050 32060 32070 32080 32090 32100 32110 32120 32130 32140 32150 32160 32170 32180 32190 32200 32210 32220 32230 32240 32250 32260 32270 32280 32290 32300 32310 32320 32330 32340 32350 32360 32370 32380 32390 32400 32410 32420 32430 32440 32450 32460 32470 32480 32490 32500 32510 32520 32530 32540 32550 32560 32570 32580 32590 32600 32610 32620 32630 32640 32650 32660 32670 32680 32690 32700 32710 32720 32730 32740 32750 32760 32770 32780 32790 32800 32810 32820 32830 32840 32850 32860 32870 32880 32890 32900 32910 32920 32930 32940 32950 32960 32970 32980 32990 33000 33010 33020 33030 33040 33050 33060 33070 33080 33090 33100 33110 33120 33130 33140 33150 33160 33170 33180 33190 33200 33210 33220 33230 33240 33250 33260 33270 33280 33290 33300 33310 33320 33330 33340 33350 33360 33370 33380 33390 33400 33410 33420 33430 33440 33450 33460 33470 33480 33490 33500 33510 33520 33530 33540 33550 33560 33570 33580 33590 33600 33610 33620 33630 33640 33650 33660 33670 33680 33690 33700 33710 33720 33730 33740 33750 33760 33770 33780 33790 33800 33810 33820 33830 33840 33850 33860 33870 33880 33890 33900 33910 33920 33930 33940 33950 33960 33970 33980 33990 34000 34010 34020 34030 34040 34050 34060 34070 34080 34090 34100 34110 34120 34130 34140 34150 34160 34170 34180 34190 34200 34210 34220 34230 34240 34250 34260 34270 34280 34290 34300 34310 34320 34330 34340 34350 34360 34370 34380 34390 34400 34410 34420 34430 34440 34450 34460 34470 34480 34490 34500 34510 34520 34530 34540 34550 34560 34570 34580 34590 34600 34610 34620 34630 34640 34650 34660 34670 34680 34690 34700 34710 34720 34730 34740 34750 34760 34770 34780 34790 34800 34810 34820 34830 34840 34850 34860 34870 34880 34890 34900 34910 34920 34930 34940 34950 34960 34970 34980 34990 35000 35010 35020 35030 35040 35050 35060 35070 35080 35090 35100 35110 35120 35130 35140 35150 35160 35170 35180 35190 35200 35210 35220 35230 35240 35250 35260 35270 35280 35290 35300 35310 35320 35330 35340 35350 35360 35370 35380 35390 35400 35410 35420 35430 35440 35450 35460 35470 35480 35490 35500 35510 35520 35530 35540 35550 35560 35570 35580 35590 35600 35610 35620 35630 35640 35650 35660 35670 35680 35690 35700 35710 35720 35730 35740 35750 35760 35770 35780 35790 35800 35810 35820 35830 35840 35850 35860 35870 35880 35890 35900 35910 35920 35930 35940 35950 35960 35970 35980 35990 36000 36010 36020 36030 36040 36050 36060 36070 36080 36090 36100 36110 36120 36130 36140 36150 36160 36170 36180 36190 36200 36210 36220 36230 36240 36250 36260 36270 36280 36290 36300 36310 36320 36330 36340 36350 36360 36370 36380 36390 36400 36410 36420 36430 36440 36450 36460 36470 36480 36490 36500 36510 36520 36530 36540 36550 36560 36570 36580 36590 36600 36610 36620 36630 36640 36650 36660 36670 36680 36690 36700 36710 36720 36730 36740 36750 36760 36770 36780 36790 36800 36810 36820 36830 36840 36850 36860 36870 36880 36890 36900 36910 36920 36930 36940 36950 36960 36970 36980 36990 37000 37010 37020 37030 37040 37050 37060 37070 37080 37090 37100 37110 37120 37130 37140 37150 37160 37170 37180 37190 37200 37210 37220 37230 37240 37250 37260 37270 37280 37290 37300 37310 37320 37330 37340 37350 37360 37370 37380 37390 37400 37410 37420 37430 37440 37450 37460 37470 37480 37490 37500 37510 37520 37530 37540 37550 37560 37570 37580 37590 37600 37610 37620 37630 37640 37650 37660 37670 37680 37690 37700 37710 37720 37730 37740 37750 37760 37770 37780 37790 37800 37810 37820 37830 37840 37850 37860 37870 37880 37890 37900 37910 37920 37930 37940 37950 37960 37970 37980 37990 38000 38010 38020 38030 38040 38050 38060 38070 38080 38090 38100 38110 38120 38130 38140 38150 38160 38170 38180 38190 38200 38210 38220 38230 38240 38250 38260 38270 38280 38290 38300 38310 38320 38330 38340 38350 38360 38370 38380 38390 38400 38410 38420 38430 38440 38450 38460 38470 38480 38490 38500 38510 38520 38530 38540 38550 38560 38570 38580 38590 38600 38610 38620 38630 38640 38650 38660 38670 38680 38690 38700 38710 38720 38730 38740 38750 38760 38770 38780 38790 38800 38810 38820 38830 38840 38850 38860 38870 38880 38890 38900 38910 38920 38930 38940 38950 38960 38970 38980 38990 39000 39010 39020 39030 39040 39050 39060 39070 39080 39090 39100 39110 39120 39130 39140 39150 39160 39170 39180 39190 39200 39210 39220 39230 39240 39250 39260 39270 39280 39290 39300 39310 39320 39330 39340 39350 39360 39370 39380 39390 39400 39410 39420 39430 39440 39450 39460 39470 39480 39490 39500 39510 39520 39530 39540 39550 39560 39570 39580 39590 39600 39610 39620 39630 39640 39650 39660 39670 39680 39690 39700 39710 39720 39730 39740 39750 39760 39770 39780 39790 39800 39810 39820 39830 39840 39850 39860 39870 39880 39890 39900 39910 39920 39930 39940 39950 39960 39970 39980 39990 40000 40010 40020 40030 40040 40050 40060 40070 40080 40090 40100 40110 40120 40130 40140 40150 40160 40170 40180 40190 40200 40210 40220 40230 40240 40250 40260 40270 40280 40290 40300 40310 40320 40330 40340 40350 40360 40370 40380 40390 40400 40410 40420 40430 40440 40450 40460 40470 40480 40490 40500 40510 40520 40530 40540 40550 40560 40570 40580 40590 40600 40610 40620 40630 40640 40650 40660 40670 40680 40690 40700 40710 40720 40730 40740 40750 40760 40770 40780 40790 40800 40810 40820 40830 40840 40850 40860 40870 40880 40890 40900 40910 40920 40930 40940 40950 40960 40970 40980 40990 41000 41010 41020 41030 41040 41050 41060 41070 41080 41090 41100 41110 41120 41130 41140 41150 41160 41170 41180 41190 41200 41210 41220 41230 41240 41250 41260 41270 41280 41290 41300 41310 41320 41330 41340 41350 41360 41370 41380 41390 41400 41410 41420 41430 41440 41450 41460 41470 41480 41490 41500 41510 41520 41530 41540 41550 41560 41570 41580 41590 41600 41610 41620 41630 41640 41650 41660 41670 41680 41690 41700 41710 41720 41730 41740 41750 41760 41770 41780 41790 41800 41810 41820 41830 41840 41850 41860 41870 41880 41890 41900 41910 41920 41930 41940 41950 41960 41970 41980 41990 42000 42010 42020 42030 42040 42050 42060 42070 42080 42090 42100 42110 42120 42130 42140 42150 42160 42170 42180 42190 42200 42210 42220 42230 42240 42250 42260 42270 42280 42290 42300 42310 42320 42330 42340 42350 42360 42370 42380 42390 42400 42410 42420 42430 42440 42450 42460 42470 42480 42490 42500 42510 42520 42530 42540 42550 42560 42570 42580 42590 42600 42610 42620 42630 42640 42650 42660 42670 42680 42690 42700 42710 42720 42730 42740 42750 42760 42770 42780 42790 42800 42810 42820 42830 42840 42850 42860 42870 42880 42890 42900 42910 42920 42930 42940 42950 42960 42970 42980 42990 43000 43010 43020 43030 43040 43050 43060 43070 43080 43090 43100 43110 43120 43130 43140 43150 43160 43170 43180 43190 43200 43210 43220 43230 43240 43250 43260 43270 43280 43290 43300 43310 43320 43330 43340 43350 43360 43370 43380 43390 43400 43410 43420 43430 43440 43450 43460 43470 43480 43490 43500 43510 43520 43530 43540 43550 43560 43570 43580 43590 43600 43610 43620 43630 43640 43650 43660 43670 43680 43690 43700 43710 43720 43730 43740 43750 43760 43770 43780 43790 43800 43810 43820 43830 43840 43850 43860 43870 43880 43890 43900 43910 43920 43930 43940 43950 43960 43970 43980 43990 44000 44010 44020 44030 44040 44050 44060 44070 44080 44090 44100 44110 44120 44130 44140 44150 44160 44170 44180 44190 44200 44210 44220 44230 44240 44250 44260 44270 44280 44290 44300 44310 44320 44330 44340 44350 44360 44370 44380 44390 44400 44410 44420 44430 44440 44450 44460 44470 44480 44490 44500 44510 44520 44530 44540 44550 44560 44570 44580 44590 44600 44610 44620 44630 44640 44650 44660 44670 44680 44690 44700 44710 44720 44730 44740 44750 44760 44770 44780 44790 44800 44810 44820 44830 44840 44850 44860 44870 44880 44890 44900 44910 44920 44930 44940 44950 44960 44970 44980 44990 45000 45010 45020 45030 45040 45050 45060 45070 45080 45090 45100 45110 45120 45130 45140 45150 45160 45170 45180 45190 45200 45210 45220 45230 45240 45250 45260 45270 45280 45290 45300 45310 45320 45330 45340 45350 45360 45370 45380 45390 45400 45410 45420 45430 45440 45450 45460 45470 45480 45490 45500 45510 45520 45530 45540 45550 45560 45570 45580 45590 45600 45610 45620 45630 45640 45650 45660 45670 45680 45690 45700 45710 45720 45730 45740 45750 45760 45770 45780 45790 45800 45810 45820 45830 45840 45850 45860 45870 45880 45890 45900 45910 45920 45930 45940 45950 45960 45970 45980 45990 46000 46010 46020 46030 46040 46050 46060 46070 46080 46090 46100 46110 46120 46130 46140 46150 46160 46170 46180 46190 46200 46210 46220 46230 46240 46250 46260 46270 46280 46290 46300 46310 46320 46330 46340 46350 46360 46370 46380 46390 46400 46410 46420 46430 46440 46450 46460 46470 46480 46490 46500 46510 46520 46530 46540 46550 46560 46570 46580 46590 46600 46610 46620 46630 46640 46650 46660 46670 46680 46690 46700 46710 46720 46730 46740 46750 46760 46770 46780 46790 46800 46810 46820 46830 46840 46850 46860 46870 46880 46890 46900 46910 46920 46930 46940 46950 46960 46970 46980 46990 47000 47010 47020 47030 47040 47050 47060 47070 47080 47090 47100 47110 47120 47130 47140 47150 47160 47170 47180 47190 47200 47210 47220 47230 47240 47250 47260 47270 47280 47290 47300 47310 47320 47330 47340 47350 47360 47370 47380 47390 47400 47410 47420 47430 47440 47450 47460 47470 47480 47490 47500 47510 47520 47530 47540 47550 47560 47570 47580 47590 47600 47610 47620 47630 47640 47650 47660 47670 47680 47690 47700 47710 47720 47730 47740 47750 47760 47770 47780 47790 47800 47810 47820 47830 47840 47850 47860 47870 47880 47890 47900 47910 47920 47930 47940 47950 47960 47970 47980 47990 48000 48010 48020 48030 48040 48050 48060 48070 48080 48090 48100 48110 48120 48130 48140 48150 48160 48170 48180 48190 48200 48210 48220 48230 48240 48250 48260 48270 48280 48290 48300 48310 48320 48330 48340 48350 48360 48370 48380 48390 48400 48410 48420 48430 48440 48450 48460 48470 48480 48490 48500 48510 48520 48530 48540 48550 48560 48570 48580 48590 48600 48610 48620 48630 48640 48650 48660 48670 48680 48690 48700 48710 48720 48730 48740 48750 48760 48770 48780 48790 48800 48810 48820 48830 48840 48850 48860 48870 48880 48890 48900 48910 48920 48930 48940 48950 48960 48970 48980 48990 49000 49010 49020 49030 49040 49050 49060 49070 49080 49090 49100 49110 49120 49130 49140 49150 49160 49170 49180 49190 49200 49210 49220 49230 49240 49250 49260 49270 49280 49290 49300 49310 49320 49330 49340 49350 49360 49370 49380 49390 49400 49410 49420 49430 49440 49450 49460 49470 49480 49490 49500 49510 49520 49530 49540 49550 49560 49570 49580 49590 49600 49610 49620 49630 49640 49650 49660 49670 49680 49690 49700 49710 49720 49730 49740 49750 49760 49770 49780 49790 49800 49810 49820 49830 49840 49850 49860 49870 49880 49890 49900 49910 49920 49930 49940 49950 49960 49970 49980 49990 50000 50010 50020 50030 50040 50050 50060 50070 50080 50090 50100 50110 50120 50130 50140 50150 50160 50170 50180 50190 50200 50210 50220 50230 50240 50250 50260 50270 50280 50290 50300 50310 50320 50330 50340 50350 50360 50370 50380 50390 50400 50410 50420 50430 50440 50450 50460 50470 50480 50490 50500 50510 50520 50530 50540 50550 50560 50570 50580 50590 50600 50610 50620 50630 50640 50650 50660 50670 50680 50690 50700 50710 50720 50730 50740 50750 50760 50770 50780 50790 50800 50810 50820 50830 50840 50850 50860 50870 50880 50890 50900 50910 50920 50930 50940 50950 50960 50970 50980 50990 51000 51010 51020 51030 51040 51050 51060 51070 51080 51090 51100 51110 51120 51130 51140 51150 51160 51170 51180 51190 51200 51210 51220 51230 51240 51250 51260 51270 51280 51290 51300 51310 51320 51330 51340 51350 51360 51370 51380 51390 51400 51410 51420 51430 51440 51450 51460 51470 51480 51490 51500 51510 51520 51530 51540 51550 51560 51570 51580 51590 51600 51610 51620 51630 51640 51650 51660 51670 51680 51690 51700 51710 51720 51730 51740 51750 51760 51770 51780 51790 51800 51810 51820 51830 51840 51850 51860 51870 51880 51890 51900 51910 51920 51930 51940 51950 51960 51970 51980 51990 52000 52010 52020 52030 52040 52050 52060 52070 52080 52090 52100 52110 52120 52130 52140 52150 52160 52170 52180 52190 52200 52210 52220 52230 52240 52250 52260 52270 52280 52290 52300 52310 52320 52330 52340 52350 52360 52370 52380 52390 52400 52410 52420 52430 52440 52450 52460 52470 52480 52490 52500 52510 52520 52530 52540 52550 52560 52570 52580 52590 52600 52610 52620 52630 52640 52650 52660 52670 52680 52690 52700 52710 52720 52730 52740 52750 52760 52770 52780 52790 52800 52810 52820 52830 52840 52850 52860 52870 52880 52890 52900 52910 52920 52930 52940 52950 52960 52970 52980 52990 53000 53010 53020 53030 53040 53050 53060 53070 53080 53090 53100 53110 53120 53130 53140 53150 53160 53170 53180 53190 53200 53210 53220 53230 53240 53250 53260 53270 53280 53290 53300 53310 53320 53330 53340 53350 53360 53370 53380 53390 53400 53410 53420 53430 53440 53450 53460 53470 53480 53490 53500 53510 53520 53530 53540 53550 53560 53570 53580 53590 53600 53610 53620 53630 53640 53650 53660 53670 53680 53690 53700 53710 53720 53730 53740 53750 53760 53770 53780 53790 53800 53810 53820 53830 53840 53850 53860 53870 53880 53890 53900 53910 53920 53930 53940 53950 53960 53970 53980 53990 54000 54010 54020 54030 54040 54050 54060 54070 54080 54090 54100 54110 54120 54130 54140 54150 54160 54170 54180 54190 54200 54210 54220 54230 54240 54250 54260 54270 54280 54290 54300 54310 54320 54330 54340 54350 54360 54370 54380 54390 54400 54410 54420 54430 54440 54450 54460 54470 54480 54490 54500 54510 54520 54530 54540 54550 54560 54570 54580 54590 54600 54610 54620 54630 54640 54650 54660 54670 54680 54690 54700 54710 54720 54730 54740 54750 54760 54770 54780 54790 54800 54810 54820 54830 54840 54850 54860 54870 54880 54890 54900 54910 54920 54930 54940 54950 54960 54970 54980 54990 55000 55010 55020 55030 55040 55050 55060 55070 55080 55090 55100 55110 55120 55130 55140 55150 55160 55170 55180 55190 55200 55210 55220 55230 55240 55250 55260 55270 55280 55290 55300 55310 55320 55330 55340 55350 55360 55370 55380 55390 55400 55410 55420 55430 55440 55450 55460 55470 55480 55490 55500 55510 55520 55530 55540 55550 55560 55570 55580 55590 55600 55610 55620 55630 55640 55650 55660 55670 55680 55690 55700 55710 55720 55730 55740 55750 55760 55770 55780 55790 55800 55810 55820 55830 55840 55850 55860 55870 55880 55890 55900 55910 55920 55930 55940 55950 55960 55970 55980 55990 56000 56010 56020 56030 56040 56050 56060 56070 56080 56090 56100 56110 56120 56130 56140 56150 56160 56170 56180 56190 56200 56210 56220 56230 56240 56250 56260 56270 56280 56290 56300 56310 56320 56330 56340 56350 56360 56370 56380 56390 56400 56410 56420 56430 56440 56450 56460 56470 56480 56490 56500 56510 56520 56530 56540 56550 56560 56570 56580 56590 56600 56610 56620 56630 56640 56650 56660 56670 56680 56690 56700 56710 56720 56730 56740 56750 56760 56770 56780 56790 56800 56810 56820 56830 56840 56850 56860 56870 56880 56890 56900 56910 56920 56930 56940 56950 56960 56970 56980 56990 57000 57010 57020 57030 57040 57050 57060 57070 57080 57090 57100 57110 57120 57130 57140 57150 57160 57170 57180 57190 57200 57210 57220 57230 57240 57250 57260 57270 57280 57290 57300 57310 57320 57330 57340 57350 57360 57370 57380 57390 57400 57410 57420 57430 57440 57450 57460 57470 57480 57490 57500 57510 57520 57530 57540 57550 57560 57570 57580 57590 57600 57610 57620 57630 57640 57650 57660 57670 57680 57690 57700 57710 57720 57730 57740 57750 57760 57770 57780 57790 57800 57810 57820 57830 57840 57850 57860 57870 57880 57890 57900 57910 57920 57930 57940 57950 57960 57970 57980 57990 58000 58010 58020 58030 58040 58050 58060 58070 58080 58090 58100 58110 58120 58130 58140 58150 58160 58170 58180 58190 58200 58210 58220 58230 58240 58250 58260 58270 58280 58290 58300 58310 58320 58330 58340 58350 58360 58370 58380 58390 58400 58410 58420 58430 58440 58450 58460 58470 58480 58490 58500 58510 58520 58530 58540 58550 58560 58570 58580 58590 58600 58610 58620 58630 58640 58650 58660 58670 58680 58690 58700 58710 58720 58730 58740 58750 58760 58770 58780 58790 58800 58810 58820 58830 58840 58850 58860 58870 58880 58890 58900 58910 58920 58930 58940 58950 58960 58970 58980 58990 59000 59010 59020 59030 59040 59050 59060 59070 59080 59090 59100 59110 59120 59130 59140 59150 59160 59170 59180 59190 59200 59210 59220 59230 59240 59250 59260 59270 59280 59290 59300 59310 59320 59330 59340 59350 59360 59370 59380 59390 59400 59410 59420 59430 59440 59450 59460 59470 59480 59490 59500 59510 59520 59530 59540 59550 59560 59570 59580 59590 59600 59610 59620 59630 59640 59650 59660 59670 59680 59690 59700 59710 59720 59730 59740 59750 59760 59770 59780 59790 59800 59810 59820 59830 59840 59850 59860 59870 59880 59890 59900 59910 59920 59930 59940 59950 59960 59970 59980 59990 60000 60010 60020 60030 60040 60050 60060 60070 60080 60090 60100 60110 60120 60130 60140 60150 60160 60170 60180 60190 60200 60210 60220 60230 60240 60250 60260 60270 60280 60290 60300 60310 60320 60330 60340 60350 60360 60370 60380 60390 60400 60410 60420 60430 60440 60450 60460 60470 60480 60490 60500 60510 60520 60530 60540 60550 60560 60570 60580 60590 60600 60610 60620 60630 60640 60650 60660 60670 60680 60690 60700 60710 60720 60730 60740 60750 60760 60770 60780 60790 60800 60810 60820 60830 60840 60850 60860 60870 60880 60890 60900 60910 60920 60930 60940 60950 60960 60970 60980 60990 61000 61010 61020 61030 61040 61050 61060 61070 61080 61090 61100 61110 61120 61130 61140 61150 61160 61170 61180 61190 61200 61210 61220 61230 61240 61250 61260 61270 61280 61290 61300 61310 61320 61330 61340 61350 61360 61370 61380 61390 61400 61410 61420 61430 61440 61450 61460 61470 61480 61490 61500 61510 61520 61530 61540 61550 61560 61570 61580 61590 61600 61610 61620 61630 61640 61650 61660 61670 61680 61690 61700 61710 61720 61730 61740 61750 61760 61770 61780 61790 61800 61810 61820 61830 61840 61850 61860 61870 61880 61890 61900 61910 61920 61930 61940 61950 61960 61970 61980 61990 62000 62010 62020 62030 62040 62050 62060 62070 62080 62090 62100 62110 62120 62130 62140 62150 62160 62170 62180 62190 62200 62210 62220 62230 62240 62250 62260 62270 62280 62290 62300 62310 62320 62330 62340 62350 62360 62370 62380 62390 62400 62410 62420 62430 62440 62450 62460 62470 62480 62490 62500 62510 62520 62530 62540 62550 62560 62570 62580 62590 62600 62610 62620 62630 62640 62650 62660 62670 62680 62690 62700 62710 62720 62730 62740 62750 62760 62770 62780 62790 62800 62810 62820 62830 62840 62850 62860 62870 62880 62890 62900 62910 62920 62930 62940 62950 62960 62970 62980 62990 63000 63010 63020 63030 63040 63050 63060 63070 63080 63090 63100 63110 63120 63130 63140 63150 63160 63170 63180 63190 63200 63210 63220 63230 63240 63250 63260 63270 63280 63290 63300 63310 63320 63330 63340 63350 63360 63370 63380 63390 63400 63410 63420 63430 63440 63450 63460 63470 63480 63490 63500 63510 63520 63530 63540 63550 63560 63570 63580 63590 63600 63610 63620 63630 63640 63650 63660 63670 63680 63690 63700 63710 63720 63730 63740 63750 63760 63770 63780 63790 63800 63810 63820 63830 63840 63850 63860 63870 63880 63890 63900 63910 63920 63930 63940 63950 63960 63970 63980 63990 64000 64010 64020 64030 64040 64050 64060 64070 64080 64090 64100 64110 64120 64130 64140 64150 64160 64170 64180 64190 64200 64210 64220 64230 64240 64250 64260 64270 64280 64290 64300 64310 64320 64330 64340 64350 64360 64370 64380 64390 64400 64410 64420 64430 64440 64450 64460 64470 64480 64490 64500 64510 64520 64530 64540 64550 64560 64570 64580 64590 64600 64610 64620 64630 64640 64650 64660 64670 64680 64690 64700 64710 64720 64730 64740 64750 64760 64770 64780 64790 64800 64810 64820 64830 64840 64850 64860 64870 64880 64890 64900 64910 64920 64930 64940 64950 64960 64970 64980 64990 65000 65010 65020 65030 65040 65050 65060 65070 65080 65090 65100 65110 65120 65130 65140 65150 65160 65170 65180 65190 65200 65210 65220 65230 65240 65250 65260 65270 65280 65290 65300 65310 65320 65330 65340 65350 65360 65370 65380 65390 65400 65410 65420 65430 65440 65450 65460 65470 65480 65490 65500 65510 65520 65530 65540 65550 65560 65570 65580 65590 65600 65610 65620 65630 65640 65650 65660 65670 65680 65690 65700 65710 65720 65730 65740 65750 65760 65770 65780 65790 65800 65810 65820 65830 65840 65850 65860 65870 65880 65890 65900 65910 65920 65930 65940 65950 65960 65970 65980 65990 66000 66010 66020 66030 66040 66050 66060 66070 66080 66090 66100 66110 66120 66130 66140 66150 66160 66170 66180 66190 66200 66210 66220 66230 66240 66250 66260 66270 66280 66290 66300 66310 66320 66330 66340 66350 66360 66370 66380 66390 66400 66410 66420 66430 66440 66450 66460 66470 66480 66490 66500 66510 66520 66530 66540 66550 66560 66570 66580 66590 66600 66610 66620 66630 66640 66650 66660 66670 66680 66690 66700 66710 66720 66730 66740 66750 66760 66770 66780 66790 66800 66810 66820 66830 66840 66850 66860 66870 66880 66890 66900 66910 66920 66930 66940 66950 66960 66970 66980 66990 67000 67010 67020 67030 67040 67050 67060 67070 67080 67090 67100 67110 67120 67130 67140 67150 67160 67170 67180 67190 67200 67210 67220 67230 67240 67250 67260 67270 67280 67290 67300 67310 67320 67330 67340 67350 67360 67370 67380 67390 67400 67410 67420 67430 67440 67450 67460 67470 67480 67490 67500 67510 67520 67530 67540 67550 67560 67570 67580 67590 67600 67610 67620 67630 67640 67650 67660 67670 67680 67690 67700 67710 67720 67730 67740 67750 67760 67770 67780 67790 67800 67810 67820 67830 67840 67850 67860 67870 67880 67890 67900 67910 67920 67930 67940 67950 67960 67970 67980 67990 68000 68010 68020 68030 68040 68050 68060 68070 68080 68090 68100 68110 68120 68130 68140 68150 68160 68170 68180 68190 68200 68210 68220 68230 68240 68250 68260 68270 68280 68290 68300 68310 68320 68330 68340 68350 68360 68370 68380 68390 68400 68410 68420 68430 68440 68450 68460 68470 68480 68490 68500 68510 68520 68530 68540 68550 68560 68570 68580 68590 68600 68610 68620 68630 68640 68650 68660 68670 68680 68690 68700 68710 68720 68730 68740 68750 68760 68770 68780 68790 68800 68810 68820 68830 68840 68850 68860 68870 68880 68890 68900 68910 68920 68930 68940 68950 68960 68970 68980 68990 69000 69010 69020 69030 69040 69050 69060 69070 69080 69090 69100 69110 69120 69130 69140 69150 69160 69170 69180 69190 69200 69210 69220 69230 69240 69250 69260 69270 69280 69290 69300 69310 69320 69330 69340 69350 69360 69370 69380 69390 69400 69410 69420 69430 69440 69450 69460 69470 69480 69490 69500 69510 69520 69530 69540 69550 69560 69570 69580 69590 69600 69610 69620 69630 69640 69650 69660 69670 69680 69690 69700 69710 69720 69730 69740 69750 69760 69770 69780 69790 69800 69810 69820 69830 69840 69850 69860 69870 69880 69890 69900 69910 69920 69930 69940 69950 69960 69970 69980 69990 70000 70010 70020 70030 70040 70050 70060 70070 70080 70090 70100 70110 70120 70130 70140 70150 70160 70170 70180 70190 70200 70210 70220 70230 70240 70250 70260 70270 70280 70290 70300 70310 70320 70330 70340 70350 70360 70370 70380 70390 70400 70410 70420 70430 70440 70450 70460 70470 70480 70490 70500 70510 70520 70530 70540 70550 70560 70570 70580 70590 70600 70610 70620 70630 70640 70650 70660 70670 70680 70690 70700 70710 70720 70730 70740 70750 70760 70770 70780 70790 70800 70810 70820 70830 70840 70850 70860 70870 70880 70890 70900 70910 70920 70930 70940 70950 70960 70970 70980 70990 71000 71010 71020 71030 71040 71050 71060 71070 71080 71090 71100 71110 71120 71130 71140 71150 71160 71170 71180 71190 71200 71210 71220 71230 71240 71250 71260 71270 71280 71290 71300 71310 71320 71330 71340 71350 71360 71370 71380 71390 71400 71410 71420 71430 71440 71450 71460 71470 71480 71490 71500 71510 71520 71530 71540 71550 71560 71570 71580 71590 71600 71610 71620 71630 71640 71650 71660 71670 71680 71690 71700 71710 71720 71730 71740 71750 71760 71770 71780 71790 71800 71810 71820 71830 71840 71850 71860 71870 71880 71890 71900 71910 71920 71930 71940 71950 71960 71970 71980 71990 72000 72010 72020 72030 72040 72050 72060 72070 72080 72090 72100 72110 72120 72130 72140 72150 72160 72170 72180 72190 72200 72210 72220 72230 72240 72250 72260 72270 72280 72290 72300 72310 72320 72330 72340 72350 72360 72370 72380 72390 72400 72410 72420 72430 72440 72450 72460 72470 72480 72490 72500 72510 72520 72530 72540 72550 72560 72570 72580 72590 72600 72610 72620 72630 72640 72650 72660 72670 72680 72690 72700 72710 72720 72730 72740 72750 72760 72770 72780 72790 72800 72810 72820 72830 72840 72850 72860 72870 72880 72890 72900 72910 72920 72930 72940 72950 72960 72970 72980 72990 73000 73010 73020 73030 73040 73050 73060 73070 73080 73090 73100 73110 73120 73130 73140 73150 73160 73170 73180 73190 73200 73210 73220 73230 73240 73250 73260 73270 73280 73290 73300 73310 73320 73330 73340 73350 73360 73370 73380 73390 73400 73410 73420 73430 73440 73450 73460 73470 73480 73490 73500 73510 73520 73530 73540 73550 73560 73570 73580 73590 73600 73610 73620 73630 73640 73650 73660 73670 73680 73690 73700 73710 73720 73730 73740 73750 73760 73770 73780 73790 73800 73810 73820 73830 73840 73850 73860 73870 73880 73890 73900 73910 73920 73930 73940 73950 73960 73970 73980 73990 74000 74010 74020 74030 74040 74050 74060 74070 74080 74090 74100 74110 74120 74130 74140 74150 74160 74170 74180 74190 74200 74210 74220 74230 74240 74250 74260 74270 74280 74290 74300 74310 74320 74330 74340 74350 74360 74370 74380 74390 74400 74410 74420 74430 74440 74450 74460 74470 74480 74490 74500 74510 74520 74530 74540 74550 74560 74570 74580 74590 74600 74610 74620 74630 74640 74650 74660 74670 74680 74690 74700 74710 74720 74730 74740 74750 74760 74770 74780 74790 74800 74810 74820 74830 74840 74850 74860 74870 74880 74890 74900 74910 74920 74930 74940 74950 74960 74970 74980 74990 75000 75010 75020 75030 75040 75050 75060 75070 75080 75090 75100 75110 75120 75130 75140 75150 75160 75170 75180 75190 75200 75210 75220 75230 75240 75250 75260 75270 75280 75290 75300 75310 75320 75330 75340 75350 75360 75370 75380 75390 75400 75410 75420 75430 75440 75450 75460 75470 75480 75490 75500 75510 75520 75530 75540 75550 75560 75570 75580 75590 75600 75610 75620 75630 75640 75650 75660 75670 75680 75690 75700 75710 75720 75730 75740 75750 75760 75770 75780 75790 75800 75810 75820 75830 75840 75850 75860 75870 75880 75890 75900 75910 75920 75930 75940 75950 75960 75970 75980 75990 76000 76010 76020 76030 76040 76050 76060 76070 76080 76090 76100 76110 76120 76130 76140 76150 76160 76170 76180 76190 76200 76210 76220 76230 76240 76250 76260 76270 76280 76290 76300 76310 76320 76330 76340 76350 76360 76370 76380 76390 76400 76410 76420 76430 76440 76450 76460 76470 76480 76490 76500 76510 76520 76530 76540 76550 76560 76570 76580 76590 76600 76610 76620 76630 76640 76650 76660 76670 76680 76690 76700 76710 76720 76730 76740 76750 76760 76770 76780 76790 76800 76810 76820 76830 76840 76850 76860 76870 76880 76890 76900 76910 76920 76930 76940 76950 76960 76970 76980 76990 77000 77010 77020 77030 77040 77050 77060 77070 77080 77090 77100 77110 77120 77130 77140 77150 77160 77170 77180 77190 77200 77210 77220 77230 77240 77250 77260 77270 77280 77290 77300 77310 77320 77330 77340 77350 77360 77370 77380 77390 77400 77410 77420 77430 77440 77450 77460 77470 77480 77490 77500 77510 77520 77530 77540 77550 77560 77570 77580 77590 77600 77610 77620 77630 77640 77650 77660 77670 77680 77690 77700 77710 77720 77730 77740 77750 77760 77770 77780 77790 77800 77810 77820 77830 77840 77850 77860 77870 77880 77890 77900 77910 77920 77930 77940 77950 77960 77970 77980 77990 78000 78010 78020 78030 78040 78050 78060 78070 78080 78090 78100 78110 78120 78130 78140 78150 78160 78170 78180 78190 78200 78210 78220 78230 78240 78250 78260 78270 78280 78290 78300 78310 78320 78330 78340 78350 78360 78370 78380 78390 78400 78410 78420 78430 78440 78450 78460 78470 78480 78490 78500 78510 78520 78530 78540 78550 78560 78570 78580 78590 78600 78610 78620 78630 78640 78650 78660 78670 78680 78690 78700 78710 78720 78730 78740 78750 78760 78770 78780 78790 78800 78810 78820 78830 78840 78850 78860 78870 78880 78890 78900 78910 78920 78930 78940 78950 78960 78970 78980 78990 79000 79010 79020 79030 79040 79050 79060 79070 79080 79090 79100 79110 79120 79130 79140 79150 79160 79170 79180 79190 79200 79210 79220 79230 79240 79250 79260 79270 79280 79290 79300 79310 79320 79330 79340 79350 79360 79370 79380 79390 79400 79410 79420 79430 79440 79450 79460 79470 79480 79490 79500 79510 79520 79530 79540 79550 79560 79570 79580 79590 79600 79610 79620 79630 79640 79650 79660 79670 79680 79690 79700 79710 79720 79730 79740 79750 79760 79770 79780 79790 79800 79810 79820 79830 79840 79850 79860 79870 79880 79890 79900 79910 79920 79930 79940 79950 79960 79970 79980 79990 80000 80010 80020 80030 80040 80050 80060 80070 80080 80090 80100 80110 80120 80130 80140 80150 80160 80170 80180 80190 80200 80210 80220 80230 80240 80250 80260 80270 80280 80290 80300 80310 80320 80330 80340 80350 80360 80370 80380 80390 80400 80410 80420 80430 80440 80450 80460 80470 80480 80490 80500 80510 80520 80530 80540 80550 80560 80570 80580 80590 80600 80610 80620 80630 80640 80650 80660 80670 80680 80690 80700 80710 80720 80730 80740 80750 80760 80770 80780 80790 80800 80810 80820 80830 80840 80850 80860 80870 80880 80890 80900 80910 80920 80930 80940 80950 80960 80970 80980 80990 81000 81010 81020 81030 81040 81050 81060 81070 81080 81090 81100 81110 81120 81130 81140 81150 81160 81170 81180 81190 81200 81210 81220 81230 81240 81250 81260 81270 81280 81290 81300 81310 81320 81330 81340 81350 81360 81370 81380 81390 81400 81410 81420 81430 81440 81450 81460 81470 81480 81490 81500 81510 81520 81530 81540 81550 81560 81570 81580 81590 81600 81610 81620 81630 81640 81650 81660 81670 81680 81690 81700 81710 81720 81730 81740 81750 81760 81770 81780 81790 81800 81810 81820 81830 81840 81850 81860 81870 81880 81890 81900 81910 81920 81930 81940 81950 81960 81970 81980 81990 82000 82010 82020 82030 82040 82050 82060 82070 82080 82090 82100 82110 82120 82130 82140 82150 82160 82170 82180 82190 82200 82210 82220 82230 82240 82250 82260 82270 82280 82290 82300 82310 82320 82330 82340 82350 82360 82370 82380 82390 82400 82410 82420 82430 82440 82450 82460 82470 82480 82490 82500 82510 82520 82530 82540 82550 82560 82570 82580 82590 82600 82610 82620 82630 82640 82650 82660 82670 82680 82690 82700 82710 82720 82730 82740 82750 82760 82770 82780 82790 82800 82810 82820 82830 82840 82850 82860 82870 82880 82890 82900 82910 82920 82930 82940 82950 82960 82970 82980 82990 83000 83010 83020 83030 83040 83050 83060 83070 83080 83090 83100 83110 83120 83130 83140 83150 83160 83170 83180 83190 83200 83210 83220 83230 83240 83250 83260 83270 83280 83290 83300 83310 83320 83330 83340 83350 83360 83370 83380 83390 83400 83410 83420 83430 83440 83450 83460 83470 83480 83490 83500 83510 83520 83530 83540 83550 83560 83570 83580 83590 83600 83610 83620 83630 83640 83650 83660 83670 83680 83690 83700 83710 83720 83730 83740 83750 83760 83770 83780 83790 83800 83810 83820 83830 83840 83850 83860 83870 83880 83890 83900 83910 83920 83930 83940 83950 83960 83970 83980 83990 84000 84010 84020 84030 84040 84050 84060 84070 84080 84090 84100 84110 84120 84130 84140 84150 84160 84170 84180 84190 84200 84210 84220 84230 84240 84250 84260 84270 84280 84290 84300 84310 84320 84330 84340 84350 84360 84370 84380 84390 84400 84410 84420 84430 84440 84450 84460 84470 84480 84490 84500 84510 84520 84530 84540 84550 84560 84570 84580 84590 84600 84610 84620 84630 84640 84650 84660 84670 84680 84690 84700 84710 84720 84730 84740 84750 84760 84770 84780 84790 84800 84810 84820 84830 84840 84850 84860 84870 84880 84890 84900 84910 84920 84930 84940 84950 84960 84970 84980 84990 85000 85010 85020 85030 85040 85050 85060 85070 85080 85090 85100 85110 85120 85130 85140 85150 85160 85170 85180 85190 85200 85210 85220 85230 85240 85250 85260 85270 85280 85290 85300 85310 85320 85330 85340 85350 85360 85370 85380 85390 85400 85410 85420 85430 85440 85450 85460 85470 85480 85490 85500 85510 85520 85530 85540 85550 85560 85570 85580 85590 85600 85610 85620 85630 85640 85650 85660 85670 85680 85690 85700 85710 85720 85730 85740 85750 85760 85770 85780 85790 85800 85810 85820 85830 85840 85850 85860 85870 85880 85890 85900 85910 85920 85930 85940 85950 85960 85970 85980 85990 86000 86010 86020 86030 86040 86050 86060 86070 86080 86090 86100 86110 86120 86130 86140 86150 86160 86170 86180 86190 86200 86210 86220 86230 86240 86250 86260 86270 86280 86290 86300 86310 86320 86330 86340 86350 86360 86370 86380 86390 86400 86410 86420 86430 86440 86450 86460 86470 86480 86490 86500 86510 86520 86530 86540 86550 86560 86570 86580 86590 86600 86610 86620 86630 86640 86650 86660 86670 86680 86690 86700 86710 86720 86730 86740 86750 86760 86770 86780 86790 86800 86810 86820 86830 86840 86850 86860 86870 86880 86890 86900 86910 86920 86930 86940 86950 86960 86970 86980 86990 87000 87010 87020 87030 87040 87050 87060 87070 87080 87090 87100 87110 87120 87130 87140 87150 87160 87170 87180 87190 87200 87210 87220 87230 87240 87250 87260 87270 87280 87290 87300 87310 87320 87330 87340 87350 87360 87370 87380 87390 87400 87410 87420 87430 87440 87450 87460 87470 87480 87490 87500 87510 87520 87530 87540 87550 87560 87570 87580 87590 87600 87610 87620 87630 87640 87650 87660 87670 87680 87690 87700 87710 87720 87730 87740 87750 87760 87770 87780 87790 87800 87810 87820 87830 87840 87850 87860 87870 87880 87890 87900 87910 87920 87930 87940 87950 87960 87970 87980 87990 88000 88010 88020 88030 88040 88050 88060 88070 88080 88090 88100 88110 88120 88130 88140 88150 88160 88170 88180 88190 88200 88210 88220 88230 88240 88250 88260 88270 88280 88290 88300 88310 88320 88330 88340 88350 88360 88370 88380 88390 88400 88410 88420 88430 88440 88450 88460 88470 88480 88490 88500 88510 88520 88530 88540 88550 88560 88570 88580 88590 88600 88610 88620 88630 88640 88650 88660 88670 88680 88690 88700 88710 88720 88730 88740 88750 88760 88770 88780 88790 88800 88810 88820 88830 88840 88850 88860 88870 88880 88890 88900 88910 88920 88930 88940 88950 88960 88970 88980 88990 89000 89010 89020 89030 89040 89050 89060 89070 89080 89090 89100 89110 89120 89130 89140 89150 89160 89170 89180 89190 89200 89210 89220 89230 89240 89250 89260 89270 89280 89290 89300 89310 89320 89330 89340 89350 89360 89370 89380 89390 89400 89410 89420 89430 89440 89450 89460 89470 89480 89490 89500 89510 89520 89530 89540 89550 89560 89570 89580 89590 89600 89610 89620 89630 89640 89650 89660 89670 89680 89690 89700 89710 89720 89730 89740 89750 89760 89770 89780 89790 89800 89810 89820 89830 89840 89850 89860 89870 89880 89890 89900 89910 89920 89930 89940 89950 89960 89970 89980 89990 90000 90010 90020 90030 90040 90050 90060 90070 90080 90090 90100 90110 90120 90130 90140 90150 90160 90170 90180 90190 90200 90210 90220 90230 90240 90250 90260 90270 90280 90290 90300 90310 90320 90330 90340 90350 90360 90370 90380 90390 90400 90410 90420 90430 90440 90450 90460 90470 90480 90490 90500 90510 90520 90530 90540 90550 90560 90570 90580 90590 90600 90610 90620 90630 90640 90650 90660 90670 90680 90690 90700 90710 90720 90730 90740 90750 90760 90770 90780 90790 90800 90810 90820 90830 90840 90850 90860 90870 90880 90890 90900 90910 90920 90930 90940 90950 90960 90970 90980 90990 91000 91010 91020 91030 91040 91050 91060 91070 91080 91090 91100 91110 91120 91130 91140 91150 91160 91170 91180 91190 91200 91210 91220 91230 91240 91250 91260 91270 91280 91290 91300 91310 91320 91330 91340 91350 91360 91370 91380 91390 91400 91410 91420 91430 91440 91450 91460 91470 91480 91490 91500 91510 91520 91530 91540 91550 91560 91570 91580 91590 91600 91610 91620 91630 91640 91650 91660 91670 91680 91690 91700 91710 91720 91730 91740 91750 91760 91770 91780 91790 91800 91810 91820 91830 91840 91850 91860 91870 91880 91890 91900 91910 91920 91930 91940 91950 91960 91970 91980 91990 92000 92010 92020 92030 92040 92050 92060 92070 92080 92090 92100 92110 92120 92130 92140 92150 92160 92170 92180 92190 92200 92210 92220 92230 92240 92250 92260 92270 92280 92290 92300 92310 92320 92330 92340 92350 92360 92370 92380 92390 92400 92410 92420 92430 92440 92450 92460 92470 92480 92490 92500 92510 92520 92530 92540 92550 92560 92570 92580 92590 92600 92610 92620 92630 92640 92650 92660 92670 92680 92690 92700 92710 92720 92730 92740 92750 92760 92770 92780 92790 92800 92810 92820 92830 92840 92850 92860 92870 92880 92890 92900 92910 92920 92930 92940 92950 92960 92970 92980 92990 93000 93010 93020 93030 93040 93050 93060 93070 93080 93090 93100 93110 93120 93130 93140 93150 93160 93170 93180 93190 93200 93210 93220 93230 93240 93250 93260 93270 93280 93290 93300 93310 93320 93330 93340 93350 93360 93370 93380 93390 93400 93410 93420 93430 93440 93450 93460 93470 93480 93490 93500 93510 93520 93530 93540 93550 93560 93570 93580 93590 93600 93610 93620 93630 93640 93650 93660 93670 93680 93690 93700 93710 93720 93730 93740 93750 93760 93770 93780 93790 93800 93810 93820 93830 93840 93850 93860 93870 93880 93890 93900 93910 93920 93930 93940 93950 93960 93970 93980 93990 94000 94010 94020 94030 94040 94050 94060 94070 94080 94090 94100 94110 94120 94130 94140 94150 94160 94170 94180 94190 94200 94210 94220 94230 94240 94250 94260 94270 94280 94290 94300 94310 94320 94330 94340 94350 94360 94370 94380 94390 94400 94410 94420 94430 94440 94450 94460 94470 94480 94490 94500 94510 94520 94530 94540 94550 94560 94570 94580 94590 94600 94610 94620 94630 94640 94650 94660 94670 94680 94690 94700 94710 94720 94730 94740 94750 94760 94770 94780 94790 94800 94810 94820 94830 94840 94850 94860 94870 94880 94890 94900 94910 94920 94930 94940 94950 94960 94970 94980 94990 95000 95010 95020 95030 95040 95050 95060 95070 95080 95090 95100 95110 95120 95130 95140 95150 95160 95170 95180 95190 95200 95210 95220 95230 95240 95250 95260 95270 95280 95290 95300 95310 95320 95330 95340 95350 95360 95370 95380 95390 95400 95410 95420 95430 95440 95450 95460 95470 95480 95490 95500 95510 95520 95530 95540 95550 95560 95570 95580 95590 95600 95610 95620 95630 95640 95650 95660 95670 95680 95690 95700 95710 95720 95730 95740 95750 95760 95770 95780 95790 95800 95810 95820 95830 95840 95850 95860 95870 95880 95890 95900 95910 95920 95930 95940 95950 95960 95970 95980 95990 96000 96010 96020 96030 96040 96050 96060 96070 96080 96090 96100 96110 96120 96130 96140 96150 96160 96170 96180 96190 96200 96210 96220 96230 96240 96250 96260 96270 96280 96290 96300 96310 96320 96330 96340 96350 96360 96370 96380 96390 96400 96410 96420 96430 96440 96450 96460 96470 96480 96490 96500 96510 96520 96530 96540 96550 96560 96570 96580 96590 96600 96610 96620 96630 96640 96650 96660 96670 96680 96690 96700 96710 96720 96730 96740 96750 96760 96770 96780 96790 96800 96810 96820 96830 96840 96850 96860 96870 96880 96890 96900 96910 96920 96930 96940 96950 96960 96970 96980 96990 97000 97010 97020 97030 97040 97050 97060 97070 97080 97090 97100 97110 97120 97130 97140 97150 97160 97170 97180 97190 97200 97210 97220 97230 97240 97250 97260 97270 97280 97290 97300 97310 97320 97330 97340 97350 97360 97370 97380 97390 97400 97410 97420 97430 97440 97450 97460 97470 97480 97490 97500 97510 97520 97530 97540 97550 97560 97570 97580 97590 97600 97610 97620 97630 97640 97650 97660 97670 97680 97690 97700 97710 97720 97730 97740 97750 97760 97770 97780 97790 97800 97810 97820 97830 97840 97850 97860 97870 97880 97890 97900 97910 97920 97930 97940 97950 97960 97970 97980 97990 98000 98010 98020 98030 98040 98050 98060 98070 98080 98090 98100 98110 98120 98130 98140 98150 98160 98170 98180 98190 98200 98210 98220 98230 98240 98250 98260 98270 98280 98290 98300 98310 98320 98330 98340 98350 98360 98370 98380 98390 98400 98410 98420 98430 98440 98450 98460 98470 98480 98490 98500 98510 98520 98530 98540 98550 98560 98570 98580 98590 98600 98610 98620 98630 98640 98650 98660 98670 98680 98690 98700 98710 98720 98730 98740 98750 98760 98770 98780 98790 98800 98810 98820 98830 98840 98850 98860 98870 98880 98890 98900 98910 98920 98930 98940 98950 98960 98970 98980 98990 99000 99010 99020 99030 99040 99050 99060 99070 99080 99090 99100 99110 99120 99130 99140 99150 99160 99170 99180 99190 99200 99210 99220 99230 99240 99250 99260 99270 99280 99290 99300 99310 99320 99330 99340 99350 99360 99370 99380 99390 99400 99410 99420 99430 99440 99450 99460 99470 99480 99490 99500 99510 99520 99530 99540 99550 99560 99570 99580 99590 99600 99610 99620 99630 99640 99650 99660 99670 99680 99690 99700 99710 99720 99730 99740 99750 99760 99770 99780 99790 99800 99810 99820 99830 99840 99850 99860 99870 99880 99890 99900 99910 99920 99930 99940 99950 99960 99970 99980 99990 100000 100010 100020 100030 100040 100050 100060 100070 100080 100090 100100 100110 100120 100130 100140 100150 100160 100170 100180 100190 100200 100210 100220 100230 100240 100250 100260 100270 100280 100290 100300 100310 100320 100330 100340 100350 100360 100370 100380 100390 100400 100410 100420 100430 100440 100450 100460 100470 100480 100490 100500 100510 100520 100530 100540 100550 100560 100570 100580 100590 100600 100610 100620 100630 100640 100650 100660 100670 100680 100690 100700 100710 100720 100730 100740 100750 100760 100770 100780 100790 100800 100810 100820 100830 100840 100850 100860 100870 100880 100890 100900 100910 100920 100930 100940 100950 100960 100970 100980 100990 101000 101010 101020 101030 101040 101050 101060 101070 101080 101090 101100 101110 101120 101130 101140 101150 101160 101170 101180 101190 101200 101210 101220 101230 101240 101250 101260 101270 101280 101290 101300 101310 101320 101330 101340 101350 101360 101370 101380 101390 101400 101410 101420 101430 101440 101450 101460 101470 101480 101490 101500 101510 101520 101530 101540 101550 101560 101570 101580 101590 101600 101610 101620 101630 101640 101650 101660 101670 101680 101690 101700 101710 101720 101730 101740 101750 101760 101770 101780 101790 101800 101810 101820 101830 101840 101850 101860 101870 101880 101890 101900 101910 101920 101930 101940 101950 101960 101970 101980 101990 102000 102010 102020 102030 102040 102050 102060 102070 102080 102090 102100 102110 102120 102130 102140 102150 102160 102170 102180 102190 102200 102210 102220 102230 102240 102250 102260 102270 102280 102290 102300 102310 102320 102330 102340 102350 102360 102370 102380 102390 102400 102410 102420 102430 102440 102450 102460 102470 102480 102490 102500 102510 102520 102530 102540 102550 102560 102570 102580 102590 102600 102610 102620 102630 102640 102650 102660 102670 102680 102690 102700 102710 102720 102730 102740 102750 102760 102770 102780 102790 102800 102810 102820 102830 102840 102850 102860 102870 102880 102890 102900 102910 102920 102930 102940 102950 102960 102970 102980 102990 103000 103010 103020 103030 103040 103050 103060 103070 103080 103090 103100 103110 103120 103130 103140 103150 103160 103170 103180 103190 103200 103210 103220 103230 103240 103250 103260 103270 103280 103290 103300 103310 103320 103330 103340 103350 103360 103370 103380 103390 103400 103410 103420 103430 103440 103450 103460 103470 103480 103490 103500 103510 103520 103530 103540 103550 103560 103570 103580 103590 103600 103610 103620 103630 103640 103650 103660 103670 103680 103690 103700 103710 103720 103730 103740 103750 103760 103770 103780 103790 103800 103810 103820 103830 103840 103850 103860 103870 103880 103890 103900 103910 103920 103930 103940 103950 103960 103970 103980 103990 104000 104010 104020 104030 104040 104050 104060 104070 104080 104090 104100 104110 104120 104130 104140 104150 104160 104170 104180 104190 104200 104210 104220 104230 104240 104250 104260 104270 104280 104290 104300 104310 104320 104330 104340 104350 104360 104370 104380 104390 104400 104410 104420 104430 104440 104450 104460 104470 104480 104490 104500 104510 104520 104530 104540 104550 104560 104570 104580 104590 104600 104610 104620 104630 104640 104650 104660 104670 104680 104690 104700 104710 104720 104730 104740 104750 104760 104770 104780 104790 104800 104810 104820 104830 104840 104850 104860 104870 104880 104890 104900 104910 104920 104930 104940 104950 104960 104970 104980 104990 105000 105010 105020 105030 105040 105050 105060 105070 105080 105090 105100 105110 105120 105130 105140 105150 105160 105170 105180 105190 105200 105210 105220 105230 105240 105250 105260 105270 105280 105290 105300 105310 105320 105330 105340 105350 105360 105370 105380 105390 105400 105410 105420 105430 105440 105450 105460 105470 105480 105490 105500 105510 105520 105530 105540 105550 105560 105570 105580 105590 105600 105610 105620 105630 105640 105650 105660 105670 105680 105690 105700 105710 105720 105730 105740 105750 105760 105770 105780 105790 105800 105810 105820 105830 105840 105850 105860 105870 105880 105890 105900 105910 105920 105930 105940 105950 105960 105970 105980 105990 106000 106010 106020 106030 106040 106050 106060 106070 106080 106090 106100 106110 106120 106130 106140 106150 106160 106170 106180 106190 106200 106210 106220 106230 106240 106250 106260 106270 106280 106290 106300 106310 106320 106330 106340 106350 106360 106370 106380 106390 106400 106410 106420 106430 106440 106450 106460 106470 106480 106490 106500 106510 106520 106530 106540 106550 106560 106570 106580 106590 106600 106610 106620 106630 106640 106650 106660 106670 106680 106690 106700 106710 106720 106730 106740 106750 106760 106770 106780 106790 106800 106810 106820 106830 106840 106850 106860 106870 106880 106890 106900 106910 106920 106930 106940 106950 106960 106970 106980 106990 107000 107010 107020 107030 107040 107050 107060 107070 107080 107090 107100 107110 107120 107130 107140 107150 107160 107170 107180 107190 107200 107210 107220 107230 107240 107250 107260 107270 107280 107290 107300 107310 107320 107330 107340 107350 107360 107370 107380 107390 107400 107410 107420 107430 107440 107450 107460 107470 107480 107490 107500 107510 107520 107530 107540 107550 107560 107570 107580 107590 107600 107610 107620 107630 107640 107650 107660 107670 107680 107690 107700 107710 107720 107730 107740 107750 107760 107770 107780 107790 107800 107810 107820 107830 107840 107850 107860 107870 107880 107890 107900 107910 107920 107930 107940 107950 107960 107970 107980 107990 108000 108010 108020 108030 108040 108050 108060 108070 108080 108090 108100 108110 108120 108130 108140 108150 108160 108170 108180 108190 108200 108210 108220 108230 108240 108250 108260 108270 108280 108290 108300 108310 108320 108330 108340 108350 108360 108370 108380 108390 108400 108410 108420 108430 108440 108450 108460 108470 108480 108490 108500 108510 108520 108530 108540 108550 108560 108570 108580 108590 108600 108610 108620 108630 108640 108650 108660 108670 108680 108690 108700 108710 108720 108730 108740 108750 108760 108770 108780 108790 108800 108810 108820 108830 108840 108850 108860 108870 108880 108890 108900 108910 108920 108930 108940 108950 108960 108970 108980 108990 109000 109010 109020 109030 109040 109050 109060 109070 109080 109090 109100 109110 109120 109130 109140 109150 109160 109170 109180 109190 109200 109210 109220 109230 109240 109250 109260 109270 109280 109290 109300 109310 109320 109330 109340 109350 109360 109370 109380 109390 109400 109410 109420 109430 109440 109450 109460 109470 109480 109490 109500 109510 109520 109530 109540 109550 109560 109570 109580 109590 109600 109610 109620 109630 109640 109650 109660 109670 109680 109690 109700 109710 109720 109730 109740 109750 109760 109770 109780 109790 109800 109810 109820 109830 109840 109850 109860 109870 109880 109890 109900 109910 109920 109930 109940 109950 109960 109970 109980 109990 110000 110010 110020 110030 110040 110050 110060 110070 110080 110090 110100 110110 110120 110130 110140 110150 110160 110170 110180 110190 110200 110210 110220 110230 110240 110250 110260 110270 110280 110290 110300 110310 110320 110330 110340 110350 110360 110370 110380 110390 110400 110410 110420 110430 110440 110450 110460 110470 110480 110490 110500 110510 110520 110530 110540 110550 110560 110570 110580 110590 110600 110610 110620 110630 110640 110650 110660 110670 110680 110690 110700 110710 110720 110730 110740 110750 110760 110770 110780 110790 110800 110810 110820 110830 110840 110850 110860 110870 110880 110890 110900 110910 110920 110930 110940 110950 110960 110970 110980 110990 111000 111010 111020 111030 111040 111050 111060 111070 111080 111090 111100 111110 111120 111130 111140 111150 111160 111170 111180 111190 111200 111210 111220 111230 111240 111250 111260 111270 111280 111290 111300 111310 111320 111330 111340 111350 111360 111370 111380 111390 111400 111410 111420 111430 111440 111450 111460 111470 111480 111490 111500 111510 111520 111530 111540 111550 111560 111570 111580 111590 111600 111610 111620 111630 111640 111650 111660 111670 111680 111690 111700 111710 111720 111730 111740 111750 111760 111770 111780 111790 111800 111810 111820 111830 111840 111850 111860 111870 111880 111890 111900 111910 111920 111930 111940 111950 111960 111970 111980 111990 112000 112010 112020 112030 112040 112050 112060 112070 112080 112090 112100 112110 112120 112130 112140 112150 112160 112170 112180 112190 112200 112210 112220 112230 112240 112250 112260 112270 112280 112290 112300 112310 112320 112330 112340 112350 112360 112370 112380 112390 112400 112410 112420 112430 112440 112450 112460 112470 112480 112490 112500 112510 112520 112530 112540 112550 112560 112570 112580 112590 112600 112610 112620 112630 112640 112650 112660 112670 112680 112690 112700 112710 112720 112730 112740 112750 112760 112770 112780 112790 112800 112810 112820 112830 112840 112850 112860 112870 112880 112890 112900 112910 112920 112930 112940 112950 112960 112970 112980 112990 113000 113010 113020 113030 113040 113050 113060 113070 113080 113090 113100 113110 113120 113130 113140 113150 113160 113170 113180 113190 113200 113210 113220 113230 113240 113250 113260 113270 113280 113290 113300 113310 113320 113330 113340 113350 113360 113370 113380 113390 113400 113410 113420 113430 113440 113450 113460 113470 113480 113490 113500 113510 113520 113530 113540 113550 113560 113570 113580 113590 113600 113610 113620 113630 113640 113650 113660 113670 113680 113690 113700 113710 113720 113730 113740 113750 113760 113770 113780 113790 113800 113810 113820 113830 113840 113850 113860 113870 113880 113890 113900 113910 113920 113930 113940 113950 113960 113970 113980 113990 114000 114010 114020 114030 114040 114050 114060 114070 114080 114090 114100 114110 114120 114130 114140 114150 114160 114170 114180 114190 114200 114210 114220 114230 114240 114250 114260 114270 114280 114290 114300 114310 114320 114330 114340 114350 114360 114370 114380 114390 114400 114410 114420 114430 114440 114450 114460 114470 114480 114490 114500 114510 114520 114530 114540 114550 114560 114570 114580 114590 114600 114610 114620 114630 114640 114650 114660 114670 114680 114690 114700 114710 114720 114730 114740 114750 114760 114770 114780 114790 114800 114810 114820 114830 114840 114850 114860 114870 114880 114890 114900 114910 114920 114930 114940 114950 114960 114970 114980 114990 115000 115010 115020 115030 115040 115050 115060 115070 115080 115090 115100 115110 115120 115130 115140 115150 115160 115170 115180 115190 115200 115210 115220 115230 115240 115250 115260 115270 115280 115290 115300 115310 115320 115330 115340 115350 115360 115370 115380 115390 115400 115410 115420 115430 115440 115450 115460 115470 115480 115490 115500 115510 115520 115530 115540 115550 115560 115570 115580 115590 115600 115610 115620 115630 115640 115650 115660 115670 115680 115690 115700 115710 115720 115730 115740 115750 115760 115770 115780 115790 115800 115810 115820 115830 115840 115850 115860 115870 115880 115890 115900 115910 115920 115930 115940 115950 115960 115970 115980 115990 116000 116010 116020 116030 116040 116050 116060 116070 116080 116090 116100 116110 116120 116130 116140 116150 116160 116170 116180 116190 116200 116210 116220 116230 116240 116250 116260 116270 116280 116290 116300 116310 116320 116330 116340 116350 116360 116370 116380 116390 116400 116410 116420 116430 116440 116450 116460 116470 116480 116490 116500 116510 116520 116530 116540 116550 116560 116570 116580 116590 116600 116610 116620 116630 116640 116650 116660 116670 116680 116690 116700 116710 116720 116730 116740 116750 116760 116770 116780 116790 116800 116810 116820 116830 116840 116850 116860 116870 116880 116890 116900 116910 116920 116930 116940 116950 116960 116970 116980 116990 117000 117010 117020 117030 117040 117050 117060 117070 117080 117090 117100 117110 117120 117130 117140 117150 117160 117170 117180 117190 117200 117210 117220 117230 117240 117250 117260 117270 117280 117290 117300 117310 117320 117330 117340 117350 117360 117370 117380 117390 117400 117410 117420 117430 117440 117450 117460 117470 117480 117490 117500 117510 117520 117530 117540 117550 117560 117570 117580 117590 117600 117610 117620 117630 117640 117650 117660 117670 117680 117690 117700 117710 117720 117730 117740 117750 117760 117770 117780 117790 117800 117810 117820 117830 117840 117850 117860 117870 117880 117890 117900 117910 117920 117930 117940 117950 117960 117970 117980 117990 118000 118010 118020 118030 118040 118050 118060 118070 118080 118090 118100 118110 118120 118130 118140 118150 118160 118170 118180 118190 118200 118210 118220 118230 118240 118250 118260 118270 118280 118290 118300 118310 118320 118330 118340 118350 118360 118370 118380 118390 118400 118410 118420 118430 118440 118450 118460 118470 118480 118490 118500 118510 118520 118530 118540 118550 118560 118570 118580 118590 118600 118610 118620 118630 118640 118650 118660 118670 118680 118690 118700 118710 118720 118730 118740 118750 118760 118770 118780 118790 118800 118810 118820 118830 118840 118850 118860 118870 118880 118890 118900 118910 118920 118930 118940 118950 118960 118970 118980 118990 119000 119010 119020 119030 119040 119050 119060 119070 119080 119090 119100 119110 119120 119130 119140 119150 119160 119170 119180 119190 119200 119210 119220 119230 119240 119250 119260 119270 119280 119290 119300 119310 119320 119330 119340 119350 119360 119370 119380 119390 119400 119410 119420 119430 119440 119450 119460 119470 119480 119490 119500 119510 119520 119530 119540 119550 119560 119570 119580 119590 119600 119610 119620 119630 119640 119650 119660 119670 119680 119690 119700 119710 119720 119730 119740 119750 119760 119770 119780 119790 119800 119810 119820 119830 119840 119850 119860 119870 119880 119890 119900 119910 119920 119930 119940 119950 119960 119970 119980 119990 120000 120010 120020 120030 120040 120050 120060 120070 120080 120090 120100 120110 120120 120130 120140 120150 120160 120170 120180 120190 120200 120210 120220 120230 120240 120250 120260 120270 120280 120290 120300 120310 120320 120330 120340 120350 120360 120370 120380 120390 120400 120410 120420 120430 120440 120450 120460 120470 120480 120490 120500 120510 120520 120530 120540 120550 120560 120570 120580 120590 120600 120610 120620 120630 120640 120650 120660 120670 120680 120690 120700 120710 120720 120730 120740 120750 120760 120770 120780 120790 120800 120810 120820 120830 120840 120850 120860 120870 120880 120890 120900 120910 120920 120930 120940 120950 120960 120970 120980 120990 121000 121010 121020 121030 121040 121050 121060 121070 121080 121090 121100 121110 121120 121130 121140 121150 121160 121170 121180 121190 121200 121210 121220 121230 121240 121250 121260 121270 121280 121290 121300 121310 121320 121330 121340 121350 121360 121370 121380 121390 121400 121410 121420 121430 121440 121450 121460 121470 121480 121490 121500 121510 121520 121530 121540 121550 121560 121570 121580 121590 121600 121610 121620 121630 121640 121650 121660 121670 121680 121690 121700 121710 121720 121730 121740 121750 121760 121770 121780 121790 121800 121810 121820 121830 121840 121850 121860 121870 121880 121890 121900 121910 121920 121930 121940 121950 121960 121970 121980 121990 122000 122010 122020 122030 122040 122050 122060 122070 122080 122090 122100 122110 122120 122130 122140 122150 122160 122170 122180 122190 122200 122210 122220 122230 122240 122250 122260 122270 122280 122290 122300 122310 122320 122330 122340 122350 122360 122370 122380 122390 122400 122410 122420 122430 122440 122450 122460 122470 122480 122490 122500 122510 122520 122530 122540 122550 122560 122570 122580 122590 122600 122610 122620 122630 122640 122650 122660 122670 122680 122690 122700 122710 122720 122730 122740 122750 122760 122770 122780 122790 122800 122810 122820 122830 122840 122850 122860 122870 122880 
CONNECTIVITY vtktypeint64
0 33 331 34 2673 2674 2675 2676 2677 2678 
297 331 298 0 2679 2680 2681 2682 2675 2683 
0 33 330 331 2673 2684 2685 2675 2674 2686 
297 331 0 330 2679 2675 2682 2687 2686 2685 
298 0 331 1 2683 2675 2680 2688 2689 2690 
331 0 34 1 2675 2676 2678 2690 2689 2691 
1 34 332 35 2691 2692 2693 2694 2695 2696 
298 332 299 1 2697 2698 2699 2688 2693 2700 
1 34 331 332 2691 2678 2690 2693 2692 2701 
298 332 1 331 2697 2693 2688 2680 2701 2690 
299 1 332 2 2700 2693 2698 2702 2703 2704 
332 1 35 2 2693 2694 2696 2704 2703 2705 
2 35 333 36 2705 2706 2707 2708 2709 2710 
299 333 300 2 2711 2712 2713 2702 2707 2714 
2 35 332 333 2705 2696 2704 2707 2706 2715 
299 333 2 332 2711 2707 2702 2698 2715 2704 
300 2 333 3 2714 2707 2712 2716 2717 2718 
333 2 36 3 2707 2708 2710 2718 2717 2719 
3 36 334 37 2719 2720 2721 2722 2723 2724 
300 334 301 3 2725 2726 2727 2716 2721 2728 
3 36 333 334 2719 2710 2718 2721 2720 2729 
300 334 3 333 2725 2721 2716 2712 2729 2718 
301 3 334 4 2728 2721 2726 2730 2731 2732 
334 3 37 4 2721 2722 2724 2732 2731 2733 
4 37 335 38 2733 2734 2735 2736 2737 2738 
301 335 302 4 2739 2740 2741 2730 2735 2742 
4 37 334 335 2733 2724 2732 2735 2734 2743 
301 335 4 334 2739 2735 2730 2726 2743 2732 
302 4 335 5 2742 2735 2740 2744 2745 2746 
335 4 38 5 2735 2736 2738 2746 2745 2747 
5 38 336 39 2747 2748 2749 2750 2751 2752 
302 336 303 5 2753 2754 2755 2744 2749 2756 
5 38 335 336 2747 2738 2746 2749 2748 2757 
302 336 5 335 2753 2749 2744 2740 2757 2746 
303 5 336 6 2756 2749 2754 2758 2759 2760 
336 5 39 6 2749 2750 2752 2760 2759 2761 
6 39 337 40 2761 2762 2763 2764 2765 2766 
303 337 304 6 2767 2768 2769 2758 2763 2770 
6 39 336 337 2761 2752 2760 2763 2762 2771 
303 337 6 336 2767 2763 2758 2754 2771 2760 
304 6 337 7 2770 2763 2768 2772 2773 2774 
337 6 40 7 2763 2764 2766 2774 2773 2775 
7 40 338 41 2775 2776 2777 2778 2779 2780 
304 338 305 7 2781 2782 2783 2772 2777 2784 
7 40 337 338 2775 2766 2774 2777 2776 2785 
304 338 7 337 2781 2777 2772 2768 2785 2774 
305 7 338 8 2784 2777 2782 2786 2787 2788 
338 7 41 8 2777 2778 2780 2788 2787 2789 
8 41 339 42 2789 2790 2791 2792 2793 2794 
305 339 306 8 2795 2796 2797 2786 2791 2798 
8 41 338 339 2789 2780 2788 2791 2790 2799 
305 339 8 338 2795 2791 2786 2782 2799 2788 
306 8 339 9 2798 2791 2796 2800 2801 2802 
339 8 42 9 2791 2792 2794 2802 2801 2803 
9 42 340 43 2803 2804 2805 2806 2807 2808 
306 340 307 9 2809 2810 2811 2800 2805 2812 
9 42 339 340 2803 2794 2802 2805 2804 2813 
306 340 9 339 2809 2805 2800 2796 2813 2802 
307 9 340 10 2812 2805 2810 2814 2815 2816 
340 9 43 10 2805 2806 2808 2816 2815 2817 
10 43 341 44 2817 2818 2819 2820 2821 2822 
307 341 308 10 2823 2824 2825 2814 2819 2826 
10 43 340 341 2817 2808 2816 2819 2818 2827 
307 341 10 340 2823 2819 2814 2810 2827 2816 
308 10 341 11 2826 2819 2824 2828 2829 2830 
341 10 44 11 2819 2820 2822 2830 2829 2831 
11 44 342 45 2831 2832 2833 2834 2835 2836 
308 342 309 11 2837 2838 2839 2828 2833 2840 
11 44 341 342 2831 2822 2830 2833 2832 2841 
308 342 11 341 2837 2833 2828 2824 2841 2830 
309 11 342 12 2840 2833 2838 2842 2843 2844 
342 11 45 12 2833 2834 2836 2844 2843 2845 
12 45 343 46 2845 2846 2847 2848 2849 2850 
309 343 310 12 2851 2852 2853 2842 2847 2854 
12 45 342 343 2845 2836 2844 2847 2846 2855 
309 343 12 342 2851 2847 2842 2838 2855 2844 
310 12 343 13 2854 2847 2852 2856 2857 2858 
343 12 46 13 2847 2848 2850 2858 2857 2859 
13 46 344 47 2859 2860 2861 2862 2863 2864 
310 344 311 13 2865 2866 2867 2856 2861 2868 
13 46 343 344 2859 2850 2858 2861 2860 2869 
310 344 13 343 2865 2861 2856 2852 2869 2858 
311 13 344 14 2868 2861 2866 2870 2871 2872 
344 13 47 14 2861 2862 2864 2872 2871 2873 
14 47 345 48 2873 2874 2875 2876 2877 2878 
311 345 312 14 2879 2880 2881 2870 2875 2882 
14 47 344 345 2873 2864 2872 2875 2874 2883 
311 345 14 344 2879 2875 2870 2866 2883 2872 
312 14 345 15 2882 2875 2880 2884 2885 2886 
345 14 48 15 2875 2876 2878 2886 2885 2887 
15 48 346 49 2887 2888 2889 2890 2891 2892 
312 346 313 15 2893 2894 2895 2884 2889 2896 
15 48 345 346 2887 2878 2886 2889 2888 2897 
312 346 15 345 2893 2889 2884 2880 2897 2886 
313 15 346 16 2896 2889 2894 2898 2899 2900 
346 15 49 16 2889 2890 2892 2900 2899 2901 
16 49 347 50 2901 2902 2903 2904 2905 2906 
313 347 314 16 2907 2908 2909 2898 2903 2910 
16 49 346 347 2901 2892 2900 2903 2902 2911 
313 347 16 346 2907 2903 2898 2894 2911 2900 
314 16 347 17 2910 2903 2908 2912 2913 2914 
347 16 50 17 2903 2904 2906 2914 2913 2915 
17 50 348 51 2915 2916 2917 2918 2919 2920 
314 348 315 17 2921 2922 2923 2912 2917 2924 
17 50 347 348 2915 2906 2914 2917 2916 2925 
314 348 17 347 2921 2917 2912 2908 2925 2914 
315 17 348 18 2924 2917 2922 2926 2927 2928 
348 17 51 18 2917 2918 2920 2928 2927 2929 
18 51 349 52 2929 2930 2931 2932 2933 2934 
315 349 316 18 2935 2936 2937 2926 2931 2938 
18 51 348 349 2929 2920 2928 2931 2930 2939 
315 349 18 348 2935 2931 2926 2922 2939 2928 
316 18 349 19 2938 2931 2936 2940 2941 2942 
349 18 52 19 2931 2932 2934 2942 2941 2943 
19 52 350 53 2943 2944 2945 2946 2947 2948 
316 350 317 19 2949 2950 2951 2940 2945 2952 
19 52 349 350 2943 2934 2942 2945 2944 2953 
316 350 19 349 2949 2945 2940 2936 2953 2942 
317 19 350 20 2952 2945 2950 2954 2955 2956 
350 19 53 20 2945 2946 2948 2956 2955 2957 
20 53 351 54 2957 2958 2959 2960 2961 2962 
317 351 318 20 2963 2964 2965 2954 2959 2966 
20 53 350 351 2957 2948 2956 2959 2958 2967 
317 351 20 350 2963 2959 2954 2950 2967 2956 
318 20 351 21 2966 2959 2964 2968 2969 2970 
351 20 54 21 2959 2960 2962 2970 2969 2971 
21 54 352 55 2971 2972 2973 2974 2975 2976 
318 352 319 21 2977 2978 2979 2968 2973 2980 
21 54 351 352 2971 2962 2970 2973 2972 2981 
318 352 21 351 2977 2973 2968 2964 2981 2970 
319 21 352 22 2980 2973 2978 2982 2983 2984 
352 21 55 22 2973 2974 2976 2984 2983 2985 
22 55 353 56 2985 2986 2987 2988 2989 2990 
319 353 320 22 2991 2992 2993 2982 2987 2994 
22 55 352 353 2985 2976 2984 2987 2986 2995 
319 353 22 352 2991 2987 2982 2978 2995 2984 
320 22 353 23 2994 2987 2992 2996 2997 2998 
353 22 56 23 2987 2988 2990 2998 2997 2999 
23 56 354 57 2999 3000 3001 3002 3003 3004 
320 354 321 23 3005 3006 3007 2996 3001 3008 
23 56 353 354 2999 2990 2998 3001 3000 3009 
320 354 23 353 3005 3001 2996 2992 3009 2998 
321 23 354 24 3008 3001 3006 3010 3011 3012 
354 23 57 24 3001 3002 3004 3012 3011 3013 
24 57 355 58 3013 3014 3015 3016 3017 3018 
321 355 322 24 3019 3020 3021 3010 3015 3022 
24 57 354 355 3013 3004 3012 3015 3014 3023 
321 355 24 354 3019 3015 3010 3006 3023 3012 
322 24 355 25 3022 3015 3020 3024 3025 3026 
355 24 58 25 3015 3016 3018 3026 3025 3027 
25 58 356 59 3027 3028 3029 3030 3031 3032 
322 356 323 25 3033 3034 3035 3024 3029 3036 
25 58 355 356 3027 3018 3026 3029 3028 3037 
322 356 25 355 3033 3029 3024 3020 3037 3026 
323 25 356 26 3036 3029 3034 3038 3039 3040 
356 25 59 26 3029 3030 3032 3040 3039 3041 
26 59 357 60 3041 3042 3043 3044 3045 3046 
323 357 324 26 3047 3048 3049 3038 3043 3050 
26 59 356 357 3041 3032 3040 3043 3042 3051 
323 357 26 356 3047 3043 3038 3034 3051 3040 
324 26 357 27 3050 3043 3048 3052 3053 3054 
357 26 60 27 3043 3044 3046 3054 3053 3055 
27 60 358 61 3055 3056 3057 3058 3059 3060 
324 358 325 27 3061 3062 3063 3052 3057 3064 
27 60 357 358 3055 3046 3054 3057 3056 3065 
324 358 27 357 3061 3057 3052 3048 3065 3054 
325 27 358 28 3064 3057 3062 3066 3067 3068 
358 27 61 28 3057 3058 3060 3068 3067 3069 
28 61 359 62 3069 3070 3071 3072 3073 3074 
325 359 326 28 3075 3076 3077 3066 3071 3078 
28 61 358 359 3069 3060 3068 3071 3070 3079 
325 359 28 358 3075 3071 3066 3062 3079 3068 
326 28 359 29 3078 3071 3076 3080 3081 3082 
359 28 62 29 3071 3072 3074 3082 3081 3083 
29 62 360 63 3083 3084 3085 3086 3087 3088 
326 360 327 29 3089 3090 3091 3080 3085 3092 
29 62 359 360 3083 3074 3082 3085 3084 3093 
326 360 29 359 3089 3085 3080 3076 3093 3082 
327 29 360 30 3092 3085 3090 3094 3095 3096 
360 29 63 30 3085 3086 3088 3096 3095 3097 
30 63 361 64 3097 3098 3099 3100 3101 3102 
327 361 328 30 3103 3104 3105 3094 3099 3106 
30 63 360 361 3097 3088 3096 3099 3098 3107 
327 361 30 360 3103 3099 3094 3090 3107 3096 
328 30 361 31 3106 3099 3104 3108 3109 3110 
361 30 64 31 3099 3100 3102 3110 3109 3111 
31 64 362 65 3111 3112 3113 3114 3115 3116 
328 362 329 31 3117 3118 3119 3108 3113 3120 
31 64 361 362 3111 3102 3110 3113 3112 3121 
328 362 31 361 3117 3113 3108 3104 3121 3110 
329 31 362 32 3120 3113 3118 3122 3123 3124 
362 31 65 32 3113 3114 3116 3124 3123 3125 
33 66 364 67 3126 3127 3128 3129 3130 3131 
330 364 331 33 3132 3133 2686 2684 3128 2674 
33 66 363 364 3126 3134 3135 3128 3127 3136 
330 364 33 363 3132 3128 2684 3137 3136 3135 
331 33 364 34 2674 3128 3133 2678 2677 3138 
364 33 67 34 3128 3129 3131 3138 2677 3139 
34 67 365 68 3139 3140 3141 3142 3143 3144 
331 365 332 34 3145 3146 2701 2678 3141 2692 
34 67 364 365 3139 3131 3138 3141 3140 3147 
331 365 34 364 3145 3141 2678 3133 3147 3138 
332 34 365 35 2692 3141 3146 2696 2695 3148 
365 34 68 35 3141 3142 3144 3148 2695 3149 
35 68 366 69 3149 3150 3151 3152 3153 3154 
332 366 333 35 3155 3156 2715 2696 3151 2706 
35 68 365 366 3149 3144 3148 3151 3150 3157 
332 366 35 365 3155 3151 2696 3146 3157 3148 
333 35 366 36 2706 3151 3156 2710 2709 3158 
366 35 69 36 3151 3152 3154 3158 2709 3159 
36 69 367 70 3159 3160 3161 3162 3163 3164 
333 367 334 36 3165 3166 2729 2710 3161 2720 
36 69 366 367 3159 3154 3158 3161 3160 3167 
333 367 36 366 3165 3161 2710 3156 3167 3158 
334 36 367 37 2720 3161 3166 2724 2723 3168 
367 36 70 37 3161 3162 3164 3168 2723 3169 
37 70 368 71 3169 3170 3171 3172 3173 3174 
334 368 335 37 3175 3176 2743 2724 3171 2734 
37 70 367 368 3169 3164 3168 3171 3170 3177 
334 368 37 367 3175 3171 2724 3166 3177 3168 
335 37 368 38 2734 3171 3176 2738 2737 3178 
368 37 71 38 3171 3172 3174 3178 2737 3179 
38 71 369 72 3179 3180 3181 3182 3183 3184 
335 369 336 38 3185 3186 2757 2738 3181 2748 
38 71 368 369 3179 3174 3178 3181 3180 3187 
335 369 38 368 3185 3181 2738 3176 3187 3178 
336 38 369 39 2748 3181 3186 2752 2751 3188 
369 38 72 39 3181 3182 3184 3188 2751 3189 
39 72 370 73 3189 3190 3191 3192 3193 3194 
336 370 337 39 3195 3196 2771 2752 3191 2762 
39 72 369 370 3189 3184 3188 3191 3190 3197 
336 370 39 369 3195 3191 2752 3186 3197 3188 
337 39 370 40 2762 3191 3196 2766 2765 3198 
370 39 73 40 3191 3192 3194 3198 2765 3199 
40 73 371 74 3199 3200 3201 3202 3203 3204 
337 371 338 40 3205 3206 2785 2766 3201 2776 
40 73 370 371 3199 3194 3198 3201 3200 3207 
337 371 40 370 3205 3201 2766 3196 3207 3198 
338 40 371 41 2776 3201 3206 2780 2779 3208 
371 40 74 41 3201 3202 3204 3208 2779 3209 
41 74 372 75 3209 3210 3211 3212 3213 3214 
338 372 339 41 3215 3216 2799 2780 3211 2790 
41 74 371 372 3209 3204 3208 3211 3210 3217 
338 372 41 371 3215 3211 2780 3206 3217 3208 
339 41 372 42 2790 3211 3216 2794 2793 3218 
372 41 75 42 3211 3212 3214 3218 2793 3219 
42 75 373 76 3219 3220 3221 3222 3223 3224 
339 373 340 42 3225 3226 2813 2794 3221 2804 
42 75 372 373 3219 3214 3218 3221 3220 3227 
339 373 42 372 3225 3221 2794 3216 3227 3218 
340 42 373 43 2804 3221 3226 2808 2807 3228 
373 42 76 43 3221 3222 3224 3228 2807 3229 
43 76 374 77 3229 3230 3231 3232 3233 3234 
340 374 341 43 3235 3236 2827 2808 3231 2818 
43 76 373 374 3229 3224 3228 3231 3230 3237 
340 374 43 373 3235 3231 2808 3226 3237 3228 
341 43 374 44 2818 3231 3236 2822 2821 3238 
374 43 77 44 3231 3232 3234 3238 2821 3239 
44 77 375 78 3239 3240 3241 3242 3243 3244 
341 375 342 44 3245 3246 2841 2822 3241 2832 
44 77 374 375 3239 3234 3238 3241 3240 3247 
341 375 44 374 3245 3241 2822 3236 3247 3238 
342 44 375 45 2832 3241 3246 2836 2835 3248 
375 44 78 45 3241 3242 3244 3248 2835 3249 
45 78 376 79 3249 3250 3251 3252 3253 3254 
342 376 343 45 3255 3256 2855 2836 3251 2846 
45 78 375 376 3249 3244 3248 3251 3250 3257 
342 376 45 375 3255 3251 2836 3246 3257 3248 
343 45 376 46 2846 3251 3256 2850 2849 3258 
376 45 79 46 3251 3252 3254 3258 2849 3259 
46 79 377 80 3259 3260 3261 3262 3263 3264 
343 377 344 46 3265 3266 2869 2850 3261 2860 
46 79 376 377 3259 3254 3258 3261 3260 3267 
343 377 46 376 3265 3261 2850 3256 3267 3258 
344 46 377 47 2860 3261 3266 2864 2863 3268 
377 46 80 47 3261 3262 3264 3268 2863 3269 
47 80 378 81 3269 3270 3271 3272 3273 3274 
344 378 345 47 3275 3276 2883 2864 3271 2874 
47 80 377 378 3269 3264 3268 3271 3270 3277 
344 378 47 377 3275 3271 2864 3266 3277 3268 
345 47 378 48 2874 3271 3276 2878 2877 3278 
378 47 81 48 3271 3272 3274 3278 2877 3279 
48 81 379 82 3279 3280 3281 3282 3283 3284 
345 379 346 48 3285 3286 2897 2878 3281 2888 
48 81 378 379 3279 3274 3278 3281 3280 3287 
345 379 48 378 3285 3281 2878 3276 3287 3278 
346 48 379 49 2888 3281 3286 2892 2891 3288 
379 48 82 49 3281 3282 3284 3288 2891 3289 
49 82 380 83 3289 3290 3291 3292 3293 3294 
346 380 347 49 3295 3296 2911 2892 3291 2902 
49 82 379 380 3289 3284 3288 3291 3290 3297 
346 380 49 379 3295 3291 2892 3286 3297 3288 
347 49 380 50 2902 3291 3296 2906 2905 3298 
380 49 83 50 3291 3292 3294 3298 2905 3299 
50 83 381 84 3299 3300 3301 3302 3303 3304 
347 381 348 50 3305 3306 2925 2906 3301 2916 
50 83 380 381 3299 3294 3298 3301 3300 3307 
347 381 50 380 3305 3301 2906 3296 3307 3298 
348 50 381 51 2916 3301 3306 2920 2919 3308 
381 50 84 51 3301 3302 3304 3308 2919 3309 
51 84 382 85 3309 3310 3311 3312 3313 3314 
348 382 349 51 3315 3316 2939 2920 3311 2930 
51 84 381 382 3309 3304 3308 3311 3310 3317 
348 382 51 381 3315 3311 2920 3306 3317 3308 
349 51 382 52 2930 3311 3316 2934 2933 3318 
382 51 85 52 3311 3312 3314 3318 2933 3319 
52 85 383 86 3319 3320 3321 3322 3323 3324 
349 383 350 52 3325 3326 2953 2934 3321 2944 
52 85 382 383 3319 3314 3318 3321 3320 3327 
349 383 52 382 3325 3321 2934 3316 3327 3318 
350 52 383 53 2944 3321 3326 2948 2947 3328 
383 52 86 53 3321 3322 3324 3328 2947 3329 
53 86 384 87 3329 3330 3331 3332 3333 3334 
350 384 351 53 3335 3336 2967 2948 3331 2958 
53 86 383 384 3329 3324 3328 3331 3330 3337 
350 384 53 383 3335 3331 2948 3326 3337 3328 
351 53 384 54 2958 3331 3336 2962 2961 3338 
384 53 87 54 3331 3332 3334 3338 2961 3339 
54 87 385 88 3339 3340 3341 3342 3343 3344 
351 385 352 54 3345 3346 2981 2962 3341 2972 
54 87 384 385 3339 3334 3338 3341 3340 3347 
351 385 54 384 3345 3341 2962 3336 3347 3338 
352 54 385 55 2972 3341 3346 2976 2975 3348 
385 54 88 55 3341 3342 3344 3348 2975 3349 
55 88 386 89 3349 3350 3351 3352 3353 3354 
352 386 353 55 3355 3356 2995 2976 3351 2986 
55 88 385 386 3349 3344 3348 3351 3350 3357 
352 386 55 385 3355 3351 2976 3346 3357 3348 
353 55 386 56 2986 3351 3356 2990 2989 3358 
386 55 89 56 3351 3352 3354 3358 2989 3359 
56 89 387 90 3359 3360 3361 3362 3363 3364 
353 387 354 56 3365 3366 3009 2990 3361 3000 
56 89 386 387 3359 3354 3358 3361 3360 3367 
353 387 56 386 3365 3361 2990 3356 3367 3358 
354 56 387 57 3000 3361 3366 3004 3003 3368 
387 56 90 57 3361 3362 3364 3368 3003 3369 
57 90 388 91 3369 3370 3371 3372 3373 3374 
354 388 355 57 3375 3376 3023 3004 3371 3014 
57 90 387 388 3369 3364 3368 3371 3370 3377 
354 388 57 387 3375 3371 3004 3366 3377 3368 
355 57 388 58 3014 3371 3376 3018 3017 3378 
388 57 91 58 3371 3372 3374 3378 3017 3379 
58 91 389 92 3379 3380 3381 3382 3383 3384 
355 389 356 58 3385 3386 3037 3018 3381 3028 
58 91 388 389 3379 3374 3378 3381 3380 3387 
355 389 58 388 3385 3381 3018 3376 3387 3378 
356 58 389 59 3028 3381 3386 3032 3031 3388 
389 58 92 59 3381 3382 3384 3388 3031 3389 
59 92 390 93 3389 3390 3391 3392 3393 3394 
356 390 357 59 3395 3396 3051 3032 3391 3042 
59 92 389 390 3389 3384 3388 3391 3390 3397 
356 390 59 389 3395 3391 3032 3386 3397 3388 
357 59 390 60 3042 3391 3396 3046 3045 3398 
390 59 93 60 3391 3392 3394 3398 3045 3399 
60 93 391 94 3399 3400 3401 3402 3403 3404 
357 391 358 60 3405 3406 3065 3046 3401 3056 
60 93 390 391 3399 3394 3398 3401 3400 3407 
357 391 60 390 3405 3401 3046 3396 3407 3398 
358 60 391 61 3056 3401 3406 3060 3059 3408 
391 60 94 61 3401 3402 3404 3408 3059 3409 
61 94 392 95 3409 3410 3411 3412 3413 3414 
358 392 359 61 3415 3416 3079 3060 3411 3070 
61 94 391 392 3409 3404 3408 3411 3410 3417 
358 392 61 391 3415 3411 3060 3406 3417 3408 
359 61 392 62 3070 3411 3416 3074 3073 3418 
392 61 95 62 3411 3412 3414 3418 3073 3419 
62 95 393 96 3419 3420 3421 3422 3423 3424 
359 393 360 62 3425 3426 3093 3074 3421 3084 
62 95 392 393 3419 3414 3418 3421 3420 3427 
359 393 62 392 3425 3421 3074 3416 3427 3418 
360 62 393 63 3084 3421 3426 3088 3087 3428 
393 62 96 63 3421 3422 3424 3428 3087 3429 
63 96 394 97 3429 3430 3431 3432 3433 3434 
360 394 361 63 3435 3436 3107 3088 3431 3098 
63 96 393 394 3429 3424 3428 3431 3430 3437 
360 394 63 393 3435 3431 3088 3426 3437 3428 
361 63 394 64 3098 3431 3436 3102 3101 3438 
394 63 97 64 3431 3432 3434 3438 3101 3439 
64 97 395 98 3439 3440 3441 3442 3443 3444 
361 395 362 64 3445 3446 3121 3102 3441 3112 
64 97 394 395 3439 3434 3438 3441 3440 3447 
361 395 64 394 3445 3441 3102 3436 3447 3438 
362 64 395 65 3112 3441 3446 3116 3115 3448 
395 64 98 65 3441 3442 3444 3448 3115 3449 
66 99 397 100 3450 3451 3452 3453 3454 3455 
363 397 364 66 3456 3457 3136 3134 3452 3127 
66 99 396 397 3450 3458 3459 3452 3451 3460 
363 397 66 396 3456 3452 3134 3461 3460 3459 
364 66 397 67 3127 3452 3457 3131 3130 3462 
397 66 100 67 3452 3453 3455 3462 3130 3463 
67 100 398 101 3463 3464 3465 3466 3467 3468 
364 398 365 67 3469 3470 3147 3131 3465 3140 
67 100 397 398 3463 3455 3462 3465 3464 3471 
364 398 67 397 3469 3465 3131 3457 3471 3462 
365 67 398 68 3140 3465 3470 3144 3143 3472 
398 67 101 68 3465 3466 3468 3472 3143 3473 
68 101 399 102 3473 3474 3475 3476 3477 3478 
365 399 366 68 3479 3480 3157 3144 3475 3150 
68 101 398 399 3473 3468 3472 3475 3474 3481 
365 399 68 398 3479 3475 3144 3470 3481 3472 
366 68 399 69 3150 3475 3480 3154 3153 3482 
399 68 102 69 3475 3476 3478 3482 3153 3483 
69 102 400 103 3483 3484 3485 3486 3487 3488 
366 400 367 69 3489 3490 3167 3154 3485 3160 
69 102 399 400 3483 3478 3482 3485 3484 3491 
366 400 69 399 3489 3485 3154 3480 3491 3482 
367 69 400 70 3160 3485 3490 3164 3163 3492 
400 69 103 70 3485 3486 3488 3492 3163 3493 
70 103 401 104 3493 3494 3495 3496 3497 3498 
367 401 368 70 3499 3500 3177 3164 3495 3170 
70 103 400 401 3493 3488 3492 3495 3494 3501 
367 401 70 400 3499 3495 3164 3490 3501 3492 
368 70 401 71 3170 3495 3500 3174 3173 3502 
401 70 104 71 3495 3496 3498 3502 3173 3503 
71 104 402 105 3503 3504 3505 3506 3507 3508 
368 402 369 71 3509 3510 3187 3174 3505 3180 
71 104 401 402 3503 3498 3502 3505 3504 3511 
368 402 71 401 3509 3505 3174 3500 3511 3502 
369 71 402 72 3180 3505 3510 3184 3183 3512 
402 71 105 72 3505 3506 3508 3512 3183 3513 
72 105 403 106 3513 3514 3515 3516 3517 3518 
369 403 370 72 3519 3520 3197 3184 3515 3190 
72 105 402 403 3513 3508 3512 3515 3514 3521 
369 403 72 402 3519 3515 3184 3510 3521 3512 
370 72 403 73 3190 3515 3520 3194 3193 3522 
403 72 106 73 3515 3516 3518 3522 3193 3523 
73 106 404 107 3523 3524 3525 3526 3527 3528 
370 404 371 73 3529 3530 3207 3194 3525 3200 
73 106 403 404 3523 3518 3522 3525 3524 3531 
370 404 73 403 3529 3525 3194 3520 3531 3522 
371 73 404 74 3200 3525 3530 3204 3203 3532 
404 73 107 74 3525 3526 3528 3532 3203 3533 
74 107 405 108 3533 3534 3535 3536 3537 3538 
371 405 372 74 3539 3540 3217 3204 3535 3210 
74 107 404 405 3533 3528 3532 3535 3534 3541 
371 405 74 404 3539 3535 3204 3530 3541 3532 
372 74 405 75 3210 3535 3540 3214 3213 3542 
405 74 108 75 3535 3536 3538 3542 3213 3543 
75 108 406 109 3543 3544 3545 3546 3547 3548 
372 406 373 75 3549 3550 3227 3214 3545 3220 
75 108 405 406 3543 3538 3542 3545 3544 3551 
372 406 75 405 3549 3545 3214 3540 3551 3542 
373 75 406 76 3220 3545 3550 3224 3223 3552 
406 75 109 76 3545 3546 3548 3552 3223 3553 
76 109 407 110 3553 3554 3555 3556 3557 3558 
373 407 374 76 3559 3560 3237 3224 3555 3230 
76 109 406 407 3553 3548 3552 3555 3554 3561 
373 407 76 406 3559 3555 3224 3550 3561 3552 
374 76 407 77 3230 3555 3560 3234 3233 3562 
407 76 110 77 3555 3556 3558 3562 3233 3563 
77 110 408 111 3563 3564 3565 3566 3567 3568 
374 408 375 77 3569 3570 3247 3234 3565 3240 
77 110 407 408 3563 3558 3562 3565 3564 3571 
374 408 77 407 3569 3565 3234 3560 3571 3562 
375 77 408 78 3240 3565 3570 3244 3243 3572 
408 77 111 78 3565 3566 3568 3572 3243 3573 
78 111 409 112 3573 3574 3575 3576 3577 3578 
375 409 376 78 3579 3580 3257 3244 3575 3250 
78 111 408 409 3573 3568 3572 3575 3574 3581 
375 409 78 408 3579 3575 3244 3570 3581 3572 
376 78 409 79 3250 3575 3580 3254 3253 3582 
409 78 112 79 3575 3576 3578 3582 3253 3583 
79 112 410 113 3583 3584 3585 3586 3587 3588 
376 410 377 79 3589 3590 3267 3254 3585 3260 
79 112 409 410 3583 3578 3582 3585 3584 3591 
376 410 79 409 3589 3585 3254 3580 3591 3582 
377 79 410 80 3260 3585 3590 3264 3263 3592 
410 79 113 80 3585 3586 3588 3592 3263 3593 
80 113 411 114 3593 3594 3595 3596 3597 3598 
377 411 378 80 3599 3600 3277 3264 3595 3270 
80 113 410 411 3593 3588 3592 3595 3594 3601 
377 411 80 410 3599 3595 3264 3590 3601 3592 
378 80 411 81 3270 3595 3600 3274 3273 3602 
411 80 114 81 3595 3596 3598 3602 3273 3603 
81 114 412 115 3603 3604 3605 3606 3607 3608 
378 412 379 81 3609 3610 3287 3274 3605 3280 
81 114 411 412 3603 3598 3602 3605 3604 3611 
378 412 81 411 3609 3605 3274 3600 3611 3602 
379 81 412 82 3280 3605 3610 3284 3283 3612 
412 81 115 82 3605 3606 3608 3612 3283 3613 
82 115 413 116 3613 3614 3615 3616 3617 3618 
379 413 380 82 3619 3620 3297 3284 3615 3290 
82 115 412 413 3613 3608 3612 3615 3614 3621 
379 413 82 412 3619 3615 3284 3610 3621 3612 
380 82 413 83 3290 3615 3620 3294 3293 3622 
413 82 116 83 3615 3616 3618 3622 3293 3623 
83 116 414 117 3623 3624 3625 3626 3627 3628 
380 414 381 83 3629 3630 3307 3294 3625 3300 
83 116 413 414 3623 3618 3622 3625 3624 3631 
380 414 83 413 3629 3625 3294 3620 3631 3622 
381 83 414 84 3300 3625 3630 3304 3303 3632 
414 83 117 84 3625 3626 3628 3632 3303 3633 
84 117 415 118 3633 3634 3635 3636 3637 3638 
381 415 382 84 3639 3640 3317 3304 3635 3310 
84 117 414 415 3633 3628 3632 3635 3634 3641 
381 415 84 414 3639 3635 3304 3630 3641 3632 
382 84 415 85 3310 3635 3640 3314 3313 3642 
415 84 118 85 3635 3636 3638 3642 3313 3643 
85 118 416 119 3643 3644 3645 3646 3647 3648 
382 416 383 85 3649 3650 3327 3314 3645 3320 
85 118 415 416 3643 3638 3642 3645 3644 3651 
382 416 85 415 3649 3645 3314 3640 3651 3642 
383 85 416 86 3320 3645 3650 3324 3323 3652 
416 85 119 86 3645 3646 3648 3652 3323 3653 
86 119 417 120 3653 3654 3655 3656 3657 3658 
383 417 384 86 3659 3660 3337 3324 3655 3330 
86 119 416 417 3653 3648 3652 3655 3654 3661 
383 417 86 416 3659 3655 3324 3650 3661 3652 
384 86 417 87 3330 3655 3660 3334 3333 3662 
417 86 120 87 3655 3656 3658 3662 3333 3663 
87 120 418 121 3663 3664 3665 3666 3667 3668 
384 418 385 87 3669 3670 3347 3334 3665 3340 
87 120 417 418 3663 3658 3662 3665 3664 3671 
384 418 87 417 3669 3665 3334 3660 3671 3662 
385 87 418 88 3340 3665 3670 3344 3343 3672 
418 87 121 88 3665 3666 3668 3672 3343 3673 
88 121 419 122 3673 3674 3675 3676 3677 3678 
385 419 386 88 3679 3680 3357 3344 3675 3350 
88 121 418 419 3673 3668 3672 3675 3674 3681 
385 419 88 418 3679 3675 3344 3670 3681 3672 
386 88 419 89 3350 3675 3680 3354 3353 3682 
419 88 122 89 3675 3676 3678 3682 3353 3683 
89 122 420 123 3683 3684 3685 3686 3687 3688 
386 420 387 89 3689 3690 3367 3354 3685 3360 
89 122 419 420 3683 3678 3682 3685 3684 3691 
386 420 89 419 3689 3685 3354 3680 3691 3682 
387 89 420 90 3360 3685 3690 3364 3363 3692 
420 89 123 90 3685 3686 3688 3692 3363 3693 
90 123 421 124 3693 3694 3695 3696 3697 3698 
387 421 388 90 3699 3700 3377 3364 3695 3370 
90 123 420 421 3693 3688 3692 3695 3694 3701 
387 421 90 420 3699 3695 3364 3690 3701 3692 
388 90 421 91 3370 3695 3700 3374 3373 3702 
421 90 124 91 3695 3696 3698 3702 3373 3703 
91 124 422 125 3703 3704 3705 3706 3707 3708 
388 422 389 91 3709 3710 3387 3374 3705 3380 
91 124 421 422 3703 3698 3702 3705 3704 3711 
388 422 91 421 3709 3705 3374 3700 3711 3702 
389 91 422 92 3380 3705 3710 3384 3383 3712 
422 91 125 92 3705 3706 3708 3712 3383 3713 
92 125 423 126 3713 3714 3715 3716 3717 3718 
389 423 390 92 3719 3720 3397 3384 3715 3390 
92 125 422 423 3713 3708 3712 3715 3714 3721 
389 423 92 422 3719 3715 3384 3710 3721 3712 
390 92 423 93 3390 3715 3720 3394 3393 3722 
423 92 126 93 3715 3716 3718 3722 3393 3723 
93 126 424 127 3723 3724 3725 3726 3727 3728 
390 424 391 93 3729 3730 3407 3394 3725 3400 
93 126 423 424 3723 3718 3722 3725 3724 3731 
390 424 93 423 3729 3725 3394 3720 3731 3722 
391 93 424 94 3400 3725 3730 3404 3403 3732 
424 93 127 94 3725 3726 3728 3732 3403 3733 
94 127 425 128 3733 3734 3735 3736 3737 3738 
391 425 392 94 3739 3740 3417 3404 3735 3410 
94 127 424 425 3733 3728 3732 3735 3734 3741 
391 425 94 424 3739 3735 3404 3730 3741 3732 
392 94 425 95 3410 3735 3740 3414 3413 3742 
425 94 128 95 3735 3736 3738 3742 3413 3743 
95 128 426 129 3743 3744 3745 3746 3747 3748 
392 426 393 95 3749 3750 3427 3414 3745 3420 
95 128 425 426 3743 3738 3742 3745 3744 3751 
392 426 95 425 3749 3745 3414 3740 3751 3742 
393 95 426 96 3420 3745 3750 3424 3423 3752 
426 95 129 96 3745 3746 3748 3752 3423 3753 
96 129 427 130 3753 3754 3755 3756 3757 3758 
393 427 394 96 3759 3760 3437 3424 3755 3430 
96 129 426 427 3753 3748 3752 3755 3754 3761 
393 427 96 426 3759 3755 3424 3750 3761 3752 
394 96 427 97 3430 3755 3760 3434 3433 3762 
427 96 130 97 3755 3756 3758 3762 3433 3763 
97 130 428 131 3763 3764 3765 3766 3767 3768 
394 428 395 97 3769 3770 3447 3434 3765 3440 
97 130 427 428 3763 3758 3762 3765 3764 3771 
394 428 97 427 3769 3765 3434 3760 3771 3762 
395 97 428 98 3440 3765 3770 3444 3443 3772 
428 97 131 98 3765 3766 3768 3772 3443 3773 
99 132 430 133 3774 3775 3776 3777 3778 3779 
396 430 397 99 3780 3781 3460 3458 3776 3451 
99 132 429 430 3774 3782 3783 3776 3775 3784 
396 430 99 429 3780 3776 3458 3785 3784 3783 
397 99 430 100 3451 3776 3781 3455 3454 3786 
430 99 133 100 3776 3777 3779 3786 3454 3787 
100 133 431 134 3787 3788 3789 3790 3791 3792 
397 431 398 100 3793 3794 3471 3455 3789 3464 
100 133 430 431 3787 3779 3786 3789 3788 3795 
397 431 100 430 3793 3789 3455 3781 3795 3786 
398 100 431 101 3464 3789 3794 3468 3467 3796 
431 100 134 101 3789 3790 3792 3796 3467 3797 
101 134 432 135 3797 3798 3799 3800 3801 3802 
398 432 399 101 3803 3804 3481 3468 3799 3474 
101 134 431 432 3797 3792 3796 3799 3798 3805 
398 432 101 431 3803 3799 3468 3794 3805 3796 
399 101 432 102 3474 3799 3804 3478 3477 3806 
432 101 135 102 3799 3800 3802 3806 3477 3807 
102 135 433 136 3807 3808 3809 3810 3811 3812 
399 433 400 102 3813 3814 3491 3478 3809 3484 
102 135 432 433 3807 3802 3806 3809 3808 3815 
399 433 102 432 3813 3809 3478 3804 3815 3806 
400 102 433 103 3484 3809 3814 3488 3487 3816 
433 102 136 103 3809 3810 3812 3816 3487 3817 
103 136 434 137 3817 3818 3819 3820 3821 3822 
400 434 401 103 3823 3824 3501 3488 3819 3494 
103 136 433 434 3817 3812 3816 3819 3818 3825 
400 434 103 433 3823 3819 3488 3814 3825 3816 
401 103 434 104 3494 3819 3824 3498 3497 3826 
434 103 137 104 3819 3820 3822 3826 3497 3827 
104 137 435 138 3827 3828 3829 3830 3831 3832 
401 435 402 104 3833 3834 3511 3498 3829 3504 
104 137 434 435 3827 3822 3826 3829 3828 3835 
401 435 104 434 3833 3829 3498 3824 3835 3826 
402 104 435 105 3504 3829 3834 3508 3507 3836 
435 104 138 105 3829 3830 3832 3836 3507 3837 
105 138 436 139 3837 3838 3839 3840 3841 3842 
402 436 403 105 3843 3844 3521 3508 3839 3514 
105 138 435 436 3837 3832 3836 3839 3838 3845 
402 436 105 435 3843 3839 3508 3834 3845 3836 
403 105 436 106 3514 3839 3844 3518 3517 3846 
436 105 139 106 3839 3840 3842 3846 3517 3847 
106 139 437 140 3847 3848 3849 3850 3851 3852 
403 437 404 106 3853 3854 3531 3518 3849 3524 
106 139 436 437 3847 3842 3846 3849 3848 3855 
403 437 106 436 3853 3849 3518 3844 3855 3846 
404 106 437 107 3524 3849 3854 3528 3527 3856 
437 106 140 107 3849 3850 3852 3856 3527 3857 
107 140 438 141 3857 3858 3859 3860 3861 3862 
404 438 405 107 3863 3864 3541 3528 3859 3534 
107 140 437 438 3857 3852 3856 3859 3858 3865 
404 438 107 437 3863 3859 3528 3854 3865 3856 
405 107 438 108 3534 3859 3864 3538 3537 3866 
438 107 141 108 3859 3860 3862 3866 3537 3867 
108 141 439 142 3867 3868 3869 3870 3871 3872 
405 439 406 108 3873 3874 3551 3538 3869 3544 
108 141 438 439 3867 3862 3866 3869 3868 3875 
405 439 108 438 3873 3869 3538 3864 3875 3866 
406 108 439 109 3544 3869 3874 3548 3547 3876 
439 108 142 109 3869 3870 3872 3876 3547 3877 
109 142 440 143 3877 3878 3879 3880 3881 3882 
406 440 407 109 3883 3884 3561 3548 3879 3554 
109 142 439 440 3877 3872 3876 3879 3878 3885 
406 440 109 439 3883 3879 3548 3874 3885 3876 
407 109 440 110 3554 3879 3884 3558 3557 3886 
440 109 143 110 3879 3880 3882 3886 3557 3887 
110 143 441 144 3887 3888 3889 3890 3891 3892 
407 441 408 110 3893 3894 3571 3558 3889 3564 
110 143 440 441 3887 3882 3886 3889 3888 3895 
407 441 110 440 3893 3889 3558 3884 3895 3886 
408 110 441 111 3564 3889 3894 3568 3567 3896 
441 110 144 111 3889 3890 3892 3896 3567 3897 
111 144 442 145 3897 3898 3899 3900 3901 3902 
408 442 409 111 3903 3904 3581 3568 3899 3574 
111 144 441 442 3897 3892 3896 3899 3898 3905 
408 442 111 441 3903 3899 3568 3894 3905 3896 
409 111 442 112 3574 3899 3904 3578 3577 3906 
442 111 145 112 3899 3900 3902 3906 3577 3907 
112 145 443 146 3907 3908 3909 3910 3911 3912 
409 443 410 112 3913 3914 3591 3578 3909 3584 
112 145 442 443 3907 3902 3906 3909 3908 3915 
409 443 112 442 3913 3909 3578 3904 3915 3906 
410 112 443 113 3584 3909 3914 3588 3587 3916 
443 112 146 113 3909 3910 3912 3916 3587 3917 
113 146 444 147 3917 3918 3919 3920 3921 3922 
410 444 411 113 3923 3924 3601 3588 3919 3594 
113 146 443 444 3917 3912 3916 3919 3918 3925 
410 444 113 443 3923 3919 3588 3914 3925 3916 
411 113 444 114 3594 3919 3924 3598 3597 3926 
444 113 147 114 3919 3920 3922 3926 3597 3927 
114 147 445 148 3927 3928 3929 3930 3931 3932 
411 445 412 114 3933 3934 3611 3598 3929 3604 
114 147 444 445 3927 3922 3926 3929 3928 3935 
411 445 114 444 3933 3929 3598 3924 3935 3926 
412 114 445 115 3604 3929 3934 3608 3607 3936 
445 114 148 115 3929 3930 3932 3936 3607 3937 
115 148 446 149 3937 3938 3939 3940 3941 3942 
412 446 413 115 3943 3944 3621 3608 3939 3614 
115 148 445 446 3937 3932 3936 3939 3938 3945 
412 446 115 445 3943 3939 3608 3934 3945 3936 
413 115 446 116 3614 3939 3944 3618 3617 3946 
446 115 149 116 3939 3940 3942 3946 3617 3947 
116 149 447 150 3947 3948 3949 3950 3951 3952 
413 447 414 116 3953 3954 3631 3618 3949 3624 
116 149 446 447 3947 3942 3946 3949 3948 3955 
413 447 116 446 3953 3949 3618 3944 3955 3946 
414 116 447 117 3624 3949 3954 3628 3627 3956 
447 116 150 117 3949 3950 3952 3956 3627 3957 
117 150 448 151 3957 3958 3959 3960 3961 3962 
414 448 415 117 3963 3964 3641 3628 3959 3634 
117 150 447 448 3957 3952 3956 3959 3958 3965 
414 448 117 447 3963 3959 3628 3954 3965 3956 
415 117 448 118 3634 3959 3964 3638 3637 3966 
448 117 151 118 3959 3960 3962 3966 3637 3967 
118 151 449 152 3967 3968 3969 3970 3971 3972 
415 449 416 118 3973 3974 3651 3638 3969 3644 
118 151 448 449 3967 3962 3966 3969 3968 3975 
415 449 118 448 3973 3969 3638 3964 3975 3966 
416 118 449 119 3644 3969 3974 3648 3647 3976 
449 118 152 119 3969 3970 3972 3976 3647 3977 
119 152 450 153 3977 3978 3979 3980 3981 3982 
416 450 417 119 3983 3984 3661 3648 3979 3654 
119 152 449 450 3977 3972 3976 3979 3978 3985 
416 450 119 449 3983 3979 3648 3974 3985 3976 
417 119 450 120 3654 3979 3984 3658 3657 3986 
450 119 153 120 3979 3980 3982 3986 3657 3987 
120 153 451 154 3987 3988 3989 3990 3991 3992 
417 451 418 120 3993 3994 3671 3658 3989 3664 
120 153 450 451 3987 3982 3986 3989 3988 3995 
417 451 120 450 3993 3989 3658 3984 3995 3986 
418 120 451 121 3664 3989 3994 3668 3667 3996 
451 120 154 121 3989 3990 3992 3996 3667 3997 
121 154 452 155 3997 3998 3999 4000 4001 4002 
418 452 419 121 4003 4004 3681 3668 3999 3674 
121 154 451 452 3997 3992 3996 3999 3998 4005 
418 452 121 451 4003 3999 3668 3994 4005 3996 
419 121 452 122 3674 3999 4004 3678 3677 4006 
452 121 155 122 3999 4000 4002 4006 3677 4007 
122 155 453 156 4007 4008 4009 4010 4011 4012 
419 453 420 122 4013 4014 3691 3678 4009 3684 
122 155 452 453 4007 4002 4006 4009 4008 4015 
419 453 122 452 4013 4009 3678 4004 4015 4006 
420 122 453 123 3684 4009 4014 3688 3687 4016 
453 122 156 123 4009 4010 4012 4016 3687 4017 
123 156 454 157 4017 4018 4019 4020 4021 4022 
420 454 421 123 4023 4024 3701 3688 4019 3694 
123 156 453 454 4017 4012 4016 4019 4018 4025 
420 454 123 453 4023 4019 3688 4014 4025 4016 
421 123 454 124 3694 4019 4024 3698 3697 4026 
454 123 157 124 4019 4020 4022 4026 3697 4027 
124 157 455 158 4027 4028 4029 4030 4031 4032 
421 455 422 124 4033 4034 3711 3698 4029 3704 
124 157 454 455 4027 4022 4026 4029 4028 4035 
421 455 124 454 4033 4029 3698 4024 4035 4026 
422 124 455 125 3704 4029 4034 3708 3707 4036 
455 124 158 125 4029 4030 4032 4036 3707 4037 
125 158 456 159 4037 4038 4039 4040 4041 4042 
422 456 423 125 4043 4044 3721 3708 4039 3714 
125 158 455 456 4037 4032 4036 4039 4038 4045 
422 456 125 455 4043 4039 3708 4034 4045 4036 
423 125 456 126 3714 4039 4044 3718 3717 4046 
456 125 159 126 4039 4040 4042 4046 3717 4047 
126 159 457 160 4047 4048 4049 4050 4051 4052 
423 457 424 126 4053 4054 3731 3718 4049 3724 
126 159 456 457 4047 4042 4046 4049 4048 4055 
423 457 126 456 4053 4049 3718 4044 4055 4046 
424 126 457 127 3724 4049 4054 3728 3727 4056 
457 126 160 127 4049 4050 4052 4056 3727 4057 
127 160 458 161 4057 4058 4059 4060 4061 4062 
424 458 425 127 4063 4064 3741 3728 4059 3734 
127 160 457 458 4057 4052 4056 4059 4058 4065 
424 458 127 457 4063 4059 3728 4054 4065 4056 
425 127 458 128 3734 4059 4064 3738 3737 4066 
458 127 161 128 4059 4060 4062 4066 3737 4067 
128 161 459 162 4067 4068 4069 4070 4071 4072 
425 459 426 128 4073 4074 3751 3738 4069 3744 
128 161 458 459 4067 4062 4066 4069 4068 4075 
425 459 128 458 4073 4069 3738 4064 4075 4066 
426 128 459 129 3744 4069 4074 3748 3747 4076 
459 128 162 129 4069 4070 4072 4076 3747 4077 
129 162 460 163 4077 4078 4079 4080 4081 4082 
426 460 427 129 4083 4084 3761 3748 4079 3754 
129 162 459 460 4077 4072 4076 4079 4078 4085 
426 460 129 459 4083 4079 3748 4074 4085 4076 
427 129 460 130 3754 4079 4084 3758 3757 4086 
460 129 163 130 4079 4080 4082 4086 3757 4087 
130 163 461 164 4087 4088 4089 4090 4091 4092 
427 461 428 130 4093 4094 3771 3758 4089 3764 
130 163 460 461 4087 4082 4086 4089 4088 4095 
427 461 130 460 4093 4089 3758 4084 4095 4086 
428 130 461 131 3764 4089 4094 3768 3767 4096 
461 130 164 131 4089 4090 4092 4096 3767 4097 
132 165 463 166 4098 4099 4100 4101 4102 4103 
429 463 430 132 4104 4105 3784 3782 4100 3775 
132 165 462 463 4098 4106 4107 4100 4099 4108 
429 463 132 462 4104 4100 3782 4109 4108 4107 
430 132 463 133 3775 4100 4105 3779 3778 4110 
463 132 166 133 4100 4101 4103 4110 3778 4111 
133 166 464 167 4111 4112 4113 4114 4115 4116 
430 464 431 133 4117 4118 3795 3779 4113 3788 
133 166 463 464 4111 4103 4110 4113 4112 4119 
430 464 133 463 4117 4113 3779 4105 4119 4110 
431 133 464 134 3788 4113 4118 3792 3791 4120 
464 133 167 134 4113 4114 4116 4120 3791 4121 
134 167 465 168 4121 4122 4123 4124 4125 4126 
431 465 432 134 4127 4128 3805 3792 4123 3798 
134 167 464 465 4121 4116 4120 4123 4122 4129 
431 465 134 464 4127 4123 3792 4118 4129 4120 
432 134 465 135 3798 4123 4128 3802 3801 4130 
465 134 168 135 4123 4124 4126 4130 3801 4131 
135 168 466 169 4131 4132 4133 4134 4135 4136 
432 466 433 135 4137 4138 3815 3802 4133 3808 
135 168 465 466 4131 4126 4130 4133 4132 4139 
432 466 135 465 4137 4133 3802 4128 4139 4130 
433 135 466 136 3808 4133 4138 3812 3811 4140 
466 135 169 136 4133 4134 4136 4140 3811 4141 
136 169 467 170 4141 4142 4143 4144 4145 4146 
433 467 434 136 4147 4148 3825 3812 4143 3818 
136 169 466 467 4141 4136 4140 4143 4142 4149 
433 467 136 466 4147 4143 3812 4138 4149 4140 
434 136 467 137 3818 4143 4148 3822 3821 4150 
467 136 170 137 4143 4144 4146 4150 3821 4151 
137 170 468 171 4151 4152 4153 4154 4155 4156 
434 468 435 137 4157 4158 3835 3822 4153 3828 
137 170 467 468 4151 4146 4150 4153 4152 4159 
434 468 137 467 4157 4153 3822 4148 4159 4150 
435 137 468 138 3828 4153 4158 3832 3831 4160 
468 137 171 138 4153 4154 4156 4160 3831 4161 
138 171 469 172 4161 4162 4163 4164 4165 4166 
435 469 436 138 4167 4168 3845 3832 4163 3838 
138 171 468 469 4161 4156 4160 4163 4162 4169 
435 469 138 468 4167 4163 3832 4158 4169 4160 
436 138 469 139 3838 4163 4168 3842 3841 4170 
469 138 172 139 4163 4164 4166 4170 3841 4171 
139 172 470 173 4171 4172 4173 4174 4175 4176 
436 470 437 139 4177 4178 3855 3842 4173 3848 
139 172 469 470 4171 4166 4170 4173 4172 4179 
436 470 139 469 4177 4173 3842 4168 4179 4170 
437 139 470 140 3848 4173 4178 3852 3851 4180 
470 139 173 140 4173 4174 4176 4180 3851 4181 
140 173 471 174 4181 4182 4183 4184 4185 4186 
437 471 438 140 4187 4188 3865 3852 4183 3858 
140 173 470 471 4181 4176 4180 4183 4182 4189 
437 471 140 470 4187 4183 3852 4178 4189 4180 
438 140 471 141 3858 4183 4188 3862 3861 4190 
471 140 174 141 4183 4184 4186 4190 3861 4191 
141 174 472 175 4191 4192 4193 4194 4195 4196 
438 472 439 141 4197 4198 3875 3862 4193 3868 
141 174 471 472 4191 4186 4190 4193 4192 4199 
438 472 141 471 4197 4193 3862 4188 4199 4190 
439 141 472 142 3868 4193 4198 3872 3871 4200 
472 141 175 142 4193 4194 4196 4200 3871 4201 
142 175 473 176 4201 4202 4203 4204 4205 4206 
439 473 440 142 4207 4208 3885 3872 4203 3878 
142 175 472 473 4201 4196 4200 4203 4202 4209 
439 473 142 472 4207 4203 3872 4198 4209 4200 
440 142 473 143 3878 4203 4208 3882 3881 4210 
473 142 176 143 4203 4204 4206 4210 3881 4211 
143 176 474 177 4211 4212 4213 4214 4215 4216 
440 474 441 143 4217 4218 3895 3882 4213 3888 
143 176 473 474 4211 4206 4210 4213 4212 4219 
440 474 143 473 4217 4213 3882 4208 4219 4210 
441 143 474 144 3888 4213 4218 3892 3891 4220 
474 143 177 144 4213 4214 4216 4220 3891 4221 
144 177 475 178 4221 4222 4223 4224 4225 4226 
441 475 442 144 4227 4228 3905 3892 4223 3898 
144 177 474 475 4221 4216 4220 4223 4222 4229 
441 475 144 474 4227 4223 3892 4218 4229 4220 
442 144 475 145 3898 4223 4228 3902 3901 4230 
475 144 178 145 4223 4224 4226 4230 3901 4231 
145 178 476 179 4231 4232 4233 4234 4235 4236 
442 476 443 145 4237 4238 3915 3902 4233 3908 
145 178 475 476 4231 4226 4230 4233 4232 4239 
442 476 145 475 4237 4233 3902 4228 4239 4230 
443 145 476 146 3908 4233 4238 3912 3911 4240 
476 145 179 146 4233 4234 4236 4240 3911 4241 
146 179 477 180 4241 4242 4243 4244 4245 4246 
443 477 444 146 4247 4248 3925 3912 4243 3918 
146 179 476 477 4241 4236 4240 4243 4242 4249 
443 477 146 476 4247 4243 3912 4238 4249 4240 
444 146 477 147 3918 4243 4248 3922 3921 4250 
477 146 180 147 4243 4244 4246 4250 3921 4251 
147 180 478 181 4251 4252 4253 4254 4255 4256 
444 478 445 147 4257 4258 3935 3922 4253 3928 
147 180 477 478 4251 4246 4250 4253 4252 4259 
444 478 147 477 4257 4253 3922 4248 4259 4250 
445 147 478 148 3928 4253 4258 3932 3931 4260 
478 147 181 148 4253 4254 4256 4260 3931 4261 
148 181 479 182 4261 4262 4263 4264 4265 4266 
445 479 446 148 4267 4268 3945 3932 4263 3938 
148 181 478 479 4261 4256 4260 4263 4262 4269 
445 479 148 478 4267 4263 3932 4258 4269 4260 
446 148 479 149 3938 4263 4268 3942 3941 4270 
479 148 182 149 4263 4264 4266 4270 3941 4271 
149 182 480 183 4271 4272 4273 4274 4275 4276 
446 480 447 149 4277 4278 3955 3942 4273 3948 
149 182 479 480 4271 4266 4270 4273 4272 4279 
446 480 149 479 4277 4273 3942 4268 4279 4270 
447 149 480 150 3948 4273 4278 3952 3951 4280 
480 149 183 150 4273 4274 4276 4280 3951 4281 
150 183 481 184 4281 4282 4283 4284 4285 4286 
447 481 448 150 4287 4288 3965 3952 4283 3958 
150 183 480 481 4281 4276 4280 4283 4282 4289 
447 481 150 480 4287 4283 3952 4278 4289 4280 
448 150 481 151 3958 4283 4288 3962 3961 4290 
481 150 184 151 4283 4284 4286 4290 3961 4291 
151 184 482 185 4291 4292 4293 4294 4295 4296 
448 482 449 151 4297 4298 3975 3962 4293 3968 
151 184 481 482 4291 4286 4290 4293 4292 4299 
448 482 151 481 4297 4293 3962 4288 4299 4290 
449 151 482 152 3968 4293 4298 3972 3971 4300 
482 151 185 152 4293 4294 4296 4300 3971 4301 
152 185 483 186 4301 4302 4303 4304 4305 4306 
449 483 450 152 4307 4308 3985 3972 4303 3978 
152 185 482 483 4301 4296 4300 4303 4302 4309 
449 483 152 482 4307 4303 3972 4298 4309 4300 
450 152 483 153 3978 4303 4308 3982 3981 4310 
483 152 186 153 4303 4304 4306 4310 3981 4311 
153 186 484 187 4311 4312 4313 4314 4315 4316 
450 484 451 153 4317 4318 3995 3982 4313 3988 
153 186 483 484 4311 4306 4310 4313 4312 4319 
450 484 153 483 4317 4313 3982 4308 4319 4310 
451 153 484 154 3988 4313 4318 3992 3991 4320 
484 153 187 154 4313 4314 4316 4320 3991 4321 
154 187 485 188 4321 4322 4323 4324 4325 4326 
451 485 452 154 4327 4328 4005 3992 4323 3998 
154 187 484 485 4321 4316 4320 4323 4322 4329 
451 485 154 484 4327 4323 3992 4318 4329 4320 
452 154 485 155 3998 4323 4328 4002 4001 4330 
485 154 188 155 4323 4324 4326 4330 4001 4331 
155 188 486 189 4331 4332 4333 4334 4335 4336 
452 486 453 155 4337 4338 4015 4002 4333 4008 
155 188 485 486 4331 4326 4330 4333 4332 4339 
452 486 155 485 4337 4333 4002 4328 4339 4330 
453 155 486 156 4008 4333 4338 4012 4011 4340 
486 155 189 156 4333 4334 4336 4340 4011 4341 
156 189 487 190 4341 4342 4343 4344 4345 4346 
453 487 454 156 4347 4348 4025 4012 4343 4018 
156 189 486 487 4341 4336 4340 4343 4342 4349 
453 487 156 486 4347 4343 4012 4338 4349 4340 
454 156 487 157 4018 4343 4348 4022 4021 4350 
487 156 190 157 4343 4344 4346 4350 4021 4351 
157 190 488 191 4351 4352 4353 4354 4355 4356 
454 488 455 157 4357 4358 4035 4022 4353 4028 
157 190 487 488 4351 4346 4350 4353 4352 4359 
454 488 157 487 4357 4353 4022 4348 4359 4350 
455 157 488 158 4028 4353 4358 4032 4031 4360 
488 157 191 158 4353 4354 4356 4360 4031 4361 
158 191 489 192 4361 4362 4363 4364 4365 4366 
455 489 456 158 4367 4368 4045 4032 4363 4038 
158 191 488 489 4361 4356 4360 4363 4362 4369 
455 489 158 488 4367 4363 4032 4358 4369 4360 
456 158 489 159 4038 4363 4368 4042 4041 4370 
489 158 192 159 4363 4364 4366 4370 4041 4371 
159 192 490 193 4371 4372 4373 4374 4375 4376 
456 490 457 159 4377 4378 4055 4042 4373 4048 
159 192 489 490 4371 4366 4370 4373 4372 4379 
456 490 159 489 4377 4373 4042 4368 4379 4370 
457 159 490 160 4048 4373 4378 4052 4051 4380 
490 159 193 160 4373 4374 4376 4380 4051 4381 
160 193 491 194 4381 4382 4383 4384 4385 4386 
457 491 458 160 4387 4388 4065 4052 4383 4058 
160 193 490 491 4381 4376 4380 4383 4382 4389 
457 491 160 490 4387 4383 4052 4378 4389 4380 
458 160 491 161 4058 4383 4388 4062 4061 4390 
491 160 194 161 4383 4384 4386 4390 4061 4391 
161 194 492 195 4391 4392 4393 4394 4395 4396 
458 492 459 161 4397 4398 4075 4062 4393 4068 
161 194 491 492 4391 4386 4390 4393 4392 4399 
458 492 161 491 4397 4393 4062 4388 4399 4390 
459 161 492 162 4068 4393 4398 4072 4071 4400 
492 161 195 162 4393 4394 4396 4400 4071 4401 
162 195 493 196 4401 4402 4403 4404 4405 4406 
459 493 460 162 4407 4408 4085 4072 4403 4078 
162 195 492 493 4401 4396 4400 4403 4402 4409 
459 493 162 492 4407 4403 4072 4398 4409 4400 
460 162 493 163 4078 4403 4408 4082 4081 4410 
493 162 196 163 4403 4404 4406 4410 4081 4411 
163 196 494 197 4411 4412 4413 4414 4415 4416 
460 494 461 163 4417 4418 4095 4082 4413 4088 
163 196 493 494 4411 4406 4410 4413 4412 4419 
460 494 163 493 4417 4413 4082 4408 4419 4410 
461 163 494 164 4088 4413 4418 4092 4091 4420 
494 163 197 164 4413 4414 4416 4420 4091 4421 
165 198 496 199 4422 4423 4424 4425 4426 4427 
462 496 463 165 4428 4429 4108 4106 4424 4099 
165 198 495 496 4422 4430 4431 4424 4423 4432 
462 496 165 495 4428 4424 4106 4433 4432 4431 
463 165 496 166 4099 4424 4429 4103 4102 4434 
496 165 199 166 4424 4425 4427 4434 4102 4435 
166 199 497 200 4435 4436 4437 4438 4439 4440 
463 497 464 166 4441 4442 4119 4103 4437 4112 
166 199 496 497 4435 4427 4434 4437 4436 4443 
463 497 166 496 4441 4437 4103 4429 4443 4434 
464 166 497 167 4112 4437 4442 4116 4115 4444 
497 166 200 167 4437 4438 4440 4444 4115 4445 
167 200 498 201 4445 4446 4447 4448 4449 4450 
464 498 465 167 4451 4452 4129 4116 4447 4122 
167 200 497 498 4445 4440 4444 4447 4446 4453 
464 498 167 497 4451 4447 4116 4442 4453 4444 
465 167 498 168 4122 4447 4452 4126 4125 4454 
498 167 201 168 4447 4448 4450 4454 4125 4455 
168 201 499 202 4455 4456 4457 4458 4459 4460 
465 499 466 168 4461 4462 4139 4126 4457 4132 
168 201 498 499 4455 4450 4454 4457 4456 4463 
465 499 168 498 4461 4457 4126 4452 4463 4454 
466 168 499 169 4132 4457 4462 4136 4135 4464 
499 168 202 169 4457 4458 4460 4464 4135 4465 
169 202 500 203 4465 4466 4467 4468 4469 4470 
466 500 467 169 4471 4472 4149 4136 4467 4142 
169 202 499 500 4465 4460 4464 4467 4466 4473 
466 500 169 499 4471 4467 4136 4462 4473 4464 
467 169 500 170 4142 4467 4472 4146 4145 4474 
500 169 203 170 4467 4468 4470 4474 4145 4475 
170 203 501 204 4475 4476 4477 4478 4479 4480 
467 501 468 170 4481 4482 4159 4146 4477 4152 
170 203 500 501 4475 4470 4474 4477 4476 4483 
467 501 170 500 4481 4477 4146 4472 4483 4474 
468 170 501 171 4152 4477 4482 4156 4155 4484 
501 170 204 171 4477 4478 4480 4484 4155 4485 
171 204 502 205 4485 4486 4487 4488 4489 4490 
468 502 469 171 4491 4492 4169 4156 4487 4162 
171 204 501 502 4485 4480 4484 4487 4486 4493 
468 502 171 501 4491 4487 4156 4482 4493 4484 
469 171 502 172 4162 4487 4492 4166 4165 4494 
502 171 205 172 4487 4488 4490 4494 4165 4495 
172 205 503 206 4495 4496 4497 4498 4499 4500 
469 503 470 172 4501 4502 4179 4166 4497 4172 
172 205 502 503 4495 4490 4494 4497 4496 4503 
469 503 172 502 4501 4497 4166 4492 4503 4494 
470 172 503 173 4172 4497 4502 4176 4175 4504 
503 172 206 173 4497 4498 4500 4504 4175 4505 
173 206 504 207 4505 4506 4507 4508 4509 4510 
470 504 471 173 4511 4512 4189 4176 4507 4182 
173 206 503 504 4505 4500 4504 4507 4506 4513 
470 504 173 503 4511 4507 4176 4502 4513 4504 
471 173 504 174 4182 4507 4512 4186 4185 4514 
504 173 207 174 4507 4508 4510 4514 4185 4515 
174 207 505 208 4515 4516 4517 4518 4519 4520 
471 505 472 174 4521 4522 4199 4186 4517 4192 
174 207 504 505 4515 4510 4514 4517 4516 4523 
471 505 174 504 4521 4517 4186 4512 4523 4514 
472 174 505 175 4192 4517 4522 4196 4195 4524 
505 174 208 175 4517 4518 4520 4524 4195 4525 
175 208 506 209 4525 4526 4527 4528 4529 4530 
472 506 473 175 4531 4532 4209 4196 4527 4202 
175 208 505 506 4525 4520 4524 4527 4526 4533 
472 506 175 505 4531 4527 4196 4522 4533 4524 
473 175 506 176 4202 4527 4532 4206 4205 4534 
506 175 209 176 4527 4528 4530 4534 4205 4535 
176 209 507 210 4535 4536 4537 4538 4539 4540 
473 507 474 176 4541 4542 4219 4206 4537 4212 
176 209 506 507 4535 4530 4534 4537 4536 4543 
473 507 176 506 4541 4537 4206 4532 4543 4534 
474 176 507 177 4212 4537 4542 4216 4215 4544 
507 176 210 177 4537 4538 4540 4544 4215 4545 
177 210 508 211 4545 4546 4547 4548 4549 4550 
474 508 475 177 4551 4552 4229 4216 4547 4222 
177 210 507 508 4545 4540 4544 4547 4546 4553 
474 508 177 507 4551 4547 4216 4542 4553 4544 
475 177 508 178 4222 4547 4552 4226 4225 4554 
508 177 211 178 4547 4548 4550 4554 4225 4555 
178 211 509 212 4555 4556 4557 4558 4559 4560 
475 509 476 178 4561 4562 4239 4226 4557 4232 
178 211 508 509 4555 4550 4554 4557 4556 4563 
475 509 178 508 4561 4557 4226 4552 4563 4554 
476 178 509 179 4232 4557 4562 4236 4235 4564 
509 178 212 179 4557 4558 4560 4564 4235 4565 
179 212 510 213 4565 4566 4567 4568 4569 4570 
476 510 477 179 4571 4572 4249 4236 4567 4242 
179 212 509 510 4565 4560 4564 4567 4566 4573 
476 510 179 509 4571 4567 4236 4562 4573 4564 
477 179 510 180 4242 4567 4572 4246 4245 4574 
510 179 213 180 4567 4568 4570 4574 4245 4575 
180 213 511 214 4575 4576 4577 4578 4579 4580 
477 511 478 180 4581 4582 4259 4246 4577 4252 
180 213 510 511 4575 4570 4574 4577 4576 4583 
477 511 180 510 4581 4577 4246 4572 4583 4574 
478 180 511 181 4252 4577 4582 4256 4255 4584 
511 180 214 181 4577 4578 4580 4584 4255 4585 
181 214 512 215 4585 4586 4587 4588 4589 4590 
478 512 479 181 4591 4592 4269 4256 4587 4262 
181 214 511 512 4585 4580 4584 4587 4586 4593 
478 512 181 511 4591 4587 4256 4582 4593 4584 
479 181 512 182 4262 4587 4592 4266 4265 4594 
512 181 215 182 4587 4588 4590 4594 4265 4595 
182 215 513 216 4595 4596 4597 4598 4599 4600 
479 513 480 182 4601 4602 4279 4266 4597 4272 
182 215 512 513 4595 4590 4594 4597 4596 4603 
479 513 182 512 4601 4597 4266 4592 4603 4594 
480 182 513 183 4272 4597 4602 4276 4275 4604 
513 182 216 183 4597 4598 4600 4604 4275 4605 
183 216 514 217 4605 4606 4607 4608 4609 4610 
480 514 481 183 4611 4612 4289 4276 4607 4282 
183 216 513 514 4605 4600 4604 4607 4606 4613 
480 514 183 513 4611 4607 4276 4602 4613 4604 
481 183 514 184 4282 4607 4612 4286 4285 4614 
514 183 217 184 4607 4608 4610 4614 4285 4615 
184 217 515 218 4615 4616 4617 4618 4619 4620 
481 515 482 184 4621 4622 4299 4286 4617 4292 
184 217 514 515 4615 4610 4614 4617 4616 4623 
481 515 184 514 4621 4617 4286 4612 4623 4614 
482 184 515 185 4292 4617 4622 4296 4295 4624 
515 184 218 185 4617 4618 4620 4624 4295 4625 
185 218 516 219 4625 4626 4627 4628 4629 4630 
482 516 483 185 4631 4632 4309 4296 4627 4302 
185 218 515 516 4625 4620 4624 4627 4626 4633 
482 516 185 515 4631 4627 4296 4622 4633 4624 
483 185 516 186 4302 4627 4632 4306 4305 4634 
516 185 219 186 4627 4628 4630 4634 4305 4635 
186 219 517 220 4635 4636 4637 4638 4639 4640 
483 517 484 186 4641 4642 4319 4306 4637 4312 
186 219 516 517 4635 4630 4634 4637 4636 4643 
483 517 186 516 4641 4637 4306 4632 4643 4634 
484 186 517 187 4312 4637 4642 4316 4315 4644 
517 186 220 187 4637 4638 4640 4644 4315 4645 
187 220 518 221 4645 4646 4647 4648 4649 4650 
484 518 485 187 4651 4652 4329 4316 4647 4322 
187 220 517 518 4645 4640 4644 4647 4646 4653 
484 518 187 517 4651 4647 4316 4642 4653 4644 
485 187 518 188 4322 4647 4652 4326 4325 4654 
518 187 221 188 4647 4648 4650 4654 4325 4655 
188 221 519 222 4655 4656 4657 4658 4659 4660 
485 519 486 188 4661 4662 4339 4326 4657 4332 
188 221 518 519 4655 4650 4654 4657 4656 4663 
485 519 188 518 4661 4657 4326 4652 4663 4654 
486 188 519 189 4332 4657 4662 4336 4335 4664 
519 188 222 189 4657 4658 4660 4664 4335 4665 
189 222 520 223 4665 4666 4667 4668 4669 4670 
486 520 487 189 4671 4672 4349 4336 4667 4342 
189 222 519 520 4665 4660 4664 4667 4666 4673 
486 520 189 519 4671 4667 4336 4662 4673 4664 
487 189 520 190 4342 4667 4672 4346 4345 4674 
520 189 223 190 4667 4668 4670 4674 4345 4675 
190 223 521 224 4675 4676 4677 4678 4679 4680 
487 521 488 190 4681 4682 4359 4346 4677 4352 
190 223 520 521 4675 4670 4674 4677 4676 4683 
487 521 190 520 4681 4677 4346 4672 4683 4674 
488 190 521 191 4352 4677 4682 4356 4355 4684 
521 190 224 191 4677 4678 4680 4684 4355 4685 
191 224 522 225 4685 4686 4687 4688 4689 4690 
488 522 489 191 4691 4692 4369 4356 4687 4362 
191 224 521 522 4685 4680 4684 4687 4686 4693 
488 522 191 521 4691 4687 4356 4682 4693 4684 
489 191 522 192 4362 4687 4692 4366 4365 4694 
522 191 225 192 4687 4688 4690 4694 4365 4695 
192 225 523 226 4695 4696 4697 4698 4699 4700 
489 523 490 192 4701 4702 4379 4366 4697 4372 
192 225 522 523 4695 4690 4694 4697 4696 4703 
489 523 192 522 4701 4697 4366 4692 4703 4694 
490 192 523 193 4372 4697 4702 4376 4375 4704 
523 192 226 193 4697 4698 4700 4704 4375 4705 
193 226 524 227 4705 4706 4707 4708 4709 4710 
490 524 491 193 4711 4712 4389 4376 4707 4382 
193 226 523 524 4705 4700 4704 4707 4706 4713 
490 524 193 523 4711 4707 4376 4702 4713 4704 
491 193 524 194 4382 4707 4712 4386 4385 4714 
524 193 227 194 4707 4708 4710 4714 4385 4715 
194 227 525 228 4715 4716 4717 4718 4719 4720 
491 525 492 194 4721 4722 4399 4386 4717 4392 
194 227 524 525 4715 4710 4714 4717 4716 4723 
491 525 194 524 4721 4717 4386 4712 4723 4714 
492 194 525 195 4392 4717 4722 4396 4395 4724 
525 194 228 195 4717 4718 4720 4724 4395 4725 
195 228 526 229 4725 4726 4727 4728 4729 4730 
492 526 493 195 4731 4732 4409 4396 4727 4402 
195 228 525 526 4725 4720 4724 4727 4726 4733 
492 526 195 525 4731 4727 4396 4722 4733 4724 
493 195 526 196 4402 4727 4732 4406 4405 4734 
526 195 229 196 4727 4728 4730 4734 4405 4735 
196 229 527 230 4735 4736 4737 4738 4739 4740 
493 527 494 196 4741 4742 4419 4406 4737 4412 
196 229 526 527 4735 4730 4734 4737 4736 4743 
493 527 196 526 4741 4737 4406 4732 4743 4734 
494 196 527 197 4412 4737 4742 4416 4415 4744 
527 196 230 197 4737 4738 4740 4744 4415 4745 
198 231 529 232 4746 4747 4748 4749 4750 4751 
495 529 496 198 4752 4753 4432 4430 4748 4423 
198 231 528 529 4746 4754 4755 4748 4747 4756 
495 529 198 528 4752 4748 4430 4757 4756 4755 
496 198 529 199 4423 4748 4753 4427 4426 4758 
529 198 232 199 4748 4749 4751 4758 4426 4759 
199 232 530 233 4759 4760 4761 4762 4763 4764 
496 530 497 199 4765 4766 4443 4427 4761 4436 
199 232 529 530 4759 4751 4758 4761 4760 4767 
496 530 199 529 4765 4761 4427 4753 4767 4758 
497 199 530 200 4436 4761 4766 4440 4439 4768 
530 199 233 200 4761 4762 4764 4768 4439 4769 
200 233 531 234 4769 4770 4771 4772 4773 4774 
497 531 498 200 4775 4776 4453 4440 4771 4446 
200 233 530 531 4769 4764 4768 4771 4770 4777 
497 531 200 530 4775 4771 4440 4766 4777 4768 
498 200 531 201 4446 4771 4776 4450 4449 4778 
531 200 234 201 4771 4772 4774 4778 4449 4779 
201 234 532 235 4779 4780 4781 4782 4783 4784 
498 532 499 201 4785 4786 4463 4450 4781 4456 
201 234 531 532 4779 4774 4778 4781 4780 4787 
498 532 201 531 4785 4781 4450 4776 4787 4778 
499 201 532 202 4456 4781 4786 4460 4459 4788 
532 201 235 202 4781 4782 4784 4788 4459 4789 
202 235 533 236 4789 4790 4791 4792 4793 4794 
499 533 500 202 4795 4796 4473 4460 4791 4466 
202 235 532 533 4789 4784 4788 4791 4790 4797 
499 533 202 532 4795 4791 4460 4786 4797 4788 
500 202 533 203 4466 4791 4796 4470 4469 4798 
533 202 236 203 4791 4792 4794 4798 4469 4799 
203 236 534 237 4799 4800 4801 4802 4803 4804 
500 534 501 203 4805 4806 4483 4470 4801 4476 
203 236 533 534 4799 4794 4798 4801 4800 4807 
500 534 203 533 4805 4801 4470 4796 4807 4798 
501 203 534 204 4476 4801 4806 4480 4479 4808 
534 203 237 204 4801 4802 4804 4808 4479 4809 
204 237 535 238 4809 4810 4811 4812 4813 4814 
501 535 502 204 4815 4816 4493 4480 4811 4486 
204 237 534 535 4809 4804 4808 4811 4810 4817 
501 535 204 534 4815 4811 4480 4806 4817 4808 
502 204 535 205 4486 4811 4816 4490 4489 4818 
535 204 238 205 4811 4812 4814 4818 4489 4819 
205 238 536 239 4819 4820 4821 4822 4823 4824 
502 536 503 205 4825 4826 4503 4490 4821 4496 
205 238 535 536 4819 4814 4818 4821 4820 4827 
502 536 205 535 4825 4821 4490 4816 4827 4818 
503 205 536 206 4496 4821 4826 4500 4499 4828 
536 205 239 206 4821 4822 4824 4828 4499 4829 
206 239 537 240 4829 4830 4831 4832 4833 4834 
503 537 504 206 4835 4836 4513 4500 4831 4506 
206 239 536 537 4829 4824 4828 4831 4830 4837 
503 537 206 536 4835 4831 4500 4826 4837 4828 
504 206 537 207 4506 4831 4836 4510 4509 4838 
537 206 240 207 4831 4832 4834 4838 4509 4839 
207 240 538 241 4839 4840 4841 4842 4843 4844 
504 538 505 207 4845 4846 4523 4510 4841 4516 
207 240 537 538 4839 4834 4838 4841 4840 4847 
504 538 207 537 4845 4841 4510 4836 4847 4838 
505 207 538 208 4516 4841 4846 4520 4519 4848 
538 207 241 208 4841 4842 4844 4848 4519 4849 
208 241 539 242 4849 4850 4851 4852 4853 4854 
505 539 506 208 4855 4856 4533 4520 4851 4526 
208 241 538 539 4849 4844 4848 4851 4850 4857 
505 539 208 538 4855 4851 4520 4846 4857 4848 
506 208 539 209 4526 4851 4856 4530 4529 4858 
539 208 242 209 4851 4852 4854 4858 4529 4859 
209 242 540 243 4859 4860 4861 4862 4863 4864 
506 540 507 209 4865 4866 4543 4530 4861 4536 
209 242 539 540 4859 4854 4858 4861 4860 4867 
506 540 209 539 4865 4861 4530 4856 4867 4858 
507 209 540 210 4536 4861 4866 4540 4539 4868 
540 209 243 210 4861 4862 4864 4868 4539 4869 
210 243 541 244 4869 4870 4871 4872 4873 4874 
507 541 508 210 4875 4876 4553 4540 4871 4546 
210 243 540 541 4869 4864 4868 4871 4870 4877 
507 541 210 540 4875 4871 4540 4866 4877 4868 
508 210 541 211 4546 4871 4876 4550 4549 4878 
541 210 244 211 4871 4872 4874 4878 4549 4879 
211 244 542 245 4879 4880 4881 4882 4883 4884 
508 542 509 211 4885 4886 4563 4550 4881 4556 
211 244 541 542 4879 4874 4878 4881 4880 4887 
508 542 211 541 4885 4881 4550 4876 4887 4878 
509 211 542 212 4556 4881 4886 4560 4559 4888 
542 211 245 212 4881 4882 4884 4888 4559 4889 
212 245 543 246 4889 4890 4891 4892 4893 4894 
509 543 510 212 4895 4896 4573 4560 4891 4566 
212 245 542 543 4889 4884 4888 4891 4890 4897 
509 543 212 542 4895 4891 4560 4886 4897 4888 
510 212 543 213 4566 4891 4896 4570 4569 4898 
543 212 246 213 4891 4892 4894 4898 4569 4899 
213 246 544 247 4899 4900 4901 4902 4903 4904 
510 544 511 213 4905 4906 4583 4570 4901 4576 
213 246 543 544 4899 4894 4898 4901 4900 4907 
510 544 213 543 4905 4901 4570 4896 4907 4898 
511 213 544 214 4576 4901 4906 4580 4579 4908 
544 213 247 214 4901 4902 4904 4908 4579 4909 
214 247 545 248 4909 4910 4911 4912 4913 4914 
511 545 512 214 4915 4916 4593 4580 4911 4586 
214 247 544 545 4909 4904 4908 4911 4910 4917 
511 545 214 544 4915 4911 4580 4906 4917 4908 
512 214 545 215 4586 4911 4916 4590 4589 4918 
545 214 248 215 4911 4912 4914 4918 4589 4919 
215 248 546 249 4919 4920 4921 4922 4923 4924 
512 546 513 215 4925 4926 4603 4590 4921 4596 
215 248 545 546 4919 4914 4918 4921 4920 4927 
512 546 215 545 4925 4921 4590 4916 4927 4918 
513 215 546 216 4596 4921 4926 4600 4599 4928 
546 215 249 216 4921 4922 4924 4928 4599 4929 
216 249 547 250 4929 4930 4931 4932 4933 4934 
513 547 514 216 4935 4936 4613 4600 4931 4606 
216 249 546 547 4929 4924 4928 4931 4930 4937 
513 547 216 546 4935 4931 4600 4926 4937 4928 
514 216 547 217 4606 4931 4936 4610 4609 4938 
547 216 250 217 4931 4932 4934 4938 4609 4939 
217 250 548 251 4939 4940 4941 4942 4943 4944 
514 548 515 217 4945 4946 4623 4610 4941 4616 
217 250 547 548 4939 4934 4938 4941 4940 4947 
514 548 217 547 4945 4941 4610 4936 4947 4938 
515 217 548 218 4616 4941 4946 4620 4619 4948 
548 217 251 218 4941 4942 4944 4948 4619 4949 
218 251 549 252 4949 4950 4951 4952 4953 4954 
515 549 516 218 4955 4956 4633 4620 4951 4626 
218 251 548 549 4949 4944 4948 4951 4950 4957 
515 549 218 548 4955 4951 4620 4946 4957 4948 
516 218 549 219 4626 4951 4956 4630 4629 4958 
549 218 252 219 4951 4952 4954 4958 4629 4959 
219 252 550 253 4959 4960 4961 4962 4963 4964 
516 550 517 219 4965 4966 4643 4630 4961 4636 
219 252 549 550 4959 4954 4958 4961 4960 4967 
516 550 219 549 4965 4961 4630 4956 4967 4958 
517 219 550 220 4636 4961 4966 4640 4639 4968 
550 219 253 220 4961 4962 4964 4968 4639 4969 
220 253 551 254 4969 4970 4971 4972 4973 4974 
517 551 518 220 4975 4976 4653 4640 4971 4646 
220 253 550 551 4969 4964 4968 4971 4970 4977 
517 551 220 550 4975 4971 4640 4966 4977 4968 
518 220 551 221 4646 4971 4976 4650 4649 4978 
551 220 254 221 4971 4972 4974 4978 4649 4979 
221 254 552 255 4979 4980 4981 4982 4983 4984 
518 552 519 221 4985 4986 4663 4650 4981 4656 
221 254 551 552 4979 4974 4978 4981 4980 4987 
518 552 221 551 4985 4981 4650 4976 4987 4978 
519 221 552 222 4656 4981 4986 4660 4659 4988 
552 221 255 222 4981 4982 4984 4988 4659 4989 
222 255 553 256 4989 4990 4991 4992 4993 4994 
519 553 520 222 4995 4996 4673 4660 4991 4666 
222 255 552 553 4989 4984 4988 4991 4990 4997 
519 553 222 552 4995 4991 4660 4986 4997 4988 
520 222 553 223 4666 4991 4996 4670 4669 4998 
553 222 256 223 4991 4992 4994 4998 4669 4999 
223 256 554 257 4999 5000 5001 5002 5003 5004 
520 554 521 223 5005 5006 4683 4670 5001 4676 
223 256 553 554 4999 4994 4998 5001 5000 5007 
520 554 223 553 5005 5001 4670 4996 5007 4998 
521 223 554 224 4676 5001 5006 4680 4679 5008 
554 223 257 224 5001 5002 5004 5008 4679 5009 
224 257 555 258 5009 5010 5011 5012 5013 5014 
521 555 522 224 5015 5016 4693 4680 5011 4686 
224 257 554 555 5009 5004 5008 5011 5010 5017 
521 555 224 554 5015 5011 4680 5006 5017 5008 
522 224 555 225 4686 5011 5016 4690 4689 5018 
555 224 258 225 5011 5012 5014 5018 4689 5019 
225 258 556 259 5019 5020 5021 5022 5023 5024 
522 556 523 225 5025 5026 4703 4690 5021 4696 
225 258 555 556 5019 5014 5018 5021 5020 5027 
522 556 225 555 5025 5021 4690 5016 5027 5018 
523 225 556 226 4696 5021 5026 4700 4699 5028 
556 225 259 226 5021 5022 5024 5028 4699 5029 
226 259 557 260 5029 5030 5031 5032 5033 5034 
523 557 524 226 5035 5036 4713 4700 5031 4706 
226 259 556 557 5029 5024 5028 5031 5030 5037 
523 557 226 556 5035 5031 4700 5026 5037 5028 
524 226 557 227 4706 5031 5036 4710 4709 5038 
557 226 260 227 5031 5032 5034 5038 4709 5039 
227 260 558 261 5039 5040 5041 5042 5043 5044 
524 558 525 227 5045 5046 4723 4710 5041 4716 
227 260 557 558 5039 5034 5038 5041 5040 5047 
524 558 227 557 5045 5041 4710 5036 5047 5038 
525 227 558 228 4716 5041 5046 4720 4719 5048 
558 227 261 228 5041 5042 5044 5048 4719 5049 
228 261 559 262 5049 5050 5051 5052 5053 5054 
525 559 526 228 5055 5056 4733 4720 5051 4726 
228 261 558 559 5049 5044 5048 5051 5050 5057 
525 559 228 558 5055 5051 4720 5046 5057 5048 
526 228 559 229 4726 5051 5056 4730 4729 5058 
559 228 262 229 5051 5052 5054 5058 4729 5059 
229 262 560 263 5059 5060 5061 5062 5063 5064 
526 560 527 229 5065 5066 4743 4730 5061 4736 
229 262 559 560 5059 5054 5058 5061 5060 5067 
526 560 229 559 5065 5061 4730 5056 5067 5058 
527 229 560 230 4736 5061 5066 4740 4739 5068 
560 229 263 230 5061 5062 5064 5068 4739 5069 
231 264 562 265 5070 5071 5072 5073 5074 5075 
528 562 529 231 5076 5077 4756 4754 5072 4747 
231 264 561 562 5070 5078 5079 5072 5071 5080 
528 562 231 561 5076 5072 4754 5081 5080 5079 
529 231 562 232 4747 5072 5077 4751 4750 5082 
562 231 265 232 5072 5073 5075 5082 4750 5083 
232 265 563 266 5083 5084 5085 5086 5087 5088 
529 563 530 232 5089 5090 4767 4751 5085 4760 
232 265 562 563 5083 5075 5082 5085 5084 5091 
529 563 232 562 5089 5085 4751 5077 5091 5082 
530 232 563 233 4760 5085 5090 4764 4763 5092 
563 232 266 233 5085 5086 5088 5092 4763 5093 
233 266 564 267 5093 5094 5095 5096 5097 5098 
530 564 531 233 5099 5100 4777 4764 5095 4770 
233 266 563 564 5093 5088 5092 5095 5094 5101 
530 564 233 563 5099 5095 4764 5090 5101 5092 
531 233 564 234 4770 5095 5100 4774 4773 5102 
564 233 267 234 5095 5096 5098 5102 4773 5103 
234 267 565 268 5103 5104 5105 5106 5107 5108 
531 565 532 234 5109 5110 4787 4774 5105 4780 
234 267 564 565 5103 5098 5102 5105 5104 5111 
531 565 234 564 5109 5105 4774 5100 5111 5102 
532 234 565 235 4780 5105 5110 4784 4783 5112 
565 234 268 235 5105 5106 5108 5112 4783 5113 
235 268 566 269 5113 5114 5115 5116 5117 5118 
532 566 533 235 5119 5120 4797 4784 5115 4790 
235 268 565 566 5113 5108 5112 5115 5114 5121 
532 566 235 565 5119 5115 4784 5110 5121 5112 
533 235 566 236 4790 5115 5120 4794 4793 5122 
566 235 269 236 5115 5116 5118 5122 4793 5123 
236 269 567 270 5123 5124 5125 5126 5127 5128 
533 567 534 236 5129 5130 4807 4794 5125 4800 
236 269 566 567 5123 5118 5122 5125 5124 5131 
533 567 236 566 5129 5125 4794 5120 5131 5122 
534 236 567 237 4800 5125 5130 4804 4803 5132 
567 236 270 237 5125 5126 5128 5132 4803 5133 
237 270 568 271 5133 5134 5135 5136 5137 5138 
534 568 535 237 5139 5140 4817 4804 5135 4810 
237 270 567 568 5133 5128 5132 5135 5134 5141 
534 568 237 567 5139 5135 4804 5130 5141 5132 
535 237 568 238 4810 5135 5140 4814 4813 5142 
568 237 271 238 5135 5136 5138 5142 4813 5143 
238 271 569 272 5143 5144 5145 5146 5147 5148 
535 569 536 238 5149 5150 4827 4814 5145 4820 
238 271 568 569 5143 5138 5142 5145 5144 5151 
535 569 238 568 5149 5145 4814 5140 5151 5142 
536 238 569 239 4820 5145 5150 4824 4823 5152 
569 238 272 239 5145 5146 5148 5152 4823 5153 
239 272 570 273 5153 5154 5155 5156 5157 5158 
536 570 537 239 5159 5160 4837 4824 5155 4830 
239 272 569 570 5153 5148 5152 5155 5154 5161 
536 570 239 569 5159 5155 4824 5150 5161 5152 
537 239 570 240 4830 5155 5160 4834 4833 5162 
570 239 273 240 5155 5156 5158 5162 4833 5163 
240 273 571 274 5163 5164 5165 5166 5167 5168 
537 571 538 240 5169 5170 4847 4834 5165 4840 
240 273 570 571 5163 5158 5162 5165 5164 5171 
537 571 240 570 5169 5165 4834 5160 5171 5162 
538 240 571 241 4840 5165 5170 4844 4843 5172 
571 240 274 241 5165 5166 5168 5172 4843 5173 
241 274 572 275 5173 5174 5175 5176 5177 5178 
538 572 539 241 5179 5180 4857 4844 5175 4850 
241 274 571 572 5173 5168 5172 5175 5174 5181 
538 572 241 571 5179 5175 4844 5170 5181 5172 
539 241 572 242 4850 5175 5180 4854 4853 5182 
572 241 275 242 5175 5176 5178 5182 4853 5183 
242 275 573 276 5183 5184 5185 5186 5187 5188 
539 573 540 242 5189 5190 4867 4854 5185 4860 
242 275 572 573 5183 5178 5182 5185 5184 5191 
539 573 242 572 5189 5185 4854 5180 5191 5182 
540 242 573 243 4860 5185 5190 4864 4863 5192 
573 242 276 243 5185 5186 5188 5192 4863 5193 
243 276 574 277 5193 5194 5195 5196 5197 5198 
540 574 541 243 5199 5200 4877 4864 5195 4870 
243 276 573 574 5193 5188 5192 5195 5194 5201 
540 574 243 573 5199 5195 4864 5190 5201 5192 
541 243 574 244 4870 5195 5200 4874 4873 5202 
574 243 277 244 5195 5196 5198 5202 4873 5203 
244 277 575 278 5203 5204 5205 5206 5207 5208 
541 575 542 244 5209 5210 4887 4874 5205 4880 
244 277 574 575 5203 5198 5202 5205 5204 5211 
541 575 244 574 5209 5205 4874 5200 5211 5202 
542 244 575 245 4880 5205 5210 4884 4883 5212 
575 244 278 245 5205 5206 5208 5212 4883 5213 
245 278 576 279 5213 5214 5215 5216 5217 5218 
542 576 543 245 5219 5220 4897 4884 5215 4890 
245 278 575 576 5213 5208 5212 5215 5214 5221 
542 576 245 575 5219 5215 4884 5210 5221 5212 
543 245 576 246 4890 5215 5220 4894 4893 5222 
576 245 279 246 5215 5216 5218 5222 4893 5223 
246 279 577 280 5223 5224 5225 5226 5227 5228 
543 577 544 246 5229 5230 4907 4894 5225 4900 
246 279 576 577 5223 5218 5222 5225 5224 5231 
543 577 246 576 5229 5225 4894 5220 5231 5222 
544 246 577 247 4900 5225 5230 4904 4903 5232 
577 246 280 247 5225 5226 5228 5232 4903 5233 
247 280 578 281 5233 5234 5235 5236 5237 5238 
544 578 545 247 5239 5240 4917 4904 5235 4910 
247 280 577 578 5233 5228 5232 5235 5234 5241 
544 578 247 577 5239 5235 4904 5230 5241 5232 
545 247 578 248 4910 5235 5240 4914 4913 5242 
578 247 281 248 5235 5236 5238 5242 4913 5243 
248 281 579 282 5243 5244 5245 5246 5247 5248 
545 579 546 248 5249 5250 4927 4914 5245 4920 
248 281 578 579 5243 5238 5242 5245 5244 5251 
545 579 248 578 5249 5245 4914 5240 5251 5242 
546 248 579 249 4920 5245 5250 4924 4923 5252 
579 248 282 249 5245 5246 5248 5252 4923 5253 
249 282 580 283 5253 5254 5255 5256 5257 5258 
546 580 547 249 5259 5260 4937 4924 5255 4930 
249 282 579 580 5253 5248 5252 5255 5254 5261 
546 580 249 579 5259 5255 4924 5250 5261 5252 
547 249 580 250 4930 5255 5260 4934 4933 5262 
580 249 283 250 5255 5256 5258 5262 4933 5263 
250 283 581 284 5263 5264 5265 5266 5267 5268 
547 581 548 250 5269 5270 4947 4934 5265 4940 
250 283 580 581 5263 5258 5262 5265 5264 5271 
547 581 250 580 5269 5265 4934 5260 5271 5262 
548 250 581 251 4940 5265 5270 4944 4943 5272 
581 250 284 251 5265 5266 5268 5272 4943 5273 
251 284 582 285 5273 5274 5275 5276 5277 5278 
548 582 549 251 5279 5280 4957 4944 5275 4950 
251 284 581 582 5273 5268 5272 5275 5274 5281 
548 582 251 581 5279 5275 4944 5270 5281 5272 
549 251 582 252 4950 5275 5280 4954 4953 5282 
582 251 285 252 5275 5276 5278 5282 4953 5283 
252 285 583 286 5283 5284 5285 5286 5287 5288 
549 583 550 252 5289 5290 4967 4954 5285 4960 
252 285 582 583 5283 5278 5282 5285 5284 5291 
549 583 252 582 5289 5285 4954 5280 5291 5282 
550 252 583 253 4960 5285 5290 4964 4963 5292 
583 252 286 253 5285 5286 5288 5292 4963 5293 
253 286 584 287 5293 5294 5295 5296 5297 5298 
550 584 551 253 5299 5300 4977 4964 5295 4970 
253 286 583 584 5293 5288 5292 5295 5294 5301 
550 584 253 583 5299 5295 4964 5290 5301 5292 
551 253 584 254 4970 5295 5300 4974 4973 5302 
584 253 287 254 5295 5296 5298 5302 4973 5303 
254 287 585 288 5303 5304 5305 5306 5307 5308 
551 585 552 254 5309 5310 4987 4974 5305 4980 
254 287 584 585 5303 5298 5302 5305 5304 5311 
551 585 254 584 5309 5305 4974 5300 5311 5302 
552 254 585 255 4980 5305 5310 4984 4983 5312 
585 254 288 255 5305 5306 5308 5312 4983 5313 
255 288 586 289 5313 5314 5315 5316 5317 5318 
552 586 553 255 5319 5320 4997 4984 5315 4990 
255 288 585 586 5313 5308 5312 5315 5314 5321 
552 586 255 585 5319 5315 4984 5310 5321 5312 
553 255 586 256 4990 5315 5320 4994 4993 5322 
586 255 289 256 5315 5316 5318 5322 4993 5323 
256 289 587 290 5323 5324 5325 5326 5327 5328 
553 587 554 256 5329 5330 5007 4994 5325 5000 
256 289 586 587 5323 5318 5322 5325 5324 5331 
553 587 256 586 5329 5325 4994 5320 5331 5322 
554 256 587 257 5000 5325 5330 5004 5003 5332 
587 256 290 257 5325 5326 5328 5332 5003 5333 
257 290 588 291 5333 5334 5335 5336 5337 5338 
554 588 555 257 5339 5340 5017 5004 5335 5010 
257 290 587 588 5333 5328 5332 5335 5334 5341 
554 588 257 587 5339 5335 5004 5330 5341 5332 
555 257 588 258 5010 5335 5340 5014 5013 5342 
588 257 291 258 5335 5336 5338 5342 5013 5343 
258 291 589 292 5343 5344 5345 5346 5347 5348 
555 589 556 258 5349 5350 5027 5014 5345 5020 
258 291 588 589 5343 5338 5342 5345 5344 5351 
555 589 258 588 5349 5345 5014 5340 5351 5342 
556 258 589 259 5020 5345 5350 5024 5023 5352 
589 258 292 259 5345 5346 5348 5352 5023 5353 
259 292 590 293 5353 5354 5355 5356 5357 5358 
556 590 557 259 5359 5360 5037 5024 5355 5030 
259 292 589 590 5353 5348 5352 5355 5354 5361 
556 590 259 589 5359 5355 5024 5350 5361 5352 
557 259 590 260 5030 5355 5360 5034 5033 5362 
590 259 293 260 5355 5356 5358 5362 5033 5363 
260 293 591 294 5363 5364 5365 5366 5367 5368 
557 591 558 260 5369 5370 5047 5034 5365 5040 
260 293 590 591 5363 5358 5362 5365 5364 5371 
557 591 260 590 5369 5365 5034 5360 5371 5362 
558 260 591 261 5040 5365 5370 5044 5043 5372 
591 260 294 261 5365 5366 5368 5372 5043 5373 
261 294 592 295 5373 5374 5375 5376 5377 5378 
558 592 559 261 5379 5380 5057 5044 5375 5050 
261 294 591 592 5373 5368 5372 5375 5374 5381 
558 592 261 591 5379 5375 5044 5370 5381 5372 
559 261 592 262 5050 5375 5380 5054 5053 5382 
592 261 295 262 5375 5376 5378 5382 5053 5383 
262 295 593 296 5383 5384 5385 5386 5387 5388 
559 593 560 262 5389 5390 5067 5054 5385 5060 
262 295 592 593 5383 5378 5382 5385 5384 5391 
559 593 262 592 5389 5385 5054 5380 5391 5382 
560 262 593 263 5060 5385 5390 5064 5063 5392 
593 262 296 263 5385 5386 5388 5392 5063 5393 
297 330 628 331 2687 5394 5395 2679 2686 5396 
594 628 595 297 5397 5398 5399 5400 5395 5401 
297 330 627 628 2687 5402 5403 5395 5394 5404 
594 628 297 627 5397 5395 5400 5405 5404 5403 
595 297 628 298 5401 5395 5398 5406 2681 5407 
628 297 331 298 5395 2679 5396 5407 2681 2680 
298 331 629 332 2680 5408 5409 2697 2701 5410 
595 629 596 298 5411 5412 5413 5406 5409 5414 
298 331 628 629 2680 5396 5407 5409 5408 5415 
595 629 298 628 5411 5409 5406 5398 5415 5407 
596 298 629 299 5414 5409 5412 5416 2699 5417 
629 298 332 299 5409 2697 5410 5417 2699 2698 
299 332 630 333 2698 5418 5419 2711 2715 5420 
596 630 597 299 5421 5422 5423 5416 5419 5424 
299 332 629 630 2698 5410 5417 5419 5418 5425 
596 630 299 629 5421 5419 5416 5412 5425 5417 
597 299 630 300 5424 5419 5422 5426 2713 5427 
630 299 333 300 5419 2711 5420 5427 2713 2712 
300 333 631 334 2712 5428 5429 2725 2729 5430 
597 631 598 300 5431 5432 5433 5426 5429 5434 
300 333 630 631 2712 5420 5427 5429 5428 5435 
597 631 300 630 5431 5429 5426 5422 5435 5427 
598 300 631 301 5434 5429 5432 5436 2727 5437 
631 300 334 301 5429 2725 5430 5437 2727 2726 
301 334 632 335 2726 5438 5439 2739 2743 5440 
598 632 599 301 5441 5442 5443 5436 5439 5444 
301 334 631 632 2726 5430 5437 5439 5438 5445 
598 632 301 631 5441 5439 5436 5432 5445 5437 
599 301 632 302 5444 5439 5442 5446 2741 5447 
632 301 335 302 5439 2739 5440 5447 2741 2740 
302 335 633 336 2740 5448 5449 2753 2757 5450 
599 633 600 302 5451 5452 5453 5446 5449 5454 
302 335 632 633 2740 5440 5447 5449 5448 5455 
599 633 302 632 5451 5449 5446 5442 5455 5447 
600 302 633 303 5454 5449 5452 5456 2755 5457 
633 302 336 303 5449 2753 5450 5457 2755 2754 
303 336 634 337 2754 5458 5459 2767 2771 5460 
600 634 601 303 5461 5462 5463 5456 5459 5464 
303 336 633 634 2754 5450 5457 5459 5458 5465 
600 634 303 633 5461 5459 5456 5452 5465 5457 
601 303 634 304 5464 5459 5462 5466 2769 5467 
634 303 337 304 5459 2767 5460 5467 2769 2768 
304 337 635 338 2768 5468 5469 2781 2785 5470 
601 635 602 304 5471 5472 5473 5466 5469 5474 
304 337 634 635 2768 5460 5467 5469 5468 5475 
601 635 304 634 5471 5469 5466 5462 5475 5467 
602 304 635 305 5474 5469 5472 5476 2783 5477 
635 304 338 305 5469 2781 5470 5477 2783 2782 
305 338 636 339 2782 5478 5479 2795 2799 5480 
602 636 603 305 5481 5482 5483 5476 5479 5484 
305 338 635 636 2782 5470 5477 5479 5478 5485 
602 636 305 635 5481 5479 5476 5472 5485 5477 
603 305 636 306 5484 5479 5482 5486 2797 5487 
636 305 339 306 5479 2795 5480 5487 2797 2796 
306 339 637 340 2796 5488 5489 2809 2813 5490 
603 637 604 306 5491 5492 5493 5486 5489 5494 
306 339 636 637 2796 5480 5487 5489 5488 5495 
603 637 306 636 5491 5489 5486 5482 5495 5487 
604 306 637 307 5494 5489 5492 5496 2811 5497 
637 306 340 307 5489 2809 5490 5497 2811 2810 
307 340 638 341 2810 5498 5499 2823 2827 5500 
604 638 605 307 5501 5502 5503 5496 5499 5504 
307 340 637 638 2810 5490 5497 5499 5498 5505 
604 638 307 637 5501 5499 5496 5492 5505 5497 
605 307 638 308 5504 5499 5502 5506 2825 5507 
638 307 341 308 5499 2823 5500 5507 2825 2824 
308 341 639 342 2824 5508 5509 2837 2841 5510 
605 639 606 308 5511 5512 5513 5506 5509 5514 
308 341 638 639 2824 5500 5507 5509 5508 5515 
605 639 308 638 5511 5509 5506 5502 5515 5507 
606 308 639 309 5514 5509 5512 5516 2839 5517 
639 308 342 309 5509 2837 5510 5517 2839 2838 
309 342 640 343 2838 5518 5519 2851 2855 5520 
606 640 607 309 5521 5522 5523 5516 5519 5524 
309 342 639 640 2838 5510 5517 5519 5518 5525 
606 640 309 639 5521 5519 5516 5512 5525 5517 
607 309 640 310 5524 5519 5522 5526 2853 5527 
640 309 343 310 5519 2851 5520 5527 2853 2852 
310 343 641 344 2852 5528 5529 2865 2869 5530 
607 641 608 310 5531 5532 5533 5526 5529 5534 
310 343 640 641 2852 5520 5527 5529 5528 5535 
607 641 310 640 5531 5529 5526 5522 5535 5527 
608 310 641 311 5534 5529 5532 5536 2867 5537 
641 310 344 311 5529 2865 5530 5537 2867 2866 
311 344 642 345 2866 5538 5539 2879 2883 5540 
608 642 609 311 5541 5542 5543 5536 5539 5544 
311 344 641 642 2866 5530 5537 5539 5538 5545 
608 642 311 641 5541 5539 5536 5532 5545 5537 
609 311 642 312 5544 5539 5542 5546 2881 5547 
642 311 345 312 5539 2879 5540 5547 2881 2880 
312 345 643 346 2880 5548 5549 2893 2897 5550 
609 643 610 312 5551 5552 5553 5546 5549 5554 
312 345 642 643 2880 5540 5547 5549 5548 5555 
609 643 312 642 5551 5549 5546 5542 5555 5547 
610 312 643 313 5554 5549 5552 5556 2895 5557 
643 312 346 313 5549 2893 5550 5557 2895 2894 
313 346 644 347 2894 5558 5559 2907 2911 5560 
610 644 611 313 5561 5562 5563 5556 5559 5564 
313 346 643 644 2894 5550 5557 5559 5558 5565 
610 644 313 643 5561 5559 5556 5552 5565 5557 
611 313 644 314 5564 5559 5562 5566 2909 5567 
644 313 347 314 5559 2907 5560 5567 2909 2908 
314 347 645 348 2908 5568 5569 2921 2925 5570 
611 645 612 314 5571 5572 5573 5566 5569 5574 
314 347 644 645 2908 5560 5567 5569 5568 5575 
611 645 314 644 5571 5569 5566 5562 5575 5567 
612 314 645 315 5574 5569 5572 5576 2923 5577 
645 314 348 315 5569 2921 5570 5577 2923 2922 
315 348 646 349 2922 5578 5579 2935 2939 5580 
612 646 613 315 5581 5582 5583 5576 5579 5584 
315 348 645 646 2922 5570 5577 5579 5578 5585 
612 646 315 645 5581 5579 5576 5572 5585 5577 
613 315 646 316 5584 5579 5582 5586 2937 5587 
646 315 349 316 5579 2935 5580 5587 2937 2936 
316 349 647 350 2936 5588 5589 2949 2953 5590 
613 647 614 316 5591 5592 5593 5586 5589 5594 
316 349 646 647 2936 5580 5587 5589 5588 5595 
613 647 316 646 5591 5589 5586 5582 5595 5587 
614 316 647 317 5594 5589 5592 5596 2951 5597 
647 316 350 317 5589 2949 5590 5597 2951 2950 
317 350 648 351 2950 5598 5599 2963 2967 5600 
614 648 615 317 5601 5602 5603 5596 5599 5604 
317 350 647 648 2950 5590 5597 5599 5598 5605 
614 648 317 647 5601 5599 5596 5592 5605 5597 
615 317 648 318 5604 5599 5602 5606 2965 5607 
648 317 351 318 5599 2963 5600 5607 2965 2964 
318 351 649 352 2964 5608 5609 2977 2981 5610 
615 649 616 318 5611 5612 5613 5606 5609 5614 
318 351 648 649 2964 5600 5607 5609 5608 5615 
615 649 318 648 5611 5609 5606 5602 5615 5607 
616 318 649 319 5614 5609 5612 5616 2979 5617 
649 318 352 319 5609 2977 5610 5617 2979 2978 
319 352 650 353 2978 5618 5619 2991 2995 5620 
616 650 617 319 5621 5622 5623 5616 5619 5624 
319 352 649 650 2978 5610 5617 5619 5618 5625 
616 650 319 649 5621 5619 5616 5612 5625 5617 
617 319 650 320 5624 5619 5622 5626 2993 5627 
650 319 353 320 5619 2991 5620 5627 2993 2992 
320 353 651 354 2992 5628 5629 3005 3009 5630 
617 651 618 320 5631 5632 5633 5626 5629 5634 
320 353 650 651 2992 5620 5627 5629 5628 5635 
617 651 320 650 5631 5629 5626 5622 5635 5627 
618 320 651 321 5634 5629 5632 5636 3007 5637 
651 320 354 321 5629 3005 5630 5637 3007 3006 
321 354 652 355 3006 5638 5639 3019 3023 5640 
618 652 619 321 5641 5642 5643 5636 5639 5644 
321 354 651 652 3006 5630 5637 5639 5638 5645 
618 652 321 651 5641 5639 5636 5632 5645 5637 
619 321 652 322 5644 5639 5642 5646 3021 5647 
652 321 355 322 5639 3019 5640 5647 3021 3020 
322 355 653 356 3020 5648 5649 3033 3037 5650 
619 653 620 322 5651 5652 5653 5646 5649 5654 
322 355 652 653 3020 5640 5647 5649 5648 5655 
619 653 322 652 5651 5649 5646 5642 5655 5647 
620 322 653 323 5654 5649 5652 5656 3035 5657 
653 322 356 323 5649 3033 5650 5657 3035 3034 
323 356 654 357 3034 5658 5659 3047 3051 5660 
620 654 621 323 5661 5662 5663 5656 5659 5664 
323 356 653 654 3034 5650 5657 5659 5658 5665 
620 654 323 653 5661 5659 5656 5652 5665 5657 
621 323 654 324 5664 5659 5662 5666 3049 5667 
654 323 357 324 5659 3047 5660 5667 3049 3048 
324 357 655 358 3048 5668 5669 3061 3065 5670 
621 655 622 324 5671 5672 5673 5666 5669 5674 
324 357 654 655 3048 5660 5667 5669 5668 5675 
621 655 324 654 5671 5669 5666 5662 5675 5667 
622 324 655 325 5674 5669 5672 5676 3063 5677 
655 324 358 325 5669 3061 5670 5677 3063 3062 
325 358 656 359 3062 5678 5679 3075 3079 5680 
622 656 623 325 5681 5682 5683 5676 5679 5684 
325 358 655 656 3062 5670 5677 5679 5678 5685 
622 656 325 655 5681 5679 5676 5672 5685 5677 
623 325 656 326 5684 5679 5682 5686 3077 5687 
656 325 359 326 5679 3075 5680 5687 3077 3076 
326 359 657 360 3076 5688 5689 3089 3093 5690 
623 657 624 326 5691 5692 5693 5686 5689 5694 
326 359 656 657 3076 5680 5687 5689 5688 5695 
623 657 326 656 5691 5689 5686 5682 5695 5687 
624 326 657 327 5694 5689 5692 5696 3091 5697 
657 326 360 327 5689 3089 5690 5697 3091 3090 
327 360 658 361 3090 5698 5699 3103 3107 5700 
624 658 625 327 5701 5702 5703 5696 5699 5704 
327 360 657 658 3090 5690 5697 5699 5698 5705 
624 658 327 657 5701 5699 5696 5692 5705 5697 
625 327 658 328 5704 5699 5702 5706 3105 5707 
658 327 361 328 5699 3103 5700 5707 3105 3104 
328 361 659 362 3104 5708 5709 3117 3121 5710 
625 659 626 328 5711 5712 5713 5706 5709 5714 
328 361 658 659 3104 5700 5707 5709 5708 5715 
625 659 328 658 5711 5709 5706 5702 5715 5707 
626 328 659 329 5714 5709 5712 5716 3119 5717 
659 328 362 329 5709 3117 5710 5717 3119 3118 
330 363 661 364 3137 5718 5719 3132 3136 5720 
627 661 628 330 5721 5722 5404 5402 5719 5394 
330 363 660 661 3137 5723 5724 5719 5718 5725 
627 661 330 660 5721 5719 5402 5726 5725 5724 
628 330 661 331 5394 5719 5722 5396 2686 5727 
661 330 364 331 5719 3132 5720 5727 2686 3133 
331 364 662 365 3133 5728 5729 3145 3147 5730 
628 662 629 331 5731 5732 5415 5396 5729 5408 
331 364 661 662 3133 5720 5727 5729 5728 5733 
628 662 331 661 5731 5729 5396 5722 5733 5727 
629 331 662 332 5408 5729 5732 5410 2701 5734 
662 331 365 332 5729 3145 5730 5734 2701 3146 
332 365 663 366 3146 5735 5736 3155 3157 5737 
629 663 630 332 5738 5739 5425 5410 5736 5418 
332 365 662 663 3146 5730 5734 5736 5735 5740 
629 663 332 662 5738 5736 5410 5732 5740 5734 
630 332 663 333 5418 5736 5739 5420 2715 5741 
663 332 366 333 5736 3155 5737 5741 2715 3156 
333 366 664 367 3156 5742 5743 3165 3167 5744 
630 664 631 333 5745 5746 5435 5420 5743 5428 
333 366 663 664 3156 5737 5741 5743 5742 5747 
630 664 333 663 5745 5743 5420 5739 5747 5741 
631 333 664 334 5428 5743 5746 5430 2729 5748 
664 333 367 334 5743 3165 5744 5748 2729 3166 
334 367 665 368 3166 5749 5750 3175 3177 5751 
631 665 632 334 5752 5753 5445 5430 5750 5438 
334 367 664 665 3166 5744 5748 5750 5749 5754 
631 665 334 664 5752 5750 5430 5746 5754 5748 
632 334 665 335 5438 5750 5753 5440 2743 5755 
665 334 368 335 5750 3175 5751 5755 2743 3176 
335 368 666 369 3176 5756 5757 3185 3187 5758 
632 666 633 335 5759 5760 5455 5440 5757 5448 
335 368 665 666 3176 5751 5755 5757 5756 5761 
632 666 335 665 5759 5757 5440 5753 5761 5755 
633 335 666 336 5448 5757 5760 5450 2757 5762 
666 335 369 336 5757 3185 5758 5762 2757 3186 
336 369 667 370 3186 5763 5764 3195 3197 5765 
633 667 634 336 5766 5767 5465 5450 5764 5458 
336 369 666 667 3186 5758 5762 5764 5763 5768 
633 667 336 666 5766 5764 5450 5760 5768 5762 
634 336 667 337 5458 5764 5767 5460 2771 5769 
667 336 370 337 5764 3195 5765 5769 2771 3196 
337 370 668 371 3196 5770 5771 3205 3207 5772 
634 668 635 337 5773 5774 5475 5460 5771 5468 
337 370 667 668 3196 5765 5769 5771 5770 5775 
634 668 337 667 5773 5771 5460 5767 5775 5769 
635 337 668 338 5468 5771 5774 5470 2785 5776 
668 337 371 338 5771 3205 5772 5776 2785 3206 
338 371 669 372 3206 5777 5778 3215 3217 5779 
635 669 636 338 5780 5781 5485 5470 5778 5478 
338 371 668 669 3206 5772 5776 5778 5777 5782 
635 669 338 668 5780 5778 5470 5774 5782 5776 
636 338 669 339 5478 5778 5781 5480 2799 5783 
669 338 372 339 5778 3215 5779 5783 2799 3216 
339 372 670 373 3216 5784 5785 3225 3227 5786 
636 670 637 339 5787 5788 5495 5480 5785 5488 
339 372 669 670 3216 5779 5783 5785 5784 5789 
636 670 339 669 5787 5785 5480 5781 5789 5783 
637 339 670 340 5488 5785 5788 5490 2813 5790 
670 339 373 340 5785 3225 5786 5790 2813 3226 
340 373 671 374 3226 5791 5792 3235 3237 5793 
637 671 638 340 5794 5795 5505 5490 5792 5498 
340 373 670 671 3226 5786 5790 5792 5791 5796 
637 671 340 670 5794 5792 5490 5788 5796 5790 
638 340 671 341 5498 5792 5795 5500 2827 5797 
671 340 374 341 5792 3235 5793 5797 2827 3236 
341 374 672 375 3236 5798 5799 3245 3247 5800 
638 672 639 341 5801 5802 5515 5500 5799 5508 
341 374 671 672 3236 5793 5797 5799 5798 5803 
638 672 341 671 5801 5799 5500 5795 5803 5797 
639 341 672 342 5508 5799 5802 5510 2841 5804 
672 341 375 342 5799 3245 5800 5804 2841 3246 
342 375 673 376 3246 5805 5806 3255 3257 5807 
639 673 640 342 5808 5809 5525 5510 5806 5518 
342 375 672 673 3246 5800 5804 5806 5805 5810 
639 673 342 672 5808 5806 5510 5802 5810 5804 
640 342 673 343 5518 5806 5809 5520 2855 5811 
673 342 376 343 5806 3255 5807 5811 2855 3256 
343 376 674 377 3256 5812 5813 3265 3267 5814 
640 674 641 343 5815 5816 5535 5520 5813 5528 
343 376 673 674 3256 5807 5811 5813 5812 5817 
640 674 343 673 5815 5813 5520 5809 5817 5811 
641 343 674 344 5528 5813 5816 5530 2869 5818 
674 343 377 344 5813 3265 5814 5818 2869 3266 
344 377 675 378 3266 5819 5820 3275 3277 5821 
641 675 642 344 5822 5823 5545 5530 5820 5538 
344 377 674 675 3266 5814 5818 5820 5819 5824 
641 675 344 674 5822 5820 5530 5816 5824 5818 
642 344 675 345 5538 5820 5823 5540 2883 5825 
675 344 378 345 5820 3275 5821 5825 2883 3276 
345 378 676 379 3276 5826 5827 3285 3287 5828 
642 676 643 345 5829 5830 5555 5540 5827 5548 
345 378 675 676 3276 5821 5825 5827 5826 5831 
642 676 345 675 5829 5827 5540 5823 5831 5825 
643 345 676 346 5548 5827 5830 5550 2897 5832 
676 345 379 346 5827 3285 5828 5832 2897 3286 
346 379 677 380 3286 5833 5834 3295 3297 5835 
643 677 644 346 5836 5837 5565 5550 5834 5558 
346 379 676 677 3286 5828 5832 5834 5833 5838 
643 677 346 676 5836 5834 5550 5830 5838 5832 
644 346 677 347 5558 5834 5837 5560 2911 5839 
677 346 380 347 5834 3295 5835 5839 2911 3296 
347 380 678 381 3296 5840 5841 3305 3307 5842 
644 678 645 347 5843 5844 5575 5560 5841 5568 
347 380 677 678 3296 5835 5839 5841 5840 5845 
644 678 347 677 5843 5841 5560 5837 5845 5839 
645 347 678 348 5568 5841 5844 5570 2925 5846 
678 347 381 348 5841 3305 5842 5846 2925 3306 
348 381 679 382 3306 5847 5848 3315 3317 5849 
645 679 646 348 5850 5851 5585 5570 5848 5578 
348 381 678 679 3306 5842 5846 5848 5847 5852 
645 679 348 678 5850 5848 5570 5844 5852 5846 
646 348 679 349 5578 5848 5851 5580 2939 5853 
679 348 382 349 5848 3315 5849 5853 2939 3316 
349 382 680 383 3316 5854 5855 3325 3327 5856 
646 680 647 349 5857 5858 5595 5580 5855 5588 
349 382 679 680 3316 5849 5853 5855 5854 5859 
646 680 349 679 5857 5855 5580 5851 5859 5853 
647 349 680 350 5588 5855 5858 5590 2953 5860 
680 349 383 350 5855 3325 5856 5860 2953 3326 
350 383 681 384 3326 5861 5862 3335 3337 5863 
647 681 648 350 5864 5865 5605 5590 5862 5598 
350 383 680 681 3326 5856 5860 5862 5861 5866 
647 681 350 680 5864 5862 5590 5858 5866 5860 
648 350 681 351 5598 5862 5865 5600 2967 5867 
681 350 384 351 5862 3335 5863 5867 2967 3336 
351 384 682 385 3336 5868 5869 3345 3347 5870 
648 682 649 351 5871 5872 5615 5600 5869 5608 
351 384 681 682 3336 5863 5867 5869 5868 5873 
648 682 351 681 5871 5869 5600 5865 5873 5867 
649 351 682 352 5608 5869 5872 5610 2981 5874 
682 351 385 352 5869 3345 5870 5874 2981 3346 
352 385 683 386 3346 5875 5876 3355 3357 5877 
649 683 650 352 5878 5879 5625 5610 5876 5618 
352 385 682 683 3346 5870 5874 5876 5875 5880 
649 683 352 682 5878 5876 5610 5872 5880 5874 
650 352 683 353 5618 5876 5879 5620 2995 5881 
683 352 386 353 5876 3355 5877 5881 2995 3356 
353 386 684 387 3356 5882 5883 3365 3367 5884 
650 684 651 353 5885 5886 5635 5620 5883 5628 
353 386 683 684 3356 5877 5881 5883 5882 5887 
650 684 353 683 5885 5883 5620 5879 5887 5881 
651 353 684 354 5628 5883 5886 5630 3009 5888 
684 353 387 354 5883 3365 5884 5888 3009 3366 
354 387 685 388 3366 5889 5890 3375 3377 5891 
651 685 652 354 5892 5893 5645 5630 5890 5638 
354 387 684 685 3366 5884 5888 5890 5889 5894 
651 685 354 684 5892 5890 5630 5886 5894 5888 
652 354 685 355 5638 5890 5893 5640 3023 5895 
685 354 388 355 5890 3375 5891 5895 3023 3376 
355 388 686 389 3376 5896 5897 3385 3387 5898 
652 686 653 355 5899 5900 5655 5640 5897 5648 
355 388 685 686 3376 5891 5895 5897 5896 5901 
652 686 355 685 5899 5897 5640 5893 5901 5895 
653 355 686 356 5648 5897 5900 5650 3037 5902 
686 355 389 356 5897 3385 5898 5902 3037 3386 
356 389 687 390 3386 5903 5904 3395 3397 5905 
653 687 654 356 5906 5907 5665 5650 5904 5658 
356 389 686 687 3386 5898 5902 5904 5903 5908 
653 687 356 686 5906 5904 5650 5900 5908 5902 
654 356 687 357 5658 5904 5907 5660 3051 5909 
687 356 390 357 5904 3395 5905 5909 3051 3396 
357 390 688 391 3396 5910 5911 3405 3407 5912 
654 688 655 357 5913 5914 5675 5660 5911 5668 
357 390 687 688 3396 5905 5909 5911 5910 5915 
654 688 357 687 5913 5911 5660 5907 5915 5909 
655 357 688 358 5668 5911 5914 5670 3065 5916 
688 357 391 358 5911 3405 5912 5916 3065 3406 
358 391 689 392 3406 5917 5918 3415 3417 5919 
655 689 656 358 5920 5921 5685 5670 5918 5678 
358 391 688 689 3406 5912 5916 5918 5917 5922 
655 689 358 688 5920 5918 5670 5914 5922 5916 
656 358 689 359 5678 5918 5921 5680 3079 5923 
689 358 392 359 5918 3415 5919 5923 3079 3416 
359 392 690 393 3416 5924 5925 3425 3427 5926 
656 690 657 359 5927 5928 5695 5680 5925 5688 
359 392 689 690 3416 5919 5923 5925 5924 5929 
656 690 359 689 5927 5925 5680 5921 5929 5923 
657 359 690 360 5688 5925 5928 5690 3093 5930 
690 359 393 360 5925 3425 5926 5930 3093 3426 
360 393 691 394 3426 5931 5932 3435 3437 5933 
657 691 658 360 5934 5935 5705 5690 5932 5698 
360 393 690 691 3426 5926 5930 5932 5931 5936 
657 691 360 690 5934 5932 5690 5928 5936 5930 
658 360 691 361 5698 5932 5935 5700 3107 5937 
691 360 394 361 5932 3435 5933 5937 3107 3436 
361 394 692 395 3436 5938 5939 3445 3447 5940 
658 692 659 361 5941 5942 5715 5700 5939 5708 
361 394 691 692 3436 5933 5937 5939 5938 5943 
658 692 361 691 5941 5939 5700 5935 5943 5937 
659 361 692 362 5708 5939 5942 5710 3121 5944 
692 361 395 362 5939 3445 5940 5944 3121 3446 
363 396 694 397 3461 5945 5946 3456 3460 5947 
660 694 661 363 5948 5949 5725 5723 5946 5718 
363 396 693 694 3461 5950 5951 5946 5945 5952 
660 694 363 693 5948 5946 5723 5953 5952 5951 
661 363 694 364 5718 5946 5949 5720 3136 5954 
694 363 397 364 5946 3456 5947 5954 3136 3457 
364 397 695 398 3457 5955 5956 3469 3471 5957 
661 695 662 364 5958 5959 5733 5720 5956 5728 
364 397 694 695 3457 5947 5954 5956 5955 5960 
661 695 364 694 5958 5956 5720 5949 5960 5954 
662 364 695 365 5728 5956 5959 5730 3147 5961 
695 364 398 365 5956 3469 5957 5961 3147 3470 
365 398 696 399 3470 5962 5963 3479 3481 5964 
662 696 663 365 5965 5966 5740 5730 5963 5735 
365 398 695 696 3470 5957 5961 5963 5962 5967 
662 696 365 695 5965 5963 5730 5959 5967 5961 
663 365 696 366 5735 5963 5966 5737 3157 5968 
696 365 399 366 5963 3479 5964 5968 3157 3480 
366 399 697 400 3480 5969 5970 3489 3491 5971 
663 697 664 366 5972 5973 5747 5737 5970 5742 
366 399 696 697 3480 5964 5968 5970 5969 5974 
663 697 366 696 5972 5970 5737 5966 5974 5968 
664 366 697 367 5742 5970 5973 5744 3167 5975 
697 366 400 367 5970 3489 5971 5975 3167 3490 
367 400 698 401 3490 5976 5977 3499 3501 5978 
664 698 665 367 5979 5980 5754 5744 5977 5749 
367 400 697 698 3490 5971 5975 5977 5976 5981 
664 698 367 697 5979 5977 5744 5973 5981 5975 
665 367 698 368 5749 5977 5980 5751 3177 5982 
698 367 401 368 5977 3499 5978 5982 3177 3500 
368 401 699 402 3500 5983 5984 3509 3511 5985 
665 699 666 368 5986 5987 5761 5751 5984 5756 
368 401 698 699 3500 5978 5982 5984 5983 5988 
665 699 368 698 5986 5984 5751 5980 5988 5982 
666 368 699 369 5756 5984 5987 5758 3187 5989 
699 368 402 369 5984 3509 5985 5989 3187 3510 
369 402 700 403 3510 5990 5991 3519 3521 5992 
666 700 667 369 5993 5994 5768 5758 5991 5763 
369 402 699 700 3510 5985 5989 5991 5990 5995 
666 700 369 699 5993 5991 5758 5987 5995 5989 
667 369 700 370 5763 5991 5994 5765 3197 5996 
700 369 403 370 5991 3519 5992 5996 3197 3520 
370 403 701 404 3520 5997 5998 3529 3531 5999 
667 701 668 370 6000 6001 5775 5765 5998 5770 
370 403 700 701 3520 5992 5996 5998 5997 6002 
667 701 370 700 6000 5998 5765 5994 6002 5996 
668 370 701 371 5770 5998 6001 5772 3207 6003 
701 370 404 371 5998 3529 5999 6003 3207 3530 
371 404 702 405 3530 6004 6005 3539 3541 6006 
668 702 669 371 6007 6008 5782 5772 6005 5777 
371 404 701 702 3530 5999 6003 6005 6004 6009 
668 702 371 701 6007 6005 5772 6001 6009 6003 
669 371 702 372 5777 6005 6008 5779 3217 6010 
702 371 405 372 6005 3539 6006 6010 3217 3540 
372 405 703 406 3540 6011 6012 3549 3551 6013 
669 703 670 372 6014 6015 5789 5779 6012 5784 
372 405 702 703 3540 6006 6010 6012 6011 6016 
669 703 372 702 6014 6012 5779 6008 6016 6010 
670 372 703 373 5784 6012 6015 5786 3227 6017 
703 372 406 373 6012 3549 6013 6017 3227 3550 
373 406 704 407 3550 6018 6019 3559 3561 6020 
670 704 671 373 6021 6022 5796 5786 6019 5791 
373 406 703 704 3550 6013 6017 6019 6018 6023 
670 704 373 703 6021 6019 5786 6015 6023 6017 
671 373 704 374 5791 6019 6022 5793 3237 6024 
704 373 407 374 6019 3559 6020 6024 3237 3560 
374 407 705 408 3560 6025 6026 3569 3571 6027 
671 705 672 374 6028 6029 5803 5793 6026 5798 
374 407 704 705 3560 6020 6024 6026 6025 6030 
671 705 374 704 6028 6026 5793 6022 6030 6024 
672 374 705 375 5798 6026 6029 5800 3247 6031 
705 374 408 375 6026 3569 6027 6031 3247 3570 
375 408 706 409 3570 6032 6033 3579 3581 6034 
672 706 673 375 6035 6036 5810 5800 6033 5805 
375 408 705 706 3570 6027 6031 6033 6032 6037 
672 706 375 705 6035 6033 5800 6029 6037 6031 
673 375 706 376 5805 6033 6036 5807 3257 6038 
706 375 409 376 6033 3579 6034 6038 3257 3580 
376 409 707 410 3580 6039 6040 3589 3591 6041 
673 707 674 376 6042 6043 5817 5807 6040 5812 
376 409 706 707 3580 6034 6038 6040 6039 6044 
673 707 376 706 6042 6040 5807 6036 6044 6038 
674 376 707 377 5812 6040 6043 5814 3267 6045 
707 376 410 377 6040 3589 6041 6045 3267 3590 
377 410 708 411 3590 6046 6047 3599 3601 6048 
674 708 675 377 6049 6050 5824 5814 6047 5819 
377 410 707 708 3590 6041 6045 6047 6046 6051 
674 708 377 707 6049 6047 5814 6043 6051 6045 
675 377 708 378 5819 6047 6050 5821 3277 6052 
708 377 411 378 6047 3599 6048 6052 3277 3600 
378 411 709 412 3600 6053 6054 3609 3611 6055 
675 709 676 378 6056 6057 5831 5821 6054 5826 
378 411 708 709 3600 6048 6052 6054 6053 6058 
675 709 378 708 6056 6054 5821 6050 6058 6052 
676 378 709 379 5826 6054 6057 5828 3287 6059 
709 378 412 379 6054 3609 6055 6059 3287 3610 
379 412 710 413 3610 6060 6061 3619 3621 6062 
676 710 677 379 6063 6064 5838 5828 6061 5833 
379 412 709 710 3610 6055 6059 6061 6060 6065 
676 710 379 709 6063 6061 5828 6057 6065 6059 
677 379 710 380 5833 6061 6064 5835 3297 6066 
710 379 413 380 6061 3619 6062 6066 3297 3620 
380 413 711 414 3620 6067 6068 3629 3631 6069 
677 711 678 380 6070 6071 5845 5835 6068 5840 
380 413 710 711 3620 6062 6066 6068 6067 6072 
677 711 380 710 6070 6068 5835 6064 6072 6066 
678 380 711 381 5840 6068 6071 5842 3307 6073 
711 380 414 381 6068 3629 6069 6073 3307 3630 
381 414 712 415 3630 6074 6075 3639 3641 6076 
678 712 679 381 6077 6078 5852 5842 6075 5847 
381 414 711 712 3630 6069 6073 6075 6074 6079 
678 712 381 711 6077 6075 5842 6071 6079 6073 
679 381 712 382 5847 6075 6078 5849 3317 6080 
712 381 415 382 6075 3639 6076 6080 3317 3640 
382 415 713 416 3640 6081 6082 3649 3651 6083 
679 713 680 382 6084 6085 5859 5849 6082 5854 
382 415 712 713 3640 6076 6080 6082 6081 6086 
679 713 382 712 6084 6082 5849 6078 6086 6080 
680 382 713 383 5854 6082 6085 5856 3327 6087 
713 382 416 383 6082 3649 6083 6087 3327 3650 
383 416 714 417 3650 6088 6089 3659 3661 6090 
680 714 681 383 6091 6092 5866 5856 6089 5861 
383 416 713 714 3650 6083 6087 6089 6088 6093 
680 714 383 713 6091 6089 5856 6085 6093 6087 
681 383 714 384 5861 6089 6092 5863 3337 6094 
714 383 417 384 6089 3659 6090 6094 3337 3660 
384 417 715 418 3660 6095 6096 3669 3671 6097 
681 715 682 384 6098 6099 5873 5863 6096 5868 
384 417 714 715 3660 6090 6094 6096 6095 6100 
681 715 384 714 6098 6096 5863 6092 6100 6094 
682 384 715 385 5868 6096 6099 5870 3347 6101 
715 384 418 385 6096 3669 6097 6101 3347 3670 
385 418 716 419 3670 6102 6103 3679 3681 6104 
682 716 683 385 6105 6106 5880 5870 6103 5875 
385 418 715 716 3670 6097 6101 6103 6102 6107 
682 716 385 715 6105 6103 5870 6099 6107 6101 
683 385 716 386 5875 6103 6106 5877 3357 6108 
716 385 419 386 6103 3679 6104 6108 3357 3680 
386 419 717 420 3680 6109 6110 3689 3691 6111 
683 717 684 386 6112 6113 5887 5877 6110 5882 
386 419 716 717 3680 6104 6108 6110 6109 6114 
683 717 386 716 6112 6110 5877 6106 6114 6108 
684 386 717 387 5882 6110 6113 5884 3367 6115 
717 386 420 387 6110 3689 6111 6115 3367 3690 
387 420 718 421 3690 6116 6117 3699 3701 6118 
684 718 685 387 6119 6120 5894 5884 6117 5889 
387 420 717 718 3690 6111 6115 6117 6116 6121 
684 718 387 717 6119 6117 5884 6113 6121 6115 
685 387 718 388 5889 6117 6120 5891 3377 6122 
718 387 421 388 6117 3699 6118 6122 3377 3700 
388 421 719 422 3700 6123 6124 3709 3711 6125 
685 719 686 388 6126 6127 5901 5891 6124 5896 
388 421 718 719 3700 6118 6122 6124 6123 6128 
685 719 388 718 6126 6124 5891 6120 6128 6122 
686 388 719 389 5896 6124 6127 5898 3387 6129 
719 388 422 389 6124 3709 6125 6129 3387 3710 
389 422 720 423 3710 6130 6131 3719 3721 6132 
686 720 687 389 6133 6134 5908 5898 6131 5903 
389 422 719 720 3710 6125 6129 6131 6130 6135 
686 720 389 719 6133 6131 5898 6127 6135 6129 
687 389 720 390 5903 6131 6134 5905 3397 6136 
720 389 423 390 6131 3719 6132 6136 3397 3720 
390 423 721 424 3720 6137 6138 3729 3731 6139 
687 721 688 390 6140 6141 5915 5905 6138 5910 
390 423 720 721 3720 6132 6136 6138 6137 6142 
687 721 390 720 6140 6138 5905 6134 6142 6136 
688 390 721 391 5910 6138 6141 5912 3407 6143 
721 390 424 391 6138 3729 6139 6143 3407 3730 
391 424 722 425 3730 6144 6145 3739 3741 6146 
688 722 689 391 6147 6148 5922 5912 6145 5917 
391 424 721 722 3730 6139 6143 6145 6144 6149 
688 722 391 721 6147 6145 5912 6141 6149 6143 
689 391 722 392 5917 6145 6148 5919 3417 6150 
722 391 425 392 6145 3739 6146 6150 3417 3740 
392 425 723 426 3740 6151 6152 3749 3751 6153 
689 723 690 392 6154 6155 5929 5919 6152 5924 
392 425 722 723 3740 6146 6150 6152 6151 6156 
689 723 392 722 6154 6152 5919 6148 6156 6150 
690 392 723 393 5924 6152 6155 5926 3427 6157 
723 392 426 393 6152 3749 6153 6157 3427 3750 
393 426 724 427 3750 6158 6159 3759 3761 6160 
690 724 691 393 6161 6162 5936 5926 6159 5931 
393 426 723 724 3750 6153 6157 6159 6158 6163 
690 724 393 723 6161 6159 5926 6155 6163 6157 
691 393 724 394 5931 6159 6162 5933 3437 6164 
724 393 427 394 6159 3759 6160 6164 3437 3760 
394 427 725 428 3760 6165 6166 3769 3771 6167 
691 725 692 394 6168 6169 5943 5933 6166 5938 
394 427 724 725 3760 6160 6164 6166 6165 6170 
691 725 394 724 6168 6166 5933 6162 6170 6164 
692 394 725 395 5938 6166 6169 5940 3447 6171 
725 394 428 395 6166 3769 6167 6171 3447 3770 
396 429 727 430 3785 6172 6173 3780 3784 6174 
693 727 694 396 6175 6176 5952 5950 6173 5945 
396 429 726 727 3785 6177 6178 6173 6172 6179 
693 727 396 726 6175 6173 5950 6180 6179 6178 
694 396 727 397 5945 6173 6176 5947 3460 6181 
727 396 430 397 6173 3780 6174 6181 3460 3781 
397 430 728 431 3781 6182 6183 3793 3795 6184 
694 728 695 397 6185 6186 5960 5947 6183 5955 
397 430 727 728 3781 6174 6181 6183 6182 6187 
694 728 397 727 6185 6183 5947 6176 6187 6181 
695 397 728 398 5955 6183 6186 5957 3471 6188 
728 397 431 398 6183 3793 6184 6188 3471 3794 
398 431 729 432 3794 6189 6190 3803 3805 6191 
695 729 696 398 6192 6193 5967 5957 6190 5962 
398 431 728 729 3794 6184 6188 6190 6189 6194 
695 729 398 728 6192 6190 5957 6186 6194 6188 
696 398 729 399 5962 6190 6193 5964 3481 6195 
729 398 432 399 6190 3803 6191 6195 3481 3804 
399 432 730 433 3804 6196 6197 3813 3815 6198 
696 730 697 399 6199 6200 5974 5964 6197 5969 
399 432 729 730 3804 6191 6195 6197 6196 6201 
696 730 399 729 6199 6197 5964 6193 6201 6195 
697 399 730 400 5969 6197 6200 5971 3491 6202 
730 399 433 400 6197 3813 6198 6202 3491 3814 
400 433 731 434 3814 6203 6204 3823 3825 6205 
697 731 698 400 6206 6207 5981 5971 6204 5976 
400 433 730 731 3814 6198 6202 6204 6203 6208 
697 731 400 730 6206 6204 5971 6200 6208 6202 
698 400 731 401 5976 6204 6207 5978 3501 6209 
731 400 434 401 6204 3823 6205 6209 3501 3824 
401 434 732 435 3824 6210 6211 3833 3835 6212 
698 732 699 401 6213 6214 5988 5978 6211 5983 
401 434 731 732 3824 6205 6209 6211 6210 6215 
698 732 401 731 6213 6211 5978 6207 6215 6209 
699 401 732 402 5983 6211 6214 5985 3511 6216 
732 401 435 402 6211 3833 6212 6216 3511 3834 
402 435 733 436 3834 6217 6218 3843 3845 6219 
699 733 700 402 6220 6221 5995 5985 6218 5990 
402 435 732 733 3834 6212 6216 6218 6217 6222 
699 733 402 732 6220 6218 5985 6214 6222 6216 
700 402 733 403 5990 6218 6221 5992 3521 6223 
733 402 436 403 6218 3843 6219 6223 3521 3844 
403 436 734 437 3844 6224 6225 3853 3855 6226 
700 734 701 403 6227 6228 6002 5992 6225 5997 
403 436 733 734 3844 6219 6223 6225 6224 6229 
700 734 403 733 6227 6225 5992 6221 6229 6223 
701 403 734 404 5997 6225 6228 5999 3531 6230 
734 403 437 404 6225 3853 6226 6230 3531 3854 
404 437 735 438 3854 6231 6232 3863 3865 6233 
701 735 702 404 6234 6235 6009 5999 6232 6004 
404 437 734 735 3854 6226 6230 6232 6231 6236 
701 735 404 734 6234 6232 5999 6228 6236 6230 
702 404 735 405 6004 6232 6235 6006 3541 6237 
735 404 438 405 6232 3863 6233 6237 3541 3864 
405 438 736 439 3864 6238 6239 3873 3875 6240 
702 736 703 405 6241 6242 6016 6006 6239 6011 
405 438 735 736 3864 6233 6237 6239 6238 6243 
702 736 405 735 6241 6239 6006 6235 6243 6237 
703 405 736 406 6011 6239 6242 6013 3551 6244 
736 405 439 406 6239 3873 6240 6244 3551 3874 
406 439 737 440 3874 6245 6246 3883 3885 6247 
703 737 704 406 6248 6249 6023 6013 6246 6018 
406 439 736 737 3874 6240 6244 6246 6245 6250 
703 737 406 736 6248 6246 6013 6242 6250 6244 
704 406 737 407 6018 6246 6249 6020 3561 6251 
737 406 440 407 6246 3883 6247 6251 3561 3884 
407 440 738 441 3884 6252 6253 3893 3895 6254 
704 738 705 407 6255 6256 6030 6020 6253 6025 
407 440 737 738 3884 6247 6251 6253 6252 6257 
704 738 407 737 6255 6253 6020 6249 6257 6251 
705 407 738 408 6025 6253 6256 6027 3571 6258 
738 407 441 408 6253 3893 6254 6258 3571 3894 
408 441 739 442 3894 6259 6260 3903 3905 6261 
705 739 706 408 6262 6263 6037 6027 6260 6032 
408 441 738 739 3894 6254 6258 6260 6259 6264 
705 739 408 738 6262 6260 6027 6256 6264 6258 
706 408 739 409 6032 6260 6263 6034 3581 6265 
739 408 442 409 6260 3903 6261 6265 3581 3904 
409 442 740 443 3904 6266 6267 3913 3915 6268 
706 740 707 409 6269 6270 6044 6034 6267 6039 
409 442 739 740 3904 6261 6265 6267 6266 6271 
706 740 409 739 6269 6267 6034 6263 6271 6265 
707 409 740 410 6039 6267 6270 6041 3591 6272 
740 409 443 410 6267 3913 6268 6272 3591 3914 
410 443 741 444 3914 6273 6274 3923 3925 6275 
707 741 708 410 6276 6277 6051 6041 6274 6046 
410 443 740 741 3914 6268 6272 6274 6273 6278 
707 741 410 740 6276 6274 6041 6270 6278 6272 
708 410 741 411 6046 6274 6277 6048 3601 6279 
741 410 444 411 6274 3923 6275 6279 3601 3924 
411 444 742 445 3924 6280 6281 3933 3935 6282 
708 742 709 411 6283 6284 6058 6048 6281 6053 
411 444 741 742 3924 6275 6279 6281 6280 6285 
708 742 411 741 6283 6281 6048 6277 6285 6279 
709 411 742 412 6053 6281 6284 6055 3611 6286 
742 411 445 412 6281 3933 6282 6286 3611 3934 
412 445 743 446 3934 6287 6288 3943 3945 6289 
709 743 710 412 6290 6291 6065 6055 6288 6060 
412 445 742 743 3934 6282 6286 6288 6287 6292 
709 743 412 742 6290 6288 6055 6284 6292 6286 
710 412 743 413 6060 6288 6291 6062 3621 6293 
743 412 446 413 6288 3943 6289 6293 3621 3944 
413 446 744 447 3944 6294 6295 3953 3955 6296 
710 744 711 413 6297 6298 6072 6062 6295 6067 
413 446 743 744 3944 6289 6293 6295 6294 6299 
710 744 413 743 6297 6295 6062 6291 6299 6293 
711 413 744 414 6067 6295 6298 6069 3631 6300 
744 413 447 414 6295 3953 6296 6300 3631 3954 
414 447 745 448 3954 6301 6302 3963 3965 6303 
711 745 712 414 6304 6305 6079 6069 6302 6074 
414 447 744 745 3954 6296 6300 6302 6301 6306 
711 745 414 744 6304 6302 6069 6298 6306 6300 
712 414 745 415 6074 6302 6305 6076 3641 6307 
745 414 448 415 6302 3963 6303 6307 3641 3964 
415 448 746 449 3964 6308 6309 3973 3975 6310 
712 746 713 415 6311 6312 6086 6076 6309 6081 
415 448 745 746 3964 6303 6307 6309 6308 6313 
712 746 415 745 6311 6309 6076 6305 6313 6307 
713 415 746 416 6081 6309 6312 6083 3651 6314 
746 415 449 416 6309 3973 6310 6314 3651 3974 
416 449 747 450 3974 6315 6316 3983 3985 6317 
713 747 714 416 6318 6319 6093 6083 6316 6088 
416 449 746 747 3974 6310 6314 6316 6315 6320 
713 747 416 746 6318 6316 6083 6312 6320 6314 
714 416 747 417 6088 6316 6319 6090 3661 6321 
747 416 450 417 6316 3983 6317 6321 3661 3984 
417 450 748 451 3984 6322 6323 3993 3995 6324 
714 748 715 417 6325 6326 6100 6090 6323 6095 
417 450 747 748 3984 6317 6321 6323 6322 6327 
714 748 417 747 6325 6323 6090 6319 6327 6321 
715 417 748 418 6095 6323 6326 6097 3671 6328 
748 417 451 418 6323 3993 6324 6328 3671 3994 
418 451 749 452 3994 6329 6330 4003 4005 6331 
715 749 716 418 6332 6333 6107 6097 6330 6102 
418 451 748 749 3994 6324 6328 6330 6329 6334 
715 749 418 748 6332 6330 6097 6326 6334 6328 
716 418 749 419 6102 6330 6333 6104 3681 6335 
749 418 452 419 6330 4003 6331 6335 3681 4004 
419 452 750 453 4004 6336 6337 4013 4015 6338 
716 750 717 419 6339 6340 6114 6104 6337 6109 
419 452 749 750 4004 6331 6335 6337 6336 6341 
716 750 419 749 6339 6337 6104 6333 6341 6335 
717 419 750 420 6109 6337 6340 6111 3691 6342 
750 419 453 420 6337 4013 6338 6342 3691 4014 
420 453 751 454 4014 6343 6344 4023 4025 6345 
717 751 718 420 6346 6347 6121 6111 6344 6116 
420 453 750 751 4014 6338 6342 6344 6343 6348 
717 751 420 750 6346 6344 6111 6340 6348 6342 
718 420 751 421 6116 6344 6347 6118 3701 6349 
751 420 454 421 6344 4023 6345 6349 3701 4024 
421 454 752 455 4024 6350 6351 4033 4035 6352 
718 752 719 421 6353 6354 6128 6118 6351 6123 
421 454 751 752 4024 6345 6349 6351 6350 6355 
718 752 421 751 6353 6351 6118 6347 6355 6349 
719 421 752 422 6123 6351 6354 6125 3711 6356 
752 421 455 422 6351 4033 6352 6356 3711 4034 
422 455 753 456 4034 6357 6358 4043 4045 6359 
719 753 720 422 6360 6361 6135 6125 6358 6130 
422 455 752 753 4034 6352 6356 6358 6357 6362 
719 753 422 752 6360 6358 6125 6354 6362 6356 
720 422 753 423 6130 6358 6361 6132 3721 6363 
753 422 456 423 6358 4043 6359 6363 3721 4044 
423 456 754 457 4044 6364 6365 4053 4055 6366 
720 754 721 423 6367 6368 6142 6132 6365 6137 
423 456 753 754 4044 6359 6363 6365 6364 6369 
720 754 423 753 6367 6365 6132 6361 6369 6363 
721 423 754 424 6137 6365 6368 6139 3731 6370 
754 423 457 424 6365 4053 6366 6370 3731 4054 
424 457 755 458 4054 6371 6372 4063 4065 6373 
721 755 722 424 6374 6375 6149 6139 6372 6144 
424 457 754 755 4054 6366 6370 6372 6371 6376 
721 755 424 754 6374 6372 6139 6368 6376 6370 
722 424 755 425 6144 6372 6375 6146 3741 6377 
755 424 458 425 6372 4063 6373 6377 3741 4064 
425 458 756 459 4064 6378 6379 4073 4075 6380 
722 756 723 425 6381 6382 6156 6146 6379 6151 
425 458 755 756 4064 6373 6377 6379 6378 6383 
722 756 425 755 6381 6379 6146 6375 6383 6377 
723 425 756 426 6151 6379 6382 6153 3751 6384 
756 425 459 426 6379 4073 6380 6384 3751 4074 
426 459 757 460 4074 6385 6386 4083 4085 6387 
723 757 724 426 6388 6389 6163 6153 6386 6158 
426 459 756 757 4074 6380 6384 6386 6385 6390 
723 757 426 756 6388 6386 6153 6382 6390 6384 
724 426 757 427 6158 6386 6389 6160 3761 6391 
757 426 460 427 6386 4083 6387 6391 3761 4084 
427 460 758 461 4084 6392 6393 4093 4095 6394 
724 758 725 427 6395 6396 6170 6160 6393 6165 
427 460 757 758 4084 6387 6391 6393 6392 6397 
724 758 427 757 6395 6393 6160 6389 6397 6391 
725 427 758 428 6165 6393 6396 6167 3771 6398 
758 427 461 428 6393 4093 6394 6398 3771 4094 
429 462 760 463 4109 6399 6400 4104 4108 6401 
726 760 727 429 6402 6403 6179 6177 6400 6172 
429 462 759 760 4109 6404 6405 6400 6399 6406 
726 760 429 759 6402 6400 6177 6407 6406 6405 
727 429 760 430 6172 6400 6403 6174 3784 6408 
760 429 463 430 6400 4104 6401 6408 3784 4105 
430 463 761 464 4105 6409 6410 4117 4119 6411 
727 761 728 430 6412 6413 6187 6174 6410 6182 
430 463 760 761 4105 6401 6408 6410 6409 6414 
727 761 430 760 6412 6410 6174 6403 6414 6408 
728 430 761 431 6182 6410 6413 6184 3795 6415 
761 430 464 431 6410 4117 6411 6415 3795 4118 
431 464 762 465 4118 6416 6417 4127 4129 6418 
728 762 729 431 6419 6420 6194 6184 6417 6189 
431 464 761 762 4118 6411 6415 6417 6416 6421 
728 762 431 761 6419 6417 6184 6413 6421 6415 
729 431 762 432 6189 6417 6420 6191 3805 6422 
762 431 465 432 6417 4127 6418 6422 3805 4128 
432 465 763 466 4128 6423 6424 4137 4139 6425 
729 763 730 432 6426 6427 6201 6191 6424 6196 
432 465 762 763 4128 6418 6422 6424 6423 6428 
729 763 432 762 6426 6424 6191 6420 6428 6422 
730 432 763 433 6196 6424 6427 6198 3815 6429 
763 432 466 433 6424 4137 6425 6429 3815 4138 
433 466 764 467 4138 6430 6431 4147 4149 6432 
730 764 731 433 6433 6434 6208 6198 6431 6203 
433 466 763 764 4138 6425 6429 6431 6430 6435 
730 764 433 763 6433 6431 6198 6427 6435 6429 
731 433 764 434 6203 6431 6434 6205 3825 6436 
764 433 467 434 6431 4147 6432 6436 3825 4148 
434 467 765 468 4148 6437 6438 4157 4159 6439 
731 765 732 434 6440 6441 6215 6205 6438 6210 
434 467 764 765 4148 6432 6436 6438 6437 6442 
731 765 434 764 6440 6438 6205 6434 6442 6436 
732 434 765 435 6210 6438 6441 6212 3835 6443 
765 434 468 435 6438 4157 6439 6443 3835 4158 
435 468 766 469 4158 6444 6445 4167 4169 6446 
732 766 733 435 6447 6448 6222 6212 6445 6217 
435 468 765 766 4158 6439 6443 6445 6444 6449 
732 766 435 765 6447 6445 6212 6441 6449 6443 
733 435 766 436 6217 6445 6448 6219 3845 6450 
766 435 469 436 6445 4167 6446 6450 3845 4168 
436 469 767 470 4168 6451 6452 4177 4179 6453 
733 767 734 436 6454 6455 6229 6219 6452 6224 
436 469 766 767 4168 6446 6450 6452 6451 6456 
733 767 436 766 6454 6452 6219 6448 6456 6450 
734 436 767 437 6224 6452 6455 6226 3855 6457 
767 436 470 437 6452 4177 6453 6457 3855 4178 
437 470 768 471 4178 6458 6459 4187 4189 6460 
734 768 735 437 6461 6462 6236 6226 6459 6231 
437 470 767 768 4178 6453 6457 6459 6458 6463 
734 768 437 767 6461 6459 6226 6455 6463 6457 
735 437 768 438 6231 6459 6462 6233 3865 6464 
768 437 471 438 6459 4187 6460 6464 3865 4188 
438 471 769 472 4188 6465 6466 4197 4199 6467 
735 769 736 438 6468 6469 6243 6233 6466 6238 
438 471 768 769 4188 6460 6464 6466 6465 6470 
735 769 438 768 6468 6466 6233 6462 6470 6464 
736 438 769 439 6238 6466 6469 6240 3875 6471 
769 438 472 439 6466 4197 6467 6471 3875 4198 
439 472 770 473 4198 6472 6473 4207 4209 6474 
736 770 737 439 6475 6476 6250 6240 6473 6245 
439 472 769 770 4198 6467 6471 6473 6472 6477 
736 770 439 769 6475 6473 6240 6469 6477 6471 
737 439 770 440 6245 6473 6476 6247 3885 6478 
770 439 473 440 6473 4207 6474 6478 3885 4208 
440 473 771 474 4208 6479 6480 4217 4219 6481 
737 771 738 440 6482 6483 6257 6247 6480 6252 
440 473 770 771 4208 6474 6478 6480 6479 6484 
737 771 440 770 6482 6480 6247 6476 6484 6478 
738 440 771 441 6252 6480 6483 6254 3895 6485 
771 440 474 441 6480 4217 6481 6485 3895 4218 
441 474 772 475 4218 6486 6487 4227 4229 6488 
738 772 739 441 6489 6490 6264 6254 6487 6259 
441 474 771 772 4218 6481 6485 6487 6486 6491 
738 772 441 771 6489 6487 6254 6483 6491 6485 
739 441 772 442 6259 6487 6490 6261 3905 6492 
772 441 475 442 6487 4227 6488 6492 3905 4228 
442 475 773 476 4228 6493 6494 4237 4239 6495 
739 773 740 442 6496 6497 6271 6261 6494 6266 
442 475 772 773 4228 6488 6492 6494 6493 6498 
739 773 442 772 6496 6494 6261 6490 6498 6492 
740 442 773 443 6266 6494 6497 6268 3915 6499 
773 442 476 443 6494 4237 6495 6499 3915 4238 
443 476 774 477 4238 6500 6501 4247 4249 6502 
740 774 741 443 6503 6504 6278 6268 6501 6273 
443 476 773 774 4238 6495 6499 6501 6500 6505 
740 774 443 773 6503 6501 6268 6497 6505 6499 
741 443 774 444 6273 6501 6504 6275 3925 6506 
774 443 477 444 6501 4247 6502 6506 3925 4248 
444 477 775 478 4248 6507 6508 4257 4259 6509 
741 775 742 444 6510 6511 6285 6275 6508 6280 
444 477 774 775 4248 6502 6506 6508 6507 6512 
741 775 444 774 6510 6508 6275 6504 6512 6506 
742 444 775 445 6280 6508 6511 6282 3935 6513 
775 444 478 445 6508 4257 6509 6513 3935 4258 
445 478 776 479 4258 6514 6515 4267 4269 6516 
742 776 743 445 6517 6518 6292 6282 6515 6287 
445 478 775 776 4258 6509 6513 6515 6514 6519 
742 776 445 775 6517 6515 6282 6511 6519 6513 
743 445 776 446 6287 6515 6518 6289 3945 6520 
776 445 479 446 6515 4267 6516 6520 3945 4268 
446 479 777 480 4268 6521 6522 4277 4279 6523 
743 777 744 446 6524 6525 6299 6289 6522 6294 
446 479 776 777 4268 6516 6520 6522 6521 6526 
743 777 446 776 6524 6522 6289 6518 6526 6520 
744 446 777 447 6294 6522 6525 6296 3955 6527 
777 446 480 447 6522 4277 6523 6527 3955 4278 
447 480 778 481 4278 6528 6529 4287 4289 6530 
744 778 745 447 6531 6532 6306 6296 6529 6301 
447 480 777 778 4278 6523 6527 6529 6528 6533 
744 778 447 777 6531 6529 6296 6525 6533 6527 
745 447 778 448 6301 6529 6532 6303 3965 6534 
778 447 481 448 6529 4287 6530 6534 3965 4288 
448 481 779 482 4288 6535 6536 4297 4299 6537 
745 779 746 448 6538 6539 6313 6303 6536 6308 
448 481 778 779 4288 6530 6534 6536 6535 6540 
745 779 448 778 6538 6536 6303 6532 6540 6534 
746 448 779 449 6308 6536 6539 6310 3975 6541 
779 448 482 449 6536 4297 6537 6541 3975 4298 
449 482 780 483 4298 6542 6543 4307 4309 6544 
746 780 747 449 6545 6546 6320 6310 6543 6315 
449 482 779 780 4298 6537 6541 6543 6542 6547 
746 780 449 779 6545 6543 6310 6539 6547 6541 
747 449 780 450 6315 6543 6546 6317 3985 6548 
780 449 483 450 6543 4307 6544 6548 3985 4308 
450 483 781 484 4308 6549 6550 4317 4319 6551 
747 781 748 450 6552 6553 6327 6317 6550 6322 
450 483 780 781 4308 6544 6548 6550 6549 6554 
747 781 450 780 6552 6550 6317 6546 6554 6548 
748 450 781 451 6322 6550 6553 6324 3995 6555 
781 450 484 451 6550 4317 6551 6555 3995 4318 
451 484 782 485 4318 6556 6557 4327 4329 6558 
748 782 749 451 6559 6560 6334 6324 6557 6329 
451 484 781 782 4318 6551 6555 6557 6556 6561 
748 782 451 781 6559 6557 6324 6553 6561 6555 
749 451 782 452 6329 6557 6560 6331 4005 6562 
782 451 485 452 6557 4327 6558 6562 4005 4328 
452 485 783 486 4328 6563 6564 4337 4339 6565 
749 783 750 452 6566 6567 6341 6331 6564 6336 
452 485 782 783 4328 6558 6562 6564 6563 6568 
749 783 452 782 6566 6564 6331 6560 6568 6562 
750 452 783 453 6336 6564 6567 6338 4015 6569 
783 452 486 453 6564 4337 6565 6569 4015 4338 
453 486 784 487 4338 6570 6571 4347 4349 6572 
750 784 751 453 6573 6574 6348 6338 6571 6343 
453 486 783 784 4338 6565 6569 6571 6570 6575 
750 784 453 783 6573 6571 6338 6567 6575 6569 
751 453 784 454 6343 6571 6574 6345 4025 6576 
784 453 487 454 6571 4347 6572 6576 4025 4348 
454 487 785 488 4348 6577 6578 4357 4359 6579 
751 785 752 454 6580 6581 6355 6345 6578 6350 
454 487 784 785 4348 6572 6576 6578 6577 6582 
751 785 454 784 6580 6578 6345 6574 6582 6576 
752 454 785 455 6350 6578 6581 6352 4035 6583 
785 454 488 455 6578 4357 6579 6583 4035 4358 
455 488 786 489 4358 6584 6585 4367 4369 6586 
752 786 753 455 6587 6588 6362 6352 6585 6357 
455 488 785 786 4358 6579 6583 6585 6584 6589 
752 786 455 785 6587 6585 6352 6581 6589 6583 
753 455 786 456 6357 6585 6588 6359 4045 6590 
786 455 489 456 6585 4367 6586 6590 4045 4368 
456 489 787 490 4368 6591 6592 4377 4379 6593 
753 787 754 456 6594 6595 6369 6359 6592 6364 
456 489 786 787 4368 6586 6590 6592 6591 6596 
753 787 456 786 6594 6592 6359 6588 6596 6590 
754 456 787 457 6364 6592 6595 6366 4055 6597 
787 456 490 457 6592 4377 6593 6597 4055 4378 
457 490 788 491 4378 6598 6599 4387 4389 6600 
754 788 755 457 6601 6602 6376 6366 6599 6371 
457 490 787 788 4378 6593 6597 6599 6598 6603 
754 788 457 787 6601 6599 6366 6595 6603 6597 
755 457 788 458 6371 6599 6602 6373 4065 6604 
788 457 491 458 6599 4387 6600 6604 4065 4388 
458 491 789 492 4388 6605 6606 4397 4399 6607 
755 789 756 458 6608 6609 6383 6373 6606 6378 
458 491 788 789 4388 6600 6604 6606 6605 6610 
755 789 458 788 6608 6606 6373 6602 6610 6604 
756 458 789 459 6378 6606 6609 6380 4075 6611 
789 458 492 459 6606 4397 6607 6611 4075 4398 
459 492 790 493 4398 6612 6613 4407 4409 6614 
756 790 757 459 6615 6616 6390 6380 6613 6385 
459 492 789 790 4398 6607 6611 6613 6612 6617 
756 790 459 789 6615 6613 6380 6609 6617 6611 
757 459 790 460 6385 6613 6616 6387 4085 6618 
790 459 493 460 6613 4407 6614 6618 4085 4408 
460 493 791 494 4408 6619 6620 4417 4419 6621 
757 791 758 460 6622 6623 6397 6387 6620 6392 
460 493 790 791 4408 6614 6618 6620 6619 6624 
757 791 460 790 6622 6620 6387 6616 6624 6618 
758 460 791 461 6392 6620 6623 6394 4095 6625 
791 460 494 461 6620 4417 6621 6625 4095 4418 
462 495 793 496 4433 6626 6627 4428 4432 6628 
759 793 760 462 6629 6630 6406 6404 6627 6399 
462 495 792 793 4433 6631 6632 6627 6626 6633 
759 793 462 792 6629 6627 6404 6634 6633 6632 
760 462 793 463 6399 6627 6630 6401 4108 6635 
793 462 496 463 6627 4428 6628 6635 4108 4429 
463 496 794 497 4429 6636 6637 4441 4443 6638 
760 794 761 463 6639 6640 6414 6401 6637 6409 
463 496 793 794 4429 6628 6635 6637 6636 6641 
760 794 463 793 6639 6637 6401 6630 6641 6635 
761 463 794 464 6409 6637 6640 6411 4119 6642 
794 463 497 464 6637 4441 6638 6642 4119 4442 
464 497 795 498 4442 6643 6644 4451 4453 6645 
761 795 762 464 6646 6647 6421 6411 6644 6416 
464 497 794 795 4442 6638 6642 6644 6643 6648 
761 795 464 794 6646 6644 6411 6640 6648 6642 
762 464 795 465 6416 6644 6647 6418 4129 6649 
795 464 498 465 6644 4451 6645 6649 4129 4452 
465 498 796 499 4452 6650 6651 4461 4463 6652 
762 796 763 465 6653 6654 6428 6418 6651 6423 
465 498 795 796 4452 6645 6649 6651 6650 6655 
762 796 465 795 6653 6651 6418 6647 6655 6649 
763 465 796 466 6423 6651 6654 6425 4139 6656 
796 465 499 466 6651 4461 6652 6656 4139 4462 
466 499 797 500 4462 6657 6658 4471 4473 6659 
763 797 764 466 6660 6661 6435 6425 6658 6430 
466 499 796 797 4462 6652 6656 6658 6657 6662 
763 797 466 796 6660 6658 6425 6654 6662 6656 
764 466 797 467 6430 6658 6661 6432 4149 6663 
797 466 500 467 6658 4471 6659 6663 4149 4472 
467 500 798 501 4472 6664 6665 4481 4483 6666 
764 798 765 467 6667 6668 6442 6432 6665 6437 
467 500 797 798 4472 6659 6663 6665 6664 6669 
764 798 467 797 6667 6665 6432 6661 6669 6663 
765 467 798 468 6437 6665 6668 6439 4159 6670 
798 467 501 468 6665 4481 6666 6670 4159 4482 
468 501 799 502 4482 6671 6672 4491 4493 6673 
765 799 766 468 6674 6675 6449 6439 6672 6444 
468 501 798 799 4482 6666 6670 6672 6671 6676 
765 799 468 798 6674 6672 6439 6668 6676 6670 
766 468 799 469 6444 6672 6675 6446 4169 6677 
799 468 502 469 6672 4491 6673 6677 4169 4492 
469 502 800 503 4492 6678 6679 4501 4503 6680 
766 800 767 469 6681 6682 6456 6446 6679 6451 
469 502 799 800 4492 6673 6677 6679 6678 6683 
766 800 469 799 6681 6679 6446 6675 6683 6677 
767 469 800 470 6451 6679 6682 6453 4179 6684 
800 469 503 470 6679 4501 6680 6684 4179 4502 
470 503 801 504 4502 6685 6686 4511 4513 6687 
767 801 768 470 6688 6689 6463 6453 6686 6458 
470 503 800 801 4502 6680 6684 6686 6685 6690 
767 801 470 800 6688 6686 6453 6682 6690 6684 
768 470 801 471 6458 6686 6689 6460 4189 6691 
801 470 504 471 6686 4511 6687 6691 4189 4512 
471 504 802 505 4512 6692 6693 4521 4523 6694 
768 802 769 471 6695 6696 6470 6460 6693 6465 
471 504 801 802 4512 6687 6691 6693 6692 6697 
768 802 471 801 6695 6693 6460 6689 6697 6691 
769 471 802 472 6465 6693 6696 6467 4199 6698 
802 471 505 472 6693 4521 6694 6698 4199 4522 
472 505 803 506 4522 6699 6700 4531 4533 6701 
769 803 770 472 6702 6703 6477 6467 6700 6472 
472 505 802 803 4522 6694 6698 6700 6699 6704 
769 803 472 802 6702 6700 6467 6696 6704 6698 
770 472 803 473 6472 6700 6703 6474 4209 6705 
803 472 506 473 6700 4531 6701 6705 4209 4532 
473 506 804 507 4532 6706 6707 4541 4543 6708 
770 804 771 473 6709 6710 6484 6474 6707 6479 
473 506 803 804 4532 6701 6705 6707 6706 6711 
770 804 473 803 6709 6707 6474 6703 6711 6705 
771 473 804 474 6479 6707 6710 6481 4219 6712 
804 473 507 474 6707 4541 6708 6712 4219 4542 
474 507 805 508 4542 6713 6714 4551 4553 6715 
771 805 772 474 6716 6717 6491 6481 6714 6486 
474 507 804 805 4542 6708 6712 6714 6713 6718 
771 805 474 804 6716 6714 6481 6710 6718 6712 
772 474 805 475 6486 6714 6717 6488 4229 6719 
805 474 508 475 6714 4551 6715 6719 4229 4552 
475 508 806 509 4552 6720 6721 4561 4563 6722 
772 806 773 475 6723 6724 6498 6488 6721 6493 
475 508 805 806 4552 6715 6719 6721 6720 6725 
772 806 475 805 6723 6721 6488 6717 6725 6719 
773 475 806 476 6493 6721 6724 6495 4239 6726 
806 475 509 476 6721 4561 6722 6726 4239 4562 
476 509 807 510 4562 6727 6728 4571 4573 6729 
773 807 774 476 6730 6731 6505 6495 6728 6500 
476 509 806 807 4562 6722 6726 6728 6727 6732 
773 807 476 806 6730 6728 6495 6724 6732 6726 
774 476 807 477 6500 6728 6731 6502 4249 6733 
807 476 510 477 6728 4571 6729 6733 4249 4572 
477 510 808 511 4572 6734 6735 4581 4583 6736 
774 808 775 477 6737 6738 6512 6502 6735 6507 
477 510 807 808 4572 6729 6733 6735 6734 6739 
774 808 477 807 6737 6735 6502 6731 6739 6733 
775 477 808 478 6507 6735 6738 6509 4259 6740 
808 477 511 478 6735 4581 6736 6740 4259 4582 
478 511 809 512 4582 6741 6742 4591 4593 6743 
775 809 776 478 6744 6745 6519 6509 6742 6514 
478 511 808 809 4582 6736 6740 6742 6741 6746 
775 809 478 808 6744 6742 6509 6738 6746 6740 
776 478 809 479 6514 6742 6745 6516 4269 6747 
809 478 512 479 6742 4591 6743 6747 4269 4592 
479 512 810 513 4592 6748 6749 4601 4603 6750 
776 810 777 479 6751 6752 6526 6516 6749 6521 
479 512 809 810 4592 6743 6747 6749 6748 6753 
776 810 479 809 6751 6749 6516 6745 6753 6747 
777 479 810 480 6521 6749 6752 6523 4279 6754 
810 479 513 480 6749 4601 6750 6754 4279 4602 
480 513 811 514 4602 6755 6756 4611 4613 6757 
777 811 778 480 6758 6759 6533 6523 6756 6528 
480 513 810 811 4602 6750 6754 6756 6755 6760 
777 811 480 810 6758 6756 6523 6752 6760 6754 
778 480 811 481 6528 6756 6759 6530 4289 6761 
811 480 514 481 6756 4611 6757 6761 4289 4612 
481 514 812 515 4612 6762 6763 4621 4623 6764 
778 812 779 481 6765 6766 6540 6530 6763 6535 
481 514 811 812 4612 6757 6761 6763 6762 6767 
778 812 481 811 6765 6763 6530 6759 6767 6761 
779 481 812 482 6535 6763 6766 6537 4299 6768 
812 481 515 482 6763 4621 6764 6768 4299 4622 
482 515 813 516 4622 6769 6770 4631 4633 6771 
779 813 780 482 6772 6773 6547 6537 6770 6542 
482 515 812 813 4622 6764 6768 6770 6769 6774 
779 813 482 812 6772 6770 6537 6766 6774 6768 
780 482 813 483 6542 6770 6773 6544 4309 6775 
813 482 516 483 6770 4631 6771 6775 4309 4632 
483 516 814 517 4632 6776 6777 4641 4643 6778 
780 814 781 483 6779 6780 6554 6544 6777 6549 
483 516 813 814 4632 6771 6775 6777 6776 6781 
780 814 483 813 6779 6777 6544 6773 6781 6775 
781 483 814 484 6549 6777 6780 6551 4319 6782 
814 483 517 484 6777 4641 6778 6782 4319 4642 
484 517 815 518 4642 6783 6784 4651 4653 6785 
781 815 782 484 6786 6787 6561 6551 6784 6556 
484 517 814 815 4642 6778 6782 6784 6783 6788 
781 815 484 814 6786 6784 6551 6780 6788 6782 
782 484 815 485 6556 6784 6787 6558 4329 6789 
815 484 518 485 6784 4651 6785 6789 4329 4652 
485 518 816 519 4652 6790 6791 4661 4663 6792 
782 816 783 485 6793 6794 6568 6558 6791 6563 
485 518 815 816 4652 6785 6789 6791 6790 6795 
782 816 485 815 6793 6791 6558 6787 6795 6789 
783 485 816 486 6563 6791 6794 6565 4339 6796 
816 485 519 486 6791 4661 6792 6796 4339 4662 
486 519 817 520 4662 6797 6798 4671 4673 6799 
783 817 784 486 6800 6801 6575 6565 6798 6570 
486 519 816 817 4662 6792 6796 6798 6797 6802 
783 817 486 816 6800 6798 6565 6794 6802 6796 
784 486 817 487 6570 6798 6801 6572 4349 6803 
817 486 520 487 6798 4671 6799 6803 4349 4672 
487 520 818 521 4672 6804 6805 4681 4683 6806 
784 818 785 487 6807 6808 6582 6572 6805 6577 
487 520 817 818 4672 6799 6803 6805 6804 6809 
784 818 487 817 6807 6805 6572 6801 6809 6803 
785 487 818 488 6577 6805 6808 6579 4359 6810 
818 487 521 488 6805 4681 6806 6810 4359 4682 
488 521 819 522 4682 6811 6812 4691 4693 6813 
785 819 786 488 6814 6815 6589 6579 6812 6584 
488 521 818 819 4682 6806 6810 6812 6811 6816 
785 819 488 818 6814 6812 6579 6808 6816 6810 
786 488 819 489 6584 6812 6815 6586 4369 6817 
819 488 522 489 6812 4691 6813 6817 4369 4692 
489 522 820 523 4692 6818 6819 4701 4703 6820 
786 820 787 489 6821 6822 6596 6586 6819 6591 
489 522 819 820 4692 6813 6817 6819 6818 6823 
786 820 489 819 6821 6819 6586 6815 6823 6817 
787 489 820 490 6591 6819 6822 6593 4379 6824 
820 489 523 490 6819 4701 6820 6824 4379 4702 
490 523 821 524 4702 6825 6826 4711 4713 6827 
787 821 788 490 6828 6829 6603 6593 6826 6598 
490 523 820 821 4702 6820 6824 6826 6825 6830 
787 821 490 820 6828 6826 6593 6822 6830 6824 
788 490 821 491 6598 6826 6829 6600 4389 6831 
821 490 524 491 6826 4711 6827 6831 4389 4712 
491 524 822 525 4712 6832 6833 4721 4723 6834 
788 822 789 491 6835 6836 6610 6600 6833 6605 
491 524 821 822 4712 6827 6831 6833 6832 6837 
788 822 491 821 6835 6833 6600 6829 6837 6831 
789 491 822 492 6605 6833 6836 6607 4399 6838 
822 491 525 492 6833 4721 6834 6838 4399 4722 
492 525 823 526 4722 6839 6840 4731 4733 6841 
789 823 790 492 6842 6843 6617 6607 6840 6612 
492 525 822 823 4722 6834 6838 6840 6839 6844 
789 823 492 822 6842 6840 6607 6836 6844 6838 
790 492 823 493 6612 6840 6843 6614 4409 6845 
823 492 526 493 6840 4731 6841 6845 4409 4732 
493 526 824 527 4732 6846 6847 4741 4743 6848 
790 824 791 493 6849 6850 6624 6614 6847 6619 
493 526 823 824 4732 6841 6845 6847 6846 6851 
790 824 493 823 6849 6847 6614 6843 6851 6845 
791 493 824 494 6619 6847 6850 6621 4419 6852 
824 493 527 494 6847 4741 6848 6852 4419 4742 
495 528 826 529 4757 6853 6854 4752 4756 6855 
792 826 793 495 6856 6857 6633 6631 6854 6626 
495 528 825 826 4757 6858 6859 6854 6853 6860 
792 826 495 825 6856 6854 6631 6861 6860 6859 
793 495 826 496 6626 6854 6857 6628 4432 6862 
826 495 529 496 6854 4752 6855 6862 4432 4753 
496 529 827 530 4753 6863 6864 4765 4767 6865 
793 827 794 496 6866 6867 6641 6628 6864 6636 
496 529 826 827 4753 6855 6862 6864 6863 6868 
793 827 496 826 6866 6864 6628 6857 6868 6862 
794 496 827 497 6636 6864 6867 6638 4443 6869 
827 496 530 497 6864 4765 6865 6869 4443 4766 
497 530 828 531 4766 6870 6871 4775 4777 6872 
794 828 795 497 6873 6874 6648 6638 6871 6643 
497 530 827 828 4766 6865 6869 6871 6870 6875 
794 828 497 827 6873 6871 6638 6867 6875 6869 
795 497 828 498 6643 6871 6874 6645 4453 6876 
828 497 531 498 6871 4775 6872 6876 4453 4776 
498 531 829 532 4776 6877 6878 4785 4787 6879 
795 829 796 498 6880 6881 6655 6645 6878 6650 
498 531 828 829 4776 6872 6876 6878 6877 6882 
795 829 498 828 6880 6878 6645 6874 6882 6876 
796 498 829 499 6650 6878 6881 6652 4463 6883 
829 498 532 499 6878 4785 6879 6883 4463 4786 
499 532 830 533 4786 6884 6885 4795 4797 6886 
796 830 797 499 6887 6888 6662 6652 6885 6657 
499 532 829 830 4786 6879 6883 6885 6884 6889 
796 830 499 829 6887 6885 6652 6881 6889 6883 
797 499 830 500 6657 6885 6888 6659 4473 6890 
830 499 533 500 6885 4795 6886 6890 4473 4796 
500 533 831 534 4796 6891 6892 4805 4807 6893 
797 831 798 500 6894 6895 6669 6659 6892 6664 
500 533 830 831 4796 6886 6890 6892 6891 6896 
797 831 500 830 6894 6892 6659 6888 6896 6890 
798 500 831 501 6664 6892 6895 6666 4483 6897 
831 500 534 501 6892 4805 6893 6897 4483 4806 
501 534 832 535 4806 6898 6899 4815 4817 6900 
798 832 799 501 6901 6902 6676 6666 6899 6671 
501 534 831 832 4806 6893 6897 6899 6898 6903 
798 832 501 831 6901 6899 6666 6895 6903 6897 
799 501 832 502 6671 6899 6902 6673 4493 6904 
832 501 535 502 6899 4815 6900 6904 4493 4816 
502 535 833 536 4816 6905 6906 4825 4827 6907 
799 833 800 502 6908 6909 6683 6673 6906 6678 
502 535 832 833 4816 6900 6904 6906 6905 6910 
799 833 502 832 6908 6906 6673 6902 6910 6904 
800 502 833 503 6678 6906 6909 6680 4503 6911 
833 502 536 503 6906 4825 6907 6911 4503 4826 
503 536 834 537 4826 6912 6913 4835 4837 6914 
800 834 801 503 6915 6916 6690 6680 6913 6685 
503 536 833 834 4826 6907 6911 6913 6912 6917 
800 834 503 833 6915 6913 6680 6909 6917 6911 
801 503 834 504 6685 6913 6916 6687 4513 6918 
834 503 537 504 6913 4835 6914 6918 4513 4836 
504 537 835 538 4836 6919 6920 4845 4847 6921 
801 835 802 504 6922 6923 6697 6687 6920 6692 
504 537 834 835 4836 6914 6918 6920 6919 6924 
801 835 504 834 6922 6920 6687 6916 6924 6918 
802 504 835 505 6692 6920 6923 6694 4523 6925 
835 504 538 505 6920 4845 6921 6925 4523 4846 
505 538 836 539 4846 6926 6927 4855 4857 6928 
802 836 803 505 6929 6930 6704 6694 6927 6699 
505 538 835 836 4846 6921 6925 6927 6926 6931 
802 836 505 835 6929 6927 6694 6923 6931 6925 
803 505 836 506 6699 6927 6930 6701 4533 6932 
836 505 539 506 6927 4855 6928 6932 4533 4856 
506 539 837 540 4856 6933 6934 4865 4867 6935 
803 837 804 506 6936 6937 6711 6701 6934 6706 
506 539 836 837 4856 6928 6932 6934 6933 6938 
803 837 506 836 6936 6934 6701 6930 6938 6932 
804 506 837 507 6706 6934 6937 6708 4543 6939 
837 506 540 507 6934 4865 6935 6939 4543 4866 
507 540 838 541 4866 6940 6941 4875 4877 6942 
804 838 805 507 6943 6944 6718 6708 6941 6713 
507 540 837 838 4866 6935 6939 6941 6940 6945 
804 838 507 837 6943 6941 6708 6937 6945 6939 
805 507 838 508 6713 6941 6944 6715 4553 6946 
838 507 541 508 6941 4875 6942 6946 4553 4876 
508 541 839 542 4876 6947 6948 4885 4887 6949 
805 839 806 508 6950 6951 6725 6715 6948 6720 
508 541 838 839 4876 6942 6946 6948 6947 6952 
805 839 508 838 6950 6948 6715 6944 6952 6946 
806 508 839 509 6720 6948 6951 6722 4563 6953 
839 508 542 509 6948 4885 6949 6953 4563 4886 
509 542 840 543 4886 6954 6955 4895 4897 6956 
806 840 807 509 6957 6958 6732 6722 6955 6727 
509 542 839 840 4886 6949 6953 6955 6954 6959 
806 840 509 839 6957 6955 6722 6951 6959 6953 
807 509 840 510 6727 6955 6958 6729 4573 6960 
840 509 543 510 6955 4895 6956 6960 4573 4896 
510 543 841 544 4896 6961 6962 4905 4907 6963 
807 841 808 510 6964 6965 6739 6729 6962 6734 
510 543 840 841 4896 6956 6960 6962 6961 6966 
807 841 510 840 6964 6962 6729 6958 6966 6960 
808 510 841 511 6734 6962 6965 6736 4583 6967 
841 510 544 511 6962 4905 6963 6967 4583 4906 
511 544 842 545 4906 6968 6969 4915 4917 6970 
808 842 809 511 6971 6972 6746 6736 6969 6741 
511 544 841 842 4906 6963 6967 6969 6968 6973 
808 842 511 841 6971 6969 6736 6965 6973 6967 
809 511 842 512 6741 6969 6972 6743 4593 6974 
842 511 545 512 6969 4915 6970 6974 4593 4916 
512 545 843 546 4916 6975 6976 4925 4927 6977 
809 843 810 512 6978 6979 6753 6743 6976 6748 
512 545 842 843 4916 6970 6974 6976 6975 6980 
809 843 512 842 6978 6976 6743 6972 6980 6974 
810 512 843 513 6748 6976 6979 6750 4603 6981 
843 512 546 513 6976 4925 6977 6981 4603 4926 
513 546 844 547 4926 6982 6983 4935 4937 6984 
810 844 811 513 6985 6986 6760 6750 6983 6755 
513 546 843 844 4926 6977 6981 6983 6982 6987 
810 844 513 843 6985 6983 6750 6979 6987 6981 
811 513 844 514 6755 6983 6986 6757 4613 6988 
844 513 547 514 6983 4935 6984 6988 4613 4936 
514 547 845 548 4936 6989 6990 4945 4947 6991 
811 845 812 514 6992 6993 6767 6757 6990 6762 
514 547 844 845 4936 6984 6988 6990 6989 6994 
811 845 514 844 6992 6990 6757 6986 6994 6988 
812 514 845 515 6762 6990 6993 6764 4623 6995 
845 514 548 515 6990 4945 6991 6995 4623 4946 
515 548 846 549 4946 6996 6997 4955 4957 6998 
812 846 813 515 6999 7000 6774 6764 6997 6769 
515 548 845 846 4946 6991 6995 6997 6996 7001 
812 846 515 845 6999 6997 6764 6993 7001 6995 
813 515 846 516 6769 6997 7000 6771 4633 7002 
846 515 549 516 6997 4955 6998 7002 4633 4956 
516 549 847 550 4956 7003 7004 4965 4967 7005 
813 847 814 516 7006 7007 6781 6771 7004 6776 
516 549 846 847 4956 6998 7002 7004 7003 7008 
813 847 516 846 7006 7004 6771 7000 7008 7002 
814 516 847 517 6776 7004 7007 6778 4643 7009 
847 516 550 517 7004 4965 7005 7009 4643 4966 
517 550 848 551 4966 7010 7011 4975 4977 7012 
814 848 815 517 7013 7014 6788 6778 7011 6783 
517 550 847 848 4966 7005 7009 7011 7010 7015 
814 848 517 847 7013 7011 6778 7007 7015 7009 
815 517 848 518 6783 7011 7014 6785 4653 7016 
848 517 551 518 7011 4975 7012 7016 4653 4976 
518 551 849 552 4976 7017 7018 4985 4987 7019 
815 849 816 518 7020 7021 6795 6785 7018 6790 
518 551 848 849 4976 7012 7016 7018 7017 7022 
815 849 518 848 7020 7018 6785 7014 7022 7016 
816 518 849 519 6790 7018 7021 6792 4663 7023 
849 518 552 519 7018 4985 7019 7023 4663 4986 
519 552 850 553 4986 7024 7025 4995 4997 7026 
816 850 817 519 7027 7028 6802 6792 7025 6797 
519 552 849 850 4986 7019 7023 7025 7024 7029 
816 850 519 849 7027 7025 6792 7021 7029 7023 
817 519 850 520 6797 7025 7028 6799 4673 7030 
850 519 553 520 7025 4995 7026 7030 4673 4996 
520 553 851 554 4996 7031 7032 5005 5007 7033 
817 851 818 520 7034 7035 6809 6799 7032 6804 
520 553 850 851 4996 7026 7030 7032 7031 7036 
817 851 520 850 7034 7032 6799 7028 7036 7030 
818 520 851 521 6804 7032 7035 6806 4683 7037 
851 520 554 521 7032 5005 7033 7037 4683 5006 
521 554 852 555 5006 7038 7039 5015 5017 7040 
818 852 819 521 7041 7042 6816 6806 7039 6811 
521 554 851 852 5006 7033 7037 7039 7038 7043 
818 852 521 851 7041 7039 6806 7035 7043 7037 
819 521 852 522 6811 7039 7042 6813 4693 7044 
852 521 555 522 7039 5015 7040 7044 4693 5016 
522 555 853 556 5016 7045 7046 5025 5027 7047 
819 853 820 522 7048 7049 6823 6813 7046 6818 
522 555 852 853 5016 7040 7044 7046 7045 7050 
819 853 522 852 7048 7046 6813 7042 7050 7044 
820 522 853 523 6818 7046 7049 6820 4703 7051 
853 522 556 523 7046 5025 7047 7051 4703 5026 
523 556 854 557 5026 7052 7053 5035 5037 7054 
820 854 821 523 7055 7056 6830 6820 7053 6825 
523 556 853 854 5026 7047 7051 7053 7052 7057 
820 854 523 853 7055 7053 6820 7049 7057 7051 
821 523 854 524 6825 7053 7056 6827 4713 7058 
854 523 557 524 7053 5035 7054 7058 4713 5036 
524 557 855 558 5036 7059 7060 5045 5047 7061 
821 855 822 524 7062 7063 6837 6827 7060 6832 
524 557 854 855 5036 7054 7058 7060 7059 7064 
821 855 524 854 7062 7060 6827 7056 7064 7058 
822 524 855 525 6832 7060 7063 6834 4723 7065 
855 524 558 525 7060 5045 7061 7065 4723 5046 
525 558 856 559 5046 7066 7067 5055 5057 7068 
822 856 823 525 7069 7070 6844 6834 7067 6839 
525 558 855 856 5046 7061 7065 7067 7066 7071 
822 856 525 855 7069 7067 6834 7063 7071 7065 
823 525 856 526 6839 7067 7070 6841 4733 7072 
856 525 559 526 7067 5055 7068 7072 4733 5056 
526 559 857 560 5056 7073 7074 5065 5067 7075 
823 857 824 526 7076 7077 6851 6841 7074 6846 
526 559 856 857 5056 7068 7072 7074 7073 7078 
823 857 526 856 7076 7074 6841 7070 7078 7072 
824 526 857 527 6846 7074 7077 6848 4743 7079 
857 526 560 527 7074 5065 7075 7079 4743 5066 
528 561 859 562 5081 7080 7081 5076 5080 7082 
825 859 826 528 7083 7084 6860 6858 7081 6853 
528 561 858 859 5081 7085 7086 7081 7080 7087 
825 859 528 858 7083 7081 6858 7088 7087 7086 
826 528 859 529 6853 7081 7084 6855 4756 7089 
859 528 562 529 7081 5076 7082 7089 4756 5077 
529 562 860 563 5077 7090 7091 5089 5091 7092 
826 860 827 529 7093 7094 6868 6855 7091 6863 
529 562 859 860 5077 7082 7089 7091 7090 7095 
826 860 529 859 7093 7091 6855 7084 7095 7089 
827 529 860 530 6863 7091 7094 6865 4767 7096 
860 529 563 530 7091 5089 7092 7096 4767 5090 
530 563 861 564 5090 7097 7098 5099 5101 7099 
827 861 828 530 7100 7101 6875 6865 7098 6870 
530 563 860 861 5090 7092 7096 7098 7097 7102 
827 861 530 860 7100 7098 6865 7094 7102 7096 
828 530 861 531 6870 7098 7101 6872 4777 7103 
861 530 564 531 7098 5099 7099 7103 4777 5100 
531 564 862 565 5100 7104 7105 5109 5111 7106 
828 862 829 531 7107 7108 6882 6872 7105 6877 
531 564 861 862 5100 7099 7103 7105 7104 7109 
828 862 531 861 7107 7105 6872 7101 7109 7103 
829 531 862 532 6877 7105 7108 6879 4787 7110 
862 531 565 532 7105 5109 7106 7110 4787 5110 
532 565 863 566 5110 7111 7112 5119 5121 7113 
829 863 830 532 7114 7115 6889 6879 7112 6884 
532 565 862 863 5110 7106 7110 7112 7111 7116 
829 863 532 862 7114 7112 6879 7108 7116 7110 
830 532 863 533 6884 7112 7115 6886 4797 7117 
863 532 566 533 7112 5119 7113 7117 4797 5120 
533 566 864 567 5120 7118 7119 5129 5131 7120 
830 864 831 533 7121 7122 6896 6886 7119 6891 
533 566 863 864 5120 7113 7117 7119 7118 7123 
830 864 533 863 7121 7119 6886 7115 7123 7117 
831 533 864 534 6891 7119 7122 6893 4807 7124 
864 533 567 534 7119 5129 7120 7124 4807 5130 
534 567 865 568 5130 7125 7126 5139 5141 7127 
831 865 832 534 7128 7129 6903 6893 7126 6898 
534 567 864 865 5130 7120 7124 7126 7125 7130 
831 865 534 864 7128 7126 6893 7122 7130 7124 
832 534 865 535 6898 7126 7129 6900 4817 7131 
865 534 568 535 7126 5139 7127 7131 4817 5140 
535 568 866 569 5140 7132 7133 5149 5151 7134 
832 866 833 535 7135 7136 6910 6900 7133 6905 
535 568 865 866 5140 7127 7131 7133 7132 7137 
832 866 535 865 7135 7133 6900 7129 7137 7131 
833 535 866 536 6905 7133 7136 6907 4827 7138 
866 535 569 536 7133 5149 7134 7138 4827 5150 
536 569 867 570 5150 7139 7140 5159 5161 7141 
833 867 834 536 7142 7143 6917 6907 7140 6912 
536 569 866 867 5150 7134 7138 7140 7139 7144 
833 867 536 866 7142 7140 6907 7136 7144 7138 
834 536 867 537 6912 7140 7143 6914 4837 7145 
867 536 570 537 7140 5159 7141 7145 4837 5160 
537 570 868 571 5160 7146 7147 5169 5171 7148 
834 868 835 537 7149 7150 6924 6914 7147 6919 
537 570 867 868 5160 7141 7145 7147 7146 7151 
834 868 537 867 7149 7147 6914 7143 7151 7145 
835 537 868 538 6919 7147 7150 6921 4847 7152 
868 537 571 538 7147 5169 7148 7152 4847 5170 
538 571 869 572 5170 7153 7154 5179 5181 7155 
835 869 836 538 7156 7157 6931 6921 7154 6926 
538 571 868 869 5170 7148 7152 7154 7153 7158 
835 869 538 868 7156 7154 6921 7150 7158 7152 
836 538 869 539 6926 7154 7157 6928 4857 7159 
869 538 572 539 7154 5179 7155 7159 4857 5180 
539 572 870 573 5180 7160 7161 5189 5191 7162 
836 870 837 539 7163 7164 6938 6928 7161 6933 
539 572 869 870 5180 7155 7159 7161 7160 7165 
836 870 539 869 7163 7161 6928 7157 7165 7159 
837 539 870 540 6933 7161 7164 6935 4867 7166 
870 539 573 540 7161 5189 7162 7166 4867 5190 
540 573 871 574 5190 7167 7168 5199 5201 7169 
837 871 838 540 7170 7171 6945 6935 7168 6940 
540 573 870 871 5190 7162 7166 7168 7167 7172 
837 871 540 870 7170 7168 6935 7164 7172 7166 
838 540 871 541 6940 7168 7171 6942 4877 7173 
871 540 574 541 7168 5199 7169 7173 4877 5200 
541 574 872 575 5200 7174 7175 5209 5211 7176 
838 872 839 541 7177 7178 6952 6942 7175 6947 
541 574 871 872 5200 7169 7173 7175 7174 7179 
838 872 541 871 7177 7175 6942 7171 7179 7173 
839 541 872 542 6947 7175 7178 6949 4887 7180 
872 541 575 542 7175 5209 7176 7180 4887 5210 
542 575 873 576 5210 7181 7182 5219 5221 7183 
839 873 840 542 7184 7185 6959 6949 7182 6954 
542 575 872 873 5210 7176 7180 7182 7181 7186 
839 873 542 872 7184 7182 6949 7178 7186 7180 
840 542 873 543 6954 7182 7185 6956 4897 7187 
873 542 576 543 7182 5219 7183 7187 4897 5220 
543 576 874 577 5220 7188 7189 5229 5231 7190 
840 874 841 543 7191 7192 6966 6956 7189 6961 
543 576 873 874 5220 7183 7187 7189 7188 7193 
840 874 543 873 7191 7189 6956 7185 7193 7187 
841 543 874 544 6961 7189 7192 6963 4907 7194 
874 543 577 544 7189 5229 7190 7194 4907 5230 
544 577 875 578 5230 7195 7196 5239 5241 7197 
841 875 842 544 7198 7199 6973 6963 7196 6968 
544 577 874 875 5230 7190 7194 7196 7195 7200 
841 875 544 874 7198 7196 6963 7192 7200 7194 
842 544 875 545 6968 7196 7199 6970 4917 7201 
875 544 578 545 7196 5239 7197 7201 4917 5240 
545 578 876 579 5240 7202 7203 5249 5251 7204 
842 876 843 545 7205 7206 6980 6970 7203 6975 
545 578 875 876 5240 7197 7201 7203 7202 7207 
842 876 545 875 7205 7203 6970 7199 7207 7201 
843 545 876 546 6975 7203 7206 6977 4927 7208 
876 545 579 546 7203 5249 7204 7208 4927 5250 
546 579 877 580 5250 7209 7210 5259 5261 7211 
843 877 844 546 7212 7213 6987 6977 7210 6982 
546 579 876 877 5250 7204 7208 7210 7209 7214 
843 877 546 876 7212 7210 6977 7206 7214 7208 
844 546 877 547 6982 7210 7213 6984 4937 7215 
877 546 580 547 7210 5259 7211 7215 4937 5260 
547 580 878 581 5260 7216 7217 5269 5271 7218 
844 878 845 547 7219 7220 6994 6984 7217 6989 
547 580 877 878 5260 7211 7215 7217 7216 7221 
844 878 547 877 7219 7217 6984 7213 7221 7215 
845 547 878 548 6989 7217 7220 6991 4947 7222 
878 547 581 548 7217 5269 7218 7222 4947 5270 
548 581 879 582 5270 7223 7224 5279 5281 7225 
845 879 846 548 7226 7227 7001 6991 7224 6996 
548 581 878 879 5270 7218 7222 7224 7223 7228 
845 879 548 878 7226 7224 6991 7220 7228 7222 
846 548 879 549 6996 7224 7227 6998 4957 7229 
879 548 582 549 7224 5279 7225 7229 4957 5280 
549 582 880 583 5280 7230 7231 5289 5291 7232 
846 880 847 549 7233 7234 7008 6998 7231 7003 
549 582 879 880 5280 7225 7229 7231 7230 7235 
846 880 549 879 7233 7231 6998 7227 7235 7229 
847 549 880 550 7003 7231 7234 7005 4967 7236 
880 549 583 550 7231 5289 7232 7236 4967 5290 
550 583 881 584 5290 7237 7238 5299 5301 7239 
847 881 848 550 7240 7241 7015 7005 7238 7010 
550 583 880 881 5290 7232 7236 7238 7237 7242 
847 881 550 880 7240 7238 7005 7234 7242 7236 
848 550 881 551 7010 7238 7241 7012 4977 7243 
881 550 584 551 7238 5299 7239 7243 4977 5300 
551 584 882 585 5300 7244 7245 5309 5311 7246 
848 882 849 551 7247 7248 7022 7012 7245 7017 
551 584 881 882 5300 7239 7243 7245 7244 7249 
848 882 551 881 7247 7245 7012 7241 7249 7243 
849 551 882 552 7017 7245 7248 7019 4987 7250 
882 551 585 552 7245 5309 7246 7250 4987 5310 
552 585 883 586 5310 7251 7252 5319 5321 7253 
849 883 850 552 7254 7255 7029 7019 7252 7024 
552 585 882 883 5310 7246 7250 7252 7251 7256 
849 883 552 882 7254 7252 7019 7248 7256 7250 
850 552 883 553 7024 7252 7255 7026 4997 7257 
883 552 586 553 7252 5319 7253 7257 4997 5320 
553 586 884 587 5320 7258 7259 5329 5331 7260 
850 884 851 553 7261 7262 7036 7026 7259 7031 
553 586 883 884 5320 7253 7257 7259 7258 7263 
850 884 553 883 7261 7259 7026 7255 7263 7257 
851 553 884 554 7031 7259 7262 7033 5007 7264 
884 553 587 554 7259 5329 7260 7264 5007 5330 
554 587 885 588 5330 7265 7266 5339 5341 7267 
851 885 852 554 7268 7269 7043 7033 7266 7038 
554 587 884 885 5330 7260 7264 7266 7265 7270 
851 885 554 884 7268 7266 7033 7262 7270 7264 
852 554 885 555 7038 7266 7269 7040 5017 7271 
885 554 588 555 7266 5339 7267 7271 5017 5340 
555 588 886 589 5340 7272 7273 5349 5351 7274 
852 886 853 555 7275 7276 7050 7040 7273 7045 
555 588 885 886 5340 7267 7271 7273 7272 7277 
852 886 555 885 7275 7273 7040 7269 7277 7271 
853 555 886 556 7045 7273 7276 7047 5027 7278 
886 555 589 556 7273 5349 7274 7278 5027 5350 
556 589 887 590 5350 7279 7280 5359 5361 7281 
853 887 854 556 7282 7283 7057 7047 7280 7052 
556 589 886 887 5350 7274 7278 7280 7279 7284 
853 887 556 886 7282 7280 7047 7276 7284 7278 
854 556 887 557 7052 7280 7283 7054 5037 7285 
887 556 590 557 7280 5359 7281 7285 5037 5360 
557 590 888 591 5360 7286 7287 5369 5371 7288 
854 888 855 557 7289 7290 7064 7054 7287 7059 
557 590 887 888 5360 7281 7285 7287 7286 7291 
854 888 557 887 7289 7287 7054 7283 7291 7285 
855 557 888 558 7059 7287 7290 7061 5047 7292 
888 557 591 558 7287 5369 7288 7292 5047 5370 
558 591 889 592 5370 7293 7294 5379 5381 7295 
855 889 856 558 7296 7297 7071 7061 7294 7066 
558 591 888 889 5370 7288 7292 7294 7293 7298 
855 889 558 888 7296 7294 7061 7290 7298 7292 
856 558 889 559 7066 7294 7297 7068 5057 7299 
889 558 592 559 7294 5379 7295 7299 5057 5380 
559 592 890 593 5380 7300 7301 5389 5391 7302 
856 890 857 559 7303 7304 7078 7068 7301 7073 
559 592 889 890 5380 7295 7299 7301 7300 7305 
856 890 559 889 7303 7301 7068 7297 7305 7299 
857 559 890 560 7073 7301 7304 7075 5067 7306 
890 559 593 560 7301 5389 7302 7306 5067 5390 
594 627 925 628 5405 7307 7308 5397 5404 7309 
891 925 892 594 7310 7311 7312 7313 7308 7314 
594 627 924 925 5405 7315 7316 7308 7307 7317 
891 925 594 924 7310 7308 7313 7318 7317 7316 
892 594 925 595 7314 7308 7311 7319 5399 7320 
925 594 628 595 7308 5397 7309 7320 5399 5398 
595 628 926 629 5398 7321 7322 5411 5415 7323 
892 926 893 595 7324 7325 7326 7319 7322 7327 
595 628 925 926 5398 7309 7320 7322 7321 7328 
892 926 595 925 7324 7322 7319 7311 7328 7320 
893 595 926 596 7327 7322 7325 7329 5413 7330 
926 595 629 596 7322 5411 7323 7330 5413 5412 
596 629 927 630 5412 7331 7332 5421 5425 7333 
893 927 894 596 7334 7335 7336 7329 7332 7337 
596 629 926 927 5412 7323 7330 7332 7331 7338 
893 927 596 926 7334 7332 7329 7325 7338 7330 
894 596 927 597 7337 7332 7335 7339 5423 7340 
927 596 630 597 7332 5421 7333 7340 5423 5422 
597 630 928 631 5422 7341 7342 5431 5435 7343 
894 928 895 597 7344 7345 7346 7339 7342 7347 
597 630 927 928 5422 7333 7340 7342 7341 7348 
894 928 597 927 7344 7342 7339 7335 7348 7340 
895 597 928 598 7347 7342 7345 7349 5433 7350 
928 597 631 598 7342 5431 7343 7350 5433 5432 
598 631 929 632 5432 7351 7352 5441 5445 7353 
895 929 896 598 7354 7355 7356 7349 7352 7357 
598 631 928 929 5432 7343 7350 7352 7351 7358 
895 929 598 928 7354 7352 7349 7345 7358 7350 
896 598 929 599 7357 7352 7355 7359 5443 7360 
929 598 632 599 7352 5441 7353 7360 5443 5442 
599 632 930 633 5442 7361 7362 5451 5455 7363 
896 930 897 599 7364 7365 7366 7359 7362 7367 
599 632 929 930 5442 7353 7360 7362 7361 7368 
896 930 599 929 7364 7362 7359 7355 7368 7360 
897 599 930 600 7367 7362 7365 7369 5453 7370 
930 599 633 600 7362 5451 7363 7370 5453 5452 
600 633 931 634 5452 7371 7372 5461 5465 7373 
897 931 898 600 7374 7375 7376 7369 7372 7377 
600 633 930 931 5452 7363 7370 7372 7371 7378 
897 931 600 930 7374 7372 7369 7365 7378 7370 
898 600 931 601 7377 7372 7375 7379 5463 7380 
931 600 634 601 7372 5461 7373 7380 5463 5462 
601 634 932 635 5462 7381 7382 5471 5475 7383 
898 932 899 601 7384 7385 7386 7379 7382 7387 
601 634 931 932 5462 7373 7380 7382 7381 7388 
898 932 601 931 7384 7382 7379 7375 7388 7380 
899 601 932 602 7387 7382 7385 7389 5473 7390 
932 601 635 602 7382 5471 7383 7390 5473 5472 
602 635 933 636 5472 7391 7392 5481 5485 7393 
899 933 900 602 7394 7395 7396 7389 7392 7397 
602 635 932 933 5472 7383 7390 7392 7391 7398 
899 933 602 932 7394 7392 7389 7385 7398 7390 
900 602 933 603 7397 7392 7395 7399 5483 7400 
933 602 636 603 7392 5481 7393 7400 5483 5482 
603 636 934 637 5482 7401 7402 5491 5495 7403 
900 934 901 603 7404 7405 7406 7399 7402 7407 
603 636 933 934 5482 7393 7400 7402 7401 7408 
900 934 603 933 7404 7402 7399 7395 7408 7400 
901 603 934 604 7407 7402 7405 7409 5493 7410 
934 603 637 604 7402 5491 7403 7410 5493 5492 
604 637 935 638 5492 7411 7412 5501 5505 7413 
901 935 902 604 7414 7415 7416 7409 7412 7417 
604 637 934 935 5492 7403 7410 7412 7411 7418 
901 935 604 934 7414 7412 7409 7405 7418 7410 
902 604 935 605 7417 7412 7415 7419 5503 7420 
935 604 638 605 7412 5501 7413 7420 5503 5502 
605 638 936 639 5502 7421 7422 5511 5515 7423 
902 936 903 605 7424 7425 7426 7419 7422 7427 
605 638 935 936 5502 7413 7420 7422 7421 7428 
902 936 605 935 7424 7422 7419 7415 7428 7420 
903 605 936 606 7427 7422 7425 7429 5513 7430 
936 605 639 606 7422 5511 7423 7430 5513 5512 
606 639 937 640 5512 7431 7432 5521 5525 7433 
903 937 904 606 7434 7435 7436 7429 7432 7437 
606 639 936 937 5512 7423 7430 7432 7431 7438 
903 937 606 936 7434 7432 7429 7425 7438 7430 
904 606 937 607 7437 7432 7435 7439 5523 7440 
937 606 640 607 7432 5521 7433 7440 5523 5522 
607 640 938 641 5522 7441 7442 5531 5535 7443 
904 938 905 607 7444 7445 7446 7439 7442 7447 
607 640 937 938 5522 7433 7440 7442 7441 7448 
904 938 607 937 7444 7442 7439 7435 7448 7440 
905 607 938 608 7447 7442 7445 7449 5533 7450 
938 607 641 608 7442 5531 7443 7450 5533 5532 
608 641 939 642 5532 7451 7452 5541 5545 7453 
905 939 906 608 7454 7455 7456 7449 7452 7457 
608 641 938 939 5532 7443 7450 7452 7451 7458 
905 939 608 938 7454 7452 7449 7445 7458 7450 
906 608 939 609 7457 7452 7455 7459 5543 7460 
939 608 642 609 7452 5541 7453 7460 5543 5542 
609 642 940 643 5542 7461 7462 5551 5555 7463 
906 940 907 609 7464 7465 7466 7459 7462 7467 
609 642 939 940 5542 7453 7460 7462 7461 7468 
906 940 609 939 7464 7462 7459 7455 7468 7460 
907 609 940 610 7467 7462 7465 7469 5553 7470 
940 609 643 610 7462 5551 7463 7470 5553 5552 
610 643 941 644 5552 7471 7472 5561 5565 7473 
907 941 908 610 7474 7475 7476 7469 7472 7477 
610 643 940 941 5552 7463 7470 7472 7471 7478 
907 941 610 940 7474 7472 7469 7465 7478 7470 
908 610 941 611 7477 7472 7475 7479 5563 7480 
941 610 644 611 7472 5561 7473 7480 5563 5562 
611 644 942 645 5562 7481 7482 5571 5575 7483 
908 942 909 611 7484 7485 7486 7479 7482 7487 
611 644 941 942 5562 7473 7480 7482 7481 7488 
908 942 611 941 7484 7482 7479 7475 7488 7480 
909 611 942 612 7487 7482 7485 7489 5573 7490 
942 611 645 612 7482 5571 7483 7490 5573 5572 
612 645 943 646 5572 7491 7492 5581 5585 7493 
909 943 910 612 7494 7495 7496 7489 7492 7497 
612 645 942 943 5572 7483 7490 7492 7491 7498 
909 943 612 942 7494 7492 7489 7485 7498 7490 
910 612 943 613 7497 7492 7495 7499 5583 7500 
943 612 646 613 7492 5581 7493 7500 5583 5582 
613 646 944 647 5582 7501 7502 5591 5595 7503 
910 944 911 613 7504 7505 7506 7499 7502 7507 
613 646 943 944 5582 7493 7500 7502 7501 7508 
910 944 613 943 7504 7502 7499 7495 7508 7500 
911 613 944 614 7507 7502 7505 7509 5593 7510 
944 613 647 614 7502 5591 7503 7510 5593 5592 
614 647 945 648 5592 7511 7512 5601 5605 7513 
911 945 912 614 7514 7515 7516 7509 7512 7517 
614 647 944 945 5592 7503 7510 7512 7511 7518 
911 945 614 944 7514 7512 7509 7505 7518 7510 
912 614 945 615 7517 7512 7515 7519 5603 7520 
945 614 648 615 7512 5601 7513 7520 5603 5602 
615 648 946 649 5602 7521 7522 5611 5615 7523 
912 946 913 615 7524 7525 7526 7519 7522 7527 
615 648 945 946 5602 7513 7520 7522 7521 7528 
912 946 615 945 7524 7522 7519 7515 7528 7520 
913 615 946 616 7527 7522 7525 7529 5613 7530 
946 615 649 616 7522 5611 7523 7530 5613 5612 
616 649 947 650 5612 7531 7532 5621 5625 7533 
913 947 914 616 7534 7535 7536 7529 7532 7537 
616 649 946 947 5612 7523 7530 7532 7531 7538 
913 947 616 946 7534 7532 7529 7525 7538 7530 
914 616 947 617 7537 7532 7535 7539 5623 7540 
947 616 650 617 7532 5621 7533 7540 5623 5622 
617 650 948 651 5622 7541 7542 5631 5635 7543 
914 948 915 617 7544 7545 7546 7539 7542 7547 
617 650 947 948 5622 7533 7540 7542 7541 7548 
914 948 617 947 7544 7542 7539 7535 7548 7540 
915 617 948 618 7547 7542 7545 7549 5633 7550 
948 617 651 618 7542 5631 7543 7550 5633 5632 
618 651 949 652 5632 7551 7552 5641 5645 7553 
915 949 916 618 7554 7555 7556 7549 7552 7557 
618 651 948 949 5632 7543 7550 7552 7551 7558 
915 949 618 948 7554 7552 7549 7545 7558 7550 
916 618 949 619 7557 7552 7555 7559 5643 7560 
949 618 652 619 7552 5641 7553 7560 5643 5642 
619 652 950 653 5642 7561 7562 5651 5655 7563 
916 950 917 619 7564 7565 7566 7559 7562 7567 
619 652 949 950 5642 7553 7560 7562 7561 7568 
916 950 619 949 7564 7562 7559 7555 7568 7560 
917 619 950 620 7567 7562 7565 7569 5653 7570 
950 619 653 620 7562 5651 7563 7570 5653 5652 
620 653 951 654 5652 7571 7572 5661 5665 7573 
917 951 918 620 7574 7575 7576 7569 7572 7577 
620 653 950 951 5652 7563 7570 7572 7571 7578 
917 951 620 950 7574 7572 7569 7565 7578 7570 
918 620 951 621 7577 7572 7575 7579 5663 7580 
951 620 654 621 7572 5661 7573 7580 5663 5662 
621 654 952 655 5662 7581 7582 5671 5675 7583 
918 952 919 621 7584 7585 7586 7579 7582 7587 
621 654 951 952 5662 7573 7580 7582 7581 7588 
918 952 621 951 7584 7582 7579 7575 7588 7580 
919 621 952 622 7587 7582 7585 7589 5673 7590 
952 621 655 622 7582 5671 7583 7590 5673 5672 
622 655 953 656 5672 7591 7592 5681 5685 7593 
919 953 920 622 7594 7595 7596 7589 7592 7597 
622 655 952 953 5672 7583 7590 7592 7591 7598 
919 953 622 952 7594 7592 7589 7585 7598 7590 
920 622 953 623 7597 7592 7595 7599 5683 7600 
953 622 656 623 7592 5681 7593 7600 5683 5682 
623 656 954 657 5682 7601 7602 5691 5695 7603 
920 954 921 623 7604 7605 7606 7599 7602 7607 
623 656 953 954 5682 7593 7600 7602 7601 7608 
920 954 623 953 7604 7602 7599 7595 7608 7600 
921 623 954 624 7607 7602 7605 7609 5693 7610 
954 623 657 624 7602 5691 7603 7610 5693 5692 
624 657 955 658 5692 7611 7612 5701 5705 7613 
921 955 922 624 7614 7615 7616 7609 7612 7617 
624 657 954 955 5692 7603 7610 7612 7611 7618 
921 955 624 954 7614 7612 7609 7605 7618 7610 
922 624 955 625 7617 7612 7615 7619 5703 7620 
955 624 658 625 7612 5701 7613 7620 5703 5702 
625 658 956 659 5702 7621 7622 5711 5715 7623 
922 956 923 625 7624 7625 7626 7619 7622 7627 
625 658 955 956 5702 7613 7620 7622 7621 7628 
922 956 625 955 7624 7622 7619 7615 7628 7620 
923 625 956 626 7627 7622 7625 7629 5713 7630 
956 625 659 626 7622 5711 7623 7630 5713 5712 
627 660 958 661 5726 7631 7632 5721 5725 7633 
924 958 925 627 7634 7635 7317 7315 7632 7307 
627 660 957 958 5726 7636 7637 7632 7631 7638 
924 958 627 957 7634 7632 7315 7639 7638 7637 
925 627 958 628 7307 7632 7635 7309 5404 7640 
958 627 661 628 7632 5721 7633 7640 5404 5722 
628 661 959 662 5722 7641 7642 5731 5733 7643 
925 959 926 628 7644 7645 7328 7309 7642 7321 
628 661 958 959 5722 7633 7640 7642 7641 7646 
925 959 628 958 7644 7642 7309 7635 7646 7640 
926 628 959 629 7321 7642 7645 7323 5415 7647 
959 628 662 629 7642 5731 7643 7647 5415 5732 
629 662 960 663 5732 7648 7649 5738 5740 7650 
926 960 927 629 7651 7652 7338 7323 7649 7331 
629 662 959 960 5732 7643 7647 7649 7648 7653 
926 960 629 959 7651 7649 7323 7645 7653 7647 
927 629 960 630 7331 7649 7652 7333 5425 7654 
960 629 663 630 7649 5738 7650 7654 5425 5739 
630 663 961 664 5739 7655 7656 5745 5747 7657 
927 961 928 630 7658 7659 7348 7333 7656 7341 
630 663 960 961 5739 7650 7654 7656 7655 7660 
927 961 630 960 7658 7656 7333 7652 7660 7654 
928 630 961 631 7341 7656 7659 7343 5435 7661 
961 630 664 631 7656 5745 7657 7661 5435 5746 
631 664 962 665 5746 7662 7663 5752 5754 7664 
928 962 929 631 7665 7666 7358 7343 7663 7351 
631 664 961 962 5746 7657 7661 7663 7662 7667 
928 962 631 961 7665 7663 7343 7659 7667 7661 
929 631 962 632 7351 7663 7666 7353 5445 7668 
962 631 665 632 7663 5752 7664 7668 5445 5753 
632 665 963 666 5753 7669 7670 5759 5761 7671 
929 963 930 632 7672 7673 7368 7353 7670 7361 
632 665 962 963 5753 7664 7668 7670 7669 7674 
929 963 632 962 7672 7670 7353 7666 7674 7668 
930 632 963 633 7361 7670 7673 7363 5455 7675 
963 632 666 633 7670 5759 7671 7675 5455 5760 
633 666 964 667 5760 7676 7677 5766 5768 7678 
930 964 931 633 7679 7680 7378 7363 7677 7371 
633 666 963 964 5760 7671 7675 7677 7676 7681 
930 964 633 963 7679 7677 7363 7673 7681 7675 
931 633 964 634 7371 7677 7680 7373 5465 7682 
964 633 667 634 7677 5766 7678 7682 5465 5767 
634 667 965 668 5767 7683 7684 5773 5775 7685 
931 965 932 634 7686 7687 7388 7373 7684 7381 
634 667 964 965 5767 7678 7682 7684 7683 7688 
931 965 634 964 7686 7684 7373 7680 7688 7682 
932 634 965 635 7381 7684 7687 7383 5475 7689 
965 634 668 635 7684 5773 7685 7689 5475 5774 
635 668 966 669 5774 7690 7691 5780 5782 7692 
932 966 933 635 7693 7694 7398 7383 7691 7391 
635 668 965 966 5774 7685 7689 7691 7690 7695 
932 966 635 965 7693 7691 7383 7687 7695 7689 
933 635 966 636 7391 7691 7694 7393 5485 7696 
966 635 669 636 7691 5780 7692 7696 5485 5781 
636 669 967 670 5781 7697 7698 5787 5789 7699 
933 967 934 636 7700 7701 7408 7393 7698 7401 
636 669 966 967 5781 7692 7696 7698 7697 7702 
933 967 636 966 7700 7698 7393 7694 7702 7696 
934 636 967 637 7401 7698 7701 7403 5495 7703 
967 636 670 637 7698 5787 7699 7703 5495 5788 
637 670 968 671 5788 7704 7705 5794 5796 7706 
934 968 935 637 7707 7708 7418 7403 7705 7411 
637 670 967 968 5788 7699 7703 7705 7704 7709 
934 968 637 967 7707 7705 7403 7701 7709 7703 
935 637 968 638 7411 7705 7708 7413 5505 7710 
968 637 671 638 7705 5794 7706 7710 5505 5795 
638 671 969 672 5795 7711 7712 5801 5803 7713 
935 969 936 638 7714 7715 7428 7413 7712 7421 
638 671 968 969 5795 7706 7710 7712 7711 7716 
935 969 638 968 7714 7712 7413 7708 7716 7710 
936 638 969 639 7421 7712 7715 7423 5515 7717 
969 638 672 639 7712 5801 7713 7717 5515 5802 
639 672 970 673 5802 7718 7719 5808 5810 7720 
936 970 937 639 7721 7722 7438 7423 7719 7431 
639 672 969 970 5802 7713 7717 7719 7718 7723 
936 970 639 969 7721 7719 7423 7715 7723 7717 
937 639 970 640 7431 7719 7722 7433 5525 7724 
970 639 673 640 7719 5808 7720 7724 5525 5809 
640 673 971 674 5809 7725 7726 5815 5817 7727 
937 971 938 640 7728 7729 7448 7433 7726 7441 
640 673 970 971 5809 7720 7724 7726 7725 7730 
937 971 640 970 7728 7726 7433 7722 7730 7724 
938 640 971 641 7441 7726 7729 7443 5535 7731 
971 640 674 641 7726 5815 7727 7731 5535 5816 
641 674 972 675 5816 7732 7733 5822 5824 7734 
938 972 939 641 7735 7736 7458 7443 7733 7451 
641 674 971 972 5816 7727 7731 7733 7732 7737 
938 972 641 971 7735 7733 7443 7729 7737 7731 
939 641 972 642 7451 7733 7736 7453 5545 7738 
972 641 675 642 7733 5822 7734 7738 5545 5823 
642 675 973 676 5823 7739 7740 5829 5831 7741 
939 973 940 642 7742 7743 7468 7453 7740 7461 
642 675 972 973 5823 7734 7738 7740 7739 7744 
939 973 642 972 7742 7740 7453 7736 7744 7738 
940 642 973 643 7461 7740 7743 7463 5555 7745 
973 642 676 643 7740 5829 7741 7745 5555 5830 
643 676 974 677 5830 7746 7747 5836 5838 7748 
940 974 941 643 7749 7750 7478 7463 7747 7471 
643 676 973 974 5830 7741 7745 7747 7746 7751 
940 974 643 973 7749 7747 7463 7743 7751 7745 
941 643 974 644 7471 7747 7750 7473 5565 7752 
974 643 677 644 7747 5836 7748 7752 5565 5837 
644 677 975 678 5837 7753 7754 5843 5845 7755 
941 975 942 644 7756 7757 7488 7473 7754 7481 
644 677 974 975 5837 7748 7752 7754 7753 7758 
941 975 644 974 7756 7754 7473 7750 7758 7752 
942 644 975 645 7481 7754 7757 7483 5575 7759 
975 644 678 645 7754 5843 7755 7759 5575 5844 
645 678 976 679 5844 7760 7761 5850 5852 7762 
942 976 943 645 7763 7764 7498 7483 7761 7491 
645 678 975 976 5844 7755 7759 7761 7760 7765 
942 976 645 975 7763 7761 7483 7757 7765 7759 
943 645 976 646 7491 7761 7764 7493 5585 7766 
976 645 679 646 7761 5850 7762 7766 5585 5851 
646 679 977 680 5851 7767 7768 5857 5859 7769 
943 977 944 646 7770 7771 7508 7493 7768 7501 
646 679 976 977 5851 7762 7766 7768 7767 7772 
943 977 646 976 7770 7768 7493 7764 7772 7766 
944 646 977 647 7501 7768 7771 7503 5595 7773 
977 646 680 647 7768 5857 7769 7773 5595 5858 
647 680 978 681 5858 7774 7775 5864 5866 7776 
944 978 945 647 7777 7778 7518 7503 7775 7511 
647 680 977 978 5858 7769 7773 7775 7774 7779 
944 978 647 977 7777 7775 7503 7771 7779 7773 
945 647 978 648 7511 7775 7778 7513 5605 7780 
978 647 681 648 7775 5864 7776 7780 5605 5865 
648 681 979 682 5865 7781 7782 5871 5873 7783 
945 979 946 648 7784 7785 7528 7513 7782 7521 
648 681 978 979 5865 7776 7780 7782 7781 7786 
945 979 648 978 7784 7782 7513 7778 7786 7780 
946 648 979 649 7521 7782 7785 7523 5615 7787 
979 648 682 649 7782 5871 7783 7787 5615 5872 
649 682 980 683 5872 7788 7789 5878 5880 7790 
946 980 947 649 7791 7792 7538 7523 7789 7531 
649 682 979 980 5872 7783 7787 7789 7788 7793 
946 980 649 979 7791 7789 7523 7785 7793 7787 
947 649 980 650 7531 7789 7792 7533 5625 7794 
980 649 683 650 7789 5878 7790 7794 5625 5879 
650 683 981 684 5879 7795 7796 5885 5887 7797 
947 981 948 650 7798 7799 7548 7533 7796 7541 
650 683 980 981 5879 7790 7794 7796 7795 7800 
947 981 650 980 7798 7796 7533 7792 7800 7794 
948 650 981 651 7541 7796 7799 7543 5635 7801 
981 650 684 651 7796 5885 7797 7801 5635 5886 
651 684 982 685 5886 7802 7803 5892 5894 7804 
948 982 949 651 7805 7806 7558 7543 7803 7551 
651 684 981 982 5886 7797 7801 7803 7802 7807 
948 982 651 981 7805 7803 7543 7799 7807 7801 
949 651 982 652 7551 7803 7806 7553 5645 7808 
982 651 685 652 7803 5892 7804 7808 5645 5893 
652 685 983 686 5893 7809 7810 5899 5901 7811 
949 983 950 652 7812 7813 7568 7553 7810 7561 
652 685 982 983 5893 7804 7808 7810 7809 7814 
949 983 652 982 7812 7810 7553 7806 7814 7808 
950 652 983 653 7561 7810 7813 7563 5655 7815 
983 652 686 653 7810 5899 7811 7815 5655 5900 
653 686 984 687 5900 7816 7817 5906 5908 7818 
950 984 951 653 7819 7820 7578 7563 7817 7571 
653 686 983 984 5900 7811 7815 7817 7816 7821 
950 984 653 983 7819 7817 7563 7813 7821 7815 
951 653 984 654 7571 7817 7820 7573 5665 7822 
984 653 687 654 7817 5906 7818 7822 5665 5907 
654 687 985 688 5907 7823 7824 5913 5915 7825 
951 985 952 654 7826 7827 7588 7573 7824 7581 
654 687 984 985 5907 7818 7822 7824 7823 7828 
951 985 654 984 7826 7824 7573 7820 7828 7822 
952 654 985 655 7581 7824 7827 7583 5675 7829 
985 654 688 655 7824 5913 7825 7829 5675 5914 
655 688 986 689 5914 7830 7831 5920 5922 7832 
952 986 953 655 7833 7834 7598 7583 7831 7591 
655 688 985 986 5914 7825 7829 7831 7830 7835 
952 986 655 985 7833 7831 7583 7827 7835 7829 
953 655 986 656 7591 7831 7834 7593 5685 7836 
986 655 689 656 7831 5920 7832 7836 5685 5921 
656 689 987 690 5921 7837 7838 5927 5929 7839 
953 987 954 656 7840 7841 7608 7593 7838 7601 
656 689 986 987 5921 7832 7836 7838 7837 7842 
953 987 656 986 7840 7838 7593 7834 7842 7836 
954 656 987 657 7601 7838 7841 7603 5695 7843 
987 656 690 657 7838 5927 7839 7843 5695 5928 
657 690 988 691 5928 7844 7845 5934 5936 7846 
954 988 955 657 7847 7848 7618 7603 7845 7611 
657 690 987 988 5928 7839 7843 7845 7844 7849 
954 988 657 987 7847 7845 7603 7841 7849 7843 
955 657 988 658 7611 7845 7848 7613 5705 7850 
988 657 691 658 7845 5934 7846 7850 5705 5935 
658 691 989 692 5935 7851 7852 5941 5943 7853 
955 989 956 658 7854 7855 7628 7613 7852 7621 
658 691 988 989 5935 7846 7850 7852 7851 7856 
955 989 658 988 7854 7852 7613 7848 7856 7850 
956 658 989 659 7621 7852 7855 7623 5715 7857 
989 658 692 659 7852 5941 7853 7857 5715 5942 
660 693 991 694 5953 7858 7859 5948 5952 7860 
957 991 958 660 7861 7862 7638 7636 7859 7631 
660 693 990 991 5953 7863 7864 7859 7858 7865 
957 991 660 990 7861 7859 7636 7866 7865 7864 
958 660 991 661 7631 7859 7862 7633 5725 7867 
991 660 694 661 7859 5948 7860 7867 5725 5949 
661 694 992 695 5949 7868 7869 5958 5960 7870 
958 992 959 661 7871 7872 7646 7633 7869 7641 
661 694 991 992 5949 7860 7867 7869 7868 7873 
958 992 661 991 7871 7869 7633 7862 7873 7867 
959 661 992 662 7641 7869 7872 7643 5733 7874 
992 661 695 662 7869 5958 7870 7874 5733 5959 
662 695 993 696 5959 7875 7876 5965 5967 7877 
959 993 960 662 7878 7879 7653 7643 7876 7648 
662 695 992 993 5959 7870 7874 7876 7875 7880 
959 993 662 992 7878 7876 7643 7872 7880 7874 
960 662 993 663 7648 7876 7879 7650 5740 7881 
993 662 696 663 7876 5965 7877 7881 5740 5966 
663 696 994 697 5966 7882 7883 5972 5974 7884 
960 994 961 663 7885 7886 7660 7650 7883 7655 
663 696 993 994 5966 7877 7881 7883 7882 7887 
960 994 663 993 7885 7883 7650 7879 7887 7881 
961 663 994 664 7655 7883 7886 7657 5747 7888 
994 663 697 664 7883 5972 7884 7888 5747 5973 
664 697 995 698 5973 7889 7890 5979 5981 7891 
961 995 962 664 7892 7893 7667 7657 7890 7662 
664 697 994 995 5973 7884 7888 7890 7889 7894 
961 995 664 994 7892 7890 7657 7886 7894 7888 
962 664 995 665 7662 7890 7893 7664 5754 7895 
995 664 698 665 7890 5979 7891 7895 5754 5980 
665 698 996 699 5980 7896 7897 5986 5988 7898 
962 996 963 665 7899 7900 7674 7664 7897 7669 
665 698 995 996 5980 7891 7895 7897 7896 7901 
962 996 665 995 7899 7897 7664 7893 7901 7895 
963 665 996 666 7669 7897 7900 7671 5761 7902 
996 665 699 666 7897 5986 7898 7902 5761 5987 
666 699 997 700 5987 7903 7904 5993 5995 7905 
963 997 964 666 7906 7907 7681 7671 7904 7676 
666 699 996 997 5987 7898 7902 7904 7903 7908 
963 997 666 996 7906 7904 7671 7900 7908 7902 
964 666 997 667 7676 7904 7907 7678 5768 7909 
997 666 700 667 7904 5993 7905 7909 5768 5994 
667 700 998 701 5994 7910 7911 6000 6002 7912 
964 998 965 667 7913 7914 7688 7678 7911 7683 
667 700 997 998 5994 7905 7909 7911 7910 7915 
964 998 667 997 7913 7911 7678 7907 7915 7909 
965 667 998 668 7683 7911 7914 7685 5775 7916 
998 667 701 668 7911 6000 7912 7916 5775 6001 
668 701 999 702 6001 7917 7918 6007 6009 7919 
965 999 966 668 7920 7921 7695 7685 7918 7690 
668 701 998 999 6001 7912 7916 7918 7917 7922 
965 999 668 998 7920 7918 7685 7914 7922 7916 
966 668 999 669 7690 7918 7921 7692 5782 7923 
999 668 702 669 7918 6007 7919 7923 5782 6008 
669 702 1000 703 6008 7924 7925 6014 6016 7926 
966 1000 967 669 7927 7928 7702 7692 7925 7697 
669 702 999 1000 6008 7919 7923 7925 7924 7929 
966 1000 669 999 7927 7925 7692 7921 7929 7923 
967 669 1000 670 7697 7925 7928 7699 5789 7930 
1000 669 703 670 7925 6014 7926 7930 5789 6015 
670 703 1001 704 6015 7931 7932 6021 6023 7933 
967 1001 968 670 7934 7935 7709 7699 7932 7704 
670 703 1000 1001 6015 7926 7930 7932 7931 7936 
967 1001 670 1000 7934 7932 7699 7928 7936 7930 
968 670 1001 671 7704 7932 7935 7706 5796 7937 
1001 670 704 671 7932 6021 7933 7937 5796 6022 
671 704 1002 705 6022 7938 7939 6028 6030 7940 
968 1002 969 671 7941 7942 7716 7706 7939 7711 
671 704 1001 1002 6022 7933 7937 7939 7938 7943 
968 1002 671 1001 7941 7939 7706 7935 7943 7937 
969 671 1002 672 7711 7939 7942 7713 5803 7944 
1002 671 705 672 7939 6028 7940 7944 5803 6029 
672 705 1003 706 6029 7945 7946 6035 6037 7947 
969 1003 970 672 7948 7949 7723 7713 7946 7718 
672 705 1002 1003 6029 7940 7944 7946 7945 7950 
969 1003 672 1002 7948 7946 7713 7942 7950 7944 
970 672 1003 673 7718 7946 7949 7720 5810 7951 
1003 672 706 673 7946 6035 7947 7951 5810 6036 
673 706 1004 707 6036 7952 7953 6042 6044 7954 
970 1004 971 673 7955 7956 7730 7720 7953 7725 
673 706 1003 1004 6036 7947 7951 7953 7952 7957 
970 1004 673 1003 7955 7953 7720 7949 7957 7951 
971 673 1004 674 7725 7953 7956 7727 5817 7958 
1004 673 707 674 7953 6042 7954 7958 5817 6043 
674 707 1005 708 6043 7959 7960 6049 6051 7961 
971 1005 972 674 7962 7963 7737 7727 7960 7732 
674 707 1004 1005 6043 7954 7958 7960 7959 7964 
971 1005 674 1004 7962 7960 7727 7956 7964 7958 
972 674 1005 675 7732 7960 7963 7734 5824 7965 
1005 674 708 675 7960 6049 7961 7965 5824 6050 
675 708 1006 709 6050 7966 7967 6056 6058 7968 
972 1006 973 675 7969 7970 7744 7734 7967 7739 
675 708 1005 1006 6050 7961 7965 7967 7966 7971 
972 1006 675 1005 7969 7967 7734 7963 7971 7965 
973 675 1006 676 7739 7967 7970 7741 5831 7972 
1006 675 709 676 7967 6056 7968 7972 5831 6057 
676 709 1007 710 6057 7973 7974 6063 6065 7975 
973 1007 974 676 7976 7977 7751 7741 7974 7746 
676 709 1006 1007 6057 7968 7972 7974 7973 7978 
973 1007 676 1006 7976 7974 7741 7970 7978 7972 
974 676 1007 677 7746 7974 7977 7748 5838 7979 
1007 676 710 677 7974 6063 7975 7979 5838 6064 
677 710 1008 711 6064 7980 7981 6070 6072 7982 
974 1008 975 677 7983 7984 7758 7748 7981 7753 
677 710 1007 1008 6064 7975 7979 7981 7980 7985 
974 1008 677 1007 7983 7981 7748 7977 7985 7979 
975 677 1008 678 7753 7981 7984 7755 5845 7986 
1008 677 711 678 7981 6070 7982 7986 5845 6071 
678 711 1009 712 6071 7987 7988 6077 6079 7989 
975 1009 976 678 7990 7991 7765 7755 7988 7760 
678 711 1008 1009 6071 7982 7986 7988 7987 7992 
975 1009 678 1008 7990 7988 7755 7984 7992 7986 
976 678 1009 679 7760 7988 7991 7762 5852 7993 
1009 678 712 679 7988 6077 7989 7993 5852 6078 
679 712 1010 713 6078 7994 7995 6084 6086 7996 
976 1010 977 679 7997 7998 7772 7762 7995 7767 
679 712 1009 1010 6078 7989 7993 7995 7994 7999 
976 1010 679 1009 7997 7995 7762 7991 7999 7993 
977 679 1010 680 7767 7995 7998 7769 5859 8000 
1010 679 713 680 7995 6084 7996 8000 5859 6085 
680 713 1011 714 6085 8001 8002 6091 6093 8003 
977 1011 978 680 8004 8005 7779 7769 8002 7774 
680 713 1010 1011 6085 7996 8000 8002 8001 8006 
977 1011 680 1010 8004 8002 7769 7998 8006 8000 
978 680 1011 681 7774 8002 8005 7776 5866 8007 
1011 680 714 681 8002 6091 8003 8007 5866 6092 
681 714 1012 715 6092 8008 8009 6098 6100 8010 
978 1012 979 681 8011 8012 7786 7776 8009 7781 
681 714 1011 1012 6092 8003 8007 8009 8008 8013 
978 1012 681 1011 8011 8009 7776 8005 8013 8007 
979 681 1012 682 7781 8009 8012 7783 5873 8014 
1012 681 715 682 8009 6098 8010 8014 5873 6099 
682 715 1013 716 6099 8015 8016 6105 6107 8017 
979 1013 980 682 8018 8019 7793 7783 8016 7788 
682 715 1012 1013 6099 8010 8014 8016 8015 8020 
979 1013 682 1012 8018 8016 7783 8012 8020 8014 
980 682 1013 683 7788 8016 8019 7790 5880 8021 
1013 682 716 683 8016 6105 8017 8021 5880 6106 
683 716 1014 717 6106 8022 8023 6112 6114 8024 
980 1014 981 683 8025 8026 7800 7790 8023 7795 
683 716 1013 1014 6106 8017 8021 8023 8022 8027 
980 1014 683 1013 8025 8023 7790 8019 8027 8021 
981 683 1014 684 7795 8023 8026 7797 5887 8028 
1014 683 717 684 8023 6112 8024 8028 5887 6113 
684 717 1015 718 6113 8029 8030 6119 6121 8031 
981 1015 982 684 8032 8033 7807 7797 8030 7802 
684 717 1014 1015 6113 8024 8028 8030 8029 8034 
981 1015 684 1014 8032 8030 7797 8026 8034 8028 
982 684 1015 685 7802 8030 8033 7804 5894 8035 
1015 684 718 685 8030 6119 8031 8035 5894 6120 
685 718 1016 719 6120 8036 8037 6126 6128 8038 
982 1016 983 685 8039 8040 7814 7804 8037 7809 
685 718 1015 1016 6120 8031 8035 8037 8036 8041 
982 1016 685 1015 8039 8037 7804 8033 8041 8035 
983 685 1016 686 7809 8037 8040 7811 5901 8042 
1016 685 719 686 8037 6126 8038 8042 5901 6127 
686 719 1017 720 6127 8043 8044 6133 6135 8045 
983 1017 984 686 8046 8047 7821 7811 8044 7816 
686 719 1016 1017 6127 8038 8042 8044 8043 8048 
983 1017 686 1016 8046 8044 7811 8040 8048 8042 
984 686 1017 687 7816 8044 8047 7818 5908 8049 
1017 686 720 687 8044 6133 8045 8049 5908 6134 
687 720 1018 721 6134 8050 8051 6140 6142 8052 
984 1018 985 687 8053 8054 7828 7818 8051 7823 
687 720 1017 1018 6134 8045 8049 8051 8050 8055 
984 1018 687 1017 8053 8051 7818 8047 8055 8049 
985 687 1018 688 7823 8051 8054 7825 5915 8056 
1018 687 721 688 8051 6140 8052 8056 5915 6141 
688 721 1019 722 6141 8057 8058 6147 6149 8059 
985 1019 986 688 8060 8061 7835 7825 8058 7830 
688 721 1018 1019 6141 8052 8056 8058 8057 8062 
985 1019 688 1018 8060 8058 7825 8054 8062 8056 
986 688 1019 689 7830 8058 8061 7832 5922 8063 
1019 688 722 689 8058 6147 8059 8063 5922 6148 
689 722 1020 723 6148 8064 8065 6154 6156 8066 
986 1020 987 689 8067 8068 7842 7832 8065 7837 
689 722 1019 1020 6148 8059 8063 8065 8064 8069 
986 1020 689 1019 8067 8065 7832 8061 8069 8063 
987 689 1020 690 7837 8065 8068 7839 5929 8070 
1020 689 723 690 8065 6154 8066 8070 5929 6155 
690 723 1021 724 6155 8071 8072 6161 6163 8073 
987 1021 988 690 8074 8075 7849 7839 8072 7844 
690 723 1020 1021 6155 8066 8070 8072 8071 8076 
987 1021 690 1020 8074 8072 7839 8068 8076 8070 
988 690 1021 691 7844 8072 8075 7846 5936 8077 
1021 690 724 691 8072 6161 8073 8077 5936 6162 
691 724 1022 725 6162 8078 8079 6168 6170 8080 
988 1022 989 691 8081 8082 7856 7846 8079 7851 
691 724 1021 1022 6162 8073 8077 8079 8078 8083 
988 1022 691 1021 8081 8079 7846 8075 8083 8077 
989 691 1022 692 7851 8079 8082 7853 5943 8084 
1022 691 725 692 8079 6168 8080 8084 5943 6169 
693 726 1024 727 6180 8085 8086 6175 6179 8087 
990 1024 991 693 8088 8089 7865 7863 8086 7858 
693 726 1023 1024 6180 8090 8091 8086 8085 8092 
990 1024 693 1023 8088 8086 7863 8093 8092 8091 
991 693 1024 694 7858 8086 8089 7860 5952 8094 
1024 693 727 694 8086 6175 8087 8094 5952 6176 
694 727 1025 728 6176 8095 8096 6185 6187 8097 
991 1025 992 694 8098 8099 7873 7860 8096 7868 
694 727 1024 1025 6176 8087 8094 8096 8095 8100 
991 1025 694 1024 8098 8096 7860 8089 8100 8094 
992 694 1025 695 7868 8096 8099 7870 5960 8101 
1025 694 728 695 8096 6185 8097 8101 5960 6186 
695 728 1026 729 6186 8102 8103 6192 6194 8104 
992 1026 993 695 8105 8106 7880 7870 8103 7875 
695 728 1025 1026 6186 8097 8101 8103 8102 8107 
992 1026 695 1025 8105 8103 7870 8099 8107 8101 
993 695 1026 696 7875 8103 8106 7877 5967 8108 
1026 695 729 696 8103 6192 8104 8108 5967 6193 
696 729 1027 730 6193 8109 8110 6199 6201 8111 
993 1027 994 696 8112 8113 7887 7877 8110 7882 
696 729 1026 1027 6193 8104 8108 8110 8109 8114 
993 1027 696 1026 8112 8110 7877 8106 8114 8108 
994 696 1027 697 7882 8110 8113 7884 5974 8115 
1027 696 730 697 8110 6199 8111 8115 5974 6200 
697 730 1028 731 6200 8116 8117 6206 6208 8118 
994 1028 995 697 8119 8120 7894 7884 8117 7889 
697 730 1027 1028 6200 8111 8115 8117 8116 8121 
994 1028 697 1027 8119 8117 7884 8113 8121 8115 
995 697 1028 698 7889 8117 8120 7891 5981 8122 
1028 697 731 698 8117 6206 8118 8122 5981 6207 
698 731 1029 732 6207 8123 8124 6213 6215 8125 
995 1029 996 698 8126 8127 7901 7891 8124 7896 
698 731 1028 1029 6207 8118 8122 8124 8123 8128 
995 1029 698 1028 8126 8124 7891 8120 8128 8122 
996 698 1029 699 7896 8124 8127 7898 5988 8129 
1029 698 732 699 8124 6213 8125 8129 5988 6214 
699 732 1030 733 6214 8130 8131 6220 6222 8132 
996 1030 997 699 8133 8134 7908 7898 8131 7903 
699 732 1029 1030 6214 8125 8129 8131 8130 8135 
996 1030 699 1029 8133 8131 7898 8127 8135 8129 
997 699 1030 700 7903 8131 8134 7905 5995 8136 
1030 699 733 700 8131 6220 8132 8136 5995 6221 
700 733 1031 734 6221 8137 8138 6227 6229 8139 
997 1031 998 700 8140 8141 7915 7905 8138 7910 
700 733 1030 1031 6221 8132 8136 8138 8137 8142 
997 1031 700 1030 8140 8138 7905 8134 8142 8136 
998 700 1031 701 7910 8138 8141 7912 6002 8143 
1031 700 734 701 8138 6227 8139 8143 6002 6228 
701 734 1032 735 6228 8144 8145 6234 6236 8146 
998 1032 999 701 8147 8148 7922 7912 8145 7917 
701 734 1031 1032 6228 8139 8143 8145 8144 8149 
998 1032 701 1031 8147 8145 7912 8141 8149 8143 
999 701 1032 702 7917 8145 8148 7919 6009 8150 
1032 701 735 702 8145 6234 8146 8150 6009 6235 
702 735 1033 736 6235 8151 8152 6241 6243 8153 
999 1033 1000 702 8154 8155 7929 7919 8152 7924 
702 735 1032 1033 6235 8146 8150 8152 8151 8156 
999 1033 702 1032 8154 8152 7919 8148 8156 8150 
1000 702 1033 703 7924 8152 8155 7926 6016 8157 
1033 702 736 703 8152 6241 8153 8157 6016 6242 
703 736 1034 737 6242 8158 8159 6248 6250 8160 
1000 1034 1001 703 8161 8162 7936 7926 8159 7931 
703 736 1033 1034 6242 8153 8157 8159 8158 8163 
1000 1034 703 1033 8161 8159 7926 8155 8163 8157 
1001 703 1034 704 7931 8159 8162 7933 6023 8164 
1034 703 737 704 8159 6248 8160 8164 6023 6249 
704 737 1035 738 6249 8165 8166 6255 6257 8167 
1001 1035 1002 704 8168 8169 7943 7933 8166 7938 
704 737 1034 1035 6249 8160 8164 8166 8165 8170 
1001 1035 704 1034 8168 8166 7933 8162 8170 8164 
1002 704 1035 705 7938 8166 8169 7940 6030 8171 
1035 704 738 705 8166 6255 8167 8171 6030 6256 
705 738 1036 739 6256 8172 8173 6262 6264 8174 
1002 1036 1003 705 8175 8176 7950 7940 8173 7945 
705 738 1035 1036 6256 8167 8171 8173 8172 8177 
1002 1036 705 1035 8175 8173 7940 8169 8177 8171 
1003 705 1036 706 7945 8173 8176 7947 6037 8178 
1036 705 739 706 8173 6262 8174 8178 6037 6263 
706 739 1037 740 6263 8179 8180 6269 6271 8181 
1003 1037 1004 706 8182 8183 7957 7947 8180 7952 
706 739 1036 1037 6263 8174 8178 8180 8179 8184 
1003 1037 706 1036 8182 8180 7947 8176 8184 8178 
1004 706 1037 707 7952 8180 8183 7954 6044 8185 
1037 706 740 707 8180 6269 8181 8185 6044 6270 
707 740 1038 741 6270 8186 8187 6276 6278 8188 
1004 1038 1005 707 8189 8190 7964 7954 8187 7959 
707 740 1037 1038 6270 8181 8185 8187 8186 8191 
1004 1038 707 1037 8189 8187 7954 8183 8191 8185 
1005 707 1038 708 7959 8187 8190 7961 6051 8192 
1038 707 741 708 8187 6276 8188 8192 6051 6277 
708 741 1039 742 6277 8193 8194 6283 6285 8195 
1005 1039 1006 708 8196 8197 7971 7961 8194 7966 
708 741 1038 1039 6277 8188 8192 8194 8193 8198 
1005 1039 708 1038 8196 8194 7961 8190 8198 8192 
1006 708 1039 709 7966 8194 8197 7968 6058 8199 
1039 708 742 709 8194 6283 8195 8199 6058 6284 
709 742 1040 743 6284 8200 8201 6290 6292 8202 
1006 1040 1007 709 8203 8204 7978 7968 8201 7973 
709 742 1039 1040 6284 8195 8199 8201 8200 8205 
1006 1040 709 1039 8203 8201 7968 8197 8205 8199 
1007 709 1040 710 7973 8201 8204 7975 6065 8206 
1040 709 743 710 8201 6290 8202 8206 6065 6291 
710 743 1041 744 6291 8207 8208 6297 6299 8209 
1007 1041 1008 710 8210 8211 7985 7975 8208 7980 
710 743 1040 1041 6291 8202 8206 8208 8207 8212 
1007 1041 710 1040 8210 8208 7975 8204 8212 8206 
1008 710 1041 711 7980 8208 8211 7982 6072 8213 
1041 710 744 711 8208 6297 8209 8213 6072 6298 
711 744 1042 745 6298 8214 8215 6304 6306 8216 
1008 1042 1009 711 8217 8218 7992 7982 8215 7987 
711 744 1041 1042 6298 8209 8213 8215 8214 8219 
1008 1042 711 1041 8217 8215 7982 8211 8219 8213 
1009 711 1042 712 7987 8215 8218 7989 6079 8220 
1042 711 745 712 8215 6304 8216 8220 6079 6305 
712 745 1043 746 6305 8221 8222 6311 6313 8223 
1009 1043 1010 712 8224 8225 7999 7989 8222 7994 
712 745 1042 1043 6305 8216 8220 8222 8221 8226 
1009 1043 712 1042 8224 8222 7989 8218 8226 8220 
1010 712 1043 713 7994 8222 8225 7996 6086 8227 
1043 712 746 713 8222 6311 8223 8227 6086 6312 
713 746 1044 747 6312 8228 8229 6318 6320 8230 
1010 1044 1011 713 8231 8232 8006 7996 8229 8001 
713 746 1043 1044 6312 8223 8227 8229 8228 8233 
1010 1044 713 1043 8231 8229 7996 8225 8233 8227 
1011 713 1044 714 8001 8229 8232 8003 6093 8234 
1044 713 747 714 8229 6318 8230 8234 6093 6319 
714 747 1045 748 6319 8235 8236 6325 6327 8237 
1011 1045 1012 714 8238 8239 8013 8003 8236 8008 
714 747 1044 1045 6319 8230 8234 8236 8235 8240 
1011 1045 714 1044 8238 8236 8003 8232 8240 8234 
1012 714 1045 715 8008 8236 8239 8010 6100 8241 
1045 714 748 715 8236 6325 8237 8241 6100 6326 
715 748 1046 749 6326 8242 8243 6332 6334 8244 
1012 1046 1013 715 8245 8246 8020 8010 8243 8015 
715 748 1045 1046 6326 8237 8241 8243 8242 8247 
1012 1046 715 1045 8245 8243 8010 8239 8247 8241 
1013 715 1046 716 8015 8243 8246 8017 6107 8248 
1046 715 749 716 8243 6332 8244 8248 6107 6333 
716 749 1047 750 6333 8249 8250 6339 6341 8251 
1013 1047 1014 716 8252 8253 8027 8017 8250 8022 
716 749 1046 1047 6333 8244 8248 8250 8249 8254 
1013 1047 716 1046 8252 8250 8017 8246 8254 8248 
1014 716 1047 717 8022 8250 8253 8024 6114 8255 
1047 716 750 717 8250 6339 8251 8255 6114 6340 
717 750 1048 751 6340 8256 8257 6346 6348 8258 
1014 1048 1015 717 8259 8260 8034 8024 8257 8029 
717 750 1047 1048 6340 8251 8255 8257 8256 8261 
1014 1048 717 1047 8259 8257 8024 8253 8261 8255 
1015 717 1048 718 8029 8257 8260 8031 6121 8262 
1048 717 751 718 8257 6346 8258 8262 6121 6347 
718 751 1049 752 6347 8263 8264 6353 6355 8265 
1015 1049 1016 718 8266 8267 8041 8031 8264 8036 
718 751 1048 1049 6347 8258 8262 8264 8263 8268 
1015 1049 718 1048 8266 8264 8031 8260 8268 8262 
1016 718 1049 719 8036 8264 8267 8038 6128 8269 
1049 718 752 719 8264 6353 8265 8269 6128 6354 
719 752 1050 753 6354 8270 8271 6360 6362 8272 
1016 1050 1017 719 8273 8274 8048 8038 8271 8043 
719 752 1049 1050 6354 8265 8269 8271 8270 8275 
1016 1050 719 1049 8273 8271 8038 8267 8275 8269 
1017 719 1050 720 8043 8271 8274 8045 6135 8276 
1050 719 753 720 8271 6360 8272 8276 6135 6361 
720 753 1051 754 6361 8277 8278 6367 6369 8279 
1017 1051 1018 720 8280 8281 8055 8045 8278 8050 
720 753 1050 1051 6361 8272 8276 8278 8277 8282 
1017 1051 720 1050 8280 8278 8045 8274 8282 8276 
1018 720 1051 721 8050 8278 8281 8052 6142 8283 
1051 720 754 721 8278 6367 8279 8283 6142 6368 
721 754 1052 755 6368 8284 8285 6374 6376 8286 
1018 1052 1019 721 8287 8288 8062 8052 8285 8057 
721 754 1051 1052 6368 8279 8283 8285 8284 8289 
1018 1052 721 1051 8287 8285 8052 8281 8289 8283 
1019 721 1052 722 8057 8285 8288 8059 6149 8290 
1052 721 755 722 8285 6374 8286 8290 6149 6375 
722 755 1053 756 6375 8291 8292 6381 6383 8293 
1019 1053 1020 722 8294 8295 8069 8059 8292 8064 
722 755 1052 1053 6375 8286 8290 8292 8291 8296 
1019 1053 722 1052 8294 8292 8059 8288 8296 8290 
1020 722 1053 723 8064 8292 8295 8066 6156 8297 
1053 722 756 723 8292 6381 8293 8297 6156 6382 
723 756 1054 757 6382 8298 8299 6388 6390 8300 
1020 1054 1021 723 8301 8302 8076 8066 8299 8071 
723 756 1053 1054 6382 8293 8297 8299 8298 8303 
1020 1054 723 1053 8301 8299 8066 8295 8303 8297 
1021 723 1054 724 8071 8299 8302 8073 6163 8304 
1054 723 757 724 8299 6388 8300 8304 6163 6389 
724 757 1055 758 6389 8305 8306 6395 6397 8307 
1021 1055 1022 724 8308 8309 8083 8073 8306 8078 
724 757 1054 1055 6389 8300 8304 8306 8305 8310 
1021 1055 724 1054 8308 8306 8073 8302 8310 8304 
1022 724 1055 725 8078 8306 8309 8080 6170 8311 
1055 724 758 725 8306 6395 8307 8311 6170 6396 
726 759 1057 760 6407 8312 8313 6402 6406 8314 
1023 1057 1024 726 8315 8316 8092 8090 8313 8085 
726 759 1056 1057 6407 8317 8318 8313 8312 8319 
1023 1057 726 1056 8315 8313 8090 8320 8319 8318 
1024 726 1057 727 8085 8313 8316 8087 6179 8321 
1057 726 760 727 8313 6402 8314 8321 6179 6403 
727 760 1058 761 6403 8322 8323 6412 6414 8324 
1024 1058 1025 727 8325 8326 8100 8087 8323 8095 
727 760 1057 1058 6403 8314 8321 8323 8322 8327 
1024 1058 727 1057 8325 8323 8087 8316 8327 8321 
1025 727 1058 728 8095 8323 8326 8097 6187 8328 
1058 727 761 728 8323 6412 8324 8328 6187 6413 
728 761 1059 762 6413 8329 8330 6419 6421 8331 
1025 1059 1026 728 8332 8333 8107 8097 8330 8102 
728 761 1058 1059 6413 8324 8328 8330 8329 8334 
1025 1059 728 1058 8332 8330 8097 8326 8334 8328 
1026 728 1059 729 8102 8330 8333 8104 6194 8335 
1059 728 762 729 8330 6419 8331 8335 6194 6420 
729 762 1060 763 6420 8336 8337 6426 6428 8338 
1026 1060 1027 729 8339 8340 8114 8104 8337 8109 
729 762 1059 1060 6420 8331 8335 8337 8336 8341 
1026 1060 729 1059 8339 8337 8104 8333 8341 8335 
1027 729 1060 730 8109 8337 8340 8111 6201 8342 
1060 729 763 730 8337 6426 8338 8342 6201 6427 
730 763 1061 764 6427 8343 8344 6433 6435 8345 
1027 1061 1028 730 8346 8347 8121 8111 8344 8116 
730 763 1060 1061 6427 8338 8342 8344 8343 8348 
1027 1061 730 1060 8346 8344 8111 8340 8348 8342 
1028 730 1061 731 8116 8344 8347 8118 6208 8349 
1061 730 764 731 8344 6433 8345 8349 6208 6434 
731 764 1062 765 6434 8350 8351 6440 6442 8352 
1028 1062 1029 731 8353 8354 8128 8118 8351 8123 
731 764 1061 1062 6434 8345 8349 8351 8350 8355 
1028 1062 731 1061 8353 8351 8118 8347 8355 8349 
1029 731 1062 732 8123 8351 8354 8125 6215 8356 
1062 731 765 732 8351 6440 8352 8356 6215 6441 
732 765 1063 766 6441 8357 8358 6447 6449 8359 
1029 1063 1030 732 8360 8361 8135 8125 8358 8130 
732 765 1062 1063 6441 8352 8356 8358 8357 8362 
1029 1063 732 1062 8360 8358 8125 8354 8362 8356 
1030 732 1063 733 8130 8358 8361 8132 6222 8363 
1063 732 766 733 8358 6447 8359 8363 6222 6448 
733 766 1064 767 6448 8364 8365 6454 6456 8366 
1030 1064 1031 733 8367 8368 8142 8132 8365 8137 
733 766 1063 1064 6448 8359 8363 8365 8364 8369 
1030 1064 733 1063 8367 8365 8132 8361 8369 8363 
1031 733 1064 734 8137 8365 8368 8139 6229 8370 
1064 733 767 734 8365 6454 8366 8370 6229 6455 
734 767 1065 768 6455 8371 8372 6461 6463 8373 
1031 1065 1032 734 8374 8375 8149 8139 8372 8144 
734 767 1064 1065 6455 8366 8370 8372 8371 8376 
1031 1065 734 1064 8374 8372 8139 8368 8376 8370 
1032 734 1065 735 8144 8372 8375 8146 6236 8377 
1065 734 768 735 8372 6461 8373 8377 6236 6462 
735 768 1066 769 6462 8378 8379 6468 6470 8380 
1032 1066 1033 735 8381 8382 8156 8146 8379 8151 
735 768 1065 1066 6462 8373 8377 8379 8378 8383 
1032 1066 735 1065 8381 8379 8146 8375 8383 8377 
1033 735 1066 736 8151 8379 8382 8153 6243 8384 
1066 735 769 736 8379 6468 8380 8384 6243 6469 
736 769 1067 770 6469 8385 8386 6475 6477 8387 
1033 1067 1034 736 8388 8389 8163 8153 8386 8158 
736 769 1066 1067 6469 8380 8384 8386 8385 8390 
1033 1067 736 1066 8388 8386 8153 8382 8390 8384 
1034 736 1067 737 8158 8386 8389 8160 6250 8391 
1067 736 770 737 8386 6475 8387 8391 6250 6476 
737 770 1068 771 6476 8392 8393 6482 6484 8394 
1034 1068 1035 737 8395 8396 8170 8160 8393 8165 
737 770 1067 1068 6476 8387 8391 8393 8392 8397 
1034 1068 737 1067 8395 8393 8160 8389 8397 8391 
1035 737 1068 738 8165 8393 8396 8167 6257 8398 
1068 737 771 738 8393 6482 8394 8398 6257 6483 
738 771 1069 772 6483 8399 8400 6489 6491 8401 
1035 1069 1036 738 8402 8403 8177 8167 8400 8172 
738 771 1068 1069 6483 8394 8398 8400 8399 8404 
1035 1069 738 1068 8402 8400 8167 8396 8404 8398 
1036 738 1069 739 8172 8400 8403 8174 6264 8405 
1069 738 772 739 8400 6489 8401 8405 6264 6490 
739 772 1070 773 6490 8406 8407 6496 6498 8408 
1036 1070 1037 739 8409 8410 8184 8174 8407 8179 
739 772 1069 1070 6490 8401 8405 8407 8406 8411 
1036 1070 739 1069 8409 8407 8174 8403 8411 8405 
1037 739 1070 740 8179 8407 8410 8181 6271 8412 
1070 739 773 740 8407 6496 8408 8412 6271 6497 
740 773 1071 774 6497 8413 8414 6503 6505 8415 
1037 1071 1038 740 8416 8417 8191 8181 8414 8186 
740 773 1070 1071 6497 8408 8412 8414 8413 8418 
1037 1071 740 1070 8416 8414 8181 8410 8418 8412 
1038 740 1071 741 8186 8414 8417 8188 6278 8419 
1071 740 774 741 8414 6503 8415 8419 6278 6504 
741 774 1072 775 6504 8420 8421 6510 6512 8422 
1038 1072 1039 741 8423 8424 8198 8188 8421 8193 
741 774 1071 1072 6504 8415 8419 8421 8420 8425 
1038 1072 741 1071 8423 8421 8188 8417 8425 8419 
1039 741 1072 742 8193 8421 8424 8195 6285 8426 
1072 741 775 742 8421 6510 8422 8426 6285 6511 
742 775 1073 776 6511 8427 8428 6517 6519 8429 
1039 1073 1040 742 8430 8431 8205 8195 8428 8200 
742 775 1072 1073 6511 8422 8426 8428 8427 8432 
1039 1073 742 1072 8430 8428 8195 8424 8432 8426 
1040 742 1073 743 8200 8428 8431 8202 6292 8433 
1073 742 776 743 8428 6517 8429 8433 6292 6518 
743 776 1074 777 6518 8434 8435 6524 6526 8436 
1040 1074 1041 743 8437 8438 8212 8202 8435 8207 
743 776 1073 1074 6518 8429 8433 8435 8434 8439 
1040 1074 743 1073 8437 8435 8202 8431 8439 8433 
1041 743 1074 744 8207 8435 8438 8209 6299 8440 
1074 743 777 744 8435 6524 8436 8440 6299 6525 
744 777 1075 778 6525 8441 8442 6531 6533 8443 
1041 1075 1042 744 8444 8445 8219 8209 8442 8214 
744 777 1074 1075 6525 8436 8440 8442 8441 8446 
1041 1075 744 1074 8444 8442 8209 8438 8446 8440 
1042 744 1075 745 8214 8442 8445 8216 6306 8447 
1075 744 778 745 8442 6531 8443 8447 6306 6532 
745 778 1076 779 6532 8448 8449 6538 6540 8450 
1042 1076 1043 745 8451 8452 8226 8216 8449 8221 
745 778 1075 1076 6532 8443 8447 8449 8448 8453 
1042 1076 745 1075 8451 8449 8216 8445 8453 8447 
1043 745 1076 746 8221 8449 8452 8223 6313 8454 
1076 745 779 746 8449 6538 8450 8454 6313 6539 
746 779 1077 780 6539 8455 8456 6545 6547 8457 
1043 1077 1044 746 8458 8459 8233 8223 8456 8228 
746 779 1076 1077 6539 8450 8454 8456 8455 8460 
1043 1077 746 1076 8458 8456 8223 8452 8460 8454 
1044 746 1077 747 8228 8456 8459 8230 6320 8461 
1077 746 780 747 8456 6545 8457 8461 6320 6546 
747 780 1078 781 6546 8462 8463 6552 6554 8464 
1044 1078 1045 747 8465 8466 8240 8230 8463 8235 
747 780 1077 1078 6546 8457 8461 8463 8462 8467 
1044 1078 747 1077 8465 8463 8230 8459 8467 8461 
1045 747 1078 748 8235 8463 8466 8237 6327 8468 
1078 747 781 748 8463 6552 8464 8468 6327 6553 
748 781 1079 782 6553 8469 8470 6559 6561 8471 
1045 1079 1046 748 8472 8473 8247 8237 8470 8242 
748 781 1078 1079 6553 8464 8468 8470 8469 8474 
1045 1079 748 1078 8472 8470 8237 8466 8474 8468 
1046 748 1079 749 8242 8470 8473 8244 6334 8475 
1079 748 782 749 8470 6559 8471 8475 6334 6560 
749 782 1080 783 6560 8476 8477 6566 6568 8478 
1046 1080 1047 749 8479 8480 8254 8244 8477 8249 
749 782 1079 1080 6560 8471 8475 8477 8476 8481 
1046 1080 749 1079 8479 8477 8244 8473 8481 8475 
1047 749 1080 750 8249 8477 8480 8251 6341 8482 
1080 749 783 750 8477 6566 8478 8482 6341 6567 
750 783 1081 784 6567 8483 8484 6573 6575 8485 
1047 1081 1048 750 8486 8487 8261 8251 8484 8256 
750 783 1080 1081 6567 8478 8482 8484 8483 8488 
1047 1081 750 1080 8486 8484 8251 8480 8488 8482 
1048 750 1081 751 8256 8484 8487 8258 6348 8489 
1081 750 784 751 8484 6573 8485 8489 6348 6574 
751 784 1082 785 6574 8490 8491 6580 6582 8492 
1048 1082 1049 751 8493 8494 8268 8258 8491 8263 
751 784 1081 1082 6574 8485 8489 8491 8490 8495 
1048 1082 751 1081 8493 8491 8258 8487 8495 8489 
1049 751 1082 752 8263 8491 8494 8265 6355 8496 
1082 751 785 752 8491 6580 8492 8496 6355 6581 
752 785 1083 786 6581 8497 8498 6587 6589 8499 
1049 1083 1050 752 8500 8501 8275 8265 8498 8270 
752 785 1082 1083 6581 8492 8496 8498 8497 8502 
1049 1083 752 1082 8500 8498 8265 8494 8502 8496 
1050 752 1083 753 8270 8498 8501 8272 6362 8503 
1083 752 786 753 8498 6587 8499 8503 6362 6588 
753 786 1084 787 6588 8504 8505 6594 6596 8506 
1050 1084 1051 753 8507 8508 8282 8272 8505 8277 
753 786 1083 1084 6588 8499 8503 8505 8504 8509 
1050 1084 753 1083 8507 8505 8272 8501 8509 8503 
1051 753 1084 754 8277 8505 8508 8279 6369 8510 
1084 753 787 754 8505 6594 8506 8510 6369 6595 
754 787 1085 788 6595 8511 8512 6601 6603 8513 
1051 1085 1052 754 8514 8515 8289 8279 8512 8284 
754 787 1084 1085 6595 8506 8510 8512 8511 8516 
1051 1085 754 1084 8514 8512 8279 8508 8516 8510 
1052 754 1085 755 8284 8512 8515 8286 6376 8517 
1085 754 788 755 8512 6601 8513 8517 6376 6602 
755 788 1086 789 6602 8518 8519 6608 6610 8520 
1052 1086 1053 755 8521 8522 8296 8286 8519 8291 
755 788 1085 1086 6602 8513 8517 8519 8518 8523 
1052 1086 755 1085 8521 8519 8286 8515 8523 8517 
1053 755 1086 756 8291 8519 8522 8293 6383 8524 
1086 755 789 756 8519 6608 8520 8524 6383 6609 
756 789 1087 790 6609 8525 8526 6615 6617 8527 
1053 1087 1054 756 8528 8529 8303 8293 8526 8298 
756 789 1086 1087 6609 8520 8524 8526 8525 8530 
1053 1087 756 1086 8528 8526 8293 8522 8530 8524 
1054 756 1087 757 8298 8526 8529 8300 6390 8531 
1087 756 790 757 8526 6615 8527 8531 6390 6616 
757 790 1088 791 6616 8532 8533 6622 6624 8534 
1054 1088 1055 757 8535 8536 8310 8300 8533 8305 
757 790 1087 1088 6616 8527 8531 8533 8532 8537 
1054 1088 757 1087 8535 8533 8300 8529 8537 8531 
1055 757 1088 758 8305 8533 8536 8307 6397 8538 
1088 757 791 758 8533 6622 8534 8538 6397 6623 
759 792 1090 793 6634 8539 8540 6629 6633 8541 
1056 1090 1057 759 8542 8543 8319 8317 8540 8312 
759 792 1089 1090 6634 8544 8545 8540 8539 8546 
1056 1090 759 1089 8542 8540 8317 8547 8546 8545 
1057 759 1090 760 8312 8540 8543 8314 6406 8548 
1090 759 793 760 8540 6629 8541 8548 6406 6630 
760 793 1091 794 6630 8549 8550 6639 6641 8551 
1057 1091 1058 760 8552 8553 8327 8314 8550 8322 
760 793 1090 1091 6630 8541 8548 8550 8549 8554 
1057 1091 760 1090 8552 8550 8314 8543 8554 8548 
1058 760 1091 761 8322 8550 8553 8324 6414 8555 
1091 760 794 761 8550 6639 8551 8555 6414 6640 
761 794 1092 795 6640 8556 8557 6646 6648 8558 
1058 1092 1059 761 8559 8560 8334 8324 8557 8329 
761 794 1091 1092 6640 8551 8555 8557 8556 8561 
1058 1092 761 1091 8559 8557 8324 8553 8561 8555 
1059 761 1092 762 8329 8557 8560 8331 6421 8562 
1092 761 795 762 8557 6646 8558 8562 6421 6647 
762 795 1093 796 6647 8563 8564 6653 6655 8565 
1059 1093 1060 762 8566 8567 8341 8331 8564 8336 
762 795 1092 1093 6647 8558 8562 8564 8563 8568 
1059 1093 762 1092 8566 8564 8331 8560 8568 8562 
1060 762 1093 763 8336 8564 8567 8338 6428 8569 
1093 762 796 763 8564 6653 8565 8569 6428 6654 
763 796 1094 797 6654 8570 8571 6660 6662 8572 
1060 1094 1061 763 8573 8574 8348 8338 8571 8343 
763 796 1093 1094 6654 8565 8569 8571 8570 8575 
1060 1094 763 1093 8573 8571 8338 8567 8575 8569 
1061 763 1094 764 8343 8571 8574 8345 6435 8576 
1094 763 797 764 8571 6660 8572 8576 6435 6661 
764 797 1095 798 6661 8577 8578 6667 6669 8579 
1061 1095 1062 764 8580 8581 8355 8345 8578 8350 
764 797 1094 1095 6661 8572 8576 8578 8577 8582 
1061 1095 764 1094 8580 8578 8345 8574 8582 8576 
1062 764 1095 765 8350 8578 8581 8352 6442 8583 
1095 764 798 765 8578 6667 8579 8583 6442 6668 
765 798 1096 799 6668 8584 8585 6674 6676 8586 
1062 1096 1063 765 8587 8588 8362 8352 8585 8357 
765 798 1095 1096 6668 8579 8583 8585 8584 8589 
1062 1096 765 1095 8587 8585 8352 8581 8589 8583 
1063 765 1096 766 8357 8585 8588 8359 6449 8590 
1096 765 799 766 8585 6674 8586 8590 6449 6675 
766 799 1097 800 6675 8591 8592 6681 6683 8593 
1063 1097 1064 766 8594 8595 8369 8359 8592 8364 
766 799 1096 1097 6675 8586 8590 8592 8591 8596 
1063 1097 766 1096 8594 8592 8359 8588 8596 8590 
1064 766 1097 767 8364 8592 8595 8366 6456 8597 
1097 766 800 767 8592 6681 8593 8597 6456 6682 
767 800 1098 801 6682 8598 8599 6688 6690 8600 
1064 1098 1065 767 8601 8602 8376 8366 8599 8371 
767 800 1097 1098 6682 8593 8597 8599 8598 8603 
1064 1098 767 1097 8601 8599 8366 8595 8603 8597 
1065 767 1098 768 8371 8599 8602 8373 6463 8604 
1098 767 801 768 8599 6688 8600 8604 6463 6689 
768 801 1099 802 6689 8605 8606 6695 6697 8607 
1065 1099 1066 768 8608 8609 8383 8373 8606 8378 
768 801 1098 1099 6689 8600 8604 8606 8605 8610 
1065 1099 768 1098 8608 8606 8373 8602 8610 8604 
1066 768 1099 769 8378 8606 8609 8380 6470 8611 
1099 768 802 769 8606 6695 8607 8611 6470 6696 
769 802 1100 803 6696 8612 8613 6702 6704 8614 
1066 1100 1067 769 8615 8616 8390 8380 8613 8385 
769 802 1099 1100 6696 8607 8611 8613 8612 8617 
1066 1100 769 1099 8615 8613 8380 8609 8617 8611 
1067 769 1100 770 8385 8613 8616 8387 6477 8618 
1100 769 803 770 8613 6702 8614 8618 6477 6703 
770 803 1101 804 6703 8619 8620 6709 6711 8621 
1067 1101 1068 770 8622 8623 8397 8387 8620 8392 
770 803 1100 1101 6703 8614 8618 8620 8619 8624 
1067 1101 770 1100 8622 8620 8387 8616 8624 8618 
1068 770 1101 771 8392 8620 8623 8394 6484 8625 
1101 770 804 771 8620 6709 8621 8625 6484 6710 
771 804 1102 805 6710 8626 8627 6716 6718 8628 
1068 1102 1069 771 8629 8630 8404 8394 8627 8399 
771 804 1101 1102 6710 8621 8625 8627 8626 8631 
1068 1102 771 1101 8629 8627 8394 8623 8631 8625 
1069 771 1102 772 8399 8627 8630 8401 6491 8632 
1102 771 805 772 8627 6716 8628 8632 6491 6717 
772 805 1103 806 6717 8633 8634 6723 6725 8635 
1069 1103 1070 772 8636 8637 8411 8401 8634 8406 
772 805 1102 1103 6717 8628 8632 8634 8633 8638 
1069 1103 772 1102 8636 8634 8401 8630 8638 8632 
1070 772 1103 773 8406 8634 8637 8408 6498 8639 
1103 772 806 773 8634 6723 8635 8639 6498 6724 
773 806 1104 807 6724 8640 8641 6730 6732 8642 
1070 1104 1071 773 8643 8644 8418 8408 8641 8413 
773 806 1103 1104 6724 8635 8639 8641 8640 8645 
1070 1104 773 1103 8643 8641 8408 8637 8645 8639 
1071 773 1104 774 8413 8641 8644 8415 6505 8646 
1104 773 807 774 8641 6730 8642 8646 6505 6731 
774 807 1105 808 6731 8647 8648 6737 6739 8649 
1071 1105 1072 774 8650 8651 8425 8415 8648 8420 
774 807 1104 1105 6731 8642 8646 8648 8647 8652 
1071 1105 774 1104 8650 8648 8415 8644 8652 8646 
1072 774 1105 775 8420 8648 8651 8422 6512 8653 
1105 774 808 775 8648 6737 8649 8653 6512 6738 
775 808 1106 809 6738 8654 8655 6744 6746 8656 
1072 1106 1073 775 8657 8658 8432 8422 8655 8427 
775 808 1105 1106 6738 8649 8653 8655 8654 8659 
1072 1106 775 1105 8657 8655 8422 8651 8659 8653 
1073 775 1106 776 8427 8655 8658 8429 6519 8660 
1106 775 809 776 8655 6744 8656 8660 6519 6745 
776 809 1107 810 6745 8661 8662 6751 6753 8663 
1073 1107 1074 776 8664 8665 8439 8429 8662 8434 
776 809 1106 1107 6745 8656 8660 8662 8661 8666 
1073 1107 776 1106 8664 8662 8429 8658 8666 8660 
1074 776 1107 777 8434 8662 8665 8436 6526 8667 
1107 776 810 777 8662 6751 8663 8667 6526 6752 
777 810 1108 811 6752 8668 8669 6758 6760 8670 
1074 1108 1075 777 8671 8672 8446 8436 8669 8441 
777 810 1107 1108 6752 8663 8667 8669 8668 8673 
1074 1108 777 1107 8671 8669 8436 8665 8673 8667 
1075 777 1108 778 8441 8669 8672 8443 6533 8674 
1108 777 811 778 8669 6758 8670 8674 6533 6759 
778 811 1109 812 6759 8675 8676 6765 6767 8677 
1075 1109 1076 778 8678 8679 8453 8443 8676 8448 
778 811 1108 1109 6759 8670 8674 8676 8675 8680 
1075 1109 778 1108 8678 8676 8443 8672 8680 8674 
1076 778 1109 779 8448 8676 8679 8450 6540 8681 
1109 778 812 779 8676 6765 8677 8681 6540 6766 
779 812 1110 813 6766 8682 8683 6772 6774 8684 
1076 1110 1077 779 8685 8686 8460 8450 8683 8455 
779 812 1109 1110 6766 8677 8681 8683 8682 8687 
1076 1110 779 1109 8685 8683 8450 8679 8687 8681 
1077 779 1110 780 8455 8683 8686 8457 6547 8688 
1110 779 813 780 8683 6772 8684 8688 6547 6773 
780 813 1111 814 6773 8689 8690 6779 6781 8691 
1077 1111 1078 780 8692 8693 8467 8457 8690 8462 
780 813 1110 1111 6773 8684 8688 8690 8689 8694 
1077 1111 780 1110 8692 8690 8457 8686 8694 8688 
1078 780 1111 781 8462 8690 8693 8464 6554 8695 
1111 780 814 781 8690 6779 8691 8695 6554 6780 
781 814 1112 815 6780 8696 8697 6786 6788 8698 
1078 1112 1079 781 8699 8700 8474 8464 8697 8469 
781 814 1111 1112 6780 8691 8695 8697 8696 8701 
1078 1112 781 1111 8699 8697 8464 8693 8701 8695 
1079 781 1112 782 8469 8697 8700 8471 6561 8702 
1112 781 815 782 8697 6786 8698 8702 6561 6787 
782 815 1113 816 6787 8703 8704 6793 6795 8705 
1079 1113 1080 782 8706 8707 8481 8471 8704 8476 
782 815 1112 1113 6787 8698 8702 8704 8703 8708 
1079 1113 782 1112 8706 8704 8471 8700 8708 8702 
1080 782 1113 783 8476 8704 8707 8478 6568 8709 
1113 782 816 783 8704 6793 8705 8709 6568 6794 
783 816 1114 817 6794 8710 8711 6800 6802 8712 
1080 1114 1081 783 8713 8714 8488 8478 8711 8483 
783 816 1113 1114 6794 8705 8709 8711 8710 8715 
1080 1114 783 1113 8713 8711 8478 8707 8715 8709 
1081 783 1114 784 8483 8711 8714 8485 6575 8716 
1114 783 817 784 8711 6800 8712 8716 6575 6801 
784 817 1115 818 6801 8717 8718 6807 6809 8719 
1081 1115 1082 784 8720 8721 8495 8485 8718 8490 
784 817 1114 1115 6801 8712 8716 8718 8717 8722 
1081 1115 784 1114 8720 8718 8485 8714 8722 8716 
1082 784 1115 785 8490 8718 8721 8492 6582 8723 
1115 784 818 785 8718 6807 8719 8723 6582 6808 
785 818 1116 819 6808 8724 8725 6814 6816 8726 
1082 1116 1083 785 8727 8728 8502 8492 8725 8497 
785 818 1115 1116 6808 8719 8723 8725 8724 8729 
1082 1116 785 1115 8727 8725 8492 8721 8729 8723 
1083 785 1116 786 8497 8725 8728 8499 6589 8730 
1116 785 819 786 8725 6814 8726 8730 6589 6815 
786 819 1117 820 6815 8731 8732 6821 6823 8733 
1083 1117 1084 786 8734 8735 8509 8499 8732 8504 
786 819 1116 1117 6815 8726 8730 8732 8731 8736 
1083 1117 786 1116 8734 8732 8499 8728 8736 8730 
1084 786 1117 787 8504 8732 8735 8506 6596 8737 
1117 786 820 787 8732 6821 8733 8737 6596 6822 
787 820 1118 821 6822 8738 8739 6828 6830 8740 
1084 1118 1085 787 8741 8742 8516 8506 8739 8511 
787 820 1117 1118 6822 8733 8737 8739 8738 8743 
1084 1118 787 1117 8741 8739 8506 8735 8743 8737 
1085 787 1118 788 8511 8739 8742 8513 6603 8744 
1118 787 821 788 8739 6828 8740 8744 6603 6829 
788 821 1119 822 6829 8745 8746 6835 6837 8747 
1085 1119 1086 788 8748 8749 8523 8513 8746 8518 
788 821 1118 1119 6829 8740 8744 8746 8745 8750 
1085 1119 788 1118 8748 8746 8513 8742 8750 8744 
1086 788 1119 789 8518 8746 8749 8520 6610 8751 
1119 788 822 789 8746 6835 8747 8751 6610 6836 
789 822 1120 823 6836 8752 8753 6842 6844 8754 
1086 1120 1087 789 8755 8756 8530 8520 8753 8525 
789 822 1119 1120 6836 8747 8751 8753 8752 8757 
1086 1120 789 1119 8755 8753 8520 8749 8757 8751 
1087 789 1120 790 8525 8753 8756 8527 6617 8758 
1120 789 823 790 8753 6842 8754 8758 6617 6843 
790 823 1121 824 6843 8759 8760 6849 6851 8761 
1087 1121 1088 790 8762 8763 8537 8527 8760 8532 
790 823 1120 1121 6843 8754 8758 8760 8759 8764 
1087 1121 790 1120 8762 8760 8527 8756 8764 8758 
1088 790 1121 791 8532 8760 8763 8534 6624 8765 
1121 790 824 791 8760 6849 8761 8765 6624 6850 
792 825 1123 826 6861 8766 8767 6856 6860 8768 
1089 1123 1090 792 8769 8770 8546 8544 8767 8539 
792 825 1122 1123 6861 8771 8772 8767 8766 8773 
1089 1123 792 1122 8769 8767 8544 8774 8773 8772 
1090 792 1123 793 8539 8767 8770 8541 6633 8775 
1123 792 826 793 8767 6856 8768 8775 6633 6857 
793 826 1124 827 6857 8776 8777 6866 6868 8778 
1090 1124 1091 793 8779 8780 8554 8541 8777 8549 
793 826 1123 1124 6857 8768 8775 8777 8776 8781 
1090 1124 793 1123 8779 8777 8541 8770 8781 8775 
1091 793 1124 794 8549 8777 8780 8551 6641 8782 
1124 793 827 794 8777 6866 8778 8782 6641 6867 
794 827 1125 828 6867 8783 8784 6873 6875 8785 
1091 1125 1092 794 8786 8787 8561 8551 8784 8556 
794 827 1124 1125 6867 8778 8782 8784 8783 8788 
1091 1125 794 1124 8786 8784 8551 8780 8788 8782 
1092 794 1125 795 8556 8784 8787 8558 6648 8789 
1125 794 828 795 8784 6873 8785 8789 6648 6874 
795 828 1126 829 6874 8790 8791 6880 6882 8792 
1092 1126 1093 795 8793 8794 8568 8558 8791 8563 
795 828 1125 1126 6874 8785 8789 8791 8790 8795 
1092 1126 795 1125 8793 8791 8558 8787 8795 8789 
1093 795 1126 796 8563 8791 8794 8565 6655 8796 
1126 795 829 796 8791 6880 8792 8796 6655 6881 
796 829 1127 830 6881 8797 8798 6887 6889 8799 
1093 1127 1094 796 8800 8801 8575 8565 8798 8570 
796 829 1126 1127 6881 8792 8796 8798 8797 8802 
1093 1127 796 1126 8800 8798 8565 8794 8802 8796 
1094 796 1127 797 8570 8798 8801 8572 6662 8803 
1127 796 830 797 8798 6887 8799 8803 6662 6888 
797 830 1128 831 6888 8804 8805 6894 6896 8806 
1094 1128 1095 797 8807 8808 8582 8572 8805 8577 
797 830 1127 1128 6888 8799 8803 8805 8804 8809 
1094 1128 797 1127 8807 8805 8572 8801 8809 8803 
1095 797 1128 798 8577 8805 8808 8579 6669 8810 
1128 797 831 798 8805 6894 8806 8810 6669 6895 
798 831 1129 832 6895 8811 8812 6901 6903 8813 
1095 1129 1096 798 8814 8815 8589 8579 8812 8584 
798 831 1128 1129 6895 8806 8810 8812 8811 8816 
1095 1129 798 1128 8814 8812 8579 8808 8816 8810 
1096 798 1129 799 8584 8812 8815 8586 6676 8817 
1129 798 832 799 8812 6901 8813 8817 6676 6902 
799 832 1130 833 6902 8818 8819 6908 6910 8820 
1096 1130 1097 799 8821 8822 8596 8586 8819 8591 
799 832 1129 1130 6902 8813 8817 8819 8818 8823 
1096 1130 799 1129 8821 8819 8586 8815 8823 8817 
1097 799 1130 800 8591 8819 8822 8593 6683 8824 
1130 799 833 800 8819 6908 8820 8824 6683 6909 
800 833 1131 834 6909 8825 8826 6915 6917 8827 
1097 1131 1098 800 8828 8829 8603 8593 8826 8598 
800 833 1130 1131 6909 8820 8824 8826 8825 8830 
1097 1131 800 1130 8828 8826 8593 8822 8830 8824 
1098 800 1131 801 8598 8826 8829 8600 6690 8831 
1131 800 834 801 8826 6915 8827 8831 6690 6916 
801 834 1132 835 6916 8832 8833 6922 6924 8834 
1098 1132 1099 801 8835 8836 8610 8600 8833 8605 
801 834 1131 1132 6916 8827 8831 8833 8832 8837 
1098 1132 801 1131 8835 8833 8600 8829 8837 8831 
1099 801 1132 802 8605 8833 8836 8607 6697 8838 
1132 801 835 802 8833 6922 8834 8838 6697 6923 
802 835 1133 836 6923 8839 8840 6929 6931 8841 
1099 1133 1100 802 8842 8843 8617 8607 8840 8612 
802 835 1132 1133 6923 8834 8838 8840 8839 8844 
1099 1133 802 1132 8842 8840 8607 8836 8844 8838 
1100 802 1133 803 8612 8840 8843 8614 6704 8845 
1133 802 836 803 8840 6929 8841 8845 6704 6930 
803 836 1134 837 6930 8846 8847 6936 6938 8848 
1100 1134 1101 803 8849 8850 8624 8614 8847 8619 
803 836 1133 1134 6930 8841 8845 8847 8846 8851 
1100 1134 803 1133 8849 8847 8614 8843 8851 8845 
1101 803 1134 804 8619 8847 8850 8621 6711 8852 
1134 803 837 804 8847 6936 8848 8852 6711 6937 
804 837 1135 838 6937 8853 8854 6943 6945 8855 
1101 1135 1102 804 8856 8857 8631 8621 8854 8626 
804 837 1134 1135 6937 8848 8852 8854 8853 8858 
1101 1135 804 1134 8856 8854 8621 8850 8858 8852 
1102 804 1135 805 8626 8854 8857 8628 6718 8859 
1135 804 838 805 8854 6943 8855 8859 6718 6944 
805 838 1136 839 6944 8860 8861 6950 6952 8862 
1102 1136 1103 805 8863 8864 8638 8628 8861 8633 
805 838 1135 1136 6944 8855 8859 8861 8860 8865 
1102 1136 805 1135 8863 8861 8628 8857 8865 8859 
1103 805 1136 806 8633 8861 8864 8635 6725 8866 
1136 805 839 806 8861 6950 8862 8866 6725 6951 
806 839 1137 840 6951 8867 8868 6957 6959 8869 
1103 1137 1104 806 8870 8871 8645 8635 8868 8640 
806 839 1136 1137 6951 8862 8866 8868 8867 8872 
1103 1137 806 1136 8870 8868 8635 8864 8872 8866 
1104 806 1137 807 8640 8868 8871 8642 6732 8873 
1137 806 840 807 8868 6957 8869 8873 6732 6958 
807 840 1138 841 6958 8874 8875 6964 6966 8876 
1104 1138 1105 807 8877 8878 8652 8642 8875 8647 
807 840 1137 1138 6958 8869 8873 8875 8874 8879 
1104 1138 807 1137 8877 8875 8642 8871 8879 8873 
1105 807 1138 808 8647 8875 8878 8649 6739 8880 
1138 807 841 808 8875 6964 8876 8880 6739 6965 
808 841 1139 842 6965 8881 8882 6971 6973 8883 
1105 1139 1106 808 8884 8885 8659 8649 8882 8654 
808 841 1138 1139 6965 8876 8880 8882 8881 8886 
1105 1139 808 1138 8884 8882 8649 8878 8886 8880 
1106 808 1139 809 8654 8882 8885 8656 6746 8887 
1139 808 842 809 8882 6971 8883 8887 6746 6972 
809 842 1140 843 6972 8888 8889 6978 6980 8890 
1106 1140 1107 809 8891 8892 8666 8656 8889 8661 
809 842 1139 1140 6972 8883 8887 8889 8888 8893 
1106 1140 809 1139 8891 8889 8656 8885 8893 8887 
1107 809 1140 810 8661 8889 8892 8663 6753 8894 
1140 809 843 810 8889 6978 8890 8894 6753 6979 
810 843 1141 844 6979 8895 8896 6985 6987 8897 
1107 1141 1108 810 8898 8899 8673 8663 8896 8668 
810 843 1140 1141 6979 8890 8894 8896 8895 8900 
1107 1141 810 1140 8898 8896 8663 8892 8900 8894 
1108 810 1141 811 8668 8896 8899 8670 6760 8901 
1141 810 844 811 8896 6985 8897 8901 6760 6986 
811 844 1142 845 6986 8902 8903 6992 6994 8904 
1108 1142 1109 811 8905 8906 8680 8670 8903 8675 
811 844 1141 1142 6986 8897 8901 8903 8902 8907 
1108 1142 811 1141 8905 8903 8670 8899 8907 8901 
1109 811 1142 812 8675 8903 8906 8677 6767 8908 
1142 811 845 812 8903 6992 8904 8908 6767 6993 
812 845 1143 846 6993 8909 8910 6999 7001 8911 
1109 1143 1110 812 8912 8913 8687 8677 8910 8682 
812 845 1142 1143 6993 8904 8908 8910 8909 8914 
1109 1143 812 1142 8912 8910 8677 8906 8914 8908 
1110 812 1143 813 8682 8910 8913 8684 6774 8915 
1143 812 846 813 8910 6999 8911 8915 6774 7000 
813 846 1144 847 7000 8916 8917 7006 7008 8918 
1110 1144 1111 813 8919 8920 8694 8684 8917 8689 
813 846 1143 1144 7000 8911 8915 8917 8916 8921 
1110 1144 813 1143 8919 8917 8684 8913 8921 8915 
1111 813 1144 814 8689 8917 8920 8691 6781 8922 
1144 813 847 814 8917 7006 8918 8922 6781 7007 
814 847 1145 848 7007 8923 8924 7013 7015 8925 
1111 1145 1112 814 8926 8927 8701 8691 8924 8696 
814 847 1144 1145 7007 8918 8922 8924 8923 8928 
1111 1145 814 1144 8926 8924 8691 8920 8928 8922 
1112 814 1145 815 8696 8924 8927 8698 6788 8929 
1145 814 848 815 8924 7013 8925 8929 6788 7014 
815 848 1146 849 7014 8930 8931 7020 7022 8932 
1112 1146 1113 815 8933 8934 8708 8698 8931 8703 
815 848 1145 1146 7014 8925 8929 8931 8930 8935 
1112 1146 815 1145 8933 8931 8698 8927 8935 8929 
1113 815 1146 816 8703 8931 8934 8705 6795 8936 
1146 815 849 816 8931 7020 8932 8936 6795 7021 
816 849 1147 850 7021 8937 8938 7027 7029 8939 
1113 1147 1114 816 8940 8941 8715 8705 8938 8710 
816 849 1146 1147 7021 8932 8936 8938 8937 8942 
1113 1147 816 1146 8940 8938 8705 8934 8942 8936 
1114 816 1147 817 8710 8938 8941 8712 6802 8943 
1147 816 850 817 8938 7027 8939 8943 6802 7028 
817 850 1148 851 7028 8944 8945 7034 7036 8946 
1114 1148 1115 817 8947 8948 8722 8712 8945 8717 
817 850 1147 1148 7028 8939 8943 8945 8944 8949 
1114 1148 817 1147 8947 8945 8712 8941 8949 8943 
1115 817 1148 818 8717 8945 8948 8719 6809 8950 
1148 817 851 818 8945 7034 8946 8950 6809 7035 
818 851 1149 852 7035 8951 8952 7041 7043 8953 
1115 1149 1116 818 8954 8955 8729 8719 8952 8724 
818 851 1148 1149 7035 8946 8950 8952 8951 8956 
1115 1149 818 1148 8954 8952 8719 8948 8956 8950 
1116 818 1149 819 8724 8952 8955 8726 6816 8957 
1149 818 852 819 8952 7041 8953 8957 6816 7042 
819 852 1150 853 7042 8958 8959 7048 7050 8960 
1116 1150 1117 819 8961 8962 8736 8726 8959 8731 
819 852 1149 1150 7042 8953 8957 8959 8958 8963 
1116 1150 819 1149 8961 8959 8726 8955 8963 8957 
1117 819 1150 820 8731 8959 8962 8733 6823 8964 
1150 819 853 820 8959 7048 8960 8964 6823 7049 
820 853 1151 854 7049 8965 8966 7055 7057 8967 
1117 1151 1118 820 8968 8969 8743 8733 8966 8738 
820 853 1150 1151 7049 8960 8964 8966 8965 8970 
1117 1151 820 1150 8968 8966 8733 8962 8970 8964 
1118 820 1151 821 8738 8966 8969 8740 6830 8971 
1151 820 854 821 8966 7055 8967 8971 6830 7056 
821 854 1152 855 7056 8972 8973 7062 7064 8974 
1118 1152 1119 821 8975 8976 8750 8740 8973 8745 
821 854 1151 1152 7056 8967 8971 8973 8972 8977 
1118 1152 821 1151 8975 8973 8740 8969 8977 8971 
1119 821 1152 822 8745 8973 8976 8747 6837 8978 
1152 821 855 822 8973 7062 8974 8978 6837 7063 
822 855 1153 856 7063 8979 8980 7069 7071 8981 
1119 1153 1120 822 8982 8983 8757 8747 8980 8752 
822 855 1152 1153 7063 8974 8978 8980 8979 8984 
1119 1153 822 1152 8982 8980 8747 8976 8984 8978 
1120 822 1153 823 8752 8980 8983 8754 6844 8985 
1153 822 856 823 8980 7069 8981 8985 6844 7070 
823 856 1154 857 7070 8986 8987 7076 7078 8988 
1120 1154 1121 823 8989 8990 8764 8754 8987 8759 
823 856 1153 1154 7070 8981 8985 8987 8986 8991 
1120 1154 823 1153 8989 8987 8754 8983 8991 8985 
1121 823 1154 824 8759 8987 8990 8761 6851 8992 
1154 823 857 824 8987 7076 8988 8992 6851 7077 
825 858 1156 859 7088 8993 8994 7083 7087 8995 
1122 1156 1123 825 8996 8997 8773 8771 8994 8766 
825 858 1155 1156 7088 8998 8999 8994 8993 9000 
1122 1156 825 1155 8996 8994 8771 9001 9000 8999 
1123 825 1156 826 8766 8994 8997 8768 6860 9002 
1156 825 859 826 8994 7083 8995 9002 6860 7084 
826 859 1157 860 7084 9003 9004 7093 7095 9005 
1123 1157 1124 826 9006 9007 8781 8768 9004 8776 
826 859 1156 1157 7084 8995 9002 9004 9003 9008 
1123 1157 826 1156 9006 9004 8768 8997 9008 9002 
1124 826 1157 827 8776 9004 9007 8778 6868 9009 
1157 826 860 827 9004 7093 9005 9009 6868 7094 
827 860 1158 861 7094 9010 9011 7100 7102 9012 
1124 1158 1125 827 9013 9014 8788 8778 9011 8783 
827 860 1157 1158 7094 9005 9009 9011 9010 9015 
1124 1158 827 1157 9013 9011 8778 9007 9015 9009 
1125 827 1158 828 8783 9011 9014 8785 6875 9016 
1158 827 861 828 9011 7100 9012 9016 6875 7101 
828 861 1159 862 7101 9017 9018 7107 7109 9019 
1125 1159 1126 828 9020 9021 8795 8785 9018 8790 
828 861 1158 1159 7101 9012 9016 9018 9017 9022 
1125 1159 828 1158 9020 9018 8785 9014 9022 9016 
1126 828 1159 829 8790 9018 9021 8792 6882 9023 
1159 828 862 829 9018 7107 9019 9023 6882 7108 
829 862 1160 863 7108 9024 9025 7114 7116 9026 
1126 1160 1127 829 9027 9028 8802 8792 9025 8797 
829 862 1159 1160 7108 9019 9023 9025 9024 9029 
1126 1160 829 1159 9027 9025 8792 9021 9029 9023 
1127 829 1160 830 8797 9025 9028 8799 6889 9030 
1160 829 863 830 9025 7114 9026 9030 6889 7115 
830 863 1161 864 7115 9031 9032 7121 7123 9033 
1127 1161 1128 830 9034 9035 8809 8799 9032 8804 
830 863 1160 1161 7115 9026 9030 9032 9031 9036 
1127 1161 830 1160 9034 9032 8799 9028 9036 9030 
1128 830 1161 831 8804 9032 9035 8806 6896 9037 
1161 830 864 831 9032 7121 9033 9037 6896 7122 
831 864 1162 865 7122 9038 9039 7128 7130 9040 
1128 1162 1129 831 9041 9042 8816 8806 9039 8811 
831 864 1161 1162 7122 9033 9037 9039 9038 9043 
1128 1162 831 1161 9041 9039 8806 9035 9043 9037 
1129 831 1162 832 8811 9039 9042 8813 6903 9044 
1162 831 865 832 9039 7128 9040 9044 6903 7129 
832 865 1163 866 7129 9045 9046 7135 7137 9047 
1129 1163 1130 832 9048 9049 8823 8813 9046 8818 
832 865 1162 1163 7129 9040 9044 9046 9045 9050 
1129 1163 832 1162 9048 9046 8813 9042 9050 9044 
1130 832 1163 833 8818 9046 9049 8820 6910 9051 
1163 832 866 833 9046 7135 9047 9051 6910 7136 
833 866 1164 867 7136 9052 9053 7142 7144 9054 
1130 1164 1131 833 9055 9056 8830 8820 9053 8825 
833 866 1163 1164 7136 9047 9051 9053 9052 9057 
1130 1164 833 1163 9055 9053 8820 9049 9057 9051 
1131 833 1164 834 8825 9053 9056 8827 6917 9058 
1164 833 867 834 9053 7142 9054 9058 6917 7143 
834 867 1165 868 7143 9059 9060 7149 7151 9061 
1131 1165 1132 834 9062 9063 8837 8827 9060 8832 
834 867 1164 1165 7143 9054 9058 9060 9059 9064 
1131 1165 834 1164 9062 9060 8827 9056 9064 9058 
1132 834 1165 835 8832 9060 9063 8834 6924 9065 
1165 834 868 835 9060 7149 9061 9065 6924 7150 
835 868 1166 869 7150 9066 9067 7156 7158 9068 
1132 1166 1133 835 9069 9070 8844 8834 9067 8839 
835 868 1165 1166 7150 9061 9065 9067 9066 9071 
1132 1166 835 1165 9069 9067 8834 9063 9071 9065 
1133 835 1166 836 8839 9067 9070 8841 6931 9072 
1166 835 869 836 9067 7156 9068 9072 6931 7157 
836 869 1167 870 7157 9073 9074 7163 7165 9075 
1133 1167 1134 836 9076 9077 8851 8841 9074 8846 
836 869 1166 1167 7157 9068 9072 9074 9073 9078 
1133 1167 836 1166 9076 9074 8841 9070 9078 9072 
1134 836 1167 837 8846 9074 9077 8848 6938 9079 
1167 836 870 837 9074 7163 9075 9079 6938 7164 
837 870 1168 871 7164 9080 9081 7170 7172 9082 
1134 1168 1135 837 9083 9084 8858 8848 9081 8853 
837 870 1167 1168 7164 9075 9079 9081 9080 9085 
1134 1168 837 1167 9083 9081 8848 9077 9085 9079 
1135 837 1168 838 8853 9081 9084 8855 6945 9086 
1168 837 871 838 9081 7170 9082 9086 6945 7171 
838 871 1169 872 7171 9087 9088 7177 7179 9089 
1135 1169 1136 838 9090 9091 8865 8855 9088 8860 
838 871 1168 1169 7171 9082 9086 9088 9087 9092 
1135 1169 838 1168 9090 9088 8855 9084 9092 9086 
1136 838 1169 839 8860 9088 9091 8862 6952 9093 
1169 838 872 839 9088 7177 9089 9093 6952 7178 
839 872 1170 873 7178 9094 9095 7184 7186 9096 
1136 1170 1137 839 9097 9098 8872 8862 9095 8867 
839 872 1169 1170 7178 9089 9093 9095 9094 9099 
1136 1170 839 1169 9097 9095 8862 9091 9099 9093 
1137 839 1170 840 8867 9095 9098 8869 6959 9100 
1170 839 873 840 9095 7184 9096 9100 6959 7185 
840 873 1171 874 7185 9101 9102 7191 7193 9103 
1137 1171 1138 840 9104 9105 8879 8869 9102 8874 
840 873 1170 1171 7185 9096 9100 9102 9101 9106 
1137 1171 840 1170 9104 9102 8869 9098 9106 9100 
1138 840 1171 841 8874 9102 9105 8876 6966 9107 
1171 840 874 841 9102 7191 9103 9107 6966 7192 
841 874 1172 875 7192 9108 9109 7198 7200 9110 
1138 1172 1139 841 9111 9112 8886 8876 9109 8881 
841 874 1171 1172 7192 9103 9107 9109 9108 9113 
1138 1172 841 1171 9111 9109 8876 9105 9113 9107 
1139 841 1172 842 8881 9109 9112 8883 6973 9114 
1172 841 875 842 9109 7198 9110 9114 6973 7199 
842 875 1173 876 7199 9115 9116 7205 7207 9117 
1139 1173 1140 842 9118 9119 8893 8883 9116 8888 
842 875 1172 1173 7199 9110 9114 9116 9115 9120 
1139 1173 842 1172 9118 9116 8883 9112 9120 9114 
1140 842 1173 843 8888 9116 9119 8890 6980 9121 
1173 842 876 843 9116 7205 9117 9121 6980 7206 
843 876 1174 877 7206 9122 9123 7212 7214 9124 
1140 1174 1141 843 9125 9126 8900 8890 9123 8895 
843 876 1173 1174 7206 9117 9121 9123 9122 9127 
1140 1174 843 1173 9125 9123 8890 9119 9127 9121 
1141 843 1174 844 8895 9123 9126 8897 6987 9128 
1174 843 877 844 9123 7212 9124 9128 6987 7213 
844 877 1175 878 7213 9129 9130 7219 7221 9131 
1141 1175 1142 844 9132 9133 8907 8897 9130 8902 
844 877 1174 1175 7213 9124 9128 9130 9129 9134 
1141 1175 844 1174 9132 9130 8897 9126 9134 9128 
1142 844 1175 845 8902 9130 9133 8904 6994 9135 
1175 844 878 845 9130 7219 9131 9135 6994 7220 
845 878 1176 879 7220 9136 9137 7226 7228 9138 
1142 1176 1143 845 9139 9140 8914 8904 9137 8909 
845 878 1175 1176 7220 9131 9135 9137 9136 9141 
1142 1176 845 1175 9139 9137 8904 9133 9141 9135 
1143 845 1176 846 8909 9137 9140 8911 7001 9142 
1176 845 879 846 9137 7226 9138 9142 7001 7227 
846 879 1177 880 7227 9143 9144 7233 7235 9145 
1143 1177 1144 846 9146 9147 8921 8911 9144 8916 
846 879 1176 1177 7227 9138 9142 9144 9143 9148 
1143 1177 846 1176 9146 9144 8911 9140 9148 9142 
1144 846 1177 847 8916 9144 9147 8918 7008 9149 
1177 846 880 847 9144 7233 9145 9149 7008 7234 
847 880 1178 881 7234 9150 9151 7240 7242 9152 
1144 1178 1145 847 9153 9154 8928 8918 9151 8923 
847 880 1177 1178 7234 9145 9149 9151 9150 9155 
1144 1178 847 1177 9153 9151 8918 9147 9155 9149 
1145 847 1178 848 8923 9151 9154 8925 7015 9156 
1178 847 881 848 9151 7240 9152 9156 7015 7241 
848 881 1179 882 7241 9157 9158 7247 7249 9159 
1145 1179 1146 848 9160 9161 8935 8925 9158 8930 
848 881 1178 1179 7241 9152 9156 9158 9157 9162 
1145 1179 848 1178 9160 9158 8925 9154 9162 9156 
1146 848 1179 849 8930 9158 9161 8932 7022 9163 
1179 848 882 849 9158 7247 9159 9163 7022 7248 
849 882 1180 883 7248 9164 9165 7254 7256 9166 
1146 1180 1147 849 9167 9168 8942 8932 9165 8937 
849 882 1179 1180 7248 9159 9163 9165 9164 9169 
1146 1180 849 1179 9167 9165 8932 9161 9169 9163 
1147 849 1180 850 8937 9165 9168 8939 7029 9170 
1180 849 883 850 9165 7254 9166 9170 7029 7255 
850 883 1181 884 7255 9171 9172 7261 7263 9173 
1147 1181 1148 850 9174 9175 8949 8939 9172 8944 
850 883 1180 1181 7255 9166 9170 9172 9171 9176 
1147 1181 850 1180 9174 9172 8939 9168 9176 9170 
1148 850 1181 851 8944 9172 9175 8946 7036 9177 
1181 850 884 851 9172 7261 9173 9177 7036 7262 
851 884 1182 885 7262 9178 9179 7268 7270 9180 
1148 1182 1149 851 9181 9182 8956 8946 9179 8951 
851 884 1181 1182 7262 9173 9177 9179 9178 9183 
1148 1182 851 1181 9181 9179 8946 9175 9183 9177 
1149 851 1182 852 8951 9179 9182 8953 7043 9184 
1182 851 885 852 9179 7268 9180 9184 7043 7269 
852 885 1183 886 7269 9185 9186 7275 7277 9187 
1149 1183 1150 852 9188 9189 8963 8953 9186 8958 
852 885 1182 1183 7269 9180 9184 9186 9185 9190 
1149 1183 852 1182 9188 9186 8953 9182 9190 9184 
1150 852 1183 853 8958 9186 9189 8960 7050 9191 
1183 852 886 853 9186 7275 9187 9191 7050 7276 
853 886 1184 887 7276 9192 9193 7282 7284 9194 
1150 1184 1151 853 9195 9196 8970 8960 9193 8965 
853 886 1183 1184 7276 9187 9191 9193 9192 9197 
1150 1184 853 1183 9195 9193 8960 9189 9197 9191 
1151 853 1184 854 8965 9193 9196 8967 7057 9198 
1184 853 887 854 9193 7282 9194 9198 7057 7283 
854 887 1185 888 7283 9199 9200 7289 7291 9201 
1151 1185 1152 854 9202 9203 8977 8967 9200 8972 
854 887 1184 1185 7283 9194 9198 9200 9199 9204 
1151 1185 854 1184 9202 9200 8967 9196 9204 9198 
1152 854 1185 855 8972 9200 9203 8974 7064 9205 
1185 854 888 855 9200 7289 9201 9205 7064 7290 
855 888 1186 889 7290 9206 9207 7296 7298 9208 
1152 1186 1153 855 9209 9210 8984 8974 9207 8979 
855 888 1185 1186 7290 9201 9205 9207 9206 9211 
1152 1186 855 1185 9209 9207 8974 9203 9211 9205 
1153 855 1186 856 8979 9207 9210 8981 7071 9212 
1186 855 889 856 9207 7296 9208 9212 7071 7297 
856 889 1187 890 7297 9213 9214 7303 7305 9215 
1153 1187 1154 856 9216 9217 8991 8981 9214 8986 
856 889 1186 1187 7297 9208 9212 9214 9213 9218 
1153 1187 856 1186 9216 9214 8981 9210 9218 9212 
1154 856 1187 857 8986 9214 9217 8988 7078 9219 
1187 856 890 857 9214 7303 9215 9219 7078 7304 
891 924 1222 925 7318 9220 9221 7310 7317 9222 
1188 1222 1189 891 9223 9224 9225 9226 9221 9227 
891 924 1221 1222 7318 9228 9229 9221 9220 9230 
1188 1222 891 1221 9223 9221 9226 9231 9230 9229 
1189 891 1222 892 9227 9221 9224 9232 7312 9233 
1222 891 925 892 9221 7310 9222 9233 7312 7311 
892 925 1223 926 7311 9234 9235 7324 7328 9236 
1189 1223 1190 892 9237 9238 9239 9232 9235 9240 
892 925 1222 1223 7311 9222 9233 9235 9234 9241 
1189 1223 892 1222 9237 9235 9232 9224 9241 9233 
1190 892 1223 893 9240 9235 9238 9242 7326 9243 
1223 892 926 893 9235 7324 9236 9243 7326 7325 
893 926 1224 927 7325 9244 9245 7334 7338 9246 
1190 1224 1191 893 9247 9248 9249 9242 9245 9250 
893 926 1223 1224 7325 9236 9243 9245 9244 9251 
1190 1224 893 1223 9247 9245 9242 9238 9251 9243 
1191 893 1224 894 9250 9245 9248 9252 7336 9253 
1224 893 927 894 9245 7334 9246 9253 7336 7335 
894 927 1225 928 7335 9254 9255 7344 7348 9256 
1191 1225 1192 894 9257 9258 9259 9252 9255 9260 
894 927 1224 1225 7335 9246 9253 9255 9254 9261 
1191 1225 894 1224 9257 9255 9252 9248 9261 9253 
1192 894 1225 895 9260 9255 9258 9262 7346 9263 
1225 894 928 895 9255 7344 9256 9263 7346 7345 
895 928 1226 929 7345 9264 9265 7354 7358 9266 
1192 1226 1193 895 9267 9268 9269 9262 9265 9270 
895 928 1225 1226 7345 9256 9263 9265 9264 9271 
1192 1226 895 1225 9267 9265 9262 9258 9271 9263 
1193 895 1226 896 9270 9265 9268 9272 7356 9273 
1226 895 929 896 9265 7354 9266 9273 7356 7355 
896 929 1227 930 7355 9274 9275 7364 7368 9276 
1193 1227 1194 896 9277 9278 9279 9272 9275 9280 
896 929 1226 1227 7355 9266 9273 9275 9274 9281 
1193 1227 896 1226 9277 9275 9272 9268 9281 9273 
1194 896 1227 897 9280 9275 9278 9282 7366 9283 
1227 896 930 897 9275 7364 9276 9283 7366 7365 
897 930 1228 931 7365 9284 9285 7374 7378 9286 
1194 1228 1195 897 9287 9288 9289 9282 9285 9290 
897 930 1227 1228 7365 9276 9283 9285 9284 9291 
1194 1228 897 1227 9287 9285 9282 9278 9291 9283 
1195 897 1228 898 9290 9285 9288 9292 7376 9293 
1228 897 931 898 9285 7374 9286 9293 7376 7375 
898 931 1229 932 7375 9294 9295 7384 7388 9296 
1195 1229 1196 898 9297 9298 9299 9292 9295 9300 
898 931 1228 1229 7375 9286 9293 9295 9294 9301 
1195 1229 898 1228 9297 9295 9292 9288 9301 9293 
1196 898 1229 899 9300 9295 9298 9302 7386 9303 
1229 898 932 899 9295 7384 9296 9303 7386 7385 
899 932 1230 933 7385 9304 9305 7394 7398 9306 
1196 1230 1197 899 9307 9308 9309 9302 9305 9310 
899 932 1229 1230 7385 9296 9303 9305 9304 9311 
1196 1230 899 1229 9307 9305 9302 9298 9311 9303 
1197 899 1230 900 9310 9305 9308 9312 7396 9313 
1230 899 933 900 9305 7394 9306 9313 7396 7395 
900 933 1231 934 7395 9314 9315 7404 7408 9316 
1197 1231 1198 900 9317 9318 9319 9312 9315 9320 
900 933 1230 1231 7395 9306 9313 9315 9314 9321 
1197 1231 900 1230 9317 9315 9312 9308 9321 9313 
1198 900 1231 901 9320 9315 9318 9322 7406 9323 
1231 900 934 901 9315 7404 9316 9323 7406 7405 
901 934 1232 935 7405 9324 9325 7414 7418 9326 
1198 1232 1199 901 9327 9328 9329 9322 9325 9330 
901 934 1231 1232 7405 9316 9323 9325 9324 9331 
1198 1232 901 1231 9327 9325 9322 9318 9331 9323 
1199 901 1232 902 9330 9325 9328 9332 7416 9333 
1232 901 935 902 9325 7414 9326 9333 7416 7415 
902 935 1233 936 7415 9334 9335 7424 7428 9336 
1199 1233 1200 902 9337 9338 9339 9332 9335 9340 
902 935 1232 1233 7415 9326 9333 9335 9334 9341 
1199 1233 902 1232 9337 9335 9332 9328 9341 9333 
1200 902 1233 903 9340 9335 9338 9342 7426 9343 
1233 902 936 903 9335 7424 9336 9343 7426 7425 
903 936 1234 937 7425 9344 9345 7434 7438 9346 
1200 1234 1201 903 9347 9348 9349 9342 9345 9350 
903 936 1233 1234 7425 9336 9343 9345 9344 9351 
1200 1234 903 1233 9347 9345 9342 9338 9351 9343 
1201 903 1234 904 9350 9345 9348 9352 7436 9353 
1234 903 937 904 9345 7434 9346 9353 7436 7435 
904 937 1235 938 7435 9354 9355 7444 7448 9356 
1201 1235 1202 904 9357 9358 9359 9352 9355 9360 
904 937 1234 1235 7435 9346 9353 9355 9354 9361 
1201 1235 904 1234 9357 9355 9352 9348 9361 9353 
1202 904 1235 905 9360 9355 9358 9362 7446 9363 
1235 904 938 905 9355 7444 9356 9363 7446 7445 
905 938 1236 939 7445 9364 9365 7454 7458 9366 
1202 1236 1203 905 9367 9368 9369 9362 9365 9370 
905 938 1235 1236 7445 9356 9363 9365 9364 9371 
1202 1236 905 1235 9367 9365 9362 9358 9371 9363 
1203 905 1236 906 9370 9365 9368 9372 7456 9373 
1236 905 939 906 9365 7454 9366 9373 7456 7455 
906 939 1237 940 7455 9374 9375 7464 7468 9376 
1203 1237 1204 906 9377 9378 9379 9372 9375 9380 
906 939 1236 1237 7455 9366 9373 9375 9374 9381 
1203 1237 906 1236 9377 9375 9372 9368 9381 9373 
1204 906 1237 907 9380 9375 9378 9382 7466 9383 
1237 906 940 907 9375 7464 9376 9383 7466 7465 
907 940 1238 941 7465 9384 9385 7474 7478 9386 
1204 1238 1205 907 9387 9388 9389 9382 9385 9390 
907 940 1237 1238 7465 9376 9383 9385 9384 9391 
1204 1238 907 1237 9387 9385 9382 9378 9391 9383 
1205 907 1238 908 9390 9385 9388 9392 7476 9393 
1238 907 941 908 9385 7474 9386 9393 7476 7475 
908 941 1239 942 7475 9394 9395 7484 7488 9396 
1205 1239 1206 908 9397 9398 9399 9392 9395 9400 
908 941 1238 1239 7475 9386 9393 9395 9394 9401 
1205 1239 908 1238 9397 9395 9392 9388 9401 9393 
1206 908 1239 909 9400 9395 9398 9402 7486 9403 
1239 908 942 909 9395 7484 9396 9403 7486 7485 
909 942 1240 943 7485 9404 9405 7494 7498 9406 
1206 1240 1207 909 9407 9408 9409 9402 9405 9410 
909 942 1239 1240 7485 9396 9403 9405 9404 9411 
1206 1240 909 1239 9407 9405 9402 9398 9411 9403 
1207 909 1240 910 9410 9405 9408 9412 7496 9413 
1240 909 943 910 9405 7494 9406 9413 7496 7495 
910 943 1241 944 7495 9414 9415 7504 7508 9416 
1207 1241 1208 910 9417 9418 9419 9412 9415 9420 
910 943 1240 1241 7495 9406 9413 9415 9414 9421 
1207 1241 910 1240 9417 9415 9412 9408 9421 9413 
1208 910 1241 911 9420 9415 9418 9422 7506 9423 
1241 910 944 911 9415 7504 9416 9423 7506 7505 
911 944 1242 945 7505 9424 9425 7514 7518 9426 
1208 1242 1209 911 9427 9428 9429 9422 9425 9430 
911 944 1241 1242 7505 9416 9423 9425 9424 9431 
1208 1242 911 1241 9427 9425 9422 9418 9431 9423 
1209 911 1242 912 9430 9425 9428 9432 7516 9433 
1242 911 945 912 9425 7514 9426 9433 7516 7515 
912 945 1243 946 7515 9434 9435 7524 7528 9436 
1209 1243 1210 912 9437 9438 9439 9432 9435 9440 
912 945 1242 1243 7515 9426 9433 9435 9434 9441 
1209 1243 912 1242 9437 9435 9432 9428 9441 9433 
1210 912 1243 913 9440 9435 9438 9442 7526 9443 
1243 912 946 913 9435 7524 9436 9443 7526 7525 
913 946 1244 947 7525 9444 9445 7534 7538 9446 
1210 1244 1211 913 9447 9448 9449 9442 9445 9450 
913 946 1243 1244 7525 9436 9443 9445 9444 9451 
1210 1244 913 1243 9447 9445 9442 9438 9451 9443 
1211 913 1244 914 9450 9445 9448 9452 7536 9453 
1244 913 947 914 9445 7534 9446 9453 7536 7535 
914 947 1245 948 7535 9454 9455 7544 7548 9456 
1211 1245 1212 914 9457 9458 9459 9452 9455 9460 
914 947 1244 1245 7535 9446 9453 9455 9454 9461 
1211 1245 914 1244 9457 9455 9452 9448 9461 9453 
1212 914 1245 915 9460 9455 9458 9462 7546 9463 
1245 914 948 915 9455 7544 9456 9463 7546 7545 
915 948 1246 949 7545 9464 9465 7554 7558 9466 
1212 1246 1213 915 9467 9468 9469 9462 9465 9470 
915 948 1245 1246 7545 9456 9463 9465 9464 9471 
1212 1246 915 1245 9467 9465 9462 9458 9471 9463 
1213 915 1246 916 9470 9465 9468 9472 7556 9473 
1246 915 949 916 9465 7554 9466 9473 7556 7555 
916 949 1247 950 7555 9474 9475 7564 7568 9476 
1213 1247 1214 916 9477 9478 9479 9472 9475 9480 
916 949 1246 1247 7555 9466 9473 9475 9474 9481 
1213 1247 916 1246 9477 9475 9472 9468 9481 9473 
1214 916 1247 917 9480 9475 9478 9482 7566 9483 
1247 916 950 917 9475 7564 9476 9483 7566 7565 
917 950 1248 951 7565 9484 9485 7574 7578 9486 
1214 1248 1215 917 9487 9488 9489 9482 9485 9490 
917 950 1247 1248 7565 9476 9483 9485 9484 9491 
1214 1248 917 1247 9487 9485 9482 9478 9491 9483 
1215 917 1248 918 9490 9485 9488 9492 7576 9493 
1248 917 951 918 9485 7574 9486 9493 7576 7575 
918 951 1249 952 7575 9494 9495 7584 7588 9496 
1215 1249 1216 918 9497 9498 9499 9492 9495 9500 
918 951 1248 1249 7575 9486 9493 9495 9494 9501 
1215 1249 918 1248 9497 9495 9492 9488 9501 9493 
1216 918 1249 919 9500 9495 9498 9502 7586 9503 
1249 918 952 919 9495 7584 9496 9503 7586 7585 
919 952 1250 953 7585 9504 9505 7594 7598 9506 
1216 1250 1217 919 9507 9508 9509 9502 9505 9510 
919 952 1249 1250 7585 9496 9503 9505 9504 9511 
1216 1250 919 1249 9507 9505 9502 9498 9511 9503 
1217 919 1250 920 9510 9505 9508 9512 7596 9513 
1250 919 953 920 9505 7594 9506 9513 7596 7595 
920 953 1251 954 7595 9514 9515 7604 7608 9516 
1217 1251 1218 920 9517 9518 9519 9512 9515 9520 
920 953 1250 1251 7595 9506 9513 9515 9514 9521 
1217 1251 920 1250 9517 9515 9512 9508 9521 9513 
1218 920 1251 921 9520 9515 9518 9522 7606 9523 
1251 920 954 921 9515 7604 9516 9523 7606 7605 
921 954 1252 955 7605 9524 9525 7614 7618 9526 
1218 1252 1219 921 9527 9528 9529 9522 9525 9530 
921 954 1251 1252 7605 9516 9523 9525 9524 9531 
1218 1252 921 1251 9527 9525 9522 9518 9531 9523 
1219 921 1252 922 9530 9525 9528 9532 7616 9533 
1252 921 955 922 9525 7614 9526 9533 7616 7615 
922 955 1253 956 7615 9534 9535 7624 7628 9536 
1219 1253 1220 922 9537 9538 9539 9532 9535 9540 
922 955 1252 1253 7615 9526 9533 9535 9534 9541 
1219 1253 922 1252 9537 9535 9532 9528 9541 9533 
1220 922 1253 923 9540 9535 9538 9542 7626 9543 
1253 922 956 923 9535 7624 9536 9543 7626 7625 
924 957 1255 958 7639 9544 9545 7634 7638 9546 
1221 1255 1222 924 9547 9548 9230 9228 9545 9220 
924 957 1254 1255 7639 9549 9550 9545 9544 9551 
1221 1255 924 1254 9547 9545 9228 9552 9551 9550 
1222 924 1255 925 9220 9545 9548 9222 7317 9553 
1255 924 958 925 9545 7634 9546 9553 7317 7635 
925 958 1256 959 7635 9554 9555 7644 7646 9556 
1222 1256 1223 925 9557 9558 9241 9222 9555 9234 
925 958 1255 1256 7635 9546 9553 9555 9554 9559 
1222 1256 925 1255 9557 9555 9222 9548 9559 9553 
1223 925 1256 926 9234 9555 9558 9236 7328 9560 
1256 925 959 926 9555 7644 9556 9560 7328 7645 
926 959 1257 960 7645 9561 9562 7651 7653 9563 
1223 1257 1224 926 9564 9565 9251 9236 9562 9244 
926 959 1256 1257 7645 9556 9560 9562 9561 9566 
1223 1257 926 1256 9564 9562 9236 9558 9566 9560 
1224 926 1257 927 9244 9562 9565 9246 7338 9567 
1257 926 960 927 9562 7651 9563 9567 7338 7652 
927 960 1258 961 7652 9568 9569 7658 7660 9570 
1224 1258 1225 927 9571 9572 9261 9246 9569 9254 
927 960 1257 1258 7652 9563 9567 9569 9568 9573 
1224 1258 927 1257 9571 9569 9246 9565 9573 9567 
1225 927 1258 928 9254 9569 9572 9256 7348 9574 
1258 927 961 928 9569 7658 9570 9574 7348 7659 
928 961 1259 962 7659 9575 9576 7665 7667 9577 
1225 1259 1226 928 9578 9579 9271 9256 9576 9264 
928 961 1258 1259 7659 9570 9574 9576 9575 9580 
1225 1259 928 1258 9578 9576 9256 9572 9580 9574 
1226 928 1259 929 9264 9576 9579 9266 7358 9581 
1259 928 962 929 9576 7665 9577 9581 7358 7666 
929 962 1260 963 7666 9582 9583 7672 7674 9584 
1226 1260 1227 929 9585 9586 9281 9266 9583 9274 
929 962 1259 1260 7666 9577 9581 9583 9582 9587 
1226 1260 929 1259 9585 9583 9266 9579 9587 9581 
1227 929 1260 930 9274 9583 9586 9276 7368 9588 
1260 929 963 930 9583 7672 9584 9588 7368 7673 
930 963 1261 964 7673 9589 9590 7679 7681 9591 
1227 1261 1228 930 9592 9593 9291 9276 9590 9284 
930 963 1260 1261 7673 9584 9588 9590 9589 9594 
1227 1261 930 1260 9592 9590 9276 9586 9594 9588 
1228 930 1261 931 9284 9590 9593 9286 7378 9595 
1261 930 964 931 9590 7679 9591 9595 7378 7680 
931 964 1262 965 7680 9596 9597 7686 7688 9598 
1228 1262 1229 931 9599 9600 9301 9286 9597 9294 
931 964 1261 1262 7680 9591 9595 9597 9596 9601 
1228 1262 931 1261 9599 9597 9286 9593 9601 9595 
1229 931 1262 932 9294 9597 9600 9296 7388 9602 
1262 931 965 932 9597 7686 9598 9602 7388 7687 
932 965 1263 966 7687 9603 9604 7693 7695 9605 
1229 1263 1230 932 9606 9607 9311 9296 9604 9304 
932 965 1262 1263 7687 9598 9602 9604 9603 9608 
1229 1263 932 1262 9606 9604 9296 9600 9608 9602 
1230 932 1263 933 9304 9604 9607 9306 7398 9609 
1263 932 966 933 9604 7693 9605 9609 7398 7694 
933 966 1264 967 7694 9610 9611 7700 7702 9612 
1230 1264 1231 933 9613 9614 9321 9306 9611 9314 
933 966 1263 1264 7694 9605 9609 9611 9610 9615 
1230 1264 933 1263 9613 9611 9306 9607 9615 9609 
1231 933 1264 934 9314 9611 9614 9316 7408 9616 
1264 933 967 934 9611 7700 9612 9616 7408 7701 
934 967 1265 968 7701 9617 9618 7707 7709 9619 
1231 1265 1232 934 9620 9621 9331 9316 9618 9324 
934 967 1264 1265 7701 9612 9616 9618 9617 9622 
1231 1265 934 1264 9620 9618 9316 9614 9622 9616 
1232 934 1265 935 9324 9618 9621 9326 7418 9623 
1265 934 968 935 9618 7707 9619 9623 7418 7708 
935 968 1266 969 7708 9624 9625 7714 7716 9626 
1232 1266 1233 935 9627 9628 9341 9326 9625 9334 
935 968 1265 1266 7708 9619 9623 9625 9624 9629 
1232 1266 935 1265 9627 9625 9326 9621 9629 9623 
1233 935 1266 936 9334 9625 9628 9336 7428 9630 
1266 935 969 936 9625 7714 9626 9630 7428 7715 
936 969 1267 970 7715 9631 9632 7721 7723 9633 
1233 1267 1234 936 9634 9635 9351 9336 9632 9344 
936 969 1266 1267 7715 9626 9630 9632 9631 9636 
1233 1267 936 1266 9634 9632 9336 9628 9636 9630 
1234 936 1267 937 9344 9632 9635 9346 7438 9637 
1267 936 970 937 9632 7721 9633 9637 7438 7722 
937 970 1268 971 7722 9638 9639 7728 7730 9640 
1234 1268 1235 937 9641 9642 9361 9346 9639 9354 
937 970 1267 1268 7722 9633 9637 9639 9638 9643 
1234 1268 937 1267 9641 9639 9346 9635 9643 9637 
1235 937 1268 938 9354 9639 9642 9356 7448 9644 
1268 937 971 938 9639 7728 9640 9644 7448 7729 
938 971 1269 972 7729 9645 9646 7735 7737 9647 
1235 1269 1236 938 9648 9649 9371 9356 9646 9364 
938 971 1268 1269 7729 9640 9644 9646 9645 9650 
1235 1269 938 1268 9648 9646 9356 9642 9650 9644 
1236 938 1269 939 9364 9646 9649 9366 7458 9651 
1269 938 972 939 9646 7735 9647 9651 7458 7736 
939 972 1270 973 7736 9652 9653 7742 7744 9654 
1236 1270 1237 939 9655 9656 9381 9366 9653 9374 
939 972 1269 1270 7736 9647 9651 9653 9652 9657 
1236 1270 939 1269 9655 9653 9366 9649 9657 9651 
1237 939 1270 940 9374 9653 9656 9376 7468 9658 
1270 939 973 940 9653 7742 9654 9658 7468 7743 
940 973 1271 974 7743 9659 9660 7749 7751 9661 
1237 1271 1238 940 9662 9663 9391 9376 9660 9384 
940 973 1270 1271 7743 9654 9658 9660 9659 9664 
1237 1271 940 1270 9662 9660 9376 9656 9664 9658 
1238 940 1271 941 9384 9660 9663 9386 7478 9665 
1271 940 974 941 9660 7749 9661 9665 7478 7750 
941 974 1272 975 7750 9666 9667 7756 7758 9668 
1238 1272 1239 941 9669 9670 9401 9386 9667 9394 
941 974 1271 1272 7750 9661 9665 9667 9666 9671 
1238 1272 941 1271 9669 9667 9386 9663 9671 9665 
1239 941 1272 942 9394 9667 9670 9396 7488 9672 
1272 941 975 942 9667 7756 9668 9672 7488 7757 
942 975 1273 976 7757 9673 9674 7763 7765 9675 
1239 1273 1240 942 9676 9677 9411 9396 9674 9404 
942 975 1272 1273 7757 9668 9672 9674 9673 9678 
1239 1273 942 1272 9676 9674 9396 9670 9678 9672 
1240 942 1273 943 9404 9674 9677 9406 7498 9679 
1273 942 976 943 9674 7763 9675 9679 7498 7764 
943 976 1274 977 7764 9680 9681 7770 7772 9682 
1240 1274 1241 943 9683 9684 9421 9406 9681 9414 
943 976 1273 1274 7764 9675 9679 9681 9680 9685 
1240 1274 943 1273 9683 9681 9406 9677 9685 9679 
1241 943 1274 944 9414 9681 9684 9416 7508 9686 
1274 943 977 944 9681 7770 9682 9686 7508 7771 
944 977 1275 978 7771 9687 9688 7777 7779 9689 
1241 1275 1242 944 9690 9691 9431 9416 9688 9424 
944 977 1274 1275 7771 9682 9686 9688 9687 9692 
1241 1275 944 1274 9690 9688 9416 9684 9692 9686 
1242 944 1275 945 9424 9688 9691 9426 7518 9693 
1275 944 978 945 9688 7777 9689 9693 7518 7778 
945 978 1276 979 7778 9694 9695 7784 7786 9696 
1242 1276 1243 945 9697 9698 9441 9426 9695 9434 
945 978 1275 1276 7778 9689 9693 9695 9694 9699 
1242 1276 945 1275 9697 9695 9426 9691 9699 9693 
1243 945 1276 946 9434 9695 9698 9436 7528 9700 
1276 945 979 946 9695 7784 9696 9700 7528 7785 
946 979 1277 980 7785 9701 9702 7791 7793 9703 
1243 1277 1244 946 9704 9705 9451 9436 9702 9444 
946 979 1276 1277 7785 9696 9700 9702 9701 9706 
1243 1277 946 1276 9704 9702 9436 9698 9706 9700 
1244 946 1277 947 9444 9702 9705 9446 7538 9707 
1277 946 980 947 9702 7791 9703 9707 7538 7792 
947 980 1278 981 7792 9708 9709 7798 7800 9710 
1244 1278 1245 947 9711 9712 9461 9446 9709 9454 
947 980 1277 1278 7792 9703 9707 9709 9708 9713 
1244 1278 947 1277 9711 9709 9446 9705 9713 9707 
1245 947 1278 948 9454 9709 9712 9456 7548 9714 
1278 947 981 948 9709 7798 9710 9714 7548 7799 
948 981 1279 982 7799 9715 9716 7805 7807 9717 
1245 1279 1246 948 9718 9719 9471 9456 9716 9464 
948 981 1278 1279 7799 9710 9714 9716 9715 9720 
1245 1279 948 1278 9718 9716 9456 9712 9720 9714 
1246 948 1279 949 9464 9716 9719 9466 7558 9721 
1279 948 982 949 9716 7805 9717 9721 7558 7806 
949 982 1280 983 7806 9722 9723 7812 7814 9724 
1246 1280 1247 949 9725 9726 9481 9466 9723 9474 
949 982 1279 1280 7806 9717 9721 9723 9722 9727 
1246 1280 949 1279 9725 9723 9466 9719 9727 9721 
1247 949 1280 950 9474 9723 9726 9476 7568 9728 
1280 949 983 950 9723 7812 9724 9728 7568 7813 
950 983 1281 984 7813 9729 9730 7819 7821 9731 
1247 1281 1248 950 9732 9733 9491 9476 9730 9484 
950 983 1280 1281 7813 9724 9728 9730 9729 9734 
1247 1281 950 1280 9732 9730 9476 9726 9734 9728 
1248 950 1281 951 9484 9730 9733 9486 7578 9735 
1281 950 984 951 9730 7819 9731 9735 7578 7820 
951 984 1282 985 7820 9736 9737 7826 7828 9738 
1248 1282 1249 951 9739 9740 9501 9486 9737 9494 
951 984 1281 1282 7820 9731 9735 9737 9736 9741 
1248 1282 951 1281 9739 9737 9486 9733 9741 9735 
1249 951 1282 952 9494 9737 9740 9496 7588 9742 
1282 951 985 952 9737 7826 9738 9742 7588 7827 
952 985 1283 986 7827 9743 9744 7833 7835 9745 
1249 1283 1250 952 9746 9747 9511 9496 9744 9504 
952 985 1282 1283 7827 9738 9742 9744 9743 9748 
1249 1283 952 1282 9746 9744 9496 9740 9748 9742 
1250 952 1283 953 9504 9744 9747 9506 7598 9749 
1283 952 986 953 9744 7833 9745 9749 7598 7834 
953 986 1284 987 7834 9750 9751 7840 7842 9752 
1250 1284 1251 953 9753 9754 9521 9506 9751 9514 
953 986 1283 1284 7834 9745 9749 9751 9750 9755 
1250 1284 953 1283 9753 9751 9506 9747 9755 9749 
1251 953 1284 954 9514 9751 9754 9516 7608 9756 
1284 953 987 954 9751 7840 9752 9756 7608 7841 
954 987 1285 988 7841 9757 9758 7847 7849 9759 
1251 1285 1252 954 9760 9761 9531 9516 9758 9524 
954 987 1284 1285 7841 9752 9756 9758 9757 9762 
1251 1285 954 1284 9760 9758 9516 9754 9762 9756 
1252 954 1285 955 9524 9758 9761 9526 7618 9763 
1285 954 988 955 9758 7847 9759 9763 7618 7848 
955 988 1286 989 7848 9764 9765 7854 7856 9766 
1252 1286 1253 955 9767 9768 9541 9526 9765 9534 
955 988 1285 1286 7848 9759 9763 9765 9764 9769 
1252 1286 955 1285 9767 9765 9526 9761 9769 9763 
1253 955 1286 956 9534 9765 9768 9536 7628 9770 
1286 955 989 956 9765 7854 9766 9770 7628 7855 
957 990 1288 991 7866 9771 9772 7861 7865 9773 
1254 1288 1255 957 9774 9775 9551 9549 9772 9544 
957 990 1287 1288 7866 9776 9777 9772 9771 9778 
1254 1288 957 1287 9774 9772 9549 9779 9778 9777 
1255 957 1288 958 9544 9772 9775 9546 7638 9780 
1288 957 991 958 9772 7861 9773 9780 7638 7862 
958 991 1289 992 7862 9781 9782 7871 7873 9783 
1255 1289 1256 958 9784 9785 9559 9546 9782 9554 
958 991 1288 1289 7862 9773 9780 9782 9781 9786 
1255 1289 958 1288 9784 9782 9546 9775 9786 9780 
1256 958 1289 959 9554 9782 9785 9556 7646 9787 
1289 958 992 959 9782 7871 9783 9787 7646 7872 
959 992 1290 993 7872 9788 9789 7878 7880 9790 
1256 1290 1257 959 9791 9792 9566 9556 9789 9561 
959 992 1289 1290 7872 9783 9787 9789 9788 9793 
1256 1290 959 1289 9791 9789 9556 9785 9793 9787 
1257 959 1290 960 9561 9789 9792 9563 7653 9794 
1290 959 993 960 9789 7878 9790 9794 7653 7879 
960 993 1291 994 7879 9795 9796 7885 7887 9797 
1257 1291 1258 960 9798 9799 9573 9563 9796 9568 
960 993 1290 1291 7879 9790 9794 9796 9795 9800 
1257 1291 960 1290 9798 9796 9563 9792 9800 9794 
1258 960 1291 961 9568 9796 9799 9570 7660 9801 
1291 960 994 961 9796 7885 9797 9801 7660 7886 
961 994 1292 995 7886 9802 9803 7892 7894 9804 
1258 1292 1259 961 9805 9806 9580 9570 9803 9575 
961 994 1291 1292 7886 9797 9801 9803 9802 9807 
1258 1292 961 1291 9805 9803 9570 9799 9807 9801 
1259 961 1292 962 9575 9803 9806 9577 7667 9808 
1292 961 995 962 9803 7892 9804 9808 7667 7893 
962 995 1293 996 7893 9809 9810 7899 7901 9811 
1259 1293 1260 962 9812 9813 9587 9577 9810 9582 
962 995 1292 1293 7893 9804 9808 9810 9809 9814 
1259 1293 962 1292 9812 9810 9577 9806 9814 9808 
1260 962 1293 963 9582 9810 9813 9584 7674 9815 
1293 962 996 963 9810 7899 9811 9815 7674 7900 
963 996 1294 997 7900 9816 9817 7906 7908 9818 
1260 1294 1261 963 9819 9820 9594 9584 9817 9589 
963 996 1293 1294 7900 9811 9815 9817 9816 9821 
1260 1294 963 1293 9819 9817 9584 9813 9821 9815 
1261 963 1294 964 9589 9817 9820 9591 7681 9822 
1294 963 997 964 9817 7906 9818 9822 7681 7907 
964 997 1295 998 7907 9823 9824 7913 7915 9825 
1261 1295 1262 964 9826 9827 9601 9591 9824 9596 
964 997 1294 1295 7907 9818 9822 9824 9823 9828 
1261 1295 964 1294 9826 9824 9591 9820 9828 9822 
1262 964 1295 965 9596 9824 9827 9598 7688 9829 
1295 964 998 965 9824 7913 9825 9829 7688 7914 
965 998 1296 999 7914 9830 9831 7920 7922 9832 
1262 1296 1263 965 9833 9834 9608 9598 9831 9603 
965 998 1295 1296 7914 9825 9829 9831 9830 9835 
1262 1296 965 1295 9833 9831 9598 9827 9835 9829 
1263 965 1296 966 9603 9831 9834 9605 7695 9836 
1296 965 999 966 9831 7920 9832 9836 7695 7921 
966 999 1297 1000 7921 9837 9838 7927 7929 9839 
1263 1297 1264 966 9840 9841 9615 9605 9838 9610 
966 999 1296 1297 7921 9832 9836 9838 9837 9842 
1263 1297 966 1296 9840 9838 9605 9834 9842 9836 
1264 966 1297 967 9610 9838 9841 9612 7702 9843 
1297 966 1000 967 9838 7927 9839 9843 7702 7928 
967 1000 1298 1001 7928 9844 9845 7934 7936 9846 
1264 1298 1265 967 9847 9848 9622 9612 9845 9617 
967 1000 1297 1298 7928 9839 9843 9845 9844 9849 
1264 1298 967 1297 9847 9845 9612 9841 9849 9843 
1265 967 1298 968 9617 9845 9848 9619 7709 9850 
1298 967 1001 968 9845 7934 9846 9850 7709 7935 
968 1001 1299 1002 7935 9851 9852 7941 7943 9853 
1265 1299 1266 968 9854 9855 9629 9619 9852 9624 
968 1001 1298 1299 7935 9846 9850 9852 9851 9856 
1265 1299 968 1298 9854 9852 9619 9848 9856 9850 
1266 968 1299 969 9624 9852 9855 9626 7716 9857 
1299 968 1002 969 9852 7941 9853 9857 7716 7942 
969 1002 1300 1003 7942 9858 9859 7948 7950 9860 
1266 1300 1267 969 9861 9862 9636 9626 9859 9631 
969 1002 1299 1300 7942 9853 9857 9859 9858 9863 
1266 1300 969 1299 9861 9859 9626 9855 9863 9857 
1267 969 1300 970 9631 9859 9862 9633 7723 9864 
1300 969 1003 970 9859 7948 9860 9864 7723 7949 
970 1003 1301 1004 7949 9865 9866 7955 7957 9867 
1267 1301 1268 970 9868 9869 9643 9633 9866 9638 
970 1003 1300 1301 7949 9860 9864 9866 9865 9870 
1267 1301 970 1300 9868 9866 9633 9862 9870 9864 
1268 970 1301 971 9638 9866 9869 9640 7730 9871 
1301 970 1004 971 9866 7955 9867 9871 7730 7956 
971 1004 1302 1005 7956 9872 9873 7962 7964 9874 
1268 1302 1269 971 9875 9876 9650 9640 9873 9645 
971 1004 1301 1302 7956 9867 9871 9873 9872 9877 
1268 1302 971 1301 9875 9873 9640 9869 9877 9871 
1269 971 1302 972 9645 9873 9876 9647 7737 9878 
1302 971 1005 972 9873 7962 9874 9878 7737 7963 
972 1005 1303 1006 7963 9879 9880 7969 7971 9881 
1269 1303 1270 972 9882 9883 9657 9647 9880 9652 
972 1005 1302 1303 7963 9874 9878 9880 9879 9884 
1269 1303 972 1302 9882 9880 9647 9876 9884 9878 
1270 972 1303 973 9652 9880 9883 9654 7744 9885 
1303 972 1006 973 9880 7969 9881 9885 7744 7970 
973 1006 1304 1007 7970 9886 9887 7976 7978 9888 
1270 1304 1271 973 9889 9890 9664 9654 9887 9659 
973 1006 1303 1304 7970 9881 9885 9887 9886 9891 
1270 1304 973 1303 9889 9887 9654 9883 9891 9885 
1271 973 1304 974 9659 9887 9890 9661 7751 9892 
1304 973 1007 974 9887 7976 9888 9892 7751 7977 
974 1007 1305 1008 7977 9893 9894 7983 7985 9895 
1271 1305 1272 974 9896 9897 9671 9661 9894 9666 
974 1007 1304 1305 7977 9888 9892 9894 9893 9898 
1271 1305 974 1304 9896 9894 9661 9890 9898 9892 
1272 974 1305 975 9666 9894 9897 9668 7758 9899 
1305 974 1008 975 9894 7983 9895 9899 7758 7984 
975 1008 1306 1009 7984 9900 9901 7990 7992 9902 
1272 1306 1273 975 9903 9904 9678 9668 9901 9673 
975 1008 1305 1306 7984 9895 9899 9901 9900 9905 
1272 1306 975 1305 9903 9901 9668 9897 9905 9899 
1273 975 1306 976 9673 9901 9904 9675 7765 9906 
1306 975 1009 976 9901 7990 9902 9906 7765 7991 
976 1009 1307 1010 7991 9907 9908 7997 7999 9909 
1273 1307 1274 976 9910 9911 9685 9675 9908 9680 
976 1009 1306 1307 7991 9902 9906 9908 9907 9912 
1273 1307 976 1306 9910 9908 9675 9904 9912 9906 
1274 976 1307 977 9680 9908 9911 9682 7772 9913 
1307 976 1010 977 9908 7997 9909 9913 7772 7998 
977 1010 1308 1011 7998 9914 9915 8004 8006 9916 
1274 1308 1275 977 9917 9918 9692 9682 9915 9687 
977 1010 1307 1308 7998 9909 9913 9915 9914 9919 
1274 1308 977 1307 9917 9915 9682 9911 9919 9913 
1275 977 1308 978 9687 9915 9918 9689 7779 9920 
1308 977 1011 978 9915 8004 9916 9920 7779 8005 
978 1011 1309 1012 8005 9921 9922 8011 8013 9923 
1275 1309 1276 978 9924 9925 9699 9689 9922 9694 
978 1011 1308 1309 8005 9916 9920 9922 9921 9926 
1275 1309 978 1308 9924 9922 9689 9918 9926 9920 
1276 978 1309 979 9694 9922 9925 9696 7786 9927 
1309 978 1012 979 9922 8011 9923 9927 7786 8012 
979 1012 1310 1013 8012 9928 9929 8018 8020 9930 
1276 1310 1277 979 9931 9932 9706 9696 9929 9701 
979 1012 1309 1310 8012 9923 9927 9929 9928 9933 
1276 1310 979 1309 9931 9929 9696 9925 9933 9927 
1277 979 1310 980 9701 9929 9932 9703 7793 9934 
1310 979 1013 980 9929 8018 9930 9934 7793 8019 
980 1013 1311 1014 8019 9935 9936 8025 8027 9937 
1277 1311 1278 980 9938 9939 9713 9703 9936 9708 
980 1013 1310 1311 8019 9930 9934 9936 9935 9940 
1277 1311 980 1310 9938 9936 9703 9932 9940 9934 
1278 980 1311 981 9708 9936 9939 9710 7800 9941 
1311 980 1014 981 9936 8025 9937 9941 7800 8026 
981 1014 1312 1015 8026 9942 9943 8032 8034 9944 
1278 1312 1279 981 9945 9946 9720 9710 9943 9715 
981 1014 1311 1312 8026 9937 9941 9943 9942 9947 
1278 1312 981 1311 9945 9943 9710 9939 9947 9941 
1279 981 1312 982 9715 9943 9946 9717 7807 9948 
1312 981 1015 982 9943 8032 9944 9948 7807 8033 
982 1015 1313 1016 8033 9949 9950 8039 8041 9951 
1279 1313 1280 982 9952 9953 9727 9717 9950 9722 
982 1015 1312 1313 8033 9944 9948 9950 9949 9954 
1279 1313 982 1312 9952 9950 9717 9946 9954 9948 
1280 982 1313 983 9722 9950 9953 9724 7814 9955 
1313 982 1016 983 9950 8039 9951 9955 7814 8040 
983 1016 1314 1017 8040 9956 9957 8046 8048 9958 
1280 1314 1281 983 9959 9960 9734 9724 9957 9729 
983 1016 1313 1314 8040 9951 9955 9957 9956 9961 
1280 1314 983 1313 9959 9957 9724 9953 9961 9955 
1281 983 1314 984 9729 9957 9960 9731 7821 9962 
1314 983 1017 984 9957 8046 9958 9962 7821 8047 
984 1017 1315 1018 8047 9963 9964 8053 8055 9965 
1281 1315 1282 984 9966 9967 9741 9731 9964 9736 
984 1017 1314 1315 8047 9958 9962 9964 9963 9968 
1281 1315 984 1314 9966 9964 9731 9960 9968 9962 
1282 984 1315 985 9736 9964 9967 9738 7828 9969 
1315 984 1018 985 9964 8053 9965 9969 7828 8054 
985 1018 1316 1019 8054 9970 9971 8060 8062 9972 
1282 1316 1283 985 9973 9974 9748 9738 9971 9743 
985 1018 1315 1316 8054 9965 9969 9971 9970 9975 
1282 1316 985 1315 9973 9971 9738 9967 9975 9969 
1283 985 1316 986 9743 9971 9974 9745 7835 9976 
1316 985 1019 986 9971 8060 9972 9976 7835 8061 
986 1019 1317 1020 8061 9977 9978 8067 8069 9979 
1283 1317 1284 986 9980 9981 9755 9745 9978 9750 
986 1019 1316 1317 8061 9972 9976 9978 9977 9982 
1283 1317 986 1316 9980 9978 9745 9974 9982 9976 
1284 986 1317 987 9750 9978 9981 9752 7842 9983 
1317 986 1020 987 9978 8067 9979 9983 7842 8068 
987 1020 1318 1021 8068 9984 9985 8074 8076 9986 
1284 1318 1285 987 9987 9988 9762 9752 9985 9757 
987 1020 1317 1318 8068 9979 9983 9985 9984 9989 
1284 1318 987 1317 9987 9985 9752 9981 9989 9983 
1285 987 1318 988 9757 9985 9988 9759 7849 9990 
1318 987 1021 988 9985 8074 9986 9990 7849 8075 
988 1021 1319 1022 8075 9991 9992 8081 8083 9993 
1285 1319 1286 988 9994 9995 9769 9759 9992 9764 
988 1021 1318 1319 8075 9986 9990 9992 9991 9996 
1285 1319 988 1318 9994 9992 9759 9988 9996 9990 
1286 988 1319 989 9764 9992 9995 9766 7856 9997 
1319 988 1022 989 9992 8081 9993 9997 7856 8082 
990 1023 1321 1024 8093 9998 9999 8088 8092 10000 
1287 1321 1288 990 10001 10002 9778 9776 9999 9771 
990 1023 1320 1321 8093 10003 10004 9999 9998 10005 
1287 1321 990 1320 10001 9999 9776 10006 10005 10004 
1288 990 1321 991 9771 9999 10002 9773 7865 10007 
1321 990 1024 991 9999 8088 10000 10007 7865 8089 
991 1024 1322 1025 8089 10008 10009 8098 8100 10010 
1288 1322 1289 991 10011 10012 9786 9773 10009 9781 
991 1024 1321 1322 8089 10000 10007 10009 10008 10013 
1288 1322 991 1321 10011 10009 9773 10002 10013 10007 
1289 991 1322 992 9781 10009 10012 9783 7873 10014 
1322 991 1025 992 10009 8098 10010 10014 7873 8099 
992 1025 1323 1026 8099 10015 10016 8105 8107 10017 
1289 1323 1290 992 10018 10019 9793 9783 10016 9788 
992 1025 1322 1323 8099 10010 10014 10016 10015 10020 
1289 1323 992 1322 10018 10016 9783 10012 10020 10014 
1290 992 1323 993 9788 10016 10019 9790 7880 10021 
1323 992 1026 993 10016 8105 10017 10021 7880 8106 
993 1026 1324 1027 8106 10022 10023 8112 8114 10024 
1290 1324 1291 993 10025 10026 9800 9790 10023 9795 
993 1026 1323 1324 8106 10017 10021 10023 10022 10027 
1290 1324 993 1323 10025 10023 9790 10019 10027 10021 
1291 993 1324 994 9795 10023 10026 9797 7887 10028 
1324 993 1027 994 10023 8112 10024 10028 7887 8113 
994 1027 1325 1028 8113 10029 10030 8119 8121 10031 
1291 1325 1292 994 10032 10033 9807 9797 10030 9802 
994 1027 1324 1325 8113 10024 10028 10030 10029 10034 
1291 1325 994 1324 10032 10030 9797 10026 10034 10028 
1292 994 1325 995 9802 10030 10033 9804 7894 10035 
1325 994 1028 995 10030 8119 10031 10035 7894 8120 
995 1028 1326 1029 8120 10036 10037 8126 8128 10038 
1292 1326 1293 995 10039 10040 9814 9804 10037 9809 
995 1028 1325 1326 8120 10031 10035 10037 10036 10041 
1292 1326 995 1325 10039 10037 9804 10033 10041 10035 
1293 995 1326 996 9809 10037 10040 9811 7901 10042 
1326 995 1029 996 10037 8126 10038 10042 7901 8127 
996 1029 1327 1030 8127 10043 10044 8133 8135 10045 
1293 1327 1294 996 10046 10047 9821 9811 10044 9816 
996 1029 1326 1327 8127 10038 10042 10044 10043 10048 
1293 1327 996 1326 10046 10044 9811 10040 10048 10042 
1294 996 1327 997 9816 10044 10047 9818 7908 10049 
1327 996 1030 997 10044 8133 10045 10049 7908 8134 
997 1030 1328 1031 8134 10050 10051 8140 8142 10052 
1294 1328 1295 997 10053 10054 9828 9818 10051 9823 
997 1030 1327 1328 8134 10045 10049 10051 10050 10055 
1294 1328 997 1327 10053 10051 9818 10047 10055 10049 
1295 997 1328 998 9823 10051 10054 9825 7915 10056 
1328 997 1031 998 10051 8140 10052 10056 7915 8141 
998 1031 1329 1032 8141 10057 10058 8147 8149 10059 
1295 1329 1296 998 10060 10061 9835 9825 10058 9830 
998 1031 1328 1329 8141 10052 10056 10058 10057 10062 
1295 1329 998 1328 10060 10058 9825 10054 10062 10056 
1296 998 1329 999 9830 10058 10061 9832 7922 10063 
1329 998 1032 999 10058 8147 10059 10063 7922 8148 
999 1032 1330 1033 8148 10064 10065 8154 8156 10066 
1296 1330 1297 999 10067 10068 9842 9832 10065 9837 
999 1032 1329 1330 8148 10059 10063 10065 10064 10069 
1296 1330 999 1329 10067 10065 9832 10061 10069 10063 
1297 999 1330 1000 9837 10065 10068 9839 7929 10070 
1330 999 1033 1000 10065 8154 10066 10070 7929 8155 
1000 1033 1331 1034 8155 10071 10072 8161 8163 10073 
1297 1331 1298 1000 10074 10075 9849 9839 10072 9844 
1000 1033 1330 1331 8155 10066 10070 10072 10071 10076 
1297 1331 1000 1330 10074 10072 9839 10068 10076 10070 
1298 1000 1331 1001 9844 10072 10075 9846 7936 10077 
1331 1000 1034 1001 10072 8161 10073 10077 7936 8162 
1001 1034 1332 1035 8162 10078 10079 8168 8170 10080 
1298 1332 1299 1001 10081 10082 9856 9846 10079 9851 
1001 1034 1331 1332 8162 10073 10077 10079 10078 10083 
1298 1332 1001 1331 10081 10079 9846 10075 10083 10077 
1299 1001 1332 1002 9851 10079 10082 9853 7943 10084 
1332 1001 1035 1002 10079 8168 10080 10084 7943 8169 
1002 1035 1333 1036 8169 10085 10086 8175 8177 10087 
1299 1333 1300 1002 10088 10089 9863 9853 10086 9858 
1002 1035 1332 1333 8169 10080 10084 10086 10085 10090 
1299 1333 1002 1332 10088 10086 9853 10082 10090 10084 
1300 1002 1333 1003 9858 10086 10089 9860 7950 10091 
1333 1002 1036 1003 10086 8175 10087 10091 7950 8176 
1003 1036 1334 1037 8176 10092 10093 8182 8184 10094 
1300 1334 1301 1003 10095 10096 9870 9860 10093 9865 
1003 1036 1333 1334 8176 10087 10091 10093 10092 10097 
1300 1334 1003 1333 10095 10093 9860 10089 10097 10091 
1301 1003 1334 1004 9865 10093 10096 9867 7957 10098 
1334 1003 1037 1004 10093 8182 10094 10098 7957 8183 
1004 1037 1335 1038 8183 10099 10100 8189 8191 10101 
1301 1335 1302 1004 10102 10103 9877 9867 10100 9872 
1004 1037 1334 1335 8183 10094 10098 10100 10099 10104 
1301 1335 1004 1334 10102 10100 9867 10096 10104 10098 
1302 1004 1335 1005 9872 10100 10103 9874 7964 10105 
1335 1004 1038 1005 10100 8189 10101 10105 7964 8190 
1005 1038 1336 1039 8190 10106 10107 8196 8198 10108 
1302 1336 1303 1005 10109 10110 9884 9874 10107 9879 
1005 1038 1335 1336 8190 10101 10105 10107 10106 10111 
1302 1336 1005 1335 10109 10107 9874 10103 10111 10105 
1303 1005 1336 1006 9879 10107 10110 9881 7971 10112 
1336 1005 1039 1006 10107 8196 10108 10112 7971 8197 
1006 1039 1337 1040 8197 10113 10114 8203 8205 10115 
1303 1337 1304 1006 10116 10117 9891 9881 10114 9886 
1006 1039 1336 1337 8197 10108 10112 10114 10113 10118 
1303 1337 1006 1336 10116 10114 9881 10110 10118 10112 
1304 1006 1337 1007 9886 10114 10117 9888 7978 10119 
1337 1006 1040 1007 10114 8203 10115 10119 7978 8204 
1007 1040 1338 1041 8204 10120 10121 8210 8212 10122 
1304 1338 1305 1007 10123 10124 9898 9888 10121 9893 
1007 1040 1337 1338 8204 10115 10119 10121 10120 10125 
1304 1338 1007 1337 10123 10121 9888 10117 10125 10119 
1305 1007 1338 1008 9893 10121 10124 9895 7985 10126 
1338 1007 1041 1008 10121 8210 10122 10126 7985 8211 
1008 1041 1339 1042 8211 10127 10128 8217 8219 10129 
1305 1339 1306 1008 10130 10131 9905 9895 10128 9900 
1008 1041 1338 1339 8211 10122 10126 10128 10127 10132 
1305 1339 1008 1338 10130 10128 9895 10124 10132 10126 
1306 1008 1339 1009 9900 10128 10131 9902 7992 10133 
1339 1008 1042 1009 10128 8217 10129 10133 7992 8218 
1009 1042 1340 1043 8218 10134 10135 8224 8226 10136 
1306 1340 1307 1009 10137 10138 9912 9902 10135 9907 
1009 1042 1339 1340 8218 10129 10133 10135 10134 10139 
1306 1340 1009 1339 10137 10135 9902 10131 10139 10133 
1307 1009 1340 1010 9907 10135 10138 9909 7999 10140 
1340 1009 1043 1010 10135 8224 10136 10140 7999 8225 
1010 1043 1341 1044 8225 10141 10142 8231 8233 10143 
1307 1341 1308 1010 10144 10145 9919 9909 10142 9914 
1010 1043 1340 1341 8225 10136 10140 10142 10141 10146 
1307 1341 1010 1340 10144 10142 9909 10138 10146 10140 
1308 1010 1341 1011 9914 10142 10145 9916 8006 10147 
1341 1010 1044 1011 10142 8231 10143 10147 8006 8232 
1011 1044 1342 1045 8232 10148 10149 8238 8240 10150 
1308 1342 1309 1011 10151 10152 9926 9916 10149 9921 
1011 1044 1341 1342 8232 10143 10147 10149 10148 10153 
1308 1342 1011 1341 10151 10149 9916 10145 10153 10147 
1309 1011 1342 1012 9921 10149 10152 9923 8013 10154 
1342 1011 1045 1012 10149 8238 10150 10154 8013 8239 
1012 1045 1343 1046 8239 10155 10156 8245 8247 10157 
1309 1343 1310 1012 10158 10159 9933 9923 10156 9928 
1012 1045 1342 1343 8239 10150 10154 10156 10155 10160 
1309 1343 1012 1342 10158 10156 9923 10152 10160 10154 
1310 1012 1343 1013 9928 10156 10159 9930 8020 10161 
1343 1012 1046 1013 10156 8245 10157 10161 8020 8246 
1013 1046 1344 1047 8246 10162 10163 8252 8254 10164 
1310 1344 1311 1013 10165 10166 9940 9930 10163 9935 
1013 1046 1343 1344 8246 10157 10161 10163 10162 10167 
1310 1344 1013 1343 10165 10163 9930 10159 10167 10161 
1311 1013 1344 1014 9935 10163 10166 9937 8027 10168 
1344 1013 1047 1014 10163 8252 10164 10168 8027 8253 
1014 1047 1345 1048 8253 10169 10170 8259 8261 10171 
1311 1345 1312 1014 10172 10173 9947 9937 10170 9942 
1014 1047 1344 1345 8253 10164 10168 10170 10169 10174 
1311 1345 1014 1344 10172 10170 9937 10166 10174 10168 
1312 1014 1345 1015 9942 10170 10173 9944 8034 10175 
1345 1014 1048 1015 10170 8259 10171 10175 8034 8260 
1015 1048 1346 1049 8260 10176 10177 8266 8268 10178 
1312 1346 1313 1015 10179 10180 9954 9944 10177 9949 
1015 1048 1345 1346 8260 10171 10175 10177 10176 10181 
1312 1346 1015 1345 10179 10177 9944 10173 10181 10175 
1313 1015 1346 1016 9949 10177 10180 9951 8041 10182 
1346 1015 1049 1016 10177 8266 10178 10182 8041 8267 
1016 1049 1347 1050 8267 10183 10184 8273 8275 10185 
1313 1347 1314 1016 10186 10187 9961 9951 10184 9956 
1016 1049 1346 1347 8267 10178 10182 10184 10183 10188 
1313 1347 1016 1346 10186 10184 9951 10180 10188 10182 
1314 1016 1347 1017 9956 10184 10187 9958 8048 10189 
1347 1016 1050 1017 10184 8273 10185 10189 8048 8274 
1017 1050 1348 1051 8274 10190 10191 8280 8282 10192 
1314 1348 1315 1017 10193 10194 9968 9958 10191 9963 
1017 1050 1347 1348 8274 10185 10189 10191 10190 10195 
1314 1348 1017 1347 10193 10191 9958 10187 10195 10189 
1315 1017 1348 1018 9963 10191 10194 9965 8055 10196 
1348 1017 1051 1018 10191 8280 10192 10196 8055 8281 
1018 1051 1349 1052 8281 10197 10198 8287 8289 10199 
1315 1349 1316 1018 10200 10201 9975 9965 10198 9970 
1018 1051 1348 1349 8281 10192 10196 10198 10197 10202 
1315 1349 1018 1348 10200 10198 9965 10194 10202 10196 
1316 1018 1349 1019 9970 10198 10201 9972 8062 10203 
1349 1018 1052 1019 10198 8287 10199 10203 8062 8288 
1019 1052 1350 1053 8288 10204 10205 8294 8296 10206 
1316 1350 1317 1019 10207 10208 9982 9972 10205 9977 
1019 1052 1349 1350 8288 10199 10203 10205 10204 10209 
1316 1350 1019 1349 10207 10205 9972 10201 10209 10203 
1317 1019 1350 1020 9977 10205 10208 9979 8069 10210 
1350 1019 1053 1020 10205 8294 10206 10210 8069 8295 
1020 1053 1351 1054 8295 10211 10212 8301 8303 10213 
1317 1351 1318 1020 10214 10215 9989 9979 10212 9984 
1020 1053 1350 1351 8295 10206 10210 10212 10211 10216 
1317 1351 1020 1350 10214 10212 9979 10208 10216 10210 
1318 1020 1351 1021 9984 10212 10215 9986 8076 10217 
1351 1020 1054 1021 10212 8301 10213 10217 8076 8302 
1021 1054 1352 1055 8302 10218 10219 8308 8310 10220 
1318 1352 1319 1021 10221 10222 9996 9986 10219 9991 
1021 1054 1351 1352 8302 10213 10217 10219 10218 10223 
1318 1352 1021 1351 10221 10219 9986 10215 10223 10217 
1319 1021 1352 1022 9991 10219 10222 9993 8083 10224 
1352 1021 1055 1022 10219 8308 10220 10224 8083 8309 
1023 1056 1354 1057 8320 10225 10226 8315 8319 10227 
1320 1354 1321 1023 10228 10229 10005 10003 10226 9998 
1023 1056 1353 1354 8320 10230 10231 10226 10225 10232 
1320 1354 1023 1353 10228 10226 10003 10233 10232 10231 
1321 1023 1354 1024 9998 10226 10229 10000 8092 10234 
1354 1023 1057 1024 10226 8315 10227 10234 8092 8316 
1024 1057 1355 1058 8316 10235 10236 8325 8327 10237 
1321 1355 1322 1024 10238 10239 10013 10000 10236 10008 
1024 1057 1354 1355 8316 10227 10234 10236 10235 10240 
1321 1355 1024 1354 10238 10236 10000 10229 10240 10234 
1322 1024 1355 1025 10008 10236 10239 10010 8100 10241 
1355 1024 1058 1025 10236 8325 10237 10241 8100 8326 
1025 1058 1356 1059 8326 10242 10243 8332 8334 10244 
1322 1356 1323 1025 10245 10246 10020 10010 10243 10015 
1025 1058 1355 1356 8326 10237 10241 10243 10242 10247 
1322 1356 1025 1355 10245 10243 10010 10239 10247 10241 
1323 1025 1356 1026 10015 10243 10246 10017 8107 10248 
1356 1025 1059 1026 10243 8332 10244 10248 8107 8333 
1026 1059 1357 1060 8333 10249 10250 8339 8341 10251 
1323 1357 1324 1026 10252 10253 10027 10017 10250 10022 
1026 1059 1356 1357 8333 10244 10248 10250 10249 10254 
1323 1357 1026 1356 10252 10250 10017 10246 10254 10248 
1324 1026 1357 1027 10022 10250 10253 10024 8114 10255 
1357 1026 1060 1027 10250 8339 10251 10255 8114 8340 
1027 1060 1358 1061 8340 10256 10257 8346 8348 10258 
1324 1358 1325 1027 10259 10260 10034 10024 10257 10029 
1027 1060 1357 1358 8340 10251 10255 10257 10256 10261 
1324 1358 1027 1357 10259 10257 10024 10253 10261 10255 
1325 1027 1358 1028 10029 10257 10260 10031 8121 10262 
1358 1027 1061 1028 10257 8346 10258 10262 8121 8347 
1028 1061 1359 1062 8347 10263 10264 8353 8355 10265 
1325 1359 1326 1028 10266 10267 10041 10031 10264 10036 
1028 1061 1358 1359 8347 10258 10262 10264 10263 10268 
1325 1359 1028 1358 10266 10264 10031 10260 10268 10262 
1326 1028 1359 1029 10036 10264 10267 10038 8128 10269 
1359 1028 1062 1029 10264 8353 10265 10269 8128 8354 
1029 1062 1360 1063 8354 10270 10271 8360 8362 10272 
1326 1360 1327 1029 10273 10274 10048 10038 10271 10043 
1029 1062 1359 1360 8354 10265 10269 10271 10270 10275 
1326 1360 1029 1359 10273 10271 10038 10267 10275 10269 
1327 1029 1360 1030 10043 10271 10274 10045 8135 10276 
1360 1029 1063 1030 10271 8360 10272 10276 8135 8361 
1030 1063 1361 1064 8361 10277 10278 8367 8369 10279 
1327 1361 1328 1030 10280 10281 10055 10045 10278 10050 
1030 1063 1360 1361 8361 10272 10276 10278 10277 10282 
1327 1361 1030 1360 10280 10278 10045 10274 10282 10276 
1328 1030 1361 1031 10050 10278 10281 10052 8142 10283 
1361 1030 1064 1031 10278 8367 10279 10283 8142 8368 
1031 1064 1362 1065 8368 10284 10285 8374 8376 10286 
1328 1362 1329 1031 10287 10288 10062 10052 10285 10057 
1031 1064 1361 1362 8368 10279 10283 10285 10284 10289 
1328 1362 1031 1361 10287 10285 10052 10281 10289 10283 
1329 1031 1362 1032 10057 10285 10288 10059 8149 10290 
1362 1031 1065 1032 10285 8374 10286 10290 8149 8375 
1032 1065 1363 1066 8375 10291 10292 8381 8383 10293 
1329 1363 1330 1032 10294 10295 10069 10059 10292 10064 
1032 1065 1362 1363 8375 10286 10290 10292 10291 10296 
1329 1363 1032 1362 10294 10292 10059 10288 10296 10290 
1330 1032 1363 1033 10064 10292 10295 10066 8156 10297 
1363 1032 1066 1033 10292 8381 10293 10297 8156 8382 
1033 1066 1364 1067 8382 10298 10299 8388 8390 10300 
1330 1364 1331 1033 10301 10302 10076 10066 10299 10071 
1033 1066 1363 1364 8382 10293 10297 10299 10298 10303 
1330 1364 1033 1363 10301 10299 10066 10295 10303 10297 
1331 1033 1364 1034 10071 10299 10302 10073 8163 10304 
1364 1033 1067 1034 10299 8388 10300 10304 8163 8389 
1034 1067 1365 1068 8389 10305 10306 8395 8397 10307 
1331 1365 1332 1034 10308 10309 10083 10073 10306 10078 
1034 1067 1364 1365 8389 10300 10304 10306 10305 10310 
1331 1365 1034 1364 10308 10306 10073 10302 10310 10304 
1332 1034 1365 1035 10078 10306 10309 10080 8170 10311 
1365 1034 1068 1035 10306 8395 10307 10311 8170 8396 
1035 1068 1366 1069 8396 10312 10313 8402 8404 10314 
1332 1366 1333 1035 10315 10316 10090 10080 10313 10085 
1035 1068 1365 1366 8396 10307 10311 10313 10312 10317 
1332 1366 1035 1365 10315 10313 10080 10309 10317 10311 
1333 1035 1366 1036 10085 10313 10316 10087 8177 10318 
1366 1035 1069 1036 10313 8402 10314 10318 8177 8403 
1036 1069 1367 1070 8403 10319 10320 8409 8411 10321 
1333 1367 1334 1036 10322 10323 10097 10087 10320 10092 
1036 1069 1366 1367 8403 10314 10318 10320 10319 10324 
1333 1367 1036 1366 10322 10320 10087 10316 10324 10318 
1334 1036 1367 1037 10092 10320 10323 10094 8184 10325 
1367 1036 1070 1037 10320 8409 10321 10325 8184 8410 
1037 1070 1368 1071 8410 10326 10327 8416 8418 10328 
1334 1368 1335 1037 10329 10330 10104 10094 10327 10099 
1037 1070 1367 1368 8410 10321 10325 10327 10326 10331 
1334 1368 1037 1367 10329 10327 10094 10323 10331 10325 
1335 1037 1368 1038 10099 10327 10330 10101 8191 10332 
1368 1037 1071 1038 10327 8416 10328 10332 8191 8417 
1038 1071 1369 1072 8417 10333 10334 8423 8425 10335 
1335 1369 1336 1038 10336 10337 10111 10101 10334 10106 
1038 1071 1368 1369 8417 10328 10332 10334 10333 10338 
1335 1369 1038 1368 10336 10334 10101 10330 10338 10332 
1336 1038 1369 1039 10106 10334 10337 10108 8198 10339 
1369 1038 1072 1039 10334 8423 10335 10339 8198 8424 
1039 1072 1370 1073 8424 10340 10341 8430 8432 10342 
1336 1370 1337 1039 10343 10344 10118 10108 10341 10113 
1039 1072 1369 1370 8424 10335 10339 10341 10340 10345 
1336 1370 1039 1369 10343 10341 10108 10337 10345 10339 
1337 1039 1370 1040 10113 10341 10344 10115 8205 10346 
1370 1039 1073 1040 10341 8430 10342 10346 8205 8431 
1040 1073 1371 1074 8431 10347 10348 8437 8439 10349 
1337 1371 1338 1040 10350 10351 10125 10115 10348 10120 
1040 1073 1370 1371 8431 10342 10346 10348 10347 10352 
1337 1371 1040 1370 10350 10348 10115 10344 10352 10346 
1338 1040 1371 1041 10120 10348 10351 10122 8212 10353 
1371 1040 1074 1041 10348 8437 10349 10353 8212 8438 
1041 1074 1372 1075 8438 10354 10355 8444 8446 10356 
1338 1372 1339 1041 10357 10358 10132 10122 10355 10127 
1041 1074 1371 1372 8438 10349 10353 10355 10354 10359 
1338 1372 1041 1371 10357 10355 10122 10351 10359 10353 
1339 1041 1372 1042 10127 10355 10358 10129 8219 10360 
1372 1041 1075 1042 10355 8444 10356 10360 8219 8445 
1042 1075 1373 1076 8445 10361 10362 8451 8453 10363 
1339 1373 1340 1042 10364 10365 10139 10129 10362 10134 
1042 1075 1372 1373 8445 10356 10360 10362 10361 10366 
1339 1373 1042 1372 10364 10362 10129 10358 10366 10360 
1340 1042 1373 1043 10134 10362 10365 10136 8226 10367 
1373 1042 1076 1043 10362 8451 10363 10367 8226 8452 
1043 1076 1374 1077 8452 10368 10369 8458 8460 10370 
1340 1374 1341 1043 10371 10372 10146 10136 10369 10141 
1043 1076 1373 1374 8452 10363 10367 10369 10368 10373 
1340 1374 1043 1373 10371 10369 10136 10365 10373 10367 
1341 1043 1374 1044 10141 10369 10372 10143 8233 10374 
1374 1043 1077 1044 10369 8458 10370 10374 8233 8459 
1044 1077 1375 1078 8459 10375 10376 8465 8467 10377 
1341 1375 1342 1044 10378 10379 10153 10143 10376 10148 
1044 1077 1374 1375 8459 10370 10374 10376 10375 10380 
1341 1375 1044 1374 10378 10376 10143 10372 10380 10374 
1342 1044 1375 1045 10148 10376 10379 10150 8240 10381 
1375 1044 1078 1045 10376 8465 10377 10381 8240 8466 
1045 1078 1376 1079 8466 10382 10383 8472 8474 10384 
1342 1376 1343 1045 10385 10386 10160 10150 10383 10155 
1045 1078 1375 1376 8466 10377 10381 10383 10382 10387 
1342 1376 1045 1375 10385 10383 10150 10379 10387 10381 
1343 1045 1376 1046 10155 10383 10386 10157 8247 10388 
1376 1045 1079 1046 10383 8472 10384 10388 8247 8473 
1046 1079 1377 1080 8473 10389 10390 8479 8481 10391 
1343 1377 1344 1046 10392 10393 10167 10157 10390 10162 
1046 1079 1376 1377 8473 10384 10388 10390 10389 10394 
1343 1377 1046 1376 10392 10390 10157 10386 10394 10388 
1344 1046 1377 1047 10162 10390 10393 10164 8254 10395 
1377 1046 1080 1047 10390 8479 10391 10395 8254 8480 
1047 1080 1378 1081 8480 10396 10397 8486 8488 10398 
1344 1378 1345 1047 10399 10400 10174 10164 10397 10169 
1047 1080 1377 1378 8480 10391 10395 10397 10396 10401 
1344 1378 1047 1377 10399 10397 10164 10393 10401 10395 
1345 1047 1378 1048 10169 10397 10400 10171 8261 10402 
1378 1047 1081 1048 10397 8486 10398 10402 8261 8487 
1048 1081 1379 1082 8487 10403 10404 8493 8495 10405 
1345 1379 1346 1048 10406 10407 10181 10171 10404 10176 
1048 1081 1378 1379 8487 10398 10402 10404 10403 10408 
1345 1379 1048 1378 10406 10404 10171 10400 10408 10402 
1346 1048 1379 1049 10176 10404 10407 10178 8268 10409 
1379 1048 1082 1049 10404 8493 10405 10409 8268 8494 
1049 1082 1380 1083 8494 10410 10411 8500 8502 10412 
1346 1380 1347 1049 10413 10414 10188 10178 10411 10183 
1049 1082 1379 1380 8494 10405 10409 10411 10410 10415 
1346 1380 1049 1379 10413 10411 10178 10407 10415 10409 
1347 1049 1380 1050 10183 10411 10414 10185 8275 10416 
1380 1049 1083 1050 10411 8500 10412 10416 8275 8501 
1050 1083 1381 1084 8501 10417 10418 8507 8509 10419 
1347 1381 1348 1050 10420 10421 10195 10185 10418 10190 
1050 1083 1380 1381 8501 10412 10416 10418 10417 10422 
1347 1381 1050 1380 10420 10418 10185 10414 10422 10416 
1348 1050 1381 1051 10190 10418 10421 10192 8282 10423 
1381 1050 1084 1051 10418 8507 10419 10423 8282 8508 
1051 1084 1382 1085 8508 10424 10425 8514 8516 10426 
1348 1382 1349 1051 10427 10428 10202 10192 10425 10197 
1051 1084 1381 1382 8508 10419 10423 10425 10424 10429 
1348 1382 1051 1381 10427 10425 10192 10421 10429 10423 
1349 1051 1382 1052 10197 10425 10428 10199 8289 10430 
1382 1051 1085 1052 10425 8514 10426 10430 8289 8515 
1052 1085 1383 1086 8515 10431 10432 8521 8523 10433 
1349 1383 1350 1052 10434 10435 10209 10199 10432 10204 
1052 1085 1382 1383 8515 10426 10430 10432 10431 10436 
1349 1383 1052 1382 10434 10432 10199 10428 10436 10430 
1350 1052 1383 1053 10204 10432 10435 10206 8296 10437 
1383 1052 1086 1053 10432 8521 10433 10437 8296 8522 
1053 1086 1384 1087 8522 10438 10439 8528 8530 10440 
1350 1384 1351 1053 10441 10442 10216 10206 10439 10211 
1053 1086 1383 1384 8522 10433 10437 10439 10438 10443 
1350 1384 1053 1383 10441 10439 10206 10435 10443 10437 
1351 1053 1384 1054 10211 10439 10442 10213 8303 10444 
1384 1053 1087 1054 10439 8528 10440 10444 8303 8529 
1054 1087 1385 1088 8529 10445 10446 8535 8537 10447 
1351 1385 1352 1054 10448 10449 10223 10213 10446 10218 
1054 1087 1384 1385 8529 10440 10444 10446 10445 10450 
1351 1385 1054 1384 10448 10446 10213 10442 10450 10444 
1352 1054 1385 1055 10218 10446 10449 10220 8310 10451 
1385 1054 1088 1055 10446 8535 10447 10451 8310 8536 
1056 1089 1387 1090 8547 10452 10453 8542 8546 10454 
1353 1387 1354 1056 10455 10456 10232 10230 10453 10225 
1056 1089 1386 1387 8547 10457 10458 10453 10452 10459 
1353 1387 1056 1386 10455 10453 10230 10460 10459 10458 
1354 1056 1387 1057 10225 10453 10456 10227 8319 10461 
1387 1056 1090 1057 10453 8542 10454 10461 8319 8543 
1057 1090 1388 1091 8543 10462 10463 8552 8554 10464 
1354 1388 1355 1057 10465 10466 10240 10227 10463 10235 
1057 1090 1387 1388 8543 10454 10461 10463 10462 10467 
1354 1388 1057 1387 10465 10463 10227 10456 10467 10461 
1355 1057 1388 1058 10235 10463 10466 10237 8327 10468 
1388 1057 1091 1058 10463 8552 10464 10468 8327 8553 
1058 1091 1389 1092 8553 10469 10470 8559 8561 10471 
1355 1389 1356 1058 10472 10473 10247 10237 10470 10242 
1058 1091 1388 1389 8553 10464 10468 10470 10469 10474 
1355 1389 1058 1388 10472 10470 10237 10466 10474 10468 
1356 1058 1389 1059 10242 10470 10473 10244 8334 10475 
1389 1058 1092 1059 10470 8559 10471 10475 8334 8560 
1059 1092 1390 1093 8560 10476 10477 8566 8568 10478 
1356 1390 1357 1059 10479 10480 10254 10244 10477 10249 
1059 1092 1389 1390 8560 10471 10475 10477 10476 10481 
1356 1390 1059 1389 10479 10477 10244 10473 10481 10475 
1357 1059 1390 1060 10249 10477 10480 10251 8341 10482 
1390 1059 1093 1060 10477 8566 10478 10482 8341 8567 
1060 1093 1391 1094 8567 10483 10484 8573 8575 10485 
1357 1391 1358 1060 10486 10487 10261 10251 10484 10256 
1060 1093 1390 1391 8567 10478 10482 10484 10483 10488 
1357 1391 1060 1390 10486 10484 10251 10480 10488 10482 
1358 1060 1391 1061 10256 10484 10487 10258 8348 10489 
1391 1060 1094 1061 10484 8573 10485 10489 8348 8574 
1061 1094 1392 1095 8574 10490 10491 8580 8582 10492 
1358 1392 1359 1061 10493 10494 10268 10258 10491 10263 
1061 1094 1391 1392 8574 10485 10489 10491 10490 10495 
1358 1392 1061 1391 10493 10491 10258 10487 10495 10489 
1359 1061 1392 1062 10263 10491 10494 10265 8355 10496 
1392 1061 1095 1062 10491 8580 10492 10496 8355 8581 
1062 1095 1393 1096 8581 10497 10498 8587 8589 10499 
1359 1393 1360 1062 10500 10501 10275 10265 10498 10270 
1062 1095 1392 1393 8581 10492 10496 10498 10497 10502 
1359 1393 1062 1392 10500 10498 10265 10494 10502 10496 
1360 1062 1393 1063 10270 10498 10501 10272 8362 10503 
1393 1062 1096 1063 10498 8587 10499 10503 8362 8588 
1063 1096 1394 1097 8588 10504 10505 8594 8596 10506 
1360 1394 1361 1063 10507 10508 10282 10272 10505 10277 
1063 1096 1393 1394 8588 10499 10503 10505 10504 10509 
1360 1394 1063 1393 10507 10505 10272 10501 10509 10503 
1361 1063 1394 1064 10277 10505 10508 10279 8369 10510 
1394 1063 1097 1064 10505 8594 10506 10510 8369 8595 
1064 1097 1395 1098 8595 10511 10512 8601 8603 10513 
1361 1395 1362 1064 10514 10515 10289 10279 10512 10284 
1064 1097 1394 1395 8595 10506 10510 10512 10511 10516 
1361 1395 1064 1394 10514 10512 10279 10508 10516 10510 
1362 1064 1395 1065 10284 10512 10515 10286 8376 10517 
1395 1064 1098 1065 10512 8601 10513 10517 8376 8602 
1065 1098 1396 1099 8602 10518 10519 8608 8610 10520 
1362 1396 1363 1065 10521 10522 10296 10286 10519 10291 
1065 1098 1395 1396 8602 10513 10517 10519 10518 10523 
1362 1396 1065 1395 10521 10519 10286 10515 10523 10517 
1363 1065 1396 1066 10291 10519 10522 10293 8383 10524 
1396 1065 1099 1066 10519 8608 10520 10524 8383 8609 
1066 1099 1397 1100 8609 10525 10526 8615 8617 10527 
1363 1397 1364 1066 10528 10529 10303 10293 10526 10298 
1066 1099 1396 1397 8609 10520 10524 10526 10525 10530 
1363 1397 1066 1396 10528 10526 10293 10522 10530 10524 
1364 1066 1397 1067 10298 10526 10529 10300 8390 10531 
1397 1066 1100 1067 10526 8615 10527 10531 8390 8616 
1067 1100 1398 1101 8616 10532 10533 8622 8624 10534 
1364 1398 1365 1067 10535 10536 10310 10300 10533 10305 
1067 1100 1397 1398 8616 10527 10531 10533 10532 10537 
1364 1398 1067 1397 10535 10533 10300 10529 10537 10531 
1365 1067 1398 1068 10305 10533 10536 10307 8397 10538 
1398 1067 1101 1068 10533 8622 10534 10538 8397 8623 
1068 1101 1399 1102 8623 10539 10540 8629 8631 10541 
1365 1399 1366 1068 10542 10543 10317 10307 10540 10312 
1068 1101 1398 1399 8623 10534 10538 10540 10539 10544 
1365 1399 1068 1398 10542 10540 10307 10536 10544 10538 
1366 1068 1399 1069 10312 10540 10543 10314 8404 10545 
1399 1068 1102 1069 10540 8629 10541 10545 8404 8630 
1069 1102 1400 1103 8630 10546 10547 8636 8638 10548 
1366 1400 1367 1069 10549 10550 10324 10314 10547 10319 
1069 1102 1399 1400 8630 10541 10545 10547 10546 10551 
1366 1400 1069 1399 10549 10547 10314 10543 10551 10545 
1367 1069 1400 1070 10319 10547 10550 10321 8411 10552 
1400 1069 1103 1070 10547 8636 10548 10552 8411 8637 
1070 1103 1401 1104 8637 10553 10554 8643 8645 10555 
1367 1401 1368 1070 10556 10557 10331 10321 10554 10326 
1070 1103 1400 1401 8637 10548 10552 10554 10553 10558 
1367 1401 1070 1400 10556 10554 10321 10550 10558 10552 
1368 1070 1401 1071 10326 10554 10557 10328 8418 10559 
1401 1070 1104 1071 10554 8643 10555 10559 8418 8644 
1071 1104 1402 1105 8644 10560 10561 8650 8652 10562 
1368 1402 1369 1071 10563 10564 10338 10328 10561 10333 
1071 1104 1401 1402 8644 10555 10559 10561 10560 10565 
1368 1402 1071 1401 10563 10561 10328 10557 10565 10559 
1369 1071 1402 1072 10333 10561 10564 10335 8425 10566 
1402 1071 1105 1072 10561 8650 10562 10566 8425 8651 
1072 1105 1403 1106 8651 10567 10568 8657 8659 10569 
1369 1403 1370 1072 10570 10571 10345 10335 10568 10340 
1072 1105 1402 1403 8651 10562 10566 10568 10567 10572 
1369 1403 1072 1402 10570 10568 10335 10564 10572 10566 
1370 1072 1403 1073 10340 10568 10571 10342 8432 10573 
1403 1072 1106 1073 10568 8657 10569 10573 8432 8658 
1073 1106 1404 1107 8658 10574 10575 8664 8666 10576 
1370 1404 1371 1073 10577 10578 10352 10342 10575 10347 
1073 1106 1403 1404 8658 10569 10573 10575 10574 10579 
1370 1404 1073 1403 10577 10575 10342 10571 10579 10573 
1371 1073 1404 1074 10347 10575 10578 10349 8439 10580 
1404 1073 1107 1074 10575 8664 10576 10580 8439 8665 
1074 1107 1405 1108 8665 10581 10582 8671 8673 10583 
1371 1405 1372 1074 10584 10585 10359 10349 10582 10354 
1074 1107 1404 1405 8665 10576 10580 10582 10581 10586 
1371 1405 1074 1404 10584 10582 10349 10578 10586 10580 
1372 1074 1405 1075 10354 10582 10585 10356 8446 10587 
1405 1074 1108 1075 10582 8671 10583 10587 8446 8672 
1075 1108 1406 1109 8672 10588 10589 8678 8680 10590 
1372 1406 1373 1075 10591 10592 10366 10356 10589 10361 
1075 1108 1405 1406 8672 10583 10587 10589 10588 10593 
1372 1406 1075 1405 10591 10589 10356 10585 10593 10587 
1373 1075 1406 1076 10361 10589 10592 10363 8453 10594 
1406 1075 1109 1076 10589 8678 10590 10594 8453 8679 
1076 1109 1407 1110 8679 10595 10596 8685 8687 10597 
1373 1407 1374 1076 10598 10599 10373 10363 10596 10368 
1076 1109 1406 1407 8679 10590 10594 10596 10595 10600 
1373 1407 1076 1406 10598 10596 10363 10592 10600 10594 
1374 1076 1407 1077 10368 10596 10599 10370 8460 10601 
1407 1076 1110 1077 10596 8685 10597 10601 8460 8686 
1077 1110 1408 1111 8686 10602 10603 8692 8694 10604 
1374 1408 1375 1077 10605 10606 10380 10370 10603 10375 
1077 1110 1407 1408 8686 10597 10601 10603 10602 10607 
1374 1408 1077 1407 10605 10603 10370 10599 10607 10601 
1375 1077 1408 1078 10375 10603 10606 10377 8467 10608 
1408 1077 1111 1078 10603 8692 10604 10608 8467 8693 
1078 1111 1409 1112 8693 10609 10610 8699 8701 10611 
1375 1409 1376 1078 10612 10613 10387 10377 10610 10382 
1078 1111 1408 1409 8693 10604 10608 10610 10609 10614 
1375 1409 1078 1408 10612 10610 10377 10606 10614 10608 
1376 1078 1409 1079 10382 10610 10613 10384 8474 10615 
1409 1078 1112 1079 10610 8699 10611 10615 8474 8700 
1079 1112 1410 1113 8700 10616 10617 8706 8708 10618 
1376 1410 1377 1079 10619 10620 10394 10384 10617 10389 
1079 1112 1409 1410 8700 10611 10615 10617 10616 10621 
1376 1410 1079 1409 10619 10617 10384 10613 10621 10615 
1377 1079 1410 1080 10389 10617 10620 10391 8481 10622 
1410 1079 1113 1080 10617 8706 10618 10622 8481 8707 
1080 1113 1411 1114 8707 10623 10624 8713 8715 10625 
1377 1411 1378 1080 10626 10627 10401 10391 10624 10396 
1080 1113 1410 1411 8707 10618 10622 10624 10623 10628 
1377 1411 1080 1410 10626 10624 10391 10620 10628 10622 
1378 1080 1411 1081 10396 10624 10627 10398 8488 10629 
1411 1080 1114 1081 10624 8713 10625 10629 8488 8714 
1081 1114 1412 1115 8714 10630 10631 8720 8722 10632 
1378 1412 1379 1081 10633 10634 10408 10398 10631 10403 
1081 1114 1411 1412 8714 10625 10629 10631 10630 10635 
1378 1412 1081 1411 10633 10631 10398 10627 10635 10629 
1379 1081 1412 1082 10403 10631 10634 10405 8495 10636 
1412 1081 1115 1082 10631 8720 10632 10636 8495 8721 
1082 1115 1413 1116 8721 10637 10638 8727 8729 10639 
1379 1413 1380 1082 10640 10641 10415 10405 10638 10410 
1082 1115 1412 1413 8721 10632 10636 10638 10637 10642 
1379 1413 1082 1412 10640 10638 10405 10634 10642 10636 
1380 1082 1413 1083 10410 10638 10641 10412 8502 10643 
1413 1082 1116 1083 10638 8727 10639 10643 8502 8728 
1083 1116 1414 1117 8728 10644 10645 8734 8736 10646 
1380 1414 1381 1083 10647 10648 10422 10412 10645 10417 
1083 1116 1413 1414 8728 10639 10643 10645 10644 10649 
1380 1414 1083 1413 10647 10645 10412 10641 10649 10643 
1381 1083 1414 1084 10417 10645 10648 10419 8509 10650 
1414 1083 1117 1084 10645 8734 10646 10650 8509 8735 
1084 1117 1415 1118 8735 10651 10652 8741 8743 10653 
1381 1415 1382 1084 10654 10655 10429 10419 10652 10424 
1084 1117 1414 1415 8735 10646 10650 10652 10651 10656 
1381 1415 1084 1414 10654 10652 10419 10648 10656 10650 
1382 1084 1415 1085 10424 10652 10655 10426 8516 10657 
1415 1084 1118 1085 10652 8741 10653 10657 8516 8742 
1085 1118 1416 1119 8742 10658 10659 8748 8750 10660 
1382 1416 1383 1085 10661 10662 10436 10426 10659 10431 
1085 1118 1415 1416 8742 10653 10657 10659 10658 10663 
1382 1416 1085 1415 10661 10659 10426 10655 10663 10657 
1383 1085 1416 1086 10431 10659 10662 10433 8523 10664 
1416 1085 1119 1086 10659 8748 10660 10664 8523 8749 
1086 1119 1417 1120 8749 10665 10666 8755 8757 10667 
1383 1417 1384 1086 10668 10669 10443 10433 10666 10438 
1086 1119 1416 1417 8749 10660 10664 10666 10665 10670 
1383 1417 1086 1416 10668 10666 10433 10662 10670 10664 
1384 1086 1417 1087 10438 10666 10669 10440 8530 10671 
1417 1086 1120 1087 10666 8755 10667 10671 8530 8756 
1087 1120 1418 1121 8756 10672 10673 8762 8764 10674 
1384 1418 1385 1087 10675 10676 10450 10440 10673 10445 
1087 1120 1417 1418 8756 10667 10671 10673 10672 10677 
1384 1418 1087 1417 10675 10673 10440 10669 10677 10671 
1385 1087 1418 1088 10445 10673 10676 10447 8537 10678 
1418 1087 1121 1088 10673 8762 10674 10678 8537 8763 
1089 1122 1420 1123 8774 10679 10680 8769 8773 10681 
1386 1420 1387 1089 10682 10683 10459 10457 10680 10452 
1089 1122 1419 1420 8774 10684 10685 10680 10679 10686 
1386 1420 1089 1419 10682 10680 10457 10687 10686 10685 
1387 1089 1420 1090 10452 10680 10683 10454 8546 10688 
1420 1089 1123 1090 10680 8769 10681 10688 8546 8770 
1090 1123 1421 1124 8770 10689 10690 8779 8781 10691 
1387 1421 1388 1090 10692 10693 10467 10454 10690 10462 
1090 1123 1420 1421 8770 10681 10688 10690 10689 10694 
1387 1421 1090 1420 10692 10690 10454 10683 10694 10688 
1388 1090 1421 1091 10462 10690 10693 10464 8554 10695 
1421 1090 1124 1091 10690 8779 10691 10695 8554 8780 
1091 1124 1422 1125 8780 10696 10697 8786 8788 10698 
1388 1422 1389 1091 10699 10700 10474 10464 10697 10469 
1091 1124 1421 1422 8780 10691 10695 10697 10696 10701 
1388 1422 1091 1421 10699 10697 10464 10693 10701 10695 
1389 1091 1422 1092 10469 10697 10700 10471 8561 10702 
1422 1091 1125 1092 10697 8786 10698 10702 8561 8787 
1092 1125 1423 1126 8787 10703 10704 8793 8795 10705 
1389 1423 1390 1092 10706 10707 10481 10471 10704 10476 
1092 1125 1422 1423 8787 10698 10702 10704 10703 10708 
1389 1423 1092 1422 10706 10704 10471 10700 10708 10702 
1390 1092 1423 1093 10476 10704 10707 10478 8568 10709 
1423 1092 1126 1093 10704 8793 10705 10709 8568 8794 
1093 1126 1424 1127 8794 10710 10711 8800 8802 10712 
1390 1424 1391 1093 10713 10714 10488 10478 10711 10483 
1093 1126 1423 1424 8794 10705 10709 10711 10710 10715 
1390 1424 1093 1423 10713 10711 10478 10707 10715 10709 
1391 1093 1424 1094 10483 10711 10714 10485 8575 10716 
1424 1093 1127 1094 10711 8800 10712 10716 8575 8801 
1094 1127 1425 1128 8801 10717 10718 8807 8809 10719 
1391 1425 1392 1094 10720 10721 10495 10485 10718 10490 
1094 1127 1424 1425 8801 10712 10716 10718 10717 10722 
1391 1425 1094 1424 10720 10718 10485 10714 10722 10716 
1392 1094 1425 1095 10490 10718 10721 10492 8582 10723 
1425 1094 1128 1095 10718 8807 10719 10723 8582 8808 
1095 1128 1426 1129 8808 10724 10725 8814 8816 10726 
1392 1426 1393 1095 10727 10728 10502 10492 10725 10497 
1095 1128 1425 1426 8808 10719 10723 10725 10724 10729 
1392 1426 1095 1425 10727 10725 10492 10721 10729 10723 
1393 1095 1426 1096 10497 10725 10728 10499 8589 10730 
1426 1095 1129 1096 10725 8814 10726 10730 8589 8815 
1096 1129 1427 1130 8815 10731 10732 8821 8823 10733 
1393 1427 1394 1096 10734 10735 10509 10499 10732 10504 
1096 1129 1426 1427 8815 10726 10730 10732 10731 10736 
1393 1427 1096 1426 10734 10732 10499 10728 10736 10730 
1394 1096 1427 1097 10504 10732 10735 10506 8596 10737 
1427 1096 1130 1097 10732 8821 10733 10737 8596 8822 
1097 1130 1428 1131 8822 10738 10739 8828 8830 10740 
1394 1428 1395 1097 10741 10742 10516 10506 10739 10511 
1097 1130 1427 1428 8822 10733 10737 10739 10738 10743 
1394 1428 1097 1427 10741 10739 10506 10735 10743 10737 
1395 1097 1428 1098 10511 10739 10742 10513 8603 10744 
1428 1097 1131 1098 10739 8828 10740 10744 8603 8829 
1098 1131 1429 1132 8829 10745 10746 8835 8837 10747 
1395 1429 1396 1098 10748 10749 10523 10513 10746 10518 
1098 1131 1428 1429 8829 10740 10744 10746 10745 10750 
1395 1429 1098 1428 10748 10746 10513 10742 10750 10744 
1396 1098 1429 1099 10518 10746 10749 10520 8610 10751 
1429 1098 1132 1099 10746 8835 10747 10751 8610 8836 
1099 1132 1430 1133 8836 10752 10753 8842 8844 10754 
1396 1430 1397 1099 10755 10756 10530 10520 10753 10525 
1099 1132 1429 1430 8836 10747 10751 10753 10752 10757 
1396 1430 1099 1429 10755 10753 10520 10749 10757 10751 
1397 1099 1430 1100 10525 10753 10756 10527 8617 10758 
1430 1099 1133 1100 10753 8842 10754 10758 8617 8843 
1100 1133 1431 1134 8843 10759 10760 8849 8851 10761 
1397 1431 1398 1100 10762 10763 10537 10527 10760 10532 
1100 1133 1430 1431 8843 10754 10758 10760 10759 10764 
1397 1431 1100 1430 10762 10760 10527 10756 10764 10758 
1398 1100 1431 1101 10532 10760 10763 10534 8624 10765 
1431 1100 1134 1101 10760 8849 10761 10765 8624 8850 
1101 1134 1432 1135 8850 10766 10767 8856 8858 10768 
1398 1432 1399 1101 10769 10770 10544 10534 10767 10539 
1101 1134 1431 1432 8850 10761 10765 10767 10766 10771 
1398 1432 1101 1431 10769 10767 10534 10763 10771 10765 
1399 1101 1432 1102 10539 10767 10770 10541 8631 10772 
1432 1101 1135 1102 10767 8856 10768 10772 8631 8857 
1102 1135 1433 1136 8857 10773 10774 8863 8865 10775 
1399 1433 1400 1102 10776 10777 10551 10541 10774 10546 
1102 1135 1432 1433 8857 10768 10772 10774 10773 10778 
1399 1433 1102 1432 10776 10774 10541 10770 10778 10772 
1400 1102 1433 1103 10546 10774 10777 10548 8638 10779 
1433 1102 1136 1103 10774 8863 10775 10779 8638 8864 
1103 1136 1434 1137 8864 10780 10781 8870 8872 10782 
1400 1434 1401 1103 10783 10784 10558 10548 10781 10553 
1103 1136 1433 1434 8864 10775 10779 10781 10780 10785 
1400 1434 1103 1433 10783 10781 10548 10777 10785 10779 
1401 1103 1434 1104 10553 10781 10784 10555 8645 10786 
1434 1103 1137 1104 10781 8870 10782 10786 8645 8871 
1104 1137 1435 1138 8871 10787 10788 8877 8879 10789 
1401 1435 1402 1104 10790 10791 10565 10555 10788 10560 
1104 1137 1434 1435 8871 10782 10786 10788 10787 10792 
1401 1435 1104 1434 10790 10788 10555 10784 10792 10786 
1402 1104 1435 1105 10560 10788 10791 10562 8652 10793 
1435 1104 1138 1105 10788 8877 10789 10793 8652 8878 
1105 1138 1436 1139 8878 10794 10795 8884 8886 10796 
1402 1436 1403 1105 10797 10798 10572 10562 10795 10567 
1105 1138 1435 1436 8878 10789 10793 10795 10794 10799 
1402 1436 1105 1435 10797 10795 10562 10791 10799 10793 
1403 1105 1436 1106 10567 10795 10798 10569 8659 10800 
1436 1105 1139 1106 10795 8884 10796 10800 8659 8885 
1106 1139 1437 1140 8885 10801 10802 8891 8893 10803 
1403 1437 1404 1106 10804 10805 10579 10569 10802 10574 
1106 1139 1436 1437 8885 10796 10800 10802 10801 10806 
1403 1437 1106 1436 10804 10802 10569 10798 10806 10800 
1404 1106 1437 1107 10574 10802 10805 10576 8666 10807 
1437 1106 1140 1107 10802 8891 10803 10807 8666 8892 
1107 1140 1438 1141 8892 10808 10809 8898 8900 10810 
1404 1438 1405 1107 10811 10812 10586 10576 10809 10581 
1107 1140 1437 1438 8892 10803 10807 10809 10808 10813 
1404 1438 1107 1437 10811 10809 10576 10805 10813 10807 
1405 1107 1438 1108 10581 10809 10812 10583 8673 10814 
1438 1107 1141 1108 10809 8898 10810 10814 8673 8899 
1108 1141 1439 1142 8899 10815 10816 8905 8907 10817 
1405 1439 1406 1108 10818 10819 10593 10583 10816 10588 
1108 1141 1438 1439 8899 10810 10814 10816 10815 10820 
1405 1439 1108 1438 10818 10816 10583 10812 10820 10814 
1406 1108 1439 1109 10588 10816 10819 10590 8680 10821 
1439 1108 1142 1109 10816 8905 10817 10821 8680 8906 
1109 1142 1440 1143 8906 10822 10823 8912 8914 10824 
1406 1440 1407 1109 10825 10826 10600 10590 10823 10595 
1109 1142 1439 1440 8906 10817 10821 10823 10822 10827 
1406 1440 1109 1439 10825 10823 10590 10819 10827 10821 
1407 1109 1440 1110 10595 10823 10826 10597 8687 10828 
1440 1109 1143 1110 10823 8912 10824 10828 8687 8913 
1110 1143 1441 1144 8913 10829 10830 8919 8921 10831 
1407 1441 1408 1110 10832 10833 10607 10597 10830 10602 
1110 1143 1440 1441 8913 10824 10828 10830 10829 10834 
1407 1441 1110 1440 10832 10830 10597 10826 10834 10828 
1408 1110 1441 1111 10602 10830 10833 10604 8694 10835 
1441 1110 1144 1111 10830 8919 10831 10835 8694 8920 
1111 1144 1442 1145 8920 10836 10837 8926 8928 10838 
1408 1442 1409 1111 10839 10840 10614 10604 10837 10609 
1111 1144 1441 1442 8920 10831 10835 10837 10836 10841 
1408 1442 1111 1441 10839 10837 10604 10833 10841 10835 
1409 1111 1442 1112 10609 10837 10840 10611 8701 10842 
1442 1111 1145 1112 10837 8926 10838 10842 8701 8927 
1112 1145 1443 1146 8927 10843 10844 8933 8935 10845 
1409 1443 1410 1112 10846 10847 10621 10611 10844 10616 
1112 1145 1442 1443 8927 10838 10842 10844 10843 10848 
1409 1443 1112 1442 10846 10844 10611 10840 10848 10842 
1410 1112 1443 1113 10616 10844 10847 10618 8708 10849 
1443 1112 1146 1113 10844 8933 10845 10849 8708 8934 
1113 1146 1444 1147 8934 10850 10851 8940 8942 10852 
1410 1444 1411 1113 10853 10854 10628 10618 10851 10623 
1113 1146 1443 1444 8934 10845 10849 10851 10850 10855 
1410 1444 1113 1443 10853 10851 10618 10847 10855 10849 
1411 1113 1444 1114 10623 10851 10854 10625 8715 10856 
1444 1113 1147 1114 10851 8940 10852 10856 8715 8941 
1114 1147 1445 1148 8941 10857 10858 8947 8949 10859 
1411 1445 1412 1114 10860 10861 10635 10625 10858 10630 
1114 1147 1444 1445 8941 10852 10856 10858 10857 10862 
1411 1445 1114 1444 10860 10858 10625 10854 10862 10856 
1412 1114 1445 1115 10630 10858 10861 10632 8722 10863 
1445 1114 1148 1115 10858 8947 10859 10863 8722 8948 
1115 1148 1446 1149 8948 10864 10865 8954 8956 10866 
1412 1446 1413 1115 10867 10868 10642 10632 10865 10637 
1115 1148 1445 1446 8948 10859 10863 10865 10864 10869 
1412 1446 1115 1445 10867 10865 10632 10861 10869 10863 
1413 1115 1446 1116 10637 10865 10868 10639 8729 10870 
1446 1115 1149 1116 10865 8954 10866 10870 8729 8955 
1116 1149 1447 1150 8955 10871 10872 8961 8963 10873 
1413 1447 1414 1116 10874 10875 10649 10639 10872 10644 
1116 1149 1446 1447 8955 10866 10870 10872 10871 10876 
1413 1447 1116 1446 10874 10872 10639 10868 10876 10870 
1414 1116 1447 1117 10644 10872 10875 10646 8736 10877 
1447 1116 1150 1117 10872 8961 10873 10877 8736 8962 
1117 1150 1448 1151 8962 10878 10879 8968 8970 10880 
1414 1448 1415 1117 10881 10882 10656 10646 10879 10651 
1117 1150 1447 1448 8962 10873 10877 10879 10878 10883 
1414 1448 1117 1447 10881 10879 10646 10875 10883 10877 
1415 1117 1448 1118 10651 10879 10882 10653 8743 10884 
1448 1117 1151 1118 10879 8968 10880 10884 8743 8969 
1118 1151 1449 1152 8969 10885 10886 8975 8977 10887 
1415 1449 1416 1118 10888 10889 10663 10653 10886 10658 
1118 1151 1448 1449 8969 10880 10884 10886 10885 10890 
1415 1449 1118 1448 10888 10886 10653 10882 10890 10884 
1416 1118 1449 1119 10658 10886 10889 10660 8750 10891 
1449 1118 1152 1119 10886 8975 10887 10891 8750 8976 
1119 1152 1450 1153 8976 10892 10893 8982 8984 10894 
1416 1450 1417 1119 10895 10896 10670 10660 10893 10665 
1119 1152 1449 1450 8976 10887 10891 10893 10892 10897 
1416 1450 1119 1449 10895 10893 10660 10889 10897 10891 
1417 1119 1450 1120 10665 10893 10896 10667 8757 10898 
1450 1119 1153 1120 10893 8982 10894 10898 8757 8983 
1120 1153 1451 1154 8983 10899 10900 8989 8991 10901 
1417 1451 1418 1120 10902 10903 10677 10667 10900 10672 
1120 1153 1450 1451 8983 10894 10898 10900 10899 10904 
1417 1451 1120 1450 10902 10900 10667 10896 10904 10898 
1418 1120 1451 1121 10672 10900 10903 10674 8764 10905 
1451 1120 1154 1121 10900 8989 10901 10905 8764 8990 
1122 1155 1453 1156 9001 10906 10907 8996 9000 10908 
1419 1453 1420 1122 10909 10910 10686 10684 10907 10679 
1122 1155 1452 1453 9001 10911 10912 10907 10906 10913 
1419 1453 1122 1452 10909 10907 10684 10914 10913 10912 
1420 1122 1453 1123 10679 10907 10910 10681 8773 10915 
1453 1122 1156 1123 10907 8996 10908 10915 8773 8997 
1123 1156 1454 1157 8997 10916 10917 9006 9008 10918 
1420 1454 1421 1123 10919 10920 10694 10681 10917 10689 
1123 1156 1453 1454 8997 10908 10915 10917 10916 10921 
1420 1454 1123 1453 10919 10917 10681 10910 10921 10915 
1421 1123 1454 1124 10689 10917 10920 10691 8781 10922 
1454 1123 1157 1124 10917 9006 10918 10922 8781 9007 
1124 1157 1455 1158 9007 10923 10924 9013 9015 10925 
1421 1455 1422 1124 10926 10927 10701 10691 10924 10696 
1124 1157 1454 1455 9007 10918 10922 10924 10923 10928 
1421 1455 1124 1454 10926 10924 10691 10920 10928 10922 
1422 1124 1455 1125 10696 10924 10927 10698 8788 10929 
1455 1124 1158 1125 10924 9013 10925 10929 8788 9014 
1125 1158 1456 1159 9014 10930 10931 9020 9022 10932 
1422 1456 1423 1125 10933 10934 10708 10698 10931 10703 
1125 1158 1455 1456 9014 10925 10929 10931 10930 10935 
1422 1456 1125 1455 10933 10931 10698 10927 10935 10929 
1423 1125 1456 1126 10703 10931 10934 10705 8795 10936 
1456 1125 1159 1126 10931 9020 10932 10936 8795 9021 
1126 1159 1457 1160 9021 10937 10938 9027 9029 10939 
1423 1457 1424 1126 10940 10941 10715 10705 10938 10710 
1126 1159 1456 1457 9021 10932 10936 10938 10937 10942 
1423 1457 1126 1456 10940 10938 10705 10934 10942 10936 
1424 1126 1457 1127 10710 10938 10941 10712 8802 10943 
1457 1126 1160 1127 10938 9027 10939 10943 8802 9028 
1127 1160 1458 1161 9028 10944 10945 9034 9036 10946 
1424 1458 1425 1127 10947 10948 10722 10712 10945 10717 
1127 1160 1457 1458 9028 10939 10943 10945 10944 10949 
1424 1458 1127 1457 10947 10945 10712 10941 10949 10943 
1425 1127 1458 1128 10717 10945 10948 10719 8809 10950 
1458 1127 1161 1128 10945 9034 10946 10950 8809 9035 
1128 1161 1459 1162 9035 10951 10952 9041 9043 10953 
1425 1459 1426 1128 10954 10955 10729 10719 10952 10724 
1128 1161 1458 1459 9035 10946 10950 10952 10951 10956 
1425 1459 1128 1458 10954 10952 10719 10948 10956 10950 
1426 1128 1459 1129 10724 10952 10955 10726 8816 10957 
1459 1128 1162 1129 10952 9041 10953 10957 8816 9042 
1129 1162 1460 1163 9042 10958 10959 9048 9050 10960 
1426 1460 1427 1129 10961 10962 10736 10726 10959 10731 
1129 1162 1459 1460 9042 10953 10957 10959 10958 10963 
1426 1460 1129 1459 10961 10959 10726 10955 10963 10957 
1427 1129 1460 1130 10731 10959 10962 10733 8823 10964 
1460 1129 1163 1130 10959 9048 10960 10964 8823 9049 
1130 1163 1461 1164 9049 10965 10966 9055 9057 10967 
1427 1461 1428 1130 10968 10969 10743 10733 10966 10738 
1130 1163 1460 1461 9049 10960 10964 10966 10965 10970 
1427 1461 1130 1460 10968 10966 10733 10962 10970 10964 
1428 1130 1461 1131 10738 10966 10969 10740 8830 10971 
1461 1130 1164 1131 10966 9055 10967 10971 8830 9056 
1131 1164 1462 1165 9056 10972 10973 9062 9064 10974 
1428 1462 1429 1131 10975 10976 10750 10740 10973 10745 
1131 1164 1461 1462 9056 10967 10971 10973 10972 10977 
1428 1462 1131 1461 10975 10973 10740 10969 10977 10971 
1429 1131 1462 1132 10745 10973 10976 10747 8837 10978 
1462 1131 1165 1132 10973 9062 10974 10978 8837 9063 
1132 1165 1463 1166 9063 10979 10980 9069 9071 10981 
1429 1463 1430 1132 10982 10983 10757 10747 10980 10752 
1132 1165 1462 1463 9063 10974 10978 10980 10979 10984 
1429 1463 1132 1462 10982 10980 10747 10976 10984 10978 
1430 1132 1463 1133 10752 10980 10983 10754 8844 10985 
1463 1132 1166 1133 10980 9069 10981 10985 8844 9070 
1133 1166 1464 1167 9070 10986 10987 9076 9078 10988 
1430 1464 1431 1133 10989 10990 10764 10754 10987 10759 
1133 1166 1463 1464 9070 10981 10985 10987 10986 10991 
1430 1464 1133 1463 10989 10987 10754 10983 10991 10985 
1431 1133 1464 1134 10759 10987 10990 10761 8851 10992 
1464 1133 1167 1134 10987 9076 10988 10992 8851 9077 
1134 1167 1465 1168 9077 10993 10994 9083 9085 10995 
1431 1465 1432 1134 10996 10997 10771 10761 10994 10766 
1134 1167 1464 1465 9077 10988 10992 10994 10993 10998 
1431 1465 1134 1464 10996 10994 10761 10990 10998 10992 
1432 1134 1465 1135 10766 10994 10997 10768 8858 10999 
1465 1134 1168 1135 10994 9083 10995 10999 8858 9084 
1135 1168 1466 1169 9084 11000 11001 9090 9092 11002 
1432 1466 1433 1135 11003 11004 10778 10768 11001 10773 
1135 1168 1465 1466 9084 10995 10999 11001 11000 11005 
1432 1466 1135 1465 11003 11001 10768 10997 11005 10999 
1433 1135 1466 1136 10773 11001 11004 10775 8865 11006 
1466 1135 1169 1136 11001 9090 11002 11006 8865 9091 
1136 1169 1467 1170 9091 11007 11008 9097 9099 11009 
1433 1467 1434 1136 11010 11011 10785 10775 11008 10780 
1136 1169 1466 1467 9091 11002 11006 11008 11007 11012 
1433 1467 1136 1466 11010 11008 10775 11004 11012 11006 
1434 1136 1467 1137 10780 11008 11011 10782 8872 11013 
1467 1136 1170 1137 11008 9097 11009 11013 8872 9098 
1137 1170 1468 1171 9098 11014 11015 9104 9106 11016 
1434 1468 1435 1137 11017 11018 10792 10782 11015 10787 
1137 1170 1467 1468 9098 11009 11013 11015 11014 11019 
1434 1468 1137 1467 11017 11015 10782 11011 11019 11013 
1435 1137 1468 1138 10787 11015 11018 10789 8879 11020 
1468 1137 1171 1138 11015 9104 11016 11020 8879 9105 
1138 1171 1469 1172 9105 11021 11022 9111 9113 11023 
1435 1469 1436 1138 11024 11025 10799 10789 11022 10794 
1138 1171 1468 1469 9105 11016 11020 11022 11021 11026 
1435 1469 1138 1468 11024 11022 10789 11018 11026 11020 
1436 1138 1469 1139 10794 11022 11025 10796 8886 11027 
1469 1138 1172 1139 11022 9111 11023 11027 8886 9112 
1139 1172 1470 1173 9112 11028 11029 9118 9120 11030 
1436 1470 1437 1139 11031 11032 10806 10796 11029 10801 
1139 1172 1469 1470 9112 11023 11027 11029 11028 11033 
1436 1470 1139 1469 11031 11029 10796 11025 11033 11027 
1437 1139 1470 1140 10801 11029 11032 10803 8893 11034 
1470 1139 1173 1140 11029 9118 11030 11034 8893 9119 
1140 1173 1471 1174 9119 11035 11036 9125 9127 11037 
1437 1471 1438 1140 11038 11039 10813 10803 11036 10808 
1140 1173 1470 1471 9119 11030 11034 11036 11035 11040 
1437 1471 1140 1470 11038 11036 10803 11032 11040 11034 
1438 1140 1471 1141 10808 11036 11039 10810 8900 11041 
1471 1140 1174 1141 11036 9125 11037 11041 8900 9126 
1141 1174 1472 1175 9126 11042 11043 9132 9134 11044 
1438 1472 1439 1141 11045 11046 10820 10810 11043 10815 
1141 1174 1471 1472 9126 11037 11041 11043 11042 11047 
1438 1472 1141 1471 11045 11043 10810 11039 11047 11041 
1439 1141 1472 1142 10815 11043 11046 10817 8907 11048 
1472 1141 1175 1142 11043 9132 11044 11048 8907 9133 
1142 1175 1473 1176 9133 11049 11050 9139 9141 11051 
1439 1473 1440 1142 11052 11053 10827 10817 11050 10822 
1142 1175 1472 1473 9133 11044 11048 11050 11049 11054 
1439 1473 1142 1472 11052 11050 10817 11046 11054 11048 
1440 1142 1473 1143 10822 11050 11053 10824 8914 11055 
1473 1142 1176 1143 11050 9139 11051 11055 8914 9140 
1143 1176 1474 1177 9140 11056 11057 9146 9148 11058 
1440 1474 1441 1143 11059 11060 10834 10824 11057 10829 
1143 1176 1473 1474 9140 11051 11055 11057 11056 11061 
1440 1474 1143 1473 11059 11057 10824 11053 11061 11055 
1441 1143 1474 1144 10829 11057 11060 10831 8921 11062 
1474 1143 1177 1144 11057 9146 11058 11062 8921 9147 
1144 1177 1475 1178 9147 11063 11064 9153 9155 11065 
1441 1475 1442 1144 11066 11067 10841 10831 11064 10836 
1144 1177 1474 1475 9147 11058 11062 11064 11063 11068 
1441 1475 1144 1474 11066 11064 10831 11060 11068 11062 
1442 1144 1475 1145 10836 11064 11067 10838 8928 11069 
1475 1144 1178 1145 11064 9153 11065 11069 8928 9154 
1145 1178 1476 1179 9154 11070 11071 9160 9162 11072 
1442 1476 1443 1145 11073 11074 10848 10838 11071 10843 
1145 1178 1475 1476 9154 11065 11069 11071 11070 11075 
1442 1476 1145 1475 11073 11071 10838 11067 11075 11069 
1443 1145 1476 1146 10843 11071 11074 10845 8935 11076 
1476 1145 1179 1146 11071 9160 11072 11076 8935 9161 
1146 1179 1477 1180 9161 11077 11078 9167 9169 11079 
1443 1477 1444 1146 11080 11081 10855 10845 11078 10850 
1146 1179 1476 1477 9161 11072 11076 11078 11077 11082 
1443 1477 1146 1476 11080 11078 10845 11074 11082 11076 
1444 1146 1477 1147 10850 11078 11081 10852 8942 11083 
1477 1146 1180 1147 11078 9167 11079 11083 8942 9168 
1147 1180 1478 1181 9168 11084 11085 9174 9176 11086 
1444 1478 1445 1147 11087 11088 10862 10852 11085 10857 
1147 1180 1477 1478 9168 11079 11083 11085 11084 11089 
1444 1478 1147 1477 11087 11085 10852 11081 11089 11083 
1445 1147 1478 1148 10857 11085 11088 10859 8949 11090 
1478 1147 1181 1148 11085 9174 11086 11090 8949 9175 
1148 1181 1479 1182 9175 11091 11092 9181 9183 11093 
1445 1479 1446 1148 11094 11095 10869 10859 11092 10864 
1148 1181 1478 1479 9175 11086 11090 11092 11091 11096 
1445 1479 1148 1478 11094 11092 10859 11088 11096 11090 
1446 1148 1479 1149 10864 11092 11095 10866 8956 11097 
1479 1148 1182 1149 11092 9181 11093 11097 8956 9182 
1149 1182 1480 1183 9182 11098 11099 9188 9190 11100 
1446 1480 1447 1149 11101 11102 10876 10866 11099 10871 
1149 1182 1479 1480 9182 11093 11097 11099 11098 11103 
1446 1480 1149 1479 11101 11099 10866 11095 11103 11097 
1447 1149 1480 1150 10871 11099 11102 10873 8963 11104 
1480 1149 1183 1150 11099 9188 11100 11104 8963 9189 
1150 1183 1481 1184 9189 11105 11106 9195 9197 11107 
1447 1481 1448 1150 11108 11109 10883 10873 11106 10878 
1150 1183 1480 1481 9189 11100 11104 11106 11105 11110 
1447 1481 1150 1480 11108 11106 10873 11102 11110 11104 
1448 1150 1481 1151 10878 11106 11109 10880 8970 11111 
1481 1150 1184 1151 11106 9195 11107 11111 8970 9196 
1151 1184 1482 1185 9196 11112 11113 9202 9204 11114 
1448 1482 1449 1151 11115 11116 10890 10880 11113 10885 
1151 1184 1481 1482 9196 11107 11111 11113 11112 11117 
1448 1482 1151 1481 11115 11113 10880 11109 11117 11111 
1449 1151 1482 1152 10885 11113 11116 10887 8977 11118 
1482 1151 1185 1152 11113 9202 11114 11118 8977 9203 
1152 1185 1483 1186 9203 11119 11120 9209 9211 11121 
1449 1483 1450 1152 11122 11123 10897 10887 11120 10892 
1152 1185 1482 1483 9203 11114 11118 11120 11119 11124 
1449 1483 1152 1482 11122 11120 10887 11116 11124 11118 
1450 1152 1483 1153 10892 11120 11123 10894 8984 11125 
1483 1152 1186 1153 11120 9209 11121 11125 8984 9210 
1153 1186 1484 1187 9210 11126 11127 9216 9218 11128 
1450 1484 1451 1153 11129 11130 10904 10894 11127 10899 
1153 1186 1483 1484 9210 11121 11125 11127 11126 11131 
1450 1484 1153 1483 11129 11127 10894 11123 11131 11125 
1451 1153 1484 1154 10899 11127 11130 10901 8991 11132 
1484 1153 1187 1154 11127 9216 11128 11132 8991 9217 
1188 1221 1519 1222 9231 11133 11134 9223 9230 11135 
1485 1519 1486 1188 11136 11137 11138 11139 11134 11140 
1188 1221 1518 1519 9231 11141 11142 11134 11133 11143 
1485 1519 1188 1518 11136 11134 11139 11144 11143 11142 
1486 1188 1519 1189 11140 11134 11137 11145 9225 11146 
1519 1188 1222 1189 11134 9223 11135 11146 9225 9224 
1189 1222 1520 1223 9224 11147 11148 9237 9241 11149 
1486 1520 1487 1189 11150 11151 11152 11145 11148 11153 
1189 1222 1519 1520 9224 11135 11146 11148 11147 11154 
1486 1520 1189 1519 11150 11148 11145 11137 11154 11146 
1487 1189 1520 1190 11153 11148 11151 11155 9239 11156 
1520 1189 1223 1190 11148 9237 11149 11156 9239 9238 
1190 1223 1521 1224 9238 11157 11158 9247 9251 11159 
1487 1521 1488 1190 11160 11161 11162 11155 11158 11163 
1190 1223 1520 1521 9238 11149 11156 11158 11157 11164 
1487 1521 1190 1520 11160 11158 11155 11151 11164 11156 
1488 1190 1521 1191 11163 11158 11161 11165 9249 11166 
1521 1190 1224 1191 11158 9247 11159 11166 9249 9248 
1191 1224 1522 1225 9248 11167 11168 9257 9261 11169 
1488 1522 1489 1191 11170 11171 11172 11165 11168 11173 
1191 1224 1521 1522 9248 11159 11166 11168 11167 11174 
1488 1522 1191 1521 11170 11168 11165 11161 11174 11166 
1489 1191 1522 1192 11173 11168 11171 11175 9259 11176 
1522 1191 1225 1192 11168 9257 11169 11176 9259 9258 
1192 1225 1523 1226 9258 11177 11178 9267 9271 11179 
1489 1523 1490 1192 11180 11181 11182 11175 11178 11183 
1192 1225 1522 1523 9258 11169 11176 11178 11177 11184 
1489 1523 1192 1522 11180 11178 11175 11171 11184 11176 
1490 1192 1523 1193 11183 11178 11181 11185 9269 11186 
1523 1192 1226 1193 11178 9267 11179 11186 9269 9268 
1193 1226 1524 1227 9268 11187 11188 9277 9281 11189 
1490 1524 1491 1193 11190 11191 11192 11185 11188 11193 
1193 1226 1523 1524 9268 11179 11186 11188 11187 11194 
1490 1524 1193 1523 11190 11188 11185 11181 11194 11186 
1491 1193 1524 1194 11193 11188 11191 11195 9279 11196 
1524 1193 1227 1194 11188 9277 11189 11196 9279 9278 
1194 1227 1525 1228 9278 11197 11198 9287 9291 11199 
1491 1525 1492 1194 11200 11201 11202 11195 11198 11203 
1194 1227 1524 1525 9278 11189 11196 11198 11197 11204 
1491 1525 1194 1524 11200 11198 11195 11191 11204 11196 
1492 1194 1525 1195 11203 11198 11201 11205 9289 11206 
1525 1194 1228 1195 11198 9287 11199 11206 9289 9288 
1195 1228 1526 1229 9288 11207 11208 9297 9301 11209 
1492 1526 1493 1195 11210 11211 11212 11205 11208 11213 
1195 1228 1525 1526 9288 11199 11206 11208 11207 11214 
1492 1526 1195 1525 11210 11208 11205 11201 11214 11206 
1493 1195 1526 1196 11213 11208 11211 11215 9299 11216 
1526 1195 1229 1196 11208 9297 11209 11216 9299 9298 
1196 1229 1527 1230 9298 11217 11218 9307 9311 11219 
1493 1527 1494 1196 11220 11221 11222 11215 11218 11223 
1196 1229 1526 1527 9298 11209 11216 11218 11217 11224 
1493 1527 1196 1526 11220 11218 11215 11211 11224 11216 
1494 1196 1527 1197 11223 11218 11221 11225 9309 11226 
1527 1196 1230 1197 11218 9307 11219 11226 9309 9308 
1197 1230 1528 1231 9308 11227 11228 9317 9321 11229 
1494 1528 1495 1197 11230 11231 11232 11225 11228 11233 
1197 1230 1527 1528 9308 11219 11226 11228 11227 11234 
1494 1528 1197 1527 11230 11228 11225 11221 11234 11226 
1495 1197 1528 1198 11233 11228 11231 11235 9319 11236 
1528 1197 1231 1198 11228 9317 11229 11236 9319 9318 
1198 1231 1529 1232 9318 11237 11238 9327 9331 11239 
1495 1529 1496 1198 11240 11241 11242 11235 11238 11243 
1198 1231 1528 1529 9318 11229 11236 11238 11237 11244 
1495 1529 1198 1528 11240 11238 11235 11231 11244 11236 
1496 1198 1529 1199 11243 11238 11241 11245 9329 11246 
1529 1198 1232 1199 11238 9327 11239 11246 9329 9328 
1199 1232 1530 1233 9328 11247 11248 9337 9341 11249 
1496 1530 1497 1199 11250 11251 11252 11245 11248 11253 
1199 1232 1529 1530 9328 11239 11246 11248 11247 11254 
1496 1530 1199 1529 11250 11248 11245 11241 11254 11246 
1497 1199 1530 1200 11253 11248 11251 11255 9339 11256 
1530 1199 1233 1200 11248 9337 11249 11256 9339 9338 
1200 1233 1531 1234 9338 11257 11258 9347 9351 11259 
1497 1531 1498 1200 11260 11261 11262 11255 11258 11263 
1200 1233 1530 1531 9338 11249 11256 11258 11257 11264 
1497 1531 1200 1530 11260 11258 11255 11251 11264 11256 
1498 1200 1531 1201 11263 11258 11261 11265 9349 11266 
1531 1200 1234 1201 11258 9347 11259 11266 9349 9348 
1201 1234 1532 1235 9348 11267 11268 9357 9361 11269 
1498 1532 1499 1201 11270 11271 11272 11265 11268 11273 
1201 1234 1531 1532 9348 11259 11266 11268 11267 11274 
1498 1532 1201 1531 11270 11268 11265 11261 11274 11266 
1499 1201 1532 1202 11273 11268 11271 11275 9359 11276 
1532 1201 1235 1202 11268 9357 11269 11276 9359 9358 
1202 1235 1533 1236 9358 11277 11278 9367 9371 11279 
1499 1533 1500 1202 11280 11281 11282 11275 11278 11283 
1202 1235 1532 1533 9358 11269 11276 11278 11277 11284 
1499 1533 1202 1532 11280 11278 11275 11271 11284 11276 
1500 1202 1533 1203 11283 11278 11281 11285 9369 11286 
1533 1202 1236 1203 11278 9367 11279 11286 9369 9368 
1203 1236 1534 1237 9368 11287 11288 9377 9381 11289 
1500 1534 1501 1203 11290 11291 11292 11285 11288 11293 
1203 1236 1533 1534 9368 11279 11286 11288 11287 11294 
1500 1534 1203 1533 11290 11288 11285 11281 11294 11286 
1501 1203 1534 1204 11293 11288 11291 11295 9379 11296 
1534 1203 1237 1204 11288 9377 11289 11296 9379 9378 
1204 1237 1535 1238 9378 11297 11298 9387 9391 11299 
1501 1535 1502 1204 11300 11301 11302 11295 11298 11303 
1204 1237 1534 1535 9378 11289 11296 11298 11297 11304 
1501 1535 1204 1534 11300 11298 11295 11291 11304 11296 
1502 1204 1535 1205 11303 11298 11301 11305 9389 11306 
1535 1204 1238 1205 11298 9387 11299 11306 9389 9388 
1205 1238 1536 1239 9388 11307 11308 9397 9401 11309 
1502 1536 1503 1205 11310 11311 11312 11305 11308 11313 
1205 1238 1535 1536 9388 11299 11306 11308 11307 11314 
1502 1536 1205 1535 11310 11308 11305 11301 11314 11306 
1503 1205 1536 1206 11313 11308 11311 11315 9399 11316 
1536 1205 1239 1206 11308 9397 11309 11316 9399 9398 
1206 1239 1537 1240 9398 11317 11318 9407 9411 11319 
1503 1537 1504 1206 11320 11321 11322 11315 11318 11323 
1206 1239 1536 1537 9398 11309 11316 11318 11317 11324 
1503 1537 1206 1536 11320 11318 11315 11311 11324 11316 
1504 1206 1537 1207 11323 11318 11321 11325 9409 11326 
1537 1206 1240 1207 11318 9407 11319 11326 9409 9408 
1207 1240 1538 1241 9408 11327 11328 9417 9421 11329 
1504 1538 1505 1207 11330 11331 11332 11325 11328 11333 
1207 1240 1537 1538 9408 11319 11326 11328 11327 11334 
1504 1538 1207 1537 11330 11328 11325 11321 11334 11326 
1505 1207 1538 1208 11333 11328 11331 11335 9419 11336 
1538 1207 1241 1208 11328 9417 11329 11336 9419 9418 
1208 1241 1539 1242 9418 11337 11338 9427 9431 11339 
1505 1539 1506 1208 11340 11341 11342 11335 11338 11343 
1208 1241 1538 1539 9418 11329 11336 11338 11337 11344 
1505 1539 1208 1538 11340 11338 11335 11331 11344 11336 
1506 1208 1539 1209 11343 11338 11341 11345 9429 11346 
1539 1208 1242 1209 11338 9427 11339 11346 9429 9428 
1209 1242 1540 1243 9428 11347 11348 9437 9441 11349 
1506 1540 1507 1209 11350 11351 11352 11345 11348 11353 
1209 1242 1539 1540 9428 11339 11346 11348 11347 11354 
1506 1540 1209 1539 11350 11348 11345 11341 11354 11346 
1507 1209 1540 1210 11353 11348 11351 11355 9439 11356 
1540 1209 1243 1210 11348 9437 11349 11356 9439 9438 
1210 1243 1541 1244 9438 11357 11358 9447 9451 11359 
1507 1541 1508 1210 11360 11361 11362 11355 11358 11363 
1210 1243 1540 1541 9438 11349 11356 11358 11357 11364 
1507 1541 1210 1540 11360 11358 11355 11351 11364 11356 
1508 1210 1541 1211 11363 11358 11361 11365 9449 11366 
1541 1210 1244 1211 11358 9447 11359 11366 9449 9448 
1211 1244 1542 1245 9448 11367 11368 9457 9461 11369 
1508 1542 1509 1211 11370 11371 11372 11365 11368 11373 
1211 1244 1541 1542 9448 11359 11366 11368 11367 11374 
1508 1542 1211 1541 11370 11368 11365 11361 11374 11366 
1509 1211 1542 1212 11373 11368 11371 11375 9459 11376 
1542 1211 1245 1212 11368 9457 11369 11376 9459 9458 
1212 1245 1543 1246 9458 11377 11378 9467 9471 11379 
1509 1543 1510 1212 11380 11381 11382 11375 11378 11383 
1212 1245 1542 1543 9458 11369 11376 11378 11377 11384 
1509 1543 1212 1542 11380 11378 11375 11371 11384 11376 
1510 1212 1543 1213 11383 11378 11381 11385 9469 11386 
1543 1212 1246 1213 11378 9467 11379 11386 9469 9468 
1213 1246 1544 1247 9468 11387 11388 9477 9481 11389 
1510 1544 1511 1213 11390 11391 11392 11385 11388 11393 
1213 1246 1543 1544 9468 11379 11386 11388 11387 11394 
1510 1544 1213 1543 11390 11388 11385 11381 11394 11386 
1511 1213 1544 1214 11393 11388 11391 11395 9479 11396 
1544 1213 1247 1214 11388 9477 11389 11396 9479 9478 
1214 1247 1545 1248 9478 11397 11398 9487 9491 11399 
1511 1545 1512 1214 11400 11401 11402 11395 11398 11403 
1214 1247 1544 1545 9478 11389 11396 11398 11397 11404 
1511 1545 1214 1544 11400 11398 11395 11391 11404 11396 
1512 1214 1545 1215 11403 11398 11401 11405 9489 11406 
1545 1214 1248 1215 11398 9487 11399 11406 9489 9488 
1215 1248 1546 1249 9488 11407 11408 9497 9501 11409 
1512 1546 1513 1215 11410 11411 11412 11405 11408 11413 
1215 1248 1545 1546 9488 11399 11406 11408 11407 11414 
1512 1546 1215 1545 11410 11408 11405 11401 11414 11406 
1513 1215 1546 1216 11413 11408 11411 11415 9499 11416 
1546 1215 1249 1216 11408 9497 11409 11416 9499 9498 
1216 1249 1547 1250 9498 11417 11418 9507 9511 11419 
1513 1547 1514 1216 11420 11421 11422 11415 11418 11423 
1216 1249 1546 1547 9498 11409 11416 11418 11417 11424 
1513 1547 1216 1546 11420 11418 11415 11411 11424 11416 
1514 1216 1547 1217 11423 11418 11421 11425 9509 11426 
1547 1216 1250 1217 11418 9507 11419 11426 9509 9508 
1217 1250 1548 1251 9508 11427 11428 9517 9521 11429 
1514 1548 1515 1217 11430 11431 11432 11425 11428 11433 
1217 1250 1547 1548 9508 11419 11426 11428 11427 11434 
1514 1548 1217 1547 11430 11428 11425 11421 11434 11426 
1515 1217 1548 1218 11433 11428 11431 11435 9519 11436 
1548 1217 1251 1218 11428 9517 11429 11436 9519 9518 
1218 1251 1549 1252 9518 11437 11438 9527 9531 11439 
1515 1549 1516 1218 11440 11441 11442 11435 11438 11443 
1218 1251 1548 1549 9518 11429 11436 11438 11437 11444 
1515 1549 1218 1548 11440 11438 11435 11431 11444 11436 
1516 1218 1549 1219 11443 11438 11441 11445 9529 11446 
1549 1218 1252 1219 11438 9527 11439 11446 9529 9528 
1219 1252 1550 1253 9528 11447 11448 9537 9541 11449 
1516 1550 1517 1219 11450 11451 11452 11445 11448 11453 
1219 1252 1549 1550 9528 11439 11446 11448 11447 11454 
1516 1550 1219 1549 11450 11448 11445 11441 11454 11446 
1517 1219 1550 1220 11453 11448 11451 11455 9539 11456 
1550 1219 1253 1220 11448 9537 11449 11456 9539 9538 
1221 1254 1552 1255 9552 11457 11458 9547 9551 11459 
1518 1552 1519 1221 11460 11461 11143 11141 11458 11133 
1221 1254 1551 1552 9552 11462 11463 11458 11457 11464 
1518 1552 1221 1551 11460 11458 11141 11465 11464 11463 
1519 1221 1552 1222 11133 11458 11461 11135 9230 11466 
1552 1221 1255 1222 11458 9547 11459 11466 9230 9548 
1222 1255 1553 1256 9548 11467 11468 9557 9559 11469 
1519 1553 1520 1222 11470 11471 11154 11135 11468 11147 
1222 1255 1552 1553 9548 11459 11466 11468 11467 11472 
1519 1553 1222 1552 11470 11468 11135 11461 11472 11466 
1520 1222 1553 1223 11147 11468 11471 11149 9241 11473 
1553 1222 1256 1223 11468 9557 11469 11473 9241 9558 
1223 1256 1554 1257 9558 11474 11475 9564 9566 11476 
1520 1554 1521 1223 11477 11478 11164 11149 11475 11157 
1223 1256 1553 1554 9558 11469 11473 11475 11474 11479 
1520 1554 1223 1553 11477 11475 11149 11471 11479 11473 
1521 1223 1554 1224 11157 11475 11478 11159 9251 11480 
1554 1223 1257 1224 11475 9564 11476 11480 9251 9565 
1224 1257 1555 1258 9565 11481 11482 9571 9573 11483 
1521 1555 1522 1224 11484 11485 11174 11159 11482 11167 
1224 1257 1554 1555 9565 11476 11480 11482 11481 11486 
1521 1555 1224 1554 11484 11482 11159 11478 11486 11480 
1522 1224 1555 1225 11167 11482 11485 11169 9261 11487 
1555 1224 1258 1225 11482 9571 11483 11487 9261 9572 
1225 1258 1556 1259 9572 11488 11489 9578 9580 11490 
1522 1556 1523 1225 11491 11492 11184 11169 11489 11177 
1225 1258 1555 1556 9572 11483 11487 11489 11488 11493 
1522 1556 1225 1555 11491 11489 11169 11485 11493 11487 
1523 1225 1556 1226 11177 11489 11492 11179 9271 11494 
1556 1225 1259 1226 11489 9578 11490 11494 9271 9579 
1226 1259 1557 1260 9579 11495 11496 9585 9587 11497 
1523 1557 1524 1226 11498 11499 11194 11179 11496 11187 
1226 1259 1556 1557 9579 11490 11494 11496 11495 11500 
1523 1557 1226 1556 11498 11496 11179 11492 11500 11494 
1524 1226 1557 1227 11187 11496 11499 11189 9281 11501 
1557 1226 1260 1227 11496 9585 11497 11501 9281 9586 
1227 1260 1558 1261 9586 11502 11503 9592 9594 11504 
1524 1558 1525 1227 11505 11506 11204 11189 11503 11197 
1227 1260 1557 1558 9586 11497 11501 11503 11502 11507 
1524 1558 1227 1557 11505 11503 11189 11499 11507 11501 
1525 1227 1558 1228 11197 11503 11506 11199 9291 11508 
1558 1227 1261 1228 11503 9592 11504 11508 9291 9593 
1228 1261 1559 1262 9593 11509 11510 9599 9601 11511 
1525 1559 1526 1228 11512 11513 11214 11199 11510 11207 
1228 1261 1558 1559 9593 11504 11508 11510 11509 11514 
1525 1559 1228 1558 11512 11510 11199 11506 11514 11508 
1526 1228 1559 1229 11207 11510 11513 11209 9301 11515 
1559 1228 1262 1229 11510 9599 11511 11515 9301 9600 
1229 1262 1560 1263 9600 11516 11517 9606 9608 11518 
1526 1560 1527 1229 11519 11520 11224 11209 11517 11217 
1229 1262 1559 1560 9600 11511 11515 11517 11516 11521 
1526 1560 1229 1559 11519 11517 11209 11513 11521 11515 
1527 1229 1560 1230 11217 11517 11520 11219 9311 11522 
1560 1229 1263 1230 11517 9606 11518 11522 9311 9607 
1230 1263 1561 1264 9607 11523 11524 9613 9615 11525 
1527 1561 1528 1230 11526 11527 11234 11219 11524 11227 
1230 1263 1560 1561 9607 11518 11522 11524 11523 11528 
1527 1561 1230 1560 11526 11524 11219 11520 11528 11522 
1528 1230 1561 1231 11227 11524 11527 11229 9321 11529 
1561 1230 1264 1231 11524 9613 11525 11529 9321 9614 
1231 1264 1562 1265 9614 11530 11531 9620 9622 11532 
1528 1562 1529 1231 11533 11534 11244 11229 11531 11237 
1231 1264 1561 1562 9614 11525 11529 11531 11530 11535 
1528 1562 1231 1561 11533 11531 11229 11527 11535 11529 
1529 1231 1562 1232 11237 11531 11534 11239 9331 11536 
1562 1231 1265 1232 11531 9620 11532 11536 9331 9621 
1232 1265 1563 1266 9621 11537 11538 9627 9629 11539 
1529 1563 1530 1232 11540 11541 11254 11239 11538 11247 
1232 1265 1562 1563 9621 11532 11536 11538 11537 11542 
1529 1563 1232 1562 11540 11538 11239 11534 11542 11536 
1530 1232 1563 1233 11247 11538 11541 11249 9341 11543 
1563 1232 1266 1233 11538 9627 11539 11543 9341 9628 
1233 1266 1564 1267 9628 11544 11545 9634 9636 11546 
1530 1564 1531 1233 11547 11548 11264 11249 11545 11257 
1233 1266 1563 1564 9628 11539 11543 11545 11544 11549 
1530 1564 1233 1563 11547 11545 11249 11541 11549 11543 
1531 1233 1564 1234 11257 11545 11548 11259 9351 11550 
1564 1233 1267 1234 11545 9634 11546 11550 9351 9635 
1234 1267 1565 1268 9635 11551 11552 9641 9643 11553 
1531 1565 1532 1234 11554 11555 11274 11259 11552 11267 
1234 1267 1564 1565 9635 11546 11550 11552 11551 11556 
1531 1565 1234 1564 11554 11552 11259 11548 11556 11550 
1532 1234 1565 1235 11267 11552 11555 11269 9361 11557 
1565 1234 1268 1235 11552 9641 11553 11557 9361 9642 
1235 1268 1566 1269 9642 11558 11559 9648 9650 11560 
1532 1566 1533 1235 11561 11562 11284 11269 11559 11277 
1235 1268 1565 1566 9642 11553 11557 11559 11558 11563 
1532 1566 1235 1565 11561 11559 11269 11555 11563 11557 
1533 1235 1566 1236 11277 11559 11562 11279 9371 11564 
1566 1235 1269 1236 11559 9648 11560 11564 9371 9649 
1236 1269 1567 1270 9649 11565 11566 9655 9657 11567 
1533 1567 1534 1236 11568 11569 11294 11279 11566 11287 
1236 1269 1566 1567 9649 11560 11564 11566 11565 11570 
1533 1567 1236 1566 11568 11566 11279 11562 11570 11564 
1534 1236 1567 1237 11287 11566 11569 11289 9381 11571 
1567 1236 1270 1237 11566 9655 11567 11571 9381 9656 
1237 1270 1568 1271 9656 11572 11573 9662 9664 11574 
1534 1568 1535 1237 11575 11576 11304 11289 11573 11297 
1237 1270 1567 1568 9656 11567 11571 11573 11572 11577 
1534 1568 1237 1567 11575 11573 11289 11569 11577 11571 
1535 1237 1568 1238 11297 11573 11576 11299 9391 11578 
1568 1237 1271 1238 11573 9662 11574 11578 9391 9663 
1238 1271 1569 1272 9663 11579 11580 9669 9671 11581 
1535 1569 1536 1238 11582 11583 11314 11299 11580 11307 
1238 1271 1568 1569 9663 11574 11578 11580 11579 11584 
1535 1569 1238 1568 11582 11580 11299 11576 11584 11578 
1536 1238 1569 1239 11307 11580 11583 11309 9401 11585 
1569 1238 1272 1239 11580 9669 11581 11585 9401 9670 
1239 1272 1570 1273 9670 11586 11587 9676 9678 11588 
1536 1570 1537 1239 11589 11590 11324 11309 11587 11317 
1239 1272 1569 1570 9670 11581 11585 11587 11586 11591 
1536 1570 1239 1569 11589 11587 11309 11583 11591 11585 
1537 1239 1570 1240 11317 11587 11590 11319 9411 11592 
1570 1239 1273 1240 11587 9676 11588 11592 9411 9677 
1240 1273 1571 1274 9677 11593 11594 9683 9685 11595 
1537 1571 1538 1240 11596 11597 11334 11319 11594 11327 
1240 1273 1570 1571 9677 11588 11592 11594 11593 11598 
1537 1571 1240 1570 11596 11594 11319 11590 11598 11592 
1538 1240 1571 1241 11327 11594 11597 11329 9421 11599 
1571 1240 1274 1241 11594 9683 11595 11599 9421 9684 
1241 1274 1572 1275 9684 11600 11601 9690 9692 11602 
1538 1572 1539 1241 11603 11604 11344 11329 11601 11337 
1241 1274 1571 1572 9684 11595 11599 11601 11600 11605 
1538 1572 1241 1571 11603 11601 11329 11597 11605 11599 
1539 1241 1572 1242 11337 11601 11604 11339 9431 11606 
1572 1241 1275 1242 11601 9690 11602 11606 9431 9691 
1242 1275 1573 1276 9691 11607 11608 9697 9699 11609 
1539 1573 1540 1242 11610 11611 11354 11339 11608 11347 
1242 1275 1572 1573 9691 11602 11606 11608 11607 11612 
1539 1573 1242 1572 11610 11608 11339 11604 11612 11606 
1540 1242 1573 1243 11347 11608 11611 11349 9441 11613 
1573 1242 1276 1243 11608 9697 11609 11613 9441 9698 
1243 1276 1574 1277 9698 11614 11615 9704 9706 11616 
1540 1574 1541 1243 11617 11618 11364 11349 11615 11357 
1243 1276 1573 1574 9698 11609 11613 11615 11614 11619 
1540 1574 1243 1573 11617 11615 11349 11611 11619 11613 
1541 1243 1574 1244 11357 11615 11618 11359 9451 11620 
1574 1243 1277 1244 11615 9704 11616 11620 9451 9705 
1244 1277 1575 1278 9705 11621 11622 9711 9713 11623 
1541 1575 1542 1244 11624 11625 11374 11359 11622 11367 
1244 1277 1574 1575 9705 11616 11620 11622 11621 11626 
1541 1575 1244 1574 11624 11622 11359 11618 11626 11620 
1542 1244 1575 1245 11367 11622 11625 11369 9461 11627 
1575 1244 1278 1245 11622 9711 11623 11627 9461 9712 
1245 1278 1576 1279 9712 11628 11629 9718 9720 11630 
1542 1576 1543 1245 11631 11632 11384 11369 11629 11377 
1245 1278 1575 1576 9712 11623 11627 11629 11628 11633 
1542 1576 1245 1575 11631 11629 11369 11625 11633 11627 
1543 1245 1576 1246 11377 11629 11632 11379 9471 11634 
1576 1245 1279 1246 11629 9718 11630 11634 9471 9719 
1246 1279 1577 1280 9719 11635 11636 9725 9727 11637 
1543 1577 1544 1246 11638 11639 11394 11379 11636 11387 
1246 1279 1576 1577 9719 11630 11634 11636 11635 11640 
1543 1577 1246 1576 11638 11636 11379 11632 11640 11634 
1544 1246 1577 1247 11387 11636 11639 11389 9481 11641 
1577 1246 1280 1247 11636 9725 11637 11641 9481 9726 
1247 1280 1578 1281 9726 11642 11643 9732 9734 11644 
1544 1578 1545 1247 11645 11646 11404 11389 11643 11397 
1247 1280 1577 1578 9726 11637 11641 11643 11642 11647 
1544 1578 1247 1577 11645 11643 11389 11639 11647 11641 
1545 1247 1578 1248 11397 11643 11646 11399 9491 11648 
1578 1247 1281 1248 11643 9732 11644 11648 9491 9733 
1248 1281 1579 1282 9733 11649 11650 9739 9741 11651 
1545 1579 1546 1248 11652 11653 11414 11399 11650 11407 
1248 1281 1578 1579 9733 11644 11648 11650 11649 11654 
1545 1579 1248 1578 11652 11650 11399 11646 11654 11648 
1546 1248 1579 1249 11407 11650 11653 11409 9501 11655 
1579 1248 1282 1249 11650 9739 11651 11655 9501 9740 
1249 1282 1580 1283 9740 11656 11657 9746 9748 11658 
1546 1580 1547 1249 11659 11660 11424 11409 11657 11417 
1249 1282 1579 1580 9740 11651 11655 11657 11656 11661 
1546 1580 1249 1579 11659 11657 11409 11653 11661 11655 
1547 1249 1580 1250 11417 11657 11660 11419 9511 11662 
1580 1249 1283 1250 11657 9746 11658 11662 9511 9747 
1250 1283 1581 1284 9747 11663 11664 9753 9755 11665 
1547 1581 1548 1250 11666 11667 11434 11419 11664 11427 
1250 1283 1580 1581 9747 11658 11662 11664 11663 11668 
1547 1581 1250 1580 11666 11664 11419 11660 11668 11662 
1548 1250 1581 1251 11427 11664 11667 11429 9521 11669 
1581 1250 1284 1251 11664 9753 11665 11669 9521 9754 
1251 1284 1582 1285 9754 11670 11671 9760 9762 11672 
1548 1582 1549 1251 11673 11674 11444 11429 11671 11437 
1251 1284 1581 1582 9754 11665 11669 11671 11670 11675 
1548 1582 1251 1581 11673 11671 11429 11667 11675 11669 
1549 1251 1582 1252 11437 11671 11674 11439 9531 11676 
1582 1251 1285 1252 11671 9760 11672 11676 9531 9761 
1252 1285 1583 1286 9761 11677 11678 9767 9769 11679 
1549 1583 1550 1252 11680 11681 11454 11439 11678 11447 
1252 1285 1582 1583 9761 11672 11676 11678 11677 11682 
1549 1583 1252 1582 11680 11678 11439 11674 11682 11676 
1550 1252 1583 1253 11447 11678 11681 11449 9541 11683 
1583 1252 1286 1253 11678 9767 11679 11683 9541 9768 
1254 1287 1585 1288 9779 11684 11685 9774 9778 11686 
1551 1585 1552 1254 11687 11688 11464 11462 11685 11457 
1254 1287 1584 1585 9779 11689 11690 11685 11684 11691 
1551 1585 1254 1584 11687 11685 11462 11692 11691 11690 
1552 1254 1585 1255 11457 11685 11688 11459 9551 11693 
1585 1254 1288 1255 11685 9774 11686 11693 9551 9775 
1255 1288 1586 1289 9775 11694 11695 9784 9786 11696 
1552 1586 1553 1255 11697 11698 11472 11459 11695 11467 
1255 1288 1585 1586 9775 11686 11693 11695 11694 11699 
1552 1586 1255 1585 11697 11695 11459 11688 11699 11693 
1553 1255 1586 1256 11467 11695 11698 11469 9559 11700 
1586 1255 1289 1256 11695 9784 11696 11700 9559 9785 
1256 1289 1587 1290 9785 11701 11702 9791 9793 11703 
1553 1587 1554 1256 11704 11705 11479 11469 11702 11474 
1256 1289 1586 1587 9785 11696 11700 11702 11701 11706 
1553 1587 1256 1586 11704 11702 11469 11698 11706 11700 
1554 1256 1587 1257 11474 11702 11705 11476 9566 11707 
1587 1256 1290 1257 11702 9791 11703 11707 9566 9792 
1257 1290 1588 1291 9792 11708 11709 9798 9800 11710 
1554 1588 1555 1257 11711 11712 11486 11476 11709 11481 
1257 1290 1587 1588 9792 11703 11707 11709 11708 11713 
1554 1588 1257 1587 11711 11709 11476 11705 11713 11707 
1555 1257 1588 1258 11481 11709 11712 11483 9573 11714 
1588 1257 1291 1258 11709 9798 11710 11714 9573 9799 
1258 1291 1589 1292 9799 11715 11716 9805 9807 11717 
1555 1589 1556 1258 11718 11719 11493 11483 11716 11488 
1258 1291 1588 1589 9799 11710 11714 11716 11715 11720 
1555 1589 1258 1588 11718 11716 11483 11712 11720 11714 
1556 1258 1589 1259 11488 11716 11719 11490 9580 11721 
1589 1258 1292 1259 11716 9805 11717 11721 9580 9806 
1259 1292 1590 1293 9806 11722 11723 9812 9814 11724 
1556 1590 1557 1259 11725 11726 11500 11490 11723 11495 
1259 1292 1589 1590 9806 11717 11721 11723 11722 11727 
1556 1590 1259 1589 11725 11723 11490 11719 11727 11721 
1557 1259 1590 1260 11495 11723 11726 11497 9587 11728 
1590 1259 1293 1260 11723 9812 11724 11728 9587 9813 
1260 1293 1591 1294 9813 11729 11730 9819 9821 11731 
1557 1591 1558 1260 11732 11733 11507 11497 11730 11502 
1260 1293 1590 1591 9813 11724 11728 11730 11729 11734 
1557 1591 1260 1590 11732 11730 11497 11726 11734 11728 
1558 1260 1591 1261 11502 11730 11733 11504 9594 11735 
1591 1260 1294 1261 11730 9819 11731 11735 9594 9820 
1261 1294 1592 1295 9820 11736 11737 9826 9828 11738 
1558 1592 1559 1261 11739 11740 11514 11504 11737 11509 
1261 1294 1591 1592 9820 11731 11735 11737 11736 11741 
1558 1592 1261 1591 11739 11737 11504 11733 11741 11735 
1559 1261 1592 1262 11509 11737 11740 11511 9601 11742 
1592 1261 1295 1262 11737 9826 11738 11742 9601 9827 
1262 1295 1593 1296 9827 11743 11744 9833 9835 11745 
1559 1593 1560 1262 11746 11747 11521 11511 11744 11516 
1262 1295 1592 1593 9827 11738 11742 11744 11743 11748 
1559 1593 1262 1592 11746 11744 11511 11740 11748 11742 
1560 1262 1593 1263 11516 11744 11747 11518 9608 11749 
1593 1262 1296 1263 11744 9833 11745 11749 9608 9834 
1263 1296 1594 1297 9834 11750 11751 9840 9842 11752 
1560 1594 1561 1263 11753 11754 11528 11518 11751 11523 
1263 1296 1593 1594 9834 11745 11749 11751 11750 11755 
1560 1594 1263 1593 11753 11751 11518 11747 11755 11749 
1561 1263 1594 1264 11523 11751 11754 11525 9615 11756 
1594 1263 1297 1264 11751 9840 11752 11756 9615 9841 
1264 1297 1595 1298 9841 11757 11758 9847 9849 11759 
1561 1595 1562 1264 11760 11761 11535 11525 11758 11530 
1264 1297 1594 1595 9841 11752 11756 11758 11757 11762 
1561 1595 1264 1594 11760 11758 11525 11754 11762 11756 
1562 1264 1595 1265 11530 11758 11761 11532 9622 11763 
1595 1264 1298 1265 11758 9847 11759 11763 9622 9848 
1265 1298 1596 1299 9848 11764 11765 9854 9856 11766 
1562 1596 1563 1265 11767 11768 11542 11532 11765 11537 
1265 1298 1595 1596 9848 11759 11763 11765 11764 11769 
1562 1596 1265 1595 11767 11765 11532 11761 11769 11763 
1563 1265 1596 1266 11537 11765 11768 11539 9629 11770 
1596 1265 1299 1266 11765 9854 11766 11770 9629 9855 
1266 1299 1597 1300 9855 11771 11772 9861 9863 11773 
1563 1597 1564 1266 11774 11775 11549 11539 11772 11544 
1266 1299 1596 1597 9855 11766 11770 11772 11771 11776 
1563 1597 1266 1596 11774 11772 11539 11768 11776 11770 
1564 1266 1597 1267 11544 11772 11775 11546 9636 11777 
1597 1266 1300 1267 11772 9861 11773 11777 9636 9862 
1267 1300 1598 1301 9862 11778 11779 9868 9870 11780 
1564 1598 1565 1267 11781 11782 11556 11546 11779 11551 
1267 1300 1597 1598 9862 11773 11777 11779 11778 11783 
1564 1598 1267 1597 11781 11779 11546 11775 11783 11777 
1565 1267 1598 1268 11551 11779 11782 11553 9643 11784 
1598 1267 1301 1268 11779 9868 11780 11784 9643 9869 
1268 1301 1599 1302 9869 11785 11786 9875 9877 11787 
1565 1599 1566 1268 11788 11789 11563 11553 11786 11558 
1268 1301 1598 1599 9869 11780 11784 11786 11785 11790 
1565 1599 1268 1598 11788 11786 11553 11782 11790 11784 
1566 1268 1599 1269 11558 11786 11789 11560 9650 11791 
1599 1268 1302 1269 11786 9875 11787 11791 9650 9876 
1269 1302 1600 1303 9876 11792 11793 9882 9884 11794 
1566 1600 1567 1269 11795 11796 11570 11560 11793 11565 
1269 1302 1599 1600 9876 11787 11791 11793 11792 11797 
1566 1600 1269 1599 11795 11793 11560 11789 11797 11791 
1567 1269 1600 1270 11565 11793 11796 11567 9657 11798 
1600 1269 1303 1270 11793 9882 11794 11798 9657 9883 
1270 1303 1601 1304 9883 11799 11800 9889 9891 11801 
1567 1601 1568 1270 11802 11803 11577 11567 11800 11572 
1270 1303 1600 1601 9883 11794 11798 11800 11799 11804 
1567 1601 1270 1600 11802 11800 11567 11796 11804 11798 
1568 1270 1601 1271 11572 11800 11803 11574 9664 11805 
1601 1270 1304 1271 11800 9889 11801 11805 9664 9890 
1271 1304 1602 1305 9890 11806 11807 9896 9898 11808 
1568 1602 1569 1271 11809 11810 11584 11574 11807 11579 
1271 1304 1601 1602 9890 11801 11805 11807 11806 11811 
1568 1602 1271 1601 11809 11807 11574 11803 11811 11805 
1569 1271 1602 1272 11579 11807 11810 11581 9671 11812 
1602 1271 1305 1272 11807 9896 11808 11812 9671 9897 
1272 1305 1603 1306 9897 11813 11814 9903 9905 11815 
1569 1603 1570 1272 11816 11817 11591 11581 11814 11586 
1272 1305 1602 1603 9897 11808 11812 11814 11813 11818 
1569 1603 1272 1602 11816 11814 11581 11810 11818 11812 
1570 1272 1603 1273 11586 11814 11817 11588 9678 11819 
1603 1272 1306 1273 11814 9903 11815 11819 9678 9904 
1273 1306 1604 1307 9904 11820 11821 9910 9912 11822 
1570 1604 1571 1273 11823 11824 11598 11588 11821 11593 
1273 1306 1603 1604 9904 11815 11819 11821 11820 11825 
1570 1604 1273 1603 11823 11821 11588 11817 11825 11819 
1571 1273 1604 1274 11593 11821 11824 11595 9685 11826 
1604 1273 1307 1274 11821 9910 11822 11826 9685 9911 
1274 1307 1605 1308 9911 11827 11828 9917 9919 11829 
1571 1605 1572 1274 11830 11831 11605 11595 11828 11600 
1274 1307 1604 1605 9911 11822 11826 11828 11827 11832 
1571 1605 1274 1604 11830 11828 11595 11824 11832 11826 
1572 1274 1605 1275 11600 11828 11831 11602 9692 11833 
1605 1274 1308 1275 11828 9917 11829 11833 9692 9918 
1275 1308 1606 1309 9918 11834 11835 9924 9926 11836 
1572 1606 1573 1275 11837 11838 11612 11602 11835 11607 
1275 1308 1605 1606 9918 11829 11833 11835 11834 11839 
1572 1606 1275 1605 11837 11835 11602 11831 11839 11833 
1573 1275 1606 1276 11607 11835 11838 11609 9699 11840 
1606 1275 1309 1276 11835 9924 11836 11840 9699 9925 
1276 1309 1607 1310 9925 11841 11842 9931 9933 11843 
1573 1607 1574 1276 11844 11845 11619 11609 11842 11614 
1276 1309 1606 1607 9925 11836 11840 11842 11841 11846 
1573 1607 1276 1606 11844 11842 11609 11838 11846 11840 
1574 1276 1607 1277 11614 11842 11845 11616 9706 11847 
1607 1276 1310 1277 11842 9931 11843 11847 9706 9932 
1277 1310 1608 1311 9932 11848 11849 9938 9940 11850 
1574 1608 1575 1277 11851 11852 11626 11616 11849 11621 
1277 1310 1607 1608 9932 11843 11847 11849 11848 11853 
1574 1608 1277 1607 11851 11849 11616 11845 11853 11847 
1575 1277 1608 1278 11621 11849 11852 11623 9713 11854 
1608 1277 1311 1278 11849 9938 11850 11854 9713 9939 
1278 1311 1609 1312 9939 11855 11856 9945 9947 11857 
1575 1609 1576 1278 11858 11859 11633 11623 11856 11628 
1278 1311 1608 1609 9939 11850 11854 11856 11855 11860 
1575 1609 1278 1608 11858 11856 11623 11852 11860 11854 
1576 1278 1609 1279 11628 11856 11859 11630 9720 11861 
1609 1278 1312 1279 11856 9945 11857 11861 9720 9946 
1279 1312 1610 1313 9946 11862 11863 9952 9954 11864 
1576 1610 1577 1279 11865 11866 11640 11630 11863 11635 
1279 1312 1609 1610 9946 11857 11861 11863 11862 11867 
1576 1610 1279 1609 11865 11863 11630 11859 11867 11861 
1577 1279 1610 1280 11635 11863 11866 11637 9727 11868 
1610 1279 1313 1280 11863 9952 11864 11868 9727 9953 
1280 1313 1611 1314 9953 11869 11870 9959 9961 11871 
1577 1611 1578 1280 11872 11873 11647 11637 11870 11642 
1280 1313 1610 1611 9953 11864 11868 11870 11869 11874 
1577 1611 1280 1610 11872 11870 11637 11866 11874 11868 
1578 1280 1611 1281 11642 11870 11873 11644 9734 11875 
1611 1280 1314 1281 11870 9959 11871 11875 9734 9960 
1281 1314 1612 1315 9960 11876 11877 9966 9968 11878 
1578 1612 1579 1281 11879 11880 11654 11644 11877 11649 
1281 1314 1611 1612 9960 11871 11875 11877 11876 11881 
1578 1612 1281 1611 11879 11877 11644 11873 11881 11875 
1579 1281 1612 1282 11649 11877 11880 11651 9741 11882 
1612 1281 1315 1282 11877 9966 11878 11882 9741 9967 
1282 1315 1613 1316 9967 11883 11884 9973 9975 11885 
1579 1613 1580 1282 11886 11887 11661 11651 11884 11656 
1282 1315 1612 1613 9967 11878 11882 11884 11883 11888 
1579 1613 1282 1612 11886 11884 11651 11880 11888 11882 
1580 1282 1613 1283 11656 11884 11887 11658 9748 11889 
1613 1282 1316 1283 11884 9973 11885 11889 9748 9974 
1283 1316 1614 1317 9974 11890 11891 9980 9982 11892 
1580 1614 1581 1283 11893 11894 11668 11658 11891 11663 
1283 1316 1613 1614 9974 11885 11889 11891 11890 11895 
1580 1614 1283 1613 11893 11891 11658 11887 11895 11889 
1581 1283 1614 1284 11663 11891 11894 11665 9755 11896 
1614 1283 1317 1284 11891 9980 11892 11896 9755 9981 
1284 1317 1615 1318 9981 11897 11898 9987 9989 11899 
1581 1615 1582 1284 11900 11901 11675 11665 11898 11670 
1284 1317 1614 1615 9981 11892 11896 11898 11897 11902 
1581 1615 1284 1614 11900 11898 11665 11894 11902 11896 
1582 1284 1615 1285 11670 11898 11901 11672 9762 11903 
1615 1284 1318 1285 11898 9987 11899 11903 9762 9988 
1285 1318 1616 1319 9988 11904 11905 9994 9996 11906 
1582 1616 1583 1285 11907 11908 11682 11672 11905 11677 
1285 1318 1615 1616 9988 11899 11903 11905 11904 11909 
1582 1616 1285 1615 11907 11905 11672 11901 11909 11903 
1583 1285 1616 1286 11677 11905 11908 11679 9769 11910 
1616 1285 1319 1286 11905 9994 11906 11910 9769 9995 
1287 1320 1618 1321 10006 11911 11912 10001 10005 11913 
1584 1618 1585 1287 11914 11915 11691 11689 11912 11684 
1287 1320 1617 1618 10006 11916 11917 11912 11911 11918 
1584 1618 1287 1617 11914 11912 11689 11919 11918 11917 
1585 1287 1618 1288 11684 11912 11915 11686 9778 11920 
1618 1287 1321 1288 11912 10001 11913 11920 9778 10002 
1288 1321 1619 1322 10002 11921 11922 10011 10013 11923 
1585 1619 1586 1288 11924 11925 11699 11686 11922 11694 
1288 1321 1618 1619 10002 11913 11920 11922 11921 11926 
1585 1619 1288 1618 11924 11922 11686 11915 11926 11920 
1586 1288 1619 1289 11694 11922 11925 11696 9786 11927 
1619 1288 1322 1289 11922 10011 11923 11927 9786 10012 
1289 1322 1620 1323 10012 11928 11929 10018 10020 11930 
1586 1620 1587 1289 11931 11932 11706 11696 11929 11701 
1289 1322 1619 1620 10012 11923 11927 11929 11928 11933 
1586 1620 1289 1619 11931 11929 11696 11925 11933 11927 
1587 1289 1620 1290 11701 11929 11932 11703 9793 11934 
1620 1289 1323 1290 11929 10018 11930 11934 9793 10019 
1290 1323 1621 1324 10019 11935 11936 10025 10027 11937 
1587 1621 1588 1290 11938 11939 11713 11703 11936 11708 
1290 1323 1620 1621 10019 11930 11934 11936 11935 11940 
1587 1621 1290 1620 11938 11936 11703 11932 11940 11934 
1588 1290 1621 1291 11708 11936 11939 11710 9800 11941 
1621 1290 1324 1291 11936 10025 11937 11941 9800 10026 
1291 1324 1622 1325 10026 11942 11943 10032 10034 11944 
1588 1622 1589 1291 11945 11946 11720 11710 11943 11715 
1291 1324 1621 1622 10026 11937 11941 11943 11942 11947 
1588 1622 1291 1621 11945 11943 11710 11939 11947 11941 
1589 1291 1622 1292 11715 11943 11946 11717 9807 11948 
1622 1291 1325 1292 11943 10032 11944 11948 9807 10033 
1292 1325 1623 1326 10033 11949 11950 10039 10041 11951 
1589 1623 1590 1292 11952 11953 11727 11717 11950 11722 
1292 1325 1622 1623 10033 11944 11948 11950 11949 11954 
1589 1623 1292 1622 11952 11950 11717 11946 11954 11948 
1590 1292 1623 1293 11722 11950 11953 11724 9814 11955 
1623 1292 1326 1293 11950 10039 11951 11955 9814 10040 
1293 1326 1624 1327 10040 11956 11957 10046 10048 11958 
1590 1624 1591 1293 11959 11960 11734 11724 11957 11729 
1293 1326 1623 1624 10040 11951 11955 11957 11956 11961 
1590 1624 1293 1623 11959 11957 11724 11953 11961 11955 
1591 1293 1624 1294 11729 11957 11960 11731 9821 11962 
1624 1293 1327 1294 11957 10046 11958 11962 9821 10047 
1294 1327 1625 1328 10047 11963 11964 10053 10055 11965 
1591 1625 1592 1294 11966 11967 11741 11731 11964 11736 
1294 1327 1624 1625 10047 11958 11962 11964 11963 11968 
1591 1625 1294 1624 11966 11964 11731 11960 11968 11962 
1592 1294 1625 1295 11736 11964 11967 11738 9828 11969 
1625 1294 1328 1295 11964 10053 11965 11969 9828 10054 
1295 1328 1626 1329 10054 11970 11971 10060 10062 11972 
1592 1626 1593 1295 11973 11974 11748 11738 11971 11743 
1295 1328 1625 1626 10054 11965 11969 11971 11970 11975 
1592 1626 1295 1625 11973 11971 11738 11967 11975 11969 
1593 1295 1626 1296 11743 11971 11974 11745 9835 11976 
1626 1295 1329 1296 11971 10060 11972 11976 9835 10061 
1296 1329 1627 1330 10061 11977 11978 10067 10069 11979 
1593 1627 1594 1296 11980 11981 11755 11745 11978 11750 
1296 1329 1626 1627 10061 11972 11976 11978 11977 11982 
1593 1627 1296 1626 11980 11978 11745 11974 11982 11976 
1594 1296 1627 1297 11750 11978 11981 11752 9842 11983 
1627 1296 1330 1297 11978 10067 11979 11983 9842 10068 
1297 1330 1628 1331 10068 11984 11985 10074 10076 11986 
1594 1628 1595 1297 11987 11988 11762 11752 11985 11757 
1297 1330 1627 1628 10068 11979 11983 11985 11984 11989 
1594 1628 1297 1627 11987 11985 11752 11981 11989 11983 
1595 1297 1628 1298 11757 11985 11988 11759 9849 11990 
1628 1297 1331 1298 11985 10074 11986 11990 9849 10075 
1298 1331 1629 1332 10075 11991 11992 10081 10083 11993 
1595 1629 1596 1298 11994 11995 11769 11759 11992 11764 
1298 1331 1628 1629 10075 11986 11990 11992 11991 11996 
1595 1629 1298 1628 11994 11992 11759 11988 11996 11990 
1596 1298 1629 1299 11764 11992 11995 11766 9856 11997 
1629 1298 1332 1299 11992 10081 11993 11997 9856 10082 
1299 1332 1630 1333 10082 11998 11999 10088 10090 12000 
1596 1630 1597 1299 12001 12002 11776 11766 11999 11771 
1299 1332 1629 1630 10082 11993 11997 11999 11998 12003 
1596 1630 1299 1629 12001 11999 11766 11995 12003 11997 
1597 1299 1630 1300 11771 11999 12002 11773 9863 12004 
1630 1299 1333 1300 11999 10088 12000 12004 9863 10089 
1300 1333 1631 1334 10089 12005 12006 10095 10097 12007 
1597 1631 1598 1300 12008 12009 11783 11773 12006 11778 
1300 1333 1630 1631 10089 12000 12004 12006 12005 12010 
1597 1631 1300 1630 12008 12006 11773 12002 12010 12004 
1598 1300 1631 1301 11778 12006 12009 11780 9870 12011 
1631 1300 1334 1301 12006 10095 12007 12011 9870 10096 
1301 1334 1632 1335 10096 12012 12013 10102 10104 12014 
1598 1632 1599 1301 12015 12016 11790 11780 12013 11785 
1301 1334 1631 1632 10096 12007 12011 12013 12012 12017 
1598 1632 1301 1631 12015 12013 11780 12009 12017 12011 
1599 1301 1632 1302 11785 12013 12016 11787 9877 12018 
1632 1301 1335 1302 12013 10102 12014 12018 9877 10103 
1302 1335 1633 1336 10103 12019 12020 10109 10111 12021 
1599 1633 1600 1302 12022 12023 11797 11787 12020 11792 
1302 1335 1632 1633 10103 12014 12018 12020 12019 12024 
1599 1633 1302 1632 12022 12020 11787 12016 12024 12018 
1600 1302 1633 1303 11792 12020 12023 11794 9884 12025 
1633 1302 1336 1303 12020 10109 12021 12025 9884 10110 
1303 1336 1634 1337 10110 12026 12027 10116 10118 12028 
1600 1634 1601 1303 12029 12030 11804 11794 12027 11799 
1303 1336 1633 1634 10110 12021 12025 12027 12026 12031 
1600 1634 1303 1633 12029 12027 11794 12023 12031 12025 
1601 1303 1634 1304 11799 12027 12030 11801 9891 12032 
1634 1303 1337 1304 12027 10116 12028 12032 9891 10117 
1304 1337 1635 1338 10117 12033 12034 10123 10125 12035 
1601 1635 1602 1304 12036 12037 11811 11801 12034 11806 
1304 1337 1634 1635 10117 12028 12032 12034 12033 12038 
1601 1635 1304 1634 12036 12034 11801 12030 12038 12032 
1602 1304 1635 1305 11806 12034 12037 11808 9898 12039 
1635 1304 1338 1305 12034 10123 12035 12039 9898 10124 
1305 1338 1636 1339 10124 12040 12041 10130 10132 12042 
1602 1636 1603 1305 12043 12044 11818 11808 12041 11813 
1305 1338 1635 1636 10124 12035 12039 12041 12040 12045 
1602 1636 1305 1635 12043 12041 11808 12037 12045 12039 
1603 1305 1636 1306 11813 12041 12044 11815 9905 12046 
1636 1305 1339 1306 12041 10130 12042 12046 9905 10131 
1306 1339 1637 1340 10131 12047 12048 10137 10139 12049 
1603 1637 1604 1306 12050 12051 11825 11815 12048 11820 
1306 1339 1636 1637 10131 12042 12046 12048 12047 12052 
1603 1637 1306 1636 12050 12048 11815 12044 12052 12046 
1604 1306 1637 1307 11820 12048 12051 11822 9912 12053 
1637 1306 1340 1307 12048 10137 12049 12053 9912 10138 
1307 1340 1638 1341 10138 12054 12055 10144 10146 12056 
1604 1638 1605 1307 12057 12058 11832 11822 12055 11827 
1307 1340 1637 1638 10138 12049 12053 12055 12054 12059 
1604 1638 1307 1637 12057 12055 11822 12051 12059 12053 
1605 1307 1638 1308 11827 12055 12058 11829 9919 12060 
1638 1307 1341 1308 12055 10144 12056 12060 9919 10145 
1308 1341 1639 1342 10145 12061 12062 10151 10153 12063 
1605 1639 1606 1308 12064 12065 11839 11829 12062 11834 
1308 1341 1638 1639 10145 12056 12060 12062 12061 12066 
1605 1639 1308 1638 12064 12062 11829 12058 12066 12060 
1606 1308 1639 1309 11834 12062 12065 11836 9926 12067 
1639 1308 1342 1309 12062 10151 12063 12067 9926 10152 
1309 1342 1640 1343 10152 12068 12069 10158 10160 12070 
1606 1640 1607 1309 12071 12072 11846 11836 12069 11841 
1309 1342 1639 1640 10152 12063 12067 12069 12068 12073 
1606 1640 1309 1639 12071 12069 11836 12065 12073 12067 
1607 1309 1640 1310 11841 12069 12072 11843 9933 12074 
1640 1309 1343 1310 12069 10158 12070 12074 9933 10159 
1310 1343 1641 1344 10159 12075 12076 10165 10167 12077 
1607 1641 1608 1310 12078 12079 11853 11843 12076 11848 
1310 1343 1640 1641 10159 12070 12074 12076 12075 12080 
1607 1641 1310 1640 12078 12076 11843 12072 12080 12074 
1608 1310 1641 1311 11848 12076 12079 11850 9940 12081 
1641 1310 1344 1311 12076 10165 12077 12081 9940 10166 
1311 1344 1642 1345 10166 12082 12083 10172 10174 12084 
1608 1642 1609 1311 12085 12086 11860 11850 12083 11855 
1311 1344 1641 1642 10166 12077 12081 12083 12082 12087 
1608 1642 1311 1641 12085 12083 11850 12079 12087 12081 
1609 1311 1642 1312 11855 12083 12086 11857 9947 12088 
1642 1311 1345 1312 12083 10172 12084 12088 9947 10173 
1312 1345 1643 1346 10173 12089 12090 10179 10181 12091 
1609 1643 1610 1312 12092 12093 11867 11857 12090 11862 
1312 1345 1642 1643 10173 12084 12088 12090 12089 12094 
1609 1643 1312 1642 12092 12090 11857 12086 12094 12088 
1610 1312 1643 1313 11862 12090 12093 11864 9954 12095 
1643 1312 1346 1313 12090 10179 12091 12095 9954 10180 
1313 1346 1644 1347 10180 12096 12097 10186 10188 12098 
1610 1644 1611 1313 12099 12100 11874 11864 12097 11869 
1313 1346 1643 1644 10180 12091 12095 12097 12096 12101 
1610 1644 1313 1643 12099 12097 11864 12093 12101 12095 
1611 1313 1644 1314 11869 12097 12100 11871 9961 12102 
1644 1313 1347 1314 12097 10186 12098 12102 9961 10187 
1314 1347 1645 1348 10187 12103 12104 10193 10195 12105 
1611 1645 1612 1314 12106 12107 11881 11871 12104 11876 
1314 1347 1644 1645 10187 12098 12102 12104 12103 12108 
1611 1645 1314 1644 12106 12104 11871 12100 12108 12102 
1612 1314 1645 1315 11876 12104 12107 11878 9968 12109 
1645 1314 1348 1315 12104 10193 12105 12109 9968 10194 
1315 1348 1646 1349 10194 12110 12111 10200 10202 12112 
1612 1646 1613 1315 12113 12114 11888 11878 12111 11883 
1315 1348 1645 1646 10194 12105 12109 12111 12110 12115 
1612 1646 1315 1645 12113 12111 11878 12107 12115 12109 
1613 1315 1646 1316 11883 12111 12114 11885 9975 12116 
1646 1315 1349 1316 12111 10200 12112 12116 9975 10201 
1316 1349 1647 1350 10201 12117 12118 10207 10209 12119 
1613 1647 1614 1316 12120 12121 11895 11885 12118 11890 
1316 1349 1646 1647 10201 12112 12116 12118 12117 12122 
1613 1647 1316 1646 12120 12118 11885 12114 12122 12116 
1614 1316 1647 1317 11890 12118 12121 11892 9982 12123 
1647 1316 1350 1317 12118 10207 12119 12123 9982 10208 
1317 1350 1648 1351 10208 12124 12125 10214 10216 12126 
1614 1648 1615 1317 12127 12128 11902 11892 12125 11897 
1317 1350 1647 1648 10208 12119 12123 12125 12124 12129 
1614 1648 1317 1647 12127 12125 11892 12121 12129 12123 
1615 1317 1648 1318 11897 12125 12128 11899 9989 12130 
1648 1317 1351 1318 12125 10214 12126 12130 9989 10215 
1318 1351 1649 1352 10215 12131 12132 10221 10223 12133 
1615 1649 1616 1318 12134 12135 11909 11899 12132 11904 
1318 1351 1648 1649 10215 12126 12130 12132 12131 12136 
1615 1649 1318 1648 12134 12132 11899 12128 12136 12130 
1616 1318 1649 1319 11904 12132 12135 11906 9996 12137 
1649 1318 1352 1319 12132 10221 12133 12137 9996 10222 
1320 1353 1651 1354 10233 12138 12139 10228 10232 12140 
1617 1651 1618 1320 12141 12142 11918 11916 12139 11911 
1320 1353 1650 1651 10233 12143 12144 12139 12138 12145 
1617 1651 1320 1650 12141 12139 11916 12146 12145 12144 
1618 1320 1651 1321 11911 12139 12142 11913 10005 12147 
1651 1320 1354 1321 12139 10228 12140 12147 10005 10229 
1321 1354 1652 1355 10229 12148 12149 10238 10240 12150 
1618 1652 1619 1321 12151 12152 11926 11913 12149 11921 
1321 1354 1651 1652 10229 12140 12147 12149 12148 12153 
1618 1652 1321 1651 12151 12149 11913 12142 12153 12147 
1619 1321 1652 1322 11921 12149 12152 11923 10013 12154 
1652 1321 1355 1322 12149 10238 12150 12154 10013 10239 
1322 1355 1653 1356 10239 12155 12156 10245 10247 12157 
1619 1653 1620 1322 12158 12159 11933 11923 12156 11928 
1322 1355 1652 1653 10239 12150 12154 12156 12155 12160 
1619 1653 1322 1652 12158 12156 11923 12152 12160 12154 
1620 1322 1653 1323 11928 12156 12159 11930 10020 12161 
1653 1322 1356 1323 12156 10245 12157 12161 10020 10246 
1323 1356 1654 1357 10246 12162 12163 10252 10254 12164 
1620 1654 1621 1323 12165 12166 11940 11930 12163 11935 
1323 1356 1653 1654 10246 12157 12161 12163 12162 12167 
1620 1654 1323 1653 12165 12163 11930 12159 12167 12161 
1621 1323 1654 1324 11935 12163 12166 11937 10027 12168 
1654 1323 1357 1324 12163 10252 12164 12168 10027 10253 
1324 1357 1655 1358 10253 12169 12170 10259 10261 12171 
1621 1655 1622 1324 12172 12173 11947 11937 12170 11942 
1324 1357 1654 1655 10253 12164 12168 12170 12169 12174 
1621 1655 1324 1654 12172 12170 11937 12166 12174 12168 
1622 1324 1655 1325 11942 12170 12173 11944 10034 12175 
1655 1324 1358 1325 12170 10259 12171 12175 10034 10260 
1325 1358 1656 1359 10260 12176 12177 10266 10268 12178 
1622 1656 1623 1325 12179 12180 11954 11944 12177 11949 
1325 1358 1655 1656 10260 12171 12175 12177 12176 12181 
1622 1656 1325 1655 12179 12177 11944 12173 12181 12175 
1623 1325 1656 1326 11949 12177 12180 11951 10041 12182 
1656 1325 1359 1326 12177 10266 12178 12182 10041 10267 
1326 1359 1657 1360 10267 12183 12184 10273 10275 12185 
1623 1657 1624 1326 12186 12187 11961 11951 12184 11956 
1326 1359 1656 1657 10267 12178 12182 12184 12183 12188 
1623 1657 1326 1656 12186 12184 11951 12180 12188 12182 
1624 1326 1657 1327 11956 12184 12187 11958 10048 12189 
1657 1326 1360 1327 12184 10273 12185 12189 10048 10274 
1327 1360 1658 1361 10274 12190 12191 10280 10282 12192 
1624 1658 1625 1327 12193 12194 11968 11958 12191 11963 
1327 1360 1657 1658 10274 12185 12189 12191 12190 12195 
1624 1658 1327 1657 12193 12191 11958 12187 12195 12189 
1625 1327 1658 1328 11963 12191 12194 11965 10055 12196 
1658 1327 1361 1328 12191 10280 12192 12196 10055 10281 
1328 1361 1659 1362 10281 12197 12198 10287 10289 12199 
1625 1659 1626 1328 12200 12201 11975 11965 12198 11970 
1328 1361 1658 1659 10281 12192 12196 12198 12197 12202 
1625 1659 1328 1658 12200 12198 11965 12194 12202 12196 
1626 1328 1659 1329 11970 12198 12201 11972 10062 12203 
1659 1328 1362 1329 12198 10287 12199 12203 10062 10288 
1329 1362 1660 1363 10288 12204 12205 10294 10296 12206 
1626 1660 1627 1329 12207 12208 11982 11972 12205 11977 
1329 1362 1659 1660 10288 12199 12203 12205 12204 12209 
1626 1660 1329 1659 12207 12205 11972 12201 12209 12203 
1627 1329 1660 1330 11977 12205 12208 11979 10069 12210 
1660 1329 1363 1330 12205 10294 12206 12210 10069 10295 
1330 1363 1661 1364 10295 12211 12212 10301 10303 12213 
1627 1661 1628 1330 12214 12215 11989 11979 12212 11984 
1330 1363 1660 1661 10295 12206 12210 12212 12211 12216 
1627 1661 1330 1660 12214 12212 11979 12208 12216 12210 
1628 1330 1661 1331 11984 12212 12215 11986 10076 12217 
1661 1330 1364 1331 12212 10301 12213 12217 10076 10302 
1331 1364 1662 1365 10302 12218 12219 10308 10310 12220 
1628 1662 1629 1331 12221 12222 11996 11986 12219 11991 
1331 1364 1661 1662 10302 12213 12217 12219 12218 12223 
1628 1662 1331 1661 12221 12219 11986 12215 12223 12217 
1629 1331 1662 1332 11991 12219 12222 11993 10083 12224 
1662 1331 1365 1332 12219 10308 12220 12224 10083 10309 
1332 1365 1663 1366 10309 12225 12226 10315 10317 12227 
1629 1663 1630 1332 12228 12229 12003 11993 12226 11998 
1332 1365 1662 1663 10309 12220 12224 12226 12225 12230 
1629 1663 1332 1662 12228 12226 11993 12222 12230 12224 
1630 1332 1663 1333 11998 12226 12229 12000 10090 12231 
1663 1332 1366 1333 12226 10315 12227 12231 10090 10316 
1333 1366 1664 1367 10316 12232 12233 10322 10324 12234 
1630 1664 1631 1333 12235 12236 12010 12000 12233 12005 
1333 1366 1663 1664 10316 12227 12231 12233 12232 12237 
1630 1664 1333 1663 12235 12233 12000 12229 12237 12231 
1631 1333 1664 1334 12005 12233 12236 12007 10097 12238 
1664 1333 1367 1334 12233 10322 12234 12238 10097 10323 
1334 1367 1665 1368 10323 12239 12240 10329 10331 12241 
1631 1665 1632 1334 12242 12243 12017 12007 12240 12012 
1334 1367 1664 1665 10323 12234 12238 12240 12239 12244 
1631 1665 1334 1664 12242 12240 12007 12236 12244 12238 
1632 1334 1665 1335 12012 12240 12243 12014 10104 12245 
1665 1334 1368 1335 12240 10329 12241 12245 10104 10330 
1335 1368 1666 1369 10330 12246 12247 10336 10338 12248 
1632 1666 1633 1335 12249 12250 12024 12014 12247 12019 
1335 1368 1665 1666 10330 12241 12245 12247 12246 12251 
1632 1666 1335 1665 12249 12247 12014 12243 12251 12245 
1633 1335 1666 1336 12019 12247 12250 12021 10111 12252 
1666 1335 1369 1336 12247 10336 12248 12252 10111 10337 
1336 1369 1667 1370 10337 12253 12254 10343 10345 12255 
1633 1667 1634 1336 12256 12257 12031 12021 12254 12026 
1336 1369 1666 1667 10337 12248 12252 12254 12253 12258 
1633 1667 1336 1666 12256 12254 12021 12250 12258 12252 
1634 1336 1667 1337 12026 12254 12257 12028 10118 12259 
1667 1336 1370 1337 12254 10343 12255 12259 10118 10344 
1337 1370 1668 1371 10344 12260 12261 10350 10352 12262 
1634 1668 1635 1337 12263 12264 12038 12028 12261 12033 
1337 1370 1667 1668 10344 12255 12259 12261 12260 12265 
1634 1668 1337 1667 12263 12261 12028 12257 12265 12259 
1635 1337 1668 1338 12033 12261 12264 12035 10125 12266 
1668 1337 1371 1338 12261 10350 12262 12266 10125 10351 
1338 1371 1669 1372 10351 12267 12268 10357 10359 12269 
1635 1669 1636 1338 12270 12271 12045 12035 12268 12040 
1338 1371 1668 1669 10351 12262 12266 12268 12267 12272 
1635 1669 1338 1668 12270 12268 12035 12264 12272 12266 
1636 1338 1669 1339 12040 12268 12271 12042 10132 12273 
1669 1338 1372 1339 12268 10357 12269 12273 10132 10358 
1339 1372 1670 1373 10358 12274 12275 10364 10366 12276 
1636 1670 1637 1339 12277 12278 12052 12042 12275 12047 
1339 1372 1669 1670 10358 12269 12273 12275 12274 12279 
1636 1670 1339 1669 12277 12275 12042 12271 12279 12273 
1637 1339 1670 1340 12047 12275 12278 12049 10139 12280 
1670 1339 1373 1340 12275 10364 12276 12280 10139 10365 
1340 1373 1671 1374 10365 12281 12282 10371 10373 12283 
1637 1671 1638 1340 12284 12285 12059 12049 12282 12054 
1340 1373 1670 1671 10365 12276 12280 12282 12281 12286 
1637 1671 1340 1670 12284 12282 12049 12278 12286 12280 
1638 1340 1671 1341 12054 12282 12285 12056 10146 12287 
1671 1340 1374 1341 12282 10371 12283 12287 10146 10372 
1341 1374 1672 1375 10372 12288 12289 10378 10380 12290 
1638 1672 1639 1341 12291 12292 12066 12056 12289 12061 
1341 1374 1671 1672 10372 12283 12287 12289 12288 12293 
1638 1672 1341 1671 12291 12289 12056 12285 12293 12287 
1639 1341 1672 1342 12061 12289 12292 12063 10153 12294 
1672 1341 1375 1342 12289 10378 12290 12294 10153 10379 
1342 1375 1673 1376 10379 12295 12296 10385 10387 12297 
1639 1673 1640 1342 12298 12299 12073 12063 12296 12068 
1342 1375 1672 1673 10379 12290 12294 12296 12295 12300 
1639 1673 1342 1672 12298 12296 12063 12292 12300 12294 
1640 1342 1673 1343 12068 12296 12299 12070 10160 12301 
1673 1342 1376 1343 12296 10385 12297 12301 10160 10386 
1343 1376 1674 1377 10386 12302 12303 10392 10394 12304 
1640 1674 1641 1343 12305 12306 12080 12070 12303 12075 
1343 1376 1673 1674 10386 12297 12301 12303 12302 12307 
1640 1674 1343 1673 12305 12303 12070 12299 12307 12301 
1641 1343 1674 1344 12075 12303 12306 12077 10167 12308 
1674 1343 1377 1344 12303 10392 12304 12308 10167 10393 
1344 1377 1675 1378 10393 12309 12310 10399 10401 12311 
1641 1675 1642 1344 12312 12313 12087 12077 12310 12082 
1344 1377 1674 1675 10393 12304 12308 12310 12309 12314 
1641 1675 1344 1674 12312 12310 12077 12306 12314 12308 
1642 1344 1675 1345 12082 12310 12313 12084 10174 12315 
1675 1344 1378 1345 12310 10399 12311 12315 10174 10400 
1345 1378 1676 1379 10400 12316 12317 10406 10408 12318 
1642 1676 1643 1345 12319 12320 12094 12084 12317 12089 
1345 1378 1675 1676 10400 12311 12315 12317 12316 12321 
1642 1676 1345 1675 12319 12317 12084 12313 12321 12315 
1643 1345 1676 1346 12089 12317 12320 12091 10181 12322 
1676 1345 1379 1346 12317 10406 12318 12322 10181 10407 
1346 1379 1677 1380 10407 12323 12324 10413 10415 12325 
1643 1677 1644 1346 12326 12327 12101 12091 12324 12096 
1346 1379 1676 1677 10407 12318 12322 12324 12323 12328 
1643 1677 1346 1676 12326 12324 12091 12320 12328 12322 
1644 1346 1677 1347 12096 12324 12327 12098 10188 12329 
1677 1346 1380 1347 12324 10413 12325 12329 10188 10414 
1347 1380 1678 1381 10414 12330 12331 10420 10422 12332 
1644 1678 1645 1347 12333 12334 12108 12098 12331 12103 
1347 1380 1677 1678 10414 12325 12329 12331 12330 12335 
1644 1678 1347 1677 12333 12331 12098 12327 12335 12329 
1645 1347 1678 1348 12103 12331 12334 12105 10195 12336 
1678 1347 1381 1348 12331 10420 12332 12336 10195 10421 
1348 1381 1679 1382 10421 12337 12338 10427 10429 12339 
1645 1679 1646 1348 12340 12341 12115 12105 12338 12110 
1348 1381 1678 1679 10421 12332 12336 12338 12337 12342 
1645 1679 1348 1678 12340 12338 12105 12334 12342 12336 
1646 1348 1679 1349 12110 12338 12341 12112 10202 12343 
1679 1348 1382 1349 12338 10427 12339 12343 10202 10428 
1349 1382 1680 1383 10428 12344 12345 10434 10436 12346 
1646 1680 1647 1349 12347 12348 12122 12112 12345 12117 
1349 1382 1679 1680 10428 12339 12343 12345 12344 12349 
1646 1680 1349 1679 12347 12345 12112 12341 12349 12343 
1647 1349 1680 1350 12117 12345 12348 12119 10209 12350 
1680 1349 1383 1350 12345 10434 12346 12350 10209 10435 
1350 1383 1681 1384 10435 12351 12352 10441 10443 12353 
1647 1681 1648 1350 12354 12355 12129 12119 12352 12124 
1350 1383 1680 1681 10435 12346 12350 12352 12351 12356 
1647 1681 1350 1680 12354 12352 12119 12348 12356 12350 
1648 1350 1681 1351 12124 12352 12355 12126 10216 12357 
1681 1350 1384 1351 12352 10441 12353 12357 10216 10442 
1351 1384 1682 1385 10442 12358 12359 10448 10450 12360 
1648 1682 1649 1351 12361 12362 12136 12126 12359 12131 
1351 1384 1681 1682 10442 12353 12357 12359 12358 12363 
1648 1682 1351 1681 12361 12359 12126 12355 12363 12357 
1649 1351 1682 1352 12131 12359 12362 12133 10223 12364 
1682 1351 1385 1352 12359 10448 12360 12364 10223 10449 
1353 1386 1684 1387 10460 12365 12366 10455 10459 12367 
1650 1684 1651 1353 12368 12369 12145 12143 12366 12138 
1353 1386 1683 1684 10460 12370 12371 12366 12365 12372 
1650 1684 1353 1683 12368 12366 12143 12373 12372 12371 
1651 1353 1684 1354 12138 12366 12369 12140 10232 12374 
1684 1353 1387 1354 12366 10455 12367 12374 10232 10456 
1354 1387 1685 1388 10456 12375 12376 10465 10467 12377 
1651 1685 1652 1354 12378 12379 12153 12140 12376 12148 
1354 1387 1684 1685 10456 12367 12374 12376 12375 12380 
1651 1685 1354 1684 12378 12376 12140 12369 12380 12374 
1652 1354 1685 1355 12148 12376 12379 12150 10240 12381 
1685 1354 1388 1355 12376 10465 12377 12381 10240 10466 
1355 1388 1686 1389 10466 12382 12383 10472 10474 12384 
1652 1686 1653 1355 12385 12386 12160 12150 12383 12155 
1355 1388 1685 1686 10466 12377 12381 12383 12382 12387 
1652 1686 1355 1685 12385 12383 12150 12379 12387 12381 
1653 1355 1686 1356 12155 12383 12386 12157 10247 12388 
1686 1355 1389 1356 12383 10472 12384 12388 10247 10473 
1356 1389 1687 1390 10473 12389 12390 10479 10481 12391 
1653 1687 1654 1356 12392 12393 12167 12157 12390 12162 
1356 1389 1686 1687 10473 12384 12388 12390 12389 12394 
1653 1687 1356 1686 12392 12390 12157 12386 12394 12388 
1654 1356 1687 1357 12162 12390 12393 12164 10254 12395 
1687 1356 1390 1357 12390 10479 12391 12395 10254 10480 
1357 1390 1688 1391 10480 12396 12397 10486 10488 12398 
1654 1688 1655 1357 12399 12400 12174 12164 12397 12169 
1357 1390 1687 1688 10480 12391 12395 12397 12396 12401 
1654 1688 1357 1687 12399 12397 12164 12393 12401 12395 
1655 1357 1688 1358 12169 12397 12400 12171 10261 12402 
1688 1357 1391 1358 12397 10486 12398 12402 10261 10487 
1358 1391 1689 1392 10487 12403 12404 10493 10495 12405 
1655 1689 1656 1358 12406 12407 12181 12171 12404 12176 
1358 1391 1688 1689 10487 12398 12402 12404 12403 12408 
1655 1689 1358 1688 12406 12404 12171 12400 12408 12402 
1656 1358 1689 1359 12176 12404 12407 12178 10268 12409 
1689 1358 1392 1359 12404 10493 12405 12409 10268 10494 
1359 1392 1690 1393 10494 12410 12411 10500 10502 12412 
1656 1690 1657 1359 12413 12414 12188 12178 12411 12183 
1359 1392 1689 1690 10494 12405 12409 12411 12410 12415 
1656 1690 1359 1689 12413 12411 12178 12407 12415 12409 
1657 1359 1690 1360 12183 12411 12414 12185 10275 12416 
1690 1359 1393 1360 12411 10500 12412 12416 10275 10501 
1360 1393 1691 1394 10501 12417 12418 10507 10509 12419 
1657 1691 1658 1360 12420 12421 12195 12185 12418 12190 
1360 1393 1690 1691 10501 12412 12416 12418 12417 12422 
1657 1691 1360 1690 12420 12418 12185 12414 12422 12416 
1658 1360 1691 1361 12190 12418 12421 12192 10282 12423 
1691 1360 1394 1361 12418 10507 12419 12423 10282 10508 
1361 1394 1692 1395 10508 12424 12425 10514 10516 12426 
1658 1692 1659 1361 12427 12428 12202 12192 12425 12197 
1361 1394 1691 1692 10508 12419 12423 12425 12424 12429 
1658 1692 1361 1691 12427 12425 12192 12421 12429 12423 
1659 1361 1692 1362 12197 12425 12428 12199 10289 12430 
1692 1361 1395 1362 12425 10514 12426 12430 10289 10515 
1362 1395 1693 1396 10515 12431 12432 10521 10523 12433 
1659 1693 1660 1362 12434 12435 12209 12199 12432 12204 
1362 1395 1692 1693 10515 12426 12430 12432 12431 12436 
1659 1693 1362 1692 12434 12432 12199 12428 12436 12430 
1660 1362 1693 1363 12204 12432 12435 12206 10296 12437 
1693 1362 1396 1363 12432 10521 12433 12437 10296 10522 
1363 1396 1694 1397 10522 12438 12439 10528 10530 12440 
1660 1694 1661 1363 12441 12442 12216 12206 12439 12211 
1363 1396 1693 1694 10522 12433 12437 12439 12438 12443 
1660 1694 1363 1693 12441 12439 12206 12435 12443 12437 
1661 1363 1694 1364 12211 12439 12442 12213 10303 12444 
1694 1363 1397 1364 12439 10528 12440 12444 10303 10529 
1364 1397 1695 1398 10529 12445 12446 10535 10537 12447 
1661 1695 1662 1364 12448 12449 12223 12213 12446 12218 
1364 1397 1694 1695 10529 12440 12444 12446 12445 12450 
1661 1695 1364 1694 12448 12446 12213 12442 12450 12444 
1662 1364 1695 1365 12218 12446 12449 12220 10310 12451 
1695 1364 1398 1365 12446 10535 12447 12451 10310 10536 
1365 1398 1696 1399 10536 12452 12453 10542 10544 12454 
1662 1696 1663 1365 12455 12456 12230 12220 12453 12225 
1365 1398 1695 1696 10536 12447 12451 12453 12452 12457 
1662 1696 1365 1695 12455 12453 12220 12449 12457 12451 
1663 1365 1696 1366 12225 12453 12456 12227 10317 12458 
1696 1365 1399 1366 12453 10542 12454 12458 10317 10543 
1366 1399 1697 1400 10543 12459 12460 10549 10551 12461 
1663 1697 1664 1366 12462 12463 12237 12227 12460 12232 
1366 1399 1696 1697 10543 12454 12458 12460 12459 12464 
1663 1697 1366 1696 12462 12460 12227 12456 12464 12458 
1664 1366 1697 1367 12232 12460 12463 12234 10324 12465 
1697 1366 1400 1367 12460 10549 12461 12465 10324 10550 
1367 1400 1698 1401 10550 12466 12467 10556 10558 12468 
1664 1698 1665 1367 12469 12470 12244 12234 12467 12239 
1367 1400 1697 1698 10550 12461 12465 12467 12466 12471 
1664 1698 1367 1697 12469 12467 12234 12463 12471 12465 
1665 1367 1698 1368 12239 12467 12470 12241 10331 12472 
1698 1367 1401 1368 12467 10556 12468 12472 10331 10557 
1368 1401 1699 1402 10557 12473 12474 10563 10565 12475 
1665 1699 1666 1368 12476 12477 12251 12241 12474 12246 
1368 1401 1698 1699 10557 12468 12472 12474 12473 12478 
1665 1699 1368 1698 12476 12474 12241 12470 12478 12472 
1666 1368 1699 1369 12246 12474 12477 12248 10338 12479 
1699 1368 1402 1369 12474 10563 12475 12479 10338 10564 
1369 1402 1700 1403 10564 12480 12481 10570 10572 12482 
1666 1700 1667 1369 12483 12484 12258 12248 12481 12253 
1369 1402 1699 1700 10564 12475 12479 12481 12480 12485 
1666 1700 1369 1699 12483 12481 12248 12477 12485 12479 
1667 1369 1700 1370 12253 12481 12484 12255 10345 12486 
1700 1369 1403 1370 12481 10570 12482 12486 10345 10571 
1370 1403 1701 1404 10571 12487 12488 10577 10579 12489 
1667 1701 1668 1370 12490 12491 12265 12255 12488 12260 
1370 1403 1700 1701 10571 12482 12486 12488 12487 12492 
1667 1701 1370 1700 12490 12488 12255 12484 12492 12486 
1668 1370 1701 1371 12260 12488 12491 12262 10352 12493 
1701 1370 1404 1371 12488 10577 12489 12493 10352 10578 
1371 1404 1702 1405 10578 12494 12495 10584 10586 12496 
1668 1702 1669 1371 12497 12498 12272 12262 12495 12267 
1371 1404 1701 1702 10578 12489 12493 12495 12494 12499 
1668 1702 1371 1701 12497 12495 12262 12491 12499 12493 
1669 1371 1702 1372 12267 12495 12498 12269 10359 12500 
1702 1371 1405 1372 12495 10584 12496 12500 10359 10585 
1372 1405 1703 1406 10585 12501 12502 10591 10593 12503 
1669 1703 1670 1372 12504 12505 12279 12269 12502 12274 
1372 1405 1702 1703 10585 12496 12500 12502 12501 12506 
1669 1703 1372 1702 12504 12502 12269 12498 12506 12500 
1670 1372 1703 1373 12274 12502 12505 12276 10366 12507 
1703 1372 1406 1373 12502 10591 12503 12507 10366 10592 
1373 1406 1704 1407 10592 12508 12509 10598 10600 12510 
1670 1704 1671 1373 12511 12512 12286 12276 12509 12281 
1373 1406 1703 1704 10592 12503 12507 12509 12508 12513 
1670 1704 1373 1703 12511 12509 12276 12505 12513 12507 
1671 1373 1704 1374 12281 12509 12512 12283 10373 12514 
1704 1373 1407 1374 12509 10598 12510 12514 10373 10599 
1374 1407 1705 1408 10599 12515 12516 10605 10607 12517 
1671 1705 1672 1374 12518 12519 12293 12283 12516 12288 
1374 1407 1704 1705 10599 12510 12514 12516 12515 12520 
1671 1705 1374 1704 12518 12516 12283 12512 12520 12514 
1672 1374 1705 1375 12288 12516 12519 12290 10380 12521 
1705 1374 1408 1375 12516 10605 12517 12521 10380 10606 
1375 1408 1706 1409 10606 12522 12523 10612 10614 12524 
1672 1706 1673 1375 12525 12526 12300 12290 12523 12295 
1375 1408 1705 1706 10606 12517 12521 12523 12522 12527 
1672 1706 1375 1705 12525 12523 12290 12519 12527 12521 
1673 1375 1706 1376 12295 12523 12526 12297 10387 12528 
1706 1375 1409 1376 12523 10612 12524 12528 10387 10613 
1376 1409 1707 1410 10613 12529 12530 10619 10621 12531 
1673 1707 1674 1376 12532 12533 12307 12297 12530 12302 
1376 1409 1706 1707 10613 12524 12528 12530 12529 12534 
1673 1707 1376 1706 12532 12530 12297 12526 12534 12528 
1674 1376 1707 1377 12302 12530 12533 12304 10394 12535 
1707 1376 1410 1377 12530 10619 12531 12535 10394 10620 
1377 1410 1708 1411 10620 12536 12537 10626 10628 12538 
1674 1708 1675 1377 12539 12540 12314 12304 12537 12309 
1377 1410 1707 1708 10620 12531 12535 12537 12536 12541 
1674 1708 1377 1707 12539 12537 12304 12533 12541 12535 
1675 1377 1708 1378 12309 12537 12540 12311 10401 12542 
1708 1377 1411 1378 12537 10626 12538 12542 10401 10627 
1378 1411 1709 1412 10627 12543 12544 10633 10635 12545 
1675 1709 1676 1378 12546 12547 12321 12311 12544 12316 
1378 1411 1708 1709 10627 12538 12542 12544 12543 12548 
1675 1709 1378 1708 12546 12544 12311 12540 12548 12542 
1676 1378 1709 1379 12316 12544 12547 12318 10408 12549 
1709 1378 1412 1379 12544 10633 12545 12549 10408 10634 
1379 1412 1710 1413 10634 12550 12551 10640 10642 12552 
1676 1710 1677 1379 12553 12554 12328 12318 12551 12323 
1379 1412 1709 1710 10634 12545 12549 12551 12550 12555 
1676 1710 1379 1709 12553 12551 12318 12547 12555 12549 
1677 1379 1710 1380 12323 12551 12554 12325 10415 12556 
1710 1379 1413 1380 12551 10640 12552 12556 10415 10641 
1380 1413 1711 1414 10641 12557 12558 10647 10649 12559 
1677 1711 1678 1380 12560 12561 12335 12325 12558 12330 
1380 1413 1710 1711 10641 12552 12556 12558 12557 12562 
1677 1711 1380 1710 12560 12558 12325 12554 12562 12556 
1678 1380 1711 1381 12330 12558 12561 12332 10422 12563 
1711 1380 1414 1381 12558 10647 12559 12563 10422 10648 
1381 1414 1712 1415 10648 12564 12565 10654 10656 12566 
1678 1712 1679 1381 12567 12568 12342 12332 12565 12337 
1381 1414 1711 1712 10648 12559 12563 12565 12564 12569 
1678 1712 1381 1711 12567 12565 12332 12561 12569 12563 
1679 1381 1712 1382 12337 12565 12568 12339 10429 12570 
1712 1381 1415 1382 12565 10654 12566 12570 10429 10655 
1382 1415 1713 1416 10655 12571 12572 10661 10663 12573 
1679 1713 1680 1382 12574 12575 12349 12339 12572 12344 
1382 1415 1712 1713 10655 12566 12570 12572 12571 12576 
1679 1713 1382 1712 12574 12572 12339 12568 12576 12570 
1680 1382 1713 1383 12344 12572 12575 12346 10436 12577 
1713 1382 1416 1383 12572 10661 12573 12577 10436 10662 
1383 1416 1714 1417 10662 12578 12579 10668 10670 12580 
1680 1714 1681 1383 12581 12582 12356 12346 12579 12351 
1383 1416 1713 1714 10662 12573 12577 12579 12578 12583 
1680 1714 1383 1713 12581 12579 12346 12575 12583 12577 
1681 1383 1714 1384 12351 12579 12582 12353 10443 12584 
1714 1383 1417 1384 12579 10668 12580 12584 10443 10669 
1384 1417 1715 1418 10669 12585 12586 10675 10677 12587 
1681 1715 1682 1384 12588 12589 12363 12353 12586 12358 
1384 1417 1714 1715 10669 12580 12584 12586 12585 12590 
1681 1715 1384 1714 12588 12586 12353 12582 12590 12584 
1682 1384 1715 1385 12358 12586 12589 12360 10450 12591 
1715 1384 1418 1385 12586 10675 12587 12591 10450 10676 
1386 1419 1717 1420 10687 12592 12593 10682 10686 12594 
1683 1717 1684 1386 12595 12596 12372 12370 12593 12365 
1386 1419 1716 1717 10687 12597 12598 12593 12592 12599 
1683 1717 1386 1716 12595 12593 12370 12600 12599 12598 
1684 1386 1717 1387 12365 12593 12596 12367 10459 12601 
1717 1386 1420 1387 12593 10682 12594 12601 10459 10683 
1387 1420 1718 1421 10683 12602 12603 10692 10694 12604 
1684 1718 1685 1387 12605 12606 12380 12367 12603 12375 
1387 1420 1717 1718 10683 12594 12601 12603 12602 12607 
1684 1718 1387 1717 12605 12603 12367 12596 12607 12601 
1685 1387 1718 1388 12375 12603 12606 12377 10467 12608 
1718 1387 1421 1388 12603 10692 12604 12608 10467 10693 
1388 1421 1719 1422 10693 12609 12610 10699 10701 12611 
1685 1719 1686 1388 12612 12613 12387 12377 12610 12382 
1388 1421 1718 1719 10693 12604 12608 12610 12609 12614 
1685 1719 1388 1718 12612 12610 12377 12606 12614 12608 
1686 1388 1719 1389 12382 12610 12613 12384 10474 12615 
1719 1388 1422 1389 12610 10699 12611 12615 10474 10700 
1389 1422 1720 1423 10700 12616 12617 10706 10708 12618 
1686 1720 1687 1389 12619 12620 12394 12384 12617 12389 
1389 1422 1719 1720 10700 12611 12615 12617 12616 12621 
1686 1720 1389 1719 12619 12617 12384 12613 12621 12615 
1687 1389 1720 1390 12389 12617 12620 12391 10481 12622 
1720 1389 1423 1390 12617 10706 12618 12622 10481 10707 
1390 1423 1721 1424 10707 12623 12624 10713 10715 12625 
1687 1721 1688 1390 12626 12627 12401 12391 12624 12396 
1390 1423 1720 1721 10707 12618 12622 12624 12623 12628 
1687 1721 1390 1720 12626 12624 12391 12620 12628 12622 
1688 1390 1721 1391 12396 12624 12627 12398 10488 12629 
1721 1390 1424 1391 12624 10713 12625 12629 10488 10714 
1391 1424 1722 1425 10714 12630 12631 10720 10722 12632 
1688 1722 1689 1391 12633 12634 12408 12398 12631 12403 
1391 1424 1721 1722 10714 12625 12629 12631 12630 12635 
1688 1722 1391 1721 12633 12631 12398 12627 12635 12629 
1689 1391 1722 1392 12403 12631 12634 12405 10495 12636 
1722 1391 1425 1392 12631 10720 12632 12636 10495 10721 
1392 1425 1723 1426 10721 12637 12638 10727 10729 12639 
1689 1723 1690 1392 12640 12641 12415 12405 12638 12410 
1392 1425 1722 1723 10721 12632 12636 12638 12637 12642 
1689 1723 1392 1722 12640 12638 12405 12634 12642 12636 
1690 1392 1723 1393 12410 12638 12641 12412 10502 12643 
1723 1392 1426 1393 12638 10727 12639 12643 10502 10728 
1393 1426 1724 1427 10728 12644 12645 10734 10736 12646 
1690 1724 1691 1393 12647 12648 12422 12412 12645 12417 
1393 1426 1723 1724 10728 12639 12643 12645 12644 12649 
1690 1724 1393 1723 12647 12645 12412 12641 12649 12643 
1691 1393 1724 1394 12417 12645 12648 12419 10509 12650 
1724 1393 1427 1394 12645 10734 12646 12650 10509 10735 
1394 1427 1725 1428 10735 12651 12652 10741 10743 12653 
1691 1725 1692 1394 12654 12655 12429 12419 12652 12424 
1394 1427 1724 1725 10735 12646 12650 12652 12651 12656 
1691 1725 1394 1724 12654 12652 12419 12648 12656 12650 
1692 1394 1725 1395 12424 12652 12655 12426 10516 12657 
1725 1394 1428 1395 12652 10741 12653 12657 10516 10742 
1395 1428 1726 1429 10742 12658 12659 10748 10750 12660 
1692 1726 1693 1395 12661 12662 12436 12426 12659 12431 
1395 1428 1725 1726 10742 12653 12657 12659 12658 12663 
1692 1726 1395 1725 12661 12659 12426 12655 12663 12657 
1693 1395 1726 1396 12431 12659 12662 12433 10523 12664 
1726 1395 1429 1396 12659 10748 12660 12664 10523 10749 
1396 1429 1727 1430 10749 12665 12666 10755 10757 12667 
1693 1727 1694 1396 12668 12669 12443 12433 12666 12438 
1396 1429 1726 1727 10749 12660 12664 12666 12665 12670 
1693 1727 1396 1726 12668 12666 12433 12662 12670 12664 
1694 1396 1727 1397 12438 12666 12669 12440 10530 12671 
1727 1396 1430 1397 12666 10755 12667 12671 10530 10756 
1397 1430 1728 1431 10756 12672 12673 10762 10764 12674 
1694 1728 1695 1397 12675 12676 12450 12440 12673 12445 
1397 1430 1727 1728 10756 12667 12671 12673 12672 12677 
1694 1728 1397 1727 12675 12673 12440 12669 12677 12671 
1695 1397 1728 1398 12445 12673 12676 12447 10537 12678 
1728 1397 1431 1398 12673 10762 12674 12678 10537 10763 
1398 1431 1729 1432 10763 12679 12680 10769 10771 12681 
1695 1729 1696 1398 12682 12683 12457 12447 12680 12452 
1398 1431 1728 1729 10763 12674 12678 12680 12679 12684 
1695 1729 1398 1728 12682 12680 12447 12676 12684 12678 
1696 1398 1729 1399 12452 12680 12683 12454 10544 12685 
1729 1398 1432 1399 12680 10769 12681 12685 10544 10770 
1399 1432 1730 1433 10770 12686 12687 10776 10778 12688 
1696 1730 1697 1399 12689 12690 12464 12454 12687 12459 
1399 1432 1729 1730 10770 12681 12685 12687 12686 12691 
1696 1730 1399 1729 12689 12687 12454 12683 12691 12685 
1697 1399 1730 1400 12459 12687 12690 12461 10551 12692 
1730 1399 1433 1400 12687 10776 12688 12692 10551 10777 
1400 1433 1731 1434 10777 12693 12694 10783 10785 12695 
1697 1731 1698 1400 12696 12697 12471 12461 12694 12466 
1400 1433 1730 1731 10777 12688 12692 12694 12693 12698 
1697 1731 1400 1730 12696 12694 12461 12690 12698 12692 
1698 1400 1731 1401 12466 12694 12697 12468 10558 12699 
1731 1400 1434 1401 12694 10783 12695 12699 10558 10784 
1401 1434 1732 1435 10784 12700 12701 10790 10792 12702 
1698 1732 1699 1401 12703 12704 12478 12468 12701 12473 
1401 1434 1731 1732 10784 12695 12699 12701 12700 12705 
1698 1732 1401 1731 12703 12701 12468 12697 12705 12699 
1699 1401 1732 1402 12473 12701 12704 12475 10565 12706 
1732 1401 1435 1402 12701 10790 12702 12706 10565 10791 
1402 1435 1733 1436 10791 12707 12708 10797 10799 12709 
1699 1733 1700 1402 12710 12711 12485 12475 12708 12480 
1402 1435 1732 1733 10791 12702 12706 12708 12707 12712 
1699 1733 1402 1732 12710 12708 12475 12704 12712 12706 
1700 1402 1733 1403 12480 12708 12711 12482 10572 12713 
1733 1402 1436 1403 12708 10797 12709 12713 10572 10798 
1403 1436 1734 1437 10798 12714 12715 10804 10806 12716 
1700 1734 1701 1403 12717 12718 12492 12482 12715 12487 
1403 1436 1733 1734 10798 12709 12713 12715 12714 12719 
1700 1734 1403 1733 12717 12715 12482 12711 12719 12713 
1701 1403 1734 1404 12487 12715 12718 12489 10579 12720 
1734 1403 1437 1404 12715 10804 12716 12720 10579 10805 
1404 1437 1735 1438 10805 12721 12722 10811 10813 12723 
1701 1735 1702 1404 12724 12725 12499 12489 12722 12494 
1404 1437 1734 1735 10805 12716 12720 12722 12721 12726 
1701 1735 1404 1734 12724 12722 12489 12718 12726 12720 
1702 1404 1735 1405 12494 12722 12725 12496 10586 12727 
1735 1404 1438 1405 12722 10811 12723 12727 10586 10812 
1405 1438 1736 1439 10812 12728 12729 10818 10820 12730 
1702 1736 1703 1405 12731 12732 12506 12496 12729 12501 
1405 1438 1735 1736 10812 12723 12727 12729 12728 12733 
1702 1736 1405 1735 12731 12729 12496 12725 12733 12727 
1703 1405 1736 1406 12501 12729 12732 12503 10593 12734 
1736 1405 1439 1406 12729 10818 12730 12734 10593 10819 
1406 1439 1737 1440 10819 12735 12736 10825 10827 12737 
1703 1737 1704 1406 12738 12739 12513 12503 12736 12508 
1406 1439 1736 1737 10819 12730 12734 12736 12735 12740 
1703 1737 1406 1736 12738 12736 12503 12732 12740 12734 
1704 1406 1737 1407 12508 12736 12739 12510 10600 12741 
1737 1406 1440 1407 12736 10825 12737 12741 10600 10826 
1407 1440 1738 1441 10826 12742 12743 10832 10834 12744 
1704 1738 1705 1407 12745 12746 12520 12510 12743 12515 
1407 1440 1737 1738 10826 12737 12741 12743 12742 12747 
1704 1738 1407 1737 12745 12743 12510 12739 12747 12741 
1705 1407 1738 1408 12515 12743 12746 12517 10607 12748 
1738 1407 1441 1408 12743 10832 12744 12748 10607 10833 
1408 1441 1739 1442 10833 12749 12750 10839 10841 12751 
1705 1739 1706 1408 12752 12753 12527 12517 12750 12522 
1408 1441 1738 1739 10833 12744 12748 12750 12749 12754 
1705 1739 1408 1738 12752 12750 12517 12746 12754 12748 
1706 1408 1739 1409 12522 12750 12753 12524 10614 12755 
1739 1408 1442 1409 12750 10839 12751 12755 10614 10840 
1409 1442 1740 1443 10840 12756 12757 10846 10848 12758 
1706 1740 1707 1409 12759 12760 12534 12524 12757 12529 
1409 1442 1739 1740 10840 12751 12755 12757 12756 12761 
1706 1740 1409 1739 12759 12757 12524 12753 12761 12755 
1707 1409 1740 1410 12529 12757 12760 12531 10621 12762 
1740 1409 1443 1410 12757 10846 12758 12762 10621 10847 
1410 1443 1741 1444 10847 12763 12764 10853 10855 12765 
1707 1741 1708 1410 12766 12767 12541 12531 12764 12536 
1410 1443 1740 1741 10847 12758 12762 12764 12763 12768 
1707 1741 1410 1740 12766 12764 12531 12760 12768 12762 
1708 1410 1741 1411 12536 12764 12767 12538 10628 12769 
1741 1410 1444 1411 12764 10853 12765 12769 10628 10854 
1411 1444 1742 1445 10854 12770 12771 10860 10862 12772 
1708 1742 1709 1411 12773 12774 12548 12538 12771 12543 
1411 1444 1741 1742 10854 12765 12769 12771 12770 12775 
1708 1742 1411 1741 12773 12771 12538 12767 12775 12769 
1709 1411 1742 1412 12543 12771 12774 12545 10635 12776 
1742 1411 1445 1412 12771 10860 12772 12776 10635 10861 
1412 1445 1743 1446 10861 12777 12778 10867 10869 12779 
1709 1743 1710 1412 12780 12781 12555 12545 12778 12550 
1412 1445 1742 1743 10861 12772 12776 12778 12777 12782 
1709 1743 1412 1742 12780 12778 12545 12774 12782 12776 
1710 1412 1743 1413 12550 12778 12781 12552 10642 12783 
1743 1412 1446 1413 12778 10867 12779 12783 10642 10868 
1413 1446 1744 1447 10868 12784 12785 10874 10876 12786 
1710 1744 1711 1413 12787 12788 12562 12552 12785 12557 
1413 1446 1743 1744 10868 12779 12783 12785 12784 12789 
1710 1744 1413 1743 12787 12785 12552 12781 12789 12783 
1711 1413 1744 1414 12557 12785 12788 12559 10649 12790 
1744 1413 1447 1414 12785 10874 12786 12790 10649 10875 
1414 1447 1745 1448 10875 12791 12792 10881 10883 12793 
1711 1745 1712 1414 12794 12795 12569 12559 12792 12564 
1414 1447 1744 1745 10875 12786 12790 12792 12791 12796 
1711 1745 1414 1744 12794 12792 12559 12788 12796 12790 
1712 1414 1745 1415 12564 12792 12795 12566 10656 12797 
1745 1414 1448 1415 12792 10881 12793 12797 10656 10882 
1415 1448 1746 1449 10882 12798 12799 10888 10890 12800 
1712 1746 1713 1415 12801 12802 12576 12566 12799 12571 
1415 1448 1745 1746 10882 12793 12797 12799 12798 12803 
1712 1746 1415 1745 12801 12799 12566 12795 12803 12797 
1713 1415 1746 1416 12571 12799 12802 12573 10663 12804 
1746 1415 1449 1416 12799 10888 12800 12804 10663 10889 
1416 1449 1747 1450 10889 12805 12806 10895 10897 12807 
1713 1747 1714 1416 12808 12809 12583 12573 12806 12578 
1416 1449 1746 1747 10889 12800 12804 12806 12805 12810 
1713 1747 1416 1746 12808 12806 12573 12802 12810 12804 
1714 1416 1747 1417 12578 12806 12809 12580 10670 12811 
1747 1416 1450 1417 12806 10895 12807 12811 10670 10896 
1417 1450 1748 1451 10896 12812 12813 10902 10904 12814 
1714 1748 1715 1417 12815 12816 12590 12580 12813 12585 
1417 1450 1747 1748 10896 12807 12811 12813 12812 12817 
1714 1748 1417 1747 12815 12813 12580 12809 12817 12811 
1715 1417 1748 1418 12585 12813 12816 12587 10677 12818 
1748 1417 1451 1418 12813 10902 12814 12818 10677 10903 
1419 1452 1750 1453 10914 12819 12820 10909 10913 12821 
1716 1750 1717 1419 12822 12823 12599 12597 12820 12592 
1419 1452 1749 1750 10914 12824 12825 12820 12819 12826 
1716 1750 1419 1749 12822 12820 12597 12827 12826 12825 
1717 1419 1750 1420 12592 12820 12823 12594 10686 12828 
1750 1419 1453 1420 12820 10909 12821 12828 10686 10910 
1420 1453 1751 1454 10910 12829 12830 10919 10921 12831 
1717 1751 1718 1420 12832 12833 12607 12594 12830 12602 
1420 1453 1750 1751 10910 12821 12828 12830 12829 12834 
1717 1751 1420 1750 12832 12830 12594 12823 12834 12828 
1718 1420 1751 1421 12602 12830 12833 12604 10694 12835 
1751 1420 1454 1421 12830 10919 12831 12835 10694 10920 
1421 1454 1752 1455 10920 12836 12837 10926 10928 12838 
1718 1752 1719 1421 12839 12840 12614 12604 12837 12609 
1421 1454 1751 1752 10920 12831 12835 12837 12836 12841 
1718 1752 1421 1751 12839 12837 12604 12833 12841 12835 
1719 1421 1752 1422 12609 12837 12840 12611 10701 12842 
1752 1421 1455 1422 12837 10926 12838 12842 10701 10927 
1422 1455 1753 1456 10927 12843 12844 10933 10935 12845 
1719 1753 1720 1422 12846 12847 12621 12611 12844 12616 
1422 1455 1752 1753 10927 12838 12842 12844 12843 12848 
1719 1753 1422 1752 12846 12844 12611 12840 12848 12842 
1720 1422 1753 1423 12616 12844 12847 12618 10708 12849 
1753 1422 1456 1423 12844 10933 12845 12849 10708 10934 
1423 1456 1754 1457 10934 12850 12851 10940 10942 12852 
1720 1754 1721 1423 12853 12854 12628 12618 12851 12623 
1423 1456 1753 1754 10934 12845 12849 12851 12850 12855 
1720 1754 1423 1753 12853 12851 12618 12847 12855 12849 
1721 1423 1754 1424 12623 12851 12854 12625 10715 12856 
1754 1423 1457 1424 12851 10940 12852 12856 10715 10941 
1424 1457 1755 1458 10941 12857 12858 10947 10949 12859 
1721 1755 1722 1424 12860 12861 12635 12625 12858 12630 
1424 1457 1754 1755 10941 12852 12856 12858 12857 12862 
1721 1755 1424 1754 12860 12858 12625 12854 12862 12856 
1722 1424 1755 1425 12630 12858 12861 12632 10722 12863 
1755 1424 1458 1425 12858 10947 12859 12863 10722 10948 
1425 1458 1756 1459 10948 12864 12865 10954 10956 12866 
1722 1756 1723 1425 12867 12868 12642 12632 12865 12637 
1425 1458 1755 1756 10948 12859 12863 12865 12864 12869 
1722 1756 1425 1755 12867 12865 12632 12861 12869 12863 
1723 1425 1756 1426 12637 12865 12868 12639 10729 12870 
1756 1425 1459 1426 12865 10954 12866 12870 10729 10955 
1426 1459 1757 1460 10955 12871 12872 10961 10963 12873 
1723 1757 1724 1426 12874 12875 12649 12639 12872 12644 
1426 1459 1756 1757 10955 12866 12870 12872 12871 12876 
1723 1757 1426 1756 12874 12872 12639 12868 12876 12870 
1724 1426 1757 1427 12644 12872 12875 12646 10736 12877 
1757 1426 1460 1427 12872 10961 12873 12877 10736 10962 
1427 1460 1758 1461 10962 12878 12879 10968 10970 12880 
1724 1758 1725 1427 12881 12882 12656 12646 12879 12651 
1427 1460 1757 1758 10962 12873 12877 12879 12878 12883 
1724 1758 1427 1757 12881 12879 12646 12875 12883 12877 
1725 1427 1758 1428 12651 12879 12882 12653 10743 12884 
1758 1427 1461 1428 12879 10968 12880 12884 10743 10969 
1428 1461 1759 1462 10969 12885 12886 10975 10977 12887 
1725 1759 1726 1428 12888 12889 12663 12653 12886 12658 
1428 1461 1758 1759 10969 12880 12884 12886 12885 12890 
1725 1759 1428 1758 12888 12886 12653 12882 12890 12884 
1726 1428 1759 1429 12658 12886 12889 12660 10750 12891 
1759 1428 1462 1429 12886 10975 12887 12891 10750 10976 
1429 1462 1760 1463 10976 12892 12893 10982 10984 12894 
1726 1760 1727 1429 12895 12896 12670 12660 12893 12665 
1429 1462 1759 1760 10976 12887 12891 12893 12892 12897 
1726 1760 1429 1759 12895 12893 12660 12889 12897 12891 
1727 1429 1760 1430 12665 12893 12896 12667 10757 12898 
1760 1429 1463 1430 12893 10982 12894 12898 10757 10983 
1430 1463 1761 1464 10983 12899 12900 10989 10991 12901 
1727 1761 1728 1430 12902 12903 12677 12667 12900 12672 
1430 1463 1760 1761 10983 12894 12898 12900 12899 12904 
1727 1761 1430 1760 12902 12900 12667 12896 12904 12898 
1728 1430 1761 1431 12672 12900 12903 12674 10764 12905 
1761 1430 1464 1431 12900 10989 12901 12905 10764 10990 
1431 1464 1762 1465 10990 12906 12907 10996 10998 12908 
1728 1762 1729 1431 12909 12910 12684 12674 12907 12679 
1431 1464 1761 1762 10990 12901 12905 12907 12906 12911 
1728 1762 1431 1761 12909 12907 12674 12903 12911 12905 
1729 1431 1762 1432 12679 12907 12910 12681 10771 12912 
1762 1431 1465 1432 12907 10996 12908 12912 10771 10997 
1432 1465 1763 1466 10997 12913 12914 11003 11005 12915 
1729 1763 1730 1432 12916 12917 12691 12681 12914 12686 
1432 1465 1762 1763 10997 12908 12912 12914 12913 12918 
1729 1763 1432 1762 12916 12914 12681 12910 12918 12912 
1730 1432 1763 1433 12686 12914 12917 12688 10778 12919 
1763 1432 1466 1433 12914 11003 12915 12919 10778 11004 
1433 1466 1764 1467 11004 12920 12921 11010 11012 12922 
1730 1764 1731 1433 12923 12924 12698 12688 12921 12693 
1433 1466 1763 1764 11004 12915 12919 12921 12920 12925 
1730 1764 1433 1763 12923 12921 12688 12917 12925 12919 
1731 1433 1764 1434 12693 12921 12924 12695 10785 12926 
1764 1433 1467 1434 12921 11010 12922 12926 10785 11011 
1434 1467 1765 1468 11011 12927 12928 11017 11019 12929 
1731 1765 1732 1434 12930 12931 12705 12695 12928 12700 
1434 1467 1764 1765 11011 12922 12926 12928 12927 12932 
1731 1765 1434 1764 12930 12928 12695 12924 12932 12926 
1732 1434 1765 1435 12700 12928 12931 12702 10792 12933 
1765 1434 1468 1435 12928 11017 12929 12933 10792 11018 
1435 1468 1766 1469 11018 12934 12935 11024 11026 12936 
1732 1766 1733 1435 12937 12938 12712 12702 12935 12707 
1435 1468 1765 1766 11018 12929 12933 12935 12934 12939 
1732 1766 1435 1765 12937 12935 12702 12931 12939 12933 
1733 1435 1766 1436 12707 12935 12938 12709 10799 12940 
1766 1435 1469 1436 12935 11024 12936 12940 10799 11025 
1436 1469 1767 1470 11025 12941 12942 11031 11033 12943 
1733 1767 1734 1436 12944 12945 12719 12709 12942 12714 
1436 1469 1766 1767 11025 12936 12940 12942 12941 12946 
1733 1767 1436 1766 12944 12942 12709 12938 12946 12940 
1734 1436 1767 1437 12714 12942 12945 12716 10806 12947 
1767 1436 1470 1437 12942 11031 12943 12947 10806 11032 
1437 1470 1768 1471 11032 12948 12949 11038 11040 12950 
1734 1768 1735 1437 12951 12952 12726 12716 12949 12721 
1437 1470 1767 1768 11032 12943 12947 12949 12948 12953 
1734 1768 1437 1767 12951 12949 12716 12945 12953 12947 
1735 1437 1768 1438 12721 12949 12952 12723 10813 12954 
1768 1437 1471 1438 12949 11038 12950 12954 10813 11039 
1438 1471 1769 1472 11039 12955 12956 11045 11047 12957 
1735 1769 1736 1438 12958 12959 12733 12723 12956 12728 
1438 1471 1768 1769 11039 12950 12954 12956 12955 12960 
1735 1769 1438 1768 12958 12956 12723 12952 12960 12954 
1736 1438 1769 1439 12728 12956 12959 12730 10820 12961 
1769 1438 1472 1439 12956 11045 12957 12961 10820 11046 
1439 1472 1770 1473 11046 12962 12963 11052 11054 12964 
1736 1770 1737 1439 12965 12966 12740 12730 12963 12735 
1439 1472 1769 1770 11046 12957 12961 12963 12962 12967 
1736 1770 1439 1769 12965 12963 12730 12959 12967 12961 
1737 1439 1770 1440 12735 12963 12966 12737 10827 12968 
1770 1439 1473 1440 12963 11052 12964 12968 10827 11053 
1440 1473 1771 1474 11053 12969 12970 11059 11061 12971 
1737 1771 1738 1440 12972 12973 12747 12737 12970 12742 
1440 1473 1770 1771 11053 12964 12968 12970 12969 12974 
1737 1771 1440 1770 12972 12970 12737 12966 12974 12968 
1738 1440 1771 1441 12742 12970 12973 12744 10834 12975 
1771 1440 1474 1441 12970 11059 12971 12975 10834 11060 
1441 1474 1772 1475 11060 12976 12977 11066 11068 12978 
1738 1772 1739 1441 12979 12980 12754 12744 12977 12749 
1441 1474 1771 1772 11060 12971 12975 12977 12976 12981 
1738 1772 1441 1771 12979 12977 12744 12973 12981 12975 
1739 1441 1772 1442 12749 12977 12980 12751 10841 12982 
1772 1441 1475 1442 12977 11066 12978 12982 10841 11067 
1442 1475 1773 1476 11067 12983 12984 11073 11075 12985 
1739 1773 1740 1442 12986 12987 12761 12751 12984 12756 
1442 1475 1772 1773 11067 12978 12982 12984 12983 12988 
1739 1773 1442 1772 12986 12984 12751 12980 12988 12982 
1740 1442 1773 1443 12756 12984 12987 12758 10848 12989 
1773 1442 1476 1443 12984 11073 12985 12989 10848 11074 
1443 1476 1774 1477 11074 12990 12991 11080 11082 12992 
1740 1774 1741 1443 12993 12994 12768 12758 12991 12763 
1443 1476 1773 1774 11074 12985 12989 12991 12990 12995 
1740 1774 1443 1773 12993 12991 12758 12987 12995 12989 
1741 1443 1774 1444 12763 12991 12994 12765 10855 12996 
1774 1443 1477 1444 12991 11080 12992 12996 10855 11081 
1444 1477 1775 1478 11081 12997 12998 11087 11089 12999 
1741 1775 1742 1444 13000 13001 12775 12765 12998 12770 
1444 1477 1774 1775 11081 12992 12996 12998 12997 13002 
1741 1775 1444 1774 13000 12998 12765 12994 13002 12996 
1742 1444 1775 1445 12770 12998 13001 12772 10862 13003 
1775 1444 1478 1445 12998 11087 12999 13003 10862 11088 
1445 1478 1776 1479 11088 13004 13005 11094 11096 13006 
1742 1776 1743 1445 13007 13008 12782 12772 13005 12777 
1445 1478 1775 1776 11088 12999 13003 13005 13004 13009 
1742 1776 1445 1775 13007 13005 12772 13001 13009 13003 
1743 1445 1776 1446 12777 13005 13008 12779 10869 13010 
1776 1445 1479 1446 13005 11094 13006 13010 10869 11095 
1446 1479 1777 1480 11095 13011 13012 11101 11103 13013 
1743 1777 1744 1446 13014 13015 12789 12779 13012 12784 
1446 1479 1776 1777 11095 13006 13010 13012 13011 13016 
1743 1777 1446 1776 13014 13012 12779 13008 13016 13010 
1744 1446 1777 1447 12784 13012 13015 12786 10876 13017 
1777 1446 1480 1447 13012 11101 13013 13017 10876 11102 
1447 1480 1778 1481 11102 13018 13019 11108 11110 13020 
1744 1778 1745 1447 13021 13022 12796 12786 13019 12791 
1447 1480 1777 1778 11102 13013 13017 13019 13018 13023 
1744 1778 1447 1777 13021 13019 12786 13015 13023 13017 
1745 1447 1778 1448 12791 13019 13022 12793 10883 13024 
1778 1447 1481 1448 13019 11108 13020 13024 10883 11109 
1448 1481 1779 1482 11109 13025 13026 11115 11117 13027 
1745 1779 1746 1448 13028 13029 12803 12793 13026 12798 
1448 1481 1778 1779 11109 13020 13024 13026 13025 13030 
1745 1779 1448 1778 13028 13026 12793 13022 13030 13024 
1746 1448 1779 1449 12798 13026 13029 12800 10890 13031 
1779 1448 1482 1449 13026 11115 13027 13031 10890 11116 
1449 1482 1780 1483 11116 13032 13033 11122 11124 13034 
1746 1780 1747 1449 13035 13036 12810 12800 13033 12805 
1449 1482 1779 1780 11116 13027 13031 13033 13032 13037 
1746 1780 1449 1779 13035 13033 12800 13029 13037 13031 
1747 1449 1780 1450 12805 13033 13036 12807 10897 13038 
1780 1449 1483 1450 13033 11122 13034 13038 10897 11123 
1450 1483 1781 1484 11123 13039 13040 11129 11131 13041 
1747 1781 1748 1450 13042 13043 12817 12807 13040 12812 
1450 1483 1780 1781 11123 13034 13038 13040 13039 13044 
1747 1781 1450 1780 13042 13040 12807 13036 13044 13038 
1748 1450 1781 1451 12812 13040 13043 12814 10904 13045 
1781 1450 1484 1451 13040 11129 13041 13045 10904 11130 
1485 1518 1816 1519 11144 13046 13047 11136 11143 13048 
1782 1816 1783 1485 13049 13050 13051 13052 13047 13053 
1485 1518 1815 1816 11144 13054 13055 13047 13046 13056 
1782 1816 1485 1815 13049 13047 13052 13057 13056 13055 
1783 1485 1816 1486 13053 13047 13050 13058 11138 13059 
1816 1485 1519 1486 13047 11136 13048 13059 11138 11137 
1486 1519 1817 1520 11137 13060 13061 11150 11154 13062 
1783 1817 1784 1486 13063 13064 13065 13058 13061 13066 
1486 1519 1816 1817 11137 13048 13059 13061 13060 13067 
1783 1817 1486 1816 13063 13061 13058 13050 13067 13059 
1784 1486 1817 1487 13066 13061 13064 13068 11152 13069 
1817 1486 1520 1487 13061 11150 13062 13069 11152 11151 
1487 1520 1818 1521 11151 13070 13071 11160 11164 13072 
1784 1818 1785 1487 13073 13074 13075 13068 13071 13076 
1487 1520 1817 1818 11151 13062 13069 13071 13070 13077 
1784 1818 1487 1817 13073 13071 13068 13064 13077 13069 
1785 1487 1818 1488 13076 13071 13074 13078 11162 13079 
1818 1487 1521 1488 13071 11160 13072 13079 11162 11161 
1488 1521 1819 1522 11161 13080 13081 11170 11174 13082 
1785 1819 1786 1488 13083 13084 13085 13078 13081 13086 
1488 1521 1818 1819 11161 13072 13079 13081 13080 13087 
1785 1819 1488 1818 13083 13081 13078 13074 13087 13079 
1786 1488 1819 1489 13086 13081 13084 13088 11172 13089 
1819 1488 1522 1489 13081 11170 13082 13089 11172 11171 
1489 1522 1820 1523 11171 13090 13091 11180 11184 13092 
1786 1820 1787 1489 13093 13094 13095 13088 13091 13096 
1489 1522 1819 1820 11171 13082 13089 13091 13090 13097 
1786 1820 1489 1819 13093 13091 13088 13084 13097 13089 
1787 1489 1820 1490 13096 13091 13094 13098 11182 13099 
1820 1489 1523 1490 13091 11180 13092 13099 11182 11181 
1490 1523 1821 1524 11181 13100 13101 11190 11194 13102 
1787 1821 1788 1490 13103 13104 13105 13098 13101 13106 
1490 1523 1820 1821 11181 13092 13099 13101 13100 13107 
1787 1821 1490 1820 13103 13101 13098 13094 13107 13099 
1788 1490 1821 1491 13106 13101 13104 13108 11192 13109 
1821 1490 1524 1491 13101 11190 13102 13109 11192 11191 
1491 1524 1822 1525 11191 13110 13111 11200 11204 13112 
1788 1822 1789 1491 13113 13114 13115 13108 13111 13116 
1491 1524 1821 1822 11191 13102 13109 13111 13110 13117 
1788 1822 1491 1821 13113 13111 13108 13104 13117 13109 
1789 1491 1822 1492 13116 13111 13114 13118 11202 13119 
1822 1491 1525 1492 13111 11200 13112 13119 11202 11201 
1492 1525 1823 1526 11201 13120 13121 11210 11214 13122 
1789 1823 1790 1492 13123 13124 13125 13118 13121 13126 
1492 1525 1822 1823 11201 13112 13119 13121 13120 13127 
1789 1823 1492 1822 13123 13121 13118 13114 13127 13119 
1790 1492 1823 1493 13126 13121 13124 13128 11212 13129 
1823 1492 1526 1493 13121 11210 13122 13129 11212 11211 
1493 1526 1824 1527 11211 13130 13131 11220 11224 13132 
1790 1824 1791 1493 13133 13134 13135 13128 13131 13136 
1493 1526 1823 1824 11211 13122 13129 13131 13130 13137 
1790 1824 1493 1823 13133 13131 13128 13124 13137 13129 
1791 1493 1824 1494 13136 13131 13134 13138 11222 13139 
1824 1493 1527 1494 13131 11220 13132 13139 11222 11221 
1494 1527 1825 1528 11221 13140 13141 11230 11234 13142 
1791 1825 1792 1494 13143 13144 13145 13138 13141 13146 
1494 1527 1824 1825 11221 13132 13139 13141 13140 13147 
1791 1825 1494 1824 13143 13141 13138 13134 13147 13139 
1792 1494 1825 1495 13146 13141 13144 13148 11232 13149 
1825 1494 1528 1495 13141 11230 13142 13149 11232 11231 
1495 1528 1826 1529 11231 13150 13151 11240 11244 13152 
1792 1826 1793 1495 13153 13154 13155 13148 13151 13156 
1495 1528 1825 1826 11231 13142 13149 13151 13150 13157 
1792 1826 1495 1825 13153 13151 13148 13144 13157 13149 
1793 1495 1826 1496 13156 13151 13154 13158 11242 13159 
1826 1495 1529 1496 13151 11240 13152 13159 11242 11241 
1496 1529 1827 1530 11241 13160 13161 11250 11254 13162 
1793 1827 1794 1496 13163 13164 13165 13158 13161 13166 
1496 1529 1826 1827 11241 13152 13159 13161 13160 13167 
1793 1827 1496 1826 13163 13161 13158 13154 13167 13159 
1794 1496 1827 1497 13166 13161 13164 13168 11252 13169 
1827 1496 1530 1497 13161 11250 13162 13169 11252 11251 
1497 1530 1828 1531 11251 13170 13171 11260 11264 13172 
1794 1828 1795 1497 13173 13174 13175 13168 13171 13176 
1497 1530 1827 1828 11251 13162 13169 13171 13170 13177 
1794 1828 1497 1827 13173 13171 13168 13164 13177 13169 
1795 1497 1828 1498 13176 13171 13174 13178 11262 13179 
1828 1497 1531 1498 13171 11260 13172 13179 11262 11261 
1498 1531 1829 1532 11261 13180 13181 11270 11274 13182 
1795 1829 1796 1498 13183 13184 13185 13178 13181 13186 
1498 1531 1828 1829 11261 13172 13179 13181 13180 13187 
1795 1829 1498 1828 13183 13181 13178 13174 13187 13179 
1796 1498 1829 1499 13186 13181 13184 13188 11272 13189 
1829 1498 1532 1499 13181 11270 13182 13189 11272 11271 
1499 1532 1830 1533 11271 13190 13191 11280 11284 13192 
1796 1830 1797 1499 13193 13194 13195 13188 13191 13196 
1499 1532 1829 1830 11271 13182 13189 13191 13190 13197 
1796 1830 1499 1829 13193 13191 13188 13184 13197 13189 
1797 1499 1830 1500 13196 13191 13194 13198 11282 13199 
1830 1499 1533 1500 13191 11280 13192 13199 11282 11281 
1500 1533 1831 1534 11281 13200 13201 11290 11294 13202 
1797 1831 1798 1500 13203 13204 13205 13198 13201 13206 
1500 1533 1830 1831 11281 13192 13199 13201 13200 13207 
1797 1831 1500 1830 13203 13201 13198 13194 13207 13199 
1798 1500 1831 1501 13206 13201 13204 13208 11292 13209 
1831 1500 1534 1501 13201 11290 13202 13209 11292 11291 
1501 1534 1832 1535 11291 13210 13211 11300 11304 13212 
1798 1832 1799 1501 13213 13214 13215 13208 13211 13216 
1501 1534 1831 1832 11291 13202 13209 13211 13210 13217 
1798 1832 1501 1831 13213 13211 13208 13204 13217 13209 
1799 1501 1832 1502 13216 13211 13214 13218 11302 13219 
1832 1501 1535 1502 13211 11300 13212 13219 11302 11301 
1502 1535 1833 1536 11301 13220 13221 11310 11314 13222 
1799 1833 1800 1502 13223 13224 13225 13218 13221 13226 
1502 1535 1832 1833 11301 13212 13219 13221 13220 13227 
1799 1833 1502 1832 13223 13221 13218 13214 13227 13219 
1800 1502 1833 1503 13226 13221 13224 13228 11312 13229 
1833 1502 1536 1503 13221 11310 13222 13229 11312 11311 
1503 1536 1834 1537 11311 13230 13231 11320 11324 13232 
1800 1834 1801 1503 13233 13234 13235 13228 13231 13236 
1503 1536 1833 1834 11311 13222 13229 13231 13230 13237 
1800 1834 1503 1833 13233 13231 13228 13224 13237 13229 
1801 1503 1834 1504 13236 13231 13234 13238 11322 13239 
1834 1503 1537 1504 13231 11320 13232 13239 11322 11321 
1504 1537 1835 1538 11321 13240 13241 11330 11334 13242 
1801 1835 1802 1504 13243 13244 13245 13238 13241 13246 
1504 1537 1834 1835 11321 13232 13239 13241 13240 13247 
1801 1835 1504 1834 13243 13241 13238 13234 13247 13239 
1802 1504 1835 1505 13246 13241 13244 13248 11332 13249 
1835 1504 1538 1505 13241 11330 13242 13249 11332 11331 
1505 1538 1836 1539 11331 13250 13251 11340 11344 13252 
1802 1836 1803 1505 13253 13254 13255 13248 13251 13256 
1505 1538 1835 1836 11331 13242 13249 13251 13250 13257 
1802 1836 1505 1835 13253 13251 13248 13244 13257 13249 
1803 1505 1836 1506 13256 13251 13254 13258 11342 13259 
1836 1505 1539 1506 13251 11340 13252 13259 11342 11341 
1506 1539 1837 1540 11341 13260 13261 11350 11354 13262 
1803 1837 1804 1506 13263 13264 13265 13258 13261 13266 
1506 1539 1836 1837 11341 13252 13259 13261 13260 13267 
1803 1837 1506 1836 13263 13261 13258 13254 13267 13259 
1804 1506 1837 1507 13266 13261 13264 13268 11352 13269 
1837 1506 1540 1507 13261 11350 13262 13269 11352 11351 
1507 1540 1838 1541 11351 13270 13271 11360 11364 13272 
1804 1838 1805 1507 13273 13274 13275 13268 13271 13276 
1507 1540 1837 1838 11351 13262 13269 13271 13270 13277 
1804 1838 1507 1837 13273 13271 13268 13264 13277 13269 
1805 1507 1838 1508 13276 13271 13274 13278 11362 13279 
1838 1507 1541 1508 13271 11360 13272 13279 11362 11361 
1508 1541 1839 1542 11361 13280 13281 11370 11374 13282 
1805 1839 1806 1508 13283 13284 13285 13278 13281 13286 
1508 1541 1838 1839 11361 13272 13279 13281 13280 13287 
1805 1839 1508 1838 13283 13281 13278 13274 13287 13279 
1806 1508 1839 1509 13286 13281 13284 13288 11372 13289 
1839 1508 1542 1509 13281 11370 13282 13289 11372 11371 
1509 1542 1840 1543 11371 13290 13291 11380 11384 13292 
1806 1840 1807 1509 13293 13294 13295 13288 13291 13296 
1509 1542 1839 1840 11371 13282 13289 13291 13290 13297 
1806 1840 1509 1839 13293 13291 13288 13284 13297 13289 
1807 1509 1840 1510 13296 13291 13294 13298 11382 13299 
1840 1509 1543 1510 13291 11380 13292 13299 11382 11381 
1510 1543 1841 1544 11381 13300 13301 11390 11394 13302 
1807 1841 1808 1510 13303 13304 13305 13298 13301 13306 
1510 1543 1840 1841 11381 13292 13299 13301 13300 13307 
1807 1841 1510 1840 13303 13301 13298 13294 13307 13299 
1808 1510 1841 1511 13306 13301 13304 13308 11392 13309 
1841 1510 1544 1511 13301 11390 13302 13309 11392 11391 
1511 1544 1842 1545 11391 13310 13311 11400 11404 13312 
1808 1842 1809 1511 13313 13314 13315 13308 13311 13316 
1511 1544 1841 1842 11391 13302 13309 13311 13310 13317 
1808 1842 1511 1841 13313 13311 13308 13304 13317 13309 
1809 1511 1842 1512 13316 13311 13314 13318 11402 13319 
1842 1511 1545 1512 13311 11400 13312 13319 11402 11401 
1512 1545 1843 1546 11401 13320 13321 11410 11414 13322 
1809 1843 1810 1512 13323 13324 13325 13318 13321 13326 
1512 1545 1842 1843 11401 13312 13319 13321 13320 13327 
1809 1843 1512 1842 13323 13321 13318 13314 13327 13319 
1810 1512 1843 1513 13326 13321 13324 13328 11412 13329 
1843 1512 1546 1513 13321 11410 13322 13329 11412 11411 
1513 1546 1844 1547 11411 13330 13331 11420 11424 13332 
1810 1844 1811 1513 13333 13334 13335 13328 13331 13336 
1513 1546 1843 1844 11411 13322 13329 13331 13330 13337 
1810 1844 1513 1843 13333 13331 13328 13324 13337 13329 
1811 1513 1844 1514 13336 13331 13334 13338 11422 13339 
1844 1513 1547 1514 13331 11420 13332 13339 11422 11421 
1514 1547 1845 1548 11421 13340 13341 11430 11434 13342 
1811 1845 1812 1514 13343 13344 13345 13338 13341 13346 
1514 1547 1844 1845 11421 13332 13339 13341 13340 13347 
1811 1845 1514 1844 13343 13341 13338 13334 13347 13339 
1812 1514 1845 1515 13346 13341 13344 13348 11432 13349 
1845 1514 1548 1515 13341 11430 13342 13349 11432 11431 
1515 1548 1846 1549 11431 13350 13351 11440 11444 13352 
1812 1846 1813 1515 13353 13354 13355 13348 13351 13356 
1515 1548 1845 1846 11431 13342 13349 13351 13350 13357 
1812 1846 1515 1845 13353 13351 13348 13344 13357 13349 
1813 1515 1846 1516 13356 13351 13354 13358 11442 13359 
1846 1515 1549 1516 13351 11440 13352 13359 11442 11441 
1516 1549 1847 1550 11441 13360 13361 11450 11454 13362 
1813 1847 1814 1516 13363 13364 13365 13358 13361 13366 
1516 1549 1846 1847 11441 13352 13359 13361 13360 13367 
1813 1847 1516 1846 13363 13361 13358 13354 13367 13359 
1814 1516 1847 1517 13366 13361 13364 13368 11452 13369 
1847 1516 1550 1517 13361 11450 13362 13369 11452 11451 
1518 1551 1849 1552 11465 13370 13371 11460 11464 13372 
1815 1849 1816 1518 13373 13374 13056 13054 13371 13046 
1518 1551 1848 1849 11465 13375 13376 13371 13370 13377 
1815 1849 1518 1848 13373 13371 13054 13378 13377 13376 
1816 1518 1849 1519 13046 13371 13374 13048 11143 13379 
1849 1518 1552 1519 13371 11460 13372 13379 11143 11461 
1519 1552 1850 1553 11461 13380 13381 11470 11472 13382 
1816 1850 1817 1519 13383 13384 13067 13048 13381 13060 
1519 1552 1849 1850 11461 13372 13379 13381 13380 13385 
1816 1850 1519 1849 13383 13381 13048 13374 13385 13379 
1817 1519 1850 1520 13060 13381 13384 13062 11154 13386 
1850 1519 1553 1520 13381 11470 13382 13386 11154 11471 
1520 1553 1851 1554 11471 13387 13388 11477 11479 13389 
1817 1851 1818 1520 13390 13391 13077 13062 13388 13070 
1520 1553 1850 1851 11471 13382 13386 13388 13387 13392 
1817 1851 1520 1850 13390 13388 13062 13384 13392 13386 
1818 1520 1851 1521 13070 13388 13391 13072 11164 13393 
1851 1520 1554 1521 13388 11477 13389 13393 11164 11478 
1521 1554 1852 1555 11478 13394 13395 11484 11486 13396 
1818 1852 1819 1521 13397 13398 13087 13072 13395 13080 
1521 1554 1851 1852 11478 13389 13393 13395 13394 13399 
1818 1852 1521 1851 13397 13395 13072 13391 13399 13393 
1819 1521 1852 1522 13080 13395 13398 13082 11174 13400 
1852 1521 1555 1522 13395 11484 13396 13400 11174 11485 
1522 1555 1853 1556 11485 13401 13402 11491 11493 13403 
1819 1853 1820 1522 13404 13405 13097 13082 13402 13090 
1522 1555 1852 1853 11485 13396 13400 13402 13401 13406 
1819 1853 1522 1852 13404 13402 13082 13398 13406 13400 
1820 1522 1853 1523 13090 13402 13405 13092 11184 13407 
1853 1522 1556 1523 13402 11491 13403 13407 11184 11492 
1523 1556 1854 1557 11492 13408 13409 11498 11500 13410 
1820 1854 1821 1523 13411 13412 13107 13092 13409 13100 
1523 1556 1853 1854 11492 13403 13407 13409 13408 13413 
1820 1854 1523 1853 13411 13409 13092 13405 13413 13407 
1821 1523 1854 1524 13100 13409 13412 13102 11194 13414 
1854 1523 1557 1524 13409 11498 13410 13414 11194 11499 
1524 1557 1855 1558 11499 13415 13416 11505 11507 13417 
1821 1855 1822 1524 13418 13419 13117 13102 13416 13110 
1524 1557 1854 1855 11499 13410 13414 13416 13415 13420 
1821 1855 1524 1854 13418 13416 13102 13412 13420 13414 
1822 1524 1855 1525 13110 13416 13419 13112 11204 13421 
1855 1524 1558 1525 13416 11505 13417 13421 11204 11506 
1525 1558 1856 1559 11506 13422 13423 11512 11514 13424 
1822 1856 1823 1525 13425 13426 13127 13112 13423 13120 
1525 1558 1855 1856 11506 13417 13421 13423 13422 13427 
1822 1856 1525 1855 13425 13423 13112 13419 13427 13421 
1823 1525 1856 1526 13120 13423 13426 13122 11214 13428 
1856 1525 1559 1526 13423 11512 13424 13428 11214 11513 
1526 1559 1857 1560 11513 13429 13430 11519 11521 13431 
1823 1857 1824 1526 13432 13433 13137 13122 13430 13130 
1526 1559 1856 1857 11513 13424 13428 13430 13429 13434 
1823 1857 1526 1856 13432 13430 13122 13426 13434 13428 
1824 1526 1857 1527 13130 13430 13433 13132 11224 13435 
1857 1526 1560 1527 13430 11519 13431 13435 11224 11520 
1527 1560 1858 1561 11520 13436 13437 11526 11528 13438 
1824 1858 1825 1527 13439 13440 13147 13132 13437 13140 
1527 1560 1857 1858 11520 13431 13435 13437 13436 13441 
1824 1858 1527 1857 13439 13437 13132 13433 13441 13435 
1825 1527 1858 1528 13140 13437 13440 13142 11234 13442 
1858 1527 1561 1528 13437 11526 13438 13442 11234 11527 
1528 1561 1859 1562 11527 13443 13444 11533 11535 13445 
1825 1859 1826 1528 13446 13447 13157 13142 13444 13150 
1528 1561 1858 1859 11527 13438 13442 13444 13443 13448 
1825 1859 1528 1858 13446 13444 13142 13440 13448 13442 
1826 1528 1859 1529 13150 13444 13447 13152 11244 13449 
1859 1528 1562 1529 13444 11533 13445 13449 11244 11534 
1529 1562 1860 1563 11534 13450 13451 11540 11542 13452 
1826 1860 1827 1529 13453 13454 13167 13152 13451 13160 
1529 1562 1859 1860 11534 13445 13449 13451 13450 13455 
1826 1860 1529 1859 13453 13451 13152 13447 13455 13449 
1827 1529 1860 1530 13160 13451 13454 13162 11254 13456 
1860 1529 1563 1530 13451 11540 13452 13456 11254 11541 
1530 1563 1861 1564 11541 13457 13458 11547 11549 13459 
1827 1861 1828 1530 13460 13461 13177 13162 13458 13170 
1530 1563 1860 1861 11541 13452 13456 13458 13457 13462 
1827 1861 1530 1860 13460 13458 13162 13454 13462 13456 
1828 1530 1861 1531 13170 13458 13461 13172 11264 13463 
1861 1530 1564 1531 13458 11547 13459 13463 11264 11548 
1531 1564 1862 1565 11548 13464 13465 11554 11556 13466 
1828 1862 1829 1531 13467 13468 13187 13172 13465 13180 
1531 1564 1861 1862 11548 13459 13463 13465 13464 13469 
1828 1862 1531 1861 13467 13465 13172 13461 13469 13463 
1829 1531 1862 1532 13180 13465 13468 13182 11274 13470 
1862 1531 1565 1532 13465 11554 13466 13470 11274 11555 
1532 1565 1863 1566 11555 13471 13472 11561 11563 13473 
1829 1863 1830 1532 13474 13475 13197 13182 13472 13190 
1532 1565 1862 1863 11555 13466 13470 13472 13471 13476 
1829 1863 1532 1862 13474 13472 13182 13468 13476 13470 
1830 1532 1863 1533 13190 13472 13475 13192 11284 13477 
1863 1532 1566 1533 13472 11561 13473 13477 11284 11562 
1533 1566 1864 1567 11562 13478 13479 11568 11570 13480 
1830 1864 1831 1533 13481 13482 13207 13192 13479 13200 
1533 1566 1863 1864 11562 13473 13477 13479 13478 13483 
1830 1864 1533 1863 13481 13479 13192 13475 13483 13477 
1831 1533 1864 1534 13200 13479 13482 13202 11294 13484 
1864 1533 1567 1534 13479 11568 13480 13484 11294 11569 
1534 1567 1865 1568 11569 13485 13486 11575 11577 13487 
1831 1865 1832 1534 13488 13489 13217 13202 13486 13210 
1534 1567 1864 1865 11569 13480 13484 13486 13485 13490 
1831 1865 1534 1864 13488 13486 13202 13482 13490 13484 
1832 1534 1865 1535 13210 13486 13489 13212 11304 13491 
1865 1534 1568 1535 13486 11575 13487 13491 11304 11576 
1535 1568 1866 1569 11576 13492 13493 11582 11584 13494 
1832 1866 1833 1535 13495 13496 13227 13212 13493 13220 
1535 1568 1865 1866 11576 13487 13491 13493 13492 13497 
1832 1866 1535 1865 13495 13493 13212 13489 13497 13491 
1833 1535 1866 1536 13220 13493 13496 13222 11314 13498 
1866 1535 1569 1536 13493 11582 13494 13498 11314 11583 
1536 1569 1867 1570 11583 13499 13500 11589 11591 13501 
1833 1867 1834 1536 13502 13503 13237 13222 13500 13230 
1536 1569 1866 1867 11583 13494 13498 13500 13499 13504 
1833 1867 1536 1866 13502 13500 13222 13496 13504 13498 
1834 1536 1867 1537 13230 13500 13503 13232 11324 13505 
1867 1536 1570 1537 13500 11589 13501 13505 11324 11590 
1537 1570 1868 1571 11590 13506 13507 11596 11598 13508 
1834 1868 1835 1537 13509 13510 13247 13232 13507 13240 
1537 1570 1867 1868 11590 13501 13505 13507 13506 13511 
1834 1868 1537 1867 13509 13507 13232 13503 13511 13505 
1835 1537 1868 1538 13240 13507 13510 13242 11334 13512 
1868 1537 1571 1538 13507 11596 13508 13512 11334 11597 
1538 1571 1869 1572 11597 13513 13514 11603 11605 13515 
1835 1869 1836 1538 13516 13517 13257 13242 13514 13250 
1538 1571 1868 1869 11597 13508 13512 13514 13513 13518 
1835 1869 1538 1868 13516 13514 13242 13510 13518 13512 
1836 1538 1869 1539 13250 13514 13517 13252 11344 13519 
1869 1538 1572 1539 13514 11603 13515 13519 11344 11604 
1539 1572 1870 1573 11604 13520 13521 11610 11612 13522 
1836 1870 1837 1539 13523 13524 13267 13252 13521 13260 
1539 1572 1869 1870 11604 13515 13519 13521 13520 13525 
1836 1870 1539 1869 13523 13521 13252 13517 13525 13519 
1837 1539 1870 1540 13260 13521 13524 13262 11354 13526 
1870 1539 1573 1540 13521 11610 13522 13526 11354 11611 
1540 1573 1871 1574 11611 13527 13528 11617 11619 13529 
1837 1871 1838 1540 13530 13531 13277 13262 13528 13270 
1540 1573 1870 1871 11611 13522 13526 13528 13527 13532 
1837 1871 1540 1870 13530 13528 13262 13524 13532 13526 
1838 1540 1871 1541 13270 13528 13531 13272 11364 13533 
1871 1540 1574 1541 13528 11617 13529 13533 11364 11618 
1541 1574 1872 1575 11618 13534 13535 11624 11626 13536 
1838 1872 1839 1541 13537 13538 13287 13272 13535 13280 
1541 1574 1871 1872 11618 13529 13533 13535 13534 13539 
1838 1872 1541 1871 13537 13535 13272 13531 13539 13533 
1839 1541 1872 1542 13280 13535 13538 13282 11374 13540 
1872 1541 1575 1542 13535 11624 13536 13540 11374 11625 
1542 1575 1873 1576 11625 13541 13542 11631 11633 13543 
1839 1873 1840 1542 13544 13545 13297 13282 13542 13290 
1542 1575 1872 1873 11625 13536 13540 13542 13541 13546 
1839 1873 1542 1872 13544 13542 13282 13538 13546 13540 
1840 1542 1873 1543 13290 13542 13545 13292 11384 13547 
1873 1542 1576 1543 13542 11631 13543 13547 11384 11632 
1543 1576 1874 1577 11632 13548 13549 11638 11640 13550 
1840 1874 1841 1543 13551 13552 13307 13292 13549 13300 
1543 1576 1873 1874 11632 13543 13547 13549 13548 13553 
1840 1874 1543 1873 13551 13549 13292 13545 13553 13547 
1841 1543 1874 1544 13300 13549 13552 13302 11394 13554 
1874 1543 1577 1544 13549 11638 13550 13554 11394 11639 
1544 1577 1875 1578 11639 13555 13556 11645 11647 13557 
1841 1875 1842 1544 13558 13559 13317 13302 13556 13310 
1544 1577 1874 1875 11639 13550 13554 13556 13555 13560 
1841 1875 1544 1874 13558 13556 13302 13552 13560 13554 
1842 1544 1875 1545 13310 13556 13559 13312 11404 13561 
1875 1544 1578 1545 13556 11645 13557 13561 11404 11646 
1545 1578 1876 1579 11646 13562 13563 11652 11654 13564 
1842 1876 1843 1545 13565 13566 13327 13312 13563 13320 
1545 1578 1875 1876 11646 13557 13561 13563 13562 13567 
1842 1876 1545 1875 13565 13563 13312 13559 13567 13561 
1843 1545 1876 1546 13320 13563 13566 13322 11414 13568 
1876 1545 1579 1546 13563 11652 13564 13568 11414 11653 
1546 1579 1877 1580 11653 13569 13570 11659 11661 13571 
1843 1877 1844 1546 13572 13573 13337 13322 13570 13330 
1546 1579 1876 1877 11653 13564 13568 13570 13569 13574 
1843 1877 1546 1876 13572 13570 13322 13566 13574 13568 
1844 1546 1877 1547 13330 13570 13573 13332 11424 13575 
1877 1546 1580 1547 13570 11659 13571 13575 11424 11660 
1547 1580 1878 1581 11660 13576 13577 11666 11668 13578 
1844 1878 1845 1547 13579 13580 13347 13332 13577 13340 
1547 1580 1877 1878 11660 13571 13575 13577 13576 13581 
1844 1878 1547 1877 13579 13577 13332 13573 13581 13575 
1845 1547 1878 1548 13340 13577 13580 13342 11434 13582 
1878 1547 1581 1548 13577 11666 13578 13582 11434 11667 
1548 1581 1879 1582 11667 13583 13584 11673 11675 13585 
1845 1879 1846 1548 13586 13587 13357 13342 13584 13350 
1548 1581 1878 1879 11667 13578 13582 13584 13583 13588 
1845 1879 1548 1878 13586 13584 13342 13580 13588 13582 
1846 1548 1879 1549 13350 13584 13587 13352 11444 13589 
1879 1548 1582 1549 13584 11673 13585 13589 11444 11674 
1549 1582 1880 1583 11674 13590 13591 11680 11682 13592 
1846 1880 1847 1549 13593 13594 13367 13352 13591 13360 
1549 1582 1879 1880 11674 13585 13589 13591 13590 13595 
1846 1880 1549 1879 13593 13591 13352 13587 13595 13589 
1847 1549 1880 1550 13360 13591 13594 13362 11454 13596 
1880 1549 1583 1550 13591 11680 13592 13596 11454 11681 
1551 1584 1882 1585 11692 13597 13598 11687 11691 13599 
1848 1882 1849 1551 13600 13601 13377 13375 13598 13370 
1551 1584 1881 1882 11692 13602 13603 13598 13597 13604 
1848 1882 1551 1881 13600 13598 13375 13605 13604 13603 
1849 1551 1882 1552 13370 13598 13601 13372 11464 13606 
1882 1551 1585 1552 13598 11687 13599 13606 11464 11688 
1552 1585 1883 1586 11688 13607 13608 11697 11699 13609 
1849 1883 1850 1552 13610 13611 13385 13372 13608 13380 
1552 1585 1882 1883 11688 13599 13606 13608 13607 13612 
1849 1883 1552 1882 13610 13608 13372 13601 13612 13606 
1850 1552 1883 1553 13380 13608 13611 13382 11472 13613 
1883 1552 1586 1553 13608 11697 13609 13613 11472 11698 
1553 1586 1884 1587 11698 13614 13615 11704 11706 13616 
1850 1884 1851 1553 13617 13618 13392 13382 13615 13387 
1553 1586 1883 1884 11698 13609 13613 13615 13614 13619 
1850 1884 1553 1883 13617 13615 13382 13611 13619 13613 
1851 1553 1884 1554 13387 13615 13618 13389 11479 13620 
1884 1553 1587 1554 13615 11704 13616 13620 11479 11705 
1554 1587 1885 1588 11705 13621 13622 11711 11713 13623 
1851 1885 1852 1554 13624 13625 13399 13389 13622 13394 
1554 1587 1884 1885 11705 13616 13620 13622 13621 13626 
1851 1885 1554 1884 13624 13622 13389 13618 13626 13620 
1852 1554 1885 1555 13394 13622 13625 13396 11486 13627 
1885 1554 1588 1555 13622 11711 13623 13627 11486 11712 
1555 1588 1886 1589 11712 13628 13629 11718 11720 13630 
1852 1886 1853 1555 13631 13632 13406 13396 13629 13401 
1555 1588 1885 1886 11712 13623 13627 13629 13628 13633 
1852 1886 1555 1885 13631 13629 13396 13625 13633 13627 
1853 1555 1886 1556 13401 13629 13632 13403 11493 13634 
1886 1555 1589 1556 13629 11718 13630 13634 11493 11719 
1556 1589 1887 1590 11719 13635 13636 11725 11727 13637 
1853 1887 1854 1556 13638 13639 13413 13403 13636 13408 
1556 1589 1886 1887 11719 13630 13634 13636 13635 13640 
1853 1887 1556 1886 13638 13636 13403 13632 13640 13634 
1854 1556 1887 1557 13408 13636 13639 13410 11500 13641 
1887 1556 1590 1557 13636 11725 13637 13641 11500 11726 
1557 1590 1888 1591 11726 13642 13643 11732 11734 13644 
1854 1888 1855 1557 13645 13646 13420 13410 13643 13415 
1557 1590 1887 1888 11726 13637 13641 13643 13642 13647 
1854 1888 1557 1887 13645 13643 13410 13639 13647 13641 
1855 1557 1888 1558 13415 13643 13646 13417 11507 13648 
1888 1557 1591 1558 13643 11732 13644 13648 11507 11733 
1558 1591 1889 1592 11733 13649 13650 11739 11741 13651 
1855 1889 1856 1558 13652 13653 13427 13417 13650 13422 
1558 1591 1888 1889 11733 13644 13648 13650 13649 13654 
1855 1889 1558 1888 13652 13650 13417 13646 13654 13648 
1856 1558 1889 1559 13422 13650 13653 13424 11514 13655 
1889 1558 1592 1559 13650 11739 13651 13655 11514 11740 
1559 1592 1890 1593 11740 13656 13657 11746 11748 13658 
1856 1890 1857 1559 13659 13660 13434 13424 13657 13429 
1559 1592 1889 1890 11740 13651 13655 13657 13656 13661 
1856 1890 1559 1889 13659 13657 13424 13653 13661 13655 
1857 1559 1890 1560 13429 13657 13660 13431 11521 13662 
1890 1559 1593 1560 13657 11746 13658 13662 11521 11747 
1560 1593 1891 1594 11747 13663 13664 11753 11755 13665 
1857 1891 1858 1560 13666 13667 13441 13431 13664 13436 
1560 1593 1890 1891 11747 13658 13662 13664 13663 13668 
1857 1891 1560 1890 13666 13664 13431 13660 13668 13662 
1858 1560 1891 1561 13436 13664 13667 13438 11528 13669 
1891 1560 1594 1561 13664 11753 13665 13669 11528 11754 
1561 1594 1892 1595 11754 13670 13671 11760 11762 13672 
1858 1892 1859 1561 13673 13674 13448 13438 13671 13443 
1561 1594 1891 1892 11754 13665 13669 13671 13670 13675 
1858 1892 1561 1891 13673 13671 13438 13667 13675 13669 
1859 1561 1892 1562 13443 13671 13674 13445 11535 13676 
1892 1561 1595 1562 13671 11760 13672 13676 11535 11761 
1562 1595 1893 1596 11761 13677 13678 11767 11769 13679 
1859 1893 1860 1562 13680 13681 13455 13445 13678 13450 
1562 1595 1892 1893 11761 13672 13676 13678 13677 13682 
1859 1893 1562 1892 13680 13678 13445 13674 13682 13676 
1860 1562 1893 1563 13450 13678 13681 13452 11542 13683 
1893 1562 1596 1563 13678 11767 13679 13683 11542 11768 
1563 1596 1894 1597 11768 13684 13685 11774 11776 13686 
1860 1894 1861 1563 13687 13688 13462 13452 13685 13457 
1563 1596 1893 1894 11768 13679 13683 13685 13684 13689 
1860 1894 1563 1893 13687 13685 13452 13681 13689 13683 
1861 1563 1894 1564 13457 13685 13688 13459 11549 13690 
1894 1563 1597 1564 13685 11774 13686 13690 11549 11775 
1564 1597 1895 1598 11775 13691 13692 11781 11783 13693 
1861 1895 1862 1564 13694 13695 13469 13459 13692 13464 
1564 1597 1894 1895 11775 13686 13690 13692 13691 13696 
1861 1895 1564 1894 13694 13692 13459 13688 13696 13690 
1862 1564 1895 1565 13464 13692 13695 13466 11556 13697 
1895 1564 1598 1565 13692 11781 13693 13697 11556 11782 
1565 1598 1896 1599 11782 13698 13699 11788 11790 13700 
1862 1896 1863 1565 13701 13702 13476 13466 13699 13471 
1565 1598 1895 1896 11782 13693 13697 13699 13698 13703 
1862 1896 1565 1895 13701 13699 13466 13695 13703 13697 
1863 1565 1896 1566 13471 13699 13702 13473 11563 13704 
1896 1565 1599 1566 13699 11788 13700 13704 11563 11789 
1566 1599 1897 1600 11789 13705 13706 11795 11797 13707 
1863 1897 1864 1566 13708 13709 13483 13473 13706 13478 
1566 1599 1896 1897 11789 13700 13704 13706 13705 13710 
1863 1897 1566 1896 13708 13706 13473 13702 13710 13704 
1864 1566 1897 1567 13478 13706 13709 13480 11570 13711 
1897 1566 1600 1567 13706 11795 13707 13711 11570 11796 
1567 1600 1898 1601 11796 13712 13713 11802 11804 13714 
1864 1898 1865 1567 13715 13716 13490 13480 13713 13485 
1567 1600 1897 1898 11796 13707 13711 13713 13712 13717 
1864 1898 1567 1897 13715 13713 13480 13709 13717 13711 
1865 1567 1898 1568 13485 13713 13716 13487 11577 13718 
1898 1567 1601 1568 13713 11802 13714 13718 11577 11803 
1568 1601 1899 1602 11803 13719 13720 11809 11811 13721 
1865 1899 1866 1568 13722 13723 13497 13487 13720 13492 
1568 1601 1898 1899 11803 13714 13718 13720 13719 13724 
1865 1899 1568 1898 13722 13720 13487 13716 13724 13718 
1866 1568 1899 1569 13492 13720 13723 13494 11584 13725 
1899 1568 1602 1569 13720 11809 13721 13725 11584 11810 
1569 1602 1900 1603 11810 13726 13727 11816 11818 13728 
1866 1900 1867 1569 13729 13730 13504 13494 13727 13499 
1569 1602 1899 1900 11810 13721 13725 13727 13726 13731 
1866 1900 1569 1899 13729 13727 13494 13723 13731 13725 
1867 1569 1900 1570 13499 13727 13730 13501 11591 13732 
1900 1569 1603 1570 13727 11816 13728 13732 11591 11817 
1570 1603 1901 1604 11817 13733 13734 11823 11825 13735 
1867 1901 1868 1570 13736 13737 13511 13501 13734 13506 
1570 1603 1900 1901 11817 13728 13732 13734 13733 13738 
1867 1901 1570 1900 13736 13734 13501 13730 13738 13732 
1868 1570 1901 1571 13506 13734 13737 13508 11598 13739 
1901 1570 1604 1571 13734 11823 13735 13739 11598 11824 
1571 1604 1902 1605 11824 13740 13741 11830 11832 13742 
1868 1902 1869 1571 13743 13744 13518 13508 13741 13513 
1571 1604 1901 1902 11824 13735 13739 13741 13740 13745 
1868 1902 1571 1901 13743 13741 13508 13737 13745 13739 
1869 1571 1902 1572 13513 13741 13744 13515 11605 13746 
1902 1571 1605 1572 13741 11830 13742 13746 11605 11831 
1572 1605 1903 1606 11831 13747 13748 11837 11839 13749 
1869 1903 1870 1572 13750 13751 13525 13515 13748 13520 
1572 1605 1902 1903 11831 13742 13746 13748 13747 13752 
1869 1903 1572 1902 13750 13748 13515 13744 13752 13746 
1870 1572 1903 1573 13520 13748 13751 13522 11612 13753 
1903 1572 1606 1573 13748 11837 13749 13753 11612 11838 
1573 1606 1904 1607 11838 13754 13755 11844 11846 13756 
1870 1904 1871 1573 13757 13758 13532 13522 13755 13527 
1573 1606 1903 1904 11838 13749 13753 13755 13754 13759 
1870 1904 1573 1903 13757 13755 13522 13751 13759 13753 
1871 1573 1904 1574 13527 13755 13758 13529 11619 13760 
1904 1573 1607 1574 13755 11844 13756 13760 11619 11845 
1574 1607 1905 1608 11845 13761 13762 11851 11853 13763 
1871 1905 1872 1574 13764 13765 13539 13529 13762 13534 
1574 1607 1904 1905 11845 13756 13760 13762 13761 13766 
1871 1905 1574 1904 13764 13762 13529 13758 13766 13760 
1872 1574 1905 1575 13534 13762 13765 13536 11626 13767 
1905 1574 1608 1575 13762 11851 13763 13767 11626 11852 
1575 1608 1906 1609 11852 13768 13769 11858 11860 13770 
1872 1906 1873 1575 13771 13772 13546 13536 13769 13541 
1575 1608 1905 1906 11852 13763 13767 13769 13768 13773 
1872 1906 1575 1905 13771 13769 13536 13765 13773 13767 
1873 1575 1906 1576 13541 13769 13772 13543 11633 13774 
1906 1575 1609 1576 13769 11858 13770 13774 11633 11859 
1576 1609 1907 1610 11859 13775 13776 11865 11867 13777 
1873 1907 1874 1576 13778 13779 13553 13543 13776 13548 
1576 1609 1906 1907 11859 13770 13774 13776 13775 13780 
1873 1907 1576 1906 13778 13776 13543 13772 13780 13774 
1874 1576 1907 1577 13548 13776 13779 13550 11640 13781 
1907 1576 1610 1577 13776 11865 13777 13781 11640 11866 
1577 1610 1908 1611 11866 13782 13783 11872 11874 13784 
1874 1908 1875 1577 13785 13786 13560 13550 13783 13555 
1577 1610 1907 1908 11866 13777 13781 13783 13782 13787 
1874 1908 1577 1907 13785 13783 13550 13779 13787 13781 
1875 1577 1908 1578 13555 13783 13786 13557 11647 13788 
1908 1577 1611 1578 13783 11872 13784 13788 11647 11873 
1578 1611 1909 1612 11873 13789 13790 11879 11881 13791 
1875 1909 1876 1578 13792 13793 13567 13557 13790 13562 
1578 1611 1908 1909 11873 13784 13788 13790 13789 13794 
1875 1909 1578 1908 13792 13790 13557 13786 13794 13788 
1876 1578 1909 1579 13562 13790 13793 13564 11654 13795 
1909 1578 1612 1579 13790 11879 13791 13795 11654 11880 
1579 1612 1910 1613 11880 13796 13797 11886 11888 13798 
1876 1910 1877 1579 13799 13800 13574 13564 13797 13569 
1579 1612 1909 1910 11880 13791 13795 13797 13796 13801 
1876 1910 1579 1909 13799 13797 13564 13793 13801 13795 
1877 1579 1910 1580 13569 13797 13800 13571 11661 13802 
1910 1579 1613 1580 13797 11886 13798 13802 11661 11887 
1580 1613 1911 1614 11887 13803 13804 11893 11895 13805 
1877 1911 1878 1580 13806 13807 13581 13571 13804 13576 
1580 1613 1910 1911 11887 13798 13802 13804 13803 13808 
1877 1911 1580 1910 13806 13804 13571 13800 13808 13802 
1878 1580 1911 1581 13576 13804 13807 13578 11668 13809 
1911 1580 1614 1581 13804 11893 13805 13809 11668 11894 
1581 1614 1912 1615 11894 13810 13811 11900 11902 13812 
1878 1912 1879 1581 13813 13814 13588 13578 13811 13583 
1581 1614 1911 1912 11894 13805 13809 13811 13810 13815 
1878 1912 1581 1911 13813 13811 13578 13807 13815 13809 
1879 1581 1912 1582 13583 13811 13814 13585 11675 13816 
1912 1581 1615 1582 13811 11900 13812 13816 11675 11901 
1582 1615 1913 1616 11901 13817 13818 11907 11909 13819 
1879 1913 1880 1582 13820 13821 13595 13585 13818 13590 
1582 1615 1912 1913 11901 13812 13816 13818 13817 13822 
1879 1913 1582 1912 13820 13818 13585 13814 13822 13816 
1880 1582 1913 1583 13590 13818 13821 13592 11682 13823 
1913 1582 1616 1583 13818 11907 13819 13823 11682 11908 
1584 1617 1915 1618 11919 13824 13825 11914 11918 13826 
1881 1915 1882 1584 13827 13828 13604 13602 13825 13597 
1584 1617 1914 1915 11919 13829 13830 13825 13824 13831 
1881 1915 1584 1914 13827 13825 13602 13832 13831 13830 
1882 1584 1915 1585 13597 13825 13828 13599 11691 13833 
1915 1584 1618 1585 13825 11914 13826 13833 11691 11915 
1585 1618 1916 1619 11915 13834 13835 11924 11926 13836 
1882 1916 1883 1585 13837 13838 13612 13599 13835 13607 
1585 1618 1915 1916 11915 13826 13833 13835 13834 13839 
1882 1916 1585 1915 13837 13835 13599 13828 13839 13833 
1883 1585 1916 1586 13607 13835 13838 13609 11699 13840 
1916 1585 1619 1586 13835 11924 13836 13840 11699 11925 
1586 1619 1917 1620 11925 13841 13842 11931 11933 13843 
1883 1917 1884 1586 13844 13845 13619 13609 13842 13614 
1586 1619 1916 1917 11925 13836 13840 13842 13841 13846 
1883 1917 1586 1916 13844 13842 13609 13838 13846 13840 
1884 1586 1917 1587 13614 13842 13845 13616 11706 13847 
1917 1586 1620 1587 13842 11931 13843 13847 11706 11932 
1587 1620 1918 1621 11932 13848 13849 11938 11940 13850 
1884 1918 1885 1587 13851 13852 13626 13616 13849 13621 
1587 1620 1917 1918 11932 13843 13847 13849 13848 13853 
1884 1918 1587 1917 13851 13849 13616 13845 13853 13847 
1885 1587 1918 1588 13621 13849 13852 13623 11713 13854 
1918 1587 1621 1588 13849 11938 13850 13854 11713 11939 
1588 1621 1919 1622 11939 13855 13856 11945 11947 13857 
1885 1919 1886 1588 13858 13859 13633 13623 13856 13628 
1588 1621 1918 1919 11939 13850 13854 13856 13855 13860 
1885 1919 1588 1918 13858 13856 13623 13852 13860 13854 
1886 1588 1919 1589 13628 13856 13859 13630 11720 13861 
1919 1588 1622 1589 13856 11945 13857 13861 11720 11946 
1589 1622 1920 1623 11946 13862 13863 11952 11954 13864 
1886 1920 1887 1589 13865 13866 13640 13630 13863 13635 
1589 1622 1919 1920 11946 13857 13861 13863 13862 13867 
1886 1920 1589 1919 13865 13863 13630 13859 13867 13861 
1887 1589 1920 1590 13635 13863 13866 13637 11727 13868 
1920 1589 1623 1590 13863 11952 13864 13868 11727 11953 
1590 1623 1921 1624 11953 13869 13870 11959 11961 13871 
1887 1921 1888 1590 13872 13873 13647 13637 13870 13642 
1590 1623 1920 1921 11953 13864 13868 13870 13869 13874 
1887 1921 1590 1920 13872 13870 13637 13866 13874 13868 
1888 1590 1921 1591 13642 13870 13873 13644 11734 13875 
1921 1590 1624 1591 13870 11959 13871 13875 11734 11960 
1591 1624 1922 1625 11960 13876 13877 11966 11968 13878 
1888 1922 1889 1591 13879 13880 13654 13644 13877 13649 
1591 1624 1921 1922 11960 13871 13875 13877 13876 13881 
1888 1922 1591 1921 13879 13877 13644 13873 13881 13875 
1889 1591 1922 1592 13649 13877 13880 13651 11741 13882 
1922 1591 1625 1592 13877 11966 13878 13882 11741 11967 
1592 1625 1923 1626 11967 13883 13884 11973 11975 13885 
1889 1923 1890 1592 13886 13887 13661 13651 13884 13656 
1592 1625 1922 1923 11967 13878 13882 13884 13883 13888 
1889 1923 1592 1922 13886 13884 13651 13880 13888 13882 
1890 1592 1923 1593 13656 13884 13887 13658 11748 13889 
1923 1592 1626 1593 13884 11973 13885 13889 11748 11974 
1593 1626 1924 1627 11974 13890 13891 11980 11982 13892 
1890 1924 1891 1593 13893 13894 13668 13658 13891 13663 
1593 1626 1923 1924 11974 13885 13889 13891 13890 13895 
1890 1924 1593 1923 13893 13891 13658 13887 13895 13889 
1891 1593 1924 1594 13663 13891 13894 13665 11755 13896 
1924 1593 1627 1594 13891 11980 13892 13896 11755 11981 
1594 1627 1925 1628 11981 13897 13898 11987 11989 13899 
1891 1925 1892 1594 13900 13901 13675 13665 13898 13670 
1594 1627 1924 1925 11981 13892 13896 13898 13897 13902 
1891 1925 1594 1924 13900 13898 13665 13894 13902 13896 
1892 1594 1925 1595 13670 13898 13901 13672 11762 13903 
1925 1594 1628 1595 13898 11987 13899 13903 11762 11988 
1595 1628 1926 1629 11988 13904 13905 11994 11996 13906 
1892 1926 1893 1595 13907 13908 13682 13672 13905 13677 
1595 1628 1925 1926 11988 13899 13903 13905 13904 13909 
1892 1926 1595 1925 13907 13905 13672 13901 13909 13903 
1893 1595 1926 1596 13677 13905 13908 13679 11769 13910 
1926 1595 1629 1596 13905 11994 13906 13910 11769 11995 
1596 1629 1927 1630 11995 13911 13912 12001 12003 13913 
1893 1927 1894 1596 13914 13915 13689 13679 13912 13684 
1596 1629 1926 1927 11995 13906 13910 13912 13911 13916 
1893 1927 1596 1926 13914 13912 13679 13908 13916 13910 
1894 1596 1927 1597 13684 13912 13915 13686 11776 13917 
1927 1596 1630 1597 13912 12001 13913 13917 11776 12002 
1597 1630 1928 1631 12002 13918 13919 12008 12010 13920 
1894 1928 1895 1597 13921 13922 13696 13686 13919 13691 
1597 1630 1927 1928 12002 13913 13917 13919 13918 13923 
1894 1928 1597 1927 13921 13919 13686 13915 13923 13917 
1895 1597 1928 1598 13691 13919 13922 13693 11783 13924 
1928 1597 1631 1598 13919 12008 13920 13924 11783 12009 
1598 1631 1929 1632 12009 13925 13926 12015 12017 13927 
1895 1929 1896 1598 13928 13929 13703 13693 13926 13698 
1598 1631 1928 1929 12009 13920 13924 13926 13925 13930 
1895 1929 1598 1928 13928 13926 13693 13922 13930 13924 
1896 1598 1929 1599 13698 13926 13929 13700 11790 13931 
1929 1598 1632 1599 13926 12015 13927 13931 11790 12016 
1599 1632 1930 1633 12016 13932 13933 12022 12024 13934 
1896 1930 1897 1599 13935 13936 13710 13700 13933 13705 
1599 1632 1929 1930 12016 13927 13931 13933 13932 13937 
1896 1930 1599 1929 13935 13933 13700 13929 13937 13931 
1897 1599 1930 1600 13705 13933 13936 13707 11797 13938 
1930 1599 1633 1600 13933 12022 13934 13938 11797 12023 
1600 1633 1931 1634 12023 13939 13940 12029 12031 13941 
1897 1931 1898 1600 13942 13943 13717 13707 13940 13712 
1600 1633 1930 1931 12023 13934 13938 13940 13939 13944 
1897 1931 1600 1930 13942 13940 13707 13936 13944 13938 
1898 1600 1931 1601 13712 13940 13943 13714 11804 13945 
1931 1600 1634 1601 13940 12029 13941 13945 11804 12030 
1601 1634 1932 1635 12030 13946 13947 12036 12038 13948 
1898 1932 1899 1601 13949 13950 13724 13714 13947 13719 
1601 1634 1931 1932 12030 13941 13945 13947 13946 13951 
1898 1932 1601 1931 13949 13947 13714 13943 13951 13945 
1899 1601 1932 1602 13719 13947 13950 13721 11811 13952 
1932 1601 1635 1602 13947 12036 13948 13952 11811 12037 
1602 1635 1933 1636 12037 13953 13954 12043 12045 13955 
1899 1933 1900 1602 13956 13957 13731 13721 13954 13726 
1602 1635 1932 1933 12037 13948 13952 13954 13953 13958 
1899 1933 1602 1932 13956 13954 13721 13950 13958 13952 
1900 1602 1933 1603 13726 13954 13957 13728 11818 13959 
1933 1602 1636 1603 13954 12043 13955 13959 11818 12044 
1603 1636 1934 1637 12044 13960 13961 12050 12052 13962 
1900 1934 1901 1603 13963 13964 13738 13728 13961 13733 
1603 1636 1933 1934 12044 13955 13959 13961 13960 13965 
1900 1934 1603 1933 13963 13961 13728 13957 13965 13959 
1901 1603 1934 1604 13733 13961 13964 13735 11825 13966 
1934 1603 1637 1604 13961 12050 13962 13966 11825 12051 
1604 1637 1935 1638 12051 13967 13968 12057 12059 13969 
1901 1935 1902 1604 13970 13971 13745 13735 13968 13740 
1604 1637 1934 1935 12051 13962 13966 13968 13967 13972 
1901 1935 1604 1934 13970 13968 13735 13964 13972 13966 
1902 1604 1935 1605 13740 13968 13971 13742 11832 13973 
1935 1604 1638 1605 13968 12057 13969 13973 11832 12058 
1605 1638 1936 1639 12058 13974 13975 12064 12066 13976 
1902 1936 1903 1605 13977 13978 13752 13742 13975 13747 
1605 1638 1935 1936 12058 13969 13973 13975 13974 13979 
1902 1936 1605 1935 13977 13975 13742 13971 13979 13973 
1903 1605 1936 1606 13747 13975 13978 13749 11839 13980 
1936 1605 1639 1606 13975 12064 13976 13980 11839 12065 
1606 1639 1937 1640 12065 13981 13982 12071 12073 13983 
1903 1937 1904 1606 13984 13985 13759 13749 13982 13754 
1606 1639 1936 1937 12065 13976 13980 13982 13981 13986 
1903 1937 1606 1936 13984 13982 13749 13978 13986 13980 
1904 1606 1937 1607 13754 13982 13985 13756 11846 13987 
1937 1606 1640 1607 13982 12071 13983 13987 11846 12072 
1607 1640 1938 1641 12072 13988 13989 12078 12080 13990 
1904 1938 1905 1607 13991 13992 13766 13756 13989 13761 
1607 1640 1937 1938 12072 13983 13987 13989 13988 13993 
1904 1938 1607 1937 13991 13989 13756 13985 13993 13987 
1905 1607 1938 1608 13761 13989 13992 13763 11853 13994 
1938 1607 1641 1608 13989 12078 13990 13994 11853 12079 
1608 1641 1939 1642 12079 13995 13996 12085 12087 13997 
1905 1939 1906 1608 13998 13999 13773 13763 13996 13768 
1608 1641 1938 1939 12079 13990 13994 13996 13995 14000 
1905 1939 1608 1938 13998 13996 13763 13992 14000 13994 
1906 1608 1939 1609 13768 13996 13999 13770 11860 14001 
1939 1608 1642 1609 13996 12085 13997 14001 11860 12086 
1609 1642 1940 1643 12086 14002 14003 12092 12094 14004 
1906 1940 1907 1609 14005 14006 13780 13770 14003 13775 
1609 1642 1939 1940 12086 13997 14001 14003 14002 14007 
1906 1940 1609 1939 14005 14003 13770 13999 14007 14001 
1907 1609 1940 1610 13775 14003 14006 13777 11867 14008 
1940 1609 1643 1610 14003 12092 14004 14008 11867 12093 
1610 1643 1941 1644 12093 14009 14010 12099 12101 14011 
1907 1941 1908 1610 14012 14013 13787 13777 14010 13782 
1610 1643 1940 1941 12093 14004 14008 14010 14009 14014 
1907 1941 1610 1940 14012 14010 13777 14006 14014 14008 
1908 1610 1941 1611 13782 14010 14013 13784 11874 14015 
1941 1610 1644 1611 14010 12099 14011 14015 11874 12100 
1611 1644 1942 1645 12100 14016 14017 12106 12108 14018 
1908 1942 1909 1611 14019 14020 13794 13784 14017 13789 
1611 1644 1941 1942 12100 14011 14015 14017 14016 14021 
1908 1942 1611 1941 14019 14017 13784 14013 14021 14015 
1909 1611 1942 1612 13789 14017 14020 13791 11881 14022 
1942 1611 1645 1612 14017 12106 14018 14022 11881 12107 
1612 1645 1943 1646 12107 14023 14024 12113 12115 14025 
1909 1943 1910 1612 14026 14027 13801 13791 14024 13796 
1612 1645 1942 1943 12107 14018 14022 14024 14023 14028 
1909 1943 1612 1942 14026 14024 13791 14020 14028 14022 
1910 1612 1943 1613 13796 14024 14027 13798 11888 14029 
1943 1612 1646 1613 14024 12113 14025 14029 11888 12114 
1613 1646 1944 1647 12114 14030 14031 12120 12122 14032 
1910 1944 1911 1613 14033 14034 13808 13798 14031 13803 
1613 1646 1943 1944 12114 14025 14029 14031 14030 14035 
1910 1944 1613 1943 14033 14031 13798 14027 14035 14029 
1911 1613 1944 1614 13803 14031 14034 13805 11895 14036 
1944 1613 1647 1614 14031 12120 14032 14036 11895 12121 
1614 1647 1945 1648 12121 14037 14038 12127 12129 14039 
1911 1945 1912 1614 14040 14041 13815 13805 14038 13810 
1614 1647 1944 1945 12121 14032 14036 14038 14037 14042 
1911 1945 1614 1944 14040 14038 13805 14034 14042 14036 
1912 1614 1945 1615 13810 14038 14041 13812 11902 14043 
1945 1614 1648 1615 14038 12127 14039 14043 11902 12128 
1615 1648 1946 1649 12128 14044 14045 12134 12136 14046 
1912 1946 1913 1615 14047 14048 13822 13812 14045 13817 
1615 1648 1945 1946 12128 14039 14043 14045 14044 14049 
1912 1946 1615 1945 14047 14045 13812 14041 14049 14043 
1913 1615 1946 1616 13817 14045 14048 13819 11909 14050 
1946 1615 1649 1616 14045 12134 14046 14050 11909 12135 
1617 1650 1948 1651 12146 14051 14052 12141 12145 14053 
1914 1948 1915 1617 14054 14055 13831 13829 14052 13824 
1617 1650 1947 1948 12146 14056 14057 14052 14051 14058 
1914 1948 1617 1947 14054 14052 13829 14059 14058 14057 
1915 1617 1948 1618 13824 14052 14055 13826 11918 14060 
1948 1617 1651 1618 14052 12141 14053 14060 11918 12142 
1618 1651 1949 1652 12142 14061 14062 12151 12153 14063 
1915 1949 1916 1618 14064 14065 13839 13826 14062 13834 
1618 1651 1948 1949 12142 14053 14060 14062 14061 14066 
1915 1949 1618 1948 14064 14062 13826 14055 14066 14060 
1916 1618 1949 1619 13834 14062 14065 13836 11926 14067 
1949 1618 1652 1619 14062 12151 14063 14067 11926 12152 
1619 1652 1950 1653 12152 14068 14069 12158 12160 14070 
1916 1950 1917 1619 14071 14072 13846 13836 14069 13841 
1619 1652 1949 1950 12152 14063 14067 14069 14068 14073 
1916 1950 1619 1949 14071 14069 13836 14065 14073 14067 
1917 1619 1950 1620 13841 14069 14072 13843 11933 14074 
1950 1619 1653 1620 14069 12158 14070 14074 11933 12159 
1620 1653 1951 1654 12159 14075 14076 12165 12167 14077 
1917 1951 1918 1620 14078 14079 13853 13843 14076 13848 
1620 1653 1950 1951 12159 14070 14074 14076 14075 14080 
1917 1951 1620 1950 14078 14076 13843 14072 14080 14074 
1918 1620 1951 1621 13848 14076 14079 13850 11940 14081 
1951 1620 1654 1621 14076 12165 14077 14081 11940 12166 
1621 1654 1952 1655 12166 14082 14083 12172 12174 14084 
1918 1952 1919 1621 14085 14086 13860 13850 14083 13855 
1621 1654 1951 1952 12166 14077 14081 14083 14082 14087 
1918 1952 1621 1951 14085 14083 13850 14079 14087 14081 
1919 1621 1952 1622 13855 14083 14086 13857 11947 14088 
1952 1621 1655 1622 14083 12172 14084 14088 11947 12173 
1622 1655 1953 1656 12173 14089 14090 12179 12181 14091 
1919 1953 1920 1622 14092 14093 13867 13857 14090 13862 
1622 1655 1952 1953 12173 14084 14088 14090 14089 14094 
1919 1953 1622 1952 14092 14090 13857 14086 14094 14088 
1920 1622 1953 1623 13862 14090 14093 13864 11954 14095 
1953 1622 1656 1623 14090 12179 14091 14095 11954 12180 
1623 1656 1954 1657 12180 14096 14097 12186 12188 14098 
1920 1954 1921 1623 14099 14100 13874 13864 14097 13869 
1623 1656 1953 1954 12180 14091 14095 14097 14096 14101 
1920 1954 1623 1953 14099 14097 13864 14093 14101 14095 
1921 1623 1954 1624 13869 14097 14100 13871 11961 14102 
1954 1623 1657 1624 14097 12186 14098 14102 11961 12187 
1624 1657 1955 1658 12187 14103 14104 12193 12195 14105 
1921 1955 1922 1624 14106 14107 13881 13871 14104 13876 
1624 1657 1954 1955 12187 14098 14102 14104 14103 14108 
1921 1955 1624 1954 14106 14104 13871 14100 14108 14102 
1922 1624 1955 1625 13876 14104 14107 13878 11968 14109 
1955 1624 1658 1625 14104 12193 14105 14109 11968 12194 
1625 1658 1956 1659 12194 14110 14111 12200 12202 14112 
1922 1956 1923 1625 14113 14114 13888 13878 14111 13883 
1625 1658 1955 1956 12194 14105 14109 14111 14110 14115 
1922 1956 1625 1955 14113 14111 13878 14107 14115 14109 
1923 1625 1956 1626 13883 14111 14114 13885 11975 14116 
1956 1625 1659 1626 14111 12200 14112 14116 11975 12201 
1626 1659 1957 1660 12201 14117 14118 12207 12209 14119 
1923 1957 1924 1626 14120 14121 13895 13885 14118 13890 
1626 1659 1956 1957 12201 14112 14116 14118 14117 14122 
1923 1957 1626 1956 14120 14118 13885 14114 14122 14116 
1924 1626 1957 1627 13890 14118 14121 13892 11982 14123 
1957 1626 1660 1627 14118 12207 14119 14123 11982 12208 
1627 1660 1958 1661 12208 14124 14125 12214 12216 14126 
1924 1958 1925 1627 14127 14128 13902 13892 14125 13897 
1627 1660 1957 1958 12208 14119 14123 14125 14124 14129 
1924 1958 1627 1957 14127 14125 13892 14121 14129 14123 
1925 1627 1958 1628 13897 14125 14128 13899 11989 14130 
1958 1627 1661 1628 14125 12214 14126 14130 11989 12215 
1628 1661 1959 1662 12215 14131 14132 12221 12223 14133 
1925 1959 1926 1628 14134 14135 13909 13899 14132 13904 
1628 1661 1958 1959 12215 14126 14130 14132 14131 14136 
1925 1959 1628 1958 14134 14132 13899 14128 14136 14130 
1926 1628 1959 1629 13904 14132 14135 13906 11996 14137 
1959 1628 1662 1629 14132 12221 14133 14137 11996 12222 
1629 1662 1960 1663 12222 14138 14139 12228 12230 14140 
1926 1960 1927 1629 14141 14142 13916 13906 14139 13911 
1629 1662 1959 1960 12222 14133 14137 14139 14138 14143 
1926 1960 1629 1959 14141 14139 13906 14135 14143 14137 
1927 1629 1960 1630 13911 14139 14142 13913 12003 14144 
1960 1629 1663 1630 14139 12228 14140 14144 12003 12229 
1630 1663 1961 1664 12229 14145 14146 12235 12237 14147 
1927 1961 1928 1630 14148 14149 13923 13913 14146 13918 
1630 1663 1960 1961 12229 14140 14144 14146 14145 14150 
1927 1961 1630 1960 14148 14146 13913 14142 14150 14144 
1928 1630 1961 1631 13918 14146 14149 13920 12010 14151 
1961 1630 1664 1631 14146 12235 14147 14151 12010 12236 
1631 1664 1962 1665 12236 14152 14153 12242 12244 14154 
1928 1962 1929 1631 14155 14156 13930 13920 14153 13925 
1631 1664 1961 1962 12236 14147 14151 14153 14152 14157 
1928 1962 1631 1961 14155 14153 13920 14149 14157 14151 
1929 1631 1962 1632 13925 14153 14156 13927 12017 14158 
1962 1631 1665 1632 14153 12242 14154 14158 12017 12243 
1632 1665 1963 1666 12243 14159 14160 12249 12251 14161 
1929 1963 1930 1632 14162 14163 13937 13927 14160 13932 
1632 1665 1962 1963 12243 14154 14158 14160 14159 14164 
1929 1963 1632 1962 14162 14160 13927 14156 14164 14158 
1930 1632 1963 1633 13932 14160 14163 13934 12024 14165 
1963 1632 1666 1633 14160 12249 14161 14165 12024 12250 
1633 1666 1964 1667 12250 14166 14167 12256 12258 14168 
1930 1964 1931 1633 14169 14170 13944 13934 14167 13939 
1633 1666 1963 1964 12250 14161 14165 14167 14166 14171 
1930 1964 1633 1963 14169 14167 13934 14163 14171 14165 
1931 1633 1964 1634 13939 14167 14170 13941 12031 14172 
1964 1633 1667 1634 14167 12256 14168 14172 12031 12257 
1634 1667 1965 1668 12257 14173 14174 12263 12265 14175 
1931 1965 1932 1634 14176 14177 13951 13941 14174 13946 
1634 1667 1964 1965 12257 14168 14172 14174 14173 14178 
1931 1965 1634 1964 14176 14174 13941 14170 14178 14172 
1932 1634 1965 1635 13946 14174 14177 13948 12038 14179 
1965 1634 1668 1635 14174 12263 14175 14179 12038 12264 
1635 1668 1966 1669 12264 14180 14181 12270 12272 14182 
1932 1966 1933 1635 14183 14184 13958 13948 14181 13953 
1635 1668 1965 1966 12264 14175 14179 14181 14180 14185 
1932 1966 1635 1965 14183 14181 13948 14177 14185 14179 
1933 1635 1966 1636 13953 14181 14184 13955 12045 14186 
1966 1635 1669 1636 14181 12270 14182 14186 12045 12271 
1636 1669 1967 1670 12271 14187 14188 12277 12279 14189 
1933 1967 1934 1636 14190 14191 13965 13955 14188 13960 
1636 1669 1966 1967 12271 14182 14186 14188 14187 14192 
1933 1967 1636 1966 14190 14188 13955 14184 14192 14186 
1934 1636 1967 1637 13960 14188 14191 13962 12052 14193 
1967 1636 1670 1637 14188 12277 14189 14193 12052 12278 
1637 1670 1968 1671 12278 14194 14195 12284 12286 14196 
1934 1968 1935 1637 14197 14198 13972 13962 14195 13967 
1637 1670 1967 1968 12278 14189 14193 14195 14194 14199 
1934 1968 1637 1967 14197 14195 13962 14191 14199 14193 
1935 1637 1968 1638 13967 14195 14198 13969 12059 14200 
1968 1637 1671 1638 14195 12284 14196 14200 12059 12285 
1638 1671 1969 1672 12285 14201 14202 12291 12293 14203 
1935 1969 1936 1638 14204 14205 13979 13969 14202 13974 
1638 1671 1968 1969 12285 14196 14200 14202 14201 14206 
1935 1969 1638 1968 14204 14202 13969 14198 14206 14200 
1936 1638 1969 1639 13974 14202 14205 13976 12066 14207 
1969 1638 1672 1639 14202 12291 14203 14207 12066 12292 
1639 1672 1970 1673 12292 14208 14209 12298 12300 14210 
1936 1970 1937 1639 14211 14212 13986 13976 14209 13981 
1639 1672 1969 1970 12292 14203 14207 14209 14208 14213 
1936 1970 1639 1969 14211 14209 13976 14205 14213 14207 
1937 1639 1970 1640 13981 14209 14212 13983 12073 14214 
1970 1639 1673 1640 14209 12298 14210 14214 12073 12299 
1640 1673 1971 1674 12299 14215 14216 12305 12307 14217 
1937 1971 1938 1640 14218 14219 13993 13983 14216 13988 
1640 1673 1970 1971 12299 14210 14214 14216 14215 14220 
1937 1971 1640 1970 14218 14216 13983 14212 14220 14214 
1938 1640 1971 1641 13988 14216 14219 13990 12080 14221 
1971 1640 1674 1641 14216 12305 14217 14221 12080 12306 
1641 1674 1972 1675 12306 14222 14223 12312 12314 14224 
1938 1972 1939 1641 14225 14226 14000 13990 14223 13995 
1641 1674 1971 1972 12306 14217 14221 14223 14222 14227 
1938 1972 1641 1971 14225 14223 13990 14219 14227 14221 
1939 1641 1972 1642 13995 14223 14226 13997 12087 14228 
1972 1641 1675 1642 14223 12312 14224 14228 12087 12313 
1642 1675 1973 1676 12313 14229 14230 12319 12321 14231 
1939 1973 1940 1642 14232 14233 14007 13997 14230 14002 
1642 1675 1972 1973 12313 14224 14228 14230 14229 14234 
1939 1973 1642 1972 14232 14230 13997 14226 14234 14228 
1940 1642 1973 1643 14002 14230 14233 14004 12094 14235 
1973 1642 1676 1643 14230 12319 14231 14235 12094 12320 
1643 1676 1974 1677 12320 14236 14237 12326 12328 14238 
1940 1974 1941 1643 14239 14240 14014 14004 14237 14009 
1643 1676 1973 1974 12320 14231 14235 14237 14236 14241 
1940 1974 1643 1973 14239 14237 14004 14233 14241 14235 
1941 1643 1974 1644 14009 14237 14240 14011 12101 14242 
1974 1643 1677 1644 14237 12326 14238 14242 12101 12327 
1644 1677 1975 1678 12327 14243 14244 12333 12335 14245 
1941 1975 1942 1644 14246 14247 14021 14011 14244 14016 
1644 1677 1974 1975 12327 14238 14242 14244 14243 14248 
1941 1975 1644 1974 14246 14244 14011 14240 14248 14242 
1942 1644 1975 1645 14016 14244 14247 14018 12108 14249 
1975 1644 1678 1645 14244 12333 14245 14249 12108 12334 
1645 1678 1976 1679 12334 14250 14251 12340 12342 14252 
1942 1976 1943 1645 14253 14254 14028 14018 14251 14023 
1645 1678 1975 1976 12334 14245 14249 14251 14250 14255 
1942 1976 1645 1975 14253 14251 14018 14247 14255 14249 
1943 1645 1976 1646 14023 14251 14254 14025 12115 14256 
1976 1645 1679 1646 14251 12340 14252 14256 12115 12341 
1646 1679 1977 1680 12341 14257 14258 12347 12349 14259 
1943 1977 1944 1646 14260 14261 14035 14025 14258 14030 
1646 1679 1976 1977 12341 14252 14256 14258 14257 14262 
1943 1977 1646 1976 14260 14258 14025 14254 14262 14256 
1944 1646 1977 1647 14030 14258 14261 14032 12122 14263 
1977 1646 1680 1647 14258 12347 14259 14263 12122 12348 
1647 1680 1978 1681 12348 14264 14265 12354 12356 14266 
1944 1978 1945 1647 14267 14268 14042 14032 14265 14037 
1647 1680 1977 1978 12348 14259 14263 14265 14264 14269 
1944 1978 1647 1977 14267 14265 14032 14261 14269 14263 
1945 1647 1978 1648 14037 14265 14268 14039 12129 14270 
1978 1647 1681 1648 14265 12354 14266 14270 12129 12355 
1648 1681 1979 1682 12355 14271 14272 12361 12363 14273 
1945 1979 1946 1648 14274 14275 14049 14039 14272 14044 
1648 1681 1978 1979 12355 14266 14270 14272 14271 14276 
1945 1979 1648 1978 14274 14272 14039 14268 14276 14270 
1946 1648 1979 1649 14044 14272 14275 14046 12136 14277 
1979 1648 1682 1649 14272 12361 14273 14277 12136 12362 
1650 1683 1981 1684 12373 14278 14279 12368 12372 14280 
1947 1981 1948 1650 14281 14282 14058 14056 14279 14051 
1650 1683 1980 1981 12373 14283 14284 14279 14278 14285 
1947 1981 1650 1980 14281 14279 14056 14286 14285 14284 
1948 1650 1981 1651 14051 14279 14282 14053 12145 14287 
1981 1650 1684 1651 14279 12368 14280 14287 12145 12369 
1651 1684 1982 1685 12369 14288 14289 12378 12380 14290 
1948 1982 1949 1651 14291 14292 14066 14053 14289 14061 
1651 1684 1981 1982 12369 14280 14287 14289 14288 14293 
1948 1982 1651 1981 14291 14289 14053 14282 14293 14287 
1949 1651 1982 1652 14061 14289 14292 14063 12153 14294 
1982 1651 1685 1652 14289 12378 14290 14294 12153 12379 
1652 1685 1983 1686 12379 14295 14296 12385 12387 14297 
1949 1983 1950 1652 14298 14299 14073 14063 14296 14068 
1652 1685 1982 1983 12379 14290 14294 14296 14295 14300 
1949 1983 1652 1982 14298 14296 14063 14292 14300 14294 
1950 1652 1983 1653 14068 14296 14299 14070 12160 14301 
1983 1652 1686 1653 14296 12385 14297 14301 12160 12386 
1653 1686 1984 1687 12386 14302 14303 12392 12394 14304 
1950 1984 1951 1653 14305 14306 14080 14070 14303 14075 
1653 1686 1983 1984 12386 14297 14301 14303 14302 14307 
1950 1984 1653 1983 14305 14303 14070 14299 14307 14301 
1951 1653 1984 1654 14075 14303 14306 14077 12167 14308 
1984 1653 1687 1654 14303 12392 14304 14308 12167 12393 
1654 1687 1985 1688 12393 14309 14310 12399 12401 14311 
1951 1985 1952 1654 14312 14313 14087 14077 14310 14082 
1654 1687 1984 1985 12393 14304 14308 14310 14309 14314 
1951 1985 1654 1984 14312 14310 14077 14306 14314 14308 
1952 1654 1985 1655 14082 14310 14313 14084 12174 14315 
1985 1654 1688 1655 14310 12399 14311 14315 12174 12400 
1655 1688 1986 1689 12400 14316 14317 12406 12408 14318 
1952 1986 1953 1655 14319 14320 14094 14084 14317 14089 
1655 1688 1985 1986 12400 14311 14315 14317 14316 14321 
1952 1986 1655 1985 14319 14317 14084 14313 14321 14315 
1953 1655 1986 1656 14089 14317 14320 14091 12181 14322 
1986 1655 1689 1656 14317 12406 14318 14322 12181 12407 
1656 1689 1987 1690 12407 14323 14324 12413 12415 14325 
1953 1987 1954 1656 14326 14327 14101 14091 14324 14096 
1656 1689 1986 1987 12407 14318 14322 14324 14323 14328 
1953 1987 1656 1986 14326 14324 14091 14320 14328 14322 
1954 1656 1987 1657 14096 14324 14327 14098 12188 14329 
1987 1656 1690 1657 14324 12413 14325 14329 12188 12414 
1657 1690 1988 1691 12414 14330 14331 12420 12422 14332 
1954 1988 1955 1657 14333 14334 14108 14098 14331 14103 
1657 1690 1987 1988 12414 14325 14329 14331 14330 14335 
1954 1988 1657 1987 14333 14331 14098 14327 14335 14329 
1955 1657 1988 1658 14103 14331 14334 14105 12195 14336 
1988 1657 1691 1658 14331 12420 14332 14336 12195 12421 
1658 1691 1989 1692 12421 14337 14338 12427 12429 14339 
1955 1989 1956 1658 14340 14341 14115 14105 14338 14110 
1658 1691 1988 1989 12421 14332 14336 14338 14337 14342 
1955 1989 1658 1988 14340 14338 14105 14334 14342 14336 
1956 1658 1989 1659 14110 14338 14341 14112 12202 14343 
1989 1658 1692 1659 14338 12427 14339 14343 12202 12428 
1659 1692 1990 1693 12428 14344 14345 12434 12436 14346 
1956 1990 1957 1659 14347 14348 14122 14112 14345 14117 
1659 1692 1989 1990 12428 14339 14343 14345 14344 14349 
1956 1990 1659 1989 14347 14345 14112 14341 14349 14343 
1957 1659 1990 1660 14117 14345 14348 14119 12209 14350 
1990 1659 1693 1660 14345 12434 14346 14350 12209 12435 
1660 1693 1991 1694 12435 14351 14352 12441 12443 14353 
1957 1991 1958 1660 14354 14355 14129 14119 14352 14124 
1660 1693 1990 1991 12435 14346 14350 14352 14351 14356 
1957 1991 1660 1990 14354 14352 14119 14348 14356 14350 
1958 1660 1991 1661 14124 14352 14355 14126 12216 14357 
1991 1660 1694 1661 14352 12441 14353 14357 12216 12442 
1661 1694 1992 1695 12442 14358 14359 12448 12450 14360 
1958 1992 1959 1661 14361 14362 14136 14126 14359 14131 
1661 1694 1991 1992 12442 14353 14357 14359 14358 14363 
1958 1992 1661 1991 14361 14359 14126 14355 14363 14357 
1959 1661 1992 1662 14131 14359 14362 14133 12223 14364 
1992 1661 1695 1662 14359 12448 14360 14364 12223 12449 
1662 1695 1993 1696 12449 14365 14366 12455 12457 14367 
1959 1993 1960 1662 14368 14369 14143 14133 14366 14138 
1662 1695 1992 1993 12449 14360 14364 14366 14365 14370 
1959 1993 1662 1992 14368 14366 14133 14362 14370 14364 
1960 1662 1993 1663 14138 14366 14369 14140 12230 14371 
1993 1662 1696 1663 14366 12455 14367 14371 12230 12456 
1663 1696 1994 1697 12456 14372 14373 12462 12464 14374 
1960 1994 1961 1663 14375 14376 14150 14140 14373 14145 
1663 1696 1993 1994 12456 14367 14371 14373 14372 14377 
1960 1994 1663 1993 14375 14373 14140 14369 14377 14371 
1961 1663 1994 1664 14145 14373 14376 14147 12237 14378 
1994 1663 1697 1664 14373 12462 14374 14378 12237 12463 
1664 1697 1995 1698 12463 14379 14380 12469 12471 14381 
1961 1995 1962 1664 14382 14383 14157 14147 14380 14152 
1664 1697 1994 1995 12463 14374 14378 14380 14379 14384 
1961 1995 1664 1994 14382 14380 14147 14376 14384 14378 
1962 1664 1995 1665 14152 14380 14383 14154 12244 14385 
1995 1664 1698 1665 14380 12469 14381 14385 12244 12470 
1665 1698 1996 1699 12470 14386 14387 12476 12478 14388 
1962 1996 1963 1665 14389 14390 14164 14154 14387 14159 
1665 1698 1995 1996 12470 14381 14385 14387 14386 14391 
1962 1996 1665 1995 14389 14387 14154 14383 14391 14385 
1963 1665 1996 1666 14159 14387 14390 14161 12251 14392 
1996 1665 1699 1666 14387 12476 14388 14392 12251 12477 
1666 1699 1997 1700 12477 14393 14394 12483 12485 14395 
1963 1997 1964 1666 14396 14397 14171 14161 14394 14166 
1666 1699 1996 1997 12477 14388 14392 14394 14393 14398 
1963 1997 1666 1996 14396 14394 14161 14390 14398 14392 
1964 1666 1997 1667 14166 14394 14397 14168 12258 14399 
1997 1666 1700 1667 14394 12483 14395 14399 12258 12484 
1667 1700 1998 1701 12484 14400 14401 12490 12492 14402 
1964 1998 1965 1667 14403 14404 14178 14168 14401 14173 
1667 1700 1997 1998 12484 14395 14399 14401 14400 14405 
1964 1998 1667 1997 14403 14401 14168 14397 14405 14399 
1965 1667 1998 1668 14173 14401 14404 14175 12265 14406 
1998 1667 1701 1668 14401 12490 14402 14406 12265 12491 
1668 1701 1999 1702 12491 14407 14408 12497 12499 14409 
1965 1999 1966 1668 14410 14411 14185 14175 14408 14180 
1668 1701 1998 1999 12491 14402 14406 14408 14407 14412 
1965 1999 1668 1998 14410 14408 14175 14404 14412 14406 
1966 1668 1999 1669 14180 14408 14411 14182 12272 14413 
1999 1668 1702 1669 14408 12497 14409 14413 12272 12498 
1669 1702 2000 1703 12498 14414 14415 12504 12506 14416 
1966 2000 1967 1669 14417 14418 14192 14182 14415 14187 
1669 1702 1999 2000 12498 14409 14413 14415 14414 14419 
1966 2000 1669 1999 14417 14415 14182 14411 14419 14413 
1967 1669 2000 1670 14187 14415 14418 14189 12279 14420 
2000 1669 1703 1670 14415 12504 14416 14420 12279 12505 
1670 1703 2001 1704 12505 14421 14422 12511 12513 14423 
1967 2001 1968 1670 14424 14425 14199 14189 14422 14194 
1670 1703 2000 2001 12505 14416 14420 14422 14421 14426 
1967 2001 1670 2000 14424 14422 14189 14418 14426 14420 
1968 1670 2001 1671 14194 14422 14425 14196 12286 14427 
2001 1670 1704 1671 14422 12511 14423 14427 12286 12512 
1671 1704 2002 1705 12512 14428 14429 12518 12520 14430 
1968 2002 1969 1671 14431 14432 14206 14196 14429 14201 
1671 1704 2001 2002 12512 14423 14427 14429 14428 14433 
1968 2002 1671 2001 14431 14429 14196 14425 14433 14427 
1969 1671 2002 1672 14201 14429 14432 14203 12293 14434 
2002 1671 1705 1672 14429 12518 14430 14434 12293 12519 
1672 1705 2003 1706 12519 14435 14436 12525 12527 14437 
1969 2003 1970 1672 14438 14439 14213 14203 14436 14208 
1672 1705 2002 2003 12519 14430 14434 14436 14435 14440 
1969 2003 1672 2002 14438 14436 14203 14432 14440 14434 
1970 1672 2003 1673 14208 14436 14439 14210 12300 14441 
2003 1672 1706 1673 14436 12525 14437 14441 12300 12526 
1673 1706 2004 1707 12526 14442 14443 12532 12534 14444 
1970 2004 1971 1673 14445 14446 14220 14210 14443 14215 
1673 1706 2003 2004 12526 14437 14441 14443 14442 14447 
1970 2004 1673 2003 14445 14443 14210 14439 14447 14441 
1971 1673 2004 1674 14215 14443 14446 14217 12307 14448 
2004 1673 1707 1674 14443 12532 14444 14448 12307 12533 
1674 1707 2005 1708 12533 14449 14450 12539 12541 14451 
1971 2005 1972 1674 14452 14453 14227 14217 14450 14222 
1674 1707 2004 2005 12533 14444 14448 14450 14449 14454 
1971 2005 1674 2004 14452 14450 14217 14446 14454 14448 
1972 1674 2005 1675 14222 14450 14453 14224 12314 14455 
2005 1674 1708 1675 14450 12539 14451 14455 12314 12540 
1675 1708 2006 1709 12540 14456 14457 12546 12548 14458 
1972 2006 1973 1675 14459 14460 14234 14224 14457 14229 
1675 1708 2005 2006 12540 14451 14455 14457 14456 14461 
1972 2006 1675 2005 14459 14457 14224 14453 14461 14455 
1973 1675 2006 1676 14229 14457 14460 14231 12321 14462 
2006 1675 1709 1676 14457 12546 14458 14462 12321 12547 
1676 1709 2007 1710 12547 14463 14464 12553 12555 14465 
1973 2007 1974 1676 14466 14467 14241 14231 14464 14236 
1676 1709 2006 2007 12547 14458 14462 14464 14463 14468 
1973 2007 1676 2006 14466 14464 14231 14460 14468 14462 
1974 1676 2007 1677 14236 14464 14467 14238 12328 14469 
2007 1676 1710 1677 14464 12553 14465 14469 12328 12554 
1677 1710 2008 1711 12554 14470 14471 12560 12562 14472 
1974 2008 1975 1677 14473 14474 14248 14238 14471 14243 
1677 1710 2007 2008 12554 14465 14469 14471 14470 14475 
1974 2008 1677 2007 14473 14471 14238 14467 14475 14469 
1975 1677 2008 1678 14243 14471 14474 14245 12335 14476 
2008 1677 1711 1678 14471 12560 14472 14476 12335 12561 
1678 1711 2009 1712 12561 14477 14478 12567 12569 14479 
1975 2009 1976 1678 14480 14481 14255 14245 14478 14250 
1678 1711 2008 2009 12561 14472 14476 14478 14477 14482 
1975 2009 1678 2008 14480 14478 14245 14474 14482 14476 
1976 1678 2009 1679 14250 14478 14481 14252 12342 14483 
2009 1678 1712 1679 14478 12567 14479 14483 12342 12568 
1679 1712 2010 1713 12568 14484 14485 12574 12576 14486 
1976 2010 1977 1679 14487 14488 14262 14252 14485 14257 
1679 1712 2009 2010 12568 14479 14483 14485 14484 14489 
1976 2010 1679 2009 14487 14485 14252 14481 14489 14483 
1977 1679 2010 1680 14257 14485 14488 14259 12349 14490 
2010 1679 1713 1680 14485 12574 14486 14490 12349 12575 
1680 1713 2011 1714 12575 14491 14492 12581 12583 14493 
1977 2011 1978 1680 14494 14495 14269 14259 14492 14264 
1680 1713 2010 2011 12575 14486 14490 14492 14491 14496 
1977 2011 1680 2010 14494 14492 14259 14488 14496 14490 
1978 1680 2011 1681 14264 14492 14495 14266 12356 14497 
2011 1680 1714 1681 14492 12581 14493 14497 12356 12582 
1681 1714 2012 1715 12582 14498 14499 12588 12590 14500 
1978 2012 1979 1681 14501 14502 14276 14266 14499 14271 
1681 1714 2011 2012 12582 14493 14497 14499 14498 14503 
1978 2012 1681 2011 14501 14499 14266 14495 14503 14497 
1979 1681 2012 1682 14271 14499 14502 14273 12363 14504 
2012 1681 1715 1682 14499 12588 14500 14504 12363 12589 
1683 1716 2014 1717 12600 14505 14506 12595 12599 14507 
1980 2014 1981 1683 14508 14509 14285 14283 14506 14278 
1683 1716 2013 2014 12600 14510 14511 14506 14505 14512 
1980 2014 1683 2013 14508 14506 14283 14513 14512 14511 
1981 1683 2014 1684 14278 14506 14509 14280 12372 14514 
2014 1683 1717 1684 14506 12595 14507 14514 12372 12596 
1684 1717 2015 1718 12596 14515 14516 12605 12607 14517 
1981 2015 1982 1684 14518 14519 14293 14280 14516 14288 
1684 1717 2014 2015 12596 14507 14514 14516 14515 14520 
1981 2015 1684 2014 14518 14516 14280 14509 14520 14514 
1982 1684 2015 1685 14288 14516 14519 14290 12380 14521 
2015 1684 1718 1685 14516 12605 14517 14521 12380 12606 
1685 1718 2016 1719 12606 14522 14523 12612 12614 14524 
1982 2016 1983 1685 14525 14526 14300 14290 14523 14295 
1685 1718 2015 2016 12606 14517 14521 14523 14522 14527 
1982 2016 1685 2015 14525 14523 14290 14519 14527 14521 
1983 1685 2016 1686 14295 14523 14526 14297 12387 14528 
2016 1685 1719 1686 14523 12612 14524 14528 12387 12613 
1686 1719 2017 1720 12613 14529 14530 12619 12621 14531 
1983 2017 1984 1686 14532 14533 14307 14297 14530 14302 
1686 1719 2016 2017 12613 14524 14528 14530 14529 14534 
1983 2017 1686 2016 14532 14530 14297 14526 14534 14528 
1984 1686 2017 1687 14302 14530 14533 14304 12394 14535 
2017 1686 1720 1687 14530 12619 14531 14535 12394 12620 
1687 1720 2018 1721 12620 14536 14537 12626 12628 14538 
1984 2018 1985 1687 14539 14540 14314 14304 14537 14309 
1687 1720 2017 2018 12620 14531 14535 14537 14536 14541 
1984 2018 1687 2017 14539 14537 14304 14533 14541 14535 
1985 1687 2018 1688 14309 14537 14540 14311 12401 14542 
2018 1687 1721 1688 14537 12626 14538 14542 12401 12627 
1688 1721 2019 1722 12627 14543 14544 12633 12635 14545 
1985 2019 1986 1688 14546 14547 14321 14311 14544 14316 
1688 1721 2018 2019 12627 14538 14542 14544 14543 14548 
1985 2019 1688 2018 14546 14544 14311 14540 14548 14542 
1986 1688 2019 1689 14316 14544 14547 14318 12408 14549 
2019 1688 1722 1689 14544 12633 14545 14549 12408 12634 
1689 1722 2020 1723 12634 14550 14551 12640 12642 14552 
1986 2020 1987 1689 14553 14554 14328 14318 14551 14323 
1689 1722 2019 2020 12634 14545 14549 14551 14550 14555 
1986 2020 1689 2019 14553 14551 14318 14547 14555 14549 
1987 1689 2020 1690 14323 14551 14554 14325 12415 14556 
2020 1689 1723 1690 14551 12640 14552 14556 12415 12641 
1690 1723 2021 1724 12641 14557 14558 12647 12649 14559 
1987 2021 1988 1690 14560 14561 14335 14325 14558 14330 
1690 1723 2020 2021 12641 14552 14556 14558 14557 14562 
1987 2021 1690 2020 14560 14558 14325 14554 14562 14556 
1988 1690 2021 1691 14330 14558 14561 14332 12422 14563 
2021 1690 1724 1691 14558 12647 14559 14563 12422 12648 
1691 1724 2022 1725 12648 14564 14565 12654 12656 14566 
1988 2022 1989 1691 14567 14568 14342 14332 14565 14337 
1691 1724 2021 2022 12648 14559 14563 14565 14564 14569 
1988 2022 1691 2021 14567 14565 14332 14561 14569 14563 
1989 1691 2022 1692 14337 14565 14568 14339 12429 14570 
2022 1691 1725 1692 14565 12654 14566 14570 12429 12655 
1692 1725 2023 1726 12655 14571 14572 12661 12663 14573 
1989 2023 1990 1692 14574 14575 14349 14339 14572 14344 
1692 1725 2022 2023 12655 14566 14570 14572 14571 14576 
1989 2023 1692 2022 14574 14572 14339 14568 14576 14570 
1990 1692 2023 1693 14344 14572 14575 14346 12436 14577 
2023 1692 1726 1693 14572 12661 14573 14577 12436 12662 
1693 1726 2024 1727 12662 14578 14579 12668 12670 14580 
1990 2024 1991 1693 14581 14582 14356 14346 14579 14351 
1693 1726 2023 2024 12662 14573 14577 14579 14578 14583 
1990 2024 1693 2023 14581 14579 14346 14575 14583 14577 
1991 1693 2024 1694 14351 14579 14582 14353 12443 14584 
2024 1693 1727 1694 14579 12668 14580 14584 12443 12669 
1694 1727 2025 1728 12669 14585 14586 12675 12677 14587 
1991 2025 1992 1694 14588 14589 14363 14353 14586 14358 
1694 1727 2024 2025 12669 14580 14584 14586 14585 14590 
1991 2025 1694 2024 14588 14586 14353 14582 14590 14584 
1992 1694 2025 1695 14358 14586 14589 14360 12450 14591 
2025 1694 1728 1695 14586 12675 14587 14591 12450 12676 
1695 1728 2026 1729 12676 14592 14593 12682 12684 14594 
1992 2026 1993 1695 14595 14596 14370 14360 14593 14365 
1695 1728 2025 2026 12676 14587 14591 14593 14592 14597 
1992 2026 1695 2025 14595 14593 14360 14589 14597 14591 
1993 1695 2026 1696 14365 14593 14596 14367 12457 14598 
2026 1695 1729 1696 14593 12682 14594 14598 12457 12683 
1696 1729 2027 1730 12683 14599 14600 12689 12691 14601 
1993 2027 1994 1696 14602 14603 14377 14367 14600 14372 
1696 1729 2026 2027 12683 14594 14598 14600 14599 14604 
1993 2027 1696 2026 14602 14600 14367 14596 14604 14598 
1994 1696 2027 1697 14372 14600 14603 14374 12464 14605 
2027 1696 1730 1697 14600 12689 14601 14605 12464 12690 
1697 1730 2028 1731 12690 14606 14607 12696 12698 14608 
1994 2028 1995 1697 14609 14610 14384 14374 14607 14379 
1697 1730 2027 2028 12690 14601 14605 14607 14606 14611 
1994 2028 1697 2027 14609 14607 14374 14603 14611 14605 
1995 1697 2028 1698 14379 14607 14610 14381 12471 14612 
2028 1697 1731 1698 14607 12696 14608 14612 12471 12697 
1698 1731 2029 1732 12697 14613 14614 12703 12705 14615 
1995 2029 1996 1698 14616 14617 14391 14381 14614 14386 
1698 1731 2028 2029 12697 14608 14612 14614 14613 14618 
1995 2029 1698 2028 14616 14614 14381 14610 14618 14612 
1996 1698 2029 1699 14386 14614 14617 14388 12478 14619 
2029 1698 1732 1699 14614 12703 14615 14619 12478 12704 
1699 1732 2030 1733 12704 14620 14621 12710 12712 14622 
1996 2030 1997 1699 14623 14624 14398 14388 14621 14393 
1699 1732 2029 2030 12704 14615 14619 14621 14620 14625 
1996 2030 1699 2029 14623 14621 14388 14617 14625 14619 
1997 1699 2030 1700 14393 14621 14624 14395 12485 14626 
2030 1699 1733 1700 14621 12710 14622 14626 12485 12711 
1700 1733 2031 1734 12711 14627 14628 12717 12719 14629 
1997 2031 1998 1700 14630 14631 14405 14395 14628 14400 
1700 1733 2030 2031 12711 14622 14626 14628 14627 14632 
1997 2031 1700 2030 14630 14628 14395 14624 14632 14626 
1998 1700 2031 1701 14400 14628 14631 14402 12492 14633 
2031 1700 1734 1701 14628 12717 14629 14633 12492 12718 
1701 1734 2032 1735 12718 14634 14635 12724 12726 14636 
1998 2032 1999 1701 14637 14638 14412 14402 14635 14407 
1701 1734 2031 2032 12718 14629 14633 14635 14634 14639 
1998 2032 1701 2031 14637 14635 14402 14631 14639 14633 
1999 1701 2032 1702 14407 14635 14638 14409 12499 14640 
2032 1701 1735 1702 14635 12724 14636 14640 12499 12725 
1702 1735 2033 1736 12725 14641 14642 12731 12733 14643 
1999 2033 2000 1702 14644 14645 14419 14409 14642 14414 
1702 1735 2032 2033 12725 14636 14640 14642 14641 14646 
1999 2033 1702 2032 14644 14642 14409 14638 14646 14640 
2000 1702 2033 1703 14414 14642 14645 14416 12506 14647 
2033 1702 1736 1703 14642 12731 14643 14647 12506 12732 
1703 1736 2034 1737 12732 14648 14649 12738 12740 14650 
2000 2034 2001 1703 14651 14652 14426 14416 14649 14421 
1703 1736 2033 2034 12732 14643 14647 14649 14648 14653 
2000 2034 1703 2033 14651 14649 14416 14645 14653 14647 
2001 1703 2034 1704 14421 14649 14652 14423 12513 14654 
2034 1703 1737 1704 14649 12738 14650 14654 12513 12739 
1704 1737 2035 1738 12739 14655 14656 12745 12747 14657 
2001 2035 2002 1704 14658 14659 14433 14423 14656 14428 
1704 1737 2034 2035 12739 14650 14654 14656 14655 14660 
2001 2035 1704 2034 14658 14656 14423 14652 14660 14654 
2002 1704 2035 1705 14428 14656 14659 14430 12520 14661 
2035 1704 1738 1705 14656 12745 14657 14661 12520 12746 
1705 1738 2036 1739 12746 14662 14663 12752 12754 14664 
2002 2036 2003 1705 14665 14666 14440 14430 14663 14435 
1705 1738 2035 2036 12746 14657 14661 14663 14662 14667 
2002 2036 1705 2035 14665 14663 14430 14659 14667 14661 
2003 1705 2036 1706 14435 14663 14666 14437 12527 14668 
2036 1705 1739 1706 14663 12752 14664 14668 12527 12753 
1706 1739 2037 1740 12753 14669 14670 12759 12761 14671 
2003 2037 2004 1706 14672 14673 14447 14437 14670 14442 
1706 1739 2036 2037 12753 14664 14668 14670 14669 14674 
2003 2037 1706 2036 14672 14670 14437 14666 14674 14668 
2004 1706 2037 1707 14442 14670 14673 14444 12534 14675 
2037 1706 1740 1707 14670 12759 14671 14675 12534 12760 
1707 1740 2038 1741 12760 14676 14677 12766 12768 14678 
2004 2038 2005 1707 14679 14680 14454 14444 14677 14449 
1707 1740 2037 2038 12760 14671 14675 14677 14676 14681 
2004 2038 1707 2037 14679 14677 14444 14673 14681 14675 
2005 1707 2038 1708 14449 14677 14680 14451 12541 14682 
2038 1707 1741 1708 14677 12766 14678 14682 12541 12767 
1708 1741 2039 1742 12767 14683 14684 12773 12775 14685 
2005 2039 2006 1708 14686 14687 14461 14451 14684 14456 
1708 1741 2038 2039 12767 14678 14682 14684 14683 14688 
2005 2039 1708 2038 14686 14684 14451 14680 14688 14682 
2006 1708 2039 1709 14456 14684 14687 14458 12548 14689 
2039 1708 1742 1709 14684 12773 14685 14689 12548 12774 
1709 1742 2040 1743 12774 14690 14691 12780 12782 14692 
2006 2040 2007 1709 14693 14694 14468 14458 14691 14463 
1709 1742 2039 2040 12774 14685 14689 14691 14690 14695 
2006 2040 1709 2039 14693 14691 14458 14687 14695 14689 
2007 1709 2040 1710 14463 14691 14694 14465 12555 14696 
2040 1709 1743 1710 14691 12780 14692 14696 12555 12781 
1710 1743 2041 1744 12781 14697 14698 12787 12789 14699 
2007 2041 2008 1710 14700 14701 14475 14465 14698 14470 
1710 1743 2040 2041 12781 14692 14696 14698 14697 14702 
2007 2041 1710 2040 14700 14698 14465 14694 14702 14696 
2008 1710 2041 1711 14470 14698 14701 14472 12562 14703 
2041 1710 1744 1711 14698 12787 14699 14703 12562 12788 
1711 1744 2042 1745 12788 14704 14705 12794 12796 14706 
2008 2042 2009 1711 14707 14708 14482 14472 14705 14477 
1711 1744 2041 2042 12788 14699 14703 14705 14704 14709 
2008 2042 1711 2041 14707 14705 14472 14701 14709 14703 
2009 1711 2042 1712 14477 14705 14708 14479 12569 14710 
2042 1711 1745 1712 14705 12794 14706 14710 12569 12795 
1712 1745 2043 1746 12795 14711 14712 12801 12803 14713 
2009 2043 2010 1712 14714 14715 14489 14479 14712 14484 
1712 1745 2042 2043 12795 14706 14710 14712 14711 14716 
2009 2043 1712 2042 14714 14712 14479 14708 14716 14710 
2010 1712 2043 1713 14484 14712 14715 14486 12576 14717 
2043 1712 1746 1713 14712 12801 14713 14717 12576 12802 
1713 1746 2044 1747 12802 14718 14719 12808 12810 14720 
2010 2044 2011 1713 14721 14722 14496 14486 14719 14491 
1713 1746 2043 2044 12802 14713 14717 14719 14718 14723 
2010 2044 1713 2043 14721 14719 14486 14715 14723 14717 
2011 1713 2044 1714 14491 14719 14722 14493 12583 14724 
2044 1713 1747 1714 14719 12808 14720 14724 12583 12809 
1714 1747 2045 1748 12809 14725 14726 12815 12817 14727 
2011 2045 2012 1714 14728 14729 14503 14493 14726 14498 
1714 1747 2044 2045 12809 14720 14724 14726 14725 14730 
2011 2045 1714 2044 14728 14726 14493 14722 14730 14724 
2012 1714 2045 1715 14498 14726 14729 14500 12590 14731 
2045 1714 1748 1715 14726 12815 14727 14731 12590 12816 
1716 1749 2047 1750 12827 14732 14733 12822 12826 14734 
2013 2047 2014 1716 14735 14736 14512 14510 14733 14505 
1716 1749 2046 2047 12827 14737 14738 14733 14732 14739 
2013 2047 1716 2046 14735 14733 14510 14740 14739 14738 
2014 1716 2047 1717 14505 14733 14736 14507 12599 14741 
2047 1716 1750 1717 14733 12822 14734 14741 12599 12823 
1717 1750 2048 1751 12823 14742 14743 12832 12834 14744 
2014 2048 2015 1717 14745 14746 14520 14507 14743 14515 
1717 1750 2047 2048 12823 14734 14741 14743 14742 14747 
2014 2048 1717 2047 14745 14743 14507 14736 14747 14741 
2015 1717 2048 1718 14515 14743 14746 14517 12607 14748 
2048 1717 1751 1718 14743 12832 14744 14748 12607 12833 
1718 1751 2049 1752 12833 14749 14750 12839 12841 14751 
2015 2049 2016 1718 14752 14753 14527 14517 14750 14522 
1718 1751 2048 2049 12833 14744 14748 14750 14749 14754 
2015 2049 1718 2048 14752 14750 14517 14746 14754 14748 
2016 1718 2049 1719 14522 14750 14753 14524 12614 14755 
2049 1718 1752 1719 14750 12839 14751 14755 12614 12840 
1719 1752 2050 1753 12840 14756 14757 12846 12848 14758 
2016 2050 2017 1719 14759 14760 14534 14524 14757 14529 
1719 1752 2049 2050 12840 14751 14755 14757 14756 14761 
2016 2050 1719 2049 14759 14757 14524 14753 14761 14755 
2017 1719 2050 1720 14529 14757 14760 14531 12621 14762 
2050 1719 1753 1720 14757 12846 14758 14762 12621 12847 
1720 1753 2051 1754 12847 14763 14764 12853 12855 14765 
2017 2051 2018 1720 14766 14767 14541 14531 14764 14536 
1720 1753 2050 2051 12847 14758 14762 14764 14763 14768 
2017 2051 1720 2050 14766 14764 14531 14760 14768 14762 
2018 1720 2051 1721 14536 14764 14767 14538 12628 14769 
2051 1720 1754 1721 14764 12853 14765 14769 12628 12854 
1721 1754 2052 1755 12854 14770 14771 12860 12862 14772 
2018 2052 2019 1721 14773 14774 14548 14538 14771 14543 
1721 1754 2051 2052 12854 14765 14769 14771 14770 14775 
2018 2052 1721 2051 14773 14771 14538 14767 14775 14769 
2019 1721 2052 1722 14543 14771 14774 14545 12635 14776 
2052 1721 1755 1722 14771 12860 14772 14776 12635 12861 
1722 1755 2053 1756 12861 14777 14778 12867 12869 14779 
2019 2053 2020 1722 14780 14781 14555 14545 14778 14550 
1722 1755 2052 2053 12861 14772 14776 14778 14777 14782 
2019 2053 1722 2052 14780 14778 14545 14774 14782 14776 
2020 1722 2053 1723 14550 14778 14781 14552 12642 14783 
2053 1722 1756 1723 14778 12867 14779 14783 12642 12868 
1723 1756 2054 1757 12868 14784 14785 12874 12876 14786 
2020 2054 2021 1723 14787 14788 14562 14552 14785 14557 
1723 1756 2053 2054 12868 14779 14783 14785 14784 14789 
2020 2054 1723 2053 14787 14785 14552 14781 14789 14783 
2021 1723 2054 1724 14557 14785 14788 14559 12649 14790 
2054 1723 1757 1724 14785 12874 14786 14790 12649 12875 
1724 1757 2055 1758 12875 14791 14792 12881 12883 14793 
2021 2055 2022 1724 14794 14795 14569 14559 14792 14564 
1724 1757 2054 2055 12875 14786 14790 14792 14791 14796 
2021 2055 1724 2054 14794 14792 14559 14788 14796 14790 
2022 1724 2055 1725 14564 14792 14795 14566 12656 14797 
2055 1724 1758 1725 14792 12881 14793 14797 12656 12882 
1725 1758 2056 1759 12882 14798 14799 12888 12890 14800 
2022 2056 2023 1725 14801 14802 14576 14566 14799 14571 
1725 1758 2055 2056 12882 14793 14797 14799 14798 14803 
2022 2056 1725 2055 14801 14799 14566 14795 14803 14797 
2023 1725 2056 1726 14571 14799 14802 14573 12663 14804 
2056 1725 1759 1726 14799 12888 14800 14804 12663 12889 
1726 1759 2057 1760 12889 14805 14806 12895 12897 14807 
2023 2057 2024 1726 14808 14809 14583 14573 14806 14578 
1726 1759 2056 2057 12889 14800 14804 14806 14805 14810 
2023 2057 1726 2056 14808 14806 14573 14802 14810 14804 
2024 1726 2057 1727 14578 14806 14809 14580 12670 14811 
2057 1726 1760 1727 14806 12895 14807 14811 12670 12896 
1727 1760 2058 1761 12896 14812 14813 12902 12904 14814 
2024 2058 2025 1727 14815 14816 14590 14580 14813 14585 
1727 1760 2057 2058 12896 14807 14811 14813 14812 14817 
2024 2058 1727 2057 14815 14813 14580 14809 14817 14811 
2025 1727 2058 1728 14585 14813 14816 14587 12677 14818 
2058 1727 1761 1728 14813 12902 14814 14818 12677 12903 
1728 1761 2059 1762 12903 14819 14820 12909 12911 14821 
2025 2059 2026 1728 14822 14823 14597 14587 14820 14592 
1728 1761 2058 2059 12903 14814 14818 14820 14819 14824 
2025 2059 1728 2058 14822 14820 14587 14816 14824 14818 
2026 1728 2059 1729 14592 14820 14823 14594 12684 14825 
2059 1728 1762 1729 14820 12909 14821 14825 12684 12910 
1729 1762 2060 1763 12910 14826 14827 12916 12918 14828 
2026 2060 2027 1729 14829 14830 14604 14594 14827 14599 
1729 1762 2059 2060 12910 14821 14825 14827 14826 14831 
2026 2060 1729 2059 14829 14827 14594 14823 14831 14825 
2027 1729 2060 1730 14599 14827 14830 14601 12691 14832 
2060 1729 1763 1730 14827 12916 14828 14832 12691 12917 
1730 1763 2061 1764 12917 14833 14834 12923 12925 14835 
2027 2061 2028 1730 14836 14837 14611 14601 14834 14606 
1730 1763 2060 2061 12917 14828 14832 14834 14833 14838 
2027 2061 1730 2060 14836 14834 14601 14830 14838 14832 
2028 1730 2061 1731 14606 14834 14837 14608 12698 14839 
2061 1730 1764 1731 14834 12923 14835 14839 12698 12924 
1731 1764 2062 1765 12924 14840 14841 12930 12932 14842 
2028 2062 2029 1731 14843 14844 14618 14608 14841 14613 
1731 1764 2061 2062 12924 14835 14839 14841 14840 14845 
2028 2062 1731 2061 14843 14841 14608 14837 14845 14839 
2029 1731 2062 1732 14613 14841 14844 14615 12705 14846 
2062 1731 1765 1732 14841 12930 14842 14846 12705 12931 
1732 1765 2063 1766 12931 14847 14848 12937 12939 14849 
2029 2063 2030 1732 14850 14851 14625 14615 14848 14620 
1732 1765 2062 2063 12931 14842 14846 14848 14847 14852 
2029 2063 1732 2062 14850 14848 14615 14844 14852 14846 
2030 1732 2063 1733 14620 14848 14851 14622 12712 14853 
2063 1732 1766 1733 14848 12937 14849 14853 12712 12938 
1733 1766 2064 1767 12938 14854 14855 12944 12946 14856 
2030 2064 2031 1733 14857 14858 14632 14622 14855 14627 
1733 1766 2063 2064 12938 14849 14853 14855 14854 14859 
2030 2064 1733 2063 14857 14855 14622 14851 14859 14853 
2031 1733 2064 1734 14627 14855 14858 14629 12719 14860 
2064 1733 1767 1734 14855 12944 14856 14860 12719 12945 
1734 1767 2065 1768 12945 14861 14862 12951 12953 14863 
2031 2065 2032 1734 14864 14865 14639 14629 14862 14634 
1734 1767 2064 2065 12945 14856 14860 14862 14861 14866 
2031 2065 1734 2064 14864 14862 14629 14858 14866 14860 
2032 1734 2065 1735 14634 14862 14865 14636 12726 14867 
2065 1734 1768 1735 14862 12951 14863 14867 12726 12952 
1735 1768 2066 1769 12952 14868 14869 12958 12960 14870 
2032 2066 2033 1735 14871 14872 14646 14636 14869 14641 
1735 1768 2065 2066 12952 14863 14867 14869 14868 14873 
2032 2066 1735 2065 14871 14869 14636 14865 14873 14867 
2033 1735 2066 1736 14641 14869 14872 14643 12733 14874 
2066 1735 1769 1736 14869 12958 14870 14874 12733 12959 
1736 1769 2067 1770 12959 14875 14876 12965 12967 14877 
2033 2067 2034 1736 14878 14879 14653 14643 14876 14648 
1736 1769 2066 2067 12959 14870 14874 14876 14875 14880 
2033 2067 1736 2066 14878 14876 14643 14872 14880 14874 
2034 1736 2067 1737 14648 14876 14879 14650 12740 14881 
2067 1736 1770 1737 14876 12965 14877 14881 12740 12966 
1737 1770 2068 1771 12966 14882 14883 12972 12974 14884 
2034 2068 2035 1737 14885 14886 14660 14650 14883 14655 
1737 1770 2067 2068 12966 14877 14881 14883 14882 14887 
2034 2068 1737 2067 14885 14883 14650 14879 14887 14881 
2035 1737 2068 1738 14655 14883 14886 14657 12747 14888 
2068 1737 1771 1738 14883 12972 14884 14888 12747 12973 
1738 1771 2069 1772 12973 14889 14890 12979 12981 14891 
2035 2069 2036 1738 14892 14893 14667 14657 14890 14662 
1738 1771 2068 2069 12973 14884 14888 14890 14889 14894 
2035 2069 1738 2068 14892 14890 14657 14886 14894 14888 
2036 1738 2069 1739 14662 14890 14893 14664 12754 14895 
2069 1738 1772 1739 14890 12979 14891 14895 12754 12980 
1739 1772 2070 1773 12980 14896 14897 12986 12988 14898 
2036 2070 2037 1739 14899 14900 14674 14664 14897 14669 
1739 1772 2069 2070 12980 14891 14895 14897 14896 14901 
2036 2070 1739 2069 14899 14897 14664 14893 14901 14895 
2037 1739 2070 1740 14669 14897 14900 14671 12761 14902 
2070 1739 1773 1740 14897 12986 14898 14902 12761 12987 
1740 1773 2071 1774 12987 14903 14904 12993 12995 14905 
2037 2071 2038 1740 14906 14907 14681 14671 14904 14676 
1740 1773 2070 2071 12987 14898 14902 14904 14903 14908 
2037 2071 1740 2070 14906 14904 14671 14900 14908 14902 
2038 1740 2071 1741 14676 14904 14907 14678 12768 14909 
2071 1740 1774 1741 14904 12993 14905 14909 12768 12994 
1741 1774 2072 1775 12994 14910 14911 13000 13002 14912 
2038 2072 2039 1741 14913 14914 14688 14678 14911 14683 
1741 1774 2071 2072 12994 14905 14909 14911 14910 14915 
2038 2072 1741 2071 14913 14911 14678 14907 14915 14909 
2039 1741 2072 1742 14683 14911 14914 14685 12775 14916 
2072 1741 1775 1742 14911 13000 14912 14916 12775 13001 
1742 1775 2073 1776 13001 14917 14918 13007 13009 14919 
2039 2073 2040 1742 14920 14921 14695 14685 14918 14690 
1742 1775 2072 2073 13001 14912 14916 14918 14917 14922 
2039 2073 1742 2072 14920 14918 14685 14914 14922 14916 
2040 1742 2073 1743 14690 14918 14921 14692 12782 14923 
2073 1742 1776 1743 14918 13007 14919 14923 12782 13008 
1743 1776 2074 1777 13008 14924 14925 13014 13016 14926 
2040 2074 2041 1743 14927 14928 14702 14692 14925 14697 
1743 1776 2073 2074 13008 14919 14923 14925 14924 14929 
2040 2074 1743 2073 14927 14925 14692 14921 14929 14923 
2041 1743 2074 1744 14697 14925 14928 14699 12789 14930 
2074 1743 1777 1744 14925 13014 14926 14930 12789 13015 
1744 1777 2075 1778 13015 14931 14932 13021 13023 14933 
2041 2075 2042 1744 14934 14935 14709 14699 14932 14704 
1744 1777 2074 2075 13015 14926 14930 14932 14931 14936 
2041 2075 1744 2074 14934 14932 14699 14928 14936 14930 
2042 1744 2075 1745 14704 14932 14935 14706 12796 14937 
2075 1744 1778 1745 14932 13021 14933 14937 12796 13022 
1745 1778 2076 1779 13022 14938 14939 13028 13030 14940 
2042 2076 2043 1745 14941 14942 14716 14706 14939 14711 
1745 1778 2075 2076 13022 14933 14937 14939 14938 14943 
2042 2076 1745 2075 14941 14939 14706 14935 14943 14937 
2043 1745 2076 1746 14711 14939 14942 14713 12803 14944 
2076 1745 1779 1746 14939 13028 14940 14944 12803 13029 
1746 1779 2077 1780 13029 14945 14946 13035 13037 14947 
2043 2077 2044 1746 14948 14949 14723 14713 14946 14718 
1746 1779 2076 2077 13029 14940 14944 14946 14945 14950 
2043 2077 1746 2076 14948 14946 14713 14942 14950 14944 
2044 1746 2077 1747 14718 14946 14949 14720 12810 14951 
2077 1746 1780 1747 14946 13035 14947 14951 12810 13036 
1747 1780 2078 1781 13036 14952 14953 13042 13044 14954 
2044 2078 2045 1747 14955 14956 14730 14720 14953 14725 
1747 1780 2077 2078 13036 14947 14951 14953 14952 14957 
2044 2078 1747 2077 14955 14953 14720 14949 14957 14951 
2045 1747 2078 1748 14725 14953 14956 14727 12817 14958 
2078 1747 1781 1748 14953 13042 14954 14958 12817 13043 
1782 1815 2113 1816 13057 14959 14960 13049 13056 14961 
2079 2113 2080 1782 14962 14963 14964 14965 14960 14966 
1782 1815 2112 2113 13057 14967 14968 14960 14959 14969 
2079 2113 1782 2112 14962 14960 14965 14970 14969 14968 
2080 1782 2113 1783 14966 14960 14963 14971 13051 14972 
2113 1782 1816 1783 14960 13049 14961 14972 13051 13050 
1783 1816 2114 1817 13050 14973 14974 13063 13067 14975 
2080 2114 2081 1783 14976 14977 14978 14971 14974 14979 
1783 1816 2113 2114 13050 14961 14972 14974 14973 14980 
2080 2114 1783 2113 14976 14974 14971 14963 14980 14972 
2081 1783 2114 1784 14979 14974 14977 14981 13065 14982 
2114 1783 1817 1784 14974 13063 14975 14982 13065 13064 
1784 1817 2115 1818 13064 14983 14984 13073 13077 14985 
2081 2115 2082 1784 14986 14987 14988 14981 14984 14989 
1784 1817 2114 2115 13064 14975 14982 14984 14983 14990 
2081 2115 1784 2114 14986 14984 14981 14977 14990 14982 
2082 1784 2115 1785 14989 14984 14987 14991 13075 14992 
2115 1784 1818 1785 14984 13073 14985 14992 13075 13074 
1785 1818 2116 1819 13074 14993 14994 13083 13087 14995 
2082 2116 2083 1785 14996 14997 14998 14991 14994 14999 
1785 1818 2115 2116 13074 14985 14992 14994 14993 15000 
2082 2116 1785 2115 14996 14994 14991 14987 15000 14992 
2083 1785 2116 1786 14999 14994 14997 15001 13085 15002 
2116 1785 1819 1786 14994 13083 14995 15002 13085 13084 
1786 1819 2117 1820 13084 15003 15004 13093 13097 15005 
2083 2117 2084 1786 15006 15007 15008 15001 15004 15009 
1786 1819 2116 2117 13084 14995 15002 15004 15003 15010 
2083 2117 1786 2116 15006 15004 15001 14997 15010 15002 
2084 1786 2117 1787 15009 15004 15007 15011 13095 15012 
2117 1786 1820 1787 15004 13093 15005 15012 13095 13094 
1787 1820 2118 1821 13094 15013 15014 13103 13107 15015 
2084 2118 2085 1787 15016 15017 15018 15011 15014 15019 
1787 1820 2117 2118 13094 15005 15012 15014 15013 15020 
2084 2118 1787 2117 15016 15014 15011 15007 15020 15012 
2085 1787 2118 1788 15019 15014 15017 15021 13105 15022 
2118 1787 1821 1788 15014 13103 15015 15022 13105 13104 
1788 1821 2119 1822 13104 15023 15024 13113 13117 15025 
2085 2119 2086 1788 15026 15027 15028 15021 15024 15029 
1788 1821 2118 2119 13104 15015 15022 15024 15023 15030 
2085 2119 1788 2118 15026 15024 15021 15017 15030 15022 
2086 1788 2119 1789 15029 15024 15027 15031 13115 15032 
2119 1788 1822 1789 15024 13113 15025 15032 13115 13114 
1789 1822 2120 1823 13114 15033 15034 13123 13127 15035 
2086 2120 2087 1789 15036 15037 15038 15031 15034 15039 
1789 1822 2119 2120 13114 15025 15032 15034 15033 15040 
2086 2120 1789 2119 15036 15034 15031 15027 15040 15032 
2087 1789 2120 1790 15039 15034 15037 15041 13125 15042 
2120 1789 1823 1790 15034 13123 15035 15042 13125 13124 
1790 1823 2121 1824 13124 15043 15044 13133 13137 15045 
2087 2121 2088 1790 15046 15047 15048 15041 15044 15049 
1790 1823 2120 2121 13124 15035 15042 15044 15043 15050 
2087 2121 1790 2120 15046 15044 15041 15037 15050 15042 
2088 1790 2121 1791 15049 15044 15047 15051 13135 15052 
2121 1790 1824 1791 15044 13133 15045 15052 13135 13134 
1791 1824 2122 1825 13134 15053 15054 13143 13147 15055 
2088 2122 2089 1791 15056 15057 15058 15051 15054 15059 
1791 1824 2121 2122 13134 15045 15052 15054 15053 15060 
2088 2122 1791 2121 15056 15054 15051 15047 15060 15052 
2089 1791 2122 1792 15059 15054 15057 15061 13145 15062 
2122 1791 1825 1792 15054 13143 15055 15062 13145 13144 
1792 1825 2123 1826 13144 15063 15064 13153 13157 15065 
2089 2123 2090 1792 15066 15067 15068 15061 15064 15069 
1792 1825 2122 2123 13144 15055 15062 15064 15063 15070 
2089 2123 1792 2122 15066 15064 15061 15057 15070 15062 
2090 1792 2123 1793 15069 15064 15067 15071 13155 15072 
2123 1792 1826 1793 15064 13153 15065 15072 13155 13154 
1793 1826 2124 1827 13154 15073 15074 13163 13167 15075 
2090 2124 2091 1793 15076 15077 15078 15071 15074 15079 
1793 1826 2123 2124 13154 15065 15072 15074 15073 15080 
2090 2124 1793 2123 15076 15074 15071 15067 15080 15072 
2091 1793 2124 1794 15079 15074 15077 15081 13165 15082 
2124 1793 1827 1794 15074 13163 15075 15082 13165 13164 
1794 1827 2125 1828 13164 15083 15084 13173 13177 15085 
2091 2125 2092 1794 15086 15087 15088 15081 15084 15089 
1794 1827 2124 2125 13164 15075 15082 15084 15083 15090 
2091 2125 1794 2124 15086 15084 15081 15077 15090 15082 
2092 1794 2125 1795 15089 15084 15087 15091 13175 15092 
2125 1794 1828 1795 15084 13173 15085 15092 13175 13174 
1795 1828 2126 1829 13174 15093 15094 13183 13187 15095 
2092 2126 2093 1795 15096 15097 15098 15091 15094 15099 
1795 1828 2125 2126 13174 15085 15092 15094 15093 15100 
2092 2126 1795 2125 15096 15094 15091 15087 15100 15092 
2093 1795 2126 1796 15099 15094 15097 15101 13185 15102 
2126 1795 1829 1796 15094 13183 15095 15102 13185 13184 
1796 1829 2127 1830 13184 15103 15104 13193 13197 15105 
2093 2127 2094 1796 15106 15107 15108 15101 15104 15109 
1796 1829 2126 2127 13184 15095 15102 15104 15103 15110 
2093 2127 1796 2126 15106 15104 15101 15097 15110 15102 
2094 1796 2127 1797 15109 15104 15107 15111 13195 15112 
2127 1796 1830 1797 15104 13193 15105 15112 13195 13194 
1797 1830 2128 1831 13194 15113 15114 13203 13207 15115 
2094 2128 2095 1797 15116 15117 15118 15111 15114 15119 
1797 1830 2127 2128 13194 15105 15112 15114 15113 15120 
2094 2128 1797 2127 15116 15114 15111 15107 15120 15112 
2095 1797 2128 1798 15119 15114 15117 15121 13205 15122 
2128 1797 1831 1798 15114 13203 15115 15122 13205 13204 
1798 1831 2129 1832 13204 15123 15124 13213 13217 15125 
2095 2129 2096 1798 15126 15127 15128 15121 15124 15129 
1798 1831 2128 2129 13204 15115 15122 15124 15123 15130 
2095 2129 1798 2128 15126 15124 15121 15117 15130 15122 
2096 1798 2129 1799 15129 15124 15127 15131 13215 15132 
2129 1798 1832 1799 15124 13213 15125 15132 13215 13214 
1799 1832 2130 1833 13214 15133 15134 13223 13227 15135 
2096 2130 2097 1799 15136 15137 15138 15131 15134 15139 
1799 1832 2129 2130 13214 15125 15132 15134 15133 15140 
2096 2130 1799 2129 15136 15134 15131 15127 15140 15132 
2097 1799 2130 1800 15139 15134 15137 15141 13225 15142 
2130 1799 1833 1800 15134 13223 15135 15142 13225 13224 
1800 1833 2131 1834 13224 15143 15144 13233 13237 15145 
2097 2131 2098 1800 15146 15147 15148 15141 15144 15149 
1800 1833 2130 2131 13224 15135 15142 15144 15143 15150 
2097 2131 1800 2130 15146 15144 15141 15137 15150 15142 
2098 1800 2131 1801 15149 15144 15147 15151 13235 15152 
2131 1800 1834 1801 15144 13233 15145 15152 13235 13234 
1801 1834 2132 1835 13234 15153 15154 13243 13247 15155 
2098 2132 2099 1801 15156 15157 15158 15151 15154 15159 
1801 1834 2131 2132 13234 15145 15152 15154 15153 15160 
2098 2132 1801 2131 15156 15154 15151 15147 15160 15152 
2099 1801 2132 1802 15159 15154 15157 15161 13245 15162 
2132 1801 1835 1802 15154 13243 15155 15162 13245 13244 
1802 1835 2133 1836 13244 15163 15164 13253 13257 15165 
2099 2133 2100 1802 15166 15167 15168 15161 15164 15169 
1802 1835 2132 2133 13244 15155 15162 15164 15163 15170 
2099 2133 1802 2132 15166 15164 15161 15157 15170 15162 
2100 1802 2133 1803 15169 15164 15167 15171 13255 15172 
2133 1802 1836 1803 15164 13253 15165 15172 13255 13254 
1803 1836 2134 1837 13254 15173 15174 13263 13267 15175 
2100 2134 2101 1803 15176 15177 15178 15171 15174 15179 
1803 1836 2133 2134 13254 15165 15172 15174 15173 15180 
2100 2134 1803 2133 15176 15174 15171 15167 15180 15172 
2101 1803 2134 1804 15179 15174 15177 15181 13265 15182 
2134 1803 1837 1804 15174 13263 15175 15182 13265 13264 
1804 1837 2135 1838 13264 15183 15184 13273 13277 15185 
2101 2135 2102 1804 15186 15187 15188 15181 15184 15189 
1804 1837 2134 2135 13264 15175 15182 15184 15183 15190 
2101 2135 1804 2134 15186 15184 15181 15177 15190 15182 
2102 1804 2135 1805 15189 15184 15187 15191 13275 15192 
2135 1804 1838 1805 15184 13273 15185 15192 13275 13274 
1805 1838 2136 1839 13274 15193 15194 13283 13287 15195 
2102 2136 2103 1805 15196 15197 15198 15191 15194 15199 
1805 1838 2135 2136 13274 15185 15192 15194 15193 15200 
2102 2136 1805 2135 15196 15194 15191 15187 15200 15192 
2103 1805 2136 1806 15199 15194 15197 15201 13285 15202 
2136 1805 1839 1806 15194 13283 15195 15202 13285 13284 
1806 1839 2137 1840 13284 15203 15204 13293 13297 15205 
2103 2137 2104 1806 15206 15207 15208 15201 15204 15209 
1806 1839 2136 2137 13284 15195 15202 15204 15203 15210 
2103 2137 1806 2136 15206 15204 15201 15197 15210 15202 
2104 1806 2137 1807 15209 15204 15207 15211 13295 15212 
2137 1806 1840 1807 15204 13293 15205 15212 13295 13294 
1807 1840 2138 1841 13294 15213 15214 13303 13307 15215 
2104 2138 2105 1807 15216 15217 15218 15211 15214 15219 
1807 1840 2137 2138 13294 15205 15212 15214 15213 15220 
2104 2138 1807 2137 15216 15214 15211 15207 15220 15212 
2105 1807 2138 1808 15219 15214 15217 15221 13305 15222 
2138 1807 1841 1808 15214 13303 15215 15222 13305 13304 
1808 1841 2139 1842 13304 15223 15224 13313 13317 15225 
2105 2139 2106 1808 15226 15227 15228 15221 15224 15229 
1808 1841 2138 2139 13304 15215 15222 15224 15223 15230 
2105 2139 1808 2138 15226 15224 15221 15217 15230 15222 
2106 1808 2139 1809 15229 15224 15227 15231 13315 15232 
2139 1808 1842 1809 15224 13313 15225 15232 13315 13314 
1809 1842 2140 1843 13314 15233 15234 13323 13327 15235 
2106 2140 2107 1809 15236 15237 15238 15231 15234 15239 
1809 1842 2139 2140 13314 15225 15232 15234 15233 15240 
2106 2140 1809 2139 15236 15234 15231 15227 15240 15232 
2107 1809 2140 1810 15239 15234 15237 15241 13325 15242 
2140 1809 1843 1810 15234 13323 15235 15242 13325 13324 
1810 1843 2141 1844 13324 15243 15244 13333 13337 15245 
2107 2141 2108 1810 15246 15247 15248 15241 15244 15249 
1810 1843 2140 2141 13324 15235 15242 15244 15243 15250 
2107 2141 1810 2140 15246 15244 15241 15237 15250 15242 
2108 1810 2141 1811 15249 15244 15247 15251 13335 15252 
2141 1810 1844 1811 15244 13333 15245 15252 13335 13334 
1811 1844 2142 1845 13334 15253 15254 13343 13347 15255 
2108 2142 2109 1811 15256 15257 15258 15251 15254 15259 
1811 1844 2141 2142 13334 15245 15252 15254 15253 15260 
2108 2142 1811 2141 15256 15254 15251 15247 15260 15252 
2109 1811 2142 1812 15259 15254 15257 15261 13345 15262 
2142 1811 1845 1812 15254 13343 15255 15262 13345 13344 
1812 1845 2143 1846 13344 15263 15264 13353 13357 15265 
2109 2143 2110 1812 15266 15267 15268 15261 15264 15269 
1812 1845 2142 2143 13344 15255 15262 15264 15263 15270 
2109 2143 1812 2142 15266 15264 15261 15257 15270 15262 
2110 1812 2143 1813 15269 15264 15267 15271 13355 15272 
2143 1812 1846 1813 15264 13353 15265 15272 13355 13354 
1813 1846 2144 1847 13354 15273 15274 13363 13367 15275 
2110 2144 2111 1813 15276 15277 15278 15271 15274 15279 
1813 1846 2143 2144 13354 15265 15272 15274 15273 15280 
2110 2144 1813 2143 15276 15274 15271 15267 15280 15272 
2111 1813 2144 1814 15279 15274 15277 15281 13365 15282 
2144 1813 1847 1814 15274 13363 15275 15282 13365 13364 
1815 1848 2146 1849 13378 15283 15284 13373 13377 15285 
2112 2146 2113 1815 15286 15287 14969 14967 15284 14959 
1815 1848 2145 2146 13378 15288 15289 15284 15283 15290 
2112 2146 1815 2145 15286 15284 14967 15291 15290 15289 
2113 1815 2146 1816 14959 15284 15287 14961 13056 15292 
2146 1815 1849 1816 15284 13373 15285 15292 13056 13374 
1816 1849 2147 1850 13374 15293 15294 13383 13385 15295 
2113 2147 2114 1816 15296 15297 14980 14961 15294 14973 
1816 1849 2146 2147 13374 15285 15292 15294 15293 15298 
2113 2147 1816 2146 15296 15294 14961 15287 15298 15292 
2114 1816 2147 1817 14973 15294 15297 14975 13067 15299 
2147 1816 1850 1817 15294 13383 15295 15299 13067 13384 
1817 1850 2148 1851 13384 15300 15301 13390 13392 15302 
2114 2148 2115 1817 15303 15304 14990 14975 15301 14983 
1817 1850 2147 2148 13384 15295 15299 15301 15300 15305 
2114 2148 1817 2147 15303 15301 14975 15297 15305 15299 
2115 1817 2148 1818 14983 15301 15304 14985 13077 15306 
2148 1817 1851 1818 15301 13390 15302 15306 13077 13391 
1818 1851 2149 1852 13391 15307 15308 13397 13399 15309 
2115 2149 2116 1818 15310 15311 15000 14985 15308 14993 
1818 1851 2148 2149 13391 15302 15306 15308 15307 15312 
2115 2149 1818 2148 15310 15308 14985 15304 15312 15306 
2116 1818 2149 1819 14993 15308 15311 14995 13087 15313 
2149 1818 1852 1819 15308 13397 15309 15313 13087 13398 
1819 1852 2150 1853 13398 15314 15315 13404 13406 15316 
2116 2150 2117 1819 15317 15318 15010 14995 15315 15003 
1819 1852 2149 2150 13398 15309 15313 15315 15314 15319 
2116 2150 1819 2149 15317 15315 14995 15311 15319 15313 
2117 1819 2150 1820 15003 15315 15318 15005 13097 15320 
2150 1819 1853 1820 15315 13404 15316 15320 13097 13405 
1820 1853 2151 1854 13405 15321 15322 13411 13413 15323 
2117 2151 2118 1820 15324 15325 15020 15005 15322 15013 
1820 1853 2150 2151 13405 15316 15320 15322 15321 15326 
2117 2151 1820 2150 15324 15322 15005 15318 15326 15320 
2118 1820 2151 1821 15013 15322 15325 15015 13107 15327 
2151 1820 1854 1821 15322 13411 15323 15327 13107 13412 
1821 1854 2152 1855 13412 15328 15329 13418 13420 15330 
2118 2152 2119 1821 15331 15332 15030 15015 15329 15023 
1821 1854 2151 2152 13412 15323 15327 15329 15328 15333 
2118 2152 1821 2151 15331 15329 15015 15325 15333 15327 
2119 1821 2152 1822 15023 15329 15332 15025 13117 15334 
2152 1821 1855 1822 15329 13418 15330 15334 13117 13419 
1822 1855 2153 1856 13419 15335 15336 13425 13427 15337 
2119 2153 2120 1822 15338 15339 15040 15025 15336 15033 
1822 1855 2152 2153 13419 15330 15334 15336 15335 15340 
2119 2153 1822 2152 15338 15336 15025 15332 15340 15334 
2120 1822 2153 1823 15033 15336 15339 15035 13127 15341 
2153 1822 1856 1823 15336 13425 15337 15341 13127 13426 
1823 1856 2154 1857 13426 15342 15343 13432 13434 15344 
2120 2154 2121 1823 15345 15346 15050 15035 15343 15043 
1823 1856 2153 2154 13426 15337 15341 15343 15342 15347 
2120 2154 1823 2153 15345 15343 15035 15339 15347 15341 
2121 1823 2154 1824 15043 15343 15346 15045 13137 15348 
2154 1823 1857 1824 15343 13432 15344 15348 13137 13433 
1824 1857 2155 1858 13433 15349 15350 13439 13441 15351 
2121 2155 2122 1824 15352 15353 15060 15045 15350 15053 
1824 1857 2154 2155 13433 15344 15348 15350 15349 15354 
2121 2155 1824 2154 15352 15350 15045 15346 15354 15348 
2122 1824 2155 1825 15053 15350 15353 15055 13147 15355 
2155 1824 1858 1825 15350 13439 15351 15355 13147 13440 
1825 1858 2156 1859 13440 15356 15357 13446 13448 15358 
2122 2156 2123 1825 15359 15360 15070 15055 15357 15063 
1825 1858 2155 2156 13440 15351 15355 15357 15356 15361 
2122 2156 1825 2155 15359 15357 15055 15353 15361 15355 
2123 1825 2156 1826 15063 15357 15360 15065 13157 15362 
2156 1825 1859 1826 15357 13446 15358 15362 13157 13447 
1826 1859 2157 1860 13447 15363 15364 13453 13455 15365 
2123 2157 2124 1826 15366 15367 15080 15065 15364 15073 
1826 1859 2156 2157 13447 15358 15362 15364 15363 15368 
2123 2157 1826 2156 15366 15364 15065 15360 15368 15362 
2124 1826 2157 1827 15073 15364 15367 15075 13167 15369 
2157 1826 1860 1827 15364 13453 15365 15369 13167 13454 
1827 1860 2158 1861 13454 15370 15371 13460 13462 15372 
2124 2158 2125 1827 15373 15374 15090 15075 15371 15083 
1827 1860 2157 2158 13454 15365 15369 15371 15370 15375 
2124 2158 1827 2157 15373 15371 15075 15367 15375 15369 
2125 1827 2158 1828 15083 15371 15374 15085 13177 15376 
2158 1827 1861 1828 15371 13460 15372 15376 13177 13461 
1828 1861 2159 1862 13461 15377 15378 13467 13469 15379 
2125 2159 2126 1828 15380 15381 15100 15085 15378 15093 
1828 1861 2158 2159 13461 15372 15376 15378 15377 15382 
2125 2159 1828 2158 15380 15378 15085 15374 15382 15376 
2126 1828 2159 1829 15093 15378 15381 15095 13187 15383 
2159 1828 1862 1829 15378 13467 15379 15383 13187 13468 
1829 1862 2160 1863 13468 15384 15385 13474 13476 15386 
2126 2160 2127 1829 15387 15388 15110 15095 15385 15103 
1829 1862 2159 2160 13468 15379 15383 15385 15384 15389 
2126 2160 1829 2159 15387 15385 15095 15381 15389 15383 
2127 1829 2160 1830 15103 15385 15388 15105 13197 15390 
2160 1829 1863 1830 15385 13474 15386 15390 13197 13475 
1830 1863 2161 1864 13475 15391 15392 13481 13483 15393 
2127 2161 2128 1830 15394 15395 15120 15105 15392 15113 
1830 1863 2160 2161 13475 15386 15390 15392 15391 15396 
2127 2161 1830 2160 15394 15392 15105 15388 15396 15390 
2128 1830 2161 1831 15113 15392 15395 15115 13207 15397 
2161 1830 1864 1831 15392 13481 15393 15397 13207 13482 
1831 1864 2162 1865 13482 15398 15399 13488 13490 15400 
2128 2162 2129 1831 15401 15402 15130 15115 15399 15123 
1831 1864 2161 2162 13482 15393 15397 15399 15398 15403 
2128 2162 1831 2161 15401 15399 15115 15395 15403 15397 
2129 1831 2162 1832 15123 15399 15402 15125 13217 15404 
2162 1831 1865 1832 15399 13488 15400 15404 13217 13489 
1832 1865 2163 1866 13489 15405 15406 13495 13497 15407 
2129 2163 2130 1832 15408 15409 15140 15125 15406 15133 
1832 1865 2162 2163 13489 15400 15404 15406 15405 15410 
2129 2163 1832 2162 15408 15406 15125 15402 15410 15404 
2130 1832 2163 1833 15133 15406 15409 15135 13227 15411 
2163 1832 1866 1833 15406 13495 15407 15411 13227 13496 
1833 1866 2164 1867 13496 15412 15413 13502 13504 15414 
2130 2164 2131 1833 15415 15416 15150 15135 15413 15143 
1833 1866 2163 2164 13496 15407 15411 15413 15412 15417 
2130 2164 1833 2163 15415 15413 15135 15409 15417 15411 
2131 1833 2164 1834 15143 15413 15416 15145 13237 15418 
2164 1833 1867 1834 15413 13502 15414 15418 13237 13503 
1834 1867 2165 1868 13503 15419 15420 13509 13511 15421 
2131 2165 2132 1834 15422 15423 15160 15145 15420 15153 
1834 1867 2164 2165 13503 15414 15418 15420 15419 15424 
2131 2165 1834 2164 15422 15420 15145 15416 15424 15418 
2132 1834 2165 1835 15153 15420 15423 15155 13247 15425 
2165 1834 1868 1835 15420 13509 15421 15425 13247 13510 
1835 1868 2166 1869 13510 15426 15427 13516 13518 15428 
2132 2166 2133 1835 15429 15430 15170 15155 15427 15163 
1835 1868 2165 2166 13510 15421 15425 15427 15426 15431 
2132 2166 1835 2165 15429 15427 15155 15423 15431 15425 
2133 1835 2166 1836 15163 15427 15430 15165 13257 15432 
2166 1835 1869 1836 15427 13516 15428 15432 13257 13517 
1836 1869 2167 1870 13517 15433 15434 13523 13525 15435 
2133 2167 2134 1836 15436 15437 15180 15165 15434 15173 
1836 1869 2166 2167 13517 15428 15432 15434 15433 15438 
2133 2167 1836 2166 15436 15434 15165 15430 15438 15432 
2134 1836 2167 1837 15173 15434 15437 15175 13267 15439 
2167 1836 1870 1837 15434 13523 15435 15439 13267 13524 
1837 1870 2168 1871 13524 15440 15441 13530 13532 15442 
2134 2168 2135 1837 15443 15444 15190 15175 15441 15183 
1837 1870 2167 2168 13524 15435 15439 15441 15440 15445 
2134 2168 1837 2167 15443 15441 15175 15437 15445 15439 
2135 1837 2168 1838 15183 15441 15444 15185 13277 15446 
2168 1837 1871 1838 15441 13530 15442 15446 13277 13531 
1838 1871 2169 1872 13531 15447 15448 13537 13539 15449 
2135 2169 2136 1838 15450 15451 15200 15185 15448 15193 
1838 1871 2168 2169 13531 15442 15446 15448 15447 15452 
2135 2169 1838 2168 15450 15448 15185 15444 15452 15446 
2136 1838 2169 1839 15193 15448 15451 15195 13287 15453 
2169 1838 1872 1839 15448 13537 15449 15453 13287 13538 
1839 1872 2170 1873 13538 15454 15455 13544 13546 15456 
2136 2170 2137 1839 15457 15458 15210 15195 15455 15203 
1839 1872 2169 2170 13538 15449 15453 15455 15454 15459 
2136 2170 1839 2169 15457 15455 15195 15451 15459 15453 
2137 1839 2170 1840 15203 15455 15458 15205 13297 15460 
2170 1839 1873 1840 15455 13544 15456 15460 13297 13545 
1840 1873 2171 1874 13545 15461 15462 13551 13553 15463 
2137 2171 2138 1840 15464 15465 15220 15205 15462 15213 
1840 1873 2170 2171 13545 15456 15460 15462 15461 15466 
2137 2171 1840 2170 15464 15462 15205 15458 15466 15460 
2138 1840 2171 1841 15213 15462 15465 15215 13307 15467 
2171 1840 1874 1841 15462 13551 15463 15467 13307 13552 
1841 1874 2172 1875 13552 15468 15469 13558 13560 15470 
2138 2172 2139 1841 15471 15472 15230 15215 15469 15223 
1841 1874 2171 2172 13552 15463 15467 15469 15468 15473 
2138 2172 1841 2171 15471 15469 15215 15465 15473 15467 
2139 1841 2172 1842 15223 15469 15472 15225 13317 15474 
2172 1841 1875 1842 15469 13558 15470 15474 13317 13559 
1842 1875 2173 1876 13559 15475 15476 13565 13567 15477 
2139 2173 2140 1842 15478 15479 15240 15225 15476 15233 
1842 1875 2172 2173 13559 15470 15474 15476 15475 15480 
2139 2173 1842 2172 15478 15476 15225 15472 15480 15474 
2140 1842 2173 1843 15233 15476 15479 15235 13327 15481 
2173 1842 1876 1843 15476 13565 15477 15481 13327 13566 
1843 1876 2174 1877 13566 15482 15483 13572 13574 15484 
2140 2174 2141 1843 15485 15486 15250 15235 15483 15243 
1843 1876 2173 2174 13566 15477 15481 15483 15482 15487 
2140 2174 1843 2173 15485 15483 15235 15479 15487 15481 
2141 1843 2174 1844 15243 15483 15486 15245 13337 15488 
2174 1843 1877 1844 15483 13572 15484 15488 13337 13573 
1844 1877 2175 1878 13573 15489 15490 13579 13581 15491 
2141 2175 2142 1844 15492 15493 15260 15245 15490 15253 
1844 1877 2174 2175 13573 15484 15488 15490 15489 15494 
2141 2175 1844 2174 15492 15490 15245 15486 15494 15488 
2142 1844 2175 1845 15253 15490 15493 15255 13347 15495 
2175 1844 1878 1845 15490 13579 15491 15495 13347 13580 
1845 1878 2176 1879 13580 15496 15497 13586 13588 15498 
2142 2176 2143 1845 15499 15500 15270 15255 15497 15263 
1845 1878 2175 2176 13580 15491 15495 15497 15496 15501 
2142 2176 1845 2175 15499 15497 15255 15493 15501 15495 
2143 1845 2176 1846 15263 15497 15500 15265 13357 15502 
2176 1845 1879 1846 15497 13586 15498 15502 13357 13587 
1846 1879 2177 1880 13587 15503 15504 13593 13595 15505 
2143 2177 2144 1846 15506 15507 15280 15265 15504 15273 
1846 1879 2176 2177 13587 15498 15502 15504 15503 15508 
2143 2177 1846 2176 15506 15504 15265 15500 15508 15502 
2144 1846 2177 1847 15273 15504 15507 15275 13367 15509 
2177 1846 1880 1847 15504 13593 15505 15509 13367 13594 
1848 1881 2179 1882 13605 15510 15511 13600 13604 15512 
2145 2179 2146 1848 15513 15514 15290 15288 15511 15283 
1848 1881 2178 2179 13605 15515 15516 15511 15510 15517 
2145 2179 1848 2178 15513 15511 15288 15518 15517 15516 
2146 1848 2179 1849 15283 15511 15514 15285 13377 15519 
2179 1848 1882 1849 15511 13600 15512 15519 13377 13601 
1849 1882 2180 1883 13601 15520 15521 13610 13612 15522 
2146 2180 2147 1849 15523 15524 15298 15285 15521 15293 
1849 1882 2179 2180 13601 15512 15519 15521 15520 15525 
2146 2180 1849 2179 15523 15521 15285 15514 15525 15519 
2147 1849 2180 1850 15293 15521 15524 15295 13385 15526 
2180 1849 1883 1850 15521 13610 15522 15526 13385 13611 
1850 1883 2181 1884 13611 15527 15528 13617 13619 15529 
2147 2181 2148 1850 15530 15531 15305 15295 15528 15300 
1850 1883 2180 2181 13611 15522 15526 15528 15527 15532 
2147 2181 1850 2180 15530 15528 15295 15524 15532 15526 
2148 1850 2181 1851 15300 15528 15531 15302 13392 15533 
2181 1850 1884 1851 15528 13617 15529 15533 13392 13618 
1851 1884 2182 1885 13618 15534 15535 13624 13626 15536 
2148 2182 2149 1851 15537 15538 15312 15302 15535 15307 
1851 1884 2181 2182 13618 15529 15533 15535 15534 15539 
2148 2182 1851 2181 15537 15535 15302 15531 15539 15533 
2149 1851 2182 1852 15307 15535 15538 15309 13399 15540 
2182 1851 1885 1852 15535 13624 15536 15540 13399 13625 
1852 1885 2183 1886 13625 15541 15542 13631 13633 15543 
2149 2183 2150 1852 15544 15545 15319 15309 15542 15314 
1852 1885 2182 2183 13625 15536 15540 15542 15541 15546 
2149 2183 1852 2182 15544 15542 15309 15538 15546 15540 
2150 1852 2183 1853 15314 15542 15545 15316 13406 15547 
2183 1852 1886 1853 15542 13631 15543 15547 13406 13632 
1853 1886 2184 1887 13632 15548 15549 13638 13640 15550 
2150 2184 2151 1853 15551 15552 15326 15316 15549 15321 
1853 1886 2183 2184 13632 15543 15547 15549 15548 15553 
2150 2184 1853 2183 15551 15549 15316 15545 15553 15547 
2151 1853 2184 1854 15321 15549 15552 15323 13413 15554 
2184 1853 1887 1854 15549 13638 15550 15554 13413 13639 
1854 1887 2185 1888 13639 15555 15556 13645 13647 15557 
2151 2185 2152 1854 15558 15559 15333 15323 15556 15328 
1854 1887 2184 2185 13639 15550 15554 15556 15555 15560 
2151 2185 1854 2184 15558 15556 15323 15552 15560 15554 
2152 1854 2185 1855 15328 15556 15559 15330 13420 15561 
2185 1854 1888 1855 15556 13645 15557 15561 13420 13646 
1855 1888 2186 1889 13646 15562 15563 13652 13654 15564 
2152 2186 2153 1855 15565 15566 15340 15330 15563 15335 
1855 1888 2185 2186 13646 15557 15561 15563 15562 15567 
2152 2186 1855 2185 15565 15563 15330 15559 15567 15561 
2153 1855 2186 1856 15335 15563 15566 15337 13427 15568 
2186 1855 1889 1856 15563 13652 15564 15568 13427 13653 
1856 1889 2187 1890 13653 15569 15570 13659 13661 15571 
2153 2187 2154 1856 15572 15573 15347 15337 15570 15342 
1856 1889 2186 2187 13653 15564 15568 15570 15569 15574 
2153 2187 1856 2186 15572 15570 15337 15566 15574 15568 
2154 1856 2187 1857 15342 15570 15573 15344 13434 15575 
2187 1856 1890 1857 15570 13659 15571 15575 13434 13660 
1857 1890 2188 1891 13660 15576 15577 13666 13668 15578 
2154 2188 2155 1857 15579 15580 15354 15344 15577 15349 
1857 1890 2187 2188 13660 15571 15575 15577 15576 15581 
2154 2188 1857 2187 15579 15577 15344 15573 15581 15575 
2155 1857 2188 1858 15349 15577 15580 15351 13441 15582 
2188 1857 1891 1858 15577 13666 15578 15582 13441 13667 
1858 1891 2189 1892 13667 15583 15584 13673 13675 15585 
2155 2189 2156 1858 15586 15587 15361 15351 15584 15356 
1858 1891 2188 2189 13667 15578 15582 15584 15583 15588 
2155 2189 1858 2188 15586 15584 15351 15580 15588 15582 
2156 1858 2189 1859 15356 15584 15587 15358 13448 15589 
2189 1858 1892 1859 15584 13673 15585 15589 13448 13674 
1859 1892 2190 1893 13674 15590 15591 13680 13682 15592 
2156 2190 2157 1859 15593 15594 15368 15358 15591 15363 
1859 1892 2189 2190 13674 15585 15589 15591 15590 15595 
2156 2190 1859 2189 15593 15591 15358 15587 15595 15589 
2157 1859 2190 1860 15363 15591 15594 15365 13455 15596 
2190 1859 1893 1860 15591 13680 15592 15596 13455 13681 
1860 1893 2191 1894 13681 15597 15598 13687 13689 15599 
2157 2191 2158 1860 15600 15601 15375 15365 15598 15370 
1860 1893 2190 2191 13681 15592 15596 15598 15597 15602 
2157 2191 1860 2190 15600 15598 15365 15594 15602 15596 
2158 1860 2191 1861 15370 15598 15601 15372 13462 15603 
2191 1860 1894 1861 15598 13687 15599 15603 13462 13688 
1861 1894 2192 1895 13688 15604 15605 13694 13696 15606 
2158 2192 2159 1861 15607 15608 15382 15372 15605 15377 
1861 1894 2191 2192 13688 15599 15603 15605 15604 15609 
2158 2192 1861 2191 15607 15605 15372 15601 15609 15603 
2159 1861 2192 1862 15377 15605 15608 15379 13469 15610 
2192 1861 1895 1862 15605 13694 15606 15610 13469 13695 
1862 1895 2193 1896 13695 15611 15612 13701 13703 15613 
2159 2193 2160 1862 15614 15615 15389 15379 15612 15384 
1862 1895 2192 2193 13695 15606 15610 15612 15611 15616 
2159 2193 1862 2192 15614 15612 15379 15608 15616 15610 
2160 1862 2193 1863 15384 15612 15615 15386 13476 15617 
2193 1862 1896 1863 15612 13701 15613 15617 13476 13702 
1863 1896 2194 1897 13702 15618 15619 13708 13710 15620 
2160 2194 2161 1863 15621 15622 15396 15386 15619 15391 
1863 1896 2193 2194 13702 15613 15617 15619 15618 15623 
2160 2194 1863 2193 15621 15619 15386 15615 15623 15617 
2161 1863 2194 1864 15391 15619 15622 15393 13483 15624 
2194 1863 1897 1864 15619 13708 15620 15624 13483 13709 
1864 1897 2195 1898 13709 15625 15626 13715 13717 15627 
2161 2195 2162 1864 15628 15629 15403 15393 15626 15398 
1864 1897 2194 2195 13709 15620 15624 15626 15625 15630 
2161 2195 1864 2194 15628 15626 15393 15622 15630 15624 
2162 1864 2195 1865 15398 15626 15629 15400 13490 15631 
2195 1864 1898 1865 15626 13715 15627 15631 13490 13716 
1865 1898 2196 1899 13716 15632 15633 13722 13724 15634 
2162 2196 2163 1865 15635 15636 15410 15400 15633 15405 
1865 1898 2195 2196 13716 15627 15631 15633 15632 15637 
2162 2196 1865 2195 15635 15633 15400 15629 15637 15631 
2163 1865 2196 1866 15405 15633 15636 15407 13497 15638 
2196 1865 1899 1866 15633 13722 15634 15638 13497 13723 
1866 1899 2197 1900 13723 15639 15640 13729 13731 15641 
2163 2197 2164 1866 15642 15643 15417 15407 15640 15412 
1866 1899 2196 2197 13723 15634 15638 15640 15639 15644 
2163 2197 1866 2196 15642 15640 15407 15636 15644 15638 
2164 1866 2197 1867 15412 15640 15643 15414 13504 15645 
2197 1866 1900 1867 15640 13729 15641 15645 13504 13730 
1867 1900 2198 1901 13730 15646 15647 13736 13738 15648 
2164 2198 2165 1867 15649 15650 15424 15414 15647 15419 
1867 1900 2197 2198 13730 15641 15645 15647 15646 15651 
2164 2198 1867 2197 15649 15647 15414 15643 15651 15645 
2165 1867 2198 1868 15419 15647 15650 15421 13511 15652 
2198 1867 1901 1868 15647 13736 15648 15652 13511 13737 
1868 1901 2199 1902 13737 15653 15654 13743 13745 15655 
2165 2199 2166 1868 15656 15657 15431 15421 15654 15426 
1868 1901 2198 2199 13737 15648 15652 15654 15653 15658 
2165 2199 1868 2198 15656 15654 15421 15650 15658 15652 
2166 1868 2199 1869 15426 15654 15657 15428 13518 15659 
2199 1868 1902 1869 15654 13743 15655 15659 13518 13744 
1869 1902 2200 1903 13744 15660 15661 13750 13752 15662 
2166 2200 2167 1869 15663 15664 15438 15428 15661 15433 
1869 1902 2199 2200 13744 15655 15659 15661 15660 15665 
2166 2200 1869 2199 15663 15661 15428 15657 15665 15659 
2167 1869 2200 1870 15433 15661 15664 15435 13525 15666 
2200 1869 1903 1870 15661 13750 15662 15666 13525 13751 
1870 1903 2201 1904 13751 15667 15668 13757 13759 15669 
2167 2201 2168 1870 15670 15671 15445 15435 15668 15440 
1870 1903 2200 2201 13751 15662 15666 15668 15667 15672 
2167 2201 1870 2200 15670 15668 15435 15664 15672 15666 
2168 1870 2201 1871 15440 15668 15671 15442 13532 15673 
2201 1870 1904 1871 15668 13757 15669 15673 13532 13758 
1871 1904 2202 1905 13758 15674 15675 13764 13766 15676 
2168 2202 2169 1871 15677 15678 15452 15442 15675 15447 
1871 1904 2201 2202 13758 15669 15673 15675 15674 15679 
2168 2202 1871 2201 15677 15675 15442 15671 15679 15673 
2169 1871 2202 1872 15447 15675 15678 15449 13539 15680 
2202 1871 1905 1872 15675 13764 15676 15680 13539 13765 
1872 1905 2203 1906 13765 15681 15682 13771 13773 15683 
2169 2203 2170 1872 15684 15685 15459 15449 15682 15454 
1872 1905 2202 2203 13765 15676 15680 15682 15681 15686 
2169 2203 1872 2202 15684 15682 15449 15678 15686 15680 
2170 1872 2203 1873 15454 15682 15685 15456 13546 15687 
2203 1872 1906 1873 15682 13771 15683 15687 13546 13772 
1873 1906 2204 1907 13772 15688 15689 13778 13780 15690 
2170 2204 2171 1873 15691 15692 15466 15456 15689 15461 
1873 1906 2203 2204 13772 15683 15687 15689 15688 15693 
2170 2204 1873 2203 15691 15689 15456 15685 15693 15687 
2171 1873 2204 1874 15461 15689 15692 15463 13553 15694 
2204 1873 1907 1874 15689 13778 15690 15694 13553 13779 
1874 1907 2205 1908 13779 15695 15696 13785 13787 15697 
2171 2205 2172 1874 15698 15699 15473 15463 15696 15468 
1874 1907 2204 2205 13779 15690 15694 15696 15695 15700 
2171 2205 1874 2204 15698 15696 15463 15692 15700 15694 
2172 1874 2205 1875 15468 15696 15699 15470 13560 15701 
2205 1874 1908 1875 15696 13785 15697 15701 13560 13786 
1875 1908 2206 1909 13786 15702 15703 13792 13794 15704 
2172 2206 2173 1875 15705 15706 15480 15470 15703 15475 
1875 1908 2205 2206 13786 15697 15701 15703 15702 15707 
2172 2206 1875 2205 15705 15703 15470 15699 15707 15701 
2173 1875 2206 1876 15475 15703 15706 15477 13567 15708 
2206 1875 1909 1876 15703 13792 15704 15708 13567 13793 
1876 1909 2207 1910 13793 15709 15710 13799 13801 15711 
2173 2207 2174 1876 15712 15713 15487 15477 15710 15482 
1876 1909 2206 2207 13793 15704 15708 15710 15709 15714 
2173 2207 1876 2206 15712 15710 15477 15706 15714 15708 
2174 1876 2207 1877 15482 15710 15713 15484 13574 15715 
2207 1876 1910 1877 15710 13799 15711 15715 13574 13800 
1877 1910 2208 1911 13800 15716 15717 13806 13808 15718 
2174 2208 2175 1877 15719 15720 15494 15484 15717 15489 
1877 1910 2207 2208 13800 15711 15715 15717 15716 15721 
2174 2208 1877 2207 15719 15717 15484 15713 15721 15715 
2175 1877 2208 1878 15489 15717 15720 15491 13581 15722 
2208 1877 1911 1878 15717 13806 15718 15722 13581 13807 
1878 1911 2209 1912 13807 15723 15724 13813 13815 15725 
2175 2209 2176 1878 15726 15727 15501 15491 15724 15496 
1878 1911 2208 2209 13807 15718 15722 15724 15723 15728 
2175 2209 1878 2208 15726 15724 15491 15720 15728 15722 
2176 1878 2209 1879 15496 15724 15727 15498 13588 15729 
2209 1878 1912 1879 15724 13813 15725 15729 13588 13814 
1879 1912 2210 1913 13814 15730 15731 13820 13822 15732 
2176 2210 2177 1879 15733 15734 15508 15498 15731 15503 
1879 1912 2209 2210 13814 15725 15729 15731 15730 15735 
2176 2210 1879 2209 15733 15731 15498 15727 15735 15729 
2177 1879 2210 1880 15503 15731 15734 15505 13595 15736 
2210 1879 1913 1880 15731 13820 15732 15736 13595 13821 
1881 1914 2212 1915 13832 15737 15738 13827 13831 15739 
2178 2212 2179 1881 15740 15741 15517 15515 15738 15510 
1881 1914 2211 2212 13832 15742 15743 15738 15737 15744 
2178 2212 1881 2211 15740 15738 15515 15745 15744 15743 
2179 1881 2212 1882 15510 15738 15741 15512 13604 15746 
2212 1881 1915 1882 15738 13827 15739 15746 13604 13828 
1882 1915 2213 1916 13828 15747 15748 13837 13839 15749 
2179 2213 2180 1882 15750 15751 15525 15512 15748 15520 
1882 1915 2212 2213 13828 15739 15746 15748 15747 15752 
2179 2213 1882 2212 15750 15748 15512 15741 15752 15746 
2180 1882 2213 1883 15520 15748 15751 15522 13612 15753 
2213 1882 1916 1883 15748 13837 15749 15753 13612 13838 
1883 1916 2214 1917 13838 15754 15755 13844 13846 15756 
2180 2214 2181 1883 15757 15758 15532 15522 15755 15527 
1883 1916 2213 2214 13838 15749 15753 15755 15754 15759 
2180 2214 1883 2213 15757 15755 15522 15751 15759 15753 
2181 1883 2214 1884 15527 15755 15758 15529 13619 15760 
2214 1883 1917 1884 15755 13844 15756 15760 13619 13845 
1884 1917 2215 1918 13845 15761 15762 13851 13853 15763 
2181 2215 2182 1884 15764 15765 15539 15529 15762 15534 
1884 1917 2214 2215 13845 15756 15760 15762 15761 15766 
2181 2215 1884 2214 15764 15762 15529 15758 15766 15760 
2182 1884 2215 1885 15534 15762 15765 15536 13626 15767 
2215 1884 1918 1885 15762 13851 15763 15767 13626 13852 
1885 1918 2216 1919 13852 15768 15769 13858 13860 15770 
2182 2216 2183 1885 15771 15772 15546 15536 15769 15541 
1885 1918 2215 2216 13852 15763 15767 15769 15768 15773 
2182 2216 1885 2215 15771 15769 15536 15765 15773 15767 
2183 1885 2216 1886 15541 15769 15772 15543 13633 15774 
2216 1885 1919 1886 15769 13858 15770 15774 13633 13859 
1886 1919 2217 1920 13859 15775 15776 13865 13867 15777 
2183 2217 2184 1886 15778 15779 15553 15543 15776 15548 
1886 1919 2216 2217 13859 15770 15774 15776 15775 15780 
2183 2217 1886 2216 15778 15776 15543 15772 15780 15774 
2184 1886 2217 1887 15548 15776 15779 15550 13640 15781 
2217 1886 1920 1887 15776 13865 15777 15781 13640 13866 
1887 1920 2218 1921 13866 15782 15783 13872 13874 15784 
2184 2218 2185 1887 15785 15786 15560 15550 15783 15555 
1887 1920 2217 2218 13866 15777 15781 15783 15782 15787 
2184 2218 1887 2217 15785 15783 15550 15779 15787 15781 
2185 1887 2218 1888 15555 15783 15786 15557 13647 15788 
2218 1887 1921 1888 15783 13872 15784 15788 13647 13873 
1888 1921 2219 1922 13873 15789 15790 13879 13881 15791 
2185 2219 2186 1888 15792 15793 15567 15557 15790 15562 
1888 1921 2218 2219 13873 15784 15788 15790 15789 15794 
2185 2219 1888 2218 15792 15790 15557 15786 15794 15788 
2186 1888 2219 1889 15562 15790 15793 15564 13654 15795 
2219 1888 1922 1889 15790 13879 15791 15795 13654 13880 
1889 1922 2220 1923 13880 15796 15797 13886 13888 15798 
2186 2220 2187 1889 15799 15800 15574 15564 15797 15569 
1889 1922 2219 2220 13880 15791 15795 15797 15796 15801 
2186 2220 1889 2219 15799 15797 15564 15793 15801 15795 
2187 1889 2220 1890 15569 15797 15800 15571 13661 15802 
2220 1889 1923 1890 15797 13886 15798 15802 13661 13887 
1890 1923 2221 1924 13887 15803 15804 13893 13895 15805 
2187 2221 2188 1890 15806 15807 15581 15571 15804 15576 
1890 1923 2220 2221 13887 15798 15802 15804 15803 15808 
2187 2221 1890 2220 15806 15804 15571 15800 15808 15802 
2188 1890 2221 1891 15576 15804 15807 15578 13668 15809 
2221 1890 1924 1891 15804 13893 15805 15809 13668 13894 
1891 1924 2222 1925 13894 15810 15811 13900 13902 15812 
2188 2222 2189 1891 15813 15814 15588 15578 15811 15583 
1891 1924 2221 2222 13894 15805 15809 15811 15810 15815 
2188 2222 1891 2221 15813 15811 15578 15807 15815 15809 
2189 1891 2222 1892 15583 15811 15814 15585 13675 15816 
2222 1891 1925 1892 15811 13900 15812 15816 13675 13901 
1892 1925 2223 1926 13901 15817 15818 13907 13909 15819 
2189 2223 2190 1892 15820 15821 15595 15585 15818 15590 
1892 1925 2222 2223 13901 15812 15816 15818 15817 15822 
2189 2223 1892 2222 15820 15818 15585 15814 15822 15816 
2190 1892 2223 1893 15590 15818 15821 15592 13682 15823 
2223 1892 1926 1893 15818 13907 15819 15823 13682 13908 
1893 1926 2224 1927 13908 15824 15825 13914 13916 15826 
2190 2224 2191 1893 15827 15828 15602 15592 15825 15597 
1893 1926 2223 2224 13908 15819 15823 15825 15824 15829 
2190 2224 1893 2223 15827 15825 15592 15821 15829 15823 
2191 1893 2224 1894 15597 15825 15828 15599 13689 15830 
2224 1893 1927 1894 15825 13914 15826 15830 13689 13915 
1894 1927 2225 1928 13915 15831 15832 13921 13923 15833 
2191 2225 2192 1894 15834 15835 15609 15599 15832 15604 
1894 1927 2224 2225 13915 15826 15830 15832 15831 15836 
2191 2225 1894 2224 15834 15832 15599 15828 15836 15830 
2192 1894 2225 1895 15604 15832 15835 15606 13696 15837 
2225 1894 1928 1895 15832 13921 15833 15837 13696 13922 
1895 1928 2226 1929 13922 15838 15839 13928 13930 15840 
2192 2226 2193 1895 15841 15842 15616 15606 15839 15611 
1895 1928 2225 2226 13922 15833 15837 15839 15838 15843 
2192 2226 1895 2225 15841 15839 15606 15835 15843 15837 
2193 1895 2226 1896 15611 15839 15842 15613 13703 15844 
2226 1895 1929 1896 15839 13928 15840 15844 13703 13929 
1896 1929 2227 1930 13929 15845 15846 13935 13937 15847 
2193 2227 2194 1896 15848 15849 15623 15613 15846 15618 
1896 1929 2226 2227 13929 15840 15844 15846 15845 15850 
2193 2227 1896 2226 15848 15846 15613 15842 15850 15844 
2194 1896 2227 1897 15618 15846 15849 15620 13710 15851 
2227 1896 1930 1897 15846 13935 15847 15851 13710 13936 
1897 1930 2228 1931 13936 15852 15853 13942 13944 15854 
2194 2228 2195 1897 15855 15856 15630 15620 15853 15625 
1897 1930 2227 2228 13936 15847 15851 15853 15852 15857 
2194 2228 1897 2227 15855 15853 15620 15849 15857 15851 
2195 1897 2228 1898 15625 15853 15856 15627 13717 15858 
2228 1897 1931 1898 15853 13942 15854 15858 13717 13943 
1898 1931 2229 1932 13943 15859 15860 13949 13951 15861 
2195 2229 2196 1898 15862 15863 15637 15627 15860 15632 
1898 1931 2228 2229 13943 15854 15858 15860 15859 15864 
2195 2229 1898 2228 15862 15860 15627 15856 15864 15858 
2196 1898 2229 1899 15632 15860 15863 15634 13724 15865 
2229 1898 1932 1899 15860 13949 15861 15865 13724 13950 
1899 1932 2230 1933 13950 15866 15867 13956 13958 15868 
2196 2230 2197 1899 15869 15870 15644 15634 15867 15639 
1899 1932 2229 2230 13950 15861 15865 15867 15866 15871 
2196 2230 1899 2229 15869 15867 15634 15863 15871 15865 
2197 1899 2230 1900 15639 15867 15870 15641 13731 15872 
2230 1899 1933 1900 15867 13956 15868 15872 13731 13957 
1900 1933 2231 1934 13957 15873 15874 13963 13965 15875 
2197 2231 2198 1900 15876 15877 15651 15641 15874 15646 
1900 1933 2230 2231 13957 15868 15872 15874 15873 15878 
2197 2231 1900 2230 15876 15874 15641 15870 15878 15872 
2198 1900 2231 1901 15646 15874 15877 15648 13738 15879 
2231 1900 1934 1901 15874 13963 15875 15879 13738 13964 
1901 1934 2232 1935 13964 15880 15881 13970 13972 15882 
2198 2232 2199 1901 15883 15884 15658 15648 15881 15653 
1901 1934 2231 2232 13964 15875 15879 15881 15880 15885 
2198 2232 1901 2231 15883 15881 15648 15877 15885 15879 
2199 1901 2232 1902 15653 15881 15884 15655 13745 15886 
2232 1901 1935 1902 15881 13970 15882 15886 13745 13971 
1902 1935 2233 1936 13971 15887 15888 13977 13979 15889 
2199 2233 2200 1902 15890 15891 15665 15655 15888 15660 
1902 1935 2232 2233 13971 15882 15886 15888 15887 15892 
2199 2233 1902 2232 15890 15888 15655 15884 15892 15886 
2200 1902 2233 1903 15660 15888 15891 15662 13752 15893 
2233 1902 1936 1903 15888 13977 15889 15893 13752 13978 
1903 1936 2234 1937 13978 15894 15895 13984 13986 15896 
2200 2234 2201 1903 15897 15898 15672 15662 15895 15667 
1903 1936 2233 2234 13978 15889 15893 15895 15894 15899 
2200 2234 1903 2233 15897 15895 15662 15891 15899 15893 
2201 1903 2234 1904 15667 15895 15898 15669 13759 15900 
2234 1903 1937 1904 15895 13984 15896 15900 13759 13985 
1904 1937 2235 1938 13985 15901 15902 13991 13993 15903 
2201 2235 2202 1904 15904 15905 15679 15669 15902 15674 
1904 1937 2234 2235 13985 15896 15900 15902 15901 15906 
2201 2235 1904 2234 15904 15902 15669 15898 15906 15900 
2202 1904 2235 1905 15674 15902 15905 15676 13766 15907 
2235 1904 1938 1905 15902 13991 15903 15907 13766 13992 
1905 1938 2236 1939 13992 15908 15909 13998 14000 15910 
2202 2236 2203 1905 15911 15912 15686 15676 15909 15681 
1905 1938 2235 2236 13992 15903 15907 15909 15908 15913 
2202 2236 1905 2235 15911 15909 15676 15905 15913 15907 
2203 1905 2236 1906 15681 15909 15912 15683 13773 15914 
2236 1905 1939 1906 15909 13998 15910 15914 13773 13999 
1906 1939 2237 1940 13999 15915 15916 14005 14007 15917 
2203 2237 2204 1906 15918 15919 15693 15683 15916 15688 
1906 1939 2236 2237 13999 15910 15914 15916 15915 15920 
2203 2237 1906 2236 15918 15916 15683 15912 15920 15914 
2204 1906 2237 1907 15688 15916 15919 15690 13780 15921 
2237 1906 1940 1907 15916 14005 15917 15921 13780 14006 
1907 1940 2238 1941 14006 15922 15923 14012 14014 15924 
2204 2238 2205 1907 15925 15926 15700 15690 15923 15695 
1907 1940 2237 2238 14006 15917 15921 15923 15922 15927 
2204 2238 1907 2237 15925 15923 15690 15919 15927 15921 
2205 1907 2238 1908 15695 15923 15926 15697 13787 15928 
2238 1907 1941 1908 15923 14012 15924 15928 13787 14013 
1908 1941 2239 1942 14013 15929 15930 14019 14021 15931 
2205 2239 2206 1908 15932 15933 15707 15697 15930 15702 
1908 1941 2238 2239 14013 15924 15928 15930 15929 15934 
2205 2239 1908 2238 15932 15930 15697 15926 15934 15928 
2206 1908 2239 1909 15702 15930 15933 15704 13794 15935 
2239 1908 1942 1909 15930 14019 15931 15935 13794 14020 
1909 1942 2240 1943 14020 15936 15937 14026 14028 15938 
2206 2240 2207 1909 15939 15940 15714 15704 15937 15709 
1909 1942 2239 2240 14020 15931 15935 15937 15936 15941 
2206 2240 1909 2239 15939 15937 15704 15933 15941 15935 
2207 1909 2240 1910 15709 15937 15940 15711 13801 15942 
2240 1909 1943 1910 15937 14026 15938 15942 13801 14027 
1910 1943 2241 1944 14027 15943 15944 14033 14035 15945 
2207 2241 2208 1910 15946 15947 15721 15711 15944 15716 
1910 1943 2240 2241 14027 15938 15942 15944 15943 15948 
2207 2241 1910 2240 15946 15944 15711 15940 15948 15942 
2208 1910 2241 1911 15716 15944 15947 15718 13808 15949 
2241 1910 1944 1911 15944 14033 15945 15949 13808 14034 
1911 1944 2242 1945 14034 15950 15951 14040 14042 15952 
2208 2242 2209 1911 15953 15954 15728 15718 15951 15723 
1911 1944 2241 2242 14034 15945 15949 15951 15950 15955 
2208 2242 1911 2241 15953 15951 15718 15947 15955 15949 
2209 1911 2242 1912 15723 15951 15954 15725 13815 15956 
2242 1911 1945 1912 15951 14040 15952 15956 13815 14041 
1912 1945 2243 1946 14041 15957 15958 14047 14049 15959 
2209 2243 2210 1912 15960 15961 15735 15725 15958 15730 
1912 1945 2242 2243 14041 15952 15956 15958 15957 15962 
2209 2243 1912 2242 15960 15958 15725 15954 15962 15956 
2210 1912 2243 1913 15730 15958 15961 15732 13822 15963 
2243 1912 1946 1913 15958 14047 15959 15963 13822 14048 
1914 1947 2245 1948 14059 15964 15965 14054 14058 15966 
2211 2245 2212 1914 15967 15968 15744 15742 15965 15737 
1914 1947 2244 2245 14059 15969 15970 15965 15964 15971 
2211 2245 1914 2244 15967 15965 15742 15972 15971 15970 
2212 1914 2245 1915 15737 15965 15968 15739 13831 15973 
2245 1914 1948 1915 15965 14054 15966 15973 13831 14055 
1915 1948 2246 1949 14055 15974 15975 14064 14066 15976 
2212 2246 2213 1915 15977 15978 15752 15739 15975 15747 
1915 1948 2245 2246 14055 15966 15973 15975 15974 15979 
2212 2246 1915 2245 15977 15975 15739 15968 15979 15973 
2213 1915 2246 1916 15747 15975 15978 15749 13839 15980 
2246 1915 1949 1916 15975 14064 15976 15980 13839 14065 
1916 1949 2247 1950 14065 15981 15982 14071 14073 15983 
2213 2247 2214 1916 15984 15985 15759 15749 15982 15754 
1916 1949 2246 2247 14065 15976 15980 15982 15981 15986 
2213 2247 1916 2246 15984 15982 15749 15978 15986 15980 
2214 1916 2247 1917 15754 15982 15985 15756 13846 15987 
2247 1916 1950 1917 15982 14071 15983 15987 13846 14072 
1917 1950 2248 1951 14072 15988 15989 14078 14080 15990 
2214 2248 2215 1917 15991 15992 15766 15756 15989 15761 
1917 1950 2247 2248 14072 15983 15987 15989 15988 15993 
2214 2248 1917 2247 15991 15989 15756 15985 15993 15987 
2215 1917 2248 1918 15761 15989 15992 15763 13853 15994 
2248 1917 1951 1918 15989 14078 15990 15994 13853 14079 
1918 1951 2249 1952 14079 15995 15996 14085 14087 15997 
2215 2249 2216 1918 15998 15999 15773 15763 15996 15768 
1918 1951 2248 2249 14079 15990 15994 15996 15995 16000 
2215 2249 1918 2248 15998 15996 15763 15992 16000 15994 
2216 1918 2249 1919 15768 15996 15999 15770 13860 16001 
2249 1918 1952 1919 15996 14085 15997 16001 13860 14086 
1919 1952 2250 1953 14086 16002 16003 14092 14094 16004 
2216 2250 2217 1919 16005 16006 15780 15770 16003 15775 
1919 1952 2249 2250 14086 15997 16001 16003 16002 16007 
2216 2250 1919 2249 16005 16003 15770 15999 16007 16001 
2217 1919 2250 1920 15775 16003 16006 15777 13867 16008 
2250 1919 1953 1920 16003 14092 16004 16008 13867 14093 
1920 1953 2251 1954 14093 16009 16010 14099 14101 16011 
2217 2251 2218 1920 16012 16013 15787 15777 16010 15782 
1920 1953 2250 2251 14093 16004 16008 16010 16009 16014 
2217 2251 1920 2250 16012 16010 15777 16006 16014 16008 
2218 1920 2251 1921 15782 16010 16013 15784 13874 16015 
2251 1920 1954 1921 16010 14099 16011 16015 13874 14100 
1921 1954 2252 1955 14100 16016 16017 14106 14108 16018 
2218 2252 2219 1921 16019 16020 15794 15784 16017 15789 
1921 1954 2251 2252 14100 16011 16015 16017 16016 16021 
2218 2252 1921 2251 16019 16017 15784 16013 16021 16015 
2219 1921 2252 1922 15789 16017 16020 15791 13881 16022 
2252 1921 1955 1922 16017 14106 16018 16022 13881 14107 
1922 1955 2253 1956 14107 16023 16024 14113 14115 16025 
2219 2253 2220 1922 16026 16027 15801 15791 16024 15796 
1922 1955 2252 2253 14107 16018 16022 16024 16023 16028 
2219 2253 1922 2252 16026 16024 15791 16020 16028 16022 
2220 1922 2253 1923 15796 16024 16027 15798 13888 16029 
2253 1922 1956 1923 16024 14113 16025 16029 13888 14114 
1923 1956 2254 1957 14114 16030 16031 14120 14122 16032 
2220 2254 2221 1923 16033 16034 15808 15798 16031 15803 
1923 1956 2253 2254 14114 16025 16029 16031 16030 16035 
2220 2254 1923 2253 16033 16031 15798 16027 16035 16029 
2221 1923 2254 1924 15803 16031 16034 15805 13895 16036 
2254 1923 1957 1924 16031 14120 16032 16036 13895 14121 
1924 1957 2255 1958 14121 16037 16038 14127 14129 16039 
2221 2255 2222 1924 16040 16041 15815 15805 16038 15810 
1924 1957 2254 2255 14121 16032 16036 16038 16037 16042 
2221 2255 1924 2254 16040 16038 15805 16034 16042 16036 
2222 1924 2255 1925 15810 16038 16041 15812 13902 16043 
2255 1924 1958 1925 16038 14127 16039 16043 13902 14128 
1925 1958 2256 1959 14128 16044 16045 14134 14136 16046 
2222 2256 2223 1925 16047 16048 15822 15812 16045 15817 
1925 1958 2255 2256 14128 16039 16043 16045 16044 16049 
2222 2256 1925 2255 16047 16045 15812 16041 16049 16043 
2223 1925 2256 1926 15817 16045 16048 15819 13909 16050 
2256 1925 1959 1926 16045 14134 16046 16050 13909 14135 
1926 1959 2257 1960 14135 16051 16052 14141 14143 16053 
2223 2257 2224 1926 16054 16055 15829 15819 16052 15824 
1926 1959 2256 2257 14135 16046 16050 16052 16051 16056 
2223 2257 1926 2256 16054 16052 15819 16048 16056 16050 
2224 1926 2257 1927 15824 16052 16055 15826 13916 16057 
2257 1926 1960 1927 16052 14141 16053 16057 13916 14142 
1927 1960 2258 1961 14142 16058 16059 14148 14150 16060 
2224 2258 2225 1927 16061 16062 15836 15826 16059 15831 
1927 1960 2257 2258 14142 16053 16057 16059 16058 16063 
2224 2258 1927 2257 16061 16059 15826 16055 16063 16057 
2225 1927 2258 1928 15831 16059 16062 15833 13923 16064 
2258 1927 1961 1928 16059 14148 16060 16064 13923 14149 
1928 1961 2259 1962 14149 16065 16066 14155 14157 16067 
2225 2259 2226 1928 16068 16069 15843 15833 16066 15838 
1928 1961 2258 2259 14149 16060 16064 16066 16065 16070 
2225 2259 1928 2258 16068 16066 15833 16062 16070 16064 
2226 1928 2259 1929 15838 16066 16069 15840 13930 16071 
2259 1928 1962 1929 16066 14155 16067 16071 13930 14156 
1929 1962 2260 1963 14156 16072 16073 14162 14164 16074 
2226 2260 2227 1929 16075 16076 15850 15840 16073 15845 
1929 1962 2259 2260 14156 16067 16071 16073 16072 16077 
2226 2260 1929 2259 16075 16073 15840 16069 16077 16071 
2227 1929 2260 1930 15845 16073 16076 15847 13937 16078 
2260 1929 1963 1930 16073 14162 16074 16078 13937 14163 
1930 1963 2261 1964 14163 16079 16080 14169 14171 16081 
2227 2261 2228 1930 16082 16083 15857 15847 16080 15852 
1930 1963 2260 2261 14163 16074 16078 16080 16079 16084 
2227 2261 1930 2260 16082 16080 15847 16076 16084 16078 
2228 1930 2261 1931 15852 16080 16083 15854 13944 16085 
2261 1930 1964 1931 16080 14169 16081 16085 13944 14170 
1931 1964 2262 1965 14170 16086 16087 14176 14178 16088 
2228 2262 2229 1931 16089 16090 15864 15854 16087 15859 
1931 1964 2261 2262 14170 16081 16085 16087 16086 16091 
2228 2262 1931 2261 16089 16087 15854 16083 16091 16085 
2229 1931 2262 1932 15859 16087 16090 15861 13951 16092 
2262 1931 1965 1932 16087 14176 16088 16092 13951 14177 
1932 1965 2263 1966 14177 16093 16094 14183 14185 16095 
2229 2263 2230 1932 16096 16097 15871 15861 16094 15866 
1932 1965 2262 2263 14177 16088 16092 16094 16093 16098 
2229 2263 1932 2262 16096 16094 15861 16090 16098 16092 
2230 1932 2263 1933 15866 16094 16097 15868 13958 16099 
2263 1932 1966 1933 16094 14183 16095 16099 13958 14184 
1933 1966 2264 1967 14184 16100 16101 14190 14192 16102 
2230 2264 2231 1933 16103 16104 15878 15868 16101 15873 
1933 1966 2263 2264 14184 16095 16099 16101 16100 16105 
2230 2264 1933 2263 16103 16101 15868 16097 16105 16099 
2231 1933 2264 1934 15873 16101 16104 15875 13965 16106 
2264 1933 1967 1934 16101 14190 16102 16106 13965 14191 
1934 1967 2265 1968 14191 16107 16108 14197 14199 16109 
2231 2265 2232 1934 16110 16111 15885 15875 16108 15880 
1934 1967 2264 2265 14191 16102 16106 16108 16107 16112 
2231 2265 1934 2264 16110 16108 15875 16104 16112 16106 
2232 1934 2265 1935 15880 16108 16111 15882 13972 16113 
2265 1934 1968 1935 16108 14197 16109 16113 13972 14198 
1935 1968 2266 1969 14198 16114 16115 14204 14206 16116 
2232 2266 2233 1935 16117 16118 15892 15882 16115 15887 
1935 1968 2265 2266 14198 16109 16113 16115 16114 16119 
2232 2266 1935 2265 16117 16115 15882 16111 16119 16113 
2233 1935 2266 1936 15887 16115 16118 15889 13979 16120 
2266 1935 1969 1936 16115 14204 16116 16120 13979 14205 
1936 1969 2267 1970 14205 16121 16122 14211 14213 16123 
2233 2267 2234 1936 16124 16125 15899 15889 16122 15894 
1936 1969 2266 2267 14205 16116 16120 16122 16121 16126 
2233 2267 1936 2266 16124 16122 15889 16118 16126 16120 
2234 1936 2267 1937 15894 16122 16125 15896 13986 16127 
2267 1936 1970 1937 16122 14211 16123 16127 13986 14212 
1937 1970 2268 1971 14212 16128 16129 14218 14220 16130 
2234 2268 2235 1937 16131 16132 15906 15896 16129 15901 
1937 1970 2267 2268 14212 16123 16127 16129 16128 16133 
2234 2268 1937 2267 16131 16129 15896 16125 16133 16127 
2235 1937 2268 1938 15901 16129 16132 15903 13993 16134 
2268 1937 1971 1938 16129 14218 16130 16134 13993 14219 
1938 1971 2269 1972 14219 16135 16136 14225 14227 16137 
2235 2269 2236 1938 16138 16139 15913 15903 16136 15908 
1938 1971 2268 2269 14219 16130 16134 16136 16135 16140 
2235 2269 1938 2268 16138 16136 15903 16132 16140 16134 
2236 1938 2269 1939 15908 16136 16139 15910 14000 16141 
2269 1938 1972 1939 16136 14225 16137 16141 14000 14226 
1939 1972 2270 1973 14226 16142 16143 14232 14234 16144 
2236 2270 2237 1939 16145 16146 15920 15910 16143 15915 
1939 1972 2269 2270 14226 16137 16141 16143 16142 16147 
2236 2270 1939 2269 16145 16143 15910 16139 16147 16141 
2237 1939 2270 1940 15915 16143 16146 15917 14007 16148 
2270 1939 1973 1940 16143 14232 16144 16148 14007 14233 
1940 1973 2271 1974 14233 16149 16150 14239 14241 16151 
2237 2271 2238 1940 16152 16153 15927 15917 16150 15922 
1940 1973 2270 2271 14233 16144 16148 16150 16149 16154 
2237 2271 1940 2270 16152 16150 15917 16146 16154 16148 
2238 1940 2271 1941 15922 16150 16153 15924 14014 16155 
2271 1940 1974 1941 16150 14239 16151 16155 14014 14240 
1941 1974 2272 1975 14240 16156 16157 14246 14248 16158 
2238 2272 2239 1941 16159 16160 15934 15924 16157 15929 
1941 1974 2271 2272 14240 16151 16155 16157 16156 16161 
2238 2272 1941 2271 16159 16157 15924 16153 16161 16155 
2239 1941 2272 1942 15929 16157 16160 15931 14021 16162 
2272 1941 1975 1942 16157 14246 16158 16162 14021 14247 
1942 1975 2273 1976 14247 16163 16164 14253 14255 16165 
2239 2273 2240 1942 16166 16167 15941 15931 16164 15936 
1942 1975 2272 2273 14247 16158 16162 16164 16163 16168 
2239 2273 1942 2272 16166 16164 15931 16160 16168 16162 
2240 1942 2273 1943 15936 16164 16167 15938 14028 16169 
2273 1942 1976 1943 16164 14253 16165 16169 14028 14254 
1943 1976 2274 1977 14254 16170 16171 14260 14262 16172 
2240 2274 2241 1943 16173 16174 15948 15938 16171 15943 
1943 1976 2273 2274 14254 16165 16169 16171 16170 16175 
2240 2274 1943 2273 16173 16171 15938 16167 16175 16169 
2241 1943 2274 1944 15943 16171 16174 15945 14035 16176 
2274 1943 1977 1944 16171 14260 16172 16176 14035 14261 
1944 1977 2275 1978 14261 16177 16178 14267 14269 16179 
2241 2275 2242 1944 16180 16181 15955 15945 16178 15950 
1944 1977 2274 2275 14261 16172 16176 16178 16177 16182 
2241 2275 1944 2274 16180 16178 15945 16174 16182 16176 
2242 1944 2275 1945 15950 16178 16181 15952 14042 16183 
2275 1944 1978 1945 16178 14267 16179 16183 14042 14268 
1945 1978 2276 1979 14268 16184 16185 14274 14276 16186 
2242 2276 2243 1945 16187 16188 15962 15952 16185 15957 
1945 1978 2275 2276 14268 16179 16183 16185 16184 16189 
2242 2276 1945 2275 16187 16185 15952 16181 16189 16183 
2243 1945 2276 1946 15957 16185 16188 15959 14049 16190 
2276 1945 1979 1946 16185 14274 16186 16190 14049 14275 
1947 1980 2278 1981 14286 16191 16192 14281 14285 16193 
2244 2278 2245 1947 16194 16195 15971 15969 16192 15964 
1947 1980 2277 2278 14286 16196 16197 16192 16191 16198 
2244 2278 1947 2277 16194 16192 15969 16199 16198 16197 
2245 1947 2278 1948 15964 16192 16195 15966 14058 16200 
2278 1947 1981 1948 16192 14281 16193 16200 14058 14282 
1948 1981 2279 1982 14282 16201 16202 14291 14293 16203 
2245 2279 2246 1948 16204 16205 15979 15966 16202 15974 
1948 1981 2278 2279 14282 16193 16200 16202 16201 16206 
2245 2279 1948 2278 16204 16202 15966 16195 16206 16200 
2246 1948 2279 1949 15974 16202 16205 15976 14066 16207 
2279 1948 1982 1949 16202 14291 16203 16207 14066 14292 
1949 1982 2280 1983 14292 16208 16209 14298 14300 16210 
2246 2280 2247 1949 16211 16212 15986 15976 16209 15981 
1949 1982 2279 2280 14292 16203 16207 16209 16208 16213 
2246 2280 1949 2279 16211 16209 15976 16205 16213 16207 
2247 1949 2280 1950 15981 16209 16212 15983 14073 16214 
2280 1949 1983 1950 16209 14298 16210 16214 14073 14299 
1950 1983 2281 1984 14299 16215 16216 14305 14307 16217 
2247 2281 2248 1950 16218 16219 15993 15983 16216 15988 
1950 1983 2280 2281 14299 16210 16214 16216 16215 16220 
2247 2281 1950 2280 16218 16216 15983 16212 16220 16214 
2248 1950 2281 1951 15988 16216 16219 15990 14080 16221 
2281 1950 1984 1951 16216 14305 16217 16221 14080 14306 
1951 1984 2282 1985 14306 16222 16223 14312 14314 16224 
2248 2282 2249 1951 16225 16226 16000 15990 16223 15995 
1951 1984 2281 2282 14306 16217 16221 16223 16222 16227 
2248 2282 1951 2281 16225 16223 15990 16219 16227 16221 
2249 1951 2282 1952 15995 16223 16226 15997 14087 16228 
2282 1951 1985 1952 16223 14312 16224 16228 14087 14313 
1952 1985 2283 1986 14313 16229 16230 14319 14321 16231 
2249 2283 2250 1952 16232 16233 16007 15997 16230 16002 
1952 1985 2282 2283 14313 16224 16228 16230 16229 16234 
2249 2283 1952 2282 16232 16230 15997 16226 16234 16228 
2250 1952 2283 1953 16002 16230 16233 16004 14094 16235 
2283 1952 1986 1953 16230 14319 16231 16235 14094 14320 
1953 1986 2284 1987 14320 16236 16237 14326 14328 16238 
2250 2284 2251 1953 16239 16240 16014 16004 16237 16009 
1953 1986 2283 2284 14320 16231 16235 16237 16236 16241 
2250 2284 1953 2283 16239 16237 16004 16233 16241 16235 
2251 1953 2284 1954 16009 16237 16240 16011 14101 16242 
2284 1953 1987 1954 16237 14326 16238 16242 14101 14327 
1954 1987 2285 1988 14327 16243 16244 14333 14335 16245 
2251 2285 2252 1954 16246 16247 16021 16011 16244 16016 
1954 1987 2284 2285 14327 16238 16242 16244 16243 16248 
2251 2285 1954 2284 16246 16244 16011 16240 16248 16242 
2252 1954 2285 1955 16016 16244 16247 16018 14108 16249 
2285 1954 1988 1955 16244 14333 16245 16249 14108 14334 
1955 1988 2286 1989 14334 16250 16251 14340 14342 16252 
2252 2286 2253 1955 16253 16254 16028 16018 16251 16023 
1955 1988 2285 2286 14334 16245 16249 16251 16250 16255 
2252 2286 1955 2285 16253 16251 16018 16247 16255 16249 
2253 1955 2286 1956 16023 16251 16254 16025 14115 16256 
2286 1955 1989 1956 16251 14340 16252 16256 14115 14341 
1956 1989 2287 1990 14341 16257 16258 14347 14349 16259 
2253 2287 2254 1956 16260 16261 16035 16025 16258 16030 
1956 1989 2286 2287 14341 16252 16256 16258 16257 16262 
2253 2287 1956 2286 16260 16258 16025 16254 16262 16256 
2254 1956 2287 1957 16030 16258 16261 16032 14122 16263 
2287 1956 1990 1957 16258 14347 16259 16263 14122 14348 
1957 1990 2288 1991 14348 16264 16265 14354 14356 16266 
2254 2288 2255 1957 16267 16268 16042 16032 16265 16037 
1957 1990 2287 2288 14348 16259 16263 16265 16264 16269 
2254 2288 1957 2287 16267 16265 16032 16261 16269 16263 
2255 1957 2288 1958 16037 16265 16268 16039 14129 16270 
2288 1957 1991 1958 16265 14354 16266 16270 14129 14355 
1958 1991 2289 1992 14355 16271 16272 14361 14363 16273 
2255 2289 2256 1958 16274 16275 16049 16039 16272 16044 
1958 1991 2288 2289 14355 16266 16270 16272 16271 16276 
2255 2289 1958 2288 16274 16272 16039 16268 16276 16270 
2256 1958 2289 1959 16044 16272 16275 16046 14136 16277 
2289 1958 1992 1959 16272 14361 16273 16277 14136 14362 
1959 1992 2290 1993 14362 16278 16279 14368 14370 16280 
2256 2290 2257 1959 16281 16282 16056 16046 16279 16051 
1959 1992 2289 2290 14362 16273 16277 16279 16278 16283 
2256 2290 1959 2289 16281 16279 16046 16275 16283 16277 
2257 1959 2290 1960 16051 16279 16282 16053 14143 16284 
2290 1959 1993 1960 16279 14368 16280 16284 14143 14369 
1960 1993 2291 1994 14369 16285 16286 14375 14377 16287 
2257 2291 2258 1960 16288 16289 16063 16053 16286 16058 
1960 1993 2290 2291 14369 16280 16284 16286 16285 16290 
2257 2291 1960 2290 16288 16286 16053 16282 16290 16284 
2258 1960 2291 1961 16058 16286 16289 16060 14150 16291 
2291 1960 1994 1961 16286 14375 16287 16291 14150 14376 
1961 1994 2292 1995 14376 16292 16293 14382 14384 16294 
2258 2292 2259 1961 16295 16296 16070 16060 16293 16065 
1961 1994 2291 2292 14376 16287 16291 16293 16292 16297 
2258 2292 1961 2291 16295 16293 16060 16289 16297 16291 
2259 1961 2292 1962 16065 16293 16296 16067 14157 16298 
2292 1961 1995 1962 16293 14382 16294 16298 14157 14383 
1962 1995 2293 1996 14383 16299 16300 14389 14391 16301 
2259 2293 2260 1962 16302 16303 16077 16067 16300 16072 
1962 1995 2292 2293 14383 16294 16298 16300 16299 16304 
2259 2293 1962 2292 16302 16300 16067 16296 16304 16298 
2260 1962 2293 1963 16072 16300 16303 16074 14164 16305 
2293 1962 1996 1963 16300 14389 16301 16305 14164 14390 
1963 1996 2294 1997 14390 16306 16307 14396 14398 16308 
2260 2294 2261 1963 16309 16310 16084 16074 16307 16079 
1963 1996 2293 2294 14390 16301 16305 16307 16306 16311 
2260 2294 1963 2293 16309 16307 16074 16303 16311 16305 
2261 1963 2294 1964 16079 16307 16310 16081 14171 16312 
2294 1963 1997 1964 16307 14396 16308 16312 14171 14397 
1964 1997 2295 1998 14397 16313 16314 14403 14405 16315 
2261 2295 2262 1964 16316 16317 16091 16081 16314 16086 
1964 1997 2294 2295 14397 16308 16312 16314 16313 16318 
2261 2295 1964 2294 16316 16314 16081 16310 16318 16312 
2262 1964 2295 1965 16086 16314 16317 16088 14178 16319 
2295 1964 1998 1965 16314 14403 16315 16319 14178 14404 
1965 1998 2296 1999 14404 16320 16321 14410 14412 16322 
2262 2296 2263 1965 16323 16324 16098 16088 16321 16093 
1965 1998 2295 2296 14404 16315 16319 16321 16320 16325 
2262 2296 1965 2295 16323 16321 16088 16317 16325 16319 
2263 1965 2296 1966 16093 16321 16324 16095 14185 16326 
2296 1965 1999 1966 16321 14410 16322 16326 14185 14411 
1966 1999 2297 2000 14411 16327 16328 14417 14419 16329 
2263 2297 2264 1966 16330 16331 16105 16095 16328 16100 
1966 1999 2296 2297 14411 16322 16326 16328 16327 16332 
2263 2297 1966 2296 16330 16328 16095 16324 16332 16326 
2264 1966 2297 1967 16100 16328 16331 16102 14192 16333 
2297 1966 2000 1967 16328 14417 16329 16333 14192 14418 
1967 2000 2298 2001 14418 16334 16335 14424 14426 16336 
2264 2298 2265 1967 16337 16338 16112 16102 16335 16107 
1967 2000 2297 2298 14418 16329 16333 16335 16334 16339 
2264 2298 1967 2297 16337 16335 16102 16331 16339 16333 
2265 1967 2298 1968 16107 16335 16338 16109 14199 16340 
2298 1967 2001 1968 16335 14424 16336 16340 14199 14425 
1968 2001 2299 2002 14425 16341 16342 14431 14433 16343 
2265 2299 2266 1968 16344 16345 16119 16109 16342 16114 
1968 2001 2298 2299 14425 16336 16340 16342 16341 16346 
2265 2299 1968 2298 16344 16342 16109 16338 16346 16340 
2266 1968 2299 1969 16114 16342 16345 16116 14206 16347 
2299 1968 2002 1969 16342 14431 16343 16347 14206 14432 
1969 2002 2300 2003 14432 16348 16349 14438 14440 16350 
2266 2300 2267 1969 16351 16352 16126 16116 16349 16121 
1969 2002 2299 2300 14432 16343 16347 16349 16348 16353 
2266 2300 1969 2299 16351 16349 16116 16345 16353 16347 
2267 1969 2300 1970 16121 16349 16352 16123 14213 16354 
2300 1969 2003 1970 16349 14438 16350 16354 14213 14439 
1970 2003 2301 2004 14439 16355 16356 14445 14447 16357 
2267 2301 2268 1970 16358 16359 16133 16123 16356 16128 
1970 2003 2300 2301 14439 16350 16354 16356 16355 16360 
2267 2301 1970 2300 16358 16356 16123 16352 16360 16354 
2268 1970 2301 1971 16128 16356 16359 16130 14220 16361 
2301 1970 2004 1971 16356 14445 16357 16361 14220 14446 
1971 2004 2302 2005 14446 16362 16363 14452 14454 16364 
2268 2302 2269 1971 16365 16366 16140 16130 16363 16135 
1971 2004 2301 2302 14446 16357 16361 16363 16362 16367 
2268 2302 1971 2301 16365 16363 16130 16359 16367 16361 
2269 1971 2302 1972 16135 16363 16366 16137 14227 16368 
2302 1971 2005 1972 16363 14452 16364 16368 14227 14453 
1972 2005 2303 2006 14453 16369 16370 14459 14461 16371 
2269 2303 2270 1972 16372 16373 16147 16137 16370 16142 
1972 2005 2302 2303 14453 16364 16368 16370 16369 16374 
2269 2303 1972 2302 16372 16370 16137 16366 16374 16368 
2270 1972 2303 1973 16142 16370 16373 16144 14234 16375 
2303 1972 2006 1973 16370 14459 16371 16375 14234 14460 
1973 2006 2304 2007 14460 16376 16377 14466 14468 16378 
2270 2304 2271 1973 16379 16380 16154 16144 16377 16149 
1973 2006 2303 2304 14460 16371 16375 16377 16376 16381 
2270 2304 1973 2303 16379 16377 16144 16373 16381 16375 
2271 1973 2304 1974 16149 16377 16380 16151 14241 16382 
2304 1973 2007 1974 16377 14466 16378 16382 14241 14467 
1974 2007 2305 2008 14467 16383 16384 14473 14475 16385 
2271 2305 2272 1974 16386 16387 16161 16151 16384 16156 
1974 2007 2304 2305 14467 16378 16382 16384 16383 16388 
2271 2305 1974 2304 16386 16384 16151 16380 16388 16382 
2272 1974 2305 1975 16156 16384 16387 16158 14248 16389 
2305 1974 2008 1975 16384 14473 16385 16389 14248 14474 
1975 2008 2306 2009 14474 16390 16391 14480 14482 16392 
2272 2306 2273 1975 16393 16394 16168 16158 16391 16163 
1975 2008 2305 2306 14474 16385 16389 16391 16390 16395 
2272 2306 1975 2305 16393 16391 16158 16387 16395 16389 
2273 1975 2306 1976 16163 16391 16394 16165 14255 16396 
2306 1975 2009 1976 16391 14480 16392 16396 14255 14481 
1976 2009 2307 2010 14481 16397 16398 14487 14489 16399 
2273 2307 2274 1976 16400 16401 16175 16165 16398 16170 
1976 2009 2306 2307 14481 16392 16396 16398 16397 16402 
2273 2307 1976 2306 16400 16398 16165 16394 16402 16396 
2274 1976 2307 1977 16170 16398 16401 16172 14262 16403 
2307 1976 2010 1977 16398 14487 16399 16403 14262 14488 
1977 2010 2308 2011 14488 16404 16405 14494 14496 16406 
2274 2308 2275 1977 16407 16408 16182 16172 16405 16177 
1977 2010 2307 2308 14488 16399 16403 16405 16404 16409 
2274 2308 1977 2307 16407 16405 16172 16401 16409 16403 
2275 1977 2308 1978 16177 16405 16408 16179 14269 16410 
2308 1977 2011 1978 16405 14494 16406 16410 14269 14495 
1978 2011 2309 2012 14495 16411 16412 14501 14503 16413 
2275 2309 2276 1978 16414 16415 16189 16179 16412 16184 
1978 2011 2308 2309 14495 16406 16410 16412 16411 16416 
2275 2309 1978 2308 16414 16412 16179 16408 16416 16410 
2276 1978 2309 1979 16184 16412 16415 16186 14276 16417 
2309 1978 2012 1979 16412 14501 16413 16417 14276 14502 
1980 2013 2311 2014 14513 16418 16419 14508 14512 16420 
2277 2311 2278 1980 16421 16422 16198 16196 16419 16191 
1980 2013 2310 2311 14513 16423 16424 16419 16418 16425 
2277 2311 1980 2310 16421 16419 16196 16426 16425 16424 
2278 1980 2311 1981 16191 16419 16422 16193 14285 16427 
2311 1980 2014 1981 16419 14508 16420 16427 14285 14509 
1981 2014 2312 2015 14509 16428 16429 14518 14520 16430 
2278 2312 2279 1981 16431 16432 16206 16193 16429 16201 
1981 2014 2311 2312 14509 16420 16427 16429 16428 16433 
2278 2312 1981 2311 16431 16429 16193 16422 16433 16427 
2279 1981 2312 1982 16201 16429 16432 16203 14293 16434 
2312 1981 2015 1982 16429 14518 16430 16434 14293 14519 
1982 2015 2313 2016 14519 16435 16436 14525 14527 16437 
2279 2313 2280 1982 16438 16439 16213 16203 16436 16208 
1982 2015 2312 2313 14519 16430 16434 16436 16435 16440 
2279 2313 1982 2312 16438 16436 16203 16432 16440 16434 
2280 1982 2313 1983 16208 16436 16439 16210 14300 16441 
2313 1982 2016 1983 16436 14525 16437 16441 14300 14526 
1983 2016 2314 2017 14526 16442 16443 14532 14534 16444 
2280 2314 2281 1983 16445 16446 16220 16210 16443 16215 
1983 2016 2313 2314 14526 16437 16441 16443 16442 16447 
2280 2314 1983 2313 16445 16443 16210 16439 16447 16441 
2281 1983 2314 1984 16215 16443 16446 16217 14307 16448 
2314 1983 2017 1984 16443 14532 16444 16448 14307 14533 
1984 2017 2315 2018 14533 16449 16450 14539 14541 16451 
2281 2315 2282 1984 16452 16453 16227 16217 16450 16222 
1984 2017 2314 2315 14533 16444 16448 16450 16449 16454 
2281 2315 1984 2314 16452 16450 16217 16446 16454 16448 
2282 1984 2315 1985 16222 16450 16453 16224 14314 16455 
2315 1984 2018 1985 16450 14539 16451 16455 14314 14540 
1985 2018 2316 2019 14540 16456 16457 14546 14548 16458 
2282 2316 2283 1985 16459 16460 16234 16224 16457 16229 
1985 2018 2315 2316 14540 16451 16455 16457 16456 16461 
2282 2316 1985 2315 16459 16457 16224 16453 16461 16455 
2283 1985 2316 1986 16229 16457 16460 16231 14321 16462 
2316 1985 2019 1986 16457 14546 16458 16462 14321 14547 
1986 2019 2317 2020 14547 16463 16464 14553 14555 16465 
2283 2317 2284 1986 16466 16467 16241 16231 16464 16236 
1986 2019 2316 2317 14547 16458 16462 16464 16463 16468 
2283 2317 1986 2316 16466 16464 16231 16460 16468 16462 
2284 1986 2317 1987 16236 16464 16467 16238 14328 16469 
2317 1986 2020 1987 16464 14553 16465 16469 14328 14554 
1987 2020 2318 2021 14554 16470 16471 14560 14562 16472 
2284 2318 2285 1987 16473 16474 16248 16238 16471 16243 
1987 2020 2317 2318 14554 16465 16469 16471 16470 16475 
2284 2318 1987 2317 16473 16471 16238 16467 16475 16469 
2285 1987 2318 1988 16243 16471 16474 16245 14335 16476 
2318 1987 2021 1988 16471 14560 16472 16476 14335 14561 
1988 2021 2319 2022 14561 16477 16478 14567 14569 16479 
2285 2319 2286 1988 16480 16481 16255 16245 16478 16250 
1988 2021 2318 2319 14561 16472 16476 16478 16477 16482 
2285 2319 1988 2318 16480 16478 16245 16474 16482 16476 
2286 1988 2319 1989 16250 16478 16481 16252 14342 16483 
2319 1988 2022 1989 16478 14567 16479 16483 14342 14568 
1989 2022 2320 2023 14568 16484 16485 14574 14576 16486 
2286 2320 2287 1989 16487 16488 16262 16252 16485 16257 
1989 2022 2319 2320 14568 16479 16483 16485 16484 16489 
2286 2320 1989 2319 16487 16485 16252 16481 16489 16483 
2287 1989 2320 1990 16257 16485 16488 16259 14349 16490 
2320 1989 2023 1990 16485 14574 16486 16490 14349 14575 
1990 2023 2321 2024 14575 16491 16492 14581 14583 16493 
2287 2321 2288 1990 16494 16495 16269 16259 16492 16264 
1990 2023 2320 2321 14575 16486 16490 16492 16491 16496 
2287 2321 1990 2320 16494 16492 16259 16488 16496 16490 
2288 1990 2321 1991 16264 16492 16495 16266 14356 16497 
2321 1990 2024 1991 16492 14581 16493 16497 14356 14582 
1991 2024 2322 2025 14582 16498 16499 14588 14590 16500 
2288 2322 2289 1991 16501 16502 16276 16266 16499 16271 
1991 2024 2321 2322 14582 16493 16497 16499 16498 16503 
2288 2322 1991 2321 16501 16499 16266 16495 16503 16497 
2289 1991 2322 1992 16271 16499 16502 16273 14363 16504 
2322 1991 2025 1992 16499 14588 16500 16504 14363 14589 
1992 2025 2323 2026 14589 16505 16506 14595 14597 16507 
2289 2323 2290 1992 16508 16509 16283 16273 16506 16278 
1992 2025 2322 2323 14589 16500 16504 16506 16505 16510 
2289 2323 1992 2322 16508 16506 16273 16502 16510 16504 
2290 1992 2323 1993 16278 16506 16509 16280 14370 16511 
2323 1992 2026 1993 16506 14595 16507 16511 14370 14596 
1993 2026 2324 2027 14596 16512 16513 14602 14604 16514 
2290 2324 2291 1993 16515 16516 16290 16280 16513 16285 
1993 2026 2323 2324 14596 16507 16511 16513 16512 16517 
2290 2324 1993 2323 16515 16513 16280 16509 16517 16511 
2291 1993 2324 1994 16285 16513 16516 16287 14377 16518 
2324 1993 2027 1994 16513 14602 16514 16518 14377 14603 
1994 2027 2325 2028 14603 16519 16520 14609 14611 16521 
2291 2325 2292 1994 16522 16523 16297 16287 16520 16292 
1994 2027 2324 2325 14603 16514 16518 16520 16519 16524 
2291 2325 1994 2324 16522 16520 16287 16516 16524 16518 
2292 1994 2325 1995 16292 16520 16523 16294 14384 16525 
2325 1994 2028 1995 16520 14609 16521 16525 14384 14610 
1995 2028 2326 2029 14610 16526 16527 14616 14618 16528 
2292 2326 2293 1995 16529 16530 16304 16294 16527 16299 
1995 2028 2325 2326 14610 16521 16525 16527 16526 16531 
2292 2326 1995 2325 16529 16527 16294 16523 16531 16525 
2293 1995 2326 1996 16299 16527 16530 16301 14391 16532 
2326 1995 2029 1996 16527 14616 16528 16532 14391 14617 
1996 2029 2327 2030 14617 16533 16534 14623 14625 16535 
2293 2327 2294 1996 16536 16537 16311 16301 16534 16306 
1996 2029 2326 2327 14617 16528 16532 16534 16533 16538 
2293 2327 1996 2326 16536 16534 16301 16530 16538 16532 
2294 1996 2327 1997 16306 16534 16537 16308 14398 16539 
2327 1996 2030 1997 16534 14623 16535 16539 14398 14624 
1997 2030 2328 2031 14624 16540 16541 14630 14632 16542 
2294 2328 2295 1997 16543 16544 16318 16308 16541 16313 
1997 2030 2327 2328 14624 16535 16539 16541 16540 16545 
2294 2328 1997 2327 16543 16541 16308 16537 16545 16539 
2295 1997 2328 1998 16313 16541 16544 16315 14405 16546 
2328 1997 2031 1998 16541 14630 16542 16546 14405 14631 
1998 2031 2329 2032 14631 16547 16548 14637 14639 16549 
2295 2329 2296 1998 16550 16551 16325 16315 16548 16320 
1998 2031 2328 2329 14631 16542 16546 16548 16547 16552 
2295 2329 1998 2328 16550 16548 16315 16544 16552 16546 
2296 1998 2329 1999 16320 16548 16551 16322 14412 16553 
2329 1998 2032 1999 16548 14637 16549 16553 14412 14638 
1999 2032 2330 2033 14638 16554 16555 14644 14646 16556 
2296 2330 2297 1999 16557 16558 16332 16322 16555 16327 
1999 2032 2329 2330 14638 16549 16553 16555 16554 16559 
2296 2330 1999 2329 16557 16555 16322 16551 16559 16553 
2297 1999 2330 2000 16327 16555 16558 16329 14419 16560 
2330 1999 2033 2000 16555 14644 16556 16560 14419 14645 
2000 2033 2331 2034 14645 16561 16562 14651 14653 16563 
2297 2331 2298 2000 16564 16565 16339 16329 16562 16334 
2000 2033 2330 2331 14645 16556 16560 16562 16561 16566 
2297 2331 2000 2330 16564 16562 16329 16558 16566 16560 
2298 2000 2331 2001 16334 16562 16565 16336 14426 16567 
2331 2000 2034 2001 16562 14651 16563 16567 14426 14652 
2001 2034 2332 2035 14652 16568 16569 14658 14660 16570 
2298 2332 2299 2001 16571 16572 16346 16336 16569 16341 
2001 2034 2331 2332 14652 16563 16567 16569 16568 16573 
2298 2332 2001 2331 16571 16569 16336 16565 16573 16567 
2299 2001 2332 2002 16341 16569 16572 16343 14433 16574 
2332 2001 2035 2002 16569 14658 16570 16574 14433 14659 
2002 2035 2333 2036 14659 16575 16576 14665 14667 16577 
2299 2333 2300 2002 16578 16579 16353 16343 16576 16348 
2002 2035 2332 2333 14659 16570 16574 16576 16575 16580 
2299 2333 2002 2332 16578 16576 16343 16572 16580 16574 
2300 2002 2333 2003 16348 16576 16579 16350 14440 16581 
2333 2002 2036 2003 16576 14665 16577 16581 14440 14666 
2003 2036 2334 2037 14666 16582 16583 14672 14674 16584 
2300 2334 2301 2003 16585 16586 16360 16350 16583 16355 
2003 2036 2333 2334 14666 16577 16581 16583 16582 16587 
2300 2334 2003 2333 16585 16583 16350 16579 16587 16581 
2301 2003 2334 2004 16355 16583 16586 16357 14447 16588 
2334 2003 2037 2004 16583 14672 16584 16588 14447 14673 
2004 2037 2335 2038 14673 16589 16590 14679 14681 16591 
2301 2335 2302 2004 16592 16593 16367 16357 16590 16362 
2004 2037 2334 2335 14673 16584 16588 16590 16589 16594 
2301 2335 2004 2334 16592 16590 16357 16586 16594 16588 
2302 2004 2335 2005 16362 16590 16593 16364 14454 16595 
2335 2004 2038 2005 16590 14679 16591 16595 14454 14680 
2005 2038 2336 2039 14680 16596 16597 14686 14688 16598 
2302 2336 2303 2005 16599 16600 16374 16364 16597 16369 
2005 2038 2335 2336 14680 16591 16595 16597 16596 16601 
2302 2336 2005 2335 16599 16597 16364 16593 16601 16595 
2303 2005 2336 2006 16369 16597 16600 16371 14461 16602 
2336 2005 2039 2006 16597 14686 16598 16602 14461 14687 
2006 2039 2337 2040 14687 16603 16604 14693 14695 16605 
2303 2337 2304 2006 16606 16607 16381 16371 16604 16376 
2006 2039 2336 2337 14687 16598 16602 16604 16603 16608 
2303 2337 2006 2336 16606 16604 16371 16600 16608 16602 
2304 2006 2337 2007 16376 16604 16607 16378 14468 16609 
2337 2006 2040 2007 16604 14693 16605 16609 14468 14694 
2007 2040 2338 2041 14694 16610 16611 14700 14702 16612 
2304 2338 2305 2007 16613 16614 16388 16378 16611 16383 
2007 2040 2337 2338 14694 16605 16609 16611 16610 16615 
2304 2338 2007 2337 16613 16611 16378 16607 16615 16609 
2305 2007 2338 2008 16383 16611 16614 16385 14475 16616 
2338 2007 2041 2008 16611 14700 16612 16616 14475 14701 
2008 2041 2339 2042 14701 16617 16618 14707 14709 16619 
2305 2339 2306 2008 16620 16621 16395 16385 16618 16390 
2008 2041 2338 2339 14701 16612 16616 16618 16617 16622 
2305 2339 2008 2338 16620 16618 16385 16614 16622 16616 
2306 2008 2339 2009 16390 16618 16621 16392 14482 16623 
2339 2008 2042 2009 16618 14707 16619 16623 14482 14708 
2009 2042 2340 2043 14708 16624 16625 14714 14716 16626 
2306 2340 2307 2009 16627 16628 16402 16392 16625 16397 
2009 2042 2339 2340 14708 16619 16623 16625 16624 16629 
2306 2340 2009 2339 16627 16625 16392 16621 16629 16623 
2307 2009 2340 2010 16397 16625 16628 16399 14489 16630 
2340 2009 2043 2010 16625 14714 16626 16630 14489 14715 
2010 2043 2341 2044 14715 16631 16632 14721 14723 16633 
2307 2341 2308 2010 16634 16635 16409 16399 16632 16404 
2010 2043 2340 2341 14715 16626 16630 16632 16631 16636 
2307 2341 2010 2340 16634 16632 16399 16628 16636 16630 
2308 2010 2341 2011 16404 16632 16635 16406 14496 16637 
2341 2010 2044 2011 16632 14721 16633 16637 14496 14722 
2011 2044 2342 2045 14722 16638 16639 14728 14730 16640 
2308 2342 2309 2011 16641 16642 16416 16406 16639 16411 
2011 2044 2341 2342 14722 16633 16637 16639 16638 16643 
2308 2342 2011 2341 16641 16639 16406 16635 16643 16637 
2309 2011 2342 2012 16411 16639 16642 16413 14503 16644 
2342 2011 2045 2012 16639 14728 16640 16644 14503 14729 
2013 2046 2344 2047 14740 16645 16646 14735 14739 16647 
2310 2344 2311 2013 16648 16649 16425 16423 16646 16418 
2013 2046 2343 2344 14740 16650 16651 16646 16645 16652 
2310 2344 2013 2343 16648 16646 16423 16653 16652 16651 
2311 2013 2344 2014 16418 16646 16649 16420 14512 16654 
2344 2013 2047 2014 16646 14735 16647 16654 14512 14736 
2014 2047 2345 2048 14736 16655 16656 14745 14747 16657 
2311 2345 2312 2014 16658 16659 16433 16420 16656 16428 
2014 2047 2344 2345 14736 16647 16654 16656 16655 16660 
2311 2345 2014 2344 16658 16656 16420 16649 16660 16654 
2312 2014 2345 2015 16428 16656 16659 16430 14520 16661 
2345 2014 2048 2015 16656 14745 16657 16661 14520 14746 
2015 2048 2346 2049 14746 16662 16663 14752 14754 16664 
2312 2346 2313 2015 16665 16666 16440 16430 16663 16435 
2015 2048 2345 2346 14746 16657 16661 16663 16662 16667 
2312 2346 2015 2345 16665 16663 16430 16659 16667 16661 
2313 2015 2346 2016 16435 16663 16666 16437 14527 16668 
2346 2015 2049 2016 16663 14752 16664 16668 14527 14753 
2016 2049 2347 2050 14753 16669 16670 14759 14761 16671 
2313 2347 2314 2016 16672 16673 16447 16437 16670 16442 
2016 2049 2346 2347 14753 16664 16668 16670 16669 16674 
2313 2347 2016 2346 16672 16670 16437 16666 16674 16668 
2314 2016 2347 2017 16442 16670 16673 16444 14534 16675 
2347 2016 2050 2017 16670 14759 16671 16675 14534 14760 
2017 2050 2348 2051 14760 16676 16677 14766 14768 16678 
2314 2348 2315 2017 16679 16680 16454 16444 16677 16449 
2017 2050 2347 2348 14760 16671 16675 16677 16676 16681 
2314 2348 2017 2347 16679 16677 16444 16673 16681 16675 
2315 2017 2348 2018 16449 16677 16680 16451 14541 16682 
2348 2017 2051 2018 16677 14766 16678 16682 14541 14767 
2018 2051 2349 2052 14767 16683 16684 14773 14775 16685 
2315 2349 2316 2018 16686 16687 16461 16451 16684 16456 
2018 2051 2348 2349 14767 16678 16682 16684 16683 16688 
2315 2349 2018 2348 16686 16684 16451 16680 16688 16682 
2316 2018 2349 2019 16456 16684 16687 16458 14548 16689 
2349 2018 2052 2019 16684 14773 16685 16689 14548 14774 
2019 2052 2350 2053 14774 16690 16691 14780 14782 16692 
2316 2350 2317 2019 16693 16694 16468 16458 16691 16463 
2019 2052 2349 2350 14774 16685 16689 16691 16690 16695 
2316 2350 2019 2349 16693 16691 16458 16687 16695 16689 
2317 2019 2350 2020 16463 16691 16694 16465 14555 16696 
2350 2019 2053 2020 16691 14780 16692 16696 14555 14781 
2020 2053 2351 2054 14781 16697 16698 14787 14789 16699 
2317 2351 2318 2020 16700 16701 16475 16465 16698 16470 
2020 2053 2350 2351 14781 16692 16696 16698 16697 16702 
2317 2351 2020 2350 16700 16698 16465 16694 16702 16696 
2318 2020 2351 2021 16470 16698 16701 16472 14562 16703 
2351 2020 2054 2021 16698 14787 16699 16703 14562 14788 
2021 2054 2352 2055 14788 16704 16705 14794 14796 16706 
2318 2352 2319 2021 16707 16708 16482 16472 16705 16477 
2021 2054 2351 2352 14788 16699 16703 16705 16704 16709 
2318 2352 2021 2351 16707 16705 16472 16701 16709 16703 
2319 2021 2352 2022 16477 16705 16708 16479 14569 16710 
2352 2021 2055 2022 16705 14794 16706 16710 14569 14795 
2022 2055 2353 2056 14795 16711 16712 14801 14803 16713 
2319 2353 2320 2022 16714 16715 16489 16479 16712 16484 
2022 2055 2352 2353 14795 16706 16710 16712 16711 16716 
2319 2353 2022 2352 16714 16712 16479 16708 16716 16710 
2320 2022 2353 2023 16484 16712 16715 16486 14576 16717 
2353 2022 2056 2023 16712 14801 16713 16717 14576 14802 
2023 2056 2354 2057 14802 16718 16719 14808 14810 16720 
2320 2354 2321 2023 16721 16722 16496 16486 16719 16491 
2023 2056 2353 2354 14802 16713 16717 16719 16718 16723 
2320 2354 2023 2353 16721 16719 16486 16715 16723 16717 
2321 2023 2354 2024 16491 16719 16722 16493 14583 16724 
2354 2023 2057 2024 16719 14808 16720 16724 14583 14809 
2024 2057 2355 2058 14809 16725 16726 14815 14817 16727 
2321 2355 2322 2024 16728 16729 16503 16493 16726 16498 
2024 2057 2354 2355 14809 16720 16724 16726 16725 16730 
2321 2355 2024 2354 16728 16726 16493 16722 16730 16724 
2322 2024 2355 2025 16498 16726 16729 16500 14590 16731 
2355 2024 2058 2025 16726 14815 16727 16731 14590 14816 
2025 2058 2356 2059 14816 16732 16733 14822 14824 16734 
2322 2356 2323 2025 16735 16736 16510 16500 16733 16505 
2025 2058 2355 2356 14816 16727 16731 16733 16732 16737 
2322 2356 2025 2355 16735 16733 16500 16729 16737 16731 
2323 2025 2356 2026 16505 16733 16736 16507 14597 16738 
2356 2025 2059 2026 16733 14822 16734 16738 14597 14823 
2026 2059 2357 2060 14823 16739 16740 14829 14831 16741 
2323 2357 2324 2026 16742 16743 16517 16507 16740 16512 
2026 2059 2356 2357 14823 16734 16738 16740 16739 16744 
2323 2357 2026 2356 16742 16740 16507 16736 16744 16738 
2324 2026 2357 2027 16512 16740 16743 16514 14604 16745 
2357 2026 2060 2027 16740 14829 16741 16745 14604 14830 
2027 2060 2358 2061 14830 16746 16747 14836 14838 16748 
2324 2358 2325 2027 16749 16750 16524 16514 16747 16519 
2027 2060 2357 2358 14830 16741 16745 16747 16746 16751 
2324 2358 2027 2357 16749 16747 16514 16743 16751 16745 
2325 2027 2358 2028 16519 16747 16750 16521 14611 16752 
2358 2027 2061 2028 16747 14836 16748 16752 14611 14837 
2028 2061 2359 2062 14837 16753 16754 14843 14845 16755 
2325 2359 2326 2028 16756 16757 16531 16521 16754 16526 
2028 2061 2358 2359 14837 16748 16752 16754 16753 16758 
2325 2359 2028 2358 16756 16754 16521 16750 16758 16752 
2326 2028 2359 2029 16526 16754 16757 16528 14618 16759 
2359 2028 2062 2029 16754 14843 16755 16759 14618 14844 
2029 2062 2360 2063 14844 16760 16761 14850 14852 16762 
2326 2360 2327 2029 16763 16764 16538 16528 16761 16533 
2029 2062 2359 2360 14844 16755 16759 16761 16760 16765 
2326 2360 2029 2359 16763 16761 16528 16757 16765 16759 
2327 2029 2360 2030 16533 16761 16764 16535 14625 16766 
2360 2029 2063 2030 16761 14850 16762 16766 14625 14851 
2030 2063 2361 2064 14851 16767 16768 14857 14859 16769 
2327 2361 2328 2030 16770 16771 16545 16535 16768 16540 
2030 2063 2360 2361 14851 16762 16766 16768 16767 16772 
2327 2361 2030 2360 16770 16768 16535 16764 16772 16766 
2328 2030 2361 2031 16540 16768 16771 16542 14632 16773 
2361 2030 2064 2031 16768 14857 16769 16773 14632 14858 
2031 2064 2362 2065 14858 16774 16775 14864 14866 16776 
2328 2362 2329 2031 16777 16778 16552 16542 16775 16547 
2031 2064 2361 2362 14858 16769 16773 16775 16774 16779 
2328 2362 2031 2361 16777 16775 16542 16771 16779 16773 
2329 2031 2362 2032 16547 16775 16778 16549 14639 16780 
2362 2031 2065 2032 16775 14864 16776 16780 14639 14865 
2032 2065 2363 2066 14865 16781 16782 14871 14873 16783 
2329 2363 2330 2032 16784 16785 16559 16549 16782 16554 
2032 2065 2362 2363 14865 16776 16780 16782 16781 16786 
2329 2363 2032 2362 16784 16782 16549 16778 16786 16780 
2330 2032 2363 2033 16554 16782 16785 16556 14646 16787 
2363 2032 2066 2033 16782 14871 16783 16787 14646 14872 
2033 2066 2364 2067 14872 16788 16789 14878 14880 16790 
2330 2364 2331 2033 16791 16792 16566 16556 16789 16561 
2033 2066 2363 2364 14872 16783 16787 16789 16788 16793 
2330 2364 2033 2363 16791 16789 16556 16785 16793 16787 
2331 2033 2364 2034 16561 16789 16792 16563 14653 16794 
2364 2033 2067 2034 16789 14878 16790 16794 14653 14879 
2034 2067 2365 2068 14879 16795 16796 14885 14887 16797 
2331 2365 2332 2034 16798 16799 16573 16563 16796 16568 
2034 2067 2364 2365 14879 16790 16794 16796 16795 16800 
2331 2365 2034 2364 16798 16796 16563 16792 16800 16794 
2332 2034 2365 2035 16568 16796 16799 16570 14660 16801 
2365 2034 2068 2035 16796 14885 16797 16801 14660 14886 
2035 2068 2366 2069 14886 16802 16803 14892 14894 16804 
2332 2366 2333 2035 16805 16806 16580 16570 16803 16575 
2035 2068 2365 2366 14886 16797 16801 16803 16802 16807 
2332 2366 2035 2365 16805 16803 16570 16799 16807 16801 
2333 2035 2366 2036 16575 16803 16806 16577 14667 16808 
2366 2035 2069 2036 16803 14892 16804 16808 14667 14893 
2036 2069 2367 2070 14893 16809 16810 14899 14901 16811 
2333 2367 2334 2036 16812 16813 16587 16577 16810 16582 
2036 2069 2366 2367 14893 16804 16808 16810 16809 16814 
2333 2367 2036 2366 16812 16810 16577 16806 16814 16808 
2334 2036 2367 2037 16582 16810 16813 16584 14674 16815 
2367 2036 2070 2037 16810 14899 16811 16815 14674 14900 
2037 2070 2368 2071 14900 16816 16817 14906 14908 16818 
2334 2368 2335 2037 16819 16820 16594 16584 16817 16589 
2037 2070 2367 2368 14900 16811 16815 16817 16816 16821 
2334 2368 2037 2367 16819 16817 16584 16813 16821 16815 
2335 2037 2368 2038 16589 16817 16820 16591 14681 16822 
2368 2037 2071 2038 16817 14906 16818 16822 14681 14907 
2038 2071 2369 2072 14907 16823 16824 14913 14915 16825 
2335 2369 2336 2038 16826 16827 16601 16591 16824 16596 
2038 2071 2368 2369 14907 16818 16822 16824 16823 16828 
2335 2369 2038 2368 16826 16824 16591 16820 16828 16822 
2336 2038 2369 2039 16596 16824 16827 16598 14688 16829 
2369 2038 2072 2039 16824 14913 16825 16829 14688 14914 
2039 2072 2370 2073 14914 16830 16831 14920 14922 16832 
2336 2370 2337 2039 16833 16834 16608 16598 16831 16603 
2039 2072 2369 2370 14914 16825 16829 16831 16830 16835 
2336 2370 2039 2369 16833 16831 16598 16827 16835 16829 
2337 2039 2370 2040 16603 16831 16834 16605 14695 16836 
2370 2039 2073 2040 16831 14920 16832 16836 14695 14921 
2040 2073 2371 2074 14921 16837 16838 14927 14929 16839 
2337 2371 2338 2040 16840 16841 16615 16605 16838 16610 
2040 2073 2370 2371 14921 16832 16836 16838 16837 16842 
2337 2371 2040 2370 16840 16838 16605 16834 16842 16836 
2338 2040 2371 2041 16610 16838 16841 16612 14702 16843 
2371 2040 2074 2041 16838 14927 16839 16843 14702 14928 
2041 2074 2372 2075 14928 16844 16845 14934 14936 16846 
2338 2372 2339 2041 16847 16848 16622 16612 16845 16617 
2041 2074 2371 2372 14928 16839 16843 16845 16844 16849 
2338 2372 2041 2371 16847 16845 16612 16841 16849 16843 
2339 2041 2372 2042 16617 16845 16848 16619 14709 16850 
2372 2041 2075 2042 16845 14934 16846 16850 14709 14935 
2042 2075 2373 2076 14935 16851 16852 14941 14943 16853 
2339 2373 2340 2042 16854 16855 16629 16619 16852 16624 
2042 2075 2372 2373 14935 16846 16850 16852 16851 16856 
2339 2373 2042 2372 16854 16852 16619 16848 16856 16850 
2340 2042 2373 2043 16624 16852 16855 16626 14716 16857 
2373 2042 2076 2043 16852 14941 16853 16857 14716 14942 
2043 2076 2374 2077 14942 16858 16859 14948 14950 16860 
2340 2374 2341 2043 16861 16862 16636 16626 16859 16631 
2043 2076 2373 2374 14942 16853 16857 16859 16858 16863 
2340 2374 2043 2373 16861 16859 16626 16855 16863 16857 
2341 2043 2374 2044 16631 16859 16862 16633 14723 16864 
2374 2043 2077 2044 16859 14948 16860 16864 14723 14949 
2044 2077 2375 2078 14949 16865 16866 14955 14957 16867 
2341 2375 2342 2044 16868 16869 16643 16633 16866 16638 
2044 2077 2374 2375 14949 16860 16864 16866 16865 16870 
2341 2375 2044 2374 16868 16866 16633 16862 16870 16864 
2342 2044 2375 2045 16638 16866 16869 16640 14730 16871 
2375 2044 2078 2045 16866 14955 16867 16871 14730 14956 
2079 2112 2410 2113 14970 16872 16873 14962 14969 16874 
2376 2410 2377 2079 16875 16876 16877 16878 16873 16879 
2079 2112 2409 2410 14970 16880 16881 16873 16872 16882 
2376 2410 2079 2409 16875 16873 16878 16883 16882 16881 
2377 2079 2410 2080 16879 16873 16876 16884 14964 16885 
2410 2079 2113 2080 16873 14962 16874 16885 14964 14963 
2080 2113 2411 2114 14963 16886 16887 14976 14980 16888 
2377 2411 2378 2080 16889 16890 16891 16884 16887 16892 
2080 2113 2410 2411 14963 16874 16885 16887 16886 16893 
2377 2411 2080 2410 16889 16887 16884 16876 16893 16885 
2378 2080 2411 2081 16892 16887 16890 16894 14978 16895 
2411 2080 2114 2081 16887 14976 16888 16895 14978 14977 
2081 2114 2412 2115 14977 16896 16897 14986 14990 16898 
2378 2412 2379 2081 16899 16900 16901 16894 16897 16902 
2081 2114 2411 2412 14977 16888 16895 16897 16896 16903 
2378 2412 2081 2411 16899 16897 16894 16890 16903 16895 
2379 2081 2412 2082 16902 16897 16900 16904 14988 16905 
2412 2081 2115 2082 16897 14986 16898 16905 14988 14987 
2082 2115 2413 2116 14987 16906 16907 14996 15000 16908 
2379 2413 2380 2082 16909 16910 16911 16904 16907 16912 
2082 2115 2412 2413 14987 16898 16905 16907 16906 16913 
2379 2413 2082 2412 16909 16907 16904 16900 16913 16905 
2380 2082 2413 2083 16912 16907 16910 16914 14998 16915 
2413 2082 2116 2083 16907 14996 16908 16915 14998 14997 
2083 2116 2414 2117 14997 16916 16917 15006 15010 16918 
2380 2414 2381 2083 16919 16920 16921 16914 16917 16922 
2083 2116 2413 2414 14997 16908 16915 16917 16916 16923 
2380 2414 2083 2413 16919 16917 16914 16910 16923 16915 
2381 2083 2414 2084 16922 16917 16920 16924 15008 16925 
2414 2083 2117 2084 16917 15006 16918 16925 15008 15007 
2084 2117 2415 2118 15007 16926 16927 15016 15020 16928 
2381 2415 2382 2084 16929 16930 16931 16924 16927 16932 
2084 2117 2414 2415 15007 16918 16925 16927 16926 16933 
2381 2415 2084 2414 16929 16927 16924 16920 16933 16925 
2382 2084 2415 2085 16932 16927 16930 16934 15018 16935 
2415 2084 2118 2085 16927 15016 16928 16935 15018 15017 
2085 2118 2416 2119 15017 16936 16937 15026 15030 16938 
2382 2416 2383 2085 16939 16940 16941 16934 16937 16942 
2085 2118 2415 2416 15017 16928 16935 16937 16936 16943 
2382 2416 2085 2415 16939 16937 16934 16930 16943 16935 
2383 2085 2416 2086 16942 16937 16940 16944 15028 16945 
2416 2085 2119 2086 16937 15026 16938 16945 15028 15027 
2086 2119 2417 2120 15027 16946 16947 15036 15040 16948 
2383 2417 2384 2086 16949 16950 16951 16944 16947 16952 
2086 2119 2416 2417 15027 16938 16945 16947 16946 16953 
2383 2417 2086 2416 16949 16947 16944 16940 16953 16945 
2384 2086 2417 2087 16952 16947 16950 16954 15038 16955 
2417 2086 2120 2087 16947 15036 16948 16955 15038 15037 
2087 2120 2418 2121 15037 16956 16957 15046 15050 16958 
2384 2418 2385 2087 16959 16960 16961 16954 16957 16962 
2087 2120 2417 2418 15037 16948 16955 16957 16956 16963 
2384 2418 2087 2417 16959 16957 16954 16950 16963 16955 
2385 2087 2418 2088 16962 16957 16960 16964 15048 16965 
2418 2087 2121 2088 16957 15046 16958 16965 15048 15047 
2088 2121 2419 2122 15047 16966 16967 15056 15060 16968 
2385 2419 2386 2088 16969 16970 16971 16964 16967 16972 
2088 2121 2418 2419 15047 16958 16965 16967 16966 16973 
2385 2419 2088 2418 16969 16967 16964 16960 16973 16965 
2386 2088 2419 2089 16972 16967 16970 16974 15058 16975 
2419 2088 2122 2089 16967 15056 16968 16975 15058 15057 
2089 2122 2420 2123 15057 16976 16977 15066 15070 16978 
2386 2420 2387 2089 16979 16980 16981 16974 16977 16982 
2089 2122 2419 2420 15057 16968 16975 16977 16976 16983 
2386 2420 2089 2419 16979 16977 16974 16970 16983 16975 
2387 2089 2420 2090 16982 16977 16980 16984 15068 16985 
2420 2089 2123 2090 16977 15066 16978 16985 15068 15067 
2090 2123 2421 2124 15067 16986 16987 15076 15080 16988 
2387 2421 2388 2090 16989 16990 16991 16984 16987 16992 
2090 2123 2420 2421 15067 16978 16985 16987 16986 16993 
2387 2421 2090 2420 16989 16987 16984 16980 16993 16985 
2388 2090 2421 2091 16992 16987 16990 16994 15078 16995 
2421 2090 2124 2091 16987 15076 16988 16995 15078 15077 
2091 2124 2422 2125 15077 16996 16997 15086 15090 16998 
2388 2422 2389 2091 16999 17000 17001 16994 16997 17002 
2091 2124 2421 2422 15077 16988 16995 16997 16996 17003 
2388 2422 2091 2421 16999 16997 16994 16990 17003 16995 
2389 2091 2422 2092 17002 16997 17000 17004 15088 17005 
2422 2091 2125 2092 16997 15086 16998 17005 15088 15087 
2092 2125 2423 2126 15087 17006 17007 15096 15100 17008 
2389 2423 2390 2092 17009 17010 17011 17004 17007 17012 
2092 2125 2422 2423 15087 16998 17005 17007 17006 17013 
2389 2423 2092 2422 17009 17007 17004 17000 17013 17005 
2390 2092 2423 2093 17012 17007 17010 17014 15098 17015 
2423 2092 2126 2093 17007 15096 17008 17015 15098 15097 
2093 2126 2424 2127 15097 17016 17017 15106 15110 17018 
2390 2424 2391 2093 17019 17020 17021 17014 17017 17022 
2093 2126 2423 2424 15097 17008 17015 17017 17016 17023 
2390 2424 2093 2423 17019 17017 17014 17010 17023 17015 
2391 2093 2424 2094 17022 17017 17020 17024 15108 17025 
2424 2093 2127 2094 17017 15106 17018 17025 15108 15107 
2094 2127 2425 2128 15107 17026 17027 15116 15120 17028 
2391 2425 2392 2094 17029 17030 17031 17024 17027 17032 
2094 2127 2424 2425 15107 17018 17025 17027 17026 17033 
2391 2425 2094 2424 17029 17027 17024 17020 17033 17025 
2392 2094 2425 2095 17032 17027 17030 17034 15118 17035 
2425 2094 2128 2095 17027 15116 17028 17035 15118 15117 
2095 2128 2426 2129 15117 17036 17037 15126 15130 17038 
2392 2426 2393 2095 17039 17040 17041 17034 17037 17042 
2095 2128 2425 2426 15117 17028 17035 17037 17036 17043 
2392 2426 2095 2425 17039 17037 17034 17030 17043 17035 
2393 2095 2426 2096 17042 17037 17040 17044 15128 17045 
2426 2095 2129 2096 17037 15126 17038 17045 15128 15127 
2096 2129 2427 2130 15127 17046 17047 15136 15140 17048 
2393 2427 2394 2096 17049 17050 17051 17044 17047 17052 
2096 2129 2426 2427 15127 17038 17045 17047 17046 17053 
2393 2427 2096 2426 17049 17047 17044 17040 17053 17045 
2394 2096 2427 2097 17052 17047 17050 17054 15138 17055 
2427 2096 2130 2097 17047 15136 17048 17055 15138 15137 
2097 2130 2428 2131 15137 17056 17057 15146 15150 17058 
2394 2428 2395 2097 17059 17060 17061 17054 17057 17062 
2097 2130 2427 2428 15137 17048 17055 17057 17056 17063 
2394 2428 2097 2427 17059 17057 17054 17050 17063 17055 
2395 2097 2428 2098 17062 17057 17060 17064 15148 17065 
2428 2097 2131 2098 17057 15146 17058 17065 15148 15147 
2098 2131 2429 2132 15147 17066 17067 15156 15160 17068 
2395 2429 2396 2098 17069 17070 17071 17064 17067 17072 
2098 2131 2428 2429 15147 17058 17065 17067 17066 17073 
2395 2429 2098 2428 17069 17067 17064 17060 17073 17065 
2396 2098 2429 2099 17072 17067 17070 17074 15158 17075 
2429 2098 2132 2099 17067 15156 17068 17075 15158 15157 
2099 2132 2430 2133 15157 17076 17077 15166 15170 17078 
2396 2430 2397 2099 17079 17080 17081 17074 17077 17082 
2099 2132 2429 2430 15157 17068 17075 17077 17076 17083 
2396 2430 2099 2429 17079 17077 17074 17070 17083 17075 
2397 2099 2430 2100 17082 17077 17080 17084 15168 17085 
2430 2099 2133 2100 17077 15166 17078 17085 15168 15167 
2100 2133 2431 2134 15167 17086 17087 15176 15180 17088 
2397 2431 2398 2100 17089 17090 17091 17084 17087 17092 
2100 2133 2430 2431 15167 17078 17085 17087 17086 17093 
2397 2431 2100 2430 17089 17087 17084 17080 17093 17085 
2398 2100 2431 2101 17092 17087 17090 17094 15178 17095 
2431 2100 2134 2101 17087 15176 17088 17095 15178 15177 
2101 2134 2432 2135 15177 17096 17097 15186 15190 17098 
2398 2432 2399 2101 17099 17100 17101 17094 17097 17102 
2101 2134 2431 2432 15177 17088 17095 17097 17096 17103 
2398 2432 2101 2431 17099 17097 17094 17090 17103 17095 
2399 2101 2432 2102 17102 17097 17100 17104 15188 17105 
2432 2101 2135 2102 17097 15186 17098 17105 15188 15187 
2102 2135 2433 2136 15187 17106 17107 15196 15200 17108 
2399 2433 2400 2102 17109 17110 17111 17104 17107 17112 
2102 2135 2432 2433 15187 17098 17105 17107 17106 17113 
2399 2433 2102 2432 17109 17107 17104 17100 17113 17105 
2400 2102 2433 2103 17112 17107 17110 17114 15198 17115 
2433 2102 2136 2103 17107 15196 17108 17115 15198 15197 
2103 2136 2434 2137 15197 17116 17117 15206 15210 17118 
2400 2434 2401 2103 17119 17120 17121 17114 17117 17122 
2103 2136 2433 2434 15197 17108 17115 17117 17116 17123 
2400 2434 2103 2433 17119 17117 17114 17110 17123 17115 
2401 2103 2434 2104 17122 17117 17120 17124 15208 17125 
2434 2103 2137 2104 17117 15206 17118 17125 15208 15207 
2104 2137 2435 2138 15207 17126 17127 15216 15220 17128 
2401 2435 2402 2104 17129 17130 17131 17124 17127 17132 
2104 2137 2434 2435 15207 17118 17125 17127 17126 17133 
2401 2435 2104 2434 17129 17127 17124 17120 17133 17125 
2402 2104 2435 2105 17132 17127 17130 17134 15218 17135 
2435 2104 2138 2105 17127 15216 17128 17135 15218 15217 
2105 2138 2436 2139 15217 17136 17137 15226 15230 17138 
2402 2436 2403 2105 17139 17140 17141 17134 17137 17142 
2105 2138 2435 2436 15217 17128 17135 17137 17136 17143 
2402 2436 2105 2435 17139 17137 17134 17130 17143 17135 
2403 2105 2436 2106 17142 17137 17140 17144 15228 17145 
2436 2105 2139 2106 17137 15226 17138 17145 15228 15227 
2106 2139 2437 2140 15227 17146 17147 15236 15240 17148 
2403 2437 2404 2106 17149 17150 17151 17144 17147 17152 
2106 2139 2436 2437 15227 17138 17145 17147 17146 17153 
2403 2437 2106 2436 17149 17147 17144 17140 17153 17145 
2404 2106 2437 2107 17152 17147 17150 17154 15238 17155 
2437 2106 2140 2107 17147 15236 17148 17155 15238 15237 
2107 2140 2438 2141 15237 17156 17157 15246 15250 17158 
2404 2438 2405 2107 17159 17160 17161 17154 17157 17162 
2107 2140 2437 2438 15237 17148 17155 17157 17156 17163 
2404 2438 2107 2437 17159 17157 17154 17150 17163 17155 
2405 2107 2438 2108 17162 17157 17160 17164 15248 17165 
2438 2107 2141 2108 17157 15246 17158 17165 15248 15247 
2108 2141 2439 2142 15247 17166 17167 15256 15260 17168 
2405 2439 2406 2108 17169 17170 17171 17164 17167 17172 
2108 2141 2438 2439 15247 17158 17165 17167 17166 17173 
2405 2439 2108 2438 17169 17167 17164 17160 17173 17165 
2406 2108 2439 2109 17172 17167 17170 17174 15258 17175 
2439 2108 2142 2109 17167 15256 17168 17175 15258 15257 
2109 2142 2440 2143 15257 17176 17177 15266 15270 17178 
2406 2440 2407 2109 17179 17180 17181 17174 17177 17182 
2109 2142 2439 2440 15257 17168 17175 17177 17176 17183 
2406 2440 2109 2439 17179 17177 17174 17170 17183 17175 
2407 2109 2440 2110 17182 17177 17180 17184 15268 17185 
2440 2109 2143 2110 17177 15266 17178 17185 15268 15267 
2110 2143 2441 2144 15267 17186 17187 15276 15280 17188 
2407 2441 2408 2110 17189 17190 17191 17184 17187 17192 
2110 2143 2440 2441 15267 17178 17185 17187 17186 17193 
2407 2441 2110 2440 17189 17187 17184 17180 17193 17185 
2408 2110 2441 2111 17192 17187 17190 17194 15278 17195 
2441 2110 2144 2111 17187 15276 17188 17195 15278 15277 
2112 2145 2443 2146 15291 17196 17197 15286 15290 17198 
2409 2443 2410 2112 17199 17200 16882 16880 17197 16872 
2112 2145 2442 2443 15291 17201 17202 17197 17196 17203 
2409 2443 2112 2442 17199 17197 16880 17204 17203 17202 
2410 2112 2443 2113 16872 17197 17200 16874 14969 17205 
2443 2112 2146 2113 17197 15286 17198 17205 14969 15287 
2113 2146 2444 2147 15287 17206 17207 15296 15298 17208 
2410 2444 2411 2113 17209 17210 16893 16874 17207 16886 
2113 2146 2443 2444 15287 17198 17205 17207 17206 17211 
2410 2444 2113 2443 17209 17207 16874 17200 17211 17205 
2411 2113 2444 2114 16886 17207 17210 16888 14980 17212 
2444 2113 2147 2114 17207 15296 17208 17212 14980 15297 
2114 2147 2445 2148 15297 17213 17214 15303 15305 17215 
2411 2445 2412 2114 17216 17217 16903 16888 17214 16896 
2114 2147 2444 2445 15297 17208 17212 17214 17213 17218 
2411 2445 2114 2444 17216 17214 16888 17210 17218 17212 
2412 2114 2445 2115 16896 17214 17217 16898 14990 17219 
2445 2114 2148 2115 17214 15303 17215 17219 14990 15304 
2115 2148 2446 2149 15304 17220 17221 15310 15312 17222 
2412 2446 2413 2115 17223 17224 16913 16898 17221 16906 
2115 2148 2445 2446 15304 17215 17219 17221 17220 17225 
2412 2446 2115 2445 17223 17221 16898 17217 17225 17219 
2413 2115 2446 2116 16906 17221 17224 16908 15000 17226 
2446 2115 2149 2116 17221 15310 17222 17226 15000 15311 
2116 2149 2447 2150 15311 17227 17228 15317 15319 17229 
2413 2447 2414 2116 17230 17231 16923 16908 17228 16916 
2116 2149 2446 2447 15311 17222 17226 17228 17227 17232 
2413 2447 2116 2446 17230 17228 16908 17224 17232 17226 
2414 2116 2447 2117 16916 17228 17231 16918 15010 17233 
2447 2116 2150 2117 17228 15317 17229 17233 15010 15318 
2117 2150 2448 2151 15318 17234 17235 15324 15326 17236 
2414 2448 2415 2117 17237 17238 16933 16918 17235 16926 
2117 2150 2447 2448 15318 17229 17233 17235 17234 17239 
2414 2448 2117 2447 17237 17235 16918 17231 17239 17233 
2415 2117 2448 2118 16926 17235 17238 16928 15020 17240 
2448 2117 2151 2118 17235 15324 17236 17240 15020 15325 
2118 2151 2449 2152 15325 17241 17242 15331 15333 17243 
2415 2449 2416 2118 17244 17245 16943 16928 17242 16936 
2118 2151 2448 2449 15325 17236 17240 17242 17241 17246 
2415 2449 2118 2448 17244 17242 16928 17238 17246 17240 
2416 2118 2449 2119 16936 17242 17245 16938 15030 17247 
2449 2118 2152 2119 17242 15331 17243 17247 15030 15332 
2119 2152 2450 2153 15332 17248 17249 15338 15340 17250 
2416 2450 2417 2119 17251 17252 16953 16938 17249 16946 
2119 2152 2449 2450 15332 17243 17247 17249 17248 17253 
2416 2450 2119 2449 17251 17249 16938 17245 17253 17247 
2417 2119 2450 2120 16946 17249 17252 16948 15040 17254 
2450 2119 2153 2120 17249 15338 17250 17254 15040 15339 
2120 2153 2451 2154 15339 17255 17256 15345 15347 17257 
2417 2451 2418 2120 17258 17259 16963 16948 17256 16956 
2120 2153 2450 2451 15339 17250 17254 17256 17255 17260 
2417 2451 2120 2450 17258 17256 16948 17252 17260 17254 
2418 2120 2451 2121 16956 17256 17259 16958 15050 17261 
2451 2120 2154 2121 17256 15345 17257 17261 15050 15346 
2121 2154 2452 2155 15346 17262 17263 15352 15354 17264 
2418 2452 2419 2121 17265 17266 16973 16958 17263 16966 
2121 2154 2451 2452 15346 17257 17261 17263 17262 17267 
2418 2452 2121 2451 17265 17263 16958 17259 17267 17261 
2419 2121 2452 2122 16966 17263 17266 16968 15060 17268 
2452 2121 2155 2122 17263 15352 17264 17268 15060 15353 
2122 2155 2453 2156 15353 17269 17270 15359 15361 17271 
2419 2453 2420 2122 17272 17273 16983 16968 17270 16976 
2122 2155 2452 2453 15353 17264 17268 17270 17269 17274 
2419 2453 2122 2452 17272 17270 16968 17266 17274 17268 
2420 2122 2453 2123 16976 17270 17273 16978 15070 17275 
2453 2122 2156 2123 17270 15359 17271 17275 15070 15360 
2123 2156 2454 2157 15360 17276 17277 15366 15368 17278 
2420 2454 2421 2123 17279 17280 16993 16978 17277 16986 
2123 2156 2453 2454 15360 17271 17275 17277 17276 17281 
2420 2454 2123 2453 17279 17277 16978 17273 17281 17275 
2421 2123 2454 2124 16986 17277 17280 16988 15080 17282 
2454 2123 2157 2124 17277 15366 17278 17282 15080 15367 
2124 2157 2455 2158 15367 17283 17284 15373 15375 17285 
2421 2455 2422 2124 17286 17287 17003 16988 17284 16996 
2124 2157 2454 2455 15367 17278 17282 17284 17283 17288 
2421 2455 2124 2454 17286 17284 16988 17280 17288 17282 
2422 2124 2455 2125 16996 17284 17287 16998 15090 17289 
2455 2124 2158 2125 17284 15373 17285 17289 15090 15374 
2125 2158 2456 2159 15374 17290 17291 15380 15382 17292 
2422 2456 2423 2125 17293 17294 17013 16998 17291 17006 
2125 2158 2455 2456 15374 17285 17289 17291 17290 17295 
2422 2456 2125 2455 17293 17291 16998 17287 17295 17289 
2423 2125 2456 2126 17006 17291 17294 17008 15100 17296 
2456 2125 2159 2126 17291 15380 17292 17296 15100 15381 
2126 2159 2457 2160 15381 17297 17298 15387 15389 17299 
2423 2457 2424 2126 17300 17301 17023 17008 17298 17016 
2126 2159 2456 2457 15381 17292 17296 17298 17297 17302 
2423 2457 2126 2456 17300 17298 17008 17294 17302 17296 
2424 2126 2457 2127 17016 17298 17301 17018 15110 17303 
2457 2126 2160 2127 17298 15387 17299 17303 15110 15388 
2127 2160 2458 2161 15388 17304 17305 15394 15396 17306 
2424 2458 2425 2127 17307 17308 17033 17018 17305 17026 
2127 2160 2457 2458 15388 17299 17303 17305 17304 17309 
2424 2458 2127 2457 17307 17305 17018 17301 17309 17303 
2425 2127 2458 2128 17026 17305 17308 17028 15120 17310 
2458 2127 2161 2128 17305 15394 17306 17310 15120 15395 
2128 2161 2459 2162 15395 17311 17312 15401 15403 17313 
2425 2459 2426 2128 17314 17315 17043 17028 17312 17036 
2128 2161 2458 2459 15395 17306 17310 17312 17311 17316 
2425 2459 2128 2458 17314 17312 17028 17308 17316 17310 
2426 2128 2459 2129 17036 17312 17315 17038 15130 17317 
2459 2128 2162 2129 17312 15401 17313 17317 15130 15402 
2129 2162 2460 2163 15402 17318 17319 15408 15410 17320 
2426 2460 2427 2129 17321 17322 17053 17038 17319 17046 
2129 2162 2459 2460 15402 17313 17317 17319 17318 17323 
2426 2460 2129 2459 17321 17319 17038 17315 17323 17317 
2427 2129 2460 2130 17046 17319 17322 17048 15140 17324 
2460 2129 2163 2130 17319 15408 17320 17324 15140 15409 
2130 2163 2461 2164 15409 17325 17326 15415 15417 17327 
2427 2461 2428 2130 17328 17329 17063 17048 17326 17056 
2130 2163 2460 2461 15409 17320 17324 17326 17325 17330 
2427 2461 2130 2460 17328 17326 17048 17322 17330 17324 
2428 2130 2461 2131 17056 17326 17329 17058 15150 17331 
2461 2130 2164 2131 17326 15415 17327 17331 15150 15416 
2131 2164 2462 2165 15416 17332 17333 15422 15424 17334 
2428 2462 2429 2131 17335 17336 17073 17058 17333 17066 
2131 2164 2461 2462 15416 17327 17331 17333 17332 17337 
2428 2462 2131 2461 17335 17333 17058 17329 17337 17331 
2429 2131 2462 2132 17066 17333 17336 17068 15160 17338 
2462 2131 2165 2132 17333 15422 17334 17338 15160 15423 
2132 2165 2463 2166 15423 17339 17340 15429 15431 17341 
2429 2463 2430 2132 17342 17343 17083 17068 17340 17076 
2132 2165 2462 2463 15423 17334 17338 17340 17339 17344 
2429 2463 2132 2462 17342 17340 17068 17336 17344 17338 
2430 2132 2463 2133 17076 17340 17343 17078 15170 17345 
2463 2132 2166 2133 17340 15429 17341 17345 15170 15430 
2133 2166 2464 2167 15430 17346 17347 15436 15438 17348 
2430 2464 2431 2133 17349 17350 17093 17078 17347 17086 
2133 2166 2463 2464 15430 17341 17345 17347 17346 17351 
2430 2464 2133 2463 17349 17347 17078 17343 17351 17345 
2431 2133 2464 2134 17086 17347 17350 17088 15180 17352 
2464 2133 2167 2134 17347 15436 17348 17352 15180 15437 
2134 2167 2465 2168 15437 17353 17354 15443 15445 17355 
2431 2465 2432 2134 17356 17357 17103 17088 17354 17096 
2134 2167 2464 2465 15437 17348 17352 17354 17353 17358 
2431 2465 2134 2464 17356 17354 17088 17350 17358 17352 
2432 2134 2465 2135 17096 17354 17357 17098 15190 17359 
2465 2134 2168 2135 17354 15443 17355 17359 15190 15444 
2135 2168 2466 2169 15444 17360 17361 15450 15452 17362 
2432 2466 2433 2135 17363 17364 17113 17098 17361 17106 
2135 2168 2465 2466 15444 17355 17359 17361 17360 17365 
2432 2466 2135 2465 17363 17361 17098 17357 17365 17359 
2433 2135 2466 2136 17106 17361 17364 17108 15200 17366 
2466 2135 2169 2136 17361 15450 17362 17366 15200 15451 
2136 2169 2467 2170 15451 17367 17368 15457 15459 17369 
2433 2467 2434 2136 17370 17371 17123 17108 17368 17116 
2136 2169 2466 2467 15451 17362 17366 17368 17367 17372 
2433 2467 2136 2466 17370 17368 17108 17364 17372 17366 
2434 2136 2467 2137 17116 17368 17371 17118 15210 17373 
2467 2136 2170 2137 17368 15457 17369 17373 15210 15458 
2137 2170 2468 2171 15458 17374 17375 15464 15466 17376 
2434 2468 2435 2137 17377 17378 17133 17118 17375 17126 
2137 2170 2467 2468 15458 17369 17373 17375 17374 17379 
2434 2468 2137 2467 17377 17375 17118 17371 17379 17373 
2435 2137 2468 2138 17126 17375 17378 17128 15220 17380 
2468 2137 2171 2138 17375 15464 17376 17380 15220 15465 
2138 2171 2469 2172 15465 17381 17382 15471 15473 17383 
2435 2469 2436 2138 17384 17385 17143 17128 17382 17136 
2138 2171 2468 2469 15465 17376 17380 17382 17381 17386 
2435 2469 2138 2468 17384 17382 17128 17378 17386 17380 
2436 2138 2469 2139 17136 17382 17385 17138 15230 17387 
2469 2138 2172 2139 17382 15471 17383 17387 15230 15472 
2139 2172 2470 2173 15472 17388 17389 15478 15480 17390 
2436 2470 2437 2139 17391 17392 17153 17138 17389 17146 
2139 2172 2469 2470 15472 17383 17387 17389 17388 17393 
2436 2470 2139 2469 17391 17389 17138 17385 17393 17387 
2437 2139 2470 2140 17146 17389 17392 17148 15240 17394 
2470 2139 2173 2140 17389 15478 17390 17394 15240 15479 
2140 2173 2471 2174 15479 17395 17396 15485 15487 17397 
2437 2471 2438 2140 17398 17399 17163 17148 17396 17156 
2140 2173 2470 2471 15479 17390 17394 17396 17395 17400 
2437 2471 2140 2470 17398 17396 17148 17392 17400 17394 
2438 2140 2471 2141 17156 17396 17399 17158 15250 17401 
2471 2140 2174 2141 17396 15485 17397 17401 15250 15486 
2141 2174 2472 2175 15486 17402 17403 15492 15494 17404 
2438 2472 2439 2141 17405 17406 17173 17158 17403 17166 
2141 2174 2471 2472 15486 17397 17401 17403 17402 17407 
2438 2472 2141 2471 17405 17403 17158 17399 17407 17401 
2439 2141 2472 2142 17166 17403 17406 17168 15260 17408 
2472 2141 2175 2142 17403 15492 17404 17408 15260 15493 
2142 2175 2473 2176 15493 17409 17410 15499 15501 17411 
2439 2473 2440 2142 17412 17413 17183 17168 17410 17176 
2142 2175 2472 2473 15493 17404 17408 17410 17409 17414 
2439 2473 2142 2472 17412 17410 17168 17406 17414 17408 
2440 2142 2473 2143 17176 17410 17413 17178 15270 17415 
2473 2142 2176 2143 17410 15499 17411 17415 15270 15500 
2143 2176 2474 2177 15500 17416 17417 15506 15508 17418 
2440 2474 2441 2143 17419 17420 17193 17178 17417 17186 
2143 2176 2473 2474 15500 17411 17415 17417 17416 17421 
2440 2474 2143 2473 17419 17417 17178 17413 17421 17415 
2441 2143 2474 2144 17186 17417 17420 17188 15280 17422 
2474 2143 2177 2144 17417 15506 17418 17422 15280 15507 
2145 2178 2476 2179 15518 17423 17424 15513 15517 17425 
2442 2476 2443 2145 17426 17427 17203 17201 17424 17196 
2145 2178 2475 2476 15518 17428 17429 17424 17423 17430 
2442 2476 2145 2475 17426 17424 17201 17431 17430 17429 
2443 2145 2476 2146 17196 17424 17427 17198 15290 17432 
2476 2145 2179 2146 17424 15513 17425 17432 15290 15514 
2146 2179 2477 2180 15514 17433 17434 15523 15525 17435 
2443 2477 2444 2146 17436 17437 17211 17198 17434 17206 
2146 2179 2476 2477 15514 17425 17432 17434 17433 17438 
2443 2477 2146 2476 17436 17434 17198 17427 17438 17432 
2444 2146 2477 2147 17206 17434 17437 17208 15298 17439 
2477 2146 2180 2147 17434 15523 17435 17439 15298 15524 
2147 2180 2478 2181 15524 17440 17441 15530 15532 17442 
2444 2478 2445 2147 17443 17444 17218 17208 17441 17213 
2147 2180 2477 2478 15524 17435 17439 17441 17440 17445 
2444 2478 2147 2477 17443 17441 17208 17437 17445 17439 
2445 2147 2478 2148 17213 17441 17444 17215 15305 17446 
2478 2147 2181 2148 17441 15530 17442 17446 15305 15531 
2148 2181 2479 2182 15531 17447 17448 15537 15539 17449 
2445 2479 2446 2148 17450 17451 17225 17215 17448 17220 
2148 2181 2478 2479 15531 17442 17446 17448 17447 17452 
2445 2479 2148 2478 17450 17448 17215 17444 17452 17446 
2446 2148 2479 2149 17220 17448 17451 17222 15312 17453 
2479 2148 2182 2149 17448 15537 17449 17453 15312 15538 
2149 2182 2480 2183 15538 17454 17455 15544 15546 17456 
2446 2480 2447 2149 17457 17458 17232 17222 17455 17227 
2149 2182 2479 2480 15538 17449 17453 17455 17454 17459 
2446 2480 2149 2479 17457 17455 17222 17451 17459 17453 
2447 2149 2480 2150 17227 17455 17458 17229 15319 17460 
2480 2149 2183 2150 17455 15544 17456 17460 15319 15545 
2150 2183 2481 2184 15545 17461 17462 15551 15553 17463 
2447 2481 2448 2150 17464 17465 17239 17229 17462 17234 
2150 2183 2480 2481 15545 17456 17460 17462 17461 17466 
2447 2481 2150 2480 17464 17462 17229 17458 17466 17460 
2448 2150 2481 2151 17234 17462 17465 17236 15326 17467 
2481 2150 2184 2151 17462 15551 17463 17467 15326 15552 
2151 2184 2482 2185 15552 17468 17469 15558 15560 17470 
2448 2482 2449 2151 17471 17472 17246 17236 17469 17241 
2151 2184 2481 2482 15552 17463 17467 17469 17468 17473 
2448 2482 2151 2481 17471 17469 17236 17465 17473 17467 
2449 2151 2482 2152 17241 17469 17472 17243 15333 17474 
2482 2151 2185 2152 17469 15558 17470 17474 15333 15559 
2152 2185 2483 2186 15559 17475 17476 15565 15567 17477 
2449 2483 2450 2152 17478 17479 17253 17243 17476 17248 
2152 2185 2482 2483 15559 17470 17474 17476 17475 17480 
2449 2483 2152 2482 17478 17476 17243 17472 17480 17474 
2450 2152 2483 2153 17248 17476 17479 17250 15340 17481 
2483 2152 2186 2153 17476 15565 17477 17481 15340 15566 
2153 2186 2484 2187 15566 17482 17483 15572 15574 17484 
2450 2484 2451 2153 17485 17486 17260 17250 17483 17255 
2153 2186 2483 2484 15566 17477 17481 17483 17482 17487 
2450 2484 2153 2483 17485 17483 17250 17479 17487 17481 
2451 2153 2484 2154 17255 17483 17486 17257 15347 17488 
2484 2153 2187 2154 17483 15572 17484 17488 15347 15573 
2154 2187 2485 2188 15573 17489 17490 15579 15581 17491 
2451 2485 2452 2154 17492 17493 17267 17257 17490 17262 
2154 2187 2484 2485 15573 17484 17488 17490 17489 17494 
2451 2485 2154 2484 17492 17490 17257 17486 17494 17488 
2452 2154 2485 2155 17262 17490 17493 17264 15354 17495 
2485 2154 2188 2155 17490 15579 17491 17495 15354 15580 
2155 2188 2486 2189 15580 17496 17497 15586 15588 17498 
2452 2486 2453 2155 17499 17500 17274 17264 17497 17269 
2155 2188 2485 2486 15580 17491 17495 17497 17496 17501 
2452 2486 2155 2485 17499 17497 17264 17493 17501 17495 
2453 2155 2486 2156 17269 17497 17500 17271 15361 17502 
2486 2155 2189 2156 17497 15586 17498 17502 15361 15587 
2156 2189 2487 2190 15587 17503 17504 15593 15595 17505 
2453 2487 2454 2156 17506 17507 17281 17271 17504 17276 
2156 2189 2486 2487 15587 17498 17502 17504 17503 17508 
2453 2487 2156 2486 17506 17504 17271 17500 17508 17502 
2454 2156 2487 2157 17276 17504 17507 17278 15368 17509 
2487 2156 2190 2157 17504 15593 17505 17509 15368 15594 
2157 2190 2488 2191 15594 17510 17511 15600 15602 17512 
2454 2488 2455 2157 17513 17514 17288 17278 17511 17283 
2157 2190 2487 2488 15594 17505 17509 17511 17510 17515 
2454 2488 2157 2487 17513 17511 17278 17507 17515 17509 
2455 2157 2488 2158 17283 17511 17514 17285 15375 17516 
2488 2157 2191 2158 17511 15600 17512 17516 15375 15601 
2158 2191 2489 2192 15601 17517 17518 15607 15609 17519 
2455 2489 2456 2158 17520 17521 17295 17285 17518 17290 
2158 2191 2488 2489 15601 17512 17516 17518 17517 17522 
2455 2489 2158 2488 17520 17518 17285 17514 17522 17516 
2456 2158 2489 2159 17290 17518 17521 17292 15382 17523 
2489 2158 2192 2159 17518 15607 17519 17523 15382 15608 
2159 2192 2490 2193 15608 17524 17525 15614 15616 17526 
2456 2490 2457 2159 17527 17528 17302 17292 17525 17297 
2159 2192 2489 2490 15608 17519 17523 17525 17524 17529 
2456 2490 2159 2489 17527 17525 17292 17521 17529 17523 
2457 2159 2490 2160 17297 17525 17528 17299 15389 17530 
2490 2159 2193 2160 17525 15614 17526 17530 15389 15615 
2160 2193 2491 2194 15615 17531 17532 15621 15623 17533 
2457 2491 2458 2160 17534 17535 17309 17299 17532 17304 
2160 2193 2490 2491 15615 17526 17530 17532 17531 17536 
2457 2491 2160 2490 17534 17532 17299 17528 17536 17530 
2458 2160 2491 2161 17304 17532 17535 17306 15396 17537 
2491 2160 2194 2161 17532 15621 17533 17537 15396 15622 
2161 2194 2492 2195 15622 17538 17539 15628 15630 17540 
2458 2492 2459 2161 17541 17542 17316 17306 17539 17311 
2161 2194 2491 2492 15622 17533 17537 17539 17538 17543 
2458 2492 2161 2491 17541 17539 17306 17535 17543 17537 
2459 2161 2492 2162 17311 17539 17542 17313 15403 17544 
2492 2161 2195 2162 17539 15628 17540 17544 15403 15629 
2162 2195 2493 2196 15629 17545 17546 15635 15637 17547 
2459 2493 2460 2162 17548 17549 17323 17313 17546 17318 
2162 2195 2492 2493 15629 17540 17544 17546 17545 17550 
2459 2493 2162 2492 17548 17546 17313 17542 17550 17544 
2460 2162 2493 2163 17318 17546 17549 17320 15410 17551 
2493 2162 2196 2163 17546 15635 17547 17551 15410 15636 
2163 2196 2494 2197 15636 17552 17553 15642 15644 17554 
2460 2494 2461 2163 17555 17556 17330 17320 17553 17325 
2163 2196 2493 2494 15636 17547 17551 17553 17552 17557 
2460 2494 2163 2493 17555 17553 17320 17549 17557 17551 
2461 2163 2494 2164 17325 17553 17556 17327 15417 17558 
2494 2163 2197 2164 17553 15642 17554 17558 15417 15643 
2164 2197 2495 2198 15643 17559 17560 15649 15651 17561 
2461 2495 2462 2164 17562 17563 17337 17327 17560 17332 
2164 2197 2494 2495 15643 17554 17558 17560 17559 17564 
2461 2495 2164 2494 17562 17560 17327 17556 17564 17558 
2462 2164 2495 2165 17332 17560 17563 17334 15424 17565 
2495 2164 2198 2165 17560 15649 17561 17565 15424 15650 
2165 2198 2496 2199 15650 17566 17567 15656 15658 17568 
2462 2496 2463 2165 17569 17570 17344 17334 17567 17339 
2165 2198 2495 2496 15650 17561 17565 17567 17566 17571 
2462 2496 2165 2495 17569 17567 17334 17563 17571 17565 
2463 2165 2496 2166 17339 17567 17570 17341 15431 17572 
2496 2165 2199 2166 17567 15656 17568 17572 15431 15657 
2166 2199 2497 2200 15657 17573 17574 15663 15665 17575 
2463 2497 2464 2166 17576 17577 17351 17341 17574 17346 
2166 2199 2496 2497 15657 17568 17572 17574 17573 17578 
2463 2497 2166 2496 17576 17574 17341 17570 17578 17572 
2464 2166 2497 2167 17346 17574 17577 17348 15438 17579 
2497 2166 2200 2167 17574 15663 17575 17579 15438 15664 
2167 2200 2498 2201 15664 17580 17581 15670 15672 17582 
2464 2498 2465 2167 17583 17584 17358 17348 17581 17353 
2167 2200 2497 2498 15664 17575 17579 17581 17580 17585 
2464 2498 2167 2497 17583 17581 17348 17577 17585 17579 
2465 2167 2498 2168 17353 17581 17584 17355 15445 17586 
2498 2167 2201 2168 17581 15670 17582 17586 15445 15671 
2168 2201 2499 2202 15671 17587 17588 15677 15679 17589 
2465 2499 2466 2168 17590 17591 17365 17355 17588 17360 
2168 2201 2498 2499 15671 17582 17586 17588 17587 17592 
2465 2499 2168 2498 17590 17588 17355 17584 17592 17586 
2466 2168 2499 2169 17360 17588 17591 17362 15452 17593 
2499 2168 2202 2169 17588 15677 17589 17593 15452 15678 
2169 2202 2500 2203 15678 17594 17595 15684 15686 17596 
2466 2500 2467 2169 17597 17598 17372 17362 17595 17367 
2169 2202 2499 2500 15678 17589 17593 17595 17594 17599 
2466 2500 2169 2499 17597 17595 17362 17591 17599 17593 
2467 2169 2500 2170 17367 17595 17598 17369 15459 17600 
2500 2169 2203 2170 17595 15684 17596 17600 15459 15685 
2170 2203 2501 2204 15685 17601 17602 15691 15693 17603 
2467 2501 2468 2170 17604 17605 17379 17369 17602 17374 
2170 2203 2500 2501 15685 17596 17600 17602 17601 17606 
2467 2501 2170 2500 17604 17602 17369 17598 17606 17600 
2468 2170 2501 2171 17374 17602 17605 17376 15466 17607 
2501 2170 2204 2171 17602 15691 17603 17607 15466 15692 
2171 2204 2502 2205 15692 17608 17609 15698 15700 17610 
2468 2502 2469 2171 17611 17612 17386 17376 17609 17381 
2171 2204 2501 2502 15692 17603 17607 17609 17608 17613 
2468 2502 2171 2501 17611 17609 17376 17605 17613 17607 
2469 2171 2502 2172 17381 17609 17612 17383 15473 17614 
2502 2171 2205 2172 17609 15698 17610 17614 15473 15699 
2172 2205 2503 2206 15699 17615 17616 15705 15707 17617 
2469 2503 2470 2172 17618 17619 17393 17383 17616 17388 
2172 2205 2502 2503 15699 17610 17614 17616 17615 17620 
2469 2503 2172 2502 17618 17616 17383 17612 17620 17614 
2470 2172 2503 2173 17388 17616 17619 17390 15480 17621 
2503 2172 2206 2173 17616 15705 17617 17621 15480 15706 
2173 2206 2504 2207 15706 17622 17623 15712 15714 17624 
2470 2504 2471 2173 17625 17626 17400 17390 17623 17395 
2173 2206 2503 2504 15706 17617 17621 17623 17622 17627 
2470 2504 2173 2503 17625 17623 17390 17619 17627 17621 
2471 2173 2504 2174 17395 17623 17626 17397 15487 17628 
2504 2173 2207 2174 17623 15712 17624 17628 15487 15713 
2174 2207 2505 2208 15713 17629 17630 15719 15721 17631 
2471 2505 2472 2174 17632 17633 17407 17397 17630 17402 
2174 2207 2504 2505 15713 17624 17628 17630 17629 17634 
2471 2505 2174 2504 17632 17630 17397 17626 17634 17628 
2472 2174 2505 2175 17402 17630 17633 17404 15494 17635 
2505 2174 2208 2175 17630 15719 17631 17635 15494 15720 
2175 2208 2506 2209 15720 17636 17637 15726 15728 17638 
2472 2506 2473 2175 17639 17640 17414 17404 17637 17409 
2175 2208 2505 2506 15720 17631 17635 17637 17636 17641 
2472 2506 2175 2505 17639 17637 17404 17633 17641 17635 
2473 2175 2506 2176 17409 17637 17640 17411 15501 17642 
2506 2175 2209 2176 17637 15726 17638 17642 15501 15727 
2176 2209 2507 2210 15727 17643 17644 15733 15735 17645 
2473 2507 2474 2176 17646 17647 17421 17411 17644 17416 
2176 2209 2506 2507 15727 17638 17642 17644 17643 17648 
2473 2507 2176 2506 17646 17644 17411 17640 17648 17642 
2474 2176 2507 2177 17416 17644 17647 17418 15508 17649 
2507 2176 2210 2177 17644 15733 17645 17649 15508 15734 
2178 2211 2509 2212 15745 17650 17651 15740 15744 17652 
2475 2509 2476 2178 17653 17654 17430 17428 17651 17423 
2178 2211 2508 2509 15745 17655 17656 17651 17650 17657 
2475 2509 2178 2508 17653 17651 17428 17658 17657 17656 
2476 2178 2509 2179 17423 17651 17654 17425 15517 17659 
2509 2178 2212 2179 17651 15740 17652 17659 15517 15741 
2179 2212 2510 2213 15741 17660 17661 15750 15752 17662 
2476 2510 2477 2179 17663 17664 17438 17425 17661 17433 
2179 2212 2509 2510 15741 17652 17659 17661 17660 17665 
2476 2510 2179 2509 17663 17661 17425 17654 17665 17659 
2477 2179 2510 2180 17433 17661 17664 17435 15525 17666 
2510 2179 2213 2180 17661 15750 17662 17666 15525 15751 
2180 2213 2511 2214 15751 17667 17668 15757 15759 17669 
2477 2511 2478 2180 17670 17671 17445 17435 17668 17440 
2180 2213 2510 2511 15751 17662 17666 17668 17667 17672 
2477 2511 2180 2510 17670 17668 17435 17664 17672 17666 
2478 2180 2511 2181 17440 17668 17671 17442 15532 17673 
2511 2180 2214 2181 17668 15757 17669 17673 15532 15758 
2181 2214 2512 2215 15758 17674 17675 15764 15766 17676 
2478 2512 2479 2181 17677 17678 17452 17442 17675 17447 
2181 2214 2511 2512 15758 17669 17673 17675 17674 17679 
2478 2512 2181 2511 17677 17675 17442 17671 17679 17673 
2479 2181 2512 2182 17447 17675 17678 17449 15539 17680 
2512 2181 2215 2182 17675 15764 17676 17680 15539 15765 
2182 2215 2513 2216 15765 17681 17682 15771 15773 17683 
2479 2513 2480 2182 17684 17685 17459 17449 17682 17454 
2182 2215 2512 2513 15765 17676 17680 17682 17681 17686 
2479 2513 2182 2512 17684 17682 17449 17678 17686 17680 
2480 2182 2513 2183 17454 17682 17685 17456 15546 17687 
2513 2182 2216 2183 17682 15771 17683 17687 15546 15772 
2183 2216 2514 2217 15772 17688 17689 15778 15780 17690 
2480 2514 2481 2183 17691 17692 17466 17456 17689 17461 
2183 2216 2513 2514 15772 17683 17687 17689 17688 17693 
2480 2514 2183 2513 17691 17689 17456 17685 17693 17687 
2481 2183 2514 2184 17461 17689 17692 17463 15553 17694 
2514 2183 2217 2184 17689 15778 17690 17694 15553 15779 
2184 2217 2515 2218 15779 17695 17696 15785 15787 17697 
2481 2515 2482 2184 17698 17699 17473 17463 17696 17468 
2184 2217 2514 2515 15779 17690 17694 17696 17695 17700 
2481 2515 2184 2514 17698 17696 17463 17692 17700 17694 
2482 2184 2515 2185 17468 17696 17699 17470 15560 17701 
2515 2184 2218 2185 17696 15785 17697 17701 15560 15786 
2185 2218 2516 2219 15786 17702 17703 15792 15794 17704 
2482 2516 2483 2185 17705 17706 17480 17470 17703 17475 
2185 2218 2515 2516 15786 17697 17701 17703 17702 17707 
2482 2516 2185 2515 17705 17703 17470 17699 17707 17701 
2483 2185 2516 2186 17475 17703 17706 17477 15567 17708 
2516 2185 2219 2186 17703 15792 17704 17708 15567 15793 
2186 2219 2517 2220 15793 17709 17710 15799 15801 17711 
2483 2517 2484 2186 17712 17713 17487 17477 17710 17482 
2186 2219 2516 2517 15793 17704 17708 17710 17709 17714 
2483 2517 2186 2516 17712 17710 17477 17706 17714 17708 
2484 2186 2517 2187 17482 17710 17713 17484 15574 17715 
2517 2186 2220 2187 17710 15799 17711 17715 15574 15800 
2187 2220 2518 2221 15800 17716 17717 15806 15808 17718 
2484 2518 2485 2187 17719 17720 17494 17484 17717 17489 
2187 2220 2517 2518 15800 17711 17715 17717 17716 17721 
2484 2518 2187 2517 17719 17717 17484 17713 17721 17715 
2485 2187 2518 2188 17489 17717 17720 17491 15581 17722 
2518 2187 2221 2188 17717 15806 17718 17722 15581 15807 
2188 2221 2519 2222 15807 17723 17724 15813 15815 17725 
2485 2519 2486 2188 17726 17727 17501 17491 17724 17496 
2188 2221 2518 2519 15807 17718 17722 17724 17723 17728 
2485 2519 2188 2518 17726 17724 17491 17720 17728 17722 
2486 2188 2519 2189 17496 17724 17727 17498 15588 17729 
2519 2188 2222 2189 17724 15813 17725 17729 15588 15814 
2189 2222 2520 2223 15814 17730 17731 15820 15822 17732 
2486 2520 2487 2189 17733 17734 17508 17498 17731 17503 
2189 2222 2519 2520 15814 17725 17729 17731 17730 17735 
2486 2520 2189 2519 17733 17731 17498 17727 17735 17729 
2487 2189 2520 2190 17503 17731 17734 17505 15595 17736 
2520 2189 2223 2190 17731 15820 17732 17736 15595 15821 
2190 2223 2521 2224 15821 17737 17738 15827 15829 17739 
2487 2521 2488 2190 17740 17741 17515 17505 17738 17510 
2190 2223 2520 2521 15821 17732 17736 17738 17737 17742 
2487 2521 2190 2520 17740 17738 17505 17734 17742 17736 
2488 2190 2521 2191 17510 17738 17741 17512 15602 17743 
2521 2190 2224 2191 17738 15827 17739 17743 15602 15828 
2191 2224 2522 2225 15828 17744 17745 15834 15836 17746 
2488 2522 2489 2191 17747 17748 17522 17512 17745 17517 
2191 2224 2521 2522 15828 17739 17743 17745 17744 17749 
2488 2522 2191 2521 17747 17745 17512 17741 17749 17743 
2489 2191 2522 2192 17517 17745 17748 17519 15609 17750 
2522 2191 2225 2192 17745 15834 17746 17750 15609 15835 
2192 2225 2523 2226 15835 17751 17752 15841 15843 17753 
2489 2523 2490 2192 17754 17755 17529 17519 17752 17524 
2192 2225 2522 2523 15835 17746 17750 17752 17751 17756 
2489 2523 2192 2522 17754 17752 17519 17748 17756 17750 
2490 2192 2523 2193 17524 17752 17755 17526 15616 17757 
2523 2192 2226 2193 17752 15841 17753 17757 15616 15842 
2193 2226 2524 2227 15842 17758 17759 15848 15850 17760 
2490 2524 2491 2193 17761 17762 17536 17526 17759 17531 
2193 2226 2523 2524 15842 17753 17757 17759 17758 17763 
2490 2524 2193 2523 17761 17759 17526 17755 17763 17757 
2491 2193 2524 2194 17531 17759 17762 17533 15623 17764 
2524 2193 2227 2194 17759 15848 17760 17764 15623 15849 
2194 2227 2525 2228 15849 17765 17766 15855 15857 17767 
2491 2525 2492 2194 17768 17769 17543 17533 17766 17538 
2194 2227 2524 2525 15849 17760 17764 17766 17765 17770 
2491 2525 2194 2524 17768 17766 17533 17762 17770 17764 
2492 2194 2525 2195 17538 17766 17769 17540 15630 17771 
2525 2194 2228 2195 17766 15855 17767 17771 15630 15856 
2195 2228 2526 2229 15856 17772 17773 15862 15864 17774 
2492 2526 2493 2195 17775 17776 17550 17540 17773 17545 
2195 2228 2525 2526 15856 17767 17771 17773 17772 17777 
2492 2526 2195 2525 17775 17773 17540 17769 17777 17771 
2493 2195 2526 2196 17545 17773 17776 17547 15637 17778 
2526 2195 2229 2196 17773 15862 17774 17778 15637 15863 
2196 2229 2527 2230 15863 17779 17780 15869 15871 17781 
2493 2527 2494 2196 17782 17783 17557 17547 17780 17552 
2196 2229 2526 2527 15863 17774 17778 17780 17779 17784 
2493 2527 2196 2526 17782 17780 17547 17776 17784 17778 
2494 2196 2527 2197 17552 17780 17783 17554 15644 17785 
2527 2196 2230 2197 17780 15869 17781 17785 15644 15870 
2197 2230 2528 2231 15870 17786 17787 15876 15878 17788 
2494 2528 2495 2197 17789 17790 17564 17554 17787 17559 
2197 2230 2527 2528 15870 17781 17785 17787 17786 17791 
2494 2528 2197 2527 17789 17787 17554 17783 17791 17785 
2495 2197 2528 2198 17559 17787 17790 17561 15651 17792 
2528 2197 2231 2198 17787 15876 17788 17792 15651 15877 
2198 2231 2529 2232 15877 17793 17794 15883 15885 17795 
2495 2529 2496 2198 17796 17797 17571 17561 17794 17566 
2198 2231 2528 2529 15877 17788 17792 17794 17793 17798 
2495 2529 2198 2528 17796 17794 17561 17790 17798 17792 
2496 2198 2529 2199 17566 17794 17797 17568 15658 17799 
2529 2198 2232 2199 17794 15883 17795 17799 15658 15884 
2199 2232 2530 2233 15884 17800 17801 15890 15892 17802 
2496 2530 2497 2199 17803 17804 17578 17568 17801 17573 
2199 2232 2529 2530 15884 17795 17799 17801 17800 17805 
2496 2530 2199 2529 17803 17801 17568 17797 17805 17799 
2497 2199 2530 2200 17573 17801 17804 17575 15665 17806 
2530 2199 2233 2200 17801 15890 17802 17806 15665 15891 
2200 2233 2531 2234 15891 17807 17808 15897 15899 17809 
2497 2531 2498 2200 17810 17811 17585 17575 17808 17580 
2200 2233 2530 2531 15891 17802 17806 17808 17807 17812 
2497 2531 2200 2530 17810 17808 17575 17804 17812 17806 
2498 2200 2531 2201 17580 17808 17811 17582 15672 17813 
2531 2200 2234 2201 17808 15897 17809 17813 15672 15898 
2201 2234 2532 2235 15898 17814 17815 15904 15906 17816 
2498 2532 2499 2201 17817 17818 17592 17582 17815 17587 
2201 2234 2531 2532 15898 17809 17813 17815 17814 17819 
2498 2532 2201 2531 17817 17815 17582 17811 17819 17813 
2499 2201 2532 2202 17587 17815 17818 17589 15679 17820 
2532 2201 2235 2202 17815 15904 17816 17820 15679 15905 
2202 2235 2533 2236 15905 17821 17822 15911 15913 17823 
2499 2533 2500 2202 17824 17825 17599 17589 17822 17594 
2202 2235 2532 2533 15905 17816 17820 17822 17821 17826 
2499 2533 2202 2532 17824 17822 17589 17818 17826 17820 
2500 2202 2533 2203 17594 17822 17825 17596 15686 17827 
2533 2202 2236 2203 17822 15911 17823 17827 15686 15912 
2203 2236 2534 2237 15912 17828 17829 15918 15920 17830 
2500 2534 2501 2203 17831 17832 17606 17596 17829 17601 
2203 2236 2533 2534 15912 17823 17827 17829 17828 17833 
2500 2534 2203 2533 17831 17829 17596 17825 17833 17827 
2501 2203 2534 2204 17601 17829 17832 17603 15693 17834 
2534 2203 2237 2204 17829 15918 17830 17834 15693 15919 
2204 2237 2535 2238 15919 17835 17836 15925 15927 17837 
2501 2535 2502 2204 17838 17839 17613 17603 17836 17608 
2204 2237 2534 2535 15919 17830 17834 17836 17835 17840 
2501 2535 2204 2534 17838 17836 17603 17832 17840 17834 
2502 2204 2535 2205 17608 17836 17839 17610 15700 17841 
2535 2204 2238 2205 17836 15925 17837 17841 15700 15926 
2205 2238 2536 2239 15926 17842 17843 15932 15934 17844 
2502 2536 2503 2205 17845 17846 17620 17610 17843 17615 
2205 2238 2535 2536 15926 17837 17841 17843 17842 17847 
2502 2536 2205 2535 17845 17843 17610 17839 17847 17841 
2503 2205 2536 2206 17615 17843 17846 17617 15707 17848 
2536 2205 2239 2206 17843 15932 17844 17848 15707 15933 
2206 2239 2537 2240 15933 17849 17850 15939 15941 17851 
2503 2537 2504 2206 17852 17853 17627 17617 17850 17622 
2206 2239 2536 2537 15933 17844 17848 17850 17849 17854 
2503 2537 2206 2536 17852 17850 17617 17846 17854 17848 
2504 2206 2537 2207 17622 17850 17853 17624 15714 17855 
2537 2206 2240 2207 17850 15939 17851 17855 15714 15940 
2207 2240 2538 2241 15940 17856 17857 15946 15948 17858 
2504 2538 2505 2207 17859 17860 17634 17624 17857 17629 
2207 2240 2537 2538 15940 17851 17855 17857 17856 17861 
2504 2538 2207 2537 17859 17857 17624 17853 17861 17855 
2505 2207 2538 2208 17629 17857 17860 17631 15721 17862 
2538 2207 2241 2208 17857 15946 17858 17862 15721 15947 
2208 2241 2539 2242 15947 17863 17864 15953 15955 17865 
2505 2539 2506 2208 17866 17867 17641 17631 17864 17636 
2208 2241 2538 2539 15947 17858 17862 17864 17863 17868 
2505 2539 2208 2538 17866 17864 17631 17860 17868 17862 
2506 2208 2539 2209 17636 17864 17867 17638 15728 17869 
2539 2208 2242 2209 17864 15953 17865 17869 15728 15954 
2209 2242 2540 2243 15954 17870 17871 15960 15962 17872 
2506 2540 2507 2209 17873 17874 17648 17638 17871 17643 
2209 2242 2539 2540 15954 17865 17869 17871 17870 17875 
2506 2540 2209 2539 17873 17871 17638 17867 17875 17869 
2507 2209 2540 2210 17643 17871 17874 17645 15735 17876 
2540 2209 2243 2210 17871 15960 17872 17876 15735 15961 
2211 2244 2542 2245 15972 17877 17878 15967 15971 17879 
2508 2542 2509 2211 17880 17881 17657 17655 17878 17650 
2211 2244 2541 2542 15972 17882 17883 17878 17877 17884 
2508 2542 2211 2541 17880 17878 17655 17885 17884 17883 
2509 2211 2542 2212 17650 17878 17881 17652 15744 17886 
2542 2211 2245 2212 17878 15967 17879 17886 15744 15968 
2212 2245 2543 2246 15968 17887 17888 15977 15979 17889 
2509 2543 2510 2212 17890 17891 17665 17652 17888 17660 
2212 2245 2542 2543 15968 17879 17886 17888 17887 17892 
2509 2543 2212 2542 17890 17888 17652 17881 17892 17886 
2510 2212 2543 2213 17660 17888 17891 17662 15752 17893 
2543 2212 2246 2213 17888 15977 17889 17893 15752 15978 
2213 2246 2544 2247 15978 17894 17895 15984 15986 17896 
2510 2544 2511 2213 17897 17898 17672 17662 17895 17667 
2213 2246 2543 2544 15978 17889 17893 17895 17894 17899 
2510 2544 2213 2543 17897 17895 17662 17891 17899 17893 
2511 2213 2544 2214 17667 17895 17898 17669 15759 17900 
2544 2213 2247 2214 17895 15984 17896 17900 15759 15985 
2214 2247 2545 2248 15985 17901 17902 15991 15993 17903 
2511 2545 2512 2214 17904 17905 17679 17669 17902 17674 
2214 2247 2544 2545 15985 17896 17900 17902 17901 17906 
2511 2545 2214 2544 17904 17902 17669 17898 17906 17900 
2512 2214 2545 2215 17674 17902 17905 17676 15766 17907 
2545 2214 2248 2215 17902 15991 17903 17907 15766 15992 
2215 2248 2546 2249 15992 17908 17909 15998 16000 17910 
2512 2546 2513 2215 17911 17912 17686 17676 17909 17681 
2215 2248 2545 2546 15992 17903 17907 17909 17908 17913 
2512 2546 2215 2545 17911 17909 17676 17905 17913 17907 
2513 2215 2546 2216 17681 17909 17912 17683 15773 17914 
2546 2215 2249 2216 17909 15998 17910 17914 15773 15999 
2216 2249 2547 2250 15999 17915 17916 16005 16007 17917 
2513 2547 2514 2216 17918 17919 17693 17683 17916 17688 
2216 2249 2546 2547 15999 17910 17914 17916 17915 17920 
2513 2547 2216 2546 17918 17916 17683 17912 17920 17914 
2514 2216 2547 2217 17688 17916 17919 17690 15780 17921 
2547 2216 2250 2217 17916 16005 17917 17921 15780 16006 
2217 2250 2548 2251 16006 17922 17923 16012 16014 17924 
2514 2548 2515 2217 17925 17926 17700 17690 17923 17695 
2217 2250 2547 2548 16006 17917 17921 17923 17922 17927 
2514 2548 2217 2547 17925 17923 17690 17919 17927 17921 
2515 2217 2548 2218 17695 17923 17926 17697 15787 17928 
2548 2217 2251 2218 17923 16012 17924 17928 15787 16013 
2218 2251 2549 2252 16013 17929 17930 16019 16021 17931 
2515 2549 2516 2218 17932 17933 17707 17697 17930 17702 
2218 2251 2548 2549 16013 17924 17928 17930 17929 17934 
2515 2549 2218 2548 17932 17930 17697 17926 17934 17928 
2516 2218 2549 2219 17702 17930 17933 17704 15794 17935 
2549 2218 2252 2219 17930 16019 17931 17935 15794 16020 
2219 2252 2550 2253 16020 17936 17937 16026 16028 17938 
2516 2550 2517 2219 17939 17940 17714 17704 17937 17709 
2219 2252 2549 2550 16020 17931 17935 17937 17936 17941 
2516 2550 2219 2549 17939 17937 17704 17933 17941 17935 
2517 2219 2550 2220 17709 17937 17940 17711 15801 17942 
2550 2219 2253 2220 17937 16026 17938 17942 15801 16027 
2220 2253 2551 2254 16027 17943 17944 16033 16035 17945 
2517 2551 2518 2220 17946 17947 17721 17711 17944 17716 
2220 2253 2550 2551 16027 17938 17942 17944 17943 17948 
2517 2551 2220 2550 17946 17944 17711 17940 17948 17942 
2518 2220 2551 2221 17716 17944 17947 17718 15808 17949 
2551 2220 2254 2221 17944 16033 17945 17949 15808 16034 
2221 2254 2552 2255 16034 17950 17951 16040 16042 17952 
2518 2552 2519 2221 17953 17954 17728 17718 17951 17723 
2221 2254 2551 2552 16034 17945 17949 17951 17950 17955 
2518 2552 2221 2551 17953 17951 17718 17947 17955 17949 
2519 2221 2552 2222 17723 17951 17954 17725 15815 17956 
2552 2221 2255 2222 17951 16040 17952 17956 15815 16041 
2222 2255 2553 2256 16041 17957 17958 16047 16049 17959 
2519 2553 2520 2222 17960 17961 17735 17725 17958 17730 
2222 2255 2552 2553 16041 17952 17956 17958 17957 17962 
2519 2553 2222 2552 17960 17958 17725 17954 17962 17956 
2520 2222 2553 2223 17730 17958 17961 17732 15822 17963 
2553 2222 2256 2223 17958 16047 17959 17963 15822 16048 
2223 2256 2554 2257 16048 17964 17965 16054 16056 17966 
2520 2554 2521 2223 17967 17968 17742 17732 17965 17737 
2223 2256 2553 2554 16048 17959 17963 17965 17964 17969 
2520 2554 2223 2553 17967 17965 17732 17961 17969 17963 
2521 2223 2554 2224 17737 17965 17968 17739 15829 17970 
2554 2223 2257 2224 17965 16054 17966 17970 15829 16055 
2224 2257 2555 2258 16055 17971 17972 16061 16063 17973 
2521 2555 2522 2224 17974 17975 17749 17739 17972 17744 
2224 2257 2554 2555 16055 17966 17970 17972 17971 17976 
2521 2555 2224 2554 17974 17972 17739 17968 17976 17970 
2522 2224 2555 2225 17744 17972 17975 17746 15836 17977 
2555 2224 2258 2225 17972 16061 17973 17977 15836 16062 
2225 2258 2556 2259 16062 17978 17979 16068 16070 17980 
2522 2556 2523 2225 17981 17982 17756 17746 17979 17751 
2225 2258 2555 2556 16062 17973 17977 17979 17978 17983 
2522 2556 2225 2555 17981 17979 17746 17975 17983 17977 
2523 2225 2556 2226 17751 17979 17982 17753 15843 17984 
2556 2225 2259 2226 17979 16068 17980 17984 15843 16069 
2226 2259 2557 2260 16069 17985 17986 16075 16077 17987 
2523 2557 2524 2226 17988 17989 17763 17753 17986 17758 
2226 2259 2556 2557 16069 17980 17984 17986 17985 17990 
2523 2557 2226 2556 17988 17986 17753 17982 17990 17984 
2524 2226 2557 2227 17758 17986 17989 17760 15850 17991 
2557 2226 2260 2227 17986 16075 17987 17991 15850 16076 
2227 2260 2558 2261 16076 17992 17993 16082 16084 17994 
2524 2558 2525 2227 17995 17996 17770 17760 17993 17765 
2227 2260 2557 2558 16076 17987 17991 17993 17992 17997 
2524 2558 2227 2557 17995 17993 17760 17989 17997 17991 
2525 2227 2558 2228 17765 17993 17996 17767 15857 17998 
2558 2227 2261 2228 17993 16082 17994 17998 15857 16083 
2228 2261 2559 2262 16083 17999 18000 16089 16091 18001 
2525 2559 2526 2228 18002 18003 17777 17767 18000 17772 
2228 2261 2558 2559 16083 17994 17998 18000 17999 18004 
2525 2559 2228 2558 18002 18000 17767 17996 18004 17998 
2526 2228 2559 2229 17772 18000 18003 17774 15864 18005 
2559 2228 2262 2229 18000 16089 18001 18005 15864 16090 
2229 2262 2560 2263 16090 18006 18007 16096 16098 18008 
2526 2560 2527 2229 18009 18010 17784 17774 18007 17779 
2229 2262 2559 2560 16090 18001 18005 18007 18006 18011 
2526 2560 2229 2559 18009 18007 17774 18003 18011 18005 
2527 2229 2560 2230 17779 18007 18010 17781 15871 18012 
2560 2229 2263 2230 18007 16096 18008 18012 15871 16097 
2230 2263 2561 2264 16097 18013 18014 16103 16105 18015 
2527 2561 2528 2230 18016 18017 17791 17781 18014 17786 
2230 2263 2560 2561 16097 18008 18012 18014 18013 18018 
2527 2561 2230 2560 18016 18014 17781 18010 18018 18012 
2528 2230 2561 2231 17786 18014 18017 17788 15878 18019 
2561 2230 2264 2231 18014 16103 18015 18019 15878 16104 
2231 2264 2562 2265 16104 18020 18021 16110 16112 18022 
2528 2562 2529 2231 18023 18024 17798 17788 18021 17793 
2231 2264 2561 2562 16104 18015 18019 18021 18020 18025 
2528 2562 2231 2561 18023 18021 17788 18017 18025 18019 
2529 2231 2562 2232 17793 18021 18024 17795 15885 18026 
2562 2231 2265 2232 18021 16110 18022 18026 15885 16111 
2232 2265 2563 2266 16111 18027 18028 16117 16119 18029 
2529 2563 2530 2232 18030 18031 17805 17795 18028 17800 
2232 2265 2562 2563 16111 18022 18026 18028 18027 18032 
2529 2563 2232 2562 18030 18028 17795 18024 18032 18026 
2530 2232 2563 2233 17800 18028 18031 17802 15892 18033 
2563 2232 2266 2233 18028 16117 18029 18033 15892 16118 
2233 2266 2564 2267 16118 18034 18035 16124 16126 18036 
2530 2564 2531 2233 18037 18038 17812 17802 18035 17807 
2233 2266 2563 2564 16118 18029 18033 18035 18034 18039 
2530 2564 2233 2563 18037 18035 17802 18031 18039 18033 
2531 2233 2564 2234 17807 18035 18038 17809 15899 18040 
2564 2233 2267 2234 18035 16124 18036 18040 15899 16125 
2234 2267 2565 2268 16125 18041 18042 16131 16133 18043 
2531 2565 2532 2234 18044 18045 17819 17809 18042 17814 
2234 2267 2564 2565 16125 18036 18040 18042 18041 18046 
2531 2565 2234 2564 18044 18042 17809 18038 18046 18040 
2532 2234 2565 2235 17814 18042 18045 17816 15906 18047 
2565 2234 2268 2235 18042 16131 18043 18047 15906 16132 
2235 2268 2566 2269 16132 18048 18049 16138 16140 18050 
2532 2566 2533 2235 18051 18052 17826 17816 18049 17821 
2235 2268 2565 2566 16132 18043 18047 18049 18048 18053 
2532 2566 2235 2565 18051 18049 17816 18045 18053 18047 
2533 2235 2566 2236 17821 18049 18052 17823 15913 18054 
2566 2235 2269 2236 18049 16138 18050 18054 15913 16139 
2236 2269 2567 2270 16139 18055 18056 16145 16147 18057 
2533 2567 2534 2236 18058 18059 17833 17823 18056 17828 
2236 2269 2566 2567 16139 18050 18054 18056 18055 18060 
2533 2567 2236 2566 18058 18056 17823 18052 18060 18054 
2534 2236 2567 2237 17828 18056 18059 17830 15920 18061 
2567 2236 2270 2237 18056 16145 18057 18061 15920 16146 
2237 2270 2568 2271 16146 18062 18063 16152 16154 18064 
2534 2568 2535 2237 18065 18066 17840 17830 18063 17835 
2237 2270 2567 2568 16146 18057 18061 18063 18062 18067 
2534 2568 2237 2567 18065 18063 17830 18059 18067 18061 
2535 2237 2568 2238 17835 18063 18066 17837 15927 18068 
2568 2237 2271 2238 18063 16152 18064 18068 15927 16153 
2238 2271 2569 2272 16153 18069 18070 16159 16161 18071 
2535 2569 2536 2238 18072 18073 17847 17837 18070 17842 
2238 2271 2568 2569 16153 18064 18068 18070 18069 18074 
2535 2569 2238 2568 18072 18070 17837 18066 18074 18068 
2536 2238 2569 2239 17842 18070 18073 17844 15934 18075 
2569 2238 2272 2239 18070 16159 18071 18075 15934 16160 
2239 2272 2570 2273 16160 18076 18077 16166 16168 18078 
2536 2570 2537 2239 18079 18080 17854 17844 18077 17849 
2239 2272 2569 2570 16160 18071 18075 18077 18076 18081 
2536 2570 2239 2569 18079 18077 17844 18073 18081 18075 
2537 2239 2570 2240 17849 18077 18080 17851 15941 18082 
2570 2239 2273 2240 18077 16166 18078 18082 15941 16167 
2240 2273 2571 2274 16167 18083 18084 16173 16175 18085 
2537 2571 2538 2240 18086 18087 17861 17851 18084 17856 
2240 2273 2570 2571 16167 18078 18082 18084 18083 18088 
2537 2571 2240 2570 18086 18084 17851 18080 18088 18082 
2538 2240 2571 2241 17856 18084 18087 17858 15948 18089 
2571 2240 2274 2241 18084 16173 18085 18089 15948 16174 
2241 2274 2572 2275 16174 18090 18091 16180 16182 18092 
2538 2572 2539 2241 18093 18094 17868 17858 18091 17863 
2241 2274 2571 2572 16174 18085 18089 18091 18090 18095 
2538 2572 2241 2571 18093 18091 17858 18087 18095 18089 
2539 2241 2572 2242 17863 18091 18094 17865 15955 18096 
2572 2241 2275 2242 18091 16180 18092 18096 15955 16181 
2242 2275 2573 2276 16181 18097 18098 16187 16189 18099 
2539 2573 2540 2242 18100 18101 17875 17865 18098 17870 
2242 2275 2572 2573 16181 18092 18096 18098 18097 18102 
2539 2573 2242 2572 18100 18098 17865 18094 18102 18096 
2540 2242 2573 2243 17870 18098 18101 17872 15962 18103 
2573 2242 2276 2243 18098 16187 18099 18103 15962 16188 
2244 2277 2575 2278 16199 18104 18105 16194 16198 18106 
2541 2575 2542 2244 18107 18108 17884 17882 18105 17877 
2244 2277 2574 2575 16199 18109 18110 18105 18104 18111 
2541 2575 2244 2574 18107 18105 17882 18112 18111 18110 
2542 2244 2575 2245 17877 18105 18108 17879 15971 18113 
2575 2244 2278 2245 18105 16194 18106 18113 15971 16195 
2245 2278 2576 2279 16195 18114 18115 16204 16206 18116 
2542 2576 2543 2245 18117 18118 17892 17879 18115 17887 
2245 2278 2575 2576 16195 18106 18113 18115 18114 18119 
2542 2576 2245 2575 18117 18115 17879 18108 18119 18113 
2543 2245 2576 2246 17887 18115 18118 17889 15979 18120 
2576 2245 2279 2246 18115 16204 18116 18120 15979 16205 
2246 2279 2577 2280 16205 18121 18122 16211 16213 18123 
2543 2577 2544 2246 18124 18125 17899 17889 18122 17894 
2246 2279 2576 2577 16205 18116 18120 18122 18121 18126 
2543 2577 2246 2576 18124 18122 17889 18118 18126 18120 
2544 2246 2577 2247 17894 18122 18125 17896 15986 18127 
2577 2246 2280 2247 18122 16211 18123 18127 15986 16212 
2247 2280 2578 2281 16212 18128 18129 16218 16220 18130 
2544 2578 2545 2247 18131 18132 17906 17896 18129 17901 
2247 2280 2577 2578 16212 18123 18127 18129 18128 18133 
2544 2578 2247 2577 18131 18129 17896 18125 18133 18127 
2545 2247 2578 2248 17901 18129 18132 17903 15993 18134 
2578 2247 2281 2248 18129 16218 18130 18134 15993 16219 
2248 2281 2579 2282 16219 18135 18136 16225 16227 18137 
2545 2579 2546 2248 18138 18139 17913 17903 18136 17908 
2248 2281 2578 2579 16219 18130 18134 18136 18135 18140 
2545 2579 2248 2578 18138 18136 17903 18132 18140 18134 
2546 2248 2579 2249 17908 18136 18139 17910 16000 18141 
2579 2248 2282 2249 18136 16225 18137 18141 16000 16226 
2249 2282 2580 2283 16226 18142 18143 16232 16234 18144 
2546 2580 2547 2249 18145 18146 17920 17910 18143 17915 
2249 2282 2579 2580 16226 18137 18141 18143 18142 18147 
2546 2580 2249 2579 18145 18143 17910 18139 18147 18141 
2547 2249 2580 2250 17915 18143 18146 17917 16007 18148 
2580 2249 2283 2250 18143 16232 18144 18148 16007 16233 
2250 2283 2581 2284 16233 18149 18150 16239 16241 18151 
2547 2581 2548 2250 18152 18153 17927 17917 18150 17922 
2250 2283 2580 2581 16233 18144 18148 18150 18149 18154 
2547 2581 2250 2580 18152 18150 17917 18146 18154 18148 
2548 2250 2581 2251 17922 18150 18153 17924 16014 18155 
2581 2250 2284 2251 18150 16239 18151 18155 16014 16240 
2251 2284 2582 2285 16240 18156 18157 16246 16248 18158 
2548 2582 2549 2251 18159 18160 17934 17924 18157 17929 
2251 2284 2581 2582 16240 18151 18155 18157 18156 18161 
2548 2582 2251 2581 18159 18157 17924 18153 18161 18155 
2549 2251 2582 2252 17929 18157 18160 17931 16021 18162 
2582 2251 2285 2252 18157 16246 18158 18162 16021 16247 
2252 2285 2583 2286 16247 18163 18164 16253 16255 18165 
2549 2583 2550 2252 18166 18167 17941 17931 18164 17936 
2252 2285 2582 2583 16247 18158 18162 18164 18163 18168 
2549 2583 2252 2582 18166 18164 17931 18160 18168 18162 
2550 2252 2583 2253 17936 18164 18167 17938 16028 18169 
2583 2252 2286 2253 18164 16253 18165 18169 16028 16254 
2253 2286 2584 2287 16254 18170 18171 16260 16262 18172 
2550 2584 2551 2253 18173 18174 17948 17938 18171 17943 
2253 2286 2583 2584 16254 18165 18169 18171 18170 18175 
2550 2584 2253 2583 18173 18171 17938 18167 18175 18169 
2551 2253 2584 2254 17943 18171 18174 17945 16035 18176 
2584 2253 2287 2254 18171 16260 18172 18176 16035 16261 
2254 2287 2585 2288 16261 18177 18178 16267 16269 18179 
2551 2585 2552 2254 18180 18181 17955 17945 18178 17950 
2254 2287 2584 2585 16261 18172 18176 18178 18177 18182 
2551 2585 2254 2584 18180 18178 17945 18174 18182 18176 
2552 2254 2585 2255 17950 18178 18181 17952 16042 18183 
2585 2254 2288 2255 18178 16267 18179 18183 16042 16268 
2255 2288 2586 2289 16268 18184 18185 16274 16276 18186 
2552 2586 2553 2255 18187 18188 17962 17952 18185 17957 
2255 2288 2585 2586 16268 18179 18183 18185 18184 18189 
2552 2586 2255 2585 18187 18185 17952 18181 18189 18183 
2553 2255 2586 2256 17957 18185 18188 17959 16049 18190 
2586 2255 2289 2256 18185 16274 18186 18190 16049 16275 
2256 2289 2587 2290 16275 18191 18192 16281 16283 18193 
2553 2587 2554 2256 18194 18195 17969 17959 18192 17964 
2256 2289 2586 2587 16275 18186 18190 18192 18191 18196 
2553 2587 2256 2586 18194 18192 17959 18188 18196 18190 
2554 2256 2587 2257 17964 18192 18195 17966 16056 18197 
2587 2256 2290 2257 18192 16281 18193 18197 16056 16282 
2257 2290 2588 2291 16282 18198 18199 16288 16290 18200 
2554 2588 2555 2257 18201 18202 17976 17966 18199 17971 
2257 2290 2587 2588 16282 18193 18197 18199 18198 18203 
2554 2588 2257 2587 18201 18199 17966 18195 18203 18197 
2555 2257 2588 2258 17971 18199 18202 17973 16063 18204 
2588 2257 2291 2258 18199 16288 18200 18204 16063 16289 
2258 2291 2589 2292 16289 18205 18206 16295 16297 18207 
2555 2589 2556 2258 18208 18209 17983 17973 18206 17978 
2258 2291 2588 2589 16289 18200 18204 18206 18205 18210 
2555 2589 2258 2588 18208 18206 17973 18202 18210 18204 
2556 2258 2589 2259 17978 18206 18209 17980 16070 18211 
2589 2258 2292 2259 18206 16295 18207 18211 16070 16296 
2259 2292 2590 2293 16296 18212 18213 16302 16304 18214 
2556 2590 2557 2259 18215 18216 17990 17980 18213 17985 
2259 2292 2589 2590 16296 18207 18211 18213 18212 18217 
2556 2590 2259 2589 18215 18213 17980 18209 18217 18211 
2557 2259 2590 2260 17985 18213 18216 17987 16077 18218 
2590 2259 2293 2260 18213 16302 18214 18218 16077 16303 
2260 2293 2591 2294 16303 18219 18220 16309 16311 18221 
2557 2591 2558 2260 18222 18223 17997 17987 18220 17992 
2260 2293 2590 2591 16303 18214 18218 18220 18219 18224 
2557 2591 2260 2590 18222 18220 17987 18216 18224 18218 
2558 2260 2591 2261 17992 18220 18223 17994 16084 18225 
2591 2260 2294 2261 18220 16309 18221 18225 16084 16310 
2261 2294 2592 2295 16310 18226 18227 16316 16318 18228 
2558 2592 2559 2261 18229 18230 18004 17994 18227 17999 
2261 2294 2591 2592 16310 18221 18225 18227 18226 18231 
2558 2592 2261 2591 18229 18227 17994 18223 18231 18225 
2559 2261 2592 2262 17999 18227 18230 18001 16091 18232 
2592 2261 2295 2262 18227 16316 18228 18232 16091 16317 
2262 2295 2593 2296 16317 18233 18234 16323 16325 18235 
2559 2593 2560 2262 18236 18237 18011 18001 18234 18006 
2262 2295 2592 2593 16317 18228 18232 18234 18233 18238 
2559 2593 2262 2592 18236 18234 18001 18230 18238 18232 
2560 2262 2593 2263 18006 18234 18237 18008 16098 18239 
2593 2262 2296 2263 18234 16323 18235 18239 16098 16324 
2263 2296 2594 2297 16324 18240 18241 16330 16332 18242 
2560 2594 2561 2263 18243 18244 18018 18008 18241 18013 
2263 2296 2593 2594 16324 18235 18239 18241 18240 18245 
2560 2594 2263 2593 18243 18241 18008 18237 18245 18239 
2561 2263 2594 2264 18013 18241 18244 18015 16105 18246 
2594 2263 2297 2264 18241 16330 18242 18246 16105 16331 
2264 2297 2595 2298 16331 18247 18248 16337 16339 18249 
2561 2595 2562 2264 18250 18251 18025 18015 18248 18020 
2264 2297 2594 2595 16331 18242 18246 18248 18247 18252 
2561 2595 2264 2594 18250 18248 18015 18244 18252 18246 
2562 2264 2595 2265 18020 18248 18251 18022 16112 18253 
2595 2264 2298 2265 18248 16337 18249 18253 16112 16338 
2265 2298 2596 2299 16338 18254 18255 16344 16346 18256 
2562 2596 2563 2265 18257 18258 18032 18022 18255 18027 
2265 2298 2595 2596 16338 18249 18253 18255 18254 18259 
2562 2596 2265 2595 18257 18255 18022 18251 18259 18253 
2563 2265 2596 2266 18027 18255 18258 18029 16119 18260 
2596 2265 2299 2266 18255 16344 18256 18260 16119 16345 
2266 2299 2597 2300 16345 18261 18262 16351 16353 18263 
2563 2597 2564 2266 18264 18265 18039 18029 18262 18034 
2266 2299 2596 2597 16345 18256 18260 18262 18261 18266 
2563 2597 2266 2596 18264 18262 18029 18258 18266 18260 
2564 2266 2597 2267 18034 18262 18265 18036 16126 18267 
2597 2266 2300 2267 18262 16351 18263 18267 16126 16352 
2267 2300 2598 2301 16352 18268 18269 16358 16360 18270 
2564 2598 2565 2267 18271 18272 18046 18036 18269 18041 
2267 2300 2597 2598 16352 18263 18267 18269 18268 18273 
2564 2598 2267 2597 18271 18269 18036 18265 18273 18267 
2565 2267 2598 2268 18041 18269 18272 18043 16133 18274 
2598 2267 2301 2268 18269 16358 18270 18274 16133 16359 
2268 2301 2599 2302 16359 18275 18276 16365 16367 18277 
2565 2599 2566 2268 18278 18279 18053 18043 18276 18048 
2268 2301 2598 2599 16359 18270 18274 18276 18275 18280 
2565 2599 2268 2598 18278 18276 18043 18272 18280 18274 
2566 2268 2599 2269 18048 18276 18279 18050 16140 18281 
2599 2268 2302 2269 18276 16365 18277 18281 16140 16366 
2269 2302 2600 2303 16366 18282 18283 16372 16374 18284 
2566 2600 2567 2269 18285 18286 18060 18050 18283 18055 
2269 2302 2599 2600 16366 18277 18281 18283 18282 18287 
2566 2600 2269 2599 18285 18283 18050 18279 18287 18281 
2567 2269 2600 2270 18055 18283 18286 18057 16147 18288 
2600 2269 2303 2270 18283 16372 18284 18288 16147 16373 
2270 2303 2601 2304 16373 18289 18290 16379 16381 18291 
2567 2601 2568 2270 18292 18293 18067 18057 18290 18062 
2270 2303 2600 2601 16373 18284 18288 18290 18289 18294 
2567 2601 2270 2600 18292 18290 18057 18286 18294 18288 
2568 2270 2601 2271 18062 18290 18293 18064 16154 18295 
2601 2270 2304 2271 18290 16379 18291 18295 16154 16380 
2271 2304 2602 2305 16380 18296 18297 16386 16388 18298 
2568 2602 2569 2271 18299 18300 18074 18064 18297 18069 
2271 2304 2601 2602 16380 18291 18295 18297 18296 18301 
2568 2602 2271 2601 18299 18297 18064 18293 18301 18295 
2569 2271 2602 2272 18069 18297 18300 18071 16161 18302 
2602 2271 2305 2272 18297 16386 18298 18302 16161 16387 
2272 2305 2603 2306 16387 18303 18304 16393 16395 18305 
2569 2603 2570 2272 18306 18307 18081 18071 18304 18076 
2272 2305 2602 2603 16387 18298 18302 18304 18303 18308 
2569 2603 2272 2602 18306 18304 18071 18300 18308 18302 
2570 2272 2603 2273 18076 18304 18307 18078 16168 18309 
2603 2272 2306 2273 18304 16393 18305 18309 16168 16394 
2273 2306 2604 2307 16394 18310 18311 16400 16402 18312 
2570 2604 2571 2273 18313 18314 18088 18078 18311 18083 
2273 2306 2603 2604 16394 18305 18309 18311 18310 18315 
2570 2604 2273 2603 18313 18311 18078 18307 18315 18309 
2571 2273 2604 2274 18083 18311 18314 18085 16175 18316 
2604 2273 2307 2274 18311 16400 18312 18316 16175 16401 
2274 2307 2605 2308 16401 18317 18318 16407 16409 18319 
2571 2605 2572 2274 18320 18321 18095 18085 18318 18090 
2274 2307 2604 2605 16401 18312 18316 18318 18317 18322 
2571 2605 2274 2604 18320 18318 18085 18314 18322 18316 
2572 2274 2605 2275 18090 18318 18321 18092 16182 18323 
2605 2274 2308 2275 18318 16407 18319 18323 16182 16408 
2275 2308 2606 2309 16408 18324 18325 16414 16416 18326 
2572 2606 2573 2275 18327 18328 18102 18092 18325 18097 
2275 2308 2605 2606 16408 18319 18323 18325 18324 18329 
2572 2606 2275 2605 18327 18325 18092 18321 18329 18323 
2573 2275 2606 2276 18097 18325 18328 18099 16189 18330 
2606 2275 2309 2276 18325 16414 18326 18330 16189 16415 
2277 2310 2608 2311 16426 18331 18332 16421 16425 18333 
2574 2608 2575 2277 18334 18335 18111 18109 18332 18104 
2277 2310 2607 2608 16426 18336 18337 18332 18331 18338 
2574 2608 2277 2607 18334 18332 18109 18339 18338 18337 
2575 2277 2608 2278 18104 18332 18335 18106 16198 18340 
2608 2277 2311 2278 18332 16421 18333 18340 16198 16422 
2278 2311 2609 2312 16422 18341 18342 16431 16433 18343 
2575 2609 2576 2278 18344 18345 18119 18106 18342 18114 
2278 2311 2608 2609 16422 18333 18340 18342 18341 18346 
2575 2609 2278 2608 18344 18342 18106 18335 18346 18340 
2576 2278 2609 2279 18114 18342 18345 18116 16206 18347 
2609 2278 2312 2279 18342 16431 18343 18347 16206 16432 
2279 2312 2610 2313 16432 18348 18349 16438 16440 18350 
2576 2610 2577 2279 18351 18352 18126 18116 18349 18121 
2279 2312 2609 2610 16432 18343 18347 18349 18348 18353 
2576 2610 2279 2609 18351 18349 18116 18345 18353 18347 
2577 2279 2610 2280 18121 18349 18352 18123 16213 18354 
2610 2279 2313 2280 18349 16438 18350 18354 16213 16439 
2280 2313 2611 2314 16439 18355 18356 16445 16447 18357 
2577 2611 2578 2280 18358 18359 18133 18123 18356 18128 
2280 2313 2610 2611 16439 18350 18354 18356 18355 18360 
2577 2611 2280 2610 18358 18356 18123 18352 18360 18354 
2578 2280 2611 2281 18128 18356 18359 18130 16220 18361 
2611 2280 2314 2281 18356 16445 18357 18361 16220 16446 
2281 2314 2612 2315 16446 18362 18363 16452 16454 18364 
2578 2612 2579 2281 18365 18366 18140 18130 18363 18135 
2281 2314 2611 2612 16446 18357 18361 18363 18362 18367 
2578 2612 2281 2611 18365 18363 18130 18359 18367 18361 
2579 2281 2612 2282 18135 18363 18366 18137 16227 18368 
2612 2281 2315 2282 18363 16452 18364 18368 16227 16453 
2282 2315 2613 2316 16453 18369 18370 16459 16461 18371 
2579 2613 2580 2282 18372 18373 18147 18137 18370 18142 
2282 2315 2612 2613 16453 18364 18368 18370 18369 18374 
2579 2613 2282 2612 18372 18370 18137 18366 18374 18368 
2580 2282 2613 2283 18142 18370 18373 18144 16234 18375 
2613 2282 2316 2283 18370 16459 18371 18375 16234 16460 
2283 2316 2614 2317 16460 18376 18377 16466 16468 18378 
2580 2614 2581 2283 18379 18380 18154 18144 18377 18149 
2283 2316 2613 2614 16460 18371 18375 18377 18376 18381 
2580 2614 2283 2613 18379 18377 18144 18373 18381 18375 
2581 2283 2614 2284 18149 18377 18380 18151 16241 18382 
2614 2283 2317 2284 18377 16466 18378 18382 16241 16467 
2284 2317 2615 2318 16467 18383 18384 16473 16475 18385 
2581 2615 2582 2284 18386 18387 18161 18151 18384 18156 
2284 2317 2614 2615 16467 18378 18382 18384 18383 18388 
2581 2615 2284 2614 18386 18384 18151 18380 18388 18382 
2582 2284 2615 2285 18156 18384 18387 18158 16248 18389 
2615 2284 2318 2285 18384 16473 18385 18389 16248 16474 
2285 2318 2616 2319 16474 18390 18391 16480 16482 18392 
2582 2616 2583 2285 18393 18394 18168 18158 18391 18163 
2285 2318 2615 2616 16474 18385 18389 18391 18390 18395 
2582 2616 2285 2615 18393 18391 18158 18387 18395 18389 
2583 2285 2616 2286 18163 18391 18394 18165 16255 18396 
2616 2285 2319 2286 18391 16480 18392 18396 16255 16481 
2286 2319 2617 2320 16481 18397 18398 16487 16489 18399 
2583 2617 2584 2286 18400 18401 18175 18165 18398 18170 
2286 2319 2616 2617 16481 18392 18396 18398 18397 18402 
2583 2617 2286 2616 18400 18398 18165 18394 18402 18396 
2584 2286 2617 2287 18170 18398 18401 18172 16262 18403 
2617 2286 2320 2287 18398 16487 18399 18403 16262 16488 
2287 2320 2618 2321 16488 18404 18405 16494 16496 18406 
2584 2618 2585 2287 18407 18408 18182 18172 18405 18177 
2287 2320 2617 2618 16488 18399 18403 18405 18404 18409 
2584 2618 2287 2617 18407 18405 18172 18401 18409 18403 
2585 2287 2618 2288 18177 18405 18408 18179 16269 18410 
2618 2287 2321 2288 18405 16494 18406 18410 16269 16495 
2288 2321 2619 2322 16495 18411 18412 16501 16503 18413 
2585 2619 2586 2288 18414 18415 18189 18179 18412 18184 
2288 2321 2618 2619 16495 18406 18410 18412 18411 18416 
2585 2619 2288 2618 18414 18412 18179 18408 18416 18410 
2586 2288 2619 2289 18184 18412 18415 18186 16276 18417 
2619 2288 2322 2289 18412 16501 18413 18417 16276 16502 
2289 2322 2620 2323 16502 18418 18419 16508 16510 18420 
2586 2620 2587 2289 18421 18422 18196 18186 18419 18191 
2289 2322 2619 2620 16502 18413 18417 18419 18418 18423 
2586 2620 2289 2619 18421 18419 18186 18415 18423 18417 
2587 2289 2620 2290 18191 18419 18422 18193 16283 18424 
2620 2289 2323 2290 18419 16508 18420 18424 16283 16509 
2290 2323 2621 2324 16509 18425 18426 16515 16517 18427 
2587 2621 2588 2290 18428 18429 18203 18193 18426 18198 
2290 2323 2620 2621 16509 18420 18424 18426 18425 18430 
2587 2621 2290 2620 18428 18426 18193 18422 18430 18424 
2588 2290 2621 2291 18198 18426 18429 18200 16290 18431 
2621 2290 2324 2291 18426 16515 18427 18431 16290 16516 
2291 2324 2622 2325 16516 18432 18433 16522 16524 18434 
2588 2622 2589 2291 18435 18436 18210 18200 18433 18205 
2291 2324 2621 2622 16516 18427 18431 18433 18432 18437 
2588 2622 2291 2621 18435 18433 18200 18429 18437 18431 
2589 2291 2622 2292 18205 18433 18436 18207 16297 18438 
2622 2291 2325 2292 18433 16522 18434 18438 16297 16523 
2292 2325 2623 2326 16523 18439 18440 16529 16531 18441 
2589 2623 2590 2292 18442 18443 18217 18207 18440 18212 
2292 2325 2622 2623 16523 18434 18438 18440 18439 18444 
2589 2623 2292 2622 18442 18440 18207 18436 18444 18438 
2590 2292 2623 2293 18212 18440 18443 18214 16304 18445 
2623 2292 2326 2293 18440 16529 18441 18445 16304 16530 
2293 2326 2624 2327 16530 18446 18447 16536 16538 18448 
2590 2624 2591 2293 18449 18450 18224 18214 18447 18219 
2293 2326 2623 2624 16530 18441 18445 18447 18446 18451 
2590 2624 2293 2623 18449 18447 18214 18443 18451 18445 
2591 2293 2624 2294 18219 18447 18450 18221 16311 18452 
2624 2293 2327 2294 18447 16536 18448 18452 16311 16537 
2294 2327 2625 2328 16537 18453 18454 16543 16545 18455 
2591 2625 2592 2294 18456 18457 18231 18221 18454 18226 
2294 2327 2624 2625 16537 18448 18452 18454 18453 18458 
2591 2625 2294 2624 18456 18454 18221 18450 18458 18452 
2592 2294 2625 2295 18226 18454 18457 18228 16318 18459 
2625 2294 2328 2295 18454 16543 18455 18459 16318 16544 
2295 2328 2626 2329 16544 18460 18461 16550 16552 18462 
2592 2626 2593 2295 18463 18464 18238 18228 18461 18233 
2295 2328 2625 2626 16544 18455 18459 18461 18460 18465 
2592 2626 2295 2625 18463 18461 18228 18457 18465 18459 
2593 2295 2626 2296 18233 18461 18464 18235 16325 18466 
2626 2295 2329 2296 18461 16550 18462 18466 16325 16551 
2296 2329 2627 2330 16551 18467 18468 16557 16559 18469 
2593 2627 2594 2296 18470 18471 18245 18235 18468 18240 
2296 2329 2626 2627 16551 18462 18466 18468 18467 18472 
2593 2627 2296 2626 18470 18468 18235 18464 18472 18466 
2594 2296 2627 2297 18240 18468 18471 18242 16332 18473 
2627 2296 2330 2297 18468 16557 18469 18473 16332 16558 
2297 2330 2628 2331 16558 18474 18475 16564 16566 18476 
2594 2628 2595 2297 18477 18478 18252 18242 18475 18247 
2297 2330 2627 2628 16558 18469 18473 18475 18474 18479 
2594 2628 2297 2627 18477 18475 18242 18471 18479 18473 
2595 2297 2628 2298 18247 18475 18478 18249 16339 18480 
2628 2297 2331 2298 18475 16564 18476 18480 16339 16565 
2298 2331 2629 2332 16565 18481 18482 16571 16573 18483 
2595 2629 2596 2298 18484 18485 18259 18249 18482 18254 
2298 2331 2628 2629 16565 18476 18480 18482 18481 18486 
2595 2629 2298 2628 18484 18482 18249 18478 18486 18480 
2596 2298 2629 2299 18254 18482 18485 18256 16346 18487 
2629 2298 2332 2299 18482 16571 18483 18487 16346 16572 
2299 2332 2630 2333 16572 18488 18489 16578 16580 18490 
2596 2630 2597 2299 18491 18492 18266 18256 18489 18261 
2299 2332 2629 2630 16572 18483 18487 18489 18488 18493 
2596 2630 2299 2629 18491 18489 18256 18485 18493 18487 
2597 2299 2630 2300 18261 18489 18492 18263 16353 18494 
2630 2299 2333 2300 18489 16578 18490 18494 16353 16579 
2300 2333 2631 2334 16579 18495 18496 16585 16587 18497 
2597 2631 2598 2300 18498 18499 18273 18263 18496 18268 
2300 2333 2630 2631 16579 18490 18494 18496 18495 18500 
2597 2631 2300 2630 18498 18496 18263 18492 18500 18494 
2598 2300 2631 2301 18268 18496 18499 18270 16360 18501 
2631 2300 2334 2301 18496 16585 18497 18501 16360 16586 
2301 2334 2632 2335 16586 18502 18503 16592 16594 18504 
2598 2632 2599 2301 18505 18506 18280 18270 18503 18275 
2301 2334 2631 2632 16586 18497 18501 18503 18502 18507 
2598 2632 2301 2631 18505 18503 18270 18499 18507 18501 
2599 2301 2632 2302 18275 18503 18506 18277 16367 18508 
2632 2301 2335 2302 18503 16592 18504 18508 16367 16593 
2302 2335 2633 2336 16593 18509 18510 16599 16601 18511 
2599 2633 2600 2302 18512 18513 18287 18277 18510 18282 
2302 2335 2632 2633 16593 18504 18508 18510 18509 18514 
2599 2633 2302 2632 18512 18510 18277 18506 18514 18508 
2600 2302 2633 2303 18282 18510 18513 18284 16374 18515 
2633 2302 2336 2303 18510 16599 18511 18515 16374 16600 
2303 2336 2634 2337 16600 18516 18517 16606 16608 18518 
2600 2634 2601 2303 18519 18520 18294 18284 18517 18289 
2303 2336 2633 2634 16600 18511 18515 18517 18516 18521 
2600 2634 2303 2633 18519 18517 18284 18513 18521 18515 
2601 2303 2634 2304 18289 18517 18520 18291 16381 18522 
2634 2303 2337 2304 18517 16606 18518 18522 16381 16607 
2304 2337 2635 2338 16607 18523 18524 16613 16615 18525 
2601 2635 2602 2304 18526 18527 18301 18291 18524 18296 
2304 2337 2634 2635 16607 18518 18522 18524 18523 18528 
2601 2635 2304 2634 18526 18524 18291 18520 18528 18522 
2602 2304 2635 2305 18296 18524 18527 18298 16388 18529 
2635 2304 2338 2305 18524 16613 18525 18529 16388 16614 
2305 2338 2636 2339 16614 18530 18531 16620 16622 18532 
2602 2636 2603 2305 18533 18534 18308 18298 18531 18303 
2305 2338 2635 2636 16614 18525 18529 18531 18530 18535 
2602 2636 2305 2635 18533 18531 18298 18527 18535 18529 
2603 2305 2636 2306 18303 18531 18534 18305 16395 18536 
2636 2305 2339 2306 18531 16620 18532 18536 16395 16621 
2306 2339 2637 2340 16621 18537 18538 16627 16629 18539 
2603 2637 2604 2306 18540 18541 18315 18305 18538 18310 
2306 2339 2636 2637 16621 18532 18536 18538 18537 18542 
2603 2637 2306 2636 18540 18538 18305 18534 18542 18536 
2604 2306 2637 2307 18310 18538 18541 18312 16402 18543 
2637 2306 2340 2307 18538 16627 18539 18543 16402 16628 
2307 2340 2638 2341 16628 18544 18545 16634 16636 18546 
2604 2638 2605 2307 18547 18548 18322 18312 18545 18317 
2307 2340 2637 2638 16628 18539 18543 18545 18544 18549 
2604 2638 2307 2637 18547 18545 18312 18541 18549 18543 
2605 2307 2638 2308 18317 18545 18548 18319 16409 18550 
2638 2307 2341 2308 18545 16634 18546 18550 16409 16635 
2308 2341 2639 2342 16635 18551 18552 16641 16643 18553 
2605 2639 2606 2308 18554 18555 18329 18319 18552 18324 
2308 2341 2638 2639 16635 18546 18550 18552 18551 18556 
2605 2639 2308 2638 18554 18552 18319 18548 18556 18550 
2606 2308 2639 2309 18324 18552 18555 18326 16416 18557 
2639 2308 2342 2309 18552 16641 18553 18557 16416 16642 
2310 2343 2641 2344 16653 18558 18559 16648 16652 18560 
2607 2641 2608 2310 18561 18562 18338 18336 18559 18331 
2310 2343 2640 2641 16653 18563 18564 18559 18558 18565 
2607 2641 2310 2640 18561 18559 18336 18566 18565 18564 
2608 2310 2641 2311 18331 18559 18562 18333 16425 18567 
2641 2310 2344 2311 18559 16648 18560 18567 16425 16649 
2311 2344 2642 2345 16649 18568 18569 16658 16660 18570 
2608 2642 2609 2311 18571 18572 18346 18333 18569 18341 
2311 2344 2641 2642 16649 18560 18567 18569 18568 18573 
2608 2642 2311 2641 18571 18569 18333 18562 18573 18567 
2609 2311 2642 2312 18341 18569 18572 18343 16433 18574 
2642 2311 2345 2312 18569 16658 18570 18574 16433 16659 
2312 2345 2643 2346 16659 18575 18576 16665 16667 18577 
2609 2643 2610 2312 18578 18579 18353 18343 18576 18348 
2312 2345 2642 2643 16659 18570 18574 18576 18575 18580 
2609 2643 2312 2642 18578 18576 18343 18572 18580 18574 
2610 2312 2643 2313 18348 18576 18579 18350 16440 18581 
2643 2312 2346 2313 18576 16665 18577 18581 16440 16666 
2313 2346 2644 2347 16666 18582 18583 16672 16674 18584 
2610 2644 2611 2313 18585 18586 18360 18350 18583 18355 
2313 2346 2643 2644 16666 18577 18581 18583 18582 18587 
2610 2644 2313 2643 18585 18583 18350 18579 18587 18581 
2611 2313 2644 2314 18355 18583 18586 18357 16447 18588 
2644 2313 2347 2314 18583 16672 18584 18588 16447 16673 
2314 2347 2645 2348 16673 18589 18590 16679 16681 18591 
2611 2645 2612 2314 18592 18593 18367 18357 18590 18362 
2314 2347 2644 2645 16673 18584 18588 18590 18589 18594 
2611 2645 2314 2644 18592 18590 18357 18586 18594 18588 
2612 2314 2645 2315 18362 18590 18593 18364 16454 18595 
2645 2314 2348 2315 18590 16679 18591 18595 16454 16680 
2315 2348 2646 2349 16680 18596 18597 16686 16688 18598 
2612 2646 2613 2315 18599 18600 18374 18364 18597 18369 
2315 2348 2645 2646 16680 18591 18595 18597 18596 18601 
2612 2646 2315 2645 18599 18597 18364 18593 18601 18595 
2613 2315 2646 2316 18369 18597 18600 18371 16461 18602 
2646 2315 2349 2316 18597 16686 18598 18602 16461 16687 
2316 2349 2647 2350 16687 18603 18604 16693 16695 18605 
2613 2647 2614 2316 18606 18607 18381 18371 18604 18376 
2316 2349 2646 2647 16687 18598 18602 18604 18603 18608 
2613 2647 2316 2646 18606 18604 18371 18600 18608 18602 
2614 2316 2647 2317 18376 18604 18607 18378 16468 18609 
2647 2316 2350 2317 18604 16693 18605 18609 16468 16694 
2317 2350 2648 2351 16694 18610 18611 16700 16702 18612 
2614 2648 2615 2317 18613 18614 18388 18378 18611 18383 
2317 2350 2647 2648 16694 18605 18609 18611 18610 18615 
2614 2648 2317 2647 18613 18611 18378 18607 18615 18609 
2615 2317 2648 2318 18383 18611 18614 18385 16475 18616 
2648 2317 2351 2318 18611 16700 18612 18616 16475 16701 
2318 2351 2649 2352 16701 18617 18618 16707 16709 18619 
2615 2649 2616 2318 18620 18621 18395 18385 18618 18390 
2318 2351 2648 2649 16701 18612 18616 18618 18617 18622 
2615 2649 2318 2648 18620 18618 18385 18614 18622 18616 
2616 2318 2649 2319 18390 18618 18621 18392 16482 18623 
2649 2318 2352 2319 18618 16707 18619 18623 16482 16708 
2319 2352 2650 2353 16708 18624 18625 16714 16716 18626 
2616 2650 2617 2319 18627 18628 18402 18392 18625 18397 
2319 2352 2649 2650 16708 18619 18623 18625 18624 18629 
2616 2650 2319 2649 18627 18625 18392 18621 18629 18623 
2617 2319 2650 2320 18397 18625 18628 18399 16489 18630 
2650 2319 2353 2320 18625 16714 18626 18630 16489 16715 
2320 2353 2651 2354 16715 18631 18632 16721 16723 18633 
2617 2651 2618 2320 18634 18635 18409 18399 18632 18404 
2320 2353 2650 2651 16715 18626 18630 18632 18631 18636 
2617 2651 2320 2650 18634 18632 18399 18628 18636 18630 
2618 2320 2651 2321 18404 18632 18635 18406 16496 18637 
2651 2320 2354 2321 18632 16721 18633 18637 16496 16722 
2321 2354 2652 2355 16722 18638 18639 16728 16730 18640 
2618 2652 2619 2321 18641 18642 18416 18406 18639 18411 
2321 2354 2651 2652 16722 18633 18637 18639 18638 18643 
2618 2652 2321 2651 18641 18639 18406 18635 18643 18637 
2619 2321 2652 2322 18411 18639 18642 18413 16503 18644 
2652 2321 2355 2322 18639 16728 18640 18644 16503 16729 
2322 2355 2653 2356 16729 18645 18646 16735 16737 18647 
2619 2653 2620 2322 18648 18649 18423 18413 18646 18418 
2322 2355 2652 2653 16729 18640 18644 18646 18645 18650 
2619 2653 2322 2652 18648 18646 18413 18642 18650 18644 
2620 2322 2653 2323 18418 18646 18649 18420 16510 18651 
2653 2322 2356 2323 18646 16735 18647 18651 16510 16736 
2323 2356 2654 2357 16736 18652 18653 16742 16744 18654 
2620 2654 2621 2323 18655 18656 18430 18420 18653 18425 
2323 2356 2653 2654 16736 18647 18651 18653 18652 18657 
2620 2654 2323 2653 18655 18653 18420 18649 18657 18651 
2621 2323 2654 2324 18425 18653 18656 18427 16517 18658 
2654 2323 2357 2324 18653 16742 18654 18658 16517 16743 
2324 2357 2655 2358 16743 18659 18660 16749 16751 18661 
2621 2655 2622 2324 18662 18663 18437 18427 18660 18432 
2324 2357 2654 2655 16743 18654 18658 18660 18659 18664 
2621 2655 2324 2654 18662 18660 18427 18656 18664 18658 
2622 2324 2655 2325 18432 18660 18663 18434 16524 18665 
2655 2324 2358 2325 18660 16749 18661 18665 16524 16750 
2325 2358 2656 2359 16750 18666 18667 16756 16758 18668 
2622 2656 2623 2325 18669 18670 18444 18434 18667 18439 
2325 2358 2655 2656 16750 18661 18665 18667 18666 18671 
2622 2656 2325 2655 18669 18667 18434 18663 18671 18665 
2623 2325 2656 2326 18439 18667 18670 18441 16531 18672 
2656 2325 2359 2326 18667 16756 18668 18672 16531 16757 
2326 2359 2657 2360 16757 18673 18674 16763 16765 18675 
2623 2657 2624 2326 18676 18677 18451 18441 18674 18446 
2326 2359 2656 2657 16757 18668 18672 18674 18673 18678 
2623 2657 2326 2656 18676 18674 18441 18670 18678 18672 
2624 2326 2657 2327 18446 18674 18677 18448 16538 18679 
2657 2326 2360 2327 18674 16763 18675 18679 16538 16764 
2327 2360 2658 2361 16764 18680 18681 16770 16772 18682 
2624 2658 2625 2327 18683 18684 18458 18448 18681 18453 
2327 2360 2657 2658 16764 18675 18679 18681 18680 18685 
2624 2658 2327 2657 18683 18681 18448 18677 18685 18679 
2625 2327 2658 2328 18453 18681 18684 18455 16545 18686 
2658 2327 2361 2328 18681 16770 18682 18686 16545 16771 
2328 2361 2659 2362 16771 18687 18688 16777 16779 18689 
2625 2659 2626 2328 18690 18691 18465 18455 18688 18460 
2328 2361 2658 2659 16771 18682 18686 18688 18687 18692 
2625 2659 2328 2658 18690 18688 18455 18684 18692 18686 
2626 2328 2659 2329 18460 18688 18691 18462 16552 18693 
2659 2328 2362 2329 18688 16777 18689 18693 16552 16778 
2329 2362 2660 2363 16778 18694 18695 16784 16786 18696 
2626 2660 2627 2329 18697 18698 18472 18462 18695 18467 
2329 2362 2659 2660 16778 18689 18693 18695 18694 18699 
2626 2660 2329 2659 18697 18695 18462 18691 18699 18693 
2627 2329 2660 2330 18467 18695 18698 18469 16559 18700 
2660 2329 2363 2330 18695 16784 18696 18700 16559 16785 
2330 2363 2661 2364 16785 18701 18702 16791 16793 18703 
2627 2661 2628 2330 18704 18705 18479 18469 18702 18474 
2330 2363 2660 2661 16785 18696 18700 18702 18701 18706 
2627 2661 2330 2660 18704 18702 18469 18698 18706 18700 
2628 2330 2661 2331 18474 18702 18705 18476 16566 18707 
2661 2330 2364 2331 18702 16791 18703 18707 16566 16792 
2331 2364 2662 2365 16792 18708 18709 16798 16800 18710 
2628 2662 2629 2331 18711 18712 18486 18476 18709 18481 
2331 2364 2661 2662 16792 18703 18707 18709 18708 18713 
2628 2662 2331 2661 18711 18709 18476 18705 18713 18707 
2629 2331 2662 2332 18481 18709 18712 18483 16573 18714 
2662 2331 2365 2332 18709 16798 18710 18714 16573 16799 
2332 2365 2663 2366 16799 18715 18716 16805 16807 18717 
2629 2663 2630 2332 18718 18719 18493 18483 18716 18488 
2332 2365 2662 2663 16799 18710 18714 18716 18715 18720 
2629 2663 2332 2662 18718 18716 18483 18712 18720 18714 
2630 2332 2663 2333 18488 18716 18719 18490 16580 18721 
2663 2332 2366 2333 18716 16805 18717 18721 16580 16806 
2333 2366 2664 2367 16806 18722 18723 16812 16814 18724 
2630 2664 2631 2333 18725 18726 18500 18490 18723 18495 
2333 2366 2663 2664 16806 18717 18721 18723 18722 18727 
2630 2664 2333 2663 18725 18723 18490 18719 18727 18721 
2631 2333 2664 2334 18495 18723 18726 18497 16587 18728 
2664 2333 2367 2334 18723 16812 18724 18728 16587 16813 
2334 2367 2665 2368 16813 18729 18730 16819 16821 18731 
2631 2665 2632 2334 18732 18733 18507 18497 18730 18502 
2334 2367 2664 2665 16813 18724 18728 18730 18729 18734 
2631 2665 2334 2664 18732 18730 18497 18726 18734 18728 
2632 2334 2665 2335 18502 18730 18733 18504 16594 18735 
2665 2334 2368 2335 18730 16819 18731 18735 16594 16820 
2335 2368 2666 2369 16820 18736 18737 16826 16828 18738 
2632 2666 2633 2335 18739 18740 18514 18504 18737 18509 
2335 2368 2665 2666 16820 18731 18735 18737 18736 18741 
2632 2666 2335 2665 18739 18737 18504 18733 18741 18735 
2633 2335 2666 2336 18509 18737 18740 18511 16601 18742 
2666 2335 2369 2336 18737 16826 18738 18742 16601 16827 
2336 2369 2667 2370 16827 18743 18744 16833 16835 18745 
2633 2667 2634 2336 18746 18747 18521 18511 18744 18516 
2336 2369 2666 2667 16827 18738 18742 18744 18743 18748 
2633 2667 2336 2666 18746 18744 18511 18740 18748 18742 
2634 2336 2667 2337 18516 18744 18747 18518 16608 18749 
2667 2336 2370 2337 18744 16833 18745 18749 16608 16834 
2337 2370 2668 2371 16834 18750 18751 16840 16842 18752 
2634 2668 2635 2337 18753 18754 18528 18518 18751 18523 
2337 2370 2667 2668 16834 18745 18749 18751 18750 18755 
2634 2668 2337 2667 18753 18751 18518 18747 18755 18749 
2635 2337 2668 2338 18523 18751 18754 18525 16615 18756 
2668 2337 2371 2338 18751 16840 18752 18756 16615 16841 
2338 2371 2669 2372 16841 18757 18758 16847 16849 18759 
2635 2669 2636 2338 18760 18761 18535 18525 18758 18530 
2338 2371 2668 2669 16841 18752 18756 18758 18757 18762 
2635 2669 2338 2668 18760 18758 18525 18754 18762 18756 
2636 2338 2669 2339 18530 18758 18761 18532 16622 18763 
2669 2338 2372 2339 18758 16847 18759 18763 16622 16848 
2339 2372 2670 2373 16848 18764 18765 16854 16856 18766 
2636 2670 2637 2339 18767 18768 18542 18532 18765 18537 
2339 2372 2669 2670 16848 18759 18763 18765 18764 18769 
2636 2670 2339 2669 18767 18765 18532 18761 18769 18763 
2637 2339 2670 2340 18537 18765 18768 18539 16629 18770 
2670 2339 2373 2340 18765 16854 18766 18770 16629 16855 
2340 2373 2671 2374 16855 18771 18772 16861 16863 18773 
2637 2671 2638 2340 18774 18775 18549 18539 18772 18544 
2340 2373 2670 2671 16855 18766 18770 18772 18771 18776 
2637 2671 2340 2670 18774 18772 18539 18768 18776 18770 
2638 2340 2671 2341 18544 18772 18775 18546 16636 18777 
2671 2340 2374 2341 18772 16861 18773 18777 16636 16862 
2341 2374 2672 2375 16862 18778 18779 16868 16870 18780 
2638 2672 2639 2341 18781 18782 18556 18546 18779 18551 
2341 2374 2671 2672 16862 18773 18777 18779 18778 18783 
2638 2672 2341 2671 18781 18779 18546 18775 18783 18777 
2639 2341 2672 2342 18551 18779 18782 18553 16643 18784 
2672 2341 2375 2342 18779 16868 18780 18784 16643 16869 
CELL_TYPES 12288
24 24 24 24 24 24 24 24 24 24 24 24 24 24 24 24 24 24 24 24 24 24 24 24 24 24 24 24 24 24 24 24 24 24 24 24 24 24 24 24 24 24 24 24 24 24 24 24 24 24 24 24 24 24 24 24 24 24 24 24 24 24 24 24 24 24 24 24 24 24 24 24 24 24 24 24 24 24 24 24 24 24 24 24 24 24 24 24 24 24 24 24 24 24 24 24 24 24 24 24 24 24 24 24 24 24 24 24 24 24 24 24 24 24 24 24 24 24 24 24 24 24 24 24 24 24 24 24 24 24 24 24 24 24 24 24 24 24 24 24 24 24 24 24 24 24 24 24 24 24 24 24 24 24 24 24 24 24 24 24 24 24 24 24 24 24 24 24 24 24 24 24 24 24 24 24 24 24 24 24 24 24 24 24 24 24 24 24 24 24 24 24 24 24 24 24 24 24 24 24 24 24 24 24 24 24 24 24 24 24 24 24 24 24 24 24 24 24 24 24 24 24 24 24 24 24 24 24 24 24 24 24 24 24 24 24 24 24 24 24 24 24 24 24 24 24 24 24 24 24 24 24 24 24 24 24 24 24 24 24 24 24 24 24 24 24 24 24 24 24 24 24 24 24 24 24 24 24 24 24 24 24 24 24 24 24 24 24 24 24 24 24 24 24 24 24 24 24 24 24 24 24 24 24 24 24 24 24 24 24 24 24 24 24 24 24 24 24 24 24 24 24 24 24 24 24 24 24 24 24 24 24 24 24 24 24 24 24 24 24 24 24 24 24 24 24 24 24 24 24 24 24 24 24 24 24 24 24 24 24 24 24 24 24 24 24 24 24 24 24 24 24 24 24 24 24 24 24 24 24 24 24 24 24 24 24 24 24 24 24 24 24 24 24 24 24 24 24 24 24 24 24 24 24 24 24 24 24 24 24 24 24 24 24 24 24 24 24 24 24 24 24 24 24 24 24 24 24 24 24 24 24 24 24 24 24 24 24 24 24 24 24 24 24 24 24 24 24 24 24 24 24 24 24 24 24 24 24 24 24 24 24 24 24 24 24 24 24 24 24 24 24 24 24 24 24 24 24 24 24 24 24 24 24 24 24 24 24 24 24 24 24 24 24 24 24 24 24 24 24 24 24 24 24 24 24 24 24 24 24 24 24 24 24 24 24 24 24 24 24 24 24 24 24 24 24 24 24 24 24 24 24 24 24 24 24 24 24 24 24 24 24 24 24 24 24 24 24 24 24 24 24 24 24 24 24 24 24 24 24 24 24 24 24 24 24 24 24 24 24 24 24 24 24 24 24 24 24 24 24 24 24 24 24 24 24 24 24 24 24 24 24 24 24 24 24 24 24 24 24 24 24 24 24 24 24 24 24 24 24 24 24 24 24 24 24 24 24 24 24 24 24 24 24 24 24 24 24 24 24 24 24 24 24 24 24 24 24 24 24 24 24 24 24 24 24 24 24 24 24 24 24 24 24 24 24 24 24 24 24 24 24 24 24 24 24 24 24 24 24 24 24 24 24 24 24 24 24 24 24 24 24 24 24 24 24 24 24 24 24 24 24 24 24 24 24 24 24 24 24 24 24 24 24 24 24 24 24 24 24 24 24 24 24 24 24 24 24 24 24 24 24 24 24 24 24 24 24 24 24 24 24 24 24 24 24 24 24 24 24 24 24 24 24 24 24 24 24 24 24 24 24 24 24 24 24 24 24 24 24 24 24 24 24 24 24 24 24 24 24 24 24 24 24 24 24 24 24 24 24 24 24 24 24 24 24 24 24 24 24 24 24 24 24 24 24 24 24 24 24 24 24 24 24 24 24 24 24 24 24 24 24 24 24 24 24 24 24 24 24 24 24 24 24 24 24 24 24 24 24 24 24 24 24 24 24 24 24 24 24 24 24 24 24 24 24 24 24 24 24 24 24 24 24 24 24 24 24 24 24 24 24 24 24 24 24 24 24 24 24 24 24 24 24 24 24 24 24 24 24 24 24 24 24 24 24 24 24 24 24 24 24 24 24 24 24 24 24 24 24 24 24 24 24 24 24 24 24 24 24 24 24 24 24 24 24 24 24 24 24 24 24 24 24 24 24 24 24 24 24 24 24 24 24 24 24 24 24 24 24 24 24 24 24 24 24 24 24 24 24 24 24 24 24 24 24 24 24 24 24 24 24 24 24 24 24 24 24 24 24 24 24 24 24 24 24 24 24 24 24 24 24 24 24 24 24 24 24 24 24 24 24 24 24 24 24 24 24 24 24 24 24 24 24 24 24 24 24 24 24 24 24 24 24 24 24 24 24 24 24 24 24 24 24 24 24 24 24 24 24 24 24 24 24 24 24 24 24 24 24 24 24 24 24 24 24 24 24 24 24 24 24 24 24 24 24 24 24 24 24 24 24 24 24 24 24 24 24 24 24 24 24 24 24 24 24 24 24 24 24 24 24 24 24 24 24 24 24 24 24 24 24 24 24 24 24 24 24 24 24 24 24 24 24 24 24 24 24 24 24 24 24 24 24 24 24 24 24 24 24 24 24 24 24 24 24 24 24 24 24 24 24 24 24 24 24 24 24 24 24 24 24 24 24 24 24 24 24 24 24 24 24 24 24 24 24 24 24 24 24 24 24 24 24 24 24 24 24 24 24 24 24 24 24 24 24 24 24 24 24 24 24 24 24 24 24 24 24 24 24 24 24 24 24 24 24 24 24 24 24 24 24 24 24 24 24 24 24 24 24 24 24 24 24 24 24 24 24 24 24 24 24 24 24 24 24 24 24 24 24 24 24 24 24 24 24 24 24 24 24 24 24 24 24 24 24 24 24 24 24 24 24 24 24 24 24 24 24 24 24 24 24 24 24 24 24 24 24 24 24 24 24 24 24 24 24 24 24 24 24 24 24 24 24 24 24 24 24 24 24 24 24 24 24 24 24 24 24 24 24 24 24 24 24 24 24 24 24 24 24 24 24 24 24 24 24 24 24 24 24 24 24 24 24 24 24 24 24 24 24 24 24 24 24 24 24 24 24 24 24 24 24 24 24 24 24 24 24 24 24 24 24 24 24 24 24 24 24 24 24 24 24 24 24 24 24 24 24 24 24 24 24 24 24 24 24 24 24 24 24 24 24 24 24 24 24 24 24 24 24 24 24 24 24 24 24 24 24 24 24 24 24 24 24 24 24 24 24 24 24 24 24 24 24 24 24 24 24 24 24 24 24 24 24 24 24 24 24 24 24 24 24 24 24 24 24 24 24 24 24 24 24 24 24 24 24 24 24 24 24 24 24 24 24 24 24 24 24 24 24 24 24 24 24 24 24 24 24 24 24 24 24 24 24 24 24 24 24 24 24 24 24 24 24 24 24 24 24 24 24 24 24 24 24 24 24 24 24 24 24 24 24 24 24 24 24 24 24 24 24 24 24 24 24 24 24 24 24 24 24 24 24 24 24 24 24 24 24 24 24 24 24 24 24 24 24 24 24 24 24 24 24 24 24 24 24 24 24 24 24 24 24 24 24 24 24 24 24 24 24 24 24 24 24 24 24 24 24 24 24 24 24 24 24 24 24 24 24 24 24 24 24 24 24 24 24 24 24 24 24 24 24 24 24 24 24 24 24 24 24 24 24 24 24 24 24 24 24 24 24 24 24 24 24 24 24 24 24 24 24 24 24 24 24 24 24 24 24 24 24 24 24 24 24 24 24 24 24 24 24 24 24 24 24 24 24 24 24 24 24 24 24 24 24 24 24 24 24 24 24 24 24 24 24 24 24 24 24 24 24 24 24 24 24 24 24 24 24 24 24 24 24 24 24 24 24 24 24 24 24 24 24 24 24 24 24 24 24 24 24 24 24 24 24 24 24 24 24 24 24 24 24 24 24 24 24 24 24 24 24 24 24 24 24 24 24 24 24 24 24 24 24 24 24 24 24 24 24 24 24 24 24 24 24 24 24 24 24 24 24 24 24 24 24 24 24 24 24 24 24 24 24 24 24 24 24 24 24 24 24 24 24 24 24 24 24 24 24 24 24 24 24 24 24 24 24 24 24 24 24 24 24 24 24 24 24 24 24 24 24 24 24 24 24 24 24 24 24 24 24 24 24 24 24 24 24 24 24 24 24 24 24 24 24 24 24 24 24 24 24 24 24 24 24 24 24 24 24 24 24 24 24 24 24 24 24 24 24 24 24 24 24 24 24 24 24 24 24 24 24 24 24 24 24 24 24 24 24 24 24 24 24 24 24 24 24 24 24 24 24 24 24 24 24 24 24 24 24 24 24 24 24 24 24 24 24 24 24 24 24 24 24 24 24 24 24 24 24 24 24 24 24 24 24 24 24 24 24 24 24 24 24 24 24 24 24 24 24 24 24 24 24 24 24 24 24 24 24 24 24 24 24 24 24 24 24 24 24 24 24 24 24 24 24 24 24 24 24 24 24 24 24 24 24 24 24 24 24 24 24 24 24 24 24 24 24 24 24 24 24 24 24 24 24 24 24 24 24 24 24 24 24 24 24 24 24 24 24 24 24 24 24 24 24 24 24 24 24 24 24 24 24 24 24 24 24 24 24 24 24 24 24 24 24 24 24 24 24 24 24 24 24 24 24 24 24 24 24 24 24 24 24 24 24 24 24 24 24 24 24 24 24 24 24 24 24 24 24 24 24 24 24 24 24 24 24 24 24 24 24 24 24 24 24 24 24 24 24 24 24 24 24 24 24 24 24 24 24 24 24 24 24 24 24 24 24 24 24 24 24 24 24 24 24 24 24 24 24 24 24 24 24 24 24 24 24 24 24 24 24 24 24 24 24 24 24 24 24 24 24 24 24 24 24 24 24 24 24 24 24 24 24 24 24 24 24 24 24 24 24 24 24 24 24 24 24 24 24 24 24 24 24 24 24 24 24 24 24 24 24 24 24 24 24 24 24 24 24 24 24 24 24 24 24 24 24 24 24 24 24 24 24 24 24 24 24 24 24 24 24 24 24 24 24 24 24 24 24 24 24 24 24 24 24 24 24 24 24 24 24 24 24 24 24 24 24 24 24 24 24 24 24 24 24 24 24 24 24 24 24 24 24 24 24 24 24 24 24 24 24 24 24 24 24 24 24 24 24 24 24 24 24 24 24 24 24 24 24 24 24 24 24 24 24 24 24 24 24 24 24 24 24 24 24 24 24 24 24 24 24 24 24 24 24 24 24 24 24 24 24 24 24 24 24 24 24 24 24 24 24 24 24 24 24 24 24 24 24 24 24 24 24 24 24 24 24 24 24 24 24 24 24 24 24 24 24 24 24 24 24 24 24 24 24 24 24 24 24 24 24 24 24 24 24 24 24 24 24 24 24 24 24 24 24 24 24 24 24 24 24 24 24 24 24 24 24 24 24 24 24 24 24 24 24 24 24 24 24 24 24 24 24 24 24 24 24 24 24 24 24 24 24 24 24 24 24 24 24 24 24 24 24 24 24 24 24 24 24 24 24 24 24 24 24 24 24 24 24 24 24 24 24 24 24 24 24 24 24 24 24 24 24 24 24 24 24 24 24 24 24 24 24 24 24 24 24 24 24 24 24 24 24 24 24 24 24 24 24 24 24 24 24 24 24 24 24 24 24 24 24 24 24 24 24 24 24 24 24 24 24 24 24 24 24 24 24 24 24 24 24 24 24 24 24 24 24 24 24 24 24 24 24 24 24 24 24 24 24 24 24 24 24 24 24 24 24 24 24 24 24 24 24 24 24 24 24 24 24 24 24 24 24 24 24 24 24 24 24 24 24 24 24 24 24 24 24 24 24 24 24 24 24 24 24 24 24 24 24 24 24 24 24 24 24 24 24 24 24 24 24 24 24 24 24 24 24 24 24 24 24 24 24 24 24 24 24 24 24 24 24 24 24 24 24 24 24 24 24 24 24 24 24 24 24 24 24 24 24 24 24 24 24 24 24 24 24 24 24 24 24 24 24 24 24 24 24 24 24 24 24 24 24 24 24 24 24 24 24 24 24 24 24 24 24 24 24 24 24 24 24 24 24 24 24 24 24 24 24 24 24 24 24 24 24 24 24 24 24 24 24 24 24 24 24 24 24 24 24 24 24 24 24 24 24 24 24 24 24 24 24 24 24 24 24 24 24 24 24 24 24 24 24 24 24 24 24 24 24 24 24 24 24 24 24 24 24 24 24 24 24 24 24 24 24 24 24 24 24 24 24 24 24 24 24 24 24 24 24 24 24 24 24 24 24 24 24 24 24 24 24 24 24 24 24 24 24 24 24 24 24 24 24 24 24 24 24 24 24 24 24 24 24 24 24 24 24 24 24 24 24 24 24 24 24 24 24 24 24 24 24 24 24 24 24 24 24 24 24 24 24 24 24 24 24 24 24 24 24 24 24 24 24 24 24 24 24 24 24 24 24 24 24 24 24 24 24 24 24 24 24 24 24 24 24 24 24 24 24 24 24 24 24 24 24 24 24 24 24 24 24 24 24 24 24 24 24 24 24 24 24 24 24 24 24 24 24 24 24 24 24 24 24 24 24 24 24 24 24 24 24 24 24 24 24 24 24 24 24 24 24 24 24 24 24 24 24 24 24 24 24 24 24 24 24 24 24 24 24 24 24 24 24 24 24 24 24 24 24 24 24 24 24 24 24 24 24 24 24 24 24 24 24 24 24 24 24 24 24 24 24 24 24 24 24 24 24 24 24 24 24 24 24 24 24 24 24 24 24 24 24 24 24 24 24 24 24 24 24 24 24 24 24 24 24 24 24 24 24 24 24 24 24 24 24 24 24 24 24 24 24 24 24 24 24 24 24 24 24 24 24 24 24 24 24 24 24 24 24 24 24 24 24 24 24 24 24 24 24 24 24 24 24 24 24 24 24 24 24 24 24 24 24 24 24 24 24 24 24 24 24 24 24 24 24 24 24 24 24 24 24 24 24 24 24 24 24 24 24 24 24 24 24 24 24 24 24 24 24 24 24 24 24 24 24 24 24 24 24 24 24 24 24 24 24 24 24 24 24 24 24 24 24 24 24 24 24 24 24 24 24 24 24 24 24 24 24 24 24 24 24 24 24 24 24 24 24 24 24 24 24 24 24 24 24 24 24 24 24 24 24 24 24 24 24 24 24 24 24 24 24 24 24 24 24 24 24 24 24 24 24 24 24 24 24 24 24 24 24 24 24 24 24 24 24 24 24 24 24 24 24 24 24 24 24 24 24 24 24 24 24 24 24 24 24 24 24 24 24 24 24 24 24 24 24 24 24 24 24 24 24 24 24 24 24 24 24 24 24 24 24 24 24 24 24 24 24 24 24 24 24 24 24 24 24 24 24 24 24 24 24 24 24 24 24 24 24 24 24 24 24 24 24 24 24 24 24 24 24 24 24 24 24 24 24 24 24 24 24 24 24 24 24 24 24 24 24 24 24 24 24 24 24 24 24 24 24 24 24 24 24 24 24 24 24 24 24 24 24 24 24 24 24 24 24 24 24 24 24 24 24 24 24 24 24 24 24 24 24 24 24 24 24 24 24 24 24 24 24 24 24 24 24 24 24 24 24 24 24 24 24 24 24 24 24 24 24 24 24 24 24 24 24 24 24 24 24 24 24 24 24 24 24 24 24 24 24 24 24 24 24 24 24 24 24 24 24 24 24 24 24 24 24 24 24 24 24 24 24 24 24 24 24 24 24 24 24 24 24 24 24 24 24 24 24 24 24 24 24 24 24 24 24 24 24 24 24 24 24 24 24 24 24 24 24 24 24 24 24 24 24 24 24 24 24 24 24 24 24 24 24 24 24 24 24 24 24 24 24 24 24 24 24 24 24 24 24 24 24 24 24 24 24 24 24 24 24 24 24 24 24 24 24 24 24 24 24 24 24 24 24 24 24 24 24 24 24 24 24 24 24 24 24 24 24 24 24 24 24 24 24 24 24 24 24 24 24 24 24 24 24 24 24 24 24 24 24 24 24 24 24 24 24 24 24 24 24 24 24 24 24 24 24 24 24 24 24 24 24 24 24 24 24 24 24 24 24 24 24 24 24 24 24 24 24 24 24 24 24 24 24 24 24 24 24 24 24 24 24 24 24 24 24 24 24 24 24 24 24 24 24 24 24 24 24 24 24 24 24 24 24 24 24 24 24 24 24 24 24 24 24 24 24 24 24 24 24 24 24 24 24 24 24 24 24 24 24 24 24 24 24 24 24 24 24 24 24 24 24 24 24 24 24 24 24 24 24 24 24 24 24 24 24 24 24 24 24 24 24 24 24 24 24 24 24 24 24 24 24 24 24 24 24 24 24 24 24 24 24 24 24 24 24 24 24 24 24 24 24 24 24 24 24 24 24 24 24 24 24 24 24 24 24 24 24 24 24 24 24 24 24 24 24 24 24 24 24 24 24 24 24 24 24 24 24 24 24 24 24 24 24 24 24 24 24 24 24 24 24 24 24 24 24 24 24 24 24 24 24 24 24 24 24 24 24 24 24 24 24 24 24 24 24 24 24 24 24 24 24 24 24 24 24 24 24 24 24 24 24 24 24 24 24 24 24 24 24 24 24 24 24 24 24 24 24 24 24 24 24 24 24 24 24 24 24 24 24 24 24 24 24 24 24 24 24 24 24 24 24 24 24 24 24 24 24 24 24 24 24 24 24 24 24 24 24 24 24 24 24 24 24 24 24 24 24 24 24 24 24 24 24 24 24 24 24 24 24 24 24 24 24 24 24 24 24 24 24 24 24 24 24 24 24 24 24 24 24 24 24 24 24 24 24 24 24 24 24 24 24 24 24 24 24 24 24 24 24 24 24 24 24 24 24 24 24 24 24 24 24 24 24 24 24 24 24 24 24 24 24 24 24 24 24 24 24 24 24 24 24 24 24 24 24 24 24 24 24 24 24 24 24 24 24 24 24 24 24 24 24 24 24 24 24 24 24 24 24 24 24 24 24 24 24 24 24 24 24 24 24 24 24 24 24 24 24 24 24 24 24 24 24 24 24 24 24 24 24 24 24 24 24 24 24 24 24 24 24 24 24 24 24 24 24 24 24 24 24 24 24 24 24 24 24 24 24 24 24 24 24 24 24 24 24 24 24 24 24 24 24 24 24 24 24 24 24 24 24 24 24 24 24 24 24 24 24 24 24 24 24 24 24 24 24 24 24 24 24 24 24 24 24 24 24 24 24 24 24 24 24 24 24 24 24 24 24 24 24 24 24 24 24 24 24 24 24 24 24 24 24 24 24 24 24 24 24 24 24 24 24 24 24 24 24 24 24 24 24 24 24 24 24 24 24 24 24 24 24 24 24 24 24 24 24 24 24 24 24 24 24 24 24 24 24 24 24 24 24 24 24 24 24 24 24 24 24 24 24 24 24 24 24 24 24 24 24 24 24 24 24 24 24 24 24 24 24 24 24 24 24 24 24 24 24 24 24 24 24 24 24 24 24 24 24 24 24 24 24 24 24 24 24 24 24 24 24 24 24 24 24 24 24 24 24 24 24 24 24 24 24 24 24 24 24 24 24 24 24 24 24 24 24 24 24 24 24 24 24 24 24 24 24 24 24 24 24 24 24 24 24 24 24 24 24 24 24 24 24 24 24 24 24 24 24 24 24 24 24 24 24 24 24 24 24 24 24 24 24 24 24 24 24 24 24 24 24 24 24 24 24 24 24 24 24 24 24 24 24 24 24 24 24 24 24 24 24 24 24 24 24 24 24 24 24 24 24 24 24 24 24 24 24 24 24 24 24 24 24 24 24 24 24 24 24 24 24 24 24 24 24 24 24 24 24 24 24 24 24 24 24 24 24 24 24 24 24 24 24 24 24 24 24 24 24 24 24 24 24 24 24 24 24 24 24 24 24 24 24 24 24 24 24 24 24 24 24 24 24 24 24 24 24 24 24 24 24 24 24 24 24 24 24 24 24 24 24 24 24 24 24 24 24 24 24 24 24 24 24 24 24 24 24 24 24 24 24 24 24 24 24 24 24 24 24 24 24 24 24 24 24 24 24 24 24 24 24 24 24 24 24 24 24 24 24 24 24 24 24 24 24 24 24 24 24 24 24 24 24 24 24 24 24 24 24 24 24 24 24 24 24 24 24 24 24 24 24 24 24 24 24 24 24 24 24 24 24 24 24 24 24 24 24 24 24 24 24 24 24 24 24 24 24 24 24 24 24 24 24 24 24 24 24 24 24 24 24 24 24 24 24 24 24 24 24 24 24 24 24 24 24 24 24 24 24 24 24 24 24 24 24 24 24 24 24 24 24 24 24 24 24 24 24 24 24 24 24 24 24 24 24 24 24 24 24 24 24 24 24 24 24 24 24 24 24 24 24 24 24 24 24 24 24 24 24 24 24 24 24 24 24 24 24 24 24 24 24 24 24 24 24 24 24 24 24 24 24 24 24 24 24 24 24 24 24 24 24 24 24 24 24 24 24 24 24 24 24 24 24 24 24 24 24 24 24 24 24 24 24 24 24 24 24 24 24 24 24 24 24 24 24 24 24 24 24 24 24 24 24 24 24 24 24 24 24 24 24 24 24 24 24 24 24 24 24 24 24 24 24 24 24 24 24 24 24 24 24 24 24 24 24 24 24 24 24 24 24 24 24 24 24 24 24 24 24 24 24 24 24 24 24 24 24 24 24 24 24 24 24 24 24 24 24 24 24 24 24 24 24 24 24 24 24 24 24 24 24 24 24 24 24 24 24 24 24 24 24 24 24 24 24 24 24 24 24 24 24 24 24 24 24 24 24 24 24 24 24 24 24 24 24 24 24 24 24 24 24 24 24 24 24 24 24 24 24 24 24 24 24 24 24 24 24 24 24 24 24 24 24 24 24 24 24 24 24 24 24 24 24 24 24 24 24 24 24 24 24 24 24 24 24 24 24 24 24 24 24 24 24 24 24 24 24 24 24 24 24 24 24 24 24 24 24 24 24 24 24 24 24 24 24 24 24 24 24 24 24 24 24 24 24 24 24 24 24 24 24 24 24 24 24 24 24 24 24 24 24 24 24 24 24 24 24 24 24 24 24 24 24 24 24 24 24 24 24 24 24 24 24 24 24 24 24 24 24 24 24 24 24 24 24 24 24 24 24 24 24 24 24 24 24 24 24 24 24 24 24 24 24 24 24 24 24 24 24 24 24 24 24 24 24 24 24 24 24 24 24 24 24 24 24 24 24 24 24 24 24 24 24 24 24 24 24 24 24 24 24 24 24 24 24 24 24 24 24 24 24 24 24 24 24 24 24 24 24 24 24 24 24 24 24 24 24 24 24 24 24 24 24 24 24 24 24 24 24 24 24 24 24 24 24 24 24 24 24 24 24 24 24 24 24 24 24 24 24 24 24 24 24 24 24 24 24 24 24 24 24 24 24 24 24 24 24 24 24 24 24 24 24 24 24 24 24 24 24 24 24 24 24 24 24 24 24 24 24 24 24 24 24 24 24 24 24 24 24 24 24 24 24 24 24 24 24 24 24 24 24 24 24 24 24 24 24 24 24 24 24 24 24 24 24 24 24 24 24 24 24 24 24 24 24 24 24 24 24 24 24 24 24 24 24 24 24 24 24 24 24 24 24 24 24 24 24 24 24 24 24 24 24 24 24 24 24 24 24 24 24 24 24 24 24 24 24 24 24 24 24 24 24 24 24 24 24 24 24 24 24 24 24 24 24 24 24 24 24 24 24 24 24 24 24 24 24 24 24 24 24 24 24 24 24 24 24 24 24 24 24 24 24 24 24 24 24 24 24 24 24 24 24 24 24 24 24 24 24 24 24 24 24 24 24 24 24 24 24 24 24 24 24 24 24 24 24 24 24 24 24 24 24 24 24 24 24 24 24 24 24 24 24 24 24 24 24 24 24 24 24 24 24 24 24 24 24 24 24 24 24 24 24 24 24 24 24 24 24 24 24 24 24 24 24 24 24 24 24 24 24 24 24 24 24 24 24 24 24 24 24 24 24 24 24 24 24 24 24 24 24 24 24 24 24 24 24 24 24 24 24 24 24 24 24 24 24 24 24 24 24 24 24 24 24 24 24 24 24 24 24 24 24 24 24 24 24 24 24 24 24 24 24 24 24 24 24 24 24 24 24 24 24 24 24 24 24 24 24 24 24 24 24 24 24 24 24 24 24 24 24 24 24 24 24 24 24 24 24 24 24 24 24 24 24 24 24 24 24 24 24 24 24 24 24 24 24 24 24 24 24 24 24 24 24 24 24 24 24 24 24 24 24 24 24 24 24 24 24 24 24 24 24 24 24 24 24 24 24 24 24 24 24 24 24 24 24 24 24 24 24 24 24 24 24 24 24 24 24 24 24 24 24 24 24 24 24 24 24 24 24 24 24 24 24 24 24 24 24 24 24 24 24 24 24 24 24 24 24 24 24 24 24 24 24 24 24 24 24 24 24 24 24 24 24 24 24 24 24 24 24 24 24 24 24 24 24 24 24 24 24 24 24 24 24 24 24 24 24 24 24 24 24 24 24 24 24 24 24 24 24 24 24 24 24 24 24 24 24 24 24 24 24 24 24 24 24 24 24 24 24 24 24 24 24 24 24 24 24 24 24 24 24 24 24 24 24 24 24 24 24 24 24 24 24 24 24 24 24 24 24 24 24 24 24 24 24 24 24 24 24 24 24 24 24 24 24 24 24 24 24 24 24 24 24 24 24 24 24 24 24 24 24 24 24 24 24 24 24 24 24 24 24 24 24 24 24 24 24 24 24 24 24 24 24 24 24 24 24 24 24 24 24 24 24 24 24 24 24 24 24 24 24 24 24 24 24 24 24 24 24 24 24 24 24 24 24 24 24 24 24 24 24 24 24 24 24 24 24 24 24 24 24 24 24 24 24 24 24 24 24 24 24 24 24 24 24 24 24 24 24 24 24 24 24 24 24 24 24 24 24 24 24 24 24 24 24 24 24 24 24 24 24 24 24 24 24 24 24 24 24 24 24 24 24 24 24 24 24 24 24 24 24 24 24 24 24 24 24 24 24 24 24 24 24 24 24 24 24 24 24 24 24 24 24 24 24 24 24 24 24 24 24 24 24 24 24 24 24 24 24 24 24 24 24 24 24 24 24 24 24 24 24 24 24 24 24 24 24 24 24 24 24 24 24 24 24 24 24 24 24 24 24 24 24 24 24 24 24 24 24 24 24 24 24 24 24 24 24 24 24 24 24 24 24 24 24 24 24 24 24 24 24 24 24 24 24 24 24 24 24 24 24 24 24 24 24 24 24 24 24 24 24 24 24 24 24 24 24 24 24 24 24 24 24 24 24 24 24 24 24 24 24 24 24 24 24 24 24 24 24 24 24 24 24 24 24 24 24 24 24 24 24 24 24 24 24 24 24 24 24 24 24 24 24 24 24 24 24 24 24 24 24 24 24 24 24 24 24 24 24 24 24 24 24 24 24 24 24 24 24 24 24 24 24 24 24 24 24 24 24 24 24 24 24 24 24 24 24 24 24 24 24 24 24 24 24 24 24 24 24 24 24 24 24 24 24 24 24 24 24 24 24 24 24 24 24 24 24 24 24 24 24 24 24 24 24 24 24 24 24 24 24 24 24 24 24 24 24 24 24 24 24 24 24 24 24 24 24 24 24 24 24 24 24 24 24 24 24 24 24 24 24 24 24 24 24 24 24 24 24 24 24 24 24 24 24 24 24 24 24 24 24 24 24 24 24 24 24 24 24 24 24 24 24 24 24 24 24 24 24 24 24 24 24 24 24 24 24 24 24 24 24 24 24 24 24 24 24 24 24 24 24 24 24 24 24 24 24 24 24 24 24 24 24 24 24 24 24 24 24 24 24 24 24 24 24 24 24 24 24 24 24 24 24 24 24 24 24 24 24 24 24 24 24 24 24 24 24 24 24 24 24 24 24 24 24 24 24 24 24 24 24 24 24 24 24 24 24 24 24 24 24 24 24 24 24 24 24 24 24 24 24 24 24 24 24 24 24 24 24 24 24 24 24 24 24 24 24 24 24 24 24 24 24 24 24 24 24 24 24 24 24 24 24 24 24 24 24 24 24 24 24 24 24 24 24 24 24 24 24 24 24 24 24 24 24 24 24 24 24 24 24 24 24 24 24 24 24 24 24 24 24 24 24 24 24 24 24 24 24 24 24 24 24 24 24 24 24 24 24 24 24 24 24 24 24 24 24 24 24 24 24 24 24 24 24 24 24 24 24 24 24 24 24 24 24 24 24 24 24 24 24 24 24 24 24 24 24 24 24 24 24 24 24 24 24 24 24 24 24 24 24 24 24 24 24 24 24 24 24 24 24 24 24 24 24 24 24 24 24 24 24 24 24 24 24 24 24 24 24 24 24 24 24 24 24 24 24 24 24 24 24 24 24 24 24 24 24 24 24 24 24 24 24 24 24 24 24 24 24 24 24 24 24 24 24 24 24 24 24 24 24 24 24 24 24 24 24 24 24 24 24 24 24 24 24 24 24 24 24 24 24 24 24 24 24 24 24 24 24 24 24 24 24 24 24 24 24 24 24 24 24 24 24 24 24 24 24 24 24 24 24 24 24 24 24 24 24 24 24 24 24 24 24 24 24 24 24 24 24 24 24 24 24 24 24 24 24 24 24 24 24 24 24 24 24 24 24 24 24 24 24 24 24 24 24 24 24 24 24 24 24 24 24 24 24 24 24 24 24 24 24 24 24 24 24 24 24 24 24 24 24 24 24 24 24 24 24 24 24 24 24 24 24 24 24 24 24 24 24 24 24 24 24 24 24 24 24 24 24 24 24 24 24 24 24 24 24 24 24 24 24 24 24 24 24 24 24 24 24 24 24 24 24 24 24 24 24 24 24 24 24 24 24 24 24 24 24 24 24 24 24 24 24 24 24 24 24 24 24 24 24 24 24 24 24 24 24 24 24 24 24 24 24 24 24 24 24 24 24 24 24 24 24 24 24 24 24 24 24 24 24 24 24 24 24 24 24 24 24 24 24 24 24 24 24 24 24 24 24 24 24 24 24 24 24 24 24 24 24 24 24 24 24 24 24 24 24 24 24 24 24 24 24 24 24 24 24 24 24 24 24 24 24 24 24 24 24 24 24 24 24 24 24 24 24 24 24 24 24 24 24 24 24 24 24 24 24 24 24 24 24 24 24 24 24 24 24 24 24 24 24 24 24 24 24 24 24 24 24 24 24 24 24 24 24 24 24 24 24 24 24 24 24 24 24 24 24 24 24 24 24 24 24 24 24 24 24 24 24 24 24 24 24 24 24 24 24 24 24 24 24 24 24 24 24 24 24 24 24 24 24 24 24 24 24 24 24 24 24 24 24 24 24 24 24 24 24 24 24 24 24 24 24 24 24 24 24 24 24 24 24 24 24 24 24 24 24 24 24 24 24 24 24 24 24 24 24 24 24 24 24 24 24 24 24 24 24 24 24 24 24 24 24 24 24 24 24 24 24 24 24 24 24 24 24 24 24 24 24 24 24 24 24 24 24 24 24 24 24 24 24 24 24 24 24 24 24 24 24 24 24 24 24 24 24 24 24 24 24 24 24 24 24 24 24 24 24 24 24 24 24 24 24 24 24 24 24 24 24 24 24 24 24 24 24 24 24 24 24 24 24 24 24 24 24 24 24 24 24 24 24 24 24 24 24 24 24 24 24 24 24 24 24 24 24 24 24 24 24 24 24 24 24 24 24 24 24 24 24 24 24 24 24 24 24 24 24 24 24 24 24 24 24 24 24 24 24 24 24 24 24 24 24 24 24 24 24 24 24 24 24 24 24 24 24 24 24 24 24 24 24 24 24 24 24 24 24 24 24 24 24 24 24 24 24 24 24 24 24 24 24 24 24 24 24 24 24 24 24 24 24 24 24 24 24 24 24 24 24 24 24 24 24 24 24 24 24 24 24 24 24 24 24 24 24 24 24 24 24 24 24 24 24 24 24 24 24 24 24 24 24 24 24 24 24 24 24 24 24 24 24 24 24 24 24 24 24 24 24 24 24 24 24 24 24 24 24 24 24 24 24 24 24 24 24 24 24 24 24 24 24 24 24 24 24 24 24 24 24 24 24 24 24 24 24 24 24 24 24 24 24 24 24 24 24 24 24 24 24 24 24 24 24 24 24 24 24 24 24 24 24 24 24 24 24 24 24 24 24 24 24 24 24 24 24 24 24 24 24 24 24 24 24 24 24 24 24 24 24 24 24 24 24 24 24 24 24 24 24 24 24 24 24 24 24 24 24 24 24 24 24 24 24 24 24 24 24 24 24 24 24 24 24 24 24 24 24 24 24 24 24 24 24 24 24 24 24 24 24 24 24 24 24 24 24 24 24 24 24 24 24 24 24 24 24 24 24 24 24 24 24 24 24 24 24 24 24 24 24 24 24 24 24 24 24 24 24 24 24 24 24 24 24 24 24 24 24 24 24 24 24 24 24 24 24 24 24 24 24 24 24 24 24 24 24 24 24 24 24 24 24 24 24 24 24 24 24 24 24 24 24 24 24 24 24 24 24 24 24 24 24 24 24 24 24 24 24 24 24 24 24 24 24 24 24 24 24 24 24 24 24 24 24 24 24 24 24 24 24 24 24 24 24 24 24 24 24 24 24 24 24 24 24 24 24 24 24 24 24 24 24 24 24 24 24 24 24 24 24 24 24 24 24 24 24 24 24 24 24 24 24 24 24 24 24 24 24 24 24 24 24 24 24 24 24 24 24 24 24 24 24 24 24 24 24 24 24 24 24 24 24 24 24 24 24 24 24 24 24 24 24 24 24 24 24 24 24 24 24 24 24 24 24 24 24 24 24 24 24 24 24 24 24 24 24 24 24 24 24 24 24 24 24 24 24 24 24 24 24 24 24 24 24 24 24 24 24 24 24 24 24 24 24 24 24 24 24 24 24 24 24 24 24 24 24 24 24 24 24 24 24 24 24 24 24 24 24 24 24 24 24 24 24 24 24 24 24 24 24 24 24 24 24 24 24 24 24 24 24 24 24 24 24 24 24 24 24 24 24 24 24 24 24 24 24 24 24 24 24 24 24 24 24 24 24 24 24 24 24 24 24 24 24 24 24 24 24 24 24 24 24 24 24 24 24 24 24 24 24 24 24 24 24 24 24 24 24 24 24 24 24 24 24 24 24 24 24 24 24 24 24 24 24 24 24 24 24 24 24 24 24 24 24 24 24 24 24 24 24 24 24 24 24 24 24 24 24 24 24 24 24 24 24 24 24 24 24 24 24 24 24 24 24 24 24 24 24 24 24 24 24 24 24 24 24 24 24 24 24 24 24 24 24 24 24 24 24 24 24 24 24 24 24 24 24 24 24 24 24 24 24 24 24 24 24 24 24 24 24 24 24 24 24 24 24 24 24 24 24 24 24 24 24 24 24 24 24 24 24 24 24 24 24 24 24 24 24 24 24 24 24 24 24 24 24 24 24 24 24 24 24 24 24 24 24 24 24 24 24 24 24 24 24 24 24 24 24 24 24 24 24 24 24 24 24 24 24 24 24 24 24 24 24 24 24 24 24 24 24 24 24 24 24 24 24 24 24 24 24 24 24 24 24 24 24 24 24 24 24 24 24 24 24 24 24 24 24 24 24 24 24 24 24 24 24 24 24 24 24 24 24 24 24 24 24 24 24 24 24 24 24 24 24 24 24 24 24 24 24 24 24 24 24 24 24 24 24 24 24 24 24 24 24 24 24 24 24 24 24 24 24 24 24 24 24 24 24 24 24 24 24 24 24 24 24 24 24 24 24 24 24 24 24 24 24 24 24 24 24 24 24 24 24 24 24 24 24 24 24 24 24 24 24 24 24 24 24 24 24 24 24 24 24 24 24 24 24 24 24 24 24 24 24 24 24 24 24 24 24 24 24 24 24 24 24 24 24 24 24 24 24 24 24 24 24 24 24 24 24 24 24 24 24 24 24 24 24 24 24 24 24 24 24 24 24 24 24 24 24 24 24 24 24 24 24 24 24 24 24 24 24 24 24 24 24 24 24 24 24 24 24 24 24 24 24 24 24 24 24 24 24 24 24 24 24 24 24 24 24 24 24 24 24 24 24 24 24 24 24 24 24 24 24 24 24 24 24 24 24 24 24 24 24 24 24 24 24 24 24 24 24 24 24 24 24 24 24 24 24 24 24 24 24 24 24 24 24 24 24 24 24 24 24 24 24 24 24 24 24 24 24 24 24 24 24 24 24 24 24 24 24 24 24 24 24 24 24 24 24 24 24 24 24 24 24 24 24 24 24 24 24 24 24 24 24 24 24 24 24 24 24 24 24 24 24 24 24 24 24 24 24 24 24 24 24 24 24 24 24 24 24 24 24 24 24 24 24 24 24 24 24 24 24 24 24 24 24 24 24 24 24 24 24 24 24 24 24 24 24 24 24 24 24 24 24 24 24 24 24 24 24 24 24 24 24 24 24 24 24 24 24 24 24 24 24 24 24 24 24 24 24 24 24 24 24 24 24 24 24 24 24 24 24 24 24 24 24 24 24 24 24 24 24 24 24 24 24 24 24 24 24 24 24 24 24 24 24 24 24 24 24 24 24 24 24 24 24 24 24 24 24 24 24 24 24 24 24 24 24 24 24 24 24 24 24 24 24 24 24 24 24 24 24 24 24 24 24 24 24 24 24 24 24 24 24 24 24 24 24 24 24 24 24 24 24 24 24 24 24 24 24 24 24 24 24 24 24 24 24 24 24 24 24 24 24 24 24 24 24 24 24 24 24 24 24 24 24 24 24 24 24 24 24 24 24 24 24 24 24 24 24 24 24 24 24 24 24 24 24 24 24 24 24 24 24 24 24 24 24 24 24 24 24 24 24 24 24 24 24 24 24 24 24 24 24 24 24 24 24 24 24 24 24 24 24 24 24 24 24 24 24 24 24 24 24 24 24 24 24 24 24 24 24 24 24 24 24 24 24 24 24 24 24 24 24 24 24 24 24 24 24 24 24 24 24 24 24 24 24 24 24 24 24 24 24 24 24 24 24 24 24 24 24 24 24 24 24 24 24 24 24 24 24 24 24 24 24 24 24 24 24 24 24 24 24 24 24 24 24 24 24 24 24 24 24 24 24 24 24 24 24 24 24 24 24 24 24 24 24 24 24 24 24 24 24 24 24 24 24 24 24 24 24 24 24 24 24 24 24 24 24 24 24 24 24 24 24 24 24 24 24 24 24 24 24 24 24 24 24 24 24 24 24 24 24 24 24 24 24 24 24 24 24 24 24 24 24 24 24 24 24 24 24 24 24 24 24 24 24 24 24 24 24 24 24 24 24 24 24 24 24 24 24 24 24 24 24 24 24 24 24 24 24 24 24 24 24 24 24 24 24 24 24 24 24 24 24 24 24 24 24 24 24 24 24 24 24 24 24 24 24 24 24 24 24 24 24 24 24 24 24 24 24 24 24 24 24 24 24 24 24 24 24 24 24 24 24 24 24 24 24 24 24 24 24 24 24 24 24 24 24 24 24 24 24 24 24 24 24 24 24 24 24 24 24 24 24 24 24 24 24 24 24 24 24 24 24 24 24 24 24 24 24 24 24 24 24 24 24 24 24 24 24 24 24 24 24 24 24 24 24 24 24 24 24 24 24 24 24 24 24 24 24 24 24 24 24 24 24 24 24 24 24 24 24 24 24 24 24 24 24 24 24 24 24 24 24 24 24 24 24 24 24 24 24 24 24 24 24 24 24 24 24 24 24 24 24 24 24 24 24 24 24 24 24 24 24 24 24 24 24 24 24 24 24 24 24 24 24 24 24 24 24 24 24 24 24 24 24 24 24 24 24 24 24 24 24 24 24 24 24 24 24 24 24 24 24 24 24 24 24 24 24 24 24 24 24 24 24 24 24 24 24 24 24 24 24 24 24 24 24 24 24 24 24 24 24 24 24 24 24 24 24 24 24 24 24 24 24 24 24 24 24 24 24 24 24 24 24 24 24 24 24 24 24 24 24 24 24 24 24 24 24 24 24 24 24 24 24 24 24 24 24 24 24 24 24 24 24 24 24 24 24 24 24 24 24 24 24 24 24 24 24 24 24 24 24 24 24 24 24 24 24 24 24 24 24 24 24 24 24 24 24 24 24 24 24 24 24 24 24 24 24 24 24 24 24 24 24 24 24 24 24 24 24 24 24 24 24 24 24 24 24 24 24 24 24 24 24 24 24 24 24 24 24 24 24 24 24 24 24 24 24 24 24 24 24 24 24 24 24 24 24 24 24 24 24 24 24 24 24 24 24 24 24 24 24 24 24 24 24 24 24 24 24 24 24 24 24 24 24 24 24 24 24 24 24 24 24 24 24 24 24 24 24 24 24 24 24 24 24 24 24 24 24 24 24 24 24 24 24 24 24 24 24 24 24 24 24 24 24 24 24 24 24 24 24 24 24 24 24 24 24 24 24 24 24 24 24 24 24 24 24 24 24 24 24 24 24 24 24 24 24 24 24 24 24 24 24 24 24 24 24 24 24 24 24 24 24 24 24 24 24 24 24 24 24 24 24 24 24 24 24 24 24 24 24 24 24 24 24 24 24 24 24 24 24 24 24 24 24 24 24 24 24 24 24 24 24 24 24 24 24 24 24 24 24 24 24 24 24 24 24 24 24 24 24 24 24 24 24 24 24 24 24 24 24 24 24 24 24 24 24 24 24 24 24 24 24 24 24 24 24 24 24 24 24 24 24 24 24 24 24 24 24 24 24 24 24 24 24 24 24 24 24 24 24 24 24 24 24 24 24 24 24 24 24 24 24 24 24 24 24 24 24 24 24 24 24 24 24 24 24 24 24 24 24 24 24 24 24 24 24 24 24 24 24 24 24 24 24 24 24 24 24 24 24 24 24 24 24 24 24 24 24 24 24 24 24 24 24 24 24 24 24 24 24 24 24 24 24 24 24 24 24 24 24 24 24 24 24 24 24 24 24 24 24 24 24 24 24 24 24 24 24 24 24 24 24 24 24 24 24 24 24 24 24 24 24 24 24 24 24 24 24 24 24 24 24 24 24 24 24 24 24 24 24 24 24 24 24 24 24 24 24 24 24 24 24 24 24 24 24 24 24 24 24 24 24 24 24 24 24 24 24 24 24 24 24 24 24 24 24 24 24 24 24 24 24 24 24 24 24 24 24 24 24 24 24 24 24 24 24 24 24 24 24 24 24 24 24 24 24 24 24 24 24 24 24 24 24 24 24 24 24 24 24 24 24 24 24 24 24 24 24 24 24 24 24 24 24 24 24 24 24 24 24 24 24 24 24 24 24 24 24 24 24 24 24 24 24 24 24 24 24 24 24 24 24 24 24 24 24 24 24 24 24 24 24 24 24 24 24 24 24 24 24 24 24 24 24 24 24 24 24 24 24 24 24 24 24 24 24 24 24 24 24 24 24 24 24 24 24 24 24 24 24 24 24 24 24 24 24 24 24 24 24 24 24 24 24 24 24 24 24 24 24 24 24 24 24 24 24 24 24 24 24 24 24 24 24 24 24 24 24 24 24 24 24 24 24 24 24 24 24 24 24 24 24 24 24 24 24 24 24 24 24 24 24 24 24 24 24 24 24 24 24 24 24 24 24 24 24 24 24 24 24 24 24 24 24 24 24 24 24 24 24 24 24 24 24 24 24 24 24 24 24 24 24 24 24 24 24 24 24 24 24 24 24 24 24 24 24 24 24 24 24 24 24 24 24 24 24 24 24 24 24 24 24 24 24 24 24 24 24 24 24 24 24 24 24 24 24 24 24 24 24 24 24 24 24 24 24 24 24 24 24 24 24 24 24 24 24 24 24 24 24 24 24 24 24 24 24 24 24 24 24 24 24 24 24 24 24 24 24 24 24 24 24 24 24 24 24 24 24 24 24 24 24 24 24 24 24 24 24 24 24 24 24 24 24 24 24 24 24 24 24 24 24 24 24 24 24 24 24 24 24 24 24 24 24 24 24 24 24 24 24 24 24 24 24 24 24 24 24 24 24 24 24 24 24 24 24 24 24 24 24 24 24 24 24 24 24 24 24 24 24 24 24 24 24 24 24 24 24 24 24 24 24 24 24 24 24 24 24 24 24 24 24 24 24 24 24 24 24 24 24 24 24 24 24 24 24 24 24 24 24 24 24 24 24 24 24 24 24 24 24 24 24 24 24 24 24 24 24 24 24 24 24 24 24 24 24 24 24 24 24 24 24 24 24 24 24 24 24 24 24 24 24 24 24 24 24 24 24 24 24 24 24 24 24 24 24 24 24 24 24 24 24 24 24 24 24 24 24 24 24 24 24 24 24 24 24 24 24 24 24 24 24 24 24 24 24 24 24 24 24 24 24 24 24 24 24 24 24 24 24 24 24 24 24 24 24 24 24 24 24 24 24 24 24 24 24 24 24 24 24 24 24 24 24 24 24 24 24 24 24 24 24 24 24 24 24 24 24 24 24 24 24 24 24 24 24 24 24 24 24 24 24 24 24 24 24 24 24 24 24 24 24 24 24 24 24 24 24 24 24 24 24 24 24 24 24 24 24 24 24 24 24 24 24 24 24 24 24 24 24 24 24 24 24 24 24 24 24 24 24 24 24 24 24 24 24 24 24 24 24 24 24 24 24 24 24 24 24 24 24 24 24 24 24 24 24 24 24 24 24 24 24 24 24 24 24 24 24 24 24 24 24 24 24 24 24 24 24 24 24 24 24 24 24 24 24 24 24 24 24 24 24 24 24 24 24 24 24 24 24 24 24 24 24 24 24 24 24 24 24 24 24 24 24 24 24 24 24 24 24 24 24 24 24 24 24 24 24 24 24 24 24 24 24 24 24 24 24 24 24 24 24 24 24 24 24 24 24 24 24 24 24 24 24 24 24 24 24 24 24 24 24 24 24 24 24 24 24 24 24 24 24 24 24 24 24 24 24 24 24 24 24 24 24 24 24 24 24 24 24 24 24 24 24 24 24 24 24 24 24 24 24 24 24 24 24 24 24 24 24 24 24 24 24 24 24 24 24 24 24 24 24 24 24 24 24 24 24 24 24 24 24 24 24 24 24 24 24 24 24 24 24 24 24 24 24 24 24 24 24 24 24 24 24 24 24 24 24 24 24 24 24 24 24 24 24 24 24 24 24 24 24 24 24 24 24 24 24 24 24 24 24 24 24 24 24 24 24 24 24 24 24 24 24 24 24 24 24 24 24 24 24 24 24 24 24 24 24 24 24 24 24 24 24 24 24 24 24 24 24 24 24 24 24 24 24 24 24 24 24 24 24 24 24 24 24 24 24 24 24 24 24 24 24 24 24 24 24 24 24 24 24 24 24 24 24 24 24 24 24 24 24 24 24 24 24 24 24 24 24 24 24 24 24 24 24 24 24 24 24 24 24 24 24 24 24 24 24 24 24 24 24 24 24 24 24 24 24 24 24 24 24 24 24 24 24 24 24 24 24 24 24 24 24 24 24 24 24 24 24 24 24 24 24 24 24 24 24 24 24 24 24 24 24 24 24 24 24 24 24 24 24 24 24 24 24 24 24 24 24 24 24 24 24 24 24 24 24 24 24 24 24 24 24 24 24 24 24 24 24 24 24 24 24 24 24 24 24 24 24 24 24 24 24 24 24 24 24 24 24 24 24 24 24 24 24 24 24 24 24 24 24 24 24 24 24 24 24 24 24 24 24 24 24 24 24 24 24 24 24 24 24 24 24 24 24 24 24 24 24 24 24 24 24 24 24 24 24 24 24 24 24 24 24 24 24 24 24 24 24 24 24 24 24 24 24 24 24 24 24 24 24 24 24 24 24 24 24 24 24 24 24 24 24 24 24 24 24 24 24 24 24 24 24 24 24 24 24 24 24 24 24 24 24 24 24 24 24 24 24 24 24 24 24 24 24 24 24 24 24 24 24 24 24 24 24 24 24 24 24 24 24 24 24 24 24 24 24 24 24 24 24 24 24 24 24 24 24 24 24 24 24 24 24 24 24 24 24 24 24 24 24 24 24 24 24 24 24 24 24 24 24 24 24 24 24 24 24 24 24 24 24 24 24 24 24 24 24 24 24 24 24 24 24 24 24 24 24 24 24 24 24 24 24 24 24 24 24 24 24 24 24 24 24 24 24 24 24 24 24 24 24 24 24 24 24 24 24 24 24 24 24 24 24 24 24 24 24 24 24 24 24 24 24 24 24 24 24 24 24 24 24 24 24 24 24 24 24 24 24 24 24 24 24 24 24 24 24 24 24 24 24 24 24 24 24 24 24 24 24 24 24 24 24 24 24 24 24 24 24 24 24 24 24 24 24 24 24 24 24 24 24 24 24 24 24 24 24 24 24 24 24 24 24 24 24 24 24 24 24 24 24 24 24 24 24 24 24 24 24 24 24 24 24 24 24 24 24 24 24 24 24 24 24 24 24 24 24 24 24 24 24 24 24 24 24 24 24 24 24 24 24 24 24 24 24 24 24 24 24 24 24 24 24 24 24 24 24 24 24 24 24 24 24 24 24 24 24 24 24 24 24 24 24 24 24 24 24 24 24 24 24 24 24 24 24 24 24 24 24 24 24 24 24 24 24 24 24 24 24 24 24 24 24 24 24 24 24 24 24 24 24 24 24 24 24 24 24 24 24 24 24 24 24 24 24 24 24 24 24 24 24 24 24 24 24 24 24 24 24 24 24 24 24 24 24 24 24 24 24 24 24 24 24 24 24 24 24 24 24 24 24 24 24 24 24 24 24 24 24 24 24 24 24 24 24 24 24 24 24 24 24 24 24 24 24 24 24 24 24 24 24 24 24 24 24 24 24 24 24 24 24 24 24 24 24 24 24 24 24 24 24 24 24 24 24 24 24 24 24 24 24 24 24 24 24 24 24 24 24 24 24 24 24 24 24 24 24 24 24 24 24 24 24 24 24 24 24 24 24 24 24 24 24 24 24 24 24 24 24 24 24 24 24 24 24 24 24 24 24 24 24 24 24 24 24 24 24 24 24 24 24 24 24 24 24 24 24 24 24 24 24 24 24 24 24 24 24 24 24 24 24 24 24 24 24 24 24 24 24 24 24 24 24 24 24 24 24 24 24 24 24 24 24 24 24 24 24 24 24 24 24 24 24 24 24 24 24 24 24 24 24 24 24 24 24 24 24 24 24 24 24 24 24 24 24 24 24 24 24 24 24 24 24 24 24 24 24 24 24 24 24 24 24 24 24 24 24 24 24 24 24 24 24 24 24 24 24 24 24 24 24 24 24 24 24 24 24 24 24 24 24 24 24 24 24 24 24 24 24 24 24 24 24 24 24 24 24 24 24 24 24 24 24 24 24 24 24 24 24 24 24 24 24 24 24 24 24 24 24 24 24 24 24 24 24 24 24 24 24 24 24 24 24 24 24 24 24 24 24 24 24 24 24 24 24 24 24 24 24 24 24 24 24 24 24 24 24 24 24 24 24 24 24 24 24 24 24 24 24 24 24 24 24 24 24 24 24 24 24 24 24 24 24 24 24 24 24 24 24 24 24 24 24 24 24 24 24 24 24 24 24 24 24 24 24 24 24 24 24 24 24 24 24 24 24 24 24 24 24 24 24 24 24 24 24 24 24 24 24 24 24 24 24 24 24 24 24 24 24 24 24 24 24 24 24 24 24 24 24 24 24 24 24 24 24 24 24 24 24 24 24 24 24 24 24 24 24 24 24 24 24 24 24 24 24 24 24 24 24 24 24 24 24 24 24 24 24 24 24 24 24 24 24 24 24 24 24 24 24 24 24 24 24 24 24 24 24 24 24 24 24 24 24 24 24 24 24 24 24 24 24 24 24 24 24 24 24 24 24 24 24 24 24 24 24 24 24 24 24 24 24 24 24 24 24 24 24 24 24 24 24 24 24 24 24 24 24 24 24 24 24 24 24 24 24 24 24 24 24 24 24 24 24 24 24 24 24 24 24 24 24 24 24 24 24 24 24 24 24 24 24 24 24 24 24 24 24 24 24 24 24 24 24 24 24 24 24 24 24 24 24 24 24 24 24 24 24 24 24 24 24 24 24 24 24 24 24 24 24 24 24 24 24 24 24 24 24 24 24 24 24 24 24 24 24 24 24 24 24 24 24 24 24 24 24 24 24 24 24 24 24 24 24 24 24 24 24 24 24 24 24 24 24 24 24 24 24 24 24 24 24 24 24 24 24 24 24 24 24 24 24 24 24 24 24 24 24 24 24 24 24 24 24 24 24 24 24 24 24 24 24 24 24 24 24 24 24 24 24 24 24 24 24 24 24 24 24 24 24 24 24 24 24 24 24 24 24 24 24 24 24 24 24 24 24 24 24 24 24 24 24 24 24 24 24 24 24 24 24 24 24 24 24 24 24 24 24 24 24 24 24 24 24 24 24 24 24 24 24 24 24 24 24 24 24 24 24 24 24 24 24 24 24 24 24 24 24 24 24 24 24 24 24 24 24 24 24 24 24 24 24 24 24 24 24 24 24 24 24 24 24 24 24 24 24 24 24 24 24 24 24 24 24 24 24 24 24 24 24 24 24 24 24 24 24 24 24 24 24 24 24 24 24 24 24 24 24 24 24 24 24 24 24 24 24 24 24 24 24 24 24 24 24 24 24 24 24 24 24 24 24 24 24 24 24 24 24 24 24 24 24 24 24 24 24 24 24 24 24 24 24 24 24 24 24 24 24 24 24 24 24 24 24 24 24 24 24 24 24 24 24 24 24 24 24 24 24 24 24 24 24 24 24 24 24 24 24 24 24 24 24 24 24 24 24 24 24 24 24 24 24 24 24 24 24 24 24 24 24 24 24 24 24 24 24 24 24 24 24 24 24 24 24 24 24 24 24 24 24 24 24 24 24 24 24 24 24 24 24 24 24 24 24 24 24 24 24 24 24 24 24 24 24 24 24 24 24 24 24 24 24 24 24 24 24 24 24 24 24 24 24 24 24 24 24 24 24 24 24 24 24 24 24 24 24 24 24 24 24 24 24 24 24 24 24 24 24 24 24 24 24 24 24 24 24 24 24 24 24 24 24 24 24 24 24 24 24 24 24 24 24 24 24 24 24 24 24 24 24 24 24 24 24 24 24 24 24 24 24 24 24 24 24 24 24 24 24 24 24 24 24 24 24 24 24 24 24 24 24 24 24 24 24 24 24 24 24 24 24 24 24 24 24 24 24 24 24 24 24 24 24 24 24 24 24 24 24 24 24 24 24 24 24 24 24 24 24 24 24 24 24 24 24 24 24 24 24 24 24 24 24 24 24 24 24 24 24 24 24 24 24 24 24 24 24 24 24 24 24 24 24 24 24 24 24 24 24 24 24 24 24 24 24 24 24 24 24 24 24 24 24 24 24 24 24 24 24 24 24 24 24 24 24 24 24 24 24 24 24 24 24 24 24 24 24 24 24 24 24 24 24 24 24 24 24 24 24 24 24 24 24 24 24 24 24 24 24 24 24 24 24 24 24 24 24 24 24 24 24 24 24 24 24 24 24 24 24 24 24 24 24 24 24 24 24 24 24 24 24 24 24 24 24 24 24 24 24 24 24 24 24 24 24 24 24 24 24 24 24 24 24 24 24 24 24 24 24 24 24 24 24 24 24 24 24 24 24 24 24 24 24 24 24 24 24 24 24 24 24 24 24 24 24 24 24 24 24 24 24 24 24 24 24 24 24 24 24 24 24 24 24 24 24 24 24 24 24 24 24 24 24 24 24 24 24 24 24 24 24 24 24 24 24 24 24 24 24 24 24 24 24 24 24 24 24 24 24 24 24 24 24 24 24 24 24 24 24 24 24 24 24 24 24 24 24 24 24 24 24 24 24 24 24 24 24 

POINT_DATA 18785
SCALARS weights float 1
LOOKUP_TABLE default
0.195313 0.260417 0.260417 0.260417 0.260417 0.260417 0.260417 0.260417 0.260417 0.260417 0.260417 0.260417 0.260417 0.260417 0.260417 0.260417 0.260417 0.260417 0.260417 0.260417 0.260417 0.260417 0.260417 0.260417 0.260416 0.260417 0.260416 0.260417 0.260416 0.260416 0.260417 0.260417 0.0651044 0.260417 0.390625 0.390625 0.390625 0.390625 0.390625 0.390625 0.390625 0.390625 0.390625 0.390625 0.390625 0.390625 0.390625 0.390625 0.390625 0.390625 0.390625 0.390625 0.390626 0.390625 0.390625 0.390625 0.390625 0.390625 0.390625 0.390625 0.390625 0.390625 0.390625 0.390625 0.390626 0.130209 0.260417 0.390625 0.390625 0.390625 0.390625 0.390625 0.390625 0.390625 0.390625 0.390625 0.390625 0.390625 0.390625 0.390625 0.390625 0.390625 0.390625 0.390625 0.390625 0.390626 0.390625 0.390625 0.390625 0.390625 0.390625 0.390625 0.390625 0.390625 0.390625 0.390625 0.390625 0.390626 0.130209 0.260417 0.390625 0.390625 0.390625 0.390625 0.390625 0.390625 0.390625 0.390625 0.390625 0.390625 0.390625 0.390625 0.390625 0.390625 0.390625 0.390625 0.390625 0.390625 0.390626 0.390625 0.390625 0.390625 0.390625 0.390625 0.390625 0.390624 0.390625 0.390625 0.390625 0.390625 0.390626 0.130209 0.260417 0.390625 0.390625 0.390625 0.390625 0.390625 0.390625 0.390625 0.390625 0.390625 0.390625 0.390625 0.390625 0.390625 0.390625 0.390625 0.390625 0.390625 0.390625 0.390626 0.390625 0.390625 0.390625 0.390625 0.390625 0.390625 0.390624 0.390625 0.390625 0.390625 0.390625 0.390626 0.130209 0.260417 0.390625 0.390625 0.390625 0.390625 0.390625 0.390625 0.390625 0.390625 0.390625 0.390625 0.390626 0.390625 0.390625 0.390625 0.390625 0.390626 0.390625 0.390625 0.390626 0.390625 0.390625 0.390625 0.390625 0.390625 0.390625 0.390625 0.390626 0.390625 0.390625 0.390625 0.390626 0.130209 0.260417 0.390625 0.390625 0.390625 0.390625 0.390625 0.390625 0.390625 0.390625 0.390625 0.390625 0.390626 0.390625 0.390625 0.390625 0.390625 0.390626 0.390625 0.390625 0.390626 0.390625 0.390625 0.390625 0.390625 0.390625 0.390625 0.390625 0.390626 0.390625 0.390625 0.390625 0.390626 0.130209 0.260417 0.390625 0.390625 0.390625 0.390625 0.390625 0.390625 0.390625 0.390625 0.390625 0.390625 0.390625 0.390625 0.390625 0.390625 0.390625 0.390625 0.390625 0.390625 0.390626 0.390625 0.390625 0.390625 0.390625 0.390625 0.390625 0.390624 0.390625 0.390625 0.390624 0.390625 0.390625 0.130209 0.0651042 0.130208 0.130208 0.130208 0.130208 0.130208 0.130208 0.130208 0.130208 0.130208 0.130208 0.130208 0.130208 0.130208 0.130208 0.130208 0.130209 0.130208 0.130208 0.130209 0.130208 0.130208 0.130208 0.130208 0.130208 0.130208 0.130208 0.130208 0.130209 0.130208 0.130208 0.130209 0.0651043 0.260417 0.390625 0.390625 0.390625 0.390625 0.390625 0.390625 0.390625 0.390625 0.390625 0.390625 0.390625 0.390625 0.390625 0.390625 0.390625 0.390625 0.390625 0.390625 0.390626 0.390625 0.390626 0.390625 0.390625 0.390625 0.390625 0.390624 0.390625 0.390625 0.390625 0.390625 0.390625 0.130209 0.390625 0.78125 0.78125 0.78125 0.78125 0.78125 0.78125 0.78125 0.78125 0.78125 0.78125 0.781251 0.78125 0.781251 0.78125 0.781251 0.781251 0.781251 0.781251 0.781251 0.781251 0.781251 0.78125 0.781251 0.78125 0.781251 0.78125 0.78125 0.781251 0.78125 0.781251 0.781251 0.390626 0.390625 0.78125 0.78125 0.78125 0.78125 0.781251 0.78125 0.78125 0.78125 0.78125 0.78125 0.781251 0.78125 0.781251 0.78125 0.781251 0.781251 0.781251 0.781251 0.781251 0.781251 0.781251 0.78125 0.781251 0.78125 0.781251 0.78125 0.78125 0.781251 0.78125 0.781251 0.781251 0.390626 0.390625 0.78125 0.78125 0.78125 0.78125 0.78125 0.78125 0.78125 0.78125 0.78125 0.781251 0.781251 0.78125 0.78125 0.78125 0.78125 0.781251 0.781251 0.781251 0.781251 0.781251 0.781251 0.78125 0.781251 0.78125 0.781251 0.78125 0.78125 0.781251 0.78125 0.781251 0.781251 0.390626 0.390625 0.78125 0.78125 0.78125 0.78125 0.78125 0.78125 0.78125 0.78125 0.78125 0.78125 0.781251 0.78125 0.78125 0.78125 0.78125 0.781251 0.781251 0.78125 0.781251 0.781251 0.781251 0.78125 0.781251 0.78125 0.78125 0.78125 0.78125 0.781251 0.78125 0.781251 0.781251 0.390626 0.390625 0.781251 0.781251 0.781251 0.781251 0.781251 0.78125 0.78125 0.78125 0.78125 0.781251 0.781251 0.781251 0.781251 0.78125 0.781251 0.781251 0.781251 0.781251 0.781252 0.781251 0.781251 0.78125 0.781251 0.78125 0.781251 0.78125 0.781251 0.781251 0.78125 0.781251 0.781251 0.390626 0.390625 0.781251 0.781251 0.781251 0.781251 0.781251 0.781251 0.78125 0.78125 0.78125 0.781251 0.781251 0.781251 0.781251 0.78125 0.781251 0.781251 0.781251 0.781251 0.781252 0.781251 0.781251 0.78125 0.781251 0.78125 0.781251 0.78125 0.78125 0.781251 0.78125 0.781251 0.781251 0.390626 0.390625 0.78125 0.78125 0.78125 0.78125 0.78125 0.78125 0.78125 0.78125 0.78125 0.78125 0.781251 0.78125 0.78125 0.78125 0.78125 0.781251 0.781251 0.78125 0.781251 0.781251 0.781251 0.78125 0.78125 0.78125 0.78125 0.781249 0.78125 0.781251 0.781249 0.781251 0.781251 0.390626 0.130208 0.390625 0.390625 0.390625 0.390625 0.390625 0.390625 0.390625 0.390625 0.390625 0.390625 0.390625 0.390625 0.390625 0.390625 0.390625 0.390625 0.390625 0.390625 0.390626 0.390625 0.390625 0.390625 0.390625 0.390625 0.390625 0.390625 0.390625 0.390626 0.390625 0.390625 0.390626 0.260417 0.260417 0.390625 0.390625 0.390625 0.390625 0.390625 0.390625 0.390625 0.390625 0.390625 0.390625 0.390625 0.390625 0.390625 0.390625 0.390625 0.390625 0.390625 0.390625 0.390626 0.390625 0.390625 0.390625 0.390625 0.390625 0.390625 0.390624 0.390625 0.390625 0.390625 0.390625 0.390625 0.130209 0.390625 0.78125 0.78125 0.78125 0.78125 0.78125 0.78125 0.78125 0.78125 0.78125 0.78125 0.781251 0.78125 0.78125 0.78125 0.78125 0.781251 0.781251 0.78125 0.781251 0.781251 0.781251 0.78125 0.781251 0.78125 0.781251 0.781249 0.78125 0.781251 0.78125 0.781251 0.781251 0.390626 0.390625 0.78125 0.78125 0.78125 0.78125 0.78125 0.78125 0.78125 0.78125 0.78125 0.78125 0.781251 0.78125 0.78125 0.78125 0.78125 0.781251 0.781251 0.78125 0.781251 0.781251 0.781251 0.78125 0.781251 0.78125 0.78125 0.78125 0.78125 0.781251 0.78125 0.781251 0.781251 0.390626 0.390625 0.78125 0.78125 0.78125 0.78125 0.78125 0.78125 0.78125 0.78125 0.78125 0.78125 0.781251 0.78125 0.78125 0.78125 0.78125 0.781251 0.781251 0.78125 0.781251 0.781251 0.781251 0.78125 0.78125 0.78125 0.78125 0.781249 0.78125 0.781251 0.78125 0.781251 0.781251 0.390626 0.390625 0.78125 0.78125 0.78125 0.78125 0.78125 0.78125 0.78125 0.78125 0.78125 0.78125 0.781251 0.78125 0.78125 0.78125 0.78125 0.781251 0.781251 0.78125 0.781251 0.781251 0.781251 0.78125 0.78125 0.78125 0.78125 0.781249 0.78125 0.781251 0.78125 0.781251 0.781251 0.390626 0.390625 0.78125 0.78125 0.78125 0.78125 0.78125 0.78125 0.78125 0.78125 0.78125 0.78125 0.781251 0.78125 0.78125 0.78125 0.78125 0.781251 0.781251 0.781251 0.781251 0.781251 0.781251 0.78125 0.781251 0.78125 0.781251 0.78125 0.78125 0.781251 0.78125 0.781251 0.781251 0.390626 0.390625 0.78125 0.78125 0.78125 0.78125 0.78125 0.78125 0.78125 0.78125 0.78125 0.781251 0.781251 0.78125 0.781251 0.78125 0.78125 0.781251 0.781251 0.781251 0.781251 0.781251 0.781251 0.78125 0.781251 0.78125 0.781251 0.78125 0.78125 0.781251 0.78125 0.781251 0.781251 0.390626 0.390625 0.78125 0.78125 0.78125 0.78125 0.78125 0.78125 0.78125 0.78125 0.78125 0.78125 0.781251 0.78125 0.78125 0.78125 0.78125 0.781251 0.781251 0.78125 0.781251 0.781251 0.781251 0.78125 0.78125 0.78125 0.78125 0.781249 0.78125 0.781251 0.781249 0.781251 0.781251 0.390626 0.130208 0.390625 0.390625 0.390625 0.390625 0.390625 0.390625 0.390625 0.390625 0.390625 0.390625 0.390625 0.390625 0.390625 0.390625 0.390625 0.390625 0.390625 0.390625 0.390626 0.390625 0.390625 0.390625 0.390625 0.390625 0.390625 0.390625 0.390625 0.390626 0.390625 0.390625 0.390626 0.260417 0.260417 0.390625 0.390625 0.390625 0.390625 0.390625 0.390625 0.390625 0.390625 0.390625 0.390625 0.390625 0.390625 0.390625 0.390625 0.390625 0.390625 0.390625 0.390625 0.390626 0.390625 0.390626 0.390625 0.390625 0.390625 0.390625 0.390624 0.390625 0.390625 0.390625 0.390625 0.390625 0.130209 0.390625 0.78125 0.78125 0.78125 0.78125 0.78125 0.78125 0.78125 0.78125 0.78125 0.78125 0.781251 0.78125 0.78125 0.78125 0.78125 0.781251 0.781251 0.78125 0.781251 0.781251 0.781251 0.78125 0.78125 0.78125 0.78125 0.781249 0.78125 0.781251 0.781249 0.781251 0.781251 0.390626 0.390625 0.78125 0.78125 0.78125 0.78125 0.78125 0.78125 0.78125 0.78125 0.78125 0.78125 0.781251 0.78125 0.78125 0.78125 0.78125 0.781251 0.781251 0.78125 0.781251 0.781251 0.781251 0.78125 0.78125 0.78125 0.78125 0.781249 0.78125 0.781251 0.78125 0.781251 0.781251 0.390626 0.390625 0.78125 0.78125 0.78125 0.78125 0.78125 0.78125 0.78125 0.78125 0.78125 0.78125 0.781251 0.78125 0.78125 0.78125 0.78125 0.781251 0.781251 0.78125 0.781251 0.781251 0.781251 0.78125 0.78125 0.78125 0.78125 0.781249 0.78125 0.781251 0.78125 0.781251 0.781251 0.390626 0.390625 0.78125 0.78125 0.78125 0.78125 0.78125 0.78125 0.78125 0.78125 0.78125 0.78125 0.781251 0.78125 0.78125 0.78125 0.78125 0.781251 0.781251 0.78125 0.781251 0.781251 0.781251 0.78125 0.78125 0.78125 0.78125 0.781249 0.78125 0.781251 0.781249 0.781251 0.781251 0.390626 0.390625 0.78125 0.78125 0.78125 0.78125 0.78125 0.78125 0.78125 0.78125 0.78125 0.78125 0.781251 0.78125 0.78125 0.78125 0.78125 0.781251 0.781251 0.78125 0.781251 0.781251 0.781251 0.78125 0.781251 0.78125 0.78125 0.781249 0.78125 0.781251 0.78125 0.781251 0.781251 0.390626 0.390625 0.78125 0.78125 0.78125 0.78125 0.78125 0.78125 0.78125 0.78125 0.78125 0.78125 0.781251 0.78125 0.78125 0.78125 0.78125 0.781251 0.781251 0.78125 0.781251 0.781251 0.781251 0.78125 0.781251 0.78125 0.781251 0.78125 0.78125 0.781251 0.78125 0.781251 0.781251 0.390626 0.390625 0.78125 0.78125 0.78125 0.78125 0.78125 0.78125 0.78125 0.78125 0.78125 0.78125 0.78125 0.78125 0.78125 0.78125 0.78125 0.781251 0.781251 0.78125 0.781251 0.78125 0.781251 0.78125 0.78125 0.78125 0.78125 0.781249 0.78125 0.781251 0.781249 0.781251 0.781251 0.390626 0.130208 0.390625 0.390625 0.390625 0.390625 0.390625 0.390625 0.390625 0.390625 0.390625 0.390625 0.390625 0.390625 0.390625 0.390625 0.390625 0.390625 0.390625 0.390625 0.390625 0.390625 0.390625 0.390625 0.390625 0.390625 0.390625 0.390625 0.390625 0.390626 0.390625 0.390625 0.390625 0.260417 0.260417 0.390625 0.390625 0.390625 0.390625 0.390625 0.390625 0.390625 0.390625 0.390625 0.390625 0.390625 0.390625 0.390625 0.390625 0.390625 0.390625 0.390625 0.390625 0.390626 0.390625 0.390625 0.390625 0.390625 0.390625 0.390625 0.390624 0.390625 0.390625 0.390625 0.390625 0.390625 0.130209 0.390625 0.78125 0.78125 0.78125 0.78125 0.78125 0.78125 0.78125 0.78125 0.78125 0.78125 0.781251 0.78125 0.78125 0.78125 0.78125 0.781251 0.781251 0.78125 0.781251 0.781251 0.781251 0.78125 0.78125 0.78125 0.78125 0.781249 0.78125 0.781251 0.78125 0.781251 0.781251 0.390626 0.390625 0.78125 0.78125 0.78125 0.78125 0.78125 0.78125 0.78125 0.78125 0.78125 0.78125 0.781251 0.78125 0.78125 0.78125 0.78125 0.781251 0.781251 0.78125 0.781251 0.781251 0.781251 0.78125 0.781251 0.78125 0.78125 0.78125 0.78125 0.781251 0.78125 0.781251 0.781251 0.390626 0.390625 0.78125 0.78125 0.78125 0.78125 0.78125 0.78125 0.78125 0.78125 0.78125 0.78125 0.781251 0.78125 0.78125 0.78125 0.78125 0.781251 0.781251 0.78125 0.781251 0.781251 0.781251 0.78125 0.78125 0.78125 0.78125 0.781249 0.78125 0.781251 0.78125 0.781251 0.781251 0.390626 0.390625 0.78125 0.78125 0.78125 0.78125 0.78125 0.78125 0.78125 0.78125 0.78125 0.78125 0.781251 0.78125 0.78125 0.78125 0.78125 0.781251 0.781251 0.78125 0.781251 0.781251 0.781251 0.78125 0.78125 0.78125 0.78125 0.781249 0.78125 0.781251 0.78125 0.781251 0.781251 0.390626 0.390625 0.78125 0.78125 0.78125 0.78125 0.78125 0.78125 0.78125 0.78125 0.78125 0.78125 0.781251 0.78125 0.78125 0.78125 0.78125 0.781251 0.781251 0.781251 0.781251 0.781251 0.781251 0.78125 0.781251 0.78125 0.781251 0.78125 0.78125 0.781251 0.78125 0.781251 0.781251 0.390626 0.390625 0.78125 0.78125 0.78125 0.78125 0.78125 0.78125 0.78125 0.78125 0.78125 0.781251 0.781251 0.78125 0.78125 0.78125 0.78125 0.781251 0.781251 0.78125 0.781251 0.781251 0.781251 0.78125 0.781251 0.78125 0.781251 0.78125 0.78125 0.781251 0.78125 0.781251 0.781251 0.390626 0.390625 0.78125 0.78125 0.78125 0.78125 0.78125 0.78125 0.78125 0.78125 0.78125 0.78125 0.78125 0.78125 0.78125 0.78125 0.78125 0.781251 0.781251 0.78125 0.781251 0.781251 0.781251 0.78125 0.78125 0.78125 0.78125 0.781249 0.78125 0.781251 0.781249 0.781251 0.781251 0.390626 0.130208 0.390625 0.390625 0.390625 0.390625 0.390625 0.390625 0.390625 0.390625 0.390625 0.390625 0.390625 0.390625 0.390625 0.390625 0.390625 0.390625 0.390625 0.390625 0.390626 0.390625 0.390625 0.390625 0.390625 0.390625 0.390625 0.390625 0.390625 0.390626 0.390625 0.390625 0.390626 0.260417 0.260417 0.390625 0.390625 0.390625 0.390625 0.390625 0.390625 0.390625 0.390625 0.390625 0.390625 0.390625 0.390625 0.390625 0.390625 0.390625 0.390625 0.390625 0.390625 0.390626 0.390625 0.390625 0.390625 0.390625 0.390625 0.390625 0.390624 0.390625 0.390625 0.390625 0.390625 0.390625 0.130209 0.390625 0.78125 0.78125 0.78125 0.78125 0.78125 0.78125 0.78125 0.78125 0.78125 0.78125 0.781251 0.78125 0.78125 0.78125 0.78125 0.781251 0.781251 0.78125 0.781251 0.781251 0.781251 0.78125 0.78125 0.78125 0.78125 0.781249 0.78125 0.781251 0.781249 0.781251 0.781251 0.390626 0.390625 0.78125 0.78125 0.78125 0.78125 0.78125 0.78125 0.78125 0.78125 0.78125 0.78125 0.781251 0.78125 0.78125 0.78125 0.78125 0.781251 0.781251 0.78125 0.781251 0.781251 0.781251 0.78125 0.781251 0.78125 0.78125 0.781249 0.78125 0.781251 0.78125 0.781251 0.781251 0.390626 0.390625 0.78125 0.78125 0.78125 0.78125 0.78125 0.78125 0.78125 0.78125 0.78125 0.78125 0.781251 0.78125 0.78125 0.78125 0.78125 0.781251 0.781251 0.78125 0.781251 0.781251 0.781251 0.78125 0.78125 0.78125 0.78125 0.78125 0.78125 0.781251 0.781249 0.781251 0.781251 0.390626 0.390625 0.78125 0.78125 0.78125 0.78125 0.78125 0.78125 0.78125 0.78125 0.78125 0.78125 0.781251 0.78125 0.78125 0.78125 0.78125 0.781251 0.781251 0.78125 0.781251 0.781251 0.781251 0.78125 0.78125 0.78125 0.78125 0.781249 0.78125 0.781251 0.781249 0.781251 0.781251 0.390626 0.390625 0.78125 0.78125 0.78125 0.78125 0.78125 0.78125 0.78125 0.78125 0.78125 0.78125 0.781251 0.78125 0.78125 0.78125 0.78125 0.781251 0.781251 0.78125 0.781251 0.781251 0.781251 0.78125 0.781251 0.78125 0.78125 0.78125 0.78125 0.781251 0.78125 0.781251 0.781251 0.390626 0.390625 0.78125 0.78125 0.78125 0.78125 0.78125 0.78125 0.78125 0.78125 0.78125 0.78125 0.781251 0.78125 0.78125 0.78125 0.78125 0.781251 0.781251 0.78125 0.781251 0.781251 0.781251 0.78125 0.781251 0.78125 0.78125 0.78125 0.78125 0.781251 0.78125 0.781251 0.781251 0.390626 0.390625 0.78125 0.78125 0.78125 0.78125 0.78125 0.78125 0.78125 0.78125 0.78125 0.78125 0.78125 0.78125 0.78125 0.78125 0.78125 0.781251 0.781251 0.78125 0.781251 0.78125 0.781251 0.78125 0.78125 0.78125 0.78125 0.781249 0.78125 0.781251 0.781249 0.781251 0.781251 0.390626 0.130208 0.390625 0.390625 0.390625 0.390625 0.390625 0.390625 0.390625 0.390625 0.390625 0.390625 0.390625 0.390625 0.390625 0.390625 0.390625 0.390625 0.390625 0.390625 0.390625 0.390625 0.390625 0.390625 0.390625 0.390625 0.390625 0.390625 0.390625 0.390626 0.390625 0.390625 0.390625 0.260417 0.260417 0.390625 0.390625 0.390625 0.390625 0.390625 0.390625 0.390625 0.390625 0.390625 0.390625 0.390625 0.390625 0.390625 0.390625 0.390625 0.390625 0.390625 0.390625 0.390626 0.390625 0.390625 0.390625 0.390625 0.390625 0.390625 0.390624 0.390625 0.390625 0.390625 0.390625 0.390625 0.130209 0.390625 0.78125 0.78125 0.78125 0.78125 0.78125 0.78125 0.78125 0.78125 0.78125 0.78125 0.781251 0.78125 0.78125 0.78125 0.78125 0.781251 0.781251 0.78125 0.781251 0.781251 0.781251 0.78125 0.78125 0.78125 0.78125 0.781249 0.78125 0.781251 0.78125 0.781251 0.781251 0.390626 0.390625 0.78125 0.78125 0.78125 0.78125 0.78125 0.78125 0.78125 0.78125 0.78125 0.78125 0.781251 0.78125 0.78125 0.78125 0.78125 0.781251 0.781251 0.78125 0.781251 0.781251 0.781251 0.78125 0.781251 0.78125 0.781251 0.78125 0.78125 0.781251 0.78125 0.781251 0.781251 0.390626 0.390625 0.78125 0.78125 0.78125 0.78125 0.78125 0.78125 0.78125 0.78125 0.78125 0.78125 0.781251 0.78125 0.78125 0.78125 0.78125 0.781251 0.781251 0.78125 0.781251 0.781251 0.781251 0.78125 0.78125 0.78125 0.78125 0.781249 0.78125 0.781251 0.78125 0.781251 0.781251 0.390626 0.390625 0.78125 0.78125 0.78125 0.78125 0.78125 0.78125 0.78125 0.78125 0.78125 0.78125 0.781251 0.78125 0.78125 0.78125 0.78125 0.781251 0.781251 0.78125 0.781251 0.781251 0.781251 0.78125 0.78125 0.78125 0.78125 0.781249 0.78125 0.781251 0.781249 0.781251 0.781251 0.390626 0.390625 0.78125 0.78125 0.781251 0.78125 0.781251 0.78125 0.78125 0.78125 0.78125 0.78125 0.781251 0.78125 0.781251 0.78125 0.78125 0.781251 0.781251 0.78125 0.781251 0.781251 0.781251 0.78125 0.781251 0.78125 0.781251 0.78125 0.78125 0.781251 0.78125 0.781251 0.781251 0.390626 0.390625 0.781251 0.781251 0.781251 0.78125 0.781251 0.78125 0.78125 0.78125 0.78125 0.781251 0.781251 0.78125 0.78125 0.78125 0.78125 0.781251 0.781251 0.781251 0.781251 0.781251 0.781251 0.78125 0.781251 0.78125 0.781251 0.78125 0.78125 0.781251 0.78125 0.781251 0.781251 0.390626 0.390625 0.78125 0.78125 0.78125 0.78125 0.78125 0.78125 0.78125 0.78125 0.78125 0.78125 0.78125 0.78125 0.78125 0.78125 0.78125 0.781251 0.781251 0.78125 0.781251 0.781251 0.781251 0.78125 0.78125 0.78125 0.78125 0.781249 0.78125 0.781251 0.781249 0.781251 0.781251 0.390626 0.130208 0.390625 0.390625 0.390625 0.390625 0.390625 0.390625 0.390625 0.390625 0.390625 0.390625 0.390625 0.390625 0.390625 0.390625 0.390625 0.390625 0.390625 0.390625 0.390626 0.390625 0.390625 0.390625 0.390625 0.390625 0.390625 0.390625 0.390625 0.390626 0.390625 0.390625 0.390626 0.260417 0.260417 0.390625 0.390625 0.390625 0.390625 0.390625 0.390625 0.390625 0.390625 0.390625 0.390625 0.390625 0.390625 0.390625 0.390625 0.390625 0.390625 0.390625 0.390625 0.390626 0.390625 0.390625 0.390625 0.390625 0.390625 0.390625 0.390624 0.390625 0.390625 0.390625 0.390625 0.390625 0.130209 0.390625 0.78125 0.78125 0.78125 0.78125 0.78125 0.78125 0.78125 0.78125 0.78125 0.78125 0.781251 0.78125 0.78125 0.78125 0.78125 0.781251 0.781251 0.78125 0.781251 0.781251 0.781251 0.78125 0.78125 0.78125 0.78125 0.78125 0.78125 0.781251 0.78125 0.781251 0.781251 0.390626 0.390625 0.78125 0.78125 0.78125 0.78125 0.78125 0.78125 0.78125 0.78125 0.78125 0.78125 0.781251 0.78125 0.78125 0.78125 0.78125 0.781251 0.781251 0.78125 0.781251 0.781251 0.781251 0.78125 0.78125 0.78125 0.78125 0.78125 0.78125 0.781251 0.78125 0.781251 0.781251 0.390626 0.390625 0.78125 0.78125 0.78125 0.78125 0.78125 0.78125 0.78125 0.78125 0.78125 0.78125 0.781251 0.78125 0.78125 0.78125 0.78125 0.781251 0.781251 0.78125 0.781251 0.781251 0.781251 0.78125 0.78125 0.78125 0.78125 0.781249 0.78125 0.781251 0.78125 0.781251 0.781251 0.390626 0.390625 0.78125 0.78125 0.78125 0.78125 0.78125 0.78125 0.78125 0.78125 0.78125 0.78125 0.781251 0.78125 0.78125 0.78125 0.78125 0.781251 0.781251 0.78125 0.781251 0.781251 0.781251 0.78125 0.78125 0.78125 0.78125 0.781249 0.78125 0.781251 0.781249 0.781251 0.781251 0.390626 0.390625 0.78125 0.78125 0.78125 0.78125 0.78125 0.78125 0.78125 0.78125 0.78125 0.78125 0.781251 0.78125 0.781251 0.78125 0.78125 0.781251 0.781251 0.78125 0.781251 0.781251 0.781251 0.78125 0.781251 0.78125 0.781251 0.78125 0.78125 0.781251 0.78125 0.781251 0.781251 0.390626 0.390625 0.78125 0.78125 0.78125 0.78125 0.78125 0.78125 0.78125 0.78125 0.78125 0.78125 0.781251 0.78125 0.78125 0.78125 0.78125 0.781251 0.781251 0.78125 0.781251 0.781251 0.781251 0.78125 0.781251 0.78125 0.781251 0.78125 0.78125 0.781251 0.78125 0.781251 0.781251 0.390626 0.390625 0.78125 0.78125 0.78125 0.78125 0.78125 0.78125 0.78125 0.78125 0.78125 0.78125 0.78125 0.78125 0.78125 0.78125 0.78125 0.781251 0.781251 0.78125 0.781251 0.781251 0.781251 0.78125 0.78125 0.78125 0.78125 0.781249 0.78125 0.781251 0.781249 0.781251 0.781251 0.390626 0.130208 0.390625 0.390625 0.390625 0.390625 0.390625 0.390625 0.390625 0.390625 0.390625 0.390625 0.390625 0.390625 0.390625 0.390625 0.390625 0.390625 0.390625 0.390625 0.390626 0.390625 0.390625 0.390625 0.390625 0.390625 0.390625 0.390625 0.390625 0.390626 0.390625 0.390625 0.390626 0.260417 0.0651042 0.130208 0.130208 0.130208 0.130208 0.130208 0.130208 0.130208 0.130208 0.130208 0.130208 0.130208 0.130208 0.130208 0.130208 0.130208 0.130208 0.130208 0.130208 0.130209 0.130208 0.130209 0.130208 0.130208 0.130208 0.130208 0.130208 0.130208 0.130209 0.130208 0.130209 0.130208 0.0651043 0.130208 0.390625 0.390625 0.390625 0.390625 0.390625 0.390625 0.390625 0.390625 0.390625 0.390625 0.390625 0.390625 0.390625 0.390625 0.390625 0.390625 0.390625 0.390625 0.390626 0.390625 0.390626 0.390625 0.390625 0.390625 0.390625 0.390625 0.390625 0.390626 0.390625 0.390626 0.390625 0.260417 0.130208 0.390625 0.390625 0.390625 0.390625 0.390625 0.390625 0.390625 0.390625 0.390625 0.390625 0.390625 0.390625 0.390625 0.390625 0.390625 0.390625 0.390626 0.390625 0.390626 0.390625 0.390626 0.390625 0.390625 0.390625 0.390625 0.390625 0.390625 0.390626 0.390625 0.390626 0.390625 0.260417 0.130208 0.390625 0.390625 0.390625 0.390625 0.390625 0.390625 0.390625 0.390625 0.390625 0.390625 0.390625 0.390625 0.390625 0.390625 0.390625 0.390625 0.390626 0.390625 0.390626 0.390626 0.390626 0.390625 0.390625 0.390625 0.390625 0.390625 0.390625 0.390626 0.390625 0.390626 0.390625 0.260417 0.130208 0.390625 0.390625 0.390625 0.390625 0.390625 0.390625 0.390625 0.390625 0.390625 0.390625 0.390625 0.390625 0.390625 0.390625 0.390625 0.390625 0.390625 0.390625 0.390626 0.390625 0.390626 0.390625 0.390625 0.390625 0.390625 0.390625 0.390625 0.390626 0.390625 0.390626 0.390625 0.260417 0.130208 0.390625 0.390625 0.390625 0.390625 0.390625 0.390625 0.390625 0.390625 0.390625 0.390625 0.390625 0.390625 0.390625 0.390625 0.390625 0.390625 0.390626 0.390625 0.390626 0.390625 0.390626 0.390625 0.390625 0.390625 0.390625 0.390625 0.390625 0.390626 0.390625 0.390626 0.390625 0.260417 0.130208 0.390625 0.390625 0.390625 0.390625 0.390625 0.390625 0.390625 0.390625 0.390625 0.390625 0.390625 0.390625 0.390625 0.390625 0.390625 0.390625 0.390626 0.390625 0.390626 0.390626 0.390626 0.390625 0.390625 0.390625 0.390625 0.390625 0.390625 0.390626 0.390625 0.390626 0.390625 0.260417 0.130208 0.390625 0.390625 0.390625 0.390625 0.390625 0.390625 0.390625 0.390625 0.390625 0.390625 0.390625 0.390625 0.390625 0.390625 0.390625 0.390625 0.390625 0.390625 0.390626 0.390625 0.390626 0.390625 0.390625 0.390625 0.390625 0.390625 0.390625 0.390626 0.390625 0.390626 0.390625 0.260417 0.0651042 0.260417 0.260417 0.260417 0.260417 0.260417 0.260417 0.260417 0.260417 0.260417 0.260417 0.260417 0.260417 0.260417 0.260417 0.260417 0.260417 0.260417 0.260417 0.260417 0.260417 0.260417 0.260417 0.260417 0.260417 0.260417 0.260417 0.260416 0.260417 0.260416 0.260417 0.260417 0.195313 0.0651042 0.130208 0.195313 0.0651042 0.0976563 0.195313 0.130208 0.195313 0.0976563 0.0651042 0.0651042 0.0976563 0.0651042 0.195313 0.0976562 0.0976563 0.0651042 0.130208 0.0976563 0.130208 0.195313 0.0651042 0.0976563 0.195313 0.130208 0.195313 0.0976563 0.0651042 0.195313 0.0976563 0.0651042 0.130208 0.0976563 0.130208 0.195313 0.0651042 0.0976563 0.195313 0.130208 0.195313 0.0976563 0.0651042 0.195313 0.0976563 0.0651042 0.130208 0.0976563 0.130208 0.195313 0.0651042 0.0976563 0.195313 0.130208 0.195313 0.0976563 0.0651042 0.195313 0.0976563 0.0651042 0.130208 0.0976563 0.130208 0.195313 0.0651042 0.0976563 0.195313 0.130208 0.195313 0.0976563 0.0651042 0.195313 0.0976563 0.0651042 0.130208 0.0976563 0.130208 0.195313 0.0651042 0.0976563 0.195313 0.130208 0.195313 0.0976564 0.0651042 0.195313 0.0976563 0.0651042 0.130208 0.0976563 0.130208 0.195313 0.0651042 0.0976563 0.195312 0.130208 0.195312 0.0976563 0.0651042 0.195313 0.0976562 0.0651042 0.130208 0.0976563 0.130208 0.195312 0.0651042 0.0976563 0.195313 0.130208 0.195313 0.0976563 0.0651042 0.195313 0.0976562 0.0651042 0.130208 0.0976563 0.130208 0.195312 0.0651042 0.0976562 0.195312 0.130208 0.195312 0.0976562 0.0651041 0.195313 0.0976562 0.0651041 0.130208 0.0976563 0.130208 0.195313 0.0651042 0.0976562 0.195313 0.130208 0.195313 0.0976563 0.0651042 0.195313 0.0976563 0.0651041 0.130208 0.0976563 0.130208 0.195313 0.0651042 0.0976563 0.195313 0.130208 0.195313 0.0976564 0.0651042 0.195313 0.0976563 0.0651042 0.130208 0.0976564 0.130208 0.195313 0.0651042 0.0976563 0.195313 0.130208 0.195313 0.0976563 0.0651042 0.195313 0.0976563 0.0651041 0.130208 0.0976562 0.130208 0.195313 0.0651042 0.0976563 0.195313 0.130208 0.195313 0.0976564 0.0651042 0.195313 0.0976563 0.0651042 0.130208 0.0976563 0.130208 0.195313 0.0651042 0.0976563 0.195312 0.130208 0.195313 0.0976564 0.0651042 0.195313 0.0976562 0.0651042 0.130208 0.0976562 0.130208 0.195312 0.0651042 0.0976562 0.195313 0.130208 0.195313 0.0976563 0.0651042 0.195312 0.0976563 0.0651042 0.130208 0.0976564 0.130209 0.195313 0.0651043 0.0976563 0.195313 0.130208 0.195313 0.0976563 0.0651042 0.195313 0.0976563 0.0651041 0.130208 0.0976564 0.130209 0.195313 0.0651042 0.0976564 0.195313 0.130208 0.195313 0.0976564 0.0651042 0.195313 0.0976564 0.0651042 0.130208 0.0976564 0.130208 0.195313 0.0651041 0.0976562 0.195313 0.130208 0.195313 0.0976563 0.0651042 0.195313 0.0976563 0.0651041 0.130208 0.0976562 0.130208 0.195313 0.0651042 0.0976564 0.195313 0.130209 0.195313 0.0976564 0.0651043 0.195313 0.0976564 0.0651043 0.130209 0.0976565 0.130209 0.195313 0.0651042 0.0976562 0.195313 0.130208 0.195313 0.0976562 0.0651042 0.195313 0.0976563 0.065104 0.130208 0.0976562 0.130209 0.195313 0.0651043 0.0976564 0.195313 0.130209 0.195313 0.0976565 0.0651043 0.195313 0.0976564 0.0651043 0.130209 0.0976564 0.130208 0.195313 0.0651041 0.0976562 0.195312 0.130208 0.195313 0.0976563 0.0651042 0.195313 0.0976563 0.0651041 0.130208 0.0976562 0.130208 0.195313 0.0651042 0.0976563 0.195313 0.130208 0.195313 0.0976564 0.0651042 0.195313 0.0976564 0.0651042 0.130208 0.0976563 0.130208 0.195313 0.0651042 0.0976563 0.195313 0.130209 0.195312 0.0976564 0.0651042 0.195313 0.0976562 0.0651041 0.130208 0.0976562 0.130208 0.195312 0.0651041 0.0976561 0.195313 0.130208 0.195313 0.0976562 0.0651041 0.195312 0.0976563 0.0651041 0.130208 0.0976564 0.130209 0.195313 0.0651042 0.0976563 0.195312 0.130209 0.195312 0.0976563 0.0651042 0.195313 0.0976561 0.0651041 0.130208 0.0976561 0.130208 0.195312 0.0651041 0.0976561 0.195313 0.130208 0.195313 0.0976561 0.0651041 0.195312 0.0976563 0.065104 0.130208 0.0976564 0.130209 0.195313 0.0651043 0.0976565 0.195313 0.130209 0.195313 0.0976565 0.0651043 0.195313 0.0976564 0.0651042 0.130209 0.0976564 0.130208 0.195312 0.065104 0.0976559 0.195312 0.130208 0.195312 0.0976559 0.065104 0.195312 0.0976563 0.0651037 0.130208 0.0976561 0.130208 0.195313 0.0651041 0.0976561 0.195313 0.130209 0.195313 0.0976561 0.0651041 0.195313 0.0976564 0.0651039 0.130208 0.0976563 0.130209 0.195313 0.0651042 0.0976562 0.195313 0.130209 0.195313 0.0976563 0.0651042 0.195313 0.0976562 0.0651041 0.130208 0.0976564 0.130209 0.195313 0.0651044 0.0976566 0.0976566 0.130209 0.0976565 0.0976565 0.0651043 0.195313 0.0325522 0.0651044 0.0651044 0.0325522 0.0651042 0.130208 0.195313 0.0651042 0.0976563 0.195313 0.130208 0.195313 0.0976563 0.0651042 0.195313 0.0976563 0.130208 0.0976563 0.130208 0.195313 0.0651042 0.0976563 0.195313 0.130208 0.195313 0.195313 0.130208 0.0976563 0.130208 0.195313 0.0651042 0.0976563 0.195313 0.130208 0.195313 0.195313 0.130208 0.0976563 0.130208 0.195313 0.0651042 0.0976563 0.195313 0.130208 0.195313 0.195313 0.130208 0.0976563 0.130208 0.195313 0.0651042 0.0976563 0.195313 0.130208 0.195313 0.195313 0.130208 0.0976563 0.130208 0.195313 0.0651042 0.0976563 0.195313 0.130208 0.195313 0.195313 0.130208 0.0976563 0.130208 0.195313 0.0651042 0.0976563 0.195312 0.130208 0.195313 0.195313 0.130208 0.0976563 0.130208 0.195312 0.0651042 0.0976563 0.195313 0.130208 0.195313 0.195313 0.130208 0.0976563 0.130208 0.195313 0.0651042 0.0976562 0.195313 0.130208 0.195312 0.195313 0.130208 0.0976563 0.130208 0.195313 0.0651042 0.0976562 0.195313 0.130208 0.195313 0.195313 0.130208 0.0976563 0.130208 0.195313 0.0651042 0.0976563 0.195313 0.130208 0.195313 0.195313 0.130208 0.0976564 0.130208 0.195313 0.0651042 0.0976563 0.195313 0.130208 0.195313 0.195313 0.130208 0.0976563 0.130208 0.195313 0.0651042 0.0976563 0.195313 0.130208 0.195313 0.195313 0.130208 0.0976563 0.130208 0.195313 0.0651042 0.0976563 0.195312 0.130208 0.195313 0.195313 0.130208 0.0976562 0.130208 0.195312 0.0651042 0.0976562 0.195313 0.130208 0.195313 0.195312 0.130208 0.0976564 0.130209 0.195313 0.0651043 0.0976563 0.195313 0.130208 0.195313 0.195313 0.130208 0.0976564 0.130209 0.195313 0.0651043 0.0976563 0.195313 0.130208 0.195313 0.195313 0.130208 0.0976564 0.130208 0.195313 0.0651042 0.0976562 0.195313 0.130208 0.195313 0.195313 0.130208 0.0976562 0.130208 0.195313 0.0651042 0.0976564 0.195313 0.130209 0.195313 0.195313 0.130209 0.0976565 0.130209 0.195313 0.0651042 0.0976561 0.195313 0.130209 0.195313 0.195313 0.130208 0.0976562 0.130209 0.195313 0.0651043 0.0976564 0.195313 0.130209 0.195313 0.195313 0.130209 0.0976564 0.130208 0.195313 0.0651042 0.0976562 0.195312 0.130208 0.195313 0.195313 0.130208 0.0976562 0.130208 0.195313 0.0651042 0.0976563 0.195313 0.130208 0.195313 0.195313 0.130208 0.0976563 0.130208 0.195313 0.0651042 0.0976563 0.195313 0.130209 0.195312 0.195313 0.130208 0.0976562 0.130208 0.195312 0.0651041 0.0976561 0.195313 0.130208 0.195313 0.195312 0.130208 0.0976564 0.130209 0.195313 0.0651042 0.0976563 0.195312 0.130209 0.195312 0.195313 0.130208 0.0976561 0.130208 0.195312 0.0651041 0.0976561 0.195313 0.130208 0.195313 0.195312 0.130208 0.0976564 0.130209 0.195313 0.0651044 0.0976565 0.195313 0.130209 0.195313 0.195313 0.130209 0.0976564 0.130208 0.195312 0.065104 0.0976559 0.195312 0.130208 0.195312 0.195312 0.130208 0.0976561 0.130208 0.195313 0.0651041 0.097656 0.195313 0.130209 0.195313 0.195313 0.130208 0.0976563 0.130209 0.195313 0.0651042 0.0976562 0.195313 0.130209 0.195313 0.195313 0.130208 0.0976564 0.130209 0.195313 0.0651044 0.0976566 0.0976566 0.130209 0.0976565 0.195313 0.0651044 0.0325522 0.0651042 0.130208 0.195313 0.0651042 0.0976563 0.195313 0.130208 0.195313 0.0976563 0.0651042 0.195313 0.0976563 0.130208 0.0976563 0.130208 0.195313 0.0651042 0.0976563 0.195313 0.130208 0.195313 0.195313 0.130208 0.0976563 0.130208 0.195313 0.0651042 0.0976563 0.195313 0.130208 0.195313 0.195313 0.130208 0.0976563 0.130208 0.195313 0.0651042 0.0976563 0.195313 0.130208 0.195313 0.195313 0.130208 0.0976563 0.130208 0.195313 0.0651042 0.0976562 0.195313 0.130208 0.195313 0.195313 0.130208 0.0976563 0.130208 0.195313 0.0651042 0.0976563 0.195313 0.130208 0.195313 0.195313 0.130208 0.0976563 0.130208 0.195313 0.0651042 0.0976563 0.195312 0.130208 0.195313 0.195313 0.130208 0.0976563 0.130208 0.195312 0.0651042 0.0976563 0.195313 0.130208 0.195313 0.195313 0.130208 0.0976563 0.130208 0.195312 0.0651042 0.0976562 0.195312 0.130208 0.195312 0.195313 0.130208 0.0976563 0.130208 0.195313 0.0651042 0.0976562 0.195313 0.130208 0.195313 0.195313 0.130208 0.0976563 0.130208 0.195313 0.0651042 0.0976563 0.195313 0.130208 0.195313 0.195313 0.130208 0.0976564 0.130208 0.195313 0.0651042 0.0976563 0.195313 0.130208 0.195313 0.195313 0.130208 0.0976563 0.130208 0.195313 0.0651042 0.0976563 0.195313 0.130208 0.195313 0.195313 0.130208 0.0976563 0.130208 0.195313 0.0651042 0.0976563 0.195312 0.130208 0.195313 0.195313 0.130208 0.0976562 0.130208 0.195312 0.0651042 0.0976562 0.195313 0.130208 0.195313 0.195312 0.130208 0.0976564 0.130209 0.195313 0.0651043 0.0976563 0.195313 0.130208 0.195313 0.195313 0.130208 0.0976564 0.130209 0.195313 0.0651043 0.0976563 0.195313 0.130208 0.195313 0.195313 0.130208 0.0976564 0.130208 0.195313 0.0651042 0.0976562 0.195313 0.130208 0.195313 0.195313 0.130208 0.0976562 0.130208 0.195313 0.0651042 0.0976564 0.195313 0.130209 0.195313 0.195313 0.130209 0.0976565 0.130209 0.195313 0.0651042 0.0976561 0.195313 0.130209 0.195313 0.195313 0.130208 0.0976562 0.130209 0.195313 0.0651043 0.0976564 0.195313 0.130209 0.195313 0.195313 0.130209 0.0976564 0.130208 0.195313 0.0651042 0.0976562 0.195312 0.130208 0.195313 0.195313 0.130208 0.0976562 0.130208 0.195313 0.0651042 0.0976563 0.195313 0.130208 0.195313 0.195313 0.130208 0.0976563 0.130208 0.195313 0.0651042 0.0976563 0.195313 0.130209 0.195312 0.195313 0.130208 0.0976562 0.130208 0.195312 0.0651041 0.0976561 0.195313 0.130208 0.195313 0.195312 0.130208 0.0976564 0.130209 0.195313 0.0651042 0.0976563 0.195312 0.130209 0.195312 0.195313 0.130208 0.0976561 0.130208 0.195312 0.0651041 0.0976561 0.195313 0.130208 0.195313 0.195312 0.130208 0.0976564 0.130209 0.195313 0.0651044 0.0976565 0.195313 0.130209 0.195313 0.195313 0.130209 0.0976564 0.130208 0.195312 0.065104 0.0976558 0.195312 0.130208 0.195312 0.195312 0.130208 0.0976562 0.130208 0.195313 0.0651041 0.097656 0.195313 0.130209 0.195313 0.195313 0.130208 0.0976563 0.130209 0.195313 0.0651042 0.0976562 0.195313 0.130209 0.195313 0.195313 0.130208 0.0976564 0.130209 0.195313 0.0651044 0.0976566 0.0976566 0.130209 0.0976565 0.195313 0.0651044 0.0325522 0.0651042 0.130208 0.195313 0.0651042 0.0976563 0.195313 0.130208 0.195313 0.0976563 0.0651042 0.195313 0.0976562 0.130208 0.0976563 0.130208 0.195313 0.0651042 0.0976563 0.195313 0.130208 0.195313 0.195313 0.130208 0.0976563 0.130208 0.195313 0.0651042 0.0976563 0.195313 0.130208 0.195313 0.195313 0.130208 0.0976563 0.130208 0.195313 0.0651042 0.0976563 0.195313 0.130208 0.195313 0.195313 0.130208 0.0976563 0.130208 0.195313 0.0651042 0.0976563 0.195313 0.130208 0.195313 0.195313 0.130208 0.0976563 0.130208 0.195313 0.0651042 0.0976563 0.195313 0.130208 0.195313 0.195313 0.130208 0.0976562 0.130208 0.195312 0.0651042 0.0976563 0.195312 0.130208 0.195312 0.195313 0.130208 0.0976562 0.130208 0.195312 0.0651042 0.0976563 0.195313 0.130208 0.195313 0.195312 0.130208 0.0976563 0.130208 0.195312 0.0651041 0.0976562 0.195312 0.130208 0.195312 0.195313 0.130208 0.0976562 0.130208 0.195312 0.0651041 0.0976562 0.195313 0.130208 0.195313 0.195313 0.130208 0.0976563 0.130208 0.195313 0.0651042 0.0976563 0.195313 0.130208 0.195313 0.195313 0.130208 0.0976564 0.130208 0.195313 0.0651042 0.0976563 0.195313 0.130208 0.195312 0.195313 0.130208 0.0976562 0.130208 0.195313 0.0651042 0.0976563 0.195313 0.130208 0.195313 0.195313 0.130208 0.0976563 0.130208 0.195313 0.0651042 0.0976563 0.195312 0.130208 0.195312 0.195313 0.130208 0.0976562 0.130208 0.195312 0.0651041 0.0976562 0.195313 0.130208 0.195313 0.195312 0.130208 0.0976564 0.130209 0.195313 0.0651042 0.0976563 0.195313 0.130208 0.195313 0.195313 0.130208 0.0976564 0.130209 0.195313 0.0651042 0.0976564 0.195313 0.130208 0.195313 0.195313 0.130208 0.0976563 0.130208 0.195313 0.0651041 0.0976562 0.195313 0.130208 0.195313 0.195313 0.130208 0.0976562 0.130208 0.195313 0.0651042 0.0976564 0.195313 0.130209 0.195313 0.195313 0.130209 0.0976565 0.130209 0.195313 0.0651041 0.0976562 0.195313 0.130208 0.195313 0.195313 0.130208 0.0976562 0.130209 0.195313 0.0651042 0.0976564 0.195313 0.130209 0.195313 0.195313 0.130208 0.0976563 0.130208 0.195313 0.0651041 0.0976562 0.195312 0.130208 0.195312 0.195313 0.130208 0.0976562 0.130208 0.195313 0.0651042 0.0976563 0.195313 0.130208 0.195313 0.195313 0.130208 0.0976563 0.130208 0.195313 0.0651042 0.0976563 0.195313 0.130208 0.195312 0.195313 0.130208 0.0976561 0.130208 0.195312 0.065104 0.0976561 0.195313 0.130208 0.195313 0.195312 0.130208 0.0976564 0.130209 0.195313 0.0651042 0.0976563 0.195312 0.130209 0.195312 0.195313 0.130208 0.0976561 0.130208 0.195312 0.065104 0.0976561 0.195313 0.130208 0.195313 0.195312 0.130208 0.0976564 0.130209 0.195313 0.0651043 0.0976565 0.195313 0.130209 0.195313 0.195313 0.130208 0.0976564 0.130208 0.195312 0.065104 0.0976559 0.195312 0.130208 0.195312 0.195312 0.130208 0.0976561 0.130208 0.195313 0.0651041 0.097656 0.195313 0.130208 0.195313 0.195313 0.130208 0.0976563 0.130209 0.195313 0.0651042 0.0976562 0.195313 0.130209 0.195313 0.195313 0.130208 0.0976564 0.130209 0.195313 0.0651044 0.0976566 0.0976566 0.130208 0.0976565 0.195313 0.0651044 0.0325522 0.0651042 0.130208 0.195313 0.0651042 0.0976563 0.195313 0.130208 0.195313 0.0976563 0.0651042 0.195313 0.0976562 0.130208 0.0976563 0.130208 0.195313 0.0651042 0.0976563 0.195313 0.130208 0.195313 0.195313 0.130208 0.0976563 0.130208 0.195313 0.0651042 0.0976563 0.195313 0.130208 0.195313 0.195313 0.130208 0.0976563 0.130208 0.195313 0.0651042 0.0976563 0.195313 0.130208 0.195313 0.195313 0.130208 0.0976563 0.130208 0.195313 0.0651042 0.0976563 0.195313 0.130208 0.195313 0.195313 0.130208 0.0976563 0.130208 0.195313 0.0651042 0.0976563 0.195313 0.130208 0.195313 0.195313 0.130208 0.0976563 0.130208 0.195313 0.0651042 0.0976563 0.195312 0.130208 0.195313 0.195313 0.130208 0.0976563 0.130208 0.195312 0.0651042 0.0976563 0.195313 0.130208 0.195313 0.195313 0.130208 0.0976563 0.130208 0.195312 0.0651042 0.0976562 0.195313 0.130208 0.195312 0.195313 0.130208 0.0976563 0.130208 0.195313 0.0651042 0.0976563 0.195313 0.130208 0.195313 0.195313 0.130208 0.0976563 0.130208 0.195313 0.0651042 0.0976563 0.195313 0.130208 0.195313 0.195313 0.130208 0.0976564 0.130208 0.195313 0.0651042 0.0976563 0.195313 0.130208 0.195313 0.195313 0.130208 0.0976562 0.130208 0.195313 0.0651042 0.0976563 0.195313 0.130208 0.195313 0.195313 0.130208 0.0976563 0.130208 0.195313 0.0651042 0.0976563 0.195313 0.130208 0.195313 0.195313 0.130208 0.0976562 0.130208 0.195312 0.0651042 0.0976563 0.195313 0.130208 0.195313 0.195313 0.130208 0.0976564 0.130209 0.195313 0.0651043 0.0976563 0.195313 0.130208 0.195313 0.195313 0.130208 0.0976564 0.130209 0.195313 0.0651042 0.0976564 0.195313 0.130208 0.195313 0.195313 0.130208 0.0976564 0.130208 0.195313 0.0651041 0.0976562 0.195313 0.130208 0.195313 0.195313 0.130208 0.0976562 0.130208 0.195313 0.0651042 0.0976564 0.195313 0.130209 0.195313 0.195313 0.130209 0.0976565 0.130209 0.195313 0.0651042 0.0976562 0.195313 0.130208 0.195313 0.195313 0.130208 0.0976562 0.130209 0.195313 0.0651043 0.0976564 0.195313 0.130209 0.195313 0.195313 0.130209 0.0976564 0.130208 0.195313 0.0651041 0.0976562 0.195312 0.130208 0.195313 0.195313 0.130208 0.0976562 0.130208 0.195313 0.0651042 0.0976563 0.195313 0.130208 0.195313 0.195313 0.130208 0.0976563 0.130208 0.195313 0.0651042 0.0976563 0.195313 0.130209 0.195312 0.195313 0.130208 0.0976562 0.130208 0.195312 0.0651041 0.0976561 0.195313 0.130208 0.195313 0.195312 0.130208 0.0976564 0.130209 0.195313 0.0651042 0.0976563 0.195312 0.130209 0.195312 0.195313 0.130208 0.0976561 0.130208 0.195312 0.0651041 0.0976561 0.195313 0.130208 0.195313 0.195312 0.130208 0.0976564 0.130209 0.195313 0.0651043 0.0976565 0.195313 0.130209 0.195313 0.195313 0.130209 0.0976564 0.130208 0.195312 0.065104 0.0976559 0.195312 0.130208 0.195312 0.195312 0.130208 0.0976561 0.130208 0.195313 0.0651041 0.0976561 0.195313 0.130209 0.195313 0.195313 0.130208 0.0976563 0.130209 0.195313 0.0651042 0.0976562 0.195313 0.130209 0.195313 0.195313 0.130208 0.0976564 0.130209 0.195313 0.0651044 0.0976566 0.0976566 0.130209 0.0976565 0.195313 0.0651044 0.0325522 0.0651042 0.130208 0.195313 0.0651042 0.0976563 0.195313 0.130208 0.195313 0.0976563 0.0651042 0.195313 0.0976563 0.130208 0.0976563 0.130208 0.195313 0.0651042 0.0976563 0.195313 0.130208 0.195313 0.195313 0.130208 0.0976563 0.130208 0.195313 0.0651042 0.0976563 0.195313 0.130208 0.195313 0.195313 0.130208 0.0976563 0.130208 0.195313 0.0651042 0.0976563 0.195313 0.130208 0.195313 0.195313 0.130208 0.0976563 0.130208 0.195313 0.0651042 0.0976563 0.195313 0.130208 0.195313 0.195313 0.130208 0.0976563 0.130208 0.195313 0.0651042 0.0976563 0.195313 0.130208 0.195313 0.195313 0.130208 0.0976563 0.130208 0.195313 0.0651042 0.0976563 0.195313 0.130208 0.195313 0.195313 0.130208 0.0976563 0.130208 0.195313 0.0651042 0.0976563 0.195313 0.130208 0.195313 0.195313 0.130208 0.0976563 0.130208 0.195313 0.0651042 0.0976562 0.195313 0.130208 0.195313 0.195313 0.130208 0.0976563 0.130208 0.195313 0.0651042 0.0976562 0.195313 0.130208 0.195313 0.195313 0.130208 0.0976563 0.130208 0.195313 0.0651042 0.0976564 0.195313 0.130209 0.195313 0.195313 0.130208 0.0976564 0.130209 0.195313 0.0651042 0.0976563 0.195313 0.130209 0.195313 0.195313 0.130208 0.0976563 0.130208 0.195313 0.0651042 0.0976563 0.195313 0.130208 0.195313 0.195313 0.130208 0.0976563 0.130208 0.195313 0.0651042 0.0976563 0.195313 0.130208 0.195313 0.195313 0.130208 0.0976563 0.130208 0.195313 0.0651042 0.0976563 0.195313 0.130208 0.195313 0.195313 0.130208 0.0976564 0.130209 0.195313 0.0651043 0.0976564 0.195313 0.130209 0.195313 0.195313 0.130208 0.0976564 0.130209 0.195313 0.0651043 0.0976564 0.195313 0.130209 0.195313 0.195313 0.130209 0.0976564 0.130208 0.195313 0.0651042 0.0976562 0.195313 0.130208 0.195313 0.195313 0.130208 0.0976563 0.130208 0.195313 0.0651043 0.0976564 0.195313 0.130209 0.195313 0.195313 0.130209 0.0976566 0.130209 0.195313 0.0651042 0.0976562 0.195313 0.130209 0.195313 0.195313 0.130208 0.0976562 0.130209 0.195313 0.0651043 0.0976564 0.195313 0.130209 0.195313 0.195313 0.130209 0.0976564 0.130208 0.195313 0.0651042 0.0976562 0.195312 0.130208 0.195313 0.195313 0.130208 0.0976563 0.130208 0.195313 0.0651043 0.0976563 0.195313 0.130209 0.195313 0.195313 0.130208 0.0976564 0.130209 0.195313 0.0651043 0.0976563 0.195313 0.130209 0.195313 0.195313 0.130208 0.0976562 0.130208 0.195312 0.0651041 0.0976561 0.195313 0.130208 0.195313 0.195312 0.130208 0.0976565 0.130209 0.195313 0.0651043 0.0976563 0.195312 0.130209 0.195312 0.195313 0.130208 0.0976562 0.130208 0.195312 0.0651041 0.0976561 0.195313 0.130208 0.195313 0.195312 0.130208 0.0976565 0.130209 0.195313 0.0651044 0.0976565 0.195313 0.130209 0.195313 0.195313 0.130209 0.0976564 0.130208 0.195312 0.065104 0.0976559 0.195312 0.130208 0.195312 0.195312 0.130208 0.0976562 0.130208 0.195313 0.0651041 0.0976561 0.195313 0.130209 0.195313 0.195313 0.130208 0.0976564 0.130209 0.195313 0.0651042 0.0976562 0.195313 0.130209 0.195313 0.195313 0.130208 0.0976564 0.130209 0.195313 0.0651044 0.0976566 0.0976566 0.130209 0.0976565 0.195313 0.0651044 0.0325522 0.0651042 0.130208 0.195313 0.0651042 0.0976562 0.195313 0.130208 0.195313 0.0976562 0.0651042 0.195313 0.0976563 0.130208 0.0976563 0.130208 0.195313 0.0651042 0.0976562 0.195313 0.130208 0.195313 0.195313 0.130208 0.0976563 0.130208 0.195313 0.0651042 0.0976562 0.195313 0.130208 0.195313 0.195313 0.130208 0.0976563 0.130208 0.195313 0.0651042 0.0976562 0.195313 0.130208 0.195313 0.195313 0.130208 0.0976563 0.130208 0.195313 0.0651042 0.0976562 0.195313 0.130208 0.195313 0.195313 0.130208 0.0976563 0.130208 0.195313 0.0651042 0.0976563 0.195313 0.130208 0.195313 0.195313 0.130208 0.0976563 0.130208 0.195313 0.0651042 0.0976562 0.195312 0.130208 0.195313 0.195313 0.130208 0.0976563 0.130208 0.195312 0.0651042 0.0976562 0.195313 0.130208 0.195313 0.195312 0.130208 0.0976563 0.130208 0.195313 0.0651042 0.0976562 0.195312 0.130208 0.195312 0.195312 0.130208 0.0976563 0.130208 0.195313 0.0651042 0.0976562 0.195313 0.130208 0.195313 0.195313 0.130208 0.0976563 0.130208 0.195313 0.0651042 0.0976563 0.195313 0.130208 0.195313 0.195313 0.130208 0.0976564 0.130208 0.195313 0.0651042 0.0976563 0.195313 0.130208 0.195313 0.195313 0.130208 0.0976563 0.130208 0.195313 0.0651042 0.0976563 0.195313 0.130208 0.195313 0.195313 0.130208 0.0976563 0.130208 0.195313 0.0651042 0.0976562 0.195312 0.130208 0.195313 0.195313 0.130208 0.0976563 0.130208 0.195312 0.0651042 0.0976562 0.195313 0.130208 0.195313 0.195312 0.130208 0.0976564 0.130208 0.195313 0.0651043 0.0976563 0.195313 0.130208 0.195313 0.195313 0.130208 0.0976564 0.130209 0.195313 0.0651043 0.0976563 0.195313 0.130209 0.195313 0.195313 0.130209 0.0976564 0.130208 0.195313 0.0651042 0.0976561 0.195313 0.130208 0.195313 0.195313 0.130208 0.0976562 0.130208 0.195313 0.0651043 0.0976563 0.195313 0.130209 0.195313 0.195313 0.130209 0.0976565 0.130209 0.195313 0.0651042 0.0976561 0.195313 0.130209 0.195313 0.195313 0.130208 0.0976562 0.130209 0.195313 0.0651043 0.0976564 0.195313 0.130209 0.195313 0.195313 0.130209 0.0976564 0.130208 0.195313 0.0651042 0.0976562 0.195312 0.130208 0.195313 0.195313 0.130208 0.0976563 0.130208 0.195313 0.0651042 0.0976563 0.195313 0.130208 0.195313 0.195313 0.130208 0.0976564 0.130208 0.195313 0.0651043 0.0976563 0.195313 0.130209 0.195312 0.195313 0.130208 0.0976562 0.130208 0.195312 0.0651041 0.097656 0.195313 0.130208 0.195313 0.195312 0.130208 0.0976565 0.130209 0.195313 0.0651043 0.0976562 0.195312 0.130209 0.195312 0.195313 0.130208 0.0976562 0.130208 0.195312 0.0651041 0.097656 0.195313 0.130208 0.195313 0.195312 0.130208 0.0976565 0.130209 0.195313 0.0651044 0.0976564 0.195313 0.130209 0.195313 0.195313 0.130209 0.0976564 0.130208 0.195312 0.065104 0.0976558 0.195312 0.130208 0.195312 0.195312 0.130208 0.0976562 0.130208 0.195313 0.0651041 0.097656 0.195313 0.130209 0.195313 0.195313 0.130208 0.0976564 0.130209 0.195313 0.0651042 0.0976562 0.195313 0.130209 0.195313 0.195313 0.130208 0.0976564 0.130209 0.195313 0.0651044 0.0976565 0.0976566 0.130209 0.0976565 0.195313 0.0651044 0.0325522 0.0651042 0.0651042 0.195312 0.0651042 0.0325521 0.0976563 0.130208 0.195312 0.0325521 0.0651042 0.0976563 0.0976562 0.130208 0.0976563 0.0651042 0.195312 0.0651042 0.0325521 0.0976563 0.130208 0.195312 0.0976563 0.130208 0.0976563 0.0651042 0.195312 0.0651042 0.0325521 0.0976563 0.130208 0.195312 0.0976563 0.130208 0.0976563 0.0651042 0.195312 0.0651042 0.0325521 0.0976563 0.130208 0.195312 0.0976563 0.130208 0.0976563 0.0651042 0.195312 0.0651042 0.0325521 0.0976563 0.130208 0.195312 0.0976563 0.130208 0.0976563 0.0651042 0.195313 0.0651042 0.0325521 0.0976563 0.130208 0.195312 0.0976563 0.130208 0.0976562 0.0651042 0.195312 0.0651042 0.0325521 0.0976562 0.130208 0.195312 0.0976562 0.130208 0.0976562 0.0651042 0.195312 0.0651042 0.0325521 0.0976563 0.130208 0.195312 0.0976562 0.130208 0.0976563 0.0651042 0.195312 0.0651041 0.0325521 0.0976562 0.130208 0.195312 0.0976563 0.130208 0.0976562 0.0651042 0.195312 0.0651041 0.0325521 0.0976563 0.130208 0.195312 0.0976563 0.130208 0.0976563 0.0651043 0.195313 0.0651042 0.0325521 0.0976563 0.130208 0.195313 0.0976563 0.130208 0.0976564 0.0651043 0.195313 0.0651042 0.0325522 0.0976563 0.130208 0.195312 0.0976564 0.130208 0.0976562 0.0651042 0.195312 0.0651042 0.0325521 0.0976563 0.130208 0.195312 0.0976562 0.130208 0.0976563 0.0651042 0.195313 0.0651042 0.0325521 0.0976562 0.130208 0.195312 0.0976563 0.130208 0.0976562 0.0651041 0.195312 0.0651041 0.0325521 0.0976563 0.130208 0.195313 0.0976562 0.130208 0.0976564 0.0651043 0.195313 0.0651042 0.0325522 0.0976564 0.130208 0.195313 0.0976564 0.130208 0.0976564 0.0651043 0.195313 0.0651042 0.0325522 0.0976564 0.130208 0.195313 0.0976564 0.130208 0.0976563 0.0651043 0.195313 0.0651041 0.0325521 0.0976562 0.130208 0.195312 0.0976564 0.130208 0.0976562 0.0651042 0.195313 0.0651042 0.0325521 0.0976564 0.130208 0.195313 0.0976563 0.130209 0.0976565 0.0651044 0.195313 0.0651041 0.0325522 0.0976563 0.130208 0.195312 0.0976565 0.130208 0.0976562 0.0651042 0.195313 0.0651042 0.0325521 0.0976564 0.130209 0.195313 0.0976564 0.130208 0.0976564 0.0651042 0.195312 0.0651041 0.0325521 0.0976562 0.130208 0.195312 0.0976563 0.130208 0.0976562 0.0651042 0.195312 0.0651042 0.0325521 0.0976563 0.130208 0.195313 0.0976562 0.130208 0.0976563 0.0651043 0.195313 0.0651042 0.0325522 0.0976563 0.130208 0.195312 0.0976563 0.130208 0.0976561 0.0651041 0.195312 0.065104 0.032552 0.0976562 0.130208 0.195313 0.0976561 0.130208 0.0976564 0.0651044 0.195313 0.0651042 0.0325522 0.0976562 0.130208 0.195312 0.0976565 0.130208 0.0976561 0.0651041 0.195312 0.065104 0.0325521 0.0976562 0.130208 0.195312 0.097656 0.130208 0.0976564 0.0651044 0.195313 0.0651043 0.0325522 0.0976565 0.130209 0.195313 0.0976565 0.130208 0.0976564 0.0651043 0.195312 0.065104 0.0325521 0.0976561 0.130208 0.195312 0.0976564 0.130208 0.0976561 0.0651043 0.195313 0.0651041 0.0325522 0.0976563 0.130208 0.195313 0.0976565 0.130208 0.0976563 0.0651044 0.195313 0.0651042 0.0325522 0.0976564 0.130209 0.195313 0.0976566 0.130208 0.0976564 0.0651044 0.195313 0.0651043 0.0325522 0.0651043 0.130208 0.0976564 0.0976564 0.0651043 0.0325522 0.130208 0.195313 0.195313 0.130208 0.195313 0.0976563 0.0651042 0.0651042 0.0976563 0.0651042 0.195313 0.0976562 0.0976563 0.130208 0.130208 0.195313 0.195313 0.130208 0.195313 0.0976563 0.0651042 0.195313 0.0976563 0.130208 0.130208 0.195313 0.195313 0.130208 0.195313 0.0976563 0.0651042 0.195313 0.0976563 0.130208 0.130208 0.195313 0.195313 0.130208 0.195313 0.0976563 0.0651042 0.195313 0.0976563 0.130208 0.130208 0.195313 0.195313 0.130208 0.195313 0.0976563 0.0651042 0.195313 0.0976564 0.130208 0.130208 0.195313 0.195313 0.130208 0.195313 0.0976563 0.0651043 0.195313 0.0976563 0.130208 0.130208 0.195313 0.195313 0.130208 0.195313 0.0976563 0.0651042 0.195313 0.0976563 0.130208 0.130208 0.195313 0.195313 0.130208 0.195313 0.0976562 0.0651042 0.195312 0.0976563 0.130208 0.130208 0.195313 0.195313 0.130208 0.195312 0.0976562 0.0651042 0.195312 0.0976563 0.130208 0.130208 0.195313 0.195313 0.130208 0.195313 0.0976563 0.0651042 0.195313 0.0976563 0.130208 0.130208 0.195313 0.195313 0.130208 0.195313 0.0976563 0.0651043 0.195313 0.0976564 0.130208 0.130208 0.195313 0.195313 0.130208 0.195312 0.0976563 0.0651042 0.195313 0.0976563 0.130208 0.130208 0.195313 0.195313 0.130208 0.195313 0.0976563 0.0651042 0.195313 0.0976564 0.130208 0.130208 0.195313 0.195313 0.130208 0.195313 0.0976563 0.0651043 0.195313 0.0976563 0.130208 0.130208 0.195312 0.195313 0.130208 0.195313 0.0976562 0.0651042 0.195312 0.0976563 0.130208 0.130209 0.195313 0.195313 0.130208 0.195313 0.0976563 0.0651042 0.195313 0.0976563 0.130208 0.130209 0.195313 0.195313 0.130208 0.195313 0.0976563 0.0651043 0.195313 0.0976564 0.130209 0.130208 0.195313 0.195313 0.130208 0.195313 0.0976562 0.0651042 0.195313 0.0976564 0.130208 0.130208 0.195313 0.195313 0.130209 0.195313 0.0976564 0.0651043 0.195313 0.0976565 0.130209 0.130209 0.195313 0.195313 0.130208 0.195313 0.0976562 0.0651042 0.195313 0.0976564 0.130208 0.130209 0.195313 0.195313 0.130209 0.195313 0.0976565 0.0651044 0.195313 0.0976564 0.130209 0.130208 0.195313 0.195312 0.130208 0.195313 0.0976563 0.0651043 0.195313 0.0976563 0.130208 0.130208 0.195313 0.195313 0.130208 0.195313 0.0976563 0.0651043 0.195313 0.0976564 0.130208 0.130208 0.195313 0.195313 0.130208 0.195312 0.0976563 0.0651043 0.195313 0.0976563 0.130208 0.130208 0.195312 0.195313 0.130208 0.195313 0.0976562 0.0651042 0.195312 0.0976564 0.130208 0.130209 0.195313 0.195312 0.130209 0.195312 0.0976563 0.0651042 0.195313 0.0976561 0.130208 0.130208 0.195312 0.195313 0.130208 0.195313 0.0976561 0.0651041 0.195312 0.0976564 0.130208 0.130209 0.195313 0.195313 0.130209 0.195313 0.0976565 0.0651044 0.195313 0.0976564 0.130209 0.130208 0.195312 0.195312 0.130208 0.195312 0.0976558 0.065104 0.195312 0.0976563 0.130208 0.130208 0.195313 0.195313 0.130209 0.195313 0.0976561 0.0651042 0.195313 0.0976564 0.130208 0.130209 0.195313 0.195313 0.130209 0.195313 0.0976563 0.0651043 0.195313 0.0976562 0.130208 0.130209 0.195313 0.0976566 0.130208 0.0976565 0.0976565 0.0651043 0.195313 0.0325522 0.0651044 0.130208 0.195313 0.195313 0.130208 0.195313 0.0976563 0.0651042 0.195313 0.0976562 0.130208 0.130208 0.195313 0.195313 0.130208 0.195313 0.195313 0.130208 0.130208 0.195313 0.195313 0.130208 0.195313 0.195313 0.130208 0.130208 0.195313 0.195313 0.130208 0.195313 0.195313 0.130208 0.130208 0.195313 0.195313 0.130208 0.195313 0.195313 0.130208 0.130208 0.195313 0.195313 0.130208 0.195313 0.195313 0.130208 0.130208 0.195313 0.195313 0.130208 0.195313 0.195313 0.130208 0.130208 0.195313 0.195313 0.130208 0.195313 0.195312 0.130208 0.130208 0.195313 0.195313 0.130208 0.195312 0.195312 0.130208 0.130208 0.195313 0.195313 0.130208 0.195313 0.195312 0.130208 0.130208 0.195313 0.195313 0.130208 0.195313 0.195313 0.130209 0.130208 0.195313 0.195313 0.130208 0.195313 0.195313 0.130208 0.130208 0.195313 0.195313 0.130208 0.195313 0.195313 0.130208 0.130208 0.195313 0.195313 0.130208 0.195313 0.195313 0.130208 0.130208 0.195312 0.195313 0.130208 0.195313 0.195312 0.130208 0.130209 0.195313 0.195313 0.130208 0.195313 0.195313 0.130208 0.130209 0.195313 0.195313 0.130208 0.195313 0.195313 0.130209 0.130208 0.195313 0.195313 0.130208 0.195313 0.195313 0.130208 0.130208 0.195313 0.195313 0.130209 0.195313 0.195313 0.130209 0.130209 0.195313 0.195313 0.130208 0.195313 0.195313 0.130208 0.130209 0.195313 0.195313 0.130209 0.195313 0.195313 0.130209 0.130208 0.195313 0.195313 0.130208 0.195313 0.195313 0.130208 0.130208 0.195313 0.195313 0.130208 0.195313 0.195313 0.130208 0.130208 0.195313 0.195313 0.130209 0.195312 0.195313 0.130208 0.130208 0.195312 0.195313 0.130208 0.195313 0.195312 0.130208 0.130209 0.195313 0.195312 0.130209 0.195312 0.195313 0.130208 0.130208 0.195312 0.195313 0.130208 0.195313 0.195312 0.130208 0.130209 0.195313 0.195313 0.130209 0.195313 0.195313 0.130209 0.130208 0.195312 0.195312 0.130208 0.195312 0.195312 0.130208 0.130208 0.195313 0.195313 0.130209 0.195313 0.195313 0.130208 0.130209 0.195313 0.195313 0.130209 0.195313 0.195313 0.130208 0.130209 0.195313 0.0976566 0.130208 0.0976565 0.195313 0.0651045 0.130208 0.195313 0.195313 0.130208 0.195313 0.0976563 0.0651042 0.195313 0.0976563 0.130208 0.130208 0.195313 0.195313 0.130208 0.195313 0.195313 0.130208 0.130208 0.195313 0.195313 0.130208 0.195313 0.195313 0.130208 0.130208 0.195313 0.195313 0.130208 0.195313 0.195313 0.130208 0.130208 0.195313 0.195313 0.130208 0.195313 0.195313 0.130208 0.130208 0.195313 0.195313 0.130208 0.195313 0.195313 0.130208 0.130208 0.195313 0.195313 0.130208 0.195313 0.195313 0.130208 0.130208 0.195313 0.195313 0.130208 0.195313 0.195312 0.130208 0.130208 0.195313 0.195313 0.130208 0.195312 0.195312 0.130208 0.130208 0.195313 0.195313 0.130208 0.195313 0.195312 0.130208 0.130208 0.195313 0.195313 0.130208 0.195313 0.195313 0.130208 0.130208 0.195313 0.195313 0.130208 0.195313 0.195313 0.130208 0.130208 0.195313 0.195313 0.130208 0.195313 0.195313 0.130208 0.130208 0.195313 0.195313 0.130208 0.195313 0.195313 0.130208 0.130208 0.195313 0.195313 0.130208 0.195313 0.195312 0.130208 0.130209 0.195313 0.195313 0.130208 0.195313 0.195313 0.130208 0.130209 0.195313 0.195313 0.130208 0.195313 0.195313 0.130209 0.130208 0.195313 0.195313 0.130208 0.195313 0.195313 0.130208 0.130208 0.195313 0.195313 0.130209 0.195313 0.195313 0.130209 0.130209 0.195313 0.195313 0.130208 0.195313 0.195313 0.130208 0.130209 0.195313 0.195313 0.130209 0.195313 0.195313 0.130209 0.130208 0.195313 0.195313 0.130208 0.195313 0.195313 0.130208 0.130208 0.195313 0.195313 0.130208 0.195313 0.195313 0.130208 0.130209 0.195313 0.195313 0.130209 0.195312 0.195313 0.130208 0.130208 0.195312 0.195313 0.130208 0.195313 0.195312 0.130208 0.130209 0.195313 0.195312 0.130209 0.195312 0.195313 0.130208 0.130208 0.195312 0.195313 0.130208 0.195313 0.195312 0.130208 0.130209 0.195313 0.195313 0.130209 0.195313 0.195313 0.130209 0.130208 0.195312 0.195312 0.130208 0.195312 0.195312 0.130208 0.130208 0.195313 0.195313 0.130209 0.195313 0.195313 0.130208 0.130209 0.195313 0.195313 0.130209 0.195313 0.195313 0.130208 0.130209 0.195313 0.0976566 0.130209 0.0976565 0.195313 0.0651044 0.130208 0.195313 0.195313 0.130208 0.195313 0.0976563 0.0651042 0.195313 0.0976562 0.130208 0.130208 0.195313 0.195313 0.130208 0.195313 0.195313 0.130208 0.130208 0.195313 0.195313 0.130208 0.195313 0.195313 0.130208 0.130208 0.195313 0.195313 0.130208 0.195313 0.195313 0.130208 0.130208 0.195313 0.195313 0.130208 0.195313 0.195313 0.130208 0.130208 0.195313 0.195313 0.130208 0.195313 0.195313 0.130208 0.130208 0.195313 0.195312 0.130208 0.195312 0.195313 0.130208 0.130208 0.195312 0.195313 0.130208 0.195312 0.195312 0.130208 0.130208 0.195313 0.195313 0.130208 0.195312 0.195312 0.130208 0.130208 0.195313 0.195313 0.130208 0.195313 0.195312 0.130208 0.130208 0.195313 0.195313 0.130208 0.195313 0.195313 0.130208 0.130208 0.195313 0.195313 0.130208 0.195312 0.195313 0.130208 0.130208 0.195313 0.195313 0.130208 0.195313 0.195313 0.130208 0.130208 0.195313 0.195313 0.130208 0.195312 0.195313 0.130208 0.130208 0.195312 0.195313 0.130208 0.195313 0.195312 0.130208 0.130209 0.195313 0.195313 0.130208 0.195313 0.195313 0.130208 0.130209 0.195313 0.195313 0.130208 0.195313 0.195313 0.130208 0.130208 0.195313 0.195313 0.130208 0.195313 0.195313 0.130208 0.130208 0.195313 0.195313 0.130208 0.195313 0.195313 0.130209 0.130209 0.195313 0.195313 0.130208 0.195313 0.195313 0.130208 0.130209 0.195313 0.195313 0.130209 0.195313 0.195313 0.130209 0.130208 0.195313 0.195312 0.130208 0.195313 0.195313 0.130208 0.130208 0.195313 0.195313 0.130208 0.195313 0.195313 0.130208 0.130208 0.195313 0.195313 0.130208 0.195312 0.195313 0.130208 0.130208 0.195312 0.195313 0.130208 0.195313 0.195312 0.130208 0.130209 0.195313 0.195312 0.130208 0.195312 0.195313 0.130208 0.130208 0.195312 0.195313 0.130208 0.195313 0.195312 0.130208 0.130209 0.195313 0.195313 0.130209 0.195313 0.195313 0.130209 0.130208 0.195312 0.195312 0.130208 0.195312 0.195312 0.130208 0.130208 0.195313 0.195313 0.130208 0.195313 0.195313 0.130208 0.130209 0.195313 0.195313 0.130209 0.195313 0.195313 0.130208 0.130209 0.195313 0.0976566 0.130208 0.0976565 0.195313 0.0651044 0.130208 0.195313 0.195313 0.130208 0.195313 0.0976563 0.0651042 0.195313 0.0976562 0.130208 0.130208 0.195313 0.195313 0.130208 0.195313 0.195313 0.130208 0.130208 0.195313 0.195313 0.130208 0.195313 0.195313 0.130208 0.130208 0.195313 0.195313 0.130208 0.195313 0.195313 0.130208 0.130208 0.195313 0.195313 0.130208 0.195313 0.195313 0.130208 0.130208 0.195313 0.195313 0.130208 0.195313 0.195313 0.130208 0.130208 0.195313 0.195313 0.130208 0.195313 0.195313 0.130208 0.130208 0.195313 0.195313 0.130208 0.195313 0.195312 0.130208 0.130208 0.195313 0.195313 0.130208 0.195312 0.195312 0.130208 0.130208 0.195313 0.195313 0.130208 0.195313 0.195313 0.130208 0.130208 0.195313 0.195313 0.130208 0.195313 0.195313 0.130208 0.130209 0.195313 0.195313 0.130208 0.195313 0.195313 0.130208 0.130208 0.195313 0.195313 0.130208 0.195313 0.195313 0.130208 0.130208 0.195313 0.195313 0.130208 0.195313 0.195313 0.130208 0.130208 0.195312 0.195313 0.130208 0.195313 0.195312 0.130208 0.130209 0.195313 0.195313 0.130208 0.195313 0.195313 0.130208 0.130209 0.195313 0.195313 0.130208 0.195313 0.195313 0.130209 0.130208 0.195313 0.195313 0.130208 0.195313 0.195313 0.130208 0.130208 0.195313 0.195313 0.130209 0.195313 0.195313 0.130209 0.130209 0.195313 0.195313 0.130208 0.195313 0.195313 0.130208 0.130209 0.195313 0.195313 0.130209 0.195313 0.195313 0.130209 0.130208 0.195313 0.195313 0.130208 0.195313 0.195313 0.130208 0.130208 0.195313 0.195313 0.130208 0.195313 0.195313 0.130208 0.130209 0.195313 0.195313 0.130208 0.195312 0.195313 0.130208 0.130208 0.195312 0.195313 0.130208 0.195313 0.195312 0.130208 0.130209 0.195313 0.195312 0.130209 0.195312 0.195313 0.130208 0.130208 0.195312 0.195313 0.130208 0.195313 0.195312 0.130208 0.130209 0.195313 0.195313 0.130209 0.195313 0.195313 0.130209 0.130208 0.195312 0.195312 0.130208 0.195312 0.195312 0.130208 0.130208 0.195313 0.195313 0.130209 0.195313 0.195313 0.130208 0.130209 0.195313 0.195313 0.130209 0.195313 0.195313 0.130208 0.130209 0.195313 0.0976566 0.130208 0.0976565 0.195313 0.0651045 0.130208 0.195313 0.195313 0.130208 0.195313 0.0976563 0.0651042 0.195313 0.0976563 0.130208 0.130208 0.195313 0.195313 0.130208 0.195313 0.195313 0.130208 0.130208 0.195313 0.195313 0.130208 0.195313 0.195313 0.130208 0.130208 0.195313 0.195313 0.130208 0.195313 0.195313 0.130208 0.130208 0.195313 0.195313 0.130208 0.195313 0.195313 0.130208 0.130208 0.195313 0.195313 0.130208 0.195313 0.195313 0.130208 0.130208 0.195313 0.195313 0.130208 0.195313 0.195313 0.130208 0.130208 0.195313 0.195313 0.130208 0.195313 0.195312 0.130208 0.130208 0.195313 0.195313 0.130208 0.195313 0.195313 0.130208 0.130208 0.195313 0.195313 0.130208 0.195313 0.195313 0.130208 0.130209 0.195313 0.195313 0.130208 0.195313 0.195313 0.130209 0.130209 0.195313 0.195313 0.130208 0.195313 0.195313 0.130208 0.130208 0.195313 0.195313 0.130208 0.195313 0.195313 0.130208 0.130208 0.195313 0.195313 0.130208 0.195313 0.195313 0.130208 0.130208 0.195313 0.195313 0.130208 0.195313 0.195312 0.130208 0.130209 0.195313 0.195313 0.130209 0.195313 0.195313 0.130209 0.130209 0.195313 0.195313 0.130209 0.195313 0.195313 0.130209 0.130208 0.195313 0.195313 0.130208 0.195313 0.195313 0.130208 0.130208 0.195313 0.195313 0.130209 0.195313 0.195313 0.130209 0.130209 0.195313 0.195313 0.130209 0.195313 0.195313 0.130208 0.130209 0.195313 0.195313 0.130209 0.195313 0.195313 0.130209 0.130208 0.195313 0.195313 0.130208 0.195313 0.195313 0.130208 0.130208 0.195313 0.195313 0.130208 0.195313 0.195313 0.130208 0.130209 0.195313 0.195313 0.130209 0.195313 0.195313 0.130208 0.130208 0.195312 0.195313 0.130208 0.195313 0.195312 0.130209 0.130209 0.195313 0.195312 0.130209 0.195312 0.195313 0.130208 0.130208 0.195312 0.195313 0.130208 0.195313 0.195312 0.130208 0.130209 0.195313 0.195313 0.130209 0.195313 0.195313 0.130209 0.130208 0.195312 0.195312 0.130208 0.195312 0.195312 0.130208 0.130208 0.195313 0.195313 0.130209 0.195313 0.195313 0.130208 0.130209 0.195313 0.195313 0.130209 0.195313 0.195313 0.130208 0.130209 0.195313 0.0976566 0.130209 0.0976565 0.195313 0.0651045 0.130208 0.195313 0.195313 0.130208 0.195313 0.0976562 0.0651042 0.195312 0.0976563 0.130208 0.130208 0.195313 0.195313 0.130208 0.195313 0.195313 0.130208 0.130208 0.195313 0.195313 0.130208 0.195313 0.195313 0.130208 0.130208 0.195313 0.195313 0.130208 0.195313 0.195312 0.130208 0.130208 0.195313 0.195313 0.130208 0.195313 0.195312 0.130208 0.130208 0.195313 0.195313 0.130208 0.195313 0.195313 0.130208 0.130208 0.195313 0.195312 0.130208 0.195313 0.195312 0.130208 0.130208 0.195313 0.195313 0.130208 0.195313 0.195312 0.130208 0.130208 0.195313 0.195312 0.130208 0.195312 0.195312 0.130208 0.130208 0.195313 0.195313 0.130208 0.195313 0.195312 0.130208 0.130208 0.195313 0.195313 0.130208 0.195313 0.195313 0.130209 0.130208 0.195313 0.195313 0.130208 0.195313 0.195313 0.130208 0.130208 0.195313 0.195313 0.130208 0.195313 0.195313 0.130208 0.130208 0.195313 0.195312 0.130208 0.195313 0.195313 0.130208 0.130208 0.195312 0.195313 0.130208 0.195313 0.195312 0.130208 0.130208 0.195313 0.195313 0.130208 0.195313 0.195313 0.130208 0.130209 0.195313 0.195313 0.130208 0.195313 0.195313 0.130209 0.130208 0.195313 0.195313 0.130208 0.195313 0.195313 0.130208 0.130208 0.195313 0.195313 0.130209 0.195313 0.195313 0.130209 0.130209 0.195313 0.195313 0.130208 0.195313 0.195313 0.130208 0.130209 0.195313 0.195313 0.130209 0.195313 0.195313 0.130209 0.130208 0.195313 0.195312 0.130208 0.195313 0.195313 0.130208 0.130208 0.195313 0.195313 0.130208 0.195313 0.195312 0.130208 0.130208 0.195313 0.195313 0.130208 0.195312 0.195313 0.130208 0.130208 0.195312 0.195313 0.130208 0.195313 0.195312 0.130208 0.130209 0.195313 0.195312 0.130209 0.195312 0.195313 0.130208 0.130208 0.195312 0.195313 0.130208 0.195313 0.195312 0.130208 0.130209 0.195313 0.195313 0.130209 0.195313 0.195313 0.130209 0.130208 0.195312 0.195312 0.130208 0.195312 0.195312 0.130208 0.130208 0.195313 0.195313 0.130209 0.195313 0.195313 0.130208 0.130209 0.195313 0.195313 0.130209 0.195313 0.195313 0.130208 0.130209 0.195313 0.0976566 0.130208 0.0976565 0.195313 0.0651045 0.0651042 0.195313 0.0976563 0.130208 0.195312 0.0325521 0.0651042 0.0976562 0.0976562 0.130208 0.0651042 0.195313 0.0976563 0.130208 0.195312 0.0976562 0.130208 0.0651042 0.195313 0.0976563 0.130208 0.195312 0.0976562 0.130208 0.0651042 0.195312 0.0976563 0.130208 0.195312 0.0976562 0.130208 0.0651042 0.195312 0.0976563 0.130208 0.195312 0.0976563 0.130208 0.0651042 0.195313 0.0976562 0.130208 0.195312 0.0976563 0.130208 0.0651042 0.195312 0.0976562 0.130208 0.195312 0.0976562 0.130208 0.0651042 0.195312 0.0976563 0.130208 0.195312 0.0976562 0.130208 0.0651042 0.195312 0.0976562 0.130208 0.195312 0.0976563 0.130208 0.0651042 0.195312 0.0976563 0.130208 0.195312 0.0976562 0.130208 0.0651042 0.195313 0.0976563 0.130208 0.195313 0.0976563 0.130208 0.0651043 0.195313 0.0976563 0.130208 0.195312 0.0976563 0.130208 0.0651042 0.195313 0.0976562 0.130208 0.195312 0.0976562 0.130208 0.0651042 0.195313 0.0976562 0.130208 0.195312 0.0976562 0.130208 0.0651041 0.195312 0.0976563 0.130208 0.195313 0.0976562 0.130208 0.0651043 0.195313 0.0976564 0.130208 0.195313 0.0976564 0.130208 0.0651043 0.195313 0.0976564 0.130208 0.195313 0.0976564 0.130208 0.0651043 0.195313 0.0976562 0.130208 0.195312 0.0976563 0.130208 0.0651042 0.195313 0.0976564 0.130208 0.195313 0.0976563 0.130209 0.0651044 0.195313 0.0976562 0.130208 0.195312 0.0976565 0.130208 0.0651042 0.195313 0.0976564 0.130209 0.195313 0.0976564 0.130208 0.0651042 0.195313 0.0976562 0.130208 0.195312 0.0976562 0.130208 0.0651042 0.195313 0.0976563 0.130208 0.195313 0.0976562 0.130208 0.0651042 0.195313 0.0976563 0.130208 0.195312 0.0976563 0.130208 0.0651041 0.195312 0.0976562 0.130208 0.195313 0.0976561 0.130208 0.0651044 0.195313 0.0976562 0.130208 0.195312 0.0976565 0.130208 0.0651041 0.195312 0.0976562 0.130208 0.195312 0.097656 0.130208 0.0651044 0.195313 0.0976565 0.130209 0.195313 0.0976565 0.130209 0.0651043 0.195312 0.0976561 0.130208 0.195312 0.0976564 0.130208 0.0651043 0.195313 0.0976563 0.130208 0.195313 0.0976565 0.130208 0.0651044 0.195313 0.0976564 0.130209 0.195313 0.0976566 0.130208 0.0651044 0.195313 0.0651044 0.130208 0.0976564 0.0976564 0.0651044 0.130208 0.195312 0.195313 0.130208 0.195313 0.0976563 0.0651042 0.0651042 0.0976562 0.0651042 0.195313 0.0976562 0.0976563 0.130208 0.130208 0.195313 0.195313 0.130208 0.195313 0.0976563 0.0651042 0.195313 0.0976563 0.130208 0.130208 0.195313 0.195313 0.130208 0.195313 0.0976563 0.0651042 0.195313 0.0976563 0.130208 0.130208 0.195312 0.195312 0.130208 0.195313 0.0976563 0.0651042 0.195313 0.0976562 0.130208 0.130208 0.195312 0.195313 0.130208 0.195313 0.0976563 0.0651042 0.195313 0.0976563 0.130208 0.130208 0.195313 0.195312 0.130208 0.195313 0.0976563 0.0651042 0.195313 0.0976563 0.130208 0.130208 0.195312 0.195312 0.130208 0.195312 0.0976563 0.0651042 0.195312 0.0976562 0.130208 0.130208 0.195312 0.195313 0.130208 0.195312 0.0976562 0.0651041 0.195312 0.0976562 0.130208 0.130208 0.195312 0.195312 0.130208 0.195312 0.0976562 0.0651041 0.195312 0.0976562 0.130208 0.130208 0.195312 0.195313 0.130208 0.195313 0.0976563 0.0651042 0.195312 0.0976563 0.130208 0.130208 0.195313 0.195313 0.130208 0.195313 0.0976563 0.0651042 0.195313 0.0976563 0.130208 0.130208 0.195313 0.195313 0.130208 0.195312 0.0976563 0.0651042 0.195313 0.0976562 0.130208 0.130208 0.195312 0.195313 0.130208 0.195313 0.0976563 0.0651042 0.195313 0.0976563 0.130208 0.130208 0.195313 0.195312 0.130208 0.195312 0.0976563 0.0651042 0.195313 0.0976562 0.130208 0.130208 0.195312 0.195313 0.130208 0.195313 0.0976562 0.0651041 0.195312 0.0976563 0.130208 0.130208 0.195313 0.195313 0.130208 0.195313 0.0976563 0.0651042 0.195313 0.0976563 0.130208 0.130208 0.195313 0.195313 0.130208 0.195313 0.0976563 0.0651042 0.195313 0.0976564 0.130208 0.130208 0.195313 0.195312 0.130208 0.195313 0.0976562 0.0651042 0.195313 0.0976563 0.130208 0.130208 0.195313 0.195313 0.130208 0.195313 0.0976564 0.0651043 0.195313 0.0976564 0.130209 0.130208 0.195313 0.195313 0.130208 0.195313 0.0976562 0.0651042 0.195313 0.0976563 0.130208 0.130208 0.195313 0.195313 0.130209 0.195313 0.0976565 0.0651043 0.195313 0.0976564 0.130208 0.130208 0.195313 0.195312 0.130208 0.195313 0.0976563 0.0651042 0.195313 0.0976563 0.130208 0.130208 0.195312 0.195313 0.130208 0.195313 0.0976563 0.0651042 0.195313 0.0976563 0.130208 0.130208 0.195313 0.195312 0.130208 0.195312 0.0976563 0.0651042 0.195313 0.0976562 0.130208 0.130208 0.195312 0.195313 0.130208 0.195313 0.0976562 0.0651041 0.195312 0.0976563 0.130208 0.130209 0.195313 0.195312 0.130208 0.195312 0.0976562 0.0651042 0.195313 0.0976561 0.130208 0.130208 0.195312 0.195313 0.130208 0.195313 0.0976561 0.065104 0.195312 0.0976563 0.130208 0.130209 0.195313 0.195313 0.130209 0.195313 0.0976564 0.0651043 0.195313 0.0976564 0.130208 0.130208 0.195312 0.195312 0.130208 0.195312 0.0976558 0.065104 0.195312 0.0976563 0.130208 0.130208 0.195313 0.195313 0.130208 0.195313 0.0976561 0.0651041 0.195313 0.0976564 0.130208 0.130209 0.195313 0.195312 0.130209 0.195313 0.0976562 0.0651042 0.195313 0.0976561 0.130208 0.130209 0.195313 0.0976566 0.130208 0.0976565 0.0976565 0.0651043 0.195313 0.0325522 0.0651044 0.130208 0.195312 0.195313 0.130208 0.195313 0.0976562 0.0651042 0.195313 0.0976562 0.130208 0.130208 0.195313 0.195313 0.130208 0.195313 0.195313 0.130208 0.130208 0.195313 0.195313 0.130208 0.195313 0.195313 0.130208 0.130208 0.195312 0.195312 0.130208 0.195313 0.195313 0.130208 0.130208 0.195313 0.195313 0.130208 0.195313 0.195313 0.130208 0.130208 0.195313 0.195312 0.130208 0.195313 0.195313 0.130208 0.130208 0.195312 0.195312 0.130208 0.195312 0.195312 0.130208 0.130208 0.195312 0.195312 0.130208 0.195313 0.195312 0.130208 0.130208 0.195312 0.195312 0.130208 0.195312 0.195312 0.130208 0.130208 0.195312 0.195313 0.130208 0.195313 0.195312 0.130208 0.130208 0.195313 0.195313 0.130208 0.195313 0.195313 0.130208 0.130208 0.195313 0.195313 0.130208 0.195312 0.195313 0.130208 0.130208 0.195313 0.195313 0.130208 0.195313 0.195313 0.130208 0.130208 0.195313 0.195312 0.130208 0.195313 0.195313 0.130208 0.130208 0.195312 0.195313 0.130208 0.195313 0.195312 0.130208 0.130208 0.195313 0.195313 0.130208 0.195313 0.195313 0.130208 0.130208 0.195313 0.195313 0.130208 0.195313 0.195313 0.130208 0.130208 0.195313 0.195312 0.130208 0.195313 0.195313 0.130208 0.130208 0.195313 0.195313 0.130208 0.195313 0.195313 0.130209 0.130208 0.195313 0.195313 0.130208 0.195313 0.195313 0.130208 0.130208 0.195313 0.195313 0.130209 0.195313 0.195313 0.130209 0.130208 0.195313 0.195312 0.130208 0.195313 0.195313 0.130208 0.130208 0.195312 0.195313 0.130208 0.195313 0.195313 0.130208 0.130208 0.195313 0.195312 0.130208 0.195312 0.195313 0.130208 0.130208 0.195312 0.195313 0.130208 0.195313 0.195312 0.130208 0.130209 0.195313 0.195312 0.130208 0.195312 0.195313 0.130208 0.130208 0.195312 0.195313 0.130208 0.195313 0.195312 0.130208 0.130209 0.195313 0.195313 0.130209 0.195313 0.195313 0.130209 0.130208 0.195312 0.195312 0.130208 0.195312 0.195312 0.130208 0.130208 0.195313 0.195313 0.130208 0.195313 0.195313 0.130208 0.130209 0.195313 0.195312 0.130209 0.195313 0.195313 0.130208 0.130209 0.195313 0.0976566 0.130208 0.0976565 0.195313 0.0651044 0.130208 0.195313 0.195313 0.130208 0.195313 0.0976562 0.0651042 0.195313 0.0976563 0.130208 0.130208 0.195313 0.195313 0.130208 0.195313 0.195313 0.130208 0.130208 0.195313 0.195312 0.130208 0.195313 0.195313 0.130208 0.130208 0.195313 0.195312 0.130208 0.195313 0.195313 0.130208 0.130208 0.195312 0.195313 0.130208 0.195313 0.195313 0.130208 0.130208 0.195313 0.195313 0.130208 0.195313 0.195313 0.130208 0.130208 0.195312 0.195312 0.130208 0.195312 0.195313 0.130208 0.130208 0.195312 0.195312 0.130208 0.195313 0.195312 0.130208 0.130208 0.195312 0.195312 0.130208 0.195312 0.195312 0.130208 0.130208 0.195312 0.195312 0.130208 0.195313 0.195312 0.130208 0.130208 0.195313 0.195313 0.130208 0.195313 0.195313 0.130208 0.130208 0.195313 0.195312 0.130208 0.195313 0.195313 0.130208 0.130208 0.195313 0.195313 0.130208 0.195313 0.195313 0.130208 0.130208 0.195313 0.195312 0.130208 0.195313 0.195313 0.130208 0.130208 0.195312 0.195313 0.130208 0.195313 0.195312 0.130208 0.130208 0.195313 0.195313 0.130208 0.195313 0.195313 0.130208 0.130208 0.195313 0.195313 0.130208 0.195313 0.195313 0.130208 0.130208 0.195313 0.195312 0.130208 0.195313 0.195313 0.130208 0.130208 0.195313 0.195313 0.130209 0.195313 0.195313 0.130209 0.130209 0.195313 0.195313 0.130208 0.195313 0.195313 0.130208 0.130208 0.195313 0.195313 0.130209 0.195313 0.195313 0.130209 0.130208 0.195313 0.195312 0.130208 0.195313 0.195313 0.130208 0.130208 0.195313 0.195313 0.130208 0.195313 0.195313 0.130208 0.130208 0.195313 0.195312 0.130208 0.195312 0.195313 0.130208 0.130208 0.195312 0.195313 0.130208 0.195313 0.195312 0.130208 0.130209 0.195313 0.195312 0.130209 0.195312 0.195313 0.130208 0.130208 0.195312 0.195313 0.130208 0.195313 0.195312 0.130208 0.130209 0.195313 0.195313 0.130209 0.195313 0.195313 0.130209 0.130208 0.195312 0.195312 0.130208 0.195312 0.195312 0.130208 0.130208 0.195313 0.195313 0.130208 0.195313 0.195313 0.130208 0.130209 0.195313 0.195312 0.130209 0.195313 0.195313 0.130208 0.130209 0.195313 0.0976566 0.130208 0.0976565 0.195313 0.0651044 0.130208 0.195312 0.195312 0.130208 0.195312 0.0976562 0.0651041 0.195312 0.0976562 0.130208 0.130208 0.195312 0.195312 0.130208 0.195312 0.195313 0.130208 0.130208 0.195312 0.195312 0.130208 0.195313 0.195313 0.130208 0.130208 0.195312 0.195312 0.130208 0.195312 0.195312 0.130208 0.130208 0.195312 0.195312 0.130208 0.195312 0.195312 0.130208 0.130208 0.195312 0.195312 0.130208 0.195312 0.195313 0.130208 0.130208 0.195312 0.195312 0.130208 0.195312 0.195312 0.130208 0.130208 0.195312 0.195312 0.130208 0.195312 0.195312 0.130208 0.130208 0.195312 0.195312 0.130208 0.195312 0.195312 0.130208 0.130208 0.195312 0.195312 0.130208 0.195313 0.195312 0.130208 0.130208 0.195313 0.195313 0.130208 0.195313 0.195313 0.130208 0.130208 0.195313 0.195312 0.130208 0.195312 0.195313 0.130208 0.130208 0.195312 0.195313 0.130208 0.195313 0.195313 0.130208 0.130208 0.195312 0.195312 0.130208 0.195312 0.195313 0.130208 0.130208 0.195312 0.195312 0.130208 0.195313 0.195312 0.130208 0.130208 0.195313 0.195313 0.130208 0.195313 0.195313 0.130208 0.130208 0.195313 0.195313 0.130208 0.195313 0.195313 0.130208 0.130208 0.195313 0.195312 0.130208 0.195312 0.195313 0.130208 0.130208 0.195313 0.195313 0.130208 0.195313 0.195313 0.130209 0.130208 0.195313 0.195313 0.130208 0.195313 0.195313 0.130208 0.130208 0.195313 0.195313 0.130209 0.195313 0.195313 0.130208 0.130208 0.195312 0.195312 0.130208 0.195312 0.195313 0.130208 0.130208 0.195312 0.195313 0.130208 0.195313 0.195312 0.130208 0.130208 0.195313 0.195312 0.130208 0.195312 0.195313 0.130208 0.130208 0.195312 0.195312 0.130208 0.195313 0.195312 0.130208 0.130209 0.195313 0.195312 0.130208 0.195312 0.195313 0.130208 0.130208 0.195312 0.195312 0.130208 0.195313 0.195312 0.130208 0.130209 0.195313 0.195313 0.130209 0.195313 0.195313 0.130208 0.130208 0.195312 0.195312 0.130208 0.195312 0.195312 0.130208 0.130208 0.195312 0.195313 0.130208 0.195313 0.195313 0.130208 0.130209 0.195313 0.195312 0.130209 0.195313 0.195313 0.130208 0.130209 0.195313 0.0976565 0.130208 0.0976565 0.195313 0.0651044 0.130208 0.195312 0.195313 0.130208 0.195313 0.0976563 0.0651042 0.195313 0.0976562 0.130208 0.130208 0.195312 0.195313 0.130208 0.195313 0.195313 0.130208 0.130208 0.195312 0.195313 0.130208 0.195313 0.195313 0.130208 0.130208 0.195312 0.195313 0.130208 0.195313 0.195313 0.130208 0.130208 0.195312 0.195313 0.130208 0.195313 0.195313 0.130208 0.130208 0.195313 0.195313 0.130208 0.195313 0.195313 0.130208 0.130208 0.195312 0.195312 0.130208 0.195312 0.195312 0.130208 0.130208 0.195312 0.195313 0.130208 0.195313 0.195312 0.130208 0.130208 0.195312 0.195312 0.130208 0.195312 0.195312 0.130208 0.130208 0.195312 0.195313 0.130208 0.195313 0.195313 0.130208 0.130208 0.195313 0.195313 0.130208 0.195313 0.195313 0.130208 0.130208 0.195313 0.195313 0.130208 0.195312 0.195313 0.130208 0.130208 0.195312 0.195313 0.130208 0.195313 0.195313 0.130208 0.130208 0.195313 0.195312 0.130208 0.195312 0.195313 0.130208 0.130208 0.195312 0.195313 0.130208 0.195313 0.195312 0.130208 0.130208 0.195313 0.195313 0.130208 0.195313 0.195313 0.130208 0.130209 0.195313 0.195313 0.130208 0.195313 0.195313 0.130208 0.130208 0.195313 0.195313 0.130208 0.195313 0.195313 0.130208 0.130208 0.195313 0.195313 0.130208 0.195313 0.195313 0.130209 0.130209 0.195313 0.195313 0.130208 0.195313 0.195313 0.130208 0.130209 0.195313 0.195313 0.130209 0.195313 0.195313 0.130208 0.130208 0.195313 0.195312 0.130208 0.195313 0.195313 0.130208 0.130208 0.195312 0.195313 0.130208 0.195313 0.195313 0.130208 0.130208 0.195313 0.195313 0.130208 0.195312 0.195313 0.130208 0.130208 0.195312 0.195313 0.130208 0.195313 0.195312 0.130208 0.130209 0.195313 0.195312 0.130208 0.195312 0.195313 0.130208 0.130208 0.195312 0.195313 0.130208 0.195313 0.195312 0.130208 0.130209 0.195313 0.195313 0.130209 0.195313 0.195313 0.130209 0.130208 0.195312 0.195312 0.130208 0.195312 0.195312 0.130208 0.130208 0.195313 0.195313 0.130208 0.195313 0.195313 0.130208 0.130209 0.195313 0.195313 0.130209 0.195313 0.195313 0.130208 0.130209 0.195313 0.0976566 0.130208 0.0976565 0.195313 0.0651044 0.130208 0.195313 0.195313 0.130208 0.195313 0.0976562 0.0651042 0.195313 0.0976563 0.130208 0.130208 0.195313 0.195313 0.130208 0.195313 0.195313 0.130208 0.130208 0.195313 0.195313 0.130208 0.195313 0.195313 0.130208 0.130208 0.195313 0.195313 0.130208 0.195313 0.195313 0.130208 0.130208 0.195313 0.195313 0.130208 0.195313 0.195313 0.130208 0.130208 0.195313 0.195313 0.130208 0.195313 0.195313 0.130208 0.130208 0.195313 0.195312 0.130208 0.195313 0.195313 0.130208 0.130208 0.195312 0.195313 0.130208 0.195313 0.195312 0.130208 0.130208 0.195312 0.195312 0.130208 0.195313 0.195312 0.130208 0.130208 0.195313 0.195313 0.130208 0.195313 0.195313 0.130208 0.130208 0.195313 0.195313 0.130208 0.195313 0.195313 0.130208 0.130208 0.195313 0.195313 0.130208 0.195313 0.195313 0.130208 0.130208 0.195313 0.195313 0.130208 0.195313 0.195313 0.130208 0.130208 0.195313 0.195312 0.130208 0.195313 0.195313 0.130208 0.130208 0.195312 0.195313 0.130208 0.195313 0.195312 0.130208 0.130208 0.195313 0.195313 0.130208 0.195313 0.195313 0.130208 0.130209 0.195313 0.195313 0.130208 0.195313 0.195313 0.130209 0.130208 0.195313 0.195313 0.130208 0.195313 0.195313 0.130208 0.130208 0.195313 0.195313 0.130209 0.195313 0.195313 0.130209 0.130209 0.195313 0.195313 0.130208 0.195313 0.195313 0.130208 0.130208 0.195313 0.195313 0.130209 0.195313 0.195313 0.130209 0.130208 0.195313 0.195312 0.130208 0.195313 0.195313 0.130208 0.130208 0.195313 0.195313 0.130208 0.195313 0.195313 0.130208 0.130208 0.195313 0.195313 0.130209 0.195313 0.195313 0.130208 0.130208 0.195312 0.195313 0.130208 0.195313 0.195312 0.130208 0.130209 0.195313 0.195312 0.130209 0.195312 0.195313 0.130208 0.130208 0.195312 0.195313 0.130208 0.195313 0.195312 0.130208 0.130209 0.195313 0.195313 0.130209 0.195313 0.195313 0.130209 0.130208 0.195312 0.195312 0.130208 0.195312 0.195312 0.130208 0.130208 0.195313 0.195313 0.130209 0.195313 0.195313 0.130208 0.130209 0.195313 0.195313 0.130209 0.195313 0.195313 0.130208 0.130209 0.195313 0.0976566 0.130209 0.0976565 0.195313 0.0651044 0.130208 0.195313 0.195312 0.130208 0.195313 0.0976562 0.0651042 0.195312 0.0976563 0.130208 0.130208 0.195313 0.195312 0.130208 0.195313 0.195312 0.130208 0.130208 0.195313 0.195312 0.130208 0.195313 0.195312 0.130208 0.130208 0.195313 0.195312 0.130208 0.195313 0.195312 0.130208 0.130208 0.195312 0.195312 0.130208 0.195313 0.195312 0.130208 0.130208 0.195313 0.195312 0.130208 0.195313 0.195313 0.130208 0.130208 0.195312 0.195312 0.130208 0.195312 0.195312 0.130208 0.130208 0.195312 0.195312 0.130208 0.195313 0.195312 0.130208 0.130208 0.195312 0.195312 0.130208 0.195312 0.195312 0.130208 0.130208 0.195312 0.195312 0.130208 0.195313 0.195312 0.130208 0.130208 0.195313 0.195313 0.130208 0.195313 0.195313 0.130208 0.130208 0.195313 0.195312 0.130208 0.195313 0.195313 0.130208 0.130208 0.195313 0.195313 0.130208 0.195313 0.195312 0.130208 0.130208 0.195313 0.195312 0.130208 0.195313 0.195312 0.130208 0.130208 0.195312 0.195312 0.130208 0.195313 0.195312 0.130208 0.130208 0.195313 0.195313 0.130208 0.195313 0.195313 0.130208 0.130208 0.195313 0.195313 0.130208 0.195313 0.195313 0.130208 0.130208 0.195313 0.195312 0.130208 0.195313 0.195313 0.130208 0.130208 0.195313 0.195313 0.130208 0.195313 0.195313 0.130209 0.130208 0.195313 0.195313 0.130208 0.195313 0.195313 0.130208 0.130208 0.195313 0.195313 0.130209 0.195313 0.195313 0.130209 0.130208 0.195313 0.195312 0.130208 0.195313 0.195312 0.130208 0.130208 0.195313 0.195313 0.130208 0.195313 0.195312 0.130208 0.130208 0.195313 0.195312 0.130208 0.195312 0.195313 0.130208 0.130208 0.195312 0.195312 0.130208 0.195313 0.195312 0.130208 0.130209 0.195313 0.195312 0.130208 0.195312 0.195313 0.130208 0.130208 0.195312 0.195312 0.130208 0.195313 0.195312 0.130208 0.130209 0.195313 0.195313 0.130209 0.195313 0.195313 0.130209 0.130208 0.195312 0.195312 0.130208 0.195312 0.195312 0.130208 0.130208 0.195313 0.195313 0.130208 0.195313 0.195312 0.130208 0.130209 0.195313 0.195312 0.130209 0.195313 0.195313 0.130208 0.130209 0.195313 0.0976566 0.130208 0.0976565 0.195313 0.0651044 0.0651042 0.195312 0.0976562 0.130208 0.195312 0.0325521 0.0651041 0.0976562 0.0976562 0.130208 0.0651042 0.195312 0.0976562 0.130208 0.195312 0.0976562 0.130208 0.0651042 0.195312 0.0976562 0.130208 0.195312 0.0976562 0.130208 0.0651042 0.195312 0.0976562 0.130208 0.195312 0.0976562 0.130208 0.0651042 0.195312 0.0976562 0.130208 0.195312 0.0976562 0.130208 0.0651042 0.195312 0.0976562 0.130208 0.195312 0.0976562 0.130208 0.0651041 0.195312 0.0976562 0.130208 0.195312 0.0976562 0.130208 0.0651042 0.195312 0.0976562 0.130208 0.195312 0.0976562 0.130208 0.0651042 0.195312 0.0976562 0.130208 0.195312 0.0976562 0.130208 0.0651042 0.195312 0.0976562 0.130208 0.195312 0.0976562 0.130208 0.0651042 0.195313 0.0976563 0.130208 0.195313 0.0976563 0.130208 0.0651043 0.195313 0.0976562 0.130208 0.195312 0.0976563 0.130208 0.0651041 0.195312 0.0976562 0.130208 0.195312 0.0976562 0.130208 0.0651042 0.195312 0.0976562 0.130208 0.195312 0.0976562 0.130208 0.0651041 0.195312 0.0976562 0.130208 0.195313 0.0976562 0.130208 0.0651043 0.195313 0.0976564 0.130208 0.195313 0.0976564 0.130208 0.0651043 0.195313 0.0976563 0.130208 0.195313 0.0976564 0.130208 0.0651042 0.195312 0.0976562 0.130208 0.195312 0.0976563 0.130208 0.0651041 0.195313 0.0976564 0.130208 0.195313 0.0976563 0.130209 0.0651044 0.195313 0.0976562 0.130208 0.195312 0.0976565 0.130208 0.0651042 0.195313 0.0976563 0.130208 0.195313 0.0976563 0.130208 0.0651042 0.195312 0.0976561 0.130208 0.195312 0.0976562 0.130208 0.0651041 0.195312 0.0976562 0.130208 0.195313 0.0976562 0.130208 0.0651042 0.195313 0.0976562 0.130208 0.195312 0.0976563 0.130208 0.0651041 0.195312 0.0976562 0.130208 0.195313 0.0976561 0.130208 0.0651044 0.195313 0.0976562 0.130208 0.195312 0.0976565 0.130208 0.065104 0.195312 0.0976562 0.130208 0.195312 0.097656 0.130208 0.0651044 0.195313 0.0976564 0.130209 0.195313 0.0976565 0.130208 0.0651042 0.195312 0.097656 0.130208 0.195312 0.0976564 0.130208 0.0651042 0.195312 0.0976562 0.130208 0.195313 0.0976564 0.130208 0.0651044 0.195313 0.0976563 0.130208 0.195313 0.0976566 0.130208 0.0651044 0.195313 0.0651043 0.130208 0.0976564 0.0976564 0.0651044 0.130208 0.195313 0.195313 0.130208 0.195313 0.0976563 0.0651042 0.0651042 0.0976563 0.0651042 0.195313 0.0976562 0.0976563 0.130208 0.130208 0.195313 0.195313 0.130208 0.195313 0.0976563 0.0651042 0.195313 0.0976563 0.130208 0.130208 0.195313 0.195313 0.130208 0.195313 0.0976563 0.0651042 0.195313 0.0976564 0.130208 0.130208 0.195313 0.195313 0.130208 0.195313 0.0976563 0.0651042 0.195313 0.0976563 0.130208 0.130208 0.195313 0.195313 0.130208 0.195313 0.0976563 0.0651042 0.195313 0.0976564 0.130208 0.130208 0.195313 0.195313 0.130208 0.195313 0.0976563 0.0651042 0.195313 0.0976564 0.130208 0.130208 0.195313 0.195313 0.130208 0.195313 0.0976563 0.0651042 0.195313 0.0976563 0.130208 0.130208 0.195312 0.195313 0.130208 0.195313 0.0976562 0.0651042 0.195312 0.0976563 0.130208 0.130208 0.195313 0.195313 0.130208 0.195312 0.0976562 0.0651042 0.195312 0.0976563 0.130208 0.130208 0.195313 0.195313 0.130208 0.195313 0.0976562 0.0651042 0.195313 0.0976564 0.130208 0.130208 0.195313 0.195313 0.130208 0.195313 0.0976563 0.0651043 0.195313 0.0976564 0.130209 0.130208 0.195313 0.195313 0.130208 0.195312 0.0976563 0.0651042 0.195313 0.0976563 0.130208 0.130208 0.195313 0.195313 0.130208 0.195313 0.0976563 0.0651042 0.195313 0.0976564 0.130208 0.130208 0.195313 0.195313 0.130208 0.195313 0.0976563 0.0651043 0.195313 0.0976563 0.130208 0.130208 0.195312 0.195313 0.130208 0.195313 0.0976562 0.0651042 0.195312 0.0976563 0.130208 0.130209 0.195313 0.195313 0.130208 0.195313 0.0976563 0.0651042 0.195313 0.0976564 0.130208 0.130209 0.195313 0.195313 0.130208 0.195313 0.0976563 0.0651043 0.195313 0.0976564 0.130209 0.130208 0.195313 0.195313 0.130208 0.195313 0.0976562 0.0651042 0.195313 0.0976564 0.130208 0.130208 0.195313 0.195313 0.130209 0.195313 0.0976564 0.0651043 0.195313 0.0976565 0.130209 0.130209 0.195313 0.195313 0.130208 0.195313 0.0976562 0.0651042 0.195313 0.0976564 0.130208 0.130209 0.195313 0.195313 0.130209 0.195313 0.0976565 0.0651044 0.195313 0.0976565 0.130209 0.130208 0.195313 0.195313 0.130208 0.195313 0.0976563 0.0651043 0.195313 0.0976563 0.130208 0.130208 0.195313 0.195313 0.130208 0.195313 0.0976563 0.0651043 0.195313 0.0976564 0.130208 0.130208 0.195313 0.195313 0.130209 0.195312 0.0976563 0.0651043 0.195313 0.0976563 0.130208 0.130208 0.195312 0.195313 0.130208 0.195313 0.0976562 0.0651042 0.195312 0.0976564 0.130208 0.130209 0.195313 0.195312 0.130209 0.195312 0.0976562 0.0651042 0.195313 0.0976561 0.130208 0.130208 0.195312 0.195313 0.130208 0.195313 0.0976561 0.0651041 0.195312 0.0976564 0.130208 0.130209 0.195313 0.195313 0.130209 0.195313 0.0976564 0.0651044 0.195313 0.0976564 0.130209 0.130208 0.195312 0.195312 0.130208 0.195312 0.0976558 0.065104 0.195312 0.0976564 0.130208 0.130208 0.195313 0.195313 0.130209 0.195313 0.0976561 0.0651042 0.195313 0.0976564 0.130208 0.130209 0.195313 0.195313 0.130209 0.195313 0.0976562 0.0651042 0.195313 0.0976562 0.130208 0.130209 0.195313 0.0976566 0.130208 0.0976565 0.0976565 0.0651043 0.195313 0.0325522 0.0651044 0.130208 0.195313 0.195313 0.130208 0.195313 0.0976563 0.0651042 0.195313 0.0976562 0.130208 0.130208 0.195313 0.195313 0.130208 0.195313 0.195313 0.130208 0.130208 0.195313 0.195313 0.130208 0.195313 0.195313 0.130208 0.130208 0.195313 0.195313 0.130208 0.195313 0.195313 0.130208 0.130208 0.195313 0.195313 0.130208 0.195313 0.195313 0.130208 0.130208 0.195313 0.195313 0.130208 0.195313 0.195313 0.130208 0.130208 0.195313 0.195313 0.130208 0.195313 0.195313 0.130208 0.130208 0.195313 0.195313 0.130208 0.195313 0.195312 0.130208 0.130208 0.195313 0.195313 0.130208 0.195312 0.195312 0.130208 0.130208 0.195313 0.195313 0.130208 0.195313 0.195313 0.130208 0.130208 0.195313 0.195313 0.130208 0.195313 0.195313 0.130209 0.130208 0.195313 0.195313 0.130208 0.195313 0.195313 0.130208 0.130208 0.195313 0.195313 0.130208 0.195313 0.195313 0.130208 0.130208 0.195313 0.195313 0.130208 0.195313 0.195313 0.130208 0.130208 0.195312 0.195313 0.130208 0.195313 0.195312 0.130208 0.130209 0.195313 0.195313 0.130208 0.195313 0.195313 0.130208 0.130209 0.195313 0.195313 0.130208 0.195313 0.195313 0.130209 0.130208 0.195313 0.195313 0.130208 0.195313 0.195313 0.130208 0.130208 0.195313 0.195313 0.130209 0.195313 0.195313 0.130209 0.130209 0.195313 0.195313 0.130209 0.195313 0.195313 0.130208 0.130209 0.195313 0.195313 0.130209 0.195313 0.195313 0.130209 0.130208 0.195313 0.195313 0.130208 0.195313 0.195313 0.130208 0.130208 0.195313 0.195313 0.130208 0.195313 0.195313 0.130208 0.130208 0.195313 0.195313 0.130209 0.195312 0.195313 0.130208 0.130208 0.195312 0.195313 0.130208 0.195313 0.195312 0.130208 0.130209 0.195313 0.195312 0.130209 0.195312 0.195313 0.130208 0.130208 0.195312 0.195313 0.130208 0.195313 0.195312 0.130208 0.130209 0.195313 0.195313 0.130209 0.195313 0.195313 0.130209 0.130208 0.195312 0.195312 0.130208 0.195312 0.195312 0.130208 0.130208 0.195313 0.195313 0.130209 0.195313 0.195313 0.130208 0.130209 0.195313 0.195313 0.130209 0.195313 0.195313 0.130208 0.130209 0.195313 0.0976566 0.130209 0.0976565 0.195313 0.0651044 0.130208 0.195313 0.195313 0.130208 0.195313 0.0976563 0.0651042 0.195313 0.0976563 0.130208 0.130208 0.195313 0.195313 0.130208 0.195313 0.195313 0.130208 0.130208 0.195313 0.195313 0.130208 0.195313 0.195313 0.130208 0.130208 0.195313 0.195313 0.130208 0.195313 0.195313 0.130208 0.130208 0.195313 0.195313 0.130208 0.195313 0.195313 0.130208 0.130208 0.195313 0.195313 0.130208 0.195313 0.195313 0.130208 0.130208 0.195313 0.195313 0.130208 0.195313 0.195313 0.130208 0.130208 0.195313 0.195313 0.130208 0.195313 0.195312 0.130208 0.130208 0.195313 0.195313 0.130208 0.195312 0.195312 0.130208 0.130208 0.195313 0.195313 0.130208 0.195313 0.195313 0.130208 0.130208 0.195313 0.195313 0.130208 0.195313 0.195313 0.130209 0.130208 0.195313 0.195313 0.130208 0.195313 0.195313 0.130208 0.130208 0.195313 0.195313 0.130208 0.195313 0.195313 0.130208 0.130208 0.195313 0.195313 0.130208 0.195313 0.195313 0.130208 0.130208 0.195312 0.195313 0.130208 0.195313 0.195312 0.130208 0.130209 0.195313 0.195313 0.130208 0.195313 0.195313 0.130208 0.130209 0.195313 0.195313 0.130208 0.195313 0.195313 0.130209 0.130208 0.195313 0.195313 0.130208 0.195313 0.195313 0.130208 0.130208 0.195313 0.195313 0.130209 0.195313 0.195313 0.130209 0.130209 0.195313 0.195313 0.130208 0.195313 0.195313 0.130208 0.130209 0.195313 0.195313 0.130209 0.195313 0.195313 0.130209 0.130208 0.195313 0.195313 0.130208 0.195313 0.195313 0.130208 0.130208 0.195313 0.195313 0.130208 0.195313 0.195313 0.130208 0.130208 0.195313 0.195313 0.130209 0.195313 0.195313 0.130208 0.130208 0.195312 0.195313 0.130208 0.195313 0.195312 0.130209 0.130209 0.195313 0.195312 0.130209 0.195312 0.195313 0.130208 0.130208 0.195312 0.195313 0.130208 0.195313 0.195312 0.130208 0.130209 0.195313 0.195313 0.130209 0.195313 0.195313 0.130209 0.130208 0.195312 0.195312 0.130208 0.195312 0.195312 0.130208 0.130208 0.195313 0.195313 0.130209 0.195313 0.195313 0.130208 0.130209 0.195313 0.195313 0.130209 0.195313 0.195313 0.130208 0.130209 0.195313 0.0976566 0.130209 0.0976565 0.195313 0.0651044 0.130208 0.195313 0.195313 0.130208 0.195313 0.0976563 0.0651042 0.195313 0.0976562 0.130208 0.130208 0.195313 0.195313 0.130208 0.195313 0.195313 0.130208 0.130208 0.195313 0.195313 0.130208 0.195313 0.195313 0.130208 0.130208 0.195313 0.195313 0.130208 0.195313 0.195313 0.130208 0.130208 0.195313 0.195313 0.130208 0.195313 0.195313 0.130208 0.130208 0.195313 0.195313 0.130208 0.195313 0.195313 0.130208 0.130208 0.195313 0.195312 0.130208 0.195312 0.195313 0.130208 0.130208 0.195312 0.195313 0.130208 0.195312 0.195312 0.130208 0.130208 0.195312 0.195313 0.130208 0.195312 0.195312 0.130208 0.130208 0.195313 0.195313 0.130208 0.195313 0.195312 0.130208 0.130208 0.195313 0.195313 0.130208 0.195313 0.195313 0.130208 0.130208 0.195313 0.195313 0.130208 0.195312 0.195313 0.130208 0.130208 0.195313 0.195313 0.130208 0.195313 0.195313 0.130208 0.130208 0.195313 0.195313 0.130208 0.195312 0.195313 0.130208 0.130208 0.195312 0.195313 0.130208 0.195313 0.195312 0.130208 0.130208 0.195313 0.195313 0.130208 0.195313 0.195313 0.130208 0.130209 0.195313 0.195313 0.130208 0.195313 0.195313 0.130209 0.130208 0.195313 0.195313 0.130208 0.195312 0.195313 0.130208 0.130208 0.195313 0.195313 0.130209 0.195313 0.195313 0.130209 0.130209 0.195313 0.195313 0.130208 0.195313 0.195313 0.130208 0.130209 0.195313 0.195313 0.130209 0.195313 0.195313 0.130209 0.130208 0.195313 0.195312 0.130208 0.195313 0.195313 0.130208 0.130208 0.195313 0.195313 0.130208 0.195313 0.195313 0.130208 0.130208 0.195313 0.195313 0.130208 0.195312 0.195313 0.130208 0.130208 0.195312 0.195313 0.130208 0.195313 0.195312 0.130208 0.130209 0.195313 0.195312 0.130209 0.195312 0.195313 0.130208 0.130208 0.195312 0.195313 0.130208 0.195313 0.195312 0.130208 0.130209 0.195313 0.195313 0.130209 0.195313 0.195313 0.130209 0.130208 0.195312 0.195312 0.130208 0.195312 0.195312 0.130208 0.130208 0.195313 0.195313 0.130208 0.195313 0.195313 0.130208 0.130209 0.195313 0.195313 0.130209 0.195313 0.195313 0.130208 0.130209 0.195313 0.0976566 0.130208 0.0976565 0.195313 0.0651044 0.130208 0.195313 0.195313 0.130208 0.195313 0.0976563 0.0651042 0.195313 0.0976562 0.130208 0.130208 0.195313 0.195313 0.130208 0.195313 0.195313 0.130208 0.130208 0.195313 0.195313 0.130208 0.195313 0.195313 0.130208 0.130208 0.195313 0.195313 0.130208 0.195313 0.195313 0.130208 0.130208 0.195313 0.195313 0.130208 0.195313 0.195313 0.130208 0.130208 0.195313 0.195313 0.130208 0.195313 0.195313 0.130208 0.130208 0.195313 0.195313 0.130208 0.195312 0.195313 0.130208 0.130208 0.195313 0.195313 0.130208 0.195313 0.195312 0.130208 0.130208 0.195313 0.195313 0.130208 0.195312 0.195313 0.130208 0.130208 0.195313 0.195313 0.130208 0.195313 0.195313 0.130208 0.130208 0.195313 0.195313 0.130208 0.195313 0.195313 0.130209 0.130208 0.195313 0.195313 0.130208 0.195312 0.195313 0.130208 0.130208 0.195313 0.195313 0.130208 0.195313 0.195313 0.130208 0.130208 0.195313 0.195313 0.130208 0.195313 0.195313 0.130208 0.130208 0.195312 0.195313 0.130208 0.195313 0.195312 0.130208 0.130209 0.195313 0.195313 0.130208 0.195313 0.195313 0.130208 0.130209 0.195313 0.195313 0.130208 0.195313 0.195313 0.130209 0.130208 0.195313 0.195313 0.130208 0.195313 0.195313 0.130208 0.130208 0.195313 0.195313 0.130209 0.195313 0.195313 0.130209 0.130209 0.195313 0.195313 0.130208 0.195313 0.195313 0.130208 0.130209 0.195313 0.195313 0.130209 0.195313 0.195313 0.130209 0.130208 0.195313 0.195313 0.130208 0.195313 0.195313 0.130208 0.130208 0.195313 0.195313 0.130208 0.195313 0.195313 0.130208 0.130208 0.195313 0.195313 0.130208 0.195312 0.195313 0.130208 0.130208 0.195312 0.195313 0.130208 0.195313 0.195312 0.130208 0.130209 0.195313 0.195312 0.130209 0.195312 0.195313 0.130208 0.130208 0.195312 0.195313 0.130208 0.195313 0.195312 0.130208 0.130209 0.195313 0.195313 0.130209 0.195313 0.195313 0.130209 0.130208 0.195312 0.195312 0.130208 0.195312 0.195312 0.130208 0.130208 0.195313 0.195313 0.130209 0.195313 0.195313 0.130208 0.130209 0.195313 0.195313 0.130209 0.195313 0.195313 0.130208 0.130209 0.195313 0.0976566 0.130208 0.0976565 0.195313 0.0651044 0.130208 0.195313 0.195313 0.130208 0.195313 0.0976563 0.0651042 0.195313 0.0976563 0.130208 0.130208 0.195313 0.195313 0.130208 0.195313 0.195313 0.130208 0.130208 0.195313 0.195313 0.130208 0.195313 0.195313 0.130208 0.130208 0.195313 0.195313 0.130208 0.195313 0.195313 0.130208 0.130208 0.195313 0.195313 0.130208 0.195313 0.195313 0.130208 0.130208 0.195313 0.195313 0.130208 0.195313 0.195313 0.130208 0.130208 0.195313 0.195313 0.130208 0.195313 0.195313 0.130208 0.130208 0.195313 0.195313 0.130208 0.195313 0.195313 0.130208 0.130208 0.195313 0.195313 0.130208 0.195313 0.195313 0.130208 0.130208 0.195313 0.195313 0.130208 0.195313 0.195313 0.130208 0.130208 0.195313 0.195313 0.130209 0.195313 0.195313 0.130209 0.130209 0.195313 0.195313 0.130208 0.195313 0.195313 0.130208 0.130208 0.195313 0.195313 0.130208 0.195313 0.195313 0.130208 0.130208 0.195313 0.195313 0.130208 0.195313 0.195313 0.130208 0.130208 0.195313 0.195313 0.130208 0.195313 0.195312 0.130208 0.130209 0.195313 0.195313 0.130209 0.195313 0.195313 0.130209 0.130209 0.195313 0.195313 0.130209 0.195313 0.195313 0.130209 0.130208 0.195313 0.195313 0.130208 0.195313 0.195313 0.130208 0.130208 0.195313 0.195313 0.130209 0.195313 0.195313 0.130209 0.130209 0.195313 0.195313 0.130209 0.195313 0.195313 0.130208 0.130209 0.195313 0.195313 0.130209 0.195313 0.195313 0.130209 0.130208 0.195313 0.195313 0.130208 0.195313 0.195313 0.130208 0.130208 0.195313 0.195313 0.130208 0.195313 0.195313 0.130208 0.130209 0.195313 0.195313 0.130209 0.195313 0.195313 0.130208 0.130208 0.195312 0.195313 0.130208 0.195313 0.195312 0.130209 0.130209 0.195313 0.195312 0.130209 0.195312 0.195313 0.130208 0.130208 0.195312 0.195313 0.130208 0.195313 0.195312 0.130208 0.130209 0.195313 0.195313 0.130209 0.195313 0.195313 0.130209 0.130208 0.195312 0.195312 0.130208 0.195312 0.195312 0.130208 0.130208 0.195313 0.195313 0.130209 0.195313 0.195313 0.130208 0.130209 0.195313 0.195313 0.130209 0.195313 0.195313 0.130208 0.130209 0.195313 0.0976566 0.130209 0.0976565 0.195313 0.0651044 0.130208 0.195313 0.195313 0.130208 0.195313 0.0976563 0.0651042 0.195312 0.0976563 0.130208 0.130208 0.195313 0.195313 0.130208 0.195313 0.195313 0.130208 0.130208 0.195313 0.195313 0.130208 0.195313 0.195313 0.130208 0.130208 0.195313 0.195313 0.130208 0.195313 0.195312 0.130208 0.130208 0.195313 0.195313 0.130208 0.195313 0.195312 0.130208 0.130208 0.195313 0.195313 0.130208 0.195313 0.195313 0.130208 0.130208 0.195313 0.195312 0.130208 0.195313 0.195312 0.130208 0.130208 0.195313 0.195313 0.130208 0.195313 0.195312 0.130208 0.130208 0.195313 0.195313 0.130208 0.195312 0.195312 0.130208 0.130208 0.195313 0.195313 0.130208 0.195313 0.195312 0.130208 0.130208 0.195313 0.195313 0.130208 0.195313 0.195313 0.130209 0.130208 0.195313 0.195313 0.130208 0.195313 0.195313 0.130208 0.130208 0.195313 0.195313 0.130208 0.195313 0.195313 0.130208 0.130208 0.195313 0.195313 0.130208 0.195313 0.195313 0.130208 0.130208 0.195313 0.195313 0.130208 0.195313 0.195312 0.130208 0.130208 0.195313 0.195313 0.130208 0.195313 0.195313 0.130208 0.130209 0.195313 0.195313 0.130208 0.195313 0.195313 0.130209 0.130208 0.195313 0.195313 0.130208 0.195313 0.195313 0.130208 0.130208 0.195313 0.195313 0.130209 0.195313 0.195313 0.130209 0.130209 0.195313 0.195313 0.130208 0.195313 0.195313 0.130208 0.130209 0.195313 0.195313 0.130209 0.195313 0.195313 0.130209 0.130208 0.195313 0.195312 0.130208 0.195313 0.195312 0.130208 0.130208 0.195313 0.195313 0.130208 0.195313 0.195313 0.130208 0.130208 0.195313 0.195313 0.130209 0.195312 0.195313 0.130208 0.130208 0.195312 0.195313 0.130208 0.195313 0.195312 0.130209 0.130209 0.195313 0.195312 0.130209 0.195312 0.195313 0.130208 0.130208 0.195312 0.195313 0.130208 0.195313 0.195312 0.130208 0.130209 0.195313 0.195313 0.130209 0.195313 0.195313 0.130209 0.130208 0.195312 0.195312 0.130208 0.195312 0.195312 0.130208 0.130208 0.195313 0.195313 0.130209 0.195313 0.195313 0.130208 0.130209 0.195313 0.195313 0.130209 0.195313 0.195313 0.130208 0.130209 0.195313 0.0976566 0.130209 0.0976565 0.195313 0.0651044 0.0651042 0.195313 0.0976562 0.130208 0.195312 0.0325521 0.0651042 0.0976563 0.0976562 0.130208 0.0651042 0.195313 0.0976562 0.130208 0.195312 0.0976563 0.130208 0.0651042 0.195313 0.0976562 0.130208 0.195312 0.0976563 0.130208 0.0651042 0.195313 0.0976562 0.130208 0.195312 0.0976563 0.130208 0.0651042 0.195312 0.0976562 0.130208 0.195312 0.0976563 0.130208 0.0651042 0.195313 0.0976562 0.130208 0.195312 0.0976563 0.130208 0.0651042 0.195312 0.0976562 0.130208 0.195312 0.0976562 0.130208 0.0651042 0.195312 0.0976563 0.130208 0.195312 0.0976562 0.130208 0.0651042 0.195312 0.0976562 0.130208 0.195312 0.0976563 0.130208 0.0651042 0.195312 0.0976562 0.130208 0.195312 0.0976563 0.130208 0.0651042 0.195313 0.0976563 0.130208 0.195313 0.0976563 0.130208 0.0651043 0.195313 0.0976563 0.130208 0.195312 0.0976564 0.130208 0.0651042 0.195313 0.0976562 0.130208 0.195312 0.0976562 0.130208 0.0651042 0.195313 0.0976562 0.130208 0.195312 0.0976562 0.130208 0.0651041 0.195312 0.0976562 0.130208 0.195313 0.0976562 0.130208 0.0651043 0.195313 0.0976564 0.130208 0.195313 0.0976564 0.130208 0.0651043 0.195313 0.0976564 0.130208 0.195313 0.0976564 0.130208 0.0651042 0.195313 0.0976562 0.130208 0.195312 0.0976564 0.130208 0.0651042 0.195313 0.0976564 0.130208 0.195313 0.0976563 0.130209 0.0651044 0.195313 0.0976562 0.130208 0.195312 0.0976565 0.130208 0.0651042 0.195313 0.0976564 0.130209 0.195313 0.0976564 0.130208 0.0651042 0.195313 0.0976561 0.130208 0.195312 0.0976563 0.130208 0.0651042 0.195313 0.0976563 0.130208 0.195313 0.0976562 0.130208 0.0651042 0.195313 0.0976563 0.130208 0.195312 0.0976563 0.130208 0.0651041 0.195312 0.0976562 0.130208 0.195313 0.0976561 0.130208 0.0651044 0.195313 0.0976562 0.130208 0.195312 0.0976565 0.130208 0.0651041 0.195312 0.0976562 0.130208 0.195312 0.097656 0.130208 0.0651044 0.195313 0.0976565 0.130209 0.195313 0.0976565 0.130209 0.0651043 0.195312 0.0976561 0.130208 0.195312 0.0976564 0.130208 0.0651043 0.195313 0.0976563 0.130208 0.195313 0.0976565 0.130208 0.0651044 0.195313 0.0976563 0.130209 0.195313 0.0976566 0.130208 0.0651044 0.195313 0.0651043 0.130208 0.0976564 0.0976564 0.0651044 0.130208 0.195312 0.195312 0.130208 0.195313 0.0976563 0.0651042 0.0651042 0.0976562 0.0651041 0.195313 0.0976563 0.0976563 0.130208 0.130208 0.195312 0.195312 0.130208 0.195313 0.0976563 0.0651042 0.195313 0.0976562 0.130208 0.130208 0.195312 0.195312 0.130208 0.195313 0.0976563 0.0651042 0.195313 0.0976563 0.130208 0.130208 0.195312 0.195312 0.130208 0.195313 0.0976563 0.0651042 0.195313 0.0976562 0.130208 0.130208 0.195312 0.195312 0.130208 0.195313 0.0976562 0.0651042 0.195313 0.0976563 0.130208 0.130208 0.195313 0.195312 0.130208 0.195313 0.0976563 0.0651042 0.195313 0.0976563 0.130208 0.130208 0.195312 0.195312 0.130208 0.195312 0.0976563 0.0651042 0.195312 0.0976562 0.130208 0.130208 0.195312 0.195312 0.130208 0.195313 0.0976562 0.0651041 0.195312 0.0976562 0.130208 0.130208 0.195312 0.195312 0.130208 0.195312 0.0976562 0.0651041 0.195312 0.0976562 0.130208 0.130208 0.195312 0.195312 0.130208 0.195313 0.0976562 0.0651042 0.195312 0.0976563 0.130208 0.130208 0.195313 0.195313 0.130208 0.195313 0.0976563 0.0651042 0.195313 0.0976563 0.130208 0.130208 0.195313 0.195312 0.130208 0.195313 0.0976563 0.0651042 0.195313 0.0976562 0.130208 0.130208 0.195312 0.195313 0.130208 0.195313 0.0976563 0.0651042 0.195313 0.0976563 0.130208 0.130208 0.195312 0.195312 0.130208 0.195313 0.0976563 0.0651042 0.195313 0.0976562 0.130208 0.130208 0.195312 0.195312 0.130208 0.195313 0.0976562 0.0651041 0.195312 0.0976563 0.130208 0.130208 0.195313 0.195313 0.130208 0.195313 0.0976562 0.0651042 0.195313 0.0976563 0.130208 0.130208 0.195313 0.195313 0.130208 0.195313 0.0976563 0.0651042 0.195313 0.0976564 0.130208 0.130208 0.195313 0.195312 0.130208 0.195313 0.0976562 0.0651042 0.195313 0.0976563 0.130208 0.130208 0.195313 0.195313 0.130209 0.195313 0.0976564 0.0651042 0.195313 0.0976564 0.130209 0.130208 0.195313 0.195313 0.130208 0.195313 0.0976562 0.0651041 0.195313 0.0976563 0.130208 0.130208 0.195313 0.195313 0.130209 0.195313 0.0976565 0.0651043 0.195313 0.0976564 0.130208 0.130208 0.195312 0.195312 0.130208 0.195313 0.0976563 0.0651042 0.195313 0.0976562 0.130208 0.130208 0.195312 0.195313 0.130208 0.195313 0.0976563 0.0651042 0.195313 0.0976563 0.130208 0.130208 0.195313 0.195312 0.130208 0.195312 0.0976563 0.0651042 0.195313 0.0976562 0.130208 0.130208 0.195312 0.195312 0.130208 0.195313 0.0976562 0.0651041 0.195312 0.0976563 0.130208 0.130209 0.195313 0.195312 0.130209 0.195312 0.0976562 0.0651042 0.195313 0.0976561 0.130208 0.130208 0.195312 0.195312 0.130208 0.195313 0.0976561 0.065104 0.195312 0.0976563 0.130208 0.130209 0.195313 0.195313 0.130209 0.195313 0.0976564 0.0651043 0.195313 0.0976563 0.130208 0.130208 0.195312 0.195312 0.130208 0.195312 0.0976558 0.0651039 0.195312 0.0976563 0.130208 0.130208 0.195312 0.195313 0.130208 0.195313 0.0976561 0.0651041 0.195313 0.0976564 0.130208 0.130209 0.195313 0.195312 0.130209 0.195313 0.0976562 0.0651042 0.195313 0.0976561 0.130208 0.130209 0.195313 0.0976565 0.130208 0.0976565 0.0976565 0.0651043 0.195313 0.0325522 0.0651044 0.130208 0.195312 0.195312 0.130208 0.195313 0.0976562 0.0651041 0.195313 0.0976563 0.130208 0.130208 0.195312 0.195312 0.130208 0.195313 0.195313 0.130208 0.130208 0.195312 0.195312 0.130208 0.195313 0.195313 0.130208 0.130208 0.195312 0.195312 0.130208 0.195313 0.195313 0.130208 0.130208 0.195312 0.195313 0.130208 0.195313 0.195313 0.130208 0.130208 0.195313 0.195312 0.130208 0.195313 0.195313 0.130208 0.130208 0.195312 0.195312 0.130208 0.195313 0.195312 0.130208 0.130208 0.195312 0.195312 0.130208 0.195313 0.195312 0.130208 0.130208 0.195312 0.195312 0.130208 0.195312 0.195312 0.130208 0.130208 0.195312 0.195312 0.130208 0.195313 0.195312 0.130208 0.130208 0.195313 0.195313 0.130208 0.195313 0.195313 0.130208 0.130208 0.195313 0.195312 0.130208 0.195313 0.195313 0.130208 0.130208 0.195312 0.195313 0.130208 0.195313 0.195313 0.130208 0.130208 0.195313 0.195312 0.130208 0.195313 0.195313 0.130208 0.130208 0.195312 0.195312 0.130208 0.195313 0.195312 0.130208 0.130208 0.195313 0.195313 0.130208 0.195313 0.195313 0.130208 0.130208 0.195313 0.195313 0.130208 0.195313 0.195313 0.130208 0.130208 0.195313 0.195312 0.130208 0.195313 0.195313 0.130208 0.130208 0.195313 0.195313 0.130209 0.195313 0.195313 0.130209 0.130208 0.195313 0.195313 0.130208 0.195313 0.195313 0.130208 0.130208 0.195313 0.195313 0.130209 0.195313 0.195313 0.130208 0.130208 0.195312 0.195312 0.130208 0.195313 0.195313 0.130208 0.130208 0.195312 0.195313 0.130208 0.195313 0.195313 0.130208 0.130208 0.195313 0.195312 0.130209 0.195312 0.195313 0.130208 0.130208 0.195312 0.195313 0.130208 0.195313 0.195312 0.130208 0.130209 0.195313 0.195312 0.130209 0.195312 0.195313 0.130208 0.130208 0.195312 0.195312 0.130208 0.195313 0.195312 0.130208 0.130209 0.195313 0.195313 0.130209 0.195313 0.195313 0.130208 0.130208 0.195312 0.195312 0.130208 0.195312 0.195312 0.130208 0.130208 0.195312 0.195313 0.130209 0.195313 0.195313 0.130208 0.130209 0.195313 0.195312 0.130209 0.195313 0.195313 0.130208 0.130209 0.195313 0.0976565 0.130209 0.0976565 0.195313 0.0651044 0.130208 0.195312 0.195312 0.130208 0.195313 0.0976562 0.0651042 0.195313 0.0976563 0.130208 0.130208 0.195313 0.195312 0.130208 0.195313 0.195313 0.130208 0.130208 0.195313 0.195312 0.130208 0.195313 0.195313 0.130208 0.130208 0.195312 0.195312 0.130208 0.195313 0.195313 0.130208 0.130208 0.195312 0.195313 0.130208 0.195313 0.195313 0.130208 0.130208 0.195313 0.195312 0.130208 0.195313 0.195313 0.130208 0.130208 0.195312 0.195312 0.130208 0.195313 0.195312 0.130208 0.130208 0.195312 0.195312 0.130208 0.195313 0.195312 0.130208 0.130208 0.195312 0.195312 0.130208 0.195312 0.195312 0.130208 0.130208 0.195312 0.195312 0.130208 0.195313 0.195312 0.130208 0.130208 0.195313 0.195313 0.130208 0.195313 0.195313 0.130208 0.130208 0.195313 0.195312 0.130208 0.195313 0.195313 0.130208 0.130208 0.195312 0.195313 0.130208 0.195313 0.195313 0.130208 0.130208 0.195313 0.195312 0.130208 0.195313 0.195313 0.130208 0.130208 0.195312 0.195312 0.130208 0.195313 0.195312 0.130208 0.130208 0.195313 0.195313 0.130208 0.195313 0.195313 0.130208 0.130208 0.195313 0.195313 0.130208 0.195313 0.195313 0.130208 0.130208 0.195313 0.195312 0.130208 0.195313 0.195313 0.130208 0.130208 0.195313 0.195313 0.130209 0.195313 0.195313 0.130209 0.130208 0.195313 0.195313 0.130208 0.195313 0.195313 0.130208 0.130208 0.195313 0.195313 0.130209 0.195313 0.195313 0.130208 0.130208 0.195313 0.195312 0.130208 0.195313 0.195313 0.130208 0.130208 0.195312 0.195313 0.130208 0.195313 0.195313 0.130208 0.130208 0.195313 0.195312 0.130209 0.195312 0.195313 0.130208 0.130208 0.195312 0.195312 0.130208 0.195313 0.195312 0.130208 0.130209 0.195313 0.195312 0.130209 0.195312 0.195313 0.130208 0.130208 0.195312 0.195312 0.130208 0.195313 0.195312 0.130208 0.130209 0.195313 0.195313 0.130209 0.195313 0.195313 0.130208 0.130208 0.195312 0.195312 0.130208 0.195312 0.195312 0.130208 0.130208 0.195313 0.195313 0.130209 0.195313 0.195313 0.130208 0.130209 0.195313 0.195312 0.130209 0.195313 0.195313 0.130208 0.130209 0.195313 0.0976565 0.130209 0.0976565 0.195313 0.0651044 0.130208 0.195312 0.195312 0.130208 0.195313 0.0976562 0.0651041 0.195313 0.0976563 0.130208 0.130208 0.195312 0.195312 0.130208 0.195313 0.195313 0.130208 0.130208 0.195312 0.195312 0.130208 0.195313 0.195313 0.130208 0.130208 0.195312 0.195312 0.130208 0.195313 0.195312 0.130208 0.130208 0.195312 0.195312 0.130208 0.195313 0.195312 0.130208 0.130208 0.195312 0.195312 0.130208 0.195313 0.195313 0.130208 0.130208 0.195312 0.195312 0.130208 0.195312 0.195312 0.130208 0.130208 0.195312 0.195312 0.130208 0.195312 0.195312 0.130208 0.130208 0.195312 0.195312 0.130208 0.195312 0.195312 0.130208 0.130208 0.195312 0.195312 0.130208 0.195313 0.195312 0.130208 0.130208 0.195313 0.195313 0.130208 0.195313 0.195313 0.130208 0.130208 0.195313 0.195312 0.130208 0.195312 0.195313 0.130208 0.130208 0.195312 0.195312 0.130208 0.195313 0.195313 0.130208 0.130208 0.195312 0.195312 0.130208 0.195312 0.195313 0.130208 0.130208 0.195312 0.195312 0.130208 0.195313 0.195312 0.130208 0.130208 0.195313 0.195313 0.130208 0.195313 0.195313 0.130208 0.130208 0.195313 0.195313 0.130208 0.195313 0.195313 0.130208 0.130208 0.195312 0.195312 0.130208 0.195313 0.195313 0.130208 0.130208 0.195313 0.195313 0.130208 0.195313 0.195313 0.130209 0.130208 0.195313 0.195313 0.130208 0.195313 0.195313 0.130208 0.130208 0.195313 0.195313 0.130209 0.195313 0.195313 0.130208 0.130208 0.195312 0.195312 0.130208 0.195313 0.195313 0.130208 0.130208 0.195312 0.195313 0.130208 0.195313 0.195312 0.130208 0.130208 0.195313 0.195312 0.130208 0.195312 0.195313 0.130208 0.130208 0.195312 0.195312 0.130208 0.195313 0.195312 0.130208 0.130208 0.195313 0.195312 0.130208 0.195312 0.195313 0.130208 0.130208 0.195312 0.195312 0.130208 0.195313 0.195312 0.130208 0.130209 0.195313 0.195313 0.130209 0.195313 0.195313 0.130208 0.130208 0.195312 0.195312 0.130208 0.195312 0.195312 0.130208 0.130208 0.195312 0.195313 0.130208 0.195313 0.195313 0.130208 0.130209 0.195313 0.195312 0.130209 0.195313 0.195313 0.130208 0.130209 0.195313 0.0976565 0.130208 0.0976564 0.195313 0.0651044 0.130208 0.195312 0.195312 0.130208 0.195313 0.0976562 0.0651041 0.195313 0.0976563 0.130208 0.130208 0.195312 0.195313 0.130208 0.195313 0.195313 0.130208 0.130208 0.195312 0.195313 0.130208 0.195313 0.195313 0.130208 0.130208 0.195312 0.195312 0.130208 0.195313 0.195313 0.130208 0.130208 0.195312 0.195313 0.130208 0.195313 0.195313 0.130208 0.130208 0.195313 0.195312 0.130208 0.195313 0.195313 0.130208 0.130208 0.195312 0.195312 0.130208 0.195312 0.195313 0.130208 0.130208 0.195312 0.195313 0.130208 0.195313 0.195312 0.130208 0.130208 0.195312 0.195312 0.130208 0.195312 0.195312 0.130208 0.130208 0.195312 0.195313 0.130208 0.195313 0.195312 0.130208 0.130208 0.195313 0.195313 0.130208 0.195313 0.195313 0.130208 0.130208 0.195313 0.195312 0.130208 0.195313 0.195313 0.130208 0.130208 0.195312 0.195313 0.130208 0.195313 0.195313 0.130208 0.130208 0.195312 0.195312 0.130208 0.195313 0.195313 0.130208 0.130208 0.195312 0.195313 0.130208 0.195313 0.195312 0.130208 0.130208 0.195313 0.195313 0.130208 0.195313 0.195313 0.130208 0.130208 0.195313 0.195313 0.130208 0.195313 0.195313 0.130208 0.130208 0.195313 0.195312 0.130208 0.195313 0.195313 0.130208 0.130208 0.195313 0.195313 0.130209 0.195313 0.195313 0.130209 0.130208 0.195313 0.195313 0.130208 0.195313 0.195313 0.130208 0.130208 0.195313 0.195313 0.130209 0.195313 0.195313 0.130208 0.130208 0.195312 0.195312 0.130208 0.195313 0.195313 0.130208 0.130208 0.195312 0.195313 0.130208 0.195313 0.195313 0.130208 0.130208 0.195313 0.195312 0.130208 0.195312 0.195313 0.130208 0.130208 0.195312 0.195313 0.130208 0.195313 0.195312 0.130208 0.130209 0.195313 0.195312 0.130209 0.195312 0.195313 0.130208 0.130208 0.195312 0.195312 0.130208 0.195313 0.195312 0.130208 0.130209 0.195313 0.195313 0.130209 0.195313 0.195313 0.130208 0.130208 0.195312 0.195312 0.130208 0.195312 0.195312 0.130208 0.130208 0.195312 0.195313 0.130208 0.195313 0.195313 0.130208 0.130209 0.195313 0.195312 0.130209 0.195313 0.195313 0.130208 0.130209 0.195313 0.0976565 0.130208 0.0976565 0.195313 0.0651044 0.130208 0.195313 0.195313 0.130208 0.195313 0.0976562 0.0651042 0.195313 0.0976563 0.130208 0.130208 0.195313 0.195313 0.130208 0.195313 0.195313 0.130208 0.130208 0.195313 0.195313 0.130208 0.195313 0.195313 0.130208 0.130208 0.195313 0.195312 0.130208 0.195313 0.195313 0.130208 0.130208 0.195313 0.195313 0.130208 0.195313 0.195313 0.130208 0.130208 0.195313 0.195312 0.130208 0.195313 0.195313 0.130208 0.130208 0.195313 0.195312 0.130208 0.195313 0.195313 0.130208 0.130208 0.195312 0.195312 0.130208 0.195313 0.195312 0.130208 0.130208 0.195312 0.195312 0.130208 0.195313 0.195313 0.130208 0.130208 0.195312 0.195313 0.130208 0.195313 0.195313 0.130208 0.130208 0.195313 0.195313 0.130208 0.195313 0.195313 0.130208 0.130208 0.195313 0.195312 0.130208 0.195313 0.195313 0.130208 0.130208 0.195313 0.195313 0.130208 0.195313 0.195313 0.130208 0.130208 0.195313 0.195312 0.130208 0.195313 0.195313 0.130208 0.130208 0.195312 0.195313 0.130208 0.195313 0.195312 0.130208 0.130208 0.195313 0.195313 0.130208 0.195313 0.195313 0.130208 0.130208 0.195313 0.195313 0.130209 0.195313 0.195313 0.130208 0.130208 0.195313 0.195312 0.130208 0.195313 0.195313 0.130208 0.130208 0.195313 0.195313 0.130209 0.195313 0.195313 0.130209 0.130208 0.195313 0.195313 0.130209 0.195313 0.195313 0.130208 0.130208 0.195313 0.195313 0.130209 0.195313 0.195313 0.130209 0.130208 0.195313 0.195312 0.130208 0.195313 0.195313 0.130208 0.130208 0.195313 0.195313 0.130208 0.195313 0.195313 0.130208 0.130208 0.195313 0.195312 0.130209 0.195313 0.195313 0.130208 0.130208 0.195312 0.195313 0.130208 0.195313 0.195312 0.130208 0.130209 0.195313 0.195312 0.130209 0.195312 0.195313 0.130208 0.130208 0.195312 0.195312 0.130208 0.195313 0.195312 0.130208 0.130209 0.195313 0.195313 0.130209 0.195313 0.195313 0.130209 0.130208 0.195312 0.195312 0.130208 0.195312 0.195312 0.130208 0.130208 0.195313 0.195313 0.130209 0.195313 0.195313 0.130208 0.130209 0.195313 0.195312 0.130209 0.195313 0.195313 0.130208 0.130209 0.195313 0.0976566 0.130209 0.0976565 0.195313 0.0651044 0.130208 0.195312 0.195312 0.130208 0.195313 0.0976562 0.0651042 0.195312 0.0976563 0.130208 0.130208 0.195313 0.195312 0.130208 0.195313 0.195312 0.130208 0.130208 0.195312 0.195312 0.130208 0.195313 0.195312 0.130208 0.130208 0.195312 0.195312 0.130208 0.195313 0.195312 0.130208 0.130208 0.195312 0.195312 0.130208 0.195313 0.195312 0.130208 0.130208 0.195313 0.195312 0.130208 0.195313 0.195313 0.130208 0.130208 0.195312 0.195312 0.130208 0.195313 0.195312 0.130208 0.130208 0.195312 0.195312 0.130208 0.195313 0.195312 0.130208 0.130208 0.195312 0.195312 0.130208 0.195312 0.195312 0.130208 0.130208 0.195312 0.195312 0.130208 0.195313 0.195312 0.130208 0.130208 0.195313 0.195313 0.130208 0.195313 0.195313 0.130208 0.130208 0.195313 0.195312 0.130208 0.195313 0.195313 0.130208 0.130208 0.195312 0.195312 0.130208 0.195313 0.195312 0.130208 0.130208 0.195313 0.195312 0.130208 0.195313 0.195312 0.130208 0.130208 0.195312 0.195312 0.130208 0.195313 0.195312 0.130208 0.130208 0.195313 0.195313 0.130208 0.195313 0.195313 0.130208 0.130208 0.195313 0.195313 0.130208 0.195313 0.195313 0.130208 0.130208 0.195313 0.195312 0.130208 0.195313 0.195313 0.130208 0.130208 0.195313 0.195313 0.130209 0.195313 0.195313 0.130209 0.130208 0.195313 0.195312 0.130208 0.195313 0.195313 0.130208 0.130208 0.195313 0.195313 0.130209 0.195313 0.195313 0.130208 0.130208 0.195312 0.195312 0.130208 0.195313 0.195312 0.130208 0.130208 0.195312 0.195313 0.130208 0.195313 0.195312 0.130208 0.130208 0.195313 0.195312 0.130208 0.195312 0.195313 0.130208 0.130208 0.195312 0.195312 0.130208 0.195313 0.195312 0.130208 0.130208 0.195313 0.195312 0.130209 0.195312 0.195313 0.130208 0.130208 0.195312 0.195312 0.130208 0.195313 0.195312 0.130208 0.130209 0.195313 0.195313 0.130209 0.195313 0.195313 0.130209 0.130208 0.195312 0.195312 0.130208 0.195312 0.195312 0.130208 0.130208 0.195312 0.195313 0.130209 0.195313 0.195312 0.130208 0.130209 0.195313 0.195312 0.130209 0.195313 0.195313 0.130208 0.130209 0.195313 0.0976565 0.130208 0.0976565 0.195313 0.0651044 0.0651041 0.195312 0.0976562 0.130208 0.195312 0.0325521 0.0651041 0.0976562 0.0976563 0.130208 0.0651042 0.195312 0.0976562 0.130208 0.195312 0.0976563 0.130208 0.0651042 0.195312 0.0976562 0.130208 0.195312 0.0976563 0.130208 0.0651041 0.195312 0.0976562 0.130208 0.195312 0.0976562 0.130208 0.0651042 0.195312 0.0976562 0.130208 0.195312 0.0976563 0.130208 0.0651042 0.195312 0.0976562 0.130208 0.195312 0.0976563 0.130208 0.0651041 0.195312 0.0976562 0.130208 0.195312 0.0976562 0.130208 0.0651041 0.195312 0.0976562 0.130208 0.195312 0.0976562 0.130208 0.0651042 0.195312 0.0976562 0.130208 0.195312 0.0976563 0.130208 0.0651042 0.195312 0.0976562 0.130208 0.195312 0.0976562 0.130208 0.0651042 0.195312 0.0976563 0.130208 0.195313 0.0976563 0.130208 0.0651042 0.195312 0.0976562 0.130208 0.195312 0.0976564 0.130208 0.0651041 0.195312 0.0976562 0.130208 0.195312 0.0976562 0.130208 0.0651041 0.195312 0.0976562 0.130208 0.195312 0.0976562 0.130208 0.0651041 0.195312 0.0976562 0.130208 0.195313 0.0976562 0.130208 0.0651043 0.195312 0.0976563 0.130208 0.195313 0.0976564 0.130208 0.0651043 0.195313 0.0976563 0.130208 0.195313 0.0976564 0.130208 0.0651042 0.195312 0.0976561 0.130208 0.195312 0.0976564 0.130208 0.0651041 0.195313 0.0976564 0.130208 0.195313 0.0976563 0.130209 0.0651043 0.195312 0.0976562 0.130208 0.195312 0.0976565 0.130208 0.0651042 0.195313 0.0976563 0.130209 0.195313 0.0976564 0.130208 0.0651042 0.195312 0.0976561 0.130208 0.195312 0.0976562 0.130208 0.0651041 0.195312 0.0976562 0.130208 0.195313 0.0976562 0.130208 0.0651042 0.195312 0.0976562 0.130208 0.195312 0.0976563 0.130208 0.065104 0.195312 0.0976562 0.130208 0.195313 0.0976561 0.130208 0.0651044 0.195313 0.0976562 0.130208 0.195312 0.0976565 0.130208 0.065104 0.195312 0.0976561 0.130208 0.195312 0.097656 0.130208 0.0651044 0.195313 0.0976564 0.130209 0.195313 0.0976565 0.130208 0.0651042 0.195312 0.097656 0.130208 0.195312 0.0976564 0.130208 0.0651042 0.195312 0.0976562 0.130208 0.195313 0.0976565 0.130208 0.0651043 0.195313 0.0976563 0.130209 0.195313 0.0976566 0.130208 0.0651043 0.195313 0.0651043 0.130208 0.0976564 0.0976564 0.0651043 0.130208 0.195313 0.195313 0.130208 0.195313 0.0976563 0.0651042 0.0651042 0.0976563 0.0651042 0.195313 0.0976563 0.0976563 0.130208 0.130208 0.195313 0.195313 0.130208 0.195313 0.0976563 0.0651042 0.195313 0.0976563 0.130208 0.130208 0.195313 0.195313 0.130208 0.195313 0.0976563 0.0651042 0.195313 0.0976563 0.130208 0.130208 0.195313 0.195313 0.130208 0.195313 0.0976563 0.0651042 0.195313 0.0976563 0.130208 0.130208 0.195313 0.195313 0.130208 0.195313 0.0976563 0.0651042 0.195313 0.0976563 0.130208 0.130208 0.195313 0.195313 0.130208 0.195313 0.0976563 0.0651042 0.195313 0.0976563 0.130208 0.130208 0.195313 0.195312 0.130208 0.195312 0.0976563 0.0651042 0.195313 0.0976562 0.130208 0.130208 0.195312 0.195313 0.130208 0.195313 0.0976562 0.0651041 0.195312 0.0976562 0.130208 0.130208 0.195312 0.195313 0.130208 0.195312 0.0976562 0.0651041 0.195312 0.0976562 0.130208 0.130208 0.195313 0.195313 0.130208 0.195313 0.0976562 0.0651042 0.195313 0.0976563 0.130208 0.130208 0.195313 0.195313 0.130208 0.195313 0.0976563 0.0651042 0.195313 0.0976563 0.130208 0.130208 0.195313 0.195313 0.130208 0.195312 0.0976563 0.0651042 0.195313 0.0976563 0.130208 0.130208 0.195313 0.195313 0.130208 0.195313 0.0976563 0.0651042 0.195313 0.0976563 0.130208 0.130208 0.195313 0.195313 0.130208 0.195312 0.0976563 0.0651042 0.195313 0.0976562 0.130208 0.130208 0.195312 0.195313 0.130208 0.195313 0.0976562 0.0651041 0.195312 0.0976563 0.130208 0.130209 0.195313 0.195313 0.130208 0.195313 0.0976563 0.0651042 0.195313 0.0976563 0.130208 0.130209 0.195313 0.195313 0.130208 0.195313 0.0976563 0.0651042 0.195313 0.0976564 0.130208 0.130208 0.195313 0.195313 0.130208 0.195313 0.0976562 0.0651042 0.195313 0.0976563 0.130208 0.130208 0.195313 0.195313 0.130209 0.195313 0.0976564 0.0651043 0.195313 0.0976564 0.130209 0.130209 0.195313 0.195313 0.130208 0.195313 0.0976562 0.0651042 0.195313 0.0976563 0.130208 0.130209 0.195313 0.195313 0.130209 0.195313 0.0976565 0.0651043 0.195313 0.0976564 0.130209 0.130208 0.195313 0.195312 0.130208 0.195313 0.0976563 0.0651042 0.195313 0.0976563 0.130208 0.130208 0.195313 0.195313 0.130208 0.195313 0.0976563 0.0651042 0.195313 0.0976563 0.130208 0.130208 0.195313 0.195313 0.130208 0.195312 0.0976563 0.0651042 0.195313 0.0976562 0.130208 0.130208 0.195312 0.195313 0.130208 0.195313 0.0976562 0.0651041 0.195312 0.0976563 0.130208 0.130209 0.195313 0.195312 0.130209 0.195312 0.0976562 0.0651042 0.195313 0.0976561 0.130208 0.130208 0.195312 0.195313 0.130208 0.195313 0.0976561 0.065104 0.195312 0.0976563 0.130208 0.130209 0.195313 0.195313 0.130209 0.195313 0.0976565 0.0651043 0.195313 0.0976564 0.130209 0.130208 0.195312 0.195312 0.130208 0.195312 0.0976558 0.065104 0.195312 0.0976563 0.130208 0.130208 0.195313 0.195313 0.130209 0.195313 0.0976561 0.0651041 0.195313 0.0976564 0.130208 0.130209 0.195313 0.195313 0.130209 0.195313 0.0976562 0.0651042 0.195313 0.0976561 0.130208 0.130209 0.195313 0.0976566 0.130208 0.0976565 0.0976565 0.0651043 0.195313 0.0325522 0.0651044 0.130208 0.195313 0.195313 0.130208 0.195313 0.0976563 0.0651042 0.195313 0.0976563 0.130208 0.130208 0.195313 0.195313 0.130208 0.195313 0.195313 0.130208 0.130208 0.195313 0.195313 0.130208 0.195313 0.195313 0.130208 0.130208 0.195313 0.195313 0.130208 0.195313 0.195313 0.130208 0.130208 0.195313 0.195313 0.130208 0.195313 0.195313 0.130208 0.130208 0.195313 0.195313 0.130208 0.195313 0.195313 0.130208 0.130208 0.195313 0.195312 0.130208 0.195313 0.195313 0.130208 0.130208 0.195312 0.195313 0.130208 0.195313 0.195312 0.130208 0.130208 0.195313 0.195313 0.130208 0.195312 0.195312 0.130208 0.130208 0.195313 0.195313 0.130208 0.195313 0.195313 0.130208 0.130208 0.195313 0.195313 0.130208 0.195313 0.195313 0.130208 0.130208 0.195313 0.195313 0.130208 0.195313 0.195313 0.130208 0.130208 0.195313 0.195313 0.130208 0.195313 0.195313 0.130208 0.130208 0.195313 0.195313 0.130208 0.195313 0.195313 0.130208 0.130208 0.195312 0.195313 0.130208 0.195313 0.195312 0.130208 0.130209 0.195313 0.195313 0.130208 0.195313 0.195313 0.130208 0.130209 0.195313 0.195313 0.130208 0.195313 0.195313 0.130209 0.130208 0.195313 0.195313 0.130208 0.195313 0.195313 0.130208 0.130208 0.195313 0.195313 0.130209 0.195313 0.195313 0.130209 0.130209 0.195313 0.195313 0.130208 0.195313 0.195313 0.130208 0.130209 0.195313 0.195313 0.130209 0.195313 0.195313 0.130209 0.130208 0.195313 0.195312 0.130208 0.195313 0.195313 0.130208 0.130208 0.195313 0.195313 0.130208 0.195313 0.195313 0.130208 0.130208 0.195313 0.195313 0.130209 0.195312 0.195313 0.130208 0.130208 0.195312 0.195313 0.130208 0.195313 0.195312 0.130208 0.130209 0.195313 0.195312 0.130209 0.195312 0.195313 0.130208 0.130208 0.195312 0.195313 0.130208 0.195313 0.195312 0.130208 0.130209 0.195313 0.195313 0.130209 0.195313 0.195313 0.130209 0.130208 0.195312 0.195312 0.130208 0.195312 0.195312 0.130208 0.130208 0.195313 0.195313 0.130209 0.195313 0.195313 0.130208 0.130209 0.195313 0.195313 0.130209 0.195313 0.195313 0.130208 0.130209 0.195313 0.0976566 0.130208 0.0976565 0.195313 0.0651044 0.130208 0.195313 0.195313 0.130208 0.195313 0.0976563 0.0651042 0.195313 0.0976563 0.130208 0.130208 0.195313 0.195313 0.130208 0.195313 0.195313 0.130208 0.130208 0.195313 0.195313 0.130208 0.195313 0.195313 0.130208 0.130208 0.195313 0.195313 0.130208 0.195313 0.195313 0.130208 0.130208 0.195313 0.195313 0.130208 0.195313 0.195313 0.130208 0.130208 0.195313 0.195313 0.130208 0.195313 0.195313 0.130208 0.130208 0.195313 0.195312 0.130208 0.195313 0.195313 0.130208 0.130208 0.195313 0.195313 0.130208 0.195313 0.195312 0.130208 0.130208 0.195313 0.195313 0.130208 0.195312 0.195312 0.130208 0.130208 0.195313 0.195313 0.130208 0.195313 0.195313 0.130208 0.130208 0.195313 0.195313 0.130208 0.195313 0.195313 0.130208 0.130208 0.195313 0.195313 0.130208 0.195313 0.195313 0.130208 0.130208 0.195313 0.195313 0.130208 0.195313 0.195313 0.130208 0.130208 0.195313 0.195312 0.130208 0.195313 0.195313 0.130208 0.130208 0.195312 0.195313 0.130208 0.195313 0.195312 0.130208 0.130209 0.195313 0.195313 0.130208 0.195313 0.195313 0.130208 0.130209 0.195313 0.195313 0.130208 0.195313 0.195313 0.130209 0.130208 0.195313 0.195313 0.130208 0.195313 0.195313 0.130208 0.130208 0.195313 0.195313 0.130209 0.195313 0.195313 0.130209 0.130209 0.195313 0.195313 0.130208 0.195313 0.195313 0.130208 0.130209 0.195313 0.195313 0.130209 0.195313 0.195313 0.130209 0.130208 0.195313 0.195312 0.130208 0.195313 0.195313 0.130208 0.130208 0.195313 0.195313 0.130208 0.195313 0.195313 0.130208 0.130208 0.195313 0.195313 0.130209 0.195312 0.195313 0.130208 0.130208 0.195312 0.195313 0.130208 0.195313 0.195312 0.130208 0.130209 0.195313 0.195312 0.130209 0.195312 0.195313 0.130208 0.130208 0.195312 0.195313 0.130208 0.195313 0.195312 0.130208 0.130209 0.195313 0.195313 0.130209 0.195313 0.195313 0.130209 0.130208 0.195312 0.195312 0.130208 0.195312 0.195312 0.130208 0.130208 0.195313 0.195313 0.130209 0.195313 0.195313 0.130208 0.130209 0.195313 0.195313 0.130209 0.195313 0.195313 0.130208 0.130209 0.195313 0.0976566 0.130209 0.0976565 0.195313 0.0651044 0.130208 0.195313 0.195313 0.130208 0.195313 0.0976563 0.0651042 0.195313 0.0976562 0.130208 0.130208 0.195313 0.195313 0.130208 0.195313 0.195313 0.130208 0.130208 0.195313 0.195313 0.130208 0.195313 0.195313 0.130208 0.130208 0.195313 0.195313 0.130208 0.195313 0.195313 0.130208 0.130208 0.195313 0.195313 0.130208 0.195313 0.195313 0.130208 0.130208 0.195313 0.195313 0.130208 0.195313 0.195313 0.130208 0.130208 0.195312 0.195312 0.130208 0.195312 0.195313 0.130208 0.130208 0.195312 0.195313 0.130208 0.195312 0.195312 0.130208 0.130208 0.195312 0.195312 0.130208 0.195312 0.195312 0.130208 0.130208 0.195313 0.195313 0.130208 0.195313 0.195312 0.130208 0.130208 0.195313 0.195313 0.130208 0.195313 0.195313 0.130208 0.130208 0.195313 0.195313 0.130208 0.195312 0.195313 0.130208 0.130208 0.195313 0.195313 0.130208 0.195313 0.195313 0.130208 0.130208 0.195313 0.195312 0.130208 0.195312 0.195313 0.130208 0.130208 0.195312 0.195313 0.130208 0.195313 0.195312 0.130208 0.130209 0.195313 0.195313 0.130208 0.195313 0.195313 0.130208 0.130209 0.195313 0.195313 0.130208 0.195313 0.195313 0.130208 0.130208 0.195313 0.195313 0.130208 0.195312 0.195313 0.130208 0.130208 0.195313 0.195313 0.130208 0.195313 0.195313 0.130209 0.130209 0.195313 0.195313 0.130208 0.195312 0.195313 0.130208 0.130209 0.195313 0.195313 0.130209 0.195313 0.195313 0.130208 0.130208 0.195313 0.195312 0.130208 0.195313 0.195313 0.130208 0.130208 0.195313 0.195313 0.130208 0.195313 0.195313 0.130208 0.130208 0.195313 0.195313 0.130208 0.195312 0.195313 0.130208 0.130208 0.195312 0.195313 0.130208 0.195313 0.195312 0.130208 0.130209 0.195313 0.195312 0.130208 0.195312 0.195313 0.130208 0.130208 0.195312 0.195313 0.130208 0.195313 0.195312 0.130208 0.130209 0.195313 0.195313 0.130209 0.195313 0.195313 0.130209 0.130208 0.195312 0.195312 0.130208 0.195312 0.195312 0.130208 0.130208 0.195313 0.195313 0.130208 0.195313 0.195313 0.130208 0.130209 0.195313 0.195313 0.130209 0.195313 0.195313 0.130208 0.130209 0.195313 0.0976566 0.130208 0.0976565 0.195313 0.0651044 0.130208 0.195313 0.195313 0.130208 0.195313 0.0976563 0.0651042 0.195313 0.0976563 0.130208 0.130208 0.195313 0.195313 0.130208 0.195313 0.195313 0.130208 0.130208 0.195313 0.195313 0.130208 0.195313 0.195313 0.130208 0.130208 0.195313 0.195313 0.130208 0.195313 0.195313 0.130208 0.130208 0.195313 0.195313 0.130208 0.195313 0.195313 0.130208 0.130208 0.195313 0.195313 0.130208 0.195313 0.195313 0.130208 0.130208 0.195313 0.195312 0.130208 0.195313 0.195313 0.130208 0.130208 0.195312 0.195313 0.130208 0.195313 0.195312 0.130208 0.130208 0.195312 0.195313 0.130208 0.195312 0.195313 0.130208 0.130208 0.195313 0.195313 0.130208 0.195313 0.195313 0.130208 0.130208 0.195313 0.195313 0.130208 0.195313 0.195313 0.130208 0.130208 0.195313 0.195313 0.130208 0.195312 0.195313 0.130208 0.130208 0.195313 0.195313 0.130208 0.195313 0.195313 0.130208 0.130208 0.195313 0.195313 0.130208 0.195313 0.195313 0.130208 0.130208 0.195312 0.195313 0.130208 0.195313 0.195312 0.130208 0.130209 0.195313 0.195313 0.130208 0.195313 0.195313 0.130208 0.130209 0.195313 0.195313 0.130208 0.195313 0.195313 0.130208 0.130208 0.195313 0.195313 0.130208 0.195313 0.195313 0.130208 0.130208 0.195313 0.195313 0.130209 0.195313 0.195313 0.130209 0.130209 0.195313 0.195313 0.130208 0.195313 0.195313 0.130208 0.130209 0.195313 0.195313 0.130209 0.195313 0.195313 0.130209 0.130208 0.195313 0.195312 0.130208 0.195313 0.195313 0.130208 0.130208 0.195313 0.195313 0.130208 0.195313 0.195313 0.130208 0.130208 0.195313 0.195313 0.130208 0.195312 0.195313 0.130208 0.130208 0.195312 0.195313 0.130208 0.195313 0.195312 0.130208 0.130209 0.195313 0.195312 0.130209 0.195312 0.195313 0.130208 0.130208 0.195312 0.195313 0.130208 0.195313 0.195312 0.130208 0.130209 0.195313 0.195313 0.130209 0.195313 0.195313 0.130209 0.130208 0.195312 0.195312 0.130208 0.195312 0.195312 0.130208 0.130208 0.195313 0.195313 0.130209 0.195313 0.195313 0.130208 0.130209 0.195313 0.195313 0.130209 0.195313 0.195313 0.130208 0.130209 0.195313 0.0976566 0.130208 0.0976565 0.195313 0.0651044 0.130208 0.195313 0.195313 0.130208 0.195313 0.0976563 0.0651042 0.195313 0.0976563 0.130208 0.130208 0.195313 0.195313 0.130208 0.195313 0.195313 0.130208 0.130208 0.195313 0.195313 0.130208 0.195313 0.195313 0.130208 0.130208 0.195313 0.195313 0.130208 0.195313 0.195313 0.130208 0.130208 0.195313 0.195313 0.130208 0.195313 0.195313 0.130208 0.130208 0.195313 0.195313 0.130208 0.195313 0.195313 0.130208 0.130208 0.195313 0.195312 0.130208 0.195313 0.195313 0.130208 0.130208 0.195313 0.195313 0.130208 0.195313 0.195312 0.130208 0.130208 0.195313 0.195313 0.130208 0.195313 0.195313 0.130208 0.130208 0.195313 0.195313 0.130208 0.195313 0.195313 0.130208 0.130209 0.195313 0.195313 0.130209 0.195313 0.195313 0.130209 0.130209 0.195313 0.195313 0.130208 0.195313 0.195313 0.130208 0.130208 0.195313 0.195313 0.130208 0.195313 0.195313 0.130208 0.130208 0.195313 0.195313 0.130208 0.195313 0.195313 0.130208 0.130208 0.195313 0.195313 0.130208 0.195313 0.195312 0.130208 0.130209 0.195313 0.195313 0.130209 0.195313 0.195313 0.130208 0.130209 0.195313 0.195313 0.130209 0.195313 0.195313 0.130209 0.130208 0.195313 0.195313 0.130208 0.195313 0.195313 0.130208 0.130208 0.195313 0.195313 0.130209 0.195313 0.195313 0.130209 0.130209 0.195313 0.195313 0.130209 0.195313 0.195313 0.130208 0.130209 0.195313 0.195313 0.130209 0.195313 0.195313 0.130209 0.130208 0.195313 0.195312 0.130208 0.195313 0.195313 0.130208 0.130208 0.195313 0.195313 0.130208 0.195313 0.195313 0.130208 0.130209 0.195313 0.195313 0.130209 0.195313 0.195313 0.130208 0.130208 0.195312 0.195313 0.130208 0.195313 0.195312 0.130208 0.130209 0.195313 0.195312 0.130209 0.195312 0.195313 0.130208 0.130208 0.195312 0.195313 0.130208 0.195313 0.195312 0.130208 0.130209 0.195313 0.195313 0.130209 0.195313 0.195313 0.130209 0.130208 0.195312 0.195312 0.130208 0.195312 0.195312 0.130208 0.130208 0.195313 0.195313 0.130209 0.195313 0.195313 0.130208 0.130209 0.195313 0.195313 0.130209 0.195313 0.195313 0.130208 0.130209 0.195313 0.0976566 0.130209 0.0976565 0.195313 0.0651044 0.130208 0.195313 0.195313 0.130208 0.195313 0.0976562 0.0651042 0.195313 0.0976563 0.130208 0.130208 0.195313 0.195313 0.130208 0.195313 0.195313 0.130208 0.130208 0.195313 0.195313 0.130208 0.195313 0.195313 0.130208 0.130208 0.195313 0.195313 0.130208 0.195313 0.195312 0.130208 0.130208 0.195313 0.195313 0.130208 0.195313 0.195312 0.130208 0.130208 0.195313 0.195313 0.130208 0.195313 0.195313 0.130208 0.130208 0.195313 0.195312 0.130208 0.195313 0.195312 0.130208 0.130208 0.195313 0.195313 0.130208 0.195313 0.195312 0.130208 0.130208 0.195313 0.195312 0.130208 0.195312 0.195312 0.130208 0.130208 0.195313 0.195313 0.130208 0.195313 0.195312 0.130208 0.130208 0.195313 0.195313 0.130208 0.195313 0.195313 0.130208 0.130208 0.195313 0.195313 0.130208 0.195313 0.195313 0.130208 0.130208 0.195313 0.195313 0.130208 0.195313 0.195312 0.130208 0.130208 0.195313 0.195312 0.130208 0.195313 0.195313 0.130208 0.130208 0.195312 0.195313 0.130208 0.195313 0.195312 0.130208 0.130209 0.195313 0.195313 0.130208 0.195313 0.195313 0.130208 0.130209 0.195313 0.195313 0.130208 0.195313 0.195313 0.130209 0.130208 0.195313 0.195313 0.130208 0.195313 0.195313 0.130208 0.130208 0.195313 0.195313 0.130209 0.195313 0.195313 0.130209 0.130209 0.195313 0.195313 0.130208 0.195313 0.195313 0.130208 0.130209 0.195313 0.195313 0.130209 0.195313 0.195313 0.130209 0.130208 0.195313 0.195312 0.130208 0.195313 0.195313 0.130208 0.130208 0.195313 0.195313 0.130208 0.195313 0.195313 0.130208 0.130208 0.195313 0.195313 0.130208 0.195312 0.195313 0.130208 0.130208 0.195312 0.195313 0.130208 0.195313 0.195312 0.130208 0.130209 0.195313 0.195312 0.130209 0.195312 0.195313 0.130208 0.130208 0.195312 0.195313 0.130208 0.195313 0.195312 0.130208 0.130209 0.195313 0.195313 0.130209 0.195313 0.195313 0.130209 0.130208 0.195312 0.195312 0.130208 0.195312 0.195312 0.130208 0.130208 0.195313 0.195313 0.130209 0.195313 0.195313 0.130208 0.130209 0.195313 0.195313 0.130209 0.195313 0.195313 0.130208 0.130209 0.195313 0.0976566 0.130208 0.0976565 0.195313 0.0651044 0.0651042 0.195312 0.0976563 0.130208 0.195312 0.0325521 0.0651042 0.0976563 0.0976563 0.130208 0.0651042 0.195312 0.0976563 0.130208 0.195312 0.0976563 0.130208 0.0651042 0.195312 0.0976563 0.130208 0.195312 0.0976563 0.130208 0.0651042 0.195312 0.0976563 0.130208 0.195312 0.0976563 0.130208 0.0651042 0.195312 0.0976563 0.130208 0.195312 0.0976563 0.130208 0.0651042 0.195313 0.0976563 0.130208 0.195312 0.0976563 0.130208 0.0651042 0.195312 0.0976562 0.130208 0.195312 0.0976562 0.130208 0.0651042 0.195312 0.0976563 0.130208 0.195312 0.0976562 0.130208 0.0651043 0.195312 0.0976562 0.130208 0.195312 0.0976563 0.130208 0.0651042 0.195312 0.0976563 0.130208 0.195312 0.0976563 0.130208 0.0651043 0.195313 0.0976564 0.130208 0.195313 0.0976563 0.130208 0.0651043 0.195313 0.0976563 0.130208 0.195312 0.0976564 0.130208 0.0651042 0.195312 0.0976563 0.130208 0.195312 0.0976562 0.130208 0.0651042 0.195313 0.0976562 0.130208 0.195312 0.0976563 0.130208 0.0651042 0.195312 0.0976563 0.130208 0.195313 0.0976562 0.130208 0.0651044 0.195313 0.0976564 0.130208 0.195313 0.0976564 0.130208 0.0651044 0.195313 0.0976564 0.130208 0.195313 0.0976564 0.130208 0.0651043 0.195313 0.0976562 0.130208 0.195312 0.0976564 0.130208 0.0651042 0.195313 0.0976564 0.130208 0.195313 0.0976563 0.130209 0.0651044 0.195313 0.0976563 0.130208 0.195312 0.0976565 0.130208 0.0651042 0.195313 0.0976564 0.130209 0.195313 0.0976564 0.130208 0.0651042 0.195313 0.0976562 0.130208 0.195312 0.0976563 0.130208 0.0651042 0.195312 0.0976563 0.130208 0.195313 0.0976562 0.130208 0.0651043 0.195313 0.0976563 0.130208 0.195312 0.0976563 0.130208 0.0651041 0.195312 0.0976563 0.130208 0.195313 0.0976561 0.130208 0.0651044 0.195313 0.0976562 0.130208 0.195312 0.0976565 0.130208 0.0651041 0.195312 0.0976562 0.130208 0.195312 0.097656 0.130208 0.0651044 0.195313 0.0976565 0.130209 0.195313 0.0976565 0.130208 0.0651043 0.195312 0.0976561 0.130208 0.195312 0.0976564 0.130208 0.0651043 0.195313 0.0976563 0.130208 0.195313 0.0976565 0.130208 0.0651044 0.195313 0.0976564 0.130209 0.195313 0.0976566 0.130208 0.0651044 0.195313 0.0651044 0.130208 0.0976564 0.0976564 0.0651044 0.130208 0.195313 0.195313 0.130208 0.195313 0.0976563 0.0651042 0.0651042 0.0976563 0.0651042 0.195313 0.0976563 0.0976563 0.130208 0.130208 0.195313 0.195313 0.130208 0.195313 0.0976563 0.0651042 0.195313 0.0976563 0.130208 0.130208 0.195313 0.195313 0.130208 0.195313 0.0976563 0.0651042 0.195313 0.0976563 0.130208 0.130208 0.195313 0.195313 0.130208 0.195313 0.0976563 0.0651042 0.195313 0.0976562 0.130208 0.130208 0.195313 0.195313 0.130208 0.195313 0.0976562 0.0651042 0.195313 0.0976563 0.130208 0.130208 0.195313 0.195313 0.130208 0.195313 0.0976563 0.0651042 0.195313 0.0976563 0.130208 0.130208 0.195313 0.195312 0.130208 0.195312 0.0976562 0.0651042 0.195313 0.0976562 0.130208 0.130208 0.195312 0.195313 0.130208 0.195313 0.0976562 0.0651041 0.195312 0.0976562 0.130208 0.130208 0.195312 0.195312 0.130208 0.195312 0.0976562 0.0651041 0.195312 0.0976562 0.130208 0.130208 0.195312 0.195313 0.130208 0.195313 0.0976562 0.0651042 0.195312 0.0976563 0.130208 0.130208 0.195313 0.195313 0.130208 0.195313 0.0976563 0.0651042 0.195313 0.0976563 0.130208 0.130208 0.195313 0.195313 0.130208 0.195313 0.0976563 0.0651042 0.195313 0.0976562 0.130208 0.130208 0.195313 0.195313 0.130208 0.195313 0.0976563 0.0651042 0.195313 0.0976563 0.130208 0.130208 0.195313 0.195312 0.130208 0.195313 0.0976563 0.0651042 0.195313 0.0976562 0.130208 0.130208 0.195312 0.195313 0.130208 0.195313 0.0976562 0.0651041 0.195312 0.0976563 0.130208 0.130208 0.195313 0.195313 0.130208 0.195313 0.0976562 0.0651042 0.195313 0.0976563 0.130208 0.130209 0.195313 0.195313 0.130208 0.195313 0.0976563 0.0651042 0.195313 0.0976564 0.130208 0.130208 0.195313 0.195313 0.130208 0.195313 0.0976562 0.0651042 0.195313 0.0976563 0.130208 0.130208 0.195313 0.195313 0.130209 0.195313 0.0976564 0.0651043 0.195313 0.0976564 0.130209 0.130209 0.195313 0.195313 0.130208 0.195313 0.0976561 0.0651042 0.195313 0.0976563 0.130208 0.130209 0.195313 0.195313 0.130209 0.195313 0.0976565 0.0651043 0.195313 0.0976564 0.130209 0.130208 0.195313 0.195312 0.130208 0.195313 0.0976563 0.0651042 0.195313 0.0976563 0.130208 0.130208 0.195313 0.195313 0.130208 0.195313 0.0976563 0.0651042 0.195313 0.0976563 0.130208 0.130208 0.195313 0.195313 0.130208 0.195312 0.0976563 0.0651042 0.195313 0.0976562 0.130208 0.130208 0.195312 0.195313 0.130208 0.195313 0.0976562 0.0651041 0.195312 0.0976563 0.130208 0.130209 0.195313 0.195312 0.130209 0.195312 0.0976562 0.0651042 0.195313 0.0976561 0.130208 0.130208 0.195312 0.195313 0.130208 0.195313 0.097656 0.0651041 0.195312 0.0976563 0.130208 0.130209 0.195313 0.195313 0.130209 0.195313 0.0976564 0.0651043 0.195313 0.0976564 0.130209 0.130208 0.195312 0.195312 0.130208 0.195312 0.0976558 0.065104 0.195312 0.0976563 0.130208 0.130208 0.195313 0.195313 0.130208 0.195313 0.0976561 0.0651041 0.195313 0.0976564 0.130208 0.130209 0.195313 0.195313 0.130209 0.195313 0.0976562 0.0651042 0.195313 0.0976561 0.130208 0.130209 0.195313 0.0976566 0.130208 0.0976565 0.0976565 0.0651043 0.195313 0.0325522 0.0651044 0.130208 0.195313 0.195313 0.130208 0.195313 0.0976563 0.0651042 0.195313 0.0976563 0.130208 0.130208 0.195313 0.195313 0.130208 0.195313 0.195313 0.130208 0.130208 0.195313 0.195313 0.130208 0.195313 0.195313 0.130208 0.130208 0.195313 0.195313 0.130208 0.195313 0.195313 0.130208 0.130208 0.195313 0.195313 0.130208 0.195313 0.195313 0.130208 0.130208 0.195313 0.195313 0.130208 0.195313 0.195313 0.130208 0.130208 0.195313 0.195312 0.130208 0.195313 0.195313 0.130208 0.130208 0.195312 0.195313 0.130208 0.195313 0.195312 0.130208 0.130208 0.195312 0.195312 0.130208 0.195312 0.195312 0.130208 0.130208 0.195313 0.195313 0.130208 0.195313 0.195312 0.130208 0.130208 0.195313 0.195313 0.130208 0.195313 0.195313 0.130208 0.130208 0.195313 0.195313 0.130208 0.195313 0.195313 0.130208 0.130208 0.195313 0.195313 0.130208 0.195313 0.195313 0.130208 0.130208 0.195313 0.195312 0.130208 0.195313 0.195313 0.130208 0.130208 0.195312 0.195313 0.130208 0.195313 0.195312 0.130208 0.130208 0.195313 0.195313 0.130208 0.195313 0.195313 0.130208 0.130209 0.195313 0.195313 0.130208 0.195313 0.195313 0.130208 0.130208 0.195313 0.195313 0.130208 0.195313 0.195313 0.130208 0.130208 0.195313 0.195313 0.130209 0.195313 0.195313 0.130209 0.130209 0.195313 0.195313 0.130208 0.195313 0.195313 0.130208 0.130209 0.195313 0.195313 0.130209 0.195313 0.195313 0.130209 0.130208 0.195313 0.195312 0.130208 0.195313 0.195313 0.130208 0.130208 0.195313 0.195313 0.130208 0.195313 0.195313 0.130208 0.130208 0.195313 0.195313 0.130209 0.195312 0.195313 0.130208 0.130208 0.195312 0.195313 0.130208 0.195313 0.195312 0.130208 0.130209 0.195313 0.195312 0.130209 0.195312 0.195313 0.130208 0.130208 0.195312 0.195313 0.130208 0.195313 0.195312 0.130208 0.130209 0.195313 0.195313 0.130209 0.195313 0.195313 0.130209 0.130208 0.195312 0.195312 0.130208 0.195312 0.195312 0.130208 0.130208 0.195313 0.195313 0.130209 0.195313 0.195313 0.130208 0.130209 0.195313 0.195313 0.130209 0.195313 0.195313 0.130208 0.130209 0.195313 0.0976566 0.130208 0.0976565 0.195313 0.0651044 0.130208 0.195313 0.195313 0.130208 0.195313 0.0976563 0.0651042 0.195313 0.0976563 0.130208 0.130208 0.195313 0.195313 0.130208 0.195313 0.195313 0.130208 0.130208 0.195313 0.195313 0.130208 0.195313 0.195313 0.130208 0.130208 0.195313 0.195313 0.130208 0.195313 0.195313 0.130208 0.130208 0.195313 0.195313 0.130208 0.195313 0.195313 0.130208 0.130208 0.195313 0.195313 0.130208 0.195313 0.195313 0.130208 0.130208 0.195313 0.195312 0.130208 0.195313 0.195313 0.130208 0.130208 0.195312 0.195313 0.130208 0.195313 0.195312 0.130208 0.130208 0.195312 0.195312 0.130208 0.195312 0.195312 0.130208 0.130208 0.195313 0.195313 0.130208 0.195313 0.195313 0.130208 0.130208 0.195313 0.195313 0.130208 0.195313 0.195313 0.130208 0.130208 0.195313 0.195313 0.130208 0.195313 0.195313 0.130208 0.130208 0.195313 0.195313 0.130208 0.195313 0.195313 0.130208 0.130208 0.195313 0.195312 0.130208 0.195313 0.195313 0.130208 0.130208 0.195312 0.195313 0.130208 0.195313 0.195312 0.130208 0.130209 0.195313 0.195313 0.130208 0.195313 0.195313 0.130208 0.130209 0.195313 0.195313 0.130208 0.195313 0.195313 0.130209 0.130208 0.195313 0.195313 0.130208 0.195313 0.195313 0.130208 0.130208 0.195313 0.195313 0.130209 0.195313 0.195313 0.130209 0.130209 0.195313 0.195313 0.130208 0.195313 0.195313 0.130208 0.130209 0.195313 0.195313 0.130209 0.195313 0.195313 0.130209 0.130208 0.195313 0.195312 0.130208 0.195313 0.195313 0.130208 0.130208 0.195313 0.195313 0.130208 0.195313 0.195313 0.130208 0.130208 0.195313 0.195313 0.130208 0.195312 0.195313 0.130208 0.130208 0.195312 0.195313 0.130208 0.195313 0.195312 0.130208 0.130209 0.195313 0.195312 0.130209 0.195312 0.195313 0.130208 0.130208 0.195312 0.195313 0.130208 0.195313 0.195312 0.130208 0.130209 0.195313 0.195313 0.130209 0.195313 0.195313 0.130209 0.130208 0.195312 0.195312 0.130208 0.195312 0.195312 0.130208 0.130208 0.195313 0.195313 0.130209 0.195313 0.195313 0.130208 0.130209 0.195313 0.195313 0.130209 0.195313 0.195313 0.130208 0.130209 0.195313 0.0976566 0.130208 0.0976565 0.195313 0.0651044 0.130208 0.195312 0.195313 0.130208 0.195313 0.0976563 0.0651042 0.195313 0.0976563 0.130208 0.130208 0.195313 0.195313 0.130208 0.195312 0.195313 0.130208 0.130208 0.195313 0.195313 0.130208 0.195313 0.195313 0.130208 0.130208 0.195313 0.195313 0.130208 0.195312 0.195313 0.130208 0.130208 0.195313 0.195313 0.130208 0.195313 0.195313 0.130208 0.130208 0.195313 0.195313 0.130208 0.195313 0.195313 0.130208 0.130208 0.195312 0.195312 0.130208 0.195312 0.195313 0.130208 0.130208 0.195312 0.195313 0.130208 0.195312 0.195312 0.130208 0.130208 0.195312 0.195312 0.130208 0.195312 0.195312 0.130208 0.130208 0.195312 0.195313 0.130208 0.195313 0.195312 0.130208 0.130208 0.195313 0.195313 0.130208 0.195313 0.195313 0.130208 0.130208 0.195313 0.195313 0.130208 0.195312 0.195313 0.130208 0.130208 0.195313 0.195313 0.130208 0.195313 0.195313 0.130208 0.130208 0.195313 0.195312 0.130208 0.195312 0.195313 0.130208 0.130208 0.195312 0.195313 0.130208 0.195313 0.195312 0.130208 0.130208 0.195313 0.195313 0.130208 0.195313 0.195313 0.130208 0.130209 0.195313 0.195313 0.130208 0.195313 0.195313 0.130208 0.130208 0.195313 0.195312 0.130208 0.195313 0.195313 0.130208 0.130208 0.195313 0.195313 0.130208 0.195313 0.195313 0.130209 0.130209 0.195313 0.195313 0.130208 0.195313 0.195313 0.130208 0.130208 0.195313 0.195313 0.130209 0.195313 0.195313 0.130208 0.130208 0.195313 0.195312 0.130208 0.195313 0.195313 0.130208 0.130208 0.195313 0.195313 0.130208 0.195313 0.195313 0.130208 0.130208 0.195313 0.195313 0.130208 0.195312 0.195313 0.130208 0.130208 0.195312 0.195313 0.130208 0.195313 0.195312 0.130208 0.130209 0.195313 0.195312 0.130208 0.195312 0.195313 0.130208 0.130208 0.195312 0.195313 0.130208 0.195313 0.195312 0.130208 0.130209 0.195313 0.195313 0.130209 0.195313 0.195313 0.130209 0.130208 0.195312 0.195312 0.130208 0.195312 0.195312 0.130208 0.130208 0.195313 0.195313 0.130208 0.195313 0.195313 0.130208 0.130209 0.195313 0.195312 0.130209 0.195313 0.195313 0.130208 0.130209 0.195313 0.0976566 0.130208 0.0976565 0.195313 0.0651044 0.130208 0.195313 0.195313 0.130208 0.195313 0.0976563 0.0651042 0.195313 0.0976563 0.130208 0.130208 0.195313 0.195313 0.130208 0.195313 0.195313 0.130208 0.130208 0.195313 0.195313 0.130208 0.195313 0.195313 0.130208 0.130208 0.195313 0.195313 0.130208 0.195313 0.195313 0.130208 0.130208 0.195313 0.195313 0.130208 0.195313 0.195313 0.130208 0.130208 0.195313 0.195313 0.130208 0.195313 0.195313 0.130208 0.130208 0.195313 0.195312 0.130208 0.195312 0.195313 0.130208 0.130208 0.195312 0.195313 0.130208 0.195313 0.195312 0.130208 0.130208 0.195312 0.195313 0.130208 0.195312 0.195312 0.130208 0.130208 0.195312 0.195313 0.130208 0.195313 0.195313 0.130208 0.130208 0.195313 0.195313 0.130208 0.195313 0.195313 0.130208 0.130208 0.195313 0.195313 0.130208 0.195313 0.195313 0.130208 0.130208 0.195313 0.195313 0.130208 0.195313 0.195313 0.130208 0.130208 0.195313 0.195313 0.130208 0.195313 0.195313 0.130208 0.130208 0.195312 0.195313 0.130208 0.195313 0.195312 0.130208 0.130208 0.195313 0.195313 0.130208 0.195313 0.195313 0.130208 0.130209 0.195313 0.195313 0.130208 0.195313 0.195313 0.130208 0.130208 0.195313 0.195313 0.130208 0.195313 0.195313 0.130208 0.130208 0.195313 0.195313 0.130209 0.195313 0.195313 0.130209 0.130209 0.195313 0.195313 0.130208 0.195313 0.195313 0.130208 0.130209 0.195313 0.195313 0.130209 0.195313 0.195313 0.130209 0.130208 0.195313 0.195312 0.130208 0.195313 0.195313 0.130208 0.130208 0.195313 0.195313 0.130208 0.195313 0.195313 0.130208 0.130208 0.195313 0.195313 0.130208 0.195312 0.195313 0.130208 0.130208 0.195312 0.195313 0.130208 0.195313 0.195312 0.130208 0.130209 0.195313 0.195312 0.130209 0.195312 0.195313 0.130208 0.130208 0.195312 0.195313 0.130208 0.195313 0.195312 0.130208 0.130209 0.195313 0.195313 0.130209 0.195313 0.195313 0.130209 0.130208 0.195312 0.195312 0.130208 0.195312 0.195312 0.130208 0.130208 0.195313 0.195313 0.130208 0.195313 0.195313 0.130208 0.130209 0.195313 0.195313 0.130209 0.195313 0.195313 0.130208 0.130209 0.195313 0.0976566 0.130208 0.0976565 0.195313 0.0651044 0.130208 0.195313 0.195313 0.130208 0.195313 0.0976563 0.0651042 0.195313 0.0976563 0.130208 0.130208 0.195313 0.195313 0.130208 0.195313 0.195313 0.130208 0.130208 0.195313 0.195313 0.130208 0.195313 0.195313 0.130208 0.130208 0.195313 0.195313 0.130208 0.195313 0.195313 0.130208 0.130208 0.195313 0.195313 0.130208 0.195313 0.195313 0.130208 0.130208 0.195313 0.195313 0.130208 0.195313 0.195313 0.130208 0.130208 0.195313 0.195312 0.130208 0.195313 0.195313 0.130208 0.130208 0.195313 0.195313 0.130208 0.195313 0.195313 0.130208 0.130208 0.195313 0.195313 0.130208 0.195313 0.195313 0.130208 0.130208 0.195313 0.195313 0.130208 0.195313 0.195313 0.130208 0.130208 0.195313 0.195313 0.130208 0.195313 0.195313 0.130209 0.130208 0.195313 0.195313 0.130208 0.195313 0.195313 0.130208 0.130208 0.195313 0.195313 0.130208 0.195313 0.195313 0.130208 0.130208 0.195313 0.195312 0.130208 0.195313 0.195313 0.130208 0.130208 0.195312 0.195313 0.130208 0.195313 0.195312 0.130208 0.130209 0.195313 0.195313 0.130209 0.195313 0.195313 0.130208 0.130209 0.195313 0.195313 0.130209 0.195313 0.195313 0.130209 0.130208 0.195313 0.195313 0.130208 0.195313 0.195313 0.130208 0.130208 0.195313 0.195313 0.130209 0.195313 0.195313 0.130209 0.130209 0.195313 0.195313 0.130209 0.195313 0.195313 0.130208 0.130209 0.195313 0.195313 0.130209 0.195313 0.195313 0.130209 0.130208 0.195313 0.195312 0.130208 0.195313 0.195313 0.130208 0.130208 0.195313 0.195313 0.130208 0.195313 0.195313 0.130208 0.130208 0.195313 0.195313 0.130209 0.195313 0.195313 0.130208 0.130208 0.195312 0.195313 0.130208 0.195313 0.195312 0.130208 0.130209 0.195313 0.195312 0.130209 0.195312 0.195313 0.130208 0.130208 0.195312 0.195313 0.130208 0.195313 0.195312 0.130208 0.130209 0.195313 0.195313 0.130209 0.195313 0.195313 0.130209 0.130208 0.195312 0.195312 0.130208 0.195312 0.195312 0.130208 0.130208 0.195313 0.195313 0.130209 0.195313 0.195313 0.130208 0.130209 0.195313 0.195313 0.130209 0.195313 0.195313 0.130208 0.130209 0.195313 0.0976566 0.130209 0.0976565 0.195313 0.0651044 0.130208 0.195313 0.195313 0.130208 0.195313 0.0976562 0.0651042 0.195312 0.0976563 0.130208 0.130208 0.195313 0.195313 0.130208 0.195313 0.195312 0.130208 0.130208 0.195313 0.195313 0.130208 0.195313 0.195312 0.130208 0.130208 0.195313 0.195312 0.130208 0.195313 0.195312 0.130208 0.130208 0.195313 0.195313 0.130208 0.195313 0.195312 0.130208 0.130208 0.195313 0.195313 0.130208 0.195313 0.195313 0.130208 0.130208 0.195313 0.195312 0.130208 0.195313 0.195312 0.130208 0.130208 0.195312 0.195313 0.130208 0.195313 0.195312 0.130208 0.130208 0.195312 0.195312 0.130208 0.195312 0.195312 0.130208 0.130208 0.195313 0.195313 0.130208 0.195313 0.195312 0.130208 0.130208 0.195313 0.195313 0.130208 0.195313 0.195313 0.130208 0.130208 0.195313 0.195313 0.130208 0.195313 0.195313 0.130208 0.130208 0.195313 0.195313 0.130208 0.195313 0.195312 0.130208 0.130208 0.195313 0.195312 0.130208 0.195313 0.195313 0.130208 0.130208 0.195312 0.195313 0.130208 0.195313 0.195312 0.130208 0.130208 0.195313 0.195313 0.130208 0.195313 0.195313 0.130208 0.130209 0.195313 0.195313 0.130208 0.195313 0.195313 0.130209 0.130208 0.195313 0.195312 0.130208 0.195313 0.195313 0.130208 0.130208 0.195313 0.195313 0.130209 0.195313 0.195313 0.130209 0.130209 0.195313 0.195313 0.130208 0.195313 0.195313 0.130208 0.130209 0.195313 0.195313 0.130209 0.195313 0.195313 0.130209 0.130208 0.195313 0.195312 0.130208 0.195313 0.195312 0.130208 0.130208 0.195313 0.195313 0.130208 0.195313 0.195312 0.130208 0.130208 0.195313 0.195312 0.130209 0.195312 0.195313 0.130208 0.130208 0.195312 0.195313 0.130208 0.195313 0.195312 0.130208 0.130209 0.195313 0.195312 0.130209 0.195312 0.195313 0.130208 0.130208 0.195312 0.195313 0.130208 0.195313 0.195312 0.130208 0.130209 0.195313 0.195313 0.130209 0.195313 0.195313 0.130209 0.130208 0.195312 0.195312 0.130208 0.195312 0.195312 0.130208 0.130208 0.195313 0.195313 0.130208 0.195313 0.195313 0.130208 0.130209 0.195313 0.195312 0.130209 0.195313 0.195313 0.130208 0.130209 0.195313 0.0976566 0.130208 0.0976565 0.195313 0.0651044 0.0651042 0.195312 0.0976563 0.130208 0.195312 0.0325521 0.0651042 0.0976563 0.0976563 0.130208 0.0651042 0.195312 0.0976563 0.130208 0.195312 0.0976563 0.130208 0.0651042 0.195312 0.0976563 0.130208 0.195312 0.0976563 0.130208 0.0651042 0.195312 0.0976563 0.130208 0.195312 0.0976563 0.130208 0.0651042 0.195312 0.0976562 0.130208 0.195312 0.0976563 0.130208 0.0651042 0.195312 0.0976562 0.130208 0.195312 0.0976563 0.130208 0.0651042 0.195312 0.0976562 0.130208 0.195312 0.0976562 0.130208 0.0651042 0.195312 0.0976563 0.130208 0.195312 0.0976562 0.130208 0.0651042 0.195312 0.0976562 0.130208 0.195312 0.0976563 0.130208 0.0651042 0.195312 0.0976563 0.130208 0.195312 0.0976563 0.130208 0.0651042 0.195313 0.0976563 0.130208 0.195313 0.0976563 0.130208 0.0651043 0.195313 0.0976563 0.130208 0.195312 0.0976564 0.130208 0.0651042 0.195312 0.0976562 0.130208 0.195312 0.0976562 0.130208 0.0651042 0.195312 0.0976562 0.130208 0.195312 0.0976563 0.130208 0.0651041 0.195312 0.0976563 0.130208 0.195313 0.0976562 0.130208 0.0651043 0.195313 0.0976564 0.130208 0.195313 0.0976564 0.130208 0.0651043 0.195313 0.0976564 0.130208 0.195313 0.0976564 0.130208 0.0651043 0.195313 0.0976562 0.130208 0.195312 0.0976564 0.130208 0.0651042 0.195313 0.0976564 0.130208 0.195313 0.0976563 0.130209 0.0651044 0.195313 0.0976562 0.130208 0.195312 0.0976565 0.130208 0.0651042 0.195313 0.0976564 0.130209 0.195313 0.0976564 0.130208 0.0651042 0.195312 0.0976562 0.130208 0.195312 0.0976563 0.130208 0.0651042 0.195312 0.0976563 0.130208 0.195313 0.0976562 0.130208 0.0651042 0.195313 0.0976563 0.130208 0.195312 0.0976563 0.130208 0.0651041 0.195312 0.0976562 0.130208 0.195313 0.0976561 0.130208 0.0651044 0.195313 0.0976562 0.130208 0.195312 0.0976565 0.130208 0.0651041 0.195312 0.0976562 0.130208 0.195312 0.097656 0.130208 0.0651044 0.195313 0.0976565 0.130209 0.195313 0.0976565 0.130208 0.0651043 0.195312 0.0976561 0.130208 0.195312 0.0976564 0.130208 0.0651043 0.195312 0.0976563 0.130208 0.195313 0.0976565 0.130208 0.0651044 0.195313 0.0976564 0.130209 0.195313 0.0976566 0.130208 0.0651044 0.195313 0.0651044 0.130208 0.0976564 0.0976564 0.0651044 0.130208 0.195313 0.195313 0.0651042 0.0976563 0.0325521 0.0651042 0.0651042 0.0976563 0.0651042 0.0976563 0.0325521 0.0976563 0.130208 0.130208 0.195313 0.195313 0.0651042 0.0976562 0.0325521 0.0651042 0.0976563 0.0976563 0.130208 0.130208 0.195313 0.195313 0.0651042 0.0976563 0.0325521 0.0651042 0.0976563 0.0976563 0.130208 0.130208 0.195313 0.195313 0.0651042 0.0976562 0.0325521 0.0651042 0.0976563 0.0976562 0.130208 0.130208 0.195313 0.195313 0.0651042 0.0976563 0.0325521 0.0651042 0.0976563 0.0976563 0.130208 0.130208 0.195313 0.195313 0.0651042 0.0976563 0.0325521 0.0651042 0.0976563 0.0976563 0.130208 0.130208 0.195312 0.195312 0.0651042 0.0976562 0.0325521 0.0651042 0.0976562 0.0976562 0.130208 0.130208 0.195312 0.195313 0.0651041 0.0976562 0.0325521 0.0651041 0.0976562 0.0976562 0.130208 0.130208 0.195312 0.195312 0.0651042 0.0976562 0.0325521 0.0651041 0.0976563 0.0976562 0.130208 0.130208 0.195313 0.195313 0.0651042 0.0976563 0.0325521 0.0651042 0.0976563 0.0976563 0.130208 0.130208 0.195313 0.195313 0.0651042 0.0976563 0.0325521 0.0651042 0.0976563 0.0976563 0.130208 0.130208 0.195313 0.195313 0.0651042 0.0976563 0.0325521 0.0651042 0.0976563 0.0976562 0.130208 0.130208 0.195313 0.195313 0.0651042 0.0976563 0.0325521 0.0651042 0.0976563 0.0976563 0.130208 0.130208 0.195313 0.195312 0.0651042 0.0976563 0.0325521 0.0651042 0.0976563 0.0976562 0.130208 0.130208 0.195312 0.195313 0.0651041 0.0976562 0.0325521 0.0651041 0.0976562 0.0976563 0.130208 0.130209 0.195313 0.195313 0.0651042 0.0976563 0.0325521 0.0651042 0.0976563 0.0976563 0.130208 0.130209 0.195313 0.195313 0.0651042 0.0976563 0.0325521 0.0651042 0.0976564 0.0976564 0.130208 0.130208 0.195313 0.195313 0.0651043 0.0976563 0.0325521 0.0651042 0.0976564 0.0976563 0.130208 0.130208 0.195313 0.195313 0.0651043 0.0976564 0.0325521 0.0651043 0.0976563 0.0976564 0.130209 0.130209 0.195313 0.195313 0.0651043 0.0976563 0.0325522 0.0651042 0.0976565 0.0976563 0.130208 0.130209 0.195313 0.195313 0.0651043 0.0976564 0.0325522 0.0651043 0.0976565 0.0976564 0.130209 0.130208 0.195313 0.195312 0.0651042 0.0976563 0.0325522 0.0651042 0.0976563 0.0976563 0.130208 0.130208 0.195313 0.195313 0.0651042 0.0976563 0.0325521 0.0651042 0.0976562 0.0976563 0.130208 0.130208 0.195313 0.195313 0.0651043 0.0976563 0.0325522 0.0651042 0.0976563 0.0976562 0.130208 0.130208 0.195312 0.195313 0.0651042 0.0976563 0.0325521 0.0651041 0.0976562 0.0976563 0.130208 0.130209 0.195313 0.195312 0.0651043 0.0976561 0.0325521 0.0651042 0.0976565 0.0976561 0.130208 0.130208 0.195312 0.195313 0.065104 0.0976562 0.032552 0.065104 0.097656 0.0976563 0.130208 0.130209 0.195313 0.195313 0.0651043 0.0976564 0.0325522 0.0651043 0.0976565 0.0976564 0.130209 0.130208 0.195312 0.195312 0.0651042 0.0976562 0.0325521 0.065104 0.0976564 0.0976563 0.130208 0.130208 0.195313 0.195313 0.0651044 0.0976564 0.0325522 0.0651041 0.0976565 0.0976564 0.130208 0.130209 0.195313 0.195313 0.0651044 0.0976562 0.0325522 0.0651042 0.0976566 0.0976561 0.130208 0.130209 0.195313 0.0976566 0.0651041 0.0651043 0.0325521 0.0651043 0.0976563 0.0325522 0.0651044 0.130208 0.195313 0.195313 0.0651042 0.0976563 0.0976563 0.0651042 0.0976563 0.0325521 0.130208 0.130208 0.195313 0.195313 0.0651042 0.0976563 0.0976563 0.130208 0.130208 0.195313 0.195313 0.0651042 0.0976563 0.0976563 0.130208 0.130208 0.195313 0.195313 0.0651042 0.0976563 0.0976563 0.130208 0.130208 0.195313 0.195313 0.0651042 0.0976563 0.0976563 0.130208 0.130208 0.195313 0.195313 0.0651042 0.0976563 0.0976563 0.130208 0.130208 0.195313 0.195312 0.0651042 0.0976562 0.0976562 0.130208 0.130208 0.195312 0.195313 0.0651041 0.0976562 0.0976562 0.130208 0.130208 0.195312 0.195312 0.0651042 0.0976562 0.0976563 0.130208 0.130208 0.195313 0.195313 0.0651042 0.0976563 0.0976563 0.130208 0.130208 0.195313 0.195313 0.0651042 0.0976563 0.0976563 0.130208 0.130208 0.195313 0.195313 0.0651042 0.0976563 0.0976563 0.130208 0.130208 0.195313 0.195313 0.0651042 0.0976563 0.0976563 0.130208 0.130208 0.195313 0.195312 0.0651042 0.0976563 0.0976563 0.130208 0.130208 0.195312 0.195313 0.0651042 0.0976562 0.0976562 0.130208 0.130209 0.195313 0.195313 0.0651042 0.0976563 0.0976563 0.130208 0.130209 0.195313 0.195313 0.0651042 0.0976563 0.0976564 0.130208 0.130208 0.195313 0.195313 0.0651043 0.0976563 0.0976564 0.130208 0.130208 0.195313 0.195313 0.0651043 0.0976564 0.0976564 0.130209 0.130209 0.195313 0.195313 0.0651043 0.0976563 0.0976565 0.130208 0.130209 0.195313 0.195313 0.0651043 0.0976564 0.0976565 0.130209 0.130208 0.195313 0.195312 0.0651042 0.0976563 0.0976564 0.130208 0.130208 0.195313 0.195313 0.0651042 0.0976563 0.0976562 0.130208 0.130208 0.195313 0.195313 0.0651043 0.0976563 0.0976563 0.130208 0.130208 0.195312 0.195313 0.0651042 0.0976563 0.0976562 0.130208 0.130209 0.195313 0.195312 0.0651043 0.0976562 0.0976565 0.130208 0.130208 0.195312 0.195313 0.065104 0.0976562 0.097656 0.130208 0.130209 0.195313 0.195313 0.0651043 0.0976565 0.0976565 0.130209 0.130208 0.195312 0.195312 0.0651042 0.0976562 0.0976564 0.130208 0.130208 0.195313 0.195313 0.0651044 0.0976564 0.0976565 0.130208 0.130209 0.195313 0.195313 0.0651044 0.0976563 0.0976566 0.130208 0.130209 0.195313 0.0976566 0.0651041 0.0651043 0.0976563 0.0651044 0.130208 0.195313 0.195313 0.0651042 0.0976563 0.0976563 0.0651042 0.0976563 0.0325521 0.130208 0.130208 0.195313 0.195313 0.0651042 0.0976563 0.0976563 0.130208 0.130208 0.195313 0.195313 0.0651042 0.0976563 0.0976563 0.130208 0.130208 0.195313 0.195313 0.0651042 0.0976563 0.0976563 0.130208 0.130208 0.195313 0.195313 0.0651042 0.0976563 0.0976563 0.130208 0.130208 0.195313 0.195313 0.0651042 0.0976563 0.0976563 0.130208 0.130208 0.195313 0.195312 0.0651042 0.0976562 0.0976563 0.130208 0.130208 0.195312 0.195313 0.0651041 0.0976562 0.0976562 0.130208 0.130208 0.195312 0.195312 0.0651042 0.0976562 0.0976563 0.130208 0.130208 0.195313 0.195313 0.0651042 0.0976563 0.0976563 0.130208 0.130208 0.195313 0.195313 0.0651042 0.0976563 0.0976563 0.130208 0.130208 0.195313 0.195313 0.0651042 0.0976563 0.0976564 0.130208 0.130208 0.195313 0.195313 0.0651042 0.0976563 0.0976563 0.130208 0.130208 0.195313 0.195312 0.0651042 0.0976563 0.0976563 0.130208 0.130208 0.195312 0.195313 0.0651041 0.0976562 0.0976562 0.130208 0.130209 0.195313 0.195313 0.0651042 0.0976563 0.0976563 0.130208 0.130209 0.195313 0.195313 0.0651042 0.0976564 0.0976564 0.130208 0.130208 0.195313 0.195313 0.0651043 0.0976563 0.0976564 0.130208 0.130208 0.195313 0.195313 0.0651043 0.0976564 0.0976564 0.130209 0.130209 0.195313 0.195313 0.0651043 0.0976563 0.0976565 0.130208 0.130209 0.195313 0.195313 0.0651043 0.0976564 0.0976565 0.130209 0.130208 0.195313 0.195312 0.0651042 0.0976563 0.0976564 0.130208 0.130208 0.195313 0.195313 0.0651042 0.0976563 0.0976562 0.130208 0.130208 0.195313 0.195313 0.0651043 0.0976563 0.0976564 0.130208 0.130208 0.195312 0.195313 0.0651042 0.0976563 0.0976562 0.130208 0.130209 0.195313 0.195312 0.0651043 0.0976562 0.0976565 0.130208 0.130208 0.195312 0.195313 0.065104 0.0976562 0.097656 0.130208 0.130209 0.195313 0.195313 0.0651043 0.0976565 0.0976565 0.130209 0.130208 0.195312 0.195312 0.0651042 0.0976562 0.0976564 0.130208 0.130208 0.195313 0.195313 0.0651044 0.0976564 0.0976565 0.130208 0.130209 0.195313 0.195313 0.0651044 0.0976562 0.0976567 0.130208 0.130209 0.195313 0.0976566 0.0651041 0.0651043 0.0976563 0.0651044 0.130208 0.195312 0.195313 0.0651042 0.0976562 0.0976563 0.0651042 0.0976563 0.0325521 0.130208 0.130208 0.195312 0.195313 0.0651042 0.0976562 0.0976563 0.130208 0.130208 0.195313 0.195313 0.0651042 0.0976563 0.0976563 0.130208 0.130208 0.195312 0.195313 0.0651042 0.0976562 0.0976563 0.130208 0.130208 0.195312 0.195313 0.0651042 0.0976563 0.0976562 0.130208 0.130208 0.195313 0.195313 0.0651042 0.0976563 0.0976563 0.130208 0.130208 0.195312 0.195312 0.0651042 0.0976562 0.0976562 0.130208 0.130208 0.195312 0.195313 0.0651041 0.0976562 0.0976562 0.130208 0.130208 0.195312 0.195312 0.0651041 0.0976562 0.0976562 0.130208 0.130208 0.195312 0.195313 0.0651042 0.0976563 0.0976563 0.130208 0.130208 0.195313 0.195313 0.0651042 0.0976563 0.0976563 0.130208 0.130208 0.195313 0.195313 0.0651042 0.0976563 0.0976563 0.130208 0.130208 0.195312 0.195313 0.0651042 0.0976563 0.0976562 0.130208 0.130208 0.195313 0.195312 0.0651042 0.0976563 0.0976563 0.130208 0.130208 0.195312 0.195313 0.0651041 0.0976562 0.0976562 0.130208 0.130208 0.195313 0.195313 0.0651042 0.0976563 0.0976563 0.130208 0.130209 0.195313 0.195313 0.0651042 0.0976563 0.0976564 0.130208 0.130208 0.195313 0.195312 0.0651043 0.0976563 0.0976564 0.130208 0.130208 0.195313 0.195313 0.0651043 0.0976564 0.0976563 0.130209 0.130209 0.195313 0.195313 0.0651043 0.0976563 0.0976565 0.130208 0.130209 0.195313 0.195313 0.0651043 0.0976564 0.0976564 0.130208 0.130208 0.195313 0.195312 0.0651042 0.0976563 0.0976563 0.130208 0.130208 0.195312 0.195313 0.0651042 0.0976563 0.0976562 0.130208 0.130208 0.195313 0.195313 0.0651042 0.0976563 0.0976563 0.130208 0.130208 0.195312 0.195313 0.0651042 0.0976563 0.0976562 0.130208 0.130209 0.195313 0.195312 0.0651043 0.0976561 0.0976565 0.130208 0.130208 0.195312 0.195313 0.065104 0.0976561 0.097656 0.130208 0.130209 0.195313 0.195313 0.0651043 0.0976564 0.0976565 0.130208 0.130208 0.195312 0.195312 0.0651042 0.0976562 0.0976564 0.130208 0.130208 0.195313 0.195313 0.0651044 0.0976564 0.0976565 0.130208 0.130209 0.195313 0.195312 0.0651044 0.0976562 0.0976566 0.130208 0.130209 0.195313 0.0976566 0.0651041 0.0651043 0.0976563 0.0651044 0.130208 0.195313 0.195313 0.0651042 0.0976563 0.0976563 0.0651042 0.0976563 0.0325521 0.130208 0.130208 0.195313 0.195313 0.0651042 0.0976563 0.0976563 0.130208 0.130208 0.195313 0.195313 0.0651042 0.0976563 0.0976563 0.130208 0.130208 0.195313 0.195313 0.0651042 0.0976563 0.0976563 0.130208 0.130208 0.195313 0.195313 0.0651042 0.0976563 0.0976563 0.130208 0.130208 0.195313 0.195313 0.0651042 0.0976563 0.0976563 0.130208 0.130208 0.195313 0.195312 0.0651042 0.0976562 0.0976563 0.130208 0.130208 0.195312 0.195313 0.0651041 0.0976562 0.0976562 0.130208 0.130208 0.195312 0.195313 0.0651041 0.0976562 0.0976563 0.130208 0.130208 0.195312 0.195313 0.0651042 0.0976563 0.0976563 0.130208 0.130208 0.195313 0.195313 0.0651042 0.0976563 0.0976563 0.130208 0.130208 0.195313 0.195313 0.0651042 0.0976563 0.0976563 0.130208 0.130208 0.195313 0.195313 0.0651042 0.0976563 0.0976563 0.130208 0.130208 0.195313 0.195312 0.0651042 0.0976563 0.0976563 0.130208 0.130208 0.195312 0.195313 0.0651041 0.0976562 0.0976562 0.130208 0.130209 0.195313 0.195313 0.0651042 0.0976563 0.0976563 0.130208 0.130209 0.195313 0.195313 0.0651042 0.0976564 0.0976564 0.130208 0.130208 0.195313 0.195313 0.0651043 0.0976563 0.0976564 0.130208 0.130208 0.195313 0.195313 0.0651043 0.0976564 0.0976564 0.130209 0.130209 0.195313 0.195313 0.0651043 0.0976563 0.0976565 0.130208 0.130209 0.195313 0.195313 0.0651043 0.0976564 0.0976565 0.130209 0.130208 0.195313 0.195312 0.0651042 0.0976563 0.0976564 0.130208 0.130208 0.195313 0.195313 0.0651042 0.0976563 0.0976562 0.130208 0.130208 0.195313 0.195313 0.0651043 0.0976563 0.0976563 0.130208 0.130208 0.195312 0.195313 0.0651042 0.0976563 0.0976562 0.130208 0.130209 0.195313 0.195312 0.0651043 0.0976562 0.0976565 0.130208 0.130208 0.195312 0.195313 0.065104 0.0976562 0.097656 0.130208 0.130209 0.195313 0.195313 0.0651043 0.0976565 0.0976565 0.130209 0.130208 0.195312 0.195312 0.0651042 0.0976562 0.0976564 0.130208 0.130208 0.195313 0.195313 0.0651044 0.0976564 0.0976565 0.130208 0.130209 0.195313 0.195313 0.0651044 0.0976562 0.0976566 0.130208 0.130209 0.195313 0.0976566 0.0651041 0.0651043 0.0976563 0.0651044 0.130208 0.195313 0.195313 0.0651042 0.0976563 0.0976563 0.0651042 0.0976563 0.0325521 0.130208 0.130208 0.195313 0.195313 0.0651042 0.0976563 0.0976563 0.130208 0.130208 0.195313 0.195313 0.0651042 0.0976563 0.0976563 0.130208 0.130208 0.195313 0.195313 0.0651042 0.0976563 0.0976563 0.130208 0.130208 0.195313 0.195313 0.0651042 0.0976563 0.0976563 0.130208 0.130208 0.195313 0.195313 0.0651042 0.0976563 0.0976563 0.130208 0.130208 0.195313 0.195312 0.0651042 0.0976563 0.0976563 0.130208 0.130208 0.195313 0.195313 0.0651041 0.0976563 0.0976562 0.130208 0.130208 0.195313 0.195312 0.0651042 0.0976562 0.0976563 0.130208 0.130208 0.195313 0.195313 0.0651042 0.0976563 0.0976563 0.130208 0.130208 0.195313 0.195313 0.0651042 0.0976564 0.0976563 0.130209 0.130208 0.195313 0.195313 0.0651042 0.0976563 0.0976564 0.130208 0.130208 0.195313 0.195313 0.0651042 0.0976563 0.0976563 0.130208 0.130208 0.195313 0.195312 0.0651042 0.0976563 0.0976563 0.130208 0.130208 0.195312 0.195313 0.0651042 0.0976563 0.0976562 0.130208 0.130209 0.195313 0.195313 0.0651042 0.0976563 0.0976563 0.130208 0.130209 0.195313 0.195313 0.0651042 0.0976564 0.0976564 0.130209 0.130208 0.195313 0.195313 0.0651043 0.0976564 0.0976564 0.130208 0.130208 0.195313 0.195313 0.0651043 0.0976564 0.0976564 0.130209 0.130209 0.195313 0.195313 0.0651043 0.0976564 0.0976565 0.130208 0.130209 0.195313 0.195313 0.0651044 0.0976564 0.0976565 0.130209 0.130208 0.195313 0.195312 0.0651042 0.0976563 0.0976564 0.130208 0.130208 0.195313 0.195313 0.0651042 0.0976563 0.0976562 0.130208 0.130208 0.195313 0.195313 0.0651043 0.0976563 0.0976563 0.130208 0.130208 0.195312 0.195313 0.0651042 0.0976563 0.0976562 0.130208 0.130209 0.195313 0.195312 0.0651043 0.0976562 0.0976565 0.130208 0.130208 0.195312 0.195313 0.065104 0.0976562 0.097656 0.130208 0.130209 0.195313 0.195313 0.0651043 0.0976565 0.0976565 0.130209 0.130208 0.195312 0.195312 0.0651043 0.0976562 0.0976564 0.130208 0.130208 0.195313 0.195313 0.0651044 0.0976564 0.0976565 0.130208 0.130209 0.195313 0.195313 0.0651044 0.0976563 0.0976567 0.130208 0.130209 0.195313 0.0976566 0.0651041 0.0651043 0.0976563 0.0651044 0.130208 0.195313 0.195313 0.0651042 0.0976563 0.0976562 0.0651042 0.0976562 0.0325521 0.130208 0.130208 0.195313 0.195313 0.0651042 0.0976562 0.0976563 0.130208 0.130208 0.195313 0.195313 0.0651042 0.0976563 0.0976563 0.130208 0.130208 0.195313 0.195312 0.0651042 0.0976562 0.0976562 0.130208 0.130208 0.195313 0.195313 0.0651042 0.0976563 0.0976562 0.130208 0.130208 0.195313 0.195313 0.0651042 0.0976563 0.0976563 0.130208 0.130208 0.195313 0.195312 0.0651042 0.0976562 0.0976562 0.130208 0.130208 0.195312 0.195312 0.0651041 0.0976562 0.0976562 0.130208 0.130208 0.195312 0.195312 0.0651041 0.0976562 0.0976562 0.130208 0.130208 0.195313 0.195313 0.0651042 0.0976563 0.0976562 0.130208 0.130208 0.195313 0.195313 0.0651042 0.0976563 0.0976563 0.130208 0.130208 0.195313 0.195313 0.0651042 0.0976562 0.0976563 0.130208 0.130208 0.195313 0.195313 0.0651042 0.0976563 0.0976562 0.130208 0.130208 0.195313 0.195312 0.0651042 0.0976563 0.0976563 0.130208 0.130208 0.195312 0.195313 0.0651041 0.0976562 0.0976562 0.130208 0.130208 0.195313 0.195313 0.0651042 0.0976563 0.0976563 0.130208 0.130209 0.195313 0.195313 0.0651042 0.0976563 0.0976564 0.130208 0.130208 0.195313 0.195312 0.0651043 0.0976563 0.0976564 0.130208 0.130208 0.195313 0.195313 0.0651043 0.0976564 0.0976563 0.130209 0.130209 0.195313 0.195313 0.0651043 0.0976563 0.0976565 0.130208 0.130208 0.195313 0.195313 0.0651043 0.0976564 0.0976564 0.130209 0.130208 0.195313 0.195312 0.0651042 0.0976563 0.0976563 0.130208 0.130208 0.195313 0.195313 0.0651042 0.0976563 0.0976562 0.130208 0.130208 0.195313 0.195312 0.0651042 0.0976563 0.0976563 0.130208 0.130208 0.195312 0.195313 0.0651041 0.0976563 0.0976562 0.130208 0.130209 0.195313 0.195312 0.0651043 0.0976561 0.0976565 0.130208 0.130208 0.195312 0.195313 0.065104 0.0976561 0.097656 0.130208 0.130209 0.195313 0.195313 0.0651043 0.0976564 0.0976565 0.130209 0.130208 0.195312 0.195312 0.0651042 0.0976562 0.0976564 0.130208 0.130208 0.195313 0.195313 0.0651044 0.0976564 0.0976565 0.130208 0.130209 0.195313 0.195313 0.0651044 0.0976562 0.0976566 0.130208 0.130209 0.195313 0.0976566 0.0651041 0.0651043 0.0976563 0.0651044 0.0651042 0.195312 0.0976563 0.0651041 0.0976562 0.0325521 0.0651042 0.0651042 0.0325521 0.130208 0.0651042 0.195312 0.0976563 0.0651041 0.0976562 0.0651042 0.130208 0.0651042 0.195312 0.0976563 0.0651041 0.0976562 0.0651042 0.130208 0.0651042 0.195312 0.0976563 0.0651041 0.0976562 0.0651042 0.130208 0.0651042 0.195312 0.0976563 0.0651041 0.0976562 0.0651042 0.130208 0.0651042 0.195312 0.0976562 0.0651041 0.0976562 0.0651042 0.130208 0.0651042 0.195312 0.0976562 0.0651041 0.0976562 0.0651041 0.130208 0.0651042 0.195312 0.0976563 0.0651041 0.0976562 0.0651041 0.130208 0.0651042 0.195312 0.0976562 0.0651041 0.0976561 0.0651042 0.130208 0.0651042 0.195312 0.0976563 0.0651041 0.0976562 0.0651041 0.130208 0.0651043 0.195313 0.0976563 0.0651042 0.0976562 0.0651042 0.130208 0.0651043 0.195313 0.0976563 0.0651042 0.0976562 0.0651042 0.130208 0.0651042 0.195312 0.0976562 0.0651041 0.0976562 0.0651041 0.130208 0.0651042 0.195312 0.0976562 0.0651042 0.0976562 0.0651041 0.130208 0.0651041 0.195312 0.0976563 0.0651041 0.0976562 0.0651041 0.130208 0.0651043 0.195313 0.0976564 0.0651041 0.0976562 0.0651042 0.130208 0.0651043 0.195313 0.0976564 0.0651042 0.0976563 0.0651042 0.130208 0.0651043 0.195312 0.0976562 0.0651042 0.0976563 0.0651043 0.130208 0.0651042 0.195313 0.0976564 0.0651042 0.0976563 0.0651042 0.130209 0.0651044 0.195313 0.0976563 0.0651042 0.0976563 0.0651043 0.130208 0.0651042 0.195313 0.0976564 0.0651043 0.0976563 0.0651043 0.130208 0.0651042 0.195312 0.0976562 0.0651042 0.0976562 0.0651042 0.130208 0.0651042 0.195312 0.0976563 0.0651041 0.0976562 0.0651041 0.130208 0.0651042 0.195313 0.0976563 0.0651042 0.0976562 0.0651042 0.130208 0.0651041 0.195312 0.0976562 0.0651041 0.0976562 0.0651041 0.130208 0.0651044 0.195313 0.0976562 0.0651042 0.0976561 0.0651044 0.130208 0.0651041 0.195312 0.0976562 0.0651039 0.0976561 0.065104 0.130208 0.0651044 0.195313 0.0976565 0.0651042 0.0976564 0.0651043 0.130208 0.0651043 0.195312 0.0976561 0.0651042 0.0976561 0.0651043 0.130208 0.0651043 0.195312 0.0976563 0.0651044 0.0976563 0.0651043 0.130208 0.0651044 0.195313 0.0976564 0.0651044 0.0976562 0.0651044 0.130208 0.0651044 0.195313 0.0651043 0.0651041 0.0651042 0.0651042 0.0651043 
VECTORS u float
0 0 0  -0.00595223 -0.0033785 -0.00626063  -0.00993803 -0.00550123 -0.00817418  -0.0139979 -0.00899891 -0.00871587  -0.0181309 -0.0138556 -0.00859964  -0.0222232 -0.0199119 -0.00818551  -0.0261982 -0.0270176 -0.0076468  -0.0300124 -0.0350573 -0.0070709  -0.0336463 -0.0439414 -0.0064975  -0.0370904 -0.0535914 -0.00594354  -0.0403469 -0.0639409 -0.0054152  -0.0434167 -0.07493 -0.00491524  -0.0463071 -0.0864982 -0.00444329  -0.0490232 -0.0985913 -0.00399673  -0.0515729 -0.111156 -0.00357616  -0.0539638 -0.124142 -0.00318015  -0.0562021 -0.137499 -0.00280976  -0.0582948 -0.151182 -0.00246108  -0.060251 -0.165148 -0.00213718  -0.0620749 -0.179356 -0.00183582  -0.0637767 -0.193766 -0.00155795  -0.0653617 -0.208344 -0.001302  -0.0668411 -0.223055 -0.00107062  -0.068217 -0.23787 -0.000861406  -0.0695016 -0.25276 -0.000676036  -0.0707028 -0.267701 -0.000512004  -0.0718286 -0.282669 -0.00037241  -0.0728874 -0.297644 -0.000254273  -0.0738893 -0.312614 -0.000161648  -0.0748401 -0.327554 -9.0003e-05  -0.0757573 -0.342465 -4.3273e-05  -0.076649 -0.357333 -1.22786e-05  -0.0775282 -0.37217 1.29938e-05  0 0 0  -0.00357308 -0.00121097 -0.00475574  -0.00668968 -0.00360809 -0.00613081  -0.0097419 -0.00725827 -0.00646949  -0.0127902 -0.0122305 -0.00638819  -0.0158259 -0.0184103 -0.0060972  -0.0188141 -0.025657 -0.00570977  -0.0217232 -0.0338503 -0.00528753  -0.0245286 -0.0428942 -0.00486255  -0.0272191 -0.0527053 -0.00444853  -0.0297898 -0.0632154 -0.00405383  -0.0322385 -0.0743589 -0.00367856  -0.0345684 -0.0860769 -0.00332451  -0.0367835 -0.0983123 -0.00298953  -0.0388856 -0.111011 -0.0026747  -0.040879 -0.124122 -0.00237715  -0.0427711 -0.137595 -0.00209892  -0.0445619 -0.151387 -0.00183809  -0.0462592 -0.165453 -0.00159454  -0.047863 -0.17975 -0.00137007  -0.0493808 -0.194241 -0.00116217  -0.0508156 -0.208892 -0.000971198  -0.0521746 -0.223667 -0.000797987  -0.0534604 -0.238539 -0.000642061  -0.0546775 -0.253477 -0.000502586  -0.0558345 -0.268459 -0.000381589  -0.0569348 -0.283462 -0.000275731  -0.0579855 -0.298465 -0.000188351  -0.0589914 -0.313453 -0.000118732  -0.0599589 -0.328413 -6.54459e-05  -0.0608931 -0.343333 -2.46763e-05  -0.0618014 -0.358209 5.36442e-06  -0.0626919 -0.37304 3.40939e-05  0 0 0  -0.00214721 4.69983e-05 -0.00328517  -0.0040262 -0.00222753 -0.00414896  -0.00603443 -0.00599843 -0.00432336  -0.00807822 -0.0110923 -0.00423992  -0.0101191 -0.0173816 -0.00404072  -0.0121446 -0.0247383 -0.00378418  -0.0141419 -0.0330469 -0.00350583  -0.0160998 -0.0422106 -0.00322306  -0.0180082 -0.0521466 -0.00294769  -0.0198621 -0.0627794 -0.00268257  -0.0216596 -0.0740457 -0.00243211  -0.0233989 -0.0858814 -0.00219464  -0.025081 -0.0982298 -0.00197089  -0.026704 -0.111035 -0.00175965  -0.0282735 -0.124247 -0.00156188  -0.0297875 -0.137816 -0.00137699  -0.0312467 -0.151694 -0.00120234  -0.0326531 -0.165839 -0.00104105  -0.0340075 -0.18021 -0.000890732  -0.0353127 -0.194768 -0.000753045  -0.0365717 -0.209478 -0.000626564  -0.0377827 -0.224307 -0.000512004  -0.0389459 -0.239224 -0.000407815  -0.0400708 -0.254203 -0.000317216  -0.0411532 -0.269217 -0.000236034  -0.0422037 -0.28425 -0.000167489  -0.0432155 -0.299277 -0.000109673  -0.044199 -0.314284 -6.36578e-05  -0.0451531 -0.32926 -2.77758e-05  -0.0460846 -0.344192 5.96046e-07  -0.0469906 -0.359075 2.45571e-05  -0.0478804 -0.373897 5.03063e-05  0 0 0  -0.00099133 0.000606537 -0.00162899  -0.00183344 -0.00144807 -0.0020858  -0.00278264 -0.00525889 -0.00215983  -0.00379306 -0.010452 -0.00210452  -0.00483382 -0.0168353 -0.00199938  -0.00589687 -0.0242774 -0.00186801  -0.00698137 -0.0326702 -0.00172698  -0.00808311 -0.0419193 -0.00158322  -0.009197 -0.0519436 -0.00144303  -0.0103209 -0.0626672 -0.0013082  -0.0114485 -0.0740221 -0.00118077  -0.0125794 -0.085945 -0.00105941  -0.0137103 -0.0983785 -0.000946045  -0.0148373 -0.111265 -0.000839591  -0.0159612 -0.124553 -0.000739336  -0.0170785 -0.138192 -0.000646234  -0.0181873 -0.152137 -0.000559568  -0.0192888 -0.166343 -0.000479817  -0.0203757 -0.18077 -0.000404954  -0.0214505 -0.195378 -0.000336885  -0.0225101 -0.210132 -0.000274897  -0.0235541 -0.225 -0.000216484  -0.0245845 -0.239953 -0.000167489  -0.0255942 -0.254961 -0.000122786  -0.0265901 -0.270003 -8.44002e-05  -0.0275676 -0.285053 -5.10216e-05  -0.0285289 -0.3001 -2.49147e-05  -0.0294743 -0.315122 -1.19209e-06  -0.0304024 -0.330109 1.43051e-05  -0.0313172 -0.345053 2.7895e-05  -0.0322158 -0.359941 3.91006e-05  -0.0331013 -0.374754 5.47171e-05  0 0 0  5.29885e-05 0.000725687 7.35521e-05  0.000141412 -0.00127178 3.86238e-05  0.000224054 -0.00510654 3.40939e-05  0.000259221 -0.0103542 3.51667e-05  0.000231802 -0.016793 3.71933e-05  0.000135899 -0.0242872 4.1604e-05  -3.32594e-05 -0.0327311 4.73261e-05  -0.00027591 -0.0420343 5.49555e-05  -0.000592947 -0.0521139 6.19888e-05  -0.000978708 -0.0628949 6.86646e-05  -0.00143063 -0.0743084 7.42674e-05  -0.00194383 -0.0862895 7.87973e-05  -0.00251329 -0.098779 8.18968e-05  -0.00313604 -0.111721 8.34465e-05  -0.00380468 -0.12506 8.59499e-05  -0.00451565 -0.138747 8.69036e-05  -0.00526524 -0.152738 8.7142e-05  -0.00604701 -0.166983 8.72612e-05  -0.00685763 -0.181448 8.49962e-05  -0.00769281 -0.19609 8.38041e-05  -0.00854659 -0.210875 8.2612e-05  -0.00941491 -0.225767 8.01086e-05  -0.0102983 -0.240743 7.76052e-05  -0.0111887 -0.25577 7.4625e-05  -0.0120847 -0.270826 7.27177e-05  -0.0129843 -0.285892 6.97374e-05  -0.0138853 -0.300947 6.53267e-05  -0.0147841 -0.315979 6.24657e-05  -0.0156817 -0.330972 5.9247e-05  -0.0165749 -0.34592 5.51939e-05  -0.017463 -0.360812 5.126e-05  -0.0183408 -0.375621 5.07832e-05  0 0 0  0.00108033 0.000479341 0.00176716  0.00210983 -0.00166321 0.00214982  0.00321952 -0.00555009 0.00221395  0.00429451 -0.0108148 0.00216174  0.00527871 -0.0172644 0.00206196  0.0061475 -0.0247728 0.00194192  0.00689083 -0.0332349 0.00181568  0.0075022 -0.0425602 0.00168836  0.00798297 -0.0526654 0.00156331  0.00833344 -0.0634743 0.00144279  0.00855851 -0.0749173 0.0013274  0.0086633 -0.0869288 0.00121605  0.00865543 -0.099448 0.00110996  0.00854135 -0.112417 0.00100863  0.00832784 -0.125784 0.000912309  0.00802422 -0.139497 0.000820518  0.00763726 -0.15351 0.000734925  0.00717521 -0.167777 0.000652909  0.00664258 -0.18226 0.000575185  0.00604916 -0.196918 0.000504136  0.00540376 -0.211715 0.000439525  0.0047121 -0.22662 0.000378966  0.00397706 -0.241604 0.00032258  0.00321054 -0.256639 0.000273228  0.00241327 -0.271701 0.000229001  0.00159192 -0.286769 0.000189781  0.000753403 -0.301826 0.000155807  -0.000100374 -0.316858 0.000126958  -0.000962496 -0.331852 0.000103474  -0.00183558 -0.346799 8.32081e-05  -0.00271106 -0.361688 6.31809e-05  -0.00358772 -0.376504 4.37498e-05  0 0 0  0.00220276 -0.000181496 0.00340056  0.0042797 -0.00262952 0.00417757  0.0064269 -0.00656962 0.00433266  0.00852454 -0.011813 0.00425136  0.0105026 -0.0182372 0.00406337  0.0123252 -0.0257273 0.00382793  0.0139725 -0.0341796 0.00357234  0.0154333 -0.0434994 0.00331223  0.0167035 -0.0536017 0.00305843  0.0177833 -0.0644112 0.00281131  0.0186785 -0.0758553 0.00257492  0.0193949 -0.0878692 0.00234902  0.0199425 -0.100391 0.00213337  0.0203305 -0.113364 0.00192845  0.0205672 -0.126734 0.00173509  0.020664 -0.14045 0.00154996  0.0206349 -0.154464 0.00137758  0.0204854 -0.168733 0.00121486  0.0202277 -0.183213 0.00106275  0.0198722 -0.197868 0.000922561  0.0194268 -0.212663 0.000793099  0.018903 -0.227564 0.000673532  0.0183108 -0.242542 0.000565886  0.0176589 -0.257571 0.000468254  0.0169556 -0.272628 0.000381827  0.0162101 -0.287689 0.000306606  0.0154269 -0.302741 0.000243068  0.0146146 -0.317765 0.000189781  0.013778 -0.332751 0.000146747  0.0129251 -0.34769 0.000112414  0.012058 -0.362575 7.86781e-05  0.0111856 -0.3774 4.74453e-05  0 0 0  0.00363348 -0.00143462 0.00489783  0.00685528 -0.00418085 0.00608051  0.0100256 -0.00810969 0.00638676  0.0131266 -0.0133021 0.00630951  0.0160887 -0.0196823 0.00604677  0.0188581 -0.0271372 0.00569773  0.0214013 -0.0355576 0.00531352  0.0237014 -0.0448478 0.00492418  0.0257485 -0.0549226 0.00453997  0.0275456 -0.0657046 0.00416827  0.0290967 -0.0771241 0.00381267  0.0304114 -0.0891144 0.00347221  0.0315014 -0.101614 0.0031476  0.0323763 -0.114565 0.00284004  0.0330503 -0.127913 0.00254822  0.0335364 -0.141608 0.0022732  0.0338483 -0.155603 0.00201249  0.0339973 -0.169849 0.00176966  0.0339997 -0.18431 0.00154269  0.0338657 -0.198945 0.00133204  0.0336099 -0.213717 0.00113833  0.0332437 -0.228599 0.000961423  0.0327787 -0.243558 0.000800014  0.0322292 -0.258567 0.00065577  0.0316048 -0.273606 0.00052774  0.0309141 -0.288651 0.000416994  0.0301728 -0.303687 0.000321865  0.0293908 -0.318694 0.000246644  0.0285714 -0.333667 0.000184298  0.0277278 -0.348592 0.000138402  0.0268629 -0.363469 9.97782e-05  0.0259881 -0.378303 6.12736e-05  0 0 0  0.00548781 -0.00362533 0.00614846  0.00979322 -0.00626838 0.0080179  0.0140513 -0.0101007 0.00849307  0.0182394 -0.015246 0.00839198  0.0222368 -0.0215878 0.00803161  0.0259742 -0.0289984 0.00755751  0.0294155 -0.0373695 0.0070405  0.0325422 -0.0466077 0.00651705  0.0353522 -0.0566285 0.00600481  0.0378448 -0.0673576 0.00550854  0.0400302 -0.0787265 0.00503373  0.0419195 -0.0906668 0.0045799  0.0435274 -0.103118 0.00414848  0.0448664 -0.116023 0.00373876  0.0459527 -0.129326 0.00334918  0.0468054 -0.142977 0.00298238  0.0474346 -0.156927 0.00263608  0.0478597 -0.171134 0.00231338  0.0480986 -0.185552 0.00201261  0.0481634 -0.200146 0.00173175  0.04807 -0.214881 0.00147331  0.0478361 -0.229725 0.00123918  0.0474751 -0.244648 0.0010246  0.0470037 -0.259623 0.000831842  0.046432 -0.27463 0.000662684  0.0457749 -0.289645 0.000517249  0.0450506 -0.304653 0.000392199  0.0442653 -0.31964 0.000289559  0.0434403 -0.33459 0.000213861  0.0425797 -0.349497 0.000158429  0.0417035 -0.364361 0.000119448  0.0408196 -0.379196 8.80957e-05  0 0 0  -0.00446623 -0.00492739 -0.00398147  -0.00905286 -0.00757531 -0.00587451  -0.0136957 -0.0110868 -0.00649452  -0.0181961 -0.0158408 -0.00649273  -0.0224954 -0.0217548 -0.0062061  -0.0265757 -0.0287111 -0.0058009  -0.0304365 -0.0366065 -0.00535887  -0.0340832 -0.0453522 -0.00491726  -0.0375236 -0.054876 -0.00449181  -0.0407653 -0.0651074 -0.0040887  -0.0438161 -0.0759854 -0.00370842  -0.0466852 -0.0874503 -0.00335014  -0.049379 -0.0994464 -0.00301337  -0.0519065 -0.111919 -0.00269592  -0.0542742 -0.124819 -0.00239754  -0.0564904 -0.138095 -0.00211728  -0.0585623 -0.151704 -0.0018568  -0.0604949 -0.1656 -0.00161165  -0.0622988 -0.179743 -0.00138646  -0.0639789 -0.194093 -0.00117636  -0.0655444 -0.208617 -0.000984907  -0.0670025 -0.223278 -0.00081116  -0.0683601 -0.238048 -0.00065434  -0.0696247 -0.2529 -0.00051403  -0.0708077 -0.267806 -0.000393093  -0.0719159 -0.282745 -0.000287592  -0.0729587 -0.297696 -0.000200093  -0.0739443 -0.312645 -0.000129879  -0.0748854 -0.327576 -7.84993e-05  -0.0757914 -0.342478 -4.11868e-05  -0.0766771 -0.357347 -1.70469e-05  -0.077558 -0.37219 3.75509e-06  0 0 0  -0.00221662 -0.00239334 -0.00304192  -0.00594056 -0.00524884 -0.00439334  -0.00954166 -0.0090872 -0.00483847  -0.0129062 -0.0140769 -0.00484377  -0.0161143 -0.0201841 -0.00463718  -0.0191904 -0.0273187 -0.0043385  -0.0221369 -0.0353873 -0.00400937  -0.0249521 -0.0443052 -0.0036779  -0.027637 -0.0539957 -0.00335884  -0.030193 -0.0643901 -0.00305569  -0.0326238 -0.0754252 -0.00276971  -0.0349339 -0.0870395 -0.00250041  -0.0371273 -0.099178 -0.00224739  -0.0392078 -0.111785 -0.00200921  -0.0411812 -0.12481 -0.00178516  -0.0430504 -0.138204 -0.00157553  -0.0448203 -0.15192 -0.00137866  -0.0464954 -0.165916 -0.00119674  -0.0480795 -0.180148 -0.00102687  -0.0495768 -0.19458 -0.000870705  -0.0509925 -0.209176 -0.000727057  -0.0523324 -0.223903 -0.000597298  -0.0535977 -0.238729 -0.000479221  -0.0547979 -0.253629 -0.000375688  -0.0559373 -0.268575 -0.000284016  -0.0570202 -0.283548 -0.000205874  -0.0580544 -0.298528 -0.000140131  -0.0590467 -0.313497 -8.83341e-05  -0.0600004 -0.328442 -4.82798e-05  -0.0609257 -0.343354 -1.90139e-05  -0.0618293 -0.358225 3.15905e-06  -0.0627227 -0.373061 2.30074e-05  0 0 0  -0.00127322 -0.000961438 -0.00212312  -0.00352387 -0.00374685 -0.00299978  -0.0059092 -0.00772636 -0.00325257  -0.0081777 -0.012868 -0.00323367  -0.0103442 -0.0191145 -0.00308716  -0.012435 -0.026381 -0.00288439  -0.0144622 -0.0345797 -0.00266337  -0.0164285 -0.0436265 -0.00244045  -0.0183342 -0.0534452 -0.00222605  -0.0201782 -0.0639662 -0.00202173  -0.0219618 -0.0751243 -0.00182998  -0.0236855 -0.0868577 -0.0016492  -0.0253502 -0.0991096 -0.00147915  -0.0269575 -0.111824 -0.00131941  -0.0285089 -0.12495 -0.00116974  -0.0300055 -0.138438 -0.00102895  -0.0314474 -0.152242 -0.000898778  -0.0328374 -0.166317 -0.000776887  -0.0341752 -0.180623 -0.000663757  -0.0354648 -0.195121 -0.000559807  -0.0367064 -0.209776 -0.000463605  -0.0379007 -0.224554 -0.000378311  -0.0390522 -0.239427 -0.000300229  -0.0401607 -0.254366 -0.000231266  -0.0412316 -0.269346 -0.000170887  -0.0422657 -0.284347 -0.000119865  -0.0432692 -0.29935 -7.6592e-05  -0.0442395 -0.314336 -4.22597e-05  -0.0451856 -0.329296 -1.61529e-05  -0.046108 -0.344217 5.66244e-06  -0.0470121 -0.359094 2.16961e-05  -0.0479059 -0.373917 3.96371e-05  0 0 0  -0.000587225 -0.000395805 -0.00107622  -0.00161242 -0.00293076 -0.00151396  -0.0027543 -0.00695252 -0.00163245  -0.00388411 -0.0121984 -0.00161445  -0.00499338 -0.0185485 -0.00153667  -0.00609499 -0.0259104 -0.00143158  -0.00719804 -0.0342003 -0.00131732  -0.00830621 -0.0433388 -0.00120229  -0.00941932 -0.0532497 -0.00109196  -0.0105363 -0.0638625 -0.000987172  -0.0116556 -0.0751112 -0.000887573  -0.0127754 -0.086933 -0.000795066  -0.0138932 -0.0992689 -0.000707746  -0.0150099 -0.112066 -0.0006271  -0.0161215 -0.125268 -0.000551224  -0.0172261 -0.138827 -0.000479639  -0.0183227 -0.152696 -0.00041461  -0.0194099 -0.166832 -0.000353336  -0.0204854 -0.181193 -0.000297368  -0.0215487 -0.195741 -0.000245035  -0.0225971 -0.210441 -0.000198066  -0.0236309 -0.225258 -0.000154316  -0.0246499 -0.240165 -0.000117302  -0.0256512 -0.255134 -8.43406e-05  -0.0266373 -0.270139 -5.4121e-05  -0.027606 -0.28516 -2.98023e-05  -0.0285599 -0.30018 -9.29832e-06  -0.0294981 -0.315181 6.85453e-06  -0.0304208 -0.330151 1.97291e-05  -0.0313306 -0.345081 2.89083e-05  -0.0322263 -0.359959 3.80278e-05  -0.0331159 -0.374775 4.70281e-05  0 0 0  -8.46386e-06 -0.000280589 1.58548e-05  8.81255e-05 -0.0027428 2.92659e-05  0.000157386 -0.00678679 2.55108e-05  0.000175059 -0.0120881 1.88351e-05  0.00013411 -0.0184965 1.71661e-05  2.82526e-05 -0.025915 2.0802e-05  -0.000147402 -0.0342606 2.74181e-05  -0.000393212 -0.0434561 3.49283e-05  -0.000708699 -0.053425 4.24981e-05  -0.00109231 -0.0640974 4.99487e-05  -0.00153887 -0.0754054 5.57303e-05  -0.00204551 -0.0872863 6.06775e-05  -0.00260985 -0.0996799 6.44326e-05  -0.00322437 -0.11253 6.77109e-05  -0.00388575 -0.125784 7.04527e-05  -0.00458932 -0.139392 7.12276e-05  -0.0053308 -0.153306 7.20024e-05  -0.00610566 -0.167483 7.28965e-05  -0.00690842 -0.18188 7.25985e-05  -0.00773573 -0.196462 7.2062e-05  -0.00858283 -0.21119 7.20024e-05  -0.00944757 -0.226034 6.96778e-05  -0.010323 -0.240961 6.91414e-05  -0.0112088 -0.255948 6.64592e-05  -0.0120997 -0.270968 6.52671e-05  -0.0129967 -0.286003 6.29425e-05  -0.0138938 -0.301031 6.11544e-05  -0.0147896 -0.316041 5.81741e-05  -0.0156837 -0.331017 5.56111e-05  -0.0165756 -0.34595 5.32866e-05  -0.017462 -0.360831 5.00679e-05  -0.0183415 -0.375642 4.79817e-05  0 0 0  0.000563577 -0.000523686 0.00109959  0.00178888 -0.00312197 0.00156128  0.00305986 -0.00722057 0.00166935  0.00421762 -0.0125419 0.00163984  0.00524062 -0.0189633 0.00156069  0.00612611 -0.0263983 0.00146461  0.00687551 -0.0347638 0.0013656  0.0074898 -0.0439835 0.00126851  0.00797045 -0.0539796 0.00117451  0.00832129 -0.064681 0.00108415  0.00854635 -0.0760194 0.000997841  0.00865304 -0.087931 0.000915587  0.0086472 -0.100355 0.000837505  0.0085361 -0.113234 0.000762522  0.00832582 -0.126515 0.000690579  0.00802517 -0.140148 0.000623465  0.00763988 -0.154085 0.000559449  0.00718021 -0.168282 0.000498354  0.00665236 -0.182698 0.000442803  0.00606203 -0.197295 0.000389159  0.00541806 -0.212036 0.000340581  0.00472665 -0.226889 0.000295818  0.00399351 -0.241826 0.000254989  0.00322509 -0.25682 0.000216722  0.00242853 -0.271846 0.000184655  0.00160766 -0.286883 0.000156164  0.000768423 -0.301913 0.000130653  -8.55923e-05 -0.316922 0.000109851  -0.000949621 -0.331898 9.22084e-05  -0.00182199 -0.346831 7.70688e-05  -0.00269818 -0.361712 6.42538e-05  -0.00357127 -0.376527 5.04255e-05  0 0 0  0.00124557 -0.00118917 0.00212795  0.00370094 -0.00409442 0.00301379  0.00617915 -0.00824922 0.00324929  0.00845408 -0.0135476 0.00321841  0.0105211 -0.0199392 0.00307715  0.0123857 -0.0273536 0.00289208  0.0140505 -0.035708 0.00269282  0.0155168 -0.0449215 0.00249338  0.0167875 -0.0549161 0.00229973  0.0178653 -0.065618 0.002114  0.0187576 -0.0769589 0.00193638  0.0194714 -0.0888732 0.00176769  0.0200179 -0.101301 0.00160688  0.0204031 -0.114184 0.00145435  0.0206389 -0.127468 0.00130951  0.0207357 -0.141103 0.00117302  0.0207033 -0.155041 0.00104362  0.0205524 -0.169238 0.000923157  0.0202932 -0.183654 0.000809431  0.0199358 -0.198247 0.000705242  0.019489 -0.212985 0.000608087  0.0189626 -0.227835 0.000518382  0.018368 -0.242766 0.000439346  0.0177121 -0.257753 0.000366628  0.0170033 -0.272773 0.000302315  0.0162513 -0.287802 0.00024569  0.0154629 -0.302827 0.000198901  0.0146463 -0.317828 0.000159562  0.0138075 -0.332797 0.000127971  0.0129499 -0.347723 0.000103176  0.0120833 -0.362601 7.98106e-05  0.0112119 -0.377429 5.61476e-05  0 0 0  0.0022807 -0.00252604 0.003075  0.00607073 -0.0057438 0.00434935  0.00971612 -0.00985754 0.00474894  0.0130687 -0.0150743 0.00475007  0.0161578 -0.021403 0.00456548  0.0189885 -0.02877 0.00429952  0.0215589 -0.0370872 0.00400501  0.0238671 -0.0462681 0.00370717  0.025915 -0.0562333 0.0034157  0.0277082 -0.0669093 0.00313556  0.0292544 -0.0782251 0.00286853  0.0305629 -0.0901164 0.00261313  0.031646 -0.102522 0.00237101  0.0325165 -0.115384 0.00214112  0.0331849 -0.128647 0.00192368  0.0336664 -0.142262 0.00171727  0.0339737 -0.156179 0.00152427  0.0341184 -0.170355 0.00134289  0.0341148 -0.184749 0.00117373  0.0339756 -0.199322 0.00101656  0.0337141 -0.21404 0.000871718  0.0333419 -0.228869 0.00073874  0.0328691 -0.24378 0.000618041  0.0323126 -0.258746 0.000511467  0.0316789 -0.273748 0.000415742  0.030982 -0.28876 0.00033313  0.0302322 -0.303767 0.000264108  0.029438 -0.318754 0.00020647  0.0286105 -0.33371 0.000161946  0.0277598 -0.348625 0.000127494  0.0268927 -0.363497 9.91225e-05  0.0260196 -0.378334 7.20024e-05  0 0 0  0.00426161 -0.00506788 0.00401044  0.00909948 -0.0080952 0.00565279  0.0137851 -0.0119907 0.00624263  0.0181997 -0.0170906 0.006275  0.0223162 -0.0233405 0.00604165  0.0261151 -0.0306407 0.00569332  0.0295846 -0.0388968 0.00530434  0.0327225 -0.0480193 0.00490856  0.0355307 -0.05793 0.00452167  0.03802 -0.0685527 0.00414884  0.0401992 -0.0798174 0.00379199  0.0420835 -0.0916595 0.00345284  0.0436835 -0.104018 0.0031296  0.0450183 -0.116833 0.002823  0.0460984 -0.130051 0.00253314  0.0469444 -0.143622 0.00225878  0.0475698 -0.157497 0.00200093  0.0479896 -0.171631 0.00175971  0.0482216 -0.185983 0.00153375  0.0482812 -0.200517 0.00132447  0.0481822 -0.215195 0.00113177  0.0479407 -0.229987 0.00095576  0.0475729 -0.244862 0.000796616  0.0470912 -0.259796 0.000651777  0.0465107 -0.274763 0.00052762  0.045846 -0.289748 0.000417352  0.0451109 -0.304727 0.00032562  0.0443194 -0.319691 0.000251591  0.0434811 -0.334626 0.000194192  0.0426159 -0.349525 0.000152886  0.0417347 -0.364389 0.000123322  0.0408521 -0.379232 9.53078e-05  0 0 0  -0.00450146 -0.00585444 -0.00234038  -0.00885653 -0.00887477 -0.00370634  -0.0135021 -0.0125043 -0.0042572  -0.0181075 -0.0172338 -0.00433153  -0.0225102 -0.0230721 -0.00416994  -0.0266669 -0.029934 -0.00390595  -0.0305766 -0.0377323 -0.00360823  -0.0342507 -0.0463842 -0.00330812  -0.0377035 -0.0558178 -0.00301969  -0.0409472 -0.0659644 -0.00274581  -0.0439947 -0.0767636 -0.00248957  -0.0468569 -0.0881535 -0.0022487  -0.0495424 -0.100079 -0.00202179  -0.0520591 -0.112487 -0.00180888  -0.0544177 -0.125325 -0.00160855  -0.0566226 -0.138543 -0.00142163  -0.0586827 -0.152096 -0.00124639  -0.0606065 -0.165942 -0.00108403  -0.0623991 -0.180039 -0.000932217  -0.0640697 -0.194346 -0.000793099  -0.0656235 -0.208829 -0.000664592  -0.0670733 -0.223455 -0.000548065  -0.0684214 -0.238194 -0.000443757  -0.0696795 -0.253016 -0.000350356  -0.0708535 -0.267896 -0.000269055  -0.0719557 -0.282815 -0.000199497  -0.0729923 -0.297748 -0.000141859  -0.0739729 -0.312682 -9.59635e-05  -0.0749099 -0.327604 -6.14524e-05  -0.075815 -0.342501 -3.65376e-05  -0.0767009 -0.357367 -1.94311e-05  -0.0775843 -0.372214 -4.29153e-06  0 0 0  -0.00198953 -0.00305844 -0.00171882  -0.00559971 -0.0063212 -0.0027886  -0.00931206 -0.0103196 -0.00319827  -0.0128346 -0.0153495 -0.00325119  -0.0161675 -0.0214285 -0.00312722  -0.0193267 -0.0285009 -0.00292683  -0.0223214 -0.0364908 -0.00270092  -0.0251621 -0.0453251 -0.00247353  -0.0278563 -0.0549319 -0.00225461  -0.030412 -0.0652454 -0.00204855  -0.0328375 -0.0762029 -0.0018546  -0.0351382 -0.0877443 -0.0016731  -0.0373203 -0.0998131 -0.00150245  -0.0393898 -0.112355 -0.00134212  -0.0413511 -0.125318 -0.00119174  -0.0432079 -0.138654 -0.00105184  -0.0449653 -0.152316 -0.000920832  -0.0466282 -0.166261 -0.000797749  -0.0482006 -0.180448 -0.000684977  -0.0496864 -0.194837 -0.000579774  -0.0510905 -0.209393 -0.000484347  -0.0524182 -0.224084 -0.00039655  -0.0536749 -0.23888 -0.000319064  -0.0548646 -0.253749 -0.000249267  -0.0559943 -0.268672 -0.000188947  -0.0570683 -0.283623 -0.000136793  -0.0580947 -0.298585 -9.36389e-05  -0.059078 -0.31354 -5.87702e-05  -0.060029 -0.328475 -3.24249e-05  -0.06095 -0.34338 -1.3411e-05  -0.0618534 -0.358248 1.60933e-06  -0.0627446 -0.373084 1.57356e-05  0 0 0  -0.00113565 -0.00145936 -0.00119597  -0.00324793 -0.00463034 -0.00190997  -0.00571707 -0.0088217 -0.00216717  -0.00812533 -0.014046 -0.00218207  -0.0104012 -0.0202992 -0.00208843  -0.0125619 -0.0275281 -0.00194877  -0.0146294 -0.0356648 -0.00179493  -0.0166156 -0.0446385 -0.0016408  -0.0185275 -0.0543797 -0.00149298  -0.0203714 -0.0648232 -0.00135291  -0.0221493 -0.0759054 -0.00122273  -0.0238646 -0.0875666 -0.00110018  -0.02552 -0.0997496 -0.000985622  -0.0271169 -0.112399 -0.000877738  -0.0286582 -0.125465 -0.000777602  -0.0301424 -0.138894 -0.000682414  -0.0315745 -0.152644 -0.000594854  -0.0329537 -0.166669 -0.000513673  -0.034281 -0.180929 -0.000437438  -0.0355587 -0.195383 -0.000367641  -0.0367904 -0.209999 -0.000303686  -0.0379767 -0.224742 -0.000246167  -0.0391183 -0.239583 -0.00019443  -0.0402186 -0.254492 -0.000147998  -0.0412798 -0.269448 -0.000107884  -0.0423071 -0.284427 -7.38502e-05  -0.0433018 -0.299411 -4.47631e-05  -0.0442672 -0.314384 -2.27094e-05  -0.0452073 -0.329332 -4.11272e-06  -0.0461285 -0.344246 8.46386e-06  -0.0470302 -0.359118 1.97887e-05  -0.0479219 -0.373945 3.0756e-05  0 0 0  -0.000527665 -0.000801057 -0.000611305  -0.00148681 -0.0036954 -0.000977039  -0.0026674 -0.00795066 -0.00109833  -0.00387546 -0.0133134 -0.00109679  -0.00505072 -0.019695 -0.00104296  -0.00619549 -0.0270364 -0.000968814  -0.00732368 -0.0352756 -0.000888169  -0.00844365 -0.044347 -0.000807881  -0.0095613 -0.0541845 -0.000730634  -0.0106767 -0.0647224 -0.000658154  -0.0117921 -0.0758971 -0.000590503  -0.012905 -0.0876475 -0.000526607  -0.014017 -0.0999158 -0.000467837  -0.015125 -0.112647 -0.00041163  -0.0162281 -0.125788 -0.000360608  -0.0173244 -0.13929 -0.000312865  -0.0184133 -0.153105 -0.000268102  -0.0194921 -0.167191 -0.00022769  -0.0205595 -0.181504 -0.000188231  -0.0216146 -0.196011 -0.000154018  -0.0226555 -0.21067 -0.000121593  -0.0236826 -0.225452 -9.32217e-05  -0.0246928 -0.240326 -6.68764e-05  -0.0256886 -0.255266 -4.57764e-05  -0.0266688 -0.270245 -2.55108e-05  -0.027632 -0.285246 -9.17912e-06  -0.0285811 -0.300246 4.64916e-06  -0.0295138 -0.315231 1.65105e-05  -0.0304341 -0.33019 2.38419e-05  -0.0313423 -0.345111 3.03388e-05  -0.0322378 -0.359986 3.47495e-05  -0.0331254 -0.374805 4.16636e-05  0 0 0  -2.864e-05 -0.000654519 3.57628e-07  5.3674e-05 -0.00346226 4.76837e-07  0.000119179 -0.00774422 1.43051e-06  0.000125289 -0.0131736 4.05312e-06  7.18236e-05 -0.0196249 7.51019e-06  -4.3869e-05 -0.0270303 1.22786e-05  -0.000225127 -0.0353307 1.81794e-05  -0.000474215 -0.0444625 2.48551e-05  -0.000790358 -0.0543612 3.14713e-05  -0.00117159 -0.0649596 3.79086e-05  -0.00161517 -0.0761953 4.34518e-05  -0.0021193 -0.0880055 4.71473e-05  -0.0026772 -0.100331 5.17964e-05  -0.00328648 -0.113117 5.42402e-05  -0.00394332 -0.12631 5.74589e-05  -0.00464189 -0.13986 5.8651e-05  -0.00537801 -0.15372 5.99027e-05  -0.00614738 -0.167847 6.04391e-05  -0.00694609 -0.182198 6.08563e-05  -0.0077672 -0.196736 6.14524e-05  -0.00861025 -0.211424 6.1214e-05  -0.00946975 -0.226231 6.09756e-05  -0.0103428 -0.241127 5.99027e-05  -0.0112236 -0.256084 6.03199e-05  -0.0121131 -0.271079 5.78761e-05  -0.0130053 -0.286091 5.79357e-05  -0.0139008 -0.301101 5.57303e-05  -0.0147951 -0.316094 5.40018e-05  -0.0156877 -0.331058 5.37038e-05  -0.0165768 -0.345983 5.14388e-05  -0.0174618 -0.360859 4.97699e-05  -0.0183418 -0.375674 4.78625e-05  0 0 0  0.000461787 -0.000907063 0.000609577  0.00159979 -0.00385439 0.000971854  0.00289893 -0.00818694 0.00109494  0.00410914 -0.0136331 0.00109696  0.0051713 -0.0200942 0.00105023  0.00608093 -0.0275138 0.000986636  0.00684333 -0.0358337 0.000920057  0.00746381 -0.0449905 0.000854015  0.00794888 -0.0549159 0.000792205  0.00830197 -0.065545 0.000732481  0.00852895 -0.0768113 0.000675321  0.00863731 -0.0886519 0.000621438  0.00863338 -0.101009 0.00056988  0.00852406 -0.113824 0.000520825  0.00831676 -0.127044 0.000474095  0.00801873 -0.140619 0.000429809  0.00763607 -0.154503 0.000388861  0.00717878 -0.16865 0.000348032  0.00665236 -0.183019 0.000311613  0.00606585 -0.197572 0.000277221  0.00542235 -0.212273 0.000244439  0.00473189 -0.227091 0.000215173  0.00400066 -0.241994 0.000189126  0.00323343 -0.256958 0.000164151  0.00243688 -0.271958 0.000142217  0.001616 -0.286972 0.000123262  0.000777483 -0.301983 0.00010699  -7.72476e-05 -0.316978 9.41157e-05  -0.000941992 -0.331941 8.23736e-05  -0.00181508 -0.346864 7.31945e-05  -0.00269055 -0.36174 6.35982e-05  -0.00356364 -0.376561 5.61476e-05  0 0 0  0.00106637 -0.00162846 0.00118917  0.00337863 -0.00490177 0.00189459  0.00591877 -0.00927854 0.00214165  0.00830126 -0.0146791 0.00215667  0.0104491 -0.021092 0.00207138  0.0123642 -0.0284797 0.00194746  0.0140576 -0.0367822 0.00181222  0.0155389 -0.0459297 0.00167757  0.0168157 -0.0558525 0.0015471  0.0178965 -0.0664817 0.00142318  0.0187896 -0.0777506 0.00130504  0.0195045 -0.089595 0.00119376  0.0200493 -0.101956 0.00108665  0.0204358 -0.114774 0.000986338  0.0206709 -0.127999 0.000890791  0.0207684 -0.141576 0.000800431  0.020736 -0.15546 0.000715613  0.0205853 -0.169608 0.000635684  0.0203249 -0.183975 0.000561297  0.0199671 -0.198526 0.000490963  0.0195205 -0.213223 0.000428379  0.0189934 -0.228037 0.000368714  0.0183964 -0.242935 0.000315726  0.0177391 -0.257891 0.000268221  0.0170298 -0.272884 0.000225723  0.0162749 -0.287892 0.000188947  0.0154834 -0.302896 0.000157416  0.0146661 -0.317882 0.000132799  0.0138237 -0.332839 0.00011158  0.0129666 -0.347757 9.4831e-05  0.012099 -0.362631 8.04663e-05  0.011229 -0.37746 6.62804e-05  0 0 0  0.00205269 -0.00310057 0.00173408  0.00568303 -0.00671691 0.00274968  0.00940877 -0.0110121 0.00313085  0.0128931 -0.0162795 0.00317663  0.0160823 -0.0225935 0.00306648  0.0189772 -0.0299135 0.002891  0.021584 -0.0381664 0.00269276  0.023912 -0.0472763 0.00249177  0.0259694 -0.0571676 0.00229698  0.0277648 -0.0677696 0.00210911  0.0293113 -0.0790132 0.00193107  0.0306199 -0.0908347 0.00176203  0.0317023 -0.103173 0.00160104  0.0325706 -0.115971 0.00144929  0.0332389 -0.129174 0.00130528  0.0337188 -0.142731 0.00116855  0.0340252 -0.156595 0.00104094  0.0341687 -0.170721 0.000920594  0.0341635 -0.185068 0.000808418  0.0340228 -0.199598 0.000704408  0.0337591 -0.214275 0.000609398  0.0333838 -0.229067 0.000521064  0.0329103 -0.243945 0.000441492  0.0323493 -0.258883 0.000369906  0.0317135 -0.273856 0.000307262  0.0310135 -0.288847 0.00025332  0.0302598 -0.303834 0.000207603  0.029464 -0.318806 0.000169814  0.0286338 -0.33375 0.000141263  0.0277812 -0.348657 0.000118136  0.0269122 -0.363528 9.85265e-05  0.0260425 -0.378365 8.14199e-05  0 0 0  0.00410533 -0.00594252 0.00227076  0.0087783 -0.00931501 0.00358373  0.0134863 -0.0132913 0.00410682  0.018002 -0.0183728 0.0041815  0.0222077 -0.0245685 0.00404572  0.0260668 -0.0317996 0.00382012  0.0295734 -0.0399783 0.00356233  0.0327306 -0.0490229 0.00329828  0.0355505 -0.0588557 0.00303918  0.0380443 -0.0694025 0.00279105  0.0402269 -0.0805943 0.00255358  0.04211 -0.0923672 0.00232828  0.0437114 -0.104658 0.00211376  0.0450468 -0.117411 0.00191051  0.046128 -0.130567 0.00171798  0.0469739 -0.144082 0.00153673  0.0475991 -0.157905 0.00136614  0.0480199 -0.171988 0.00120515  0.0482523 -0.186294 0.0010559  0.0483117 -0.200784 0.00091809  0.0482111 -0.215423 0.00078994  0.0479705 -0.230177 0.000673294  0.0475993 -0.24502 0.000567138  0.0471191 -0.259923 0.00047338  0.0465357 -0.274866 0.000388086  0.045871 -0.289827 0.000317574  0.0451353 -0.304787 0.000257313  0.0443399 -0.319737 0.000209093  0.0435023 -0.334662 0.000170648  0.0426381 -0.349556 0.000142455  0.0417573 -0.364419 0.00012207  0.0408764 -0.379263 0.000102758  0 0 0  -0.00459658 -0.00629715 -0.00111735  -0.00884213 -0.00957945 -0.0017997  -0.0134177 -0.0133113 -0.00211304  -0.0180282 -0.018051 -0.00217891  -0.0224711 -0.0238567 -0.00210953  -0.02667 -0.0306711 -0.00198007  -0.0306128 -0.0384148 -0.00182861  -0.034309 -0.0470123 -0.00167561  -0.0377734 -0.0563919 -0.00152832  -0.0410236 -0.066489 -0.00138962  -0.0440735 -0.0772409 -0.00125873  -0.0469339 -0.0885864 -0.0011369  -0.049615 -0.100469 -0.00102246  -0.0521288 -0.112837 -0.000915289  -0.0544811 -0.125637 -0.000814319  -0.0566822 -0.138821 -0.000720501  -0.0587375 -0.152343 -0.000631452  -0.0606554 -0.166158 -0.000550508  -0.0624435 -0.180226 -0.000473917  -0.0641112 -0.194508 -0.000404656  -0.0656619 -0.208968 -0.000339687  -0.0671055 -0.223571 -0.00028193  -0.0684497 -0.23829 -0.000229537  -0.0697029 -0.253095 -0.000182688  -0.0708749 -0.267961 -0.00014174  -0.0719721 -0.282867 -0.000106931  -0.0730066 -0.297788 -7.89762e-05  -0.0739861 -0.312716 -5.6386e-05  -0.0749235 -0.327629 -3.89218e-05  -0.07583 -0.342523 -2.59876e-05  -0.0767183 -0.35739 -1.81794e-05  -0.077601 -0.372236 -1.0848e-05  0 0 0  -0.00192874 -0.00337715 -0.000808477  -0.00548019 -0.00689314 -0.00135332  -0.00919524 -0.0110185 -0.00159365  -0.0127637 -0.0160885 -0.00164169  -0.016154 -0.0221631 -0.00158679  -0.0193617 -0.0292058 -0.00148523  -0.0223912 -0.037155 -0.00136846  -0.0252527 -0.045942 -0.0012511  -0.027958 -0.0555012 -0.00113881  -0.0305182 -0.0657674 -0.00103295  -0.0329429 -0.0766789 -0.000934124  -0.0352405 -0.0881764 -0.000841558  -0.0374181 -0.100203 -0.000755548  -0.0394816 -0.112706 -0.000674248  -0.0414361 -0.125632 -0.000598192  -0.0432881 -0.138934 -0.000527382  -0.0450389 -0.152564 -0.0004614  -0.0466964 -0.166479 -0.000399411  -0.0482605 -0.180637 -0.000342727  -0.0497417 -0.195 -0.000289857  -0.051141 -0.209534 -0.000242472  -0.0524626 -0.224203 -0.000197709  -0.0537126 -0.238978 -0.000158548  -0.0548983 -0.253832 -0.000123858  -0.0560224 -0.268738 -9.24468e-05  -0.0570934 -0.283678 -6.80685e-05  -0.058116 -0.298628 -4.56572e-05  -0.0590978 -0.313576 -2.87294e-05  -0.0600441 -0.328503 -1.58548e-05  -0.0609648 -0.343403 -6.25849e-06  -0.0618677 -0.358271 1.37091e-06  -0.0627596 -0.373108 8.82149e-06  0 0 0  -0.00107263 -0.00169474 -0.000558376  -0.00314966 -0.00508913 -0.000923574  -0.00562054 -0.00942487 -0.00108254  -0.00807297 -0.0147182 -0.00110555  -0.0104014 -0.02099 -0.0010615  -0.0126055 -0.0282071 -0.000989079  -0.0147023 -0.036314 -0.000908613  -0.0167056 -0.0452479 -0.00082773  -0.018626 -0.0549455 -0.000750124  -0.0204729 -0.0653442 -0.000679016  -0.0222498 -0.0763818 -0.000610888  -0.0239618 -0.0880003 -0.000549138  -0.0256127 -0.100142 -0.000490248  -0.0272039 -0.112753 -0.000435054  -0.0287387 -0.125781 -0.000384629  -0.0302179 -0.139177 -0.000336468  -0.0316436 -0.152894 -0.000291646  -0.0330167 -0.166889 -0.000250816  -0.0343385 -0.181121 -0.000211298  -0.0356112 -0.19555 -0.000177264  -0.0368373 -0.210142 -0.000144124  -0.038017 -0.224863 -0.000114739  -0.0391531 -0.239684 -8.96454e-05  -0.0402484 -0.254577 -6.49691e-05  -0.0413065 -0.269518 -4.52995e-05  -0.0423284 -0.284484 -2.76566e-05  -0.0433199 -0.299456 -1.31726e-05  -0.0442829 -0.31442 -2.44379e-06  -0.045222 -0.329362 5.96046e-06  -0.0461404 -0.344271 1.29938e-05  -0.0470428 -0.359142 1.85966e-05  -0.047935 -0.373971 2.42591e-05  0 0 0  -0.000497214 -0.000987411 -0.000285149  -0.00144143 -0.00407645 -0.000477016  -0.00262392 -0.00848141 -0.000552297  -0.00385872 -0.0139346 -0.000558376  -0.00506634 -0.020354 -0.000531018  -0.00623864 -0.0276965 -0.000490963  -0.00738508 -0.0359141 -0.000446856  -0.00851578 -0.0449518 -0.000403523  -0.00963831 -0.0547487 -0.000362992  -0.0107548 -0.0652433 -0.000324547  -0.0118691 -0.0763752 -0.000289619  -0.0129795 -0.0880831 -0.000256181  -0.0140877 -0.10031 -0.000225663  -0.0151908 -0.113003 -0.000196815  -0.0162898 -0.126108 -0.000170052  -0.0173804 -0.139575 -0.000145495  -0.0184646 -0.153358 -0.000121415  -0.0195379 -0.167413 -0.000100493  -0.0206025 -0.1817 -8.13007e-05  -0.0216529 -0.19618 -6.33597e-05  -0.0226896 -0.210815 -4.64916e-05  -0.0237134 -0.225576 -3.27826e-05  -0.0247202 -0.24043 -1.85966e-05  -0.0257115 -0.255353 -7.03335e-06  -0.0266871 -0.270317 3.09944e-06  -0.0276484 -0.285303 1.13845e-05  -0.0285943 -0.300293 1.88351e-05  -0.029525 -0.31527 2.44379e-05  -0.0304432 -0.330221 2.7597e-05  -0.0313494 -0.345138 3.18885e-05  -0.032244 -0.360011 3.34978e-05  -0.0331333 -0.374833 3.66569e-05  0 0 0  -3.3848e-05 -0.000821471 -3.93391e-06  3.0756e-05 -0.00380901 -7.51019e-06  9.14335e-05 -0.00824228 -5.84126e-06  9.43542e-05 -0.0137697 -8.34465e-07  3.58224e-05 -0.0202676 3.93391e-06  -8.55327e-05 -0.0276812 9.47714e-06  -0.000271082 -0.0359645 1.4782e-05  -0.000522375 -0.045065 1.97887e-05  -0.000839114 -0.0549247 2.52724e-05  -0.00121987 -0.0654819 2.95639e-05  -0.00166273 -0.0766743 3.31998e-05  -0.00216341 -0.0884422 3.71337e-05  -0.00271928 -0.100729 4.00543e-05  -0.0033257 -0.113476 4.25577e-05  -0.0039798 -0.126632 4.48227e-05  -0.00467539 -0.140148 4.673e-05  -0.00540829 -0.153976 4.78625e-05  -0.00617337 -0.168072 4.97103e-05  -0.0069685 -0.182395 5.02467e-05  -0.00778818 -0.196908 5.06639e-05  -0.00862741 -0.211572 5.22137e-05  -0.00948381 -0.226357 5.20349e-05  -0.010355 -0.241234 5.17368e-05  -0.011234 -0.256173 5.23329e-05  -0.0121205 -0.271153 5.19753e-05  -0.0130115 -0.286151 5.20945e-05  -0.0139053 -0.30115 5.126e-05  -0.0147972 -0.316134 5.10216e-05  -0.0156908 -0.331091 5.02467e-05  -0.0165796 -0.34601 4.96507e-05  -0.0174642 -0.360885 4.8697e-05  -0.0183446 -0.375704 4.8697e-05  0 0 0  0.000422284 -0.00108278 0.00027746  0.00150943 -0.00421143 0.000460744  0.00280118 -0.0086934 0.000539482  0.00403124 -0.0142345 0.000552714  0.00511533 -0.0207397 0.000535071  0.00604105 -0.0281656 0.000505805  0.00681329 -0.0364678 0.000473619  0.00743961 -0.0455927 0.000441432  0.00792801 -0.0554799 0.000411749  0.00828266 -0.0660675 0.000382423  0.0085125 -0.0772909 0.000355601  0.00862241 -0.0890911 0.000329614  0.00861967 -0.101407 0.000305235  0.00851214 -0.114184 0.000282109  0.00830591 -0.127368 0.000259638  0.00801015 -0.140909 0.000238717  0.00762987 -0.154759 0.00021863  0.00717354 -0.168877 0.000199616  0.00664854 -0.183218 0.000181854  0.00606227 -0.197745 0.000165939  0.00542092 -0.212422 0.000149608  0.00473189 -0.227218 0.000135899  0.00400162 -0.242102 0.00012362  0.0032351 -0.257049 0.000111461  0.00243974 -0.272032 0.000101388  0.00161862 -0.287033 9.21488e-05  0.00077939 -0.302034 8.44598e-05  -7.48634e-05 -0.317018 7.84397e-05  -0.000939369 -0.331974 7.2062e-05  -0.00181103 -0.346892 6.86049e-05  -0.00268722 -0.361767 6.36578e-05  -0.00355911 -0.376589 6.01411e-05  0 0 0  0.000995353 -0.00184381 0.000547171  0.00323391 -0.00531584 0.000908256  0.00576571 -0.00983512 0.00106263  0.00818503 -0.0153151 0.00108927  0.0103757 -0.0217579 0.00105393  0.0123239 -0.0291415 0.000994444  0.014039 -0.0374201 0.00092721  0.0155324 -0.0465335 0.000860095  0.0168158 -0.0564167 0.000795543  0.0179013 -0.067003 0.000734806  0.0187966 -0.0782295 0.000676572  0.0195112 -0.0900331 0.000621438  0.0200578 -0.102354 0.000570297  0.0204433 -0.115134 0.000520647  0.0206805 -0.128322 0.000474334  0.0207777 -0.141865 0.000430226  0.0207458 -0.155718 0.000388741  0.0205956 -0.169835 0.000350058  0.0203364 -0.184175 0.00031358  0.0199795 -0.198698 0.000279963  0.0195317 -0.213373 0.000247896  0.0190058 -0.228164 0.000220418  0.0184081 -0.243042 0.000194013  0.0177503 -0.257982 0.000170112  0.0170391 -0.27296 0.000150383  0.0162861 -0.287952 0.000132859  0.0154943 -0.302946 0.000117719  0.0146739 -0.317923 0.000104666  0.0138323 -0.332872 9.54866e-05  0.0129745 -0.347786 8.70228e-05  0.0121055 -0.362658 8.0049e-05  0.0112376 -0.377489 7.26581e-05  0 0 0  0.00196815 -0.00338823 0.000805438  0.00552091 -0.00723678 0.00132561  0.00923359 -0.0116566 0.00155592  0.012756 -0.0169724 0.00160354  0.015994 -0.0232901 0.00155789  0.0189288 -0.0305899 0.00147253  0.021563 -0.03881 0.00137419  0.0239069 -0.0478805 0.00127387  0.0259733 -0.0577298 0.00117671  0.0277743 -0.0682881 0.00108385  0.0293232 -0.0794892 0.000996113  0.0306329 -0.0912697 0.000912607  0.0317156 -0.103568 0.000834167  0.0325849 -0.116328 0.000758886  0.0332527 -0.129495 0.000687718  0.0337334 -0.143019 0.00062108  0.0340393 -0.156851 0.000558257  0.0341835 -0.170947 0.000499606  0.0341794 -0.185266 0.000444472  0.0340388 -0.199769 0.000394344  0.0337741 -0.214422 0.000345945  0.0333986 -0.229193 0.000303268  0.0329251 -0.244051 0.000264347  0.0323651 -0.25897 0.000230372  0.0317268 -0.273929 0.00019902  0.0310254 -0.288905 0.000172317  0.0302706 -0.303882 0.000150561  0.0294745 -0.318844 0.000132203  0.0286453 -0.333783 0.000118494  0.0277929 -0.348685 0.000107586  0.0269258 -0.363553 9.80496e-05  0.026052 -0.378394 8.81553e-05  0 0 0  0.00410196 -0.00637507 0.00106096  0.00869676 -0.00997758 0.00171953  0.0133339 -0.0140383 0.0020352  0.0178525 -0.0191256 0.00210571  0.0220942 -0.0252959 0.00205117  0.0259891 -0.0324899 0.00194204  0.0295222 -0.0406255 0.00181431  0.032698 -0.0496257 0.0016827  0.0355287 -0.0594122 0.00155467  0.0380286 -0.0699149 0.00143087  0.0402148 -0.0810637 0.00131428  0.0421014 -0.0927947 0.00120288  0.0437043 -0.105047 0.00109643  0.0450401 -0.11776 0.000996053  0.0461222 -0.130884 0.000900865  0.0469697 -0.144364 0.000812292  0.047596 -0.158153 0.000728309  0.0480192 -0.172207 0.000648379  0.0482514 -0.186486 0.000576496  0.0483131 -0.20095 0.000507951  0.0482137 -0.215563 0.000445664  0.0479724 -0.230298 0.000387371  0.0476055 -0.24512 0.000334799  0.047121 -0.260007 0.000289083  0.046541 -0.274933 0.000248313  0.0458772 -0.28988 0.000213742  0.0451393 -0.304832 0.000183284  0.0443475 -0.319771 0.000160575  0.0435123 -0.334693 0.000142455  0.0426478 -0.349582 0.000128329  0.0417707 -0.364444 0.000117719  0.0408912 -0.379291 0.000107586  0 0 0  -0.00462563 -0.00643505 -4.94123e-05  -0.00884762 -0.0098049 -6.19888e-05  -0.0133967 -0.0135764 -6.1512e-05  -0.0179999 -0.0183246 -5.58496e-05  -0.0224509 -0.024123 -4.74453e-05  -0.0266627 -0.0309224 -4.02331e-05  -0.0306181 -0.0386483 -3.39746e-05  -0.0343228 -0.0472278 -2.93851e-05  -0.0377946 -0.0565918 -2.61068e-05  -0.0410464 -0.066672 -2.40207e-05  -0.0440969 -0.0774073 -2.10404e-05  -0.0469567 -0.0887381 -1.97887e-05  -0.0496382 -0.100609 -1.80602e-05  -0.0521501 -0.112962 -1.71065e-05  -0.0545018 -0.125751 -1.62125e-05  -0.0567009 -0.138923 -1.57952e-05  -0.0587561 -0.152434 -1.45435e-05  -0.060673 -0.166239 -1.34706e-05  -0.0624595 -0.180299 -1.40071e-05  -0.0641241 -0.194571 -1.29342e-05  -0.0656734 -0.209023 -1.3113e-05  -0.0671153 -0.22362 -1.28746e-05  -0.0684595 -0.238333 -1.06096e-05  -0.0697114 -0.253132 -1.24574e-05  -0.0708828 -0.267993 -1.20997e-05  -0.0719786 -0.282893 -1.25766e-05  -0.0730119 -0.297812 -1.28746e-05  -0.0739918 -0.312737 -1.23382e-05  -0.0749288 -0.327649 -1.24574e-05  -0.0758362 -0.342541 -1.3411e-05  -0.076725 -0.357408 -1.38283e-05  -0.0776086 -0.372255 -1.33514e-05  0 0 0  -0.00191189 -0.00347722 -1.85966e-05  -0.00544846 -0.00707676 -4.42266e-05  -0.00916004 -0.0112478 -4.73857e-05  -0.0127376 -0.0163354 -4.27365e-05  -0.0161435 -0.0224104 -3.57628e-05  -0.0193665 -0.0294452 -2.84314e-05  -0.0224085 -0.0373815 -2.27094e-05  -0.0252788 -0.0461544 -1.77026e-05  -0.0279888 -0.0556978 -1.44839e-05  -0.030551 -0.0659488 -1.15633e-05  -0.0329763 -0.0768457 -9.71556e-06  -0.035273 -0.0883284 -7.51019e-06  -0.03745 -0.100343 -6.25849e-06  -0.0395118 -0.112832 -4.94719e-06  -0.0414644 -0.125747 -3.57628e-06  -0.043313 -0.139036 -2.26498e-06  -0.0450635 -0.152655 -1.72853e-06  -0.0467169 -0.16656 -4.17233e-07  -0.0482817 -0.180709 5.96046e-07  -0.0497603 -0.195065 6.55651e-07  -0.051157 -0.209589 1.66893e-06  -0.0524769 -0.224252 1.66893e-06  -0.0537271 -0.239021 1.96695e-06  -0.0549092 -0.253869 3.03984e-06  -0.0560346 -0.268771 2.80142e-06  -0.0571022 -0.283705 2.14577e-06  -0.0581238 -0.298653 2.68221e-06  -0.059104 -0.313597 2.26498e-06  -0.0600519 -0.328524 2.20537e-06  -0.0609725 -0.343422 2.02656e-06  -0.0618734 -0.358289 2.5034e-06  -0.0627656 -0.373127 3.09944e-06  0 0 0  -0.0010524 -0.00176767 -2.37823e-05  -0.00312001 -0.00523479 -3.3617e-05  -0.00558993 -0.00962125 -3.56436e-05  -0.00805348 -0.0149408 -2.93255e-05  -0.0103979 -0.0212213 -2.15173e-05  -0.0126162 -0.0284366 -1.52588e-05  -0.0147234 -0.0365349 -9.89437e-06  -0.0167342 -0.0454568 -5.96046e-06  -0.0186589 -0.0551413 -2.6226e-06  -0.020506 -0.0655249 1.19209e-07  -0.0222831 -0.0765487 2.08616e-06  -0.0239948 -0.088153 4.11272e-06  -0.0256439 -0.100281 5.30481e-06  -0.0272334 -0.112879 7.39098e-06  -0.0287663 -0.125895 8.52346e-06  -0.0302438 -0.139279 1.00732e-05  -0.0316672 -0.152986 1.13249e-05  -0.0330381 -0.166971 1.24574e-05  -0.0343587 -0.181194 1.37091e-05  -0.0356302 -0.195615 1.46031e-05  -0.0368547 -0.210199 1.44839e-05  -0.0380323 -0.224913 1.60336e-05  -0.0391676 -0.239728 1.63317e-05  -0.0402601 -0.254615 1.68681e-05  -0.0413165 -0.26955 1.71065e-05  -0.0423386 -0.284513 1.72257e-05  -0.0433278 -0.299483 1.71065e-05  -0.0442908 -0.314443 1.71065e-05  -0.0452271 -0.329383 1.71065e-05  -0.0461447 -0.344291 1.78814e-05  -0.0470483 -0.359161 1.81198e-05  -0.047941 -0.37399 1.91927e-05  0 0 0  -0.000485435 -0.00104403 -1.51992e-05  -0.00142822 -0.00419518 -2.5034e-05  -0.00261119 -0.00865248 -2.2769e-05  -0.00385347 -0.0141382 -1.52588e-05  -0.00507158 -0.0205731 -7.27177e-06  -0.00625265 -0.0279187 -1.90735e-06  -0.0074057 -0.0361314 2.26498e-06  -0.00854087 -0.0451592 5.66244e-06  -0.00966489 -0.0549434 8.46386e-06  -0.0107824 -0.0654241 1.12653e-05  -0.0118965 -0.076542 1.33514e-05  -0.013006 -0.0882364 1.51992e-05  -0.0141122 -0.10045 1.74046e-05  -0.015214 -0.11313 1.90735e-05  -0.0163113 -0.126222 2.08616e-05  -0.0174012 -0.139678 2.28286e-05  -0.0184839 -0.153451 2.38419e-05  -0.0195565 -0.167498 2.5034e-05  -0.0206182 -0.181774 2.6226e-05  -0.0216658 -0.196245 2.8193e-05  -0.0227022 -0.210874 2.81334e-05  -0.0237231 -0.225627 2.91467e-05  -0.0247288 -0.240474 3.02196e-05  -0.0257206 -0.255392 3.06964e-05  -0.0266953 -0.270351 3.17693e-05  -0.0276551 -0.285334 3.11136e-05  -0.0286002 -0.300319 3.20673e-05  -0.029531 -0.315293 3.17693e-05  -0.0304477 -0.330243 3.25441e-05  -0.0313547 -0.345158 3.27229e-05  -0.0322485 -0.360031 3.28422e-05  -0.0331361 -0.374852 3.25441e-05  0 0 0  -3.44738e-05 -0.000870138 -8.70228e-06  2.39909e-05 -0.00391456 -1.07884e-05  8.17776e-05 -0.00839993 -6.19888e-06  8.19564e-05 -0.0139638 9.53674e-07  2.12789e-05 -0.0204812 7.21216e-06  -0.000101507 -0.0279 1.18613e-05  -0.000288725 -0.03618 1.49608e-05  -0.000540257 -0.0452713 1.78814e-05  -0.000857472 -0.0551192 2.02656e-05  -0.00123847 -0.0656628 2.28882e-05  -0.00168002 -0.0768416 2.52724e-05  -0.00218046 -0.0885961 2.70605e-05  -0.00273526 -0.100869 2.98619e-05  -0.00334096 -0.113603 3.14713e-05  -0.00399292 -0.126748 3.31998e-05  -0.00468719 -0.140253 3.56436e-05  -0.00541854 -0.154069 3.68953e-05  -0.00618458 -0.168156 3.83854e-05  -0.00697708 -0.18247 3.96371e-05  -0.00779581 -0.196973 4.1008e-05  -0.00863576 -0.211631 4.20809e-05  -0.00949121 -0.226409 4.31538e-05  -0.0103607 -0.241278 4.45247e-05  -0.0112398 -0.256213 4.51207e-05  -0.0121257 -0.271188 4.54187e-05  -0.0130165 -0.286182 4.62532e-05  -0.0139084 -0.301177 4.66704e-05  -0.0148008 -0.316157 4.77433e-05  -0.0156939 -0.331113 4.68493e-05  -0.0165815 -0.34603 4.79221e-05  -0.0174665 -0.360904 4.82798e-05  -0.0183487 -0.375724 4.85182e-05  0 0 0  0.000408873 -0.00113392 -1.49012e-06  0.00148204 -0.00431991 5.1856e-06  0.00276774 -0.00885332 1.21593e-05  0.00400048 -0.0144295 1.77026e-05  0.00509101 -0.0209543 2.19345e-05  0.00602221 -0.0283853 2.43187e-05  0.00679892 -0.0366836 2.70009e-05  0.00742829 -0.0457996 2.96235e-05  0.00791752 -0.0556747 3.20077e-05  0.00827348 -0.0662484 3.45111e-05  0.00850356 -0.0774589 3.68953e-05  0.0086143 -0.0892449 3.92199e-05  0.00861251 -0.101548 4.22597e-05  0.0085057 -0.114312 4.45843e-05  0.00829959 -0.127485 4.60744e-05  0.00800347 -0.141015 4.78625e-05  0.00762439 -0.154854 4.98891e-05  0.00716901 -0.168961 5.14984e-05  0.00664473 -0.183293 5.23329e-05  0.00605941 -0.197811 5.47171e-05  0.00541878 -0.212481 5.62668e-05  0.00473046 -0.22727 5.6982e-05  0.00399899 -0.242148 5.84722e-05  0.00323391 -0.257088 5.99027e-05  0.00243783 -0.272067 6.03795e-05  0.00161767 -0.287064 6.12736e-05  0.000778675 -0.302061 6.24657e-05  -7.4625e-05 -0.317041 6.27041e-05  -0.000938177 -0.331996 6.27041e-05  -0.00181079 -0.346913 6.35386e-05  -0.00268602 -0.361787 6.33597e-05  -0.00355959 -0.37661 6.30021e-05  0 0 0  0.000969857 -0.00190735 7.03335e-06  0.00318837 -0.00544381 2.15769e-05  0.00571355 -0.0100136 2.95639e-05  0.0081405 -0.0155241 3.35574e-05  0.0103435 -0.0219805 3.51071e-05  0.0123028 -0.0293656 3.6478e-05  0.0140259 -0.0376377 3.8743e-05  0.0155244 -0.0467404 4.08888e-05  0.016812 -0.0566108 4.36902e-05  0.0178975 -0.0671845 4.60744e-05  0.0187933 -0.0783971 4.88162e-05  0.01951 -0.0901866 5.14388e-05  0.0200559 -0.102494 5.33462e-05  0.0204432 -0.115262 5.65648e-05  0.0206797 -0.128438 5.8949e-05  0.020777 -0.141971 6.04987e-05  0.0207462 -0.155812 6.28829e-05  0.020596 -0.169919 6.44326e-05  0.0203373 -0.18425 6.64592e-05  0.0199807 -0.198765 6.85453e-05  0.0195336 -0.213432 6.95586e-05  0.0190065 -0.228216 7.19428e-05  0.0184088 -0.243088 7.24196e-05  0.0177524 -0.258021 7.45654e-05  0.0170412 -0.272994 7.53999e-05  0.0162866 -0.287983 7.66516e-05  0.0154953 -0.302973 7.7486e-05  0.0146761 -0.317947 7.81417e-05  0.0138335 -0.332894 7.92146e-05  0.0129766 -0.347805 7.95722e-05  0.0121074 -0.362678 7.96914e-05  0.0112381 -0.377509 7.98106e-05  0 0 0  0.00193869 -0.00347334 1.5974e-05  0.00547096 -0.00739956 3.34382e-05  0.00917438 -0.0118666 4.3571e-05  0.0127034 -0.0172029 4.63128e-05  0.015955 -0.0235246 4.72665e-05  0.018903 -0.0308195 4.81606e-05  0.0215473 -0.0390304 4.97103e-05  0.0238982 -0.0480886 5.23925e-05  0.025968 -0.057924 5.51343e-05  0.0277722 -0.0684685 5.79357e-05  0.0293214 -0.0796554 6.08563e-05  0.0306326 -0.0914221 6.3777e-05  0.0317156 -0.103708 6.65188e-05  0.0325854 -0.116456 6.8903e-05  0.0332537 -0.12961 7.13468e-05  0.033735 -0.143123 7.37309e-05  0.0340409 -0.156944 7.64132e-05  0.0341845 -0.17103 7.85589e-05  0.0341802 -0.185341 8.01682e-05  0.0340393 -0.199836 8.24332e-05  0.0337765 -0.21448 8.43406e-05  0.0334015 -0.229243 8.60691e-05  0.032927 -0.244095 8.76188e-05  0.0323637 -0.259011 8.76784e-05  0.0317287 -0.273962 9.10163e-05  0.0310283 -0.288935 9.197e-05  0.0302734 -0.303908 9.26852e-05  0.0294766 -0.318868 9.36389e-05  0.0286474 -0.333802 9.44138e-05  0.0277929 -0.348706 9.48906e-05  0.0269279 -0.363573 9.60231e-05  0.0260539 -0.378413 9.47714e-05  0 0 0  0.00410251 -0.00651461 2.35438e-05  0.00867695 -0.0101902 3.08156e-05  0.0132867 -0.0142819 5.32269e-05  0.0177981 -0.0193763 5.91874e-05  0.0220467 -0.0255418 6.02007e-05  0.0259539 -0.0327243 6.04391e-05  0.029497 -0.0408475 6.13928e-05  0.0326794 -0.0498329 6.43134e-05  0.035514 -0.0596049 6.68764e-05  0.0380177 -0.0700935 7.00355e-05  0.040205 -0.0812277 7.28965e-05  0.0420928 -0.0929449 7.59959e-05  0.0436957 -0.105184 7.9155e-05  0.0450324 -0.117886 8.15988e-05  0.0461164 -0.130996 8.44002e-05  0.0469646 -0.144466 8.69632e-05  0.0475919 -0.158245 9.01818e-05  0.0480137 -0.17229 9.14931e-05  0.0482478 -0.186559 9.47118e-05  0.0483086 -0.201014 9.69172e-05  0.0482128 -0.215622 9.75728e-05  0.0479717 -0.230347 0.000100672  0.0476029 -0.245163 0.000101447  0.0471222 -0.260043 0.000104308  0.0465403 -0.274966 0.000104666  0.0458751 -0.28991 0.0001055  0.0451398 -0.304856 0.00010848  0.0443478 -0.319794 0.000109017  0.0435135 -0.334711 0.000110924  0.042649 -0.349602 0.00011158  0.0417731 -0.364465 0.000111222  0.0408936 -0.379309 0.000111938  0 0 0  -0.00457362 -0.00630633 0.00101036  -0.00883831 -0.00960186 0.00166455  -0.0134169 -0.0133362 0.0019834  -0.0180242 -0.0180737 0.00206637  -0.0224663 -0.0238773 0.00201628  -0.0266678 -0.0306899 0.00190204  -0.030614 -0.0384335 0.00176281  -0.0343124 -0.047031 0.00161809  -0.0377792 -0.0564123 0.00147697  -0.0410308 -0.0665099 0.00134254  -0.0440806 -0.077262 0.00121602  -0.0469404 -0.0886087 0.00109717  -0.0496228 -0.100493 0.000985682  -0.0521362 -0.112861 0.000880212  -0.0544888 -0.125662 0.000781804  -0.0566896 -0.138846 0.000689864  -0.0587444 -0.152368 0.000603557  -0.060663 -0.166185 0.000522494  -0.0624497 -0.180251 0.000448912  -0.0641177 -0.194534 0.000377625  -0.0656681 -0.208994 0.0003151  -0.0671108 -0.223599 0.000257432  -0.0684569 -0.238319 0.00020501  -0.0697088 -0.253123 0.000159502  -0.0708804 -0.267989 0.000116885  -0.0719779 -0.282894 8.35955e-05  -0.0730126 -0.297818 5.28395e-05  -0.0739906 -0.312745 3.07262e-05  -0.0749288 -0.327659 1.21891e-05  -0.0758362 -0.342554 0  -0.0767238 -0.357422 -9.14931e-06  -0.0776088 -0.372269 -1.71661e-05  0 0 0  -0.0019154 -0.00339183 0.000767171  -0.0054747 -0.00691382 0.00125575  -0.00919288 -0.0110397 0.00149575  -0.0127615 -0.0161076 0.00155711  -0.0161523 -0.0221799 0.00151825  -0.0193624 -0.0292228 0.00143105  -0.0223938 -0.0371725 0.00132576  -0.0252575 -0.045961 0.00121647  -0.027964 -0.0555208 0.00111017  -0.0305245 -0.0657881 0.00100958  -0.0329489 -0.0767003 0.000915378  -0.0352482 -0.0881991 0.00082618  -0.0374254 -0.100227 0.00074324  -0.0394887 -0.11273 0.00066486  -0.0414436 -0.125657 0.000591129  -0.0432941 -0.138958 0.000523061  -0.0450454 -0.152589 0.000458658  -0.0467017 -0.166504 0.000398755  -0.0482676 -0.180664 0.000342995  -0.0497468 -0.195026 0.000291526  -0.051146 -0.20956 0.000244915  -0.0524683 -0.22423 0.000201613  -0.053719 -0.239005 0.000163764  -0.0549033 -0.25386 0.000128418  -0.0560281 -0.268767 9.81688e-05  -0.0570982 -0.283707 7.23898e-05  -0.0581217 -0.298658 5.02169e-05  -0.0591033 -0.313605 3.3319e-05  -0.06005 -0.328534 2.09808e-05  -0.060971 -0.343435 9.86457e-06  -0.061873 -0.358302 3.51667e-06  -0.0627649 -0.37314 -3.27826e-06  0 0 0  -0.00105732 -0.00170346 0.000505656  -0.00314532 -0.00510481 0.000846803  -0.0056197 -0.00944316 0.00100887  -0.00807321 -0.0147353 0.00104895  -0.0104032 -0.0210064 0.00102112  -0.0126089 -0.0282236 0.000961214  -0.0147067 -0.036331 0.000889629  -0.0167115 -0.0452669 0.000816196  -0.018633 -0.0549656 0.000745207  -0.0204792 -0.0653649 0.000678152  -0.0222566 -0.0764044 0.000615209  -0.0239691 -0.0880228 0.000556916  -0.0256191 -0.100165 0.000501066  -0.0272101 -0.112777 0.000450045  -0.0287451 -0.125805 0.000401825  -0.0302247 -0.139201 0.000356734  -0.0316503 -0.152919 0.000313818  -0.0330231 -0.166915 0.000275075  -0.034344 -0.181147 0.000238657  -0.0356169 -0.195576 0.000205338  -0.0368426 -0.210169 0.000174373  -0.0380228 -0.224891 0.000145733  -0.0391603 -0.239712 0.000121176  -0.0402548 -0.254605 9.80794e-05  -0.0413122 -0.269546 7.87675e-05  -0.0423338 -0.284513 6.24657e-05  -0.0433249 -0.299486 4.80413e-05  -0.0442882 -0.31445 3.71337e-05  -0.0452273 -0.329393 2.84314e-05  -0.0461447 -0.344302 2.20835e-05  -0.0470469 -0.359174 1.73748e-05  -0.0479403 -0.374002 1.25468e-05  0 0 0  -0.000486687 -0.000991195 0.000248671  -0.00144011 -0.00408635 0.000420243  -0.002626 -0.0084953 0.000507385  -0.00386253 -0.0139491 0.000531197  -0.00507194 -0.0203696 0.000518531  -0.00624478 -0.0277131 0.000489026  -0.00739205 -0.0359323 0.000452578  -0.00852263 -0.0449713 0.000415951  -0.00964499 -0.0547692 0.000380546  -0.0107625 -0.0652649 0.000346661  -0.0118761 -0.0763973 0.000315934  -0.0129862 -0.0881054 0.000287056  -0.0140945 -0.100334 0.000259966  -0.0151974 -0.113027 0.000235289  -0.0162965 -0.126132 0.000211716  -0.0173876 -0.139599 0.000190258  -0.0184708 -0.153383 0.000170052  -0.0195448 -0.16744 0.000151217  -0.0206077 -0.181726 0.000133634  -0.0216587 -0.196207 0.000117987  -0.0226948 -0.210842 0.000103652  -0.0237167 -0.225603 9.02712e-05  -0.0247242 -0.240458 7.9155e-05  -0.0257163 -0.255381 6.83367e-05  -0.0266929 -0.270347 5.92768e-05  -0.0276518 -0.285333 5.22733e-05  -0.028599 -0.300323 4.53293e-05  -0.0295305 -0.3153 4.02033e-05  -0.0304475 -0.330252 3.62396e-05  -0.0313535 -0.345168 3.52263e-05  -0.0322492 -0.360044 3.18289e-05  -0.0331383 -0.374865 2.79248e-05  0 0 0  -3.16799e-05 -0.000820637 -1.78218e-05  3.08454e-05 -0.00381219 -1.55866e-05  8.80361e-05 -0.00825003 -4.23193e-06  8.80361e-05 -0.013782 6.94394e-06  2.71797e-05 -0.0202828 1.29342e-05  -9.44138e-05 -0.0276987 1.5229e-05  -0.000279546 -0.0359836 1.57654e-05  -0.000530362 -0.0450854 1.55568e-05  -0.000846148 -0.0549456 1.57952e-05  -0.00122631 -0.0655035 1.60933e-05  -0.00166917 -0.0766967 1.65403e-05  -0.00217021 -0.0884656 1.74642e-05  -0.00272596 -0.100752 1.82986e-05  -0.0033319 -0.1135 2.04146e-05  -0.00398517 -0.126656 2.22623e-05  -0.00468147 -0.140173 2.3216e-05  -0.00541329 -0.154001 2.46763e-05  -0.00617909 -0.168098 2.69711e-05  -0.00697374 -0.182421 2.88785e-05  -0.00779343 -0.196934 3.0756e-05  -0.0086329 -0.211599 3.23057e-05  -0.00948977 -0.226384 3.46899e-05  -0.01036 -0.241261 3.60012e-05  -0.0112393 -0.256202 3.77595e-05  -0.012126 -0.271181 3.96669e-05  -0.0130177 -0.286182 3.99649e-05  -0.0139105 -0.30118 4.21405e-05  -0.0148041 -0.316165 4.28557e-05  -0.0156944 -0.331121 4.56572e-05  -0.016583 -0.346041 4.60744e-05  -0.0174685 -0.360917 4.69983e-05  -0.0183494 -0.375737 4.89354e-05  0 0 0  0.000415549 -0.00107926 -0.000281602  0.00150612 -0.00420946 -0.000447243  0.00279477 -0.00869697 -0.000510693  0.00402123 -0.0142451 -0.000513613  0.0051043 -0.0207554 -0.00048995  0.00603104 -0.0281844 -0.000456214  0.00680465 -0.036488 -0.000419408  0.0074321 -0.0456137 -0.00038296  0.00792062 -0.055502 -0.000347555  0.00827599 -0.0660895 -0.000314504  0.00850582 -0.0773136 -0.00028187  0.00861609 -0.0891141 -0.000251353  0.00861371 -0.101431 -0.000222266  0.0085063 -0.114208 -0.000194669  0.00830007 -0.127392 -0.000167906  0.00800395 -0.140934 -0.000142872  0.0076232 -0.154786 -0.00011915  0.00716734 -0.168903 -9.69172e-05  0.00664306 -0.183244 -7.63237e-05  0.00605631 -0.197771 -5.67436e-05  0.00541759 -0.21245 -3.86834e-05  0.00472784 -0.227246 -2.17557e-05  0.00399613 -0.24213 -6.4075e-06  0.00323057 -0.257077 7.33137e-06  0.00243521 -0.272061 1.92523e-05  0.00161505 -0.287063 3.05176e-05  0.00077486 -0.302063 3.90708e-05  -7.84397e-05 -0.317049 4.69089e-05  -0.000942469 -0.332005 5.39422e-05  -0.00181484 -0.346924 5.82337e-05  -0.00268936 -0.361799 6.33597e-05  -0.00356269 -0.376622 6.66976e-05  0 0 0  0.000977814 -0.00184023 -0.000530452  0.0032233 -0.00531375 -0.000856847  0.00575465 -0.00984031 -0.000997484  0.00817233 -0.0153285 -0.00102046  0.0103639 -0.0217755 -0.000983596  0.0123134 -0.0291618 -0.00092119  0.0140299 -0.0374416 -0.00085029  0.0155249 -0.0465552 -0.000778079  0.0168096 -0.0564386 -0.000708848  0.0178945 -0.0670259 -0.000642657  0.0187896 -0.0782531 -0.000579208  0.0195055 -0.0900561 -0.000519276  0.0200515 -0.102377 -0.000462055  0.020438 -0.115159 -0.000408411  0.0206746 -0.128347 -0.000356942  0.0207715 -0.141891 -0.000308543  0.0207403 -0.155743 -0.000262976  0.0205898 -0.169861 -0.000220716  0.0203314 -0.184201 -0.000180334  0.0199733 -0.198726 -0.000143677  0.019527 -0.2134 -0.000108033  0.0190003 -0.228191 -7.66814e-05  0.0184035 -0.24307 -4.80115e-05  0.017745 -0.258011 -2.25902e-05  0.017035 -0.272988 5.96046e-08  0.0162809 -0.287982 1.96397e-05  0.0154901 -0.302975 3.69847e-05  0.0146701 -0.317954 5.05149e-05  0.0138302 -0.332902 6.30617e-05  0.0129719 -0.347816 7.17044e-05  0.0121036 -0.36269 7.9006e-05  0.0112333 -0.377522 8.54433e-05  0 0 0  0.0019408 -0.0033862 -0.00076592  0.00550348 -0.00724077 -0.00124475  0.00921956 -0.0116692 -0.00146323  0.0127428 -0.0169899 -0.00151005  0.0159819 -0.0233102 -0.00146505  0.0189187 -0.0306108 -0.00137755  0.0215545 -0.0388315 -0.0012753  0.0238997 -0.0479023 -0.00116974  0.0259663 -0.0577519 -0.00106668  0.027768 -0.0683105 -0.000968277  0.029318 -0.0795126 -0.000874698  0.030627 -0.0912931 -0.000785649  0.03171 -0.103592 -0.000701457  0.0325797 -0.116352 -0.000620991  0.0332466 -0.12952 -0.000545204  0.0337276 -0.143044 -0.000473589  0.0340338 -0.156876 -0.000405908  0.0341787 -0.170972 -0.000342727  0.0341744 -0.185292 -0.000283569  0.0340331 -0.199796 -0.000228912  0.0337696 -0.21445 -0.000178546  0.0333946 -0.22922 -0.000131965  0.0329218 -0.244078 -8.95858e-05  0.032361 -0.258999 -5.12004e-05  0.0317223 -0.273959 -1.94311e-05  0.0310218 -0.288934 1.11759e-05  0.0302663 -0.303912 3.47793e-05  0.0294702 -0.318875 5.54025e-05  0.0286412 -0.333813 7.11083e-05  0.0277889 -0.348717 8.29399e-05  0.0269225 -0.363586 9.3013e-05  0.0260501 -0.378426 0.000101477  0 0 0  0.00407757 -0.00639611 -0.00100541  0.00868747 -0.00999743 -0.00163844  0.0133249 -0.0140576 -0.0019218  0.0178406 -0.0191448 -0.00198826  0.0220824 -0.0253149 -0.00193462  0.0259798 -0.0325098 -0.00182441  0.0295147 -0.0406463 -0.00169218  0.032691 -0.0496467 -0.00155535  0.0355219 -0.0594345 -0.00142121  0.0380228 -0.0699371 -0.00129133  0.0402092 -0.0810865 -0.00116771  0.0420954 -0.0928183 -0.00105044  0.0436996 -0.10507 -0.000938386  0.0450344 -0.117785 -0.000832677  0.0461173 -0.130908 -0.000732481  0.0469649 -0.144389 -0.000638187  0.0475917 -0.158179 -0.000549197  0.0480149 -0.172234 -0.000465065  0.0482476 -0.186513 -0.00038749  0.0483084 -0.200976 -0.000315309  0.0482094 -0.215592 -0.000248253  0.0479696 -0.230326 -0.000187457  0.0476005 -0.245148 -0.000130981  0.0471191 -0.260035 -8.20458e-05  0.0465388 -0.274963 -3.6478e-05  0.0458717 -0.28991 2.68221e-07  0.0451369 -0.304861 3.29912e-05  0.0443444 -0.319802 5.90086e-05  0.043509 -0.334723 7.89762e-05  0.0426452 -0.349615 9.37283e-05  0.0417674 -0.364477 0.000104934  0.0408869 -0.379323 0.000114471  0 0 0  -0.00447689 -0.00588059 0.00220105  -0.00886022 -0.00893067 0.00353256  -0.0134946 -0.012559 0.00411284  -0.0180926 -0.0172793 0.00422171  -0.022499 -0.0231106 0.00408483  -0.0266634 -0.0299704 0.00383562  -0.0305806 -0.0377693 0.0035474  -0.0342597 -0.0464218 0.003254  -0.0377151 -0.0558573 0.00297022  -0.040961 -0.0660066 0.0027006  -0.0440098 -0.0768067 0.00244713  -0.0468715 -0.0881983 0.00220904  -0.0495569 -0.100126 0.00198501  -0.052074 -0.112534 0.00177464  -0.0544311 -0.125372 0.00157732  -0.0566362 -0.138592 0.00139219  -0.0586977 -0.152147 0.00121841  -0.0606201 -0.165994 0.00105619  -0.0624115 -0.180091 0.000905722  -0.0640826 -0.194399 0.000768393  -0.0656378 -0.208883 0.00064075  -0.0670867 -0.22351 0.000524849  -0.0684333 -0.238248 0.00042066  -0.0696914 -0.253072 0.000326723  -0.0708656 -0.267953 0.000245899  -0.0719671 -0.282872 0.000174403  -0.0730038 -0.297807 0.000117093  -0.0739846 -0.312743 7.12574e-05  -0.0749214 -0.327664 3.52263e-05  -0.0758283 -0.342563 9.65595e-06  -0.0767138 -0.357432 -6.49691e-06  -0.077594 -0.372278 -2.09212e-05  0 0 0  -0.00196735 -0.00309735 0.00165907  -0.00559513 -0.0063707 0.00266004  -0.00930625 -0.010364 0.00309527  -0.0128279 -0.0153852 0.00317416  -0.0161642 -0.0214605 0.00306869  -0.0193288 -0.0285333 0.0028798  -0.0223286 -0.0365254 0.00266239  -0.0251725 -0.0453623 0.00244105  -0.0278683 -0.0549713 0.00222751  -0.0304263 -0.0652876 0.00202522  -0.0328517 -0.0762468 0.00183514  -0.0351526 -0.0877891 0.0016571  -0.0373348 -0.0998592 0.00148991  -0.0394032 -0.112402 0.00133273  -0.0413641 -0.125366 0.00118533  -0.0432209 -0.138703 0.00104663  -0.0449781 -0.152367 0.000917584  -0.0466409 -0.166312 0.000797302  -0.0482132 -0.1805 0.000684679  -0.0496988 -0.19489 0.00058195  -0.0511024 -0.209447 0.000487179  -0.0524309 -0.224138 0.000401646  -0.0536871 -0.238934 0.000322551  -0.0548759 -0.253806 0.000254005  -0.0560052 -0.268729 0.000193059  -0.0570788 -0.283681 0.000141621  -0.0581057 -0.298643 9.79006e-05  -0.0590887 -0.313601 6.35087e-05  -0.0600386 -0.328535 3.69549e-05  -0.0609601 -0.343441 1.78814e-05  -0.0618632 -0.358311 2.80142e-06  -0.0627558 -0.37315 -1.17123e-05  0 0 0  -0.00110365 -0.00148274 0.00111538  -0.003253 -0.00467031 0.00180483  -0.00572142 -0.00886315 0.00209427  -0.00812769 -0.0140815 0.00213775  -0.0104057 -0.0203315 0.00205863  -0.0125698 -0.0275608 0.0019277  -0.0146394 -0.0356998 0.00177938  -0.0166273 -0.044676 0.00163093  -0.0185413 -0.05442 0.00148737  -0.0203844 -0.0648654 0.00135237  -0.0221622 -0.0759493 0.00122583  -0.0238789 -0.0876122 0.00110728  -0.0255338 -0.0997962 0.000995964  -0.02713 -0.112447 0.000891596  -0.0286704 -0.125512 0.00079456  -0.0301558 -0.138944 0.000702888  -0.0315869 -0.152694 0.000617355  -0.0329657 -0.16672 0.000537574  -0.0342925 -0.18098 0.000463665  -0.0355721 -0.195437 0.000395536  -0.0368025 -0.210053 0.000334173  -0.0379863 -0.224797 0.000277549  -0.0391283 -0.239638 0.000226229  -0.0402291 -0.254549 0.000180244  -0.0412903 -0.269504 0.000141025  -0.0423167 -0.284485 0.000106812  -0.0433114 -0.29947 7.93636e-05  -0.044277 -0.314444 5.6088e-05  -0.045218 -0.329393 3.9041e-05  -0.0461376 -0.344308 2.6077e-05  -0.04704 -0.359181 1.57356e-05  -0.0479343 -0.37401 5.21541e-06  0 0 0  -0.000506833 -0.000809371 0.000552684  -0.00148998 -0.00371921 0.000908524  -0.00267515 -0.00798082 0.00106111  -0.00388545 -0.0133452 0.00108334  -0.00506246 -0.0197279 0.00104085  -0.00620878 -0.0270706 0.00097245  -0.00733715 -0.0353122 0.000896156  -0.0084573 -0.0443867 0.00082013  -0.00957441 -0.0542256 0.000748068  -0.0106906 -0.0647657 0.000679553  -0.0118052 -0.0759412 0.00061655  -0.0129184 -0.0876932 0.000557244  -0.0140293 -0.0999626 0.00050211  -0.0151373 -0.112695 0.00045076  -0.0162405 -0.125837 0.000402391  -0.0173357 -0.139339 0.0003573  -0.0184247 -0.153156 0.000315726  -0.0195034 -0.167242 0.000277162  -0.020571 -0.181558 0.00024125  -0.0216248 -0.196064 0.000208139  -0.0226669 -0.210724 0.000178635  -0.0236933 -0.225507 0.000151485  -0.0247049 -0.240381 0.000127017  -0.0256984 -0.255322 0.000106066  -0.0266776 -0.270302 8.7589e-05  -0.0276418 -0.285303 7.14362e-05  -0.0285892 -0.300305 5.86808e-05  -0.0295227 -0.315291 4.93526e-05  -0.0304432 -0.330252 4.06206e-05  -0.0313497 -0.345173 3.54052e-05  -0.0322456 -0.360049 3.01003e-05  -0.0331337 -0.37487 2.54512e-05  0 0 0  -2.08765e-05 -0.000651985 -3.14415e-05  5.10514e-05 -0.00346902 -1.96099e-05  0.000107646 -0.00776199 1.81794e-06  0.000108957 -0.0132001 1.36793e-05  5.3525e-05 -0.019657 1.69575e-05  -6.22272e-05 -0.0270668 1.57654e-05  -0.000241876 -0.0353696 1.31428e-05  -0.000489712 -0.0445035 1.09375e-05  -0.000804901 -0.0544038 8.55327e-06  -0.00118542 -0.0650039 7.24196e-06  -0.00162899 -0.0762403 6.61612e-06  -0.00213146 -0.0880513 6.94394e-06  -0.0026902 -0.100379 7.42078e-06  -0.0032984 -0.113165 8.73208e-06  -0.00395572 -0.126359 9.80496e-06  -0.00465405 -0.13991 1.12057e-05  -0.00538969 -0.153771 1.39773e-05  -0.00615954 -0.167899 1.51992e-05  -0.00695658 -0.18225 1.82092e-05  -0.00777888 -0.196789 2.0206e-05  -0.00862122 -0.211478 2.27392e-05  -0.00948 -0.226286 2.52426e-05  -0.0103517 -0.241182 2.75373e-05  -0.0112352 -0.256141 3.01301e-05  -0.0121236 -0.271137 3.25739e-05  -0.0130146 -0.286149 3.53158e-05  -0.0139093 -0.301161 3.76105e-05  -0.0148025 -0.316154 3.96669e-05  -0.0156958 -0.331119 4.32134e-05  -0.0165863 -0.346046 4.41372e-05  -0.0174713 -0.360923 4.6581e-05  -0.0183504 -0.375739 4.89354e-05  0 0 0  0.000455961 -0.000898004 -0.00061208  0.00159431 -0.00384933 -0.000940293  0.00288191 -0.00819618 -0.00105092  0.00408703 -0.0136563 -0.00105011  0.00514877 -0.0201274 -0.00100178  0.00606066 -0.0275524 -0.000936538  0.00682545 -0.0358753 -0.000866205  0.0074482 -0.0450332 -0.000795901  0.00793374 -0.0549605 -0.000728756  0.00828838 -0.0655903 -0.000663668  0.00851572 -0.0768571 -0.000602067  0.00862491 -0.0886986 -0.000543088  0.00862157 -0.101056 -0.000486791  0.0085125 -0.113872 -0.000433534  0.00830448 -0.127094 -0.000382751  0.00800705 -0.140669 -0.00033474  0.00762558 -0.154554 -0.000288576  0.00716853 -0.168702 -0.000245333  0.00664234 -0.183071 -0.000205785  0.00605416 -0.197626 -0.000168085  0.0054121 -0.212328 -0.000133187  0.00472045 -0.227146 -0.000101626  0.00399041 -0.242051 -7.1913e-05  0.00322509 -0.257015 -4.47035e-05  0.00242734 -0.272016 -2.19643e-05  0.00160766 -0.28703 -1.3411e-06  0.000767469 -0.302044 1.61529e-05  -8.53539e-05 -0.317038 3.15011e-05  -0.000950098 -0.332002 4.38392e-05  -0.00182247 -0.346926 5.39124e-05  -0.00269842 -0.361805 6.26147e-05  -0.00357127 -0.376626 7.08699e-05  0 0 0  0.00104311 -0.00161833 -0.00115728  0.00336391 -0.00489497 -0.0018132  0.00589481 -0.00928962 -0.00206244  0.00827491 -0.0147067 -0.00208482  0.0104253 -0.0211295 -0.00200215  0.0123437 -0.0285211 -0.00187588  0.0140404 -0.036825 -0.00173682  0.0155233 -0.0459741 -0.00159681  0.0168016 -0.0558973 -0.00146091  0.0178832 -0.0665275 -0.00133145  0.0187771 -0.0777965 -0.00120786  0.0194923 -0.0896416 -0.00109088  0.0200377 -0.102003 -0.000979573  0.0204238 -0.114823 -0.000873357  0.02066 -0.128048 -0.000773966  0.0207574 -0.141626 -0.000678331  0.020725 -0.155512 -0.00058955  0.0205739 -0.16966 -0.00050652  0.0203149 -0.184028 -0.000427574  0.0199568 -0.19858 -0.00035578  0.0195103 -0.213278 -0.000287741  0.0189841 -0.228092 -0.00022614  0.018388 -0.242991 -0.000169516  0.0177298 -0.257949 -0.000120252  0.01702 -0.272942 -7.56383e-05  0.0162654 -0.287952 -3.73125e-05  0.0154755 -0.302956 -3.27826e-06  0.0146582 -0.317943 2.3514e-05  0.0138159 -0.332902 4.58956e-05  0.012958 -0.34782 6.38962e-05  0.0120907 -0.362696 7.76947e-05  0.0112209 -0.377526 9.25064e-05  0 0 0  0.00200054 -0.00309801 -0.0016571  0.00565219 -0.00672734 -0.00262567  0.00937974 -0.0110401 -0.00302535  0.0128667 -0.0163174 -0.00308639  0.0160602 -0.0226347 -0.0029788  0.0189585 -0.0299559 -0.00279951  0.0215681 -0.03821 -0.00259602  0.0238973 -0.0473204 -0.00238883  0.0259556 -0.0572127 -0.00218686  0.0277525 -0.0678149 -0.00199386  0.0292993 -0.0790588 -0.00180978  0.0306089 -0.0908818 -0.00163496  0.0316908 -0.103221 -0.00146878  0.0325602 -0.11602 -0.00131121  0.0332282 -0.129223 -0.00116205  0.0337086 -0.142781 -0.00102082  0.0340133 -0.156647 -0.000889391  0.0341578 -0.170774 -0.000763953  0.0341539 -0.185121 -0.000648081  0.0340133 -0.199652 -0.000540376  0.0337493 -0.21433 -0.000441164  0.033375 -0.229123 -0.000349849  0.0329013 -0.244002 -0.000267118  0.032341 -0.258941 -0.00019294  0.0317059 -0.273915 -0.000126868  0.0310059 -0.288906 -7.02143e-05  0.0302532 -0.303894 -2.18749e-05  0.0294559 -0.318868 1.63615e-05  0.0286272 -0.333812 4.8697e-05  0.0277758 -0.348722 7.22408e-05  0.0269077 -0.363592 9.12845e-05  0.0260348 -0.378432 0.000108302  0 0 0  0.00404558 -0.00598752 -0.00216258  0.00876492 -0.00936651 -0.00344458  0.0134651 -0.0133395 -0.00398272  0.0179771 -0.0184141 -0.0040752  0.0221866 -0.024608 -0.00394109  0.02605 -0.0318392 -0.00370964  0.0295579 -0.0400193 -0.00344354  0.032717 -0.0490663 -0.00317141  0.0355384 -0.0588992 -0.00290561  0.0380335 -0.0694472 -0.00264969  0.0402148 -0.0806397 -0.00240707  0.0420997 -0.0924134 -0.00217548  0.0437002 -0.104706 -0.00195476  0.0450352 -0.11746 -0.00174603  0.0461174 -0.130618 -0.00154829  0.0469625 -0.144133 -0.00136152  0.0475881 -0.157956 -0.00118652  0.0480096 -0.17204 -0.00102061  0.0482421 -0.186348 -0.000867903  0.0483019 -0.200837 -0.000724137  0.048203 -0.215478 -0.00059256  0.0479617 -0.230232 -0.000472665  0.0475919 -0.245076 -0.000362962  0.0471096 -0.259981 -0.000264406  0.0465271 -0.274924 -0.000177294  0.0458636 -0.289886 -0.000103742  0.0451262 -0.304848 -4.05014e-05  0.0443332 -0.319798 1.06394e-05  0.0434973 -0.334726 5.06938e-05  0.0426314 -0.349621 8.07941e-05  0.0417526 -0.364484 0.000101507  0.0408711 -0.37933 0.000121325  0 0 0  -0.00454108 -0.00506025 0.00371936  -0.00904877 -0.00766798 0.00566073  -0.0136487 -0.0111637 0.00636049  -0.0181575 -0.0158981 0.00640507  -0.0224761 -0.0218044 0.00613864  -0.0265734 -0.0287607 0.00574191  -0.0304454 -0.0366582 0.00530425  -0.0340995 -0.0454084 0.00486633  -0.0375437 -0.0549354 0.00444424  -0.0407865 -0.0651694 0.00404482  -0.0438385 -0.0760508 0.00366743  -0.046707 -0.0875171 0.00331235  -0.0494019 -0.0995147 0.00297759  -0.0519279 -0.111989 0.00266351  -0.054296 -0.12489 0.00236693  -0.0565116 -0.138168 0.00208938  -0.0585821 -0.151777 0.00182915  -0.0605161 -0.165676 0.00158627  -0.0623202 -0.179819 0.00136168  -0.0639994 -0.194172 0.00115295  -0.0655632 -0.208696 0.000962839  -0.0670197 -0.223357 0.000788286  -0.068378 -0.23813 0.000631884  -0.069643 -0.252981 0.000491753  -0.0708268 -0.26789 0.00037019  -0.0719333 -0.28283 0.000264391  -0.0729749 -0.297783 0.000176996  -0.0739617 -0.312732 0.000106126  -0.0749028 -0.327666 5.34654e-05  -0.0758095 -0.34257 1.66744e-05  -0.0766943 -0.357441 -7.45058e-06  -0.0775764 -0.372287 -2.93106e-05  0 0 0  -0.00223403 -0.00251321 0.00283645  -0.0059341 -0.00533973 0.00426494  -0.00951949 -0.0091425 0.00476602  -0.0128922 -0.0141213 0.00479116  -0.0161116 -0.0202284 0.00459246  -0.0191967 -0.0273666 0.00429831  -0.02215 -0.0354396 0.00397268  -0.0249692 -0.0443613 0.00364593  -0.0276562 -0.0540555 0.0033308  -0.0302135 -0.0644534 0.00303172  -0.0326447 -0.0754906 0.00274922  -0.034955 -0.087107 0.00248404  -0.0371479 -0.0992467 0.0022341  -0.0392284 -0.111856 0.00199871  -0.041201 -0.124882 0.00177734  -0.0430691 -0.138277 0.00157018  -0.0448387 -0.151995 0.00137614  -0.0465136 -0.165991 0.00119464  -0.0480964 -0.180225 0.00102723  -0.0495942 -0.194659 0.000871405  -0.0510097 -0.209255 0.000729918  -0.0523486 -0.223983 0.000599727  -0.0536153 -0.238811 0.000483558  -0.0548153 -0.253712 0.000379473  -0.0559537 -0.26866 0.000289276  -0.0570364 -0.283635 0.000210494  -0.0580711 -0.298615 0.000144958  -0.059062 -0.313586 9.30429e-05  -0.0600166 -0.328533 5.28246e-05  -0.060941 -0.343446 2.41399e-05  -0.0618455 -0.358319 8.04663e-07  -0.0627375 -0.373157 -2.0057e-05  0 0 0  -0.00129695 -0.00101711 0.0019374  -0.00352755 -0.00382289 0.00291459  -0.005907 -0.00779334 0.00322674  -0.00818491 -0.0129204 0.00321558  -0.0103583 -0.0191616 0.00306781  -0.012452 -0.0264297 0.00286621  -0.014481 -0.0346325 0.00264743  -0.016448 -0.0436834 0.00242925  -0.0183539 -0.053506 0.00221938  -0.0201987 -0.06403 0.00202006  -0.0219823 -0.0751904 0.00183205  -0.0237055 -0.0869258 0.00165528  -0.0253699 -0.0991792 0.00148964  -0.0269772 -0.111896 0.00133312  -0.0285279 -0.125023 0.00118619  -0.0300237 -0.138512 0.00104891  -0.0314658 -0.152317 0.000920177  -0.0328548 -0.166393 0.00080137  -0.0341933 -0.1807 0.000689566  -0.0354817 -0.195199 0.000587925  -0.0367231 -0.209856 0.000493541  -0.0379157 -0.224636 0.0004085  -0.0390663 -0.239509 0.00033316  -0.0401757 -0.254449 0.000263512  -0.0412467 -0.269432 0.000203967  -0.0422804 -0.284434 0.000153586  -0.0432825 -0.299437 0.000110567  -0.0442533 -0.314425 7.67559e-05  -0.0451999 -0.329387 5.05e-05  -0.0461223 -0.34431 2.98768e-05  -0.0470269 -0.359188 1.32769e-05  -0.0479188 -0.374015 -3.8594e-06  0 0 0  -0.000594027 -0.00039956 0.000965998  -0.00162232 -0.00297117 0.00148147  -0.00276643 -0.0070042 0.00163934  -0.00390396 -0.0122513 0.00162391  -0.00501716 -0.0186006 0.00154103  -0.00611943 -0.0259644 0.00143513  -0.00722122 -0.0342569 0.00132412  -0.00832826 -0.0433986 0.00121345  -0.00944078 -0.0533124 0.00110734  -0.0105563 -0.0639271 0.0010076  -0.0116758 -0.0751785 0.000913471  -0.0127951 -0.0870018 0.000825211  -0.0139139 -0.0993402 0.000742406  -0.015029 -0.112137 0.000665113  -0.0161391 -0.125341 0.000592232  -0.0172437 -0.138901 0.000524729  -0.0183401 -0.152772 0.000461996  -0.0194266 -0.166909 0.000402942  -0.0205019 -0.181272 0.000349581  -0.0215654 -0.195821 0.000299528  -0.0226135 -0.210521 0.00025481  -0.023648 -0.225341 0.000213549  -0.0246656 -0.240249 0.000176743  -0.0256658 -0.255217 0.000144601  -0.0266514 -0.270224 0.000116527  -0.027621 -0.285248 9.23425e-05  -0.0285749 -0.300268 7.25091e-05  -0.0295122 -0.31527 5.65946e-05  -0.0304346 -0.330242 4.55379e-05  -0.0313437 -0.345174 3.56287e-05  -0.0322399 -0.360055 2.80887e-05  -0.0331266 -0.374872 1.95205e-05  0 0 0  -1.14739e-06 -0.000264108 -4.4018e-05  7.48038e-05 -0.00275728 -1.28597e-05  0.000132293 -0.00682217 9.31323e-06  0.000144184 -0.0121355 1.25766e-05  0.000103116 -0.0185504 9.65595e-06  -5.36442e-07 -0.0259727 5.72205e-06  -0.000173151 -0.0343213 2.19047e-06  -0.000416398 -0.0435185 -8.04663e-07  -0.000730634 -0.0534898 -3.33786e-06  -0.00111294 -0.0641643 -5.48363e-06  -0.00155854 -0.075474 -6.13928e-06  -0.00206518 -0.0873562 -6.22869e-06  -0.00262833 -0.0997515 -6.55651e-06  -0.00324261 -0.112603 -5.23031e-06  -0.00390375 -0.125858 -3.71039e-06  -0.00460732 -0.139467 -1.05798e-06  -0.00534916 -0.153382 4.32134e-07  -0.00612283 -0.167561 3.94881e-06  -0.00692534 -0.18196 7.01845e-06  -0.00775194 -0.196542 9.86457e-06  -0.0085988 -0.211271 1.32173e-05  -0.00946164 -0.226116 1.63913e-05  -0.0103383 -0.241046 1.88798e-05  -0.0112238 -0.256033 2.26945e-05  -0.0121157 -0.271055 2.58237e-05  -0.0130103 -0.286091 2.93851e-05  -0.0139072 -0.301121 3.25739e-05  -0.0148032 -0.316132 3.65824e-05  -0.015697 -0.331109 3.91901e-05  -0.0165877 -0.346045 4.27216e-05  -0.0174737 -0.360927 4.62085e-05  -0.0183537 -0.375741 4.72218e-05  0 0 0  0.00058046 -0.000500083 -0.00105084  0.00176963 -0.00312304 -0.00149941  0.0030205 -0.00724542 -0.00161351  0.00417799 -0.0125866 -0.00159045  0.00520515 -0.0190195 -0.00151332  0.0060966 -0.0264592 -0.00141634  0.00684959 -0.0348276 -0.00131337  0.00746608 -0.0440488 -0.00121103  0.00794852 -0.0540465 -0.00111146  0.00829995 -0.0647491 -0.00101584  0.00852633 -0.0760889 -0.000925183  0.00863361 -0.0880017 -0.000837475  0.00862825 -0.100426 -0.000754014  0.00851715 -0.113307 -0.00067471  0.00830746 -0.126589 -0.000599414  0.00800681 -0.140224 -0.00052765  0.00762296 -0.154162 -0.000460267  0.00716329 -0.168361 -0.000395849  0.00663543 -0.182778 -0.000336677  0.0060463 -0.197375 -0.000279903  0.00540233 -0.212119 -0.000229433  0.00471067 -0.226974 -0.000181451  0.00397754 -0.241912 -0.000138849  0.00320959 -0.256905 -9.92268e-05  0.00241399 -0.271934 -6.42985e-05  0.00159597 -0.286971 -3.37511e-05  0.000755072 -0.302003 -6.54161e-06  -9.84669e-05 -0.317015 1.48267e-05  -0.000962257 -0.331991 3.38852e-05  -0.00183439 -0.346926 4.9144e-05  -0.00270891 -0.361809 6.34342e-05  -0.00358105 -0.376626 7.72476e-05  0 0 0  0.00126253 -0.00116205 -0.00200401  0.00366938 -0.00409091 -0.00291133  0.00612849 -0.0082761 -0.00317705  0.00841182 -0.0135972 -0.00315471  0.0104876 -0.0199996 -0.00301225  0.0123578 -0.027418 -0.00282291  0.014026 -0.0357741 -0.00261775  0.0154946 -0.0449886 -0.00241311  0.0167662 -0.0549843 -0.00221357  0.0178455 -0.0656869 -0.00202195  0.0187389 -0.0770294 -0.00183925  0.0194534 -0.0889448 -0.00166523  0.0199991 -0.101374 -0.0014993  0.0203847 -0.114258 -0.00134182  0.0206212 -0.127543 -0.00119241  0.0207179 -0.14118 -0.00105175  0.0206864 -0.155119 -0.000918433  0.0205357 -0.169317 -0.000794068  0.0202756 -0.183734 -0.000676617  0.0199192 -0.198329 -0.000568181  0.0194726 -0.213069 -0.000469074  0.0189481 -0.22792 -0.000377476  0.0183535 -0.242852 -0.000293583  0.0176978 -0.257841 -0.000218302  0.0169897 -0.272861 -0.000152409  0.016238 -0.287892 -9.42796e-05  0.0154505 -0.302917 -4.48674e-05  0.0146358 -0.317921 -3.48687e-06  0.0137954 -0.332891 2.79397e-05  0.0129395 -0.34782 5.5179e-05  0.0120723 -0.3627 7.89464e-05  0.0112009 -0.37753 0.000100404  0 0 0  0.00227591 -0.00251293 -0.00284976  0.0060299 -0.00576437 -0.00421166  0.00967032 -0.00990862 -0.00466669  0.0130343 -0.015136 -0.00467566  0.0161307 -0.021467 -0.00448424  0.0189651 -0.0288352 -0.00421062  0.0215374 -0.0371531 -0.00390863  0.0238467 -0.0463353 -0.00360326  0.0258952 -0.0563016 -0.00330612  0.027688 -0.0669785 -0.00302008  0.0292357 -0.0782956 -0.00274687  0.0305449 -0.0901881 -0.00248638  0.0316287 -0.102595 -0.00223887  0.0324991 -0.115458 -0.00200365  0.0331689 -0.128722 -0.00178087  0.0336502 -0.142338 -0.00156999  0.0339565 -0.156257 -0.00137301  0.0341022 -0.170435 -0.00118718  0.0340993 -0.18483 -0.00101335  0.0339613 -0.199405 -0.000852332  0.033699 -0.214123 -0.000704646  0.0333259 -0.228953 -0.000567839  0.0328548 -0.243866 -0.000444755  0.032299 -0.258834 -0.000333697  0.031666 -0.273836 -0.000236109  0.0309694 -0.28885 -0.000151157  0.0302198 -0.303858 -7.96318e-05  0.0294278 -0.318847 -2.00123e-05  0.0286002 -0.333804 2.62856e-05  0.0277505 -0.348722 6.24359e-05  0.0268838 -0.363596 9.05842e-05  0.0260119 -0.378436 0.000116557  0 0 0  0.00415172 -0.00519329 -0.00362755  0.0090546 -0.00818962 -0.00552291  0.0137478 -0.0120578 -0.00617653  0.0181742 -0.017145 -0.00620314  0.0222982 -0.0233955 -0.00595099  0.0260988 -0.0307004 -0.00558674  0.029568 -0.0389597 -0.00518622  0.0327044 -0.0480851 -0.00478068  0.0355135 -0.0579972 -0.00438645  0.0380014 -0.0686214 -0.00400692  0.0401814 -0.079888 -0.003645  0.0420651 -0.0917312 -0.00329933  0.043667 -0.10409 -0.00297031  0.0449996 -0.116907 -0.00265807  0.0460817 -0.130127 -0.00236374  0.0469284 -0.143699 -0.00208361  0.0475535 -0.157575 -0.0018204  0.0479751 -0.17171 -0.00157416  0.0482056 -0.186066 -0.00134514  0.0482671 -0.200599 -0.00113119  0.0481687 -0.215278 -0.000934467  0.0479271 -0.230072 -0.000753924  0.04756 -0.244948 -0.000592053  0.0470796 -0.259883 -0.000443637  0.0464995 -0.274853 -0.000315756  0.045836 -0.289837 -0.00020276  0.0451009 -0.30482 -0.000108466  0.0443096 -0.319785 -3.1963e-05  0.0434737 -0.334723 2.77609e-05  0.0426068 -0.349625 7.0855e-05  0.0417271 -0.364491 0.00010322  0.040843 -0.379335 0.000129074  0 0 0  -0.00540745 -0.00357132 0.00601941  -0.0095582 -0.00571768 0.00805444  -0.0137855 -0.00910725 0.00862685  -0.0180372 -0.013917 0.00852833  -0.0221952 -0.0199642 0.00812227  -0.0262031 -0.0270748 0.00758915  -0.0300345 -0.0351224 0.00701699  -0.0336764 -0.044012 0.0064465  -0.0371242 -0.0536668 0.0058972  -0.0403816 -0.0640214 0.00537296  -0.0434508 -0.0750126 0.00487658  -0.0463405 -0.0865839 0.00440682  -0.0490555 -0.0986795 0.0039643  -0.051604 -0.111245 0.0035456  -0.0539942 -0.124233 0.00315218  -0.056231 -0.137593 0.0027824  -0.0583253 -0.151278 0.00243572  -0.0602782 -0.165245 0.00211315  -0.0621033 -0.179454 0.00181346  -0.063803 -0.193866 0.00153594  -0.065388 -0.208444 0.00128152  -0.066864 -0.223158 0.00104941  -0.0682414 -0.237974 0.000842683  -0.069525 -0.252866 0.000656337  -0.0707254 -0.267807 0.000491001  -0.071851 -0.282778 0.000351012  -0.0729091 -0.297757 0.00023362  -0.07391 -0.312725 0.000139207  -0.0748627 -0.327671 6.75991e-05  -0.0757799 -0.342583 1.86861e-05  -0.0766683 -0.357456 -1.20997e-05  -0.0775506 -0.3723 -3.72902e-05  0 0 0  -0.00345715 -0.00144219 0.00464676  -0.00670679 -0.00365726 0.00602896  -0.00977093 -0.00728816 0.00639315  -0.0128106 -0.0122722 0.00632428  -0.0158445 -0.0184633 0.00604191  -0.0188357 -0.0257186 0.0056624  -0.0217475 -0.0339191 0.00524695  -0.0245562 -0.0429687 0.00482777  -0.0272487 -0.052785 0.00441992  -0.0298197 -0.0632986 0.0040298  -0.0322689 -0.0744458 0.00365848  -0.0345991 -0.0861655 0.0033075  -0.0368128 -0.0984033 0.00297676  -0.0389144 -0.111103 0.00266459  -0.0409082 -0.124216 0.00236964  -0.0427984 -0.137692 0.00209378  -0.0445883 -0.151485 0.00183605  -0.0462847 -0.165551 0.00159433  -0.0478871 -0.179851 0.00137048  -0.0494039 -0.194343 0.00116509  -0.0508387 -0.208996 0.000973463  -0.0521967 -0.223773 0.000802323  -0.0534821 -0.238646 0.000646301  -0.0546994 -0.253586 0.000508197  -0.0558548 -0.26857 0.000385828  -0.0569544 -0.283573 0.000282168  -0.0580046 -0.29858 0.00019493  -0.0590103 -0.31357 0.000124007  -0.0599787 -0.328531 6.95288e-05  -0.0609126 -0.343453 3.02345e-05  -0.061821 -0.358331 -4.47035e-08  -0.0627136 -0.373172 -2.88561e-05  0 0 0  -0.0020957 4.29153e-06 0.0032254  -0.00405343 -0.00231984 0.00410372  -0.0060831 -0.00607908 0.00427273  -0.00812283 -0.0111575 0.00419335  -0.0101574 -0.0174444 0.00400254  -0.0121785 -0.0248045 0.00375567  -0.014173 -0.0331194 0.0034846  -0.0161299 -0.0422883 0.00320954  -0.0180379 -0.0522283 0.00294003  -0.019892 -0.0628657 0.00268094  -0.0216889 -0.0741342 0.00243487  -0.0234272 -0.0859723 0.0022019  -0.0251086 -0.0983229 0.00198145  -0.0267322 -0.111131 0.00177457  -0.0283005 -0.124343 0.0015789  -0.0298128 -0.137914 0.00139603  -0.0312724 -0.151794 0.00122489  -0.0326769 -0.16594 0.00106606  -0.0340333 -0.180313 0.00091771  -0.0353372 -0.194872 0.000781469  -0.036593 -0.209585 0.00065577  -0.0378022 -0.224414 0.000542931  -0.0389686 -0.239333 0.000439405  -0.0400918 -0.254313 0.000349984  -0.0411735 -0.269331 0.00027027  -0.0422199 -0.284363 0.000201739  -0.0432355 -0.299392 0.00014478  -0.0442171 -0.314402 9.81465e-05  -0.045172 -0.329379 6.30021e-05  -0.0461018 -0.344314 3.44962e-05  -0.0470088 -0.3592 1.05724e-05  -0.0478983 -0.37403 -1.46776e-05  0 0 0  -0.00101128 0.000585556 0.0016169  -0.00189151 -0.00151086 0.00207797  -0.0028359 -0.00533459 0.0021452  -0.00383976 -0.0105261 0.00208784  -0.00487554 -0.016908 0.00198605  -0.00593483 -0.0243522 0.00186238  -0.00701582 -0.0327482 0.00172877  -0.00811505 -0.0420015 0.00159205  -0.00922811 -0.0520285 0.00145824  -0.0103501 -0.0627552 0.00132944  -0.0114776 -0.0741126 0.00120591  -0.0126082 -0.0860381 0.00109071  -0.0137372 -0.0984727 0.000981167  -0.0148656 -0.111361 0.000877887  -0.0159886 -0.12465 0.00078173  -0.0171055 -0.138292 0.000691965  -0.018213 -0.152238 0.000608042  -0.0193102 -0.166446 0.000530168  -0.0203986 -0.180874 0.000458002  -0.021472 -0.195483 0.000391684  -0.0225315 -0.21024 0.000331283  -0.0235767 -0.22511 0.000276402  -0.0246058 -0.240063 0.000227712  -0.0256152 -0.255074 0.000184841  -0.0266104 -0.270117 0.000146657  -0.027586 -0.28517 0.000114754  -0.0285473 -0.300217 8.81851e-05  -0.0294909 -0.315241 6.7018e-05  -0.0304198 -0.330231 5.08949e-05  -0.0313323 -0.345175 3.69102e-05  -0.0322311 -0.360067 2.59951e-05  -0.0331178 -0.37489 1.13249e-05  0 0 0  -5.50225e-05 0.000699818 -3.50624e-05  6.1363e-05 -0.00131598 -1.76355e-05  0.000165552 -0.00516883 -1.96025e-05  0.000210345 -0.0104254 -2.30223e-05  0.000188768 -0.0168696 -2.28062e-05  9.68575e-05 -0.0243677 -2.19494e-05  -6.86049e-05 -0.0328146 -2.12714e-05  -0.000309944 -0.0421204 -2.2009e-05  -0.000624299 -0.0522022 -2.28807e-05  -0.00100911 -0.0629857 -2.37823e-05  -0.00145972 -0.0744006 -2.38791e-05  -0.00197256 -0.0863842 -2.34619e-05  -0.0025419 -0.0988752 -2.2471e-05  -0.00316167 -0.111818 -2.1264e-05  -0.00383055 -0.125159 -1.91629e-05  -0.00454187 -0.138848 -1.58995e-05  -0.00529075 -0.15284 -1.31503e-05  -0.00607228 -0.167089 -9.15676e-06  -0.00688148 -0.181554 -5.60284e-06  -0.00771475 -0.196197 -1.02073e-06  -0.00856853 -0.210983 2.563e-06  -0.00943804 -0.225879 6.16908e-06  -0.0103188 -0.240854 1.09822e-05  -0.01121 -0.255884 1.56611e-05  -0.0121064 -0.270943 1.91331e-05  -0.0130041 -0.28601 2.42144e-05  -0.0139039 -0.301066 2.79546e-05  -0.0148029 -0.316098 3.20077e-05  -0.0156991 -0.331094 3.656e-05  -0.0165904 -0.346045 4.06355e-05  -0.017477 -0.360938 4.50239e-05  -0.0183582 -0.375758 4.72814e-05  0 0 0  0.000876442 0.000449359 -0.00168124  0.00200462 -0.00169754 -0.00209986  0.0031532 -0.00560272 -0.00217152  0.0042451 -0.0108861 -0.00212104  0.0052371 -0.017346 -0.00201949  0.00611031 -0.0248591 -0.00189552  0.00685591 -0.0333233 -0.00176333  0.00746953 -0.0426504 -0.00163102  0.00795162 -0.0527563 -0.00150035  0.00830269 -0.0635672 -0.00137386  0.00852871 -0.0750115 -0.00125375  0.00863445 -0.0870249 -0.00113693  0.00862646 -0.0995455 -0.00102635  0.00851381 -0.112517 -0.000920147  0.00830173 -0.125885 -0.000819959  0.0079987 -0.139599 -0.000724189  0.00761199 -0.153614 -0.000634134  0.00714922 -0.167884 -0.000548683  0.0066185 -0.182367 -0.000468776  0.00602627 -0.197027 -0.000396013  0.00538135 -0.211825 -0.000326887  0.00468946 -0.226733 -0.000263974  0.00395489 -0.241717 -0.000206806  0.00318861 -0.256754 -0.000154778  0.00239372 -0.271817 -0.000106454  0.00157213 -0.286889 -6.70776e-05  0.000732899 -0.301949 -3.22312e-05  -0.000117779 -0.31698 -2.61515e-06  -0.000978947 -0.331976 2.27243e-05  -0.00185037 -0.346924 4.41149e-05  -0.00272655 -0.361818 6.31884e-05  -0.00359988 -0.376641 8.38861e-05  0 0 0  0.00189579 -0.000202 -0.00327119  0.00414231 -0.00266159 -0.00409757  0.00635839 -0.00663167 -0.00426231  0.00848216 -0.011895 -0.0041829  0.0104681 -0.0183254 -0.00399446  0.0122927 -0.0258179 -0.00375476  0.0139405 -0.0342708 -0.00349466  0.0154026 -0.0435911 -0.00323018  0.0166725 -0.0536954 -0.00296958  0.0177534 -0.0645056 -0.00271842  0.0186487 -0.0759515 -0.00247683  0.0193663 -0.0879662 -0.00224496  0.0199143 -0.10049 -0.00202508  0.0203024 -0.113465 -0.00181518  0.0205406 -0.126837 -0.00161629  0.0206389 -0.140553 -0.00142915  0.0206077 -0.154569 -0.00125081  0.0204606 -0.168838 -0.00108407  0.0202007 -0.183322 -0.000929743  0.0198467 -0.197979 -0.000786163  0.0194046 -0.212775 -0.000652418  0.0188818 -0.227678 -0.000530511  0.018291 -0.242658 -0.000419132  0.0176392 -0.257689 -0.000319459  0.0169361 -0.272746 -0.000231437  0.0161893 -0.287811 -0.000154413  0.0154071 -0.302865 -8.8796e-05  0.014596 -0.317889 -3.39374e-05  0.0137634 -0.332878 1.06096e-05  0.0129106 -0.347818 4.62234e-05  0.0120454 -0.362707 7.96095e-05  0.0111718 -0.377539 0.000112824  0 0 0  0.00322211 -0.00143874 -0.00472859  0.00673029 -0.00424945 -0.00596576  0.00999388 -0.00820369 -0.0062874  0.0131083 -0.0133948 -0.00621544  0.0160656 -0.0197721 -0.00595292  0.018831 -0.0272272 -0.00560094  0.0213729 -0.0356488 -0.00521279  0.0236715 -0.0449405 -0.00481702  0.0257195 -0.0550174 -0.00442828  0.0275171 -0.0658006 -0.00405118  0.0290681 -0.0772218 -0.00369006  0.0303837 -0.0892133 -0.00334407  0.0314734 -0.101714 -0.00301452  0.0323483 -0.114668 -0.00270151  0.0330229 -0.128018 -0.00240534  0.0335114 -0.141714 -0.00212499  0.033824 -0.155709 -0.00185934  0.0339732 -0.169958 -0.00161292  0.0339756 -0.184421 -0.00138316  0.0338442 -0.199057 -0.00116809  0.0335891 -0.213832 -0.00096976  0.0332229 -0.228715 -0.000789888  0.0327587 -0.243675 -0.000625424  0.0322092 -0.258687 -0.000477418  0.0315845 -0.273727 -0.000347219  0.0308979 -0.288774 -0.000233874  0.0301585 -0.303811 -0.000138417  0.0293736 -0.318822 -5.88745e-05  0.0285563 -0.333796 4.03821e-06  0.0277133 -0.348724 5.14984e-05  0.0268517 -0.363603 9.04873e-05  0.0259786 -0.378446 0.000125833  0 0 0  0.00544249 -0.00378901 -0.00583455  0.0099403 -0.00639492 -0.00787226  0.0141448 -0.0101745 -0.00839783  0.0182694 -0.0153078 -0.00829863  0.0222337 -0.0216572 -0.00792833  0.0259563 -0.0290782 -0.007443  0.0293914 -0.0374562 -0.00691756  0.0325154 -0.0466983 -0.00638801  0.035324 -0.0567228 -0.00586876  0.0378169 -0.0674552 -0.00536662  0.0400023 -0.0788245 -0.00488667  0.0418925 -0.0907672 -0.00442697  0.0434999 -0.103221 -0.00398907  0.0448399 -0.116127 -0.00357337  0.0459278 -0.129432 -0.00317929  0.0467794 -0.143085 -0.00280708  0.0474105 -0.157036 -0.00245608  0.0478375 -0.171243 -0.00212801  0.0480785 -0.185664 -0.00182239  0.0481429 -0.200261 -0.00153872  0.0480509 -0.214997 -0.00127583  0.0478163 -0.229842 -0.00103533  0.0474575 -0.244766 -0.000817761  0.046984 -0.259746 -0.000623703  0.0464127 -0.274754 -0.000451341  0.0457594 -0.289771 -0.000301644  0.0450342 -0.30478 -0.000175394  0.0442529 -0.319768 -7.13542e-05  0.0434275 -0.334723 9.0152e-06  0.0425713 -0.349632 6.70329e-05  0.0416946 -0.364502 0.00010635  0.0408134 -0.379346 0.000135966  0 0 0  -0.000687778 -0.0007293 -0.00211453  -0.000736479 -0.00135667 -0.0023855  -0.00217591 -0.000908252 -0.00390708  -0.00179954 -0.000392184 -0.00333881  -0.0025847 -0.00187187 -0.00389874  -0.00075423 -0.00161185 -0.00187773  -0.00292162 -0.00357567 -0.00349694  -0.00216217 -0.00318787 -0.00215286  0 0 0  -0.00214892 -0.00291995 -0.00266528  0 0 0  0 0 0  -0.000605099 -0.000935279 -0.00158966  0 0 0  -0.00482439 -0.00425871 -0.00505459  -0.00321083 -0.00203931 -0.00396919  -0.0033219 -0.00298631 -0.00452065  -0.00450533 -0.00217637 -0.00556135  -0.00442293 -0.00308099 -0.00471711  -0.00559056 -0.00411212 -0.00549889  -0.00637962 -0.00322238 -0.00634778  -0.00509904 -0.00227425 -0.00546193  -0.00619994 -0.00451694 -0.00530791  -0.00513902 -0.00482696 -0.00447744  -0.00729364 -0.00635851 -0.00511062  -0.00670037 -0.00598667 -0.00511825  -0.00708266 -0.00515051 -0.00624704  -0.00411798 -0.00373568 -0.00387436  -0.00932886 -0.00659681 -0.00703549  -0.00784904 -0.00417346 -0.00726402  -0.00762962 -0.00549193 -0.00613916  -0.00819367 -0.00449444 -0.00712264  -0.00794506 -0.0062393 -0.00553429  -0.00966811 -0.00712908 -0.00647414  -0.00995907 -0.00610869 -0.00732493  -0.00819233 -0.00527034 -0.0062505  -0.00960684 -0.00825863 -0.00568211  -0.00944647 -0.00802006 -0.0054915  -0.0114874 -0.0100177 -0.00565261  -0.0113716 -0.00908256 -0.00628984  -0.0115907 -0.00813249 -0.00742888  -0.00780901 -0.00704249 -0.00470549  -0.01379 -0.0101078 -0.00761521  -0.0119117 -0.0070361 -0.00842619  -0.0115969 -0.00911408 -0.00663137  -0.0117598 -0.0080624 -0.00757265  -0.0112515 -0.0105881 -0.00567389  -0.0135334 -0.0113942 -0.00665128  -0.0135398 -0.0103565 -0.00751078  -0.011253 -0.0095831 -0.00639975  -0.0128524 -0.0132295 -0.00563133  -0.0134996 -0.0122967 -0.00571007  -0.015443 -0.0148893 -0.0056603  -0.0159633 -0.0132823 -0.00654036  -0.0160193 -0.0123419 -0.00763559  -0.0112592 -0.0114381 -0.00488377  -0.0181669 -0.0149124 -0.00755215  -0.0160475 -0.0112602 -0.00863516  -0.0154079 -0.0140047 -0.00658512  -0.0153468 -0.0129775 -0.00748336  -0.014438 -0.0161532 -0.00551188  -0.0172725 -0.0168919 -0.00645614  -0.0171259 -0.0158951 -0.00730002  -0.0143054 -0.0151763 -0.00622809  -0.0159932 -0.0193628 -0.00537586  -0.0173479 -0.0177583 -0.00556254  -0.0192043 -0.0209055 -0.00541729  -0.0203698 -0.0186568 -0.00636715  -0.0203179 -0.0177648 -0.00740123  -0.014531 -0.0169923 -0.00475854  -0.0223908 -0.0208923 -0.00719941  -0.0201822 -0.0167473 -0.00837791  -0.0190881 -0.0200671 -0.00628519  -0.0189088 -0.0191007 -0.00713599  -0.0175279 -0.0228277 -0.00520575  -0.0208799 -0.023497 -0.00609112  -0.0206577 -0.0225661 -0.00690258  -0.0173263 -0.0219072 -0.00589681  -0.0190324 -0.0265448 -0.00502896  -0.0210165 -0.0243092 -0.00525093  -0.0227869 -0.0279569 -0.00506723  -0.0245605 -0.0251144 -0.00600934  -0.0244446 -0.0242873 -0.00697565  -0.0176683 -0.0236264 -0.00449437  -0.0264303 -0.0279168 -0.00672603  -0.0242271 -0.0233473 -0.00790811  -0.0226269 -0.0271765 -0.00587642  -0.0223925 -0.0262823 -0.00667608  -0.0205128 -0.0304954 -0.00484216  -0.0243424 -0.0310916 -0.00566053  -0.0240869 -0.030233 -0.00642717  -0.0202798 -0.0296419 -0.00549626  -0.0219611 -0.0346687 -0.00465  -0.0245104 -0.031843 -0.00487667  -0.0261934 -0.0359456 -0.0046823  -0.0285317 -0.0325541 -0.00557965  -0.0283817 -0.0317947 -0.00647593  -0.0206785 -0.0312413 -0.00417507  -0.0302711 -0.0358789 -0.00621617  -0.0281267 -0.0309335 -0.00735557  -0.026014 -0.0352249 -0.00543308  -0.0257575 -0.0344053 -0.00617778  -0.023382 -0.039057 -0.00446272  -0.0276499 -0.0395767 -0.00521505  -0.0273853 -0.0387904 -0.00593078  -0.0231395 -0.0382721 -0.0050751  -0.024771 -0.0436434 -0.00427103  -0.0278314 -0.0402672 -0.00448918  -0.0294281 -0.0447829 -0.00429606  -0.0322843 -0.0408857 -0.00513572  -0.0321192 -0.0401899 -0.00596488  -0.0235592 -0.0397449 -0.00384349  -0.0339108 -0.0446889 -0.00570786  -0.0318537 -0.0394063 -0.00678301  -0.0292432 -0.0441227 -0.00498998  -0.0289824 -0.0433741 -0.00567937  -0.0261303 -0.0484272 -0.004089  -0.0307977 -0.0488694 -0.0047785  -0.0305357 -0.0481532 -0.00544131  -0.0258884 -0.0477092 -0.00465763  -0.027457 -0.0533895 -0.00390387  -0.0309813 -0.0495014 -0.00410992  -0.0324939 -0.0543945 -0.00392431  -0.0358268 -0.0500294 -0.00470239  -0.0356575 -0.0493956 -0.00546432  -0.026309 -0.0490585 -0.00351775  -0.0373505 -0.0542705 -0.00521767  -0.0353928 -0.0486814 -0.00622082  -0.03231 -0.053792 -0.00456142  -0.0320539 -0.0531099 -0.00519514  -0.0287535 -0.0585325 -0.00373101  -0.0337851 -0.0588985 -0.00435972  -0.0335312 -0.0582463 -0.00497007  -0.0285195 -0.0578785 -0.00425351  -0.0300186 -0.0638372 -0.00355458  -0.0339651 -0.0594738 -0.00374693  -0.0353974 -0.0647129 -0.00357145  -0.0391674 -0.059914 -0.00428724  -0.0389996 -0.0593375 -0.00498629  -0.0289289 -0.0591099 -0.00320619  -0.040597 -0.0645572 -0.00475168  -0.0387428 -0.0586897 -0.0056808  -0.035219 -0.0641636 -0.00415397  -0.0349728 -0.0635441 -0.00473452  -0.031253 -0.0693062 -0.00339067  -0.0366156 -0.0695978 -0.00396407  -0.0363728 -0.0690051 -0.00452065  -0.0310293 -0.0687124 -0.00386846  -0.0324566 -0.0749232 -0.00322306  -0.0367893 -0.0701207 -0.00340438  -0.0381432 -0.0756737 -0.00323862  -0.0423135 -0.0704764 -0.00389647  -0.0421511 -0.0699525 -0.00453293  -0.0314224 -0.0698319 -0.0029124  -0.0436555 -0.0754864 -0.00431144  -0.041905 -0.0693655 -0.00516677  -0.0379713 -0.0751747 -0.00376809  -0.0377382 -0.0746146 -0.00429606  -0.0336306 -0.0806877 -0.00306952  -0.0392917 -0.080906 -0.00358903  -0.0390623 -0.0803715 -0.00409639  -0.0334187 -0.080151 -0.00350392  -0.0347757 -0.0865854 -0.00291169  -0.039458 -0.0813801 -0.00308156  -0.0407357 -0.0872164 -0.00292492  -0.0452721 -0.0816543 -0.00352752  -0.0451167 -0.0811809 -0.00410426  -0.0337926 -0.0811639 -0.00263494  -0.0465323 -0.0869992 -0.00389481  -0.0448841 -0.0806505 -0.00468063  -0.0405728 -0.0867661 -0.00340497  -0.0403531 -0.0862615 -0.00388348  -0.0358907 -0.092618 -0.00276649  -0.0418205 -0.0927667 -0.00323617  -0.0416044 -0.0922857 -0.00369477  -0.0356907 -0.0921348 -0.00316024  -0.0369769 -0.0987687 -0.002617  -0.0419781 -0.0931937 -0.00277722  -0.0431838 -0.0992872 -0.00262964  -0.0480529 -0.0933917 -0.00317967  -0.0479062 -0.0929639 -0.00370085  -0.0360436 -0.0930472 -0.00237387  -0.0492349 -0.0990395 -0.00350451  -0.0476871 -0.0924867 -0.00422192  -0.0430307 -0.098882 -0.00306189  -0.0428226 -0.0984294 -0.00349355  -0.0380358 -0.10504 -0.00248122  -0.0442071 -0.105123 -0.00290322  -0.0440037 -0.104693 -0.00331438  -0.0378474 -0.104607 -0.00283492  -0.0390676 -0.111418 -0.00234044  -0.044354 -0.105507 -0.00249046  -0.0454919 -0.111831 -0.002352  -0.0506619 -0.105632 -0.00285339  -0.0505241 -0.105248 -0.00332093  -0.0381805 -0.105426 -0.00212848  -0.0517721 -0.111556 -0.0031352  -0.0503191 -0.104822 -0.00378954  -0.0453485 -0.111468 -0.00273848  -0.0451539 -0.111064 -0.00312543  -0.0400721 -0.117903 -0.00221241  -0.0464578 -0.117925 -0.00258923  -0.0462668 -0.117541 -0.00295663  -0.0398955 -0.117518 -0.00252736  -0.0410503 -0.124483 -0.00207949  -0.0465956 -0.118268 -0.00222141  -0.0476661 -0.124796 -0.00209117  -0.0531077 -0.118323 -0.00254589  -0.0529797 -0.117982 -0.00296247  -0.0402061 -0.118248 -0.0018965  -0.0541494 -0.124495 -0.00278795  -0.0527881 -0.117602 -0.00338101  -0.047532 -0.124472 -0.00243533  -0.0473511 -0.124115 -0.00277948  -0.042002 -0.131157 -0.00195944  -0.0485773 -0.131122 -0.00229561  -0.0483994 -0.130782 -0.00262058  -0.0418389 -0.130816 -0.00224066  -0.0429288 -0.137914 -0.00183594  -0.0487044 -0.131424 -0.00196785  -0.0497128 -0.138134 -0.00184542  -0.0553991 -0.131417 -0.00225693  -0.05528 -0.131113 -0.00262606  -0.0421269 -0.131463 -0.0016796  -0.0563747 -0.13781 -0.00246239  -0.055101 -0.13078 -0.00299704  -0.0495884 -0.137848 -0.00215077  -0.0494192 -0.137533 -0.0024544  -0.0438313 -0.144754 -0.00172424  -0.050571 -0.144665 -0.00201976  -0.0504081 -0.144367 -0.00230539  -0.043679 -0.144453 -0.00197077  -0.044708 -0.151665 -0.00160682  -0.0506911 -0.144931 -0.00173271  -0.0516372 -0.151798 -0.00161761  -0.0575423 -0.144865 -0.00198531  -0.0574331 -0.144599 -0.00231183  -0.0439463 -0.145024 -0.00147688  -0.0584548 -0.151454 -0.00215769  -0.0572662 -0.144305 -0.00263774  -0.0515227 -0.151548 -0.00188375  -0.0513668 -0.151272 -0.00214994  -0.0455616 -0.158648 -0.00150275  -0.0524471 -0.15851 -0.00176191  -0.0522962 -0.15825 -0.00201201  -0.0454216 -0.158388 -0.00171936  -0.0463924 -0.165693 -0.00139463  -0.0525556 -0.158742 -0.00151026  -0.0534461 -0.165747 -0.00140423  -0.0595436 -0.158621 -0.00173271  -0.059443 -0.158389 -0.00201678  -0.0456669 -0.158884 -0.00128716  -0.0603974 -0.165383 -0.00187409  -0.0592909 -0.158134 -0.00229871  -0.05334 -0.165529 -0.00163496  -0.0531967 -0.16529 -0.00186706  -0.0471995 -0.172799 -0.00129712  -0.0542078 -0.172614 -0.00152171  -0.0540695 -0.172391 -0.00173795  -0.0470707 -0.172572 -0.00148368  -0.0479856 -0.179956 -0.00119758  -0.0543082 -0.172816 -0.00130576  -0.0551426 -0.179938 -0.00120646  -0.0614102 -0.172643 -0.00149709  -0.0613182 -0.172442 -0.00174284  -0.0472968 -0.173003 -0.00111181  -0.0622096 -0.179555 -0.00160944  -0.061178 -0.172226 -0.00198781  -0.0550473 -0.179748 -0.00140452  -0.0549154 -0.179545 -0.00160325  -0.0487497 -0.187164 -0.00110698  -0.0558617 -0.186939 -0.00130045  -0.0557349 -0.18675 -0.00148368  -0.0486317 -0.186971 -0.00126755  -0.0494928 -0.194416 -0.00101507  -0.0559525 -0.187112 -0.00111467  -0.0567358 -0.19433 -0.00102347  -0.0631521 -0.186895 -0.00128043  -0.0630677 -0.186724 -0.00148845  -0.0488381 -0.187341 -0.000948548  -0.0638986 -0.193933 -0.00136614  -0.0629411 -0.186538 -0.00169802  -0.0566494 -0.19417 -0.00119269  -0.0565295 -0.193999 -0.00135958  -0.0502143 -0.201709 -0.000932455  -0.0574129 -0.201447 -0.00109553  -0.0572989 -0.201288 -0.00125027  -0.0501075 -0.201546 -0.0010674  -0.050916 -0.209036 -0.000847697  -0.0574946 -0.201593 -0.000939846  -0.0582294 -0.208891 -0.000855267  -0.0647733 -0.201336 -0.00107998  -0.0646985 -0.20119 -0.00125515  -0.0502937 -0.201858 -0.000798702  -0.0654728 -0.208482 -0.00114322  -0.0645823 -0.201037 -0.00143003  -0.0581517 -0.208756 -0.000996828  -0.0580437 -0.208613 -0.00113678  -0.0515993 -0.216397 -0.000772595  -0.0588694 -0.216103 -0.000908971  -0.0587685 -0.215971 -0.00103903  -0.0515034 -0.216263 -0.000885844  -0.0522637 -0.223786 -0.000696301  -0.0589423 -0.216225 -0.000780165  -0.0596318 -0.223586 -0.000703871  -0.0662849 -0.215931 -0.000896633  -0.0662169 -0.215809 -0.0010426  -0.0516717 -0.216522 -0.000661731  -0.0669374 -0.223166 -0.000941277  -0.0661147 -0.215683 -0.00118649  -0.059562 -0.223475 -0.000820518  -0.0594656 -0.223357 -0.000935078  -0.0529101 -0.231199 -0.000629544  -0.060236 -0.230875 -0.00074029  -0.0601435 -0.230768 -0.000845432  -0.0528252 -0.23109 -0.000721097  -0.0535383 -0.238633 -0.000558615  -0.0603001 -0.230976 -0.000634611  -0.0609467 -0.238386 -0.000566781  -0.0676906 -0.23065 -0.000731051  -0.0676312 -0.230552 -0.000847936  -0.0529721 -0.231302 -0.000537097  -0.0683033 -0.237956 -0.000756264  -0.0675387 -0.230448 -0.000966191  -0.0608852 -0.238295 -0.000659943  -0.0608015 -0.238203 -0.000751495  -0.0541506 -0.246086 -0.000499129  -0.0615194 -0.245737 -0.000588894  -0.0614398 -0.245652 -0.000673056  -0.054076 -0.245999 -0.000573158  -0.0547466 -0.25355 -0.000438213  -0.0615757 -0.245817 -0.000505388  -0.0621836 -0.253264 -0.000443757  -0.0690014 -0.245465 -0.000583172  -0.0689497 -0.245385 -0.000675678  -0.0542052 -0.246169 -0.00042665  -0.0695775 -0.252826 -0.000594258  -0.0688689 -0.245304 -0.000767589  -0.0621302 -0.25319 -0.000517488  -0.0620582 -0.253118 -0.000590205  -0.0553257 -0.261028 -0.000383496  -0.062726 -0.260658 -0.000455141  -0.0626583 -0.260592 -0.000520349  -0.055264 -0.260962 -0.000442743  -0.0558939 -0.268514 -0.000331402  -0.0627747 -0.260721 -0.000390172  -0.0633476 -0.26819 -0.00033778  -0.0702248 -0.260345 -0.000452697  -0.0701804 -0.260282 -0.000521302  -0.0553725 -0.261095 -0.00032866  -0.0707667 -0.267749 -0.00045085  -0.0701098 -0.260222 -0.000594616  -0.0633016 -0.268133 -0.00039196  -0.063241 -0.26808 -0.000446081  -0.0564454 -0.276004 -0.00028646  -0.0638654 -0.275617 -0.000339389  -0.0638065 -0.275569 -0.000387192  -0.056391 -0.275956 -0.000327945  -0.056983 -0.283501 -0.000239611  -0.0639052 -0.275665 -0.000290692  -0.0644476 -0.283147 -0.000245988  -0.0713682 -0.27527 -0.000338793  -0.0713315 -0.275223 -0.000389814  -0.0564849 -0.276057 -0.000243723  -0.0718813 -0.282702 -0.000328898  -0.0712721 -0.275179 -0.000442624  -0.0644095 -0.283103 -0.000285506  -0.064358 -0.283065 -0.000324965  -0.0575092 -0.290996 -0.000201106  -0.0649421 -0.290592 -0.000241041  -0.0648944 -0.29056 -0.000276566  -0.0574651 -0.290961 -0.000233173  -0.0580258 -0.298492 -0.000163674  -0.064975 -0.290628 -0.000207722  -0.06549 -0.298113 -0.000170529  -0.0724425 -0.290215 -0.000241816  -0.0724108 -0.290182 -0.000277162  -0.0575418 -0.291035 -0.000172317  -0.0729315 -0.297665 -0.000226855  -0.0723636 -0.290152 -0.000313401  -0.065459 -0.298081 -0.000196576  -0.0654159 -0.298056 -0.000221133  -0.0585279 -0.305982 -0.000132918  -0.0659637 -0.305567 -0.000159502  -0.0659263 -0.305545 -0.000182271  -0.0584924 -0.305959 -0.000152826  -0.0590222 -0.31347 -0.000102162  -0.0659928 -0.305593 -0.000139415  -0.0664816 -0.313073 -0.000108957  -0.0734551 -0.305168 -0.000163198  -0.0734291 -0.305144 -0.000183582  -0.0585542 -0.306011 -0.000113189  -0.0739236 -0.312623 -0.000143647  -0.0733922 -0.305125 -0.00020802  -0.066457 -0.31305 -0.000124693  -0.0664246 -0.313035 -0.000140548  -0.0595064 -0.320949 -7.87973e-05  -0.0669405 -0.320526 -9.70364e-05  -0.0669127 -0.320512 -0.000110507  -0.0594785 -0.320935 -9.15527e-05  -0.0599825 -0.328422 -5.61476e-05  -0.0669625 -0.320542 -8.55923e-05  -0.0674329 -0.32801 -6.27041e-05  -0.0744176 -0.320108 -0.000101566  -0.074398 -0.32009 -0.000113249  -0.0595262 -0.32097 -6.71744e-05  -0.0748656 -0.327559 -8.39233e-05  -0.0743692 -0.320082 -0.000125647  -0.0674138 -0.327993 -6.99759e-05  -0.0673878 -0.327986 -7.62939e-05  -0.0604513 -0.335883 -3.75509e-05  -0.0678792 -0.335453 -5.01871e-05  -0.0678577 -0.335444 -5.61476e-05  -0.0604293 -0.335874 -4.41074e-05  -0.0609117 -0.343337 -2.07424e-05  -0.0678973 -0.335465 -4.45843e-05  -0.0683517 -0.342917 -2.95639e-05  -0.0753398 -0.335026 -5.8949e-05  -0.0753212 -0.335015 -6.1512e-05  -0.0604651 -0.335899 -3.26633e-05  -0.0757763 -0.342466 -4.1604e-05  -0.0753005 -0.335008 -6.62804e-05  -0.0683365 -0.342904 -3.18289e-05  -0.0683172 -0.342899 -3.31402e-05  -0.0613651 -0.350778 -7.51019e-06  -0.0687897 -0.350345 -1.83582e-05  -0.068773 -0.350337 -1.80006e-05  -0.0613487 -0.350772 -8.82149e-06  -0.0618169 -0.358211 5.60284e-06  -0.0688038 -0.350354 -1.67489e-05  -0.0692484 -0.357786 -6.31809e-06  -0.0762341 -0.349912 -2.95043e-05  -0.0762184 -0.349902 -2.58684e-05  -0.0613792 -0.350791 -7.39098e-06  -0.076664 -0.357334 -1.45435e-05  -0.0762019 -0.349897 -2.68221e-05  -0.0692363 -0.357775 -5.48363e-06  -0.0692201 -0.35777 -3.8147e-06  -0.0622625 -0.365631 1.66893e-05  -0.0696812 -0.365197 6.07967e-06  -0.0696669 -0.365189 8.10623e-06  -0.0622466 -0.365624 1.91927e-05  -0.0627069 -0.373044 2.89679e-05  -0.0696945 -0.365205 3.27826e-06  -0.0701387 -0.372627 1.56164e-05  -0.0771167 -0.364767 -7.39098e-06  -0.0771003 -0.364755 -3.45707e-06  -0.0622754 -0.365644 1.32918e-05  -0.077543 -0.372177 8.10623e-06  -0.0770872 -0.364749 1.19209e-07  -0.0701239 -0.372612 1.83582e-05  -0.0701096 -0.372606 2.31266e-05  0 0 0  -0.000399847 -2.14577e-06 -0.00144792  -0.000430476 -0.000286594 -0.00170982  -0.00139473 6.30319e-05 -0.0027436  -0.00111555 0.000316411 -0.00225127  -0.0015012 -0.000553712 -0.00271857  -0.000420116 -0.000536442 -0.00134224  -0.00154869 -0.00151755 -0.00263917  0 0 0  0 0 0  -0.00035743 -0.000231013 -0.00108624  0 0 0  -0.00189548 -0.00106493 -0.00338173  -0.0027535 -0.000456512 -0.00411725  -0.00256813 -0.00162201 -0.00324643  -0.00339344 -0.0022572 -0.00402164  -0.00396235 -0.00147103 -0.00459003  -0.00302546 -0.00088197 -0.00373626  -0.00371289 -0.00309125 -0.00362182  -0.00308014 -0.00282584 -0.0032897  -0.00461666 -0.00440989 -0.00370902  -0.0023527 -0.00216067 -0.00266087  -0.00485258 -0.00372425 -0.0044806  -0.00525862 -0.00283189 -0.00514293  -0.00484407 -0.00485356 -0.00375116  -0.00630829 -0.00547718 -0.00466621  -0.00651267 -0.00453258 -0.00522757  -0.00499973 -0.00393556 -0.00420916  -0.00595912 -0.00695542 -0.00381398  -0.00616777 -0.00622693 -0.00397867  -0.00763589 -0.0083416 -0.00405312  -0.00474653 -0.00557685 -0.00320333  -0.00769681 -0.00754327 -0.00475347  -0.00780091 -0.00655873 -0.00539112  -0.0070605 -0.00935625 -0.00379562  -0.00907964 -0.00991139 -0.00474668  -0.00907299 -0.0089238 -0.00532889  -0.00704396 -0.00838684 -0.00426102  -0.00813571 -0.0120602 -0.00374949  -0.00907642 -0.0107294 -0.00409502  -0.0104617 -0.0134102 -0.00404084  -0.00706834 -0.0101535 -0.00327909  -0.0104146 -0.0125837 -0.00469172  -0.0103554 -0.0115967 -0.00530803  -0.00920123 -0.0150516 -0.00366604  -0.0117466 -0.0155431 -0.00459564  -0.0116274 -0.0145754 -0.00517881  -0.00909477 -0.0140952 -0.00412977  -0.0102478 -0.0183169 -0.0035708  -0.0118262 -0.0163637 -0.00397319  -0.0131543 -0.0195882 -0.00386232  -0.00927562 -0.0158585 -0.00317442  -0.0130445 -0.0187805 -0.00447333  -0.0128981 -0.0178337 -0.00506389  -0.0112859 -0.0218441 -0.00345755  -0.0143345 -0.0222789 -0.00433588  -0.0141572 -0.021361 -0.00490344  -0.0111327 -0.0209329 -0.0039084  -0.012309 -0.0256191 -0.00333762  -0.0144622 -0.0230672 -0.00374597  -0.0157421 -0.0267916 -0.00361097  -0.0113988 -0.022625 -0.00299102  -0.0155976 -0.0260258 -0.00418293  -0.0154088 -0.0251396 -0.00474322  -0.0133222 -0.0296302 -0.0032146  -0.0168476 -0.0300086 -0.00403142  -0.0166428 -0.0291542 -0.00457227  -0.0131466 -0.0287778 -0.00364506  -0.0143213 -0.0338652 -0.00308633  -0.0169991 -0.0307494 -0.00347733  -0.0182327 -0.0349301 -0.00333583  -0.0134556 -0.0303676 -0.00277615  -0.0180715 -0.0342148 -0.00386751  -0.0178655 -0.0333952 -0.0043937  -0.015309 -0.0383135 -0.00296187  -0.0192784 -0.0386351 -0.00371504  -0.0190649 -0.0378478 -0.00422287  -0.0151256 -0.0375256 -0.00336659  -0.0162826 -0.0429642 -0.00283301  -0.0194415 -0.0393221 -0.0031991  -0.0206268 -0.0439169 -0.00305909  -0.0154518 -0.0389995 -0.00255239  -0.0204604 -0.0432571 -0.0035516  -0.0202497 -0.0425042 -0.00404024  -0.0172429 -0.0478091 -0.00271285  -0.0216227 -0.0480732 -0.00340378  -0.0214093 -0.0473508 -0.00387561  -0.0170598 -0.0470855 -0.00308847  -0.0181888 -0.0528361 -0.00258625  -0.0217869 -0.0487049 -0.00292671  -0.0229245 -0.0536762 -0.00279206  -0.0173876 -0.0484411 -0.00233376  -0.0227597 -0.0530703 -0.00324559  -0.0225523 -0.0523826 -0.00369644  -0.0191206 -0.0580399 -0.00247252  -0.023876 -0.0582454 -0.00310433  -0.0236689 -0.0575858 -0.00353932  -0.0189421 -0.0573778 -0.0028193  -0.0200371 -0.0634089 -0.00235188  -0.0240375 -0.0588239 -0.00266653  -0.0251278 -0.0641388 -0.00253838  -0.0192626 -0.0586199 -0.00212425  -0.0249679 -0.0635854 -0.00295353  -0.0247679 -0.0629583 -0.00336671  -0.0209394 -0.0689377 -0.00224435  -0.0260379 -0.0690864 -0.00282013  -0.025841 -0.0684863 -0.00321805  -0.0207678 -0.0683362 -0.00256205  -0.0218257 -0.0746162 -0.00213039  -0.0261943 -0.0696127 -0.00242019  -0.0272381 -0.075239 -0.00229937  -0.0210763 -0.0694677 -0.00192684  -0.0270851 -0.0747358 -0.00267732  -0.0268945 -0.0741681 -0.0030539  -0.022699 -0.0804396 -0.00202918  -0.0281096 -0.0805317 -0.00255227  -0.0279214 -0.079988 -0.00291312  -0.0225363 -0.0798945 -0.00231767  -0.0235564 -0.0863978 -0.00192094  -0.0282582 -0.0810091 -0.00218797  -0.0292575 -0.0869172 -0.00207448  -0.0228297 -0.0809208 -0.00174004  -0.029112 -0.0864616 -0.00241637  -0.028931 -0.0859478 -0.00275815  -0.0244008 -0.0924859 -0.00182641  -0.0300932 -0.0925229 -0.00229919  -0.0299164 -0.0920338 -0.0026257  -0.0242473 -0.0919927 -0.0020864  -0.0252289 -0.0986944 -0.00172389  -0.030234 -0.0929546 -0.00197023  -0.0311896 -0.0991154 -0.00186288  -0.024524 -0.0929202 -0.00156528  -0.0310526 -0.0987047 -0.00217116  -0.0308824 -0.0982428 -0.00247884  -0.0260438 -0.105019 -0.00163472  -0.0319918 -0.105005 -0.00206053  -0.0318239 -0.104565 -0.0023545  -0.0258992 -0.104577 -0.00186944  -0.0268438 -0.111451 -0.00153899  -0.0321238 -0.105393 -0.00176567  -0.0330361 -0.11178 -0.00166357  -0.0261599 -0.10541 -0.00140047  -0.0329078 -0.111411 -0.00194025  -0.0327488 -0.110999 -0.00221479  -0.0276308 -0.117987 -0.00145411  -0.0338058 -0.117924 -0.00183606  -0.03365 -0.117531 -0.00209808  -0.0274962 -0.117592 -0.00166464  -0.0284034 -0.124618 -0.00136471  -0.0339284 -0.11827 -0.00157231  -0.0348017 -0.124859 -0.0014773  -0.0277387 -0.118336 -0.00124508  -0.0346814 -0.12453 -0.00172293  -0.0345329 -0.124163 -0.00196874  -0.0291619 -0.131338 -0.00128603  -0.0355382 -0.131229 -0.00162542  -0.0353935 -0.130882 -0.00185812  -0.0290375 -0.130987 -0.00147319  -0.0299067 -0.138142 -0.00120151  -0.0356536 -0.131538 -0.00139123  -0.0364879 -0.138302 -0.00130218  -0.0292629 -0.13165 -0.00109988  -0.0363762 -0.138011 -0.0015198  -0.0362372 -0.137687 -0.00173593  -0.0306385 -0.145026 -0.00112796  -0.0371943 -0.144873 -0.00142789  -0.0370593 -0.144568 -0.00163507  -0.0305243 -0.144717 -0.00129318  -0.0313573 -0.151981 -0.00105059  -0.0373011 -0.145146 -0.00122285  -0.038096 -0.152065 -0.00113869  -0.0307314 -0.145301 -0.00096488  -0.037993 -0.151808 -0.0013299  -0.0378656 -0.151524 -0.00151849  -0.0320618 -0.159004 -0.000981331  -0.0387747 -0.158813 -0.00124454  -0.0386515 -0.158545 -0.00142419  -0.0319545 -0.158732 -0.00112426  -0.0327542 -0.166088 -0.000907063  -0.0388734 -0.159051 -0.00106442  -0.0396304 -0.166101 -0.000986099  -0.0321469 -0.159246 -0.000838161  -0.0395377 -0.165877 -0.00115192  -0.0394213 -0.165631 -0.00131631  -0.0334339 -0.17323 -0.000843763  -0.0402822 -0.173004 -0.00107348  -0.040169 -0.172771 -0.00122809  -0.0333369 -0.172998 -0.000968933  -0.0341001 -0.180425 -0.000776291  -0.0403705 -0.17321 -0.000916481  -0.0410945 -0.180374 -0.000845253  -0.0335112 -0.17344 -0.000720561  -0.0410097 -0.180179 -0.000988483  -0.0409031 -0.179968 -0.00112975  -0.0347531 -0.187666 -0.000717163  -0.0417204 -0.187407 -0.000914931  -0.0416174 -0.187209 -0.00104892  -0.0346668 -0.187465 -0.000824809  -0.0353968 -0.19495 -0.000655413  -0.0418012 -0.187584 -0.000781536  -0.042491 -0.19484 -0.000714421  -0.0348248 -0.187846 -0.000611901  -0.0424135 -0.194675 -0.000836372  -0.0423169 -0.194494 -0.000956774  -0.036026 -0.202272 -0.000601053  -0.0430915 -0.201984 -0.000769019  -0.0429995 -0.201817 -0.000882506  -0.0359478 -0.202104 -0.000691772  -0.0366457 -0.209631 -0.000544786  -0.0431654 -0.202136 -0.000656605  -0.0438221 -0.209468 -0.000595272  -0.0360901 -0.202428 -0.000512302  -0.0437524 -0.209327 -0.000697851  -0.0436654 -0.209177 -0.000798464  -0.0372517 -0.217018 -0.000495911  -0.0443993 -0.216702 -0.000636578  -0.0443168 -0.216563 -0.000729084  -0.0371828 -0.216876 -0.000571489  -0.0378478 -0.224432 -0.000443816  -0.0444629 -0.21683 -0.000542402  -0.0450916 -0.224222 -0.00048697  -0.0373075 -0.217148 -0.000421643  -0.0450301 -0.224104 -0.000571251  -0.0449529 -0.223981 -0.000654101  -0.0384314 -0.23187 -0.000400066  -0.0456469 -0.231531 -0.000516415  -0.0455744 -0.231417 -0.000592947  -0.0383692 -0.231752 -0.00046134  -0.039005 -0.239326 -0.000353456  -0.0457048 -0.231635 -0.000439525  -0.046303 -0.239073 -0.000389993  -0.0384812 -0.231978 -0.000340104  -0.0462492 -0.238976 -0.000457883  -0.04618 -0.238876 -0.000524521  -0.0395675 -0.246798 -0.000314116  -0.0468378 -0.246439 -0.000409007  -0.0467746 -0.246349 -0.000469685  -0.0395138 -0.246704 -0.000363708  -0.0401213 -0.254283 -0.000273108  -0.0468879 -0.246524 -0.000347078  -0.0474601 -0.253994 -0.000304401  -0.0396109 -0.246887 -0.000265479  -0.0474136 -0.253915 -0.000356674  -0.0473545 -0.253836 -0.000407696  -0.0406632 -0.261777 -0.000238419  -0.0479765 -0.261402 -0.000314593  -0.0479217 -0.261329 -0.000362277  -0.040617 -0.261704 -0.000277638  -0.0411968 -0.26928 -0.000202298  -0.048018 -0.261469 -0.000266135  -0.0485675 -0.268958 -0.00022763  -0.0407 -0.261848 -0.000201046  -0.0485277 -0.268896 -0.000267863  -0.0484781 -0.268835 -0.000307918  -0.0417216 -0.276785 -0.000173211  -0.0490673 -0.276396 -0.000231028  -0.0490234 -0.276343 -0.000268579  -0.0416827 -0.27673 -0.00020349  -0.042238 -0.284295 -0.000142455  -0.0491028 -0.276448 -0.000195324  -0.0496292 -0.283946 -0.000162601  -0.0417516 -0.276842 -0.000144362  -0.0495956 -0.283898 -0.000192523  -0.0495543 -0.283853 -0.00022161  -0.0427451 -0.291802 -0.00011909  -0.0501151 -0.2914 -0.000162721  -0.0500755 -0.291358 -0.000187635  -0.0427127 -0.29176 -0.000139356  -0.0432446 -0.299309 -9.23872e-05  -0.0501442 -0.29144 -0.000134706  -0.0506496 -0.298938 -0.000108838  -0.0427699 -0.291845 -9.73344e-05  -0.0506215 -0.2989 -0.000128865  -0.0505877 -0.298869 -0.000148654  -0.0437367 -0.306809 -7.30753e-05  -0.0511215 -0.306397 -0.000104427  -0.0510914 -0.30637 -0.000122786  -0.0437102 -0.306779 -8.84533e-05  -0.0442209 -0.314305 -5.19753e-05  -0.0511467 -0.306427 -8.61883e-05  -0.0516329 -0.313917 -6.53863e-05  -0.043757 -0.306842 -5.97239e-05  -0.0516107 -0.313888 -7.85589e-05  -0.0515842 -0.313867 -8.98838e-05  -0.0446994 -0.321792 -3.69549e-05  -0.0520945 -0.321373 -5.94854e-05  -0.0520692 -0.321353 -6.90222e-05  -0.044678 -0.321771 -4.673e-05  -0.0451708 -0.329272 -2.08616e-05  -0.052114 -0.321395 -4.86374e-05  -0.0525858 -0.32887 -3.23653e-05  -0.0447137 -0.321816 -2.83718e-05  -0.0525694 -0.328847 -3.95775e-05  -0.0525491 -0.328836 -4.57764e-05  -0.0456357 -0.33674 -8.22544e-06  -0.0530369 -0.336314 -2.46763e-05  -0.0530207 -0.336302 -3.00407e-05  -0.0456219 -0.336728 -1.39475e-05  -0.046098 -0.3442 4.05312e-06  -0.0530531 -0.33633 -1.94311e-05  -0.0535114 -0.343786 -6.49691e-06  -0.0456486 -0.336758 -4.70877e-06  -0.0534978 -0.343769 -1.03712e-05  -0.0534828 -0.343761 -1.15633e-05  -0.0465517 -0.351643 1.34706e-05  -0.0539539 -0.351214 1.90735e-06  -0.0539386 -0.351203 9.53674e-07  -0.0465381 -0.351636 1.26362e-05  -0.0470026 -0.359079 2.37226e-05  -0.0539653 -0.351225 3.75509e-06  -0.054415 -0.358659 1.36495e-05  -0.0465612 -0.351658 1.43647e-05  -0.054405 -0.358646 1.33514e-05  -0.05439 -0.35864 1.57356e-05  -0.0474482 -0.366495 3.45707e-05  -0.0548525 -0.366064 2.49147e-05  -0.0548406 -0.366058 2.92063e-05  -0.0474339 -0.366489 3.76701e-05  -0.0478935 -0.373901 4.50611e-05  -0.0548632 -0.366076 2.3067e-05  -0.0553114 -0.37349 3.17097e-05  -0.0474584 -0.366507 2.99215e-05  -0.0552988 -0.373474 3.54052e-05  -0.0552831 -0.373468 4.3273e-05  0 0 0  -0.000181861 0.000314742 -0.000714898  -0.000222079 0.000191242 -0.00100684  -0.000804767 0.000535786 -0.00163579  -0.0005248 0.000642329 -0.00109994  -0.000684761 -6.25849e-07 -0.00136316  -0.000220768 -5.04255e-05 -0.000803769  -0.000812761 -0.000599146 -0.00164151  0 0 0  0 0 0  -0.000162173 8.2761e-05 -0.000535548  0 0 0  -0.00101982 -0.000200421 -0.00208914  -0.00152935 0.000407875 -0.00250411  -0.0011508 -0.000923932 -0.00162208  -0.00181526 -0.00120854 -0.00246155  -0.00214927 -0.000445962 -0.00277042  -0.00137076 -0.000181288 -0.0018599  -0.00169015 -0.00230658 -0.00182915  -0.00162169 -0.00174373 -0.00202167  -0.00247054 -0.00325108 -0.00228351  -0.00106291 -0.00145334 -0.00133538  -0.00261742 -0.00261173 -0.00274551  -0.002856 -0.00174603 -0.00312269  -0.00221902 -0.00407514 -0.0018822  -0.00347039 -0.00439417 -0.00283647  -0.00358161 -0.00347254 -0.00314152  -0.00228065 -0.00316468 -0.00210023  -0.00276193 -0.00620684 -0.00191259  -0.0033952 -0.00510317 -0.00243163  -0.00426549 -0.00726512 -0.00245756  -0.00219136 -0.00477436 -0.00161302  -0.00429007 -0.00650719 -0.00287449  -0.00434029 -0.00554764 -0.00324047  -0.00330433 -0.00865555 -0.00189662  -0.00512713 -0.00894102 -0.00285745  -0.00510725 -0.00797379 -0.0031842  -0.00327399 -0.00769648 -0.00211692  -0.00384361 -0.0114105 -0.00186813  -0.00513944 -0.00972262 -0.00247538  -0.00597799 -0.0124665 -0.00243026  -0.00332934 -0.00943065 -0.00164497  -0.00593302 -0.0116695 -0.00281274  -0.00588036 -0.0107019 -0.00316882  -0.00438422 -0.0144511 -0.00182414  -0.0067445 -0.0146897 -0.00275147  -0.00665385 -0.013735 -0.00308645  -0.0043065 -0.0135028 -0.0020448  -0.00492305 -0.0177633 -0.00177205  -0.00680941 -0.0154847 -0.00238609  -0.00762278 -0.018769 -0.0023132  -0.00444341 -0.0152407 -0.00158489  -0.00753701 -0.0179795 -0.00267231  -0.00742978 -0.0170446 -0.00301659  -0.00546503 -0.0213367 -0.0017159  -0.00833076 -0.0215318 -0.00259042  -0.00820279 -0.0206207 -0.00292003  -0.00536078 -0.0204295 -0.00193226  -0.00600696 -0.0251553 -0.00165236  -0.00842679 -0.022305 -0.00224257  -0.00922215 -0.0260874 -0.00215793  -0.00554508 -0.0221062 -0.00148791  -0.00911301 -0.0253302 -0.00249517  -0.00897861 -0.0244491 -0.00282288  -0.00655305 -0.0292102 -0.0015918  -0.00989556 -0.0293648 -0.002406  -0.00974989 -0.0285116 -0.00272322  -0.00643528 -0.0283588 -0.00179923  -0.00710058 -0.0334888 -0.00152302  -0.0100092 -0.0300981 -0.00207788  -0.0107899 -0.0343354 -0.00198954  -0.00664544 -0.0299422 -0.00137693  -0.0106693 -0.0336235 -0.00230443  -0.0105224 -0.0328041 -0.00261402  -0.00765234 -0.0379806 -0.00146234  -0.0114406 -0.0380959 -0.00221467  -0.0112874 -0.0373043 -0.002514  -0.00753015 -0.0371904 -0.00165832  -0.00820518 -0.0426754 -0.00139296  -0.0115626 -0.0387801 -0.0019086  -0.0123285 -0.0434314 -0.0018205  -0.00775081 -0.0386656 -0.00126207  -0.0122042 -0.0427713 -0.00211251  -0.012054 -0.0420147 -0.00240064  -0.00876188 -0.0475642 -0.00133467  -0.0129639 -0.0476395 -0.0020256  -0.0128103 -0.0469114 -0.00230467  -0.00863862 -0.0468369 -0.00151777  -0.00931859 -0.052638 -0.00126755  -0.0130881 -0.048273 -0.00174296  -0.0138395 -0.0533007 -0.00165772  -0.00886118 -0.0481991 -0.00114888  -0.0137155 -0.0526924 -0.00192666  -0.0135677 -0.0519996 -0.00219297  -0.00987816 -0.0578865 -0.00121188  -0.0144632 -0.0579193 -0.00184453  -0.0143136 -0.0572542 -0.00210142  -0.00975835 -0.0572193 -0.00138032  -0.0104382 -0.0633019 -0.00114703  -0.0145844 -0.0585012 -0.00158387  -0.0153222 -0.0638721 -0.00150323  -0.00997663 -0.0584693 -0.00104153  -0.0152024 -0.0633147 -0.00174928  -0.0150585 -0.0626818 -0.0019933  -0.0109994 -0.0688745 -0.00109494  -0.0159348 -0.0688672 -0.00167155  -0.0157913 -0.0682604 -0.00190783  -0.0108849 -0.0682665 -0.00124907  -0.0115607 -0.0745997 -0.00103366  -0.0160522 -0.0693977 -0.00143391  -0.0167748 -0.0750799 -0.00135845  -0.0110947 -0.0694076 -0.000939131  -0.0166597 -0.0745715 -0.00158131  -0.0165216 -0.0739962 -0.00180387  -0.0121236 -0.0804656 -0.000985026  -0.0173781 -0.0804172 -0.00150883  -0.0172422 -0.0798663 -0.00172377  -0.0120144 -0.0799134 -0.00112522  -0.0126855 -0.0864679 -0.000926614  -0.01749 -0.0808994 -0.00129277  -0.018198 -0.0868608 -0.00122154  -0.0122139 -0.0809507 -0.000843227  -0.0180888 -0.0863997 -0.00142395  -0.0179585 -0.085878 -0.0016253  -0.0132483 -0.0925981 -0.00088048  -0.0187929 -0.0925095 -0.00135565  -0.0186654 -0.0920129 -0.00155008  -0.0131458 -0.0920987 -0.00100839  -0.0138093 -0.098849 -0.00082612  -0.0188986 -0.0929465 -0.00116128  -0.0195926 -0.0991581 -0.00109273  -0.0133333 -0.0930361 -0.000753462  -0.0194894 -0.0987422 -0.00127494  -0.0193666 -0.0982731 -0.0014571  -0.0143706 -0.105214 -0.000784039  -0.0201777 -0.105088 -0.00121117  -0.0200573 -0.104642 -0.00138533  -0.0142736 -0.104764 -0.000897169  -0.0149314 -0.111687 -0.00073266  -0.0202773 -0.105482 -0.00103605  -0.0209551 -0.111917 -0.000972271  -0.0144508 -0.10561 -0.000669479  -0.0208582 -0.111543 -0.00113583  -0.0207441 -0.111122 -0.00129855  -0.015491 -0.11826 -0.000692368  -0.0215335 -0.118099 -0.0010761  -0.0214195 -0.117698 -0.00123167  -0.0153998 -0.117858 -0.000794291  -0.0160478 -0.12493 -0.000644922  -0.0216259 -0.11845 -0.000918508  -0.0222882 -0.125084 -0.000860155  -0.0155654 -0.118616 -0.000590622  -0.0221982 -0.12475 -0.00100493  -0.0220917 -0.124375 -0.00114954  -0.0166047 -0.131686 -0.000607729  -0.0228574 -0.13149 -0.000948787  -0.0227534 -0.131133 -0.00108624  -0.0165199 -0.131328 -0.000696421  -0.0171579 -0.138525 -0.000562429  -0.0229431 -0.131803 -0.000810027  -0.0235907 -0.138611 -0.000754476  -0.0166733 -0.132002 -0.000516593  -0.0235083 -0.138314 -0.000883341  -0.0234094 -0.137982 -0.00101101  -0.0177104 -0.145442 -0.000528336  -0.0241513 -0.145215 -0.000830412  -0.0240541 -0.144901 -0.000952721  -0.0176334 -0.145126 -0.000607491  -0.0182607 -0.15243 -0.000486135  -0.024231 -0.145492 -0.000708103  -0.0248618 -0.15245 -0.00065577  -0.0177743 -0.145722 -0.000447929  -0.0247865 -0.152188 -0.000768423  -0.0246947 -0.151896 -0.000879884  -0.0188091 -0.159483 -0.000452757  -0.0254133 -0.159227 -0.000719428  -0.0253243 -0.158953 -0.000825286  -0.018739 -0.159207 -0.00052309  -0.0193541 -0.166598 -0.000415206  -0.025486 -0.159471 -0.000612617  -0.0261025 -0.166558 -0.000564396  -0.0188665 -0.159731 -0.000385582  -0.026032 -0.166329 -0.000661016  -0.0259502 -0.166075 -0.000757813  -0.0198958 -0.173768 -0.000385642  -0.0266438 -0.173485 -0.000617146  -0.0265634 -0.173247 -0.000708222  -0.0198331 -0.173526 -0.000444651  -0.0204349 -0.18099 -0.000349998  -0.0267105 -0.173697 -0.000524163  -0.0273106 -0.180894 -0.00047946  -0.019948 -0.173983 -0.000326455  -0.0272481 -0.180695 -0.000563741  -0.0271728 -0.180475 -0.000648022  -0.0209706 -0.188258 -0.000323534  -0.0278444 -0.18795 -0.000522137  -0.0277717 -0.187745 -0.000602245  -0.0209136 -0.188049 -0.000374794  -0.0215032 -0.195565 -0.000289917  -0.0279026 -0.188133 -0.000442743  -0.0284894 -0.195418 -0.000401199  -0.021018 -0.188443 -0.000272393  -0.0284321 -0.195247 -0.000473022  -0.0283644 -0.195061 -0.000542283  -0.0220325 -0.202911 -0.000265241  -0.0290117 -0.202582 -0.000434637  -0.0289481 -0.202407 -0.000501871  -0.0219817 -0.202736 -0.000309229  -0.022558 -0.210291 -0.000235796  -0.0290661 -0.202738 -0.000368357  -0.0296357 -0.210098 -0.000330329  -0.022074 -0.20307 -0.000222623  -0.0295851 -0.209952 -0.000390649  -0.0295248 -0.209793 -0.000449538  -0.0230789 -0.217699 -0.000213146  -0.0301502 -0.21735 -0.00035584  -0.030093 -0.217205 -0.000411272  -0.0230341 -0.217551 -0.000248313  -0.0235968 -0.225132 -0.000185251  -0.0301979 -0.217482 -0.000299752  -0.0307515 -0.224897 -0.000266135  -0.0231154 -0.217832 -0.000177324  -0.0307076 -0.224774 -0.000315905  -0.0306537 -0.224644 -0.000362873  -0.0241094 -0.232585 -0.000165462  -0.0312569 -0.232222 -0.000285864  -0.0312066 -0.232102 -0.000329137  -0.0240717 -0.232465 -0.000194788  -0.0246201 -0.240059 -0.000141144  -0.0312984 -0.23233 -0.000239134  -0.0318382 -0.239789 -0.000208795  -0.0241416 -0.232699 -0.000137389  -0.0317986 -0.239688 -0.000247955  -0.0317531 -0.239581 -0.000286222  -0.0251245 -0.247546 -0.000123262  -0.0323331 -0.247168 -0.000220299  -0.0322886 -0.247069 -0.000256419  -0.0250907 -0.247448 -0.00014782  -0.0256262 -0.255047 -0.00010252  -0.0323687 -0.247257 -0.000183761  -0.0328944 -0.254744 -0.000156999  -0.0251517 -0.24764 -0.000100672  -0.0328612 -0.254661 -0.000187993  -0.0328207 -0.254576 -0.000218391  -0.0261214 -0.262554 -8.70228e-05  -0.0333824 -0.262162 -0.000164747  -0.0333447 -0.262084 -0.000192046  -0.0260937 -0.262475 -0.000105262  -0.0266154 -0.270069 -6.83069e-05  -0.033412 -0.262234 -0.000136912  -0.0339246 -0.269738 -0.000112295  -0.0261457 -0.262628 -6.8903e-05  -0.0338957 -0.269671 -0.000136018  -0.0338624 -0.269605 -0.000159383  -0.0271034 -0.277585 -5.49555e-05  -0.0344017 -0.277183 -0.000115395  -0.0343728 -0.277122 -0.000137091  -0.0270798 -0.277524 -6.85453e-05  -0.0275884 -0.285105 -3.93391e-05  -0.0344298 -0.277241 -9.41753e-05  -0.0349267 -0.28475 -7.37906e-05  -0.0271232 -0.277645 -4.27365e-05  -0.0349047 -0.284697 -9.17912e-05  -0.0348773 -0.284646 -0.000107765  -0.028069 -0.292621 -2.90871e-05  -0.0354002 -0.292211 -7.55787e-05  -0.0353742 -0.292165 -9.01222e-05  -0.0280492 -0.292576 -3.91006e-05  -0.0285456 -0.300137 -1.60933e-05  -0.0354197 -0.292253 -5.97239e-05  -0.035908 -0.299762 -4.33922e-05  -0.0280843 -0.292668 -1.93715e-05  -0.0358877 -0.29972 -5.48363e-05  -0.0358663 -0.299684 -6.60419e-05  -0.0290182 -0.307643 -7.51019e-06  -0.0363712 -0.307225 -4.19617e-05  -0.036351 -0.307195 -5.11408e-05  -0.0290027 -0.30761 -1.4782e-05  -0.0294869 -0.315147 3.8147e-06  -0.0363882 -0.307259 -3.1054e-05  -0.0368636 -0.314756 -1.62721e-05  -0.0290303 -0.307679 -2.68221e-06  -0.0368483 -0.314725 -2.38419e-05  -0.036829 -0.3147 -3.18289e-05  -0.0299516 -0.322641 1.07288e-05  -0.0373201 -0.322216 -1.50204e-05  -0.0373049 -0.322193 -2.06232e-05  -0.0299394 -0.322616 4.05312e-06  -0.0304124 -0.330125 1.85966e-05  -0.037333 -0.322241 -7.98702e-06  -0.0377982 -0.329722 2.98023e-06  -0.0299599 -0.322666 1.35899e-05  -0.0377867 -0.329697 -1.66893e-06  -0.0377729 -0.329682 -5.00679e-06  -0.0308692 -0.337598 2.21729e-05  -0.0382495 -0.33717 5.96046e-06  -0.0382366 -0.337153 4.05312e-06  -0.0308607 -0.337582 2.06232e-05  -0.0313241 -0.345062 2.95639e-05  -0.0382597 -0.337187 9.95398e-06  -0.0387151 -0.344647 1.78218e-05  -0.0308764 -0.337617 2.38419e-05  -0.038707 -0.34463 1.58548e-05  -0.0386977 -0.34462 1.5974e-05  -0.0317738 -0.352507 3.5882e-05  -0.0391603 -0.352076 2.37226e-05  -0.0391498 -0.352067 2.24113e-05  -0.0317676 -0.3525 3.31402e-05  -0.032222 -0.359944 3.89814e-05  -0.0391665 -0.35209 2.39611e-05  -0.0396168 -0.359525 3.12328e-05  -0.0317788 -0.352522 3.29018e-05  -0.0396097 -0.35951 3.15905e-05  -0.0396004 -0.359504 3.38554e-05  -0.0326669 -0.367358 4.37498e-05  -0.0400553 -0.366927 3.82662e-05  -0.0400457 -0.366922 4.23193e-05  -0.0326595 -0.367353 4.68493e-05  -0.0331078 -0.374757 5.1856e-05  -0.0400624 -0.366938 3.63588e-05  -0.0405085 -0.374345 4.3869e-05  -0.0326707 -0.367371 4.21405e-05  -0.0405004 -0.37433 4.8399e-05  -0.0404875 -0.374323 5.38826e-05  0 0 0  4.21703e-06 0.000392318 4.36306e-05  -4.52697e-05 0.000371873 -0.000266433  -0.000255387 0.000714868 -0.000490189  2.27243e-05 0.000720382 7.06911e-05  2.43336e-05 0.000113904 3.70741e-05  -5.38491e-05 0.000136495 -0.000229418  -0.000216648 -0.000280768 -0.000558853  0 0 0  0 0 0  4.24683e-06 0.00015682 4.29153e-05  0 0 0  -0.000285506 0.000113815 -0.000694633  -0.000451043 0.000730634 -0.000806689  9.76026e-05 -0.00077799 6.31809e-05  -0.000512481 -0.000801116 -0.000796437  -0.000620276 -4.3273e-05 -0.000872254  0.000108868 -2.93851e-05 7.71284e-05  0.000122547 -0.00212809 2.86102e-05  -0.00045082 -0.00133091 -0.000659883  -0.000695258 -0.0027611 -0.000762999  5.40614e-05 -0.0013051 4.27961e-05  -0.000730768 -0.00214043 -0.000913858  -0.00080435 -0.00127611 -0.0010227  0.00017035 -0.00391045 3.75509e-05  -0.000991255 -0.00392607 -0.000937462  -0.00101653 -0.00300977 -0.00101161  0.000197142 -0.00300032 5.48363e-05  0.000194609 -0.00604972 2.64645e-05  -0.000989258 -0.00462291 -0.000810146  -0.00125983 -0.00679654 -0.000813842  0.000125527 -0.00460362 2.44975e-05  -0.00124025 -0.0060544 -0.000949383  -0.0012407 -0.00510159 -0.00105894  0.000213861 -0.00852731 2.70605e-05  -0.00151601 -0.00852358 -0.000942707  -0.00148606 -0.00756392 -0.00103152  0.00025475 -0.00757143 4.36306e-05  0.000217795 -0.0113063 2.563e-05  -0.00154912 -0.00929269 -0.000822902  -0.00182864 -0.0120744 -0.000801504  0.000168294 -0.0092952 1.54376e-05  -0.00178236 -0.0112903 -0.000923514  -0.00173962 -0.0103306 -0.00103116  0.000206828 -0.0143765 2.34842e-05  -0.00206584 -0.0143496 -0.000904322  -0.00200444 -0.0134023 -0.00100064  0.000256181 -0.0134325 3.85046e-05  0.000181556 -0.0177167 2.64645e-05  -0.00211799 -0.015134 -0.00078994  -0.00240946 -0.0184581 -0.000759959  0.000160158 -0.0151603 1.29938e-05  -0.00234777 -0.0176771 -0.000873089  -0.00228077 -0.0167491 -0.000977397  0.000138581 -0.0213163 2.41995e-05  -0.00264376 -0.021266 -0.000847101  -0.00256586 -0.0203589 -0.000945807  0.000194728 -0.0204131 3.76701e-05  7.93338e-05 -0.0251625 3.06368e-05  -0.00270951 -0.0220324 -0.000737548  -0.00301582 -0.0258529 -0.000704169  8.89897e-05 -0.0220824 1.52588e-05  -0.00294459 -0.0251007 -0.000810623  -0.0028646 -0.0242223 -0.000909925  9.53674e-07 -0.0292433 2.86102e-05  -0.00325876 -0.0291705 -0.000782847  -0.00317091 -0.0283178 -0.000879645  6.1512e-05 -0.0283931 4.02927e-05  -9.40561e-05 -0.0335497 3.73125e-05  -0.00333148 -0.0298998 -0.000679135  -0.00365692 -0.0341747 -0.000643909  -5.09024e-05 -0.0299734 2.04444e-05  -0.00357974 -0.0334649 -0.000742197  -0.00349295 -0.0326455 -0.000835776  -0.00020802 -0.0380687 3.5882e-05  -0.00391394 -0.037972 -0.000714779  -0.00382131 -0.0371798 -0.000807047  -0.000145555 -0.0372775 4.6134e-05  -0.000338733 -0.0427924 4.48227e-05  -0.00399023 -0.038656 -0.000617325  -0.00433457 -0.0433456 -0.000582218  -0.00026083 -0.0387527 2.77758e-05  -0.00425613 -0.0426841 -0.000673175  -0.00416672 -0.0419257 -0.000761747  -0.000487804 -0.0477087 4.31538e-05  -0.00460958 -0.0475877 -0.000647664  -0.00451684 -0.046856 -0.000733852  -0.000425577 -0.0469788 5.25713e-05  -0.000654817 -0.0528113 5.19753e-05  -0.00468731 -0.0482221 -0.000557542  -0.00504971 -0.05329 -0.00052321  -0.000541806 -0.048344 3.59416e-05  -0.00497186 -0.0526787 -0.000606775  -0.00488234 -0.051982 -0.000687718  -0.000838995 -0.0580882 5.06639e-05  -0.00534391 -0.0579426 -0.000582457  -0.0052532 -0.0572711 -0.000662446  -0.00077796 -0.057418 5.91278e-05  -0.00103891 -0.0635337 5.9247e-05  -0.00541973 -0.0585257 -0.00049907  -0.00580037 -0.0639366 -0.00046736  -0.000891924 -0.0586733 4.34518e-05  -0.00572467 -0.0633753 -0.000543237  -0.00563812 -0.0627373 -0.000617146  -0.00125706 -0.0691361 5.68628e-05  -0.00611436 -0.0689641 -0.000520825  -0.00602603 -0.0683523 -0.000593305  -0.00119722 -0.0685235 6.50883e-05  -0.00148845 -0.0748903 6.52075e-05  -0.00618804 -0.0694977 -0.000445306  -0.00658357 -0.0752182 -0.000414431  -0.00130641 -0.069672 4.98295e-05  -0.00651133 -0.0747062 -0.000483632  -0.0064286 -0.074125 -0.000551105  -0.00173664 -0.0807853 6.25849e-05  -0.00691736 -0.0805883 -0.00046289  -0.00683403 -0.0800321 -0.000529289  -0.00168014 -0.080229 7.04527e-05  -0.00199771 -0.0868175 6.97374e-05  -0.00698698 -0.0810739 -0.000394881  -0.00739777 -0.087073 -0.00036633  -0.00178432 -0.0812735 5.60284e-05  -0.00732994 -0.0866079 -0.000428081  -0.00725114 -0.0860812 -0.000488281  -0.00227559 -0.0929756 6.62804e-05  -0.00774944 -0.0927531 -0.000409007  -0.00767124 -0.0922489 -0.000468612  -0.00222218 -0.0924713 7.4029e-05  -0.00256491 -0.0992556 7.33137e-05  -0.00781524 -0.0931931 -0.000347733  -0.00823915 -0.0994413 -0.000320852  -0.00231993 -0.0934181 6.03199e-05  -0.00817549 -0.0990205 -0.000376463  -0.00810158 -0.0985456 -0.000430226  -0.00286734 -0.105647 7.02143e-05  -0.00860822 -0.1054 -0.000358224  -0.00853562 -0.104947 -0.000412226  -0.00281811 -0.105194 7.72476e-05  -0.00318241 -0.112148 7.60555e-05  -0.00866961 -0.105797 -0.00030303  -0.00910592 -0.112268 -0.000278294  -0.00291002 -0.106047 6.36578e-05  -0.00904632 -0.111889 -0.000327826  -0.00897729 -0.111463 -0.000376105  -0.00351048 -0.118748 7.30753e-05  -0.00948918 -0.118477 -0.000311375  -0.00942135 -0.118071 -0.000357389  -0.00346434 -0.118341 8.03471e-05  -0.00384843 -0.125442 7.89165e-05  -0.00954592 -0.118833 -0.00026238  -0.0099932 -0.125499 -0.000239134  -0.00354838 -0.119106 6.62804e-05  -0.00993764 -0.12516 -0.000283003  -0.00987494 -0.12478 -0.000325322  -0.00419676 -0.132223 7.4625e-05  -0.0103905 -0.13193 -0.000268102  -0.0103278 -0.131568 -0.000309229  -0.00415576 -0.13186 8.15392e-05  -0.00455487 -0.139087 7.9155e-05  -0.0104431 -0.132248 -0.000224948  -0.0108986 -0.139085 -0.000202656  -0.00423145 -0.132543 6.80685e-05  -0.0108472 -0.138783 -0.000240684  -0.0107883 -0.138447 -0.000277519  -0.00492334 -0.146025 7.56979e-05  -0.0113082 -0.145712 -0.00022769  -0.0112503 -0.145393 -0.000265241  -0.00488615 -0.145704 8.18968e-05  -0.00530028 -0.153036 7.98702e-05  -0.0113561 -0.145994 -0.000190198  -0.0118182 -0.15298 -0.00017041  -0.00495458 -0.146309 6.97374e-05  -0.0117722 -0.152713 -0.000203371  -0.0117197 -0.152417 -0.000234604  -0.00568533 -0.16011 7.65324e-05  -0.0122385 -0.159777 -0.000189543  -0.012187 -0.159497 -0.000221729  -0.00565219 -0.159827 8.22544e-05  -0.006078 -0.167245 8.05855e-05  -0.0122831 -0.160026 -0.00015831  -0.0127504 -0.167139 -0.000138879  -0.00571322 -0.16036 7.09295e-05  -0.0127079 -0.166905 -0.000167131  -0.0126615 -0.166644 -0.000194788  -0.00647855 -0.174433 7.61747e-05  -0.0131803 -0.174085 -0.000156641  -0.013134 -0.173841 -0.000183225  -0.00644922 -0.174188 8.08239e-05  -0.00688434 -0.181674 7.90358e-05  -0.0132184 -0.174301 -0.000128329  -0.0136898 -0.18152 -0.000111341  -0.00650191 -0.174653 7.06315e-05  -0.013653 -0.181316 -0.000135183  -0.0136113 -0.181093 -0.000159264  -0.00729775 -0.188956 7.53403e-05  -0.0141268 -0.188593 -0.000125051  -0.0140862 -0.188383 -0.00014782  -0.00727224 -0.188744 8.01086e-05  -0.00771594 -0.196283 7.83205e-05  -0.0141635 -0.188779 -0.000101268  -0.014636 -0.196086 -8.55327e-05  -0.00731802 -0.189147 7.08103e-05  -0.0146034 -0.195912 -0.000105739  -0.0145667 -0.195719 -0.00012517  -0.00813866 -0.203642 7.45058e-05  -0.0150797 -0.203264 -9.64403e-05  -0.0150433 -0.203085 -0.000115991  -0.00811744 -0.203463 7.9751e-05  -0.00856614 -0.211037 7.82013e-05  -0.0151103 -0.203425 -7.60555e-05  -0.0155849 -0.210803 -6.27041e-05  -0.00815558 -0.203805 7.04527e-05  -0.0155563 -0.210652 -7.89165e-05  -0.0155239 -0.21049 -9.46522e-05  -0.00899839 -0.218457 7.4029e-05  -0.0160329 -0.218067 -7.14064e-05  -0.0160012 -0.217917 -8.70228e-05  -0.00897884 -0.218305 7.76052e-05  -0.00943232 -0.225905 7.59363e-05  -0.0160594 -0.218203 -5.42998e-05  -0.0165341 -0.225636 -4.20809e-05  -0.0090127 -0.218595 6.87838e-05  -0.0165083 -0.225507 -5.45979e-05  -0.0164814 -0.225372 -6.63996e-05  -0.00987077 -0.233369 7.29561e-05  -0.0169852 -0.232969 -4.8399e-05  -0.016958 -0.232844 -6.03199e-05  -0.00985575 -0.233244 7.61747e-05  -0.0103116 -0.240854 7.43866e-05  -0.0170085 -0.233082 -3.53456e-05  -0.0174811 -0.240554 -2.33054e-05  -0.00988317 -0.233484 6.79493e-05  -0.0174601 -0.240449 -3.50475e-05  -0.017437 -0.240338 -4.35114e-05  -0.0107553 -0.24835 7.10487e-05  -0.017935 -0.247941 -2.82526e-05  -0.0179136 -0.247839 -3.71933e-05  -0.0107419 -0.248247 7.37906e-05  -0.0111992 -0.255859 7.1764e-05  -0.0179539 -0.248034 -1.7643e-05  -0.0184259 -0.255534 -8.10623e-06  -0.0107644 -0.248446 6.64592e-05  -0.0184081 -0.255446 -1.57356e-05  -0.018389 -0.255357 -2.26498e-05  -0.0116446 -0.263373 6.85453e-05  -0.0188813 -0.262958 -1.0252e-05  -0.0188611 -0.262877 -1.85966e-05  -0.0116363 -0.263293 7.08103e-05  -0.0120931 -0.270896 6.98566e-05  -0.0188963 -0.263033 -2.5034e-06  -0.0193648 -0.270548 6.55651e-06  -0.0116527 -0.263452 6.53267e-05  -0.0193508 -0.270477 3.57628e-07  -0.019335 -0.270408 -5.00679e-06  -0.0125413 -0.27842 6.60419e-05  -0.0198197 -0.277999 3.93391e-06  -0.0198042 -0.277934 -1.19209e-06  -0.0125341 -0.278355 6.93798e-05  -0.0129907 -0.285945 6.65188e-05  -0.0198336 -0.278059 9.59635e-06  -0.0202982 -0.285577 1.67489e-05  -0.0125458 -0.278482 6.24657e-05  -0.0202863 -0.285521 1.32322e-05  -0.0202737 -0.285468 1.07288e-05  -0.0134389 -0.293467 6.46114e-05  -0.0207517 -0.293041 1.63317e-05  -0.0207391 -0.292992 1.39475e-05  -0.0134344 -0.293419 6.40154e-05  -0.0138907 -0.300986 6.27041e-05  -0.0207613 -0.293087 2.07424e-05  -0.0212252 -0.300601 2.53916e-05  -0.0134444 -0.293515 6.00219e-05  -0.0212147 -0.300558 2.3365e-05  -0.0212047 -0.300519 2.18153e-05  -0.0143383 -0.308498 6.05583e-05  -0.0216763 -0.308068 2.57492e-05  -0.0216677 -0.308033 2.36034e-05  -0.0143347 -0.308462 6.2108e-05  -0.0147867 -0.316004 6.10352e-05  -0.0216846 -0.308104 2.92659e-05  -0.0221419 -0.315607 3.38554e-05  -0.0143414 -0.308536 5.79953e-05  -0.0221336 -0.315574 3.21865e-05  -0.0221279 -0.315546 3.06368e-05  -0.0152349 -0.323501 5.78165e-05  -0.0225918 -0.323069 3.3021e-05  -0.0225847 -0.323044 3.32594e-05  -0.0152316 -0.323477 5.94854e-05  -0.0156834 -0.33099 5.78165e-05  -0.0225971 -0.323096 3.48687e-05  -0.0230503 -0.330581 3.8743e-05  -0.0152366 -0.323529 5.60284e-05  -0.0230463 -0.330556 3.75509e-05  -0.0230415 -0.330538 3.73125e-05  -0.0161302 -0.338464 5.51939e-05  -0.0234995 -0.338029 3.83854e-05  -0.0234942 -0.338012 3.65973e-05  -0.0161281 -0.338448 5.59092e-05  -0.0165758 -0.345929 5.44786e-05  -0.0235026 -0.338049 3.91603e-05  -0.0239527 -0.345513 4.15444e-05  -0.016129 -0.338485 5.42402e-05  -0.0239491 -0.345494 4.1008e-05  -0.0239439 -0.345484 4.23193e-05  -0.0170193 -0.353377 5.29289e-05  -0.0243964 -0.352942 4.29153e-05  -0.0243926 -0.352933 4.33922e-05  -0.0170166 -0.353369 5.28097e-05  -0.0174615 -0.360814 5.1856e-05  -0.0243993 -0.352957 4.31538e-05  -0.0248437 -0.360393 4.48227e-05  -0.0170188 -0.353393 5.07236e-05  -0.0248415 -0.360378 4.41074e-05  -0.0248384 -0.360374 4.63724e-05  -0.0179031 -0.368228 5.25713e-05  -0.0252845 -0.367793 4.60148e-05  -0.0252812 -0.367786 4.76837e-05  -0.0179017 -0.368224 5.03063e-05  -0.018342 -0.375625 4.78029e-05  -0.0252879 -0.367804 4.60744e-05  -0.0257277 -0.375206 4.88758e-05  -0.0179009 -0.368241 4.94719e-05  -0.0257244 -0.37519 4.88758e-05  -0.0257223 -0.375185 5.19753e-05  0 0 0  0.000188276 0.000268161 0.000798583  0.000125401 0.000342786 0.00047946  0.000281066 0.000677347 0.000660896  0.000557311 0.000586927 0.00123751  0.000724092 -0.000127316 0.00142705  0.000108086 0.000111699 0.000352621  0.000347495 -0.000341535 0.000541806  0 0 0  0 0 0  0.000168949 2.54512e-05 0.000619888  0 0 0  0.000415146 5.41806e-05 0.000713706  0.000585735 0.000668228 0.000900984  0.00133999 -0.0011155 0.0017333  0.000719011 -0.000894308 0.000887752  0.000827894 -0.000152707 0.00103939  0.00157902 -0.000371635 0.0020026  0.00193229 -0.00250769 0.00187194  0.000645325 -0.0014239 0.000723481  0.000974894 -0.00285941 0.000786722  0.00116713 -0.00164354 0.00140882  0.00105187 -0.00224477 0.000944734  0.0011386 -0.00138885 0.00109673  0.00255001 -0.00433415 0.00194073  0.00136527 -0.00405478 0.000981092  0.00142106 -0.00315213 0.0011276  0.00266466 -0.00343156 0.00219345  0.00314113 -0.00648314 0.00195158  0.00129673 -0.00474781 0.000832498  0.00161564 -0.00693196 0.000846922  0.0024341 -0.00502723 0.00164717  0.00167817 -0.00619465 0.000988722  0.00172445 -0.00525254 0.00112867  0.00371683 -0.00897563 0.0019356  0.00196517 -0.00868326 0.000978231  0.0020026 -0.00773209 0.00111961  0.00376782 -0.00802696 0.00218916  0.00426203 -0.0117601 0.0019058  0.00191253 -0.00944829 0.000839233  0.00219238 -0.0122463 0.00083214  0.00365165 -0.00974321 0.00166154  0.00224102 -0.0114659 0.000966787  0.00227225 -0.0105153 0.00110233  0.00477952 -0.0148369 0.00185788  0.00248975 -0.0145424 0.000940084  0.00252056 -0.0135999 0.00107718  0.00480092 -0.0138975 0.00210905  0.00526524 -0.0181836 0.00181389  0.00244808 -0.0153232 0.000807106  0.00268054 -0.0186658 0.000791907  0.00474393 -0.0156202 0.00159848  0.00271994 -0.0178881 0.000921607  0.00274694 -0.0169654 0.00105357  0.00571984 -0.021791 0.00175357  0.00292301 -0.0214934 0.000888944  0.00295389 -0.0205892 0.00101912  0.0057295 -0.0208892 0.00199711  0.00614184 -0.025646 0.00170434  0.0028879 -0.0222571 0.000763297  0.00306994 -0.0260966 0.000745475  0.00570005 -0.0225556 0.00150853  0.00310433 -0.0253464 0.000869036  0.00313264 -0.0244708 0.000995874  0.00653082 -0.029736 0.00164115  0.00325906 -0.0294331 0.000834584  0.00329137 -0.0285819 0.000957131  0.00653523 -0.0288866 0.00187278  0.00688702 -0.0340533 0.00159073  0.00322664 -0.0301616 0.000716507  0.00335658 -0.0344563 0.000698805  0.00651789 -0.030465 0.00141048  0.00338972 -0.0337473 0.000814915  0.00341922 -0.0329284 0.00093472  0.00720954 -0.0385827 0.00152826  0.00349373 -0.0382727 0.000780821  0.0035271 -0.0374804 0.000895143  0.00721389 -0.0377914 0.0017451  0.00749969 -0.0433193 0.00147855  0.0034619 -0.038956 0.000671208  0.00354075 -0.0436676 0.000654042  0.00720006 -0.0392674 0.00131261  0.00357342 -0.0430062 0.000763178  0.00360322 -0.0422458 0.000874758  0.00775492 -0.0482481 0.00141764  0.0036267 -0.0479292 0.000729322  0.00366092 -0.0471972 0.000835896  0.0077579 -0.0475166 0.00161862  0.00797892 -0.0533649 0.00136912  0.00359547 -0.0485642 0.000626743  0.00362432 -0.0536534 0.000610292  0.00774741 -0.0488842 0.00121766  0.00365496 -0.053041 0.000711441  0.00368547 -0.0523421 0.000815272  0.00816882 -0.0586554 0.00130975  0.00365877 -0.0583257 0.000679612  0.00369215 -0.0576531 0.000777721  0.00817323 -0.0579829 0.00149703  0.00832927 -0.064115 0.00126338  0.00362849 -0.0589108 0.000584066  0.00360787 -0.0643447 0.000568569  0.00816262 -0.0592411 0.00112635  0.00363767 -0.063781 0.000662446  0.00366771 -0.063141 0.00075829  0.00845671 -0.069732 0.00120628  0.00359356 -0.0693916 0.000630736  0.00362635 -0.0687753 0.000720859  0.00846064 -0.0691172 0.00137854  0.00855386 -0.0755018 0.00116289  0.00356483 -0.0699282 0.000543892  0.00349736 -0.0756713 0.000527918  0.00845027 -0.0702698 0.00103754  0.00352609 -0.0751562 0.000615239  0.0035547 -0.0745724 0.000703812  0.00862098 -0.0814123 0.00110817  0.00343621 -0.0810599 0.000584006  0.0034672 -0.0804998 0.000665903  0.00862551 -0.0808527 0.00126469  0.00865984 -0.0874595 0.00106573  0.00340939 -0.0815491 0.000504196  0.00329816 -0.0875704 0.000489533  0.00861514 -0.0819023 0.000953257  0.00332427 -0.0871021 0.000568986  0.00335026 -0.0865722 0.000648975  0.00866938 -0.0936321 0.00101423  0.00319147 -0.0932682 0.000539184  0.00321925 -0.092761 0.00061357  0.00867248 -0.093125 0.00115597  0.00865245 -0.0999277 0.000974178  0.00316668 -0.0937115 0.000466526  0.00301325 -0.0999826 0.000452697  0.00866497 -0.0940773 0.000873148  0.00303793 -0.0995584 0.000524879  0.0030632 -0.0990792 0.000597596  0.00860858 -0.106333 0.00092423  0.00286436 -0.105959 0.00049603  0.00289178 -0.105501 0.000564337  0.00861025 -0.105876 0.00105309  0.00853908 -0.112849 0.000885725  0.00284123 -0.106359 0.000429332  0.00265014 -0.112851 0.000416517  0.00860512 -0.106735 0.000796914  0.00267231 -0.112468 0.000481606  0.00269485 -0.112039 0.000547528  0.00844502 -0.119461 0.000838637  0.00246191 -0.119075 0.000454545  0.00248551 -0.118665 0.00051713  0.00844431 -0.119051 0.000953794  0.00832868 -0.12617 0.000801444  0.00244153 -0.119434 0.000395179  0.00221479 -0.126121 0.000381649  0.00844383 -0.119822 0.000724256  0.00223362 -0.125778 0.000440121  0.00225365 -0.125394 0.000500798  0.00818872 -0.132962 0.000756741  0.00198996 -0.132567 0.000415325  0.00201082 -0.132201 0.000471115  0.00818682 -0.132597 0.000860095  0.00802636 -0.139839 0.000722528  0.00197196 -0.132888 0.000361025  0.00171208 -0.139745 0.000349343  0.00818717 -0.133285 0.000654697  0.00172949 -0.139438 0.000401855  0.00174618 -0.139098 0.000455856  0.00784278 -0.14679 0.000680089  0.00145388 -0.146384 0.000376225  0.00147271 -0.14606 0.00042522  0.00783992 -0.146465 0.000770688  0.00763965 -0.153811 0.000648022  0.00143933 -0.14667 0.000329375  0.00115037 -0.153672 0.000317872  0.00784326 -0.147076 0.000588477  0.00116467 -0.153403 0.000364184  0.00117826 -0.153101 0.000413179  0.00741839 -0.160896 0.000607371  0.000861883 -0.160482 0.0003407  0.000875235 -0.160197 0.000384927  0.00741529 -0.16061 0.000688672  0.00717878 -0.168041 0.000575304  0.000847578 -0.160733 0.0002985  0.000532389 -0.167863 0.000286996  0.0074203 -0.161148 0.00052619  0.00054574 -0.167625 0.000328422  0.000556231 -0.167361 0.000371695  0.00692272 -0.175239 0.000538588  0.000217199 -0.174818 0.000306964  0.000228882 -0.17457 0.000344872  0.00691819 -0.174991 0.000608206  0.00664949 -0.182488 0.000510097  0.000206709 -0.175038 0.000269651  -0.000132322 -0.182271 0.000259042  0.00692534 -0.175461 0.000468135  -0.000122786 -0.182064 0.000294089  -0.000113726 -0.181836 0.000332355  0.00636053 -0.189779 0.000473976  -0.000473976 -0.189353 0.000274181  -0.000463009 -0.189138 0.000307441  0.0063529 -0.189565 0.000534654  0.00605702 -0.197113 0.000447631  -0.000481606 -0.189543 0.000243247  -0.000840902 -0.196862 0.000232041  0.00636506 -0.189971 0.000413895  -0.00083375 -0.196684 0.000263572  -0.000827074 -0.196487 0.00029695  0.00574088 -0.20448 0.000416398  -0.00120306 -0.204048 0.000244379  -0.00119662 -0.203864 0.000273585  0.0057323 -0.204298 0.000466466  0.00541186 -0.211881 0.000390291  -0.00121021 -0.204212 0.000216722  -0.00158715 -0.211599 0.00020653  0.00574732 -0.204644 0.000364065  -0.00158119 -0.211447 0.000233769  -0.0015769 -0.21128 0.000261426  0.00507212 -0.219307 0.000360489  -0.00196719 -0.21887 0.000216126  -0.00196195 -0.218715 0.000241756  0.00506258 -0.219151 0.000404954  0.00472069 -0.226758 0.000338554  -0.00197148 -0.219008 0.000192583  -0.00236416 -0.22645 0.000184298  0.00507903 -0.219447 0.000316858  -0.0023613 -0.22632 0.00020647  -0.0023582 -0.226183 0.000231028  0.00435781 -0.234228 0.000310063  -0.00276017 -0.233788 0.000190258  -0.00275636 -0.233659 0.000212312  0.00434947 -0.2341 0.000345588  0.00398684 -0.241717 0.000288963  -0.00276327 -0.233904 0.00017041  -0.00316834 -0.241385 0.000163198  0.00436544 -0.234345 0.000274241  -0.00316668 -0.241276 0.000181198  -0.0031631 -0.241162 0.000202298  0.00360656 -0.249216 0.000263453  -0.00357771 -0.248776 0.000166655  -0.00357699 -0.24867 0.000184417  0.00359702 -0.249112 0.000294924  0.00321937 -0.256729 0.00024581  -0.00357914 -0.24887 0.00015074  -0.00399566 -0.256376 0.000143409  0.00361419 -0.249313 0.000233948  -0.00399423 -0.256287 0.000159144  -0.0039947 -0.256196 0.000174522  0.00282454 -0.264248 0.000224352  -0.0044148 -0.263804 0.000145555  -0.00441289 -0.263721 0.00015974  0.00281453 -0.264164 0.000248075  0.00242162 -0.271772 0.000207663  -0.0044148 -0.263881 0.000132203  -0.00483847 -0.2714 0.000126183  0.00283074 -0.264326 0.000198603  -0.00483966 -0.271329 0.000137687  -0.00484037 -0.271257 0.000150919  0.00201559 -0.279296 0.000187159  -0.00526667 -0.278854 0.000125885  -0.00526714 -0.278788 0.000137091  0.00200558 -0.279232 0.000205874  0.00160146 -0.286823 0.000173807  -0.005265 -0.278913 0.000115991  -0.00569725 -0.286437 0.000111222  0.00202155 -0.279359 0.000167727  -0.00569844 -0.28638 0.000120163  -0.00569963 -0.286325 0.00013113  0.00118351 -0.294345 0.000156879  -0.00613046 -0.293902 0.000109792  -0.00613189 -0.293852 0.000118852  0.00117445 -0.294295 0.000170469  0.000762224 -0.301866 0.00014317  -0.00613117 -0.293952 0.000102043  -0.00656486 -0.301468 9.62019e-05  0.00119162 -0.294396 0.000141621  -0.00656414 -0.301423 0.000104308  -0.00656843 -0.301381 0.000112295  0.000337362 -0.309379 0.000129938  -0.00700402 -0.308936 9.5129e-05  -0.00700617 -0.308898 0.000100493  0.000329018 -0.309342 0.00013864  -9.2268e-05 -0.316887 0.000119209  -0.00700092 -0.308972 8.97646e-05  -0.00743985 -0.316477 8.59499e-05  0.000344753 -0.309417 0.000119925  -0.007442 -0.316444 8.92878e-05  -0.00744486 -0.316415 9.48906e-05  -0.00052166 -0.324382 0.00010705  -0.00788069 -0.32394 8.22544e-05  -0.00788307 -0.323912 8.7142e-05  -0.000530005 -0.324357 0.000113606  -0.000955582 -0.331871 9.83477e-05  -0.00787973 -0.323966 7.87973e-05  -0.00831914 -0.331453 7.59363e-05  -0.000516415 -0.32441 0.000100493  -0.00832224 -0.331427 7.82013e-05  -0.0083251 -0.331409 8.27312e-05  -0.00139093 -0.339344 8.98838e-05  -0.00876284 -0.338903 7.14064e-05  -0.00876641 -0.338886 7.41482e-05  -0.0013988 -0.339327 9.16719e-05  -0.00182867 -0.346809 8.07047e-05  -0.00875926 -0.338922 6.93202e-05  -0.00920153 -0.346388 6.53267e-05  -0.00138474 -0.339366 8.4281e-05  -0.0092032 -0.346369 6.7234e-05  -0.00920749 -0.346358 6.90222e-05  -0.00226569 -0.354257 7.21216e-05  -0.00964475 -0.353817 6.16312e-05  -0.00964832 -0.353806 6.33001e-05  -0.0022738 -0.354246 7.34329e-05  -0.00270343 -0.361693 6.36578e-05  -0.00964141 -0.353831 6.04391e-05  -0.0100825 -0.36127 5.72801e-05  -0.00225782 -0.354274 7.01547e-05  -0.0100861 -0.361253 5.67436e-05  -0.0100892 -0.361248 5.75781e-05  -0.00314093 -0.369108 5.62668e-05  -0.0105245 -0.368667 5.19753e-05  -0.010529 -0.368661 5.30481e-05  -0.00315118 -0.369102 5.3525e-05  -0.00357842 -0.376508 4.75645e-05  -0.0105221 -0.368681 5.26905e-05  -0.010957 -0.376081 4.78625e-05  -0.00313425 -0.369123 5.6684e-05  -0.0109613 -0.376063 4.70877e-05  -0.0109656 -0.376059 4.82798e-05  0 0 0  0.000399955 -0.00012368 0.00152016  0.000321694 0.000100315 0.00120699  0.000828996 0.000415146 0.0017879  0.00111654 0.000188231 0.0023725  0.0015249 -0.000781357 0.00275362  0.000297487 -0.000135005 0.000919163  0.000969484 -0.000775754 0.00161183  0 0 0  0 0 0  0.000366084 -0.000379086 0.00116843  0 0 0  0.00116651 -0.000374138 0.00208545  0.00166333 0.000228167 0.00257266  0.00273922 -0.00198346 0.00331819  0.0020285 -0.00147927 0.0025239  0.0023485 -0.000762701 0.00290346  0.00320235 -0.00124109 0.00384486  0.00394392 -0.00346327 0.0036279  0.00182441 -0.00201482 0.00206399  0.00274178 -0.00353199 0.00229377  0.00244415 -0.00252205 0.00269765  0.0029254 -0.00291127 0.00275409  0.00316781 -0.00207329 0.00316596  0.005142 -0.00534016 0.00376415  0.00381956 -0.00476474 0.00285184  0.00395513 -0.00387758 0.00322092  0.00534299 -0.00444055 0.00425673  0.00629815 -0.00749636 0.00380993  0.00368312 -0.00546134 0.00243115  0.00458878 -0.00766414 0.00246978  0.00496015 -0.0060457 0.0031935  0.00469142 -0.00692326 0.0028857  0.00478411 -0.00599271 0.00327671  0.00742233 -0.00998312 0.0037899  0.00553811 -0.00941223 0.00286424  0.00558323 -0.0084703 0.00323892  0.0074845 -0.0090366 0.00428545  0.00849789 -0.0127556 0.00374448  0.00546744 -0.0101806 0.00246692  0.00630081 -0.0129777 0.00243765  0.00734168 -0.0107597 0.00325435  0.00634968 -0.0121954 0.00282872  0.00637186 -0.0112506 0.00320876  0.00953507 -0.0158184 0.0036602  0.00712579 -0.0152655 0.00276136  0.00712949 -0.0143284 0.00313163  0.00953132 -0.0148811 0.00415015  0.0105244 -0.0191547 0.00357509  0.00709575 -0.0160471 0.00238132  0.00784731 -0.0193885 0.00232488  0.00951278 -0.0166064 0.00315136  0.00786442 -0.0186097 0.00269639  0.00785553 -0.01769 0.00306594  0.0114694 -0.0227504 0.00346375  0.00856364 -0.0222122 0.00261009  0.0085488 -0.0213106 0.00296915  0.0114352 -0.0218511 0.00393772  0.0123677 -0.0265992 0.00336206  0.00855619 -0.0229756 0.0022493  0.00922388 -0.0268165 0.00218242  0.0114779 -0.0235184 0.0029819  0.00922465 -0.0260666 0.00253487  0.00920302 -0.0251926 0.00288773  0.0132192 -0.0306823 0.00324082  0.00984466 -0.0301535 0.00244164  0.00982356 -0.0293039 0.00278294  0.0131724 -0.0298351 0.00369167  0.0140226 -0.034996 0.00313342  0.00984973 -0.0308815 0.00210154  0.0104327 -0.0351806 0.00203246  0.0132434 -0.0314125 0.00278729  0.0104249 -0.0344709 0.0023638  0.010399 -0.0336528 0.00269604  0.0147779 -0.0395219 0.00301087  0.0109645 -0.0389991 0.00226974  0.0109411 -0.0382073 0.00259066  0.0147266 -0.0387316 0.00343418  0.0154855 -0.0442572 0.0029031  0.0109754 -0.0396832 0.00195199  0.011474 -0.0444008 0.00188327  0.0148087 -0.0402064 0.00258851  0.0114628 -0.0437375 0.00219226  0.0114356 -0.0429793 0.00250304  0.0161434 -0.0491841 0.00278378  0.0119208 -0.0486667 0.00210047  0.0118978 -0.0479335 0.00239789  0.0160921 -0.048453 0.00317705  0.0167547 -0.0543012 0.00267935  0.0119336 -0.0493017 0.00180542  0.0123508 -0.0543997 0.00173932  0.0161769 -0.0498193 0.00239146  0.0123378 -0.0537865 0.00202477  0.012311 -0.0530863 0.00231266  0.0173167 -0.0595905 0.00256336  0.0127149 -0.0590767 0.0019362  0.0126926 -0.0584034 0.00221229  0.0172666 -0.0589179 0.0029273  0.0178323 -0.0650525 0.00246215  0.0127292 -0.0596627 0.00166482  0.0130662 -0.0651048 0.0016011  0.0173506 -0.0601767 0.00220245  0.0130526 -0.0645406 0.00186431  0.0130272 -0.0638993 0.00212955  0.0183015 -0.0706686 0.00235224  0.0133519 -0.0701572 0.00177884  0.0133306 -0.0695409 0.00203204  0.0182531 -0.0700531 0.00268579  0.0187258 -0.0764408 0.00225544  0.0133662 -0.0706946 0.00152993  0.0136265 -0.0764475 0.00146925  0.0183347 -0.0712059 0.00202113  0.0136129 -0.0759308 0.00171018  0.0135895 -0.0753462 0.00195324  0.0191044 -0.0823509 0.00215065  0.0138375 -0.0818416 0.00162923  0.0138168 -0.0812799 0.00185919  0.0190573 -0.0817902 0.00245464  0.0194405 -0.0884009 0.00205839  0.0138508 -0.0823326 0.00140154  0.0140378 -0.088364 0.00134361  0.0191365 -0.0828419 0.00184864  0.0140241 -0.0878935 0.00156391  0.0140008 -0.0873622 0.00178432  0.0197335 -0.0945747 0.00195825  0.0141779 -0.0940665 0.00148606  0.0141573 -0.0935563 0.0016948  0.0196881 -0.0940655 0.00223398  0.0199864 -0.100873 0.00187016  0.014191 -0.0945125 0.0012784  0.0143082 -0.100793 0.00122362  0.0197659 -0.0950204 0.00168389  0.0142949 -0.100366 0.00142276  0.0142713 -0.0998857 0.00162327  0.0201988 -0.107279 0.00177467  0.0143799 -0.106774 0.0013485  0.0143614 -0.106314 0.00153828  0.0201547 -0.10682 0.00202429  0.0203727 -0.113798 0.0016911  0.0143936 -0.107175 0.00116217  0.0144465 -0.113677 0.00110984  0.0202304 -0.107682 0.00152647  0.0144321 -0.113292 0.00128925  0.0144097 -0.11286 0.00147033  0.0205084 -0.120411 0.00160122  0.0144545 -0.119907 0.00121927  0.0144341 -0.119494 0.00138855  0.0204656 -0.119998 0.00182521  0.0206089 -0.127121 0.0015223  0.0144687 -0.120267 0.00105178  0.0144604 -0.126962 0.00100178  0.0205396 -0.120773 0.00137848  0.0144463 -0.126618 0.00116205  0.0144234 -0.126232 0.00132513  0.0206742 -0.133914 0.00143719  0.01441 -0.133412 0.00109625  0.0143894 -0.133044 0.00124872  0.0206321 -0.133547 0.00163627  0.0207057 -0.140793 0.00136125  0.0144247 -0.133735 0.000946701  0.0143595 -0.1406 0.000899673  0.0207049 -0.134239 0.00123817  0.0143454 -0.140292 0.0010426  0.0143213 -0.139949 0.00118744  0.020705 -0.147743 0.00128055  0.0142553 -0.147242 0.000980139  0.0142338 -0.146915 0.00111496  0.0206637 -0.147417 0.00145745  0.0206742 -0.154766 0.00121093  0.0142694 -0.14753 0.000848234  0.0141525 -0.15454 0.000803471  0.0207362 -0.148031 0.00110537  0.0141368 -0.154267 0.000929356  0.0141153 -0.153963 0.00105834  0.0206144 -0.161851 0.00113595  0.0139966 -0.161351 0.000871301  0.0139763 -0.161066 0.000989676  0.0205741 -0.161564 0.00129116  0.0205245 -0.168998 0.00106955  0.0140126 -0.161605 0.000753939  0.0138485 -0.16874 0.000712574  0.0206425 -0.162104 0.00097996  0.0138316 -0.1685 0.000823855  0.0138104 -0.168236 0.000935793  0.0204086 -0.176194 0.000999212  0.0136471 -0.175698 0.000767589  0.0136268 -0.175447 0.000871658  0.0203691 -0.175945 0.00113332  0.0202663 -0.183443 0.000936508  0.0136631 -0.175919 0.000666976  0.0134561 -0.183157 0.000627816  0.0204365 -0.176416 0.000863552  0.0134392 -0.182949 0.000724077  0.0134158 -0.182719 0.000820518  0.0200982 -0.190732 0.000870109  0.0132132 -0.190239 0.000672698  0.0131912 -0.190023 0.000761867  0.0200613 -0.190516 0.000988245  0.0199087 -0.198064 0.000814438  0.0132294 -0.19043 0.000585377  0.0129836 -0.197755 0.000549138  0.0201273 -0.190925 0.000754774  0.0129664 -0.197575 0.000630736  0.0129426 -0.197377 0.000717044  0.0196958 -0.205429 0.00075376  0.0127027 -0.204941 0.000583887  0.0126815 -0.204755 0.000660777  0.0196593 -0.205246 0.000852942  0.0194623 -0.212829 0.000700831  0.0127192 -0.205105 0.000509024  0.0124381 -0.212497 0.000476241  0.0197237 -0.205595 0.000654221  0.0124223 -0.212344 0.000545263  0.0123985 -0.212175 0.000617504  0.0192091 -0.220252 0.000644445  0.0121257 -0.219767 0.000502229  0.0121043 -0.219609 0.000567794  0.0191741 -0.220098 0.000728011  0.0189376 -0.227703 0.000596523  0.0121424 -0.219907 0.000439465  0.011831 -0.227351 0.000408888  0.0192356 -0.220392 0.000561297  0.0118155 -0.22722 0.000466824  0.0117927 -0.227081 0.000528455  0.0186486 -0.235169 0.000545144  0.0114899 -0.234689 0.000427365  0.0114696 -0.234558 0.000482082  0.0186148 -0.235041 0.000615358  0.0183427 -0.242656 0.000503302  0.0115066 -0.234804 0.000375867  0.011168 -0.242286 0.000347733  0.0186746 -0.235287 0.000476897  0.0111513 -0.242177 0.000395894  0.011131 -0.242063 0.000445485  0.0180225 -0.250152 0.000457168  0.010802 -0.249675 0.000360727  0.0107839 -0.24957 0.000404835  0.0179918 -0.250049 0.0005126  0.017689 -0.257663 0.000417948  0.010819 -0.249773 0.000317931  0.010457 -0.257279 0.000292778  0.0180476 -0.250248 0.000399947  0.010442 -0.257189 0.000332713  0.010422 -0.257097 0.000372648  0.0173426 -0.265176 0.000377655  0.0100718 -0.264705 0.000300765  0.0100541 -0.26462 0.000334382  0.0173135 -0.265093 0.000421286  0.0169814 -0.272699 0.000341773  0.010087 -0.264782 0.000266552  0.00970602 -0.272302 0.000244737  0.0173643 -0.265256 0.000332057  0.00969267 -0.27223 0.000274181  0.0096724 -0.272157 0.000306726  0.0166116 -0.28022 0.000306606  0.00930381 -0.279753 0.000246525  0.00928712 -0.279686 0.000274539  0.016587 -0.280154 0.000339866  0.0162327 -0.287744 0.000275731  0.00931835 -0.279816 0.000221789  0.00892019 -0.287337 0.000202477  0.0166333 -0.280282 0.000272155  0.00890803 -0.287279 0.000224233  0.00889206 -0.287224 0.000250936  0.0158448 -0.295263 0.000246644  0.00850534 -0.294801 0.000201941  0.00849223 -0.29475 0.000221968  0.0158217 -0.295214 0.000271082  0.0154464 -0.302781 0.00022161  0.00851774 -0.294849 0.000182271  0.0081079 -0.302366 0.000165284  0.015862 -0.295311 0.000220656  0.00809669 -0.30232 0.000182748  0.00808167 -0.30228 0.000201225  0.0150433 -0.310288 0.000195265  0.00768328 -0.309831 0.000162959  0.00767064 -0.309793 0.000176668  0.0150249 -0.310252 0.000213504  0.0146329 -0.317793 0.000174761  0.00769401 -0.309868 0.000149906  0.00727415 -0.317372 0.000136554  0.0150585 -0.310326 0.000177622  0.00726438 -0.317337 0.000148177  0.00725102 -0.317308 0.000159502  0.0142179 -0.325284 0.000154376  0.00684094 -0.324832 0.000131249  0.00682926 -0.324805 0.000141859  0.0141988 -0.32526 0.000165939  0.0137935 -0.332769 0.000138164  0.00685048 -0.32486 0.000123262  0.00642395 -0.332345 0.000111759  0.0142298 -0.325313 0.000142455  0.00641251 -0.33232 0.000117779  0.00640106 -0.332298 0.000126481  0.0133688 -0.34024 0.000122428  0.00598431 -0.339791 0.000105023  0.00597167 -0.339771 0.000110149  0.0133541 -0.340222 0.000127435  0.012938 -0.347701 0.000107527  0.00599265 -0.33981 0.000100255  0.00555968 -0.347274 9.05395e-05  0.0133812 -0.340261 0.000114799  0.00555015 -0.347253 9.26256e-05  0.00553918 -0.347242 9.87053e-05  0.0125072 -0.355146 9.23872e-05  0.00511432 -0.354702 8.14199e-05  0.00510478 -0.354688 8.54731e-05  0.0124938 -0.355135 9.58443e-05  0.0120714 -0.362582 7.93934e-05  0.00512528 -0.354717 8.08239e-05  0.00468779 -0.362154 7.236e-05  0.0125182 -0.355164 9.05395e-05  0.00467873 -0.362136 7.02143e-05  0.004668 -0.362129 7.08103e-05  0.0116353 -0.37 6.63996e-05  0.00424266 -0.369554 5.9247e-05  0.00423241 -0.369545 5.91278e-05  0.0116193 -0.369992 6.18696e-05  0.0112 -0.377407 5.19753e-05  0.00425076 -0.369568 6.21676e-05  0.00381804 -0.376976 5.31673e-05  0.0116475 -0.370016 6.77705e-05  0.00381088 -0.376956 5.01871e-05  0.00379515 -0.376949 4.48227e-05  0 0 0  0.000705801 -0.00104004 0.00217009  0.000602894 -0.00047493 0.00189149  0.0014466 -0.000171423 0.00285816  0.00177556 -0.00065577 0.0034349  0.00265411 -0.0020808 0.00395513  0.000574797 -0.000730217 0.00144577  0.00178251 -0.00174814 0.00261033  0 0 0  0 0 0  0.000661671 -0.00130105 0.00167292  0 0 0  0.00208971 -0.00132245 0.00336671  0.0028912 -0.000715137 0.00414515  0.00453693 -0.00349259 0.00475991  0.00359319 -0.00264305 0.00404835  0.0041109 -0.00192255 0.00467014  0.005201 -0.00269771 0.00554001  0.00638255 -0.00504947 0.00525093  0.00327484 -0.00320417 0.0033052  0.00481737 -0.00484419 0.00369865  0.00414854 -0.00407523 0.00387025  0.00509119 -0.00418794 0.00444818  0.00547665 -0.00334466 0.00512588  0.00815511 -0.00691164 0.00548303  0.00658172 -0.00605619 0.00462472  0.00679615 -0.00515962 0.00523722  0.00842682 -0.00598449 0.00622785  0.00985387 -0.00905967 0.00558972  0.00639075 -0.00677419 0.00393659  0.00787705 -0.00898623 0.00401479  0.0079371 -0.0076642 0.00464046  0.00801021 -0.00821972 0.00470269  0.00814965 -0.00728339 0.00535679  0.0115143 -0.0115075 0.00558746  0.00940681 -0.0106841 0.00468957  0.00946274 -0.00973517 0.0053103  0.0115841 -0.0105454 0.006338  0.0131063 -0.0142577 0.00554085  0.00932536 -0.0114675 0.00403416  0.0106992 -0.0142466 0.00399423  0.0114319 -0.0123135 0.00478703  0.0107451 -0.0134495 0.00464332  0.0107619 -0.0125002 0.0052793  0.014656 -0.0172906 0.00543082  0.0120387 -0.0164958 0.00454664  0.0120189 -0.0155555 0.00515878  0.0146276 -0.0163454 0.00616896  0.0161415 -0.020606 0.00531173  0.0120218 -0.0172862 0.00391799  0.013282 -0.0206099 0.00382721  0.0146477 -0.018094 0.00466919  0.0132783 -0.0198233 0.00444388  0.0132366 -0.0189028 0.00505507  0.0175744 -0.0241782 0.00515389  0.0144665 -0.0234079 0.00430906  0.0144101 -0.0225064 0.00490022  0.0174995 -0.0232764 0.00586307  0.0189447 -0.0280106 0.00500119  0.0144864 -0.0241759 0.00371182  0.0156323 -0.0280035 0.0035997  0.0176063 -0.0249532 0.0044331  0.0156018 -0.0272499 0.00418222  0.0155335 -0.0263774 0.0047636  0.0202541 -0.0320742 0.00482535  0.0166827 -0.0313239 0.00403309  0.0166103 -0.0304744 0.00459445  0.0201588 -0.0312271 0.0054971  0.0215012 -0.036374 0.00466049  0.0167209 -0.0320531 0.00347072  0.0177517 -0.0363428 0.00335199  0.0203066 -0.0328062 0.00414842  0.0177078 -0.0356331 0.00389743  0.0176294 -0.0348159 0.00444436  0.0226842 -0.0408823 0.00448108  0.0186778 -0.0401497 0.00374615  0.0186012 -0.0393578 0.00427306  0.0225819 -0.0400933 0.00511074  0.0238044 -0.0456046 0.00431621  0.0187253 -0.0408331 0.00322157  0.0196402 -0.0455434 0.00310302  0.0227462 -0.0415651 0.00385112  0.0195915 -0.0448816 0.00361037  0.0195109 -0.0441243 0.00411963  0.0248593 -0.0505141 0.00414026  0.0204487 -0.0497999 0.0034616  0.0203735 -0.0490679 0.00395155  0.0247556 -0.0497845 0.00472414  0.0258514 -0.0556198 0.00397801  0.0204997 -0.0504339 0.00297534  0.0213009 -0.0555266 0.00286025  0.024924 -0.0511484 0.00355685  0.0212507 -0.0549142 0.00332952  0.0211704 -0.0542152 0.00380123  0.0267781 -0.0608931 0.00380802  0.021997 -0.0601959 0.00318575  0.0219226 -0.0595218 0.00363731  0.0266777 -0.0602219 0.00434709  0.0276446 -0.0663443 0.00365126  0.022048 -0.0607806 0.0027377  0.0227377 -0.0662186 0.00262731  0.0268439 -0.0614777 0.00327063  0.022688 -0.0656553 0.00305843  0.0226094 -0.0650147 0.00349188  0.0284483 -0.071946 0.00348997  0.0233254 -0.0712652 0.00292063  0.0232545 -0.0706466 0.00333464  0.0283505 -0.0713318 0.00398254  0.0291924 -0.0777082 0.00333965  0.0233761 -0.0718009 0.00251037  0.0239593 -0.0775508 0.00240457  0.0285119 -0.0724825 0.00299734  0.0239092 -0.077035 0.00279832  0.023836 -0.0764499 0.00319517  0.0298764 -0.0836043 0.00318563  0.0244436 -0.0829385 0.00266814  0.0243745 -0.0823755 0.00304496  0.0297823 -0.0830437 0.00363553  0.0305036 -0.089645 0.00304234  0.0244917 -0.0834279 0.00229299  0.0249723 -0.0894566 0.00219244  0.0299383 -0.0840939 0.00273693  0.0249252 -0.0889867 0.00255144  0.0248533 -0.088455 0.00291252  0.0310731 -0.095805 0.00289512  0.0253584 -0.0951537 0.00242639  0.0252925 -0.0946441 0.00276959  0.0309831 -0.0952969 0.00330365  0.0315881 -0.102095 0.00275874  0.0254054 -0.0955986 0.00208724  0.0257895 -0.101877 0.00199097  0.0311328 -0.0962498 0.0024882  0.0257424 -0.10145 0.00231504  0.0256748 -0.100969 0.00264239  0.0320499 -0.108488 0.00261927  0.0260823 -0.107851 0.00219727  0.0260181 -0.10739 0.00250661  0.0319637 -0.108029 0.00298738  0.0324603 -0.114998 0.00249028  0.0261277 -0.108253 0.00189108  0.0264193 -0.114751 0.00179994  0.0321076 -0.10889 0.00225264  0.0263734 -0.114367 0.00209141  0.0263089 -0.113934 0.00238657  0.0328197 -0.121597 0.00235915  0.0266235 -0.120974 0.00197947  0.026563 -0.12056 0.00225663  0.0327371 -0.121186 0.00268757  0.0331312 -0.128301 0.00223589  0.0266681 -0.121337 0.00170511  0.0268731 -0.128028 0.00161856  0.0328759 -0.12196 0.00202876  0.0268297 -0.127683 0.00188029  0.0267656 -0.127296 0.00214314  0.0333958 -0.135081 0.00211012  0.0269959 -0.134471 0.00177336  0.0269368 -0.1341 0.00202191  0.0333152 -0.134713 0.00240421  0.0336146 -0.141953 0.0019958  0.0270399 -0.134794 0.00152868  0.0271642 -0.141656 0.00144756  0.0334494 -0.135405 0.00181741  0.0271225 -0.141349 0.00167918  0.0270605 -0.141004 0.00191271  0.0337899 -0.148888 0.00187743  0.0272114 -0.148292 0.00157845  0.0271542 -0.147964 0.00179851  0.0337126 -0.148564 0.0021373  0.0339234 -0.155905 0.00176787  0.0272536 -0.14858 0.00136214  0.0273039 -0.155587 0.00128603  0.0338414 -0.149177 0.00161767  0.0272627 -0.155314 0.00149071  0.0272028 -0.15501 0.00169635  0.0340168 -0.162976 0.00165784  0.0272815 -0.162392 0.00139666  0.0272253 -0.162104 0.0015893  0.033942 -0.16269 0.00188541  0.03407 -0.170114 0.00155687  0.0273218 -0.162645 0.00120676  0.0273039 -0.169776 0.00113475  0.0340664 -0.163229 0.00143057  0.0272639 -0.169536 0.00131392  0.0272064 -0.169271 0.00149477  0.0340869 -0.177298 0.00145364  0.0272157 -0.176727 0.00122511  0.0271621 -0.176474 0.0013938  0.0340152 -0.177048 0.001652  0.0340686 -0.184539 0.00135899  0.0272543 -0.176948 0.00106108  0.0271738 -0.184183 0.000993371  0.0341361 -0.17752 0.00125575  0.0271356 -0.183974 0.00114715  0.0270801 -0.183744 0.00130427  0.0340161 -0.191816 0.00126314  0.0270271 -0.191258 0.0010668  0.0269761 -0.191041 0.00121188  0.0339487 -0.191601 0.0014329  0.0339308 -0.19914 0.00117457  0.0270658 -0.191449 0.00092411  0.0269275 -0.198769 0.00086242  0.0340631 -0.192008 0.0010919  0.02689 -0.198587 0.000994444  0.0268381 -0.198391 0.0011282  0.0338154 -0.206493 0.00108647  0.0267284 -0.205948 0.000919342  0.0266798 -0.20576 0.00104332  0.0337508 -0.206309 0.00123131  0.0336711 -0.213884 0.00100541  0.0267653 -0.206111 0.000800014  0.0265756 -0.213498 0.000741839  0.0338595 -0.206658 0.000941217  0.0265403 -0.213344 0.000853419  0.0264897 -0.213177 0.000968218  0.0334997 -0.221296 0.000923991  0.0263293 -0.220763 0.000784636  0.0262837 -0.220607 0.000887871  0.0334401 -0.221141 0.00104511  0.0333016 -0.228737 0.000850201  0.0263636 -0.220902 0.000682831  0.0261285 -0.22834 0.000630558  0.0335412 -0.221435 0.000802457  0.0260959 -0.22821 0.000724196  0.0260479 -0.228071 0.000818372  0.0330794 -0.236191 0.000775814  0.02584 -0.235672 0.000661373  0.0257974 -0.235541 0.000747323  0.0330231 -0.236064 0.000875235  0.0328321 -0.24367 0.000708938  0.0258746 -0.235788 0.000577748  0.025598 -0.243262 0.000530303  0.0331175 -0.236307 0.000676632  0.0255663 -0.243154 0.000607252  0.0255215 -0.243041 0.000683308  0.0325639 -0.251156 0.000642896  0.0252736 -0.250646 0.000549912  0.025234 -0.25054 0.0006212  0.0325134 -0.251052 0.000723958  0.0322776 -0.258657 0.000583053  0.0253048 -0.250741 0.000483036  0.0249937 -0.258242 0.000440061  0.0326018 -0.251251 0.000562489  0.0249639 -0.258153 0.000500441  0.0249214 -0.258062 0.000562549  0.0319724 -0.266161 0.000523806  0.0246384 -0.265662 0.000450015  0.0246022 -0.265578 0.000506163  0.0319264 -0.26608 0.000588536  0.0316479 -0.273675 0.00047183  0.0246661 -0.26574 0.000398457  0.0243239 -0.273253 0.000360131  0.0320063 -0.266238 0.000462294  0.0242982 -0.273182 0.000407815  0.024261 -0.27311 0.000457764  0.0313098 -0.281186 0.00042057  0.0239449 -0.280698 0.000364065  0.023911 -0.280631 0.000408053  0.0312676 -0.281124 0.000469804  0.0309544 -0.288703 0.000375271  0.0239699 -0.28076 0.000323057  0.023602 -0.288276 0.000291348  0.0313396 -0.281247 0.000373185  0.0235784 -0.28822 0.000326395  0.0235462 -0.288166 0.000363708  0.0305867 -0.296212 0.000331879  0.0232017 -0.295734 0.000290275  0.023175 -0.295683 0.000320673  0.0305493 -0.296166 0.000367761  0.0302067 -0.303723 0.000293851  0.0232232 -0.29578 0.000259697  0.022835 -0.303293 0.000232518  0.0306139 -0.296259 0.00029701  0.0228152 -0.30325 0.000257492  0.0227864 -0.303209 0.000283837  0.0298185 -0.311222 0.000258565  0.0224183 -0.310753 0.00022769  0.0223932 -0.310717 0.00025034  0.0297875 -0.31119 0.000281453  0.0294173 -0.318721 0.000227213  0.022438 -0.31079 0.000207067  0.0220304 -0.318289 0.000184536  0.02984 -0.311258 0.000232816  0.0220129 -0.318255 0.000202417  0.0219917 -0.318226 0.000219345  0.0290101 -0.326204 0.000198007  0.0216029 -0.325744 0.000176191  0.0215824 -0.325716 0.000190854  0.0289848 -0.32618 0.000213027  0.0285923 -0.333683 0.000174522  0.0216198 -0.32577 0.000163138  0.0211999 -0.333251 0.000146747  0.0290294 -0.326231 0.000182629  0.0211852 -0.333224 0.000156999  0.0211649 -0.333208 0.000166535  0.0281725 -0.341145 0.000152707  0.0207627 -0.340692 0.00013566  0.0207458 -0.340674 0.000145674  0.0281518 -0.341132 0.000160813  0.0277445 -0.348602 0.000132442  0.0207765 -0.340713 0.000131428  0.0203483 -0.348172 0.000115216  0.0281885 -0.341168 0.000143349  0.020335 -0.348151 0.00011909  0.020319 -0.348138 0.000125408  0.0273139 -0.356044 0.000115395  0.0199034 -0.355595 0.000103951  0.0198889 -0.355581 0.000107408  0.0272989 -0.356031 0.000118971  0.0268791 -0.363477 0.000100136  0.0199161 -0.355612 0.000102401  0.0194826 -0.363047 8.91089e-05  0.0273297 -0.356061 0.000112176  0.0194702 -0.363029 8.84533e-05  0.019455 -0.363021 8.97646e-05  0.0264435 -0.370896 8.44002e-05  0.0190346 -0.37045 7.4625e-05  0.0190194 -0.370437 7.236e-05  0.0264268 -0.370886 8.22544e-05  0.0260057 -0.378312 6.79493e-05  0.0190458 -0.370467 7.67708e-05  0.0186133 -0.377878 6.47306e-05  0.0264573 -0.370913 8.60095e-05  0.0186005 -0.377859 5.94854e-05  0.0185843 -0.377851 5.23329e-05  0 0 0  0.00126323 -0.00305855 0.00295925  0.00113215 -0.00173169 0.00258768  0.00222284 -0.0013054 0.00391316  0.00279883 -0.00205612 0.00487649  0.00453401 -0.00449276 0.00503469  0.00108536 -0.00201523 0.00195771  0.0030524 -0.00370806 0.00353348  0 0 0  0 0 0  0.00116765 -0.00335288 0.00222361  0 0 0  0.00340123 -0.00317979 0.00452685  0.00436716 -0.00246763 0.00553226  0.00697495 -0.00562584 0.00612342  0.00563216 -0.00449878 0.00543356  0.00630006 -0.00364417 0.00636637  0.00767393 -0.00472027 0.0072  0.00934893 -0.00721425 0.00691175  0.00528401 -0.00514132 0.00444764  0.00744978 -0.00685441 0.00500453  0.00675879 -0.00636911 0.00504106  0.00775525 -0.00609905 0.00603998  0.00821882 -0.00516957 0.00702107  0.0116445 -0.00898087 0.00719225  0.00981793 -0.0078913 0.00631845  0.0100912 -0.00692415 0.007218  0.0119385 -0.00797707 0.00824606  0.0139053 -0.0110966 0.00740933  0.00962907 -0.00867742 0.00537014  0.0116681 -0.0108553 0.00549978  0.0115454 -0.00981772 0.00609195  0.0118019 -0.0100322 0.00647318  0.0119615 -0.00904584 0.00742149  0.0160965 -0.0135066 0.00738609  0.0137322 -0.0124497 0.00647736  0.0137944 -0.0114639 0.00736892  0.0161697 -0.0125002 0.00843191  0.0182419 -0.0162288 0.00735223  0.0136599 -0.013272 0.0055595  0.0155593 -0.0160164 0.00551528  0.0160602 -0.0143536 0.0063231  0.0155964 -0.0151892 0.00643373  0.0156006 -0.0142139 0.00734222  0.0203081 -0.019231 0.00719762  0.0174027 -0.0182032 0.00630999  0.0173617 -0.017244 0.00717854  0.0202694 -0.0182639 0.00820398  0.022311 -0.0225245 0.00704455  0.0173985 -0.0190133 0.00542861  0.0191609 -0.0223097 0.00530618  0.020309 -0.0200536 0.00618088  0.0191444 -0.0215091 0.00617301  0.0190731 -0.0205761 0.00703609  0.024235 -0.0260639 0.0068332  0.0208209 -0.0250656 0.00599146  0.0207306 -0.0241554 0.00682199  0.0241431 -0.0251525 0.00778687  0.0260819 -0.0298769 0.00662875  0.0208551 -0.0258404 0.00515497  0.0224752 -0.0296472 0.00499892  0.0242624 -0.0268444 0.0058735  0.0224286 -0.0288876 0.00581372  0.0223224 -0.0280111 0.00662744  0.0278504 -0.033904 0.00639641  0.0239671 -0.0329357 0.00560951  0.023856 -0.0320838 0.00639403  0.0277339 -0.0330555 0.00729179  0.0295353 -0.0381855 0.00617337  0.0240222 -0.0336665 0.00482523  0.0254956 -0.037937 0.00465715  0.0278952 -0.0346348 0.00549722  0.0254349 -0.0372267 0.00541675  0.0253146 -0.0364096 0.0061779  0.0311445 -0.0426555 0.00593901  0.0268303 -0.0417182 0.00520957  0.0267105 -0.040926 0.00594294  0.0310188 -0.0418707 0.00677204  0.0326662 -0.0473616 0.00571275  0.0268951 -0.0423992 0.00447816  0.0282208 -0.0470926 0.00431019  0.0311979 -0.0433358 0.00510246  0.0281525 -0.0464333 0.00501478  0.0280296 -0.0456769 0.00572228  0.0341133 -0.0522333 0.00548339  0.0294037 -0.0513268 0.00481141  0.0292847 -0.0505937 0.00549042  0.0339867 -0.0515078 0.0062536  0.035473 -0.0573229 0.00526261  0.0294713 -0.0519579 0.00413513  0.0306512 -0.0570333 0.00397086  0.0341698 -0.0528621 0.00471067  0.030582 -0.0564241 0.00462103  0.0304612 -0.0557276 0.0052743  0.0367606 -0.0625596 0.0050416  0.0316895 -0.0616821 0.00442481  0.0315744 -0.0610081 0.00505102  0.0366378 -0.0618932 0.00574911  0.0379623 -0.0679942 0.00482845  0.031758 -0.0622634 0.0038023  0.0327952 -0.0676862 0.00364447  0.0368181 -0.0631379 0.00433093  0.0327265 -0.0671256 0.00424039  0.0326089 -0.0664862 0.00484061  0.039093 -0.0735607 0.00461638  0.0336949 -0.0727124 0.0040524  0.033583 -0.0720958 0.00462687  0.0389746 -0.0729505 0.00526559  0.0401424 -0.0793075 0.00441217  0.0337608 -0.0732449 0.00348276  0.0346606 -0.0789797 0.00333184  0.0391506 -0.0740901 0.00396633  0.0345938 -0.0784668 0.00387669  0.0344809 -0.0778838 0.00442517  0.0411258 -0.0851691 0.00421011  0.0354277 -0.084349 0.00369775  0.0353203 -0.0837865 0.00422049  0.0410106 -0.0846127 0.00480115  0.0420272 -0.0911959 0.00401545  0.0354929 -0.0848352 0.003178  0.0362606 -0.0908495 0.00303453  0.0411803 -0.0856522 0.003618  0.036195 -0.0903825 0.00352967  0.0360864 -0.0898517 0.00402892  0.0428678 -0.0973217 0.00382364  0.0368998 -0.0965283 0.0033586  0.0367968 -0.0960174 0.00383306  0.0427588 -0.0968175 0.00435734  0.0436307 -0.103596 0.00363851  0.0369632 -0.0969701 0.00288892  0.0376046 -0.103235 0.00275177  0.0429211 -0.09776 0.00328714  0.0375428 -0.102811 0.00319934  0.0374393 -0.102331 0.00365007  0.0443339 -0.109958 0.00345635  0.0381262 -0.109192 0.00303781  0.0380268 -0.10873 0.00346553  0.0442299 -0.109502 0.00393856  0.0449659 -0.116454 0.00327981  0.038186 -0.109591 0.00261337  0.03871 -0.116076 0.00248343  0.0443867 -0.110354 0.00297308  0.0386498 -0.115694 0.0028857  0.0385495 -0.115262 0.00329041  0.0455421 -0.123022 0.00310814  0.0391176 -0.122281 0.00273216  0.039022 -0.121866 0.00311518  0.0454412 -0.122613 0.00353611  0.046049 -0.129711 0.00294101  0.0391757 -0.12264 0.00235319  0.0395879 -0.129319 0.00222933  0.0455929 -0.123378 0.00267476  0.0395298 -0.128976 0.00258899  0.0394331 -0.128591 0.00295067  0.0465045 -0.136461 0.00277746  0.0398897 -0.135745 0.00244343  0.039799 -0.135376 0.00278592  0.0464084 -0.136097 0.00316  0.0468967 -0.143319 0.00261843  0.0399458 -0.136066 0.00210607  0.0402546 -0.142915 0.00198966  0.0465536 -0.136779 0.00239301  0.0401978 -0.142609 0.00230861  0.0401063 -0.142266 0.00262845  0.0472395 -0.150227 0.00246751  0.0404584 -0.149536 0.00217199  0.0403721 -0.149206 0.00247359  0.0471463 -0.149904 0.00280273  0.0475228 -0.157228 0.0023185  0.040513 -0.14982 0.00187224  0.0407236 -0.156815 0.00176394  0.0472872 -0.150509 0.00212651  0.040669 -0.156544 0.00204325  0.0405815 -0.15624 0.00232673  0.0477617 -0.16427 0.00217402  0.0408356 -0.163604 0.00191557  0.0407517 -0.163315 0.00218022  0.0476732 -0.163988 0.00247097  0.0479445 -0.171396 0.00203633  0.0408885 -0.163854 0.00165415  0.0410097 -0.170971 0.00155294  0.0478082 -0.164519 0.0018785  0.040957 -0.170735 0.00179744  0.0408726 -0.170469 0.00204325  0.0480888 -0.178551 0.00190198  0.0410371 -0.177907 0.00167692  0.0409572 -0.177656 0.00190651  0.0480018 -0.178305 0.00215757  0.0481775 -0.185778 0.00177264  0.0410874 -0.178126 0.00145048  0.0411265 -0.185348 0.00135446  0.0481322 -0.178767 0.001643  0.0410767 -0.185142 0.00156558  0.0409961 -0.184913 0.00177896  0.0482323 -0.193029 0.00164783  0.0410786 -0.192408 0.00145519  0.041002 -0.19219 0.00165379  0.0481529 -0.192816 0.00186646  0.0482392 -0.200339 0.00152814  0.0411265 -0.192597 0.00126022  0.0410898 -0.199903 0.00117213  0.0482752 -0.193217 0.00142652  0.0410409 -0.199726 0.00135148  0.0409656 -0.199528 0.00153291  0.048213 -0.207665 0.00141275  0.0409706 -0.207067 0.00124943  0.0408995 -0.206881 0.00141633  0.0481372 -0.207485 0.00159883  0.048142 -0.215044 0.00130343  0.0410175 -0.20723 0.00108427  0.0409119 -0.214603 0.00100285  0.0482538 -0.207826 0.00122565  0.0408673 -0.214451 0.0011549  0.0407956 -0.214285 0.00130808  0.0480421 -0.22243 0.0011977  0.0407314 -0.221853 0.00105989  0.0406644 -0.221696 0.00120151  0.0479708 -0.22228 0.00135171  0.0479031 -0.229861 0.00109744  0.0407748 -0.22199 0.000922024  0.0406089 -0.229415 0.000848889  0.0480824 -0.222567 0.00104177  0.0405664 -0.229288 0.000974178  0.0404997 -0.22915 0.0011009  0.0477374 -0.23729 0.00100136  0.0403726 -0.236733 0.000888467  0.0403101 -0.236602 0.00100589  0.0476713 -0.237166 0.00112677  0.0475376 -0.244758 0.000910759  0.0404143 -0.236847 0.00077498  0.0401928 -0.244311 0.000708699  0.047775 -0.237403 0.000874758  0.0401525 -0.244205 0.000810862  0.0400908 -0.244093 0.00091362  0.0473142 -0.252218 0.000823021  0.0399058 -0.251681 0.000733018  0.0398514 -0.251577 0.000826478  0.0472548 -0.252119 0.00092268  0.0470591 -0.259712 0.000740647  0.0399449 -0.251774 0.000643194  0.0396762 -0.259263 0.000583053  0.0473478 -0.252311 0.000721931  0.0396392 -0.259178 0.000663042  0.0395827 -0.259089 0.00074625  0.0467846 -0.267192 0.000666261  0.0393493 -0.266672 0.000595331  0.0393 -0.26659 0.000669241  0.0467315 -0.267113 0.000742793  0.0464804 -0.274696 0.00059545  0.0393836 -0.266748 0.000525773  0.0390718 -0.27425 0.000473022  0.0468154 -0.267266 0.00058651  0.0390396 -0.274181 0.000534654  0.0389893 -0.274112 0.000597715  0.0461638 -0.282186 0.000529766  0.0387101 -0.281684 0.000475407  0.0386655 -0.281619 0.000531912  0.046114 -0.282127 0.00058496  0.0458205 -0.289693 0.000466466  0.0387411 -0.281741 0.00042212  0.0383949 -0.289249 0.000377297  0.0461912 -0.282244 0.00047034  0.0383644 -0.289195 0.000421882  0.0383205 -0.289143 0.000468969  0.045464 -0.297186 0.000409842  0.0380039 -0.296698 0.000372052  0.0379653 -0.296649 0.000412822  0.0454218 -0.297142 0.000451803  0.0450873 -0.304686 0.000358701  0.0380318 -0.296742 0.000334322  0.0376549 -0.304244 0.000296235  0.0454905 -0.297229 0.000368893  0.0376291 -0.304203 0.000326633  0.037591 -0.304168 0.000359416  0.0447018 -0.31217 0.000313878  0.0372405 -0.311697 0.000285625  0.0372078 -0.311663 0.000314116  0.0446651 -0.312141 0.000339746  0.0442984 -0.319662 0.00027144  0.0372658 -0.311729 0.000261664  0.0368657 -0.319221 0.000230253  0.0447259 -0.312203 0.000286579  0.0368435 -0.319189 0.000248671  0.0368125 -0.319164 0.000270009  0.0438898 -0.327129 0.000235796  0.0364354 -0.326669 0.000218391  0.0364087 -0.326643 0.000235319  0.0438592 -0.327112 0.000249743  0.0434639 -0.334602 0.000204563  0.0364547 -0.326693 0.000203073  0.0360358 -0.334167 0.000179529  0.0439095 -0.327154 0.000220656  0.0360188 -0.334143 0.000189662  0.0359936 -0.334127 0.000201941  0.0430381 -0.342054 0.000179887  0.0355942 -0.341603 0.000166535  0.0355723 -0.341586 0.000175834  0.0430152 -0.342043 0.000184894  0.0425992 -0.349506 0.00015676  0.0356102 -0.341621 0.000158787  0.0351808 -0.349075 0.000141203  0.0430539 -0.342074 0.000171721  0.0351653 -0.349055 0.000144005  0.035147 -0.349044 0.000149727  0.0421631 -0.35694 0.000139236  0.0347319 -0.356494 0.000127077  0.0347149 -0.356478 0.000131845  0.0421433 -0.356929 0.000140071  0.041719 -0.36437 0.000121832  0.0347466 -0.35651 0.000124991  0.0343111 -0.363941 0.000111461  0.0421772 -0.356956 0.000136793  0.0342941 -0.363924 0.000111103  0.0342779 -0.363912 0.000113368  0.0412781 -0.371791 0.000108361  0.0338571 -0.371346 9.58443e-05  0.0338414 -0.37133 9.64403e-05  0.0412633 -0.371777 0.000105619  0.0408368 -0.37921 9.20296e-05  0.03387 -0.371362 9.799e-05  0.0334325 -0.378782 8.36253e-05  0.0412943 -0.371809 0.000110209  0.0334187 -0.378762 7.9751e-05  0.0334015 -0.378748 7.53403e-05  -0.000559233 -0.00117108 -0.00125355  -0.000652254 -0.00184035 -0.00145525  -0.00199973 -0.00278295 -0.00229752  -0.000698145 -0.00197532 -0.001131  -0.00275879 -0.00436674 -0.00201672  -0.00227028 -0.00370318 -0.00130588  0 0 0  -0.00215333 -0.00345136 -0.00165415  0 0 0  0 0 0  -0.000560705 -0.00125946 -0.000940382  0 0 0  -0.00440229 -0.00548139 -0.00309622  -0.00273188 -0.00404827 -0.00268453  -0.0038636 -0.0042504 -0.00304878  -0.00490701 -0.00542449 -0.00354511  -0.00572157 -0.00584063 -0.00356805  -0.00486366 -0.00586576 -0.00271356  -0.00699851 -0.00755401 -0.00323081  -0.00657605 -0.0071311 -0.00312656  -0.00652088 -0.0066046 -0.00403142  -0.00376549 -0.0046314 -0.00232542  -0.00888062 -0.00828037 -0.00475782  -0.00707936 -0.00701496 -0.00414717  -0.0076105 -0.00771637 -0.00385565  -0.00925276 -0.00873645 -0.00449383  -0.00940543 -0.00977431 -0.00402427  -0.00915751 -0.0093172 -0.00353003  -0.0112612 -0.0113459 -0.00371844  -0.0111493 -0.0104714 -0.00404447  -0.0111971 -0.00984212 -0.0051378  -0.00749761 -0.00823649 -0.0030334  -0.0135621 -0.0118566 -0.0053671  -0.0113496 -0.010746 -0.00468248  -0.0111614 -0.0121496 -0.00406802  -0.0134088 -0.0130392 -0.00474954  -0.0128642 -0.0147824 -0.00405771  -0.0133438 -0.0136481 -0.0037846  -0.0153608 -0.0162217 -0.00378704  -0.0158156 -0.0146997 -0.00432777  -0.0158714 -0.0140592 -0.00543386  -0.0111047 -0.0127134 -0.00324911  -0.0181411 -0.0165976 -0.0054124  -0.0154002 -0.0156195 -0.00472778  -0.0145231 -0.0176945 -0.00398606  -0.017346 -0.0184816 -0.00465465  -0.0161452 -0.0208699 -0.00388986  -0.0173321 -0.0190754 -0.00373292  -0.0192441 -0.0221851 -0.00364667  -0.0203339 -0.0200158 -0.00426608  -0.0203561 -0.0194011 -0.00532472  -0.0145233 -0.0182609 -0.00320166  -0.0225061 -0.0224719 -0.00519001  -0.0192334 -0.021606 -0.00453681  -0.0177247 -0.0242965 -0.00376934  -0.0210747 -0.0249926 -0.00440216  -0.0192693 -0.027967 -0.00363791  -0.0211038 -0.0255555 -0.00353718  -0.0229095 -0.0291586 -0.00341576  -0.0246165 -0.0263854 -0.00404257  -0.024603 -0.0258094 -0.0050351  -0.0177662 -0.0248434 -0.00303209  -0.0266318 -0.0293769 -0.00485486  -0.0228618 -0.0286145 -0.0042451  -0.0207738 -0.0318685 -0.00350028  -0.0246052 -0.0324783 -0.00408816  -0.0222434 -0.0359904 -0.00335795  -0.0246629 -0.0330031 -0.00328594  -0.0263667 -0.0370592 -0.00315374  -0.0286487 -0.0337289 -0.0037564  -0.0286099 -0.0331961 -0.00467664  -0.0208418 -0.0323848 -0.00281531  -0.0305215 -0.0372181 -0.00448412  -0.026297 -0.0365534 -0.00392127  -0.0236754 -0.0403258 -0.00321901  -0.0279462 -0.0408524 -0.00376093  -0.0250729 -0.0448608 -0.00307709  -0.0280206 -0.0413376 -0.00302202  -0.0296285 -0.0458081 -0.00289035  -0.0324397 -0.0419646 -0.00345683  -0.032383 -0.0414736 -0.00430226  -0.0237586 -0.0408069 -0.00258702  -0.0341827 -0.045913 -0.00411296  -0.0295457 -0.0453417 -0.00359601  -0.0264342 -0.0495926 -0.00294304  -0.0311052 -0.0500376 -0.00344026  -0.0277627 -0.0545048 -0.00280744  -0.0311887 -0.0504831 -0.00276226  -0.0327054 -0.0553333 -0.00263625  -0.0360012 -0.0510152 -0.00316119  -0.0359352 -0.050566 -0.00393635  -0.0265249 -0.0500367 -0.00236332  -0.0376304 -0.0553864 -0.00375581  -0.0326173 -0.0549057 -0.00328153  -0.0290568 -0.0595975 -0.00268018  -0.0340918 -0.0599634 -0.00313413  -0.0303185 -0.0648543 -0.00255167  -0.0341783 -0.0603717 -0.00251555  -0.0356088 -0.0655681 -0.00239712  -0.0393488 -0.0608132 -0.00288016  -0.0392774 -0.060403 -0.0035885  -0.0291495 -0.0600056 -0.0021503  -0.0408728 -0.0655719 -0.00341749  -0.0355206 -0.0651779 -0.0029853  -0.0315479 -0.0702765 -0.00243223  -0.036913 -0.070565 -0.00284582  -0.0327461 -0.0758462 -0.00231189  -0.036999 -0.0709375 -0.0022825  -0.0383494 -0.0764505 -0.00217164  -0.0424929 -0.0712937 -0.00261557  -0.0424211 -0.0709193 -0.003259  -0.0316389 -0.070648 -0.00195128  -0.0439215 -0.0764058 -0.00309765  -0.0382622 -0.076095 -0.00270534  -0.0339136 -0.0815662 -0.00219935  -0.0395774 -0.0817828 -0.00257498  -0.0350504 -0.0874206 -0.00208598  -0.0396605 -0.0821207 -0.00206417  -0.0409341 -0.0879198 -0.00196004  -0.045447 -0.0823944 -0.00236684  -0.045378 -0.0820558 -0.00294942  -0.0340014 -0.0819047 -0.00176364  -0.0467861 -0.0878294 -0.00279832  -0.0408503 -0.0875978 -0.00244302  -0.036158 -0.0934107 -0.00198072  -0.0420907 -0.093557 -0.00232011  -0.0372378 -0.0995199 -0.00187373  -0.0421706 -0.0938625 -0.00185931  -0.0433713 -0.0999207 -0.00176162  -0.0482192 -0.0940591 -0.00213307  -0.0481529 -0.0937525 -0.0026592  -0.0362414 -0.0937169 -0.00158632  -0.0494747 -0.0997874 -0.00251663  -0.0432919 -0.09963 -0.00219637  -0.0382885 -0.105752 -0.00177497  -0.044463 -0.105833 -0.00208098  -0.0393124 -0.112092 -0.00167435  -0.0445378 -0.106108 -0.00166726  -0.0456678 -0.112399 -0.00157446  -0.0508202 -0.106232 -0.00191385  -0.0507568 -0.105955 -0.00238508  -0.0383676 -0.106028 -0.00142175  -0.0519964 -0.112223 -0.00225055  -0.045594 -0.112138 -0.00196451  -0.0403081 -0.11854 -0.00158125  -0.0466961 -0.118558 -0.00185555  -0.041278 -0.125083 -0.00148755  -0.0467664 -0.118804 -0.00148714  -0.0478311 -0.125303 -0.00139993  -0.0532563 -0.118859 -0.00170732  -0.0531979 -0.118612 -0.00212795  -0.040383 -0.118787 -0.00126666  -0.0543575 -0.125089 -0.00200152  -0.047762 -0.125069 -0.00174618  -0.0422223 -0.131722 -0.00140053  -0.0487982 -0.131683 -0.00164425  -0.0431408 -0.138445 -0.00131273  -0.048864 -0.131902 -0.00131708  -0.0498655 -0.138582 -0.0012359  -0.0555369 -0.131893 -0.0015139  -0.0554835 -0.131673 -0.00188559  -0.0422908 -0.131942 -0.00112098  -0.0565687 -0.138335 -0.00176841  -0.0498011 -0.138375 -0.00154126  -0.0440338 -0.145252 -0.00123048  -0.0507767 -0.145159 -0.00144637  -0.0449035 -0.152132 -0.00114864  -0.0508373 -0.145352 -0.00115854  -0.0517774 -0.152194 -0.00108248  -0.0576682 -0.145285 -0.00133288  -0.0576196 -0.145091 -0.00165951  -0.0440962 -0.145447 -0.000985861  -0.0586329 -0.151913 -0.0015493  -0.0517187 -0.152011 -0.00134987  -0.0457482 -0.159084 -0.001073  -0.0526352 -0.158942 -0.00126159  -0.0465722 -0.166099 -0.000996053  -0.0526903 -0.159112 -0.00101054  -0.0535738 -0.166091 -0.000940382  -0.059659 -0.158988 -0.00116402  -0.0596137 -0.158817 -0.0014497  -0.0458064 -0.159255 -0.000858784  -0.0605619 -0.165781 -0.00134629  -0.0535204 -0.16593 -0.00117207  -0.0473709 -0.173176 -0.000926137  -0.0543811 -0.172988 -0.00108969  -0.0481496 -0.180307 -0.000854433  -0.0544307 -0.173137 -0.000873685  -0.0552592 -0.180235 -0.000808358  -0.0615172 -0.172964 -0.00100762  -0.061476 -0.172816 -0.00125247  -0.0474246 -0.173325 -0.000740588  -0.0623598 -0.179899 -0.0011583  -0.0552111 -0.180095 -0.00100744  -0.0489047 -0.187489 -0.000789821  -0.0560191 -0.187261 -0.000930846  -0.0496399 -0.194715 -0.000724316  -0.0560634 -0.187389 -0.000746787  -0.0568416 -0.194584 -0.000686049  -0.0632472 -0.18717 -0.000861347  -0.0632114 -0.187042 -0.00107181  -0.0489526 -0.187618 -0.000632107  -0.064033 -0.194226 -0.000984013  -0.0567987 -0.194465 -0.00085479  -0.0503542 -0.201985 -0.000664651  -0.0575554 -0.201718 -0.000786006  -0.051049 -0.209288 -0.000604689  -0.0575957 -0.201827 -0.0006302  -0.0583243 -0.209106 -0.000574708  -0.0648582 -0.201567 -0.000727057  -0.0648267 -0.20146 -0.000904083  -0.0503969 -0.202095 -0.000531733  -0.0655918 -0.208727 -0.000823796  -0.0582848 -0.209004 -0.000715137  -0.0517235 -0.216628 -0.000549734  -0.058995 -0.21633 -0.000651956  -0.052382 -0.223995 -0.000495553  -0.059032 -0.216422 -0.000522316  -0.0597167 -0.223766 -0.000472486  -0.0663598 -0.216128 -0.000605285  -0.0663316 -0.216034 -0.000751674  -0.0517623 -0.216722 -0.0004403  -0.0670452 -0.223369 -0.000678658  -0.0596814 -0.22368 -0.000588834  -0.0530202 -0.23139 -0.000447333  -0.0603483 -0.231061 -0.000531614  -0.0536425 -0.238804 -0.000396729  -0.0603793 -0.231138 -0.000424981  -0.061022 -0.238534 -0.000379622  -0.0677571 -0.230813 -0.000494242  -0.0677307 -0.230735 -0.00061363  -0.0530546 -0.231468 -0.000357985  -0.0683975 -0.238121 -0.000548303  -0.0609894 -0.238462 -0.000473738  -0.0542467 -0.246239 -0.00035435  -0.0616164 -0.245887 -0.000423193  -0.0548363 -0.253689 -0.000311792  -0.0616438 -0.245948 -0.000338137  -0.0622478 -0.253381 -0.000299454  -0.0690589 -0.245594 -0.000395298  -0.0690374 -0.245532 -0.000488818  -0.0542762 -0.246305 -0.000283122  -0.0696576 -0.252957 -0.000430882  -0.0622213 -0.253323 -0.000372112  -0.0554097 -0.261151 -0.000273645  -0.0628104 -0.260776 -0.000327528  -0.0559697 -0.268621 -0.00023526  -0.062835 -0.260827 -0.000262558  -0.0634034 -0.268284 -0.000228643  -0.0702744 -0.260448 -0.000309348  -0.0702555 -0.260397 -0.000380337  -0.0554349 -0.261203 -0.000217795  -0.0708361 -0.267848 -0.000330389  -0.0633798 -0.268237 -0.000284612  -0.0565155 -0.2761 -0.000201523  -0.063936 -0.275708 -0.000244558  -0.0570483 -0.283583 -0.000171185  -0.0639567 -0.275748 -0.000196755  -0.0644934 -0.283219 -0.000167727  -0.0714107 -0.275349 -0.000232458  -0.0713961 -0.27531 -0.000285745  -0.0565362 -0.276142 -0.000161409  -0.0719395 -0.282775 -0.000242949  -0.0644751 -0.283181 -0.000206709  -0.0575676 -0.291067 -0.000142038  -0.065002 -0.29066 -0.000174522  -0.0580776 -0.298553 -0.000116825  -0.0650187 -0.290693 -0.000140846  -0.0655284 -0.298168 -0.000117242  -0.0724783 -0.290277 -0.0001688  -0.0724638 -0.290246 -0.000205636  -0.0575857 -0.291101 -0.000114381  -0.072978 -0.297718 -0.000171244  -0.0655117 -0.298138 -0.000144243  -0.0585747 -0.306036 -9.31025e-05  -0.0660126 -0.305616 -0.00011766  -0.0590646 -0.313514 -7.31349e-05  -0.0660267 -0.305638 -9.59039e-05  -0.0665135 -0.313113 -7.60555e-05  -0.0734863 -0.305213 -0.000116467  -0.0734756 -0.305189 -0.000140131  -0.0585902 -0.306061 -7.47442e-05  -0.0739615 -0.31266 -0.000112474  -0.0665009 -0.313091 -9.29832e-05  -0.0595436 -0.320987 -5.54919e-05  -0.0669801 -0.320559 -7.32541e-05  -0.0600171 -0.328453 -3.91006e-05  -0.0669916 -0.320578 -5.97835e-05  -0.0674598 -0.328041 -4.63128e-05  -0.0744433 -0.320142 -7.55191e-05  -0.0744326 -0.320121 -8.89301e-05  -0.0595562 -0.321007 -4.45247e-05  -0.0748999 -0.327586 -6.88434e-05  -0.0674493 -0.328022 -5.54323e-05  -0.0604804 -0.335912 -2.71201e-05  -0.0679119 -0.335479 -4.08292e-05  -0.0609393 -0.343361 -1.53184e-05  -0.0679204 -0.335493 -3.41535e-05  -0.0683773 -0.342942 -2.47359e-05  -0.0753636 -0.33505 -4.77433e-05  -0.0753548 -0.335037 -5.37038e-05  -0.0604918 -0.335928 -2.29478e-05  -0.0758045 -0.342485 -3.88026e-05  -0.0683661 -0.342926 -2.8193e-05  -0.0613918 -0.350799 -5.54323e-06  -0.0688167 -0.350364 -1.66297e-05  -0.0618427 -0.358231 3.75509e-06  -0.0688274 -0.350377 -1.59144e-05  -0.0692725 -0.357808 -7.09295e-06  -0.0762565 -0.349933 -2.71797e-05  -0.076247 -0.34992 -2.8193e-05  -0.0614028 -0.350815 -5.78165e-06  -0.0766914 -0.357353 -1.90735e-05  -0.0692618 -0.357794 -7.39098e-06  -0.062288 -0.365653 1.20401e-05  -0.0697072 -0.365216 1.43051e-06  -0.0627334 -0.373066 1.9908e-05  -0.0697176 -0.365229 1.19209e-07  -0.0701621 -0.372651 7.15256e-06  -0.077141 -0.364789 -1.23978e-05  -0.0771289 -0.364776 -1.14441e-05  -0.0622978 -0.365666 8.76188e-06  -0.0775704 -0.372199 -1.78814e-07  -0.0701489 -0.372635 1.01924e-05  -0.000326164 -0.000394717 -0.000851929  -0.000369988 -0.000717774 -0.0010547  -0.0011156 -0.00124151 -0.00158662  -0.000385854 -0.000814393 -0.000800252  -0.00137197 -0.00207713 -0.00146943  0 0 0  0 0 0  -0.000336617 -0.000488013 -0.000636876  0 0 0  -0.00132572 -0.00180803 -0.00194383  -0.00216548 -0.00256065 -0.00208825  -0.00286782 -0.00328828 -0.00258189  -0.00336805 -0.00424609 -0.00244254  -0.00277202 -0.00360666 -0.00194979  -0.00431649 -0.00537746 -0.00235349  -0.00207162 -0.00285235 -0.00157773  -0.00443992 -0.0049607 -0.00302535  -0.00458521 -0.00614516 -0.00261742  -0.0059751 -0.00683285 -0.00324118  -0.00581262 -0.00834289 -0.00272214  -0.00586832 -0.0073031 -0.00255108  -0.00742802 -0.00950396 -0.00268698  -0.00447917 -0.00657842 -0.00206381  -0.00752479 -0.00899771 -0.00338465  -0.00699273 -0.0108004 -0.00273645  -0.00898468 -0.0113992 -0.00340682  -0.00815314 -0.0135255 -0.00272077  -0.00892887 -0.0119327 -0.00272679  -0.0103988 -0.0146343 -0.00271881  -0.00694314 -0.0113039 -0.00219375  -0.0104313 -0.0140924 -0.00339282  -0.00927556 -0.0165215 -0.00266582  -0.0118218 -0.0170413 -0.00332826  -0.0103765 -0.0197707 -0.0025962  -0.011824 -0.0175904 -0.00267792  -0.0132095 -0.0208009 -0.00260836  -0.00928295 -0.0170493 -0.00214714  -0.0131881 -0.0202591 -0.00324494  -0.0114505 -0.0232729 -0.0025124  -0.0145175 -0.0237241 -0.00314295  -0.0125057 -0.0270127 -0.00242198  -0.0145611 -0.0242606 -0.00253135  -0.0158759 -0.0279554 -0.00243735  -0.011496 -0.0237967 -0.00202507  -0.0158185 -0.0274316 -0.00303036  -0.0135397 -0.0309838 -0.00232929  -0.017091 -0.0313705 -0.00291622  -0.0145557 -0.035174 -0.00223231  -0.0171604 -0.031881 -0.00234675  -0.0184121 -0.036024 -0.00224781  -0.0136064 -0.0314867 -0.00187522  -0.0183342 -0.0355288 -0.0027957  -0.015553 -0.0395759 -0.00213879  -0.0195525 -0.0399013 -0.00268  -0.0165337 -0.0441788 -0.00204241  -0.0196359 -0.0403781 -0.00215405  -0.0208293 -0.0449319 -0.00205636  -0.0156316 -0.0400499 -0.00171959  -0.0207421 -0.0444716 -0.00256014  -0.0174961 -0.0489745 -0.00195253  -0.021907 -0.0492389 -0.00244892  -0.0184431 -0.0539539 -0.00185996  -0.0219964 -0.0496805 -0.00196612  -0.0231355 -0.0546109 -0.00187314  -0.0175792 -0.0494152 -0.00156778  -0.0230436 -0.0541859 -0.00233424  -0.0193729 -0.0591094 -0.00177503  -0.0241594 -0.0593135 -0.00222886  -0.0202873 -0.0644324 -0.00168741  -0.02425 -0.0597192 -0.00178725  -0.0253389 -0.0649945 -0.00170064  -0.0194566 -0.0595156 -0.00142366  -0.0252466 -0.0646035 -0.00212002  -0.0211844 -0.0699143 -0.00160736  -0.0263133 -0.0700594 -0.00202155  -0.0220674 -0.0755478 -0.00152534  -0.0264032 -0.0704308 -0.0016194  -0.0274432 -0.0760176 -0.0015384  -0.0212672 -0.0702865 -0.00128835  -0.0273545 -0.0756628 -0.00191975  -0.0229341 -0.0813269 -0.00145179  -0.0283743 -0.0814152 -0.00182676  -0.0237865 -0.0872417 -0.00137419  -0.0284599 -0.081752 -0.0014624  -0.0294538 -0.0876236 -0.0013867  -0.0230134 -0.0816649 -0.00116146  -0.0293685 -0.0873002 -0.00173068  -0.0246236 -0.0932877 -0.00130427  -0.0303435 -0.0933204 -0.00164396  -0.0254456 -0.0994558 -0.00123107  -0.0304255 -0.0936265 -0.00131541  -0.0313754 -0.0997524 -0.00124365  -0.0246989 -0.0935945 -0.00104308  -0.0312951 -0.099461 -0.00155365  -0.0262533 -0.10574 -0.00116634  -0.0322266 -0.105721 -0.00147218  -0.0270474 -0.112134 -0.0010978  -0.0323039 -0.105997 -0.00117654  -0.0332111 -0.112351 -0.00110966  -0.0263242 -0.106017 -0.00093168  -0.0331353 -0.112089 -0.001387  -0.0278271 -0.118631 -0.00103617  -0.0340255 -0.118565 -0.00131047  -0.0285927 -0.125226 -0.000972092  -0.034098 -0.118812 -0.00104678  -0.0349638 -0.125369 -0.000984609  -0.0278926 -0.118881 -0.000827372  -0.0348943 -0.125134 -0.00123125  -0.0293443 -0.131912 -0.000915229  -0.0357445 -0.131799 -0.00115883  -0.0300839 -0.138683 -0.000854552  -0.0358112 -0.132018 -0.000926435  -0.0366378 -0.138755 -0.000867188  -0.0294062 -0.132134 -0.00072974  -0.0365729 -0.138545 -0.00108498  -0.030807 -0.145532 -0.000801623  -0.037384 -0.145376 -0.00101781  -0.0315189 -0.152457 -0.000745118  -0.0374465 -0.145571 -0.000812113  -0.0382345 -0.152463 -0.000757456  -0.0308638 -0.145729 -0.000638783  -0.0381758 -0.15228 -0.000947535  -0.0322173 -0.15945 -0.000696361  -0.0389488 -0.159254 -0.000885546  -0.032903 -0.166505 -0.000643849  -0.0390058 -0.159425 -0.000706434  -0.0397582 -0.166451 -0.000655651  -0.0322695 -0.159622 -0.000554681  -0.0397034 -0.166289 -0.000821412  -0.0335753 -0.173618 -0.000597715  -0.040441 -0.173386 -0.000763118  -0.0342357 -0.180785 -0.000549376  -0.0404935 -0.173535 -0.000609338  -0.0412111 -0.180676 -0.000560641  -0.0336223 -0.173769 -0.000475764  -0.0411611 -0.180535 -0.000702798  -0.0348823 -0.188 -0.000506639  -0.0418646 -0.187735 -0.000649452  -0.0355179 -0.195259 -0.000462353  -0.0419121 -0.187865 -0.000518024  -0.0425966 -0.1951 -0.000474453  -0.0349252 -0.18813 -0.000402331  -0.042551 -0.194978 -0.000595033  -0.0361416 -0.202557 -0.00042361  -0.0432212 -0.202264 -0.000546038  -0.0367532 -0.209892 -0.000382721  -0.0432646 -0.202375 -0.000433922  -0.0439157 -0.209688 -0.000394046  -0.0361803 -0.202671 -0.000335693  -0.0438755 -0.209584 -0.000495791  -0.037353 -0.217257 -0.000348032  -0.0445149 -0.216938 -0.000450492  -0.0379434 -0.224651 -0.000311434  -0.044554 -0.217031 -0.000356734  -0.0451751 -0.224406 -0.000321627  -0.0373878 -0.217354 -0.000274479  -0.0451388 -0.224318 -0.000405669  -0.0385213 -0.232068 -0.000279069  -0.0457509 -0.231726 -0.000364602  -0.0390887 -0.239506 -0.000247002  -0.045783 -0.231803 -0.000288963  -0.0463762 -0.239226 -0.000256121  -0.0385523 -0.232149 -0.00022006  -0.0463452 -0.239151 -0.000323534  -0.0396457 -0.24696 -0.000217855  -0.0469277 -0.246598 -0.000287175  -0.0401931 -0.254429 -0.00018841  -0.0469568 -0.246661 -0.000226617  -0.0475233 -0.254117 -0.000198066  -0.0396724 -0.247027 -0.000171423  -0.0474966 -0.254057 -0.000251353  -0.040731 -0.261908 -0.000162661  -0.048054 -0.261528 -0.000220239  -0.0412593 -0.269396 -0.00013864  -0.0480788 -0.261581 -0.000173032  -0.0486212 -0.269057 -0.000148356  -0.0407538 -0.261963 -0.000127494  -0.0485973 -0.269007 -0.000187337  -0.0417774 -0.276889 -0.000117838  -0.0491323 -0.276494 -0.000161529  -0.0422883 -0.284385 -9.56655e-05  -0.0491538 -0.276537 -0.000125587  -0.0496755 -0.284024 -0.000105381  -0.0417962 -0.276933 -8.95858e-05  -0.0496552 -0.283985 -0.000133932  -0.0427907 -0.291881 -7.85589e-05  -0.0501678 -0.291475 -0.000111759  -0.0432868 -0.299378 -6.04987e-05  -0.0501852 -0.291507 -8.62479e-05  -0.0506876 -0.298996 -6.96182e-05  -0.0428066 -0.291917 -5.85318e-05  -0.0506706 -0.298965 -8.85725e-05  -0.0437725 -0.306868 -4.56572e-05  -0.0511663 -0.306452 -7.12276e-05  -0.044255 -0.314356 -3.14116e-05  -0.0511794 -0.306478 -5.48363e-05  -0.0516655 -0.313962 -4.01735e-05  -0.0437875 -0.306897 -3.25441e-05  -0.0516515 -0.313936 -5.33462e-05  -0.044729 -0.321836 -2.06232e-05  -0.0521286 -0.321413 -3.8743e-05  -0.0451994 -0.32931 -9.65595e-06  -0.05214 -0.321432 -2.80738e-05  -0.0526109 -0.328902 -1.7643e-05  -0.0447395 -0.321859 -1.33514e-05  -0.0525999 -0.328882 -2.563e-05  -0.0456614 -0.336772 -6.55651e-07  -0.0530658 -0.336345 -1.51992e-05  -0.0461202 -0.344227 6.97374e-06  -0.0530765 -0.336359 -8.82149e-06  -0.0535347 -0.343812 -1.19209e-06  -0.0456698 -0.33679 2.08616e-06  -0.0535235 -0.343795 -5.24521e-06  -0.0465727 -0.351669 1.47223e-05  -0.0539775 -0.351236 3.63588e-06  -0.0470233 -0.3591 2.11596e-05  -0.0539875 -0.351249 4.23193e-06  -0.0544376 -0.358683 1.13249e-05  -0.0465796 -0.351684 1.41263e-05  -0.0544271 -0.358668 1.20997e-05  -0.0474687 -0.366518 2.87294e-05  -0.0548747 -0.366086 2.01464e-05  -0.0479152 -0.373927 3.62992e-05  -0.0548844 -0.366099 1.69873e-05  -0.0553305 -0.373517 2.41399e-05  -0.0474763 -0.366533 2.44379e-05  -0.0553229 -0.373498 2.76566e-05  -0.000147965 -4.6134e-05 -0.000424862  -0.000194091 -0.000187188 -0.000641644  -0.000501491 -0.000627309 -0.000803173  -0.000207558 -0.000275552 -0.000484884  -0.000718914 -0.00102732 -0.000903785  0 0 0  0 0 0  -0.000155978 -0.000134975 -0.000314832  0 0 0  -0.000675321 -0.00083068 -0.00120497  -0.000970289 -0.00179598 -0.00105762  -0.00149406 -0.00211284 -0.00157911  -0.00153668 -0.00337133 -0.00124145  -0.00142992 -0.00237983 -0.00118077  -0.00226942 -0.00405574 -0.00144947  -0.000926629 -0.00204623 -0.000795901  -0.0023531 -0.00370973 -0.00185794  -0.00210726 -0.0052858 -0.00132263  -0.00327095 -0.00563347 -0.00197595  -0.00271147 -0.00751814 -0.00137609  -0.00319487 -0.00603279 -0.00155467  -0.00412416 -0.00829998 -0.00163704  -0.00206074 -0.0056636 -0.00104493  -0.00419378 -0.00784963 -0.00205809  -0.00329313 -0.0100344 -0.00137615  -0.00508082 -0.0103399 -0.00206065  -0.00388184 -0.0128223 -0.00136584  -0.00504899 -0.0108212 -0.00165486  -0.00594831 -0.0136077 -0.00164217  -0.00327769 -0.0104971 -0.00110835  -0.00596374 -0.0131049 -0.00204772  -0.00445396 -0.0158778 -0.00133502  -0.00681275 -0.0161309 -0.00200254  -0.00502509 -0.0191839 -0.00129622  -0.00682598 -0.0166455 -0.00161648  -0.00768042 -0.0199323 -0.00156659  -0.00447136 -0.0163803 -0.00107861  -0.0076533 -0.0194137 -0.00194794  -0.00558758 -0.02274 -0.00125313  -0.00847358 -0.0229439 -0.00188464  -0.00614935 -0.0265299 -0.00120384  -0.00851786 -0.0234602 -0.00152063  -0.00933725 -0.0272226 -0.00145859  -0.00562817 -0.0232488 -0.00101215  -0.00928408 -0.0267129 -0.00181389  -0.00670862 -0.0305509 -0.00115722  -0.0100818 -0.0307102 -0.00174421  -0.00726658 -0.0347894 -0.00110489  -0.0101439 -0.0312091 -0.00140488  -0.0109367 -0.0354146 -0.00134087  -0.00676131 -0.0310458 -0.000932634  -0.01087 -0.0349274 -0.00166863  -0.0078246 -0.0392385 -0.00105774  -0.0116497 -0.0393555 -0.00159943  -0.0083819 -0.0438889 -0.00100607  -0.01172 -0.0398269 -0.00128561  -0.012493 -0.0444419 -0.0012238  -0.00788385 -0.0397084 -0.000850737  -0.0124194 -0.0439843 -0.00152445  -0.00893891 -0.0487317 -0.000960886  -0.0131816 -0.0488059 -0.00145817  -0.00949776 -0.0537586 -0.000911772  -0.0132558 -0.0492457 -0.00116968  -0.0140089 -0.0542355 -0.00111085  -0.00900197 -0.0491709 -0.000771105  -0.0139337 -0.0538108 -0.00138563  -0.010056 -0.0589603 -0.000868917  -0.0146798 -0.0589922 -0.00132334  -0.0106148 -0.06433 -0.000822306  -0.0147542 -0.0593974 -0.00106019  -0.0154909 -0.0647299 -0.00100499  -0.0101184 -0.0593669 -0.000696003  -0.0154155 -0.0643391 -0.0012551  -0.0111724 -0.069858 -0.000783443  -0.0161458 -0.0698473 -0.00119668  -0.0117314 -0.0755373 -0.0007388  -0.0162188 -0.0702187 -0.000957072  -0.0169393 -0.0758626 -0.000905633  -0.0112332 -0.0702299 -0.000625491  -0.0168664 -0.0755053 -0.00113243  -0.0122895 -0.0813604 -0.000701845  -0.0175807 -0.0813081 -0.00107759  -0.0128477 -0.0873198 -0.000660658  -0.0176511 -0.0816476 -0.000860631  -0.0183549 -0.0875725 -0.000812948  -0.0123477 -0.0817007 -0.000559688  -0.0182859 -0.0872471 -0.00101787  -0.0134046 -0.0934078 -0.000625849  -0.0189852 -0.0933162 -0.000966489  -0.0139621 -0.0996191 -0.000586927  -0.0190521 -0.093623 -0.000770807  -0.0197402 -0.0998013 -0.000726283  -0.0134599 -0.0937161 -0.000497818  -0.019675 -0.0995067 -0.000909507  -0.014518 -0.105944 -0.000555336  -0.0203587 -0.105815 -0.000862062  -0.0150744 -0.112379 -0.000519216  -0.0204215 -0.106091 -0.000686407  -0.0210944 -0.112495 -0.000644445  -0.0145707 -0.106223 -0.000440359  -0.0210338 -0.112229 -0.000808418  -0.0156282 -0.118915 -0.000488639  -0.0217017 -0.118749 -0.000763595  -0.0161809 -0.125548 -0.000455499  -0.0217599 -0.118998 -0.000607669  -0.0224173 -0.125601 -0.000568926  -0.0156764 -0.119166 -0.00038749  -0.0223613 -0.125363 -0.000714242  -0.0167315 -0.132269 -0.000426829  -0.0230137 -0.132069 -0.00067246  -0.0172812 -0.139075 -0.000395298  -0.0230674 -0.132292 -0.000533402  -0.0237099 -0.13907 -0.00049746  -0.0167756 -0.132493 -0.000337124  -0.0236584 -0.138859 -0.000626624  -0.017828 -0.145959 -0.000370264  -0.0242951 -0.145727 -0.000587285  -0.018373 -0.152915 -0.000340939  -0.0243444 -0.145924 -0.000465691  -0.0249715 -0.152855 -0.000431538  -0.0178688 -0.146158 -0.000291467  -0.0249233 -0.152667 -0.000544012  -0.0189157 -0.159938 -0.000315309  -0.0255458 -0.159677 -0.000508249  -0.0194552 -0.167023 -0.000288785  -0.0255909 -0.159851 -0.000400424  -0.0262027 -0.166913 -0.000370204  -0.0189524 -0.160113 -0.000248134  -0.026159 -0.166748 -0.000467539  -0.0199943 -0.174165 -0.000267148  -0.0267642 -0.173877 -0.000433385  -0.0205269 -0.181358 -0.000242412  -0.0268064 -0.174029 -0.000341952  -0.0274022 -0.181202 -0.000312626  -0.0200267 -0.174318 -0.000208199  -0.0273614 -0.181058 -0.000396192  -0.0210574 -0.188599 -0.000221431  -0.0279522 -0.188288 -0.000366092  -0.0215857 -0.195883 -0.000198781  -0.0279903 -0.188419 -0.00028801  -0.0285704 -0.195684 -0.000260472  -0.0210867 -0.188732 -0.000171661  -0.0285351 -0.19556 -0.000332594  -0.02211 -0.203204 -0.000180244  -0.0291092 -0.202871 -0.000303388  -0.02263 -0.210561 -0.000159502  -0.0291431 -0.202984 -0.000237405  -0.0297074 -0.210323 -0.000212669  -0.0221355 -0.203319 -0.000138581  -0.0296757 -0.210217 -0.000271261  -0.0231462 -0.217945 -0.000142515  -0.0302355 -0.217594 -0.000245929  -0.0236602 -0.225359 -0.000123858  -0.0302646 -0.21769 -0.000191569  -0.0308151 -0.225088 -0.000169396  -0.0231695 -0.218044 -0.000107706  -0.030787 -0.224997 -0.000217617  -0.0241683 -0.232793 -0.000107646  -0.0313311 -0.232424 -0.000194609  -0.0246744 -0.240247 -9.13739e-05  -0.0313582 -0.232505 -0.000150084  -0.0318928 -0.239946 -0.000130892  -0.0241883 -0.232875 -8.05259e-05  -0.0318682 -0.23987 -0.000169218  -0.0251758 -0.247716 -7.75456e-05  -0.0323985 -0.247333 -0.000148714  -0.0256729 -0.2552 -6.40154e-05  -0.0324204 -0.2474 -0.000113904  -0.0329423 -0.254873 -9.64999e-05  -0.025192 -0.247786 -5.67436e-05  -0.0329211 -0.25481 -0.000127852  -0.0261655 -0.262691 -5.25117e-05  -0.0334377 -0.262295 -0.000109434  -0.0266547 -0.270192 -3.89218e-05  -0.0334561 -0.26235 -8.14795e-05  -0.0339653 -0.269842 -6.64592e-05  -0.0261793 -0.262747 -3.44515e-05  -0.0339482 -0.26979 -8.95262e-05  -0.0271399 -0.277693 -2.87294e-05  -0.0344496 -0.277289 -7.51615e-05  -0.027621 -0.285201 -1.88351e-05  -0.0344653 -0.277333 -5.51939e-05  -0.0349624 -0.284833 -4.17233e-05  -0.0271509 -0.27774 -1.65701e-05  -0.0349474 -0.28479 -5.87106e-05  -0.0280972 -0.292705 -1.07884e-05  -0.0354378 -0.292292 -4.47631e-05  -0.0285716 -0.30021 -1.60933e-06  -0.0354507 -0.292326 -3.05176e-05  -0.0359347 -0.299826 -2.0504e-05  -0.0281072 -0.292742 -1.54972e-06  -0.0359225 -0.299791 -3.14713e-05  -0.0290403 -0.307707 4.58956e-06  -0.0364017 -0.307287 -2.12193e-05  -0.0295067 -0.315204 1.16229e-05  -0.0364122 -0.307314 -1.055e-05  -0.0368855 -0.314806 -3.33786e-06  -0.0290482 -0.307737 1.01328e-05  -0.036875 -0.314778 -9.83477e-06  -0.0299699 -0.322687 1.66893e-05  -0.0373447 -0.322262 -3.8147e-06  -0.0304291 -0.330166 2.21729e-05  -0.0373523 -0.322284 3.8147e-06  -0.037817 -0.329759 9.95398e-06  -0.0299749 -0.322711 1.94311e-05  -0.0378098 -0.329737 6.49691e-06  -0.0308836 -0.337631 2.67029e-05  -0.03827 -0.337202 1.15633e-05  -0.0313382 -0.345091 3.03388e-05  -0.0382755 -0.337221 1.50204e-05  -0.0387318 -0.344677 2.0802e-05  -0.0308878 -0.337651 2.76566e-05  -0.0387239 -0.344658 1.75834e-05  -0.031785 -0.352535 3.26633e-05  -0.0391777 -0.352101 2.40803e-05  -0.0322328 -0.359967 3.5882e-05  -0.0391819 -0.352116 2.3663e-05  -0.0396316 -0.35955 2.82526e-05  -0.0317898 -0.35255 3.27229e-05  -0.0396254 -0.359534 2.8789e-05  -0.0326757 -0.367381 4.17233e-05  -0.0400708 -0.36695 3.46303e-05  -0.0331206 -0.374785 4.40478e-05  -0.0400782 -0.366964 3.24845e-05  -0.0405216 -0.374374 3.60608e-05  -0.0326805 -0.367397 3.76105e-05  -0.0405171 -0.374356 4.1008e-05  1.41561e-07 4.27961e-05 2.34842e-05  -4.73671e-05 1.61231e-05 -0.000198722  5.06639e-06 -0.000492066 1.9908e-05  -5.87851e-05 -6.6936e-05 -0.000151634  -0.000206746 -0.000655711 -0.000303268  0 0 0  0 0 0  -5.69597e-06 -4.72367e-05 2.13385e-05  0 0 0  -0.000162974 -0.000490755 -0.000402391  4.92036e-05 -0.00162882 2.36034e-05  -0.00042145 -0.00166142 -0.00051415  7.59959e-05 -0.00315967 1.34706e-05  -0.000404269 -0.00190282 -0.000376701  -0.000647426 -0.00348765 -0.000491321  3.85642e-05 -0.00186676 2.24113e-05  -0.000664249 -0.00317785 -0.000621974  0.000118405 -0.005092 1.5676e-05  -0.000953138 -0.00511336 -0.000652611  0.000136703 -0.00733012 7.09295e-06  -0.000936538 -0.00548151 -0.000514686  -0.00123191 -0.00776446 -0.000550926  9.97484e-05 -0.00545144 9.59635e-06  -0.00124717 -0.00734374 -0.000687957  0.000153005 -0.00987983 8.52346e-06  -0.00153679 -0.00988001 -0.00068444  0.000148714 -0.0126947 5.90086e-06  -0.00154173 -0.0103347 -0.000554264  -0.00184837 -0.0131697 -0.000546873  0.000126362 -0.0103269 1.01328e-06  -0.00183851 -0.0126863 -0.000681221  0.000135124 -0.0157844 6.97374e-06  -0.00213391 -0.0157609 -0.000664055  0.000101805 -0.0191213 9.29832e-06  -0.00215989 -0.0162561 -0.00053966  -0.00247008 -0.0195932 -0.000517249  0.000102282 -0.0162753 4.76837e-07  -0.00243968 -0.0190878 -0.000643849  5.50151e-05 -0.0227081 9.53674e-06  -0.00274611 -0.0226605 -0.000622749  -9.29832e-06 -0.026528 1.52588e-05  -0.00278509 -0.0231647 -0.000504732  -0.0031032 -0.0269726 -0.000477552  1.99676e-05 -0.0232096 5.00679e-06  -0.00306112 -0.0264696 -0.000594139  -9.04799e-05 -0.030578 1.52588e-05  -0.00338179 -0.0305064 -0.000571311  -0.000188649 -0.0348466 2.19345e-05  -0.0034281 -0.030999 -0.000460923  -0.00375867 -0.0352469 -0.00043416  -0.000127375 -0.0310694 1.13845e-05  -0.00371063 -0.0347634 -0.000541508  -0.000303984 -0.0393246 2.2471e-05  -0.00404823 -0.039229 -0.000518382  -0.000437081 -0.0440059 2.90871e-05  -0.00409818 -0.039697 -0.000416338  -0.0044443 -0.0443531 -0.000390232  -0.000341594 -0.039793 1.80006e-05  -0.00439304 -0.0438965 -0.000488222  -0.000586033 -0.0488769 3.01003e-05  -0.00474811 -0.0487559 -0.000466347  -0.000753164 -0.0539348 3.68357e-05  -0.00479913 -0.0491944 -0.000372469  -0.00516176 -0.0542253 -0.000349045  -0.000623345 -0.0493158 2.60472e-05  -0.00511038 -0.0538004 -0.000436842  -0.000936389 -0.0591656 3.74317e-05  -0.0054822 -0.0590185 -0.000417054  -0.00113523 -0.0645663 4.39286e-05  -0.0055325 -0.0594245 -0.000331759  -0.00591111 -0.064797 -0.000309706  -0.000972271 -0.0595723 3.30806e-05  -0.00586116 -0.0644054 -0.000389457  -0.00134945 -0.0701227 4.45843e-05  -0.006248 -0.0699501 -0.000370145  -0.00158036 -0.075834 4.95911e-05  -0.00629687 -0.0703221 -0.000293314  -0.00669122 -0.0760057 -0.000272691  -0.00138474 -0.0704978 3.83258e-05  -0.00664222 -0.0756471 -0.000344872  -0.00182521 -0.081686 4.9293e-05  -0.00704515 -0.081486 -0.00032717  -0.00208557 -0.087676 5.42402e-05  -0.00709152 -0.0818266 -0.000257552  -0.00749993 -0.0877896 -0.000239193  -0.00185907 -0.0820277 4.34518e-05  -0.00745475 -0.0874624 -0.00030303  -0.00235879 -0.0937914 5.39422e-05  -0.00787067 -0.0935665 -0.000286698  -0.00264621 -0.100032 5.88298e-05  -0.00791466 -0.093876 -0.000224531  -0.00833559 -0.10009 -0.000207186  -0.0023905 -0.0941029 4.80413e-05  -0.0082922 -0.0997933 -0.000264347  -0.0029465 -0.106384 5.79357e-05  -0.00872087 -0.106134 -0.000249684  -0.00325847 -0.112848 6.19292e-05  -0.00876307 -0.106414 -0.000194728  -0.00919485 -0.112852 -0.000178099  -0.00297487 -0.106665 5.17964e-05  -0.0091548 -0.112585 -0.000228941  -0.00358188 -0.119408 6.01411e-05  -0.00959527 -0.119135 -0.00021559  -0.00391734 -0.126067 6.38962e-05  -0.00963295 -0.119385 -0.000166416  -0.0100754 -0.126022 -0.000150979  -0.00360811 -0.119661 5.48959e-05  -0.010039 -0.125782 -0.000196099  -0.00426245 -0.132812 6.34193e-05  -0.0104878 -0.132517 -0.000182807  -0.00461793 -0.139643 6.58631e-05  -0.0105228 -0.132741 -0.000140131  -0.0109738 -0.139551 -0.000126779  -0.00428689 -0.133038 5.6982e-05  -0.0109403 -0.139336 -0.000165641  -0.00498199 -0.146549 6.45518e-05  -0.0113969 -0.146232 -0.000153542  -0.00535631 -0.153528 6.59227e-05  -0.0114279 -0.146431 -0.000116646  -0.0118861 -0.153391 -0.000103652  -0.00500441 -0.146749 5.77569e-05  -0.0118558 -0.153201 -0.000136793  -0.00573778 -0.16057 6.44326e-05  -0.0123188 -0.160236 -0.000126541  -0.00612831 -0.167677 6.73532e-05  -0.0123475 -0.160411 -9.40561e-05  -0.0128114 -0.1675 -8.25524e-05  -0.00575757 -0.160748 5.87702e-05  -0.0127842 -0.167333 -0.000111759  -0.00652575 -0.174837 6.58035e-05  -0.0132518 -0.174485 -0.000101328  -0.00692916 -0.182049 6.75917e-05  -0.013278 -0.174638 -7.40886e-05  -0.0137455 -0.181835 -6.3777e-05  -0.00654244 -0.174993 6.03795e-05  -0.0137208 -0.181689 -8.80957e-05  -0.00733781 -0.189305 6.56247e-05  -0.01419 -0.188938 -7.84397e-05  -0.00775313 -0.196606 6.77109e-05  -0.0142131 -0.189072 -5.53727e-05  -0.0146844 -0.196359 -4.55379e-05  -0.00735259 -0.189442 6.03199e-05  -0.0146623 -0.196231 -6.52671e-05  -0.00817394 -0.203942 6.68168e-05  -0.0151358 -0.203561 -5.75781e-05  -0.0085988 -0.211313 6.68764e-05  -0.0151565 -0.203677 -3.85642e-05  -0.0156276 -0.211034 -3.02792e-05  -0.0081861 -0.204058 6.02603e-05  -0.0156074 -0.210925 -4.69089e-05  -0.009027 -0.21871 6.55055e-05  -0.016082 -0.218318 -3.99947e-05  -0.00945973 -0.226136 6.58035e-05  -0.0160992 -0.218416 -2.23517e-05  -0.0165708 -0.225831 -1.53184e-05  -0.00903654 -0.21881 6.04391e-05  -0.0165544 -0.225738 -3.016e-05  -0.00989556 -0.23358 6.39558e-05  -0.0170271 -0.233178 -2.32458e-05  -0.0103338 -0.241047 6.47306e-05  -0.0170424 -0.233261 -1.00136e-05  -0.0175135 -0.240717 -2.74181e-06  -0.00990415 -0.233665 5.93662e-05  -0.017499 -0.240639 -1.41859e-05  -0.0107739 -0.248524 6.41942e-05  -0.0179706 -0.248113 -7.98702e-06  -0.0112176 -0.256017 6.4671e-05  -0.0179834 -0.248183 1.07288e-06  -0.0184531 -0.255667 8.34465e-06  -0.0107806 -0.248595 5.99623e-05  -0.0184402 -0.255601 1.78814e-07  -0.0116608 -0.263515 6.19292e-05  -0.0189102 -0.263098 3.33786e-06  -0.0121071 -0.271022 6.23465e-05  -0.0189209 -0.263154 1.12057e-05  -0.0193875 -0.270656 1.71661e-05  -0.011667 -0.263574 5.81145e-05  -0.0193779 -0.270603 1.03116e-05  -0.0125539 -0.278533 6.01411e-05  -0.0198436 -0.27811 1.5974e-05  -0.013001 -0.286046 6.1214e-05  -0.0198526 -0.278155 2.06828e-05  -0.0203166 -0.285663 2.47359e-05  -0.0125577 -0.27858 5.77569e-05  -0.020309 -0.285619 2.00272e-05  -0.0134487 -0.293555 5.87702e-05  -0.0207713 -0.293127 2.36034e-05  -0.0138972 -0.301065 5.90086e-05  -0.0207782 -0.293163 2.64049e-05  -0.021239 -0.300669 3.016e-05  -0.0134521 -0.293593 5.63264e-05  -0.0212319 -0.300633 2.8491e-05  -0.0143449 -0.308565 5.82337e-05  -0.0216913 -0.308135 2.98023e-05  -0.0147927 -0.316063 5.61476e-05  -0.021697 -0.308164 3.18885e-05  -0.0221524 -0.315659 3.57628e-05  -0.0143471 -0.308596 5.42998e-05  -0.0221479 -0.315631 3.40343e-05  -0.0152388 -0.323552 5.57303e-05  -0.0226035 -0.323118 3.51071e-05  -0.0156853 -0.331033 5.51343e-05  -0.0226068 -0.323141 3.74317e-05  -0.0230601 -0.330621 3.93987e-05  -0.0152409 -0.323575 5.33462e-05  -0.0230567 -0.330598 3.73125e-05  -0.0161304 -0.338502 5.39422e-05  -0.0235069 -0.338066 3.95775e-05  -0.016577 -0.345961 5.14388e-05  -0.0235095 -0.338083 4.01735e-05  -0.0239575 -0.345544 4.25577e-05  -0.0161316 -0.33852 5.23329e-05  -0.0239553 -0.345525 4.16636e-05  -0.0170205 -0.353405 5.16772e-05  -0.0244024 -0.35297 4.20809e-05  -0.0174625 -0.360839 5.00679e-05  -0.0244045 -0.352984 4.20213e-05  -0.0248499 -0.360419 4.29749e-05  -0.0170195 -0.353422 5.10216e-05  -0.0248475 -0.360402 4.3571e-05  -0.0179019 -0.368252 4.95315e-05  -0.0252895 -0.367815 4.50611e-05  -0.0183413 -0.375653 4.88758e-05  -0.0252919 -0.367833 4.40478e-05  -0.025733 -0.375237 4.55379e-05  -0.0179017 -0.368269 4.88162e-05  -0.0257318 -0.375217 4.56572e-05  0.000145443 -8.4877e-05 0.000470698  9.37581e-05 -4.52995e-06 0.000252247  0.00050354 -0.000736177 0.000838578  8.48249e-05 -9.04202e-05 0.000189304  0.000274196 -0.000710547 0.000312924  0 0 0  0 0 0  0.000142708 -0.000182867 0.000357568  0 0 0  0.00032182 -0.00055027 0.00042212  0.00106744 -0.0019778 0.0010981  0.000580311 -0.00174719 0.000573158  0.00168994 -0.00354505 0.00126058  0.0005465 -0.00198734 0.000445008  0.000866741 -0.00357372 0.000488639  0.00100301 -0.00222343 0.000835419  0.000917524 -0.00327086 0.000637233  0.00233811 -0.0055235 0.00134385  0.00124022 -0.00523144 0.000689447  0.00297692 -0.0077666 0.00138074  0.00119343 -0.00559622 0.000541329  0.00151908 -0.00788659 0.000550687  0.0022532 -0.00588995 0.00105542  0.00156441 -0.00747061 0.000697732  0.0035854 -0.0103308 0.00138348  0.00187227 -0.0100285 0.00070107  0.00416327 -0.0131495 0.00136876  0.00182614 -0.0104787 0.000555515  0.0021134 -0.0133312 0.000553071  0.00351664 -0.0107825 0.00110257  0.00215399 -0.012852 0.000689983  0.00470334 -0.0162447 0.00133801  0.00241679 -0.0159448 0.000674605  0.00520635 -0.0195876 0.00130558  0.00237644 -0.0164364 0.000538349  0.00261432 -0.0197939 0.000531077  0.00465584 -0.0167386 0.00107259  0.00264972 -0.0192901 0.000659227  0.00567394 -0.0231806 0.00126374  0.00285912 -0.0228814 0.000637174  0.00610489 -0.0270106 0.00122601  0.0028249 -0.023382 0.000510931  0.00301045 -0.027211 0.000501692  0.00564283 -0.0236836 0.00101519  0.00304139 -0.0267103 0.000620782  0.00650096 -0.031069 0.00118124  0.0031988 -0.030766 0.00059849  0.00686055 -0.0353491 0.00114292  0.003169 -0.0312561 0.000481665  0.00330138 -0.0355258 0.000471175  0.0064792 -0.0315605 0.00094986  0.00332999 -0.0350434 0.000582993  0.00718659 -0.0398385 0.00109935  0.00343442 -0.0395287 0.000560105  0.00747812 -0.044533 0.00106102  0.0034079 -0.0399957 0.000451505  0.00348806 -0.044674 0.000440538  0.00717103 -0.0403072 0.000883639  0.00351441 -0.0442184 0.00054574  0.00773585 -0.0494171 0.00101912  0.00356853 -0.0490986 0.000524461  0.00796008 -0.0544899 0.000983655  0.0035429 -0.0495365 0.000423908  0.0035727 -0.0545903 0.000412345  0.00772297 -0.0498562 0.000820279  0.00359762 -0.0541649 0.000510156  0.00815225 -0.0597343 0.000942647  0.00360215 -0.0594049 0.000489473  0.00831163 -0.0651508 0.000908434  0.00357711 -0.0598111 0.00039643  0.00355899 -0.0652073 0.000386715  0.00814128 -0.0601413 0.000759423  0.00358212 -0.064815 0.000476182  0.00844097 -0.0707225 0.000869453  0.0035392 -0.0703819 0.000456035  0.00853848 -0.0764496 0.000836909  0.00351644 -0.0707553 0.00037086  0.00345075 -0.076462 0.00036037  0.00843132 -0.0710972 0.000701845  0.00347328 -0.0761016 0.000442803  0.00860715 -0.0823148 0.000799656  0.00338423 -0.0819623 0.000423968  0.00864649 -0.0883213 0.000768721  0.00336337 -0.0823038 0.000345945  0.0032531 -0.088291 0.000335574  0.00859785 -0.0826581 0.000646472  0.00327408 -0.0879615 0.000411689  0.00865686 -0.0944522 0.000733554  0.00314307 -0.0940877 0.000393391  0.00864041 -0.100709 0.000703931  0.00312269 -0.0943975 0.000321269  0.00297284 -0.100635 0.000311792  0.00864947 -0.0947638 0.00059402  0.00299144 -0.100337 0.000381112  0.00859821 -0.107075 0.000670373  0.00282097 -0.106698 0.000362992  0.00853074 -0.113552 0.000642002  0.00280333 -0.106979 0.000298321  0.0026139 -0.113439 0.000288665  0.00859213 -0.107357 0.000543892  0.00263059 -0.11317 0.000351727  0.00843906 -0.120127 0.000609934  0.00242281 -0.11974 0.000334203  0.008322 -0.1268 0.000582993  0.0024066 -0.119992 0.000275791  0.00218141 -0.126649 0.000266373  0.00843298 -0.120381 0.000495911  0.00219738 -0.126406 0.000323892  0.00818408 -0.133558 0.000553071  0.00195515 -0.13316 0.000307202  0.00802279 -0.1404 0.000527143  0.00194132 -0.133385 0.000253975  0.00168347 -0.140215 0.000245035  0.00817943 -0.133785 0.000450552  0.00169754 -0.139999 0.000296354  0.00784159 -0.147317 0.000498295  0.0014236 -0.146911 0.00028044  0.00763869 -0.154309 0.000473738  0.00141144 -0.147112 0.000233054  0.00112486 -0.154089 0.000224829  0.00783777 -0.14752 0.000407875  0.00113678 -0.153897 0.000270128  0.00741959 -0.161361 0.000446856  0.000835896 -0.160947 0.000255108  0.00718069 -0.168479 0.000424027  0.00082469 -0.161124 0.000213444  0.000511169 -0.168228 0.000204682  0.0074172 -0.161541 0.000367105  0.00052166 -0.168059 0.000245512  0.00692511 -0.175646 0.000398338  0.000195265 -0.175224 0.000231445  0.00665283 -0.182869 0.000377536  0.000185966 -0.17538 0.00019449  -0.000151396 -0.18259 0.000187755  0.00692534 -0.175804 0.000329077  -0.000142813 -0.182442 0.000222743  0.00636697 -0.190132 0.000354409  -0.000490427 -0.189703 0.000209332  0.00606418 -0.197441 0.000333607  -0.00049758 -0.18984 0.000176728  -0.000855684 -0.197138 0.000170588  0.00636744 -0.19027 0.000293672  -0.000849009 -0.19701 0.000198662  0.00575018 -0.204783 0.000310957  -0.00121665 -0.204349 0.000188053  0.00542212 -0.212161 0.000293732  -0.00122261 -0.204466 0.000160754  -0.0015986 -0.211836 0.000154018  0.00575113 -0.204902 0.000259399  -0.00159264 -0.211724 0.000180721  0.00508189 -0.219563 0.000273943  -0.00197768 -0.219126 0.000168383  0.00472951 -0.226994 0.00025624  -0.00198102 -0.219226 0.000145614  -0.00237203 -0.226649 0.000139236  0.00508308 -0.219665 0.000229001  -0.00236917 -0.226555 0.000160575  0.00436878 -0.234443 0.000236988  -0.00276709 -0.234002 0.000149488  0.00399828 -0.241913 0.000222504  -0.00277114 -0.234086 0.000130653  -0.00317478 -0.24155 0.000124991  0.00437188 -0.234528 0.00020051  -0.00317049 -0.241469 0.00014323  0.00361824 -0.249394 0.000205576  -0.00358152 -0.248951 0.000134468  0.00323009 -0.25689 0.000191689  -0.00358415 -0.249022 0.000118375  -0.00399804 -0.256512 0.000112593  0.0036211 -0.249466 0.000175893  -0.00399685 -0.256447 0.000126719  0.00283527 -0.264391 0.000176191  -0.00441718 -0.263947 0.000118077  0.00243306 -0.271902 0.000163972  -0.00441813 -0.264004 0.000104845  -0.00484061 -0.271511 0.000100851  0.00283885 -0.264449 0.00015223  -0.00483918 -0.271456 0.000113785  0.00202656 -0.279411 0.000151217  -0.00526643 -0.278967 0.000106096  0.00161242 -0.286925 0.000140667  -0.00526738 -0.279014 9.55462e-05  -0.00569701 -0.286526 9.13739e-05  0.00203037 -0.27946 0.000132322  -0.00569677 -0.286481 9.97186e-05  0.00119638 -0.294436 0.000130117  -0.00612998 -0.293992 9.38177e-05  0.000773191 -0.301946 0.00011915  -0.00613046 -0.294029 8.51154e-05  -0.00656414 -0.301537 8.15392e-05  0.00120091 -0.294474 0.000115216  -0.00656438 -0.301501 8.88705e-05  0.000347614 -0.309447 0.0001086  -0.00700116 -0.309004 8.33869e-05  -8.10623e-05 -0.316946 0.000102818  -0.00700164 -0.309035 7.77841e-05  -0.00743914 -0.316532 7.53999e-05  0.000351906 -0.309479 9.87649e-05  -0.00743961 -0.316503 7.88569e-05  -0.000511408 -0.324434 9.47714e-05  -0.00787759 -0.323992 7.36713e-05  -0.00094533 -0.331916 8.82745e-05  -0.00787807 -0.324013 7.08699e-05  -0.00831676 -0.331495 6.87838e-05  -0.000508308 -0.324458 8.72016e-05  -0.00831747 -0.331472 7.08103e-05  -0.00137949 -0.339382 8.12411e-05  -0.00875854 -0.338941 6.67572e-05  -0.0018177 -0.346842 7.58767e-05  -0.00875711 -0.33896 6.60419e-05  -0.00919676 -0.34642 6.27041e-05  -0.00137734 -0.339403 7.689e-05  -0.00919962 -0.3464 6.3777e-05  -0.0022552 -0.354286 6.90222e-05  -0.00964046 -0.353845 5.9247e-05  -0.00269389 -0.361722 6.44922e-05  -0.00963783 -0.353862 6.00219e-05  -0.010078 -0.361297 5.76973e-05  -0.00225091 -0.354303 6.81877e-05  -0.0100808 -0.361279 5.63264e-05  -0.00313067 -0.369137 6.02603e-05  -0.0105195 -0.368694 5.38826e-05  -0.00356722 -0.376539 5.44786e-05  -0.0105181 -0.368709 5.47171e-05  -0.0109534 -0.376115 5.1558e-05  -0.00312757 -0.369153 5.99623e-05  -0.0109539 -0.376093 5.02467e-05  0.000321537 -0.000503123 0.00089258  0.000261217 -0.000255346 0.000692189  0.00111254 -0.00143242 0.00161177  0.000256225 -0.000356138 0.000521123  0.000816271 -0.00118077 0.000911713  0 0 0  0 0 0  0.000324763 -0.000614583 0.000677943  0 0 0  0.000865549 -0.00100642 0.00122321  0.00225726 -0.00290692 0.00211149  0.00167018 -0.00236261 0.00162786  0.00352558 -0.00455993 0.00244009  0.00158924 -0.00262153 0.0012421  0.00248852 -0.00429285 0.00144249  0.00214386 -0.00317872 0.0016045  0.00260082 -0.00396907 0.00186116  0.00478777 -0.00658399 0.00260913  0.0035423 -0.00597078 0.00199419  0.0060451 -0.00882745 0.00269729  0.00343665 -0.00635445 0.0015679  0.00437897 -0.00865757 0.00162518  0.00464794 -0.00698304 0.00205135  0.00447768 -0.00822377 0.00204897  0.00723422 -0.0113734 0.00271022  0.00537959 -0.0107774 0.00205642  0.00837755 -0.0141742 0.00269204  0.00529692 -0.0112408 0.00164133  0.00616944 -0.0140874 0.00163251  0.00713339 -0.0118505 0.00216407  0.00623548 -0.0135956 0.00203598  0.00945991 -0.0172446 0.00263953  0.00704962 -0.0166779 0.0019933  0.0104872 -0.0205728 0.00257772  0.00699753 -0.0171776 0.00160033  0.00777513 -0.0205292 0.00156468  0.00940263 -0.0177544 0.00211817  0.00781435 -0.0200186 0.00194478  0.0114601 -0.0241491 0.00249916  0.00853604 -0.0236045 0.00188363  0.0123785 -0.0279705 0.00242209  0.00850743 -0.0241089 0.00151515  0.0091908 -0.0279364 0.00147045  0.0114341 -0.0246602 0.00200886  0.00921142 -0.027433 0.00182533  0.013245 -0.032019 0.00233477  0.00984311 -0.031488 0.00175929  0.0140585 -0.0362948 0.00225419  0.00982893 -0.0319791 0.00141579  0.0104212 -0.0362521 0.00136822  0.0132377 -0.0325139 0.00187773  0.0104308 -0.0357675 0.00169969  0.0148213 -0.0407782 0.00216627  0.0109757 -0.0402563 0.00163287  0.0155327 -0.045471 0.0020864  0.010969 -0.0407238 0.00131422  0.0114735 -0.0454082 0.00126779  0.0148244 -0.0412479 0.00174177  0.0114772 -0.0449516 0.00157493  0.0161939 -0.0503526 0.00200123  0.0119371 -0.0498365 0.0015105  0.0168061 -0.0554258 0.00192386  0.0119356 -0.0502741 0.00121623  0.0123556 -0.0553362 0.00117123  0.0162026 -0.0507918 0.00160939  0.0123565 -0.0549111 0.00145435  0.0173699 -0.06067 0.00184274  0.0127344 -0.0601567 0.00139195  0.017885 -0.0660875 0.00176883  0.0127352 -0.0605631 0.00112218  0.0130745 -0.0659692 0.00107908  0.0173805 -0.0610762 0.00148249  0.0130724 -0.0655759 0.00133908  0.0183547 -0.0716592 0.00169116  0.0133724 -0.0711492 0.00128025  0.0187788 -0.0773882 0.00162101  0.0133735 -0.0715226 0.00103188  0.0136353 -0.0772392 0.000991285  0.0183666 -0.0720333 0.00136143  0.0136334 -0.0768792 0.00122893  0.019158 -0.0832555 0.00154835  0.0138572 -0.0827473 0.00117302  0.0194924 -0.0892645 0.0014807  0.0138596 -0.0830892 0.000947058  0.0140482 -0.0890857 0.000908613  0.019169 -0.0835979 0.00124669  0.0140454 -0.0887564 0.0011254  0.019786 -0.095395 0.00141114  0.0141983 -0.0948888 0.00107127  0.0200377 -0.101655 0.00134683  0.0142007 -0.0952001 0.000866711  0.0143193 -0.101448 0.000829518  0.0197979 -0.0957081 0.00113779  0.0143175 -0.101147 0.00102592  0.0202504 -0.108022 0.00128084  0.0144016 -0.107517 0.000975668  0.0204233 -0.114503 0.00122052  0.0144054 -0.107798 0.000790417  0.0144581 -0.114267 0.000754952  0.0202624 -0.108304 0.00103462  0.014455 -0.113997 0.000931501  0.0205595 -0.121079 0.00115782  0.0144771 -0.120574 0.00088346  0.0206589 -0.127754 0.00110066  0.0144808 -0.120827 0.000717282  0.0144743 -0.127492 0.000684261  0.0205718 -0.121332 0.000936091  0.0144695 -0.12725 0.00084126  0.0207245 -0.134511 0.00104105  0.0144329 -0.134009 0.000796258  0.0207558 -0.141358 0.000987053  0.0144385 -0.134235 0.000648022  0.0143743 -0.141072 0.00061655  0.0207373 -0.134739 0.000843883  0.0143692 -0.140855 0.000757635  0.0207551 -0.148273 0.000931442  0.0142794 -0.147772 0.000714481  0.0207231 -0.155265 0.000880361  0.0142841 -0.147974 0.000582814  0.0141683 -0.154958 0.000553131  0.0207679 -0.148477 0.000755966  0.0141635 -0.154764 0.000677705  0.0206623 -0.162317 0.000827312  0.0140228 -0.16182 0.000636935  0.0205722 -0.169435 0.000780284  0.0140281 -0.161998 0.000520587  0.0138655 -0.169109 0.000493109  0.0206757 -0.162498 0.000674069  0.0138583 -0.168939 0.000600994  0.0204561 -0.176603 0.000730634  0.0136733 -0.176107 0.000564039  0.0203125 -0.183825 0.000685275  0.0136807 -0.176263 0.000463545  0.013473 -0.183479 0.000436783  0.0204692 -0.17676 0.000596106  0.0134668 -0.183329 0.000532269  0.0201449 -0.191086 0.000639796  0.0132401 -0.190594 0.000496745  0.0199537 -0.198395 0.000598669  0.0132461 -0.19073 0.000408888  0.0130005 -0.198033 0.000385523  0.0201588 -0.191224 0.000524223  0.0129933 -0.197903 0.00046581  0.0197415 -0.205733 0.000556529  0.0127311 -0.205244 0.000433564  0.0195074 -0.21311 0.000518739  0.0127375 -0.205362 0.000359476  0.0124569 -0.212734 0.000336945  0.0197549 -0.205851 0.000458479  0.0124495 -0.212623 0.000406623  0.0192544 -0.220511 0.000480115  0.0121536 -0.220026 0.00037533  0.0189805 -0.22794 0.000444233  0.0121615 -0.220126 0.000314534  0.0118499 -0.227551 0.000292659  0.0192671 -0.220612 0.00039655  0.0118415 -0.227456 0.000350177  0.018692 -0.235384 0.000408471  0.0115173 -0.234905 0.000322819  0.0183842 -0.242854 0.000377774  0.0115244 -0.234989 0.000271976  0.0111873 -0.242454 0.000253379  0.0187049 -0.23547 0.000340462  0.0111794 -0.242374 0.000299931  0.0180633 -0.250331 0.000345826  0.0108306 -0.249855 0.000275016  0.0177274 -0.257823 0.000318229  0.0108376 -0.249925 0.000234067  0.0104759 -0.257416 0.000216603  0.0180755 -0.250402 0.000290692  0.0104678 -0.257349 0.000254214  0.0173798 -0.26532 0.000289857  0.0100977 -0.264851 0.000231802  0.0170176 -0.272828 0.000264227  0.0101056 -0.264908 0.000200331  0.00972414 -0.272414 0.000184357  0.0173919 -0.265379 0.00024575  0.00971603 -0.272359 0.000213921  0.0166473 -0.280334 0.000239968  0.00932741 -0.279868 0.000194848  0.0162656 -0.287846 0.00021857  0.00933433 -0.279915 0.000169754  0.00893712 -0.287425 0.000157714  0.0166581 -0.280382 0.000206172  0.00893092 -0.287382 0.000178695  0.0158739 -0.295352 0.00019592  0.00852633 -0.29489 0.000162542  0.015475 -0.302859 0.000178397  0.00853324 -0.294929 0.000143707  0.00812483 -0.302435 0.000133872  0.0158849 -0.29539 0.000172496  0.00811672 -0.302399 0.000148714  0.0150688 -0.310356 0.000161767  0.00770164 -0.3099 0.000135899  0.0146573 -0.317852 0.000146091  0.00770903 -0.30993 0.000122726  0.00728798 -0.317427 0.000113547  0.0150795 -0.310387 0.000145316  0.00728202 -0.317396 0.000124454  0.01424 -0.325335 0.000132859  0.00685811 -0.324883 0.000113547  0.0138164 -0.332814 0.000119984  0.00686479 -0.324907 0.000104308  0.00643635 -0.332386 9.72152e-05  0.0142481 -0.32536 0.000120759  0.00642991 -0.332363 0.000102878  0.0133898 -0.340278 0.000109315  0.00599957 -0.33983 9.47118e-05  0.012958 -0.347735 9.91821e-05  0.0060041 -0.339848 9.08971e-05  0.00557041 -0.347308 8.49962e-05  0.0133965 -0.340298 0.000102818  0.0055666 -0.347287 8.66055e-05  0.0125272 -0.355177 8.90493e-05  0.00513124 -0.354731 7.80225e-05  0.0120916 -0.362611 8.02279e-05  0.00513673 -0.354748 7.77245e-05  0.00469971 -0.362184 7.2062e-05  0.0125346 -0.355195 8.7142e-05  0.00469398 -0.362165 7.16448e-05  0.0116563 -0.370029 7.18832e-05  0.00425863 -0.369582 6.4075e-05  0.01122 -0.37744 6.22869e-05  0.00426364 -0.369598 6.65784e-05  0.00383186 -0.377007 6.00815e-05  0.0116649 -0.370046 7.39694e-05  0.00382471 -0.376986 5.62668e-05  0.000595927 -0.00148374 0.001279  0.000520743 -0.000871241 0.00110728  0.00208287 -0.00285536 0.00232071  0.000520781 -0.00100172 0.000830352  0.00156419 -0.00225127 0.00147158  0 0 0  0 0 0  0.000611246 -0.001607 0.000979006  0 0 0  0.00160174 -0.00204062 0.00196636  0.00390595 -0.00457114 0.00304115  0.00304963 -0.00362539 0.00260365  0.00585675 -0.00630295 0.00352573  0.00293183 -0.00392872 0.00197995  0.00445673 -0.00572836 0.00233293  0.00376247 -0.00490224 0.00231439  0.00461197 -0.00535095 0.00299978  0.00772336 -0.00827914 0.00379139  0.00618762 -0.00734907 0.00321853  0.00955769 -0.0105011 0.00394326  0.00603971 -0.00778073 0.00253153  0.00758764 -0.0100766 0.00264388  0.00755855 -0.00874859 0.00298369  0.00772589 -0.00959808 0.00332969  0.011301 -0.0129721 0.0039807  0.0092029 -0.0121064 0.00335467  0.0129806 -0.0157384 0.00397032  0.00909707 -0.0126038 0.00267988  0.0105326 -0.0154149 0.00267214  0.0111885 -0.0135 0.00317824  0.0106164 -0.0148952 0.00333577  0.014586 -0.0187557 0.00390452  0.0119648 -0.01794 0.00327557  0.0161227 -0.0220559 0.00382143  0.0119069 -0.0184593 0.00263101  0.0132092 -0.0217811 0.0025726  0.0145268 -0.0192938 0.00313222  0.0132496 -0.0212561 0.00320131  0.0175914 -0.0255957 0.00371116  0.0144718 -0.0248153 0.00310683  0.0189883 -0.0293954 0.00359839  0.0144467 -0.0253303 0.00249892  0.0156186 -0.0291384 0.00242233  0.0175673 -0.0261206 0.00298214  0.0156311 -0.0286273 0.00301135  0.020319 -0.0334173 0.00347263  0.0167302 -0.0326637 0.00290477  0.0215787 -0.0376768 0.00335109  0.0167268 -0.0331592 0.00233722  0.0177705 -0.0374191 0.00225556  0.0203167 -0.0339172 0.00279129  0.0177673 -0.0369335 0.00280303  0.022773 -0.0421382 0.00322264  0.0187467 -0.0414076 0.0026949  0.023898 -0.0468178 0.00310075  0.0187541 -0.0418755 0.00216824  0.0196773 -0.0465516 0.00208747  0.0227828 -0.0426087 0.00259006  0.0196658 -0.0460953 0.00259393  0.0249579 -0.0516803 0.00297534  0.020528 -0.0509685 0.00248837  0.0259496 -0.0567424 0.00285667  0.020541 -0.051406 0.0020023  0.0213462 -0.0564619 0.00192356  0.0249746 -0.0521185 0.0023917  0.021331 -0.056038 0.0023905  0.0268794 -0.0619687 0.00273639  0.0220778 -0.0612749 0.002289  0.0277444 -0.0673766 0.00262314  0.022095 -0.0616789 0.00184274  0.0227867 -0.0670806 0.00176799  0.0268992 -0.0623741 0.00220037  0.0227695 -0.0666885 0.00219655  0.0285486 -0.0729326 0.00250846  0.0234066 -0.0722553 0.00209969  0.029291 -0.0786532 0.00240016  0.023424 -0.0726261 0.00169122  0.0240091 -0.0783408 0.00162029  0.0285692 -0.0733048 0.00201738  0.0239906 -0.0779809 0.00201088  0.0299753 -0.0845055 0.0022918  0.0245228 -0.0838423 0.00191921  0.0305989 -0.0905063 0.00218815  0.024541 -0.0841828 0.00154644  0.0250227 -0.0901771 0.00147885  0.0299956 -0.0848455 0.00184387  0.0250037 -0.0898491 0.00183541  0.0311687 -0.096624 0.00208461  0.0254357 -0.095975 0.00174683  0.0316817 -0.102875 0.00198609  0.025454 -0.0962845 0.00140977  0.0258377 -0.10253 0.0013451  0.0311896 -0.0969335 0.00167924  0.0258193 -0.102232 0.00166661  0.032143 -0.109228 0.00188768  0.0261571 -0.108593 0.00158423  0.0325501 -0.115701 0.00179547  0.0261753 -0.108875 0.00128007  0.0264672 -0.115341 0.00121927  0.0321623 -0.109509 0.00152302  0.0264486 -0.115072 0.0015083  0.0329102 -0.122263 0.00170267  0.0266968 -0.121642 0.00142998  0.033219 -0.128932 0.00161505  0.0267147 -0.121894 0.00115669  0.0269202 -0.128557 0.00109875  0.0329301 -0.122516 0.00137508  0.0269033 -0.128315 0.00135714  0.0334826 -0.135676 0.00152642  0.0270673 -0.135069 0.00128323  0.0336988 -0.142514 0.00144321  0.0270864 -0.135294 0.00104064  0.0272105 -0.142128 0.00098592  0.0335027 -0.135903 0.00123465  0.0271926 -0.141911 0.00121558  0.0338745 -0.149418 0.00136095  0.0272808 -0.148823 0.0011459  0.0340059 -0.156402 0.00128287  0.0272987 -0.149023 0.000930488  0.0273497 -0.156005 0.000879109  0.0338938 -0.149619 0.00110281  0.0273323 -0.155812 0.00108147  0.0340986 -0.163441 0.0012064  0.0273483 -0.162859 0.00101602  0.0341499 -0.17055 0.00113249  0.0273662 -0.163037 0.000826895  0.0273485 -0.170144 0.00077939  0.0341167 -0.163619 0.00097847  0.0273309 -0.169974 0.000956178  0.0341654 -0.177705 0.00105959  0.0272808 -0.177136 0.000894904  0.0341451 -0.184919 0.000991464  0.0272989 -0.177292 0.000730872  0.0272179 -0.184504 0.000685751  0.0341847 -0.177862 0.0008623  0.0272007 -0.184355 0.000839412  0.0340924 -0.192168 0.00092411  0.0270908 -0.191613 0.000781298  0.0340056 -0.199468 0.00086087  0.0271087 -0.191748 0.000640988  0.0269699 -0.199046 0.000599623  0.034111 -0.192305 0.000755072  0.0269532 -0.198917 0.000729203  0.0338891 -0.206795 0.000798762  0.0267897 -0.206251 0.000677466  0.0337412 -0.214163 0.000740469  0.0268054 -0.206369 0.000557542  0.0266156 -0.213735 0.000519574  0.0339077 -0.206912 0.000655055  0.0266013 -0.213624 0.00063014  0.0335696 -0.221551 0.000683784  0.0263886 -0.22102 0.000580907  0.0333667 -0.228972 0.000630021  0.0264039 -0.221119 0.000480771  0.0261688 -0.22854 0.000446439  0.0335851 -0.221651 0.000563443  0.0261521 -0.228445 0.000536919  0.0331433 -0.236405 0.000578105  0.0258956 -0.235886 0.000493705  0.0328944 -0.243865 0.000531077  0.0259111 -0.235971 0.000411034  0.0256341 -0.243429 0.00037992  0.0331597 -0.23649 0.000479519  0.0256188 -0.243352 0.000453889  0.0326254 -0.25133 0.000483394  0.0253251 -0.250824 0.000415027  0.0323348 -0.258815 0.000440717  0.0253386 -0.250894 0.000348806  0.0250282 -0.25838 0.000320911  0.0326409 -0.251401 0.000404239  0.0250142 -0.258313 0.000379324  0.0320275 -0.266301 0.00039959  0.0246851 -0.265807 0.000344753  0.0316994 -0.273802 0.000361443  0.0247006 -0.265863 0.000292361  0.0243564 -0.273364 0.000267267  0.0320418 -0.26636 0.000337601  0.024343 -0.273309 0.000312865  0.0313585 -0.281297 0.00032568  0.0239878 -0.280812 0.000282288  0.0310004 -0.288801 0.000294447  0.0239999 -0.280858 0.000244141  0.0236301 -0.288364 0.000221431  0.0313711 -0.281344 0.000278652  0.0236187 -0.28832 0.00025624  0.0306311 -0.296297 0.000263333  0.0232396 -0.295822 0.000230253  0.0302484 -0.303797 0.000235736  0.0232496 -0.295859 0.00020057  0.0228608 -0.303361 0.00018388  0.0306439 -0.296335 0.00022918  0.0228498 -0.303326 0.000206947  0.0298572 -0.311287 0.000210643  0.0224514 -0.310821 0.000186563  0.0294535 -0.318777 0.000188529  0.0224614 -0.31085 0.000166357  0.0220549 -0.318342 0.000151575  0.0298672 -0.311317 0.000187099  0.0220451 -0.318313 0.000168383  0.0290418 -0.326253 0.000168502  0.0216317 -0.325794 0.000150144  0.0286233 -0.333724 0.000152349  0.0216415 -0.325817 0.000138104  0.0212214 -0.333292 0.000127137  0.029053 -0.326276 0.000154197  0.0212128 -0.333268 0.000136077  0.0282016 -0.341183 0.000137269  0.0207868 -0.34073 0.000122786  0.0277722 -0.348638 0.000123858  0.0207951 -0.34075 0.000117123  0.0203671 -0.348206 0.000107884  0.0282106 -0.341202 0.000127971  0.0203586 -0.348186 0.000110984  0.0273404 -0.356074 0.000111699  0.0199261 -0.355627 9.91821e-05  0.0269034 -0.363507 9.97782e-05  0.0199342 -0.355642 9.78112e-05  0.0194998 -0.363077 8.98242e-05  0.0273495 -0.356092 0.000108659  0.0194924 -0.363058 8.98242e-05  0.0264683 -0.370928 8.80957e-05  0.0190578 -0.370478 7.93338e-05  0.026032 -0.378344 7.72476e-05  0.0190654 -0.370494 8.15392e-05  0.0186315 -0.377911 7.36713e-05  0.0264788 -0.370944 9.05395e-05  0.0186224 -0.377891 6.87242e-05  0.0011937 -0.0036841 0.00174481  0.00104247 -0.00222063 0.00152111  0.00407043 -0.00562465 0.00298333  0.00104561 -0.00240237 0.00112247  0.00282475 -0.00441974 0.00199878  0 0 0  0 0 0  0.00116034 -0.00384295 0.00129366  0 0 0  0.00280795 -0.00413507 0.00265044  0.00658256 -0.00693244 0.0040018  0.00504065 -0.00569546 0.00350714  0.00891966 -0.00876218 0.00460958  0.00491652 -0.00608158 0.00267082  0.00707307 -0.00795895 0.00316405  0.00644593 -0.00744981 0.00302315  0.00723565 -0.00748229 0.0040561  0.011306 -0.0105152 0.00496948  0.00940484 -0.00934678 0.00437713  0.0136243 -0.0126986 0.00519043  0.0092527 -0.00986654 0.00344646  0.0113618 -0.0120904 0.0036146  0.0111822 -0.0111096 0.00390786  0.0115088 -0.0115453 0.0045563  0.0158895 -0.0150725 0.00524086  0.0135194 -0.0139672 0.00460875  0.0180975 -0.0177907 0.00524259  0.0134108 -0.0145214 0.00368166  0.0153782 -0.0172627 0.00367886  0.0157958 -0.0156609 0.00418192  0.0154691 -0.0167067 0.00460064  0.0202165 -0.0207492 0.00515521  0.0173298 -0.0196961 0.004529  0.0222647 -0.0240121 0.00505197  0.0172679 -0.0202453 0.00363547  0.019077 -0.0235196 0.00355798  0.0201559 -0.0213137 0.00413322  0.0191238 -0.0229765 0.00443405  0.024223 -0.027503 0.0049094  0.0208352 -0.0264949 0.00430995  0.0260974 -0.0312752 0.0047605  0.0208056 -0.027023 0.00346476  0.0224548 -0.0307986 0.00335807  0.0241873 -0.0280386 0.0039407  0.0224719 -0.0302795 0.00417954  0.0278878 -0.0352513 0.00459737  0.0240304 -0.0342829 0.00403506  0.0295869 -0.0394886 0.00443548  0.024022 -0.034782 0.0032447  0.0255123 -0.0390178 0.00312972  0.0278687 -0.0357532 0.00369221  0.0255128 -0.0385298 0.00389332  0.0312065 -0.0439084 0.00426793  0.0269182 -0.0429748 0.0037452  0.0327343 -0.048568 0.00410432  0.026922 -0.043442 0.00301123  0.0282571 -0.0480987 0.00289726  0.0311987 -0.0443758 0.00342846  0.0282477 -0.0476432 0.00360274  0.0341872 -0.0533913 0.00394022  0.029503 -0.0524918 0.00345767  0.0355487 -0.0584351 0.00378066  0.0295141 -0.0529251 0.00278044  0.0306982 -0.0579638 0.00266993  0.0341855 -0.0538245 0.00316566  0.0306844 -0.0575421 0.00331897  0.036839 -0.0636247 0.00362337  0.0317924 -0.0627551 0.00317943  0.03804 -0.0690164 0.00346953  0.0318073 -0.0631551 0.0025571  0.0328459 -0.0685416 0.00245208  0.0368412 -0.0640237 0.00291216  0.0328293 -0.0681531 0.00304639  0.0391737 -0.0745363 0.0033201  0.0337975 -0.0736958 0.00291353  0.0402206 -0.0802407 0.0031721  0.0338124 -0.0740637 0.00234443  0.0347128 -0.0797628 0.00224352  0.0391771 -0.0749022 0.00266963  0.0346966 -0.0794071 0.00278699  0.0412045 -0.0860593 0.00303078  0.0355272 -0.0852471 0.0026598  0.0421051 -0.0920441 0.00288999  0.0355438 -0.0855833 0.00214142  0.0363121 -0.0915635 0.00204682  0.0412084 -0.0863926 0.00243759  0.0362948 -0.0912382 0.00253928  0.0429448 -0.0981296 0.00275517  0.036997 -0.0973441 0.00241888  0.0437056 -0.104366 0.00262165  0.0370141 -0.0976489 0.00194991  0.0376564 -0.103881 0.00185859  0.0429498 -0.0984329 0.00221801  0.0376389 -0.103586 0.00230396  0.0444094 -0.110688 0.00249368  0.0382205 -0.109929 0.0021897  0.0450393 -0.117146 0.00236696  0.0382366 -0.110206 0.00176698  0.0387602 -0.11666 0.00168097  0.0444145 -0.110962 0.00200927  0.0387429 -0.116392 0.00208062  0.0456148 -0.123677 0.0022459  0.0392091 -0.122944 0.00197268  0.0461208 -0.13033 0.00212586  0.039224 -0.123193 0.00159436  0.0396372 -0.129843 0.00151253  0.0456213 -0.123924 0.00181258  0.0396204 -0.129604 0.0018695  0.046576 -0.137046 0.00201136  0.039979 -0.136338 0.00176752  0.0469651 -0.143871 0.00189734  0.039995 -0.136561 0.00143015  0.0403035 -0.143381 0.00135338  0.0465827 -0.137268 0.00162494  0.0402865 -0.143167 0.00167078  0.0473099 -0.150744 0.00178963  0.0405436 -0.150061 0.00157374  0.04759 -0.157716 0.00168347  0.0405595 -0.150259 0.00127602  0.040771 -0.157227 0.00120407  0.0473161 -0.150942 0.00144976  0.0407538 -0.157037 0.00148308  0.0478299 -0.164727 0.00158191  0.0409188 -0.164067 0.00139308  0.0480108 -0.171821 0.00148302  0.040935 -0.16424 0.00113183  0.0410562 -0.171335 0.00106335  0.0478377 -0.1649 0.00128293  0.0410392 -0.171167 0.00130677  0.0481541 -0.178948 0.00138801  0.0411181 -0.178311 0.00122255  0.0482421 -0.186148 0.00129545  0.0411334 -0.178465 0.000996351  0.041172 -0.185664 0.00093317  0.0481625 -0.179101 0.00112891  0.0411561 -0.185517 0.00114316  0.0482965 -0.193371 0.00120908  0.0411553 -0.192756 0.00106537  0.0483005 -0.200659 0.00112081  0.0411711 -0.19289 0.000870168  0.0411344 -0.200176 0.000812411  0.0483057 -0.193504 0.000985026  0.0411184 -0.200048 0.000990748  0.0482752 -0.207959 0.00103986  0.041044 -0.207366 0.00091821  0.0482011 -0.215315 0.000960767  0.0410597 -0.20748 0.000753284  0.0409551 -0.214835 0.000699401  0.0482843 -0.208074 0.000851572  0.0409384 -0.214727 0.000850141  0.0481019 -0.222677 0.00088644  0.0408008 -0.222106 0.000784218  0.0479598 -0.230085 0.000815809  0.0408163 -0.222203 0.000646472  0.0406492 -0.229611 0.000598192  0.0481114 -0.222774 0.00072962  0.0406334 -0.229518 0.000723004  0.0477934 -0.237497 0.000747025  0.0404375 -0.236944 0.000662148  0.0475912 -0.244943 0.000682414  0.0404525 -0.237026 0.00054872  0.0402303 -0.244473 0.000504255  0.0478041 -0.237576 0.000618458  0.0402162 -0.244397 0.000606179  0.047368 -0.252384 0.000622392  0.0399683 -0.251854 0.000552773  0.0471101 -0.259858 0.000563741  0.0399816 -0.251921 0.000461698  0.039712 -0.259395 0.000423014  0.0473759 -0.252454 0.000517726  0.0396979 -0.259331 0.000502825  0.0468328 -0.267325 0.000509262  0.0394044 -0.266811 0.000454009  0.0465257 -0.274813 0.000457406  0.0394168 -0.266865 0.000383914  0.0391045 -0.274355 0.000349164  0.0468419 -0.26738 0.000429034  0.0390918 -0.274303 0.000410378  0.0462079 -0.28229 0.000412822  0.0387611 -0.281792 0.000368893  0.0458632 -0.289786 0.000368357  0.0387728 -0.281836 0.000314593  0.0384252 -0.289332 0.000286222  0.0462158 -0.282333 0.000351548  0.0384135 -0.289289 0.000331342  0.0455053 -0.297263 0.000329494  0.0380492 -0.296781 0.000295758  0.0451238 -0.304753 0.000293314  0.0380604 -0.296815 0.000257492  0.0376828 -0.304307 0.000232935  0.0455141 -0.297299 0.000284493  0.0376713 -0.304274 0.000263572  0.0447385 -0.312227 0.000260711  0.0372803 -0.311758 0.000235379  0.0443318 -0.31971 0.000231326  0.0372913 -0.311787 0.000209153  0.0368893 -0.31927 0.000190079  0.0447464 -0.312254 0.000231028  0.0368803 -0.319244 0.00020963  0.0439212 -0.327171 0.00020659  0.0364687 -0.326715 0.000187516  0.0434942 -0.334639 0.00018245  0.0364785 -0.326736 0.000172138  0.0360601 -0.334205 0.000156641  0.0439286 -0.327194 0.000187039  0.0360508 -0.334183 0.000167131  0.0430655 -0.342087 0.00016427  0.035624 -0.341639 0.000149369  0.0426283 -0.349534 0.000148714  0.0356336 -0.341656 0.000142217  0.0352044 -0.349106 0.000131309  0.0430756 -0.342106 0.000154555  0.0351937 -0.349087 0.000134706  0.0421896 -0.356968 0.000135303  0.0347581 -0.356524 0.00012213  0.0417471 -0.364399 0.000124574  0.0347686 -0.356541 0.000120461  0.0343316 -0.363972 0.000110805  0.0422008 -0.356984 0.000131965  0.034323 -0.363954 0.000110567  0.0413072 -0.371821 0.000112593  0.0338831 -0.371376 9.93609e-05  0.0408659 -0.379242 0.000100672  0.0338917 -0.371392 0.000101805  0.0334554 -0.378814 9.20296e-05  0.0413187 -0.371839 0.00011313  0.0334449 -0.378796 8.66652e-05  -0.000545956 -0.00139216 -0.000701487  -0.000641253 -0.00209204 -0.000817776  -0.00191588 -0.00325643 -0.00124204  -0.000687707 -0.00215878 -0.000557125  -0.00274138 -0.0047413 -0.00095433  -0.00235762 -0.00397651 -0.000641704  0 0 0  -0.00229196 -0.00383611 -0.000929236  0 0 0  0 0 0  -0.000543211 -0.00141273 -0.000450253  0 0 0  -0.00452773 -0.00612642 -0.00170535  -0.00271038 -0.00460717 -0.00147206  -0.00366993 -0.004913 -0.00169832  -0.0047918 -0.00618481 -0.00198358  -0.00548799 -0.0066546 -0.00204378  -0.00481433 -0.00638895 -0.00130212  -0.00691441 -0.00819608 -0.00156599  -0.0066157 -0.00771711 -0.00151098  -0.00652221 -0.00743732 -0.00225127  -0.00367074 -0.00508758 -0.00111723  -0.00879827 -0.0092779 -0.00272614  -0.00690182 -0.00792462 -0.00237161  -0.00740117 -0.00862272 -0.00225192  -0.0090656 -0.00972311 -0.00261199  -0.00922257 -0.0107301 -0.00238687  -0.00905034 -0.0100255 -0.00172693  -0.0111502 -0.0121004 -0.00184768  -0.0110866 -0.0112311 -0.00198299  -0.0110623 -0.0108903 -0.00297898  -0.00737187 -0.00888591 -0.00148737  -0.0134221 -0.0129658 -0.00317007  -0.0111727 -0.0117811 -0.00276875  -0.0110361 -0.0131423 -0.00243652  -0.0132745 -0.0140913 -0.00283116  -0.0127829 -0.0157808 -0.00244582  -0.0132438 -0.0144213 -0.00188726  -0.0152813 -0.0169995 -0.00190783  -0.0157258 -0.0155136 -0.00215864  -0.0157415 -0.0151613 -0.00323254  -0.0110075 -0.0134434 -0.0016256  -0.0180468 -0.0177017 -0.0032497  -0.0153055 -0.0166701 -0.00284243  -0.0144929 -0.0186944 -0.00241256  -0.017299 -0.019521 -0.00280887  -0.0161549 -0.0218548 -0.00235891  -0.0172791 -0.01985 -0.00188148  -0.0192174 -0.0229445 -0.00184709  -0.0202722 -0.0208188 -0.00214875  -0.020292 -0.0204759 -0.00320768  -0.0144815 -0.0190047 -0.0016185  -0.0224814 -0.0235217 -0.00313801  -0.0192257 -0.0226226 -0.0027464  -0.0177708 -0.0252638 -0.00228876  -0.0211046 -0.0259842 -0.00266856  -0.0193451 -0.0289087 -0.00220835  -0.0211028 -0.0262992 -0.00179082  -0.0229311 -0.0298794 -0.00173193  -0.0245985 -0.027148 -0.00204527  -0.0246082 -0.0268236 -0.00304866  -0.0177783 -0.0255674 -0.00153774  -0.0266665 -0.0303558 -0.00294203  -0.022921 -0.0295741 -0.00257504  -0.0208732 -0.032783 -0.00212467  -0.0246897 -0.0334066 -0.00248039  -0.0223613 -0.0368733 -0.00203681  -0.0247045 -0.0337024 -0.00166517  -0.0264237 -0.037732 -0.00159836  -0.0286701 -0.0344401 -0.00190365  -0.0286662 -0.034138 -0.00283527  -0.0208961 -0.0330715 -0.00142747  -0.0305966 -0.0381215 -0.00271785  -0.0263996 -0.0374464 -0.00237805  -0.0238069 -0.0411782 -0.00195158  -0.0280641 -0.0417123 -0.00228035  -0.025215 -0.0456794 -0.00186306  -0.0280904 -0.041986 -0.00153005  -0.0297077 -0.0464306 -0.001463  -0.0324887 -0.0426194 -0.00175041  -0.0324734 -0.0423409 -0.0026083  -0.0238402 -0.0414489 -0.00130981  -0.0342848 -0.0467427 -0.002491  -0.0296746 -0.0461656 -0.00217807  -0.026583 -0.0503796 -0.00178128  -0.0312423 -0.0508279 -0.00208306  -0.0279154 -0.0552582 -0.001697  -0.031275 -0.0510815 -0.00139743  -0.0327964 -0.0559052 -0.00133324  -0.0360665 -0.0516165 -0.00160015  -0.0360452 -0.0513609 -0.00238442  -0.0266225 -0.0506301 -0.00119466  -0.0377452 -0.056145 -0.00227296  -0.0327587 -0.0556611 -0.00198579  -0.0292118 -0.06032 -0.0016194  -0.0342364 -0.0606868 -0.00189602  -0.0304742 -0.0655437 -0.00154066  -0.0342728 -0.0609189 -0.00127101  -0.0357051 -0.066091 -0.00121099  -0.0394224 -0.061364 -0.00145686  -0.0393971 -0.0611283 -0.00217259  -0.0292537 -0.0605505 -0.00108546  -0.0409929 -0.0662638 -0.00206637  -0.0356662 -0.0658682 -0.00180483  -0.0317025 -0.070935 -0.00146741  -0.0370588 -0.0712252 -0.00172025  -0.0328993 -0.0764746 -0.00139403  -0.0370959 -0.0714367 -0.00115228  -0.0384465 -0.0769271 -0.00109637  -0.0425706 -0.0717952 -0.00132281  -0.0425429 -0.0715804 -0.00197178  -0.0317452 -0.0711472 -0.000982463  -0.0440413 -0.0770341 -0.00187331  -0.0384064 -0.0767228 -0.00163424  -0.0340642 -0.0821654 -0.00132531  -0.0397193 -0.0823807 -0.00155461  -0.035198 -0.0879905 -0.00125653  -0.0397562 -0.0825749 -0.00104177  -0.0410275 -0.0883524 -0.000988364  -0.0455244 -0.0828496 -0.00119597  -0.0454957 -0.0826533 -0.00178337  -0.034106 -0.0823585 -0.000887454  -0.0469028 -0.0883979 -0.00169063  -0.0409889 -0.0881663 -0.00147408  -0.0363022 -0.093952 -0.00119364  -0.042227 -0.0940978 -0.00140011  -0.0373784 -0.100034 -0.00112861  -0.042263 -0.0942733 -0.000937581  -0.0434608 -0.100311 -0.000888169  -0.0482937 -0.0944701 -0.00107807  -0.0482674 -0.094293 -0.00160742  -0.0363423 -0.094128 -0.000798047  -0.0495864 -0.100299 -0.00152075  -0.0434245 -0.100143 -0.00132626  -0.0384245 -0.10624 -0.00106806  -0.044591 -0.106321 -0.00125462  -0.0394448 -0.112553 -0.00100768  -0.0446252 -0.106478 -0.000840604  -0.0457534 -0.11275 -0.000793993  -0.0508907 -0.106602 -0.000967205  -0.0508645 -0.106441 -0.00144207  -0.0384625 -0.106399 -0.000714421  -0.0521016 -0.112684 -0.00136065  -0.0457188 -0.112598 -0.00118548  -0.0404354 -0.118976 -0.00095135  -0.0468165 -0.118994 -0.0011192  -0.0414014 -0.125496 -0.000894904  -0.0468478 -0.119136 -0.000748932  -0.0479094 -0.125616 -0.00070554  -0.0533231 -0.119191 -0.000863492  -0.0532987 -0.119046 -0.00128621  -0.0404708 -0.119119 -0.000635803  -0.0544565 -0.125499 -0.00121135  -0.0478776 -0.12548 -0.0010528  -0.0423404 -0.132111 -0.000841796  -0.04891 -0.132071 -0.000991821  -0.0432556 -0.138811 -0.000789225  -0.0489404 -0.132199 -0.000664115  -0.0499388 -0.138861 -0.000623941  -0.0555987 -0.132189 -0.000767231  -0.055576 -0.13206 -0.00114042  -0.0423737 -0.132238 -0.000562251  -0.0566586 -0.138697 -0.00106984  -0.0499084 -0.138739 -0.000929952  -0.0441434 -0.145596 -0.00073874  -0.0508807 -0.145501 -0.000873208  -0.0450087 -0.152455 -0.000690341  -0.0509081 -0.145615 -0.000584185  -0.0518448 -0.152439 -0.000545919  -0.0577254 -0.145546 -0.000674248  -0.0577066 -0.145432 -0.0010047  -0.044174 -0.145711 -0.000494182  -0.0587153 -0.152233 -0.000936329  -0.0518177 -0.152331 -0.000813723  -0.0458498 -0.159387 -0.000644445  -0.0527301 -0.159243 -0.000761092  -0.0466688 -0.166382 -0.000597358  -0.0527554 -0.159343 -0.000509739  -0.0536361 -0.166307 -0.000474393  -0.0597115 -0.159219 -0.000588596  -0.0596926 -0.159117 -0.000878453  -0.0458779 -0.159488 -0.000429988  -0.0606358 -0.16606 -0.000814855  -0.053611 -0.166212 -0.000707686  -0.047462 -0.17344 -0.000555396  -0.0544662 -0.17325 -0.000657976  -0.0482366 -0.180552 -0.00051266  -0.0544894 -0.173339 -0.000440538  -0.0553155 -0.180423 -0.000407517  -0.0615637 -0.173165 -0.000511944  -0.0615475 -0.173076 -0.000760198  -0.0474875 -0.173529 -0.000370026  -0.0624266 -0.180141 -0.000702441  -0.0552926 -0.18034 -0.00060904  -0.0489883 -0.187717 -0.000474036  -0.056097 -0.187485 -0.00056237  -0.0497189 -0.194926 -0.000433326  -0.0561178 -0.187563 -0.000376463  -0.0568924 -0.194747 -0.000346839  -0.0632894 -0.187344 -0.000439286  -0.0632741 -0.187267 -0.000651538  -0.0490103 -0.187794 -0.000314772  -0.064095 -0.194434 -0.000597417  -0.0568721 -0.194675 -0.000515878  -0.0504282 -0.20218 -0.000397861  -0.0576253 -0.201913 -0.000474811  -0.0511198 -0.209468 -0.000362456  -0.0576434 -0.201978 -0.000318229  -0.0583696 -0.209245 -0.0002895  -0.0648992 -0.201719 -0.000371099  -0.0648839 -0.20165 -0.000549972  -0.0504498 -0.202247 -0.000265479  -0.0656471 -0.208903 -0.000501573  -0.0583518 -0.209183 -0.000433207  -0.0517907 -0.216793 -0.000329554  -0.0590587 -0.216493 -0.000394464  -0.0524445 -0.224147 -0.000296712  -0.0590754 -0.216549 -0.000264168  -0.0597558 -0.223883 -0.000239193  -0.0663955 -0.216254 -0.000309408  -0.0663819 -0.216196 -0.000457406  -0.05181 -0.216851 -0.000219345  -0.0670931 -0.223516 -0.000413358  -0.0597391 -0.22383 -0.000356078  -0.0530784 -0.231526 -0.000266254  -0.0604031 -0.231198 -0.000321567  -0.0536976 -0.238931 -0.000238121  -0.0604169 -0.231245 -0.000215173  -0.0610561 -0.238632 -0.000194252  -0.0677879 -0.230917 -0.000255466  -0.0677772 -0.230869 -0.000375092  -0.0530953 -0.231576 -0.000177562  -0.0684392 -0.238243 -0.000336111  -0.0610423 -0.238585 -0.000287771  -0.0542991 -0.246353 -0.00021106  -0.0616653 -0.245998 -0.000256717  -0.0548844 -0.253791 -0.000185907  -0.0616779 -0.246038 -0.000171602  -0.0622787 -0.253462 -0.000153065  -0.0690851 -0.245683 -0.000204921  -0.0690753 -0.245641 -0.000299275  -0.0543122 -0.246395 -0.000141084  -0.069694 -0.253055 -0.00026387  -0.0622659 -0.253424 -0.000225842  -0.0554523 -0.261242 -0.000162244  -0.0628514 -0.260866 -0.000199139  -0.0560107 -0.268704 -0.00014019  -0.0628622 -0.260899 -0.000134826  -0.0634294 -0.268349 -0.000116408  -0.0702956 -0.260519 -0.000160813  -0.0702875 -0.260486 -0.000235975  -0.0554664 -0.261278 -0.000108123  -0.0708663 -0.267927 -0.000204802  -0.0634191 -0.268316 -0.00017345  -0.0565519 -0.276174 -0.000121653  -0.063971 -0.27578 -0.000149727  -0.0570827 -0.283648 -0.000101388  -0.0639813 -0.275808 -0.00010103  -0.0645161 -0.283272 -8.70824e-05  -0.0714304 -0.275407 -0.000122547  -0.0714223 -0.275379 -0.000178397  -0.0565629 -0.276203 -8.0049e-05  -0.0719645 -0.282838 -0.000153005  -0.0645058 -0.283245 -0.00012809  -0.0576005 -0.291126 -8.45194e-05  -0.0650313 -0.290716 -0.0001086  -0.0581076 -0.298604 -6.98566e-05  -0.0650399 -0.290739 -7.34329e-05  -0.0655487 -0.298209 -6.18696e-05  -0.0724943 -0.290323 -9.15527e-05  -0.0724895 -0.290299 -0.000131547  -0.0576091 -0.291149 -5.6386e-05  -0.0730009 -0.297765 -0.000109076  -0.0655389 -0.298186 -9.09567e-05  -0.0586023 -0.306079 -5.63264e-05  -0.0660384 -0.305658 -7.44462e-05  -0.0590892 -0.313554 -4.25577e-05  -0.0660455 -0.305678 -5.04851e-05  -0.0665309 -0.313147 -4.17233e-05  -0.0735002 -0.305249 -6.70552e-05  -0.0734942 -0.30523 -9.12547e-05  -0.0586104 -0.3061 -3.64184e-05  -0.0739818 -0.312695 -7.55191e-05  -0.0665231 -0.313128 -5.99027e-05  -0.059567 -0.321021 -3.23057e-05  -0.0670021 -0.320593 -4.71473e-05  -0.0600369 -0.328484 -2.3067e-05  -0.0670083 -0.320607 -3.33786e-05  -0.067477 -0.328067 -2.67029e-05  -0.0744569 -0.32017 -4.59552e-05  -0.0744514 -0.320153 -6.30617e-05  -0.0595734 -0.321039 -2.13981e-05  -0.0749168 -0.327613 -5.01275e-05  -0.0674679 -0.328052 -3.6478e-05  -0.0605011 -0.335939 -1.5974e-05  -0.0679314 -0.335505 -2.86698e-05  -0.0609593 -0.343387 -8.64267e-06  -0.0679379 -0.335517 -2.00868e-05  -0.068392 -0.342965 -1.59144e-05  -0.0753777 -0.335074 -3.26633e-05  -0.0753727 -0.335062 -3.99351e-05  -0.0605063 -0.335953 -1.03712e-05  -0.0758233 -0.342507 -3.05176e-05  -0.0683858 -0.34295 -2.15769e-05  -0.0614126 -0.350824 -3.09944e-06  -0.0688367 -0.350387 -1.49012e-05  -0.0618615 -0.358255 2.68221e-06  -0.0688424 -0.350399 -1.17421e-05  -0.0692883 -0.357831 -7.39098e-06  -0.076272 -0.349955 -2.15173e-05  -0.0762672 -0.349941 -2.39611e-05  -0.0614178 -0.350837 -2.38419e-06  -0.07671 -0.357375 -1.82986e-05  -0.0692818 -0.357817 -8.70228e-06  -0.0623081 -0.365675 6.61612e-06  -0.0697265 -0.365239 -2.68221e-06  -0.0627522 -0.373092 1.36495e-05  -0.0697351 -0.365251 -3.51667e-06  -0.070179 -0.372674 1.19209e-06  -0.0771582 -0.364809 -1.40071e-05  -0.0771494 -0.364798 -1.35303e-05  -0.0623133 -0.365688 5.30481e-06  -0.0775936 -0.372222 -6.85453e-06  -0.0701702 -0.372657 3.57628e-06  -0.000313304 -0.000568435 -0.000466704  -0.000358157 -0.000911713 -0.000583887  -0.00104602 -0.00158727 -0.000837922  -0.000366103 -0.000946984 -0.000384748  -0.0013053 -0.00235194 -0.000692904  0 0 0  0 0 0  -0.000319164 -0.000602379 -0.000301301  0 0 0  -0.00125215 -0.00222132 -0.00103402  -0.00200684 -0.00306322 -0.00115836  -0.00267492 -0.00386225 -0.00142843  -0.00316477 -0.00489175 -0.00139064  -0.00267738 -0.00401282 -0.000930309  -0.00420001 -0.00588925 -0.00113571  -0.00198649 -0.00320797 -0.000749707  -0.00420117 -0.00567739 -0.00172234  -0.00440276 -0.00689401 -0.00152355  -0.00576714 -0.00765452 -0.00188804  -0.00565347 -0.00917086 -0.00161612  -0.00574067 -0.0078917 -0.00124484  -0.0073157 -0.0101534 -0.00133705  -0.00436887 -0.00711553 -0.00100803  -0.00734371 -0.00988397 -0.00200385  -0.00689054 -0.0116835 -0.00164181  -0.00886148 -0.012332 -0.00203961  -0.00809267 -0.0144373 -0.00164396  -0.00883311 -0.0126165 -0.00136155  -0.0103351 -0.0153394 -0.00137371  -0.00686207 -0.0119487 -0.00109828  -0.0103554 -0.0150455 -0.00204605  -0.00926423 -0.0174524 -0.00161749  -0.011798 -0.018005 -0.00201601  -0.0104002 -0.0207006 -0.00157797  -0.0117854 -0.0183037 -0.00135309  -0.0132028 -0.0215135 -0.00132352  -0.00925529 -0.0177375 -0.00108647  -0.0132036 -0.0212153 -0.0019688  -0.0115068 -0.0241992 -0.00152874  -0.0145701 -0.0246699 -0.00190973  -0.0125863 -0.0279216 -0.00147188  -0.0145788 -0.0249659 -0.00128353  -0.0159169 -0.0286468 -0.00123674  -0.0115188 -0.0244859 -0.00102806  -0.0158984 -0.0283558 -0.00184  -0.0136394 -0.0318749 -0.00141507  -0.0171944 -0.0322734 -0.00177103  -0.0146706 -0.0360398 -0.00135356  -0.0172191 -0.0325572 -0.00119001  -0.0184857 -0.0366798 -0.00113785  -0.013666 -0.0321536 -0.000950754  -0.0184544 -0.0364031 -0.00169563  -0.0156794 -0.0404153 -0.00129569  -0.0196856 -0.0407467 -0.00162423  -0.0166677 -0.0449894 -0.00123554  -0.0197209 -0.0410147 -0.00109005  -0.0209223 -0.0455451 -0.00103909  -0.0157138 -0.0406806 -0.000869274  -0.0208833 -0.0452859 -0.00154984  -0.0176347 -0.049756 -0.00117999  -0.0220553 -0.0500228 -0.00148124  -0.0185854 -0.0547045 -0.0011223  -0.0220958 -0.0502713 -0.000992775  -0.0232385 -0.0551784 -0.000944257  -0.0176749 -0.0500039 -0.000790179  -0.0231957 -0.0549368 -0.00140989  -0.0195161 -0.0598295 -0.00107026  -0.0243137 -0.0600345 -0.00134593  -0.0204309 -0.0651212 -0.00101608  -0.0243552 -0.060264 -0.00090003  -0.025445 -0.0655153 -0.000855505  -0.0195575 -0.0600595 -0.000715435  -0.0254014 -0.065293 -0.00127923  -0.0213268 -0.0705734 -0.000966668  -0.0264667 -0.0707181 -0.00121796  -0.0222081 -0.0761776 -0.000916779  -0.0265099 -0.0709292 -0.00081408  -0.027549 -0.0764939 -0.000772476  -0.0213684 -0.0707849 -0.000645161  -0.0275049 -0.0762907 -0.00115645  -0.0230718 -0.0819266 -0.000871122  -0.0285223 -0.0820143 -0.00109899  -0.0239217 -0.0878137 -0.000824392  -0.0285643 -0.0822063 -0.000734091  -0.0295562 -0.0880566 -0.000695109  -0.0231127 -0.08212 -0.000580966  -0.029514 -0.0878712 -0.00104153  -0.0247556 -0.0938323 -0.000781119  -0.0304855 -0.0938641 -0.000987828  -0.0255743 -0.0999727 -0.00073719  -0.0305259 -0.0940387 -0.000658572  -0.0314723 -0.100144 -0.00062263  -0.0247935 -0.094007 -0.000520051  -0.0314323 -0.099976 -0.000934005  -0.0263786 -0.106231 -0.000697136  -0.0323609 -0.106211 -0.000883341  -0.0271686 -0.112599 -0.000656009  -0.0323991 -0.106369 -0.000588  -0.0333031 -0.112704 -0.000554681  -0.026414 -0.106389 -0.000462532  -0.0332649 -0.112552 -0.000832319  -0.0279435 -0.119072 -0.0006181  -0.0341514 -0.119003 -0.000785649  -0.0287058 -0.125642 -0.000580192  -0.034187 -0.119145 -0.000522673  -0.0350504 -0.125685 -0.000490904  -0.0279769 -0.119216 -0.000409782  -0.0350153 -0.125548 -0.000738025  -0.0294523 -0.132305 -0.000545084  -0.0358608 -0.13219 -0.000694454  -0.0301867 -0.139053 -0.000508606  -0.0358938 -0.132316 -0.000461161  -0.0367181 -0.139036 -0.000431359  -0.0294843 -0.132433 -0.000360847  -0.036685 -0.138914 -0.000649929  -0.0309072 -0.145881 -0.000475585  -0.0374925 -0.145723 -0.000608206  -0.0316155 -0.152784 -0.000442684  -0.0375228 -0.145835 -0.000404119  -0.0383086 -0.152712 -0.000376284  -0.0309358 -0.145995 -0.000313878  -0.0382791 -0.152603 -0.000567138  -0.0323083 -0.159755 -0.000411749  -0.0390487 -0.159558 -0.000529051  -0.0329909 -0.166791 -0.000380993  -0.039077 -0.159658 -0.000349522  -0.0398269 -0.166669 -0.000324965  -0.0323355 -0.159856 -0.000271022  -0.0397978 -0.166573 -0.000489593  -0.0336578 -0.173886 -0.000353038  -0.0405321 -0.173652 -0.000454724  -0.0343156 -0.181034 -0.000323772  -0.0405583 -0.17374 -0.000300646  -0.0412717 -0.180867 -0.000276089  -0.0336833 -0.173975 -0.000231028  -0.0412474 -0.180783 -0.000418901  -0.0349591 -0.188232 -0.000298321  -0.0419474 -0.187965 -0.000387549  -0.0355902 -0.195474 -0.000272214  -0.04197 -0.188043 -0.000254929  -0.0426502 -0.195265 -0.00023216  -0.0349798 -0.18831 -0.000194728  -0.042628 -0.195191 -0.000353694  -0.0362089 -0.202756 -0.000247121  -0.0432959 -0.202461 -0.000323772  -0.0368187 -0.210076 -0.000223339  -0.0433161 -0.202527 -0.000212371  -0.0439665 -0.20983 -0.000193059  -0.0362287 -0.202824 -0.000160277  -0.0439456 -0.209765 -0.000293851  -0.0374138 -0.217427 -0.00020051  -0.0445807 -0.217105 -0.000265896  -0.0379994 -0.224807 -0.000179112  -0.0446002 -0.217162 -0.000173867  -0.045218 -0.224525 -0.000155807  -0.0374322 -0.217485 -0.000130057  -0.0452003 -0.224471 -0.000238955  -0.0385745 -0.232211 -0.000161529  -0.0458074 -0.231865 -0.000214994  -0.0391395 -0.239635 -0.000141203  -0.0458233 -0.231914 -0.000140667  -0.0464141 -0.239326 -0.000123262  -0.0385902 -0.23226 -0.000101507  -0.0463994 -0.239279 -0.000191092  -0.0396924 -0.247078 -0.000122488  -0.0469785 -0.246713 -0.000168085  -0.0402355 -0.254535 -0.000106633  -0.0469918 -0.246753 -0.000108421  -0.0475576 -0.254201 -9.47714e-05  -0.0397053 -0.24712 -7.77841e-05  -0.0475435 -0.25416 -0.000146568  -0.0407701 -0.262003 -9.19104e-05  -0.0480969 -0.261622 -0.0001266  -0.041297 -0.269483 -7.70092e-05  -0.0481107 -0.261656 -8.1718e-05  -0.0486505 -0.269125 -6.88434e-05  -0.0407808 -0.262039 -5.51939e-05  -0.0486386 -0.269093 -0.000109255  -0.0418124 -0.276966 -6.2108e-05  -0.0491691 -0.276569 -9.17912e-05  -0.0423193 -0.284454 -5.01871e-05  -0.0491796 -0.276597 -5.70416e-05  -0.0496988 -0.284079 -4.65512e-05  -0.0418208 -0.276995 -3.68953e-05  -0.0496898 -0.284051 -7.69496e-05  -0.0428197 -0.291942 -3.91603e-05  -0.0501993 -0.291534 -6.27041e-05  -0.0433116 -0.299432 -2.89679e-05  -0.0502081 -0.291558 -3.83854e-05  -0.0507073 -0.299041 -2.92063e-05  -0.0428271 -0.291967 -2.08616e-05  -0.0507011 -0.299017 -5.01275e-05  -0.0437958 -0.306916 -1.96099e-05  -0.0511909 -0.3065 -3.91603e-05  -0.044276 -0.314399 -1.16229e-05  -0.0511994 -0.306518 -2.14577e-05  -0.0516829 -0.313997 -1.51992e-05  -0.0438042 -0.306937 -7.7486e-06  -0.0516758 -0.313977 -2.8193e-05  -0.0447481 -0.321874 -5.66244e-06  -0.052151 -0.32145 -1.96099e-05  -0.0452156 -0.329343 1.43051e-06  -0.0521584 -0.321466 -9.95398e-06  -0.0526266 -0.328932 -4.64916e-06  -0.044754 -0.321892 1.96695e-06  -0.0526216 -0.328915 -1.23382e-05  -0.0456781 -0.336803 5.72205e-06  -0.0530841 -0.336373 -5.42402e-06  -0.0461347 -0.344254 1.10269e-05  -0.0530906 -0.336387 -8.34465e-07  -0.0535467 -0.343837 2.86102e-06  -0.0456827 -0.336817 9.65595e-06  -0.0535421 -0.343822 -4.76837e-07  -0.046587 -0.351694 1.508e-05  -0.0539954 -0.351261 5.72205e-06  -0.0470378 -0.359124 1.98483e-05  -0.0540006 -0.351273 7.09295e-06  -0.0544505 -0.358705 1.12057e-05  -0.0465925 -0.351707 1.66297e-05  -0.0544455 -0.358692 9.53674e-06  -0.0474842 -0.366542 2.38419e-05  -0.054893 -0.366111 1.508e-05  -0.0479312 -0.373952 2.69413e-05  -0.0548975 -0.366123 1.32322e-05  -0.055346 -0.37354 1.82986e-05  -0.0474889 -0.366557 2.05636e-05  -0.0553386 -0.373525 1.95503e-05  -0.000143807 -0.000188559 -0.000233054  -0.000188831 -0.000341833 -0.000355422  -0.000469819 -0.000903964 -0.000420868  -0.000196714 -0.000378072 -0.000231326  -0.000674553 -0.00123653 -0.000419557  0 0 0  0 0 0  -0.000148464 -0.000225067 -0.000147879  0 0 0  -0.000631593 -0.00114352 -0.000631213  -0.000890791 -0.0022133 -0.000586927  -0.00137115 -0.00257388 -0.000872374  -0.00143477 -0.00391403 -0.000707746  -0.00135982 -0.00269419 -0.000554562  -0.00218983 -0.00446799 -0.000696778  -0.000884295 -0.00233403 -0.000375807  -0.00218147 -0.00429416 -0.00105321  -0.00201914 -0.00593603 -0.000773013  -0.00312752 -0.0063307 -0.00115031  -0.00263447 -0.00825945 -0.000819206  -0.00310725 -0.00652662 -0.000751495  -0.00404775 -0.00885987 -0.000813782  -0.00200602 -0.00612518 -0.000510037  -0.00406569 -0.0086284 -0.00122082  -0.00325102 -0.0108412 -0.000828743  -0.00500393 -0.0111814 -0.00123692  -0.00386402 -0.0136754 -0.000828326  -0.00498679 -0.0114296 -0.000823498  -0.00591132 -0.0142503 -0.000830114  -0.0032416 -0.0110792 -0.000555992  -0.00592232 -0.0139836 -0.00123763  -0.00446528 -0.0167597 -0.000812054  -0.00681162 -0.0170342 -0.00121599  -0.00505918 -0.020078 -0.000789821  -0.00680983 -0.0173078 -0.000815988  -0.00768894 -0.0206054 -0.000795484  -0.00446862 -0.0170251 -0.000547111  -0.00768298 -0.0203249 -0.00118476  -0.00564235 -0.0236366 -0.000762939  -0.00852954 -0.0238538 -0.00114691  -0.00622004 -0.0274189 -0.000732064  -0.00854349 -0.0241339 -0.000770986  -0.00938135 -0.0278912 -0.000739574  -0.00565755 -0.0239121 -0.000513971  -0.00936109 -0.0276105 -0.00110251  -0.00679046 -0.0314259 -0.000702798  -0.0101749 -0.0315921 -0.00105971  -0.00735855 -0.0356439 -0.00066936  -0.0102013 -0.0318671 -0.000711381  -0.0110059 -0.0360582 -0.000677049  -0.00681502 -0.0316977 -0.000471473  -0.0109761 -0.0357873 -0.00101215  -0.00792223 -0.0400708 -0.000638843  -0.0117638 -0.0401912 -0.000968397  -0.00848562 -0.044695 -0.000606239  -0.0117971 -0.0404532 -0.000648677  -0.0125753 -0.0450481 -0.000615001  -0.00795162 -0.0403316 -0.000427067  -0.0125397 -0.044792 -0.000921726  -0.0090456 -0.0495101 -0.000578105  -0.0133055 -0.0495849 -0.000879884  -0.00960565 -0.0545086 -0.000546873  -0.013343 -0.049832 -0.00058794  -0.0140986 -0.0548 -0.000556588  -0.00907767 -0.0497559 -0.000385165  -0.0140606 -0.0545606 -0.000835478  -0.0101637 -0.0596805 -0.000520468  -0.0148078 -0.059712 -0.000796258  -0.0107225 -0.0650205 -0.000490963  -0.0148457 -0.0599405 -0.000529885  -0.015582 -0.0652508 -0.000501215  -0.0101968 -0.0599092 -0.000344753  -0.0155442 -0.0650292 -0.000754297  -0.0112793 -0.0705183 -0.000466108  -0.0162734 -0.0705078 -0.000716805  -0.0118369 -0.0761698 -0.000439882  -0.0163103 -0.0707179 -0.000476003  -0.0170288 -0.0763391 -0.000450432  -0.0113118 -0.0707299 -0.000307918  -0.0169911 -0.076136 -0.000679553  -0.0123923 -0.0819633 -0.000415921  -0.0177034 -0.081911 -0.000644982  -0.0129485 -0.0878954 -0.000390947  -0.0177391 -0.0821027 -0.000426412  -0.0184416 -0.088007 -0.000402331  -0.0124238 -0.0821571 -0.000273407  -0.0184059 -0.0878206 -0.000608146  -0.0135031 -0.0939557 -0.000369191  -0.019102 -0.0938624 -0.000576138  -0.0140584 -0.10014 -0.000345826  -0.019137 -0.0940374 -0.000380576  -0.0198226 -0.100195 -0.000357449  -0.0135332 -0.0941316 -0.000241637  -0.0197892 -0.100027 -0.000542879  -0.0146108 -0.106438 -0.000325263  -0.020469 -0.106307 -0.000511944  -0.0151637 -0.112848 -0.000303805  -0.0205019 -0.106465 -0.000337064  -0.0211719 -0.11285 -0.000315845  -0.0146382 -0.106598 -0.000211895  -0.0211399 -0.112697 -0.000480771  -0.015714 -0.119359 -0.000284255  -0.0218045 -0.119192 -0.000452876  -0.016264 -0.125968 -0.000264406  -0.021834 -0.119334 -0.000296175  -0.0224895 -0.125919 -0.000276685  -0.015741 -0.119503 -0.000183642  -0.0224599 -0.125781 -0.000422955  -0.0168115 -0.132666 -0.000246882  -0.0231099 -0.132464 -0.000396252  -0.0173581 -0.13945 -0.000228405  -0.0231375 -0.132591 -0.000259221  -0.0237764 -0.139353 -0.000240207  -0.0168346 -0.132795 -0.00015825  -0.0237498 -0.139231 -0.000370026  -0.0179007 -0.146312 -0.000212729  -0.0243831 -0.146078 -0.000344574  -0.0184438 -0.153248 -0.000194788  -0.0244091 -0.146191 -0.000223696  -0.0250318 -0.153106 -0.000205934  -0.0179231 -0.146426 -0.000133753  -0.0250075 -0.152996 -0.000319183  -0.0189812 -0.160249 -0.00017947  -0.0256252 -0.159986 -0.000296652  -0.0195191 -0.167315 -0.000163317  -0.0256495 -0.160086 -0.000190496  -0.0262578 -0.167134 -0.000174999  -0.019002 -0.160351 -0.000111163  -0.0262356 -0.167037 -0.000273168  -0.0200534 -0.174437 -0.000149548  -0.0268383 -0.174147 -0.000252485  -0.0205841 -0.181612 -0.000133574  -0.0268593 -0.174236 -0.000162065  -0.0274527 -0.181395 -0.000146449  -0.020071 -0.174527 -9.11355e-05  -0.0274324 -0.18131 -0.000230014  -0.0211112 -0.188835 -0.000121951  -0.0280194 -0.188522 -0.000210822  -0.0216372 -0.196102 -0.000107706  -0.0280385 -0.1886 -0.000132442  -0.0286164 -0.195853 -0.000119627  -0.0211275 -0.188914 -7.1466e-05  -0.0285974 -0.195776 -0.000190616  -0.0221577 -0.203406 -9.65595e-05  -0.0291679 -0.203072 -0.000172496  -0.0226753 -0.210748 -8.37445e-05  -0.0291858 -0.20314 -0.000107527  -0.0297484 -0.210467 -9.47714e-05  -0.0221717 -0.203475 -5.52535e-05  -0.0297318 -0.210403 -0.00015372  -0.0231886 -0.218119 -7.31349e-05  -0.0302887 -0.217765 -0.000139594  -0.0236998 -0.225518 -6.24061e-05  -0.0303047 -0.217823 -8.43406e-05  -0.0308526 -0.225211 -7.34329e-05  -0.0232022 -0.218178 -3.95179e-05  -0.0308371 -0.225155 -0.000122428  -0.0242059 -0.232939 -5.22733e-05  -0.0313787 -0.232568 -0.000107527  -0.0247095 -0.24038 -4.29153e-05  -0.0313938 -0.232618 -6.34193e-05  -0.0319247 -0.240049 -5.3525e-05  -0.0242176 -0.23299 -2.5034e-05  -0.0319116 -0.240001 -9.34601e-05  -0.0252073 -0.247838 -3.31998e-05  -0.0324395 -0.247453 -7.9453e-05  -0.025703 -0.25531 -2.5034e-05  -0.0324507 -0.247494 -4.43459e-05  -0.0329702 -0.254959 -3.51667e-05  -0.0252168 -0.24788 -1.29938e-05  -0.032959 -0.254918 -6.62804e-05  -0.0261924 -0.26279 -1.7941e-05  -0.033473 -0.262394 -5.51939e-05  -0.0266805 -0.270282 -1.06096e-05  -0.0334818 -0.262428 -2.8491e-05  -0.0339882 -0.269912 -2.0802e-05  -0.0262001 -0.262827 -1.78814e-06  -0.0339787 -0.269878 -4.38094e-05  -0.0271614 -0.277775 -4.29153e-06  -0.0344777 -0.277368 -3.43919e-05  -0.0276415 -0.285273 1.90735e-06  -0.0344882 -0.277397 -1.44839e-05  -0.0349813 -0.28489 -7.15256e-06  -0.0271688 -0.277805 7.689e-06  -0.0349729 -0.284862 -2.65837e-05  -0.028116 -0.29277 7.689e-06  -0.0354621 -0.292355 -1.72853e-05  -0.028589 -0.300267 1.2219e-05  -0.0354702 -0.292378 -3.09944e-06  -0.0359516 -0.299872 3.39746e-06  -0.0281217 -0.292796 1.42455e-05  -0.0359435 -0.299848 -7.689e-06  -0.0290565 -0.307759 1.62721e-05  -0.0364218 -0.307337 -2.86102e-06  -0.0295205 -0.315247 2.07424e-05  -0.0364277 -0.307358 6.73532e-06  -0.0368989 -0.314843 1.09673e-05  -0.0290596 -0.307779 2.16365e-05  -0.0368936 -0.314823 2.80142e-06  -0.0299809 -0.322728 2.31862e-05  -0.0373607 -0.3223 8.82149e-06  -0.0304389 -0.330201 2.59876e-05  -0.0373659 -0.322318 1.41859e-05  -0.0378292 -0.329789 1.72853e-05  -0.029984 -0.322746 2.5332e-05  -0.0378239 -0.329773 1.21593e-05  -0.0308945 -0.337665 2.90275e-05  -0.0382824 -0.337233 1.7345e-05  -0.0313458 -0.34512 3.17097e-05  -0.0382872 -0.337249 2.03252e-05  -0.0387402 -0.344703 2.3365e-05  -0.0308969 -0.33768 2.98619e-05  -0.0387373 -0.344687 2.19345e-05  -0.0317955 -0.352561 3.34382e-05  -0.0391886 -0.352128 2.34842e-05  -0.0322413 -0.359993 3.43323e-05  -0.0391915 -0.352142 2.5332e-05  -0.0396404 -0.359575 2.65837e-05  -0.0317967 -0.352576 3.26633e-05  -0.0396357 -0.359559 2.65837e-05  -0.0326862 -0.367409 3.71337e-05  -0.0400832 -0.366977 2.98023e-05  -0.0331314 -0.374814 3.92795e-05  -0.0400875 -0.36699 2.93851e-05  -0.0405316 -0.3744 3.05772e-05  -0.0326884 -0.367423 3.49283e-05  -0.0405293 -0.374384 3.16501e-05  -3.86685e-06 -8.69036e-05 1.01328e-05  -5.12712e-05 -0.000115812 -0.000115275  -5.23776e-06 -0.000746489 1.26958e-05  -5.79506e-05 -0.000151515 -7.2062e-05  -0.000196546 -0.000830352 -0.000139177  0 0 0  0 0 0  -7.14883e-06 -0.00012657 1.09076e-05  0 0 0  -0.000157312 -0.000755668 -0.000205278  3.63439e-05 -0.00201795 8.04663e-06  -0.000385165 -0.00206527 -0.000285327  5.90086e-05 -0.00366539 4.58956e-06  -0.000386685 -0.00217119 -0.000172675  -0.000631928 -0.00384331 -0.000236332  2.57939e-05 -0.00212815 1.04308e-05  -0.000606731 -0.00369546 -0.000352204  9.45628e-05 -0.00570783 3.39746e-06  -0.000916213 -0.00574628 -0.000381291  0.000111252 -0.00803617 -2.98023e-07  -0.000917435 -0.00592095 -0.000243247  -0.00122008 -0.00827119 -0.000274301  7.82013e-05 -0.0058811 3.45707e-06  -0.00121275 -0.00806251 -0.000409842  0.000117362 -0.0106567 3.57628e-07  -0.00153071 -0.0106689 -0.000412643  0.000110626 -0.0135218 5.36442e-07  -0.00153452 -0.0108967 -0.000272989  -0.00185376 -0.0137736 -0.000276268  9.9957e-05 -0.0108804 -8.34465e-07  -0.0018478 -0.0135233 -0.000413477  8.82745e-05 -0.0166439 9.53674e-07  -0.00216305 -0.016629 -0.000405252  5.19156e-05 -0.0199984 3.99351e-06  -0.00217336 -0.0168877 -0.00027132  -0.00249594 -0.0202413 -0.000261307  7.05123e-05 -0.0169002 3.57628e-07  -0.00248295 -0.0199707 -0.000392556  7.7486e-07 -0.0235906 5.24521e-06  -0.00280094 -0.0235483 -0.000379384  -6.70552e-05 -0.0274066 9.29832e-06  -0.00281942 -0.0238195 -0.000254095  -0.00314653 -0.0276265 -0.000239372  -1.84178e-05 -0.0238602 3.99351e-06  -0.00312614 -0.0273521 -0.000361323  -0.000150561 -0.0314451 1.07884e-05  -0.00345415 -0.0313759 -0.000346541  -0.000250876 -0.0356959 1.57952e-05  -0.00347751 -0.0316457 -0.000230789  -0.00381386 -0.0358821 -0.000214875  -0.000170827 -0.0317141 9.23872e-06  -0.00378913 -0.0356146 -0.000326991  -0.000367045 -0.0401525 1.68085e-05  -0.00412989 -0.0400583 -0.000311732  -0.000501096 -0.044809 2.18153e-05  -0.00415599 -0.0403176 -0.000205636  -0.00450534 -0.0449557 -0.000191152  -0.000388503 -0.0404121 1.5378e-05  -0.00447845 -0.044701 -0.000292838  -0.000651121 -0.049654 2.3365e-05  -0.00483453 -0.0495334 -0.000277698  -0.000818133 -0.0546844 2.79546e-05  -0.00486159 -0.0497782 -0.000181854  -0.0052253 -0.0547885 -0.000168264  -0.000672221 -0.0498991 2.05636e-05  -0.005198 -0.0545497 -0.000259697  -0.00100052 -0.0598868 2.93255e-05  -0.00556934 -0.0597392 -0.000246584  -0.00119936 -0.065258 3.40343e-05  -0.00559688 -0.0599669 -0.000158906  -0.00597453 -0.0653188 -0.000146925  -0.0010215 -0.0601158 2.53916e-05  -0.00594807 -0.0650968 -0.000229657  -0.00141299 -0.0707866 3.46303e-05  -0.00633395 -0.0706127 -0.000216722  -0.00164282 -0.076469 3.88622e-05  -0.00636113 -0.0708224 -0.000138342  -0.00675321 -0.0764842 -0.000127852  -0.00143349 -0.0709975 3.02196e-05  -0.00672734 -0.0762806 -0.000201285  -0.00188613 -0.0822918 3.96371e-05  -0.00712788 -0.0820908 -0.000188708  -0.00214458 -0.0882544 4.24981e-05  -0.00715363 -0.0822834 -0.000118971  -0.00755978 -0.0882261 -0.000108838  -0.00190568 -0.0824858 3.40343e-05  -0.00753427 -0.0880396 -0.000174463  -0.00241613 -0.0943425 4.36902e-05  -0.00794899 -0.0941161 -0.000163794  -0.00270176 -0.100557 4.64916e-05  -0.00797284 -0.0942914 -0.000101507  -0.00839174 -0.100486 -9.16123e-05  -0.0024339 -0.0945197 3.8445e-05  -0.00836825 -0.100316 -0.000150681  -0.00299883 -0.106882 4.69089e-05  -0.00879455 -0.106631 -0.000140309  -0.00330973 -0.11332 4.83394e-05  -0.00881755 -0.10679 -8.49962e-05  -0.00924802 -0.113209 -7.67112e-05  -0.00301528 -0.107043 4.1008e-05  -0.00922596 -0.113055 -0.00012809  -0.00363111 -0.119857 4.90546e-05  -0.00966346 -0.119582 -0.000118554  -0.00396419 -0.126492 5.1558e-05  -0.00968444 -0.119725 -6.99162e-05  -0.0101252 -0.126343 -6.19292e-05  -0.00364637 -0.120001 4.30346e-05  -0.0101045 -0.126205 -0.000107229  -0.00430655 -0.133213 5.08428e-05  -0.0105516 -0.132916 -9.85265e-05  -0.00466132 -0.140022 5.33462e-05  -0.0105695 -0.133045 -5.53727e-05  -0.0110184 -0.139837 -4.91738e-05  -0.00432134 -0.133344 4.54783e-05  -0.011 -0.139713 -8.82149e-05  -0.00502348 -0.146905 5.31077e-05  -0.0114541 -0.146587 -8.04067e-05  -0.00539589 -0.153863 5.45382e-05  -0.0114722 -0.146702 -4.30942e-05  -0.0119274 -0.153645 -3.61204e-05  -0.00503683 -0.147021 4.72665e-05  -0.0119104 -0.153535 -7.05719e-05  -0.00577474 -0.160885 5.4419e-05  -0.0123715 -0.160549 -6.34789e-05  -0.00616264 -0.167972 5.54919e-05  -0.0123873 -0.160651 -3.12328e-05  -0.0128491 -0.167724 -2.55108e-05  -0.00578618 -0.160988 4.81606e-05  -0.0128338 -0.167626 -5.50151e-05  -0.00655723 -0.175112 5.54919e-05  -0.013299 -0.174759 -4.89354e-05  -0.00695896 -0.182307 5.68628e-05  -0.0133126 -0.174848 -2.05636e-05  -0.0137792 -0.182031 -1.4782e-05  -0.00656748 -0.175202 4.90546e-05  -0.0137637 -0.181944 -4.00543e-05  -0.00736594 -0.189545 5.58496e-05  -0.0142331 -0.189177 -3.33786e-05  -0.00777984 -0.196829 5.66244e-05  -0.014246 -0.189255 -1.09076e-05  -0.014715 -0.196529 -5.66244e-06  -0.00737453 -0.189626 5.00679e-05  -0.0147011 -0.196452 -2.68817e-05  -0.00819755 -0.204148 5.71609e-05  -0.015172 -0.203767 -2.14577e-05  -0.00861979 -0.211504 5.6982e-05  -0.0151839 -0.203834 -1.49012e-06  -0.0156531 -0.211181 3.51667e-06  -0.00820422 -0.204218 5.01275e-05  -0.0156415 -0.211116 -1.31726e-05  -0.00904751 -0.218886 5.68628e-05  -0.0161128 -0.218493 -8.82149e-06  -0.00947809 -0.226298 5.71012e-05  -0.0161242 -0.218552 6.3777e-06  -0.0165937 -0.225955 1.07884e-05  -0.00905347 -0.218947 5.126e-05  -0.0165837 -0.225898 -3.69549e-06  -0.00991225 -0.233729 5.6684e-05  -0.0170562 -0.233327 1.3113e-06  -0.01035 -0.241183 5.6386e-05  -0.017065 -0.233376 1.38879e-05  -0.0175321 -0.240823 1.75834e-05  -0.0099175 -0.233782 5.20945e-05  -0.0175235 -0.240774 7.33137e-06  -0.0107892 -0.248649 5.51939e-05  -0.0179932 -0.248237 1.03712e-05  -0.0112298 -0.25613 5.68032e-05  -0.0180013 -0.248278 1.96099e-05  -0.0184689 -0.255756 2.2769e-05  -0.010793 -0.248693 5.23329e-05  -0.0184629 -0.255713 1.44839e-05  -0.0116727 -0.263618 5.56707e-05  -0.0189292 -0.2632 1.8239e-05  -0.0121174 -0.271115 5.59092e-05  -0.0189364 -0.263236 2.55704e-05  -0.0194013 -0.270728 2.82526e-05  -0.0116761 -0.263655 5.13792e-05  -0.0193951 -0.270694 2.20537e-05  -0.0125628 -0.278616 5.47171e-05  -0.01986 -0.278191 2.45571e-05  -0.0130079 -0.28612 5.51939e-05  -0.0198643 -0.278221 2.95043e-05  -0.0203273 -0.285721 3.26037e-05  -0.0125647 -0.278646 5.22137e-05  -0.0203226 -0.285693 2.78354e-05  -0.0134552 -0.293621 5.52535e-05  -0.0207844 -0.293192 2.92659e-05  -0.0139031 -0.301123 5.4121e-05  -0.0207884 -0.293217 3.38554e-05  -0.0212479 -0.300717 3.46899e-05  -0.0134571 -0.293648 5.13792e-05  -0.0212438 -0.300692 3.20077e-05  -0.0143504 -0.308619 5.29289e-05  -0.0217009 -0.308187 3.42727e-05  -0.0147965 -0.316111 5.22733e-05  -0.021704 -0.308206 3.67761e-05  -0.0221593 -0.315698 3.85642e-05  -0.0143507 -0.30864 5.05447e-05  -0.0221567 -0.315676 3.48091e-05  -0.0152433 -0.323593 5.29289e-05  -0.0226123 -0.32316 3.70741e-05  -0.0156908 -0.33107 5.22733e-05  -0.022614 -0.323177 3.92199e-05  -0.023066 -0.330654 4.00543e-05  -0.0152433 -0.323612 5.08428e-05  -0.0230637 -0.330635 3.79086e-05  -0.016134 -0.338534 5.11408e-05  -0.0235133 -0.338099 3.99947e-05  -0.0165792 -0.345992 5.1856e-05  -0.0235157 -0.338113 4.08888e-05  -0.0239637 -0.345572 4.1008e-05  -0.016135 -0.33855 4.85182e-05  -0.0239611 -0.345554 4.07696e-05  -0.0170212 -0.353435 5.10812e-05  -0.0244079 -0.352998 4.17829e-05  -0.0174637 -0.360866 4.97699e-05  -0.0244088 -0.353012 4.01139e-05  -0.024853 -0.360445 4.23193e-05  -0.0170212 -0.353449 4.97699e-05  -0.0248539 -0.360431 4.20213e-05  -0.0179033 -0.368282 4.87566e-05  -0.0252948 -0.367844 4.20809e-05  -0.0183451 -0.375685 4.82202e-05  -0.0252972 -0.367859 4.17233e-05  -0.025738 -0.375265 4.33922e-05  -0.0179048 -0.368297 4.82798e-05  -0.025737 -0.375248 4.35114e-05  0.000134028 -0.000221789 0.000252128  8.08612e-05 -0.000133574 0.000130594  0.00045231 -0.0010047 0.000444889  7.66292e-05 -0.000172913 9.05991e-05  0.000249982 -0.000880063 0.000145316  0 0 0  0 0 0  0.000132561 -0.000267088 0.000169456  0 0 0  0.000287384 -0.000808954 0.00023067  0.000962332 -0.00238466 0.000598252  0.000525698 -0.00214344 0.000313878  0.00155705 -0.00406617 0.000712752  0.000508919 -0.00224835 0.000215232  0.000811756 -0.00391853 0.000234902  0.000935823 -0.00249594 0.00039506  0.000854045 -0.00377834 0.000363111  0.00220075 -0.00615835 0.000775516  0.00116295 -0.00585496 0.000399232  0.00284865 -0.00848597 0.000814021  0.0011349 -0.00602627 0.000269771  0.00145835 -0.00838214 0.000273228  0.00215602 -0.0063318 0.000514209  0.00149247 -0.00817859 0.000411391  0.00347158 -0.0111194 0.000823975  0.00179866 -0.0108082 0.000418186  0.00406796 -0.0139843 0.000823021  0.00176939 -0.011031 0.000280797  0.00205892 -0.013926 0.000279963  0.00342828 -0.0113446 0.00055033  0.00208569 -0.0136799 0.000415027  0.00462258 -0.0171098 0.000808954  0.00235242 -0.0168042 0.000407875  0.00514102 -0.0204685 0.00079155  0.00232679 -0.0170592 0.000274718  0.00256711 -0.0204355 0.000272274  0.00458986 -0.0173674 0.000543892  0.00258899 -0.0201671 0.000399411  0.00561941 -0.0240651 0.000768602  0.0028041 -0.0237632 0.000388145  0.00605947 -0.0278901 0.000746131  0.00278175 -0.0240314 0.000262976  0.00296926 -0.0278611 0.000259578  0.00559574 -0.0243353 0.00051862  0.00298846 -0.027588 0.00037837  0.00646174 -0.0319356 0.000720322  0.00314903 -0.0316312 0.000365734  0.00682682 -0.0361987 0.000696599  0.00312924 -0.0318993 0.000249445  0.00326276 -0.0361586 0.00024569  0.00644475 -0.0322044 0.000487804  0.00328058 -0.0358921 0.000356436  0.00715762 -0.0406656 0.000670552  0.00338775 -0.0403559 0.00034374  0.00745046 -0.0453367 0.000647962  0.00337011 -0.0406145 0.000236213  0.00345159 -0.045276 0.000231743  0.00714386 -0.0409257 0.000455379  0.00346816 -0.0450218 0.000334859  0.00771165 -0.0501943 0.000623703  0.00352347 -0.0498749 0.000323057  0.00793743 -0.0552392 0.000601828  0.00350738 -0.0501192 0.00022316  0.00353777 -0.0551535 0.000219524  0.00770044 -0.0504394 0.000424743  0.00355327 -0.0549145 0.000315189  0.00813103 -0.0604557 0.000577807  0.00355828 -0.0601263 0.00030297  0.00829113 -0.0658439 0.000557959  0.00354362 -0.0603539 0.000211716  0.00352538 -0.0657295 0.000206649  0.00812173 -0.0606844 0.000395417  0.00353968 -0.065507 0.000295281  0.00842178 -0.0713859 0.000535488  0.00349772 -0.0710451 0.000284612  0.00851977 -0.077085 0.000515461  0.00348318 -0.0712551 0.000199378  0.0034188 -0.0769415 0.000195444  0.00841367 -0.0715976 0.000368118  0.00343311 -0.0767367 0.000276864  0.00858939 -0.0829237 0.00049448  0.00334549 -0.0825699 0.000266314  0.00862944 -0.0889025 0.000475645  0.00333285 -0.0827625 0.000189066  0.00322449 -0.0887292 0.00018394  0.00858271 -0.0831169 0.000341833  0.00323737 -0.0885419 0.000259161  0.00864232 -0.0950052 0.000456154  0.00310659 -0.09464 0.000248969  0.00862551 -0.101235 0.000437856  0.00309503 -0.0948158 0.00017786  0.00294542 -0.101033 0.000173569  0.00863588 -0.0951818 0.000316739  0.00295746 -0.100862 0.000241458  0.00858521 -0.107575 0.000418901  0.00278687 -0.107197 0.000232458  0.00851738 -0.114027 0.000401556  0.00277531 -0.107357 0.000167727  0.00258851 -0.113798 0.00016284  0.00857925 -0.107735 0.000292957  0.00259948 -0.113644 0.000224054  0.00842583 -0.120578 0.000384033  0.00239241 -0.120189 0.000215888  0.00831103 -0.127227 0.000367463  0.00238192 -0.120333 0.000157297  0.00215852 -0.126972 0.000153005  0.00842118 -0.120723 0.000269711  0.00216854 -0.126833 0.000209093  0.00817335 -0.133961 0.000349939  0.0019275 -0.133563 0.000200152  0.00801396 -0.140783 0.000335217  0.00191832 -0.133692 0.000146925  0.00166249 -0.140503 0.000142992  0.00816953 -0.134091 0.000247777  0.00167179 -0.140378 0.000193596  0.00783372 -0.147676 0.000318348  0.00140047 -0.147269 0.000185907  0.00763249 -0.154647 0.000304282  0.00139189 -0.147384 0.000138223  0.00110722 -0.154345 0.000133932  0.0078299 -0.147794 0.000228107  0.00111461 -0.154233 0.000179112  0.0074141 -0.161679 0.000288606  0.000814438 -0.161263 0.000170767  0.0071764 -0.168776 0.000274599  0.000807524 -0.161365 0.000128448  0.000496626 -0.168454 0.000125527  0.00741124 -0.161782 0.000208855  0.00050211 -0.168356 0.000164211  0.00692081 -0.175925 0.000259459  0.000178099 -0.175501 0.000156879  0.00665092 -0.183128 0.000247478  0.000172138 -0.175591 0.000120878  -0.000164032 -0.182788 0.000116169  0.00692058 -0.176016 0.000190258  -0.000158548 -0.182701 0.000151396  0.00636578 -0.190375 0.000234306  -0.000505924 -0.189946 0.000144422  0.00606346 -0.197667 0.000222147  -0.000510931 -0.190025 0.000111818  -0.00086689 -0.197311 0.000108838  0.00636339 -0.190455 0.000173271  -0.00086236 -0.197234 0.000138342  0.00574923 -0.204991 0.000209391  -0.00122857 -0.204557 0.000132382  0.00542164 -0.212354 0.000197887  -0.00123286 -0.204626 0.000104964  -0.0016067 -0.211984 0.000101805  0.00574875 -0.205062 0.000157118  -0.0016036 -0.211918 0.000126421  0.00508332 -0.219742 0.000187039  -0.00198698 -0.219304 0.000120401  0.00473166 -0.227159 0.000176609  -0.0019896 -0.219362 9.77516e-05  -0.00238013 -0.226777 9.42349e-05  0.00508261 -0.219802 0.000142634  -0.00237608 -0.226718 0.000115454  0.00437045 -0.234594 0.000165343  -0.00277281 -0.234152 0.000109911  0.00400162 -0.242051 0.000156581  -0.00277638 -0.234203 9.11951e-05  -0.00317979 -0.241658 8.80361e-05  0.00437331 -0.234645 0.00012958  -0.0031774 -0.241608 0.000105083  0.00362253 -0.24952 0.000146568  -0.00358677 -0.249077 0.00010097  0.00323439 -0.257004 0.000138521  -0.0035882 -0.24912 8.49366e-05  -0.00400138 -0.256602 8.30293e-05  0.00362325 -0.249565 0.000116587  -0.00400186 -0.25656 9.66191e-05  0.00283909 -0.264495 0.000129938  -0.00441957 -0.264051 9.27448e-05  0.00243878 -0.271995 0.000122726  -0.00442147 -0.264087 7.90358e-05  -0.00484347 -0.271586 7.73072e-05  0.00284147 -0.264533 0.00010556  -0.00484276 -0.27155 8.80361e-05  0.00203037 -0.279496 0.000115156  -0.00526977 -0.27905 8.43406e-05  0.00161791 -0.287001 0.000108898  -0.00526953 -0.279081 7.40886e-05  -0.00569916 -0.286586 7.29561e-05  0.002033 -0.279527 9.71556e-05  -0.00569916 -0.286557 8.10623e-05  0.00120068 -0.294504 0.000102162  -0.0061307 -0.294059 7.76052e-05  0.00077796 -0.302006 9.62019e-05  -0.00613022 -0.294084 7.11679e-05  -0.00656438 -0.301587 6.87242e-05  0.00120163 -0.29453 8.80361e-05  -0.00656438 -0.301561 7.4327e-05  0.000353336 -0.309503 9.07183e-05  -0.00700188 -0.309057 7.18832e-05  -7.60555e-05 -0.316995 8.69632e-05  -0.00700092 -0.309079 6.58035e-05  -0.00743794 -0.316572 6.4671e-05  0.000355244 -0.309524 8.17776e-05  -0.00743842 -0.31655 6.96182e-05  -0.000507116 -0.324476 8.14795e-05  -0.00787735 -0.324033 6.634e-05  -0.000941277 -0.331953 7.7486e-05  -0.00787783 -0.324051 6.22272e-05  -0.00831723 -0.331528 6.19888e-05  -0.000504971 -0.324495 7.45654e-05  -0.00831723 -0.33151 6.46114e-05  -0.00137472 -0.339416 7.4625e-05  -0.00875735 -0.338975 6.25253e-05  -0.00181317 -0.346874 7.10487e-05  -0.00875759 -0.33899 6.01411e-05  -0.00919747 -0.346449 5.97835e-05  -0.00137401 -0.339434 6.9797e-05  -0.0091989 -0.346433 6.02007e-05  -0.00224948 -0.354315 6.75321e-05  -0.00963783 -0.353875 5.82933e-05  -0.00268841 -0.361749 6.44922e-05  -0.00963879 -0.353888 5.70416e-05  -0.0100777 -0.361323 5.75781e-05  -0.00224781 -0.354332 6.61016e-05  -0.0100789 -0.361308 5.57303e-05  -0.00312543 -0.369166 6.13332e-05  -0.0105164 -0.368723 5.46575e-05  -0.00356174 -0.376571 5.8949e-05  -0.0105166 -0.368736 5.50151e-05  -0.0109522 -0.376143 5.44786e-05  -0.00312328 -0.369181 6.06775e-05  -0.0109525 -0.376125 5.29289e-05  0.000303149 -0.00066781 0.000480294  0.000241064 -0.000401855 0.000371814  0.00102307 -0.0017516 0.000853658  0.000238933 -0.000451446 0.000247836  0.000759989 -0.00137413 0.000421703  0 0 0  0 0 0  0.00030487 -0.000718892 0.000321448  0 0 0  0.000794187 -0.00129282 0.000656426  0.00207031 -0.0033825 0.00115806  0.00153036 -0.00279808 0.000895917  0.00329423 -0.00515062 0.00138426  0.00150006 -0.00291544 0.000591099  0.00236914 -0.00467283 0.0006935  0.00202985 -0.00350493 0.000761092  0.00242373 -0.00451994 0.00105792  0.00455761 -0.00728875 0.00151122  0.00335994 -0.00663495 0.00115842  0.00583443 -0.00960773 0.00159431  0.00330698 -0.0068199 0.000768065  0.00425085 -0.00918442 0.000807643  0.00448984 -0.00748217 0.00100076  0.00430849 -0.00896811 0.00121212  0.00705928 -0.0122122 0.00161868  0.00523332 -0.011586 0.00123072  0.00823814 -0.0150498 0.00162059  0.0051814 -0.01182 0.000822544  0.00606984 -0.0147033 0.000825286  0.00699508 -0.0124554 0.00108242  0.00611466 -0.014447 0.0012269  0.0093534 -0.0181398 0.00159651  0.00695461 -0.0175552 0.00120729  0.0104095 -0.021477 0.00156271  0.00691509 -0.0178167 0.000812173  0.00770986 -0.0211834 0.00079751  0.00930846 -0.0184091 0.00107348  0.0077399 -0.0209092 0.00117958  0.0114052 -0.0250485 0.00151849  0.00848061 -0.0244944 0.00114524  0.0123421 -0.0288615 0.00147223  0.00845569 -0.0247662 0.000772655  0.00915045 -0.0285931 0.00075227  0.0113785 -0.0253257 0.00102365  0.00916874 -0.0283168 0.00111037  0.0132232 -0.0328923 0.00142062  0.00981319 -0.0323569 0.00107074  0.0140476 -0.0371491 0.00137049  0.00979704 -0.0326255 0.000724316  0.0103966 -0.0368876 0.000702381  0.0132094 -0.0331642 0.000959694  0.0104083 -0.0366195 0.00103426  0.0148186 -0.0416081 0.00131816  0.0109598 -0.0410841 0.000994802  0.0155356 -0.0462758 0.00126964  0.0109499 -0.0413434 0.000674605  0.0114586 -0.0460107 0.000652194  0.0148126 -0.0418687 0.000892043  0.0114658 -0.0457557 0.000958622  0.0162019 -0.0511298 0.00121939  0.0119301 -0.050614 0.000920534  0.0168164 -0.0561754 0.00117195  0.0119234 -0.0508575 0.000626564  0.0123464 -0.0558994 0.000605047  0.0161996 -0.0513757 0.00082624  0.0123509 -0.0556602 0.000886858  0.0173829 -0.0613901 0.00112391  0.0127319 -0.0608772 0.000851154  0.0179001 -0.0667801 0.00107968  0.0127276 -0.0611054 0.00058043  0.013068 -0.0664902 0.000559926  0.017383 -0.0616186 0.000763655  0.0130708 -0.0662686 0.00081861  0.0183707 -0.0723219 0.00103408  0.0133727 -0.071813 0.00078392  0.0187942 -0.078024 0.000991344  0.0133685 -0.0720229 0.000536263  0.0136315 -0.0777189 0.00051713  0.0183719 -0.0725334 0.000704467  0.0136335 -0.0775145 0.000752985  0.0191743 -0.0838622 0.000948548  0.0138587 -0.0833552 0.000720561  0.0195094 -0.0898443 0.000908136  0.0138557 -0.0835479 0.000495851  0.0140457 -0.0895236 0.00047636  0.019176 -0.0840562 0.000647664  0.014047 -0.0893368 0.000691175  0.0198036 -0.0959488 0.000867069  0.0142003 -0.0954426 0.000661254  0.0200552 -0.102182 0.000828862  0.0141987 -0.0956177 0.000456393  0.014318 -0.101845 0.000438273  0.0198056 -0.0961252 0.000594437  0.0143193 -0.101675 0.000632823  0.0202677 -0.108522 0.000790179  0.0144053 -0.108018 0.000603974  0.0204408 -0.114979 0.000753641  0.0144038 -0.108177 0.000419199  0.0144576 -0.114628 0.000401735  0.0202707 -0.108683 0.000544488  0.014459 -0.114472 0.000577211  0.0205772 -0.121528 0.000717938  0.0144813 -0.121025 0.000550151  0.0206773 -0.128181 0.000683188  0.0144801 -0.121169 0.00038445  0.0144743 -0.127816 0.000367463  0.0205809 -0.121674 0.000496924  0.0144752 -0.127677 0.000524819  0.0207429 -0.134915 0.000649154  0.0144397 -0.134412 0.000499189  0.0207744 -0.141738 0.000616431  0.014439 -0.134542 0.000350654  0.0143757 -0.141362 0.000335217  0.0207461 -0.135046 0.000451803  0.014375 -0.141236 0.000474513  0.0207746 -0.148633 0.000582576  0.0142858 -0.148132 0.000449836  0.0207431 -0.155605 0.000552535  0.0142856 -0.148248 0.000318229  0.0141711 -0.155216 0.000304461  0.0207779 -0.148749 0.000408709  0.0141697 -0.155103 0.000428736  0.0206819 -0.162636 0.00052166  0.0140305 -0.162137 0.000404835  0.0205915 -0.169734 0.000493288  0.0140314 -0.16224 0.000289559  0.0138686 -0.169335 0.000275195  0.0206864 -0.162739 0.000369072  0.0138676 -0.169236 0.000383139  0.0204766 -0.176881 0.00046438  0.0136826 -0.176386 0.000361085  0.0203321 -0.184085 0.000437617  0.0136838 -0.176476 0.000261664  0.0134778 -0.183677 0.000248492  0.0204792 -0.176972 0.000330329  0.0134773 -0.183591 0.000342607  0.0201669 -0.191329 0.000410914  0.0132506 -0.190838 0.000321507  0.0199745 -0.19862 0.000385225  0.0132532 -0.190916 0.000235736  0.0130067 -0.198205 0.000223756  0.0201702 -0.19141 0.000295818  0.0130045 -0.198129 0.000303209  0.019762 -0.205944 0.000361621  0.0127406 -0.205454 0.000284672  0.0195279 -0.213304 0.000338793  0.012743 -0.205524 0.000210404  0.0124629 -0.212884 0.000199854  0.019767 -0.206013 0.000263274  0.0124617 -0.212817 0.000267684  0.0192745 -0.22069 0.000315964  0.0121651 -0.220205 0.000250459  0.0190008 -0.228105 0.000295162  0.0121679 -0.220263 0.000189126  0.0118566 -0.22768 0.000179172  0.0192783 -0.22075 0.000233293  0.0118544 -0.22762 0.000234604  0.0187118 -0.235536 0.000274777  0.0115278 -0.235056 0.000219166  0.0184038 -0.242992 0.000256956  0.0115318 -0.235106 0.000168443  0.011194 -0.242562 0.000159681  0.0187163 -0.235587 0.00020647  0.0111923 -0.242512 0.000205815  0.0180819 -0.250455 0.000237703  0.0108416 -0.249981 0.000192225  0.0177462 -0.257938 0.000219524  0.0108442 -0.250023 0.000150859  0.010483 -0.257506 0.000141799  0.0180874 -0.250501 0.000182033  0.0104797 -0.257464 0.000177503  0.0173988 -0.265424 0.000202358  0.0101094 -0.264953 0.000166357  0.0170364 -0.272921 0.000187993  0.0101109 -0.26499 0.000133514  0.00973153 -0.272489 0.000126064  0.0174022 -0.265462 0.000159144  0.00972724 -0.272453 0.000154674  0.0166652 -0.280418 0.000174522  0.00933909 -0.279952 0.000143945  0.0162818 -0.28792 0.000161767  0.00934172 -0.279983 0.000119507  0.00894427 -0.287488 0.000113726  0.0166686 -0.280449 0.000140309  0.00894213 -0.287457 0.000134349  0.0158908 -0.295419 0.000149488  0.00853801 -0.294958 0.00012511  0.0154898 -0.302919 0.000138342  0.00853992 -0.294984 0.000106275  0.00812984 -0.302485 0.000102043  0.0158963 -0.295445 0.000124574  0.00812674 -0.302459 0.000117302  0.0150845 -0.310411 0.000127852  0.00771213 -0.309953 0.000109136  0.0146704 -0.3179 0.000119567  0.00771356 -0.309974 9.63211e-05  0.00729346 -0.317466 9.23872e-05  0.0150876 -0.310432 0.000111163  0.00729108 -0.317446 0.00010258  0.0142531 -0.325378 0.000111699  0.00686717 -0.324925 9.56059e-05  0.013828 -0.332852 0.000104368  0.00686908 -0.324943 8.86321e-05  0.00644159 -0.33242 8.53539e-05  0.0142565 -0.325396 0.000100493  0.00643826 -0.332401 8.95262e-05  0.0134017 -0.340312 9.77516e-05  0.00600791 -0.339864 8.57711e-05  0.0129697 -0.347768 9.11951e-05  0.00601006 -0.339879 8.09431e-05  0.00557709 -0.347336 7.81417e-05  0.013406 -0.34033 9.05395e-05  0.00557423 -0.347319 8.06451e-05  0.0125384 -0.355207 8.64267e-05  0.00513864 -0.354761 7.59959e-05  0.0121019 -0.362639 8.08239e-05  0.00514245 -0.354774 7.49826e-05  0.00470614 -0.362211 7.21812e-05  0.0125415 -0.355222 8.31485e-05  0.004704 -0.362193 7.18832e-05  0.0116682 -0.370058 7.69496e-05  0.0042665 -0.369612 6.77705e-05  0.0112329 -0.377471 7.01547e-05  0.0042696 -0.369625 6.93798e-05  0.00383663 -0.377037 6.67572e-05  0.0116711 -0.370073 7.64132e-05  0.00383425 -0.377018 6.41942e-05  0.000575319 -0.00169957 0.000691295  0.00049787 -0.00105649 0.000601709  0.00197762 -0.00326985 0.00123578  0.000498481 -0.00112605 0.00039345  0.00148448 -0.00249982 0.000683784  0 0 0  0 0 0  0.000588514 -0.00175154 0.000466228  0 0 0  0.00150488 -0.00239593 0.00105405  0.00367357 -0.0051707 0.0016821  0.00284383 -0.00415307 0.00143832  0.00557658 -0.00702822 0.00200963  0.00280702 -0.00429821 0.00094074  0.00429475 -0.00619167 0.00112438  0.00362979 -0.00532669 0.0011012  0.00434944 -0.00600547 0.0017066  0.00745103 -0.00910562 0.00220466  0.00593203 -0.00810724 0.00187176  0.0093075 -0.0113887 0.00233257  0.00586343 -0.00832492 0.00123733  0.00741687 -0.0106751 0.00131458  0.00737694 -0.00934684 0.00145835  0.00748745 -0.0104278 0.00196975  0.0110982 -0.0138936 0.00237852  0.00900888 -0.0129817 0.00200605  0.0128165 -0.0166805 0.00238812  0.00894237 -0.0132418 0.00134075  0.0104028 -0.0160781 0.00134963  0.0110275 -0.0141753 0.00158906  0.0104605 -0.015801 0.0020076  0.0144638 -0.0196981 0.00235945  0.011849 -0.0188558 0.00198174  0.0160331 -0.0229951 0.00231326  0.0118008 -0.0191347 0.00133222  0.0131279 -0.0224614 0.00130862  0.0144139 -0.0199909 0.00158489  0.0131651 -0.0221757 0.00193971  0.0175304 -0.0265194 0.00225222  0.0144145 -0.0257258 0.00188667  0.0189506 -0.0303028 0.00218374  0.0143855 -0.026006 0.00127226  0.0155755 -0.0298069 0.00123537  0.0174999 -0.0268074 0.00151634  0.015595 -0.0295249 0.00182837  0.0202984 -0.0343003 0.00211  0.0167114 -0.0335416 0.00176531  0.0215724 -0.038536 0.0020352  0.0166961 -0.0338141 0.00119263  0.017753 -0.0380602 0.00115246  0.0202831 -0.0345776 0.0014227  0.0177619 -0.0377895 0.00170279  0.022777 -0.0429705 0.00195867  0.0187504 -0.0422384 0.00163883  0.0239096 -0.0476235 0.00188369  0.0187451 -0.0424977 0.00110894  0.0196747 -0.0471557 0.00106847  0.0227708 -0.0432326 0.00132298  0.0196769 -0.0469003 0.0015769  0.0249757 -0.0524561 0.0018096  0.0205439 -0.0517458 0.00151396  0.0259719 -0.0574898 0.00173742  0.0205424 -0.0519894 0.00102597  0.0213515 -0.0570253 0.000987649  0.0249742 -0.052701 0.00122404  0.0213509 -0.056787 0.00145459  0.0269054 -0.0626862 0.0016669  0.0221006 -0.0619951 0.00139499  0.0277708 -0.0680664 0.00159746  0.0221026 -0.0622208 0.000947952  0.0227966 -0.0676016 0.000910461  0.0269067 -0.0629141 0.00112873  0.0227935 -0.0673801 0.00133806  0.0285772 -0.0735928 0.00152951  0.0234323 -0.0729169 0.00128084  0.0293193 -0.0792851 0.00146478  0.0234356 -0.0731255 0.000872314  0.0240208 -0.078818 0.000837505  0.0285804 -0.0738021 0.00103813  0.024017 -0.0786152 0.0012278  0.0300041 -0.0851085 0.00139987  0.0245495 -0.0844488 0.0011735  0.030629 -0.0910826 0.00133759  0.0245538 -0.08464 0.000801802  0.0250349 -0.0906138 0.000768542  0.0300076 -0.0853007 0.000952899  0.0250301 -0.0904273 0.00112236  0.0311987 -0.0971726 0.00127685  0.0254627 -0.0965267 0.00107145  0.0317115 -0.103398 0.0012176  0.0254669 -0.0967012 0.00073415  0.0258511 -0.102926 0.000703096  0.0312027 -0.0973483 0.000872195  0.0258464 -0.102757 0.00102264  0.0321732 -0.109725 0.00116056  0.0261836 -0.109093 0.000973821  0.0325798 -0.116174 0.00110477  0.0261877 -0.109251 0.000669718  0.0264803 -0.1157 0.000640869  0.0321767 -0.109885 0.000794649  0.0264754 -0.115546 0.000929117  0.0329398 -0.122711 0.00104904  0.026724 -0.122093 0.000882626  0.0332479 -0.129356 0.000997066  0.0267284 -0.122235 0.000611007  0.0269352 -0.12888 0.000582337  0.0329441 -0.122854 0.00072217  0.0269295 -0.128741 0.000839353  0.0335122 -0.136077 0.000945091  0.0270948 -0.135471 0.000796437  0.0337279 -0.142892 0.000895321  0.0270995 -0.135599 0.000553787  0.0272257 -0.142416 0.000526607  0.0335166 -0.136206 0.000653207  0.0272202 -0.142291 0.000755191  0.0339036 -0.149775 0.000846863  0.0273092 -0.149182 0.000714004  0.0340338 -0.156738 0.000799775  0.0273135 -0.149296 0.000498891  0.027364 -0.156263 0.000474989  0.0339084 -0.14989 0.000588179  0.02736 -0.156149 0.000676692  0.0341263 -0.163756 0.000753939  0.027375 -0.163176 0.000637472  0.0341787 -0.170847 0.000711143  0.0273805 -0.163279 0.000448644  0.0273626 -0.17037 0.00042522  0.034132 -0.163859 0.000528157  0.0273578 -0.170272 0.00060147  0.0341952 -0.177982 0.000667989  0.0273077 -0.177415 0.00056529  0.0341735 -0.185177 0.000626683  0.0273128 -0.177505 0.000401556  0.0272329 -0.184703 0.000380218  0.0342002 -0.178072 0.000471354  0.0272274 -0.184615 0.000531316  0.0341208 -0.192409 0.000587642  0.0271175 -0.191855 0.000498652  0.0340326 -0.199692 0.000549793  0.027123 -0.191933 0.000357747  0.0269864 -0.199218 0.000337899  0.034126 -0.192488 0.000417948  0.0269792 -0.199143 0.000467658  0.0339162 -0.207002 0.000512421  0.0268159 -0.20646 0.000436544  0.0337684 -0.214354 0.000478446  0.0268209 -0.20653 0.000316978  0.0266316 -0.213884 0.000297487  0.033922 -0.207071 0.000368297  0.0266259 -0.213818 0.000408292  0.0335951 -0.221728 0.000444412  0.0264132 -0.221198 0.00037998  0.0333936 -0.229134 0.000413179  0.026418 -0.221258 0.000279188  0.0261834 -0.228667 0.000262737  0.0336001 -0.221787 0.000324011  0.0261765 -0.228609 0.000352085  0.0331702 -0.236553 0.000383437  0.0259204 -0.236036 0.000327349  0.0329194 -0.244 0.000354111  0.0259254 -0.236087 0.000245929  0.0256486 -0.243537 0.000229716  0.0331748 -0.236605 0.000283599  0.0256438 -0.243488 0.000303924  0.0326502 -0.251454 0.000327229  0.0253491 -0.250949 0.000280738  0.0323586 -0.258928 0.000300229  0.0253546 -0.25099 0.000214696  0.0250413 -0.258469 0.000201404  0.032656 -0.251498 0.000246584  0.0250354 -0.258427 0.000259697  0.0320494 -0.266403 0.000275671  0.024708 -0.265909 0.000239313  0.0317218 -0.273891 0.000253379  0.0247128 -0.265944 0.000187218  0.0243697 -0.273438 0.000175953  0.0320561 -0.266439 0.00021255  0.0243638 -0.273402 0.000220776  0.0313792 -0.281378 0.000233293  0.0240073 -0.280895 0.000202715  0.0310209 -0.288874 0.000213027  0.0240133 -0.280924 0.000164032  0.0236428 -0.288424 0.000153363  0.0313845 -0.281409 0.000184834  0.0236385 -0.288394 0.000186265  0.0306513 -0.296363 0.000196397  0.0232575 -0.295888 0.000171363  0.0302665 -0.303855 0.00017941  0.023263 -0.295913 0.000143409  0.0228724 -0.30341 0.000134289  0.0306551 -0.296389 0.00015986  0.0228665 -0.303385 0.000159144  0.0298743 -0.311338 0.000165761  0.0224679 -0.310874 0.000145614  0.0294704 -0.318822 0.000151813  0.0224721 -0.310892 0.000126123  0.0220652 -0.318381 0.000119388  0.0298789 -0.31136 0.000140548  0.0220609 -0.318359 0.000135601  0.0290594 -0.326293 0.000140905  0.021647 -0.325835 0.000125229  0.0286396 -0.333762 0.000129998  0.021651 -0.325852 0.000112832  0.0212321 -0.333325 0.00010711  0.0290639 -0.326312 0.000124514  0.0212262 -0.333307 0.000115991  0.0282166 -0.341217 0.000121474  0.0208023 -0.340765 0.000108719  0.0277886 -0.348666 0.000113726  0.0208056 -0.34078 0.000102103  0.0203784 -0.348233 9.85265e-05  0.0282223 -0.341233 0.000111639  0.0203736 -0.348217 0.000102341  0.0273561 -0.356104 0.000105679  0.0199411 -0.355656 9.54866e-05  0.0269201 -0.363537 9.85265e-05  0.0199451 -0.355669 9.29832e-05  0.0195098 -0.363104 9.01222e-05  0.0273633 -0.356117 0.000102341  0.0195055 -0.363088 8.92878e-05  0.0264838 -0.370957 9.197e-05  0.0190704 -0.370509 8.32081e-05  0.0260472 -0.378376 8.4281e-05  0.0190749 -0.370523 8.69036e-05  0.0186424 -0.377941 8.04663e-05  0.0264907 -0.370971 9.30429e-05  0.0186372 -0.377924 7.70688e-05  0.0012047 -0.00405324 0.00093174  0.00103526 -0.00247711 0.00083214  0.0040908 -0.00623757 0.00158381  0.00104035 -0.00258696 0.000522733  0.00276285 -0.00476938 0.000934362  0 0 0  0 0 0  0.00116743 -0.00409734 0.000611305  0 0 0  0.00273347 -0.00462556 0.00142604  0.00646321 -0.00770921 0.00223291  0.00483721 -0.00637519 0.00194561  0.0087108 -0.0096882 0.00262702  0.00481033 -0.00656575 0.00127113  0.00692645 -0.00854939 0.00152731  0.00640768 -0.00800753 0.00142837  0.00696138 -0.00830883 0.00230873  0.0110968 -0.0114845 0.00289673  0.00914446 -0.0102478 0.0025484  0.0133843 -0.0137144 0.00306207  0.00907937 -0.0105203 0.00168645  0.0111885 -0.0127857 0.00179595  0.0110543 -0.0118176 0.00190258  0.0112558 -0.0124956 0.00268871  0.0156912 -0.016085 0.00312614  0.0133127 -0.0149359 0.0027523  0.0179116 -0.0188044 0.00314277  0.0132442 -0.0152373 0.00184053  0.0152349 -0.0179859 0.0018546  0.0156352 -0.0164163 0.00208431  0.0152959 -0.017682 0.00276208  0.0200713 -0.0217414 0.00310749  0.0171971 -0.0206645 0.00273383  0.0221425 -0.0249883 0.00305015  0.0171438 -0.0209662 0.00183821  0.018979 -0.0242318 0.00180572  0.0200195 -0.0220581 0.00208557  0.0190225 -0.0239321 0.00268143  0.0241296 -0.028451 0.00297076  0.0207614 -0.0274311 0.00261194  0.0260233 -0.032198 0.00288349  0.0207267 -0.0277228 0.00176018  0.0223954 -0.0314819 0.00170928  0.0240904 -0.0287492 0.00199986  0.0224222 -0.0311942 0.00253385  0.0278322 -0.0361444 0.00278819  0.0239983 -0.0351712 0.00244862  0.0295455 -0.0403519 0.00268936  0.0239776 -0.0354474 0.00165313  0.025481 -0.0396637 0.0015955  0.0278051 -0.0364228 0.0018791  0.0254956 -0.0393908 0.00236273  0.031176 -0.0447403 0.00259066  0.0269117 -0.0438079 0.00227433  0.0327126 -0.0493701 0.0024913  0.0268997 -0.0440671 0.00153691  0.0282428 -0.0487024 0.00147933  0.0311579 -0.0450008 0.00174826  0.0282501 -0.0484471 0.00218761  0.0341723 -0.0541627 0.0023942  0.0295113 -0.0532652 0.0021013  0.0355392 -0.0591764 0.00229704  0.0295055 -0.0535062 0.00142199  0.0306942 -0.0585238 0.00136691  0.0341592 -0.0544045 0.00161695  0.0306972 -0.0582865 0.00201756  0.0368329 -0.064335 0.00220478  0.0318086 -0.0634698 0.00193453  0.0380362 -0.0696967 0.00211072  0.0318054 -0.0636929 0.00131166  0.0328474 -0.0690578 0.00125873  0.0368224 -0.0645583 0.00149125  0.0328485 -0.0688385 0.00185376  0.0391731 -0.075188 0.0020228  0.0338167 -0.0743529 0.00177509  0.0402207 -0.080864 0.00193375  0.033815 -0.0745576 0.00120574  0.0347171 -0.0802357 0.00115567  0.0391634 -0.0753931 0.00137013  0.0347166 -0.0800348 0.00169921  0.0412054 -0.0866536 0.00184983  0.0355493 -0.0858468 0.00162369  0.0421066 -0.0926121 0.00176466  0.0355492 -0.0860344 0.00110596  0.0363176 -0.0919946 0.00105852  0.041198 -0.086841 0.00125617  0.0363165 -0.0918106 0.00155157  0.0429471 -0.0986702 0.00168592  0.0370202 -0.09789 0.0014801  0.0437094 -0.10488 0.00160593  0.03702 -0.0980617 0.00101036  0.0376637 -0.104274 0.00096637  0.0429409 -0.0988415 0.00114793  0.037662 -0.104106 0.00141126  0.0444143 -0.111177 0.00152987  0.0382429 -0.110422 0.00134343  0.0450439 -0.11761 0.00145376  0.0382432 -0.110577 0.000920475  0.0387688 -0.117013 0.000878453  0.0444084 -0.111332 0.00104463  0.0387654 -0.116861 0.0012787  0.0456203 -0.124116 0.00138146  0.0392318 -0.123389 0.00121444  0.0461271 -0.130746 0.00131035  0.0392333 -0.123529 0.000836194  0.0396454 -0.130162 0.000795364  0.0456153 -0.124257 0.000947654  0.039643 -0.130024 0.00115252  0.0465823 -0.137439 0.00124288  0.0400019 -0.136736 0.00109237  0.0469725 -0.144241 0.00117427  0.0400023 -0.136862 0.000755489  0.0403111 -0.143666 0.000716865  0.046578 -0.137566 0.00085479  0.0403092 -0.143542 0.00103414  0.0473185 -0.151094 0.00111091  0.0405669 -0.150415 0.000978172  0.0475986 -0.158044 0.00104737  0.0405688 -0.150527 0.000679076  0.0407808 -0.15748 0.000644445  0.0473125 -0.151206 0.000768423  0.0407772 -0.157371 0.000922799  0.0478396 -0.165035 0.000987172  0.0409427 -0.164379 0.000869095  0.0480204 -0.172109 0.000927746  0.0409453 -0.164478 0.000608146  0.0410664 -0.171557 0.000575125  0.0478356 -0.165135 0.000687301  0.0410626 -0.17146 0.000818372  0.0481648 -0.179218 0.000871778  0.0411408 -0.178585 0.000769317  0.0482535 -0.186401 0.000817001  0.0411439 -0.178674 0.00054121  0.041183 -0.185858 0.000511765  0.0481608 -0.179307 0.000610828  0.0411797 -0.185773 0.000721514  0.0483081 -0.193605 0.000764728  0.0411789 -0.192995 0.000674844  0.0483129 -0.200874 0.000712335  0.041182 -0.193072 0.000479341  0.0411448 -0.200345 0.000451624  0.0483067 -0.193682 0.000540912  0.0411415 -0.20027 0.000630558  0.0482876 -0.208159 0.000665367  0.0410681 -0.20757 0.000587404  0.0482137 -0.215499 0.000618696  0.0410721 -0.207637 0.000423253  0.040966 -0.21498 0.000397503  0.0482862 -0.208225 0.000475824  0.0409634 -0.214915 0.000547588  0.0481143 -0.222848 0.00057447  0.0408244 -0.22228 0.000508726  0.0479727 -0.230241 0.000530064  0.0408278 -0.222337 0.000369668  0.0406618 -0.229735 0.000346184  0.0481143 -0.222905 0.000416517  0.0406566 -0.229679 0.000469565  0.0478067 -0.237639 0.000489712  0.0404601 -0.23709 0.000434995  0.0476048 -0.245073 0.00045222  0.0404632 -0.237138 0.000323296  0.040242 -0.244577 0.000301182  0.0478067 -0.237687 0.000359535  0.0402379 -0.244529 0.000401258  0.0473804 -0.252503 0.000416279  0.0399895 -0.251974 0.000369787  0.047121 -0.259965 0.000381172  0.0399928 -0.252016 0.000279546  0.0397239 -0.259482 0.000260055  0.0473795 -0.252545 0.000311732  0.0397198 -0.259441 0.000340939  0.0468476 -0.267419 0.000351071  0.0394258 -0.26691 0.00031203  0.0465393 -0.274899 0.000318766  0.0394297 -0.266943 0.000241518  0.0391173 -0.274426 0.000224829  0.0468469 -0.267455 0.00026834  0.0391128 -0.27439 0.000286341  0.0462203 -0.282366 0.000292003  0.0387807 -0.281871 0.000261664  0.0458746 -0.28985 0.000267029  0.038784 -0.2819 0.000207663  0.0384352 -0.28939 0.000193596  0.046221 -0.282395 0.00023067  0.0384316 -0.289361 0.000239193  0.0455194 -0.297323 0.000243366  0.0380671 -0.296843 0.000217736  0.0451388 -0.304806 0.000220656  0.0380704 -0.296866 0.000179052  0.0376918 -0.304355 0.000167549  0.0455198 -0.297346 0.000197291  0.0376887 -0.30433 0.000199914  0.0447521 -0.312275 0.000202954  0.0372972 -0.311808 0.000183225  0.0443459 -0.31975 0.000185728  0.0373011 -0.311828 0.000156522  0.0369003 -0.319306 0.000147045  0.0447521 -0.312296 0.000170588  0.0368967 -0.319286 0.000167787  0.0439339 -0.327209 0.000170588  0.0364842 -0.326754 0.000154555  0.0435073 -0.334673 0.000156462  0.03649 -0.32677 0.000137746  0.0360701 -0.334236 0.000130713  0.0439365 -0.327226 0.000149965  0.0360658 -0.334218 0.000142217  0.043081 -0.342117 0.000145197  0.0356407 -0.34167 0.000132501  0.042644 -0.349564 0.000136316  0.0356445 -0.341683 0.000122368  0.0352147 -0.349132 0.000118971  0.0430849 -0.342133 0.000132859  0.0352101 -0.349117 0.000124991  0.0422077 -0.356996 0.00012809  0.0347762 -0.356552 0.000115931  0.0417638 -0.364428 0.000121176  0.0347805 -0.356564 0.000113189  0.0343442 -0.363998 0.000108659  0.042212 -0.357011 0.000122726  0.0343397 -0.363983 0.000109375  0.0413272 -0.37185 0.000113785  0.0339007 -0.371406 0.000102639  0.040884 -0.379273 0.000106156  0.0339072 -0.371418 0.000103235  0.0334678 -0.378841 9.88245e-05  0.041332 -0.371865 0.00011313  0.033463 -0.378825 9.69172e-05  -0.000543073 -0.00148464 -0.000249147  -0.000638481 -0.00219742 -0.000281692  -0.00189891 -0.003461 -0.000414312  -0.000685886 -0.00221889 -4.54783e-05  -0.00273595 -0.00485837 -2.67029e-05  -0.00238477 -0.00406551 -5.23329e-05  0 0 0  -0.0023664 -0.0040158 -0.000318289  0 0 0  0 0 0  -0.000537604 -0.00145981 -1.90735e-05  0 0 0  -0.00461685 -0.00641276 -0.000581503  -0.00272647 -0.00484598 -0.000496209  -0.00362508 -0.00520673 -0.000566185  -0.00478762 -0.00652103 -0.000665069  -0.00542341 -0.00702799 -0.000686884  -0.00480406 -0.00655249 -3.61204e-05  -0.00689523 -0.00840059 -4.69089e-05  -0.00663576 -0.00790293 -6.39558e-05  -0.00657959 -0.00781444 -0.000742733  -0.00364804 -0.00523149 -3.23057e-05  -0.00881623 -0.00973982 -0.000923872  -0.00686878 -0.00834259 -0.000797093  -0.00732604 -0.00904811 -0.000761628  -0.00900942 -0.0101885 -0.000877678  -0.00914556 -0.0111886 -0.000814557  -0.00902167 -0.0102544 -3.5584e-05  -0.0111192 -0.0123479 -5.13792e-05  -0.0110744 -0.0114766 -5.41806e-05  -0.0110375 -0.0113879 -0.00099647  -0.00733626 -0.00909722 -3.29614e-05  -0.0133749 -0.0135015 -0.00108117  -0.0111035 -0.0122793 -0.000941515  -0.0109695 -0.0136235 -0.000832975  -0.013206 -0.0146044 -0.000961542  -0.0127285 -0.0162694 -0.000839829  -0.0132099 -0.0146774 -3.78489e-05  -0.0152519 -0.0172599 -4.78029e-05  -0.0156971 -0.0157828 -4.91738e-05  -0.0156821 -0.0157009 -0.00109637  -0.0109755 -0.013686 -3.62992e-05  -0.0179891 -0.0182469 -0.001113  -0.0152451 -0.0171875 -0.000973582  -0.0144578 -0.0191886 -0.000828922  -0.0172545 -0.0200372 -0.000961006  -0.0161361 -0.0223432 -0.000810802  -0.0172549 -0.0201095 -3.75509e-05  -0.019201 -0.0232005 -4.10676e-05  -0.0202458 -0.0210891 -4.56572e-05  -0.0202422 -0.0210114 -0.00109679  -0.0144626 -0.0192549 -3.50475e-05  -0.0224445 -0.0240468 -0.00107515  -0.0191965 -0.0231294 -0.000942051  -0.0177707 -0.0257468 -0.000786304  -0.021093 -0.0264815 -0.000915229  -0.019359 -0.0293793 -0.00075686  -0.0210946 -0.0265517 -3.42131e-05  -0.0229303 -0.0301244 -3.39746e-05  -0.024584 -0.0274067 -3.96967e-05  -0.0245847 -0.0273351 -0.00104558  -0.017776 -0.0258131 -3.06368e-05  -0.0266579 -0.0308497 -0.0010078  -0.0229246 -0.030056 -0.000882983  -0.0209004 -0.0332427 -0.000727952  -0.0247073 -0.0338756 -0.000850081  -0.0223995 -0.0373184 -0.000696063  -0.0247106 -0.0339413 -3.00407e-05  -0.0264359 -0.0379619 -2.7895e-05  -0.0286692 -0.0346825 -3.52263e-05  -0.0286699 -0.0346149 -0.000973046  -0.0209077 -0.0333061 -2.52724e-05  -0.0306123 -0.0385802 -0.000929117  -0.0264286 -0.0378974 -0.000813305  -0.0238541 -0.0416089 -0.000666857  -0.0281026 -0.0421482 -0.000780225  -0.0252686 -0.0460943 -0.000634789  -0.0281084 -0.04221 -2.56896e-05  -0.0297292 -0.0466438 -2.38419e-05  -0.0324985 -0.0428453 -2.98619e-05  -0.0324973 -0.0427822 -0.000893593  -0.0238627 -0.0416693 -2.03848e-05  -0.0343158 -0.0471642 -0.000850141  -0.0297198 -0.0465836 -0.000744045  -0.026642 -0.0507792 -0.000607133  -0.031293 -0.0512304 -0.000712097  -0.0279781 -0.0556418 -0.000576198  -0.0312995 -0.0512871 -2.13385e-05  -0.0328233 -0.0561029 -2.03848e-05  -0.0360845 -0.0518252 -2.74181e-05  -0.0360819 -0.0517662 -0.000816643  -0.0266515 -0.0508357 -1.65701e-05  -0.0377853 -0.0565321 -0.000774324  -0.0328143 -0.0560465 -0.000677347  -0.0292771 -0.0606879 -0.00055021  -0.0342938 -0.0610562 -0.000647008  -0.0305407 -0.0658958 -0.000522017  -0.034301 -0.0611099 -1.85966e-05  -0.0357351 -0.0662731 -1.72853e-05  -0.0394442 -0.0615546 -2.44975e-05  -0.0394408 -0.0614991 -0.000742376  -0.0292864 -0.0607407 -1.32322e-05  -0.0410391 -0.0666168 -0.000704527  -0.035725 -0.0662205 -0.000614047  -0.0317694 -0.071272 -0.000497639  -0.0371187 -0.0715622 -0.000586212  -0.0329664 -0.0767964 -0.000471652  -0.0371259 -0.0716116 -1.61529e-05  -0.0384758 -0.0770937 -1.46031e-05  -0.0425943 -0.0719698 -2.23517e-05  -0.0425897 -0.0719178 -0.000674605  -0.0317788 -0.0713206 -1.0848e-05  -0.0440893 -0.0773554 -0.000638008  -0.0384663 -0.0770446 -0.000555694  -0.0341291 -0.0824725 -0.000447929  -0.0397793 -0.0826885 -0.000529349  -0.0352634 -0.0882831 -0.000424147  -0.0397861 -0.0827334 -1.39475e-05  -0.0410577 -0.0885046 -1.31726e-05  -0.045548 -0.0830093 -1.9908e-05  -0.0455434 -0.0829615 -0.000610232  -0.0341387 -0.0825179 -8.70228e-06  -0.04695 -0.0886905 -0.000576079  -0.0410491 -0.0884592 -0.000501156  -0.0363661 -0.094231 -0.000402212  -0.0422858 -0.094377 -0.000476658  -0.0374404 -0.100299 -0.000379801  -0.042292 -0.094419 -1.28746e-05  -0.0434897 -0.10045 -1.14441e-05  -0.0483183 -0.0946159 -1.85966e-05  -0.0483133 -0.0945712 -0.000548422  -0.0363743 -0.0942731 -6.67572e-06  -0.0496312 -0.100564 -0.000518203  -0.0434813 -0.100408 -0.000450194  -0.0384855 -0.106493 -0.000359476  -0.0446461 -0.106572 -0.000426769  -0.0395036 -0.112792 -0.000338554  -0.0446526 -0.106611 -1.11461e-05  -0.0457799 -0.112876 -1.04308e-05  -0.0509133 -0.106734 -1.74642e-05  -0.0509099 -0.106693 -0.000493884  -0.0384933 -0.106531 -5.30481e-06  -0.0521443 -0.112921 -0.00046432  -0.0457718 -0.112836 -0.000402808  -0.0404928 -0.119204 -0.000320017  -0.046868 -0.119221 -0.000380456  -0.0414567 -0.12571 -0.000299931  -0.0468743 -0.119256 -9.35793e-06  -0.0479349 -0.125729 -9.77516e-06  -0.0533445 -0.119311 -1.66893e-05  -0.0533401 -0.119273 -0.000440836  -0.0405008 -0.119239 -4.23193e-06  -0.0544957 -0.125712 -0.000413299  -0.0479271 -0.125694 -0.00035727  -0.0423932 -0.132314 -0.000282168  -0.0489579 -0.132273 -0.00033766  -0.0433064 -0.139002 -0.000264108  -0.0489649 -0.132306 -8.16584e-06  -0.0499628 -0.138963 -8.9407e-06  -0.055618 -0.132296 -1.50204e-05  -0.0556153 -0.132262 -0.000391304  -0.0424001 -0.132347 -2.5034e-06  -0.0566959 -0.138888 -0.000366628  -0.0499556 -0.13893 -0.00031656  -0.0441926 -0.145776 -0.000247598  -0.050925 -0.145682 -0.00029701  -0.0450563 -0.152624 -0.000231206  -0.0509293 -0.145711 -7.7486e-06  -0.051867 -0.152531 -7.27177e-06  -0.0577445 -0.145643 -1.41859e-05  -0.0577426 -0.145612 -0.000345767  -0.0441988 -0.145806 -1.07288e-06  -0.0587504 -0.152402 -0.000320733  -0.051861 -0.152501 -0.000276923  -0.0458937 -0.159547 -0.000215292  -0.0527709 -0.159401 -0.000259221  -0.0467112 -0.166532 -0.00019902  -0.0527756 -0.159429 -6.61612e-06  -0.0536568 -0.166388 -5.84126e-06  -0.0597298 -0.159307 -1.38283e-05  -0.0597255 -0.159277 -0.00030309  -0.0459003 -0.159574 5.96046e-08  -0.0606675 -0.166209 -0.000280261  -0.0536492 -0.166361 -0.000240684  -0.0475047 -0.173581 -0.000184715  -0.0545042 -0.17339 -0.000224113  -0.0482767 -0.180683 -0.000171483  -0.0545092 -0.173415 -6.07967e-06  -0.0553343 -0.180495 -5.84126e-06  -0.0615799 -0.173243 -1.2219e-05  -0.0615761 -0.173215 -0.000262618  -0.0475101 -0.173606 2.98023e-07  -0.062454 -0.18027 -0.000242651  -0.0553288 -0.18047 -0.000206411  -0.0490265 -0.187839 -0.000157058  -0.0561309 -0.187608 -0.000192106  -0.0497541 -0.195041 -0.000143707  -0.0561361 -0.18763 -5.30481e-06  -0.0569105 -0.19481 -5.06639e-06  -0.0633035 -0.187412 -1.26958e-05  -0.0633018 -0.187388 -0.000225484  -0.0490298 -0.187863 1.01328e-06  -0.0641191 -0.194546 -0.000205755  -0.0569031 -0.194788 -0.000176907  -0.0504632 -0.202285 -0.000131607  -0.0576565 -0.202017 -0.000162482  -0.0511525 -0.209567 -0.000119507  -0.0576587 -0.202038 -4.70877e-06  -0.0583844 -0.2093 -5.24521e-06  -0.0649097 -0.201777 -1.19805e-05  -0.0649083 -0.201756 -0.000191748  -0.0504665 -0.202306 1.72853e-06  -0.0656681 -0.209 -0.000175059  -0.0583797 -0.209279 -0.000147462  -0.0518212 -0.216884 -0.000108659  -0.0590849 -0.216583 -0.000135064  -0.0524728 -0.22423 -9.73344e-05  -0.0590885 -0.216601 -5.66244e-06  -0.0597684 -0.223931 -4.52995e-06  -0.0664058 -0.216305 -1.32322e-05  -0.0664039 -0.216286 -0.000161052  -0.0518253 -0.216903 2.14577e-06  -0.0671113 -0.223598 -0.000145435  -0.0597646 -0.223913 -0.00012362  -0.0531058 -0.231605 -8.76188e-05  -0.0604272 -0.231274 -0.000111639  -0.0537221 -0.239001 -7.80225e-05  -0.0604293 -0.231292 -4.58956e-06  -0.061069 -0.238675 -4.35114e-06  -0.0677977 -0.230963 -1.19805e-05  -0.067796 -0.230945 -0.00013411  -0.0531085 -0.231623 1.72853e-06  -0.0684557 -0.238311 -0.000119448  -0.061065 -0.238655 -9.95994e-05  -0.0543215 -0.246418 -6.94394e-05  -0.0616846 -0.246063 -8.88705e-05  -0.0549064 -0.25385 -5.94258e-05  -0.0616884 -0.246078 -3.27826e-06  -0.0622892 -0.253499 -4.52995e-06  -0.0690932 -0.245721 -1.15037e-05  -0.0690925 -0.245705 -0.000107586  -0.0543251 -0.246434 2.32458e-06  -0.0697086 -0.253113 -9.61423e-05  -0.0622854 -0.253483 -7.92146e-05  -0.0554748 -0.261297 -5.14388e-05  -0.0628712 -0.26092 -7.09295e-05  -0.0560305 -0.268755 -4.44651e-05  -0.0628736 -0.260934 -3.93391e-06  -0.0634389 -0.268381 -4.23193e-06  -0.0703042 -0.260555 -1.17421e-05  -0.0703027 -0.260539 -8.62479e-05  -0.0554783 -0.261311 2.98023e-06  -0.0708792 -0.267975 -7.59959e-05  -0.0634365 -0.268366 -6.10352e-05  -0.056571 -0.276219 -3.76105e-05  -0.0639875 -0.275824 -5.26905e-05  -0.0570991 -0.28369 -3.19481e-05  -0.0639904 -0.275837 -3.51667e-06  -0.0645247 -0.283299 -3.8743e-06  -0.0714369 -0.275437 -1.27554e-05  -0.0714355 -0.275422 -6.81281e-05  -0.0565736 -0.276232 2.98023e-06  -0.0719771 -0.282877 -5.87702e-05  -0.0645223 -0.283286 -4.66108e-05  -0.0576148 -0.291163 -2.65241e-05  -0.0650449 -0.290753 -3.99947e-05  -0.0581214 -0.298638 -2.13981e-05  -0.065047 -0.290765 -4.64916e-06  -0.0655549 -0.298234 -3.8147e-06  -0.0725005 -0.290348 -1.32322e-05  -0.0725005 -0.290335 -5.1856e-05  -0.0576177 -0.291176 2.44379e-06  -0.0730097 -0.297795 -4.24385e-05  -0.0655518 -0.298219 -3.27229e-05  -0.0586154 -0.30611 -1.61529e-05  -0.0660498 -0.305689 -2.84314e-05  -0.0591028 -0.313583 -1.13249e-05  -0.066051 -0.305699 -3.03984e-06  -0.0665381 -0.313168 -4.64916e-06  -0.0735071 -0.305272 -1.31726e-05  -0.073504 -0.305259 -3.88026e-05  -0.0586181 -0.306122 2.5034e-06  -0.0739903 -0.312721 -3.21865e-05  -0.066535 -0.313155 -2.37823e-05  -0.0595791 -0.321048 -9.71556e-06  -0.0670125 -0.320617 -2.05636e-05  -0.0600488 -0.328509 -6.02007e-06  -0.0670152 -0.320629 -4.82798e-06  -0.067482 -0.328088 -4.82798e-06  -0.0744624 -0.320191 -1.22786e-05  -0.0744617 -0.320179 -2.97427e-05  -0.0595803 -0.321059 2.74181e-06  -0.074929 -0.327634 -2.49147e-05  -0.0674803 -0.328075 -1.68085e-05  -0.0605109 -0.335962 -4.11272e-06  -0.0679421 -0.335527 -1.508e-05  -0.0609696 -0.343409 -1.43051e-06  -0.0679448 -0.335536 -5.126e-06  -0.0683987 -0.342983 -4.52995e-06  -0.0753837 -0.335093 -1.31726e-05  -0.0753806 -0.335083 -2.2471e-05  -0.0605147 -0.335973 2.08616e-06  -0.0758345 -0.342527 -1.92523e-05  -0.0683959 -0.34297 -1.12057e-05  -0.0614226 -0.350845 6.55651e-07  -0.0688467 -0.350408 -8.76188e-06  -0.061872 -0.358275 2.6226e-06  -0.0688488 -0.350417 -5.36442e-06  -0.0692949 -0.357849 -4.82798e-06  -0.0762789 -0.349972 -1.27554e-05  -0.0762784 -0.34996 -1.78814e-05  -0.0614233 -0.350856 2.92063e-06  -0.0767214 -0.357393 -1.48416e-05  -0.0692933 -0.357837 -6.67572e-06  -0.0623181 -0.365696 5.54323e-06  -0.0697389 -0.36526 -5.1856e-06  -0.0627644 -0.373114 7.39098e-06  -0.0697403 -0.36527 -4.94719e-06  -0.0701845 -0.372692 -3.75509e-06  -0.0771656 -0.364828 -1.42455e-05  -0.0771618 -0.364818 -1.37091e-05  -0.06232 -0.365708 2.6226e-06  -0.0776055 -0.372241 -1.12057e-05  -0.0701821 -0.37268 -2.98023e-06  -0.00030886 -0.000640675 -0.000162959  -0.00035369 -0.00099279 -0.000203729  -0.00102521 -0.00173925 -0.000271022  -0.000359409 -0.000987008 -2.34842e-05  -0.00128387 -0.00243688 -2.8193e-05  0 0 0  0 0 0  -0.000313193 -0.000636876 -1.508e-05  0 0 0  -0.0012312 -0.00239778 -0.000333071  -0.00195986 -0.00329159 -0.000386953  -0.00262639 -0.0041212 -0.000474691  -0.0031046 -0.00518766 -0.000462413  -0.00265387 -0.00414124 -1.99676e-05  -0.0041675 -0.00605299 -3.29018e-05  -0.00196241 -0.0033192 -1.63913e-05  -0.00413305 -0.00600892 -0.000574231  -0.00433373 -0.0072425 -0.000512362  -0.00568792 -0.00803797 -0.000633061  -0.00558487 -0.00956285 -0.000551164  -0.00570351 -0.00808318 -2.3067e-05  -0.00728229 -0.0103662 -3.73721e-05  -0.00433409 -0.0072885 -2.21133e-05  -0.00726631 -0.0103085 -0.000681877  -0.00683486 -0.012105 -0.000561059  -0.00879517 -0.0127821 -0.000693619  -0.00805014 -0.0148786 -0.000565052  -0.00880075 -0.0128424 -2.81334e-05  -0.010312 -0.0155745 -3.45111e-05  -0.0068343 -0.0121612 -2.52128e-05  -0.0103041 -0.0155105 -0.000700951  -0.00924093 -0.0179065 -0.000555575  -0.0117656 -0.0184776 -0.000690818  -0.0103926 -0.0211576 -0.000541151  -0.0117683 -0.0185424 -2.71797e-05  -0.0131956 -0.021753 -2.77758e-05  -0.00924331 -0.0179673 -2.27094e-05  -0.0131897 -0.0216881 -0.00067544  -0.0115173 -0.0246569 -0.000524759  -0.0145744 -0.0251398 -0.000654817  -0.0126091 -0.0283735 -0.000503123  -0.014578 -0.0252044 -2.33054e-05  -0.0159247 -0.0288813 -2.12789e-05  -0.0115229 -0.0247184 -1.8537e-05  -0.0159179 -0.0288173 -0.000629306  -0.0136747 -0.0323201 -0.000483274  -0.0172269 -0.0327252 -0.000605404  -0.0147145 -0.0364737 -0.000459731  -0.0172331 -0.0327871 -1.88947e-05  -0.0185062 -0.0369032 -1.57952e-05  -0.013683 -0.0323799 -1.34706e-05  -0.0184972 -0.0368417 -0.000578284  -0.0157298 -0.0408383 -0.000439167  -0.0197367 -0.0411732 -0.00055337  -0.0167241 -0.0453982 -0.000417113  -0.0197452 -0.0412323 -1.49012e-05  -0.0209511 -0.0457556 -1.17421e-05  -0.0157397 -0.0408963 -9.29832e-06  -0.0209405 -0.0456974 -0.000526369  -0.0176953 -0.0501516 -0.000398278  -0.0221177 -0.0504199 -0.000503004  -0.0186484 -0.0550849 -0.000376582  -0.022127 -0.050475 -1.09673e-05  -0.0232714 -0.0553746 -8.28505e-06  -0.0177058 -0.0502065 -5.54323e-06  -0.0232614 -0.0553196 -0.000477314  -0.0195812 -0.0601963 -0.00035876  -0.0243801 -0.0604014 -0.000455141  -0.0204964 -0.0654722 -0.000338912  -0.0243896 -0.0604526 -7.51019e-06  -0.0254794 -0.0656962 -4.88758e-06  -0.0195912 -0.0602473 -1.84774e-06  -0.0254689 -0.0656448 -0.000430405  -0.0213925 -0.0709102 -0.000322342  -0.0265346 -0.0710553 -0.000410259  -0.0222733 -0.0764998 -0.000303745  -0.0265448 -0.0711035 -5.30481e-06  -0.0275828 -0.0766606 -3.63588e-06  -0.0214025 -0.0709589 5.96046e-07  -0.0275731 -0.0766124 -0.000388801  -0.0231361 -0.0822346 -0.000288188  -0.0285901 -0.082322 -0.000368834  -0.0239853 -0.0881072 -0.000272214  -0.0285988 -0.082366 -3.03984e-06  -0.0295897 -0.0882083 -1.37091e-06  -0.0231459 -0.0822798 2.98023e-06  -0.0295799 -0.088163 -0.000348628  -0.0248171 -0.0941109 -0.000257254  -0.03055 -0.0941426 -0.000330508  -0.0256349 -0.100239 -0.000241995  -0.0305591 -0.0941834 -9.53674e-07  -0.0315056 -0.100283 -5.96046e-08  -0.024826 -0.094153 4.70877e-06  -0.0314959 -0.100241 -0.000311852  -0.0264362 -0.106484 -0.000228047  -0.0324219 -0.106464 -0.000294745  -0.0272248 -0.11284 -0.000213444  -0.0324304 -0.106501 1.01328e-06  -0.0333335 -0.11283 1.37091e-06  -0.0264442 -0.106522 6.31809e-06  -0.033325 -0.112792 -0.000276506  -0.0279976 -0.119301 -0.000200868  -0.0342096 -0.119231 -0.000261545  -0.0287585 -0.125858 -0.00018692  -0.0342166 -0.119265 2.08616e-06  -0.035079 -0.125798 2.5034e-06  -0.0280062 -0.119335 7.98702e-06  -0.0350713 -0.125763 -0.00024426  -0.0295039 -0.132509 -0.00017488  -0.0359148 -0.132393 -0.000229597  -0.0302364 -0.139245 -0.000161886  -0.0359222 -0.132425 3.63588e-06  -0.0367442 -0.139138 4.52995e-06  -0.029511 -0.132541 9.71556e-06  -0.0367365 -0.139106 -0.000213802  -0.0309541 -0.146063 -0.000150681  -0.0375421 -0.145903 -0.000200212  -0.0316603 -0.152955 -0.000140071  -0.0375488 -0.145932 4.88758e-06  -0.0383334 -0.152804 5.1856e-06  -0.0309608 -0.146093 1.07288e-05  -0.0383263 -0.152775 -0.000186741  -0.0323517 -0.159917 -0.000129044  -0.0390944 -0.159718 -0.000172436  -0.0330317 -0.166943 -0.000118673  -0.0391006 -0.159745 6.19888e-06  -0.0398488 -0.166752 5.66244e-06  -0.0323577 -0.159944 1.2517e-05  -0.0398414 -0.166723 -0.000159144  -0.0336986 -0.174027 -0.000109494  -0.0405738 -0.173793 -0.000148237  -0.0343537 -0.181167 -9.78708e-05  -0.0405798 -0.173817 6.67572e-06  -0.0412929 -0.180939 7.15256e-06  -0.0337038 -0.174053 1.26958e-05  -0.0412869 -0.180915 -0.000136197  -0.0349936 -0.188356 -8.89301e-05  -0.0419848 -0.188088 -0.00012368  -0.0356247 -0.195589 -8.1718e-05  -0.04199 -0.18811 7.98702e-06  -0.04267 -0.19533 8.82149e-06  -0.0349994 -0.188379 1.40071e-05  -0.0426645 -0.195307 -0.000113666  -0.0362418 -0.202865 -7.29561e-05  -0.0433292 -0.202568 -0.000103235  -0.0368488 -0.210177 -6.44326e-05  -0.0433352 -0.202588 7.39098e-06  -0.0439827 -0.209886 8.76188e-06  -0.0362468 -0.202885 1.41859e-05  -0.043977 -0.209864 -9.20296e-05  -0.0374439 -0.21752 -5.68032e-05  -0.0446115 -0.217197 -8.40425e-05  -0.0380282 -0.224893 -4.94719e-05  -0.0446162 -0.217215 8.40425e-06  -0.0452335 -0.224576 9.05991e-06  -0.0374477 -0.217538 1.58548e-05  -0.0452299 -0.224557 -7.37906e-05  -0.0386007 -0.23229 -4.24385e-05  -0.045835 -0.231943 -6.56843e-05  -0.0391645 -0.239709 -3.61204e-05  -0.0458384 -0.231959 9.95398e-06  -0.0464284 -0.239369 9.89437e-06  -0.0386038 -0.232306 1.61529e-05  -0.0464251 -0.239351 -5.74589e-05  -0.0397146 -0.247145 -2.91467e-05  -0.0470014 -0.24678 -4.99487e-05  -0.0402575 -0.254598 -2.30074e-05  -0.0470047 -0.246793 9.59635e-06  -0.0475686 -0.254238 1.01924e-05  -0.0397189 -0.24716 1.66297e-05  -0.0475647 -0.254221 -4.20809e-05  -0.0407901 -0.26206 -1.90139e-05  -0.0481179 -0.261677 -3.6478e-05  -0.0413144 -0.269534 -1.34706e-05  -0.0481212 -0.261691 9.47714e-06  -0.048661 -0.269158 9.83477e-06  -0.0407913 -0.262074 1.69277e-05  -0.0486579 -0.269143 -3.01003e-05  -0.0418277 -0.277013 -8.82149e-06  -0.0491874 -0.276616 -2.48551e-05  -0.042335 -0.284496 -4.64916e-06  -0.0491903 -0.276629 9.59635e-06  -0.0497091 -0.284107 1.07884e-05  -0.0418305 -0.277026 1.69277e-05  -0.0497055 -0.284093 -1.77622e-05  -0.0428338 -0.291981 -8.34465e-07  -0.0502145 -0.291572 -1.49608e-05  -0.0433254 -0.299468 2.08616e-06  -0.0502172 -0.291584 1.00732e-05  -0.0507157 -0.299067 1.04308e-05  -0.0428352 -0.291994 1.77026e-05  -0.0507131 -0.299053 -1.0252e-05  -0.0438094 -0.306949 5.66244e-06  -0.0512054 -0.306532 -5.60284e-06  -0.0442884 -0.314429 8.10623e-06  -0.0512078 -0.306543 9.89437e-06  -0.0516889 -0.31402 1.03712e-05  -0.0438116 -0.306961 1.66297e-05  -0.0516868 -0.314006 -3.69549e-06  -0.0447588 -0.321903 1.01328e-05  -0.0521626 -0.321476 -2.38419e-07  -0.0452268 -0.329368 1.19805e-05  -0.0521643 -0.321486 9.23872e-06  -0.0526333 -0.328952 1.06692e-05  -0.0447619 -0.321912 1.7345e-05  -0.0526314 -0.32894 1.72853e-06  -0.0456872 -0.336826 1.53184e-05  -0.0530937 -0.336396 5.48363e-06  -0.0461442 -0.344276 1.5378e-05  -0.0530968 -0.336405 1.00732e-05  -0.0535541 -0.343856 1.04904e-05  -0.0456884 -0.336837 1.81198e-05  -0.0535529 -0.343844 6.79493e-06  -0.0465949 -0.351715 1.70469e-05  -0.0540051 -0.351282 8.58307e-06  -0.0470457 -0.359147 1.91927e-05  -0.0540068 -0.351293 1.09076e-05  -0.0544569 -0.358725 1.0252e-05  -0.0465975 -0.351727 1.74046e-05  -0.0544553 -0.358713 9.35793e-06  -0.0474927 -0.366566 1.97887e-05  -0.0549023 -0.366132 1.15633e-05  -0.0479391 -0.373976 2.19345e-05  -0.0549033 -0.366142 1.09673e-05  -0.0553505 -0.37356 1.20401e-05  -0.0474944 -0.366576 1.80006e-05  -0.0553479 -0.373545 1.3411e-05  -0.000140972 -0.000246406 -8.14199e-05  -0.000187542 -0.000405461 -0.00012213  -0.000460245 -0.00102341 -0.000133455  -0.000192318 -0.0004085 -1.13845e-05  -0.000657782 -0.00130111 -1.54376e-05  0 0 0  0 0 0  -0.000144597 -0.000250071 -6.4373e-06  0 0 0  -0.00061781 -0.00127798 -0.00020045  -0.000867203 -0.00239706 -0.000197411  -0.00133197 -0.00277534 -0.000291049  -0.00140437 -0.00415465 -0.000234246  -0.00134091 -0.0027937 -3.69549e-06  -0.00216681 -0.00459802 -2.19941e-05  -0.000872985 -0.00242364 -7.92742e-06  -0.00212942 -0.00455749 -0.000346422  -0.00198469 -0.00623065 -0.000261307  -0.00307 -0.00664958 -0.000384748  -0.00260052 -0.00860009 -0.000280023  -0.00307959 -0.00668532 -7.62939e-06  -0.00402427 -0.00904173 -2.21133e-05  -0.0019896 -0.00627175 -1.13845e-05  -0.00400785 -0.00899205 -0.00041461  -0.00322568 -0.0112181 -0.000283301  -0.00495917 -0.0115795 -0.000420272  -0.00384721 -0.01408 -0.000284135  -0.00496534 -0.011629 -1.41859e-05  -0.005898 -0.0144623 -1.8239e-05  -0.00323024 -0.0112686 -1.31726e-05  -0.00588897 -0.0144052 -0.000423908  -0.00446266 -0.0171826 -0.000278115  -0.00679666 -0.0174716 -0.00041604  -0.0050658 -0.0205121 -0.000268757  -0.00680143 -0.0175281 -1.35303e-05  -0.00768924 -0.0208299 -1.22786e-05  -0.0044679 -0.0172389 -1.0252e-05  -0.0076822 -0.0207695 -0.000404775  -0.00566089 -0.0240758 -0.000259757  -0.00854391 -0.0243011 -0.00039196  -0.00624627 -0.0278568 -0.000246763  -0.00855023 -0.0243602 -1.0848e-05  -0.00939453 -0.0281164 -7.33137e-06  -0.00566739 -0.0241345 -5.42402e-06  -0.00938696 -0.0280551 -0.000374734  -0.00682515 -0.0318599 -0.000236154  -0.0102111 -0.0320313 -0.000359833  -0.00739861 -0.0360706 -0.000222743  -0.0102185 -0.03209 -6.73532e-06  -0.0110277 -0.0362772 -3.27826e-06  -0.00683266 -0.0319185 -7.7486e-07  -0.0110192 -0.0362172 -0.000341177  -0.0079664 -0.0404875 -0.000211716  -0.0118135 -0.0406102 -0.000326633  -0.00853264 -0.0451004 -0.00019908  -0.011822 -0.040667 -3.09944e-06  -0.0126026 -0.0452566 2.98023e-07  -0.00797522 -0.0405444 2.5034e-06  -0.0125937 -0.0451984 -0.000308454  -0.0090946 -0.0499026 -0.000189126  -0.0133625 -0.0499792 -0.000294209  -0.00965679 -0.0548876 -0.000177503  -0.0133716 -0.0500339 8.34465e-07  -0.0141286 -0.054995 3.57628e-06  -0.00910318 -0.0499572 5.90086e-06  -0.0141196 -0.0549408 -0.000277877  -0.0102154 -0.0600457 -0.000167072  -0.0148669 -0.0600774 -0.000263274  -0.0107744 -0.0653719 -0.00015676  -0.0148761 -0.0601288 3.51667e-06  -0.0156128 -0.0654319 6.13928e-06  -0.0102241 -0.0600972 9.17912e-06  -0.0156039 -0.0653805 -0.00024879  -0.0113312 -0.0708556 -0.000147343  -0.0163331 -0.0708445 -0.000235975  -0.0118887 -0.0764925 -0.000137448  -0.0163419 -0.0708921 7.15256e-06  -0.0170596 -0.0765063 8.22544e-06  -0.0113391 -0.0709036 1.19209e-05  -0.0170516 -0.0764585 -0.000221848  -0.0124427 -0.0822718 -0.000128686  -0.0177627 -0.0822187 -0.000209987  -0.0129986 -0.0881908 -0.000120103  -0.017771 -0.0822624 9.0003e-06  -0.0184718 -0.0881598 9.59635e-06  -0.0124509 -0.0823171 1.40071e-05  -0.0184637 -0.088115 -0.000196278  -0.0135523 -0.0942371 -0.000111818  -0.019158 -0.0941432 -0.000185192  -0.0141051 -0.100408 -0.000103235  -0.0191667 -0.0941831 1.07884e-05  -0.019851 -0.100334 1.18613e-05  -0.0135591 -0.0942784 1.62721e-05  -0.0198436 -0.100293 -0.00017345  -0.0146565 -0.106693 -9.59039e-05  -0.0205215 -0.106561 -0.000162303  -0.015208 -0.11309 -8.88705e-05  -0.0205295 -0.106599 1.29342e-05  -0.0211986 -0.112976 1.37091e-05  -0.0146633 -0.106732 1.77622e-05  -0.0211905 -0.112938 -0.000151217  -0.0157564 -0.119589 -8.09431e-05  -0.0218543 -0.119421 -0.000141382  -0.0163053 -0.126186 -7.39098e-05  -0.0218606 -0.119455 1.41859e-05  -0.0225149 -0.126034 1.508e-05  -0.0157629 -0.119624 2.01464e-05  -0.0225073 -0.125999 -0.00013113  -0.0168507 -0.132872 -6.73532e-05  -0.0231553 -0.132669 -0.00012207  -0.0173959 -0.139644 -6.09159e-05  -0.0231618 -0.132701 1.5378e-05  -0.0237999 -0.139457 1.75834e-05  -0.0168567 -0.132904 2.18153e-05  -0.0237936 -0.139424 -0.000111818  -0.0179372 -0.146495 -5.43594e-05  -0.0244257 -0.146261 -0.000103652  -0.0184784 -0.15342 -4.84586e-05  -0.0244315 -0.146289 1.70469e-05  -0.0250545 -0.153199 1.78218e-05  -0.0179434 -0.146525 2.38419e-05  -0.025048 -0.153169 -9.48906e-05  -0.0190151 -0.160411 -4.29749e-05  -0.0256655 -0.160148 -8.7142e-05  -0.019552 -0.167468 -3.71933e-05  -0.0256705 -0.160173 1.88947e-05  -0.026279 -0.167218 1.90735e-05  -0.0190206 -0.160439 2.49743e-05  -0.0262737 -0.16719 -7.80225e-05  -0.0200832 -0.174581 -3.20673e-05  -0.0268738 -0.174291 -7.15256e-05  -0.0206127 -0.181747 -2.70605e-05  -0.0268791 -0.174314 2.01464e-05  -0.0274708 -0.181469 1.94311e-05  -0.0200882 -0.174606 2.54512e-05  -0.0274656 -0.181444 -6.41942e-05  -0.0211394 -0.188961 -2.18749e-05  -0.0280511 -0.188647 -5.6684e-05  -0.0216627 -0.19622 -1.72257e-05  -0.0280561 -0.188668 2.07424e-05  -0.0286331 -0.195917 2.14577e-05  -0.0211427 -0.188983 2.67029e-05  -0.0286288 -0.195893 -5.00679e-05  -0.0221822 -0.203516 -1.26362e-05  -0.0291977 -0.203181 -4.28557e-05  -0.0226991 -0.210851 -8.22544e-06  -0.0292022 -0.203201 2.16365e-05  -0.0297635 -0.210526 2.16961e-05  -0.0221851 -0.203538 2.90871e-05  -0.0297592 -0.210504 -3.70741e-05  -0.0232103 -0.218213 -4.11272e-06  -0.0303142 -0.217859 -3.08156e-05  -0.023721 -0.225606 -1.13249e-06  -0.0303195 -0.217877 2.19345e-05  -0.0308647 -0.225261 2.28286e-05  -0.0232139 -0.218233 2.8789e-05  -0.0308609 -0.22524 -2.55704e-05  -0.0242248 -0.23302 2.20537e-06  -0.0314016 -0.232649 -1.99676e-05  -0.0247259 -0.240456 6.97374e-06  -0.031405 -0.232664 2.39015e-05  -0.0319366 -0.240093 2.37823e-05  -0.0242269 -0.233037 2.83122e-05  -0.0319331 -0.240075 -1.62125e-05  -0.025224 -0.247907 9.53674e-06  -0.0324595 -0.247522 -1.15037e-05  -0.025718 -0.255373 1.23382e-05  -0.0324619 -0.247536 2.39611e-05  -0.0329809 -0.254998 2.44975e-05  -0.0252256 -0.247923 3.06368e-05  -0.0329776 -0.254981 -6.4373e-06  -0.0262063 -0.262848 1.49012e-05  -0.0334909 -0.262451 -2.20537e-06  -0.0266933 -0.270334 1.75238e-05  -0.0334918 -0.262464 2.44975e-05  -0.0339975 -0.269946 2.5034e-05  -0.0262084 -0.262864 3.08752e-05  -0.0339963 -0.269931 8.34465e-07  -0.0271747 -0.277823 1.94311e-05  -0.0344937 -0.277416 4.11272e-06  -0.0276527 -0.285317 2.15769e-05  -0.034497 -0.277429 2.42591e-05  -0.0349896 -0.28492 2.48551e-05  -0.0271769 -0.277837 3.12328e-05  -0.0349865 -0.284905 7.56979e-06  -0.028127 -0.29281 2.43783e-05  -0.0354741 -0.292395 1.14441e-05  -0.028599 -0.300305 2.52128e-05  -0.0354769 -0.292406 2.57492e-05  -0.0359576 -0.299898 2.5034e-05  -0.0281293 -0.292823 3.26037e-05  -0.0359557 -0.299885 1.37091e-05  -0.0290644 -0.307793 2.72393e-05  -0.0364316 -0.30737 1.50204e-05  -0.0295291 -0.315279 2.8193e-05  -0.0364344 -0.307381 2.49743e-05  -0.0369051 -0.314867 2.50936e-05  -0.0290663 -0.307805 3.15309e-05  -0.0369031 -0.314852 1.77026e-05  -0.0299883 -0.322756 2.94447e-05  -0.0373704 -0.322329 2.0206e-05  -0.030447 -0.330229 2.97427e-05  -0.0373704 -0.322338 2.5928e-05  -0.0378344 -0.329811 2.48551e-05  -0.0299892 -0.322768 3.29018e-05  -0.0378327 -0.329798 2.06232e-05  -0.0309005 -0.337691 3.17693e-05  -0.0382905 -0.337258 2.21729e-05  -0.0313528 -0.345144 3.26037e-05  -0.0382931 -0.337268 2.61664e-05  -0.0387473 -0.344723 2.58088e-05  -0.0309024 -0.337701 3.22461e-05  -0.0387454 -0.34471 2.35438e-05  -0.0317993 -0.352586 3.33786e-05  -0.0391958 -0.35215 2.52724e-05  -0.0322473 -0.360016 3.3915e-05  -0.039197 -0.35216 2.56896e-05  -0.0396457 -0.359593 2.60472e-05  -0.0318034 -0.352595 3.17097e-05  -0.0396442 -0.359582 2.563e-05  -0.0326922 -0.367433 3.45707e-05  -0.0400903 -0.367 2.64049e-05  -0.0331349 -0.374838 3.54648e-05  -0.0400918 -0.367009 2.61068e-05  -0.0405378 -0.374421 2.61664e-05  -0.0326936 -0.367443 3.27826e-05  -0.0405369 -0.374407 2.83122e-05  -4.67524e-06 -0.000138789 1.01328e-06  -5.3335e-05 -0.000169069 -3.94583e-05  -9.95398e-06 -0.000851631 6.85453e-06  -5.69746e-05 -0.000176042 7.7486e-07  -0.000190832 -0.000882179 -6.07967e-06  0 0 0  0 0 0  -7.11903e-06 -0.000148386 2.5034e-06  0 0 0  -0.000156164 -0.000865549 -6.13928e-05  2.96235e-05 -0.00218269 -2.08616e-06  -0.000373676 -0.00223491 -9.56059e-05  4.93526e-05 -0.00388154 1.72853e-06  -0.0003815 -0.00225338 5.60284e-06  -0.000627741 -0.00395307 -1.00136e-05  2.13534e-05 -0.00220627 5.96046e-07  -0.000590786 -0.00392029 -0.000112772  8.11815e-05 -0.00598013 -2.20537e-06  -0.000901192 -0.006028 -0.000127435  9.73344e-05 -0.00835392 -1.43051e-06  -0.000910938 -0.00605962 3.27826e-06  -0.00121674 -0.00843319 -7.45058e-06  7.14362e-05 -0.00601524 -5.96046e-08  -0.00119668 -0.00838906 -0.000138283  0.000100374 -0.0110133 -1.19209e-07  -0.00152376 -0.0110345 -0.000139594  9.14931e-05 -0.0139094 1.07288e-06  -0.00153264 -0.0110787 -7.7486e-07  -0.00185639 -0.0139703 -2.44379e-06  9.04202e-05 -0.0110582 8.9407e-07  -0.0018453 -0.0139175 -0.000140071  6.62804e-05 -0.0170521 3.03984e-06  -0.00217146 -0.0170436 -0.000136554  2.8491e-05 -0.0204213 5.36442e-06  -0.00217944 -0.0170958 -1.78814e-07  -0.00250572 -0.0204565 2.80142e-06  5.76973e-05 -0.0171049 4.29153e-06  -0.00249815 -0.0203986 -0.000131011  -2.62856e-05 -0.0240205 6.55651e-06  -0.00282437 -0.0239816 -0.000126362  -9.56655e-05 -0.0278389 1.03712e-05  -0.00283182 -0.0240378 3.03984e-06  -0.00316191 -0.0278461 6.3777e-06  -3.36766e-05 -0.0240769 8.16584e-06  -0.00315458 -0.0277864 -0.000117838  -0.000181496 -0.0318732 1.15633e-05  -0.00348824 -0.031807 -0.000112653  -0.000283062 -0.0361188 1.44243e-05  -0.00349516 -0.031864 5.78165e-06  -0.00383335 -0.0360986 9.41753e-06  -0.000187516 -0.0319313 1.22786e-05  -0.00382584 -0.0360385 -0.000104129  -0.000399828 -0.0405664 1.59144e-05  -0.00416976 -0.0404731 -9.85265e-05  -0.000534654 -0.0452128 1.87755e-05  -0.00417697 -0.040529 9.41753e-06  -0.00452709 -0.0451626 1.26362e-05  -0.000406563 -0.0406237 1.49608e-05  -0.00452119 -0.045105 -9.07779e-05  -0.000684738 -0.0500457 2.01464e-05  -0.00487733 -0.0499254 -8.53539e-05  -0.000852108 -0.055063 2.30074e-05  -0.00488496 -0.049979 1.27554e-05  -0.00524855 -0.0549834 1.508e-05  -0.000690341 -0.0500998 1.81198e-05  -0.00524163 -0.0549276 -7.73668e-05  -0.00103462 -0.0602511 2.41399e-05  -0.00561321 -0.0601045 -7.24792e-05  -0.0012337 -0.0656101 2.61664e-05  -0.00562024 -0.0601549 1.55568e-05  -0.0059979 -0.0654997 1.81794e-05  -0.00103974 -0.0603034 2.09808e-05  -0.00599086 -0.0654481 -6.55055e-05  -0.00144589 -0.0711233 2.70605e-05  -0.00637662 -0.0709489 -6.06179e-05  -0.00167465 -0.0767923 2.93255e-05  -0.00638342 -0.0709961 1.82986e-05  -0.00677621 -0.0766512 2.00272e-05  -0.00145102 -0.0711717 2.34842e-05  -0.00676954 -0.0766032 -5.49555e-05  -0.00191748 -0.0826011 3.03388e-05  -0.0071696 -0.0824004 -5.01871e-05  -0.00217521 -0.0885502 3.24249e-05  -0.00717604 -0.0824439 2.0802e-05  -0.00758159 -0.0883794 2.16365e-05  -0.00192237 -0.0826459 2.5928e-05  -0.00757551 -0.0883342 -4.42266e-05  -0.0024457 -0.094625 3.38554e-05  -0.00798833 -0.094398 -3.96371e-05  -0.00273025 -0.100826 3.54052e-05  -0.00799453 -0.0944387 2.23517e-05  -0.00841236 -0.100626 2.38419e-05  -0.00245094 -0.0946667 2.79546e-05  -0.00840712 -0.100585 -3.47495e-05  -0.0030272 -0.107139 3.61204e-05  -0.0088321 -0.106887 -3.08156e-05  -0.00333691 -0.113564 3.73125e-05  -0.00883722 -0.106924 2.56896e-05  -0.00926733 -0.113337 2.63453e-05  -0.00303209 -0.107177 3.02196e-05  -0.00926232 -0.113298 -2.61664e-05  -0.00365722 -0.120088 3.88622e-05  -0.00969756 -0.119812 -2.13385e-05  -0.00398946 -0.126711 3.96967e-05  -0.00970352 -0.119846 2.67029e-05  -0.0101429 -0.126459 2.72393e-05  -0.00366104 -0.120123 3.20673e-05  -0.0101366 -0.126423 -1.82986e-05  -0.00433147 -0.133421 4.01735e-05  -0.0105823 -0.133124 -1.43051e-05  -0.0046829 -0.140218 4.17233e-05  -0.0105878 -0.133155 2.86102e-05  -0.011035 -0.139941 2.99811e-05  -0.00433409 -0.133454 3.45707e-05  -0.0110313 -0.139909 -1.03116e-05  -0.00504446 -0.147091 4.15444e-05  -0.0114827 -0.146772 -6.85453e-06  -0.00541592 -0.154038 4.29749e-05  -0.011487 -0.146801 2.98023e-05  -0.0119424 -0.153739 3.17097e-05  -0.00504827 -0.14712 3.54052e-05  -0.0119381 -0.153709 -3.09944e-06  -0.00579381 -0.16105 4.3273e-05  -0.0123975 -0.160713 -8.9407e-07  -0.006181 -0.168127 4.42266e-05  -0.0124018 -0.16074 3.19481e-05  -0.0128622 -0.167807 3.28422e-05  -0.00579667 -0.161077 3.77297e-05  -0.0128579 -0.167781 2.68221e-06  -0.00657439 -0.175257 4.55976e-05  -0.0133219 -0.174903 6.13928e-06  -0.00697446 -0.182443 4.58956e-05  -0.0133269 -0.174927 3.25441e-05  -0.0137908 -0.182105 3.34382e-05  -0.0065763 -0.175282 3.91603e-05  -0.0137861 -0.182079 8.82149e-06  -0.00738144 -0.189673 4.54187e-05  -0.0142546 -0.189304 1.06096e-05  -0.00779343 -0.196949 4.67896e-05  -0.0142579 -0.189326 3.37362e-05  -0.0147245 -0.196594 3.49283e-05  -0.00738263 -0.189696 4.03523e-05  -0.0147228 -0.196571 1.37091e-05  -0.00821066 -0.20426 4.69685e-05  -0.0151911 -0.203877 1.60933e-05  -0.00863361 -0.211607 4.76837e-05  -0.0151947 -0.203896 3.52263e-05  -0.0156636 -0.211239 3.63588e-05  -0.00821257 -0.20428 4.18425e-05  -0.0156603 -0.211217 1.74642e-05  -0.00905776 -0.218984 4.81606e-05  -0.0161302 -0.218589 2.14577e-05  -0.00948906 -0.226388 4.83394e-05  -0.0161326 -0.218606 3.67165e-05  -0.0166023 -0.226007 3.70741e-05  -0.00906229 -0.219002 4.24385e-05  -0.0165989 -0.225988 2.26498e-05  -0.00992274 -0.233812 4.8399e-05  -0.0170696 -0.233409 2.45571e-05  -0.0103586 -0.241259 4.85778e-05  -0.0170715 -0.233424 3.73721e-05  -0.0175409 -0.240867 3.73125e-05  -0.00992298 -0.23383 4.32134e-05  -0.0175383 -0.240849 2.71201e-05  -0.0107963 -0.248719 4.91142e-05  -0.0180073 -0.248306 2.7895e-05  -0.0112371 -0.256195 4.94719e-05  -0.0180087 -0.24832 3.80278e-05  -0.0184758 -0.255795 3.82662e-05  -0.0107982 -0.248734 4.43459e-05  -0.0184739 -0.255778 2.96831e-05  -0.0116794 -0.263678 4.88162e-05  -0.0189407 -0.263258 3.21865e-05  -0.0121233 -0.27117 4.89354e-05  -0.0189419 -0.263271 3.98755e-05  -0.0194066 -0.270764 3.95775e-05  -0.0116811 -0.263692 4.50015e-05  -0.0194058 -0.270747 3.26037e-05  -0.0125682 -0.278665 4.95315e-05  -0.0198693 -0.27824 3.42727e-05  -0.0130138 -0.286166 4.92334e-05  -0.0198708 -0.278253 3.89814e-05  -0.0203335 -0.285753 3.98755e-05  -0.0125697 -0.278679 4.60744e-05  -0.0203311 -0.285738 3.50475e-05  -0.0134597 -0.293662 4.91738e-05  -0.020792 -0.293235 3.57628e-05  -0.0139072 -0.301162 4.85182e-05  -0.0207937 -0.293245 3.94583e-05  -0.0212529 -0.300744 4.07696e-05  -0.0134604 -0.293676 4.67896e-05  -0.0212514 -0.300729 3.78489e-05  -0.0143528 -0.308653 4.9293e-05  -0.0217071 -0.308221 3.76701e-05  -0.0147996 -0.316142 5.03659e-05  -0.0217092 -0.308232 3.95179e-05  -0.0221632 -0.315721 4.01735e-05  -0.014354 -0.308665 4.71473e-05  -0.0221636 -0.315708 3.77893e-05  -0.0152462 -0.323623 4.94719e-05  -0.0226157 -0.323189 3.8743e-05  -0.0156925 -0.331097 4.95911e-05  -0.0226173 -0.3232 4.03523e-05  -0.0230696 -0.330675 4.08292e-05  -0.0152459 -0.323634 4.83394e-05  -0.0230682 -0.330663 3.82066e-05  -0.0161364 -0.338561 4.9293e-05  -0.0235162 -0.338125 3.95775e-05  -0.016582 -0.346017 4.93526e-05  -0.02352 -0.338134 4.04119e-05  -0.0239673 -0.345592 4.11868e-05  -0.0161374 -0.338571 4.79817e-05  -0.0239663 -0.345579 4.02331e-05  -0.0170236 -0.353457 4.89354e-05  -0.0244117 -0.353021 4.02331e-05  -0.0174658 -0.36089 4.98891e-05  -0.0244136 -0.353032 4.12464e-05  -0.0248573 -0.360466 4.1604e-05  -0.0170228 -0.353469 4.74453e-05  -0.024857 -0.360454 4.01735e-05  -0.0179062 -0.368305 4.88162e-05  -0.0252998 -0.367868 4.15444e-05  -0.0183482 -0.375712 4.88162e-05  -0.0253 -0.367879 4.08888e-05  -0.0257416 -0.375286 4.071e-05  -0.0179079 -0.368316 4.75049e-05  -0.0257418 -0.375273 4.1008e-05  0.000129908 -0.000276446 8.21948e-05  7.6279e-05 -0.00018537 4.54187e-05  0.000433236 -0.00111473 0.00014627  7.42674e-05 -0.000196576 1.24574e-05  0.000243217 -0.000928879 2.44379e-06  0 0 0  0 0 0  0.000128858 -0.000290096 1.13249e-05  0 0 0  0.000275552 -0.000913918 8.11815e-05  0.000926509 -0.00255668 0.000191987  0.000506759 -0.00230747 0.000103295  0.00150704 -0.00428939 0.000236869  0.000497773 -0.00232643 1.43647e-05  0.000793874 -0.00402415 4.41074e-06  0.000914931 -0.00257748 9.77516e-06  0.000826657 -0.003995 0.000124633  0.00214013 -0.00643843 0.000256181  0.00112873 -0.00612861 0.000133991  0.00278643 -0.00880969 0.000276029  0.00111625 -0.00615937 1.20401e-05  0.00143701 -0.00853896 7.98702e-06  0.00212407 -0.00646949 1.12057e-05  0.00145754 -0.00849682 0.000141919  0.00341105 -0.0114822 0.000280499  0.00176096 -0.011166 0.000144064  0.00401354 -0.0143762 0.000284493  0.00174859 -0.0112078 1.12653e-05  0.00203753 -0.0141186 1.29342e-05  0.00339574 -0.011525 1.5378e-05  0.00205082 -0.0140671 0.000145435  0.00457424 -0.0175211 0.00028187  0.00231701 -0.0172126 0.000143766  0.00509965 -0.0208945 0.000277877  0.0023064 -0.0172634 1.3113e-05  0.00254768 -0.0206483 1.69873e-05  0.00456214 -0.0175732 1.88351e-05  0.00255597 -0.0205904 0.000142634  0.00558323 -0.0244962 0.000271261  0.00277126 -0.0241924 0.000138998  0.00602818 -0.0283238 0.000265419  0.00276297 -0.0242475 1.58548e-05  0.00295097 -0.0280795 1.96695e-05  0.00557458 -0.0245529 2.20537e-05  0.00295752 -0.02802 0.000138164  0.00643492 -0.0323646 0.000257909  0.00311953 -0.03206 0.00013417  0.00680304 -0.0366222 0.000250399  0.00311226 -0.0321162 1.91331e-05  0.00324625 -0.0363743 2.20537e-05  0.00642866 -0.0324226 2.46763e-05  0.00325167 -0.0363147 0.000131845  0.00713587 -0.0410796 0.00024271  0.00335979 -0.0407696 0.000128865  0.00743127 -0.0457399 0.000235736  0.00335449 -0.0408251 2.15173e-05  0.00343633 -0.0454826 2.44975e-05  0.00713152 -0.0411367 2.71201e-05  0.00344074 -0.0454249 0.000127196  0.00769341 -0.0505854 0.000228286  0.00349724 -0.0502661 0.000123739  0.00792074 -0.0556181 0.000222027  0.003492 -0.0503197 2.51532e-05  0.00352263 -0.055348 2.64645e-05  0.00768995 -0.05064 2.99811e-05  0.003528 -0.0552934 0.00012213  0.00811517 -0.0608207 0.000215113  0.00353372 -0.0604916 0.000118911  0.00827563 -0.0661952 0.000208437  0.00352848 -0.060542 2.73585e-05  0.00351143 -0.0659108 2.93851e-05  0.00811148 -0.060872 3.22461e-05  0.00351524 -0.0658593 0.000116706  0.00840616 -0.0717238 0.000202417  0.003474 -0.0713832 0.000114024  0.0085063 -0.0774087 0.000196636  0.00346971 -0.0714301 2.97427e-05  0.00340617 -0.0771088 3.1352e-05  0.00840425 -0.0717724 3.57628e-05  0.00340998 -0.0770605 0.000112355  0.00857639 -0.083233 0.000190377  0.00332367 -0.0828798 0.000109673  0.00861645 -0.0891986 0.000185132  0.00331938 -0.0829228 3.28422e-05  0.00321174 -0.0888824 3.34978e-05  0.00857341 -0.083278 3.77893e-05  0.00321496 -0.0888377 0.00010848  0.00863016 -0.0952885 0.000179589  0.00308645 -0.0949224 0.000105917  0.0086143 -0.101505 0.000174284  0.00308299 -0.0949631 3.48687e-05  0.00293386 -0.101174 3.60012e-05  0.0086273 -0.0953293 4.05312e-05  0.00293696 -0.101133 0.000104129  0.0085746 -0.107831 0.000168741  0.00276744 -0.107454 0.000101924  0.00850689 -0.114272 0.000163317  0.00276458 -0.107491 3.67761e-05  0.00257719 -0.113927 3.9041e-05  0.0085721 -0.10787 4.26173e-05  0.00258076 -0.113888 0.000100017  0.00841641 -0.120809 0.00015831  0.00237489 -0.120422 9.75132e-05  0.00830173 -0.127447 0.00015372  0.00237107 -0.120455 3.94583e-05  0.00214851 -0.127089 3.98755e-05  0.00841475 -0.120845 4.50015e-05  0.00215173 -0.127053 9.56655e-05  0.00816512 -0.134169 0.000148475  0.00191152 -0.133771 9.35793e-05  0.00800562 -0.14098 0.000143051  0.00190914 -0.133802 4.071e-05  0.00165391 -0.140608 4.16636e-05  0.00816262 -0.134202 4.673e-05  0.00165677 -0.140576 9.19104e-05  0.00782609 -0.147863 0.000139415  0.00138617 -0.147455 8.96454e-05  0.00762606 -0.154822 0.000134468  0.0013845 -0.147484 4.27961e-05  0.00109839 -0.154439 4.39882e-05  0.00782466 -0.147893 4.89354e-05  0.0011003 -0.154409 8.744e-05  0.00740862 -0.161844 0.000130475  0.000801325 -0.161428 8.60095e-05  0.0071702 -0.168932 0.000125885  0.000799656 -0.161455 4.46439e-05  0.00048852 -0.168539 4.63724e-05  0.00740647 -0.161872 5.04255e-05  0.000491142 -0.16851 8.4579e-05  0.00691795 -0.176071 0.000121593  0.000167131 -0.175648 8.29101e-05  0.00664616 -0.183266 0.000118375  0.000163794 -0.175672 4.68493e-05  -0.000170946 -0.182864 4.6134e-05  0.00691509 -0.176096 5.13792e-05  -0.000168562 -0.182839 8.0049e-05  0.00636125 -0.190504 0.000113428  -0.000514269 -0.190074 7.9155e-05  0.00605989 -0.197787 0.000110805  -0.000516176 -0.190095 4.75645e-05  -0.000872374 -0.197377 4.88758e-05  0.00636029 -0.190526 5.3823e-05  -0.000870943 -0.197353 7.75456e-05  0.00574756 -0.205103 0.000107706  -0.00123596 -0.204669 7.56383e-05  0.00541925 -0.212459 0.000102818  -0.00123715 -0.20469 4.8697e-05  -0.00161147 -0.212042 4.97699e-05  0.00574613 -0.205125 5.53131e-05  -0.00161052 -0.212021 7.48634e-05  0.00508094 -0.219839 0.000100076  -0.00199246 -0.2194 7.34925e-05  0.00473094 -0.227249 9.67979e-05  -0.00199389 -0.219418 5.03063e-05  -0.00238466 -0.226828 5.04851e-05  0.00508022 -0.219858 5.62668e-05  -0.00238323 -0.226808 7.11083e-05  0.00437117 -0.234677 9.41157e-05  -0.00277925 -0.234236 7.04527e-05  0.0040009 -0.242129 9.08375e-05  -0.00278091 -0.234252 5.12004e-05  -0.00318336 -0.241703 5.16176e-05  0.00436974 -0.234694 5.81741e-05  -0.00318193 -0.241685 6.9201e-05  0.00362253 -0.249591 8.85129e-05  -0.00359082 -0.249147 6.83665e-05  0.00323462 -0.25707 8.55327e-05  -0.00359249 -0.249163 5.28097e-05  -0.00400519 -0.256643 5.16176e-05  0.00362039 -0.249608 5.93662e-05  -0.00400519 -0.256625 6.68764e-05  0.00284052 -0.264555 8.35657e-05  -0.00442338 -0.264111 6.65188e-05  0.00243902 -0.27205 8.10623e-05  -0.0044241 -0.264125 5.29885e-05  -0.00484633 -0.271621 5.44786e-05  0.00283957 -0.26457 6.03795e-05  -0.00484514 -0.271605 6.35982e-05  0.00203156 -0.279546 7.96318e-05  -0.00527096 -0.279102 6.39558e-05  0.00161958 -0.287048 7.83205e-05  -0.00527215 -0.279113 5.4419e-05  -0.00570083 -0.286617 5.53131e-05  0.00203109 -0.27956 6.06179e-05  -0.00569987 -0.286603 6.22869e-05  0.00120163 -0.294547 7.51019e-05  -0.00613165 -0.294101 6.2108e-05  0.000778198 -0.302046 7.27177e-05  -0.00613332 -0.294114 5.44786e-05  -0.00656605 -0.301614 5.48959e-05  0.00120163 -0.294558 6.2108e-05  -0.00656605 -0.301599 6.1214e-05  0.000354528 -0.309537 7.21812e-05  -0.00700212 -0.309093 5.98431e-05  -7.39098e-05 -0.317027 7.10487e-05  -0.00700212 -0.309103 5.50747e-05  -0.00743961 -0.316595 5.50747e-05  0.000354767 -0.309549 6.28829e-05  -0.00743842 -0.316582 5.90682e-05  -0.000504255 -0.324506 6.96778e-05  -0.00787711 -0.324063 5.96046e-05  -0.000939846 -0.331982 6.76513e-05  -0.00787807 -0.324073 5.63264e-05  -0.00831842 -0.331552 5.56111e-05  -0.000504732 -0.324518 6.34789e-05  -0.00831842 -0.331538 5.74589e-05  -0.00137377 -0.339443 6.75917e-05  -0.00875807 -0.339002 5.74589e-05  -0.00181127 -0.346899 6.71744e-05  -0.00875926 -0.33901 5.62668e-05  -0.00919819 -0.346468 5.62072e-05  -0.00137329 -0.339455 6.34193e-05  -0.00919819 -0.346457 5.80549e-05  -0.00224733 -0.354341 6.53863e-05  -0.00963879 -0.353899 5.64456e-05  -0.00268626 -0.361772 6.48499e-05  -0.00963783 -0.353907 5.6684e-05  -0.0100789 -0.361343 5.67436e-05  -0.00224686 -0.35435 6.41942e-05  -0.0100782 -0.361332 5.58496e-05  -0.00312328 -0.369189 6.35982e-05  -0.0105174 -0.368746 5.52535e-05  -0.00355911 -0.376597 6.29425e-05  -0.0105171 -0.368757 5.6088e-05  -0.0109532 -0.376165 5.63264e-05  -0.00312328 -0.369201 6.35386e-05  -0.0109539 -0.376151 5.47171e-05  0.000296548 -0.000734985 0.000157595  0.000232756 -0.000461638 0.000128686  0.000991866 -0.00188577 0.000278056  0.000232577 -0.000479221 2.24113e-05  0.000741214 -0.00143021 9.35793e-06  0 0 0  0 0 0  0.000298746 -0.0007478 2.09212e-05  0 0 0  0.000770211 -0.0014112 0.00022018  0.00200844 -0.00358635 0.000376642  0.00148176 -0.00298148 0.000296533  0.00320983 -0.00541174 0.000459671  0.00147295 -0.0030039 2.09212e-05  0.00233084 -0.00478971 1.82986e-05  0.00199507 -0.00360364 1.93119e-05  0.00235611 -0.00475895 0.000355005  0.00445694 -0.00760734 0.000503004  0.00327954 -0.00693119 0.000389159  0.0057334 -0.00996625 0.000541806  0.00326508 -0.00696486 1.9908e-05  0.00420687 -0.00935215 2.40207e-05  0.00443709 -0.00763977 2.21133e-05  0.00422636 -0.00930685 0.000413775  0.00696412 -0.0126051 0.000552297  0.00515547 -0.0119618 0.000421643  0.00815517 -0.0154666 0.000558794  0.00513905 -0.0120066 2.2769e-05  0.00603116 -0.0149042 2.7895e-05  0.00694466 -0.012652 2.83122e-05  0.00604498 -0.0148497 0.000424266  0.00928384 -0.0185703 0.000553489  0.00689483 -0.0179749 0.00041908  0.0103533 -0.0219173 0.000543952  0.00688112 -0.0180272 2.57492e-05  0.00768095 -0.0214008 3.02792e-05  0.00926965 -0.0186259 3.24845e-05  0.00769007 -0.0213411 0.000411987  0.0113617 -0.0254903 0.00053072  0.00844014 -0.0249299 0.000401199  0.0123086 -0.0293018 0.000515699  0.00843072 -0.0249861 2.87294e-05  0.00913006 -0.0288143 3.17097e-05  0.0113523 -0.0255493 3.51071e-05  0.00913668 -0.0287533 0.000390232  0.0131983 -0.0333262 0.000499785  0.00978738 -0.0327875 0.000378489  0.0140287 -0.0375755 0.000483394  0.00978029 -0.0328448 3.15309e-05  0.0103828 -0.0371044 3.37362e-05  0.0131927 -0.0333856 3.71337e-05  0.0103874 -0.037044 0.000366569  0.0148053 -0.0420237 0.00046742  0.0109431 -0.0414988 0.00035435  0.0155265 -0.0466812 0.000451148  0.0109384 -0.0415547 3.3617e-05  0.0114493 -0.0462173 3.62396e-05  0.0148014 -0.0420809 3.93987e-05  0.0114515 -0.0461596 0.000342429  0.0161957 -0.0515217 0.00043565  0.0119185 -0.0510046 0.000331461  0.0168127 -0.0565547 0.00042057  0.011916 -0.0510578 3.68953e-05  0.0123392 -0.0560939 3.88622e-05  0.0161941 -0.0515763 4.17233e-05  0.0123411 -0.0560394 0.000320852  0.0173804 -0.0617549 0.000405312  0.0127233 -0.0612432 0.000309587  0.0178987 -0.0671314 0.000390649  0.0127202 -0.0612934 3.93391e-05  0.0130618 -0.0666717 4.11272e-05  0.0173794 -0.0618067 4.45843e-05  0.0130635 -0.0666202 0.000299156  0.0183699 -0.0726592 0.000377178  0.013365 -0.0721505 0.000288904  0.0187944 -0.0783471 0.000363231  0.0133624 -0.072197 4.20809e-05  0.0136259 -0.0778868 4.33326e-05  0.0183696 -0.0727068 4.69089e-05  0.0136281 -0.0778388 0.000279367  0.0191753 -0.0841717 0.000350058  0.013854 -0.0836648 0.00026983  0.0195106 -0.0901401 0.000337124  0.0138514 -0.0837085 4.47631e-05  0.0140409 -0.0896774 4.58956e-05  0.0191741 -0.0842163 4.95315e-05  0.0140415 -0.089633 0.000261009  0.0198045 -0.0962306 0.000324309  0.0141963 -0.0957251 0.000251114  0.0200567 -0.102451 0.00031215  0.0141947 -0.0957651 4.72069e-05  0.0143139 -0.101986 4.83394e-05  0.0198038 -0.0962722 5.25117e-05  0.0143151 -0.101945 0.000242412  0.0202701 -0.108779 0.000300467  0.0144013 -0.108274 0.000234246  0.0204434 -0.115223 0.000289202  0.0144001 -0.108311 4.98295e-05  0.0144546 -0.114756 5.14388e-05  0.0202698 -0.108817 5.47171e-05  0.0144558 -0.114717 0.000225425  0.0205805 -0.12176 0.000278354  0.0144789 -0.121257 0.000217557  0.02068 -0.128401 0.000267744  0.0144777 -0.121291 5.19156e-05  0.0144717 -0.127933 5.28097e-05  0.0205797 -0.121796 5.67436e-05  0.0144722 -0.127897 0.000209093  0.0207455 -0.135123 0.000256002  0.0144372 -0.134622 0.000201166  0.0207775 -0.141936 0.00024569  0.0144352 -0.134653 5.42998e-05  0.0143726 -0.141468 5.51343e-05  0.0207454 -0.135156 5.90682e-05  0.0143738 -0.141434 0.000193954  0.0207784 -0.14882 0.000236034  0.0142851 -0.148319 0.000187099  0.0207462 -0.155781 0.000226378  0.0142839 -0.148347 5.61476e-05  0.0141695 -0.15531 5.68628e-05  0.0207772 -0.148849 6.16312e-05  0.0141695 -0.15528 0.000180125  0.0206866 -0.162801 0.00021708  0.0140302 -0.162303 0.000172853  0.0205963 -0.16989 0.000207484  0.0140305 -0.162329 5.76973e-05  0.0138674 -0.16942 5.87702e-05  0.0206861 -0.162828 6.38366e-05  0.0138671 -0.169392 0.000165641  0.0204799 -0.177027 0.000198722  0.0136831 -0.176533 0.000159562  0.0203373 -0.184223 0.000190675  0.0136817 -0.176556 5.85318e-05  0.0134759 -0.183754 6.07371e-05  0.0204794 -0.177053 6.50287e-05  0.0134771 -0.183728 0.000154316  0.0201714 -0.191458 0.000182509  0.0132515 -0.190965 0.000147939  0.0199809 -0.198741 0.000175238  0.0132523 -0.190987 6.14524e-05  0.0130062 -0.198272 6.16908e-05  0.0201712 -0.191481 6.74725e-05  0.013006 -0.198249 0.000142157  0.0197675 -0.206056 0.000167191  0.0127435 -0.205567 0.000136495  0.0195322 -0.213409 0.000159919  0.0127428 -0.205586 6.27637e-05  0.0124631 -0.212943 6.34789e-05  0.019768 -0.206076 6.86646e-05  0.0124629 -0.212922 0.000130713  0.019279 -0.220786 0.000151873  0.0121675 -0.220302 0.000126302  0.0190058 -0.228195 0.000145793  0.012167 -0.22032 6.41346e-05  0.0118561 -0.227731 6.47902e-05  0.0192804 -0.220805 7.14064e-05  0.0118577 -0.227711 0.000120997  0.0187175 -0.235619 0.000140905  0.0115321 -0.235139 0.000116587  0.01841 -0.243067 0.000133395  0.0115333 -0.235155 6.56843e-05  0.0111942 -0.242608 6.59823e-05  0.0187163 -0.235637 7.24792e-05  0.0111938 -0.24259 0.000111222  0.0180879 -0.250527 0.000129402  0.0108442 -0.250051 0.000107944  0.0177515 -0.258002 0.000122905  0.0108445 -0.250066 6.65784e-05  0.0104842 -0.257547 6.80089e-05  0.0180874 -0.250544 7.27177e-05  0.0104847 -0.25753 0.000103235  0.0174026 -0.265484 0.000118852  0.010112 -0.265014 0.000100374  0.017041 -0.272977 0.000112712  0.010112 -0.265026 6.80685e-05  0.00973225 -0.272524 6.92606e-05  0.0174038 -0.2655 7.45058e-05  0.00973105 -0.272508 9.63807e-05  0.01667 -0.280468 0.000108957  0.00934267 -0.280002 9.37581e-05  0.0162868 -0.287966 0.000105262  0.00934196 -0.280016 6.9201e-05  0.00894523 -0.287518 6.9499e-05  0.0166702 -0.280481 7.63535e-05  0.00894427 -0.287503 8.98242e-05  0.0158958 -0.29546 0.000102639  0.00854087 -0.295001 8.75592e-05  0.0154946 -0.302958 9.75132e-05  0.00854111 -0.295012 6.90818e-05  0.00813127 -0.302512 6.9797e-05  0.0158966 -0.295474 7.64132e-05  0.00813007 -0.302497 8.49962e-05  0.0150886 -0.310445 9.5129e-05  0.00771499 -0.30999 8.35061e-05  0.0146761 -0.317933 9.20296e-05  0.00771475 -0.31 7.03335e-05  0.00729465 -0.317491 7.1764e-05  0.0150898 -0.310457 7.74264e-05  0.00729418 -0.317478 8.2016e-05  0.0142574 -0.325409 9.04202e-05  0.00687027 -0.324955 7.95126e-05  0.0138347 -0.33288 8.79169e-05  0.00687194 -0.324967 7.11679e-05  0.00644398 -0.332441 7.19428e-05  0.0142577 -0.32542 7.79629e-05  0.00644183 -0.332429 7.70092e-05  0.0134072 -0.340338 8.47578e-05  0.00601077 -0.33989 7.46846e-05  0.0129755 -0.347792 8.35061e-05  0.00601125 -0.3399 7.22408e-05  0.00557804 -0.347356 7.15256e-05  0.0134079 -0.340349 7.83205e-05  0.00557709 -0.347344 7.52807e-05  0.0125415 -0.355231 8.30293e-05  0.00514317 -0.354785 7.24196e-05  0.0121071 -0.362664 8.01682e-05  0.00514317 -0.354794 7.15852e-05  0.00470638 -0.36223 7.24792e-05  0.0125439 -0.355242 7.9155e-05  0.00470734 -0.362218 7.1764e-05  0.0116723 -0.370082 7.87377e-05  0.00427079 -0.369636 6.93798e-05  0.0112371 -0.377496 7.61151e-05  0.00427055 -0.369645 7.17044e-05  0.00383759 -0.377057 7.2062e-05  0.0116737 -0.370094 7.87377e-05  0.00383759 -0.377044 6.92606e-05  0.000568323 -0.00178868 0.000223279  0.000489198 -0.00113249 0.000209033  0.00194454 -0.00344616 0.000399053  0.000489742 -0.00116211 2.50936e-05  0.00145715 -0.00257367 1.50204e-05  0 0 0  0 0 0  0.000580706 -0.00179332 2.7597e-05  0 0 0  0.00147422 -0.00254536 0.000349641  0.00360185 -0.00543213 0.000551999  0.00277568 -0.00438166 0.000476539  0.00548086 -0.00735623 0.000666738  0.0027699 -0.00441086 2.45571e-05  0.00424293 -0.00633663 3.09944e-05  0.00359134 -0.00545597 2.37823e-05  0.00425479 -0.00629693 0.000569582  0.00733715 -0.00948733 0.000738919  0.00582126 -0.00845391 0.000628769  0.00919038 -0.0118068 0.000793755  0.00580537 -0.00849742 2.70605e-05  0.00735831 -0.0108687 3.89814e-05  0.0073176 -0.0095377 2.93851e-05  0.00737283 -0.0108155 0.000670195  0.0109881 -0.0143353 0.000812888  0.0089035 -0.0133977 0.000686109  0.0127173 -0.0171363 0.000822961  0.00888568 -0.0134505 3.38554e-05  0.0103533 -0.0162969 4.14848e-05  0.0109689 -0.0143974 3.86834e-05  0.010367 -0.0162362 0.000692129  0.0143815 -0.0201592 0.000815213  0.0117717 -0.0193008 0.000685453  0.0159645 -0.0234572 0.000802457  0.0117567 -0.019359 3.83258e-05  0.0130921 -0.0226898 4.21405e-05  0.0143674 -0.0202236 4.3869e-05  0.0131021 -0.0226266 0.000673532  0.0174777 -0.0269766 0.000783861  0.0143657 -0.0261749 0.000656843  0.0189089 -0.0307537 0.000760853  0.014356 -0.0262339 4.11272e-05  0.0155523 -0.0300334 4.31538e-05  0.0174681 -0.0270398 4.69685e-05  0.015558 -0.0299709 0.000638127  0.0202684 -0.034741 0.000738025  0.0166842 -0.0339793 0.000618339  0.02155 -0.0389671 0.000712752  0.0166789 -0.0340372 4.37498e-05  0.0177394 -0.0382787 4.55379e-05  0.0202627 -0.0348024 4.87566e-05  0.0177428 -0.0382186 0.000597775  0.0227617 -0.0433891 0.000689387  0.0187383 -0.0426553 0.000577211  0.0238988 -0.0480286 0.000664055  0.0187342 -0.0427107 4.6134e-05  0.0196666 -0.0473628 4.80413e-05  0.022759 -0.0434465 5.08428e-05  0.0196686 -0.0473057 0.000557125  0.024969 -0.0528479 0.000640512  0.020539 -0.0521377 0.000537455  0.0259681 -0.0578676 0.000616789  0.020537 -0.0521901 4.91738e-05  0.0213479 -0.0572196 5.06043e-05  0.0249674 -0.0529023 5.34058e-05  0.0213485 -0.0571651 0.000517905  0.0269039 -0.0630496 0.000594378  0.0221001 -0.0623593 0.000498593  0.0277723 -0.0684151 0.00057137  0.0220997 -0.062408 5.16772e-05  0.0227942 -0.0677821 5.31077e-05  0.026903 -0.0631003 5.6088e-05  0.0227956 -0.0677304 0.000481188  0.0285792 -0.0739281 0.000550151  0.0234351 -0.0732535 0.00046277  0.0293226 -0.0796064 0.000528991  0.0234339 -0.0732993 5.40614e-05  0.0240195 -0.0789857 5.54323e-05  0.0285782 -0.0739744 5.87702e-05  0.0240204 -0.0789375 0.000445366  0.0300076 -0.0854161 0.000508666  0.0245538 -0.0847573 0.000428915  0.0306327 -0.0913758 0.000488997  0.0245528 -0.0847996 5.71609e-05  0.025035 -0.0907667 5.82337e-05  0.0300071 -0.0854602 6.19292e-05  0.0250353 -0.0907224 0.000412405  0.0312027 -0.0974531 0.000470102  0.0254674 -0.0968089 0.000395834  0.0317155 -0.103665 0.000450492  0.0254673 -0.0968477 5.9545e-05  0.0258512 -0.103066 6.07967e-05  0.0312015 -0.0974942 6.47306e-05  0.0258516 -0.103025 0.000380814  0.0321773 -0.109979 0.000432909  0.0261891 -0.109348 0.000365436  0.032585 -0.116416 0.000414133  0.0261889 -0.109385 6.13928e-05  0.0264808 -0.115828 6.35982e-05  0.032177 -0.110018 6.71148e-05  0.0264806 -0.115789 0.000350893  0.0329452 -0.122941 0.000397623  0.026729 -0.122323 0.000336468  0.0332533 -0.129573 0.000380516  0.0267292 -0.122356 6.42538e-05  0.0269359 -0.128995 6.62208e-05  0.032945 -0.122975 6.96182e-05  0.0269356 -0.128961 0.000322402  0.0335174 -0.136284 0.000364184  0.0271008 -0.135679 0.000309289  0.0337348 -0.143088 0.000349045  0.0271008 -0.135711 6.71148e-05  0.0272264 -0.142522 6.86049e-05  0.0335169 -0.136316 7.16448e-05  0.0272264 -0.142489 0.000295758  0.0339093 -0.149958 0.000332296  0.0273149 -0.149368 0.000284314  0.0340402 -0.156913 0.000317633  0.0273144 -0.149396 6.87838e-05  0.027365 -0.156356 7.03931e-05  0.0339098 -0.149989 7.44462e-05  0.027365 -0.156326 0.000271559  0.0341332 -0.163921 0.000303686  0.0273821 -0.163342 0.000259995  0.0341845 -0.171001 0.000289857  0.0273809 -0.163368 7.10487e-05  0.027364 -0.170454 7.20024e-05  0.0341327 -0.163947 7.7486e-05  0.0273645 -0.170427 0.000248551  0.0342014 -0.178127 0.000276268  0.0273147 -0.177561 0.000236571  0.0341799 -0.185313 0.000263572  0.0273144 -0.177584 7.33733e-05  0.0272346 -0.184778 7.39694e-05  0.0342007 -0.178151 7.87377e-05  0.0272346 -0.184752 0.000225127  0.0341277 -0.192537 0.00025034  0.0271244 -0.191983 0.000215471  0.0340407 -0.19981 0.000238597  0.0271249 -0.192004 7.52807e-05  0.0269866 -0.199286 7.61151e-05  0.0341277 -0.192559 8.13603e-05  0.0269871 -0.199262 0.000205517  0.0339236 -0.207113 0.000227988  0.026823 -0.206572 0.000196218  0.0337758 -0.214458 0.000215828  0.0268233 -0.20659 7.70688e-05  0.0266342 -0.213942 7.689e-05  0.0339241 -0.207133 8.32081e-05  0.0266335 -0.213921 0.00018692  0.0336034 -0.221823 0.000204921  0.0264201 -0.221294 0.000178456  0.0334008 -0.229223 0.000195384  0.0264206 -0.221312 7.85589e-05  0.0261846 -0.228719 7.96318e-05  0.0336022 -0.221842 8.48174e-05  0.0261843 -0.228698 0.000169933  0.0331774 -0.236635 0.000185966  0.0259271 -0.236119 0.000161827  0.0329261 -0.244076 0.000176132  0.0259271 -0.236135 7.9751e-05  0.02565 -0.243583 8.18968e-05  0.0331764 -0.236653 8.58903e-05  0.0256505 -0.243562 0.000155568  0.0326567 -0.251523 0.000168204  0.0253551 -0.25102 0.000146627  0.0323653 -0.258991 0.000160098  0.0253549 -0.251034 8.13603e-05  0.0250423 -0.258508 8.2016e-05  0.0326571 -0.251539 8.76188e-05  0.0250425 -0.258491 0.000140548  0.0320566 -0.266461 0.000153124  0.0247147 -0.265968 0.000133872  0.031728 -0.273945 0.000145674  0.0247147 -0.265982 8.27909e-05  0.0243726 -0.273471 8.39829e-05  0.0320561 -0.266476 8.85129e-05  0.0243704 -0.273456 0.000128865  0.0313857 -0.281428 0.000138879  0.024014 -0.280944 0.000124156  0.0310271 -0.288919 0.00013262  0.0240145 -0.280958 8.36849e-05  0.0236459 -0.288454 8.55327e-05  0.0313861 -0.281441 9.0301e-05  0.0236452 -0.28844 0.000118196  0.0306575 -0.296404 0.000126898  0.0232651 -0.295929 0.000114679  0.030273 -0.303892 0.000121891  0.0232644 -0.295942 8.56519e-05  0.0228751 -0.303436 8.60691e-05  0.0306578 -0.296416 9.20296e-05  0.0228746 -0.303422 0.000110567  0.0298805 -0.311372 0.000117898  0.0224748 -0.310908 0.000105679  0.0294766 -0.318853 0.000113964  0.0224748 -0.310919 8.55327e-05  0.0220671 -0.318404 8.62479e-05  0.0298812 -0.311383 9.2566e-05  0.0220661 -0.318391 0.000102103  0.0290663 -0.326322 0.000110149  0.0216529 -0.325865 9.95398e-05  0.0286469 -0.333788 0.000107229  0.0216537 -0.325875 8.58903e-05  0.0212333 -0.333346 8.73804e-05  0.029067 -0.326333 9.38773e-05  0.0212324 -0.333332 9.57251e-05  0.0282233 -0.341241 0.00010401  0.0208073 -0.34079 9.29832e-05  0.0277939 -0.348692 0.000101209  0.0208073 -0.3408 8.82745e-05  0.0203781 -0.348253 8.6844e-05  0.0282242 -0.341253 9.44138e-05  0.0203791 -0.348241 9.19104e-05  0.0273628 -0.356127 9.87053e-05  0.0199471 -0.35568 9.0301e-05  0.0269277 -0.363558 9.75728e-05  0.0199473 -0.355689 8.77976e-05  0.0195129 -0.363124 8.83341e-05  0.0273631 -0.356138 9.52482e-05  0.019511 -0.363111 8.86917e-05  0.0264919 -0.370979 9.48906e-05  0.0190756 -0.370533 8.58903e-05  0.0260539 -0.3784 9.29236e-05  0.0190768 -0.370542 8.76784e-05  0.0186434 -0.377959 8.72016e-05  0.0264919 -0.37099 9.64403e-05  0.0186439 -0.377948 8.35061e-05  0.00120901 -0.00420779 0.000294268  0.00103338 -0.00258487 0.000289381  0.00412738 -0.00650156 0.000493169  0.00103851 -0.00264436 1.26958e-05  0.0027443 -0.00487709 2.02656e-05  0 0 0  0 0 0  0.00117049 -0.00418037 2.63453e-05  0 0 0  0.00271933 -0.00483584 0.000466287  0.00646305 -0.00805748 0.000746369  0.00478336 -0.0066731 0.000642717  0.00867105 -0.0101171 0.000865102  0.00478357 -0.00671571 2.62856e-05  0.00688392 -0.00873637 3.99947e-05  0.006409 -0.0081805 1.5378e-05  0.00687498 -0.00868458 0.000763357  0.0110271 -0.0119429 0.000976384  0.00904009 -0.0106679 0.000855386  0.0132838 -0.0142028 0.00104004  0.00902537 -0.0107294 3.618e-05  0.0111308 -0.0130131 5.14984e-05  0.0110157 -0.0120475 2.93851e-05  0.0111401 -0.0129489 0.000911593  0.0155884 -0.016581 0.00106925  0.0132021 -0.0154058 0.000940204  0.0178038 -0.0193011 0.00108033  0.0131841 -0.015473 4.64916e-05  0.0151798 -0.0182259 5.40018e-05  0.015579 -0.0166665 4.76241e-05  0.0151929 -0.0181587 0.000949323  0.0199763 -0.0222358 0.00107223  0.0171086 -0.0211424 0.000944138  0.0220548 -0.0254714 0.00105453  0.0170932 -0.021208 5.13792e-05  0.0189362 -0.0244719 5.47171e-05  0.0199656 -0.0223087 5.54323e-05  0.0189463 -0.0244042 0.000927925  0.0240571 -0.0289258 0.00103092  0.0207004 -0.0278974 0.000907123  0.0259607 -0.0326587 0.00100106  0.0206895 -0.0279593 5.3525e-05  0.0223658 -0.0317137 5.51343e-05  0.0240481 -0.0289903 5.87106e-05  0.0223728 -0.0316499 0.000881016  0.0277814 -0.0365918 0.00097239  0.0239603 -0.035616 0.000854135  0.0295027 -0.0407855 0.000937939  0.0239525 -0.0356743 5.50747e-05  0.0254613 -0.0398844 5.68032e-05  0.0277739 -0.0366524 6.07967e-05  0.025466 -0.0398234 0.000825465  0.0311418 -0.0451592 0.000907779  0.0268893 -0.0442265 0.000797808  0.0326828 -0.0497746 0.000873387  0.0268841 -0.0442814 5.79357e-05  0.0282308 -0.0489097 5.91874e-05  0.031135 -0.0452151 6.22272e-05  0.0282328 -0.0488522 0.00076896  0.0341477 -0.0545519 0.000843585  0.0294977 -0.0536559 0.000741303  0.0355172 -0.0595505 0.000810385  0.0294955 -0.0537069 6.00219e-05  0.030686 -0.0587174 6.24061e-05  0.0341429 -0.0546039 6.49691e-05  0.030687 -0.0586634 0.00071311  0.0368136 -0.0646953 0.000781953  0.0318013 -0.0638315 0.000687063  0.0380195 -0.0700419 0.000749886  0.0317986 -0.0638795 6.28829e-05  0.032842 -0.0692366 6.49691e-05  0.036809 -0.0647435 6.77705e-05  0.0328429 -0.0691862 0.0006603  0.0391567 -0.0755185 0.000722468  0.0338129 -0.0746855 0.000635743  0.0402075 -0.0811808 0.000692725  0.0338105 -0.0747303 6.59227e-05  0.0347129 -0.080401 6.77705e-05  0.0391532 -0.075564 7.03931e-05  0.0347143 -0.0803538 0.000610411  0.0411929 -0.0869575 0.000668228  0.035547 -0.086152 0.00058645  0.0420951 -0.0929013 0.00063777  0.035545 -0.086193 6.87242e-05  0.0363145 -0.0921466 7.05123e-05  0.0411881 -0.0869985 7.30753e-05  0.0363147 -0.0921031 0.000562668  0.0429363 -0.0989451 0.000614285  0.0370185 -0.0981684 0.000540733  0.0436987 -0.105143 0.000586569  0.0370164 -0.0982063 7.12872e-05  0.0376599 -0.104412 7.31349e-05  0.0429322 -0.0989839 7.6592e-05  0.0376604 -0.104371 0.000518918  0.0444036 -0.111426 0.000564218  0.0382423 -0.110675 0.000497103  0.0450343 -0.117848 0.000538647  0.0382408 -0.11071 7.37906e-05  0.0387655 -0.11714 7.54595e-05  0.0443993 -0.111462 7.93338e-05  0.0387658 -0.117101 0.000476122  0.0456116 -0.124343 0.000517607  0.0392325 -0.123617 0.000456274  0.0461178 -0.130961 0.00049299  0.0392307 -0.123649 7.64728e-05  0.0396436 -0.130275 7.83801e-05  0.0456089 -0.124376 8.21948e-05  0.0396442 -0.130241 0.000435233  0.0465746 -0.137641 0.000472546  0.0400037 -0.136941 0.000416875  0.0469658 -0.144433 0.000449777  0.0400015 -0.136969 7.9751e-05  0.0403109 -0.143768 8.14199e-05  0.0465719 -0.137672 8.46982e-05  0.0403106 -0.143737 0.000398993  0.0473108 -0.151275 0.000430226  0.0405691 -0.150598 0.000380516  0.0475922 -0.158214 0.000409245  0.0405679 -0.150625 8.18968e-05  0.0407789 -0.157572 8.35061e-05  0.0473075 -0.151303 8.76784e-05  0.0407798 -0.157543 0.000362456  0.0478349 -0.165194 0.000391126  0.0409443 -0.164542 0.000346065  0.0480156 -0.172261 0.000369608  0.0409439 -0.164566 8.41618e-05  0.0410647 -0.17164 8.64267e-05  0.0478308 -0.165221 8.94666e-05  0.0410657 -0.171614 0.000328898  0.0481591 -0.17936 0.000354528  0.0411441 -0.17873 0.00031358  0.048249 -0.186533 0.000336409  0.0411422 -0.178752 8.61287e-05  0.041182 -0.185933 8.82745e-05  0.048157 -0.179384 9.26256e-05  0.0411825 -0.185908 0.000298083  0.0483041 -0.193729 0.000319779  0.041182 -0.19312 0.000283718  0.0483084 -0.20099 0.000303328  0.0411816 -0.193141 8.87513e-05  0.0411434 -0.20041 9.09567e-05  0.0483019 -0.19375 9.43542e-05  0.0411448 -0.200386 0.000270128  0.0482843 -0.208267 0.000288844  0.0410721 -0.207681 0.000256002  0.0482125 -0.215598 0.000271857  0.0410712 -0.207699 9.05395e-05  0.040967 -0.215038 9.2268e-05  0.0482826 -0.208287 9.66191e-05  0.040967 -0.215017 0.000242651  0.0481136 -0.22294 0.000258923  0.0408287 -0.222374 0.000230968  0.0479724 -0.230326 0.000244141  0.0408289 -0.222391 9.23872e-05  0.0406616 -0.229785 9.36985e-05  0.0481124 -0.222959 9.81092e-05  0.0406604 -0.229765 0.00021863  0.0478063 -0.237717 0.000231504  0.0404637 -0.23717 0.000207782  0.0476041 -0.245145 0.000218689  0.0404646 -0.237185 9.35197e-05  0.0402429 -0.24462 9.53078e-05  0.047806 -0.237733 0.000100493  0.0402436 -0.244603 0.000197053  0.0473809 -0.25257 0.000208914  0.0399952 -0.252043 0.000187933  0.047122 -0.260026 0.00019592  0.0399938 -0.252056 9.53674e-05  0.0397232 -0.25952 9.75132e-05  0.047379 -0.252585 0.000102937  0.0397232 -0.259504 0.000176966  0.0468464 -0.267474 0.000187814  0.0394299 -0.266967 0.000169218  0.0465422 -0.274949 0.000177801  0.0394287 -0.266979 9.69768e-05  0.0391173 -0.27446 9.85861e-05  0.0468464 -0.267489 0.000104725  0.0391178 -0.274445 0.000160098  0.0462224 -0.282411 0.000168145  0.0387852 -0.28192 0.000153482  0.0458765 -0.289893 0.000160456  0.0387855 -0.28193 9.84073e-05  0.0384374 -0.289419 9.9659e-05  0.0462208 -0.282424 0.000105381  0.0384371 -0.289404 0.000145495  0.0455201 -0.29736 0.000153542  0.0380714 -0.296883 0.000139415  0.04514 -0.304841 0.000145853  0.0380719 -0.296894 9.98974e-05  0.0376942 -0.304379 0.000100613  0.0455186 -0.297374 0.000107408  0.037694 -0.304367 0.000133634  0.0447531 -0.312305 0.00014323  0.037302 -0.311842 0.000129104  0.0443482 -0.31978 0.000135243  0.0373025 -0.311851 0.000101268  0.0369017 -0.31933 0.000102818  0.0447531 -0.312318 0.0001086  0.0369017 -0.319316 0.000123978  0.0439382 -0.327237 0.000131011  0.0364907 -0.326782 0.000119388  0.0435143 -0.334697 0.000127256  0.0364907 -0.326791 0.000102639  0.0360718 -0.334257 0.000102818  0.0439389 -0.327247 0.000110149  0.0360723 -0.334244 0.000115395  0.0430863 -0.34214 0.000124335  0.035646 -0.341695 0.000111997  0.042649 -0.349587 0.000121713  0.035646 -0.341704 0.000103652  0.0352173 -0.349155 0.000103891  0.043087 -0.342152 0.000109494  0.0352161 -0.34914 0.000109732  0.0422134 -0.357019 0.000119507  0.0347819 -0.356575 0.000108182  0.0417721 -0.36445 0.000114739  0.0347829 -0.356586 0.000103414  0.0343475 -0.364018 0.000104487  0.0422146 -0.357031 0.000112176  0.0343475 -0.364006 0.000105858  0.0413332 -0.371873 0.000112355  0.0339093 -0.371429 0.000102997  0.0408936 -0.379296 0.000110984  0.0339093 -0.371437 0.000103235  0.033473 -0.378862 0.000103235  0.0413344 -0.371884 0.000111282  0.0334702 -0.378849 9.9659e-05  -0.000544485 -0.00148541 0.000176013  -0.000637885 -0.00219559 0.000224471  -0.00190399 -0.00346947 0.000359118  -0.000685334 -0.00217288 0.000466973  -0.00272374 -0.00475393 0.000895977  -0.00234739 -0.00398819 0.000534445  0 0 0  -0.00237205 -0.00402412 0.00025928  0 0 0  0 0 0  -0.000538442 -0.00141937 0.000410557  0 0 0  -0.00462647 -0.00642325 0.000463724  -0.00273597 -0.00485356 0.000413954  -0.00362851 -0.00521506 0.000505865  -0.00479634 -0.00653058 0.000583947  -0.00542466 -0.00704094 0.000605106  -0.00480156 -0.00640164 0.00123042  -0.00690849 -0.00821687 0.00146154  -0.00660448 -0.00773356 0.00138226  -0.00658867 -0.00782481 0.000684619  -0.00366187 -0.0051023 0.0010547  -0.00882432 -0.00975669 0.000789762  -0.00687572 -0.00835792 0.00070107  -0.00732601 -0.00906113 0.000679255  -0.00901124 -0.0102033 0.000795722  -0.00914222 -0.011201 0.000724256  -0.00904194 -0.0100447 0.00164834  -0.0111482 -0.0121231 0.00173908  -0.0110815 -0.0112515 0.00186795  -0.0110419 -0.0114021 0.00091362  -0.00736594 -0.00890807 0.00141624  -0.0133734 -0.0135189 0.000958025  -0.0111002 -0.0122951 0.000843167  -0.0109662 -0.0136367 0.000749171  -0.0132015 -0.0146193 0.000876963  -0.012724 -0.0162797 0.000758171  -0.0132364 -0.0144422 0.00180465  -0.0152767 -0.0170201 0.00181124  -0.0157197 -0.0155345 0.00205326  -0.0156786 -0.0157166 0.00100172  -0.0110045 -0.0134665 0.00154883  -0.0179832 -0.0182614 0.00100642  -0.0152374 -0.017201 0.000883102  -0.0144541 -0.0191997 0.000753403  -0.0172478 -0.0200501 0.000879943  -0.0161322 -0.0223519 0.000742614  -0.0172727 -0.0198694 0.00180349  -0.0192131 -0.0229624 0.0017671  -0.0202653 -0.0208391 0.00205627  -0.0202368 -0.0210269 0.00100374  -0.0144799 -0.0190256 0.00154766  -0.0224388 -0.0240585 0.000988007  -0.0191904 -0.0231401 0.000864625  -0.0177679 -0.0257572 0.000722528  -0.0210891 -0.0264931 0.000842452  -0.0193574 -0.0293876 0.000703037  -0.0210998 -0.0263178 0.00172266  -0.0229299 -0.0298969 0.00166643  -0.0245946 -0.0271678 0.00196549  -0.0245812 -0.0273479 0.00096035  -0.0177788 -0.0255865 0.0014776  -0.0266547 -0.0308595 0.000935018  -0.0229219 -0.0300653 0.000817537  -0.0209004 -0.0332529 0.000676751  -0.0247057 -0.0338859 0.000787556  -0.0224004 -0.0373269 0.00065285  -0.0247045 -0.033721 0.001607  -0.0264253 -0.0377499 0.00154445  -0.0286698 -0.0344591 0.00183454  -0.0286678 -0.0346263 0.000898421  -0.0208986 -0.0330904 0.00137851  -0.0306122 -0.038589 0.00086838  -0.0264288 -0.0379072 0.000759304  -0.0238559 -0.0416188 0.000625074  -0.0281038 -0.0421583 0.000727117  -0.0252711 -0.0461037 0.000600398  -0.0280941 -0.0420064 0.00148055  -0.0297113 -0.0464488 0.00141764  -0.0324911 -0.0426398 0.00169078  -0.0324973 -0.0427929 0.000828207  -0.0238448 -0.0414678 0.00126991  -0.0343181 -0.0471738 0.000797331  -0.0297218 -0.046593 0.000697911  -0.0266448 -0.0507898 0.000573575  -0.0312955 -0.0512405 0.000665843  -0.027981 -0.0556509 0.000548899  -0.0312809 -0.0511017 0.00135437  -0.0328023 -0.0559247 0.0012936  -0.0360723 -0.0516377 0.00154731  -0.0360838 -0.051776 0.000758767  -0.026628 -0.0506503 0.00116262  -0.0377898 -0.0565418 0.000728548  -0.0328166 -0.0560558 0.000637352  -0.0292804 -0.0606981 0.000522792  -0.0342977 -0.0610669 0.000606954  -0.0305446 -0.0659066 0.000499725  -0.0342793 -0.0609403 0.00123385  -0.0357125 -0.0661118 0.00117588  -0.0394297 -0.0613846 0.00140917  -0.0394447 -0.0615094 0.000691295  -0.0292602 -0.0605713 0.00105911  -0.0410434 -0.0666273 0.000662148  -0.0357289 -0.0662307 0.000579357  -0.0317731 -0.0712827 0.000475764  -0.0371217 -0.0715728 0.000551283  -0.03297 -0.076807 0.000453472  -0.0371039 -0.0714589 0.00112048  -0.0384533 -0.0769486 0.00106555  -0.0425788 -0.0718162 0.00127846  -0.0425949 -0.0719285 0.0006271  -0.0317518 -0.0711682 0.000961661  -0.0440935 -0.0773663 0.000599265  -0.0384704 -0.077055 0.000525951  -0.0341327 -0.0824833 0.000430822  -0.0397831 -0.0826998 0.000498891  -0.0352671 -0.0882941 0.000410199  -0.039764 -0.0825973 0.00101316  -0.0410355 -0.0883749 0.000961989  -0.0455332 -0.0828724 0.00115618  -0.0455465 -0.0829729 0.000567853  -0.0341126 -0.0823809 0.000870556  -0.0469536 -0.0887016 0.000541031  -0.0410527 -0.0884708 0.000473976  -0.0363694 -0.094242 0.000388801  -0.0422891 -0.0943881 0.000449181  -0.0374444 -0.100311 0.000368714  -0.0422709 -0.0942966 0.000913054  -0.0434682 -0.100334 0.000864655  -0.0483021 -0.0944936 0.0010412  -0.0483165 -0.0945824 0.000511169  -0.0363498 -0.0941502 0.000784367  -0.0496359 -0.100575 0.000486553  -0.0434847 -0.100419 0.000426173  -0.0384886 -0.106503 0.000350356  -0.0446496 -0.106584 0.000402868  -0.0395068 -0.112804 0.000331044  -0.0446318 -0.106502 0.000818878  -0.0457599 -0.112773 0.00077334  -0.0509 -0.106625 0.000933439  -0.0509127 -0.106704 0.000457108  -0.0384699 -0.106422 0.000704497  -0.052148 -0.112934 0.000433445  -0.0457758 -0.112848 0.000380635  -0.0404963 -0.119215 0.000311852  -0.046872 -0.119232 0.00035876  -0.0414609 -0.125722 0.000294387  -0.0468556 -0.11916 0.000729412  -0.0479168 -0.12564 0.000686973  -0.0533308 -0.119216 0.000831574  -0.0533447 -0.119285 0.000406623  -0.0404782 -0.119143 0.000627667  -0.0545003 -0.125724 0.000385523  -0.0479314 -0.125706 0.000338972  -0.0423967 -0.132327 0.000277877  -0.0489621 -0.132285 0.000318706  -0.0433097 -0.139015 0.000260949  -0.0489473 -0.132222 0.000647217  -0.0499455 -0.138886 0.000606984  -0.0556068 -0.132213 0.000736773  -0.0556196 -0.132273 0.00036037  -0.0423803 -0.132263 0.000557184  -0.0566988 -0.1389 0.000339985  -0.0499583 -0.138943 0.000299454  -0.0441961 -0.145789 0.000244915  -0.0509286 -0.145693 0.000280142  -0.0450594 -0.152637 0.000229895  -0.0509136 -0.14564 0.000569582  -0.051852 -0.152465 0.000531495  -0.0577328 -0.145572 0.00064674  -0.0577452 -0.145623 0.000315487  -0.0441802 -0.145735 0.000490755  -0.0587549 -0.152415 0.000296235  -0.0518639 -0.152513 0.000261724  -0.045898 -0.159559 0.000213921  -0.0527747 -0.159415 0.000243843  -0.0467148 -0.166545 0.000199378  -0.052762 -0.159369 0.000495642  -0.0536416 -0.166332 0.000460982  -0.0597177 -0.159245 0.000562906  -0.0597293 -0.159289 0.000274658  -0.0458839 -0.159513 0.000428498  -0.0606713 -0.166222 0.000256181  -0.0536535 -0.166373 0.000226676  -0.0475073 -0.173594 0.000185907  -0.0545084 -0.173403 0.000210047  -0.0482795 -0.180696 0.000172436  -0.0544958 -0.173365 0.000429094  -0.0553229 -0.180449 0.000395626  -0.0615709 -0.173192 0.000485927  -0.0615811 -0.173227 0.000235498  -0.0474939 -0.173554 0.000370592  -0.0624585 -0.180284 0.000219584  -0.0553315 -0.180483 0.000195026  -0.0490282 -0.187851 0.000159562  -0.0561337 -0.187622 0.000178397  -0.0497575 -0.195053 0.000147581  -0.0561228 -0.187588 0.000366002  -0.0568986 -0.194773 0.000335515  -0.0632975 -0.18737 0.000414163  -0.0633063 -0.1874 0.000200272  -0.049017 -0.18782 0.000316888  -0.0641222 -0.194559 0.000184417  -0.0569065 -0.1948 0.000165224  -0.0504663 -0.202299 0.000135541  -0.0576589 -0.20203 0.000150621  -0.0511551 -0.209581 0.000123739  -0.0576501 -0.202004 0.000308007  -0.0583756 -0.209272 0.000280142  -0.0649064 -0.201746 0.0003452  -0.0649102 -0.201767 0.000167668  -0.0504553 -0.202272 0.000268161  -0.0656726 -0.209013 0.000152588  -0.0583818 -0.209292 0.000136971  -0.0518236 -0.216897 0.000111759  -0.0590882 -0.216597 0.000123262  -0.0524755 -0.224245 0.00010252  -0.0590804 -0.216577 0.000254571  -0.0597613 -0.223911 0.00023073  -0.0664003 -0.216281 0.00028652  -0.0664067 -0.216298 0.000137866  -0.051815 -0.216878 0.000223041  -0.0671155 -0.223611 0.00012511  -0.0597677 -0.223926 0.000112236  -0.0531082 -0.231619 9.26256e-05  -0.0604291 -0.231289 0.000100195  -0.0537257 -0.239015 8.34465e-05  -0.0604222 -0.231273 0.000206977  -0.0610626 -0.238659 0.000184715  -0.0677938 -0.230946 0.000229567  -0.0677991 -0.230958 0.000109434  -0.0531015 -0.231604 0.000182539  -0.06846 -0.238326 9.86457e-05  -0.0610678 -0.23867 8.99434e-05  -0.0543249 -0.246431 7.45058e-05  -0.0616894 -0.246077 7.95722e-05  -0.0549092 -0.253866 6.55055e-05  -0.0616829 -0.246066 0.0001643  -0.0622849 -0.25349 0.000144482  -0.0690918 -0.245711 0.000181735  -0.0690956 -0.245718 8.38041e-05  -0.0543177 -0.246422 0.000145882  -0.0697117 -0.253127 7.51019e-05  -0.0622878 -0.253498 6.99162e-05  -0.0554771 -0.261311 5.84126e-05  -0.0628729 -0.260934 6.02603e-05  -0.0560329 -0.268769 5.11408e-05  -0.0628681 -0.260927 0.000126898  -0.0634353 -0.268378 0.000108272  -0.0703013 -0.260549 0.000138223  -0.0703063 -0.260553 6.28233e-05  -0.0554726 -0.261305 0.000112683  -0.070883 -0.26799 5.43594e-05  -0.0634389 -0.268381 5.24521e-05  -0.0565722 -0.276234 4.43459e-05  -0.0639915 -0.275839 4.27961e-05  -0.0571017 -0.283704 3.78489e-05  -0.0639861 -0.275836 9.22978e-05  -0.0645213 -0.283301 7.89165e-05  -0.0714362 -0.275435 9.96292e-05  -0.0714381 -0.275436 4.35114e-05  -0.0565672 -0.276231 8.49366e-05  -0.0719795 -0.28289 3.66569e-05  -0.0645247 -0.2833 3.66569e-05  -0.0576179 -0.291177 3.22461e-05  -0.0650475 -0.290768 2.90275e-05  -0.0581243 -0.298653 2.72989e-05  -0.0650456 -0.290768 6.50287e-05  -0.0655527 -0.298239 5.19753e-05  -0.0725014 -0.290351 6.69658e-05  -0.0725043 -0.290349 2.80738e-05  -0.0576143 -0.291178 6.23465e-05  -0.0730131 -0.297812 2.21133e-05  -0.0655549 -0.298236 2.39015e-05  -0.0586181 -0.306126 2.26498e-05  -0.0660527 -0.305705 1.87755e-05  -0.0591047 -0.313597 1.78814e-05  -0.0660515 -0.305707 4.22001e-05  -0.0665367 -0.313176 3.25143e-05  -0.0735061 -0.305279 4.12762e-05  -0.073509 -0.305274 1.52588e-05  -0.0586157 -0.306129 4.1604e-05  -0.0739937 -0.312738 9.29832e-06  -0.0665386 -0.313169 1.32918e-05  -0.0595806 -0.321063 1.52588e-05  -0.0670156 -0.320633 9.05991e-06  -0.0600514 -0.328524 1.19209e-05  -0.0670133 -0.320638 2.31266e-05  -0.0674813 -0.328098 1.66595e-05  -0.0744636 -0.3202 2.11e-05  -0.0744655 -0.320193 3.99351e-06  -0.0595789 -0.321068 2.63453e-05  -0.07493 -0.32765 6.55651e-07  -0.0674825 -0.328091 4.64916e-06  -0.0605135 -0.335977 1.10865e-05  -0.0679443 -0.335543 2.20537e-06  -0.0609732 -0.343425 6.55651e-06  -0.0679433 -0.335548 1.02818e-05  -0.0683975 -0.342996 6.22869e-06  -0.0753834 -0.335105 4.91738e-06  -0.0753849 -0.335095 -3.27826e-06  -0.0605125 -0.335984 1.51992e-05  -0.0758374 -0.342543 -5.84126e-06  -0.0683994 -0.342986 1.19209e-07  -0.061425 -0.350862 5.00679e-06  -0.0688505 -0.350423 -1.66893e-06  -0.0618746 -0.358292 3.45707e-06  -0.0688484 -0.35043 1.99676e-06  -0.0692947 -0.357862 -2.563e-06  -0.0762792 -0.349986 -5.36442e-06  -0.0762799 -0.349976 -8.82149e-06  -0.0614221 -0.350868 6.28829e-06  -0.0767255 -0.357411 -1.09673e-05  -0.0692961 -0.357853 -4.05312e-06  -0.0623202 -0.365712 2.44379e-06  -0.0697417 -0.365276 -5.90086e-06  -0.0627663 -0.37313 1.49012e-06  -0.0697401 -0.365284 -6.07967e-06  -0.0701857 -0.372706 -1.03414e-05  -0.0771656 -0.364842 -1.13547e-05  -0.0771675 -0.364835 -1.2517e-05  -0.0623188 -0.36572 -5.66244e-07  -0.0776098 -0.372257 -1.38283e-05  -0.0701849 -0.372696 -6.97374e-06  -0.000310089 -0.000644103 0.000118613  -0.000354789 -0.000995591 0.000151277  -0.00102862 -0.00174493 0.000249326  -0.000360291 -0.000950828 0.000337869  -0.00128795 -0.00236219 0.000633866  0 0 0  0 0 0  -0.000313479 -0.000604749 0.000269026  0 0 0  -0.00123468 -0.00240481 0.00031656  -0.00196099 -0.00329937 0.000336468  -0.00262836 -0.00412937 0.00042516  -0.00310558 -0.00519742 0.000412345  -0.00267154 -0.00402902 0.000892848  -0.00419512 -0.005907 0.00105998  -0.00197874 -0.00322092 0.000716448  -0.00413404 -0.00602065 0.000511527  -0.00433204 -0.0072522 0.00046134  -0.00568631 -0.00804897 0.000575244  -0.00558114 -0.00957312 0.000490129  -0.00573409 -0.00791116 0.00119388  -0.00731573 -0.0101737 0.00125772  -0.00436231 -0.00713316 0.000958323  -0.00726199 -0.0103208 0.000610232  -0.00683239 -0.0121151 0.000505865  -0.00879031 -0.0127931 0.000632644  -0.00804621 -0.0148876 0.000511765  -0.00882757 -0.0126356 0.0013015  -0.0103353 -0.0153584 0.00130615  -0.00685924 -0.0119676 0.00104472  -0.0102991 -0.0155209 0.000636876  -0.0092392 -0.0179161 0.000507116  -0.0117615 -0.018488 0.000633597  -0.0103911 -0.0211658 0.000501096  -0.0117829 -0.0183214 0.00129682  -0.0132036 -0.0215311 0.00127128  -0.00925612 -0.0177556 0.001041  -0.0131866 -0.0216966 0.000622928  -0.0115172 -0.0246661 0.000486493  -0.0145729 -0.0251491 0.000606  -0.0126092 -0.0283816 0.000473738  -0.0145784 -0.0249835 0.00123653  -0.0159187 -0.0286638 0.00119674  -0.0115218 -0.0245035 0.00099203  -0.0159177 -0.0288258 0.000588357  -0.0136768 -0.0323285 0.000456274  -0.0172278 -0.0327344 0.000566602  -0.0147169 -0.036482 0.000440836  -0.017222 -0.0325749 0.00115225  -0.01849 -0.0366968 0.00110823  -0.0136713 -0.0321712 0.000925034  -0.0184989 -0.0368501 0.000546753  -0.0157329 -0.0408476 0.00042218  -0.0197393 -0.0411827 0.000523567  -0.0167275 -0.0454078 0.000405908  -0.0197259 -0.0410335 0.00106111  -0.0209277 -0.0455638 0.00101665  -0.0157195 -0.0406991 0.000851274  -0.0209442 -0.0457063 0.000502527  -0.0176986 -0.0501611 0.000387669  -0.0221208 -0.0504302 0.000480592  -0.0186521 -0.055095 0.000371814  -0.0221024 -0.0502914 0.000971556  -0.0232459 -0.0551981 0.000928015  -0.0176815 -0.0500239 0.000779808  -0.0232652 -0.0553296 0.000459492  -0.0195848 -0.0602059 0.000354946  -0.0243837 -0.0604118 0.000438392  -0.0204993 -0.0654832 0.000339389  -0.0243629 -0.0602846 0.000885427  -0.0254524 -0.0655362 0.000844121  -0.0195646 -0.0600805 0.000710994  -0.0254731 -0.0656553 0.000418782  -0.0213953 -0.0709207 0.000324547  -0.0265385 -0.071066 0.000398934  -0.0222768 -0.0765108 0.000308871  -0.0265176 -0.0709507 0.000804543  -0.0275557 -0.0765161 0.000765175  -0.0213757 -0.0708062 0.000646085  -0.0275772 -0.0766235 0.000380635  -0.0231396 -0.0822452 0.000294745  -0.0285937 -0.082333 0.000362217  -0.0239887 -0.0881183 0.000280797  -0.0285718 -0.0822289 0.000728548  -0.029563 -0.0880786 0.000691503  -0.0231199 -0.0821425 0.000585914  -0.0295839 -0.0881746 0.000344932  -0.0248202 -0.0941225 0.000267267  -0.0305541 -0.0941539 0.000327528  -0.0256381 -0.100251 0.000253737  -0.0305327 -0.0940609 0.000657439  -0.0314797 -0.100167 0.000622511  -0.0248005 -0.0940299 0.000529289  -0.0314996 -0.100253 0.000311255  -0.0264399 -0.106496 0.000241637  -0.0324258 -0.106475 0.00029552  -0.027228 -0.112852 0.000229836  -0.0324062 -0.106392 0.000590086  -0.0333091 -0.112728 0.000558019  -0.0264211 -0.106414 0.000475675  -0.033329 -0.112804 0.000279367  -0.0280013 -0.119313 0.000217259  -0.0342131 -0.119242 0.00026387  -0.0287615 -0.125871 0.000205576  -0.034194 -0.119169 0.000527442  -0.0350573 -0.125708 0.000497252  -0.0279834 -0.119239 0.000425756  -0.0350742 -0.125775 0.000249684  -0.0295069 -0.132522 0.000194788  -0.0359185 -0.132405 0.0002352  -0.0302402 -0.139258 0.00018388  -0.0359013 -0.132341 0.000468761  -0.0367244 -0.13906 0.000439972  -0.0294907 -0.132458 0.000379354  -0.0367397 -0.139118 0.00022155  -0.0309577 -0.146075 0.000173569  -0.037545 -0.145916 0.000209332  -0.0316641 -0.152968 0.000162661  -0.0375295 -0.145861 0.000414222  -0.0383141 -0.152737 0.000387043  -0.0309429 -0.14602 0.000335753  -0.0383296 -0.152787 0.00019592  -0.032356 -0.159929 0.000153244  -0.0390968 -0.159731 0.000183165  -0.0330365 -0.166955 0.000144362  -0.0390835 -0.159682 0.000361919  -0.0398314 -0.166694 0.000337392  -0.032342 -0.159882 0.000294507  -0.0398457 -0.166738 0.000170827  -0.0337014 -0.174041 0.00013572  -0.0405779 -0.173806 0.000159919  -0.0343566 -0.18118 0.000126719  -0.0405653 -0.173766 0.000313878  -0.0412788 -0.180893 0.000291079  -0.0336895 -0.174001 0.000257164  -0.04129 -0.180927 0.000149012  -0.0349977 -0.188369 0.000118375  -0.0419877 -0.188101 0.000138164  -0.0356269 -0.195603 0.00011003  -0.0419767 -0.188068 0.000270575  -0.0426569 -0.195292 0.000248611  -0.034986 -0.188336 0.000222445  -0.0426676 -0.19532 0.000127971  -0.0362449 -0.202878 0.000103235  -0.0433326 -0.202582 0.00011766  -0.0368521 -0.210189 9.4533e-05  -0.0433233 -0.202554 0.000229955  -0.0439715 -0.209856 0.000210404  -0.0362349 -0.202851 0.000189453  -0.0439801 -0.209877 0.000109613  -0.037446 -0.217533 8.84533e-05  -0.044615 -0.21721 0.000100493  -0.0380306 -0.224906 8.13603e-05  -0.0446055 -0.217189 0.000192106  -0.0452244 -0.224554 0.00017494  -0.0374377 -0.217512 0.000160515  -0.0452325 -0.22457 9.04799e-05  -0.0386031 -0.232302 7.65324e-05  -0.0458379 -0.231958 8.32081e-05  -0.039166 -0.239723 6.97374e-05  -0.0458302 -0.231942 0.000157923  -0.0464208 -0.239354 0.000142038  -0.0385957 -0.232288 0.000133544  -0.0464263 -0.239366 7.52807e-05  -0.0397174 -0.247158 6.33597e-05  -0.0470059 -0.246794 6.85453e-05  -0.0402598 -0.25461 5.81145e-05  -0.046998 -0.246781 0.000128299  -0.0475619 -0.254228 0.00011462  -0.039712 -0.247148 0.000109732  -0.047569 -0.254235 6.17504e-05  -0.0407927 -0.262074 5.26905e-05  -0.0481212 -0.261692 5.48959e-05  -0.0413167 -0.269548 4.78625e-05  -0.048115 -0.261684 0.000101715  -0.0486553 -0.269153 8.90195e-05  -0.0407867 -0.262068 8.86321e-05  -0.0486612 -0.269156 4.91142e-05  -0.0418305 -0.277027 4.36902e-05  -0.04919 -0.27663 4.34518e-05  -0.0423386 -0.284511 4.06504e-05  -0.049185 -0.276626 7.85887e-05  -0.0497043 -0.284108 6.75321e-05  -0.0418265 -0.277024 7.09891e-05  -0.0497069 -0.284107 3.77893e-05  -0.0428352 -0.291996 3.59416e-05  -0.0502172 -0.291587 3.44515e-05  -0.043329 -0.299483 3.3319e-05  -0.0502133 -0.291587 5.83827e-05  -0.0507135 -0.29907 4.97997e-05  -0.0428324 -0.291995 5.48959e-05  -0.0507164 -0.299067 2.96831e-05  -0.0438108 -0.306964 3.0458e-05  -0.0512078 -0.306546 2.56896e-05  -0.0442901 -0.314443 2.77758e-05  -0.0512044 -0.306548 4.30942e-05  -0.0516877 -0.314027 3.47793e-05  -0.0438085 -0.306966 4.25875e-05  -0.0516894 -0.31402 2.22325e-05  -0.0447621 -0.321917 2.51532e-05  -0.0521653 -0.321491 2.08616e-05  -0.0452294 -0.329384 2.31266e-05  -0.0521629 -0.321495 2.99215e-05  -0.0526326 -0.328963 2.49743e-05  -0.0447595 -0.321921 3.21865e-05  -0.0526338 -0.328955 1.65701e-05  -0.0456893 -0.33684 2.2471e-05  -0.053098 -0.336412 1.43647e-05  -0.0461471 -0.344293 2.04444e-05  -0.0530958 -0.336417 2.05338e-05  -0.0535541 -0.343868 1.64211e-05  -0.0456877 -0.336847 2.49147e-05  -0.053555 -0.343859 1.2219e-05  -0.0465972 -0.351732 2.02656e-05  -0.054008 -0.351298 1.15037e-05  -0.0470486 -0.359163 1.84178e-05  -0.0540056 -0.351305 1.41561e-05  -0.054456 -0.358737 1.14739e-05  -0.046597 -0.351739 2.00272e-05  -0.0544574 -0.358728 1.14441e-05  -0.0474944 -0.366581 1.84178e-05  -0.0549045 -0.366148 8.76188e-06  -0.0479414 -0.373992 1.5378e-05  -0.0549028 -0.366155 8.61287e-06  -0.0553505 -0.373572 4.61936e-06  -0.0474932 -0.366589 1.5527e-05  -0.0553508 -0.373562 9.89437e-06  -0.00014158 -0.00025028 5.65648e-05  -0.000188824 -0.000408918 9.26256e-05  -0.000461712 -0.00102717 0.000126421  -0.000192486 -0.000380099 0.000207961  -0.00065998 -0.00124231 0.000384569  0 0 0  0 0 0  -0.00014377 -0.000224233 0.00013271  0 0 0  -0.000619344 -0.00128344 0.000191569  -0.000866711 -0.00240293 0.000165105  -0.00133014 -0.0027822 0.00025326  -0.0014044 -0.00415918 0.000209451  -0.00135314 -0.00270501 0.000547171  -0.00218584 -0.00447994 0.000643164  -0.000880525 -0.00234291 0.000358075  -0.00212723 -0.00456515 0.000315607  -0.00198317 -0.00623643 0.000229955  -0.00306618 -0.00665739 0.000348806  -0.00259835 -0.00860649 0.000248432  -0.00310081 -0.00654092 0.000730366  -0.00404814 -0.008876 0.000766367  -0.00200298 -0.00613758 0.000483781  -0.0040018 -0.00900033 0.000372112  -0.00322461 -0.0112241 0.000255823  -0.00495511 -0.0115875 0.000383854  -0.00384602 -0.0140866 0.00026089  -0.00498462 -0.0114453 0.000792265  -0.00591326 -0.0142663 0.000794798  -0.00324234 -0.0110937 0.000528812  -0.00588548 -0.0144131 0.000388026  -0.00446302 -0.0171891 0.000258565  -0.00679547 -0.0174791 0.000384808  -0.00506628 -0.0205195 0.000256598  -0.00681108 -0.017324 0.00078693  -0.00769311 -0.0206213 0.000771999  -0.00447267 -0.0170403 0.000528127  -0.00768209 -0.0207771 0.00037998  -0.00566256 -0.0240829 0.000250041  -0.00854522 -0.0243089 0.000369608  -0.00624841 -0.0278652 0.000244319  -0.00854808 -0.0241502 0.00074935  -0.00938743 -0.0279078 0.000726104  -0.00566369 -0.0239283 0.000504285  -0.00938874 -0.0280634 0.000359356  -0.00682807 -0.0318676 0.0002352  -0.010214 -0.0320393 0.000345945  -0.00740176 -0.0360795 0.000227928  -0.0102072 -0.0318845 0.000698298  -0.0110124 -0.0360759 0.000671774  -0.00682205 -0.0317148 0.000469983  -0.0110227 -0.0362256 0.000333846  -0.00797004 -0.0404963 0.000219226  -0.0118167 -0.0406188 0.000320435  -0.00853652 -0.0451101 0.000211179  -0.0118035 -0.0404712 0.000643313  -0.0125822 -0.0450678 0.000616282  -0.00795919 -0.0403507 0.000433147  -0.0125976 -0.0452081 0.000307739  -0.00909865 -0.0499125 0.000202477  -0.0133663 -0.0499893 0.000295043  -0.00966072 -0.0548974 0.000194728  -0.0133499 -0.0498517 0.000589013  -0.014106 -0.0548207 0.000563532  -0.00908446 -0.0497764 0.000397384  -0.0141234 -0.0549507 0.000282466  -0.0102197 -0.0600562 0.000187099  -0.0148717 -0.0600885 0.000270426  -0.0107784 -0.0653823 0.000179648  -0.0148528 -0.0599611 0.000537455  -0.0155892 -0.0652721 0.000512958  -0.0102042 -0.0599304 0.00036335  -0.0156081 -0.0653916 0.000258625  -0.0113348 -0.0708666 0.000172853  -0.0163368 -0.0708552 0.000247419  -0.0118921 -0.0765036 0.000165045  -0.0163183 -0.0707392 0.000489712  -0.0170358 -0.0763616 0.0004659  -0.0113189 -0.0707518 0.000331074  -0.0170552 -0.0764698 0.000236809  -0.0124463 -0.082283 0.000158787  -0.0177658 -0.0822299 0.000225961  -0.0130031 -0.0882014 0.000151515  -0.0177473 -0.082125 0.000444591  -0.0184493 -0.0880292 0.000422478  -0.0124313 -0.0821792 0.000301689  -0.0184677 -0.0881259 0.00021565  -0.0135558 -0.0942486 0.000145316  -0.0191619 -0.0941546 0.000205576  -0.0141089 -0.100419 0.000139177  -0.0191439 -0.0940603 0.000401944  -0.0198296 -0.100218 0.000381857  -0.01354 -0.0941547 0.000273675  -0.0198472 -0.100305 0.000196099  -0.0146604 -0.106705 0.000133932  -0.0205253 -0.106574 0.000186682  -0.0152112 -0.113102 0.000127852  -0.0205092 -0.10649 0.000362426  -0.0211782 -0.112873 0.000343233  -0.0146461 -0.106622 0.000247896  -0.0211952 -0.11295 0.000177443  -0.015761 -0.119601 0.000122607  -0.0218573 -0.119432 0.000170231  -0.0163089 -0.126198 0.000116646  -0.0218424 -0.119358 0.000326067  -0.0224965 -0.125944 0.000307798  -0.0157471 -0.119527 0.000223547  -0.0225117 -0.126011 0.000160277  -0.0168543 -0.132884 0.000111639  -0.0231596 -0.132681 0.000152946  -0.0173992 -0.139657 0.000106931  -0.023144 -0.132616 0.000290185  -0.0237836 -0.139378 0.000274003  -0.0168421 -0.13282 0.000201434  -0.0237964 -0.139437 0.000144541  -0.017941 -0.146507 0.000102997  -0.0244286 -0.146273 0.000137925  -0.0184822 -0.153433 9.70364e-05  -0.0244162 -0.146216 0.000258505  -0.0250394 -0.153131 0.000242501  -0.0179296 -0.146451 0.000180244  -0.0250514 -0.153182 0.000129938  -0.0190182 -0.160424 9.32813e-05  -0.0256686 -0.160161 0.000123143  -0.0195541 -0.16748 8.87513e-05  -0.025656 -0.160112 0.00022921  -0.0262644 -0.167161 0.000213116  -0.0190079 -0.160376 0.000160992  -0.0262759 -0.167202 0.000115812  -0.0200856 -0.174594 8.59499e-05  -0.0268767 -0.174303 0.000109553  -0.0206168 -0.181761 8.07643e-05  -0.0268652 -0.174261 0.000200719  -0.0274584 -0.181422 0.000186384  -0.0200775 -0.174553 0.000142574  -0.0274692 -0.181457 0.000102818  -0.0211427 -0.188975 7.6592e-05  -0.0280538 -0.18866 9.66191e-05  -0.0216658 -0.196233 7.34329e-05  -0.0280447 -0.188627 0.000174224  -0.0286219 -0.195879 0.000162244  -0.0211337 -0.18894 0.000126034  -0.0286312 -0.195907 9.05395e-05  -0.0221837 -0.203529 7.08699e-05  -0.0292006 -0.203194 8.57115e-05  -0.0227017 -0.210864 6.71148e-05  -0.0291929 -0.203166 0.000150114  -0.0297539 -0.210495 0.000139415  -0.022177 -0.203502 0.000111163  -0.0297618 -0.210518 7.99298e-05  -0.0232134 -0.218227 6.34193e-05  -0.0303171 -0.217872 7.53999e-05  -0.0237222 -0.22562 6.04987e-05  -0.0303087 -0.21785 0.000129431  -0.0308564 -0.225238 0.000118792  -0.0232081 -0.218205 9.80794e-05  -0.0308633 -0.225255 6.96182e-05  -0.0242274 -0.233033 5.79953e-05  -0.0314031 -0.232662 6.52075e-05  -0.0247293 -0.240469 5.44786e-05  -0.0313983 -0.232644 0.000109464  -0.0319302 -0.240077 0.000100285  -0.0242214 -0.233017 8.43108e-05  -0.0319355 -0.240089 6.02007e-05  -0.0252261 -0.24792 5.28097e-05  -0.0324631 -0.247535 5.72801e-05  -0.0257208 -0.255387 4.94719e-05  -0.0324569 -0.247523 9.26256e-05  -0.0329754 -0.254986 8.37743e-05  -0.0252211 -0.247908 7.38204e-05  -0.0329812 -0.254995 5.34654e-05  -0.0262094 -0.262863 4.82202e-05  -0.033493 -0.262466 4.95315e-05  -0.026696 -0.270349 4.59552e-05  -0.0334873 -0.262457 7.74562e-05  -0.033993 -0.269941 6.99162e-05  -0.0262051 -0.262856 6.27339e-05  -0.0339963 -0.269945 4.74453e-05  -0.0271764 -0.277838 4.37498e-05  -0.0344961 -0.27743 4.44651e-05  -0.0276556 -0.285333 4.29749e-05  -0.034493 -0.277426 6.38068e-05  -0.0349855 -0.284919 5.78761e-05  -0.0271733 -0.277834 5.54025e-05  -0.0349894 -0.28492 4.03523e-05  -0.0281296 -0.292826 4.08292e-05  -0.0354767 -0.292409 3.74913e-05  -0.0286002 -0.300318 3.91006e-05  -0.035475 -0.292408 5.17368e-05  -0.0359557 -0.299901 4.74751e-05  -0.0281265 -0.292825 4.82798e-05  -0.0359588 -0.299898 3.51667e-05  -0.029067 -0.307808 3.85642e-05  -0.0364354 -0.307385 3.37958e-05  -0.0295312 -0.315294 3.69549e-05  -0.0364318 -0.307386 4.33326e-05  -0.0369039 -0.314873 3.94583e-05  -0.0290656 -0.307809 4.31538e-05  -0.0369046 -0.314867 3.09944e-05  -0.0299909 -0.322771 3.73125e-05  -0.0373716 -0.322344 3.00407e-05  -0.0304487 -0.330243 3.55244e-05  -0.0373704 -0.322347 3.6031e-05  -0.0378335 -0.329821 3.36468e-05  -0.0299897 -0.322776 3.83258e-05  -0.0378344 -0.329814 2.90871e-05  -0.0309029 -0.337705 3.49879e-05  -0.0382922 -0.337273 2.71201e-05  -0.0313556 -0.34516 3.46303e-05  -0.0382926 -0.337279 3.03686e-05  -0.0387454 -0.344734 2.86996e-05  -0.0309012 -0.337711 3.52561e-05  -0.0387478 -0.344726 2.74777e-05  -0.0318043 -0.3526 3.26633e-05  -0.0391986 -0.352166 2.58088e-05  -0.0322504 -0.360033 3.27826e-05  -0.0391974 -0.352173 2.62856e-05  -0.0396452 -0.359607 2.46167e-05  -0.0318015 -0.352608 3.26633e-05  -0.0396461 -0.359598 2.51532e-05  -0.0326936 -0.367449 3.19481e-05  -0.0400934 -0.367015 2.34246e-05  -0.0331376 -0.374854 3.17097e-05  -0.040092 -0.367021 2.33054e-05  -0.0405378 -0.374432 2.15769e-05  -0.0326939 -0.367456 2.94149e-05  -0.0405385 -0.374425 2.31266e-05  -3.4906e-06 -0.00014174 -8.46386e-06  -5.40428e-05 -0.000172436 3.15309e-05  -9.09716e-06 -0.00085324 -6.55651e-07  -5.6576e-05 -0.000152558 7.14064e-05  -0.000189066 -0.000831336 0.000122547  0 0 0  0 0 0  -5.30854e-06 -0.000124216 -8.9407e-06  0 0 0  -0.000155769 -0.000868529 6.634e-05  3.16948e-05 -0.00218576 -1.20997e-05  -0.000369862 -0.00223863 8.08835e-05  5.07534e-05 -0.00388196 -1.90735e-06  -0.000382587 -0.00217617 0.000180751  -0.000630453 -0.00384927 0.000210404  2.54661e-05 -0.0021309 -1.17421e-05  -0.000588104 -0.00392362 0.00010705  8.28207e-05 -0.00598258 -6.49691e-06  -0.00089711 -0.00603196 0.000113785  9.83179e-05 -0.00835615 -1.78814e-07  -0.000914097 -0.00592932 0.000244975  -0.00122184 -0.00828123 0.000258029  7.78735e-05 -0.00588807 -4.26173e-06  -0.00119293 -0.00839236 0.000126243  9.92119e-05 -0.0110165 1.37091e-06  -0.00152236 -0.011039 0.000130057  9.0003e-05 -0.0139143 5.54323e-06  -0.00153616 -0.0109085 0.000269502  -0.00185877 -0.0137864 0.000273108  9.64403e-05 -0.0108907 3.9041e-06  -0.00184414 -0.0139233 0.000134647  6.32405e-05 -0.0170569 8.22544e-06  -0.00217265 -0.0170489 0.000133693  2.46763e-05 -0.0204285 1.0848e-05  -0.00217927 -0.0169016 0.000270844  -0.00250316 -0.0202566 0.000267774  6.33597e-05 -0.0169133 1.08182e-05  -0.0025003 -0.0204054 0.00013411  -2.99215e-05 -0.0240268 1.18017e-05  -0.002828 -0.0239884 0.000130594  -9.97186e-05 -0.0278471 1.38879e-05  -0.00282717 -0.0238347 0.000259757  -0.00315505 -0.027643 0.00025323  -2.7597e-05 -0.0238757 1.39177e-05  -0.00315922 -0.0277949 0.000128746  -0.000185251 -0.0318817 1.4782e-05  -0.00349206 -0.0318153 0.000124276  -0.000287354 -0.0361287 1.5676e-05  -0.00348598 -0.0316632 0.000243127  -0.00382179 -0.0359004 0.000234872  -0.00017935 -0.0317316 1.53482e-05  -0.00383109 -0.0360484 0.000121951  -0.000404239 -0.0405758 1.67489e-05  -0.00417489 -0.0404826 0.000117481  -0.000538945 -0.0452231 1.69277e-05  -0.00416481 -0.0403363 0.000225097  -0.00451291 -0.0449755 0.000216156  -0.000396609 -0.0404312 1.5527e-05  -0.00452465 -0.0451147 0.000113547  -0.000688672 -0.0500556 1.80602e-05  -0.00488138 -0.0499351 0.000110149  -0.000855923 -0.0550736 1.90139e-05  -0.00486946 -0.0497978 0.000207245  -0.00523257 -0.0548092 0.000198752  -0.000680208 -0.0499196 1.60038e-05  -0.00524557 -0.0549385 0.000105619  -0.00103807 -0.0602621 1.97291e-05  -0.00561714 -0.0601149 0.00010258  -0.0012368 -0.0656207 1.99676e-05  -0.00560415 -0.0599882 0.00018993  -0.00598204 -0.0653401 0.000181794  -0.00102866 -0.0601361 1.63019e-05  -0.00599611 -0.0654592 9.91821e-05  -0.0014497 -0.0711349 2.12789e-05  -0.00638127 -0.0709605 9.62615e-05  -0.00167894 -0.0768037 2.19345e-05  -0.00636816 -0.070844 0.000174642  -0.00676 -0.0765068 0.000166804  -0.00143981 -0.0710196 1.66893e-05  -0.00677276 -0.0766139 9.24468e-05  -0.00192106 -0.0826126 2.28882e-05  -0.0071727 -0.0824113 8.97646e-05  -0.0021795 -0.0885621 2.2769e-05  -0.00716078 -0.082306 0.00015986  -0.00756657 -0.0882492 0.000152349  -0.00191188 -0.0825081 1.74344e-05  -0.00757885 -0.0883464 8.66055e-05  -0.00244951 -0.0946366 2.42591e-05  -0.00799215 -0.09441 8.41618e-05  -0.0027343 -0.100837 2.49147e-05  -0.00797987 -0.0943145 0.000146955  -0.00839829 -0.100509 0.000139862  -0.00244129 -0.094543 1.84774e-05  -0.00841069 -0.100597 8.09431e-05  -0.00303066 -0.10715 2.64645e-05  -0.00883567 -0.106899 7.92146e-05  -0.00333977 -0.113575 2.65837e-05  -0.00882459 -0.106813 0.000134319  -0.00925398 -0.113233 0.000128001  -0.00302243 -0.107067 1.97291e-05  -0.00926518 -0.11331 7.66516e-05  -0.00366044 -0.1201 2.82526e-05  -0.00970089 -0.119824 7.46846e-05  -0.00399268 -0.126724 2.80142e-05  -0.00969076 -0.119749 0.00012362  -0.0101314 -0.126367 0.00011754  -0.00365257 -0.120026 2.12491e-05  -0.0101421 -0.126435 7.21812e-05  -0.00433445 -0.133433 2.93255e-05  -0.0105857 -0.133135 7.07507e-05  -0.00468683 -0.140231 2.91467e-05  -0.0105766 -0.133069 0.00011307  -0.0110248 -0.139862 0.000107765  -0.00432825 -0.133368 2.37226e-05  -0.0110338 -0.139921 6.80089e-05  -0.00504732 -0.147102 3.15309e-05  -0.0114863 -0.146784 6.65784e-05  -0.00541854 -0.15405 3.16501e-05  -0.0114775 -0.146726 0.000103682  -0.0119333 -0.153671 9.83179e-05  -0.00504208 -0.147046 2.50638e-05  -0.0119419 -0.153722 6.4075e-05  -0.00579691 -0.161063 3.25441e-05  -0.0124006 -0.160726 6.31213e-05  -0.0061841 -0.16814 3.41535e-05  -0.012393 -0.160677 9.44138e-05  -0.0128543 -0.16775 9.03904e-05  -0.0057919 -0.161015 2.63155e-05  -0.0128624 -0.167793 6.01411e-05  -0.0065763 -0.175271 3.42131e-05  -0.0133255 -0.174917 5.91874e-05  -0.00697827 -0.182456 3.47495e-05  -0.0133185 -0.174874 8.64863e-05  -0.0137837 -0.182057 8.24034e-05  -0.00657272 -0.175229 2.76268e-05  -0.0137908 -0.182094 5.6684e-05  -0.00738382 -0.189685 3.54648e-05  -0.0142577 -0.189317 5.54323e-05  -0.00779653 -0.196962 3.66569e-05  -0.0142515 -0.189282 7.89165e-05  -0.01472 -0.196556 7.52211e-05  -0.00738001 -0.189652 3.00109e-05  -0.014725 -0.196586 5.28693e-05  -0.00821352 -0.204273 3.65973e-05  -0.0151937 -0.20389 5.36442e-05  -0.008636 -0.211621 3.69549e-05  -0.0151896 -0.203861 7.20322e-05  -0.0156589 -0.211207 6.85155e-05  -0.00821018 -0.204245 3.1352e-05  -0.0156631 -0.211231 5.05447e-05  -0.00906062 -0.218997 3.86238e-05  -0.0161328 -0.218602 5.07236e-05  -0.00949144 -0.226402 3.95179e-05  -0.0161281 -0.218579 6.60419e-05  -0.0165987 -0.225983 6.27637e-05  -0.00905919 -0.218974 3.3617e-05  -0.016602 -0.226001 4.91738e-05  -0.00992322 -0.233826 4.08292e-05  -0.0170729 -0.233423 4.78625e-05  -0.010361 -0.241272 4.071e-05  -0.0170689 -0.233405 6.01709e-05  -0.0175378 -0.240851 5.82635e-05  -0.00992322 -0.233809 3.6031e-05  -0.0175419 -0.240864 4.66108e-05  -0.0107985 -0.248732 4.16636e-05  -0.0180087 -0.24832 4.69685e-05  -0.0112407 -0.256209 4.27365e-05  -0.0180056 -0.248306 5.6535e-05  -0.0184736 -0.255784 5.3674e-05  -0.0107982 -0.24872 3.73125e-05  -0.0184777 -0.255792 4.48227e-05  -0.0116835 -0.263691 4.34518e-05  -0.0189435 -0.263272 4.52995e-05  -0.0121264 -0.271184 4.22001e-05  -0.0189404 -0.263263 5.16176e-05  -0.0194056 -0.270757 4.98891e-05  -0.0116811 -0.263683 3.9041e-05  -0.0194087 -0.270761 4.39882e-05  -0.0125706 -0.27868 4.42863e-05  -0.0198712 -0.278256 4.29153e-05  -0.0130169 -0.286181 4.38094e-05  -0.0198703 -0.27825 4.89056e-05  -0.0203328 -0.285752 4.67896e-05  -0.0125699 -0.278675 3.97861e-05  -0.0203338 -0.285752 4.23193e-05  -0.0134628 -0.293677 4.47035e-05  -0.0207944 -0.293249 4.24385e-05  -0.0139101 -0.301176 4.49419e-05  -0.020793 -0.293246 4.6134e-05  -0.0212512 -0.300747 4.40478e-05  -0.0134628 -0.293677 4.1157e-05  -0.0212538 -0.300745 4.14848e-05  -0.0143557 -0.308668 4.47631e-05  -0.0217094 -0.308236 4.071e-05  -0.0148022 -0.316158 4.54783e-05  -0.0217094 -0.308238 4.31836e-05  -0.0221648 -0.315728 4.20809e-05  -0.0143564 -0.30867 4.3273e-05  -0.0221643 -0.315724 4.06504e-05  -0.0152476 -0.323638 4.72665e-05  -0.0226183 -0.323204 4.05908e-05  -0.0156958 -0.331113 4.6134e-05  -0.0226181 -0.323208 4.18127e-05  -0.0230713 -0.330684 4.12762e-05  -0.0152488 -0.323642 4.52697e-05  -0.0230701 -0.330676 4.18425e-05  -0.0161376 -0.338576 4.86374e-05  -0.0235195 -0.338141 4.05312e-05  -0.0165827 -0.346032 4.68493e-05  -0.0235193 -0.338145 4.11868e-05  -0.0239673 -0.345603 4.1008e-05  -0.016139 -0.338582 4.58062e-05  -0.0239682 -0.345595 3.93391e-05  -0.0170255 -0.353474 4.78625e-05  -0.0244145 -0.353037 4.01139e-05  -0.0174685 -0.360906 4.81606e-05  -0.0244129 -0.353043 3.97265e-05  -0.0248578 -0.360477 3.98159e-05  -0.0170252 -0.35348 4.6432e-05  -0.0248597 -0.360469 3.99351e-05  -0.0179086 -0.368322 4.82798e-05  -0.0253007 -0.367885 3.89814e-05  -0.0183494 -0.375727 4.85778e-05  -0.0253026 -0.36789 3.96073e-05  -0.0257425 -0.375299 3.93093e-05  -0.0179086 -0.368329 4.75347e-05  -0.0257447 -0.37529 3.94583e-05  0.000131734 -0.000278294 -7.35521e-05  7.61077e-05 -0.000187397 -3.14116e-05  0.000435367 -0.00111389 -0.000127316  7.52583e-05 -0.000172496 -6.77705e-05  0.000248402 -0.000877559 -0.000143647  0 0 0  0 0 0  0.000131428 -0.000263631 -0.000148594  0 0 0  0.000277266 -0.00091356 -6.02007e-05  0.000928357 -0.00255722 -0.000187695  0.000510439 -0.00230825 -9.39965e-05  0.00150797 -0.00428712 -0.000211537  0.000508368 -0.00224823 -0.000191122  0.000808805 -0.00391954 -0.000227958  0.000930697 -0.00249493 -0.000377595  0.000829458 -0.00399435 -0.000104368  0.00213894 -0.00643837 -0.000240862  0.0011315 -0.00612926 -0.000121832  0.00278437 -0.00880975 -0.000246227  0.00113261 -0.00602978 -0.000247806  0.00145331 -0.0083878 -0.000255585  0.00214925 -0.00633502 -0.000488847  0.00145856 -0.00849771 -0.000121832  0.00340715 -0.0114835 -0.000251353  0.00175956 -0.0111684 -0.000125408  0.00400847 -0.0143805 -0.000247717  0.00176316 -0.0110395 -0.000258535  0.00205058 -0.0139371 -0.000252247  0.00341928 -0.0113525 -0.000517398  0.00204819 -0.0140717 -0.000120282  0.00456887 -0.0175258 -0.000241578  0.00231308 -0.0172173 -0.000118077  0.00509381 -0.0209018 -0.000234425  0.00231725 -0.0170715 -0.000247866  0.00255674 -0.0204506 -0.000237852  0.00457907 -0.0173796 -0.000503838  0.0025512 -0.0205976 -0.000112236  0.00557792 -0.0245034 -0.000224531  0.00276619 -0.0241989 -0.000107586  0.00602275 -0.0283325 -0.000215828  0.00277114 -0.0240471 -0.000230253  0.00295871 -0.0278786 -0.00022009  0.00558549 -0.0243512 -0.00047338  0.00295234 -0.0280284 -0.000101388  0.00642997 -0.0323731 -0.000204861  0.00311357 -0.0320686 -9.63211e-05  0.00679797 -0.0366324 -0.000196278  0.00311923 -0.0319173 -0.000210911  0.0032537 -0.0361782 -0.000201374  0.00643551 -0.0322231 -0.000437498  0.00324684 -0.0363248 -9.12547e-05  0.00713128 -0.0410891 -0.000185132  0.00335532 -0.0407791 -8.5175e-05  0.00742686 -0.0457509 -0.000176191  0.00336117 -0.0406335 -0.000192136  0.00344348 -0.0452965 -0.000183403  0.00713581 -0.0409452 -0.000400484  0.00343633 -0.0454357 -8.01682e-05  0.0076896 -0.0505961 -0.000166357  0.00349271 -0.0502765 -7.48038e-05  0.00791645 -0.0556297 -0.000157297  0.00349903 -0.0501397 -0.000174016  0.0035305 -0.0551751 -0.000165671  0.00769377 -0.0504602 -0.00036484  0.00352323 -0.0553042 -6.98566e-05  0.008111 -0.0608315 -0.00014776  0.00352979 -0.0605023 -6.51479e-05  0.00827253 -0.0662065 -0.000139356  0.00353611 -0.060375 -0.000156671  0.00351822 -0.0657516 -0.000148743  0.00811505 -0.060706 -0.000330478  0.00351143 -0.0658696 -6.10948e-05  0.00840425 -0.0717348 -0.00012964  0.00347018 -0.0713938 -5.52535e-05  0.0085026 -0.0774205 -0.000121772  0.00347638 -0.0712774 -0.000139594  0.00341272 -0.0769638 -0.00013271  0.00840735 -0.0716202 -0.000297129  0.00340629 -0.0770715 -5.07236e-05  0.00857341 -0.0832441 -0.000112951  0.00331986 -0.0828913 -4.65512e-05  0.00861371 -0.0892099 -0.000105858  0.00332606 -0.082785 -0.000123531  0.00321794 -0.0887522 -0.00011605  0.00857639 -0.0831409 -0.000266403  0.00321233 -0.0888496 -4.20809e-05  0.00862694 -0.0952989 -9.70364e-05  0.00308299 -0.0949339 -3.76701e-05  0.00861156 -0.101517 -8.95858e-05  0.00308836 -0.0948392 -0.0001086  0.00293863 -0.101057 -0.000100672  0.00862896 -0.0952057 -0.000236511  0.00293362 -0.101144 -3.34978e-05  0.00857186 -0.107843 -8.13007e-05  0.00276446 -0.107467 -2.86102e-05  0.00850439 -0.114285 -7.48634e-05  0.00276923 -0.107381 -9.33707e-05  0.00258183 -0.113822 -8.64565e-05  0.00857294 -0.10776 -0.000208437  0.00257778 -0.1139 -2.48551e-05  0.00841379 -0.120822 -6.64592e-05  0.00237083 -0.120434 -2.03848e-05  0.0082984 -0.127459 -6.03795e-05  0.00237525 -0.120357 -7.94232e-05  0.00215256 -0.126996 -7.23898e-05  0.00841546 -0.120747 -0.000180095  0.00214887 -0.127065 -1.65105e-05  0.00816238 -0.134182 -5.30481e-05  0.00190878 -0.133783 -1.22786e-05  0.00800228 -0.140992 -4.68493e-05  0.00191247 -0.133716 -6.49989e-05  0.00165677 -0.140528 -5.89192e-05  0.00816369 -0.134117 -0.000154972  0.00165319 -0.140588 -9.41753e-06  0.00782275 -0.147876 -4.01139e-05  0.0013833 -0.147468 -4.88758e-06  0.0076232 -0.154835 -3.42131e-05  0.00138569 -0.14741 -5.22137e-05  0.0011003 -0.154371 -4.68493e-05  0.00782442 -0.147819 -0.000130296  0.00109792 -0.154422 -2.74181e-06  0.00740457 -0.161858 -2.7597e-05  0.000799417 -0.161441 1.90735e-06  0.00716758 -0.168944 -2.22325e-05  0.000801325 -0.161391 -3.97563e-05  0.000490427 -0.168481 -3.43323e-05  0.00740504 -0.161808 -0.00010702  0.000487566 -0.168524 4.88758e-06  0.00691509 -0.176084 -1.62721e-05  0.000164032 -0.17566 8.28505e-06  0.00664306 -0.183279 -1.06692e-05  0.000164986 -0.175618 -2.82526e-05  -0.000169039 -0.182815 -2.29776e-05  0.00691366 -0.176042 -8.67546e-05  -0.000171185 -0.182851 1.20401e-05  0.00635695 -0.190516 -5.60284e-06  -0.000518084 -0.190087 1.47223e-05  0.0060575 -0.1978 -4.76837e-07  -0.000515938 -0.190051 -1.68681e-05  -0.000871658 -0.197336 -1.19805e-05  0.00635815 -0.190481 -6.57141e-05  -0.00087285 -0.197366 1.72257e-05  0.00574565 -0.205117 4.41074e-06  -0.00123811 -0.204683 2.04444e-05  0.00541735 -0.212472 9.17912e-06  -0.00123811 -0.204652 -7.36117e-06  -0.00161171 -0.212011 -2.14577e-06  0.00574398 -0.205089 -4.76241e-05  -0.00161266 -0.212033 2.23517e-05  0.00507998 -0.219852 1.36495e-05  -0.00199533 -0.219415 2.52724e-05  0.00472856 -0.227263 1.78814e-05  -0.00199437 -0.219391 1.66893e-06  -0.00238442 -0.226803 7.24196e-06  0.00507927 -0.21983 -3.02494e-05  -0.00238562 -0.226822 2.85506e-05  0.00436831 -0.234691 2.2471e-05  -0.00278139 -0.23425 3.09348e-05  0.00399828 -0.242141 2.62856e-05  -0.00278163 -0.234232 1.23084e-05  -0.00318503 -0.241686 1.508e-05  0.00436711 -0.234673 -1.34408e-05  -0.0031848 -0.241698 3.26037e-05  0.00361896 -0.249605 3.11732e-05  -0.00359416 -0.249162 3.56436e-05  0.00323129 -0.257084 3.43323e-05  -0.0035944 -0.249149 1.94609e-05  -0.00400758 -0.256631 2.30968e-05  0.00361681 -0.249592 9.23872e-07  -0.0040071 -0.25664 3.72529e-05  0.00283861 -0.264569 3.80278e-05  -0.00442505 -0.264124 3.92795e-05  0.0024364 -0.272064 4.08888e-05  -0.00442696 -0.264115 2.61962e-05  -0.00484776 -0.271615 2.98321e-05  0.00283623 -0.264561 1.33812e-05  -0.00484776 -0.27162 3.99947e-05  0.00202966 -0.279561 4.3869e-05  -0.0052731 -0.279116 4.39286e-05  0.001616 -0.287063 4.63724e-05  -0.0052743 -0.27911 3.40343e-05  -0.00570321 -0.286616 3.6031e-05  0.00202847 -0.279556 2.50638e-05  -0.00570393 -0.286617 4.42266e-05  0.00119925 -0.294561 4.85182e-05  -0.00613379 -0.294116 4.55976e-05  0.00077796 -0.30206 5.09024e-05  -0.00613546 -0.294113 3.81768e-05  -0.00656891 -0.301617 4.08888e-05  0.00119758 -0.29456 3.3617e-05  -0.00656939 -0.301615 4.71473e-05  0.000352859 -0.309552 5.41806e-05  -0.00700402 -0.309108 4.87566e-05  -7.65324e-05 -0.317043 5.49555e-05  -0.00700521 -0.309109 4.42863e-05  -0.00744295 -0.316602 4.55976e-05  0.000350475 -0.309554 4.26173e-05  -0.00744081 -0.316598 5.03063e-05  -0.000505924 -0.324522 5.77569e-05  -0.00787926 -0.324078 5.19753e-05  -0.000941038 -0.331997 5.81741e-05  -0.00788045 -0.324082 4.81308e-05  -0.00831938 -0.33156 5.01871e-05  -0.000508547 -0.324526 5.08726e-05  -0.00831962 -0.331553 5.16772e-05  -0.00137591 -0.339458 5.96642e-05  -0.00875974 -0.339017 5.25713e-05  -0.00181413 -0.346914 6.17504e-05  -0.00876093 -0.339021 5.09918e-05  -0.00920057 -0.34648 5.23329e-05  -0.00137806 -0.339465 5.51343e-05  -0.00919938 -0.346472 5.3525e-05  -0.00224972 -0.354356 6.36578e-05  -0.00963998 -0.353914 5.47171e-05  -0.00268793 -0.361789 6.42538e-05  -0.00964093 -0.35392 5.47469e-05  -0.0100827 -0.361355 5.55217e-05  -0.00225091 -0.354363 6.00517e-05  -0.0100811 -0.361347 5.51939e-05  -0.00312614 -0.369205 6.51479e-05  -0.0105181 -0.368763 5.69224e-05  -0.0035615 -0.376614 6.49095e-05  -0.0105195 -0.368769 5.63562e-05  -0.0109551 -0.376177 5.8651e-05  -0.00312567 -0.369212 6.44624e-05  -0.0109551 -0.376168 5.48959e-05  0.000298761 -0.000735521 -0.000138342  0.000233285 -0.000462472 -9.20892e-05  0.000993803 -0.00188315 -0.000249028  0.000233792 -0.000451446 -0.000203937  0.000748113 -0.00137025 -0.000402689  0 0 0  0 0 0  0.000301212 -0.000715554 -0.000280976  0 0 0  0.000773266 -0.00140834 -0.000182271  0.00200954 -0.00358391 -0.000354707  0.00148413 -0.00298011 -0.000263572  0.00320935 -0.00540805 -0.000412583  0.00149186 -0.00291324 -0.000551909  0.00235957 -0.00467169 -0.000653058  0.00201736 -0.00350231 -0.000723839  0.00235644 -0.00475568 -0.000309646  0.004453 -0.00760657 -0.000464261  0.00327861 -0.00693005 -0.000350654  0.00572714 -0.00996703 -0.000483215  0.0032973 -0.00682074 -0.000726283  0.00424078 -0.00918901 -0.000755847  0.0044753 -0.00748545 -0.00095126  0.00422198 -0.00930709 -0.000364482  0.00695619 -0.0126076 -0.000495493  0.0051496 -0.0119638 -0.000374675  0.008147 -0.0154721 -0.000494003  0.00516936 -0.011828 -0.000775218  0.00605792 -0.0147148 -0.000768214  0.00698096 -0.0124651 -0.00102153  0.00603873 -0.0148542 -0.000371456  0.00927567 -0.0185771 -0.000485778  0.00688833 -0.0179802 -0.000365973  0.0103457 -0.0219264 -0.000474334  0.00690305 -0.0178298 -0.000758618  0.0076983 -0.0211995 -0.000736952  0.00929546 -0.018424 -0.00100705  0.00768369 -0.0213492 -0.00035578  0.0113551 -0.0254983 -0.000457644  0.00843382 -0.0249373 -0.000343025  0.0123026 -0.0293121 -0.000442326  0.00844336 -0.0247833 -0.000715077  0.00913942 -0.028612 -0.000688732  0.0113678 -0.0253437 -0.000953197  0.00913042 -0.0287626 -0.00033015  0.013193 -0.0333354 -0.000422478  0.00978065 -0.0327967 -0.000315249  0.0140242 -0.0375863 -0.000405312  0.00978649 -0.0326448 -0.000661433  0.0103874 -0.0369082 -0.000634819  0.0132 -0.0331839 -0.00088501  0.0103813 -0.0370547 -0.000301719  0.0148011 -0.0420343 -0.000385702  0.0109378 -0.0415093 -0.000286877  0.015522 -0.0466917 -0.000368297  0.0109412 -0.0413634 -0.000606745  0.0114512 -0.046032 -0.00058049  0.0148042 -0.0418894 -0.000813216  0.011448 -0.0461704 -0.000273585  0.0161916 -0.0515321 -0.000349224  0.0119148 -0.0510157 -0.000258863  0.0168092 -0.0565656 -0.000331879  0.0119168 -0.0508788 -0.000553787  0.0123395 -0.0559213 -0.000527889  0.0161929 -0.0513969 -0.000742614  0.0123374 -0.0560507 -0.000245869  0.0173773 -0.0617657 -0.000313103  0.0127189 -0.0612545 -0.00023222  0.0178952 -0.0671424 -0.000297725  0.01272 -0.0611271 -0.00050202  0.0130602 -0.0665123 -0.00047785  0.0173764 -0.0616407 -0.000674635  0.0130591 -0.0666314 -0.000219941  0.0183674 -0.0726705 -0.000280201  0.0133616 -0.0721619 -0.00020653  0.0187908 -0.0783589 -0.000264645  0.0133616 -0.0720458 -0.000452876  0.0136245 -0.077742 -0.000430733  0.0183653 -0.0725565 -0.000610054  0.0136241 -0.07785 -0.00019443  0.0191722 -0.0841835 -0.000248373  0.0138496 -0.083676 -0.000181496  0.0195075 -0.0901523 -0.000232875  0.0138497 -0.0835705 -0.000406742  0.0140392 -0.089547 -0.000384837  0.0191698 -0.084079 -0.000548542  0.0140386 -0.089645 -0.000170588  0.0198015 -0.0962427 -0.000216782  0.0141932 -0.0957373 -0.000157773  0.0200535 -0.102463 -0.000203311  0.0141915 -0.0956418 -0.000363201  0.0143117 -0.101869 -0.000341237  0.0197996 -0.0961486 -0.000490308  0.0143125 -0.101956 -0.00014776  0.0202668 -0.10879 -0.000188768  0.0143989 -0.108286 -0.000136077  0.0204401 -0.115234 -0.000175059  0.014398 -0.1082 -0.000320196  0.0144521 -0.114651 -0.000301033  0.0202649 -0.108707 -0.000434786  0.0144525 -0.114729 -0.000126302  0.0205775 -0.121772 -0.000160933  0.0144763 -0.121269 -0.000114858  0.0206769 -0.128413 -0.000148356  0.0144752 -0.121193 -0.000281006  0.0144684 -0.127841 -0.000262022  0.0205747 -0.121699 -0.000381798  0.0144696 -0.127909 -0.000105202  0.0207433 -0.135136 -0.000136375  0.0144343 -0.134634 -9.45926e-05  0.0207753 -0.141949 -0.000123203  0.014433 -0.134568 -0.000242561  0.0143702 -0.141386 -0.000224829  0.0207402 -0.135071 -0.000332743  0.0143712 -0.141446 -8.57115e-05  0.0207753 -0.148832 -0.000110507  0.014282 -0.148332 -7.6592e-05  0.0207429 -0.155793 -9.94205e-05  0.0142796 -0.148273 -0.000207722  0.0141654 -0.155241 -0.000191152  0.020772 -0.148775 -0.000285417  0.0141673 -0.155293 -6.75917e-05  0.0206833 -0.162814 -8.81553e-05  0.0140278 -0.162317 -5.91278e-05  0.0205936 -0.169903 -7.77245e-05  0.0140259 -0.162265 -0.000173569  0.0138628 -0.169361 -0.000158101  0.0206804 -0.162765 -0.000241011  0.0138645 -0.169405 -5.00679e-05  0.0204778 -0.17704 -6.59227e-05  0.0136802 -0.176544 -4.17233e-05  0.020334 -0.184236 -5.6684e-05  0.0136783 -0.176502 -0.000142217  0.0134714 -0.183704 -0.000127941  0.0204742 -0.176999 -0.000199646  0.0134742 -0.183741 -3.48687e-05  0.0201685 -0.191471 -4.55976e-05  0.0132484 -0.190979 -2.65241e-05  0.0199766 -0.198753 -3.68953e-05  0.0132463 -0.190943 -0.000112951  0.013001 -0.198233 -9.95398e-05  0.0201647 -0.191436 -0.000160933  0.0130038 -0.198262 -1.94311e-05  0.0197649 -0.206068 -2.74777e-05  0.0127411 -0.205581 -1.20401e-05  0.0195305 -0.213422 -1.80602e-05  0.012738 -0.20555 -8.59797e-05  0.0124586 -0.212911 -7.22706e-05  0.0197608 -0.20604 -0.000125289  0.0124607 -0.212936 -5.30481e-06  0.0192783 -0.220799 -1.03712e-05  0.0121653 -0.220316 1.49012e-06  0.0190039 -0.228208 -2.5034e-06  0.0121627 -0.220292 -6.1065e-05  0.011853 -0.227707 -4.82202e-05  0.0192726 -0.220778 -9.21786e-05  0.0118556 -0.227724 7.51019e-06  0.018714 -0.235633 5.126e-06  0.0115306 -0.235153 1.39475e-05  0.0184066 -0.243082 1.26958e-05  0.0115271 -0.235134 -3.72231e-05  0.0111895 -0.24259 -2.64347e-05  0.0187109 -0.235615 -6.13928e-05  0.0111921 -0.242603 1.94311e-05  0.018086 -0.250541 1.99676e-05  0.0108423 -0.250066 2.41399e-05  0.0177491 -0.258016 2.63453e-05  0.010839 -0.250053 -1.70469e-05  0.010478 -0.257535 -6.55651e-06  0.0180817 -0.250528 -3.48389e-05  0.0104811 -0.257544 2.90275e-05  0.0174012 -0.265498 3.23057e-05  0.0101104 -0.265028 3.51071e-05  0.0170386 -0.272991 3.8147e-05  0.0101075 -0.265019 1.78814e-06  0.00972724 -0.272518 1.01626e-05  0.0173967 -0.265491 -1.05798e-05  0.00972915 -0.272522 3.86834e-05  0.0166671 -0.280483 4.42266e-05  0.00934005 -0.280018 4.3273e-05  0.0162849 -0.287982 4.90546e-05  0.00933623 -0.280012 1.86265e-05  0.00894022 -0.287517 2.56598e-05  0.0166633 -0.280479 1.04904e-05  0.00894356 -0.287518 4.66704e-05  0.0158939 -0.295476 5.34058e-05  0.00853992 -0.295014 5.00083e-05  0.0154929 -0.302972 5.82337e-05  0.00853634 -0.295013 3.26633e-05  0.00812578 -0.302515 3.80874e-05  0.0158901 -0.295474 2.91765e-05  0.00812912 -0.302513 5.38826e-05  0.0150881 -0.31046 6.17504e-05  0.00771308 -0.310004 5.63264e-05  0.0146737 -0.317947 6.56247e-05  0.00771117 -0.310005 4.38392e-05  0.00729036 -0.317497 4.8697e-05  0.0150845 -0.310462 4.3571e-05  0.00729346 -0.317493 5.87702e-05  0.0142555 -0.325425 6.93798e-05  0.00686836 -0.324971 6.27637e-05  0.0138314 -0.332895 7.09891e-05  0.00686502 -0.324974 5.34058e-05  0.00643826 -0.332451 5.87702e-05  0.0142534 -0.325427 5.68032e-05  0.0064404 -0.332445 6.37174e-05  0.0134053 -0.340353 7.41482e-05  0.00601077 -0.339906 6.65188e-05  0.012974 -0.347806 7.64728e-05  0.00600791 -0.339911 6.17802e-05  0.00557327 -0.347367 6.60717e-05  0.0134027 -0.34036 6.66082e-05  0.0055759 -0.347359 6.74129e-05  0.0125408 -0.355247 7.81417e-05  0.00513983 -0.354801 6.96182e-05  0.0121055 -0.362679 7.99894e-05  0.00513864 -0.354807 6.8903e-05  0.00470304 -0.362242 7.12574e-05  0.0125391 -0.355253 7.51317e-05  0.00470495 -0.362234 7.05719e-05  0.0116711 -0.370099 8.10027e-05  0.00426793 -0.369653 7.27177e-05  0.0112362 -0.377512 8.35657e-05  0.00426674 -0.369659 7.43866e-05  0.00383377 -0.37707 7.58469e-05  0.0116689 -0.370106 8.14497e-05  0.00383568 -0.377062 7.49826e-05  0.000569686 -0.00178659 -0.000207901  0.000488095 -0.00113189 -0.000150859  0.00194457 -0.00344324 -0.000371933  0.000490427 -0.00112593 -0.000340641  0.00146294 -0.00249714 -0.000647694  0 0 0  0 0 0  0.000581719 -0.00174856 -0.000407755  0 0 0  0.0014765 -0.00253969 -0.00029999  0.0036 -0.00542867 -0.000511706  0.00277328 -0.00437808 -0.000424743  0.00547788 -0.00735593 -0.00060457  0.00279056 -0.00429654 -0.000892222  0.00427714 -0.00619358 -0.00105274  0.00361124 -0.00532651 -0.00105137  0.00425044 -0.00629413 -0.000505388  0.00733 -0.00948989 -0.000674665  0.00581509 -0.00845391 -0.000567734  0.00918162 -0.011812 -0.000708818  0.00584522 -0.00832915 -0.00117868  0.00740209 -0.0106842 -0.00123197  0.00735712 -0.00935537 -0.00139096  0.00736424 -0.0108181 -0.000597119  0.0109786 -0.0143429 -0.000729024  0.00889537 -0.0134013 -0.000613928  0.0127076 -0.0171444 -0.000731051  0.00892556 -0.0132535 -0.00126952  0.0103896 -0.0160933 -0.00126606  0.0110106 -0.0141901 -0.0015066  0.0103577 -0.0162435 -0.000614464  0.0143729 -0.020168 -0.000723004  0.011764 -0.0193088 -0.000606835  0.0159565 -0.0234667 -0.000708461  0.0117866 -0.0191508 -0.00125426  0.0131158 -0.0224801 -0.00122443  0.0144001 -0.0200087 -0.00149605  0.0130947 -0.0226359 -0.000593483  0.0174706 -0.0269868 -0.00068599  0.01436 -0.0261842 -0.00057441  0.0189029 -0.0307643 -0.000664353  0.0143738 -0.0260255 -0.0011895  0.0155646 -0.0298274 -0.00114918  0.0174891 -0.0268276 -0.00142372  0.0155529 -0.0299813 -0.0005548  0.020263 -0.0347518 -0.000636578  0.0166793 -0.0339894 -0.000531673  0.0215458 -0.0389777 -0.000612617  0.0166869 -0.0338346 -0.00110561  0.0177445 -0.0380813 -0.00106233  0.0202742 -0.0345981 -0.00132594  0.0177383 -0.0382285 -0.000509918  0.0227575 -0.043399 -0.000583351  0.0187336 -0.0426658 -0.000486016  0.0238956 -0.048039 -0.000558376  0.0187364 -0.0425193 -0.00101727  0.0196667 -0.0471771 -0.00097385  0.0227633 -0.0432539 -0.00122106  0.0196651 -0.0473163 -0.000463963  0.024966 -0.0528585 -0.000529945  0.0205357 -0.0521481 -0.000441372  0.0259652 -0.0578785 -0.000505447  0.0205352 -0.0520111 -0.000929683  0.0213445 -0.0570471 -0.000887245  0.0249679 -0.0527226 -0.00111669  0.0213449 -0.0571756 -0.000419855  0.0269008 -0.0630607 -0.000479162  0.0220978 -0.0623698 -0.000397444  0.0277692 -0.0684261 -0.000454247  0.0220958 -0.0622426 -0.000844896  0.0227902 -0.0676236 -0.000804901  0.0268998 -0.0629361 -0.00101689  0.0227915 -0.0677417 -0.000376999  0.0285766 -0.0739385 -0.000429153  0.0234318 -0.0732645 -0.000356019  0.0293194 -0.0796174 -0.000406265  0.023429 -0.0731479 -0.000764042  0.0240145 -0.0788417 -0.000725687  0.0285742 -0.0738245 -0.000920624  0.0240158 -0.0789489 -0.000336766  0.0300049 -0.0854271 -0.000382185  0.0245502 -0.0847688 -0.00031656  0.0306296 -0.0913873 -0.000359774  0.0245469 -0.0846626 -0.000688076  0.0250291 -0.0906363 -0.000651687  0.0300021 -0.0853242 -0.00082925  0.0250324 -0.0907333 -0.000297606  0.0312001 -0.0974651 -0.000338376  0.0254654 -0.0968203 -0.000278592  0.0317129 -0.103677 -0.00031656  0.0254611 -0.0967246 -0.000615865  0.0258452 -0.10295 -0.000580996  0.031197 -0.0973717 -0.000742763  0.025849 -0.103038 -0.000261128  0.0321749 -0.109991 -0.00029546  0.0261862 -0.109361 -0.000243187  0.0325822 -0.116428 -0.000276029  0.0261827 -0.109275 -0.000546575  0.026475 -0.115724 -0.000513673  0.0321716 -0.109908 -0.000660539  0.0264785 -0.115801 -0.000226021  0.0329419 -0.122953 -0.000255048  0.0267271 -0.122336 -0.000209749  0.0332507 -0.129586 -0.000235736  0.026723 -0.122259 -0.000481039  0.0269293 -0.128905 -0.000450075  0.0329381 -0.122879 -0.000582248  0.0269324 -0.128972 -0.000192821  0.0335138 -0.136296 -0.000216544  0.0270979 -0.135692 -0.000177145  0.0337315 -0.143101 -0.000199139  0.027094 -0.135625 -0.000420481  0.0272193 -0.142442 -0.000390887  0.0335107 -0.136231 -0.000508428  0.0272233 -0.142501 -0.000161767  0.0339067 -0.149972 -0.000181139  0.0273118 -0.14938 -0.000146568  0.0340374 -0.156925 -0.000163794  0.0273063 -0.149321 -0.000361532  0.0273592 -0.156286 -0.000334322  0.0339026 -0.149915 -0.000439316  0.0273616 -0.156338 -0.000132442  0.0341313 -0.163933 -0.000147164  0.027379 -0.163354 -0.000118315  0.0341823 -0.171014 -0.000130713  0.027375 -0.163305 -0.000307143  0.0273578 -0.170396 -0.000281304  0.0341268 -0.163885 -0.000373393  0.0273612 -0.17044 -0.000105262  0.0341983 -0.178139 -0.000116229  0.0273116 -0.177575 -9.19104e-05  0.0341778 -0.185326 -0.000101864  0.0273077 -0.17753 -0.000255227  0.0272279 -0.184728 -0.000231087  0.0341954 -0.178099 -0.000313282  0.0272315 -0.184766 -7.93934e-05  0.0341246 -0.19255 -8.55327e-05  0.0271223 -0.191997 -6.6936e-05  0.0340371 -0.199824 -7.31349e-05  0.0271173 -0.191961 -0.000207901  0.0269797 -0.199245 -0.000184774  0.034122 -0.192515 -0.000255615  0.026984 -0.199276 -5.57303e-05  0.033921 -0.207126 -5.85318e-05  0.0268214 -0.206585 -4.3571e-05  0.0337737 -0.214471 -4.65512e-05  0.0268157 -0.206555 -0.000163645  0.0266261 -0.213912 -0.000143349  0.0339172 -0.207099 -0.000203162  0.0266304 -0.213935 -3.38554e-05  0.033601 -0.221836 -3.43323e-05  0.0264175 -0.221309 -2.31266e-05  0.0333986 -0.229236 -2.29478e-05  0.0264144 -0.221284 -0.000123173  0.0261774 -0.228695 -0.000104189  0.033596 -0.221815 -0.000154734  0.0261807 -0.228712 -1.32918e-05  0.0331748 -0.236648 -1.04904e-05  0.0259252 -0.236132 -2.86102e-06  0.0329242 -0.24409 -3.57628e-07  0.0259211 -0.236114 -8.65459e-05  0.0256455 -0.243565 -6.83069e-05  0.0331709 -0.236633 -0.00011006  0.0256481 -0.243579 4.88758e-06  0.032655 -0.251538 1.0252e-05  0.0253544 -0.251033 1.40667e-05  0.0323629 -0.259005 1.88351e-05  0.0253503 -0.251019 -5.22435e-05  0.0250368 -0.258497 -3.62098e-05  0.0326519 -0.251525 -7.07805e-05  0.0250399 -0.258505 2.19345e-05  0.0320542 -0.266476 2.77758e-05  0.0247118 -0.265982 2.98619e-05  0.0317259 -0.273959 3.60012e-05  0.024709 -0.265974 -2.14279e-05  0.0243649 -0.273467 -8.85129e-06  0.0320518 -0.266468 -3.46899e-05  0.0243683 -0.273472 3.5882e-05  0.0313842 -0.281442 4.50611e-05  0.0240123 -0.280959 4.29749e-05  0.0310266 -0.288934 5.26309e-05  0.024008 -0.280955 3.93391e-06  0.0236385 -0.288453 1.5676e-05  0.0313811 -0.281439 -3.48687e-06  0.0236423 -0.288455 4.91738e-05  0.0306559 -0.296418 5.79953e-05  0.0232625 -0.295945 5.52535e-05  0.0302703 -0.303907 6.49095e-05  0.0232582 -0.295944 2.63155e-05  0.0228672 -0.30344 3.66569e-05  0.0306511 -0.296419 2.34842e-05  0.022872 -0.303438 6.02007e-05  0.0298789 -0.311388 7.05719e-05  0.0224719 -0.310923 6.47902e-05  0.0294738 -0.318869 7.4923e-05  0.0224693 -0.310923 4.52697e-05  0.0220623 -0.318412 5.34356e-05  0.0298741 -0.31139 4.49419e-05  0.0220652 -0.318407 6.99759e-05  0.0290642 -0.326337 7.90358e-05  0.0216515 -0.32588 7.31945e-05  0.0286443 -0.333804 8.28505e-05  0.0216484 -0.325883 6.09457e-05  0.0212278 -0.333355 6.7085e-05  0.0290601 -0.326343 6.35386e-05  0.02123 -0.333348 7.66516e-05  0.0282221 -0.341258 8.61883e-05  0.0208063 -0.340806 7.93338e-05  0.0277925 -0.348708 8.94666e-05  0.0208032 -0.340811 7.27773e-05  0.0203745 -0.348265 7.86185e-05  0.0282187 -0.341264 7.76052e-05  0.0203769 -0.348257 8.13007e-05  0.0273609 -0.356143 9.197e-05  0.0199447 -0.355696 8.40425e-05  0.0269248 -0.363574 9.57251e-05  0.0199435 -0.355701 8.25524e-05  0.0195086 -0.363136 8.66652e-05  0.0273581 -0.35615 8.93474e-05  0.0195103 -0.363127 8.57115e-05  0.02649 -0.370996 9.7096e-05  0.0190754 -0.370549 8.83341e-05  0.0260534 -0.378416 9.91225e-05  0.0190721 -0.370554 9.03606e-05  0.0186386 -0.377971 9.40859e-05  0.0264874 -0.371003 9.62317e-05  0.0186434 -0.377963 9.13143e-05  0.00120308 -0.00419277 -0.000287712  0.00102823 -0.00258046 -0.000210643  0.0041278 -0.00649971 -0.000517428  0.00103254 -0.00259274 -0.000494182  0.00273918 -0.00477564 -0.000885993  0 0 0  0 0 0  0.00116266 -0.00410986 -0.000556588  0 0 0  0.00271751 -0.00483012 -0.000423968  0.0064653 -0.00805688 -0.00064975  0.00477807 -0.00666922 -0.000583947  0.00867203 -0.010123 -0.000795841  0.00479391 -0.00657332 -0.00121602  0.00690925 -0.00856155 -0.00143313  0.00640345 -0.00801915 -0.00139463  0.00686884 -0.0086863 -0.000700235  0.011026 -0.0119516 -0.000872791  0.00903466 -0.010672 -0.000776708  0.013276 -0.0142112 -0.000929534  0.0090594 -0.0105323 -0.00160658  0.0111738 -0.0128024 -0.00168756  0.0110384 -0.0118367 -0.0018335  0.0111299 -0.0129566 -0.000822306  0.0155811 -0.0165932 -0.000954151  0.0131945 -0.0154154 -0.000844538  0.0177937 -0.0193099 -0.000962555  0.0132264 -0.0152541 -0.00174406  0.0152209 -0.018004 -0.00174689  0.0156172 -0.0164371 -0.00198534  0.0151836 -0.0181678 -0.000849485  0.0199682 -0.0222477 -0.000952601  0.0171007 -0.0211536 -0.000840247  0.0220468 -0.0254803 -0.000937462  0.0171291 -0.0209854 -0.00173455  0.018967 -0.024251 -0.00169894  0.0200039 -0.0220788 -0.00197473  0.0189391 -0.0244147 -0.000824332  0.0240512 -0.0289375 -0.000908732  0.0206941 -0.0279086 -0.000799835  0.0259547 -0.0326683 -0.000882864  0.0207145 -0.0277426 -0.00165409  0.0223863 -0.0315025 -0.00160056  0.0240777 -0.02877 -0.00188354  0.0223669 -0.0316601 -0.000774562  0.0277762 -0.0366045 -0.000846684  0.0239556 -0.0356271 -0.000743389  0.0294976 -0.0407963 -0.000816941  0.0239682 -0.0354684 -0.00154302  0.0254734 -0.0396845 -0.00148341  0.0277953 -0.0364444 -0.00175917  0.0254616 -0.0398338 -0.000714839  0.031138 -0.0451707 -0.000778437  0.0268854 -0.0442377 -0.000682652  0.0326792 -0.0497854 -0.000746012  0.0268927 -0.0440885 -0.00142169  0.0282363 -0.0487235 -0.00136209  0.0311499 -0.0450224 -0.00162351  0.0282297 -0.0488632 -0.000653267  0.0341444 -0.0545635 -0.000709116  0.029495 -0.0536669 -0.000621259  0.0355145 -0.0595619 -0.000677943  0.0294986 -0.0535285 -0.00130183  0.0306871 -0.0585452 -0.001243  0.0341524 -0.0544254 -0.00148672  0.0306839 -0.0586748 -0.000592172  0.0368115 -0.064706 -0.000641525  0.0317981 -0.0638428 -0.000561833  0.0380167 -0.0700535 -0.000611246  0.0317991 -0.0637158 -0.00118539  0.0328417 -0.0690798 -0.00112954  0.0368166 -0.0645798 -0.00135535  0.0328394 -0.0691974 -0.000533581  0.0391548 -0.0755302 -0.000576675  0.03381 -0.074697 -0.000504792  0.0402049 -0.0811919 -0.000547767  0.0338098 -0.0745807 -0.00107402  0.0347117 -0.0802588 -0.00102013  0.0391576 -0.0754154 -0.00122955  0.0347109 -0.080366 -0.00047797  0.0411898 -0.0869685 -0.000514686  0.0355446 -0.0861642 -0.000450373  0.0420923 -0.0929134 -0.000488281  0.0355432 -0.0860578 -0.000968575  0.0363126 -0.0920185 -0.000917315  0.0411927 -0.0868639 -0.00110903  0.0363128 -0.0921142 -0.000424385  0.0429341 -0.0989579 -0.000456512  0.0370166 -0.0981803 -0.000398457  0.0436963 -0.105154 -0.000430167  0.037015 -0.0980853 -0.000867873  0.0376576 -0.104297 -0.000819802  0.0429349 -0.0988634 -0.000994235  0.0376579 -0.104383 -0.000374436  0.0444016 -0.111438 -0.000400126  0.0382401 -0.110687 -0.000349164  0.0450315 -0.11786 -0.000375569  0.0382372 -0.110601 -0.000772178  0.0387627 -0.117037 -0.000726551  0.0444027 -0.111355 -0.000885457  0.0387634 -0.117114 -0.000326335  0.0456086 -0.124355 -0.00034821  0.03923 -0.123629 -0.000302553  0.046115 -0.130974 -0.000324905  0.0392278 -0.123553 -0.000681579  0.0396403 -0.130186 -0.000638187  0.0456097 -0.124281 -0.000783235  0.039642 -0.130254 -0.000281036  0.0465732 -0.137654 -0.00029844  0.0400002 -0.136953 -0.000259161  0.0469637 -0.144446 -0.000275612  0.0399976 -0.136886 -0.000596046  0.0403068 -0.143691 -0.00055483  0.0465732 -0.13759 -0.000685394  0.0403078 -0.14375 -0.000238299  0.0473087 -0.151287 -0.000251412  0.0405657 -0.15061 -0.000217676  0.04759 -0.158228 -0.000230312  0.0405638 -0.150552 -0.000515789  0.040776 -0.157505 -0.000476241  0.0473082 -0.151233 -0.000593871  0.0407772 -0.157556 -0.000198603  0.0478334 -0.165208 -0.000205398  0.0409427 -0.164555 -0.000177741  0.0480137 -0.172275 -0.00018692  0.0409396 -0.164503 -0.000439316  0.0410614 -0.171582 -0.000403404  0.0478303 -0.16516 -0.000507116  0.0410633 -0.171626 -0.000160515  0.0481567 -0.179373 -0.000165105  0.0411413 -0.178742 -0.000142276  0.0482471 -0.186547 -0.000145793  0.0411389 -0.178699 -0.000369132  0.0411785 -0.185885 -0.000334889  0.0481575 -0.179332 -0.000425965  0.0411801 -0.185921 -0.000124931  0.0483029 -0.193743 -0.000127137  0.0411797 -0.193134 -0.000108123  0.0483088 -0.201004 -0.000107944  0.0411775 -0.193098 -0.000302255  0.041141 -0.20037 -0.000270963  0.0483022 -0.193708 -0.000351071  0.0411429 -0.2004 -9.11355e-05  0.0482807 -0.20828 -9.10163e-05  0.0410697 -0.207694 -7.56383e-05  0.0482087 -0.215613 -7.55787e-05  0.0410659 -0.207665 -0.000241131  0.040962 -0.215008 -0.000213057  0.0482805 -0.208254 -0.000281215  0.0409644 -0.215031 -6.18696e-05  0.048111 -0.222954 -5.72801e-05  0.0408268 -0.222387 -4.66704e-05  0.0479705 -0.23034 -4.34518e-05  0.0408237 -0.222364 -0.000185907  0.040657 -0.229762 -0.000158519  0.0481093 -0.222933 -0.000218183  0.0406599 -0.229779 -3.35574e-05  0.0478046 -0.237731 -2.81334e-05  0.0404627 -0.237185 -2.06232e-05  0.0476029 -0.245159 -1.44839e-05  0.0404594 -0.237166 -0.000133902  0.0402374 -0.244605 -0.000109851  0.047802 -0.237714 -0.000158191  0.040241 -0.244616 -7.92742e-06  0.0473785 -0.252584 -2.98023e-07  0.0399921 -0.252058 3.21865e-06  0.047121 -0.260041 1.04308e-05  0.0399888 -0.252043 -8.82149e-05  0.0397193 -0.25951 -6.66082e-05  0.0473759 -0.252573 -0.000106722  0.0397205 -0.259518 1.33514e-05  0.0468454 -0.267489 2.36034e-05  0.0394275 -0.266982 2.40803e-05  0.0465391 -0.274965 3.46303e-05  0.0394244 -0.266972 -4.68194e-05  0.0391135 -0.274455 -2.70605e-05  0.0468435 -0.267484 -6.02305e-05  0.0391152 -0.274458 3.3915e-05  0.0462205 -0.282427 4.54187e-05  0.0387824 -0.281934 4.33922e-05  0.0458751 -0.289908 5.34058e-05  0.0387797 -0.28193 -1.0252e-05  0.0384309 -0.289419 5.72205e-06  0.0462184 -0.282425 -1.80602e-05  0.0384345 -0.289419 5.1856e-05  0.0455165 -0.297377 6.41942e-05  0.0380695 -0.296898 6.02007e-05  0.0451381 -0.304857 7.02739e-05  0.0380659 -0.296896 2.0355e-05  0.0376892 -0.304384 3.45409e-05  0.0455151 -0.297377 1.67787e-05  0.0376928 -0.304381 6.68168e-05  0.0447519 -0.31232 7.79629e-05  0.0373015 -0.311857 7.33733e-05  0.0443463 -0.319797 8.43406e-05  0.0372972 -0.311858 4.55678e-05  0.0368977 -0.319338 5.6982e-05  0.04475 -0.312325 4.56572e-05  0.0369022 -0.319332 8.05855e-05  0.0439377 -0.327251 9.10163e-05  0.0364892 -0.326797 8.42214e-05  0.0435116 -0.334714 9.59635e-05  0.0364845 -0.326801 6.66082e-05  0.0360668 -0.334267 7.73668e-05  0.0439343 -0.327257 6.98864e-05  0.0360706 -0.334261 8.89301e-05  0.0430868 -0.342157 0.000101566  0.0356455 -0.341711 9.28044e-05  0.0426476 -0.349603 0.000105262  0.0356417 -0.341716 8.33571e-05  0.0352132 -0.349165 9.01222e-05  0.0430825 -0.342164 8.79169e-05  0.0352159 -0.349157 9.4831e-05  0.0422139 -0.357036 0.000106573  0.0347807 -0.356592 9.83477e-05  0.0417709 -0.364467 0.000109494  0.0347774 -0.356599 9.52482e-05  0.0343428 -0.364031 9.9808e-05  0.0422115 -0.357043 9.97782e-05  0.0343459 -0.364022 0.000100791  0.0413332 -0.371889 0.000111938  0.0339074 -0.371444 0.00010401  0.0408912 -0.379313 0.00011462  0.0339038 -0.371449 0.000104338  0.0334663 -0.378875 0.000108689  0.0413284 -0.371898 0.000109255  0.0334702 -0.378864 0.000106275  -0.00055651 -0.00139636 0.000628769  -0.000646971 -0.00208759 0.000761211  -0.00193688 -0.00328671 0.00118229  -0.000694778 -0.00200171 0.00105926  -0.00273584 -0.00439862 0.00193766  -0.00225504 -0.00372522 0.00120881  0 0 0  -0.00231638 -0.00386138 0.000875741  0 0 0  0 0 0  -0.000551544 -0.00127774 0.000908077  0 0 0  -0.00456767 -0.0061613 0.00156578  -0.00274657 -0.00463358 0.00137699  -0.00368129 -0.00494233 0.00163475  -0.00482243 -0.00621723 0.00189823  -0.00548954 -0.00669926 0.00194833  -0.00484399 -0.00589898 0.00263402  -0.00699539 -0.0076069 0.00309128  -0.0065655 -0.00717171 0.00298715  -0.00655951 -0.0074702 0.00218982  -0.00374764 -0.00466894 0.0022611  -0.0088203 -0.00933252 0.00257695  -0.00691603 -0.00797531 0.00225872  -0.00739554 -0.00866598 0.00215724  -0.00906458 -0.00977191 0.0025124  -0.00920755 -0.0107686 0.00229228  -0.00913882 -0.00936264 0.00342369  -0.0112515 -0.0113956 0.00359726  -0.0111368 -0.0105188 0.0039027  -0.0110697 -0.0109371 0.00287884  -0.00748599 -0.00828599 0.00294262  -0.0134104 -0.0130191 0.00304291  -0.0111561 -0.0118313 0.00266194  -0.0110225 -0.0131821 0.00234675  -0.0132547 -0.0141378 0.00273359  -0.0127664 -0.0158108 0.00236651  -0.0133249 -0.0136921 0.00368443  -0.0153472 -0.016262 0.00369349  -0.0157976 -0.0147455 0.00420791  -0.0157271 -0.0152092 0.00312451  -0.0110975 -0.0127602 0.00316375  -0.0180245 -0.0177438 0.00314614  -0.0152813 -0.016709 0.00275213  -0.0144817 -0.0187283 0.0023379  -0.01728 -0.01956 0.0027234  -0.0161445 -0.0218801 0.00229567  -0.0173189 -0.0191154 0.00364953  -0.0192352 -0.02222 0.00357431  -0.0203186 -0.0200577 0.00417045  -0.0202737 -0.0205186 0.00310975  -0.0145202 -0.0183008 0.00313157  -0.0224646 -0.0235548 0.00305501  -0.0192085 -0.0226536 0.00267276  -0.0177659 -0.0252937 0.00222826  -0.0210942 -0.0260176 0.00259656  -0.0193425 -0.0289328 0.00215784  -0.0210995 -0.0255927 0.00347018  -0.0229082 -0.0291931 0.0033564  -0.0246098 -0.0264252 0.00396541  -0.0245964 -0.0268609 0.00296441  -0.0177681 -0.0248802 0.00297636  -0.0266598 -0.0303848 0.00287372  -0.0229142 -0.0296013 0.00251409  -0.020874 -0.0328115 0.00207663  -0.0246882 -0.0334375 0.0024204  -0.0223653 -0.0368993 0.00199613  -0.0246663 -0.0330406 0.00323117  -0.0263723 -0.0370952 0.00310427  -0.0286511 -0.0337683 0.00369239  -0.0286636 -0.0341706 0.00276354  -0.0208487 -0.0324216 0.00277048  -0.0305988 -0.0381497 0.00266004  -0.0264027 -0.037473 0.00232637  -0.0238128 -0.0412069 0.00191221  -0.0280694 -0.0417422 0.00222871  -0.0252222 -0.0457072 0.00183079  -0.0280295 -0.0413758 0.00297466  -0.0296378 -0.0458456 0.00284702  -0.0324488 -0.0420041 0.00339955  -0.0324766 -0.0423721 0.00254571  -0.023769 -0.0408446 0.00255084  -0.0342917 -0.0467704 0.00243998  -0.0296821 -0.0461932 0.00213423  -0.0265918 -0.0504095 0.0017494  -0.0312506 -0.0508583 0.00203931  -0.0279256 -0.0552879 0.0016703  -0.0312014 -0.0505234 0.00272205  -0.0327177 -0.0553729 0.00259879  -0.0360135 -0.0510565 0.00311092  -0.0360527 -0.0513916 0.00232935  -0.0265377 -0.0500761 0.00233334  -0.037755 -0.0561739 0.00222731  -0.0327691 -0.0556906 0.00194779  -0.0292221 -0.0603505 0.00159392  -0.0342472 -0.0607183 0.00185713  -0.0304855 -0.0655753 0.00151855  -0.0341924 -0.0604134 0.00248051  -0.0356232 -0.0656102 0.00236288  -0.0393624 -0.0608558 0.00283393  -0.0394067 -0.0611603 0.00212157  -0.0291631 -0.0600463 0.00212595  -0.0410041 -0.0662928 0.00202423  -0.0356774 -0.0658986 0.0017705  -0.0317134 -0.0709671 0.00144663  -0.0370698 -0.0712565 0.00168598  -0.0329108 -0.0765067 0.00137606  -0.037014 -0.0709802 0.00225189  -0.0383642 -0.076494 0.00214121  -0.0425087 -0.0713371 0.00257394  -0.0425544 -0.0716124 0.00192666  -0.0316533 -0.0706912 0.00192994  -0.0440542 -0.0770659 0.00183439  -0.0384182 -0.0767548 0.00160411  -0.0340744 -0.0821988 0.00130934  -0.039731 -0.0824147 0.00152493  -0.0352103 -0.0880236 0.00124288  -0.0396758 -0.0821649 0.00203672  -0.0409489 -0.0879651 0.00193328  -0.0454628 -0.0824396 0.0023275  -0.045508 -0.0826856 0.00174177  -0.0340164 -0.0819487 0.00174612  -0.0469151 -0.0884311 0.00165567  -0.0410016 -0.0882 0.00144839  -0.0363137 -0.0939862 0.00117934  -0.0422385 -0.0941317 0.00137448  -0.0373893 -0.10007 0.00111726  -0.0421859 -0.0939086 0.0018357  -0.0433857 -0.0999674 0.00173843  -0.0482342 -0.0941049 0.0020968  -0.0482781 -0.0943258 0.00156873  -0.0362566 -0.0937619 0.00157374  -0.049597 -0.100333 0.0014877  -0.0434356 -0.100176 0.0013015  -0.0384355 -0.106275 0.0010584  -0.0446019 -0.106354 0.00123146  -0.0394548 -0.112588 0.000999391  -0.0445514 -0.106154 0.00164613  -0.0456824 -0.112446 0.00155392  -0.0508349 -0.106278 0.00187957  -0.0508757 -0.106475 0.00140634  -0.0383817 -0.106075 0.00141138  -0.0521134 -0.112718 0.00132954  -0.045729 -0.112633 0.00116315  -0.0404463 -0.119012 0.000944018  -0.046827 -0.11903 0.00109819  -0.0414124 -0.125531 0.000888854  -0.0467803 -0.118852 0.00146762  -0.0478444 -0.12535 0.00138152  -0.0532711 -0.118907 0.00167608  -0.0533092 -0.119083 0.00125363  -0.0403957 -0.118834 0.00125915  -0.054468 -0.125535 0.00118095  -0.047889 -0.125516 0.00103486  -0.042351 -0.132148 0.000836372  -0.0489211 -0.132107 0.000973135  -0.0432651 -0.138848 0.000785023  -0.048878 -0.131951 0.00130123  -0.0498787 -0.138631 0.00122038  -0.0555511 -0.131941 0.00148392  -0.0555876 -0.132096 0.00111085  -0.0423034 -0.131991 0.0011158  -0.0566689 -0.138733 0.00104305  -0.0499197 -0.138777 0.000912994  -0.0441537 -0.145633 0.000736207  -0.0508902 -0.145539 0.000855714  -0.0450191 -0.152492 0.000688136  -0.0508502 -0.145402 0.00114384  -0.0517914 -0.152244 0.0010682  -0.0576825 -0.145333 0.00130567  -0.0577164 -0.145468 0.000975311  -0.0441105 -0.145496 0.000982106  -0.0587265 -0.15227 0.000913292  -0.0518274 -0.15237 0.000799417  -0.0458593 -0.159425 0.000643492  -0.0527408 -0.159281 0.00074634  -0.0466778 -0.16642 0.00059852  -0.0527041 -0.159162 0.000998557  -0.0535874 -0.166142 0.000926763  -0.0596743 -0.15904 0.00113693  -0.0597029 -0.159155 0.000850618  -0.0458202 -0.159306 0.000857055  -0.0606458 -0.166099 0.000791669  -0.0536213 -0.166249 0.000693411  -0.0474722 -0.173478 0.000555754  -0.0544775 -0.17329 0.000644356  -0.0482459 -0.180591 0.000515282  -0.0544443 -0.173188 0.000861675  -0.0552723 -0.180286 0.000796497  -0.0615304 -0.173016 0.000980347  -0.0615554 -0.173113 0.000732988  -0.0474365 -0.173377 0.000740707  -0.0624366 -0.180179 0.000678509  -0.0553024 -0.180377 0.000596702  -0.0489974 -0.187756 0.000474989  -0.0561054 -0.187525 0.000549942  -0.0497277 -0.194965 0.000437438  -0.0560753 -0.187439 0.000736177  -0.0568542 -0.194637 0.000675887  -0.0632608 -0.187223 0.000836134  -0.0632842 -0.187305 0.000626177  -0.0489643 -0.18767 0.000633568  -0.0641041 -0.194472 0.000576258  -0.0568802 -0.194713 0.000505447  -0.0504382 -0.202218 0.000401795  -0.0576346 -0.201952 0.000461936  -0.0511291 -0.209508 0.000366449  -0.0576074 -0.20188 0.000619501  -0.0583363 -0.20916 0.000564456  -0.0648725 -0.201621 0.000704437  -0.0648932 -0.20169 0.000525743  -0.0504093 -0.202148 0.000533879  -0.0656567 -0.208942 0.000479788  -0.0583608 -0.209222 0.000421226  -0.0518 -0.216833 0.000333816  -0.059068 -0.216533 0.00038439  -0.052454 -0.224188 0.000301957  -0.0590434 -0.216475 0.000514627  -0.0597272 -0.223821 0.000463426  -0.0663733 -0.216181 0.000581682  -0.06639 -0.216236 0.000435263  -0.0517752 -0.216775 0.000444621  -0.0671022 -0.223557 0.000393003  -0.0597494 -0.22387 0.000346661  -0.0530882 -0.231569 0.00027141  -0.0604117 -0.231239 0.000311732  -0.0537066 -0.238972 0.000243932  -0.0603914 -0.231194 0.000418037  -0.0610323 -0.238589 0.000372976  -0.0677707 -0.230866 0.000472575  -0.0677853 -0.230908 0.000353158  -0.0530663 -0.231523 0.000362128  -0.0684488 -0.238283 0.000314474  -0.0610511 -0.238627 0.000279129  -0.0543065 -0.246394 0.000217676  -0.0616746 -0.24604 0.000247002  -0.054893 -0.253833 0.000192285  -0.0616548 -0.246005 0.000330508  -0.062259 -0.253438 0.000291348  -0.069072 -0.245651 0.000372589  -0.0690854 -0.245682 0.000278741  -0.0542881 -0.246359 0.000288248  -0.0697033 -0.253096 0.000245124  -0.0622749 -0.253466 0.000217348  -0.0554628 -0.261285 0.000168741  -0.0628607 -0.260908 0.000189275  -0.0560198 -0.268747 0.000146061  -0.0628452 -0.260883 0.000254482  -0.0634136 -0.268341 0.000219703  -0.0702858 -0.260505 0.000285536  -0.0702977 -0.260527 0.00021252  -0.0554471 -0.261259 0.000223368  -0.0708754 -0.267968 0.000183493  -0.0634267 -0.268359 0.000163883  -0.05656 -0.276216 0.000126392  -0.0639806 -0.275821 0.000139534  -0.0570912 -0.283692 0.000107169  -0.0639672 -0.275805 0.0001885  -0.0645049 -0.283277 0.000158876  -0.0714226 -0.275408 0.000209957  -0.0714319 -0.275421 0.000154227  -0.0565472 -0.276199 0.000166744  -0.0719752 -0.28288 0.000131279  -0.0645158 -0.283288 0.000117958  -0.0576088 -0.291169 9.10759e-05  -0.0650394 -0.29076 9.82583e-05  -0.0581157 -0.298648 7.51615e-05  -0.0650296 -0.29075 0.000133634  -0.0655391 -0.298226 0.000108659  -0.07249 -0.290335 0.000145912  -0.0724962 -0.290341 0.000108004  -0.0575972 -0.291159 0.000118971  -0.0730093 -0.297808 8.72612e-05  -0.0655484 -0.298231 7.9602e-05  -0.0586112 -0.306124 6.22869e-05  -0.0660465 -0.305704 6.36578e-05  -0.059098 -0.313599 4.96209e-05  -0.0660386 -0.305698 8.69632e-05  -0.066525 -0.313174 6.77109e-05  -0.0734975 -0.305272 9.15825e-05  -0.0735042 -0.305274 6.79493e-05  -0.0586009 -0.30612 7.98106e-05  -0.0739892 -0.312738 5.31077e-05  -0.0665314 -0.313172 5.08726e-05  -0.0595763 -0.321066 3.92199e-05  -0.0670102 -0.320636 3.76403e-05  -0.0600467 -0.32853 2.91765e-05  -0.0670042 -0.320637 5.07534e-05  -0.067471 -0.328101 3.72529e-05  -0.0744555 -0.320201 5.24819e-05  -0.0744607 -0.320199 3.80278e-05  -0.059566 -0.321068 5.01573e-05  -0.0749271 -0.327657 2.49147e-05  -0.0674777 -0.328097 2.76566e-05  -0.0605087 -0.335985 2.19047e-05  -0.0679407 -0.33555 1.65105e-05  -0.0609674 -0.343434 1.46925e-05  -0.0679331 -0.335554 2.40803e-05  -0.0683875 -0.343003 1.40369e-05  -0.0753765 -0.335111 2.17259e-05  -0.0753798 -0.335106 1.47223e-05  -0.0605016 -0.33599 2.60174e-05  -0.0758338 -0.342555 5.0962e-06  -0.0683939 -0.342995 1.03116e-05  -0.0614202 -0.350871 8.9407e-06  -0.0688453 -0.350434 3.39746e-06  -0.0618699 -0.358302 3.93391e-06  -0.0688381 -0.35044 5.69224e-06  -0.0692842 -0.357872 -1.3113e-06  -0.0762696 -0.349996 1.60933e-06  -0.076277 -0.349988 -3.27826e-07  -0.0614123 -0.350878 1.01328e-05  -0.0767195 -0.357423 -5.30481e-06  -0.0692909 -0.357864 -2.35438e-06  -0.0623159 -0.365723 -1.37091e-06  -0.0697374 -0.365288 -8.55327e-06  -0.0627618 -0.37314 -5.72205e-06  -0.0697303 -0.365294 -8.10623e-06  -0.0701725 -0.372715 -1.63019e-05  -0.077152 -0.364852 -1.43051e-05  -0.0771589 -0.364845 -1.2219e-05  -0.0623088 -0.365731 -3.06964e-06  -0.0776019 -0.37227 -2.02954e-05  -0.0701795 -0.372707 -1.29044e-05  -0.000320245 -0.000579253 0.000419319  -0.00036633 -0.00092271 0.000531018  -0.00105906 -0.00160739 0.000807971  -0.000373296 -0.000827044 0.000759929  -0.00133795 -0.00210561 0.00139102  0 0 0  0 0 0  -0.000324231 -0.000496745 0.000601798  0 0 0  -0.00126684 -0.00224824 0.0010094  -0.00201117 -0.00308941 0.00110132  -0.00268015 -0.00389256 0.00137383  -0.0031666 -0.00492269 0.00132531  -0.00275864 -0.00364929 0.00191182  -0.00431475 -0.00542052 0.00224558  -0.00205792 -0.00288773 0.0015375  -0.00419742 -0.00571658 0.00164068  -0.00439763 -0.00692265 0.00146309  -0.00575656 -0.00768928 0.0018163  -0.00564045 -0.00920156 0.00155327  -0.00585464 -0.00734565 0.00247809  -0.00742859 -0.00954792 0.00260234  -0.00447193 -0.00661775 0.00199583  -0.00732654 -0.00992063 0.00192684  -0.00688109 -0.0117118 0.00158429  -0.00884619 -0.0123652 0.00197086  -0.00808135 -0.0144634 0.00159526  -0.00891805 -0.0119718 0.0026536  -0.0103986 -0.0146721 0.00265875  -0.00694036 -0.0113434 0.00213489  -0.0103407 -0.0150756 0.00198299  -0.0092591 -0.0174794 0.0015718  -0.0117871 -0.0180339 0.00195783  -0.0103963 -0.0207243 0.00154173  -0.0118188 -0.0176254 0.00261906  -0.0132114 -0.0208351 0.00256431  -0.00928545 -0.0170857 0.00210339  -0.0131965 -0.0212409 0.00191963  -0.0115085 -0.024225 0.00149444  -0.0145678 -0.0246966 0.00186306  -0.0125894 -0.0279456 0.00144634  -0.0145634 -0.0242945 0.00248608  -0.0158818 -0.0279886 0.002404  -0.0115033 -0.0238313 0.00199357  -0.0158998 -0.0283806 0.00180218  -0.0136461 -0.031901 0.00139135  -0.0171983 -0.0322999 0.00173473  -0.0146783 -0.0360653 0.00133598  -0.0171688 -0.0319157 0.00231239  -0.0184211 -0.0360583 0.0022206  -0.0136172 -0.0315222 0.00185275  -0.0184615 -0.0364283 0.00166523  -0.0156879 -0.0404436 0.00127998  -0.0196941 -0.0407748 0.00159669  -0.016677 -0.0450169 0.0012244  -0.0196469 -0.0404152 0.00212774  -0.0208409 -0.0449696 0.00203571  -0.0156436 -0.0400868 0.00170451  -0.0208932 -0.0453133 0.00152728  -0.0176456 -0.0497849 0.00117132  -0.0220659 -0.0500523 0.00145993  -0.0185964 -0.0547342 0.00111726  -0.0220103 -0.04972 0.00194684  -0.023149 -0.0546508 0.00185794  -0.017593 -0.0494547 0.00155857  -0.0232074 -0.054967 0.00139359  -0.0195267 -0.0598608 0.00106657  -0.0243243 -0.0600649 0.00133035  -0.0204415 -0.0651532 0.00101575  -0.0242646 -0.0597603 0.00177401  -0.0253521 -0.0650359 0.00168908  -0.0194709 -0.0595571 0.00141999  -0.0254126 -0.0653243 0.00126663  -0.0213374 -0.0706054 0.000968963  -0.0264779 -0.0707506 0.00120744  -0.0222189 -0.0762108 0.000921071  -0.0264183 -0.0704736 0.00161052  -0.027457 -0.0760614 0.00153074  -0.0212808 -0.0703292 0.00128925  -0.0275167 -0.0763235 0.00114813  -0.0230832 -0.0819606 0.000876784  -0.0285336 -0.0820477 0.00109294  -0.0239331 -0.087848 0.000832379  -0.0284752 -0.0817963 0.00145766  -0.0294678 -0.0876684 0.00138268  -0.0230281 -0.0817098 0.00116697  -0.0295253 -0.0879043 0.00103721  -0.0247654 -0.0938658 0.000791788  -0.0304962 -0.0938978 0.000985056  -0.0255848 -0.100007 0.000748813  -0.0304407 -0.0936721 0.00131398  -0.0313883 -0.0997988 0.00124335  -0.0247128 -0.0936399 0.00105169  -0.0314434 -0.10001 0.000933111  -0.0263888 -0.106266 0.000710636  -0.0323714 -0.106246 0.000884056  -0.0271786 -0.112635 0.000671625  -0.0323173 -0.106045 0.00117874  -0.0332236 -0.112399 0.00111297  -0.0263379 -0.106064 0.000944674  -0.0332757 -0.112588 0.000834018  -0.0279534 -0.119108 0.00063622  -0.0341617 -0.119039 0.000789911  -0.0287153 -0.125679 0.00059849  -0.0341116 -0.118858 0.00105214  -0.034977 -0.125417 0.00099048  -0.0279068 -0.118929 0.000843525  -0.0350243 -0.125584 0.000743061  -0.0294631 -0.132341 0.000565141  -0.0358709 -0.132226 0.00070101  -0.0301968 -0.13909 0.000530303  -0.0358237 -0.132067 0.000934601  -0.0366509 -0.138804 0.000875354  -0.0294197 -0.132183 0.000748873  -0.0366948 -0.138951 0.000656694  -0.0309167 -0.145919 0.000498444  -0.0375021 -0.14576 0.000617564  -0.0316243 -0.152821 0.000466228  -0.0374594 -0.145622 0.000822604  -0.0382476 -0.152514 0.000767559  -0.0308771 -0.145779 0.000660479  -0.0382886 -0.152642 0.000576109  -0.0323186 -0.159793 0.000436574  -0.039058 -0.159596 0.000540137  -0.0330005 -0.16683 0.000406951  -0.0390193 -0.159474 0.000718504  -0.0397701 -0.166501 0.000668585  -0.0322819 -0.159673 0.000577658  -0.0398076 -0.166612 0.000502259  -0.0336666 -0.173924 0.000380307  -0.0405412 -0.17369 0.000467896  -0.0343244 -0.181074 0.000350922  -0.0405066 -0.173586 0.000622362  -0.0412228 -0.180728 0.000574738  -0.0336344 -0.173821 0.000500798  -0.0412567 -0.180821 0.000433117  -0.0349672 -0.188271 0.000326246  -0.0419562 -0.188005 0.000400543  -0.0355999 -0.195514 0.000300646  -0.0419242 -0.187917 0.000532836  -0.0426078 -0.195153 0.00048995  -0.0349371 -0.188183 0.000429869  -0.0426378 -0.195231 0.000368714  -0.0362184 -0.202797 0.000277758  -0.0433049 -0.202501 0.000339359  -0.0368264 -0.210117 0.000254363  -0.043277 -0.202428 0.000450313  -0.0439272 -0.209741 0.000410616  -0.0361915 -0.202723 0.000364721  -0.0439537 -0.209805 0.000310451  -0.0374219 -0.217466 0.000233918  -0.0445895 -0.217145 0.000282884  -0.0380094 -0.224848 0.000211686  -0.0445645 -0.217085 0.00037533  -0.0451863 -0.224461 0.00033927  -0.0373998 -0.217407 0.00030598  -0.0452096 -0.224512 0.000256568  -0.0385823 -0.232251 0.000193298  -0.0458159 -0.231907 0.000232637  -0.0391476 -0.239677 0.000174195  -0.0457945 -0.231858 0.000308007  -0.0463874 -0.239281 0.000275731  -0.0385609 -0.232203 0.000251234  -0.0464072 -0.239321 0.000208646  -0.0397019 -0.247119 0.000156224  -0.0469871 -0.246755 0.000187039  -0.0402443 -0.254579 0.00014022  -0.046967 -0.246717 0.000247061  -0.047534 -0.254174 0.000217557  -0.0396838 -0.247082 0.000203192  -0.0475523 -0.254202 0.000165343  -0.0407772 -0.262046 0.000124931  -0.0481057 -0.261664 0.000146866  -0.0413036 -0.269526 0.000110537  -0.0480902 -0.261637 0.000193387  -0.048631 -0.269113 0.000167757  -0.0407627 -0.262018 0.000160962  -0.0486472 -0.269134 0.000128299  -0.0418186 -0.277008 9.82881e-05  -0.0491786 -0.276613 0.000111729  -0.0423286 -0.284497 8.5026e-05  -0.0491648 -0.276593 0.00014624  -0.0496848 -0.284081 0.000125676  -0.0418069 -0.27699 0.000123769  -0.049696 -0.284095 9.5427e-05  -0.0428274 -0.291986 7.48932e-05  -0.0502071 -0.291578 8.28207e-05  -0.0433202 -0.299476 6.43432e-05  -0.0501974 -0.291566 0.000106186  -0.050698 -0.299056 8.97348e-05  -0.0428169 -0.291974 9.34601e-05  -0.0507066 -0.299063 6.935e-05  -0.0438051 -0.306961 5.51641e-05  -0.0511992 -0.306543 5.73099e-05  -0.0442839 -0.314444 4.65512e-05  -0.0511909 -0.306538 7.39992e-05  -0.0516744 -0.314021 6.09159e-05  -0.0437965 -0.306954 6.72936e-05  -0.0516815 -0.314021 4.825e-05  -0.0447547 -0.32192 4.04716e-05  -0.0521591 -0.321495 3.89814e-05  -0.0452232 -0.329389 3.43323e-05  -0.0521514 -0.321494 4.96209e-05  -0.0526209 -0.328962 3.9041e-05  -0.0447495 -0.321919 4.76539e-05  -0.0526297 -0.328961 3.02494e-05  -0.0456841 -0.336849 2.89679e-05  -0.0530918 -0.336417 2.56002e-05  -0.0461428 -0.3443 2.41101e-05  -0.0530851 -0.336421 2.95639e-05  -0.0535433 -0.343874 2.32458e-05  -0.0456791 -0.336851 3.22461e-05  -0.05355 -0.343868 1.86861e-05  -0.0465941 -0.351741 2.01166e-05  -0.0540035 -0.351308 1.36495e-05  -0.0470452 -0.359174 1.68383e-05  -0.0539978 -0.351313 1.53482e-05  -0.0544465 -0.358746 8.9407e-06  -0.0465891 -0.351746 2.08616e-05  -0.0544527 -0.358738 1.09076e-05  -0.0474899 -0.36659 1.36495e-05  -0.0549011 -0.366159 5.66244e-06  -0.0479383 -0.374003 8.67248e-06  -0.0548947 -0.366164 3.18885e-06  -0.0553424 -0.373581 -2.98023e-06  -0.0474863 -0.366597 1.07884e-05  -0.0553489 -0.373572 9.53674e-07  -0.000145413 -0.00019902 0.000202358  -0.000194166 -0.00035271 0.000322402  -0.000474513 -0.0009152 0.000404984  -0.00019889 -0.000283033 0.00046128  -0.000690281 -0.00104097 0.000844687  0 0 0  0 0 0  -0.000147641 -0.000136524 0.000293702  0 0 0  -0.000637591 -0.00116128 0.000610769  -0.000888959 -0.00223061 0.000548095  -0.00136173 -0.00259486 0.000827283  -0.00143285 -0.00392753 0.000671953  -0.00141113 -0.00240305 0.00116327  -0.00226733 -0.00408334 0.0013698  -0.000917017 -0.00206611 0.000769526  -0.00216955 -0.00431678 0.00100425  -0.0020141 -0.00595123 0.000737578  -0.0031133 -0.006354 0.00110239  -0.00262669 -0.00827724 0.000788778  -0.00318462 -0.00606409 0.00151098  -0.00412747 -0.00833347 0.00158715  -0.00205663 -0.00569049 0.00101048  -0.00404629 -0.00865281 0.00117505  -0.00324702 -0.0108581 0.000803202  -0.00499344 -0.0112051 0.00119564  -0.00386077 -0.0136954 0.000809938  -0.0050472 -0.0108539 0.00161296  -0.00595453 -0.0136407 0.00161478  -0.00328082 -0.010527 0.0010823  -0.00591227 -0.0140072 0.00120515  -0.00446814 -0.0167792 0.000797093  -0.00681043 -0.0170573 0.00118637  -0.00506282 -0.0201007 0.000781476  -0.00683099 -0.0166772 0.00158578  -0.00769109 -0.0199653 0.00155094  -0.00447994 -0.0164116 0.00106433  -0.00768489 -0.020348 0.00116289  -0.00565034 -0.0236594 0.000757039  -0.00853616 -0.0238772 0.00112686  -0.00622839 -0.0274434 0.000732183  -0.00852764 -0.0234924 0.00150126  -0.00934929 -0.027256 0.00145039  -0.00564027 -0.0232817 0.00100723  -0.00937003 -0.0276347 0.00108916  -0.00680143 -0.0314507 0.000704616  -0.0101855 -0.0316174 0.00104806  -0.00736928 -0.0356707 0.00067535  -0.0101569 -0.0312433 0.00139445  -0.0109504 -0.035451 0.00133777  -0.0067758 -0.031081 0.000934839  -0.0109878 -0.035813 0.00100577  -0.00793356 -0.0400982 0.000647962  -0.0117757 -0.0402181 0.000964135  -0.00849664 -0.0447238 0.000619024  -0.0117344 -0.0398636 0.00128219  -0.0125063 -0.0444799 0.00122559  -0.00789845 -0.0397464 0.000858128  -0.0125526 -0.0448202 0.000920624  -0.00905669 -0.04954 0.000593066  -0.0133181 -0.0496146 0.000881672  -0.00961685 -0.0545391 0.000564992  -0.0132701 -0.0492851 0.00117221  -0.0140231 -0.0542755 0.001118  -0.0090158 -0.0492111 0.000784695  -0.014073 -0.0545907 0.000840396  -0.0101755 -0.0597119 0.000540465  -0.0148197 -0.0597433 0.000803262  -0.010734 -0.0650528 0.00051412  -0.0147687 -0.0594392 0.00106895  -0.0155041 -0.0647725 0.00101644  -0.0101324 -0.0594083 0.00071463  -0.0155559 -0.0650614 0.000764549  -0.0112898 -0.0705508 0.000491202  -0.016284 -0.0705403 0.000729918  -0.011848 -0.0762033 0.000466734  -0.0162333 -0.0702617 0.000969976  -0.0169529 -0.0759064 0.000921786  -0.0112472 -0.0702737 0.000648677  -0.0170027 -0.076169 0.0006935  -0.0124021 -0.0819965 0.000445396  -0.0177144 -0.0819441 0.000660986  -0.0129589 -0.0879293 0.000422716  -0.0176653 -0.0816916 0.000878036  -0.0183685 -0.0876177 0.000832975  -0.0123614 -0.081745 0.000587434  -0.018417 -0.0878543 0.000626802  -0.013513 -0.0939909 0.000403106  -0.0191129 -0.0938973 0.000597507  -0.0140682 -0.100175 0.0003815  -0.019065 -0.0936695 0.000792682  -0.0197531 -0.099848 0.000749677  -0.0134735 -0.0937626 0.000530213  -0.019799 -0.100061 0.000564843  -0.0146215 -0.106474 0.00036335  -0.0204787 -0.106343 0.000536889  -0.0151736 -0.112885 0.000343472  -0.020435 -0.106138 0.000711948  -0.0211068 -0.112542 0.000672042  -0.0145835 -0.10627 0.000477552  -0.0211498 -0.112733 0.000507146  -0.0157237 -0.119395 0.000325799  -0.0218152 -0.119228 0.000480115  -0.0162735 -0.126005 0.000307918  -0.021773 -0.119046 0.000636429  -0.0224302 -0.125649 0.000599176  -0.015689 -0.119214 0.000427812  -0.0224699 -0.125818 0.000452369  -0.016821 -0.132702 0.000292152  -0.0231192 -0.132501 0.000428766  -0.0173666 -0.139488 0.000274122  -0.0230809 -0.13234 0.000566244  -0.0237216 -0.139119 0.000530958  -0.0167884 -0.132542 0.000381082  -0.0237592 -0.139267 0.000401676  -0.0179102 -0.146348 0.00025931  -0.0243924 -0.146114 0.000378847  -0.0184524 -0.153285 0.000243157  -0.0243566 -0.145974 0.000500411  -0.0249836 -0.152906 0.00046739  -0.0178807 -0.146207 0.000337183  -0.0250165 -0.153035 0.000353962  -0.0189905 -0.160287 0.000229627  -0.0256343 -0.160024 0.000332892  -0.0195284 -0.167353 0.000214815  -0.025604 -0.159901 0.000438124  -0.0262139 -0.166964 0.000408113  -0.0189643 -0.160164 0.000296712  -0.0262444 -0.167075 0.000309557  -0.020061 -0.174476 0.000201941  -0.0268471 -0.174186 0.000290662  -0.0205936 -0.181652 0.000187635  -0.0268183 -0.174081 0.00038144  -0.0274131 -0.181254 0.000353485  -0.0200384 -0.17437 0.000259131  -0.0274408 -0.181349 0.00026983  -0.0211213 -0.188875 0.000176668  -0.028028 -0.188561 0.000251323  -0.0216455 -0.196143 0.000163704  -0.0280013 -0.188472 0.000328153  -0.0285809 -0.195738 0.000302255  -0.0210986 -0.188785 0.00022611  -0.0286062 -0.195817 0.000231415  -0.022166 -0.203447 0.000152647  -0.0291772 -0.203112 0.000214159  -0.0226839 -0.210789 0.000141829  -0.0291545 -0.203037 0.000281155  -0.0297194 -0.210377 0.000256836  -0.0221477 -0.203372 0.000193268  -0.029741 -0.210444 0.000196517  -0.0231969 -0.21816 0.000131786  -0.0302958 -0.217806 0.000182271  -0.0237091 -0.22556 0.00012058  -0.0302768 -0.217744 0.000237077  -0.0308259 -0.225142 0.000214964  -0.023181 -0.218099 0.000164211  -0.0308452 -0.225195 0.000166595  -0.024215 -0.23298 0.000112832  -0.0313869 -0.232609 0.000152022  -0.0247169 -0.240422 0.000103593  -0.0313694 -0.232559 0.000196785  -0.0319042 -0.240001 0.000176877  -0.0242007 -0.23293 0.000140607  -0.0319207 -0.240043 0.00013867  -0.0252154 -0.247879 9.66489e-05  -0.0324459 -0.247495 0.000126451  -0.0257108 -0.255352 8.76188e-05  -0.0324316 -0.247457 0.000160754  -0.032953 -0.254929 0.000144482  -0.0252028 -0.247841 0.000116497  -0.0329669 -0.25496 0.000112951  -0.0262005 -0.262833 8.06749e-05  -0.0334797 -0.262437 0.000102431  -0.0266876 -0.270324 7.38502e-05  -0.0334687 -0.262408 0.000131309  -0.0339746 -0.269898 0.000115484  -0.0261896 -0.262805 9.63211e-05  -0.0339868 -0.269921 9.2566e-05  -0.027169 -0.277818 6.89924e-05  -0.0344863 -0.277411 8.28505e-05  -0.0276492 -0.285316 6.16908e-05  -0.0344768 -0.27739 0.000102937  -0.0349708 -0.28489 9.13143e-05  -0.0271618 -0.277798 7.95126e-05  -0.0349813 -0.284905 7.26879e-05  -0.0281236 -0.292814 5.73993e-05  -0.0354679 -0.292398 6.59525e-05  -0.0285957 -0.300312 5.17964e-05  -0.0354598 -0.292385 7.9602e-05  -0.0359435 -0.299885 6.92308e-05  -0.0281169 -0.292801 6.4522e-05  -0.0359519 -0.299892 5.79655e-05  -0.0290618 -0.307804 4.90546e-05  -0.0364285 -0.307382 5.13494e-05  -0.0295279 -0.315292 4.48525e-05  -0.036422 -0.307374 6.16014e-05  -0.036895 -0.314865 5.29587e-05  -0.0290563 -0.307796 5.36144e-05  -0.0368996 -0.314867 4.55081e-05  -0.0299873 -0.322774 4.24981e-05  -0.0373673 -0.322346 4.03523e-05  -0.0304465 -0.330248 3.91901e-05  -0.0373638 -0.322344 4.74155e-05  -0.0378265 -0.32982 4.0859e-05  -0.0299847 -0.322772 4.41074e-05  -0.0378299 -0.329818 3.51965e-05  -0.0309 -0.337711 3.76701e-05  -0.0382893 -0.33728 3.24547e-05  -0.0313537 -0.345166 3.56734e-05  -0.0382855 -0.337281 3.57926e-05  -0.0387399 -0.344738 3.22163e-05  -0.0308979 -0.337713 3.82066e-05  -0.0387444 -0.344734 2.92063e-05  -0.0318015 -0.352608 3.34382e-05  -0.0391953 -0.352176 2.65837e-05  -0.032248 -0.360041 3.24547e-05  -0.0391908 -0.352179 2.78056e-05  -0.0396392 -0.359613 2.37525e-05  -0.0317979 -0.352613 3.32296e-05  -0.039643 -0.359606 2.37226e-05  -0.0326927 -0.367458 3.02792e-05  -0.0400908 -0.367025 2.07424e-05  -0.0331368 -0.374862 2.79546e-05  -0.0400863 -0.367029 1.91331e-05  -0.0405328 -0.374439 1.508e-05  -0.0326891 -0.367461 2.83122e-05  -0.0405354 -0.374434 1.85072e-05  -7.07805e-08 -9.62615e-05 -2.27988e-05  -5.2575e-05 -0.000124604 0.000103116  -1.47521e-06 -0.000749886 -1.16527e-05  -5.51753e-05 -6.95884e-05 0.000145257  -0.00019218 -0.000657976 0.000268161  0 0 0  0 0 0  -7.71135e-07 -4.35114e-05 -2.70605e-05  0 0 0  -0.000155263 -0.000763327 0.000199467  4.34071e-05 -0.00202632 -2.49445e-05  -0.000370964 -0.00207564 0.000262707  6.40154e-05 -0.00366563 -7.51019e-06  -0.000392199 -0.00191188 0.000371873  -0.000646845 -0.00349927 0.000450432  4.04269e-05 -0.00187364 -2.77162e-05  -0.000593096 -0.00370404 0.000333697  9.62615e-05 -0.00571379 -9.98378e-06  -0.000903785 -0.00575879 0.000361085  0.000110954 -0.0080435 3.42727e-06  -0.000932604 -0.00549984 0.000500977  -0.0012387 -0.00778532 0.00053528  9.58443e-05 -0.00546625 -7.24196e-06  -0.00119948 -0.00807551 0.000396788  0.000112504 -0.0106659 5.1558e-06  -0.00152811 -0.0106842 0.000402242  0.000103831 -0.0135377 1.20103e-05  -0.00154707 -0.0103586 0.000545204  -0.00186098 -0.0131973 0.000550032  0.000115573 -0.0103483 9.20892e-06  -0.00184608 -0.0135417 0.000411093  7.86185e-05 -0.0166598 1.40071e-05  -0.00216967 -0.016647 0.000404537  4.11272e-05 -0.0200201 1.58548e-05  -0.00217301 -0.0162852 0.000539869  -0.00248617 -0.0196253 0.00052923  8.64267e-05 -0.0163032 1.5974e-05  -0.00249165 -0.0199935 0.000398517  -1.20401e-05 -0.0236115 1.72257e-05  -0.00281441 -0.0235699 0.000386596  -8.03471e-05 -0.0274333 1.60933e-05  -0.0028019 -0.0231967 0.000511944  -0.00312078 -0.0270073 0.000493735  2.44379e-06 -0.0232425 1.71363e-05  -0.00314015 -0.0273772 0.000373691  -0.00016427 -0.0314702 1.70469e-05  -0.00346863 -0.0314014 0.000360548  -0.000264347 -0.0357249 1.51694e-05  -0.00344515 -0.0310343 0.000475764  -0.00377572 -0.0352842 0.000454575  -0.000144064 -0.0311054 1.5527e-05  -0.00380439 -0.0356423 0.000344425  -0.000380218 -0.040181 1.57952e-05  -0.00414479 -0.0400861 0.00033161  -0.000514209 -0.0448395 1.39475e-05  -0.00411516 -0.039735 0.000436276  -0.00445986 -0.0443927 0.000415474  -0.000357747 -0.0398318 1.33216e-05  -0.00449258 -0.0447307 0.000315636  -0.0006634 -0.049684 1.51694e-05  -0.004848 -0.0495636 0.000303209  -0.000829816 -0.0547162 1.26064e-05  -0.00481474 -0.0492344 0.000398666  -0.00517654 -0.0542662 0.000378579  -0.000638843 -0.0493571 1.12355e-05  -0.00521088 -0.0545808 0.00028801  -0.00101197 -0.0599185 1.41561e-05  -0.00558114 -0.0597706 0.000276476  -0.00121057 -0.0652913 1.21593e-05  -0.0055474 -0.0594667 0.000362754  -0.0059247 -0.0648403 0.000343889  -0.000986934 -0.0596155 9.32813e-06  -0.00595975 -0.0651288 0.000262171  -0.00142276 -0.0708191 1.40369e-05  -0.00634575 -0.0706455 0.000251681  -0.00165308 -0.0765024 1.24574e-05  -0.00631177 -0.0703664 0.000329763  -0.00670421 -0.0760502 0.000311762  -0.00139868 -0.0705411 8.58307e-06  -0.00673831 -0.0763141 0.000238687  -0.00189579 -0.0823255 1.41263e-05  -0.00713813 -0.0821249 0.000229836  -0.0021553 -0.0882891 1.28448e-05  -0.00710583 -0.0818714 0.000299305  -0.00751293 -0.0878356 0.000282317  -0.00187278 -0.082073 7.51019e-06  -0.00754488 -0.0880743 0.000216931  -0.00242579 -0.0943773 1.44243e-05  -0.00795901 -0.0941512 0.000208139  -0.00271177 -0.100592 1.3411e-05  -0.00792825 -0.0939215 0.000270724  -0.00834787 -0.100137 0.000254661  -0.00240302 -0.0941491 8.43406e-06  -0.00837839 -0.100352 0.000196546  -0.00300801 -0.106918 1.5527e-05  -0.00880432 -0.106667 0.000188828  -0.00331914 -0.113356 1.50502e-05  -0.00877571 -0.106461 0.000243545  -0.00920725 -0.1129 0.000229895  -0.00298762 -0.106713 9.35793e-06  -0.00923574 -0.113092 0.000178277  -0.00364077 -0.119892 1.71959e-05  -0.00967324 -0.119618 0.000171542  -0.00397396 -0.126529 1.63615e-05  -0.00964558 -0.119434 0.000219733  -0.0100877 -0.126071 0.00020662  -0.00362098 -0.11971 1.02818e-05  -0.0101138 -0.126241 0.000161469  -0.00431621 -0.13325 1.88351e-05  -0.0105603 -0.132953 0.000154167  -0.00467062 -0.140059 1.77026e-05  -0.010535 -0.132791 0.00019595  -0.0109856 -0.1396 0.000184894  -0.00429857 -0.133088 1.16527e-05  -0.0110095 -0.13975 0.000146091  -0.00503182 -0.146943 2.03252e-05  -0.0114629 -0.146625 0.000139624  -0.005404 -0.153902 1.99974e-05  -0.0114408 -0.146482 0.000176072  -0.0118985 -0.153442 0.000165135  -0.00501657 -0.1468 1.33216e-05  -0.0119197 -0.153572 0.000130534  -0.00578284 -0.160923 2.19047e-05  -0.0123794 -0.160587 0.00012508  -0.00617123 -0.168011 2.24113e-05  -0.0123603 -0.160462 0.000156999  -0.0128236 -0.167551 0.000146717  -0.00576997 -0.160799 1.62423e-05  -0.012841 -0.167665 0.000117779  -0.00656533 -0.175151 2.46763e-05  -0.0133059 -0.174798 0.00011301  -0.00696754 -0.182346 2.36332e-05  -0.0132895 -0.17469 0.000139713  -0.013756 -0.181887 0.000130415  -0.00655389 -0.175044 1.75238e-05  -0.0137727 -0.181984 0.000105381  -0.00737429 -0.189585 2.60174e-05  -0.0142412 -0.189217 0.000101  -0.00778794 -0.196869 2.5928e-05  -0.0142264 -0.189124 0.00012359  -0.0146952 -0.196412 0.000114709  -0.00736451 -0.189494 2.0057e-05  -0.0147097 -0.196494 9.37879e-05  -0.00820589 -0.204188 2.83718e-05  -0.0151808 -0.203807 8.98242e-05  -0.00862789 -0.211545 2.80738e-05  -0.015168 -0.203731 0.000109196  -0.0156381 -0.211089 0.000101298  -0.00819683 -0.204112 2.27094e-05  -0.015651 -0.211156 8.38041e-05  -0.00905466 -0.218927 3.016e-05  -0.0161214 -0.218534 8.02875e-05  -0.0094862 -0.226339 3.06368e-05  -0.0161104 -0.21847 9.58145e-05  -0.0165811 -0.225885 8.86321e-05  -0.00904822 -0.218865 2.49445e-05  -0.0165918 -0.22594 7.56681e-05  -0.00991917 -0.23377 3.16799e-05  -0.0170629 -0.233367 7.17044e-05  -0.0103581 -0.241224 3.19779e-05  -0.0170534 -0.233317 8.40127e-05  -0.017524 -0.240773 7.83205e-05  -0.00991392 -0.233721 2.71797e-05  -0.0175328 -0.240816 6.77109e-05  -0.0107963 -0.248691 3.46005e-05  -0.0180013 -0.248279 6.47902e-05  -0.0112374 -0.256173 3.49283e-05  -0.0179944 -0.248239 7.39992e-05  -0.0184624 -0.255723 6.9052e-05  -0.010792 -0.248652 2.89083e-05  -0.0184703 -0.255757 5.99623e-05  -0.0116799 -0.263661 3.68357e-05  -0.0189381 -0.263243 5.79357e-05  -0.0121253 -0.27116 3.68953e-05  -0.0189302 -0.263212 6.48499e-05  -0.0193958 -0.270713 6.03795e-05  -0.0116775 -0.263631 3.24249e-05  -0.0194037 -0.270737 5.37336e-05  -0.0125694 -0.278659 3.82364e-05  -0.0198681 -0.278235 5.30183e-05  -0.0130162 -0.286165 3.82066e-05  -0.0198615 -0.278212 5.73397e-05  -0.0203259 -0.28572 5.46575e-05  -0.0125675 -0.278637 3.38852e-05  -0.0203302 -0.285736 4.92632e-05  -0.0134623 -0.293666 3.99947e-05  -0.0207911 -0.293238 4.8548e-05  -0.0139103 -0.301167 4.06504e-05  -0.0207877 -0.293222 5.12302e-05  -0.0212479 -0.300729 4.72963e-05  -0.0134609 -0.293652 3.69847e-05  -0.0212502 -0.300737 4.52399e-05  -0.0143559 -0.308664 4.12166e-05  -0.021708 -0.308231 4.45247e-05  -0.0148036 -0.316157 4.19915e-05  -0.0217047 -0.308222 4.71473e-05  -0.0221605 -0.315719 4.46141e-05  -0.0143552 -0.308656 3.91304e-05  -0.0221629 -0.315723 4.28855e-05  -0.01525 -0.323639 4.29749e-05  -0.0226171 -0.323205 4.22895e-05  -0.0156949 -0.331116 4.49419e-05  -0.022615 -0.323201 4.40776e-05  -0.0230677 -0.330682 4.27663e-05  -0.0152488 -0.323636 4.071e-05  -0.0230706 -0.330682 4.00245e-05  -0.01614 -0.338581 4.45545e-05  -0.0235198 -0.338146 4.05908e-05  -0.0165854 -0.34604 4.63128e-05  -0.0235186 -0.338147 4.13358e-05  -0.0239666 -0.345606 4.08292e-05  -0.0161402 -0.338582 4.36604e-05  -0.0239675 -0.345602 3.91304e-05  -0.0170264 -0.353482 4.6283e-05  -0.0244138 -0.353045 3.84152e-05  -0.0174704 -0.360915 4.73857e-05  -0.0244131 -0.353047 4.08292e-05  -0.0248578 -0.360484 3.91901e-05  -0.0170281 -0.353485 4.58062e-05  -0.0248585 -0.360478 3.83258e-05  -0.017911 -0.36833 4.87566e-05  -0.0253007 -0.367893 3.91304e-05  -0.0183504 -0.375733 4.86672e-05  -0.0253007 -0.367896 3.80874e-05  -0.0257411 -0.375301 3.6478e-05  -0.017911 -0.368334 4.8846e-05  -0.0257435 -0.375295 3.79384e-05  0.000143066 -0.000228584 -0.000247359  8.48919e-05 -0.000140071 -0.000120461  0.000463441 -0.00100172 -0.000425756  8.32975e-05 -9.09567e-05 -0.000176489  0.00027366 -0.000706553 -0.00031817  0 0 0  0 0 0  0.000143655 -0.000176847 -0.000347078  0 0 0  0.000296682 -0.000808001 -0.000217527  0.000972494 -0.00238603 -0.000593841  0.000541314 -0.00214559 -0.000310272  0.00156131 -0.00405872 -0.000682265  0.000548676 -0.00198627 -0.000431716  0.000861645 -0.00357467 -0.000482976  0.000994638 -0.00222111 -0.000817418  0.000863463 -0.00377601 -0.000347137  0.00219655 -0.00615865 -0.000751108  0.00116864 -0.0058583 -0.000386834  0.00283861 -0.0084874 -0.000777125  0.00118673 -0.00560498 -0.000523299  0.00150555 -0.00789905 -0.000528514  0.00223812 -0.00589728 -0.00101683  0.00149319 -0.00818396 -0.000390142  0.00345641 -0.011126 -0.000787258  0.00179106 -0.0108171 -0.000396669  0.00405061 -0.0139991 -0.000781834  0.00181136 -0.0104966 -0.00053221  0.00209379 -0.0133553 -0.000520945  0.00349599 -0.0107999 -0.00105822  0.00207591 -0.0136946 -0.000387222  0.00460458 -0.0171248 -0.000765026  0.00233775 -0.0168201 -0.000379086  0.00512308 -0.0204924 -0.000746697  0.00235558 -0.0164631 -0.00050959  0.00259227 -0.0198256 -0.000494063  0.00463349 -0.0167654 -0.00102752  0.00257319 -0.0201897 -0.000366926  0.00560212 -0.0240878 -0.000719577  0.00278628 -0.0237848 -0.000353813  0.00604308 -0.0279187 -0.000696778  0.00280392 -0.0234149 -0.000477016  0.00298983 -0.0272485 -0.000461578  0.00562245 -0.0237173 -0.00096789  0.00297147 -0.0276152 -0.000341803  0.0064472 -0.031963 -0.000667274  0.00313151 -0.0316584 -0.000326902  0.00681269 -0.0362297 -0.000642627  0.00314891 -0.031293 -0.000442296  0.00328308 -0.0355655 -0.000426799  0.00646102 -0.0315987 -0.000899345  0.00326455 -0.0359211 -0.00031513  0.00714397 -0.0406955 -0.000613451  0.00337255 -0.0403845 -0.000299811  0.00743854 -0.0453686 -0.000589073  0.0033893 -0.0400354 -0.000407755  0.00347137 -0.0447155 -0.000392884  0.00715476 -0.0403474 -0.000828803  0.00345349 -0.0450525 -0.000289023  0.00769937 -0.050225 -0.000561446  0.00350988 -0.0499061 -0.000274003  0.00792551 -0.0552724 -0.000537664  0.00352645 -0.0495779 -0.000373751  0.00355744 -0.0546328 -0.000359923  0.00770807 -0.0498984 -0.000760496  0.0035404 -0.054947 -0.000263095  0.00812042 -0.060488 -0.000510722  0.00354683 -0.0601587 -0.000249088  0.00828052 -0.0658772 -0.00048846  0.00356269 -0.0598541 -0.000341296  0.00354505 -0.065252 -0.000327736  0.00812793 -0.0601854 -0.000693738  0.00352883 -0.065541 -0.000239551  0.00841093 -0.0714196 -0.0004628  0.00348735 -0.0710787 -0.000225335  0.00850999 -0.0771196 -0.000441492  0.00350189 -0.0707995 -0.000310153  0.00343788 -0.0765071 -0.000297189  0.00841737 -0.071142 -0.000631213  0.0034225 -0.0767706 -0.00021562  0.00857961 -0.0829573 -0.000416994  0.0033356 -0.082604 -0.000202328  0.00862014 -0.088936 -0.00039655  0.00334966 -0.0823498 -0.000280827  0.00324094 -0.0883369 -0.000267744  0.00858557 -0.0827043 -0.000570476  0.0032264 -0.0885761 -0.000193089  0.00863266 -0.0950403 -0.000373125  0.00309741 -0.0946749 -0.000179857  0.00861645 -0.10127 -0.000354022  0.00311041 -0.0944446 -0.000251353  0.00296021 -0.100683 -0.000239462  0.00863731 -0.0948113 -0.000513732  0.00294685 -0.100898 -0.000171244  0.00857651 -0.10761 -0.000332087  0.00277734 -0.107234 -0.000158668  0.00850797 -0.114064 -0.000312984  0.00278926 -0.107027 -0.000224054  0.00260139 -0.113487 -0.000212163  0.00858009 -0.107405 -0.000458539  0.00258911 -0.11368 -0.000149757  0.00841701 -0.120613 -0.000292718  0.00238287 -0.120226 -0.000138611  0.00830162 -0.127263 -0.000274807  0.0023936 -0.120041 -0.000196815  0.00216961 -0.126698 -0.000186533  0.00842023 -0.12043 -0.000407338  0.00215936 -0.126869 -0.000130117  0.00816488 -0.133998 -0.000254601  0.0019182 -0.1336 -0.000118613  0.00800395 -0.140819 -0.000238299  0.00192797 -0.133436 -0.000171989  0.00167179 -0.140264 -0.000160694  0.00816715 -0.133834 -0.000357121  0.00166154 -0.140416 -0.000111669  0.00782466 -0.147714 -0.000219226  0.00139046 -0.147307 -9.99868e-05  0.00762415 -0.154685 -0.000203043  0.00139928 -0.147162 -0.000147074  0.00111365 -0.15414 -0.000136673  0.00782704 -0.147571 -0.000309706  0.00110483 -0.154272 -9.24468e-05  0.00740623 -0.161717 -0.000185758  0.00080657 -0.161301 -8.23736e-05  0.0071671 -0.168814 -0.000170797  0.000812769 -0.161175 -0.000124216  0.000499964 -0.16828 -0.000114441  0.00740623 -0.161592 -0.000265807  0.000493288 -0.168394 -7.53701e-05  0.00691342 -0.175964 -0.000153035  0.000169277 -0.175541 -6.634e-05  0.0066421 -0.183168 -0.000140041  0.000174761 -0.175432 -0.000103474  -0.000161171 -0.182643 -9.36687e-05  0.00691414 -0.175856 -0.00022459  -0.000165939 -0.182741 -5.96046e-05  0.00635695 -0.190414 -0.000124812  -0.000512838 -0.189985 -5.00679e-05  0.00605559 -0.197707 -0.00011161  -0.000510216 -0.189894 -8.21054e-05  -0.000866175 -0.197192 -7.31349e-05  0.00635672 -0.190323 -0.000185609  -0.000870943 -0.197274 -4.43161e-05  0.00574183 -0.205032 -9.82285e-05  -0.00123668 -0.204598 -3.53456e-05  0.00541425 -0.212395 -8.50856e-05  -0.00123358 -0.20452 -6.26743e-05  -0.00160956 -0.21189 -5.43892e-05  0.00574088 -0.204955 -0.000149876  -0.00161266 -0.211958 -3.01301e-05  0.00507617 -0.219782 -7.18534e-05  -0.00199437 -0.219345 -2.14875e-05  0.00472426 -0.2272 -6.14524e-05  -0.00199294 -0.21928 -4.48823e-05  -0.00238323 -0.226704 -3.78489e-05  0.00507212 -0.21972 -0.00011608  -0.00238466 -0.226758 -1.56462e-05  0.00436425 -0.234636 -4.81606e-05  -0.00278234 -0.234195 -9.20892e-06  0.00399303 -0.242093 -3.72827e-05  -0.00278044 -0.234142 -2.76268e-05  -0.00318384 -0.241606 -2.14875e-05  0.00436068 -0.234584 -8.63373e-05  -0.00318432 -0.24165 -3.63588e-06  0.0036149 -0.249562 -2.70605e-05  -0.00359368 -0.249119 2.83122e-06  0.00322723 -0.257047 -1.74642e-05  -0.00359344 -0.249079 -1.41263e-05  -0.00400805 -0.256569 -6.28829e-06  0.00361204 -0.249522 -5.79953e-05  -0.00400805 -0.256603 7.06315e-06  0.00283241 -0.264538 -8.79169e-06  -0.00442719 -0.264093 1.30832e-05  0.00243163 -0.272039 -5.66244e-07  -0.00442815 -0.264063 7.7486e-07  -0.0048511 -0.271569 5.0962e-06  0.00283074 -0.264508 -3.23653e-05  -0.00484896 -0.271593 1.72257e-05  0.00202537 -0.279539 7.89762e-06  -0.00527477 -0.279094 2.27094e-05  0.00161195 -0.287045 1.50502e-05  -0.00527716 -0.279072 1.20997e-05  -0.0057056 -0.286583 1.69575e-05  0.00202155 -0.279519 -1.0699e-05  -0.00570536 -0.2866 2.63453e-05  0.00119352 -0.294548 2.21431e-05  -0.00613856 -0.294105 2.91467e-05  0.000771761 -0.302052 2.79248e-05  -0.00613832 -0.294088 2.32458e-05  -0.00657368 -0.301597 2.69115e-05  0.00119114 -0.294534 8.04663e-06  -0.00657082 -0.301606 3.28422e-05  0.000347137 -0.309547 3.51071e-05  -0.00700808 -0.309102 3.84152e-05  -8.22544e-05 -0.31704 3.94285e-05  -0.00700927 -0.309094 3.12626e-05  -0.00744629 -0.316593 3.5584e-05  0.000344038 -0.309539 2.40207e-05  -0.00744414 -0.316596 4.01437e-05  -0.0005126 -0.324523 4.57466e-05  -0.00788307 -0.324079 4.42564e-05  -0.000946045 -0.332 4.94719e-05  -0.00788569 -0.324074 4.10676e-05  -0.00832558 -0.331557 4.41372e-05  -0.000516653 -0.324521 3.76999e-05  -0.008322 -0.331558 4.41968e-05  -0.00138068 -0.339464 5.3525e-05  -0.00876284 -0.339022 4.78327e-05  -0.0018189 -0.34692 5.68032e-05  -0.00876546 -0.339022 4.80413e-05  -0.00920653 -0.346483 5.00977e-05  -0.00138545 -0.339466 4.87268e-05  -0.00920391 -0.346479 5.06341e-05  -0.00225616 -0.354363 6.13928e-05  -0.00964308 -0.353923 5.28693e-05  -0.00269461 -0.361797 6.26743e-05  -0.00964737 -0.353925 5.30183e-05  -0.0100865 -0.361362 5.56409e-05  -0.00225949 -0.354367 5.85616e-05  -0.0100853 -0.361356 5.47767e-05  -0.00313067 -0.369214 6.67274e-05  -0.0105226 -0.368771 5.72503e-05  -0.00356698 -0.376621 6.8754e-05  -0.0105255 -0.368774 5.76079e-05  -0.0109613 -0.376179 6.16312e-05  -0.00313354 -0.369217 6.61612e-05  -0.0109568 -0.376175 5.78463e-05  0.000316106 -0.000669718 -0.000461459  0.000248052 -0.000405133 -0.000336438  0.0010363 -0.00174248 -0.000817657  0.000248365 -0.000356913 -0.000487953  0.000798434 -0.00117391 -0.000885457  0 0 0  0 0 0  0.000319891 -0.000607729 -0.000647515  0 0 0  0.000807852 -0.00128478 -0.000620514  0.00207677 -0.00337583 -0.00113094  0.0015413 -0.0027926 -0.000863671  0.00329065 -0.00514013 -0.00132355  0.00157668 -0.00261557 -0.00120774  0.00247347 -0.00428957 -0.00138706  0.00212066 -0.00317389 -0.00156185  0.00242427 -0.00451148 -0.00100753  0.0045419 -0.00728828 -0.00145775  0.00335303 -0.0066334 -0.00111264  0.00581217 -0.00961167 -0.00152716  0.0034146 -0.0063594 -0.00151807  0.0043554 -0.00866818 -0.00156569  0.00461835 -0.00699103 -0.00198045  0.00429246 -0.00897127 -0.001158  0.00703374 -0.0122222 -0.00155246  0.00521436 -0.0115939 -0.00117752  0.00821322 -0.0150685 -0.00155273  0.00527048 -0.0112585 -0.00158685  0.00614333 -0.0141129 -0.00157312  0.00710326 -0.0118716 -0.00209031  0.00609332 -0.0144637 -0.00117165  0.00933003 -0.0181595 -0.001526  0.00693297 -0.0175722 -0.00115106  0.0103877 -0.0215048 -0.00149348  0.00697184 -0.0172064 -0.001544  0.00775146 -0.0205643 -0.00150505  0.00937712 -0.0177852 -0.00204766  0.00771934 -0.0209341 -0.00112259  0.011387 -0.0250746 -0.00144497  0.00846118 -0.024519 -0.00108603  0.0123256 -0.0288925 -0.0013988  0.00848448 -0.024145 -0.00145561  0.00916952 -0.0279766 -0.00140777  0.0114131 -0.0246974 -0.00193846  0.00915152 -0.0283459 -0.00105003  0.0132082 -0.0329212 -0.00134391  0.00979674 -0.0323849 -0.00100771  0.0140342 -0.0371813 -0.00129333  0.00980884 -0.0320181 -0.00135258  0.0104029 -0.0362938 -0.00130209  0.0132199 -0.0325537 -0.00180393  0.0103936 -0.0366505 -0.000969648  0.0148066 -0.041639 -0.00123763  0.010946 -0.0411149 -0.000927329  0.015524 -0.0463093 -0.00118706  0.0109513 -0.0407652 -0.00124618  0.0114574 -0.045451 -0.00119638  0.0148089 -0.0412894 -0.00166386  0.0114532 -0.045788 -0.000889957  0.0161918 -0.0511618 -0.00113302  0.0119179 -0.0506454 -0.000848711  0.0168059 -0.0562091 -0.00108451  0.01192 -0.0503163 -0.00114214  0.0123407 -0.05538 -0.00109467  0.0161881 -0.0508353 -0.00152621  0.0123395 -0.0556936 -0.000812173  0.0173731 -0.0614228 -0.00103283  0.0127202 -0.0609111 -0.000772804  0.0178896 -0.0668139 -0.000986695  0.0127198 -0.060607 -0.00104311  0.0130606 -0.0660134 -0.000997096  0.0173666 -0.061121 -0.00139338  0.0130605 -0.0663018 -0.000738233  0.0183618 -0.0723562 -0.000937164  0.0133611 -0.0718469 -0.000700682  0.0187849 -0.0780584 -0.000893235  0.0133595 -0.0715677 -0.000948429  0.0136222 -0.0772851 -0.000905156  0.0183541 -0.0720785 -0.00126737  0.0136232 -0.0775483 -0.000667989  0.0191658 -0.0838968 -0.000846595  0.0138488 -0.0833895 -0.000633419  0.0195001 -0.0898799 -0.000804275  0.0138465 -0.0831348 -0.000858605  0.0140353 -0.0891317 -0.000816464  0.0191569 -0.083644 -0.00114742  0.0140369 -0.0893715 -0.000601888  0.0197945 -0.0959836 -0.000760555  0.014191 -0.0954776 -0.000567406  0.0200461 -0.102217 -0.000719994  0.0141877 -0.0952473 -0.000772446  0.0143074 -0.101494 -0.000733048  0.0197855 -0.0957555 -0.00103328  0.01431 -0.10171 -0.000538588  0.0202584 -0.108558 -0.000678569  0.0143961 -0.108054 -0.000505865  0.0204318 -0.115014 -0.000639975  0.0143923 -0.107846 -0.000691801  0.0144469 -0.114315 -0.000652939  0.0202503 -0.108352 -0.000924587  0.0144497 -0.114508 -0.000477821  0.0205688 -0.121566 -0.000601143  0.0144726 -0.121062 -0.00044775  0.020669 -0.128218 -0.000564188  0.0144694 -0.120875 -0.00061354  0.0144627 -0.127542 -0.000578135  0.0205603 -0.121381 -0.000822037  0.0144657 -0.127713 -0.000421077  0.020735 -0.134952 -0.000526875  0.0144304 -0.13445 -0.000391781  0.0207653 -0.141776 -0.00049296  0.014426 -0.134285 -0.000540704  0.0143631 -0.141122 -0.000506371  0.0207264 -0.134789 -0.000724792  0.0143671 -0.141275 -0.000366896  0.0207663 -0.148671 -0.000457972  0.0142782 -0.14817 -0.00033924  0.0207343 -0.155643 -0.000425667  0.0142732 -0.148026 -0.000470549  0.0141575 -0.15501 -0.000439078  0.0207567 -0.148527 -0.000632375  0.0141609 -0.155142 -0.000315696  0.0206745 -0.162675 -0.000393122  0.0140221 -0.162175 -0.000289977  0.0205848 -0.169772 -0.000362575  0.0140169 -0.162049 -0.000405878  0.0138543 -0.16916 -0.000375122  0.020664 -0.162549 -0.000546932  0.0138578 -0.169275 -0.000268251  0.0204682 -0.176921 -0.00033167  0.013674 -0.176425 -0.000243127  0.0203252 -0.184125 -0.000302881  0.0136693 -0.176315 -0.000344872  0.0134623 -0.183531 -0.000317305  0.0204577 -0.176813 -0.000465453  0.0134685 -0.183629 -0.000221997  0.0201573 -0.191369 -0.00027433  0.0132408 -0.190877 -0.000201613  0.0199661 -0.198661 -0.000248998  0.013236 -0.190783 -0.000286937  0.0129907 -0.198086 -0.000261873  0.020148 -0.191277 -0.00039053  0.0129957 -0.198169 -0.000181735  0.0197537 -0.205984 -0.000222147  0.0127342 -0.205494 -0.000160068  0.0195208 -0.213345 -0.00019756  0.0127275 -0.205417 -0.000234842  0.0124476 -0.212789 -0.000210166  0.0197444 -0.205907 -0.000320405  0.0124536 -0.212858 -0.000142306  0.0192664 -0.22073 -0.000172734  0.0121574 -0.220246 -0.000124007  0.0189929 -0.228146 -0.000151336  0.012152 -0.220181 -0.00018543  0.0118401 -0.227606 -0.000164121  0.0192564 -0.220667 -0.000255674  0.0118475 -0.227663 -0.00010711  0.0187035 -0.235578 -0.000129074  0.0115221 -0.235097 -8.88407e-05  0.0183966 -0.243034 -0.000107914  0.0115149 -0.235045 -0.000140905  0.0111778 -0.242511 -0.00012055  0.0186944 -0.235527 -0.000196964  0.0111835 -0.242554 -7.42078e-05  0.018075 -0.250499 -8.84831e-05  0.0108337 -0.250023 -5.88596e-05  0.0177386 -0.257981 -7.07805e-05  0.0108275 -0.249981 -0.00010094  0.0104666 -0.257474 -8.22246e-05  0.0180662 -0.250459 -0.000144094  0.010473 -0.257507 -4.47929e-05  0.0173905 -0.265467 -5.34952e-05  0.0101027 -0.264997 -3.16799e-05  0.0170298 -0.272965 -3.71337e-05  0.0100958 -0.264965 -6.4373e-05  0.00971556 -0.272472 -4.81009e-05  0.0173814 -0.265437 -9.6947e-05  0.00972152 -0.272495 -2.0057e-05  0.0166576 -0.280462 -2.12193e-05  0.0093329 -0.279997 -7.95722e-06  0.0162745 -0.287965 -7.53999e-06  0.00932503 -0.279974 -3.35574e-05  0.0089283 -0.287485 -1.94907e-05  0.0166497 -0.280441 -5.47469e-05  0.00893474 -0.287501 2.563e-06  0.0158827 -0.295463 4.97699e-06  0.00853109 -0.295003 1.35601e-05  0.0154834 -0.302963 1.70767e-05  0.00852466 -0.294987 -4.70877e-06  0.00811505 -0.302495 6.02007e-06  0.0158761 -0.295449 -1.98185e-05  0.00812125 -0.302503 2.15471e-05  0.0150776 -0.310456 2.74181e-05  0.00770593 -0.309999 3.18587e-05  0.0146651 -0.317946 3.74317e-05  0.00769973 -0.30999 1.70469e-05  0.00728035 -0.317486 2.77758e-05  0.0150716 -0.310448 1.04606e-05  0.00728559 -0.31749 3.69251e-05  0.0142469 -0.325424 4.59254e-05  0.00686049 -0.324973 4.37796e-05  0.0138223 -0.332899 5.41508e-05  0.00685596 -0.324968 3.66867e-05  0.00642776 -0.332449 4.55379e-05  0.0142403 -0.325422 3.48389e-05  0.00643325 -0.332447 5.07236e-05  0.0133977 -0.34036 6.16908e-05  0.00600243 -0.339912 5.65946e-05  0.012965 -0.347814 6.81579e-05  0.00599694 -0.33991 5.37336e-05  0.00556374 -0.347371 5.98729e-05  0.0133886 -0.340361 5.46575e-05  0.00556827 -0.347366 6.16014e-05  0.0125334 -0.355256 7.4178e-05  0.00513387 -0.354809 6.6638e-05  0.0120974 -0.362688 7.83503e-05  0.00512791 -0.354811 6.54459e-05  0.00469232 -0.362248 7.1317e-05  0.012526 -0.355258 7.02143e-05  0.00469756 -0.362242 6.96778e-05  0.011663 -0.370108 8.39829e-05  0.00426197 -0.369662 7.45952e-05  0.0112267 -0.37752 8.83341e-05  0.00425601 -0.369664 7.6443e-05  0.00382376 -0.377073 8.41618e-05  0.0116558 -0.370111 8.47876e-05  0.00383043 -0.377068 7.87973e-05  0.000585325 -0.001692 -0.000669301  0.000501357 -0.00105458 -0.000539899  0.00198248 -0.00326139 -0.00119254  0.00050468 -0.0010035 -0.000781626  0.00152537 -0.00224549 -0.00141039  0 0 0  0 0 0  0.000599347 -0.00160104 -0.000918686  0 0 0  0.00151609 -0.00237906 -0.000997663  0.00366654 -0.00516093 -0.00163084  0.00284061 -0.0041427 -0.00138012  0.00556055 -0.0070281 -0.00192395  0.00289871 -0.0039252 -0.00192559  0.00442725 -0.0057317 -0.00222981  0.00371876 -0.00490433 -0.00224671  0.00433451 -0.00599778 -0.00162673  0.0074245 -0.00911516 -0.00212359  0.00591013 -0.00810838 -0.00179762  0.00927687 -0.0114055 -0.00223902  0.00600207 -0.00779223 -0.00245315  0.00755671 -0.0100971 -0.00255078  0.00751612 -0.0087707 -0.00288799  0.00745636 -0.010439 -0.00188836  0.0110684 -0.0139168 -0.00228637  0.00898188 -0.0129969 -0.00192654  0.0127872 -0.0167068 -0.00229681  0.00906244 -0.0126302 -0.00259706  0.0105049 -0.0154478 -0.00258878  0.0111553 -0.0135323 -0.00308311  0.0104316 -0.0158241 -0.00192922  0.0144399 -0.0197268 -0.00226501  0.0118254 -0.0188798 -0.00190124  0.0160108 -0.0230255 -0.00222194  0.0118795 -0.0184942 -0.0025492  0.0131864 -0.0218205 -0.0024921  0.0145014 -0.0193317 -0.00304136  0.0131428 -0.022205 -0.00186065  0.0175122 -0.0265501 -0.00215569  0.0143961 -0.0257543 -0.00180396  0.018934 -0.0303344 -0.00208861  0.0144251 -0.0253698 -0.00241616  0.0155985 -0.0291799 -0.00233886  0.0175473 -0.0261608 -0.00289056  0.015579 -0.0295565 -0.00174648  0.0202847 -0.034332 -0.00201032  0.016697 -0.0335726 -0.00167957  0.0215601 -0.0385686 -0.00193563  0.016708 -0.033201 -0.00225031  0.0177543 -0.0374621 -0.00216666  0.0202997 -0.0339592 -0.00269622  0.0177488 -0.0378223 -0.00161666  0.0227659 -0.043003 -0.0018543  0.0187385 -0.0422704 -0.00154844  0.0238997 -0.0476563 -0.00177896  0.0187384 -0.0419177 -0.00207689  0.0196626 -0.0465957 -0.00199312  0.0227674 -0.0426517 -0.00249019  0.019666 -0.0469332 -0.00148466  0.0249661 -0.0524891 -0.00170031  0.020533 -0.0517792 -0.00141841  0.0259627 -0.0575233 -0.00162628  0.0205266 -0.0514497 -0.00190529  0.0213329 -0.0565066 -0.00182426  0.0249603 -0.0521627 -0.00228554  0.0213407 -0.0568197 -0.00135747  0.0268962 -0.0627204 -0.001551  0.0220906 -0.0620275 -0.00129303  0.0277624 -0.0680999 -0.00148055  0.0220817 -0.0617236 -0.00174028  0.0227745 -0.0671266 -0.00166267  0.0268868 -0.0624188 -0.00208807  0.0227839 -0.0674142 -0.00123471  0.0285685 -0.0736262 -0.00140846  0.0234228 -0.072952 -0.00117406  0.0293109 -0.0793192 -0.00134176  0.0234114 -0.0726728 -0.00158271  0.0239965 -0.0783861 -0.00150862  0.0285567 -0.0733507 -0.00190014  0.0240077 -0.0786493 -0.00111777  0.0299964 -0.085143 -0.00127336  0.0245403 -0.0844833 -0.00106117  0.0306202 -0.0911174 -0.00120929  0.0245283 -0.0842289 -0.00143322  0.0250102 -0.0902231 -0.00136298  0.0299839 -0.0848918 -0.00172049  0.0250221 -0.0904626 -0.00100821  0.0311906 -0.0972081 -0.00114471  0.0254548 -0.0965621 -0.000953615  0.0317031 -0.103433 -0.00108412  0.0254413 -0.096332 -0.00129128  0.025825 -0.102577 -0.00122336  0.0311775 -0.0969805 -0.00155035  0.0258373 -0.102793 -0.000903755  0.0321646 -0.109761 -0.00102305  0.0261751 -0.109129 -0.000851423  0.0325719 -0.116209 -0.000965446  0.026163 -0.108922 -0.00115627  0.0264552 -0.11539 -0.00109234  0.0321525 -0.109557 -0.00138846  0.0264671 -0.115583 -0.000804156  0.0329311 -0.122748 -0.000907153  0.0267156 -0.122129 -0.000754863  0.0332396 -0.129393 -0.000852764  0.0267032 -0.121944 -0.00102794  0.0269099 -0.128607 -0.000967294  0.032919 -0.122565 -0.00123513  0.0269213 -0.128778 -0.000709623  0.0335037 -0.136114 -0.000798285  0.0270871 -0.135509 -0.000663429  0.0337203 -0.14293 -0.000747085  0.0270749 -0.135344 -0.000906467  0.0271995 -0.142178 -0.000850111  0.0334916 -0.135952 -0.00109005  0.0272121 -0.142329 -0.000621289  0.0338957 -0.149812 -0.000695288  0.0272994 -0.14922 -0.000577718  0.0340264 -0.156776 -0.000647038  0.0272872 -0.149075 -0.000792474  0.0273385 -0.156056 -0.000739276  0.0338831 -0.14967 -0.000953674  0.0273504 -0.156188 -0.000538319  0.0341196 -0.163796 -0.000598282  0.0273669 -0.163216 -0.000496626  0.0341702 -0.170886 -0.000552833  0.027355 -0.163088 -0.000685722  0.0273371 -0.170196 -0.000635296  0.0341055 -0.163672 -0.000825673  0.0273497 -0.170311 -0.000458568  0.0341864 -0.178021 -0.000507444  0.0273004 -0.177454 -0.000420839  0.0341654 -0.185216 -0.000465006  0.027287 -0.177345 -0.000584155  0.0272067 -0.184556 -0.000537246  0.0341742 -0.177914 -0.000705183  0.0272193 -0.184654 -0.000384569  0.0341129 -0.192448 -0.000423372  0.0271087 -0.191894 -0.000350177  0.0340254 -0.199731 -0.000383139  0.0270977 -0.191801 -0.000490785  0.0269601 -0.1991 -0.000447452  0.0341005 -0.192358 -0.000591964  0.0269713 -0.199182 -0.000317961  0.0339091 -0.207043 -0.000345707  0.0268073 -0.206502 -0.00028488  0.033762 -0.214396 -0.000308603  0.0267949 -0.206423 -0.000404119  0.0266061 -0.21379 -0.000363767  0.0338964 -0.206967 -0.000489324  0.0266187 -0.213858 -0.000254244  0.0335886 -0.221769 -0.000272632  0.0264056 -0.22124 -0.00022468  0.0333865 -0.229176 -0.000240147  0.0263937 -0.221175 -0.000323653  0.0261583 -0.228595 -0.000287533  0.033576 -0.221706 -0.00039342  0.0261691 -0.228651 -0.00019598  0.0331619 -0.236596 -0.000207514  0.025913 -0.236078 -0.000169307  0.0329127 -0.244042 -0.000177592  0.0259011 -0.236027 -0.000251174  0.0256255 -0.243487 -0.00021857  0.0331502 -0.236546 -0.00030762  0.0256355 -0.24353 -0.000144303  0.0326438 -0.251496 -0.000148118  0.025342 -0.250991 -0.000119597  0.0323527 -0.25897 -0.000120997  0.0253308 -0.250951 -0.00018549  0.0250194 -0.258437 -0.000155896  0.0326316 -0.251458 -0.000228643  0.0250299 -0.258468 -9.63807e-05  0.0320435 -0.266446 -9.4831e-05  0.0247004 -0.265952 -7.52211e-05  0.0317159 -0.273936 -7.24494e-05  0.0246904 -0.265922 -0.000126511  0.0243485 -0.273423 -0.000100255  0.0320337 -0.266418 -0.000159293  0.024358 -0.273445 -5.57303e-05  0.0313742 -0.281421 -4.90248e-05  0.0240009 -0.28094 -3.68655e-05  0.0310159 -0.288918 -2.864e-05  0.0239923 -0.280916 -7.62343e-05  0.023623 -0.288423 -5.26905e-05  0.031364 -0.281402 -9.74238e-05  0.0236335 -0.288439 -1.98483e-05  0.0306458 -0.296407 -9.83477e-06  0.0232522 -0.295934 -2.32458e-06  0.0302615 -0.3039 7.00355e-06  0.023243 -0.295919 -3.13818e-05  0.0228529 -0.303421 -1.2517e-05  0.0306368 -0.296395 -4.53889e-05  0.0228622 -0.30343 1.055e-05  0.0298686 -0.311383 2.34544e-05  0.0224619 -0.310919 2.41995e-05  0.0294647 -0.318868 3.6031e-05  0.0224543 -0.310911 5.36442e-06  0.0220475 -0.318403 2.05338e-05  0.0298607 -0.311379 -2.11596e-06  0.0220551 -0.318406 3.60012e-05  0.029053 -0.32634 4.82798e-05  0.0216413 -0.325882 4.66704e-05  0.0286348 -0.333808 6.00517e-05  0.0216334 -0.325878 3.53456e-05  0.0212135 -0.333355 4.79817e-05  0.029047 -0.326338 3.35872e-05  0.0212224 -0.333353 5.58197e-05  0.0282116 -0.341263 7.08997e-05  0.0207973 -0.340812 6.49691e-05  0.0277829 -0.348715 7.79033e-05  0.0207884 -0.340812 5.83827e-05  0.0203612 -0.348268 6.89626e-05  0.0282044 -0.341267 6.06477e-05  0.0203688 -0.348264 7.28965e-05  0.0273526 -0.356152 8.69334e-05  0.0199358 -0.355704 7.9155e-05  0.026916 -0.363584 9.32217e-05  0.0199282 -0.355706 7.74562e-05  0.0194938 -0.363142 8.6695e-05  0.0273447 -0.356156 8.27014e-05  0.0195022 -0.363136 8.54433e-05  0.0264809 -0.371005 9.951e-05  0.0190656 -0.370557 9.06289e-05  0.0260439 -0.378425 0.000106454  0.019058 -0.37056 9.36985e-05  0.0186248 -0.377976 0.000102222  0.026473 -0.371009 9.98974e-05  0.0186343 -0.377972 9.65297e-05  0.00119191 -0.00401145 -0.000905693  0.00102325 -0.00246161 -0.0007478  0.00409755 -0.00623524 -0.00158986  0.00102986 -0.00241208 -0.00108889  0.00277118 -0.00443399 -0.00191101  0 0 0  0 0 0  0.00114903 -0.00386649 -0.00123173  0 0 0  0.00273131 -0.00460857 -0.001369  0.00646713 -0.00771362 -0.00211564  0.00481993 -0.00636643 -0.00187513  0.00870517 -0.00971508 -0.00251728  0.00487225 -0.00609887 -0.00259629  0.00703716 -0.0079903 -0.00302422  0.00641859 -0.00748754 -0.00296196  0.00693485 -0.0083192 -0.00221902  0.0110857 -0.0115157 -0.00277463  0.009121 -0.0102655 -0.00245276  0.0133561 -0.0137429 -0.00293913  0.0092074 -0.00989735 -0.00334162  0.0113295 -0.01213 -0.00349557  0.0111492 -0.0111541 -0.00380629  0.0112209 -0.0125214 -0.00259131  0.015666 -0.0161245 -0.00300488  0.0132868 -0.0149675 -0.00265053  0.0178795 -0.0188305 -0.00302649  0.0133733 -0.0145605 -0.00357518  0.0153514 -0.0173032 -0.00357625  0.0157581 -0.0157089 -0.00407112  0.0152666 -0.0177116 -0.00266352  0.0200468 -0.0217798 -0.00298864  0.0171758 -0.0206987 -0.00263166  0.0221176 -0.0250153 -0.00293729  0.0172401 -0.0202866 -0.00353223  0.0190566 -0.0235603 -0.00345823  0.0201237 -0.0213593 -0.0040234  0.0190015 -0.0239626 -0.00258154  0.0241122 -0.0284866 -0.00285187  0.0207451 -0.0274653 -0.00250775  0.0260069 -0.0322271 -0.00276807  0.0207847 -0.0270648 -0.00335985  0.0224379 -0.0308393 -0.00325364  0.024164 -0.0280814 -0.00382984  0.0224071 -0.031225 -0.0024299  0.0278193 -0.0361781 -0.00266501  0.0239861 -0.0352044 -0.00234041  0.0295327 -0.040383 -0.0025695  0.0240059 -0.0348247 -0.0031361  0.0254981 -0.03906 -0.00301975  0.0278507 -0.035796 -0.00357643  0.025484 -0.0394235 -0.00225353  0.0311666 -0.0447738 -0.00246263  0.0269012 -0.0438409 -0.00216079  0.0327024 -0.0494028 -0.0023647  0.0269079 -0.0434854 -0.00289768  0.0282438 -0.0481417 -0.00278017  0.031184 -0.0444192 -0.00330609  0.0282402 -0.04848 -0.00207275  0.0341644 -0.0541958 -0.00226071  0.0295019 -0.0532984 -0.00198168  0.0355303 -0.0592095 -0.0021646  0.0295016 -0.0529686 -0.00266048  0.0306857 -0.058008 -0.00254661  0.0341723 -0.0538687 -0.00303674  0.030688 -0.0583197 -0.00189584  0.0368255 -0.0643695 -0.00206318  0.0317996 -0.0635039 -0.00180909  0.0380284 -0.0697308 -0.00197205  0.0317949 -0.0632003 -0.0024319  0.0328344 -0.0685865 -0.0023216  0.0368294 -0.0640683 -0.00277638  0.0328395 -0.0688725 -0.00172728  0.0391637 -0.0752224 -0.00187626  0.0338082 -0.0743865 -0.00164372  0.040213 -0.0808986 -0.00178814  0.0338004 -0.0741091 -0.00221285  0.0347011 -0.0798079 -0.00210845  0.0391661 -0.0749477 -0.00252745  0.0347086 -0.0800694 -0.00156555  0.0411972 -0.0866884 -0.0016965  0.0355412 -0.0858819 -0.00148651  0.042098 -0.0926478 -0.00161409  0.0355313 -0.0856294 -0.00200498  0.0363008 -0.09161 -0.00190446  0.0411971 -0.0864396 -0.00229016  0.0363081 -0.0918463 -0.00141266  0.0429399 -0.0987059 -0.00152791  0.0370117 -0.0979258 -0.00133708  0.0437009 -0.104916 -0.00144723  0.0370027 -0.0976969 -0.0018062  0.0376451 -0.103929 -0.00171128  0.0429379 -0.0984796 -0.00206393  0.0376532 -0.104142 -0.00126615  0.0444057 -0.111212 -0.00136617  0.0382344 -0.110459 -0.00119531  0.0450361 -0.117647 -0.00129002  0.0382251 -0.110253 -0.00161827  0.0387495 -0.116708 -0.00152773  0.044404 -0.11101 -0.00184971  0.0387576 -0.116898 -0.001129  0.045614 -0.124153 -0.0012117  0.0392232 -0.123425 -0.00106153  0.0461187 -0.130785 -0.00114042  0.0392144 -0.123241 -0.00143886  0.0396267 -0.129893 -0.00135481  0.0456105 -0.123974 -0.001645  0.0396354 -0.130062 -0.000997514  0.0465733 -0.137478 -0.00106886  0.0399938 -0.136773 -0.00093478  0.0469651 -0.144278 -0.000999957  0.039984 -0.13661 -0.0012714  0.040292 -0.143431 -0.00119132  0.0465711 -0.137317 -0.00145298  0.0403011 -0.14358 -0.000873685  0.0473092 -0.151132 -0.000931829  0.0405593 -0.150453 -0.000813603  0.0475907 -0.158083 -0.000868648  0.0405493 -0.150309 -0.00111243  0.0407605 -0.157278 -0.00103697  0.0473061 -0.150992 -0.00127321  0.0407701 -0.157409 -0.00075829  0.047832 -0.165074 -0.000802279  0.0409346 -0.164418 -0.000700951  0.0480127 -0.17215 -0.000743508  0.0409238 -0.164293 -0.000962734  0.0410454 -0.171387 -0.000891566  0.047827 -0.164952 -0.00110283  0.0410552 -0.171499 -0.000648618  0.0481567 -0.179257 -0.000682801  0.0411332 -0.178626 -0.000596553  0.0482457 -0.186442 -0.000627548  0.0411239 -0.178517 -0.00082311  0.041163 -0.185717 -0.000757515  0.0481534 -0.179154 -0.000943959  0.0411725 -0.185813 -0.000546753  0.0483012 -0.193647 -0.000571281  0.0411723 -0.193036 -0.000497937  0.0483057 -0.200916 -0.000520229  0.0411615 -0.192943 -0.000692844  0.0411248 -0.20023 -0.000631869  0.0482969 -0.193557 -0.000794649  0.0411344 -0.20031 -0.000452399  0.0482786 -0.208201 -0.000468224  0.0410609 -0.207613 -0.000406653  0.0482068 -0.215542 -0.000420839  0.0410502 -0.207535 -0.000572383  0.0409462 -0.21489 -0.000516325  0.0482745 -0.208128 -0.000657111  0.0409553 -0.214958 -0.000365525  0.0481071 -0.22289 -0.000373214  0.0408185 -0.222322 -0.000323981  0.047966 -0.230283 -0.000330746  0.040808 -0.222258 -0.00046134  0.0406408 -0.229667 -0.000410587  0.0481019 -0.22283 -0.000533342  0.0406504 -0.229721 -0.000285149  0.0478001 -0.237681 -0.000287056  0.0404537 -0.237133 -0.000247717  0.0475974 -0.245116 -0.000246942  0.0404444 -0.237081 -0.000360191  0.0402219 -0.244529 -0.000314653  0.0477946 -0.237633 -0.000417709  0.0402312 -0.244573 -0.000213236  0.0473733 -0.252547 -0.000207871  0.0399835 -0.252018 -0.00017935  0.0471153 -0.26001 -0.00017342  0.0399728 -0.251978 -0.000269592  0.0397029 -0.259454 -0.000228137  0.0473669 -0.252511 -0.000312507  0.0397124 -0.259484 -0.000147432  0.0468402 -0.267462 -0.000138551  0.0394194 -0.266953 -0.000118077  0.0465343 -0.274943 -0.000107616  0.0394099 -0.266924 -0.000187814  0.0390973 -0.274414 -0.000152707  0.046833 -0.267437 -0.00022015  0.0391071 -0.274436 -9.09567e-05  0.0462153 -0.282411 -7.79033e-05  0.0387738 -0.281916 -6.41048e-05  0.0458703 -0.289897 -5.14686e-05  0.0387659 -0.281895 -0.000117511  0.0384173 -0.289392 -8.61883e-05  0.0462081 -0.282392 -0.000139147  0.0384269 -0.289407 -4.13656e-05  0.0455112 -0.297368 -2.6226e-05  0.0380599 -0.296889 -1.91331e-05  0.0451319 -0.304852 -3.03984e-06  0.0380538 -0.296875 -5.72503e-05  0.0376761 -0.304368 -3.0756e-05  0.0455067 -0.297358 -7.06613e-05  0.037684 -0.304376 8.04663e-07  0.0447457 -0.312321 1.65701e-05  0.0372927 -0.311855 1.86861e-05  0.0443397 -0.319798 3.40343e-05  0.0372863 -0.311847 -6.02007e-06  0.0368836 -0.319331 1.41859e-05  0.0447395 -0.312317 -1.29342e-05  0.0368924 -0.319333 3.53158e-05  0.0439296 -0.327254 5.25117e-05  0.0364804 -0.326801 4.88758e-05  0.0435035 -0.33472 6.59227e-05  0.0364718 -0.326797 3.317e-05  0.0360537 -0.334269 5.02467e-05  0.0439224 -0.327256 3.20077e-05  0.0360615 -0.334265 6.18994e-05  0.043077 -0.342165 7.82013e-05  0.0356364 -0.341718 7.34329e-05  0.0426373 -0.349613 8.84533e-05  0.0356278 -0.341719 6.54757e-05  0.0351975 -0.34917 7.69794e-05  0.0430698 -0.34217 6.65784e-05  0.0352051 -0.349165 8.29399e-05  0.0422046 -0.357043 9.61125e-05  0.0347714 -0.356601 9.02712e-05  0.0417609 -0.364477 0.000104845  0.0347624 -0.356605 8.80063e-05  0.0343273 -0.364037 9.79006e-05  0.0421963 -0.357051 9.19402e-05  0.0343366 -0.36403 9.7841e-05  0.0413229 -0.371898 0.000110209  0.0338969 -0.371454 0.000104427  0.0408812 -0.379322 0.000117481  0.0338881 -0.371457 0.000107467  0.0334496 -0.378879 0.000115007  0.0413141 -0.371903 0.000111103  0.0334573 -0.378875 0.000111401  -0.000619452 -0.00118594 0.00119871  -0.000706412 -0.00184788 0.00142649  -0.00206794 -0.00285947 0.00220233  -0.000760593 -0.00165047 0.00192745  -0.00295127 -0.00369785 0.00329939  -0.00217747 -0.00322776 0.00216585  0 0 0  -0.00224618 -0.00349334 0.00164202  0 0 0  0 0 0  -0.00062345 -0.00099162 0.001638  0 0 0  -0.00450612 -0.00555936 0.00290602  -0.00282386 -0.00412823 0.00255784  -0.00385997 -0.00432128 0.00294113  -0.00494681 -0.00550758 0.00341389  -0.00568171 -0.00593272 0.00345716  -0.00510219 -0.00493241 0.00430469  -0.00729014 -0.00645774 0.00494945  -0.00669724 -0.00609044 0.00489067  -0.00657554 -0.00668088 0.00392365  -0.0040655 -0.00382867 0.00370067  -0.00887141 -0.00838331 0.00458628  -0.00706123 -0.00712007 0.00400451  -0.00757688 -0.00779781 0.00373936  -0.00921643 -0.0088261 0.00435275  -0.0093599 -0.0098345 0.00393158  -0.00939289 -0.00811139 0.00532426  -0.0114506 -0.0100867 0.00554636  -0.0113236 -0.00917938 0.00609565  -0.0111712 -0.00992997 0.00498754  -0.00777557 -0.00713717 0.00457425  -0.0135086 -0.0119421 0.00524089  -0.0112922 -0.0108278 0.00457013  -0.011135 -0.0122142 0.00397816  -0.0133626 -0.0131132 0.00463587  -0.0128379 -0.0148263 0.00398594  -0.0134609 -0.0123661 0.0055951  -0.0154155 -0.01494 0.00558683  -0.0159169 -0.0133578 0.00641353  -0.0158257 -0.0141377 0.00530624  -0.0112417 -0.0115049 0.00479662  -0.0180973 -0.0166609 0.00532094  -0.0153568 -0.0156769 0.00464231  -0.0145106 -0.0177459 0.00391841  -0.0173178 -0.018541 0.00456923  -0.0161372 -0.0209088 0.00383446  -0.0173315 -0.0178154 0.00548308  -0.0191933 -0.0209514 0.0053594  -0.0203444 -0.0187172 0.00628105  -0.0203238 -0.019466 0.00522697  -0.0145262 -0.0170457 0.00469629  -0.0224852 -0.0225207 0.0051192  -0.0192133 -0.0216518 0.00447038  -0.0177236 -0.0243424 0.00371692  -0.0210654 -0.0250441 0.00433508  -0.0192733 -0.0280063 0.00359267  -0.0210167 -0.0243619 0.00519232  -0.0227892 -0.0280054 0.00501746  -0.024555 -0.02517 0.00594221  -0.0245907 -0.0258645 0.00495768  -0.0176731 -0.0236764 0.00444664  -0.0266299 -0.0294205 0.0047951  -0.0228605 -0.0286566 0.00419062  -0.0207819 -0.0319139 0.00345805  -0.0246099 -0.0325268 0.00403357  -0.0222552 -0.036033 0.00332019  -0.0245215 -0.0318971 0.00482914  -0.0262049 -0.0359967 0.00463738  -0.0285388 -0.0326092 0.0055227  -0.0286112 -0.0332459 0.00461134  -0.0206904 -0.0312927 0.00413607  -0.0305309 -0.0372613 0.00443044  -0.0263065 -0.0365964 0.00387394  -0.0236889 -0.0403729 0.0031839  -0.0279584 -0.0409008 0.00371411  -0.025089 -0.0449067 0.00304568  -0.0278479 -0.0403235 0.00444762  -0.0294448 -0.0448383 0.00425582  -0.0323001 -0.0409419 0.00508463  -0.0323935 -0.0415219 0.00424543  -0.0235761 -0.0398001 0.00381015  -0.0341992 -0.0459585 0.0040639  -0.0295617 -0.0453876 0.0035539  -0.0264508 -0.049642 0.00291374  -0.0311223 -0.050087 0.00339884  -0.027781 -0.0545541 0.00278091  -0.0310019 -0.0495601 0.00407296  -0.0325146 -0.0544544 0.00388774  -0.0358474 -0.0500881 0.00465436  -0.0359504 -0.0506162 0.00388569  -0.0263281 -0.049117 0.00348918  -0.0376493 -0.0554346 0.00371078  -0.0326364 -0.0549548 0.0032444  -0.0290748 -0.0596497 0.00265592  -0.0341103 -0.0600151 0.00309828  -0.0303376 -0.0649065 0.00252989  -0.0339872 -0.059536 0.00371487  -0.0354184 -0.064775 0.0035391  -0.0391897 -0.0599757 0.00424466  -0.0392957 -0.0604537 0.00354111  -0.0289502 -0.0591711 0.00318202  -0.040892 -0.0656221 0.00337571  -0.0355403 -0.0652288 0.00295189  -0.0315666 -0.0703297 0.00241157  -0.0369322 -0.0706186 0.00281402  -0.032765 -0.0759005 0.00229323  -0.0368122 -0.0701851 0.00337538  -0.038164 -0.0757383 0.00320904  -0.0423355 -0.0705395 0.00385599  -0.042441 -0.0709721 0.00321636  -0.0314432 -0.0698954 0.00289147  -0.0439427 -0.0764591 0.00306004  -0.0382822 -0.0761484 0.00267583  -0.0339317 -0.0816216 0.00218293  -0.039597 -0.081838 0.00254586  -0.0350697 -0.0874767 0.00207165  -0.039481 -0.0814465 0.00305523  -0.0407573 -0.0872838 0.0028986  -0.0452945 -0.0817198 0.00349027  -0.0453969 -0.0821089 0.00290984  -0.033813 -0.0812297 0.0026172  -0.046806 -0.0878846 0.00276253  -0.0408701 -0.0876536 0.00241709  -0.0361773 -0.0934675 0.00196758  -0.0421108 -0.0936138 0.00229421  -0.0372564 -0.0995788 0.0018625  -0.0420003 -0.0932618 0.0027542  -0.0432047 -0.0993562 0.00260665  -0.0480752 -0.0934582 0.00314508  -0.0481719 -0.0938077 0.00262177  -0.0360643 -0.0931146 0.00235993  -0.0494941 -0.0998431 0.00248316  -0.0433112 -0.099687 0.0021722  -0.0383064 -0.105811 0.00176403  -0.0444808 -0.105891 0.00205731  -0.03933 -0.112151 0.00166622  -0.0443769 -0.105577 0.0024707  -0.0455122 -0.111901 0.00233214  -0.0506848 -0.1057 0.00282089  -0.0507751 -0.106012 0.00235084  -0.0382007 -0.105496 0.00211677  -0.052016 -0.112281 0.00222051  -0.0456121 -0.112195 0.00194257  -0.040325 -0.118599 0.00157428  -0.0467142 -0.118618 0.00183505  -0.0412956 -0.125144 0.00148213  -0.0466173 -0.118339 0.00220363  -0.0476867 -0.124868 0.0020732  -0.053131 -0.118394 0.00251447  -0.0532163 -0.11867 0.00209567  -0.0402268 -0.118319 0.00188862  -0.0543774 -0.125147 0.0019739  -0.0477788 -0.125129 0.0017266  -0.0422382 -0.131783 0.00139523  -0.0488155 -0.131743 0.0016256  -0.0431571 -0.138507 0.00130919  -0.0487262 -0.131497 0.00195257  -0.0497323 -0.138207 0.00183021  -0.0554208 -0.131488 0.00222801  -0.0554997 -0.131731 0.00185665  -0.0421466 -0.131536 0.00167449  -0.0565867 -0.138395 0.00174326  -0.0498186 -0.138436 0.00152516  -0.0440495 -0.145314 0.00122827  -0.0507932 -0.14522 0.00143051  -0.0449197 -0.152194 0.00114763  -0.0507102 -0.145004 0.00171784  -0.0516565 -0.151873 0.00160332  -0.0575624 -0.144937 0.00195798  -0.0576341 -0.14515 0.00163263  -0.0439649 -0.145097 0.00147299  -0.0586505 -0.151973 0.00152534  -0.0517361 -0.152072 0.00133541  -0.0457647 -0.159147 0.00107145  -0.0526512 -0.159004 0.00124702  -0.046587 -0.166163 0.000995427  -0.0525758 -0.158818 0.00149859  -0.0534642 -0.165823 0.00139144  -0.0595634 -0.158695 0.00170815  -0.0596309 -0.158879 0.00142223  -0.045686 -0.158959 0.00128664  -0.0605791 -0.165844 0.00132307  -0.0535359 -0.165993 0.00115937  -0.0473857 -0.173239 0.000926226  -0.0543959 -0.173052 0.00107631  -0.0481644 -0.180371 0.000856131  -0.0543277 -0.172892 0.00129396  -0.0551615 -0.180014 0.0011946  -0.0614328 -0.172719 0.00147334  -0.0614927 -0.172877 0.00122711  -0.0473146 -0.17308 0.00111103  -0.0623751 -0.179962 0.00113577  -0.0552261 -0.180159 0.0009951  -0.0489192 -0.187553 0.000792354  -0.0560331 -0.187325 0.000919521  -0.049655 -0.194781 0.000727862  -0.0559716 -0.18719 0.00110504  -0.0567546 -0.194408 0.00101365  -0.0631723 -0.186972 0.00125691  -0.063226 -0.187105 0.00104776  -0.0488548 -0.187417 0.00094986  -0.0640495 -0.194291 0.000963092  -0.056813 -0.19453 0.000844121  -0.0503685 -0.20205 0.000668347  -0.0575702 -0.201783 0.000774652  -0.0510645 -0.209355 0.0006091  -0.0575137 -0.201672 0.000931159  -0.058248 -0.208971 0.000847057  -0.0647936 -0.201414 0.00105791  -0.064842 -0.201524 0.000882238  -0.0503111 -0.201937 0.000801146  -0.0656083 -0.208792 0.000802994  -0.0583005 -0.209069 0.000705957  -0.051739 -0.216695 0.000554919  -0.0590105 -0.216396 0.000642031  -0.052397 -0.224064 0.000500977  -0.0589614 -0.216304 0.000771552  -0.0596488 -0.223667 0.000696063  -0.0663037 -0.21601 0.000875562  -0.0663462 -0.2161 0.000730783  -0.051687 -0.216602 0.000664428  -0.0670593 -0.223435 0.000657737  -0.0596955 -0.223747 0.000579089  -0.0530331 -0.231458 0.000452608  -0.0603621 -0.231129 0.00052163  -0.0536566 -0.238874 0.000403792  -0.0603178 -0.231057 0.00062713  -0.0609634 -0.238469 0.000558883  -0.0677094 -0.23073 0.000710025  -0.0677457 -0.230801 0.000591546  -0.0529885 -0.231384 0.000541091  -0.0684125 -0.238189 0.000526726  -0.0610046 -0.23853 0.0004659  -0.054261 -0.246308 0.00036034  -0.0616307 -0.245955 0.000413746  -0.0548506 -0.253758 0.000317544  -0.0615933 -0.245898 0.000497967  -0.0622015 -0.253346 0.000437096  -0.0690193 -0.245546 0.000560552  -0.069052 -0.245599 0.00046891  -0.0542212 -0.246251 0.000430524  -0.0696726 -0.253025 0.00041151  -0.0622356 -0.253393 0.000363648  -0.0554233 -0.26122 0.000278443  -0.0628254 -0.260846 0.000317872  -0.0559843 -0.268693 0.000242144  -0.0627916 -0.260804 0.000383839  -0.0633655 -0.268275 0.000331104  -0.0702422 -0.260428 0.000430435  -0.0702691 -0.260465 0.000357628  -0.0553899 -0.261178 0.000333339  -0.0708508 -0.267919 0.000308186  -0.0633934 -0.268307 0.000275165  -0.0565276 -0.276171 0.000207931  -0.0639505 -0.275778 0.000235647  -0.0570617 -0.283656 0.000176013  -0.0639231 -0.27575 0.000284016  -0.0644653 -0.283233 0.000238553  -0.0713868 -0.275355 0.000315592  -0.0714085 -0.275379 0.000263542  -0.0565 -0.276142 0.000248864  -0.0719545 -0.282847 0.000220686  -0.0644882 -0.283253 0.000197738  -0.0575817 -0.29114 0.000148356  -0.0650146 -0.290732 0.000165194  -0.0580904 -0.298626 0.000122011  -0.0649931 -0.290715 0.000199914  -0.065506 -0.298201 0.000160933  -0.0724597 -0.290301 0.000218287  -0.0724792 -0.290315 0.000183493  -0.0575578 -0.291121 0.000176907  -0.0729921 -0.297791 0.000148684  -0.0655239 -0.29821 0.000134915  -0.058589 -0.306107 9.92715e-05  -0.0660262 -0.305689 0.000107825  -0.0590775 -0.313589 7.90358e-05  -0.0660093 -0.305681 0.00012958  -0.0664992 -0.31316 0.00010179  -0.073472 -0.305255 0.000140369  -0.0734882 -0.305261 0.00011763  -0.0585694 -0.306098 0.000118107  -0.0739763 -0.312733 8.99434e-05  -0.066515 -0.313164 8.33869e-05  -0.0595574 -0.321061 6.00219e-05  -0.0669937 -0.320633 6.38664e-05  -0.06003 -0.328529 4.55678e-05  -0.0669785 -0.320632 7.64281e-05  -0.0674498 -0.328101 5.36591e-05  -0.0744345 -0.320197 7.84099e-05  -0.0744474 -0.320197 6.55651e-05  -0.0595415 -0.32106 7.22855e-05  -0.074914 -0.32766 4.61936e-05  -0.0674622 -0.328097 4.61042e-05  -0.0604935 -0.335987 3.34084e-05  -0.067925 -0.335553 3.08156e-05  -0.0609527 -0.343439 2.24113e-05  -0.0679126 -0.335557 3.7387e-05  -0.0683682 -0.34301 2.08765e-05  -0.075357 -0.335117 3.30955e-05  -0.0753675 -0.335112 2.8342e-05  -0.0604806 -0.335991 3.80129e-05  -0.0758185 -0.342561 1.38879e-05  -0.0683799 -0.343003 1.72555e-05  -0.0614054 -0.350879 1.12951e-05  -0.0688312 -0.350441 6.85453e-06  -0.0618567 -0.358311 3.54648e-06  -0.0688195 -0.350448 8.01682e-06  -0.0692663 -0.35788 -2.45869e-06  -0.0762515 -0.350004 3.7998e-06  -0.0762625 -0.349996 2.83122e-06  -0.0613952 -0.350884 1.24723e-05  -0.0767059 -0.357431 -6.52671e-06  -0.0692766 -0.357872 -2.35438e-06  -0.0623016 -0.365732 -5.24521e-06  -0.0697215 -0.365296 -1.13547e-05  -0.062747 -0.373147 -1.4931e-05  -0.06971 -0.365302 -1.29044e-05  -0.0701535 -0.372723 -2.47806e-05  -0.0771341 -0.364862 -1.98931e-05  -0.0771444 -0.364855 -1.43945e-05  -0.0622909 -0.365738 -8.04663e-06  -0.077585 -0.372277 -2.53618e-05  -0.0701623 -0.372717 -2.05934e-05  -0.000364125 -0.000414431 0.000804245  -0.000415273 -0.00074403 0.0010089  -0.0011619 -0.00127606 0.00151423  -0.000424415 -0.000563025 0.00137176  -0.00155469 -0.0015799 0.00240186  0 0 0  0 0 0  -0.000373039 -0.000262186 0.00109746  0 0 0  -0.00137448 -0.0018764 0.00187349  -0.00216044 -0.0025993 0.00199956  -0.00284383 -0.00334628 0.00247806  -0.00333254 -0.00429755 0.00236279  -0.00304587 -0.00290465 0.00313669  -0.00463118 -0.00449002 0.00360791  -0.00230694 -0.00221585 0.0025343  -0.00437848 -0.00502849 0.00291622  -0.00455812 -0.00619043 0.00254279  -0.00593701 -0.0068938 0.00314718  -0.00577644 -0.00839008 0.00266668  -0.00613311 -0.00629352 0.00384699  -0.00763819 -0.00840987 0.00400238  -0.00471869 -0.00564308 0.00310844  -0.00747907 -0.00905171 0.00330424  -0.00698048 -0.0108458 0.00268385  -0.00896075 -0.01145 0.00333568  -0.00814256 -0.0135656 0.0026814  -0.00906146 -0.0107851 0.00401218  -0.0104648 -0.0134636 0.00400347  -0.00706714 -0.0102139 0.00322965  -0.0104132 -0.014136 0.00333536  -0.00927997 -0.016564 0.00262848  -0.011817 -0.0170861 0.00327569  -0.0103834 -0.0198079 0.00256687  -0.0118273 -0.0164131 0.00391896  -0.0131623 -0.0196359 0.00382839  -0.00928986 -0.0159102 0.00314336  -0.0131887 -0.0202977 0.00320026  -0.0114636 -0.0233141 0.00248677  -0.0145249 -0.0237669 0.0031029  -0.0125206 -0.0270517 0.00239924  -0.0144738 -0.0231158 0.00370701  -0.0157548 -0.0268404 0.00358072  -0.0114179 -0.0226746 0.00296812  -0.0158303 -0.0274713 0.0029951  -0.0135556 -0.0310266 0.00231051  -0.0171056 -0.0314147 0.00288463  -0.0145729 -0.0352171 0.00221533  -0.0170171 -0.030801 0.00344799  -0.0182487 -0.0349817 0.00330894  -0.0134759 -0.0304189 0.00275876  -0.0183519 -0.0355714 0.0027667  -0.01557 -0.0396218 0.00212577  -0.0195708 -0.0399479 0.00265527  -0.0165518 -0.0442255 0.00203159  -0.0194617 -0.0393776 0.00317684  -0.0206451 -0.0439723 0.00303736  -0.0154724 -0.0390546 0.00254045  -0.0207608 -0.0445177 0.00253806  -0.0175139 -0.049023 0.00194541  -0.0219262 -0.049288 0.00242963  -0.0184617 -0.0540039 0.00185496  -0.0218089 -0.0487632 0.00290976  -0.0229446 -0.0537354 0.00277518  -0.0174084 -0.0485006 0.00232674  -0.0230639 -0.0542353 0.00231707  -0.0193912 -0.0591611 0.00177246  -0.0241785 -0.0593648 0.00221452  -0.0203058 -0.064485 0.00168696  -0.0240597 -0.0588851 0.00265408  -0.0251478 -0.0642008 0.00252655  -0.0192835 -0.0586819 0.002122  -0.0252665 -0.0646561 0.00210786  -0.0212018 -0.0699678 0.00161028  -0.0263324 -0.0701128 0.00201175  -0.0220857 -0.0756027 0.00152966  -0.0262159 -0.0696771 0.00241223  -0.0272582 -0.0753038 0.00229152  -0.0210972 -0.0695313 0.00192772  -0.0273727 -0.0757162 0.00191143  -0.022952 -0.0813818 0.00145751  -0.0283928 -0.0814705 0.00182024  -0.0238044 -0.087298 0.00138202  -0.0282809 -0.0810758 0.00218372  -0.0292776 -0.086984 0.00207019  -0.0228506 -0.0809869 0.00174563  -0.0293871 -0.0873565 0.00172663  -0.0246404 -0.0933439 0.00131363  -0.0303612 -0.0933775 0.00164118  -0.0254635 -0.0995134 0.00124344  -0.0302553 -0.0930229 0.00196952  -0.0312091 -0.0991843 0.00186236  -0.0245442 -0.0929889 0.00157386  -0.0313127 -0.0995188 0.00155258  -0.0262703 -0.105798 0.00117928  -0.032244 -0.105781 0.00147271  -0.0270648 -0.112193 0.00111333  -0.0321444 -0.105463 0.00176695  -0.0330563 -0.11185 0.00166723  -0.0261797 -0.10548 0.00141291  -0.0331522 -0.112148 0.00138891  -0.027843 -0.118691 0.00105324  -0.0340428 -0.118625 0.00131381  -0.0286096 -0.125287 0.000990987  -0.0339501 -0.118341 0.00157724  -0.0348203 -0.12493 0.00148308  -0.0277585 -0.118408 0.00126083  -0.0349101 -0.125194 0.00123611  -0.0293603 -0.131973 0.000934571  -0.0357609 -0.13186 0.00116557  -0.030099 -0.138744 0.000876397  -0.0356734 -0.13161 0.00139903  -0.0365044 -0.138375 0.00131036  -0.0292816 -0.131722 0.00111936  -0.0365889 -0.138607 0.00109303  -0.030823 -0.145594 0.000823647  -0.0374 -0.145438 0.00102648  -0.0315349 -0.15252 0.000769794  -0.0373197 -0.145219 0.00123179  -0.0381138 -0.152139 0.00114918  -0.0307508 -0.145375 0.000985056  -0.0381901 -0.152341 0.000957668  -0.0322318 -0.159511 0.000720918  -0.038965 -0.159317 0.000896573  -0.032918 -0.166568 0.000669628  -0.0388911 -0.159126 0.00107634  -0.0396481 -0.166178 0.000999019  -0.0321653 -0.159321 0.000861913  -0.0397184 -0.166352 0.000833243  -0.0335898 -0.173681 0.000623584  -0.0404565 -0.17345 0.000775993  -0.0342512 -0.180849 0.000576675  -0.04039 -0.173286 0.000931084  -0.0411117 -0.180451 0.000859588  -0.0335298 -0.173517 0.000746131  -0.0411768 -0.180599 0.000716269  -0.0348966 -0.188064 0.000535756  -0.0418801 -0.1878 0.000664055  -0.0355332 -0.195325 0.000492364  -0.0418191 -0.187661 0.00079675  -0.0425081 -0.194919 0.000730693  -0.0348427 -0.187925 0.000638977  -0.0425661 -0.195044 0.000610441  -0.0361564 -0.202624 0.000453889  -0.0432363 -0.202331 0.000560969  -0.0367689 -0.209959 0.000414073  -0.0431817 -0.202214 0.000673294  -0.0438387 -0.209548 0.000613138  -0.0361073 -0.202507 0.000541613  -0.0438895 -0.20965 0.000512242  -0.0373688 -0.217325 0.000379771  -0.0445297 -0.217004 0.000467449  -0.0379572 -0.224719 0.000343353  -0.0444813 -0.216909 0.000559986  -0.0451078 -0.224303 0.000505909  -0.0373242 -0.217228 0.000450894  -0.0451531 -0.224386 0.000422627  -0.0385327 -0.232136 0.000312835  -0.0457628 -0.231794 0.000382781  -0.0391021 -0.239575 0.000279188  -0.0457208 -0.231717 0.000457883  -0.046319 -0.239155 0.000408918  -0.0384955 -0.23206 0.000370651  -0.0463581 -0.23922 0.000341743  -0.0396595 -0.247029 0.000251055  -0.046941 -0.246667 0.000304967  -0.0402067 -0.2545 0.000221878  -0.0469038 -0.246606 0.000366449  -0.0474758 -0.254076 0.000323012  -0.0396254 -0.24697 0.000297919  -0.0475097 -0.254127 0.000270575  -0.0407438 -0.261978 0.000197917  -0.0480671 -0.261598 0.000237823  -0.0412719 -0.269467 0.000173181  -0.0480356 -0.261553 0.000286222  -0.0485828 -0.269043 0.000247627  -0.0407152 -0.261933 0.000233769  -0.0486114 -0.269078 0.00020802  -0.0417893 -0.27696 0.000151366  -0.0491462 -0.276565 0.000180274  -0.0423019 -0.284457 0.000130862  -0.0491192 -0.276533 0.000215933  -0.0496435 -0.284032 0.000182897  -0.0417674 -0.276928 0.000178531  -0.0496688 -0.284055 0.000153899  -0.0428038 -0.291954 0.000112921  -0.0501807 -0.291547 0.000130773  -0.0432992 -0.299451 9.56357e-05  -0.0501592 -0.291527 0.000155121  -0.0506644 -0.299025 0.000128657  -0.0427856 -0.291933 0.000131771  -0.050684 -0.299038 0.000108391  -0.0437865 -0.306943 8.09431e-05  -0.0511785 -0.306526 9.05991e-05  -0.0442677 -0.314431 6.63996e-05  -0.0511606 -0.306514 0.000107989  -0.0516477 -0.314006 8.55327e-05  -0.0437698 -0.30693 9.42945e-05  -0.0516627 -0.31401 7.32243e-05  -0.0447419 -0.321911 5.6237e-05  -0.0521412 -0.321488 5.81741e-05  -0.0452106 -0.329386 4.48525e-05  -0.0521278 -0.321483 6.96778e-05  -0.0526006 -0.328959 5.23031e-05  -0.0447292 -0.321907 6.32256e-05  -0.0526128 -0.328958 4.60744e-05  -0.0456731 -0.336849 3.64482e-05  -0.0530777 -0.33642 3.46899e-05  -0.0461316 -0.344304 2.8491e-05  -0.0530667 -0.33642 3.88771e-05  -0.0535264 -0.343877 2.80738e-05  -0.0456631 -0.336849 4.03076e-05  -0.0535359 -0.343872 2.56002e-05  -0.0465841 -0.351747 2.11e-05  -0.0539904 -0.351314 1.68085e-05  -0.047034 -0.359179 1.55568e-05  -0.0539808 -0.351318 1.84178e-05  -0.0544312 -0.358753 6.60121e-06  -0.0465751 -0.351751 2.15918e-05  -0.0544398 -0.358746 8.22544e-06  -0.0474801 -0.366597 8.70228e-06  -0.0548882 -0.366166 1.51992e-06  -0.0479264 -0.374006 5.66244e-07  -0.0548782 -0.366172 -1.38581e-06  -0.055326 -0.373587 -1.18762e-05  -0.0474727 -0.366604 4.94719e-06  -0.0553358 -0.373579 -6.85453e-06  -0.000163317 -6.09756e-05 0.000387847  -0.000217479 -0.000204742 0.000606984  -0.000519611 -0.000635087 0.000758559  -0.000223134 -5.91278e-05 0.000812754  -0.00081484 -0.000603288 0.00146359  0 0 0  0 0 0  -0.000168521 7.08997e-05 0.000531495  0 0 0  -0.000697292 -0.000860482 0.00113705  -0.000957519 -0.00181383 0.00100011  -0.00146219 -0.00214854 0.00149766  -0.0015132 -0.00338855 0.0012022  -0.00158821 -0.00177935 0.00190462  -0.00247246 -0.00329649 0.00221097  -0.00103484 -0.0014753 0.0012732  -0.00229022 -0.00374326 0.00178844  -0.0020934 -0.00530609 0.0012874  -0.00323811 -0.00567156 0.00191388  -0.00269437 -0.00754783 0.00135693  -0.00337279 -0.00514871 0.00234604  -0.00427109 -0.00732023 0.0024385  -0.00218061 -0.00481343 0.00157693  -0.00415421 -0.00788867 0.00201559  -0.00329432 -0.0100633 0.00136074  -0.00507453 -0.010379 0.00202346  -0.00388539 -0.0128582 0.00135794  -0.00514501 -0.00977278 0.00243302  -0.00599602 -0.0125194 0.00242001  -0.00334036 -0.00947788 0.00163458  -0.00596139 -0.0131425 0.00202155  -0.00446814 -0.0159133 0.00132844  -0.00682622 -0.0161693 0.00198001  -0.0050413 -0.0192232 0.00129405  -0.00682962 -0.0155338 0.00236343  -0.00764579 -0.0188197 0.00230289  -0.00446624 -0.0152909 0.00158395  -0.007671 -0.0194526 0.00193024  -0.0056085 -0.0227798 0.00125304  -0.00849509 -0.022984 0.00187084  -0.00617081 -0.0265729 0.00120616  -0.0084523 -0.0223552 0.00223006  -0.00924575 -0.026139 0.00214928  -0.00557107 -0.0221584 0.00149027  -0.00930786 -0.0267535 0.00180233  -0.00672948 -0.030594 0.00116238  -0.010105 -0.030753 0.00173682  -0.0072884 -0.0348356 0.00111145  -0.0100343 -0.0301509 0.00207178  -0.010812 -0.0343898 0.0019848  -0.00667125 -0.0299959 0.00138253  -0.0108942 -0.0349716 0.00166285  -0.00784451 -0.0392851 0.00106829  -0.0116723 -0.0394015 0.00159758  -0.00840241 -0.0439383 0.00101787  -0.0115862 -0.0388364 0.001908  -0.0123501 -0.0434895 0.00182115  -0.00777429 -0.0387225 0.00127186  -0.0124417 -0.0440317 0.00152418  -0.0089587 -0.0487815 0.000976205  -0.0132022 -0.0488557 0.00146145  -0.00951743 -0.0538103 0.000928491  -0.0131106 -0.0483316 0.0017475  -0.0138603 -0.0533614 0.00166358  -0.0088836 -0.048259 0.00116363  -0.0139546 -0.0538612 0.00139067  -0.0100739 -0.0590121 0.000889897  -0.0146993 -0.059044 0.00133157  -0.010633 -0.0643835 0.000844628  -0.0146062 -0.0585631 0.00159341  -0.0153422 -0.0639352 0.001514  -0.00999761 -0.0585321 0.00106116  -0.0154353 -0.0643923 0.00126484  -0.0111899 -0.0699113 0.000807703  -0.0161649 -0.0699014 0.00120896  -0.0117488 -0.075593 0.000765353  -0.0160737 -0.0694629 0.00144759  -0.0167953 -0.0751451 0.00137322  -0.0111153 -0.069473 0.000963226  -0.0168852 -0.0755602 0.00114676  -0.0123059 -0.0814159 0.000731379  -0.0175985 -0.0813643 0.00109455  -0.0128645 -0.0873772 0.000691652  -0.0175118 -0.0809665 0.00131132  -0.0182177 -0.0869282 0.00124106  -0.0122346 -0.0810175 0.00087133  -0.0183033 -0.0873034 0.00103623  -0.0134212 -0.0934647 0.000659525  -0.0190024 -0.093374 0.000986576  -0.0139791 -0.0996771 0.000623018  -0.0189199 -0.0930153 0.0011826  -0.0196108 -0.0992277 0.00111653  -0.0133535 -0.0931058 0.000786275  -0.0196915 -0.099565 0.000932515  -0.0145342 -0.106003 0.000592709  -0.0203747 -0.105873 0.000886172  -0.0150896 -0.112439 0.000558853  -0.0202973 -0.105551 0.00106113  -0.0209743 -0.111988 0.000999391  -0.0144713 -0.105681 0.000705615  -0.0210494 -0.11229 0.000834793  -0.0156426 -0.118974 0.000530601  -0.0217173 -0.118809 0.00079155  -0.016197 -0.125608 0.000497222  -0.0216453 -0.118522 0.000948682  -0.0223069 -0.125157 0.000889882  -0.015584 -0.118687 0.000630558  -0.0223761 -0.125424 0.000743568  -0.0167459 -0.132329 0.000472009  -0.0230289 -0.13213 0.000703365  -0.017295 -0.139137 0.000441521  -0.0229622 -0.131876 0.000842512  -0.0236082 -0.138683 0.000787988  -0.0166916 -0.132075 0.000560001  -0.0236722 -0.13892 0.00065881  -0.0178425 -0.146021 0.000416785  -0.0243099 -0.145789 0.000620484  -0.0183878 -0.152978 0.000389636  -0.0242486 -0.145566 0.000742182  -0.0248792 -0.152524 0.000692382  -0.0177929 -0.145797 0.000495583  -0.0249379 -0.152731 0.000579298  -0.018929 -0.160001 0.000367075  -0.0255599 -0.159741 0.000544459  -0.0194697 -0.167087 0.00034079  -0.0255041 -0.159546 0.000649706  -0.0261195 -0.166633 0.000603452  -0.0188837 -0.159806 0.000434056  -0.0261729 -0.166812 0.000504583  -0.0200064 -0.174228 0.00031963  -0.0267794 -0.173942 0.000472367  -0.0205419 -0.181425 0.000295103  -0.0267282 -0.173774 0.000564262  -0.0273278 -0.18097 0.000521168  -0.0199647 -0.174061 0.00037691  -0.0273764 -0.181123 0.000436038  -0.0210712 -0.188664 0.000276953  -0.027967 -0.188354 0.000405908  -0.0215995 -0.195949 0.000254303  -0.0279207 -0.18821 0.000485748  -0.0285056 -0.195497 0.000444382  -0.021035 -0.188521 0.000325784  -0.028549 -0.195625 0.000372827  -0.0221233 -0.20327 0.000236899  -0.0291235 -0.202937 0.000346094  -0.022644 -0.210628 0.00021711  -0.0290825 -0.202817 0.000412211  -0.0296516 -0.210177 0.000375703  -0.0220912 -0.20315 0.00027816  -0.029691 -0.210285 0.000314921  -0.0231609 -0.218013 0.00020054  -0.0302505 -0.217661 0.000290096  -0.0236735 -0.225427 0.000183195  -0.0302138 -0.217562 0.000344902  -0.0307667 -0.224978 0.000312522  -0.0231323 -0.217914 0.000234619  -0.0308011 -0.225065 0.000262558  -0.0241823 -0.232861 0.000168473  -0.0313454 -0.232494 0.000240803  -0.0246882 -0.240317 0.000153005  -0.0313141 -0.232413 0.000285611  -0.0318534 -0.239871 0.00025557  -0.0241578 -0.232781 0.000196233  -0.0318823 -0.239939 0.000215679  -0.025188 -0.247786 0.000140071  -0.0324121 -0.247403 0.000194877  -0.0256855 -0.25527 0.000125349  -0.0323844 -0.247339 0.000232339  -0.0329099 -0.254828 0.000204682  -0.025167 -0.247722 0.000161499  -0.0329344 -0.254879 0.000173777  -0.0261765 -0.262762 0.000114739  -0.0334501 -0.262366 0.000156224  -0.0266674 -0.270262 0.00010249  -0.0334277 -0.262318 0.000183567  -0.0339386 -0.269822 0.00016138  -0.02616 -0.262714 0.000130579  -0.0339601 -0.269862 0.000137269  -0.0271511 -0.277766 9.35197e-05  -0.0344625 -0.277361 0.000122368  -0.0276337 -0.285274 8.23438e-05  -0.0344443 -0.277326 0.000143886  -0.0349417 -0.284837 0.000124454  -0.027137 -0.277732 0.000104249  -0.0349581 -0.284863 0.000106305  -0.0281098 -0.292778 7.4774e-05  -0.03545 -0.292365 9.37581e-05  -0.028583 -0.300284 6.58333e-05  -0.0354357 -0.292341 0.000107884  -0.0359206 -0.29985 9.26405e-05  -0.0280986 -0.292755 8.2761e-05  -0.0359349 -0.299865 7.99e-05  -0.0290518 -0.307782 6.02007e-05  -0.0364144 -0.307362 7.16448e-05  -0.0295186 -0.315277 5.28693e-05  -0.0364022 -0.307346 8.01831e-05  -0.0368767 -0.314846 6.88285e-05  -0.0290444 -0.307768 6.46114e-05  -0.0368879 -0.314853 6.05881e-05  -0.0299811 -0.322764 4.86374e-05  -0.0373566 -0.322337 5.16772e-05  -0.0304408 -0.330243 4.38392e-05  -0.0373461 -0.32233 5.92172e-05  -0.0378125 -0.329812 4.85927e-05  -0.0299752 -0.322756 5.10961e-05  -0.0378208 -0.329814 4.3422e-05  -0.0308945 -0.33771 4.02331e-05  -0.03828 -0.33728 3.82066e-05  -0.0313478 -0.34517 3.60906e-05  -0.0382738 -0.337278 4.22001e-05  -0.0387285 -0.34474 3.30657e-05  -0.0308902 -0.337709 4.0397e-05  -0.0387366 -0.344736 3.11732e-05  -0.0317965 -0.352613 3.31998e-05  -0.039187 -0.35218 2.61664e-05  -0.032243 -0.360047 3.00407e-05  -0.039181 -0.352183 2.73734e-05  -0.0396299 -0.35962 2.16365e-05  -0.0317922 -0.352616 3.32296e-05  -0.0396349 -0.359614 2.06828e-05  -0.0326862 -0.367462 2.86102e-05  -0.0400815 -0.36703 1.66893e-05  -0.0331321 -0.374865 2.30968e-05  -0.0400767 -0.367035 1.5974e-05  -0.0405214 -0.374443 8.37445e-06  -0.0326829 -0.367467 2.45571e-05  -0.0405276 -0.374435 1.18613e-05  7.56234e-06 2.8789e-05 -4.64022e-05  -4.92223e-05 6.82473e-06 0.000181705  1.31875e-05 -0.000491083 -2.67327e-05  -5.31301e-05 0.000133276 0.0002269  -0.000215873 -0.000263602 0.00046578  0 0 0  0 0 0  5.96792e-06 0.000151992 -5.59688e-05  0 0 0  -0.000160031 -0.00049907 0.000363827  6.27339e-05 -0.00163871 -4.00543e-05  -0.000386938 -0.00167805 0.000471652  8.47876e-05 -0.00316036 -9.62615e-06  -0.000433624 -0.00134254 0.000601456  -0.000700846 -0.0027796 0.000735313  5.93513e-05 -0.00131345 -3.94881e-05  -0.000619903 -0.00318947 0.00059396  0.000116855 -0.0051032 -1.0401e-05  -0.000934929 -0.00513607 0.000629872  0.000132293 -0.00734884 8.76188e-06  -0.000984579 -0.00465003 0.000778392  -0.0012745 -0.0068363 0.000822574  0.000115335 -0.00462526 -6.24359e-06  -0.00122684 -0.00736916 0.000681162  0.000136673 -0.00990191 9.56655e-06  -0.00154519 -0.00990963 0.000680745  0.000130534 -0.012728 1.50502e-05  -0.00156641 -0.00933376 0.00081937  -0.00185448 -0.0121237 0.000815362  0.000143319 -0.00933185 9.68575e-06  -0.0018498 -0.0127214 0.000684977  0.000110328 -0.0158167 1.63317e-05  -0.00215846 -0.015796 0.000671178  7.73072e-05 -0.0191625 1.43051e-05  -0.0021472 -0.0151817 0.000797197  -0.00243914 -0.0185109 0.000772223  0.000129104 -0.0152068 1.27405e-05  -0.00246549 -0.0191277 0.000652343  2.93851e-05 -0.0227478 1.63019e-05  -0.00277513 -0.0227007 0.000634372  -3.46303e-05 -0.026575 1.17123e-05  -0.0027405 -0.0220844 0.00075087  -0.00304478 -0.0259083 0.000718594  5.9247e-05 -0.0221348 1.08629e-05  -0.00309002 -0.0265137 0.000607371  -0.000114381 -0.0306232 1.40667e-05  -0.00340921 -0.0305507 0.000588059  -0.000212133 -0.0348959 8.73208e-06  -0.00336105 -0.0299553 0.000696719  -0.00368267 -0.0342329 0.000661954  -7.80225e-05 -0.03003 8.15094e-06  -0.00373775 -0.0348103 0.000558823  -0.000326037 -0.0393732 1.11163e-05  -0.00407249 -0.0392764 0.00053966  -0.000458062 -0.0440575 5.87106e-06  -0.00401706 -0.0387144 0.000639215  -0.00435764 -0.0434059 0.000605687  -0.000285625 -0.0388125 4.23193e-06  -0.00441742 -0.0439466 0.000510514  -0.000605583 -0.0489279 8.19564e-06  -0.00477028 -0.048807 0.000492424  -0.000772476 -0.0539881 3.39746e-06  -0.00471127 -0.0482838 0.000584245  -0.00507104 -0.0533517 0.000551984  -0.000564218 -0.0484066 1.2368e-06  -0.00513148 -0.0538521 0.000464827  -0.000953913 -0.0592191 6.61612e-06  -0.00550163 -0.0590719 0.000447959  -0.00115371 -0.0646214 2.02656e-06  -0.00544345 -0.0585899 0.000531882  -0.00582087 -0.0640005 0.000501245  -0.000912905 -0.0587385 -7.89762e-07  -0.00588012 -0.0644595 0.000421762  -0.00136685 -0.0701779 4.61936e-06  -0.00626683 -0.0700053 0.000405937  -0.00159872 -0.0758903 7.15256e-07  -0.00620973 -0.0695638 0.000482231  -0.00660324 -0.0752847 0.000453576  -0.0013274 -0.0697382 -2.5332e-06  -0.00666082 -0.0757029 0.000381917  -0.00184262 -0.081742 3.8147e-06  -0.00706315 -0.0815425 0.000367016  -0.00210273 -0.0877337 1.43051e-06  -0.00700855 -0.0811423 0.000435501  -0.0074172 -0.0871412 0.000409871  -0.00180399 -0.0813423 -3.59118e-06  -0.00747168 -0.0875193 0.000345498  -0.00237513 -0.0938498 3.99351e-06  -0.00788748 -0.0936249 0.000331223  -0.00266266 -0.100091 9.53674e-07  -0.00783587 -0.0932626 0.000393599  -0.00825858 -0.0995114 0.000368565  -0.00233924 -0.0934881 -3.50177e-06  -0.00830901 -0.0998528 0.000310659  -0.00296164 -0.106443 3.72529e-06  -0.00873804 -0.106194 0.000298679  -0.00327373 -0.112907 2.26498e-06  -0.00869 -0.105869 0.000353694  -0.00912404 -0.112339 0.000330612  -0.00292861 -0.106119 -3.20375e-06  -0.00917137 -0.112643 0.000279337  -0.00359738 -0.119468 5.84126e-06  -0.00961089 -0.119196 0.000267416  -0.00393295 -0.126128 3.42727e-06  -0.00956702 -0.118904 0.000315875  -0.0100111 -0.125571 0.000294834  -0.00356662 -0.119179 -1.69873e-06  -0.0100539 -0.125843 0.000249565  -0.00427711 -0.132874 6.49691e-06  -0.0105028 -0.132578 0.000238717  -0.00463343 -0.139706 5.36442e-06  -0.0104624 -0.132321 0.000281528  -0.0109154 -0.13916 0.000261977  -0.00424957 -0.132617 -3.27826e-07  -0.0109549 -0.139399 0.000222474  -0.00499701 -0.146611 8.82149e-06  -0.0114119 -0.146295 0.00021264  -0.00537205 -0.153591 7.6592e-06  -0.0113747 -0.146069 0.000250265  -0.0118346 -0.153055 0.000231594  -0.00497341 -0.146385 2.13087e-06  -0.0118711 -0.153264 0.00019747  -0.00575209 -0.160635 1.22488e-05  -0.0123332 -0.1603 0.000188798  -0.00614262 -0.167742 1.04606e-05  -0.0123003 -0.160102 0.000220805  -0.0127659 -0.167215 0.000204399  -0.00573111 -0.160437 4.97699e-06  -0.0127981 -0.167397 0.000174552  -0.00653887 -0.174901 1.31428e-05  -0.0132658 -0.174549 0.000166059  -0.0069437 -0.182115 1.24574e-05  -0.0132363 -0.174378 0.000194281  -0.0137055 -0.181599 0.000178933  -0.00652027 -0.17473 7.31647e-06  -0.0137343 -0.181753 0.00015384  -0.00735164 -0.18937 1.62721e-05  -0.0142057 -0.189005 0.000145942  -0.00776792 -0.196673 1.61529e-05  -0.0141799 -0.188859 0.000169292  -0.014652 -0.196166 0.000155777  -0.00733495 -0.189226 1.02967e-05  -0.0146761 -0.196298 0.000135452  -0.00818634 -0.204009 1.77324e-05  -0.0151484 -0.203628 0.000127733  -0.00861073 -0.21138 1.89245e-05  -0.0151262 -0.203505 0.000147015  -0.0156 -0.210883 0.000134349  -0.00817299 -0.203886 1.29491e-05  -0.0156207 -0.210993 0.000117242  -0.00903893 -0.218778 2.17855e-05  -0.0160937 -0.218387 0.000110418  -0.00947189 -0.226205 2.13385e-05  -0.0160754 -0.218284 0.000127062  -0.0165498 -0.225717 0.000115767  -0.0090282 -0.218677 1.56909e-05  -0.0165672 -0.225806 0.000101149  -0.00990748 -0.233649 2.39909e-05  -0.017041 -0.233248 9.68575e-05  -0.0103469 -0.241116 2.3216e-05  -0.0170245 -0.233164 0.000108674  -0.0174973 -0.240638 9.84222e-05  -0.00989866 -0.233567 1.885e-05  -0.0175126 -0.240708 8.80063e-05  -0.0107861 -0.248595 2.68519e-05  -0.0179844 -0.248184 8.33571e-05  -0.0112293 -0.256088 2.74777e-05  -0.0179684 -0.248118 9.34154e-05  -0.0184405 -0.255618 8.43704e-05  -0.0107794 -0.24853 2.19941e-05  -0.0184534 -0.255673 7.53403e-05  -0.011673 -0.263587 2.89977e-05  -0.0189221 -0.26317 7.17044e-05  -0.0121191 -0.271095 2.98917e-05  -0.0189118 -0.263119 7.91252e-05  -0.0193791 -0.270632 7.16895e-05  -0.0116677 -0.263537 2.48402e-05  -0.0193896 -0.270674 6.50287e-05  -0.0125647 -0.278605 3.19779e-05  -0.019856 -0.278181 6.25551e-05  -0.0130134 -0.286118 3.26931e-05  -0.0198479 -0.278145 6.86944e-05  -0.0203128 -0.285663 6.15418e-05  -0.012562 -0.278568 2.9102e-05  -0.0203195 -0.285692 5.68926e-05  -0.0134594 -0.293629 3.46601e-05  -0.0207827 -0.293201 5.48065e-05  -0.0139084 -0.301137 3.5584e-05  -0.0207767 -0.293175 5.81443e-05  -0.0212379 -0.30069 5.32866e-05  -0.013458 -0.293603 3.22908e-05  -0.0212433 -0.300708 5.03063e-05  -0.0143559 -0.308639 3.76105e-05  -0.0217023 -0.308208 4.8697e-05  -0.0148025 -0.316139 3.84748e-05  -0.021698 -0.308193 5.12451e-05  -0.022155 -0.315697 4.749e-05  -0.014354 -0.308625 3.61204e-05  -0.0221586 -0.315706 4.51207e-05  -0.01525 -0.323628 3.92199e-05  -0.0226138 -0.323195 4.38392e-05  -0.0156972 -0.33111 4.17531e-05  -0.0226111 -0.323186 4.59701e-05  -0.0230644 -0.330672 4.3273e-05  -0.0152495 -0.323621 3.85493e-05  -0.0230672 -0.330675 4.16934e-05  -0.0161414 -0.338579 4.29749e-05  -0.0235181 -0.338144 4.10974e-05  -0.0165882 -0.34604 4.46141e-05  -0.0235164 -0.338142 4.14699e-05  -0.0239642 -0.345607 4.04865e-05  -0.0161421 -0.338578 4.14699e-05  -0.0239639 -0.345602 3.9041e-05  -0.017029 -0.353485 4.59254e-05  -0.0244124 -0.353048 3.94881e-05  -0.0174723 -0.360919 4.64916e-05  -0.0244112 -0.353051 3.92795e-05  -0.0248556 -0.360489 3.8147e-05  -0.0170307 -0.353488 4.44353e-05  -0.024857 -0.360484 3.72529e-05  -0.0179133 -0.368333 4.74751e-05  -0.0253 -0.367898 3.64482e-05  -0.018352 -0.375735 4.90546e-05  -0.0252993 -0.367901 3.60757e-05  -0.0257385 -0.375303 3.52114e-05  -0.0179133 -0.368338 4.64767e-05  -0.0257409 -0.375299 3.3915e-05  0.000175402 -0.000101566 -0.000480592  0.000114374 -1.19209e-05 -0.000251621  0.00053668 -0.000732124 -0.000807703  0.000110708 0.000106275 -0.00036642  0.000348255 -0.000323236 -0.000550434  0 0 0  0 0 0  0.000177413 2.26498e-05 -0.00064294  0 0 0  0.000347078 -0.000550449 -0.000422001  0.00107734 -0.00198382 -0.00107273  0.000610799 -0.00175428 -0.000571519  0.00168023 -0.00353801 -0.00121409  0.00064148 -0.00142461 -0.000721037  0.000960946 -0.00286674 -0.000767007  0.00114706 -0.00164658 -0.00134398  0.000935048 -0.00327188 -0.000620753  0.00231591 -0.00553149 -0.00129855  0.00123829 -0.00524515 -0.000669718  0.00294805 -0.00778097 -0.00133252  0.00127804 -0.00476432 -0.000810757  0.00158709 -0.00696123 -0.00081192  0.00239781 -0.00504047 -0.00158072  0.00155628 -0.00748867 -0.000669211  0.00355202 -0.010352 -0.00133419  0.0018473 -0.0100527 -0.000671238  0.0041306 -0.0131835 -0.00132135  0.0018813 -0.00948256 -0.000806555  0.00215769 -0.0122926 -0.000795946  0.00361168 -0.00977445 -0.00160697  0.00212681 -0.0128849 -0.000658333  0.00467038 -0.0162781 -0.00128946  0.00238353 -0.015979 -0.000641197  0.00517619 -0.0196329 -0.00125831  0.00241256 -0.0153704 -0.000771657  0.00264615 -0.01872 -0.000756204  0.00470775 -0.0156665 -0.00155036  0.00261658 -0.0193328 -0.000625521  0.00564545 -0.0232226 -0.00121474  0.00282687 -0.0229228 -0.000600904  0.00607842 -0.0270612 -0.0011768  0.00285387 -0.0223112 -0.000725701  0.00303918 -0.0261551 -0.000707865  0.00566882 -0.0226106 -0.00146079  0.00301105 -0.0267573 -0.000584781  0.00647676 -0.0311166 -0.00112882  0.00317067 -0.0308127 -0.000558466  0.00683755 -0.0354023 -0.00108927  0.00319618 -0.0302201 -0.000675812  0.00333011 -0.0345175 -0.000656813  0.00649101 -0.0305243 -0.00136018  0.00330287 -0.0350933 -0.000542521  0.00716555 -0.0398894 -0.00104147  0.0034101 -0.0395786 -0.000516236  0.00745726 -0.044587 -0.00100243  0.0034349 -0.0390174 -0.000625595  0.00351715 -0.0437304 -0.000606641  0.00717586 -0.0393295 -0.00125781  0.00349057 -0.0442708 -0.000500619  0.00771654 -0.0494702 -0.000957042  0.0035466 -0.0491511 -0.000474781  0.00794077 -0.0545449 -0.000919521  0.00357068 -0.0486277 -0.00057663  0.00360179 -0.0537189 -0.000557661  0.00772488 -0.0489482 -0.00115712  0.00357687 -0.054219 -0.000459582  0.00813425 -0.0597891 -0.000875503  0.00358224 -0.0594593 -0.000435174  0.00829422 -0.0652072 -0.000838667  0.00360596 -0.0589768 -0.000528693  0.00358748 -0.0644107 -0.000510678  0.00814068 -0.0593078 -0.00105971  0.00356305 -0.0648702 -0.000420004  0.0084244 -0.070778 -0.000797063  0.00352061 -0.0704371 -0.000397056  0.00852144 -0.0765066 -0.000762552  0.0035429 -0.0699959 -0.000483066  0.00347769 -0.0757391 -0.000465736  0.00842929 -0.0703374 -0.00096707  0.00345564 -0.0761583 -0.000381976  0.00859106 -0.0823725 -0.000722349  0.00336719 -0.0820205 -0.00036025  0.0086292 -0.0883796 -0.000689745  0.00338829 -0.0816176 -0.000439271  0.00327873 -0.0876405 -0.000421941  0.00859535 -0.0819719 -0.000877604  0.00325751 -0.0880204 -0.000346184  0.00864172 -0.0945104 -0.0006513  0.00312662 -0.094146 -0.000324398  0.00862491 -0.100768 -0.00061956  0.00314534 -0.0937824 -0.000396878  0.00299478 -0.100053 -0.000380263  0.0086453 -0.094148 -0.000792488  0.0029763 -0.100396 -0.000310928  0.00858366 -0.107134 -0.000583738  0.00280488 -0.106758 -0.000289947  0.00851512 -0.113613 -0.00055325  0.00282145 -0.106431 -0.000355467  0.00263214 -0.112923 -0.000339702  0.00858641 -0.106807 -0.000711277  0.00261486 -0.11323 -0.000276804  0.00842309 -0.120188 -0.000519544  0.00240719 -0.1198 -0.000257015  0.00830638 -0.126862 -0.000490367  0.00242186 -0.119508 -0.000316411  0.00219631 -0.126195 -0.000301316  0.00842452 -0.119896 -0.000634074  0.00218201 -0.126468 -0.000244081  0.0081681 -0.133619 -0.000457674  0.0019393 -0.133222 -0.000225961  0.00800681 -0.140464 -0.000431478  0.00195289 -0.132962 -0.000279233  0.00169468 -0.139819 -0.00026454  0.00816846 -0.13336 -0.000560611  0.00168109 -0.140061 -0.000213683  0.00782657 -0.14738 -0.000399888  0.0014081 -0.146974 -0.00019595  0.0076251 -0.154373 -0.000373453  0.00142026 -0.146744 -0.000243664  0.00113249 -0.153749 -0.000229716  0.00782561 -0.147152 -0.000491515  0.00112176 -0.15396 -0.000183403  0.007406 -0.161425 -0.000344783  0.00082159 -0.16101 -0.000167161  0.00716662 -0.168543 -0.000319779  0.000829458 -0.16081 -0.00020951  0.000515699 -0.16794 -0.000195503  0.00740314 -0.161226 -0.000425801  0.000506878 -0.168124 -0.000155985  0.00691175 -0.175712 -0.000292391  0.000180483 -0.17529 -0.000139832  0.00663924 -0.182934 -0.000270694  0.000188112 -0.175116 -0.000177279  -0.000148773 -0.182351 -0.00016427  0.00690794 -0.17554 -0.000364155  -0.000156164 -0.182508 -0.000130594  0.00635409 -0.190198 -0.000244707  -0.000504494 -0.18977 -0.000114799  0.00605035 -0.197508 -0.000223666  -0.000498772 -0.189623 -0.000146866  -0.000857592 -0.196943 -0.00013499  0.00634837 -0.190051 -0.000305802  -0.000862598 -0.197075 -0.000105828  0.0057373 -0.20485 -0.000199407  -0.00123048 -0.204417 -9.11951e-05  0.00540733 -0.212229 -0.000181019  -0.00122666 -0.204292 -0.000118345  -0.00160289 -0.211681 -0.000107288  0.00573158 -0.204726 -0.000252366  -0.00160623 -0.211793 -8.18074e-05  0.00506806 -0.219633 -0.00015831  -0.00198936 -0.219195 -6.93202e-05  0.00471687 -0.227063 -0.000140488  -0.00198817 -0.219091 -9.29981e-05  -0.00237918 -0.226533 -8.2016e-05  0.00506163 -0.219529 -0.000203878  -0.00238156 -0.226623 -6.10352e-05  0.00435615 -0.234512 -0.000121176  -0.00277972 -0.234072 -4.89652e-05  0.00398469 -0.241984 -0.000104725  -0.00277781 -0.233988 -6.7696e-05  -0.00318289 -0.241468 -5.93215e-05  0.00434947 -0.234429 -0.000158653  -0.00318456 -0.241541 -4.18425e-05  0.00360703 -0.249465 -8.64565e-05  -0.00359464 -0.249023 -3.05772e-05  0.00321794 -0.25696 -7.12574e-05  -0.00359464 -0.248955 -4.69089e-05  -0.00400996 -0.25646 -3.71486e-05  0.00359917 -0.249398 -0.000117496  -0.00400949 -0.256517 -2.34246e-05  0.00282335 -0.264464 -5.42104e-05  -0.00442934 -0.264019 -1.36197e-05  0.00242162 -0.271974 -4.20213e-05  -0.00443029 -0.263968 -2.63602e-05  -0.00485253 -0.271486 -1.82688e-05  0.00281692 -0.264412 -8.07047e-05  -0.00485086 -0.271529 -7.06315e-06  0.00201631 -0.279484 -2.79844e-05  -0.00527835 -0.279041 1.3411e-06  0.00160217 -0.286999 -1.70469e-05  -0.00527954 -0.279001 -7.91252e-06  -0.00571012 -0.286524 -2.563e-06  0.00200844 -0.279448 -4.75496e-05  -0.0057075 -0.286553 7.09295e-06  0.00118494 -0.294509 -5.03659e-06  -0.00614071 -0.294066 1.48714e-05  0.000763178 -0.302021 5.60284e-06  -0.00614381 -0.294039 7.39098e-06  -0.00657868 -0.301557 1.34408e-05  0.00117803 -0.294484 -1.98334e-05  -0.00657558 -0.301576 2.0206e-05  0.000337601 -0.309523 1.55568e-05  -0.00701118 -0.309079 2.64943e-05  -9.13143e-05 -0.317023 2.41697e-05  -0.00701475 -0.309062 2.13981e-05  -0.00745273 -0.316569 2.61068e-05  0.000330925 -0.309508 5.30481e-06  -0.00744891 -0.316578 3.01003e-05  -0.000522375 -0.32451 3.23653e-05  -0.00788879 -0.324067 3.58224e-05  -0.000955582 -0.331992 3.94285e-05  -0.00789261 -0.324059 3.14862e-05  -0.0083313 -0.331547 3.70443e-05  -0.000528336 -0.324504 2.50787e-05  -0.00832796 -0.331549 3.98457e-05  -0.0013907 -0.339461 4.63426e-05  -0.00876927 -0.33902 4.48525e-05  -0.00182843 -0.346922 5.18858e-05  -0.00877333 -0.339017 4.296e-05  -0.00921297 -0.346482 4.65363e-05  -0.00139785 -0.339459 4.17233e-05  -0.00920963 -0.346479 4.74155e-05  -0.0022645 -0.354365 5.87404e-05  -0.00965023 -0.353925 5.18858e-05  -0.00270319 -0.361801 6.33597e-05  -0.00965357 -0.353928 5.11855e-05  -0.0100944 -0.361366 5.50002e-05  -0.00227141 -0.35437 5.60135e-05  -0.0100904 -0.361359 5.43892e-05  -0.00314045 -0.369218 6.89328e-05  -0.010529 -0.368775 5.81443e-05  -0.00357509 -0.376621 7.38204e-05  -0.0105329 -0.368778 5.95003e-05  -0.0109675 -0.37618 6.33597e-05  -0.00314498 -0.369221 6.94394e-05  -0.0109646 -0.376176 6.17504e-05  0.000371464 -0.000515997 -0.000891745  0.000300661 -0.000263393 -0.00067088  0.0011612 -0.00142062 -0.00154456  0.000298612 -0.000145257 -0.000944808  0.000966787 -0.000762105 -0.00153808  0 0 0  0 0 0  0.000379466 -0.000376523 -0.00120108  0 0 0  0.000907391 -0.000998318 -0.00118318  0.00225422 -0.00290555 -0.00204495  0.00168762 -0.00236136 -0.00157967  0.00348955 -0.0045495 -0.00235561  0.00179432 -0.00201041 -0.00200337  0.00271401 -0.00353754 -0.00222723  0.00239144 -0.00252241 -0.00257625  0.00258392 -0.0039646 -0.00179935  0.00474167 -0.00659269 -0.00252655  0.00351441 -0.00597793 -0.00193247  0.00599152 -0.00884676 -0.00262168  0.00363761 -0.00547528 -0.0023597  0.00454471 -0.00769299 -0.00241144  0.00489733 -0.00606143 -0.00308576  0.00443786 -0.00824106 -0.0019885  0.00718617 -0.0113997 -0.00263393  0.00533861 -0.0108003 -0.00199619  0.00833547 -0.0142149 -0.00262216  0.00542301 -0.0102153 -0.00240393  0.00625938 -0.0130263 -0.00238203  0.00729209 -0.0107958 -0.00317629  0.00619495 -0.0136319 -0.00197992  0.00942343 -0.017284 -0.00256762  0.00701231 -0.0167141 -0.00193486  0.010456 -0.0206233 -0.0025087  0.00705785 -0.0160973 -0.00232129  0.0078125 -0.0194468 -0.00226781  0.0094766 -0.0166574 -0.00308368  0.00777966 -0.0200653 -0.00188798  0.0114325 -0.0241957 -0.00242737  0.00850511 -0.0236489 -0.00182411  0.0123542 -0.0280243 -0.00234994  0.00852495 -0.0230337 -0.00218888  0.00919497 -0.0268787 -0.00212227  0.01145 -0.0235767 -0.00291416  0.00918305 -0.0274838 -0.00176632  0.0132227 -0.0320693 -0.00226024  0.0098173 -0.0315371 -0.0016965  0.0140377 -0.0363501 -0.00217724  0.00982094 -0.0309435 -0.00203799  0.0104078 -0.0352442 -0.00196703  0.0132188 -0.0314746 -0.00271571  0.0104068 -0.0358207 -0.00163579  0.0148022 -0.040831 -0.00208673  0.010953 -0.0403084 -0.00156567  0.015514 -0.0455274 -0.00200456  0.010949 -0.0397473 -0.00188379  0.0114511 -0.0444658 -0.00181319  0.0147865 -0.0402701 -0.00251062  0.0114563 -0.045006 -0.00150546  0.0161777 -0.0504069 -0.00191578  0.0119171 -0.0498907 -0.00143766  0.0167885 -0.0554822 -0.00183648  0.0119098 -0.0493672 -0.0017316  0.0123295 -0.0544659 -0.00166319  0.0161555 -0.0498853 -0.00230846  0.0123372 -0.0549664 -0.00137952  0.0173541 -0.0607253 -0.00175196  0.0127163 -0.0602128 -0.00131452  0.0178691 -0.066145 -0.00167593  0.0127069 -0.0597292 -0.00158544  0.0130465 -0.0651717 -0.00151932  0.0173302 -0.0602443 -0.00211376  0.013055 -0.0656324 -0.00125948  0.0183392 -0.0717162 -0.00159502  0.0133548 -0.0712062 -0.0011971  0.0187622 -0.0774468 -0.0015226  0.0133443 -0.0707638 -0.00144613  0.0136073 -0.0765163 -0.00138217  0.0183158 -0.0712745 -0.00192681  0.0136163 -0.0769353 -0.00114438  0.0191419 -0.0833131 -0.00144663  0.013841 -0.0828057 -0.00108543  0.019477 -0.089323 -0.00137728  0.0138297 -0.0824023 -0.00131206  0.0140187 -0.0884335 -0.0012517  0.0191183 -0.0829123 -0.00174847  0.0140293 -0.0888145 -0.00103492  0.0197706 -0.0954548 -0.00130418  0.0141821 -0.0949486 -0.00097847  0.0200223 -0.101715 -0.00123873  0.0141706 -0.0945832 -0.00118531  0.0142901 -0.100864 -0.00112693  0.019747 -0.0950922 -0.00157914  0.0143007 -0.101207 -0.000930697  0.0202351 -0.108082 -0.00116959  0.0143862 -0.107577 -0.000877857  0.0204082 -0.114563 -0.00110629  0.0143749 -0.107249 -0.00106372  0.0144291 -0.113749 -0.00100893  0.0202113 -0.107755 -0.00141712  0.0144395 -0.114058 -0.000831634  0.0205448 -0.121139 -0.00104144  0.0144622 -0.120635 -0.00078094  0.0206443 -0.127816 -0.000982434  0.0144496 -0.120341 -0.000947952  0.0144428 -0.127037 -0.000895843  0.0205216 -0.120847 -0.00126417  0.0144547 -0.127311 -0.000737399  0.0207096 -0.134574 -0.000919938  0.0144191 -0.134072 -0.000689834  0.020741 -0.14142 -0.000863999  0.0144064 -0.133811 -0.000838995  0.0143433 -0.140675 -0.000789568  0.0206865 -0.134314 -0.00111857  0.0143547 -0.140917 -0.000649661  0.0207417 -0.148337 -0.000805587  0.0142648 -0.147837 -0.000603676  0.0207088 -0.15533 -0.000753194  0.0142512 -0.147606 -0.000735715  0.0141356 -0.154616 -0.000689492  0.0207179 -0.148108 -0.00098218  0.0141473 -0.15483 -0.000564754  0.0206482 -0.162382 -0.000698686  0.0140085 -0.161885 -0.000522494  0.0205576 -0.169501 -0.000649452  0.0139952 -0.161683 -0.000638694  0.0138316 -0.168818 -0.000595033  0.0206261 -0.162182 -0.000853866  0.0138447 -0.169002 -0.000485539  0.0204406 -0.176668 -0.000597477  0.0136597 -0.176172 -0.000446618  0.0202973 -0.18389 -0.000551105  0.0136447 -0.175998 -0.000546694  0.0134385 -0.183237 -0.000506431  0.0204186 -0.176495 -0.000733435  0.0134523 -0.183396 -0.00041303  0.0201318 -0.191153 -0.00050354  0.0132263 -0.190661 -0.000374258  0.0199406 -0.198462 -0.000461549  0.0132117 -0.190511 -0.000462219  0.0129676 -0.197834 -0.000424162  0.0201099 -0.191006 -0.000619844  0.0129802 -0.197971 -0.000344038  0.0197284 -0.205801 -0.000416666  0.0127172 -0.205313 -0.000310153  0.0194945 -0.213179 -0.000377178  0.0127034 -0.205187 -0.000383556  0.0124242 -0.212579 -0.000348985  0.0197065 -0.205676 -0.000516608  0.0124359 -0.21269 -0.000280589  0.0192406 -0.220579 -0.000336796  0.0121417 -0.220095 -0.000248492  0.0189681 -0.22801 -0.000301391  0.0121269 -0.21999 -0.00031212  0.0118155 -0.227434 -0.000279009  0.0192201 -0.220477 -0.000420853  0.0118306 -0.227526 -0.000222474  0.0186794 -0.235455 -0.000264585  0.0115047 -0.234975 -0.000193834  0.018373 -0.242923 -0.000231028  0.0114913 -0.234889 -0.000245303  0.0111535 -0.24237 -0.000215188  0.0186596 -0.235371 -0.000333399  0.0111673 -0.242444 -0.000167787  0.0180523 -0.250401 -0.000197887  0.0108173 -0.249926 -0.000143051  0.0177159 -0.257896 -0.000168115  0.0108044 -0.249858 -0.000184193  0.0104437 -0.257364 -0.000158563  0.018033 -0.250335 -0.000253752  0.0104568 -0.257421 -0.000121504  0.0173688 -0.265393 -0.000138938  0.0100856 -0.264922 -9.84669e-05  0.0170074 -0.272901 -0.000113219  0.0100729 -0.26487 -0.000130862  0.00969291 -0.272389 -0.000108123  0.0173507 -0.265343 -0.000183657  0.00970578 -0.272431 -7.89464e-05  0.0166373 -0.280407 -8.68142e-05  0.00931621 -0.279942 -5.85914e-05  0.0162542 -0.28792 -6.49095e-05  0.00930262 -0.279903 -8.38041e-05  0.00890756 -0.287426 -6.29723e-05  0.0166192 -0.280371 -0.000121683  0.00891972 -0.287455 -4.17233e-05  0.0158641 -0.295426 -4.25279e-05  0.00851703 -0.294964 -2.41697e-05  0.0154653 -0.302934 -2.31862e-05  0.00850487 -0.294937 -4.35263e-05  0.00809598 -0.302455 -2.64049e-05  0.0158496 -0.295402 -6.78003e-05  0.00810766 -0.302474 -9.92417e-06  0.0150607 -0.310432 -5.0962e-06  0.0076921 -0.309977 3.72529e-06  0.0146475 -0.317929 9.89437e-06  0.00768209 -0.309959 -8.77678e-06  0.00726271 -0.317464 5.72205e-06  0.0150471 -0.310418 -2.32607e-05  0.00727081 -0.317473 1.60933e-05  0.0142312 -0.325414 2.47359e-05  0.00684786 -0.32496 2.82526e-05  0.0138063 -0.332892 3.73721e-05  0.00683808 -0.324951 1.95354e-05  0.00641179 -0.332438 3.16501e-05  0.014219 -0.325406 1.41412e-05  0.00642014 -0.332441 3.64482e-05  0.0133808 -0.340356 4.95017e-05  0.00598979 -0.339909 4.66108e-05  0.0129483 -0.347815 6.01709e-05  0.00598073 -0.339906 4.25279e-05  0.00554705 -0.34737 5.33909e-05  0.01337 -0.340356 4.36157e-05  0.00555658 -0.347367 5.55813e-05  0.0125177 -0.355257 7.00951e-05  0.00512028 -0.354813 6.41048e-05  0.0120831 -0.362693 7.84397e-05  0.00511384 -0.354813 6.36429e-05  0.00467682 -0.362251 7.26581e-05  0.0125074 -0.355261 6.74576e-05  0.0046854 -0.362246 7.18534e-05  0.0116458 -0.370112 8.744e-05  0.00424862 -0.369665 7.81417e-05  0.0112123 -0.377524 9.68277e-05  0.00424004 -0.369668 8.22842e-05  0.00380802 -0.377075 8.95113e-05  0.0116377 -0.370116 9.01073e-05  0.00381756 -0.377072 8.45194e-05  0.000653766 -0.00147021 -0.00126231  0.000568129 -0.000869691 -0.00105435  0.00212255 -0.00283486 -0.0022141  0.000569738 -0.000741541 -0.00147469  0.00176932 -0.00174212 -0.00244132  0 0 0  0 0 0  0.000675216 -0.00128919 -0.00168781  0 0 0  0.00164708 -0.00201601 -0.00188228  0.00387165 -0.00456369 -0.0029285  0.00303762 -0.00361437 -0.00250691  0.00578842 -0.0063085 -0.00340861  0.0032142 -0.00320172 -0.00318389  0.00477734 -0.00486034 -0.00358555  0.00405674 -0.00409389 -0.00369164  0.00455317 -0.00534904 -0.00289497  0.00765833 -0.00830477 -0.00367859  0.00613397 -0.00735962 -0.00312057  0.00948998 -0.0105392 -0.00384486  0.00632438 -0.00680095 -0.00381874  0.00782627 -0.00902975 -0.00393449  0.00786236 -0.00770324 -0.00450209  0.00765833 -0.00962722 -0.00324365  0.0112521 -0.0130157 -0.00388357  0.00915405 -0.0121373 -0.00326893  0.0129371 -0.0157892 -0.00388199  0.00927749 -0.0115138 -0.00394168  0.0106611 -0.014304 -0.00392039  0.0113882 -0.0123665 -0.00469185  0.0105702 -0.0149399 -0.0032582  0.0145547 -0.0188052 -0.00381353  0.0119302 -0.0179833 -0.00319618  0.0160948 -0.0221098 -0.00373226  0.0119882 -0.0173439 -0.00383589  0.0132526 -0.0206721 -0.00375022  0.0146195 -0.0181524 -0.00458468  0.0132192 -0.0213071 -0.00312456  0.0175681 -0.0256479 -0.00361884  0.0144454 -0.0248651 -0.00302681  0.0189676 -0.0294504 -0.00350577  0.0144591 -0.0242376 -0.00362985  0.0156075 -0.0280679 -0.00351761  0.0175835 -0.0250147 -0.00434659  0.0156083 -0.0286805 -0.00293025  0.0203003 -0.0334705 -0.00337628  0.0167091 -0.0327164 -0.00282064  0.0215613 -0.0377316 -0.00325242  0.0166965 -0.0321172 -0.00338545  0.0177295 -0.0364077 -0.00326422  0.0202861 -0.0328699 -0.00405659  0.0177492 -0.0369872 -0.00271785  0.0227563 -0.042193 -0.00312033  0.0187279 -0.0414616 -0.00260517  0.0238811 -0.0468739 -0.00299573  0.0187024 -0.0408988 -0.00313115  0.0196196 -0.0456098 -0.00300896  0.0227259 -0.0416309 -0.00375248  0.0196484 -0.0461504 -0.00250271  0.0249419 -0.0517355 -0.00286695  0.0205106 -0.0510247 -0.00239325  0.0259339 -0.0567985 -0.00274605  0.020478 -0.0505012 -0.00287884  0.0212814 -0.0555938 -0.00276041  0.0249039 -0.0512152 -0.00345074  0.0213144 -0.0560939 -0.00229305  0.0268649 -0.0620254 -0.00262153  0.0220616 -0.0613313 -0.0021883  0.0277292 -0.0674335 -0.00250614  0.0220273 -0.0608486 -0.00263542  0.0227196 -0.0662871 -0.00252175  0.0268238 -0.0615453 -0.00315922  0.0227535 -0.0667463 -0.00209314  0.0285348 -0.0729903 -0.00238782  0.0233912 -0.0723121 -0.00199303  0.0292761 -0.0787112 -0.00227734  0.0233558 -0.0718709 -0.00240241  0.0239413 -0.0776204 -0.00229354  0.028493 -0.0725513 -0.00287999  0.0239747 -0.0780388 -0.0019021  0.0299599 -0.0845636 -0.00216517  0.0245066 -0.0839015 -0.00180674  0.0305845 -0.0905651 -0.00205997  0.0244724 -0.0834988 -0.00218013  0.0249548 -0.0895275 -0.00207639  0.0299201 -0.0841645 -0.0026131  0.0249887 -0.0899069 -0.0017195  0.0311543 -0.0966828 -0.00195312  0.0254208 -0.0960348 -0.00162998  0.0316668 -0.102935 -0.00185296  0.0253865 -0.09567 -0.00196822  0.0257717 -0.101949 -0.00186956  0.0311151 -0.0963214 -0.00235973  0.025805 -0.102291 -0.00154707  0.0321286 -0.109288 -0.00175133  0.0261418 -0.108654 -0.00146151  0.0325361 -0.115762 -0.00165626  0.0261087 -0.108326 -0.00176685  0.0264024 -0.114825 -0.00167331  0.0320907 -0.108963 -0.00211808  0.0264339 -0.115133 -0.00138357  0.0328953 -0.122324 -0.00155988  0.0266831 -0.121704 -0.00130183  0.0332044 -0.128993 -0.0014706  0.0266492 -0.12141 -0.00157617  0.0268565 -0.128102 -0.00148723  0.0328588 -0.122034 -0.00188969  0.026889 -0.128377 -0.001228  0.033469 -0.135739 -0.00137979  0.027054 -0.135131 -0.00115123  0.033685 -0.142577 -0.00129539  0.0270215 -0.134871 -0.00139511  0.0271482 -0.141732 -0.00131081  0.033433 -0.13548 -0.00167245  0.0271792 -0.141975 -0.00108096  0.0338609 -0.149481 -0.00120911  0.0272675 -0.148887 -0.00100872  0.0339904 -0.156466 -0.00113022  0.0272353 -0.148657 -0.00122502  0.0272875 -0.155663 -0.00114545  0.0338249 -0.149254 -0.00146899  0.027318 -0.155876 -0.000943422  0.0340848 -0.163506 -0.00104973  0.0273345 -0.162925 -0.000875831  0.0341363 -0.170616 -0.000974506  0.0273044 -0.162723 -0.00106433  0.0272868 -0.169855 -0.000990629  0.03405 -0.163307 -0.00127743  0.0273161 -0.170039 -0.000813723  0.0341537 -0.177772 -0.000899762  0.0272677 -0.177202 -0.000749737  0.034132 -0.184985 -0.000830084  0.0272377 -0.177028 -0.000915378  0.027158 -0.184263 -0.00084509  0.0341191 -0.1776 -0.0010972  0.0271864 -0.184421 -0.000691593  0.0340815 -0.192236 -0.000759512  0.0270777 -0.19168 -0.00063324  0.0339913 -0.199535 -0.000695199  0.0270481 -0.19153 -0.00077422  0.026912 -0.198851 -0.000710368  0.0340476 -0.192089 -0.000931099  0.0269408 -0.198984 -0.00058046  0.0338769 -0.206864 -0.000631928  0.0267763 -0.20632 -0.000525385  0.0337291 -0.214232 -0.000571281  0.0267487 -0.206194 -0.000645861  0.0265605 -0.213581 -0.000586227  0.0338457 -0.20674 -0.000775903  0.0265882 -0.213693 -0.000474781  0.0335569 -0.22162 -0.000513673  0.0263748 -0.221089 -0.000425845  0.033356 -0.229041 -0.000457734  0.0263479 -0.220986 -0.000526518  0.0261135 -0.228423 -0.000472575  0.0335262 -0.221518 -0.000633836  0.0261395 -0.228515 -0.000380933  0.0331326 -0.236475 -0.000403106  0.0258825 -0.235957 -0.000335038  0.032882 -0.243936 -0.000354648  0.0258584 -0.235872 -0.000417471  0.0255835 -0.243348 -0.000369564  0.033103 -0.236393 -0.000504509  0.0256081 -0.24342 -0.000293911  0.032614 -0.251402 -0.000306368  0.0253139 -0.250895 -0.000252694  0.0323234 -0.258887 -0.000262588  0.0252905 -0.250828 -0.000320375  0.0249801 -0.258329 -0.00027661  0.0325875 -0.251337 -0.000386864  0.0250027 -0.258385 -0.000217319  0.0320165 -0.266375 -0.000219226  0.0246749 -0.265879 -0.000180811  0.0316894 -0.273874 -0.000180304  0.0246525 -0.265828 -0.000232711  0.024312 -0.273341 -0.000194982  0.0319924 -0.266327 -0.000282943  0.0243323 -0.273383 -0.000148147  0.0313478 -0.281371 -0.000143677  0.0239778 -0.280886 -0.00011614  0.0309906 -0.288876 -0.000109464  0.023957 -0.280848 -0.000155762  0.0235898 -0.288366 -0.000122577  0.0313258 -0.281336 -0.000191972  0.0236084 -0.288394 -8.95858e-05  0.0306215 -0.296373 -7.74562e-05  0.0232286 -0.295897 -6.18398e-05  0.0302393 -0.303874 -4.93228e-05  0.0232112 -0.295872 -9.11653e-05  0.0228233 -0.303383 -6.20633e-05  0.0306022 -0.29635 -0.00011301  0.0228403 -0.303401 -3.76999e-05  0.0298476 -0.311363 -2.35736e-05  0.0224426 -0.310896 -1.508e-05  0.029444 -0.318853 -8.9407e-07  0.0224266 -0.310881 -3.53903e-05  0.022022 -0.318381 -1.15931e-05  0.0298295 -0.31135 -4.75645e-05  0.0220361 -0.31839 2.68221e-06  0.0290334 -0.32633 1.99974e-05  0.0216234 -0.325871 2.16663e-05  0.028615 -0.333803 3.8445e-05  0.0216098 -0.325863 9.77516e-06  0.0211904 -0.333345 2.78801e-05  0.0290184 -0.326324 5.57303e-06  0.0212035 -0.333346 3.67165e-05  0.0281935 -0.341263 5.51939e-05  0.0207791 -0.340809 5.14984e-05  0.0277648 -0.348717 6.80089e-05  0.0207655 -0.340808 4.46439e-05  0.0203383 -0.348268 5.96195e-05  0.028178 -0.341262 4.57019e-05  0.0203516 -0.348265 6.33001e-05  0.0273337 -0.356155 7.98702e-05  0.0199177 -0.355708 7.48038e-05  0.026897 -0.363589 9.21488e-05  0.019907 -0.35571 7.27773e-05  0.0194716 -0.363146 8.57413e-05  0.0273201 -0.35616 7.7337e-05  0.0194848 -0.363141 8.30591e-05  0.0264626 -0.37101 0.000103444  0.0190492 -0.370562 9.53078e-05  0.0260253 -0.378429 0.000113755  0.019037 -0.370564 9.66787e-05  0.0186038 -0.377979 0.000111774  0.0264482 -0.371015 0.000102624  0.0186167 -0.377976 0.00010559  0.00120719 -0.00363731 -0.00166342  0.00105317 -0.00219315 -0.0014284  0.0041008 -0.00564861 -0.00287959  0.00107521 -0.00204027 -0.00194548  0.00299507 -0.00374991 -0.00324106  0 0 0  0 0 0  0.00116827 -0.00339431 -0.00215875  0 0 0  0.00282528 -0.00410426 -0.00252187  0.00654146 -0.00696313 -0.00381306  0.00498906 -0.00569367 -0.00337335  0.00884753 -0.00882173 -0.00445032  0.00518368 -0.00517559 -0.00425892  0.00739902 -0.00692129 -0.0048496  0.00661802 -0.0064671 -0.00483432  0.0071415 -0.00751573 -0.00392467  0.0112599 -0.0105814 -0.00483179  0.00934732 -0.00938934 -0.00425741  0.0135529 -0.01275 -0.00506523  0.00955307 -0.00874037 -0.00521533  0.0116266 -0.0109236 -0.00540428  0.0114482 -0.00991166 -0.00595102  0.0114359 -0.0115953 -0.00445262  0.0158498 -0.0151387 -0.0051268  0.0134795 -0.0140217 -0.00450841  0.0180512 -0.0178367 -0.00513461  0.0136181 -0.0133373 -0.00544789  0.0155333 -0.0160778 -0.00542942  0.0160029 -0.0144296 -0.00622199  0.0154289 -0.016758 -0.00450844  0.0201898 -0.0208089 -0.00504741  0.0173048 -0.0197518 -0.00443396  0.022237 -0.0240591 -0.00494617  0.0173725 -0.0190765 -0.00533012  0.0191418 -0.0223697 -0.00521338  0.020278 -0.0201178 -0.00608647  0.0191 -0.0230274 -0.00434044  0.0242044 -0.0275595 -0.00479659  0.0208154 -0.0265497 -0.00421077  0.0260773 -0.0313246 -0.00464967  0.0208347 -0.025904 -0.00505561  0.0224572 -0.0297088 -0.0048971  0.0242416 -0.0269064 -0.00576977  0.0224549 -0.030332 -0.0040791  0.027872 -0.0353072 -0.00447834  0.024014 -0.0343378 -0.00393003  0.0295701 -0.0395408 -0.00431624  0.024003 -0.033731 -0.0047189  0.0254782 -0.0380008 -0.00454733  0.0278776 -0.0346985 -0.00538522  0.0254976 -0.0385833 -0.0037857  0.0311924 -0.0439633 -0.00414145  0.0269032 -0.0430307 -0.00363287  0.0327194 -0.048623 -0.00397733  0.0268753 -0.0424655 -0.00436597  0.0282022 -0.0471582 -0.00419271  0.0311807 -0.0434003 -0.00498132  0.0282334 -0.0476982 -0.00348818  0.0341738 -0.0534474 -0.00380659  0.0294878 -0.0525469 -0.00333872  0.0355344 -0.0584913 -0.00364721  0.0294523 -0.0520239 -0.0040153  0.030633 -0.0571006 -0.00384708  0.0341529 -0.0529284 -0.00458142  0.0306695 -0.0575981 -0.00319824  0.0368255 -0.0636811 -0.00348297  0.0317774 -0.0628121 -0.00305423  0.0380256 -0.0690731 -0.0033294  0.0317384 -0.0623311 -0.00367594  0.0327771 -0.0677539 -0.00351425  0.0368005 -0.0632049 -0.00419377  0.0328152 -0.0682102 -0.00291902  0.0391601 -0.074594 -0.00317287  0.0337821 -0.0737541 -0.00278172  0.0402069 -0.0802994 -0.00302696  0.0337422 -0.0733144 -0.00335079  0.0346435 -0.0790495 -0.00319606  0.0391332 -0.0741594 -0.00382406  0.0346813 -0.0794652 -0.00265327  0.0411913 -0.0861185 -0.00287756  0.0355124 -0.0853059 -0.00252265  0.0420899 -0.0921044 -0.0027386  0.0354733 -0.0849063 -0.00304069  0.0362425 -0.0909199 -0.00289249  0.041164 -0.0857226 -0.00346912  0.0362805 -0.0912976 -0.00239974  0.0429295 -0.0981897 -0.00259659  0.0369829 -0.0974036 -0.00227574  0.0436912 -0.104427 -0.00246364  0.0369449 -0.0970423 -0.0027453  0.0375881 -0.103307 -0.00260466  0.0429043 -0.0978317 -0.00313182  0.0376251 -0.103646 -0.00215906  0.0443957 -0.110749 -0.0023292  0.0382056 -0.10999 -0.00204143  0.0450242 -0.117208 -0.0022023  0.0381681 -0.109664 -0.00246428  0.0386927 -0.116148 -0.00233054  0.0443699 -0.110427 -0.00281161  0.0387286 -0.116454 -0.00193012  0.0456009 -0.123739 -0.00207585  0.0391945 -0.123006 -0.00181887  0.0461071 -0.130395 -0.00195587  0.0391583 -0.122715 -0.00219768  0.0395721 -0.129394 -0.0020718  0.0455762 -0.123453 -0.00250809  0.0396066 -0.129666 -0.00171408  0.0465631 -0.137109 -0.00183511  0.0399652 -0.136401 -0.00160787  0.0469522 -0.143935 -0.00172356  0.0399302 -0.136142 -0.0019455  0.0402389 -0.142992 -0.00182658  0.0465378 -0.136855 -0.00222068  0.0402722 -0.143231 -0.00151014  0.0472965 -0.150809 -0.00160998  0.0405307 -0.150125 -0.00141028  0.0475769 -0.157781 -0.00150397  0.0404961 -0.149897 -0.00170831  0.0407081 -0.156891 -0.00159661  0.0472722 -0.150585 -0.00195053  0.0407412 -0.157101 -0.00131786  0.0478194 -0.164792 -0.00139722  0.0409048 -0.164131 -0.00122443  0.0479982 -0.171889 -0.00129756  0.0408719 -0.163932 -0.00148511  0.0409946 -0.171051 -0.00138068  0.0477929 -0.164597 -0.00169544  0.0410254 -0.171233 -0.00113752  0.0481415 -0.179016 -0.00119957  0.0411053 -0.178379 -0.00104988  0.0482297 -0.186217 -0.00110701  0.0410712 -0.178206 -0.00127651  0.0411112 -0.185429 -0.00117896  0.0481162 -0.178847 -0.00145718  0.0411437 -0.185585 -0.000968933  0.0482855 -0.193441 -0.00101435  0.0411429 -0.192826 -0.000887632  0.0482886 -0.200726 -0.000927359  0.041111 -0.192678 -0.00108267  0.0410762 -0.199985 -0.000991479  0.0482602 -0.193297 -0.00123626  0.0411067 -0.200116 -0.000813395  0.048264 -0.208028 -0.000842273  0.0410318 -0.207436 -0.00073877  0.0481913 -0.215384 -0.000764251  0.0410028 -0.207311 -0.000903606  0.0408986 -0.214686 -0.000819281  0.0482404 -0.207908 -0.00103079  0.0409281 -0.214795 -0.000668138  0.0480921 -0.222748 -0.000684172  0.0407896 -0.222176 -0.000599056  0.0479484 -0.230157 -0.000614166  0.0407598 -0.222074 -0.000736788  0.0405946 -0.2295 -0.00066103  0.0480685 -0.222649 -0.00084272  0.0406227 -0.229588 -0.00053528  0.0477836 -0.237567 -0.000542402  0.040427 -0.237015 -0.000474662  0.0475807 -0.245016 -0.000477344  0.0403996 -0.236932 -0.000586137  0.0401785 -0.244397 -0.000517443  0.0477619 -0.237489 -0.000670969  0.0402055 -0.244467 -0.000417501  0.0473561 -0.252459 -0.000413477  0.0399575 -0.251926 -0.000360459  0.0470967 -0.259933 -0.000354648  0.0399318 -0.251861 -0.000449955  0.0396638 -0.25935 -0.00038977  0.0473373 -0.252399 -0.000515223  0.0396872 -0.259404 -0.000309497  0.046823 -0.267398 -0.000298202  0.0393941 -0.266884 -0.000259995  0.0465167 -0.274888 -0.000246257  0.039371 -0.266834 -0.000329733  0.0390611 -0.274337 -0.000275642  0.0468049 -0.267353 -0.000378385  0.0390835 -0.274377 -0.000214726  0.0461988 -0.282364 -0.000197202  0.0387514 -0.281866 -0.000171214  0.0458522 -0.28986 -0.000153422  0.0387294 -0.281831 -0.000223488  0.038383 -0.289339 -0.00017713  0.0461817 -0.282334 -0.000256434  0.0384047 -0.289365 -0.000132412  0.0454962 -0.297339 -0.000111729  0.0380392 -0.296857 -9.53376e-05  0.0451171 -0.304833 -7.39694e-05  0.0380197 -0.296834 -0.000133067  0.0376446 -0.304336 -9.40263e-05  0.04548 -0.29732 -0.000154451  0.0376635 -0.304351 -6.27041e-05  0.0447295 -0.312306 -4.03225e-05  0.0372727 -0.311837 -3.28124e-05  0.0443234 -0.319788 -1.05202e-05  0.037256 -0.311823 -5.80251e-05  0.0368557 -0.319314 -2.57641e-05  0.0447149 -0.312296 -6.82026e-05  0.0368726 -0.31932 -6.31809e-06  0.0439131 -0.327251 1.71065e-05  0.0364616 -0.326793 1.71959e-05  0.0434873 -0.334719 3.95477e-05  0.0364449 -0.326786 3.45707e-06  0.0360272 -0.334261 2.7597e-05  0.0438998 -0.327248 2.38419e-07  0.0360422 -0.334262 3.75509e-05  0.0430582 -0.342168 5.82337e-05  0.0356159 -0.341719 5.59986e-05  0.0426202 -0.349618 7.60555e-05  0.0356019 -0.341717 4.92483e-05  0.0351722 -0.349172 6.78152e-05  0.0430455 -0.34217 5.24074e-05  0.0351858 -0.34917 7.05421e-05  0.0421834 -0.35705 8.93474e-05  0.0347526 -0.356606 8.40425e-05  0.0417397 -0.364483 0.000101954  0.0347378 -0.356608 8.24779e-05  0.0343022 -0.364043 9.72897e-05  0.0421729 -0.357056 8.83639e-05  0.0343168 -0.364036 9.69768e-05  0.0412986 -0.371903 0.000112534  0.0338757 -0.371459 0.000107259  0.0408587 -0.379327 0.000126332  0.0338619 -0.371463 0.000112042  0.0334244 -0.378885 0.000122935  0.0412867 -0.371909 0.000115097  0.0334392 -0.378878 0.000117064  -0.00090966 -0.000777408 0.00210571  -0.00100295 -0.00146196 0.00246701  -0.00258473 -0.00204954 0.00374298  -0.00115816 -0.00107365 0.00363734  -0.00415695 -0.00248929 0.00535591  -0.00290559 -0.00304389 0.00350453  0 0 0  -0.00234396 -0.00288975 0.00284983  0 0 0  0 0 0  -0.000948425 -0.000386946 0.00314225  0 0 0  -0.00461897 -0.00443825 0.00489134  -0.00323547 -0.00321793 0.00430197  -0.00441225 -0.00321171 0.00451452  -0.00541398 -0.00423896 0.00522441  -0.00617093 -0.00460115 0.00517517  -0.00610632 -0.00334175 0.00611027  -0.00801313 -0.00469321 0.00695629  -0.0074753 -0.00433371 0.00703418  -0.00687252 -0.00534995 0.00594413  -0.00521502 -0.0024351 0.00525634  -0.00912176 -0.00677114 0.00689451  -0.00749472 -0.00565949 0.0059883  -0.00794849 -0.00634899 0.00539841  -0.0095461 -0.00724867 0.00629117  -0.00961199 -0.00831059 0.00559101  -0.00987104 -0.00620636 0.0071833  -0.0116697 -0.00814691 0.00746044  -0.0116603 -0.00713372 0.00832777  -0.0114234 -0.00828443 0.0072082  -0.00834966 -0.00536443 0.00613899  -0.0136785 -0.0102108 0.00751719  -0.0115281 -0.0092007 0.00652206  -0.0112609 -0.0106643 0.00559619  -0.0134811 -0.0114803 0.00653931  -0.0128661 -0.0132766 0.00556438  -0.0135159 -0.0104234 0.0074279  -0.0153085 -0.0130272 0.00740227  -0.0159173 -0.0113227 0.00858344  -0.0159286 -0.0124435 0.00750586  -0.0113375 -0.00964299 0.00633893  -0.018125 -0.0149759 0.00748065  -0.0153868 -0.0140583 0.00650504  -0.0144485 -0.0162146 0.00545894  -0.0172599 -0.0169604 0.00638208  -0.0160099 -0.0194128 0.00532226  -0.0171279 -0.0159551 0.00724599  -0.0189004 -0.0191482 0.00707133  -0.0201317 -0.0168006 0.00833809  -0.0202815 -0.0178405 0.00732014  -0.0143439 -0.015229 0.00618839  -0.0223873 -0.0209445 0.00713894  -0.019092 -0.0201142 0.00622213  -0.0175413 -0.0228859 0.00516456  -0.0208881 -0.02356 0.00603603  -0.0190527 -0.0266 0.00498427  -0.0206726 -0.0226286 0.00685985  -0.0224004 -0.0263376 0.00662147  -0.0242188 -0.0234045 0.00786869  -0.0244401 -0.0243526 0.00691463  -0.0173484 -0.0219631 0.00586455  -0.0264453 -0.0279709 0.00667149  -0.0226435 -0.0272272 0.00582388  -0.0205306 -0.0305559 0.00480647  -0.0243616 -0.0311548 0.00561424  -0.0219846 -0.0347293 0.00461277  -0.0241098 -0.0303006 0.00639036  -0.025775 -0.0344681 0.00613074  -0.0281401 -0.0309975 0.00731367  -0.028394 -0.0318571 0.00642508  -0.0202996 -0.0297046 0.00546684  -0.0302948 -0.0359371 0.00616448  -0.026037 -0.0352812 0.00538732  -0.0234037 -0.0391201 0.00443137  -0.0276743 -0.0396417 0.00517438  -0.0247961 -0.043709 0.00423883  -0.0274122 -0.0388631 0.00589673  -0.0290049 -0.0434438 0.00563782  -0.0318778 -0.039475 0.00673991  -0.0321403 -0.0402541 0.0059168  -0.0231618 -0.0383411 0.00504749  -0.0339384 -0.0447514 0.00565888  -0.029268 -0.044185 0.00494888  -0.0261538 -0.0484939 0.00406256  -0.0308242 -0.0489377 0.00474168  -0.0274836 -0.0534594 0.00387692  -0.0305641 -0.0482296 0.00540926  -0.0320802 -0.0531849 0.00515996  -0.0354222 -0.0487544 0.00617891  -0.0356828 -0.049461 0.00541972  -0.0259134 -0.0477843 0.00463202  -0.0373805 -0.0543372 0.00517204  -0.0323365 -0.0538588 0.00452501  -0.0287782 -0.0586029 0.00370748  -0.0338128 -0.0589696 0.00432669  -0.0300442 -0.0639107 0.00353223  -0.033561 -0.0583269 0.00494001  -0.0350001 -0.0636228 0.00470315  -0.0387754 -0.0587669 0.00563999  -0.039026 -0.0594059 0.0049433  -0.0285462 -0.0579581 0.00423077  -0.0406263 -0.064628 0.0047106  -0.0352447 -0.0642343 0.00412154  -0.031278 -0.0693803 0.00337104  -0.0366418 -0.0696717 0.0039338  -0.0324831 -0.0749988 0.0032047  -0.0364032 -0.0690894 0.0044938  -0.0377649 -0.0746972 0.00427002  -0.0419381 -0.0694462 0.00512929  -0.0421773 -0.0700245 0.00449407  -0.0310566 -0.0687956 0.00384899  -0.0436838 -0.0755596 0.00427336  -0.0379972 -0.0752488 0.00373948  -0.0336558 -0.0807637 0.00305307  -0.0393193 -0.0809825 0.00356184  -0.0348012 -0.0866634 0.00289673  -0.0390921 -0.0804584 0.00407145  -0.0403793 -0.0863465 0.00385915  -0.044916 -0.0807331 0.00464559  -0.045144 -0.0812543 0.00406751  -0.033446 -0.0802363 0.00348729  -0.0465605 -0.0870758 0.00386091  -0.040599 -0.0868428 0.00337915  -0.035915 -0.0926954 0.00275306  -0.0418469 -0.0928449 0.0032116  -0.037003 -0.0988486 0.00260545  -0.0416341 -0.0923743 0.0036716  -0.0428493 -0.0985172 0.00347212  -0.0477175 -0.0925726 0.00418725  -0.0479319 -0.0930392 0.00366706  -0.0357184 -0.0922218 0.00314529  -0.0492631 -0.0991187 0.0034721  -0.0430557 -0.0989603 0.003039  -0.0380605 -0.10512 0.00247063  -0.0442332 -0.105204 0.00288163  -0.0390929 -0.1115 0.00233197  -0.0440335 -0.104783 0.00329535  -0.0451783 -0.111153 0.00310718  -0.0503489 -0.104909 0.00375751  -0.0505503 -0.105326 0.00329033  -0.0378754 -0.104697 0.0028233  -0.0517981 -0.111636 0.00310567  -0.0453722 -0.111548 0.00271927  -0.040096 -0.117985 0.0022043  -0.0464824 -0.118007 0.00257052  -0.041074 -0.124566 0.00207365  -0.0462953 -0.117633 0.00294103  -0.0473757 -0.124207 0.00276294  -0.0528163 -0.117692 0.00335176  -0.0530045 -0.11806 0.00293416  -0.0399226 -0.117609 0.00251985  -0.0541748 -0.124576 0.00276034  -0.0475556 -0.124554 0.00241731  -0.0420246 -0.13124 0.00195466  -0.0486006 -0.131204 0.00227778  -0.0429524 -0.137999 0.00183237  -0.0484271 -0.130875 0.00260665  -0.0494434 -0.137627 0.00243981  -0.0551304 -0.13087 0.00296917  -0.0553039 -0.131195 0.00259942  -0.0418633 -0.13091 0.00223425  -0.0563986 -0.137893 0.00243625  -0.049611 -0.137932 0.00213444  -0.0438516 -0.144838 0.00172031  -0.0505946 -0.144749 0.00200419  -0.0447309 -0.151752 0.00160572  -0.0504324 -0.144462 0.00229382  -0.0513902 -0.151369 0.0021378  -0.0572937 -0.144397 0.00261049  -0.0574543 -0.144679 0.00228497  -0.0437028 -0.144549 0.00196715  -0.0584788 -0.151538 0.00213362  -0.0515447 -0.151633 0.00186972  -0.0455837 -0.158735 0.0015011  -0.0524695 -0.158595 0.00174788  -0.0464149 -0.16578 0.00139503  -0.0523205 -0.158348 0.00200103  -0.05322 -0.165388 0.00185584  -0.0593154 -0.158229 0.0022759  -0.0594652 -0.158472 0.00199245  -0.0454466 -0.158484 0.00171727  -0.0604212 -0.165468 0.00185002  -0.0533619 -0.165615 0.00162323  -0.04722 -0.172886 0.00129727  -0.0542297 -0.172701 0.00150961  -0.0480061 -0.180045 0.00119923  -0.0540943 -0.17249 0.00172881  -0.0549393 -0.179645 0.00159431  -0.0612047 -0.172321 0.00196392  -0.061343 -0.17253 0.00171869  -0.0470955 -0.172672 0.00148296  -0.0622332 -0.179643 0.00158794  -0.0550675 -0.179837 0.00139415  -0.0487697 -0.187253 0.00110854  -0.0558832 -0.187027 0.00128961  -0.0495133 -0.194505 0.00101824  -0.0557585 -0.186849 0.00147647  -0.0565517 -0.1941 0.00135332  -0.0629654 -0.186635 0.00167722  -0.0630908 -0.18681 0.00146678  -0.048655 -0.187072 0.00126873  -0.0639219 -0.194023 0.00134449  -0.0566697 -0.194258 0.00118184  -0.0502346 -0.201798 0.000934184  -0.057435 -0.201537 0.00108537  -0.0509362 -0.209128 0.000851721  -0.057322 -0.201389 0.00124471  -0.0580666 -0.208715 0.00113001  -0.0646093 -0.201136 0.00140797  -0.0647199 -0.201277 0.00123295  -0.0501301 -0.201648 0.00106993  -0.0654943 -0.208572 0.00112185  -0.0581722 -0.208847 0.000987828  -0.0516186 -0.216489 0.000775948  -0.0588887 -0.216194 0.000900224  -0.0522833 -0.223879 0.000700697  -0.0587878 -0.216074 0.00103236  -0.0594871 -0.223463 0.000927515  -0.0661361 -0.215783 0.00116542  -0.0662384 -0.2159 0.00102031  -0.0515265 -0.216368 0.000888653  -0.0669594 -0.223258 0.000918493  -0.0595818 -0.223566 0.000810638  -0.0529277 -0.231293 0.000632703  -0.0602555 -0.230968 0.000731811  -0.0535579 -0.238728 0.000564784  -0.0601666 -0.230874 0.000840098  -0.060822 -0.238308 0.000745699  -0.0675645 -0.230551 0.00094559  -0.0676513 -0.230643 0.000828922  -0.0528474 -0.231196 0.000724874  -0.0683246 -0.23805 0.000737667  -0.0609047 -0.238388 0.000651136  -0.0541687 -0.24618 0.000504822  -0.0615377 -0.245831 0.000580862  -0.0547647 -0.253647 0.000443786  -0.0614598 -0.245758 0.000667021  -0.0620773 -0.253226 0.000584573  -0.0688925 -0.24541 0.000748403  -0.0689697 -0.245477 0.000654206  -0.0540969 -0.246106 0.00057862  -0.0695961 -0.252921 0.000574499  -0.0621502 -0.253285 0.000510469  -0.0553446 -0.261124 0.000390396  -0.0627456 -0.260753 0.000446975  -0.055912 -0.268613 0.000337541  -0.0626788 -0.2607 0.000514895  -0.0632596 -0.268189 0.000440292  -0.0701327 -0.260328 0.000574008  -0.0702 -0.260375 0.000502199  -0.0552833 -0.26107 0.000447936  -0.0707879 -0.267844 0.000430062  -0.0633214 -0.26823 0.000384793  -0.0564613 -0.276103 0.0002902  -0.0638838 -0.275714 0.000331104  -0.0570009 -0.283601 0.00024569  -0.0638278 -0.275679 0.000381894  -0.0643771 -0.283178 0.000317976  -0.071296 -0.275287 0.000420794  -0.0713511 -0.275318 0.000369057  -0.0564098 -0.276067 0.000333495  -0.0719013 -0.282799 0.000307545  -0.0644274 -0.283202 0.000277326  -0.0575278 -0.291096 0.000206649  -0.0649602 -0.290692 0.000232413  -0.0580423 -0.298592 0.000170305  -0.0649123 -0.290672 0.000268258  -0.0654361 -0.29817 0.000216141  -0.0723865 -0.290264 0.000292547  -0.0724306 -0.29028 0.000256628  -0.0574841 -0.291074 0.00023742  -0.0729492 -0.297765 0.000206113  -0.0654764 -0.298181 0.000188649  -0.0585456 -0.306084 0.000138178  -0.0659821 -0.305667 0.000151888  -0.0590391 -0.313572 0.000108913  -0.0659444 -0.305658 0.000176609  -0.0664442 -0.313149 0.000133611  -0.0734134 -0.305238 0.000185475  -0.0734484 -0.305243 0.000163943  -0.0585122 -0.306073 0.00015796  -0.0739415 -0.312724 0.000122994  -0.0664756 -0.31315 0.000116885  -0.0595229 -0.321051 8.43108e-05  -0.0669589 -0.320627 8.70526e-05  -0.0599995 -0.328526 6.24657e-05  -0.0669305 -0.320628 0.000100896  -0.0674102 -0.328102 7.02441e-05  -0.0743892 -0.320196 0.000102215  -0.0744162 -0.320193 9.05842e-05  -0.0594969 -0.321051 9.59039e-05  -0.0748863 -0.327663 6.05434e-05  -0.0674324 -0.328098 6.181e-05  -0.0604677 -0.335989 4.33624e-05  -0.0678973 -0.335556 4.11123e-05  -0.0609286 -0.343444 2.78205e-05  -0.0678766 -0.335561 4.89578e-05  -0.0683382 -0.34302 2.67178e-05  -0.0753226 -0.335127 4.14252e-05  -0.0753431 -0.335116 3.82662e-05  -0.0604484 -0.335994 4.83692e-05  -0.0757971 -0.34257 1.74195e-05  -0.0683539 -0.34301 2.2158e-05  -0.061384 -0.350886 1.37389e-05  -0.0688074 -0.350451 9.0301e-06  -0.0618334 -0.358319 3.72529e-07  -0.0687914 -0.350458 9.68575e-06  -0.069241 -0.357893 -5.65499e-06  -0.0762241 -0.35002 1.08033e-06  -0.0762377 -0.350008 2.89083e-06  -0.061368 -0.350895 1.36271e-05  -0.0766816 -0.357444 -9.49204e-06  -0.0692527 -0.357884 -4.58956e-06  -0.0622802 -0.365743 -1.1608e-05  -0.0696976 -0.365306 -1.64658e-05  -0.0627258 -0.373158 -2.42442e-05  -0.0696864 -0.365314 -1.79633e-05  -0.0701299 -0.372736 -3.05027e-05  -0.0771086 -0.364874 -2.40803e-05  -0.0771215 -0.364865 -1.99974e-05  -0.0622685 -0.365753 -1.61529e-05  -0.0775619 -0.372288 -3.33637e-05  -0.0701423 -0.372726 -2.864e-05  -0.000551581 -2.87741e-05 0.00142668  -0.00061179 -0.000359312 0.00174141  -0.00151258 -0.00058189 0.00259101  -0.000693381 2.59429e-05 0.00251503  -0.00247382 -0.000487328 0.00402223  0 0 0  0 0 0  -0.000584729 0.000360757 0.00211853  0 0 0  -0.00174152 -0.00113405 0.00318849  -0.00255296 -0.0016619 0.00308384  -0.00331244 -0.00233807 0.00380747  -0.00370301 -0.00316007 0.00354387  -0.00398992 -0.00161016 0.00440431  -0.00527461 -0.00295052 0.00504273  -0.00307871 -0.000924245 0.00358982  -0.00481769 -0.00380978 0.00436066  -0.00485435 -0.0049181 0.00366384  -0.00629207 -0.0055407 0.00453141  -0.00598395 -0.00702283 0.00377035  -0.00658807 -0.00462078 0.00513721  -0.00784564 -0.00666262 0.00529944  -0.00510463 -0.00401719 0.00415009  -0.00772765 -0.00761275 0.00467935  -0.00709099 -0.00942165 0.00375472  -0.00909451 -0.00996582 0.00467561  -0.00817123 -0.0121186 0.00371498  -0.00912198 -0.00899486 0.00528365  -0.010389 -0.0116761 0.00523466  -0.00712234 -0.00846317 0.00423437  -0.0104536 -0.0126393 0.00463641  -0.00923443 -0.0151115 0.00364101  -0.0117704 -0.015596 0.00455059  -0.010282 -0.0183729 0.00354074  -0.0116625 -0.0146408 0.00514845  -0.012925 -0.0179009 0.005009  -0.00914764 -0.0141622 0.00411182  -0.0130787 -0.0188321 0.00442822  -0.0113157 -0.0219026 0.00343913  -0.0143614 -0.022334 0.00430293  -0.0123394 -0.0256776 0.00331409  -0.0141881 -0.0214272 0.00487882  -0.0154333 -0.0252053 0.0047027  -0.0111713 -0.0209982 0.00389366  -0.0156286 -0.0260801 0.00414677  -0.0133492 -0.029691 0.00320065  -0.0168745 -0.0300689 0.00400513  -0.0143499 -0.0339281 0.0030684  -0.0166732 -0.0292241 0.00455141  -0.0178896 -0.0334645 0.00436351  -0.0131784 -0.0288466 0.00363339  -0.0181004 -0.0342744 0.00383909  -0.0153344 -0.0383781 0.00295252  -0.0193062 -0.0386999 0.0036933  -0.0163098 -0.0430318 0.00282106  -0.0190947 -0.0379217 0.00420525  -0.0202746 -0.0425778 0.00401793  -0.0151544 -0.0375988 0.00335737  -0.020488 -0.0433209 0.00352909  -0.0172679 -0.0478769 0.00270757  -0.0216494 -0.0481417 0.00338598  -0.0182151 -0.0529072 0.00258116  -0.0214403 -0.047429 0.00386076  -0.0225778 -0.0524601 0.00367921  -0.0170883 -0.0471626 0.00308353  -0.0227858 -0.0531395 0.00322789  -0.019145 -0.0581115 0.00247143  -0.0239019 -0.058318 0.00309093  -0.0200626 -0.0634836 0.00235133  -0.0236992 -0.0576686 0.00352833  -0.0247931 -0.0630406 0.00335533  -0.0189693 -0.0574605 0.00281741  -0.0249932 -0.0636577 0.00294076  -0.0209633 -0.0690126 0.0022472  -0.0260643 -0.0691617 0.0028103  -0.0218517 -0.0746938 0.00213458  -0.0258697 -0.068572 0.00321078  -0.0269198 -0.0742528 0.00304706  -0.0207956 -0.0684209 0.00256375  -0.0271097 -0.0748109 0.00266926  -0.0227224 -0.0805164 0.00203566  -0.0281352 -0.0806096 0.00254603  -0.0235813 -0.086477 0.00192937  -0.0279512 -0.0800769 0.0029102  -0.0289565 -0.0860358 0.00275581  -0.0225637 -0.0799822 0.0023227  -0.0291365 -0.0865388 0.00241277  -0.0244231 -0.0925639 0.00183628  -0.0301181 -0.0926025 0.00229609  -0.0252537 -0.0987754 0.001736  -0.0299444 -0.0921241 0.00262576  -0.0309074 -0.098334 0.00247999  -0.0242736 -0.0920833 0.0020956  -0.0310757 -0.0987846 0.00217077  -0.0260669 -0.1051 0.00164902  -0.0320147 -0.105086 0.00206074  -0.0268681 -0.111534 0.00155447  -0.0318525 -0.104658 0.00235771  -0.0327733 -0.111091 0.00222027  -0.0259266 -0.10467 0.00188154  -0.0329311 -0.111493 0.00194271  -0.0276535 -0.118069 0.00147133  -0.0338285 -0.118006 0.00183959  -0.0284271 -0.124702 0.00138275  -0.033677 -0.117626 0.00210475  -0.0345559 -0.124257 0.00197516  -0.0275218 -0.117686 0.00168055  -0.0347043 -0.124613 0.00172848  -0.0291834 -0.131422 0.00130565  -0.0355617 -0.131314 0.00163186  -0.0299295 -0.138228 0.00122251  -0.0354199 -0.130977 0.00186729  -0.0362601 -0.137783 0.00174652  -0.0290626 -0.131083 0.00149009  -0.0363978 -0.138096 0.00152713  -0.0306592 -0.145111 0.00114994  -0.0372167 -0.14496 0.0014364  -0.0313792 -0.152069 0.00107275  -0.0370853 -0.144666 0.00164404  -0.0378881 -0.151622 0.00153039  -0.0305469 -0.144814 0.00131312  -0.0380147 -0.151894 0.00134021  -0.0320826 -0.159091 0.00100546  -0.0387962 -0.1589 0.00125499  -0.0327752 -0.166177 0.000933453  -0.0386753 -0.158643 0.00143652  -0.0394425 -0.165732 0.00133023  -0.0319808 -0.158833 0.00114738  -0.0395575 -0.165966 0.00116329  -0.0334542 -0.173319 0.000870869  -0.0403028 -0.173092 0.00108531  -0.034122 -0.180514 0.000804201  -0.0401933 -0.172873 0.00124282  -0.0409241 -0.180069 0.00114456  -0.0333605 -0.173098 0.000993989  -0.0410297 -0.180269 0.00100175  -0.0347745 -0.187756 0.00074622  -0.0417402 -0.187497 0.000929385  -0.0354185 -0.195042 0.000684783  -0.0416398 -0.187311 0.00106487  -0.0423377 -0.194599 0.000973605  -0.0346909 -0.187568 0.000850901  -0.0424335 -0.194766 0.000850871  -0.036046 -0.202364 0.000630766  -0.0431123 -0.202076 0.000784889  -0.0366647 -0.209724 0.00057517  -0.0430219 -0.20192 0.000900224  -0.0436854 -0.209282 0.000816077  -0.0359707 -0.202208 0.000720046  -0.0437713 -0.209418 0.000713542  -0.0372703 -0.217111 0.000526965  -0.0444186 -0.216795 0.000653952  -0.0378661 -0.224528 0.000475928  -0.0443356 -0.216669 0.000748605  -0.0449724 -0.224087 0.000674084  -0.0372021 -0.216983 0.00060001  -0.0450485 -0.224198 0.000588447  -0.0384486 -0.231964 0.000431672  -0.0456665 -0.231626 0.000533089  -0.0390227 -0.239422 0.00038588  -0.0455945 -0.231524 0.000611775  -0.0462 -0.238985 0.000544272  -0.0383894 -0.231861 0.000493176  -0.0462666 -0.239071 0.000475824  -0.0395844 -0.246893 0.000348493  -0.0468557 -0.246534 0.00042738  -0.0401382 -0.25438 0.000306576  -0.0467935 -0.246456 0.000490345  -0.0473745 -0.253947 0.000428423  -0.0395343 -0.246813 0.000395782  -0.0474319 -0.25401 0.000375956  -0.0406802 -0.261876 0.000272423  -0.0479939 -0.261499 0.000333026  -0.0412142 -0.269379 0.000237241  -0.047941 -0.26144 0.000381775  -0.0484948 -0.268948 0.000329226  -0.0406365 -0.261816 0.000309408  -0.0485444 -0.268994 0.000288337  -0.0417373 -0.276886 0.00020729  -0.0490844 -0.276495 0.000250474  -0.0422537 -0.284396 0.000177458  -0.0490391 -0.276455 0.000288337  -0.0495722 -0.283968 0.000242695  -0.0416994 -0.276842 0.000235394  -0.049613 -0.283997 0.000211865  -0.0427613 -0.291904 0.000152409  -0.0501318 -0.2915 0.000180602  -0.043262 -0.299411 0.000126928  -0.0500946 -0.291474 0.000209257  -0.0506072 -0.298985 0.000171117  -0.0427303 -0.291875 0.000173427  -0.0506392 -0.299001 0.000149101  -0.043752 -0.306912 0.000107512  -0.0511379 -0.306499 0.000123918  -0.0442374 -0.314409 8.74698e-05  -0.0511091 -0.306485 0.000142463  -0.0516031 -0.313986 0.000112817  -0.0437295 -0.306897 0.000121512  -0.0516276 -0.313992 9.90182e-05  -0.0447149 -0.321897 7.25687e-05  -0.0521104 -0.321476 7.87675e-05  -0.0451875 -0.329378 5.77569e-05  -0.0520887 -0.321471 9.06959e-05  -0.0525653 -0.328954 6.73681e-05  -0.0446982 -0.321891 7.95648e-05  -0.0525854 -0.328953 5.91576e-05  -0.0456519 -0.336847 4.33177e-05  -0.0530536 -0.33642 4.34071e-05  -0.046113 -0.344306 3.241e-05  -0.0530365 -0.336422 5.1707e-05  -0.0535004 -0.343883 3.52338e-05  -0.0456393 -0.336848 4.77135e-05  -0.053514 -0.343876 3.03984e-05  -0.0465672 -0.351752 2.29031e-05  -0.0539691 -0.351321 1.78069e-05  -0.047019 -0.359187 1.18315e-05  -0.0539565 -0.351326 1.89245e-05  -0.0544093 -0.358765 6.13928e-06  -0.0465569 -0.351759 2.22027e-05  -0.0544205 -0.358754 5.43892e-06  -0.0474639 -0.366607 1.77324e-06  -0.0548682 -0.366177 -6.13928e-06  -0.0479095 -0.374016 -1.02371e-05  -0.0548556 -0.366184 -8.04663e-06  -0.0553038 -0.373603 -2.25678e-05  -0.0474541 -0.366619 -2.71946e-06  -0.0553157 -0.37359 -1.75834e-05  -0.000260718 0.000300467 0.000685856  -0.000318319 0.000162929 0.00102073  -0.000694357 -9.83477e-07 0.00129856  -0.000363082 0.000555009 0.00145198  -0.00136095 0.000420809 0.00246623  0 0 0  0 0 0  -0.000278201 0.000686347 0.00104383  0 0 0  -0.000905089 -0.000205308 0.00194173  -0.00115076 -0.000948906 0.00154385  -0.00175126 -0.00125262 0.00230075  -0.00169815 -0.00234345 0.00180407  -0.00216441 -0.000539362 0.0026622  -0.00285496 -0.00183922 0.00308403  -0.00144066 -0.000208825 0.00178806  -0.00257203 -0.00266016 0.00267842  -0.00223997 -0.00412315 0.0018495  -0.00347379 -0.00444987 0.00275601  -0.00279403 -0.00626385 0.0019083  -0.0036509 -0.00356635 0.00311026  -0.00438607 -0.00564772 0.00319207  -0.00237128 -0.00322902 0.00207807  -0.00432241 -0.00656673 0.00284004  -0.0033403 -0.00871286 0.00189075  -0.00516275 -0.00899631 0.00282492  -0.00388363 -0.0114711 0.00186452  -0.00516668 -0.00805548 0.00317619  -0.00592923 -0.0107862 0.0031267  -0.00334033 -0.00776973 0.00211789  -0.00598371 -0.0117277 0.0027889  -0.00442261 -0.0145103 0.0018259  -0.00678587 -0.0147444 0.00273609  -0.00496191 -0.0178254 0.00176804  -0.00670189 -0.0138082 0.00308242  -0.00747162 -0.0171195 0.00298529  -0.00435519 -0.013575 0.00205038  -0.00758404 -0.0180363 0.00265241  -0.00549978 -0.0213969 0.00171991  -0.00836927 -0.021589 0.00258155  -0.00604242 -0.0252196 0.00165169  -0.00824445 -0.0206923 0.00291799  -0.00901395 -0.0245213 0.00280341  -0.00540102 -0.020501 0.00193869  -0.00915331 -0.0253892 0.00248106  -0.00658429 -0.0292737 0.00159901  -0.00992948 -0.0294264 0.00240216  -0.00713229 -0.0335557 0.00152847  -0.00978583 -0.0285852 0.002723  -0.0105525 -0.0328785 0.0026042  -0.00647032 -0.0284325 0.00180817  -0.0107027 -0.033687 0.00229663  -0.00768006 -0.0380471 0.00147463  -0.0114712 -0.0381619 0.00221451  -0.00823385 -0.0427464 0.00140436  -0.0113209 -0.0373819 0.00251692  -0.0120819 -0.0420923 0.00239971  -0.00756168 -0.0372677 0.00167056  -0.0122342 -0.0428378 0.00211121  -0.00878727 -0.0476347 0.0013513  -0.012992 -0.0477098 0.00203055  -0.00934625 -0.0527114 0.00128409  -0.0128427 -0.0469926 0.00231174  -0.0135932 -0.0520801 0.00219875  -0.00866795 -0.0469176 0.0015338  -0.0137433 -0.0527632 0.00193097  -0.00990248 -0.0579587 0.00123304  -0.0144894 -0.0579939 0.00185353  -0.0104642 -0.0633777 0.00116941  -0.014344 -0.0573384 0.00211221  -0.0150827 -0.062766 0.00200463  -0.00978613 -0.0573032 0.00140031  -0.0152276 -0.0633878 0.0017589  -0.0110233 -0.0689502 0.00112079  -0.0159602 -0.0689441 0.00168456  -0.011587 -0.0746778 0.00106062  -0.0158211 -0.068348 0.00192292  -0.0165473 -0.0740828 0.00182047  -0.0109117 -0.0683541 0.00127356  -0.0166844 -0.074648 0.00159626  -0.0121468 -0.0805436 0.00101402  -0.0174032 -0.080496 0.00152592  -0.0127106 -0.0865484 0.000958368  -0.017271 -0.0799567 0.00174187  -0.017983 -0.0859688 0.00164519  -0.0120409 -0.0800028 0.0011544  -0.0181129 -0.0864783 0.00144275  -0.013271 -0.0926779 0.000914678  -0.0188169 -0.0925908 0.00137663  -0.0138336 -0.0989314 0.000862092  -0.0186921 -0.092105 0.00157239  -0.0193897 -0.0983645 0.00148109  -0.0131719 -0.0921902 0.00104089  -0.0195124 -0.0988227 0.00129783  -0.0143938 -0.105296 0.000821576  -0.0202018 -0.105171 0.00123592  -0.0149547 -0.111771 0.00077188  -0.0200857 -0.104735 0.00141172  -0.0207671 -0.111216 0.00132728  -0.0143006 -0.104859 0.000934176  -0.020882 -0.111625 0.00116242  -0.0155126 -0.118344 0.000733167  -0.0215558 -0.118183 0.00110336  -0.0160712 -0.125014 0.000687435  -0.0214468 -0.117795 0.00126123  -0.0221151 -0.124471 0.0011818  -0.0154262 -0.117954 0.000834502  -0.0222213 -0.124834 0.00103478  -0.0166261 -0.13177 0.000651717  -0.02288 -0.131576 0.000979573  -0.0171816 -0.138612 0.000608861  -0.0227798 -0.131232 0.00111896  -0.0234317 -0.13808 0.00104451  -0.0165476 -0.131426 0.000739902  -0.0235294 -0.138398 0.000915468  -0.0177321 -0.145528 0.000575244  -0.0241721 -0.145302 0.000864431  -0.0182829 -0.152518 0.00053522  -0.02408 -0.145 0.000987343  -0.0247159 -0.151996 0.000916451  -0.0176599 -0.145225 0.000653982  -0.0248065 -0.152275 0.000803217  -0.0188291 -0.159572 0.00050351  -0.0254343 -0.159316 0.000755399  -0.0193748 -0.166688 0.000466555  -0.0253494 -0.159053 0.0008635  -0.0259712 -0.166175 0.000799075  -0.0187621 -0.159308 0.000571981  -0.0260522 -0.166417 0.000698701  -0.0199151 -0.173858 0.000438958  -0.026664 -0.173575 0.00065577  -0.0204563 -0.181081 0.000404269  -0.0265884 -0.173349 0.000749484  -0.0271943 -0.180577 0.000689261  -0.019856 -0.173629 0.000496387  -0.0272677 -0.180784 0.000603706  -0.0209894 -0.188348 0.000377849  -0.027864 -0.188041 0.000563189  -0.0215237 -0.195659 0.000345916  -0.027796 -0.187848 0.000642516  -0.0283847 -0.195165 0.000588104  -0.0209367 -0.188154 0.000426918  -0.0284514 -0.195339 0.000516087  -0.0220511 -0.203005 0.000322178  -0.0290318 -0.202675 0.000477672  -0.0225766 -0.210385 0.00029321  -0.0289695 -0.202514 0.000545435  -0.0295441 -0.209901 0.000495039  -0.0220027 -0.202841 0.000364043  -0.029604 -0.210045 0.000434071  -0.0230968 -0.217792 0.000271454  -0.0301697 -0.217444 0.000399083  -0.0236168 -0.225229 0.000245586  -0.0301147 -0.217311 0.000456966  -0.030674 -0.224751 0.000410922  -0.0230546 -0.217658 0.000307061  -0.030726 -0.22487 0.000360295  -0.0241282 -0.232681 0.000226825  -0.031275 -0.232317 0.000329778  -0.0246384 -0.240157 0.000202626  -0.0312274 -0.232209 0.000376128  -0.0317724 -0.239692 0.000335313  -0.024092 -0.232574 0.000254467  -0.0318167 -0.239782 0.00029619  -0.0251422 -0.247644 0.000185102  -0.0323501 -0.247264 0.000267282  -0.0256429 -0.255145 0.000164911  -0.0323102 -0.24718 0.000305064  -0.0328398 -0.254688 0.000268094  -0.0251124 -0.24756 0.000206217  -0.0328789 -0.254759 0.000234991  -0.02614 -0.262653 0.000150338  -0.0333996 -0.262262 0.000211567  -0.0266337 -0.270169 0.000131607  -0.033365 -0.262197 0.000242852  -0.0338821 -0.269719 0.000208601  -0.0261135 -0.262589 0.000166468  -0.0339134 -0.26977 0.000183761  -0.0271204 -0.277686 0.000119641  -0.0344203 -0.277284 0.000163883  -0.0276051 -0.285206 0.000103444  -0.0343902 -0.277238 0.000185668  -0.0348933 -0.284763 0.000159204  -0.0270998 -0.277639 0.000130795  -0.0349216 -0.284798 0.000140309  -0.0280855 -0.292723 9.22978e-05  -0.0354159 -0.292311 0.000124007  -0.0285628 -0.300239 8.04812e-05  -0.0353916 -0.292281 0.000140421  -0.0358832 -0.299802 0.000117637  -0.0280678 -0.292692 0.000101179  -0.0359035 -0.299823 0.000103876  -0.0290334 -0.307747 7.21365e-05  -0.036387 -0.307328 9.11653e-05  -0.0295029 -0.315251 6.21378e-05  -0.0363691 -0.30731 0.000100933  -0.0368474 -0.314819 8.37445e-05  -0.0290201 -0.307728 7.78884e-05  -0.0368633 -0.314828 7.45952e-05  -0.0299666 -0.322745 5.58496e-05  -0.0373354 -0.32232 6.38962e-05  -0.0304284 -0.330232 4.89056e-05  -0.0373213 -0.322312 7.12201e-05  -0.0377905 -0.329802 5.79357e-05  -0.0299585 -0.322737 5.90682e-05  -0.037802 -0.329804 5.19156e-05  -0.0308845 -0.337705 4.33177e-05  -0.038265 -0.337276 4.40776e-05  -0.0313392 -0.345169 3.70443e-05  -0.0382545 -0.337275 4.8168e-05  -0.0387142 -0.344743 3.60906e-05  -0.0308776 -0.337706 4.48003e-05  -0.0387213 -0.344738 3.4377e-05  -0.0317891 -0.352618 3.40194e-05  -0.0391741 -0.352186 2.86698e-05  -0.0322368 -0.360055 2.73138e-05  -0.0391669 -0.352191 2.76864e-05  -0.0396149 -0.359632 1.95876e-05  -0.0317822 -0.352624 3.17916e-05  -0.039623 -0.359622 1.90735e-05  -0.0326791 -0.367471 2.25604e-05  -0.0400696 -0.36704 1.12206e-05  -0.0331225 -0.374873 1.67042e-05  -0.040062 -0.367051 9.47714e-06  -0.0405068 -0.37446 6.48201e-07  -0.0326743 -0.367483 1.85817e-05  -0.0405142 -0.374443 1.44541e-06  -5.29364e-06 0.000371933 -7.89613e-05  -6.36391e-05 0.000361741 0.00026989  7.40588e-06 0.000116289 -3.3468e-05  -7.16075e-05 0.000751346 0.000361778  -0.00040403 0.000712812 0.000811122  0 0 0  0 0 0  -3.95998e-06 0.000753224 -4.45172e-05  0 0 0  -0.000212885 0.000111878 0.000626728  6.65486e-05 -0.000802696 -5.37038e-05  -0.000478178 -0.00083071 0.000723451  9.22382e-05 -0.00215018 -7.48038e-06  -0.000639901 -0.000103384 0.00084801  -0.000827342 -0.00133836 0.00103081  5.54323e-06 -6.634e-05 -7.70912e-05  -0.000712678 -0.00216818 0.000897467  0.000132799 -0.00395092 -1.77324e-05  -0.0010139 -0.00397196 0.000911534  0.000155061 -0.00609738 -5.96046e-08  -0.00107348 -0.00308439 0.00102805  -0.00128832 -0.00518113 0.00105409  0.000117719 -0.00305796 -4.09558e-05  -0.00127819 -0.00610408 0.000951469  0.000171393 -0.00858083 -1.47521e-06  -0.00155991 -0.00857756 0.000946119  0.000175178 -0.0113667 -2.6077e-06  -0.0015412 -0.00763923 0.00105465  -0.00178805 -0.0104094 0.00102396  0.000194877 -0.00764057 -2.10479e-05  -0.00183403 -0.0113477 0.000928  0.000166357 -0.0144362 2.6226e-06  -0.00211155 -0.0144076 0.000915974  0.000141442 -0.0177823 -4.70877e-06  -0.0020538 -0.0134764 0.00102146  -0.00232416 -0.0168259 0.000975259  0.000208735 -0.0135061 -1.41039e-05  -0.00239605 -0.0177385 0.000878379  0.00010246 -0.0213804 2.5779e-06  -0.00268584 -0.0213282 0.000862718  4.31538e-05 -0.025232 -6.30319e-06  -0.00260931 -0.0204345 0.000965692  -0.00290197 -0.0242995 0.000915825  0.000154197 -0.0204886 -1.20252e-05  -0.00298643 -0.0251648 0.000819817  -3.09348e-05 -0.0293107 1.19209e-06  -0.00329554 -0.0292364 0.000801221  -0.000125587 -0.033621 -8.18074e-06  -0.00320965 -0.0283963 0.000900142  -0.00352544 -0.032724 0.000851527  2.57492e-05 -0.028472 -1.15186e-05  -0.00361562 -0.0335324 0.000757486  -0.000236392 -0.0381385 -1.81794e-06  -0.00394613 -0.0380418 0.000736982  -0.000368297 -0.0428663 -1.00434e-05  -0.00385773 -0.0372603 0.000831105  -0.00419527 -0.0420073 0.000783123  -0.000178099 -0.0373584 -1.25095e-05  -0.00428677 -0.0427544 0.000695348  -0.000514627 -0.0477816 -4.27663e-06  -0.00463843 -0.047661 0.000674322  -0.000682712 -0.0528873 -1.15484e-05  -0.00455034 -0.0469413 0.000762522  -0.00490963 -0.0520653 0.000716574  -0.000456333 -0.0470622 -1.45286e-05  -0.00499904 -0.0527518 0.000634193  -0.000863791 -0.0581631 -6.3628e-06  -0.00537133 -0.0580183 0.000613958  -0.00106502 -0.0636112 -1.32471e-05  -0.00528538 -0.0573591 0.000695512  -0.00566304 -0.0628247 0.000651628  -0.000805974 -0.0575047 -1.61752e-05  -0.00575054 -0.0634511 0.000576258  -0.00127912 -0.0692126 -7.7039e-06  -0.00613976 -0.0690418 0.000557527  -0.00151384 -0.0749699 -1.4469e-05  -0.00605679 -0.068442 0.000631645  -0.00645328 -0.0742148 0.00059057  -0.00122464 -0.0686116 -1.79186e-05  -0.00653589 -0.0747835 0.000521392  -0.00175977 -0.0808646 -8.64267e-06  -0.00694132 -0.0806684 0.000503138  -0.0020225 -0.0868986 -1.43349e-05  -0.00686324 -0.0801238 0.000570968  -0.00727487 -0.0861727 0.000533827  -0.00170755 -0.0803199 -1.86935e-05  -0.00735319 -0.0866876 0.000470221  -0.00229692 -0.0930567 -8.46386e-06  -0.00777256 -0.0928344 0.000453681  -0.00258827 -0.0993391 -1.41859e-05  -0.00769973 -0.0923433 0.000514686  -0.00812554 -0.0986385 0.000479117  -0.002249 -0.0925637 -1.81124e-05  -0.00819838 -0.0991022 0.000422999  -0.00288916 -0.10573 -8.49366e-06  -0.00863135 -0.105484 0.000407577  -0.00320601 -0.112233 -1.23978e-05  -0.00856233 -0.105042 0.000462994  -0.0090009 -0.111558 0.000428431  -0.00284505 -0.105288 -1.71736e-05  -0.00906837 -0.111973 0.000378385  -0.00353134 -0.118831 -6.79493e-06  -0.0095129 -0.118561 0.000363797  -0.00387049 -0.125528 -1.07884e-05  -0.00944865 -0.118167 0.000412315  -0.00989723 -0.124876 0.000382535  -0.00348973 -0.118436 -1.52141e-05  -0.0099597 -0.125245 0.000336573  -0.00421739 -0.132308 -5.05149e-06  -0.0104129 -0.132016 0.000323653  -0.00457752 -0.139174 -7.91252e-06  -0.0103539 -0.131666 0.000367381  -0.0108117 -0.138544 0.000337318  -0.00418007 -0.131958 -1.25319e-05  -0.0108688 -0.13887 0.00029923  -0.00494432 -0.146113 -2.92063e-06  -0.0113287 -0.1458 0.000286877  -0.00532246 -0.153125 -6.04987e-06  -0.0112762 -0.145493 0.000323988  -0.0117404 -0.152516 0.000297427  -0.00491047 -0.145804 -1.03861e-05  -0.0117924 -0.152801 0.000263035  -0.00570536 -0.160199 -3.8743e-07  -0.0122597 -0.159867 0.000252098  -0.0060997 -0.167336 -2.05636e-06  -0.0122125 -0.159601 0.000285126  -0.012682 -0.166747 0.000260226  -0.00567555 -0.15993 -7.33882e-06  -0.0127282 -0.166994 0.000230625  -0.0064981 -0.174523 3.11434e-06  -0.0131996 -0.174175 0.000221089  -0.00690556 -0.181765 1.38581e-06  -0.0131571 -0.173944 0.000250414  -0.0136313 -0.181195 0.000227258  -0.00647259 -0.174292 -3.28571e-06  -0.0136728 -0.181407 0.000202224  -0.00731635 -0.189048 5.78165e-06  -0.0141468 -0.188685 0.000192806  -0.00773573 -0.196376 4.33624e-06  -0.0141084 -0.188487 0.000216588  -0.0145855 -0.195824 0.000196226  -0.0072937 -0.188851 1.25915e-06  -0.0146222 -0.196003 0.000173807  -0.00815582 -0.203737 9.22382e-06  -0.0150983 -0.203359 0.000165686  -0.00858545 -0.211132 8.24034e-06  -0.0150661 -0.203193 0.000186615  -0.0155442 -0.210598 0.000168264  -0.00813794 -0.203569 3.50177e-06  -0.0155745 -0.210746 0.000150159  -0.00901532 -0.218551 1.20848e-05  -0.0160518 -0.218162 0.000142157  -0.00945187 -0.226 1.24127e-05  -0.016022 -0.218026 0.00015945  -0.0165014 -0.225483 0.000141479  -0.0090003 -0.218415 6.57141e-06  -0.0165277 -0.225604 0.000127196  -0.00988674 -0.233465 1.68085e-05  -0.0170031 -0.233066 0.000121236  -0.010329 -0.240951 1.5229e-05  -0.0169797 -0.232954 0.000135489  -0.0174565 -0.240449 0.000119738  -0.00987649 -0.233353 1.093e-05  -0.0174792 -0.240546 0.000107959  -0.0107727 -0.248449 1.9148e-05  -0.0179546 -0.24804 0.000102967  -0.0112178 -0.255958 1.91629e-05  -0.0179341 -0.247951 0.000114761  -0.0184081 -0.255472 0.000101469  -0.0107625 -0.24836 1.50129e-05  -0.0184264 -0.255545 9.10163e-05  -0.0116625 -0.263473 2.23964e-05  -0.0188982 -0.263059 8.65906e-05  -0.0121117 -0.270997 2.28137e-05  -0.0188818 -0.262991 9.49204e-05  -0.0193534 -0.270522 8.31932e-05  -0.0116553 -0.263406 1.87382e-05  -0.0193694 -0.270578 7.6443e-05  -0.0125582 -0.27852 2.6688e-05  -0.0198369 -0.278099 7.28965e-05  -0.0130079 -0.286049 2.63155e-05  -0.0198247 -0.278049 7.79703e-05  -0.0202916 -0.285585 6.87167e-05  -0.0125544 -0.278472 2.29031e-05  -0.0203032 -0.285622 6.49244e-05  -0.0134556 -0.29357 3.08901e-05  -0.0207686 -0.293143 6.12736e-05  -0.0139065 -0.30109 3.08305e-05  -0.0207572 -0.293109 6.68913e-05  -0.0212233 -0.300638 5.83008e-05  -0.0134535 -0.293536 2.70456e-05  -0.0212312 -0.300661 5.62668e-05  -0.0143538 -0.308602 3.44664e-05  -0.0216928 -0.308172 5.32568e-05  -0.0148027 -0.316111 3.50475e-05  -0.0216854 -0.308152 5.55664e-05  -0.0221441 -0.315666 4.97699e-05  -0.0143535 -0.308581 3.14564e-05  -0.0221508 -0.315678 4.79668e-05  -0.0152507 -0.323607 3.81768e-05  -0.0226076 -0.323175 4.62979e-05  -0.015698 -0.331096 3.9652e-05  -0.0226023 -0.323162 4.91887e-05  -0.023056 -0.330658 4.52399e-05  -0.0152509 -0.323598 3.51965e-05  -0.023061 -0.330663 4.29899e-05  -0.0161431 -0.338572 4.11421e-05  -0.0235136 -0.338138 4.25279e-05  -0.0165896 -0.34604 4.27663e-05  -0.0235107 -0.338136 4.35859e-05  -0.0239608 -0.345608 4.03374e-05  -0.0161436 -0.338571 3.99128e-05  -0.0239639 -0.345603 3.91752e-05  -0.0170324 -0.353488 4.44055e-05  -0.0244095 -0.353052 3.9041e-05  -0.0174761 -0.360926 4.49419e-05  -0.0244086 -0.353058 3.76701e-05  -0.0248535 -0.360502 3.68208e-05  -0.0170336 -0.353495 4.40106e-05  -0.0248556 -0.36049 3.66122e-05  -0.0179162 -0.368342 4.7937e-05  -0.0252976 -0.367907 3.49283e-05  -0.0183539 -0.375741 4.92483e-05  -0.0252964 -0.367916 3.44813e-05  -0.0257359 -0.375322 3.17469e-05  -0.0179176 -0.368354 4.6432e-05  -0.0257385 -0.375305 3.241e-05  0.000245415 0.00022912 -0.000844225  0.000181191 0.000335813 -0.000489548  0.000694543 -0.000127017 -0.00135921  0.000209518 0.000715911 -0.000730127  0.000511363 0.000618994 -0.000860825  0 0 0  0 0 0  0.000262752 0.000602782 -0.00112436  0 0 0  0.000444472 4.23193e-05 -0.000706226  0.00127411 -0.00114441 -0.00164025  0.000713512 -0.000921488 -0.000876501  0.00187573 -0.00252301 -0.0018084  0.000798374 -0.000187039 -0.000988275  0.0010806 -0.00143576 -0.00105782  0.00143522 -0.000423253 -0.00193204  0.00103101 -0.00226736 -0.000915661  0.00248945 -0.00437188 -0.00187159  0.00132084 -0.0040943 -0.000954926  0.00309134 -0.0065254 -0.00189812  0.00137651 -0.00320435 -0.00107315  0.00166997 -0.00531179 -0.00110035  0.00258717 -0.00349015 -0.00214624  0.00162956 -0.00623882 -0.000956833  0.00366727 -0.00902677 -0.00188194  0.00191346 -0.00873464 -0.000943378  0.004219 -0.0118211 -0.00185896  0.00195193 -0.00779676 -0.00107328  0.00222337 -0.0105853 -0.0010769  0.00371292 -0.00809425 -0.00214578  0.00218797 -0.0115242 -0.000936747  0.00473893 -0.0148982 -0.00181013  0.00244117 -0.0146022 -0.000903174  0.0052278 -0.0182542 -0.00176743  0.00247186 -0.0136734 -0.00103549  0.00270528 -0.0170418 -0.00102533  0.004758 -0.013973 -0.00206546  0.00267267 -0.0179532 -0.000890881  0.00568545 -0.0218577 -0.00170605  0.00288123 -0.0215595 -0.000851616  0.00610787 -0.02572 -0.00165591  0.00290954 -0.0206685 -0.000978976  0.00309652 -0.0245513 -0.000961989  0.00569201 -0.0209698 -0.00195176  0.00306535 -0.0254155 -0.00083515  0.00650072 -0.0298064 -0.00158988  0.0032233 -0.0295033 -0.000794426  0.00685608 -0.0341285 -0.00153749  0.00325096 -0.0286638 -0.000914901  0.00338715 -0.0330107 -0.000894226  0.00650167 -0.0289691 -0.00182285  0.00335568 -0.0338187 -0.000775784  0.0071817 -0.038655 -0.00147142  0.00346202 -0.038346 -0.000736475  0.00746977 -0.0433961 -0.00142053  0.00349003 -0.0375645 -0.000849813  0.00357473 -0.0423309 -0.000827931  0.00718164 -0.0378762 -0.00168921  0.0035435 -0.043079 -0.000717163  0.00772917 -0.0483228 -0.00135496  0.00359786 -0.0480046 -0.000679657  0.00795126 -0.0534431 -0.00130461  0.00362659 -0.0472836 -0.000784889  0.00365901 -0.0524291 -0.000762716  0.00772846 -0.0476034 -0.00155827  0.00362754 -0.0531173 -0.000660926  0.00814533 -0.0587316 -0.00124249  0.00363135 -0.0584037 -0.000624552  0.00830245 -0.0641956 -0.00119355  0.00366056 -0.0577423 -0.000721171  0.00364327 -0.0632287 -0.000699259  0.00814462 -0.0580709 -0.00142986  0.00361192 -0.0638589 -0.000606224  0.00843239 -0.0698107 -0.00113477  0.00356853 -0.0694716 -0.000571787  0.00852883 -0.0755828 -0.00108817  0.00359476 -0.0688668 -0.000659719  0.00353062 -0.0746625 -0.000639349  0.00843239 -0.0692073 -0.00130731  0.00350225 -0.0752352 -0.000552878  0.00859797 -0.0814921 -0.0010315  0.00341177 -0.0811418 -0.000519797  0.00863504 -0.0875421 -0.000986218  0.0034368 -0.0805926 -0.000600897  0.00332677 -0.0866649 -0.000580668  0.00859821 -0.0809437 -0.00118893  0.00330138 -0.0871829 -0.000502348  0.00864744 -0.0937141 -0.000932127  0.00316811 -0.0933519 -0.00047043  0.00862837 -0.100012 -0.000889406  0.00318992 -0.092856 -0.000543848  0.00303924 -0.0991735 -0.000524946  0.00864661 -0.0932186 -0.00107656  0.00301445 -0.0996408 -0.000453323  0.00858724 -0.106416 -0.000837252  0.00284135 -0.106043 -0.000423253  0.00851631 -0.112934 -0.000796899  0.00286222 -0.105597 -0.000489004  0.00267196 -0.112134 -0.000470705  0.00858474 -0.105971 -0.000967704  0.00265026 -0.112552 -0.000406608  0.00842357 -0.119546 -0.000747368  0.00243962 -0.119161 -0.000377133  0.00830519 -0.126256 -0.000708461  0.00245857 -0.118763 -0.000437893  0.00223291 -0.125491 -0.000418827  0.00842154 -0.119148 -0.000864044  0.00221217 -0.125864 -0.000360832  0.00816751 -0.133049 -0.000661507  0.0019685 -0.132654 -0.00033316  0.00800347 -0.139928 -0.000625148  0.00198412 -0.1323 -0.000388123  0.00172448 -0.139196 -0.000370845  0.00816298 -0.132695 -0.000766493  0.00170827 -0.139526 -0.00031805  0.00782204 -0.146878 -0.000581354  0.0014329 -0.146474 -0.000292256  0.00761867 -0.153902 -0.000546366  0.00144672 -0.146161 -0.000339679  0.00115776 -0.153203 -0.000323527  0.00781727 -0.146567 -0.000674389  0.00114489 -0.153491 -0.000277579  0.00739837 -0.160985 -0.000503987  0.000840902 -0.160573 -0.000252828  0.00715661 -0.168134 -0.000472412  0.000850677 -0.160301 -0.000294067  0.00053525 -0.167465 -0.000279427  0.00739121 -0.160714 -0.000586852  0.000525236 -0.167715 -0.000239506  0.00690174 -0.17533 -0.000433505  0.000196457 -0.17491 -0.000215381  0.00662732 -0.182582 -0.000402004  0.000204563 -0.174676 -0.000250995  -0.000134945 -0.181942 -0.000237562  0.00689316 -0.175095 -0.000504196  -0.00014329 -0.182156 -0.000201643  0.00634098 -0.189873 -0.000365511  -0.000493288 -0.189447 -0.000180811  0.00603747 -0.197208 -0.000337258  -0.000487566 -0.189244 -0.000211366  -0.000846386 -0.196594 -0.000198185  0.00633144 -0.189671 -0.000428014  -0.000852585 -0.196777 -0.000168338  0.00572276 -0.204574 -0.000303432  -0.00122237 -0.204143 -0.000147492  0.00539327 -0.211977 -0.000277221  -0.00121975 -0.203974 -0.000175498  -0.00159621 -0.211389 -0.000162341  0.00571156 -0.204404 -0.000357755  -0.00159955 -0.211541 -0.000135407  0.005054 -0.219402 -0.000246629  -0.00198555 -0.218967 -0.000117332  0.00470066 -0.226856 -0.000221744  -0.00198507 -0.218825 -0.000140667  -0.00237656 -0.226293 -0.000127643  0.00504231 -0.219263 -0.000292785  -0.00237846 -0.226416 -0.00010635  0.00434041 -0.234325 -0.000193149  -0.00277853 -0.233887 -8.92729e-05  0.00396752 -0.241815 -0.000172019  -0.00277901 -0.233771 -0.000109069  -0.00318503 -0.241275 -9.65595e-05  0.00432825 -0.234211 -0.00023111  -0.00318456 -0.241374 -7.90954e-05  0.00358868 -0.249315 -0.000145257  -0.00359488 -0.248874 -6.35386e-05  0.00320053 -0.256829 -0.000126272  -0.00359583 -0.248784 -7.92518e-05  -0.0040133 -0.256308 -6.87242e-05  0.0035758 -0.249225 -0.000177495  -0.00401139 -0.256387 -5.46128e-05  0.0028069 -0.264347 -0.000103101  -0.0044322 -0.263904 -3.97116e-05  0.00240469 -0.271874 -8.50707e-05  -0.00443625 -0.263835 -5.33611e-05  -0.00485849 -0.271371 -4.47109e-05  0.0027957 -0.264278 -0.000127919  -0.00485539 -0.271429 -3.11881e-05  0.0019989 -0.279398 -6.4984e-05  -0.00528288 -0.278955 -1.95801e-05  0.00158548 -0.286927 -4.98593e-05  -0.00528693 -0.278905 -3.00705e-05  -0.00571799 -0.286442 -2.22772e-05  0.00198722 -0.279348 -8.45492e-05  -0.00571394 -0.286482 -1.33067e-05  0.00116825 -0.294451 -3.1203e-05  -0.00614738 -0.294006 -1.02818e-06  0.00074482 -0.301973 -1.885e-05  -0.00615311 -0.293971 -9.6485e-06  -0.00658751 -0.301501 -7.45058e-07  0.00115561 -0.294415 -4.81457e-05  -0.00658298 -0.301526 4.82798e-06  0.000321627 -0.309485 -3.72529e-06  -0.00701809 -0.309041 1.37389e-05  -0.000106812 -0.316994 7.15256e-06  -0.00702429 -0.309019 8.00192e-06  -0.00746107 -0.316535 1.45286e-05  0.000310421 -0.309464 -1.56835e-05  -0.00745678 -0.316549 2.00123e-05  -0.000535965 -0.32449 1.94907e-05  -0.00789595 -0.324047 2.74926e-05  -0.000971079 -0.331978 2.92063e-05  -0.00790071 -0.324035 2.48626e-05  -0.00834179 -0.331531 3.00631e-05  -0.000547409 -0.324479 1.06394e-05  -0.00833583 -0.331536 3.20971e-05  -0.001405 -0.339454 3.90857e-05  -0.00877666 -0.339012 3.96371e-05  -0.00184345 -0.34692 4.74453e-05  -0.00878239 -0.339009 3.68357e-05  -0.00922251 -0.34648 4.30569e-05  -0.00141263 -0.339452 3.37362e-05  -0.00921679 -0.346478 4.44204e-05  -0.0022788 -0.354368 5.60433e-05  -0.00965881 -0.353928 5.02467e-05  -0.00271749 -0.361807 6.34193e-05  -0.00966263 -0.353933 5.06714e-05  -0.0101047 -0.361376 5.57974e-05  -0.00228786 -0.354373 5.38453e-05  -0.0100989 -0.361365 5.5477e-05  -0.00315309 -0.369224 7.32094e-05  -0.0105371 -0.368782 5.98431e-05  -0.00358939 -0.376626 7.93189e-05  -0.0105431 -0.368793 6.10873e-05  -0.0109789 -0.376196 6.68168e-05  -0.00316334 -0.369234 7.46027e-05  -0.010972 -0.37618 6.5282e-05  0.000523567 -0.000181556 -0.00157848  0.000446878 8.59499e-05 -0.00123495  0.00147696 -0.000775635 -0.0026264  0.000510417 0.000451386 -0.00180051  0.0014662 0.000158191 -0.00250474  0 0 0  0 0 0  0.000552863 0.00017935 -0.00217072  0 0 0  0.00114912 -0.000393331 -0.00200924  0.00263533 -0.00201231 -0.00314586  0.00197642 -0.00150722 -0.00243427  0.00385731 -0.00347847 -0.00352496  0.00230074 -0.000775635 -0.00278821  0.00307146 -0.00210989 -0.00310512  0.00301014 -0.00131148 -0.0037114  0.00286049 -0.00293511 -0.00268552  0.00505921 -0.00537854 -0.00364952  0.00375104 -0.00480241 -0.00277841  0.00624275 -0.00754613 -0.00373279  0.00391608 -0.00391799 -0.00313822  0.00472173 -0.00604367 -0.00322106  0.00526774 -0.00451124 -0.00417757  0.00463125 -0.00696903 -0.00282957  0.00737205 -0.0100361 -0.00371231  0.00548139 -0.00946468 -0.00280271  0.00846106 -0.0128251 -0.00367522  0.00553885 -0.00853181 -0.00317454  0.0063265 -0.0113203 -0.00315463  0.00744471 -0.00911111 -0.00422219  0.00629985 -0.0122579 -0.00277594  0.0095011 -0.0158818 -0.00359246  0.00708061 -0.0153289 -0.00270315  0.0104936 -0.0192302 -0.00350592  0.0070861 -0.0144039 -0.00307349  0.00781947 -0.0177696 -0.00300913  0.00950044 -0.014961 -0.00408844  0.00782365 -0.0186802 -0.00264263  0.0114421 -0.0228201 -0.0033953  0.00852638 -0.0222815 -0.00255181  0.0123392 -0.0266768 -0.0032894  0.00850803 -0.0213935 -0.00290974  0.00917101 -0.025276 -0.00282615  0.0114064 -0.021934 -0.00387263  0.00919056 -0.0261393 -0.0024766  0.0131934 -0.030755 -0.00316785  0.00981218 -0.0302274 -0.00237896  0.0139954 -0.0350745 -0.00305563  0.00978523 -0.0293897 -0.00272007  0.0103702 -0.0337387 -0.00262997  0.0131421 -0.0299195 -0.00362017  0.0103943 -0.034546 -0.00230025  0.0147535 -0.0395963 -0.00293227  0.0109347 -0.0390754 -0.00220202  0.0154586 -0.0443364 -0.00282098  0.010905 -0.0382956 -0.00252143  0.011409 -0.0430662 -0.00243156  0.0146973 -0.0388181 -0.00335683  0.0114348 -0.0438141 -0.00212277  0.0161203 -0.0492604 -0.00269875  0.0118932 -0.0487449 -0.00202785  0.0167282 -0.0543811 -0.00259089  0.0118638 -0.0480236 -0.00232425  0.0122861 -0.0531748 -0.00223608  0.0160626 -0.0485414 -0.00309432  0.0123119 -0.0538637 -0.00195041  0.0172931 -0.0596685 -0.00247337  0.0126892 -0.0591565 -0.00185846  0.0178066 -0.0651332 -0.00236912  0.0126612 -0.0584937 -0.00213151  0.0130036 -0.0639886 -0.00204735  0.0172383 -0.0590081 -0.0028379  0.0130284 -0.0646192 -0.00178404  0.0182791 -0.0707482 -0.00225642  0.0133271 -0.0702392 -0.0016966  0.0187006 -0.0765232 -0.00215659  0.0132993 -0.0696341 -0.00194693  0.0135651 -0.0754373 -0.00186531  0.0182253 -0.0701443 -0.00259157  0.0135891 -0.0760115 -0.00162438  0.0190833 -0.082432 -0.00204863  0.0138129 -0.0819252 -0.00154059  0.0194162 -0.0884844 -0.00195362  0.013786 -0.0813746 -0.00177014  0.0139775 -0.0874546 -0.00169164  0.0190315 -0.081883 -0.00235455  0.0140015 -0.0879758 -0.00147225  0.0197123 -0.0946566 -0.0018512  0.0141536 -0.0941516 -0.00139274  0.0199628 -0.100958 -0.00176112  0.0141268 -0.0936535 -0.00160126  0.014249 -0.0999801 -0.0015263  0.0196625 -0.09416 -0.00212883  0.0142723 -0.100449 -0.00132707  0.0201781 -0.107364 -0.00166354  0.0143571 -0.10686 -0.00125112  0.0203493 -0.113884 -0.00157782  0.0143303 -0.106412 -0.00143805  0.0143874 -0.112957 -0.00136753  0.020129 -0.106917 -0.00191402  0.0144113 -0.113377 -0.00118847  0.0204875 -0.120496 -0.00148484  0.0144322 -0.119994 -0.0011172  0.0205865 -0.127209 -0.00140372  0.0144062 -0.119593 -0.00128616  0.0144018 -0.12633 -0.00121802  0.0204412 -0.120097 -0.00170975  0.0144243 -0.126705 -0.00105798  0.0206536 -0.134003 -0.00131612  0.0143881 -0.133501 -0.000989631  0.0206842 -0.140883 -0.00123939  0.0143614 -0.133145 -0.00114083  0.0143001 -0.140048 -0.00107628  0.0206087 -0.133647 -0.00151685  0.0143235 -0.14038 -0.000933856  0.020685 -0.147832 -0.00115606  0.0142324 -0.147333 -0.000869393  0.0206525 -0.154858 -0.00108331  0.0142062 -0.14702 -0.00100301  0.0140924 -0.154067 -0.000944041  0.0206416 -0.14752 -0.00133445  0.0141175 -0.154357 -0.00081785  0.0205941 -0.161942 -0.00100619  0.0139766 -0.161444 -0.000755847  0.0205033 -0.169089 -0.000938714  0.0139496 -0.161169 -0.000871867  0.0137877 -0.168339 -0.000816725  0.0205493 -0.161668 -0.00116283  0.0138125 -0.16859 -0.000706717  0.0203879 -0.176286 -0.000865728  0.0136251 -0.175792 -0.000650138  0.0202434 -0.183537 -0.0008028  0.0135989 -0.175554 -0.000752896  0.0133944 -0.182823 -0.000699528  0.020345 -0.17605 -0.00100219  0.0134194 -0.183041 -0.000604078  0.0200796 -0.190825 -0.000734821  0.0131927 -0.190334 -0.000551298  0.0198879 -0.198161 -0.000676468  0.0131669 -0.190131 -0.000639409  0.0129223 -0.197485 -0.00059136  0.0200381 -0.190624 -0.000853427  0.0129473 -0.197669 -0.000507861  0.0196781 -0.205525 -0.000613913  0.0126846 -0.205037 -0.00045985  0.0194438 -0.212927 -0.000559941  0.0126576 -0.204865 -0.000536509  0.0123796 -0.212285 -0.000489235  0.0196383 -0.205355 -0.000715107  0.0124035 -0.212439 -0.000420734  0.0191922 -0.22035 -0.000502974  0.0121071 -0.219865 -0.000375301  0.0189185 -0.227802 -0.00045304  0.0120823 -0.219721 -0.000438407  0.0117736 -0.227191 -0.000395887  0.0191534 -0.220209 -0.000587575  0.011797 -0.227317 -0.00033921  0.0186317 -0.235267 -0.000400692  0.0114725 -0.234787 -0.000297964  0.0183256 -0.242756 -0.000355944  0.011447 -0.234671 -0.000350498  0.011112 -0.242176 -0.00031364  0.0185955 -0.235153 -0.000470825  0.0111351 -0.242276 -0.000265628  0.0180073 -0.250251 -0.000307858  0.0107856 -0.249777 -0.000227854  0.0176711 -0.257765 -0.00026764  0.0107613 -0.249684 -0.000270389  0.010402 -0.257211 -0.000236213  0.0179732 -0.250162 -0.00036671  0.0104256 -0.257289 -0.000198215  0.0173256 -0.265279 -0.000227094  0.0100555 -0.264807 -0.000165999  0.0169652 -0.272802 -0.000191227  0.0100319 -0.264736 -0.000199579  0.00965595 -0.272273 -0.000168875  0.0172951 -0.265209 -0.000271574  0.00967526 -0.272332 -0.000139236  0.0165985 -0.280322 -0.000154018  0.00928712 -0.279857 -0.000111431  0.0162172 -0.287849 -0.00012283  0.00926757 -0.279804 -0.000135981  0.0088737 -0.287341 -0.000110067  0.0165694 -0.280273 -0.00018955  0.00889277 -0.287383 -8.86172e-05  0.01583 -0.295368 -9.17166e-05  0.00848961 -0.294906 -6.257e-05  0.0154316 -0.302887 -6.56694e-05  0.00847006 -0.29487 -8.22097e-05  0.00806427 -0.302399 -6.10575e-05  0.0158033 -0.295334 -0.000119776  0.00808144 -0.302425 -4.33177e-05  0.0150287 -0.310396 -4.05759e-05  0.00766635 -0.309938 -2.26945e-05  0.0146177 -0.317901 -1.6734e-05  0.00765085 -0.309915 -3.77595e-05  0.00723386 -0.31743 -1.8172e-05  0.0150068 -0.310375 -5.95301e-05  0.00724912 -0.317445 -6.27339e-06  0.0142024 -0.325394 3.01003e-06  0.00682688 -0.324941 1.02967e-05  0.0137801 -0.332879 2.06679e-05  0.00681186 -0.324928 8.9407e-07  0.00638747 -0.332423 1.75536e-05  0.014183 -0.325384 -9.27597e-06  0.00639939 -0.332427 2.30819e-05  0.0133564 -0.34035 3.82513e-05  0.00596976 -0.3399 3.76701e-05  0.0129263 -0.347813 5.07832e-05  0.00595737 -0.339897 3.30657e-05  0.00552511 -0.347367 4.59999e-05  0.013339 -0.340348 2.98098e-05  0.00553751 -0.347365 4.77731e-05  0.0124946 -0.35526 6.6489e-05  0.00510335 -0.354814 6.12587e-05  0.0120595 -0.362698 7.97063e-05  0.00508857 -0.354818 6.0156e-05  0.00465417 -0.362259 7.33584e-05  0.012481 -0.355264 6.42687e-05  0.00466728 -0.362251 7.2062e-05  0.0116246 -0.370117 9.35793e-05  0.00422978 -0.369671 8.37743e-05  0.0111871 -0.377528 0.000107318  0.004215 -0.369678 8.55252e-05  0.00378275 -0.377088 9.99421e-05  0.0116105 -0.370124 9.60827e-05  0.00379658 -0.377074 9.55909e-05  0.000889741 -0.00106132 -0.00223032  0.000789046 -0.000491738 -0.00192752  0.00256674 -0.00204462 -0.00376314  0.000886664 -0.000142217 -0.00281008  0.00258361 -0.000784874 -0.00405895  0 0 0  0 0 0  0.000926681 -0.000726938 -0.00314058  0 0 0  0.00202239 -0.00132751 -0.00321783  0.00440331 -0.00352108 -0.00450601  0.00349484 -0.00266784 -0.00388092  0.00628844 -0.00509012 -0.00510781  0.00404744 -0.00193393 -0.00449295  0.00536388 -0.0033893 -0.00504622  0.00498863 -0.00281101 -0.00534887  0.00499192 -0.00422364 -0.00434272  0.00808159 -0.00696194 -0.00532848  0.0065037 -0.00609791 -0.0045092  0.00981921 -0.00913322 -0.00548863  0.00677297 -0.00521338 -0.00512763  0.00809881 -0.0073505 -0.00527519  0.00841042 -0.00607616 -0.00611442  0.00795311 -0.00828254 -0.00462539  0.0114851 -0.0115674 -0.00548765  0.00935984 -0.0107414 -0.00460558  0.0130885 -0.0143347 -0.00545032  0.00943774 -0.00980824 -0.00523017  0.0107316 -0.0125787 -0.00519735  0.0115912 -0.0106273 -0.00625262  0.0107102 -0.0135217 -0.00457008  0.0146363 -0.0173563 -0.00534461  0.0120053 -0.0165625 -0.00446954  0.0161229 -0.0206825 -0.00522044  0.0119892 -0.0156369 -0.00508455  0.0132108 -0.0189855 -0.00497269  0.01462 -0.0164247 -0.00608895  0.0132508 -0.0198974 -0.00436726  0.0175548 -0.0242489 -0.00506493  0.0144387 -0.0234806 -0.00423044  0.0189226 -0.0280877 -0.00490642  0.0143782 -0.0225918 -0.00482269  0.0155091 -0.0264617 -0.00467728  0.0174799 -0.0233589 -0.00577926  0.0155764 -0.0273253 -0.00410095  0.0202343 -0.0321479 -0.00473028  0.0166558 -0.0313994 -0.00394964  0.0214778 -0.0364522 -0.00456026  0.0165774 -0.0305629 -0.00451082  0.0176049 -0.0349023 -0.0043536  0.0201344 -0.0313113 -0.00540593  0.0176833 -0.0357088 -0.00381072  0.0226633 -0.0409577 -0.00437991  0.0186523 -0.0402279 -0.0036566  0.0237803 -0.0456843 -0.00420915  0.0185671 -0.0394485 -0.00418268  0.0194865 -0.0442111 -0.0040242  0.0225549 -0.0401796 -0.00501145  0.0195665 -0.0449589 -0.00351754  0.024838 -0.0505921 -0.00403222  0.0204238 -0.0498801 -0.00336657  0.0258268 -0.0557008 -0.00386614  0.020339 -0.0491599 -0.00385422  0.0211473 -0.0543056 -0.0036996  0.0247291 -0.0498739 -0.00461815  0.021226 -0.0549932 -0.00323059  0.026757 -0.060973 -0.00369343  0.0219725 -0.0602776 -0.00308439  0.0276202 -0.0664266 -0.00353412  0.0218899 -0.0596157 -0.00353422  0.0225881 -0.0651058 -0.00338464  0.0266514 -0.0603135 -0.00423433  0.0226644 -0.0657353 -0.00295462  0.0284266 -0.0720267 -0.00336963  0.0233017 -0.0713478 -0.0028142  0.0291681 -0.077792 -0.00321709  0.0232217 -0.0707424 -0.00322679  0.0238134 -0.0765418 -0.00308344  0.0283252 -0.0714245 -0.00386476  0.0238876 -0.0771163 -0.00268887  0.029856 -0.0836865 -0.00305973  0.02442 -0.083023 -0.00255533  0.0304799 -0.08973 -0.00291382  0.0243435 -0.0824725 -0.00293146  0.0248321 -0.0885485 -0.00279503  0.0297571 -0.0831389 -0.0035108  0.0249033 -0.0890696 -0.0024363  0.0310525 -0.0958891 -0.0027637  0.025336 -0.0952392 -0.00230876  0.0315653 -0.102181 -0.00262593  0.0252616 -0.0947418 -0.00264916  0.0256523 -0.101064 -0.00252013  0.0309592 -0.0953929 -0.00317295  0.0257213 -0.101534 -0.00219551  0.0320299 -0.108573 -0.00248241  0.0260592 -0.107938 -0.00207338  0.0324376 -0.115085 -0.00235137  0.0259877 -0.107489 -0.00238161  0.0262859 -0.114031 -0.00225849  0.0319393 -0.108127 -0.00285135  0.0263526 -0.114453 -0.00196704  0.0327989 -0.121685 -0.00221594  0.0266016 -0.121063 -0.00185139  0.0331091 -0.12839 -0.002092  0.0265323 -0.120662 -0.00212773  0.0267441 -0.127396 -0.00201073  0.0327123 -0.121286 -0.00254767  0.0268093 -0.12777 -0.00175005  0.0333757 -0.135171 -0.00196412  0.0269744 -0.134561 -0.00164104  0.0335925 -0.142043 -0.00184666  0.0269085 -0.134205 -0.00188771  0.0270398 -0.141105 -0.0017755  0.0332913 -0.134816 -0.00225998  0.027102 -0.141437 -0.00154497  0.0337715 -0.148979 -0.00172481  0.0271907 -0.148384 -0.00144167  0.0339017 -0.155997 -0.00161579  0.0271277 -0.14807 -0.00166075  0.0271826 -0.155114 -0.00155544  0.0336907 -0.148667 -0.00198692  0.0272424 -0.155404 -0.00135149  0.0339971 -0.163068 -0.00150217  0.0272593 -0.162485 -0.00125536  0.0340488 -0.170208 -0.00139983  0.0271962 -0.162211 -0.00144664  0.027185 -0.169375 -0.0013492  0.0339208 -0.162794 -0.0017305  0.0272431 -0.169628 -0.00117058  0.0340688 -0.177391 -0.00129314  0.0271955 -0.176822 -0.00108135  0.0340471 -0.184633 -0.00119673  0.0271351 -0.176583 -0.00124788  0.0270598 -0.18385 -0.00115516  0.0339942 -0.177156 -0.001494  0.0271156 -0.184068 -0.00100134  0.0339987 -0.191911 -0.00109941  0.0270076 -0.191354 -0.000918195  0.0339115 -0.199237 -0.00100945  0.0269508 -0.19115 -0.00106219  0.0268168 -0.1985 -0.000976019  0.0339282 -0.19171 -0.00127152  0.0268714 -0.198683 -0.000844091  0.0337989 -0.20659 -0.000919148  0.02671 -0.206045 -0.000767708  0.0336537 -0.213982 -0.000836  0.0266538 -0.205875 -0.000889421  0.0264711 -0.213288 -0.000810534  0.0337331 -0.206421 -0.00106464  0.0265219 -0.213441 -0.000699416  0.0334835 -0.221393 -0.000752687  0.0263097 -0.220862 -0.000629112  0.0332828 -0.228836 -0.000677839  0.0262582 -0.220718 -0.000731267  0.0260293 -0.228182 -0.000659838  0.0334208 -0.221253 -0.00087557  0.0260766 -0.228308 -0.000567302  0.0330617 -0.236291 -0.000602186  0.0258231 -0.235772 -0.000503138  0.0328143 -0.243772 -0.000533834  0.0257721 -0.235656 -0.000585794  0.0255041 -0.243154 -0.000521548  0.0330031 -0.236179 -0.000703722  0.0255492 -0.243254 -0.000446469  0.0325484 -0.251258 -0.000465289  0.0252566 -0.250747 -0.000388235  0.0322604 -0.25876 -0.000405118  0.0252116 -0.250656 -0.000456259  0.0249052 -0.258178 -0.000398189  0.0324943 -0.251168 -0.000548109  0.0249474 -0.258255 -0.00033775  0.031956 -0.266264 -0.000344783  0.0246208 -0.265767 -0.000287443  0.0316317 -0.27378 -0.000290796  0.0245795 -0.265698 -0.000341006  0.0242448 -0.273228 -0.000288859  0.0319078 -0.266198 -0.000409067  0.0242815 -0.273284 -0.000242665  0.0312939 -0.28129 -0.000237465  0.0239284 -0.280804 -0.000197038  0.0309386 -0.288809 -0.000191644  0.0238912 -0.280752 -0.00023938  0.0235302 -0.288285 -0.000194043  0.0312507 -0.281243 -0.000286736  0.0235631 -0.288325 -0.000158668  0.0305748 -0.296318 -0.000146464  0.0231864 -0.29584 -0.000121444  0.0301931 -0.303831 -0.000108182  0.0231531 -0.295806 -0.000152111  0.0227723 -0.303331 -0.000113778  0.0305359 -0.296289 -0.000184663  0.0228 -0.303355 -8.79765e-05  0.0298047 -0.311331 -7.11381e-05  0.0224044 -0.310862 -5.70565e-05  0.0294049 -0.31883 -3.78042e-05  0.0223756 -0.310842 -7.75382e-05  0.021976 -0.318351 -4.57764e-05  0.0297732 -0.311314 -9.57474e-05  0.022002 -0.318363 -2.99513e-05  0.0289977 -0.326314 -8.38935e-06  0.0215898 -0.325853 -3.02494e-06  0.0285811 -0.333795 1.61082e-05  0.0215664 -0.325843 -1.66669e-05  0.021152 -0.333333 8.13603e-06  0.0289702 -0.326307 -2.41697e-05  0.0211742 -0.333335 1.67787e-05  0.0281613 -0.341259 3.89665e-05  0.0207498 -0.340805 3.68357e-05  0.0277326 -0.348717 5.75036e-05  0.0207293 -0.340802 2.91988e-05  0.0203049 -0.348267 5.08875e-05  0.0281374 -0.341259 2.91392e-05  0.0203238 -0.348263 5.34356e-05  0.0273042 -0.356158 7.51615e-05  0.0198922 -0.355711 7.07805e-05  0.0268686 -0.363594 9.08375e-05  0.0198743 -0.355713 6.84783e-05  0.0194414 -0.363153 8.51303e-05  0.0272863 -0.356165 7.32094e-05  0.0194576 -0.363146 8.56072e-05  0.0264335 -0.371017 0.000107825  0.0190232 -0.370568 0.000100479  0.0259962 -0.378435 0.000122771  0.0190053 -0.370573 0.000103138  0.0185723 -0.377991 0.00012055  0.0264168 -0.371024 0.00010857  0.01859 -0.377979 0.000114411  0.00150139 -0.00304234 -0.00279514  0.00136019 -0.00170028 -0.00250508  0.00454637 -0.00457537 -0.00468566  0.0015011 -0.00138956 -0.00366879  0.00416411 -0.00256103 -0.00536989  0 0 0  0 0 0  0.00148138 -0.00278091 -0.00400525  0 0 0  0.00332062 -0.00318563 -0.00422627  0.0069989 -0.00568086 -0.00586501  0.00555147 -0.00453103 -0.00520669  0.00934374 -0.0073306 -0.00667733  0.00632198 -0.00374079 -0.00609367  0.00820988 -0.00527209 -0.00689559  0.00789569 -0.00484473 -0.00688221  0.00767937 -0.00617772 -0.00589341  0.0116631 -0.00905418 -0.00704728  0.00978932 -0.00795019 -0.006184  0.0139042 -0.0111706 -0.00728488  0.0101618 -0.00701392 -0.00707997  0.011981 -0.00913107 -0.00731425  0.0121497 -0.00804764 -0.00810169  0.0117858 -0.0101088 -0.0063791  0.0161009 -0.0135764 -0.00729251  0.0137218 -0.0125158 -0.00638384  0.0182348 -0.0162895 -0.00725308  0.0138248 -0.011543 -0.0072782  0.0156072 -0.014288 -0.00724085  0.0162519 -0.01256 -0.00834198  0.0155913 -0.0152571 -0.00634618  0.0203027 -0.0192987 -0.00710554  0.0173917 -0.018272 -0.00622118  0.0222979 -0.0225886 -0.00694233  0.0173593 -0.017322 -0.00709236  0.0190657 -0.0206512 -0.00693361  0.0202846 -0.0183274 -0.00811836  0.0191333 -0.0215775 -0.00607981  0.0242229 -0.0261341 -0.00672984  0.0208045 -0.0251381 -0.00589626  0.0260637 -0.0299471 -0.0065169  0.0207095 -0.0242385 -0.00672837  0.0223069 -0.0280914 -0.00651989  0.0241318 -0.0252251 -0.00769077  0.0224133 -0.0289602 -0.0057122  0.0278355 -0.0339781 -0.00628152  0.0239478 -0.0330119 -0.00550583  0.0295151 -0.0382617 -0.00605337  0.0238278 -0.0321712 -0.00629133  0.0252951 -0.0364947 -0.00606493  0.0277135 -0.0331359 -0.00718237  0.0254155 -0.0373017 -0.00530796  0.0311261 -0.0427326 -0.00581409  0.0268085 -0.0417968 -0.00509752  0.0326434 -0.0474402 -0.00558497  0.0266804 -0.0410179 -0.00583027  0.0280083 -0.0457643 -0.00560293  0.0309963 -0.0419546 -0.0066523  0.0281322 -0.04651 -0.00489911  0.0340934 -0.0523122 -0.0053505  0.0293814 -0.0514076 -0.00469165  0.03545 -0.0574043 -0.00512764  0.0292531 -0.0506893 -0.00537105  0.0304383 -0.0558183 -0.00514852  0.0339631 -0.0515969 -0.00612567  0.0305609 -0.0565033 -0.00449856  0.0367398 -0.0626402 -0.00490096  0.0316666 -0.0617645 -0.00429823  0.0379378 -0.0680778 -0.00468667  0.0315423 -0.0611056 -0.00492382  0.0325876 -0.0665798 -0.00470944  0.0366132 -0.0619839 -0.00561424  0.0327049 -0.0672063 -0.00411238  0.0390737 -0.0736425 -0.0044698  0.033672 -0.0727959 -0.00392076  0.04012 -0.0793918 -0.0042654  0.0335522 -0.0721942 -0.00449292  0.0344588 -0.0779777 -0.00428841  0.0389522 -0.0730434 -0.0051234  0.0345719 -0.0785495 -0.00374316  0.0411053 -0.0852518 -0.00405788  0.0354052 -0.0844344 -0.00355923  0.0420047 -0.091281 -0.00386271  0.0352892 -0.083887 -0.00408145  0.036065 -0.089948 -0.00388573  0.0409884 -0.0847078 -0.00465216  0.0361739 -0.0904663 -0.00338937  0.0428475 -0.097406 -0.0036653  0.0368775 -0.0966153 -0.00321504  0.0436081 -0.103683 -0.00347964  0.036767 -0.0961193 -0.00368746  0.0374167 -0.102428 -0.00350166  0.0427359 -0.0969135 -0.00420393  0.0375217 -0.102896 -0.00305411  0.0443135 -0.110045 -0.00329214  0.0381038 -0.109279 -0.00288816  0.0449429 -0.116542 -0.00311555  0.0379971 -0.108833 -0.0033131  0.0385275 -0.115362 -0.00313736  0.0442075 -0.109601 -0.00377757  0.0386288 -0.115781 -0.00273474  0.0455226 -0.123111 -0.00293784  0.0390952 -0.122371 -0.00257732  0.0460271 -0.129802 -0.00277095  0.038993 -0.121972 -0.00295915  0.0394126 -0.128692 -0.00279268  0.045419 -0.122713 -0.0033732  0.0395099 -0.129065 -0.00243235  0.0464844 -0.136552 -0.0026034  0.0398688 -0.135837 -0.00228384  0.046875 -0.14341 -0.00244485  0.0397711 -0.135483 -0.00262431  0.0400863 -0.14237 -0.00246622  0.0463874 -0.136199 -0.00298907  0.0401783 -0.142699 -0.00214687  0.0472209 -0.150318 -0.00228602  0.0404384 -0.149628 -0.00200692  0.047502 -0.157321 -0.00213794  0.0403426 -0.149315 -0.00230856  0.040561 -0.156346 -0.00215835  0.0471275 -0.150008 -0.00262704  0.0406499 -0.156635 -0.00187856  0.047744 -0.164365 -0.00199017  0.0408161 -0.163697 -0.00174737  0.0479252 -0.171491 -0.00185096  0.040725 -0.163425 -0.00201134  0.040854 -0.170577 -0.00187071  0.0476539 -0.164093 -0.00228832  0.0409384 -0.170827 -0.00162649  0.0480704 -0.178646 -0.00171089  0.0410185 -0.178003 -0.00150339  0.0481594 -0.185876 -0.00158352  0.0409319 -0.177767 -0.00173289  0.0409784 -0.185021 -0.00160276  0.0479858 -0.178414 -0.00197146  0.0410595 -0.185236 -0.00139064  0.0482163 -0.193124 -0.00145389  0.0410595 -0.192505 -0.00127816  0.0482213 -0.200438 -0.00133532  0.0409784 -0.192303 -0.00147533  0.0409479 -0.19964 -0.00135379  0.0481365 -0.192928 -0.00167711  0.0410254 -0.199822 -0.00117409  0.0481973 -0.207764 -0.00121629  0.0409536 -0.207166 -0.00106744  0.0481243 -0.215143 -0.00110562  0.0408762 -0.206998 -0.00123553  0.0407779 -0.214399 -0.001123  0.0481222 -0.207597 -0.00140356  0.0408499 -0.214549 -0.000971302  0.048027 -0.222531 -0.000996441  0.0407143 -0.221954 -0.000875652  0.0478854 -0.229961 -0.000894442  0.0406408 -0.221813 -0.00101549  0.0404816 -0.229263 -0.000912532  0.0479553 -0.222394 -0.0011529  0.0405498 -0.229388 -0.00078854  0.0477235 -0.237392 -0.00079532  0.040355 -0.236835 -0.000700012  0.0475202 -0.244861 -0.000704199  0.0402868 -0.236723 -0.000813723  0.0400736 -0.244209 -0.000721782  0.0476565 -0.23728 -0.000923626  0.0401363 -0.244306 -0.000620663  0.0473001 -0.252322 -0.000616521  0.0398903 -0.251785 -0.000542253  0.0470421 -0.259815 -0.000532478  0.0398293 -0.251697 -0.000634149  0.0395656 -0.259205 -0.000550218  0.047236 -0.252237 -0.000718445  0.0396233 -0.25928 -0.000470668  0.0467701 -0.267297 -0.000454828  0.0393333 -0.266778 -0.000400797  0.0464652 -0.274802 -0.000383049  0.0392766 -0.266712 -0.000473246  0.0389724 -0.274232 -0.000398606  0.0467155 -0.267234 -0.000535078  0.0390234 -0.274285 -0.000339061  0.0461502 -0.282293 -0.000315338  0.0386956 -0.28179 -0.000277117  0.0458071 -0.289802 -0.000251815  0.0386465 -0.281744 -0.000331663  0.0383062 -0.289266 -0.000267729  0.0460989 -0.282249 -0.000374839  0.038352 -0.289302 -0.000223845  0.0454531 -0.297293 -0.000193343  0.0379896 -0.296806 -0.000171408  0.0450742 -0.304796 -0.000141755  0.0379462 -0.296775 -0.000211053  0.0375764 -0.304291 -0.000157081  0.0454092 -0.297266 -0.000235014  0.0376165 -0.304311 -0.000125661  0.0446908 -0.31228 -9.44138e-05  0.0372283 -0.311807 -8.38488e-05  0.044287 -0.319772 -5.05745e-05  0.0371909 -0.31179 -0.000109039  0.0367987 -0.319291 -6.54906e-05  0.0446537 -0.312266 -0.00012102  0.0368307 -0.319299 -4.59552e-05  0.0438776 -0.327244 -1.35005e-05  0.0364242 -0.326779 -1.17421e-05  0.043452 -0.334717 1.85072e-05  0.0363922 -0.326775 -2.84761e-05  0.0359812 -0.334256 5.89341e-06  0.0438483 -0.327241 -3.06293e-05  0.0360062 -0.334256 1.55717e-05  0.0430291 -0.342169 4.74453e-05  0.0355837 -0.341717 4.16338e-05  0.0425899 -0.349623 7.03186e-05  0.0355594 -0.341718 3.45409e-05  0.0351357 -0.349177 5.93141e-05  0.0430062 -0.342173 3.91379e-05  0.0351567 -0.34917 6.20186e-05  0.0421553 -0.357057 8.80212e-05  0.0347216 -0.35661 8.06749e-05  0.0417113 -0.364489 0.000104547  0.0347028 -0.356615 7.97734e-05  0.0342686 -0.364052 9.7245e-05  0.0421379 -0.357065 8.60393e-05  0.0342855 -0.364043 9.68874e-05  0.041271 -0.371911 0.00011912  0.0338473 -0.371466 0.000111371  0.0408297 -0.379334 0.000135139  0.0338306 -0.371472 0.000114433  0.033392 -0.378896 0.000133179  0.0412567 -0.37192 0.000122212  0.0334101 -0.378887 0.000128135  
SCALARS smooth_stress float 1
LOOKUP_TABLE default
377.813 480.742 411.415 397.82 384.248 366.484 345.826 323.19 300.046 276.333 253.721 231.154 209.848 189.35 169.685 151.552 134.083 117.799 102.453 88.1851 75.033 63.3443 52.5006 42.421 33.3868 25.9286 19.9066 13.943 9.3138 5.67931 3.0132 1.80394 0.510553 335.121 561.773 490.643 470.803 456.946 440.21 419.755 395.271 369.743 342.246 316.176 289.992 264.592 240.263 217.11 195.206 174.376 154.552 136.335 119.772 103.853 89.4525 75.9615 63.5692 52.6514 43.1343 34.5403 26.6169 19.4103 13.4829 8.45674 4.4785 1.10453 201.23 335.251 316.06 317.654 314.121 306.61 296.065 283.061 267.889 251.609 234.518 218.084 201.908 185.4 170.477 156.067 142.289 128.55 116.259 104.708 94.0902 83.259 73.5154 64.0752 55.3214 47.0968 39.5046 31.7172 24.8063 18.6436 12.5522 7.00571 1.63528 94.5412 166.992 177.145 200.231 208.265 210.293 208.072 203.722 196.622 188.641 179.312 169.924 160.252 150.65 141.309 132 123.06 114.156 105.266 96.8703 89.0083 80.9086 72.9079 65.2304 57.17 49.7069 42.5349 35.2564 28.3668 21.611 15.062 8.16764 1.87502 82.5745 129.282 155.11 184.207 194.671 197.337 195.908 191.899 185.951 178.799 170.78 162.406 154.034 145.767 137.346 128.997 120.64 112.779 104.579 96.6335 88.8573 81.1534 73.4277 65.9278 58.2375 50.8419 43.4187 36.3729 29.3609 22.3478 15.7201 8.73316 2.04079 181.77 262.317 269.53 282.697 282.327 275.62 265.996 254.292 240.967 227.126 213.213 199.413 185.665 172.417 159.672 147.341 135.596 124.456 113.684 103.126 93.3905 84.0399 74.9496 66.2918 57.9895 49.8383 42.2779 34.6772 27.8254 20.9071 14.2949 8.35931 2.0043 315.269 454.261 431.884 427.522 415.989 398.932 379.307 357.47 334.382 310.539 287.41 264.373 242.694 221.264 201.14 181.833 164.321 147.415 131.39 116.448 102.474 89.879 77.9648 66.7778 56.5082 46.9942 38.8357 31.1206 23.9981 17.3946 11.2439 6.81209 1.9507 509.18 668.535 606.797 587.651 567.721 541.144 511.141 478.488 444.245 410.317 377.357 344.395 313.231 283.463 254.773 228.199 203.627 179.862 157.36 136.54 117.379 100.06 84.1679 69.5846 56.2339 44.718 34.553 25.6759 18.1344 12.2129 7.60628 4.8267 1.42412 161.573 280.509 232.091 224.591 217.303 207.622 196.438 183.794 170.796 157.261 144.338 132.149 120.071 108.778 97.5091 87.1391 77.5482 68.2064 59.6789 51.5834 44.053 36.9505 31.0666 25.5563 20.371 15.8591 11.8651 8.34202 5.70405 3.52004 1.93438 1.29335 0.531999 428.86 747.853 678.077 642.764 607.498 570.635 532.3 493.033 455.661 418.642 383.139 348.935 316.243 284.864 254.995 227.469 201.344 176.471 153.581 132.037 111.99 94.0065 77.5974 63.1586 48.9234 37.9464 28.4704 19.3116 12.8486 7.43653 4.29317 2.95334 1.02597 387.685 1196.41 1150.63 1080.37 1019.76 963.545 906.907 847.189 787.597 727.455 669.006 612.201 557.883 505.267 455.389 408.699 364.377 322.036 283.024 247.061 212.852 181.863 153.628 127.803 104.092 83.5216 65.6468 49.9758 35.9443 24.3311 15.145 8.59875 3.1712 219.728 722.05 774.148 748.657 709.839 674.883 640.875 604.406 567.685 529.602 491.237 455.314 419.688 384.206 351.254 319.322 289.472 260.213 233.863 208.512 185.277 163.399 142.713 123.785 106.037 89.6946 74.3081 60.1817 46.8714 35.2627 23.4959 14.1058 4.72811 98.9702 399.539 457.615 474.997 464.498 450.571 435.353 419.006 400.686 381.178 360.31 339.655 319.079 298.498 278.743 259.537 240.709 222.297 204.24 187.135 170.652 155.261 139.143 124.474 109.352 94.7178 80.8114 67.1021 53.9106 41.7218 29.1853 16.944 5.64147 79.575 270.879 347.95 385.317 387.6 381.351 372.905 362.405 350.152 336.261 321.395 305.87 290.048 274.32 258.697 243.289 227.726 212.892 197.7 182.783 168.373 153.985 139.589 125.541 111.397 97.4128 83.5538 70.3089 56.9544 43.8512 31.1711 18.4717 5.6914 185.985 457.779 533.481 550.938 537.164 515.953 493.536 469.794 445.339 420.014 394.606 369.644 344.895 321.11 298.615 276.514 254.897 234.341 214.806 195.62 177.676 160.262 143.175 127.288 111.622 96.5429 82.1234 68.2882 54.8945 41.7858 29.4465 18.1815 5.84113 346.809 808.527 864.969 847.833 807.514 763.814 720.569 676.089 631.517 586.205 542.206 499.76 459.16 419.605 382.515 346.94 313.628 281.951 252.198 224.534 198.066 173.719 151.085 130.238 110.969 93.0546 76.5467 62.1402 48.2986 35.8918 24.0365 15.0001 5.64555 610.959 1223.58 1231.78 1176.99 1115.73 1052.18 987.824 922.059 855.677 789.556 726.12 663.412 603.417 547.155 493.127 441.677 394.38 349.375 306.214 266.805 230.038 196.837 165.922 137.838 111.887 89.7484 69.3795 52.8252 38.6202 26.2636 16.9272 10.6571 4.53542 270.725 791.646 723.087 688.346 656.286 622.399 585.432 546.915 507.69 467.774 429.823 392.908 356.881 323.462 290.888 259.858 231.317 204.371 178.04 154.151 132.421 111.693 93.4145 76.6727 61.4789 47.8757 36.2272 25.7431 17.8761 11.0767 6.8117 4.09803 2.3198 414.437 715.712 684.821 663.643 627.571 585 541.836 498.833 457.901 419.685 383.281 348.472 315.347 284.302 254.759 226.18 199.987 175.532 152.465 130.755 111.247 93.0404 76.2387 61.4693 47.9603 36.4249 26.9513 18.5919 11.8499 7.19975 3.44343 2.43187 0.94653 342.802 1094.04 1198.3 1148.28 1072 998.551 927.576 858.249 790.137 726.714 666.076 608.003 552.606 500.214 450.205 403.113 358.862 316.532 277.269 241.763 207.777 176.343 148.139 122.118 99.6061 78.4206 61.6281 46.0461 32.8322 22.1193 13.0952 8.16917 3.21758 179.284 627.599 827.5 812.711 755.152 700.072 651.596 605.941 562.623 521.339 480.846 442.885 407.367 372.052 339.015 307.857 277.907 249.404 223.421 198.43 175.142 153.446 133.072 114.651 97.9068 82.7998 67.7733 54.4258 42.8747 31.6007 20.5742 12.3705 4.3608 83.43 364.577 523.908 534.878 499.084 463.257 433.424 408.733 384.886 362.382 340.072 319.309 299.592 279.435 260.439 241.735 223.364 205.948 189.289 173.164 156.78 141.898 127.437 113.406 99.8021 86.646 73.3539 61.0387 49.2256 37.6936 26.4261 14.8688 5.11023 69.6087 279.614 428.293 442.519 414.764 386.066 363.126 344.33 327.662 312.032 296.49 281.505 266.525 251.766 237.173 222.723 208.625 194.628 180.723 167.154 153.738 140.349 127.342 114.208 101.371 88.9398 76.0626 63.8451 51.3606 39.466 28.2161 16.9237 5.47685 151.155 430.716 591.637 601.9 565.146 524.497 489.339 457.847 429.034 401.751 375.446 350.291 326.221 303.077 280.401 258.95 238.725 218.523 199.836 181.748 164.524 148.142 132.18 116.848 102.17 88.2275 74.7334 62.2552 49.7925 37.7783 26.3588 16.8077 5.7664 297.991 723.928 903.417 898.442 841.854 781.26 725.304 673.373 624.175 576.358 531.369 488.786 447.386 408.283 370.835 335.868 302.71 271.33 242.275 214.202 188.646 165.012 142.637 122.318 103.449 86.2103 70.4792 56.7929 44.0456 32.5629 21.8685 14.3482 5.30051 571.317 1102.86 1261.94 1229.86 1155.28 1076.21 999.97 926.332 855 786.189 720.192 658.227 598.055 540.982 487.502 436.797 388.953 344.071 302.011 261.578 224.943 192.021 160.966 133.324 108.068 85.2229 65.592 48.8404 35.4464 24.0961 15.1992 9.86432 4.36942 262.384 712.809 743.147 719.447 679.399 636.557 593.74 550.623 508.889 467.855 428.432 391.543 355.216 321.265 288.724 258.449 229.67 202.872 177.412 152.799 130.931 110.562 92.1918 74.9763 60.1001 45.8995 34.7139 24.0144 16.732 10.4449 5.85767 3.5883 2.22535 414.218 710.605 675.575 664.512 633.965 592.004 546.983 503.08 460.829 421.565 384.151 348.404 314.927 283.486 254.095 226.138 199.559 174.953 152.009 130.28 110.69 92.5185 75.6791 61.2625 47.7402 36.2975 26.5971 18.2069 11.6695 6.6604 3.59838 2.37183 0.851729 329.777 1078.41 1186.75 1159.83 1093.17 1017.56 940.357 866.197 795.54 728.665 666.165 607.107 550.49 498.152 448.261 400.903 355.986 314.221 275.397 238.798 204.935 174.487 145.683 119.997 97.2867 77.448 59.6551 43.989 31.5541 20.4861 12.7639 6.64037 2.69226 165.628 607.755 830.635 833.84 778.927 717.743 661.883 610.443 563.191 518.922 477.066 437.88 401.132 366.259 333.691 302.62 272.361 244.386 218.257 193.243 170.033 148.816 128.747 110.743 93.0915 78.6705 64.3226 51.4094 40.2016 29.3001 19.1148 11.1253 3.98741 80.2293 362.937 544.904 563.183 522.294 476.31 437.533 406.092 378.453 353.752 330.662 308.974 288.633 269.28 250.141 232.103 214.178 197.058 180.783 165.006 149.303 135.002 120.901 107.263 94.2645 81.4627 69.155 57.0832 46.0103 35.0694 24.0826 13.7772 4.51919 69.9747 296.895 462.978 475.692 436.891 395.38 362.536 337.425 316.952 299.321 283.082 267.732 253.211 238.998 224.872 211.312 197.705 184.362 171.18 158.21 145.42 132.838 120.364 108.264 95.7201 83.4922 71.794 59.8863 48.3291 36.9915 26.1149 15.6792 4.91169 140.309 431.354 614.719 629.102 585.173 535.232 491.22 454.126 421.545 392.158 364.901 339.522 315.736 292.564 270.933 249.476 229.663 210.007 191.722 174.014 156.926 141.133 125.887 111.481 97.2014 83.6075 70.9125 58.6546 46.9523 35.2952 24.756 15.7724 5.79909 281.95 698.656 905.565 917.565 862.022 795.881 732.798 675.563 622.618 572.935 526.628 482.577 441.687 402.689 365.37 329.495 296.956 265.605 236.603 209.095 183.412 160.259 138.074 117.882 99.1065 82.4836 66.9042 53.964 41.9706 30.8242 20.8722 13.5371 5.56843 562.291 1067.73 1247.84 1240.69 1173.97 1091.82 1009.68 931.875 857.04 786.536 719.07 655.808 595.765 538.752 484.664 433.943 385.623 340.531 299.044 259.476 222.047 189.247 158.617 130.934 105.843 82.9801 63.4378 47.5802 34.4612 23.8063 15.7947 10.0943 4.31059 263.835 697.12 726.346 721.398 688.841 645.49 599.645 554.311 510.499 468.298 428.47 390.805 354.613 320.605 287.807 257.644 228.613 201.864 176.501 152.287 130.184 109.77 91.3455 73.9274 59.5663 45.703 33.558 23.9992 16.2081 10.4673 6.61857 4.06862 2.1346 414.714 711.231 672.329 662.688 634.124 593.677 548.671 504.62 461.214 421.768 384.558 348.776 315.673 283.893 253.978 226 199.497 174.909 151.533 129.619 109.95 92.2113 75.8326 60.8134 47.2662 35.9297 25.8351 17.4582 11.1547 6.59135 3.56028 2.44883 0.964341 327.018 1077.87 1181.8 1159.2 1097.2 1023.49 946.518 870.404 798.227 730.449 667.872 607.324 550.837 497.298 446.917 400.429 355.916 313.535 274.435 237.895 204.448 173.607 145.059 119.339 96.4026 76.5974 59.0246 43.1983 30.5807 20.2913 11.9023 6.99172 2.9492 161.812 602.795 832.255 838.269 785.262 724.337 666.678 613.377 564.257 518.918 476.527 436.851 400.494 365.003 331.738 300.558 270.68 242.427 216.805 191.687 168.504 146.733 127.322 109.123 92.0973 77.4838 63.657 50.4524 38.5852 28.453 18.6746 10.9036 3.69882 78.7224 362.28 552.178 571.331 530.374 482.296 441.238 407.021 377.334 351.636 328.14 305.798 285.636 265.77 247.052 229.008 211.4 193.946 178.016 162.132 146.944 132.738 118.846 105.586 92.5816 79.9527 68.1233 56.1442 44.8326 34.1246 23.2679 13.5358 4.60629 70.4418 303.406 474.863 487.393 445.951 400.427 364.084 336.392 313.939 295.204 278.598 263.387 248.878 234.693 220.708 207.1 193.846 180.765 167.804 154.882 142.323 130.002 117.807 105.841 93.9675 82.0302 70.1409 58.4233 46.9444 35.9253 25.1798 14.9269 4.64217 137.613 432.592 622.046 638.386 593.135 539.428 492.724 453.472 419.338 389.024 361.281 336.012 312.117 289.036 267.397 246.172 226.565 207.013 188.959 171.403 154.732 138.661 123.507 109.218 95.4623 82.0006 69.535 57.5128 45.9501 34.5524 24.1359 14.9983 5.16025 277.752 692.592 907.185 922.15 868.082 800.935 735.795 676.703 621.992 571.818 524.464 480.916 439.756 400.435 363.414 327.949 294.892 263.952 234.801 207.39 181.607 158.151 136.587 116.618 98.4213 81.6501 66.0121 53.075 40.9426 30.0737 20.6512 13.2179 5.10195 559.369 1058.71 1243.66 1241.62 1178.9 1097.58 1014.36 934.488 857.977 786.358 718.693 655.172 594.396 537.937 483.679 432.815 384.57 339.528 297.928 258.594 221.642 188.128 157.807 130.284 105.313 82.7725 63.0175 46.8356 34.5337 23.4474 15.3922 9.61095 4.34006 264.546 694.48 719.738 719.034 690.022 648.619 602.397 556.256 511.812 469.045 428.393 390.527 354.284 319.932 287.366 257.168 228.22 201.243 175.789 152.154 130.429 109.65 91.0857 74.1601 59.4815 45.8716 33.9232 23.8647 16.6334 10.5587 6.78834 4.29593 2.17449 414.447 714.08 674.434 661.657 631.183 591.158 546.84 503.337 460.303 421.156 384.01 348.356 315.397 284.042 254.303 226.252 199.781 174.83 151.833 130.681 110.655 92.5172 75.8759 60.9648 47.4061 36.1315 26.273 18.3538 11.7735 6.8442 3.74334 2.6787 1.02175 330.878 1078.55 1180.7 1154.96 1091.43 1019.05 943.376 868.804 797.172 729.929 667.381 607.749 551.466 498.326 447.387 400.8 356.454 314.39 275.303 238.528 205.123 173.569 145.759 120.329 96.6511 77.3639 59.6677 44.049 31.1343 21.0077 12.7886 7.32594 3.49725 165.42 600.608 827.806 832.369 780.368 721.406 665.186 613.255 564.667 520.266 477.793 438.78 401.976 366.958 333.12 301.734 272.935 244.25 218.324 193.473 170.087 148.5 128.835 110.403 93.1433 78.3269 64.4266 51.6066 39.5383 29.4722 19.7421 10.9566 4.2021 76.7252 354.741 543.889 563.808 525.557 480.411 441.251 408.602 379.984 354.628 331.723 309.766 289.363 269.448 250.461 231.912 214.079 196.812 180.302 164.895 149.236 134.75 120.579 107.092 94.0258 80.8463 68.809 57.4099 46.0054 34.7996 24.1119 13.8569 4.56232 68.9857 295.381 465.61 479.964 441.462 399.169 364.932 338.489 317.218 298.886 282.34 267.145 252.603 238.041 224.192 210.467 197.021 183.798 170.417 157.64 144.643 132.181 119.864 107.579 95.3521 83.2595 71.4544 59.7933 48.2174 36.7655 25.9822 15.0886 4.74446 141.606 429.686 616.776 632.471 588.834 537.633 492.55 454.362 420.92 391.281 363.894 338.239 314.409 291.403 269.398 248.221 228.417 209.014 190.663 173.259 156.645 140.637 125.376 110.751 96.7508 83.3766 70.7547 58.5073 46.4239 35.2036 24.4931 15.3001 5.03935 282.542 694.247 905.507 918.091 863.899 798.177 733.501 676.206 622.026 572.139 525.361 481.97 440.464 401.752 364.492 329 296.321 265.223 236.071 208.726 182.976 159.203 137.192 117.354 98.7395 82.2131 66.8664 53.5481 41.353 30.3599 20.5296 13.238 4.8259 559.225 1064.32 1247.12 1240.4 1176.01 1094.63 1011.47 932.505 856.872 786.215 718.978 655.313 595.34 537.932 484.424 432.891 385.253 339.982 298.276 258.999 222.584 188.416 157.961 130.602 105.417 83.3885 63.7675 46.9188 33.9882 22.8731 14.6748 9.58122 3.97167 262.279 694.983 721.642 719.298 689.839 648.304 602.115 556.104 511.6 468.889 428.752 390.259 354.651 319.879 287.599 257.019 228.046 201.105 175.531 151.933 130.06 109.248 90.632 73.9654 59.5472 45.6486 34.0076 23.773 16.3751 10.4747 6.28262 3.90652 2.03517 421.279 718.473 676.033 656.233 623.616 583.245 541.086 499.146 458.749 420.52 383.664 348.295 315.469 284.412 255.064 226.495 200.392 175.798 152.55 131.321 111.606 93.5008 76.5607 62.0423 48.1898 36.5428 26.8117 18.6614 12.1837 7.30083 4.08343 2.78849 0.914993 350.578 1082.61 1177.83 1143.07 1076.89 1005.51 933.755 862.94 794.615 729.053 668.033 608.902 553.068 500.411 450.887 403.923 358.63 316.994 277.929 241.818 208.925 177.078 148.261 122.634 99.7099 79.1491 61.5905 46.0521 33.0885 22.2659 13.7422 8.28167 3.52697 182.49 602.911 815.45 814.352 763.177 709.183 658.642 610.761 565.668 523.045 482.551 444.496 407.994 372.996 339.658 308.095 278.463 249.902 223.475 198.499 174.979 153.203 133.538 115.044 97.5605 81.8485 67.5107 54.2383 42.2013 31.1502 21.1564 12.1297 4.43201 77.8727 339.611 518.108 540.633 509.113 472.28 440.263 412.653 387.367 363.739 341.44 320.096 299.564 279.435 259.867 241.471 223.332 205.799 188.643 172.36 156.49 141.274 126.826 112.655 98.916 85.7584 72.9089 60.2926 48.6087 36.9857 25.9547 14.9682 4.8851 69.521 270.458 433.488 452.766 424.875 393.033 366.935 345.582 327.515 310.902 295.182 280.127 265.12 250.014 235.512 221.372 207.194 193.473 179.536 165.829 152.429 139.432 126.388 113.48 100.598 87.9526 75.4928 63.0583 51.1277 39.4089 27.516 16.0146 5.03528 160.364 423.021 593.964 609.408 572.183 529.222 490.744 457.566 427.488 399.753 373.068 347.492 323.674 300.806 278.367 257.209 236.674 216.988 198.197 180.221 163.151 146.608 130.897 115.86 101.439 87.5659 74.4919 61.698 49.2155 37.2997 26.1048 16.0553 5.32665 306.344 705.092 896.002 901.131 847.533 786.824 728.133 674.332 623.662 575.699 530.393 486.737 445.117 406.831 369.265 333.67 300.751 269.619 240.526 213.045 187.452 163.787 141.818 120.757 102.096 85.6556 69.837 56.3737 43.6176 31.7567 21.6139 13.5683 5.1139 571.082 1084.75 1250.6 1231.47 1162.27 1082.77 1004.04 927.871 855.131 786.628 720.429 656.859 597.515 540.625 487.155 435.213 388.104 342.855 300.465 261.068 224.419 190.793 160.086 132.037 107.078 84.6212 65.1337 48.5765 35.2149 23.6463 14.6972 9.41071 3.95662 258.992 700.363 730.787 720.928 686.488 643.774 598.211 553.483 510.006 468.49 429.265 390.52 354.699 320.897 288.441 257.764 228.806 202.072 176.405 152.539 130.502 110.32 91.561 74.7363 60.0507 46.186 34.5691 23.9922 16.3165 10.1339 5.79359 3.30908 1.95672 471.17 713.192 658.429 633.078 603.401 568.626 531.264 493.246 456.066 419.75 383.793 349.19 316.914 285.655 256.165 228.141 202.005 177.097 154.238 132.681 112.914 94.8543 78.2135 63.1607 50.0572 38.1824 28.6928 20.1244 13.2545 7.6967 4.30961 2.93786 0.896115 428.389 1096.41 1150.77 1101.71 1040.87 979.623 917.199 854.852 792.162 730.578 671.437 613.156 558.154 505.794 456.134 408.593 364.741 322.448 283.674 247.552 213.599 182.515 153.87 127.412 104.437 83.6425 65.6865 49.1739 35.7299 24.2887 14.9219 9.07141 3.49073 242.777 618.989 781.305 772.643 730.418 688.964 649.494 610.065 570.968 532.023 493.099 455.712 419.787 384.441 351.478 319.313 289.528 260.605 233.846 208.923 185.197 162.997 142.294 123.29 105.095 88.5471 73.5275 59.2774 46.3065 34.4254 23.5537 13.7732 4.74221 103.633 321.455 468.28 498.381 483.116 462.771 442.99 423.194 403.292 382.283 360.985 340.248 318.948 297.772 277.971 258.338 239.758 221.56 203.579 186.24 169.515 153.273 137.881 123.008 107.843 93.5568 79.6773 66.3733 53.5694 41.0121 28.7637 16.4798 5.17204 89.2559 227.352 370.961 407.343 401.624 388.725 375.643 362.533 348.767 333.858 318.79 303.134 287.473 271.619 256.01 240.92 225.852 210.85 195.975 181.262 166.695 152.424 138.155 124.058 109.942 96.3509 82.6766 69.1156 55.832 43.334 31.1651 18.1673 5.39291 215.251 411.997 544.373 566.15 546.593 519.974 494.039 468.249 442.656 416.752 390.929 365.843 341.438 318.109 295.477 273.33 252.166 231.908 212.488 193.688 175.509 158.451 141.747 125.775 110.318 95.6984 81.2811 67.5272 54.1274 41.2669 28.9736 17.4283 5.77292 386.286 727.34 862.104 859.534 817.339 769.418 722.142 675.671 629.775 584.101 540.113 497.041 456.156 417.556 380.206 344.129 310.811 279.273 249.645 222.174 196.177 172.399 149.594 128.707 109.376 91.82 75.6649 61.0647 48.1143 35.4169 24.0918 15.0362 5.63497 645.118 1115.52 1227.61 1193.32 1128.62 1059.88 991.722 923.163 854.828 788.016 724.337 661.938 601.868 545.68 491.749 440.057 392.545 347.118 305.162 265.808 228.522 195.344 164.361 136.267 111.417 88.4262 68.9918 51.8414 38.0159 26.1104 16.7942 10.4418 4.5787 266.052 717.939 738.143 712.389 674.112 632.644 590.916 549.333 508.633 467.982 429.425 391.791 355.568 322.27 289.605 259.156 230.008 203.223 177.351 153.871 131.174 111.139 92.5096 75.747 60.9402 46.9631 34.9755 25.036 17.1692 10.8993 6.54006 3.80344 2.11343 140.361 251.415 211.693 205.25 198.578 189.558 178.478 166.49 154.802 142.734 130.829 119.282 108.389 97.8876 87.6561 78.1461 69.4937 60.992 53.1592 45.8671 39.0931 33.0425 27.2716 22.003 17.5059 13.4524 10.0241 7.47834 4.96464 2.9951 1.51117 0.840705 0.363729 192.109 626.689 583.773 558.886 534.452 509.573 481.977 451.964 421.139 389.471 358.598 328.208 299.29 271.114 244.417 219.004 195.682 173.003 152.051 132.752 114.203 97.7821 82.6351 68.3628 55.6845 44.6469 35.0841 26.71 19.0998 12.9645 7.76456 4.62346 2.24386 115.799 373.566 399.472 392.851 376.658 361.754 346.145 328.209 309.059 288.492 267.957 247.822 228.481 209.125 191.236 173.443 157.074 141.807 126.561 113.103 100.182 87.8778 76.8572 66.2419 56.9964 47.6235 39.8474 32.0983 25.0259 18.6975 12.7637 7.60252 3.4266 54.0155 195.15 227.535 248.796 248.258 243.782 237.705 229.834 220.599 209.874 198.402 186.694 175.097 163.452 152.135 141.204 130.637 120.647 110.612 101.096 92.1818 83.2106 74.7826 66.4597 58.8048 50.8444 43.4777 36.2925 29.4659 22.6666 16.3119 10.0149 4.0285 35.7813 98.5038 145.114 179.688 189.5 191.906 190.92 187.744 182.638 176.29 168.952 161.141 153.154 144.841 136.755 128.899 121.016 113.187 105.478 97.6042 89.9697 82.3833 74.9618 67.5236 59.9092 52.6371 45.4521 38.2553 31.1163 24.0498 17.9543 11.0145 4.06504 82.6409 176.628 214.016 241.049 245.503 241.672 235.151 226.802 217.196 206.597 195.4 183.895 172.601 161.652 151.355 140.937 130.696 120.707 111.436 102.34 93.326 84.6634 76.4602 68.3376 60.2284 52.6248 45.1392 37.8391 30.655 23.8015 17.3905 10.8489 4.29365 150.247 348.841 372.321 382.539 373.294 358.225 341.212 323.179 303.732 283.866 263.531 243.593 224.74 206.606 189.596 172.914 156.983 141.614 127.698 114.464 102.211 90.365 79.6412 69.2582 59.5866 50.8004 42.6726 35.0398 28.0961 21.3113 14.7086 9.05065 4.10214 239.392 554.2 556.529 546.317 523.719 498.818 471.565 442.819 412.706 381.85 351.902 322.846 294.294 267.66 242.094 217.424 195.023 172.981 152.995 133.921 116.549 100.272 85.6298 71.6739 59.4896 48.4326 38.4663 29.9464 22.7459 16.4481 10.6968 6.44387 3.46027 149.457 510.647 473.07 452.474 431.467 410.215 387.007 362.191 336.837 310.804 285.687 261.172 237.636 215.446 193.801 173.571 154.363 136.31 119.279 103.847 88.9659 75.4046 63.2205 52.0134 42.2023 33.2028 24.9819 18.4173 12.7388 8.42435 4.98652 3.01537 1.7586 103.229 193.523 377.813 137.852 160.249 326.34 222.456 386.228 201.571 116.844 150.117 108.38 89.8442 230.294 119.506 199.063 157.74 268.974 175.679 185.469 323.002 97.9128 126.994 267.872 231.144 332.382 178.701 113.855 302.894 163.124 106 208.51 144.595 173.727 305.415 94.2527 121.003 253.454 217.383 312.984 171.731 108.652 284.64 155.756 103.696 199.676 139.409 165.446 294.124 93.1438 118.045 244.895 204.277 297.147 163.153 105.001 263.874 149.152 102.655 193.417 135.76 158.904 281.593 90.5963 114.844 235.176 192.255 280.46 153.694 100.234 248.087 141.386 99.3357 185.147 130.557 151.871 267.149 87.0044 110.908 224.308 179.991 262.698 143.677 94.3327 233.356 132.7 94.5406 175.332 124.184 143.333 251.285 82.1415 105.007 210.521 168.069 244.516 133.589 88.3528 218.791 123.674 88.9419 164.286 116.488 134.406 234.248 76.9179 98.7082 197.064 155.503 226.484 123.361 81.9859 203.518 114.751 83.0278 153.072 108.659 125.052 217.018 71.242 91.9788 182.231 143.793 208.616 113.715 75.7323 188.888 105.605 76.636 140.983 100.054 115.343 199.697 65.7378 84.8684 168.185 131.995 191.258 104.151 69.6121 173.662 96.7244 70.6738 129.73 92.382 106.133 183.048 60.4311 78.3769 154.124 120.434 174.317 95.0344 63.5606 159.15 88.1624 64.615 118.538 84.2309 96.8721 166.539 54.835 71.5955 140.359 109.71 158.423 86.3941 57.7804 145.535 79.9082 58.7604 107.556 76.5694 88.0703 151.088 49.8723 65.0147 127.42 99.3543 143.037 78.1084 52.4192 132.037 72.1387 53.3703 97.3731 69.3147 79.7708 135.98 44.9307 59.0609 115.189 89.2102 128.258 70.1249 47.0462 119.106 64.5185 47.8968 87.3449 62.3033 71.6816 121.788 40.1126 52.9879 103.035 80.0071 115.175 62.6319 42.2276 107.252 57.6097 42.8633 78.2128 55.8244 64.5057 108.688 35.9122 47.7821 92.1357 71.1748 101.852 55.4354 37.4265 95.8639 51.0367 38.1174 69.4 49.5021 57.1294 95.9652 31.8658 42.2281 81.5458 62.8385 89.3949 48.999 32.8168 85.1226 44.9248 33.5439 61.1915 43.634 50.3962 84.2547 27.7161 37.4213 71.6495 55.1381 78.1516 42.8087 28.891 75.1508 38.8843 29.2398 53.2452 38.0941 44.3232 73.2127 24.2579 32.7283 62.7853 47.6546 67.7281 36.9358 24.9494 65.5102 33.3452 25.4741 46.2909 33.2229 38.5323 62.711 20.7778 28.6839 54.261 40.8591 57.3093 31.4768 21.1165 57.0681 28.4805 21.6171 39.3438 28.1833 33.1985 53.416 17.7758 24.7396 46.6275 34.6059 48.3965 26.513 17.9134 48.7576 23.8545 18.3692 33.4397 24.2361 28.4632 44.9751 15.036 21.0912 39.3529 29.0661 40.311 22.2508 14.8687 41.6386 19.7157 15.2538 27.7335 20.1137 23.7333 37.2469 12.44 17.7859 32.6209 23.8493 33.1237 18.0342 12.3271 34.7745 15.9857 12.6712 22.815 16.4738 19.5109 29.7498 9.9622 14.6969 26.7396 19.3796 26.042 14.536 9.64383 28.5703 12.4994 9.96156 18.0255 13.143 15.9694 23.4253 7.78465 12.1607 21.5841 14.8587 20.2187 10.8838 7.57667 23.0879 9.691 7.74443 14.1693 10.3922 12.8188 18.1842 6.12784 9.89532 17.114 11.6272 15.6842 8.52087 5.63149 18.445 7.17265 5.84546 10.7671 8.24903 10.2087 14.0612 4.94415 7.78566 13.4144 8.61976 10.9775 5.7678 4.19533 14.2589 5.0539 4.48492 8.00247 5.98957 7.48711 9.45807 3.23851 5.69823 9.49043 5.77576 7.40137 3.82345 2.70201 10.51 3.36759 2.89953 5.30479 4.17082 5.37146 6.41428 2.22225 4.20093 6.44949 4.00035 4.58979 2.4643 1.78676 7.49609 1.92716 1.77539 3.29711 2.7022 3.57421 3.90392 1.47802 2.76605 4.15355 2.06395 2.66462 1.16809 0.904184 4.62156 1.16018 1.04996 1.85413 1.55945 2.01098 1.96324 0.666181 1.61174 2.14909 1.43958 1.38723 0.777591 0.492883 2.90281 0.631346 0.293574 0.764205 0.662037 1.14612 1.51036 0.487629 0.858261 0.792142 0.906645 0.797204 0.761685 0.552102 1.58185 0.264288 0.510553 0.510553 0.246265 66.492 120.485 231.892 85.7662 99.6949 199.272 120.62 234.639 64.5363 55.8318 135.713 69.311 170.957 108.439 113.85 225.845 67.495 76.6243 176.386 165.576 242.871 192.384 151.879 101.767 116.014 219.054 67.1238 80.2729 173.638 158.811 228.112 194.372 144.583 99.3034 113.484 210.39 66.5206 80.5883 170.216 147.023 214.362 182.633 139.674 97.2063 110.859 203.14 65.2239 79.9103 165.073 138.618 202.574 173.407 134.297 94.1253 106.827 194.808 63.4451 77.8213 159.209 130.509 191.561 163.728 128.897 90.4402 102.026 184.663 60.5208 74.747 151.569 122.643 179.131 154.921 121.573 86.042 96.923 173.777 57.1514 71.2363 143.313 114.206 167.55 145.513 114.226 80.7003 91.1602 162.376 53.5476 67.2394 134.34 106.592 155.111 136.41 106.197 75.147 84.9863 150.213 49.4638 62.6718 124.686 98.1348 143.418 126.479 98.2616 69.614 78.8527 138.925 46.0437 58.4728 115.899 90.7176 131.693 117.346 90.4784 64.2732 72.9623 127.385 42.2109 53.9822 107.041 82.9808 120.726 108.536 83.1729 59.2183 67.3802 116.427 38.5135 49.8698 97.9379 75.7149 109.494 99.7141 75.4483 53.7815 61.5731 105.933 35.171 45.691 89.7554 68.616 99.386 91.0933 68.5736 48.9334 56.1171 95.7458 31.9241 41.9031 81.8477 62.1171 89.6388 82.8905 61.7491 44.3892 51.3182 86.3938 28.8387 38.2649 74.3294 55.8463 80.5072 75.3494 55.6639 40.0124 46.5282 77.092 25.6707 34.7522 66.8727 49.8594 71.3074 68.0908 49.3116 35.5848 41.7007 68.6899 22.9783 31.2374 60.1991 44.1478 63.3694 60.9489 43.9326 31.9569 37.6519 60.8193 20.3628 28.3828 53.9026 38.9558 55.9532 54.6263 38.8356 28.3029 33.7819 53.8209 18.1463 25.4305 48.0907 34.4339 49.0065 48.8047 34.1807 24.8522 29.9381 46.9856 15.6957 22.7833 42.5642 29.9853 42.3834 43.1568 29.6399 21.7339 26.3947 40.4769 13.5736 19.8791 37.2837 25.8907 36.3168 37.8858 25.2657 18.8227 23.3022 34.7566 11.9264 17.6426 32.462 22.0595 30.7585 32.9932 21.5041 16.2514 19.9805 29.3095 10.1142 15.2426 27.9109 18.4182 25.8033 28.4544 18.1975 13.7511 17.1241 24.8116 8.52226 13.068 23.4791 15.5823 21.7175 24.3432 15.2691 11.6549 14.4275 20.5815 7.26178 11.1862 19.9335 12.687 17.2952 20.3694 12.5232 9.64067 11.9372 16.396 5.68063 8.99821 15.9845 10.0246 13.6222 16.7454 9.80201 7.50427 9.5517 12.8417 4.38368 7.18967 12.3369 7.79406 10.3866 13.413 7.44756 5.71898 7.20359 9.54129 3.3528 5.52559 9.3897 5.87579 7.50378 10.2123 5.38684 4.26733 5.35589 6.57973 2.29957 4.05006 6.34171 3.91671 4.94557 7.40471 3.59524 2.69145 3.43472 4.13124 1.3725 2.57638 3.7657 2.5779 2.69136 4.83155 1.99408 1.47116 1.81199 2.20473 0.672116 1.32289 1.16462 1.42564 0.97322 2.59027 0.616897 0.312384 36.9988 60.2698 134.738 49.4274 49.0737 105.381 66.722 137.169 28.6852 31.318 66.3706 36.0536 99.1754 59.3549 57.0515 127.117 36.4597 35.9186 97.9938 97.1232 149.498 105.303 90.881 59.4009 68.1694 137.668 41.6698 46.3625 107.62 101.825 148.086 118.352 93.4285 63.4275 71.7837 138.077 43.6175 51.0037 110.674 96.8122 141.931 116.198 92.8214 63.9946 72.2905 136.326 43.9191 52.4608 111.016 92.5009 135.866 112.488 91.3041 63.7158 71.8883 132.575 43.2555 52.8227 109.187 87.7272 129.985 108.605 88.3701 62.109 70.1745 127.803 42.2239 52.1945 106.558 83.7117 123.684 104.635 85.0729 60.2559 68.2612 122.272 40.5443 50.8854 102.621 79.2766 116.844 100.487 80.9837 57.3361 65.4035 115.952 38.5933 48.9252 98.3677 74.6801 109.915 95.7545 76.7086 54.5972 62.5024 109.222 36.3662 46.7097 93.0486 69.8607 102.789 91.0045 71.9338 51.3593 59.1447 102.232 34.2678 44.4369 88.0686 65.3773 96.0531 85.7422 67.1304 48.202 55.7577 95.3376 31.9472 41.9616 82.7283 61.0982 89.4852 80.7635 62.5475 44.9965 52.4532 88.707 29.7689 39.565 77.5045 56.4903 82.6431 75.8226 57.7616 41.7705 49.0465 81.7482 27.5513 37.0743 72.5241 52.232 76.5973 70.81 53.6849 38.8188 46.0104 75.8529 25.5042 34.7475 67.5396 48.3408 70.2654 66.4322 49.3301 35.9548 42.7571 69.7751 23.495 32.3275 62.8166 44.4534 64.5737 61.681 45.3411 33.2077 39.901 64.0121 21.5813 30.1515 58.0661 40.4722 58.7813 57.2216 41.4257 30.4395 36.7675 58.2125 19.7524 27.9428 53.4523 36.8847 53.5619 52.6494 37.6415 27.677 33.7623 53.0646 17.9873 25.6468 49.0533 33.4601 48.4396 48.3821 34.2299 25.3747 31.0391 48.022 16.3331 23.5833 44.9995 30.1107 43.6233 44.339 31.0507 23.2161 28.6567 43.8075 14.9551 21.6904 40.857 27.2869 39.4444 40.5376 27.9585 20.8157 25.6708 38.7418 13.2101 19.5899 36.5818 24.3311 35.0152 36.4885 24.7512 18.5891 23.2339 34.8136 11.8883 17.7909 32.8741 21.9058 30.9368 32.9739 21.7994 16.3707 20.5183 30.1812 10.3689 15.6331 28.7927 18.9876 27.0379 28.9696 19.0076 14.3424 17.9668 26.3276 9.07553 13.6584 25.0633 16.4203 22.8662 25.5126 16.3452 12.4315 15.4439 22.3739 7.80192 11.7838 21.3873 13.82 19.3571 21.855 13.9088 10.573 13.0921 18.6778 6.39683 10.0656 17.6548 11.737 16.0997 18.5741 11.2697 8.54304 10.715 15.2147 5.21515 8.27286 14.295 9.53145 12.797 15.1374 9.09093 6.94383 8.54585 11.8977 4.12814 6.46413 11.0156 7.39043 9.87875 11.9225 6.9324 5.2038 6.38853 8.85063 3.00246 4.87091 7.75988 5.71635 6.76332 9.02389 4.81712 3.63409 4.22783 5.81066 2.00077 3.26085 4.50529 3.45149 4.15028 5.64083 2.893 1.91711 1.87386 2.95817 0.928209 1.40436 1.35338 1.93749 1.39675 2.89134 0.963161 0.470654 16.7823 31.2702 57.5424 20.9948 25.4975 63.8284 23.5883 69.3408 25.0865 13.2766 35.2838 10.696 45.8267 25.693 36.0498 58.5636 14.6866 24.8403 69.8474 52.8926 87.502 74.0411 47.4933 32.7891 53.266 81.8258 25.023 38.6135 86.7582 62.4466 93.9098 91.61 57.4531 41.6071 59.6467 90.4412 29.3245 44.4995 92.9891 62.9021 93.8993 93.9699 61.3504 45.1309 61.7099 93.2669 31.0069 46.6436 94.8699 61.7673 92.5573 92.6569 62.7861 46.4542 62.0947 94.116 31.699 47.4226 94.6621 60.5752 90.7799 91.0712 63.017 46.691 61.3965 93.1408 31.6254 46.9981 93.1845 59.1095 88.4283 88.8169 62.1522 46.2787 60.2172 91.2718 31.0848 46.0765 90.6418 57.4058 85.6617 86.3285 60.5539 45.0759 58.2995 88.4001 30.1201 44.7118 87.3362 55.3988 82.6015 83.2802 58.5461 43.5638 56.1059 85.1189 28.9995 42.9919 83.6834 53.287 79.0895 79.9074 56.0778 41.8266 53.6657 81.2431 27.7234 41.1498 79.7231 50.6885 75.2536 76.4098 53.4684 39.8942 51.1302 77.2856 26.4305 39.2012 75.8161 48.2165 71.4505 72.6891 50.7673 37.9587 48.5619 73.2938 25.0842 37.2174 71.8204 45.6812 67.5828 69.0193 48.074 36.0712 46.0992 69.3145 23.7606 35.3286 67.8336 43.2729 63.8575 65.3259 45.3282 34.0379 43.4304 65.4164 22.4196 33.2768 63.8216 40.859 60.0166 61.7164 42.721 32.1333 40.9137 61.2981 21.018 31.2853 59.7821 38.2522 56.1613 57.9764 39.9191 30.0924 38.3365 57.5252 19.7454 29.3768 55.9541 35.8831 52.6601 54.3131 37.4202 28.147 35.8224 53.565 18.3869 27.4392 51.9725 33.4403 48.8 50.8402 34.6666 26.1672 33.2261 49.6464 17.0849 25.5012 48.1843 30.9875 45.2101 47.0465 32.149 24.2336 30.7243 45.8488 15.6948 23.4928 44.3077 28.7346 41.6616 43.6125 29.5292 22.3184 28.3239 42.2089 14.4893 21.6623 40.6438 26.3092 38.1469 39.9974 27.0826 20.4617 25.8033 38.4025 13.2001 19.6914 36.868 23.9506 34.4883 36.5551 24.5634 18.5352 23.3359 34.7289 11.9005 17.7667 33.1483 21.6304 31.1157 33.0511 22.1501 16.7232 20.9001 31.0688 10.6737 15.9221 29.3888 19.3759 27.6126 29.5648 19.5029 14.719 18.3758 27.1945 9.33151 14.0228 25.7783 17.0495 24.1153 26.0205 17.104 12.8598 15.9951 23.617 8.08348 12.0835 22.046 14.7283 20.7147 22.6135 14.7191 11.082 13.6038 20.1781 6.92174 10.3094 18.6236 12.638 17.3041 19.3674 12.3856 9.32873 11.2846 16.6478 5.75893 8.5286 15.1614 10.2589 13.998 15.8688 10.1134 7.60769 8.97389 13.1501 4.4924 6.75669 11.639 8.1016 10.8215 12.6632 7.74409 5.72444 6.7477 9.94305 3.35022 5.05005 8.29293 6.05886 7.64911 9.51774 5.6345 4.04132 4.47955 6.55705 2.19725 3.46023 4.93328 3.93363 4.35876 6.16925 3.26282 2.25798 2.11756 2.98968 1.03019 1.51916 1.49689 1.68695 1.30208 2.89244 0.946808 0.521635 31.9904 75.2921 65.7921 27.7195 64.0235 121.467 32.623 75.5675 57.0252 23.5848 85.7684 26.4325 48.4448 40.6128 78.0026 78.091 23.7922 57.0753 120.569 62.8635 99.6746 128.059 55.4107 46.6487 87.0621 97.4802 31.7463 65.1186 129.408 72.0257 106.426 139.04 64.3777 52.9495 88.812 103.987 35.16 67.5468 130.729 71.9514 105.742 136.054 67.6855 55.0388 87.5095 105.041 35.9516 67.0763 128.28 69.8877 103.107 130.721 68.3129 55.0443 84.9473 104.239 35.9225 65.3703 124.374 67.7638 99.9718 124.89 67.5891 54.248 81.7802 101.795 35.2236 63.0306 119.389 65.3074 96.479 119.066 65.9624 52.6377 78.0731 98.6219 34.0938 60.2059 113.696 62.8955 92.621 113.108 63.6779 50.5974 74.0751 94.7985 32.8888 57.1019 107.672 60.1131 88.4719 106.838 61.2409 48.4709 69.9202 90.5234 31.3321 53.8365 101.473 57.1893 84.0623 100.472 58.3737 45.9471 65.7717 85.9619 29.7414 50.6726 95.1983 54.2771 79.7037 94.4155 55.3879 43.4819 61.468 81.3622 28.1647 47.4385 88.8177 51.3297 75.2855 88.2317 52.4688 41.0002 57.2453 76.8738 26.5724 44.0899 82.9994 48.4667 70.9436 82.2171 49.5557 38.6176 53.5195 72.478 25.0274 41.052 77.2768 45.5344 66.5785 76.7133 46.6729 36.2359 49.6791 67.9798 23.4824 38.0193 71.659 42.7385 62.412 71.0876 43.7625 33.8904 45.9488 63.5872 21.9014 35.2498 66.0947 39.9326 58.2994 65.7606 40.8671 31.481 42.3234 59.2622 20.4183 32.4555 60.943 37.2276 54.2497 60.5768 38.2072 29.3857 39.0537 55.2553 19.0041 29.8367 55.9206 34.6088 50.3154 55.7994 35.4461 27.1054 35.6735 50.9727 17.52 27.3274 50.9582 31.9657 46.2914 50.8945 32.7182 24.9564 32.4587 46.8987 16.1061 24.7741 46.4775 29.3737 42.6234 46.2834 30.088 22.8873 29.5105 43.046 14.7505 22.5374 41.8829 26.9543 38.8452 42.0199 27.4794 20.8182 26.4432 39.0294 13.3814 20.214 37.4556 24.4009 35.0829 37.7018 24.8347 18.793 23.6899 35.2011 12.057 18.0397 33.4212 22.0396 31.5519 33.6801 22.3352 16.8574 21.007 31.4379 10.7921 15.9735 29.4798 19.6083 27.8945 29.719 19.792 14.8258 18.2941 27.5963 9.39607 13.8335 25.4035 17.2873 24.432 25.9892 17.3605 12.9801 15.7754 23.9592 8.15473 11.9922 21.7637 14.9559 20.8666 22.2646 14.8131 11.0633 13.2868 20.2531 6.91838 9.98282 17.9878 12.6011 17.5537 18.8065 12.438 9.22075 10.8219 16.7348 5.72862 8.13527 14.5055 10.429 14.0981 15.3662 10.0739 7.44286 8.66402 13.2246 4.55423 6.56178 11.2249 8.21632 10.8119 12.086 7.78082 5.65871 6.24173 9.86666 3.32687 4.67153 7.90766 6.07547 7.71419 8.77909 5.58672 3.96692 4.25516 6.62871 2.3036 3.06774 4.9474 3.95841 4.5797 5.97053 3.3989 2.28072 2.01351 3.01495 1.01946 1.46039 1.4714 1.88243 1.41629 2.95345 1.01061 0.543902 60.7215 138.828 149.78 59.437 118.015 219.621 80.3736 156.269 100.502 47.041 161.803 58.4672 106.519 83.7749 138.071 157.681 50.0761 100.518 203.153 114.914 173.213 217.91 104.593 83.8422 138.903 165.806 54.0826 102.631 201.92 118.904 172.219 219.381 107.103 85.7425 135.58 164.629 55.0356 101.925 196.574 114.015 165.11 208.55 105.613 84.5219 130.419 159.742 54.0445 98.8847 188.652 108.193 156.984 196.755 102.426 81.9699 124.565 153.5 52.2956 94.9072 179.777 102.159 148.57 185.542 98.209 78.5921 117.967 146.378 50.0846 90.1478 169.701 96.5031 140.232 174.408 93.451 74.6973 111.04 138.624 47.5448 84.7679 159.295 90.7551 131.659 163.264 88.2189 70.169 103.613 130.164 44.5791 79.1058 147.974 85.0729 123.061 152.102 82.6974 65.6179 96.0525 121.553 41.6197 73.5256 137.172 79.0361 114.385 140.5 77.1104 61.0673 88.869 113.429 38.9989 67.9946 126.792 73.4488 106.32 129.758 72.0461 56.7764 81.7234 105.259 36.1577 62.4509 116.67 68.0226 98.3421 119.358 66.8818 52.7577 75.1349 97.2267 33.3736 57.2168 106.662 62.774 90.4292 109.59 61.562 48.3652 68.5438 89.7092 30.7627 52.3986 97.2164 57.8219 83.4544 99.7667 56.7706 44.3756 62.1545 82.3838 28.1946 47.3375 88.2051 53.1441 76.478 90.7728 52.0925 40.4324 56.3552 75.4314 25.8174 42.9328 79.8967 48.5212 69.6372 82.2586 47.7407 37.0462 50.989 68.8656 23.6309 38.7262 72.0266 44.1599 63.2966 73.9772 43.5661 33.6767 45.6378 62.6151 21.4183 34.7965 64.5268 40.0177 57.3732 66.4236 39.6113 30.4359 40.9003 56.7418 19.3951 30.9796 57.6286 36.1525 51.7351 59.405 35.778 27.3933 36.2261 50.8419 17.3689 27.4374 50.7814 32.4845 46.3809 52.6126 32.1709 24.3756 31.8907 45.7291 15.603 24.2289 44.7852 29.047 41.2748 46.212 28.8633 21.943 27.9884 40.6843 13.9828 21.2635 39.2287 25.6824 36.3891 40.272 25.543 19.4542 24.551 35.9426 12.3353 18.5104 33.8784 22.5695 32.0148 35.0245 22.5192 16.8971 20.8728 31.3946 10.7085 15.731 28.9476 19.7152 27.8061 29.9165 19.6595 14.6761 17.8627 27.1902 9.24379 13.3395 24.2083 16.9989 23.7381 25.4821 16.7891 12.4427 14.6604 23.0247 7.87777 11.0941 20.213 14.2979 19.8872 20.9604 14.3158 10.5313 12.219 19.2224 6.52051 9.17117 16.3304 11.9802 16.4132 17.284 11.6734 8.55421 9.76371 15.4737 5.26359 7.34511 12.8775 9.5885 13.0033 13.671 9.29231 6.7581 7.47957 12.2473 4.14048 5.61224 9.63333 7.49205 9.90677 10.416 7.19047 5.01064 5.19615 8.68659 2.92065 3.78584 6.30804 5.27402 6.78577 7.3881 4.88287 3.31946 3.16566 5.65641 1.82996 2.3582 3.80996 3.59208 4.15671 4.67113 3.0267 1.95151 1.88718 3.01084 1.0155 1.4178 1.50337 1.92933 1.48091 2.66127 0.984839 0.532894 96.7521 218.151 254.547 98.6498 183.046 331.857 142.179 254.54 164.561 77.7907 265.744 105.811 176.681 134.122 203.859 252.472 80.0727 147.765 292.071 179.77 263.112 318.983 162.973 126.1 194.378 247.524 79.9313 143.348 281.18 176.082 252.916 306.373 158.801 123.676 187.246 239.148 79.0583 140.3 271.726 165.903 239.587 288.332 153.692 120.53 179.724 229.542 76.8426 135.604 259.083 155.867 225.75 271.825 146.71 115.374 170.293 218.078 73.6131 129.208 245.061 146.407 212.527 255.197 139.304 109.383 160.181 205.808 69.7411 121.584 229.972 137.36 198.476 238.978 131.099 103.001 149.55 192.625 65.2463 113.624 213.854 127.897 184.625 222.351 122.391 95.9808 138.682 179.445 60.8336 105.166 197.876 118.729 170.944 205.498 113.538 89.0387 128.106 165.815 56.3686 97.3453 182.412 109.208 157.344 189.31 105 82.2437 117.571 152.817 51.9214 89.1798 166.569 100.544 144.196 173.704 96.2493 75.1302 106.922 139.602 47.4019 81.1131 151.684 91.7316 131.602 157.805 88.1013 68.8076 97.3706 127.486 43.3005 73.8698 137.503 83.5757 119.768 143.69 80.0835 62.2036 87.758 115.682 39.2633 66.4355 123.824 75.9561 108.379 129.85 72.8193 56.5862 79.006 104.366 35.4036 59.8461 110.932 68.2629 97.3562 116.633 65.3277 50.6954 70.6199 94.0634 31.9558 53.6265 99.3314 61.4839 87.6309 104.214 58.9365 45.6983 63.1056 84.3422 28.5783 47.779 88.1263 54.9134 77.8948 92.7076 52.6143 40.5918 55.6432 75.012 25.532 42.1259 77.2885 48.6414 68.8023 81.7815 46.6415 35.8839 48.523 66.1579 22.4303 36.6762 67.3214 43.0588 60.8045 71.2962 41.1428 31.382 42.1119 58.0751 19.6842 31.7979 58.0654 37.6852 52.9011 61.8177 36.0026 27.4639 36.1981 50.6611 17.2119 27.4134 49.9865 32.5888 45.8572 52.8821 31.3994 23.8303 30.8964 43.7071 14.8882 23.2794 42.1106 28.0188 39.0058 45.3425 26.824 20.2257 25.7704 37.2471 12.6071 19.4474 35.1179 23.7996 33.0481 37.5656 22.9395 17.1684 21.4856 31.3703 10.6302 16.0539 28.6361 19.8716 27.5588 31.0979 19.0243 14.2211 17.2159 26.1011 8.91269 13.0424 23.0563 16.5033 22.6156 24.7011 15.8049 11.6918 13.7456 21.2121 7.28513 10.2711 18.2704 13.1916 17.9841 19.7197 12.8446 9.45152 10.5938 17.2103 5.89428 7.76741 13.7591 10.6293 14.4923 14.8356 10.2958 7.44508 7.96697 13.3952 4.5406 6.04576 10.0006 8.25259 11.0515 11.2789 7.89258 5.50833 5.46426 9.89488 3.36236 4.06998 7.03726 6.09436 7.83457 7.82181 5.81514 3.97544 3.73178 6.77173 2.24285 2.65041 4.70793 4.15118 4.99844 5.16373 3.77816 2.57762 2.27636 4.13856 1.37938 1.46341 2.76144 2.41363 3.03394 3.25611 2.21858 1.58432 1.50131 2.50237 0.876368 0.97679 1.25535 1.5065 1.37469 1.90538 0.935198 0.447327 161.573 161.573 412.428 153.911 91.596 219.797 241.838 366.863 69.9768 137.117 204.987 200.748 253.366 188.913 126.598 351.367 112.66 60.7123 173.671 244.606 356.131 193.285 223.259 171.379 119.431 332.933 109.087 58.4202 167.679 233.74 337.065 183.602 213.946 166.171 115.504 320.626 106.527 56.9118 162.535 220.413 319.668 174.084 206.23 160.391 110.776 306.892 102.709 54.7685 155.68 208.171 301.659 165.06 196.4 152.853 104.912 290.167 97.6085 51.9423 147.535 195.31 282.598 155.299 185.58 144.496 98.8295 272.551 91.7679 48.9029 138.222 182.249 263.379 145.315 173.514 134.891 92.0266 253.902 85.683 45.5721 128.631 169.272 244.042 135.017 161.175 125.224 85.1133 234.64 79.1418 42.1653 118.689 156.018 224.421 124.664 148.615 115.096 78.1193 216.112 72.7621 38.5726 108.901 143.372 206.388 114.533 136.759 105.765 71.5757 197.768 66.6587 35.4365 99.7554 131.361 188.181 104.971 124.743 96.7124 65.4902 180.085 60.8092 32.3935 90.8177 119.148 170.551 95.5129 113.275 87.6777 59.2619 163.31 55.1835 29.2534 82.3723 108.171 154.544 86.5458 102.782 79.5242 53.5942 147.39 49.6228 26.4054 74.0098 97.5426 138.574 78.3041 92.1029 71.1037 47.8864 131.752 44.4012 23.4993 66.1074 87.1666 123.794 69.9569 82.4072 63.6398 42.738 117.657 39.7679 21.0318 58.9515 77.5472 110.113 62.2522 73.4841 56.5165 37.7803 104.302 35.0814 18.5967 51.9226 68.8391 97.1467 55.3019 64.6907 49.6097 33.125 91.4912 30.9497 16.2838 45.5161 60.1419 84.1903 48.3337 56.4273 43.3951 28.7292 79.3501 26.8776 14.1629 39.4311 52.048 73.181 41.5393 48.9062 37.4206 24.7058 68.4817 23.0917 12.1523 33.8963 44.9932 62.5104 36.0143 41.9212 31.9006 20.9613 58.1176 19.5759 10.1566 28.4938 37.8105 52.689 30.5104 35.5461 26.7938 17.3746 48.8159 16.4052 8.45667 23.9232 32.0543 43.9494 25.5419 29.7846 22.6099 14.6614 40.6628 13.7247 7.14344 19.7406 26.1761 35.8541 21.0779 24.298 18.4128 11.8315 32.9688 11.1938 5.81562 15.9025 21.2453 28.6842 16.8923 19.5867 14.5553 9.17715 25.9589 8.80115 4.46847 12.5092 16.5054 22.1412 13.2253 15.3374 11.3906 7.05795 19.9838 6.72229 3.34989 9.3941 12.6866 16.7068 10.1263 11.7814 8.51519 5.14279 14.8304 4.89271 2.47098 6.70185 9.13274 11.7485 7.29268 8.21794 5.87104 3.44931 10.4634 3.59674 1.64016 4.70924 6.40815 8.26881 4.89803 5.89013 4.06389 2.10731 6.58035 2.23945 0.994807 3.02062 4.03213 5.06153 2.99452 3.84935 2.52523 1.28059 4.16748 1.26942 0.499426 1.72949 2.52574 3.18527 1.89694 2.45704 1.43495 0.664957 2.37826 0.630039 0.204884 0.930123 1.57426 2.0319 1.136 1.414 1.08847 0.663316 1.77897 0.531999 0.363232 0.531999 1.10873 0.997838 0.789961 0.547748 0.168767 135.21 312.016 281.063 211.431 362.403 197.46 107.783 130.399 88.08 76.0048 203.309 109.885 182.923 247.259 204.108 347.219 300.113 227.049 340.324 173.623 119.333 304.075 173.964 229.751 196.078 336.252 282.971 223.465 327.979 174.124 117.088 298.421 166.626 218.791 180.164 315.276 263.184 212.146 309.787 167.884 111.044 277.629 156.657 206.049 167.676 295.193 246.021 198.761 289.346 157.827 104.193 258.286 146.498 193.217 156.458 275.554 229.406 184.723 268.749 146.666 97.1913 240.089 136.013 180.013 145.844 255.923 213.254 170.895 247.862 135.491 89.8852 222.667 125.156 166.415 135.027 235.769 196.911 156.817 227.944 124.218 82.7624 205.08 115.462 153.669 124.619 217.548 181.664 144.229 209.214 114.119 76.2126 188.641 105.875 141.335 114.604 199.322 166.742 131.934 191.231 104.255 69.5794 173.254 96.8465 129.426 104.733 182.264 151.925 120.76 174.392 95.1725 63.6673 158.582 88.2233 117.905 95.7753 165.738 138.58 109.518 157.945 86.2873 57.7592 144.333 79.7118 106.933 86.9792 149.941 125.579 98.973 142.522 77.9403 52.175 130.806 71.702 96.5203 78.4913 134.617 112.771 88.9424 127.917 70.0777 46.7146 117.955 64.1045 86.4873 70.5579 120.351 101.408 79.6741 113.66 62.5588 41.454 106.098 56.8584 77.1451 63.0295 107.227 90.0588 70.6861 101.102 55.4698 36.9214 94.5831 50.4936 68.3539 55.8964 94.8724 79.6126 62.5415 88.7633 48.7054 32.7255 83.6681 44.2673 60.1612 49.0645 82.5471 69.8895 54.3172 77.1309 42.467 28.3547 73.4388 38.4937 52.6016 43.0201 71.8882 60.8274 47.3541 66.6128 36.9043 24.4339 64.5264 32.8323 45.349 37.4215 61.7562 52.3773 40.4441 56.7445 31.2734 20.8797 55.7868 28.1681 38.5507 31.7845 52.0331 44.425 34.358 47.8642 26.5662 17.7173 47.4436 23.3592 32.3229 26.9521 43.6391 37.5614 28.526 39.5793 22.0261 14.7041 39.9154 19.2522 27.014 22.4967 35.6309 31.2269 23.2341 32.0564 17.6769 11.8654 33.4695 15.4988 21.9712 18.7192 29.1386 25.4506 18.7527 25.2542 14.0633 9.48075 27.3938 11.9976 17.3704 14.8323 21.8879 19.9339 14.3635 19.3587 10.7816 7.05039 21.871 9.20678 13.2778 11.8325 17.3716 15.9084 11.0453 14.6912 7.95682 5.46476 17.3861 7.01837 10.4605 9.29294 12.7768 11.7824 8.0704 10.2599 5.57568 3.75856 13.3551 4.51071 6.89127 6.77495 8.48992 8.60353 5.42173 6.70687 3.61447 2.44925 9.62505 2.98297 4.63312 4.88006 5.6576 5.79145 3.4847 4.37823 2.25136 1.51316 6.69525 1.67865 2.82078 2.98061 3.04507 3.39267 1.99778 2.10614 1.0741 0.765043 4.42573 0.850962 1.52306 2.16833 1.96491 2.3623 0.916086 1.11642 0.458733 0.42635 2.57796 0.804426 0.990001 1.1352 1.5444 0.687615 1.00832 0.775371 0.71776 0.56381 1.75459 0.228769 0.473871 75.6731 159.8 160.605 103.223 204.563 47.9617 42.0112 109.4 57.4658 141.773 130.659 253.547 204.433 167.48 254.313 197.059 170.614 133.977 247.478 198.883 166.453 245.278 206.123 162.401 125.006 229.293 184.111 155.649 227.088 194.928 150.322 116.747 213.841 172.15 144.302 210.548 180.756 140.272 109.205 199.822 161.16 134.18 195.548 168.012 131.226 102.185 186.545 150.546 124.452 181.423 156.279 122.268 95.3199 173.361 140.655 115.333 167.604 144.942 113.406 89.162 160.531 130.832 105.924 154.266 134.472 104.889 82.4476 147.72 120.89 97.4244 141.725 124.336 96.4873 76.2205 135.901 111.799 89.3043 129.528 114.552 88.3399 70.4804 124.61 103.104 81.7584 118.387 105.401 81.0501 64.8299 113.566 94.0429 74.1382 107.303 96.6005 73.3619 58.8405 102.772 85.833 67.3779 97.3589 87.7871 66.3878 53.7203 92.8361 77.9613 60.7694 87.6547 79.9904 59.9219 48.6722 83.2369 70.4134 54.4908 78.5303 72.4052 53.5404 44.0162 74.5253 63.3912 48.5773 69.454 65.322 47.6643 39.209 65.9727 56.9852 42.9216 61.4662 58.2492 42.2683 35.5283 58.072 50.4482 37.8109 54.2039 52.2605 36.9373 31.3988 51.0379 44.6756 33.1393 47.0917 46.1685 32.3472 27.5816 44.214 39.083 28.6696 40.6062 40.6021 27.776 24.2125 38.0813 34.2278 24.5907 34.4523 35.3247 23.8088 20.928 32.3254 29.6371 20.8093 29.1036 30.4657 20.2674 18.149 27.2835 25.3464 17.3967 24.3192 26.2243 16.761 15.7069 22.7397 21.6474 14.6431 19.892 22.5326 14.0048 13.1762 18.6308 17.6241 11.7275 15.9909 18.7837 11.1162 10.6083 14.4036 14.2729 9.19404 12.527 15.088 8.57583 8.56892 11.3249 11.0204 7.30841 9.69187 12.3345 6.62076 6.57645 8.54242 8.43791 5.46736 6.70077 9.34888 4.76481 4.7159 5.7957 5.3213 3.62961 4.2054 6.6659 2.90645 2.93605 3.70524 3.23399 2.182 2.86316 3.94462 1.82313 1.59259 2.15963 1.12663 1.50522 0.925816 2.30835 0.607875 36.252 85.8806 90.1565 54.1493 119.171 21.9036 21.5011 53.3247 28.011 82.2068 75.9792 152.427 124.645 102.111 162.083 119.705 107.042 84.3709 162.507 127.221 110.939 163.728 133.449 107.431 79.9812 152.535 120.034 104.685 152.23 126.615 100.41 75.3908 142.628 113.083 96.3915 140.601 117.646 94.1757 71.2013 133.829 107.363 89.4502 131.045 109.446 88.7455 68.0703 126.377 102.287 83.3899 122.667 102.91 83.568 64.715 118.784 96.9978 77.7561 114.188 97.1375 78.4878 61.1698 111.309 91.6198 72.8162 106.701 91.397 73.345 57.7911 103.742 86.2563 67.5722 99.1779 85.9252 68.2568 54.4926 96.6541 81.4056 62.7173 91.9999 80.6718 63.6862 51.4431 90.3755 76.4677 58.4312 85.5219 75.8336 59.2518 48.2145 83.3849 71.3985 53.9432 78.9574 70.9409 54.59 45.1991 77.0597 66.7055 49.582 72.4785 66.2947 50.4301 42.0495 71.0192 61.9861 45.6439 66.5461 61.7754 46.213 39.2063 64.9449 57.5515 41.7564 60.5423 57.1689 42.1548 36.3081 59.2857 52.9749 38.0029 55.3164 52.7991 38.4203 33.471 53.9423 48.8458 34.6105 50.1383 48.749 35.0938 30.7458 49.3459 44.5209 31.6336 45.4141 44.9463 31.5589 28.1459 44.0296 40.431 28.1153 40.5416 40.6971 28.0117 25.5823 39.3747 36.8177 25.1343 36.358 36.8071 25.2918 23.2124 35.2944 32.9393 22.5186 32.0767 33.4702 22.3282 20.8407 31.2268 29.5754 19.7795 28.0659 29.9315 19.7824 18.4055 27.5711 26.0456 17.4246 24.619 26.5221 17.3136 16.2315 23.8684 22.4198 15.0511 21.3445 23.0952 14.7229 13.897 20.1548 19.1487 12.7631 17.6188 19.9883 12.3251 11.8562 16.71 15.9828 10.4463 14.6126 16.7001 10.3175 9.65232 13.8296 12.7753 8.71189 11.6601 13.831 8.11118 7.55811 10.7349 9.97866 6.68794 8.85912 10.8223 6.3642 5.90517 8.15693 7.04476 4.94992 5.98984 8.15339 4.24052 3.46255 4.8039 3.88326 2.97621 3.44359 5.06632 2.56899 1.89 2.81718 1.38122 1.6494 1.21784 2.51118 0.873574 19.1198 34.2314 63.7284 23.5177 70.6006 17.8587 7.81193 32.5956 9.94512 44.4994 58.249 90.6181 98.1022 65.1405 106.212 95.5946 65.7418 68.1183 104.82 103.096 73.9454 108.825 109.478 68.6909 66.0054 100.939 98.7599 69.6692 101.407 103.754 65.9226 62.5721 95.6954 93.9063 64.4915 94.3143 96.1153 62.6991 59.7331 91.2021 90.0005 60.0848 88.7056 89.8242 60.1874 57.3149 87.576 86.4564 56.8215 84.1833 84.9529 57.9255 55.1564 84.1288 82.9789 54.0629 80.3021 80.8796 55.596 52.9016 80.7344 79.4816 51.628 76.5738 77.1846 53.3074 50.6669 77.1405 75.8034 49.1375 72.7756 73.6717 50.8323 48.3909 73.4685 72.2344 46.6772 69.1901 70.0272 48.3431 46.1221 69.7911 68.4573 44.3692 65.529 66.7445 45.7794 43.7077 66.1015 64.7566 41.9518 61.924 63.1977 43.3212 41.4241 62.5281 61.0876 39.5788 58.4971 59.7806 40.8716 39.0824 58.812 57.4843 37.3599 54.9249 56.3155 38.3968 36.7237 55.2994 53.8149 35.096 51.5431 52.9213 35.9666 34.368 51.6382 50.277 32.7979 48.0906 49.5487 33.5862 32.1607 48.2275 46.7734 30.598 44.6326 46.3185 31.2134 29.8734 44.5769 43.2326 28.3722 41.3097 43.0409 28.8017 27.6254 41.2596 39.9035 26.1389 37.9433 39.7493 26.5602 25.3067 37.6904 36.3755 23.944 34.6876 36.4941 24.1955 23.2052 34.4215 33.052 21.8516 31.4085 33.3455 21.9191 20.8972 31.0578 29.6951 19.6828 28.3131 30.0174 19.7537 18.7377 27.6894 26.4129 17.5689 25.0036 26.8965 17.5575 16.5776 24.5519 23.1727 15.5319 22.0068 23.7832 15.3602 14.3515 21.2758 19.7028 13.5163 18.794 20.7128 13.1445 12.2384 18.212 16.7083 11.3933 15.901 17.3314 11.0921 10.008 14.7734 13.5453 9.35975 12.7313 14.3267 8.91343 8.07079 11.6812 10.3714 7.41194 9.75893 11.437 6.88906 6.05959 8.90486 7.34464 5.56085 7.08406 8.48587 4.86716 3.86097 5.63824 4.4425 3.61797 4.00152 5.61347 2.79474 1.93862 2.64761 1.28544 1.66726 1.16843 3.02297 0.866951 49.0747 43.7925 107.659 30.0086 79.8231 41.7498 14.5557 68.1851 19.7616 49.0817 92.0492 102.426 143.137 72.8876 117.314 138.264 71.3708 100.377 116.56 145.185 82.1813 119.599 153.369 74.1945 95.8255 113.039 137.347 78.0802 112.167 145.949 71.2413 89.8041 106.742 129.039 72.3003 104.213 135.154 67.5907 84.2383 101.267 121.661 67.3186 97.8574 125.295 64.5959 79.3345 96.392 114.66 63.2481 92.2078 117.124 61.6947 74.8053 91.975 108.221 59.7082 87.2897 109.639 58.9603 70.2522 87.5199 101.682 56.5098 82.7194 102.753 56.1605 65.9541 83.0431 95.2818 53.5164 78.2043 96.0741 53.2557 61.7161 78.7141 89.1305 50.4925 73.8208 89.6922 50.5958 57.5814 74.4838 82.9736 47.6977 69.6617 83.6457 47.7592 53.4593 70.0919 77.0941 44.8854 65.611 77.7503 45.0442 49.7757 65.8973 71.5946 42.2152 61.4088 72.2381 42.1757 46.0127 61.68 66.296 39.3806 57.5243 66.6867 39.6224 42.5865 57.7345 61.0961 36.8309 53.6517 61.6515 37.045 39.1332 53.8057 55.9834 34.3176 49.9025 56.6294 34.4828 35.8766 49.9647 51.2833 31.8664 46.1155 51.9493 31.9319 32.707 46.0875 46.6286 29.3655 42.5106 47.3053 29.4213 29.6601 42.3421 42.3765 26.9445 38.9518 42.9473 27.1241 26.936 38.7913 38.2392 24.6594 35.4592 38.9363 24.6629 24.112 35.1967 34.0766 22.3951 32.2375 34.7764 22.3343 21.5472 31.6771 30.3533 20.1321 28.738 31.0522 20.0783 18.8908 28.2256 26.3889 17.9131 25.481 27.2616 17.7531 16.4706 24.8305 22.9437 15.7684 22.2279 23.6979 15.5761 14.1098 21.4986 19.4705 13.6372 18.9775 20.344 13.2717 11.9306 18.1796 16.2556 11.3992 15.9142 17.062 11.2444 9.81844 15.0139 13.0704 9.46743 12.7739 14.085 9.01043 7.64123 11.9262 9.87531 7.51864 9.84085 10.907 6.89658 5.47467 8.72748 6.82353 5.45797 6.97271 7.87364 4.91069 3.70335 5.71134 4.4426 3.62386 4.2241 5.26715 2.97464 1.96571 3.0104 1.34527 1.93619 1.50305 2.91807 0.940089 94.5613 102.528 186.297 66.3789 142.308 79.1951 32.9523 132.428 46.2255 94.4554 149.992 174.976 224.795 117.756 184.214 218.823 117.923 153.719 185.179 220.562 127.004 184.818 230.926 117.632 144.784 176.065 206.543 120.621 173.065 218.839 110.718 134.855 164.639 192.781 111.599 160.266 202.974 103.846 125.782 153.846 180.134 103.262 149.009 187.933 97.3978 117.568 144.3 167.972 96.1303 138.533 174.73 91.1835 109.369 134.86 156.166 89.3788 129.099 161.821 85.3679 101.363 125.915 144.597 83.1625 119.738 149.845 79.5944 93.5658 117.032 133.551 77.0571 111.086 137.94 73.958 86.4902 108.599 122.777 71.3129 102.63 127.369 68.6034 79.3101 100.327 112.709 65.7558 94.5633 116.739 63.3951 72.5644 92.5601 102.843 60.4596 86.9796 106.611 58.245 65.9276 84.9503 93.6542 55.4774 79.5004 96.9735 53.731 60.2517 78.046 84.9416 50.6349 72.7286 87.9044 49.2267 54.2686 71.3559 76.5879 46.2838 66.3576 79.5534 44.8556 48.8322 64.7425 68.7666 41.9823 59.8907 71.3649 40.689 43.7264 58.5721 61.3757 37.8686 54.0452 63.9917 36.8383 38.8088 52.771 54.375 34.0517 48.699 56.7434 33.1178 34.3373 47.4756 48.1112 30.524 43.4671 49.9841 29.7725 30.1644 42.2917 41.8609 27.2504 38.8115 44.0504 26.5232 26.0957 37.5138 36.3699 24.1256 33.9348 38.2843 23.3798 22.7307 32.9349 31.3307 21.0729 29.6839 32.9145 20.6175 19.3247 28.635 26.5339 18.2455 25.5759 28.1788 17.7453 16.2929 24.5289 22.2885 15.559 21.7617 23.5328 15.1933 13.4972 20.7181 18.2539 13.1261 18.116 19.5437 12.6682 10.9204 17.2284 14.7546 10.9202 15.0726 15.8071 10.5553 8.649 13.9403 11.3575 8.84693 11.9561 12.5846 8.43642 6.5898 10.9246 8.42184 6.8689 8.94243 9.61434 6.37597 4.57196 7.66301 5.68035 4.84149 5.89441 6.69599 4.24715 3.02128 5.04556 3.6485 3.0332 3.98056 4.33163 2.67397 1.65283 2.68383 1.26002 1.84817 1.33609 2.7044 0.934585 163.282 187.841 283.183 123.425 227.177 144.468 63.0277 235.281 93.6516 153.044 217.101 270.834 316.807 178.411 270.843 315.478 177.59 211.878 270.693 304.069 182.736 266.269 316.253 172.235 198.318 254.312 285.091 172.791 249.316 299.04 161.585 185.581 237.28 265.783 160.668 231.606 279.38 150.588 173.191 221.424 248.171 149.037 214.744 259.803 140.709 161.558 206.681 230.521 138.268 199.038 241.112 130.902 149.699 191.748 213.513 127.651 183.913 222.637 121.412 138.109 177.299 196.381 117.802 169.116 205.425 112.048 126.869 163.067 180.212 108.059 155.255 188.145 102.973 116.28 150.149 164.609 99.4447 142.669 172.334 94.3545 105.615 136.89 149.574 90.7761 129.944 156.836 86.3921 96.0653 124.79 135.275 82.4659 117.789 142.325 78.2502 86.6923 112.924 122.238 74.6127 106.517 128.218 70.8643 77.8721 102.078 109.303 67.2684 95.7704 115.692 63.7967 69.7324 91.4843 97.4961 60.2454 85.5588 103.112 57.2648 61.8578 81.835 86.1049 53.6457 76.2009 91.3353 50.8678 54.5113 72.6501 75.715 47.624 67.4103 80.6321 45.0638 47.2838 63.8746 65.6487 41.9054 58.8448 70.1627 39.6805 40.9586 55.7652 56.5709 36.4399 50.9673 60.6631 34.4316 35.1715 48.2914 48.1448 31.645 44.1288 52.0275 29.8037 29.8976 41.4473 40.6996 26.8534 37.3403 44.0187 25.3404 24.8297 35.1947 33.639 22.9128 31.5473 36.5473 21.4019 20.3828 29.3201 27.1318 19.071 26.2553 30.1023 17.9258 16.2773 24.2993 21.7864 15.573 21.1287 24.0641 14.7152 12.9126 19.6261 16.625 12.5537 16.9454 18.7482 11.7228 9.50611 15.4861 12.5875 9.84461 13.1372 13.9826 9.36602 7.33314 12.1126 9.13439 7.54324 9.79425 10.4951 6.96993 4.98325 8.7468 6.14351 5.41822 7.08815 7.12797 5.00658 3.14389 5.93572 3.7141 3.67688 4.63544 4.65492 3.24855 1.84349 3.55458 2.58123 2.39529 3.00411 2.64465 2.05635 1.22327 2.36232 1.03521 1.68501 1.36906 1.96516 0.844197 133.608 340.587 185.934 226.621 330.864 65.7385 128.049 196.011 196.646 224.857 134.87 371.434 188.118 240.704 361.329 193.7 239.562 128.624 357.618 181.329 238.443 350.267 187.851 228.997 121.229 336.522 170.601 226.853 329.573 179.226 215.14 114.14 316.087 160.208 212.606 307.617 168.732 201.38 107.052 295.522 149.951 198.071 286.194 157.595 188.014 99.6302 275.04 139.348 183.839 264.647 146.628 174.448 92.3233 254.633 129.124 169.688 244.267 135.498 161.712 85.2165 234.847 118.6 156.369 224.261 124.994 148.366 78.0271 215.239 108.74 142.83 205.358 114.334 136.164 71.5727 197.053 99.6268 130.63 187.261 104.654 124.284 65.2283 178.943 90.2505 118.667 169.691 95.2751 112.426 58.9678 162.326 81.8478 107.428 153.206 86.2104 101.89 53.2475 146.193 73.541 96.5317 137.665 77.5182 91.5545 47.6479 131.074 65.8543 86.8059 123.071 69.5232 81.8007 42.3979 116.756 58.3576 77.1211 109.532 61.78 72.6429 37.5474 103.204 51.7355 68.3135 96.3302 54.8063 64.0888 33.0612 90.6466 45.0096 59.8951 84.213 48.1895 55.9557 28.3458 78.3412 38.7871 51.969 72.2268 41.7847 48.129 24.468 67.3833 33.4288 44.4687 61.7902 35.7124 41.2568 20.8007 57.2542 28.0337 37.7287 52.2106 30.3173 34.6992 17.3753 48.1115 23.5206 31.5462 43.3583 25.3129 29.1768 14.201 39.4628 19.1176 25.8256 35.1188 20.7398 23.7006 11.5372 32.1067 15.2849 20.997 28.0721 16.7431 18.7231 8.8155 24.5945 11.7906 15.9741 21.4789 12.63 14.625 6.85573 19.3754 8.95075 12.2703 16.0045 9.75859 10.9588 4.70131 13.4052 6.01465 8.67563 11.1435 6.85624 7.56494 3.24961 9.73825 4.41812 6.02364 7.72954 4.58439 5.49271 2.12848 6.28926 2.59938 3.83533 4.90091 2.94466 3.22025 1.08788 3.57001 1.50821 2.28642 2.77736 1.5721 1.84833 0.548322 2.05711 0.929802 1.17768 1.95268 0.705823 1.41651 0.444809 1.60559 0.540828 1.18813 0.969258 0.715263 0.592412 127.074 306.654 273.39 211.436 361.648 199.68 107.092 130.814 82.0272 72.1925 196.405 107.348 179.686 243.603 198.4 335.329 298.343 222.262 334.156 169.643 114.661 298.823 170.373 225.59 199.408 337.234 289.122 222.423 328.562 172.567 116.434 300.616 167.779 221.372 186.075 322.893 271.346 214.204 314.168 168.65 113.037 282.788 159.957 211.446 173.146 303.03 252.721 201.6 293.875 159.509 106.321 263.575 148.988 197.472 159.998 280.675 233.807 187.244 271.918 148.029 98.6115 243.911 137.596 182.876 148.027 259.157 215.823 172.358 250.129 136.548 90.8744 224.872 126.753 168.634 136.19 238.186 198.123 158.429 229.602 125.591 83.497 206.832 115.838 154.558 124.838 218.222 181.645 144.761 210.227 114.587 76.351 189.513 106.216 141.742 114.493 199.691 166.446 132.786 191.695 104.8 69.7961 173.59 96.8777 129.336 104.81 182.18 151.878 120.658 174.083 95.2768 63.6056 158.222 87.793 117.778 95.2796 165.076 137.676 109.164 157.55 86.1702 57.508 143.939 79.4613 106.764 86.3508 149.348 125.015 98.6509 142.056 77.6937 51.8511 130.17 71.7025 96.3561 77.8515 134.66 112.131 88.8213 127.666 69.7952 46.8289 117.792 64.2833 86.5752 70.0991 120.576 100.524 79.582 113.692 62.4613 41.7946 105.574 57.0502 76.9917 62.1096 106.763 89.4359 70.4843 100.663 55.4735 37.0478 93.5922 50.1796 68.2275 55.4573 94.0233 78.7667 61.8964 88.2067 48.4601 32.2964 83.2899 44.302 59.8919 48.3651 82.5596 68.7292 54.6801 77.3959 42.5763 28.5977 73.1825 38.4297 52.19 42.2016 71.5041 59.8842 46.9786 66.4678 36.6564 24.566 63.4211 32.869 45.0467 36.4821 61.0186 51.4852 40.2204 56.4748 31.1875 20.8305 54.8288 27.9359 38.4043 31.2058 51.8051 43.7884 34.2563 47.812 26.3943 17.6046 46.8109 23.15 32.3319 26.3499 43.1149 36.5778 28.0823 39.0483 21.5814 14.4652 39.401 18.9825 26.6676 21.9173 34.9604 29.9895 22.9804 31.7759 17.6306 11.6329 32.8765 15.3496 21.45 17.7393 28.2936 24.2772 18.7203 25.2493 14.1215 9.40126 26.6566 11.9244 17.0582 14.3749 21.8994 19.2546 14.3739 19.356 10.6142 7.05782 21.6984 9.10933 13.0883 11.2733 16.4365 14.9105 10.9481 14.5878 8.02427 5.24088 16.829 6.68446 9.70033 8.54396 11.9761 11.1172 7.89634 10.1152 5.42881 3.71585 12.8172 4.71752 6.88609 6.40213 8.50549 7.95512 5.63403 6.73475 3.7228 2.5255 9.41554 2.89167 4.54501 4.3791 5.25245 5.33522 3.40852 4.01926 2.10057 1.37093 6.2977 1.74742 2.92216 3.01535 3.26974 3.26674 2.00879 2.23015 1.12775 0.766645 4.21289 0.878551 1.38673 1.70772 1.51836 1.58652 0.955879 1.15372 0.551083 0.375563 2.4017 0.597688 0.633345 1.00694 1.16871 0.747362 0.842455 0.558891 0.68057 0.363857 1.38601 0.171159 0.38272 65.6882 144.837 151.569 98.623 199.964 41.873 36.5005 100.953 53.2763 134.263 127.069 247.268 205.748 166.035 253.952 196.189 171.526 138.145 253.784 206.576 169.381 250.072 210.923 168.223 131.781 238.909 192.873 159.228 232.69 201.289 156.19 121.627 221.396 177.618 147.648 215.234 186.057 144.718 112.033 204.897 164.45 136.504 198.446 171.304 133.903 103.676 189.332 151.788 125.721 183.104 157.884 123.573 95.6408 174.465 140.603 115.778 168.277 145.489 113.862 88.3357 160.203 129.77 106.163 154.282 134.16 104.613 81.7766 147.195 119.396 97.3565 141.321 123.719 95.9979 74.9908 134.849 109.584 88.9066 129.251 113.145 87.5671 68.7418 123.104 100.634 81.2955 117.581 103.865 79.8901 63.0374 111.747 91.7412 73.5472 106.723 95.0384 72.512 57.3644 101.306 83.7745 67.1163 96.5211 86.509 65.4156 52.4534 91.563 76.0699 60.1847 86.6856 78.8607 59.1358 47.393 81.947 68.8061 53.8026 77.1121 71.1797 52.7575 42.8169 73.118 61.3128 48.1443 68.8619 63.8902 46.646 37.9292 64.4879 55.0489 42.5035 60.637 57.1108 41.2732 34.2059 56.8098 48.7754 37.1604 52.9649 51.0243 36.4184 30.163 49.7965 42.9601 32.488 45.9973 44.8994 31.485 26.3964 42.8681 37.549 27.8663 39.604 39.3332 26.937 23.1059 36.6103 32.4489 23.8956 33.512 34.4244 22.9199 19.9267 31.0824 28.0357 20.281 28.2216 29.6983 19.2799 16.898 25.3652 23.4718 16.7425 23.1343 25.3927 15.7458 14.6024 21.5074 19.9319 14.0273 19.3576 21.2899 12.9462 12.0019 17.257 16.4357 11.2637 15.3899 17.5514 10.5518 9.90966 13.6424 13.0751 8.84761 11.891 14.3642 8.08091 7.98461 10.6487 10.5408 6.76358 8.91355 11.2976 6.15591 6.15858 7.89672 7.53328 4.97756 6.2188 8.86034 4.28882 4.21237 5.25439 4.84408 3.32483 4.08016 6.04037 2.704 2.47568 3.17063 2.91327 2.11149 2.22877 3.63923 1.5826 1.59377 2.11249 0.983338 1.12853 0.866418 2.13765 0.600186 31.6991 73.8566 88.3909 50.7898 116.92 20.1602 17.4354 50.0002 24.9053 77.751 79.3922 153.031 131.821 104.145 165.217 124.537 109.663 91.1842 171.696 136.931 115.074 169.57 141.371 113.413 86.2941 162.427 127.497 108.847 158.08 133.662 106.157 78.9767 149.024 116.868 99.6924 144.697 121.709 97.2665 72.4561 136.618 107.979 91.0245 132.901 111.16 89.9183 67.2926 126.876 101.035 83.9852 122.819 102.736 83.6389 63.4085 117.694 94.4028 77.477 113.471 95.875 77.4123 59.1378 109.422 88.574 71.958 105.414 89.37 72.0152 55.4691 101.769 82.8828 66.9023 97.6908 83.4963 66.7787 52.0276 93.8947 77.631 61.3282 90.2507 77.9226 61.847 48.8359 87.0055 72.747 56.9905 83.0031 73.2776 57.0971 45.7099 80.4755 67.8311 52.5911 76.908 68.3376 52.7753 42.7463 74.1052 63.1063 48.3911 70.5265 63.7051 48.3117 39.7529 68.0363 58.6216 44.4072 64.8434 59.0638 44.2964 36.83 62.251 54.0773 40.5944 58.9244 54.782 40.3841 33.888 56.5584 49.8224 36.8655 53.4563 50.5834 36.6062 31.4056 51.2367 45.7677 33.4056 48.5073 46.5395 33.1821 28.7452 46.7199 41.8111 30.4192 43.7087 42.6484 29.8751 26.2122 41.5174 37.9997 26.9297 38.8919 38.7495 26.7257 23.8766 37.206 34.3655 24.1652 34.7476 35.0779 23.794 21.6229 33.1544 30.8025 21.6298 30.5604 31.7871 20.7543 19.3375 29.0677 27.344 18.7912 26.842 28.213 18.324 17.0227 25.4449 24.1321 16.6163 23.261 24.972 15.9466 14.923 22.0169 20.7825 14.1698 19.9768 21.8982 13.6799 12.9403 18.7277 17.705 12.0343 16.7313 18.79 11.3975 10.7623 15.3746 14.5966 10.0184 13.7605 15.7741 9.35108 8.92188 12.5379 11.8423 8.06756 10.9223 12.9405 7.53009 7.0707 9.82798 9.04647 6.38126 8.17754 10.2733 5.6298 5.22237 7.11317 6.11881 4.48629 5.54392 7.46093 3.8704 3.23444 4.38165 3.55216 2.78526 3.11572 4.77621 2.1861 1.60377 2.32868 1.12462 1.52643 1.02724 2.36732 0.65512 20.11 33.5154 69.9653 25.9298 75.2533 17.2515 6.71212 34.5626 10.8758 47.4361 66.7427 101.925 110.883 70.786 114.504 104.057 73.6474 77.0379 117.476 114.346 79.9262 116.755 119.105 76.174 72.0939 110.481 105.543 74.544 107.086 111.071 70.5392 65.3333 100.206 96.3331 66.7876 96.6991 99.8234 64.7577 59.7926 91.9258 89.1131 60.7584 88.8624 90.5284 59.9125 55.7785 85.5697 83.6666 56.1064 82.6495 83.6108 56.2329 52.6576 80.8689 79.0587 52.6304 77.6741 78.4517 53.1614 49.9457 76.5632 74.9062 49.6573 73.5698 74.0146 50.4444 47.4676 72.6638 71.1176 46.9789 69.4664 70.1961 47.7475 45.1143 68.713 67.4709 44.3758 65.7928 66.4906 45.2076 42.9607 65.2315 63.8744 42.1003 62.2889 63.1465 42.8046 40.6431 61.7691 60.2728 39.9616 58.9258 59.834 40.3619 38.4336 58.138 56.921 37.6179 55.3935 56.5719 38.1146 36.3477 54.9599 53.4652 35.377 52.1564 53.32 35.9022 34.0095 51.427 50.1253 33.3352 48.8274 50.0808 33.561 31.9848 48.1017 46.7687 31.1526 45.5259 46.9763 31.2129 29.8753 44.8573 43.3391 29.0647 42.4283 43.8452 28.9962 27.6865 41.5558 40.3178 26.9233 39.0949 40.6478 26.8744 25.6905 38.2825 37.0325 24.7451 35.9352 37.6074 24.6861 23.6151 35.11 33.8541 22.7291 32.7837 34.5542 22.4153 21.5132 31.9154 30.6655 20.7145 29.8232 31.4707 20.3575 19.3939 28.9508 27.5159 18.7913 26.8274 28.5528 18.4117 17.4168 25.8331 24.4171 16.6965 23.6433 25.4712 16.2035 15.2502 22.6154 21.4472 14.6346 20.5736 22.3108 14.1838 13.4353 19.7865 18.478 12.6008 17.6046 19.4816 12.213 11.2073 16.5981 15.3922 10.7569 14.7498 16.4305 10.1371 9.35391 13.7431 12.3764 8.79546 11.926 13.5683 8.26755 7.34678 10.9591 9.45818 7.02146 9.14849 10.7415 6.30018 5.39095 8.03353 6.72506 5.10619 6.44405 7.87411 4.47811 3.65513 5.23814 4.03838 3.14957 3.65352 5.29667 2.58999 1.90857 2.47559 1.32619 1.53673 1.10261 2.48289 0.69725 42.7644 41.8049 106.352 31.1646 85.262 36.7445 11.6783 63.5816 17.9495 52.8469 94.9212 112.69 151.627 77.6319 125.287 142.175 79.9428 106.842 128.384 154.573 87.3814 127.353 160.248 81.5906 101.219 121.121 143.889 82.1062 117.021 151.989 75.5334 92.8931 110.843 132.194 74.3664 106.318 138.83 69.192 85.2285 101.73 121.939 67.6944 97.5044 126.815 64.0936 78.9257 94.5952 113.283 62.4661 90.5516 116.684 59.9022 73.2801 88.7372 105.206 58.2512 84.769 108.201 56.391 68.2459 83.5013 98.419 54.6754 79.6246 100.587 53.2107 63.6696 78.7918 91.6239 51.3458 74.9921 93.6077 50.246 59.1921 74.2388 85.3011 48.3868 70.6226 87.0001 47.435 55.0948 70.053 79.4232 45.6498 66.4804 81.0829 44.7257 51.2091 65.7942 73.7673 42.7943 62.423 75.1497 42.1363 47.58 61.8875 68.317 40.2099 58.5514 69.7493 39.5706 43.9039 57.8081 62.8896 37.5791 54.757 64.4075 37.0433 40.4639 53.9982 58.003 35.101 50.9824 59.4023 34.5363 37.1033 50.3459 52.8777 32.6889 47.3778 54.5674 32.1342 33.944 46.7116 48.5209 30.2941 43.7775 49.7921 29.6989 30.8947 42.9985 44.0141 27.8569 40.308 45.3927 27.4722 27.9464 39.5713 39.7781 25.664 36.9836 41.0073 25.139 25.2188 36.1419 35.7629 23.4324 33.7005 37.0195 22.9947 22.5986 32.792 31.9967 21.2281 30.3454 33.1733 20.8402 20.2769 29.536 28.2251 19.1129 27.2578 29.6765 18.5447 17.6135 26.1827 24.671 16.9504 24.0516 25.985 16.4879 15.416 23.0577 21.2913 14.8855 20.8945 22.6679 14.3976 13.157 19.9771 18.0567 12.9016 18.0685 19.2974 12.4437 11.0551 16.8531 14.9181 10.9375 15.054 16.2516 10.3 9.04776 13.9044 11.9155 8.96847 12.1245 13.2016 8.21403 6.9405 10.7574 9.03603 7.01683 9.14445 10.3736 6.24534 5.14918 7.89868 6.46977 5.0984 6.41195 7.40546 4.44952 3.48109 5.30153 4.19776 3.35989 4.07981 4.85245 2.80526 1.99479 2.86621 1.41991 1.77678 1.34632 3.03286 1.00402 83.2545 89.6437 175.4 62.6583 140.144 71.9114 27.4562 122.3 41.9717 89.8745 146.667 175.049 226.672 118.264 186.702 216.53 121.483 157.983 192.922 228.155 130.047 189.693 234.854 123.307 150.127 183.748 213.498 123.925 177.896 224.263 115.507 138.85 169.683 197.081 114.286 163.66 207.524 106.31 127.8 156.091 181.984 104.839 150.335 190.734 98.1305 118.278 144.526 168.214 96.4055 138.488 176.01 90.9112 109.222 133.855 155.557 89.0559 127.958 161.98 84.1515 100.791 123.884 143.387 82.1803 118.167 149.216 78.102 92.6417 114.597 131.712 76.0371 109.142 137.039 72.2145 85.183 105.885 120.778 69.9779 100.571 125.944 66.636 77.9694 97.6477 110.504 64.518 92.7958 115.225 61.5135 71.0806 89.9397 100.961 59.3753 85.0741 105.306 56.6305 64.9072 82.6215 91.4638 54.3779 77.8512 95.8787 51.6961 58.3968 75.16 82.4979 49.6365 70.8172 86.5426 47.1864 52.8768 68.4428 74.4308 45.0505 64.6172 78.0126 43.1765 47.4913 62.3252 66.3951 40.9962 58.2504 70.1183 38.7771 42.3129 56.0081 59.5494 36.7745 52.4295 62.4941 35.2148 37.5297 50.4879 52.6015 33.2119 47.204 55.5491 31.7838 33.1047 45.3035 46.1524 29.5469 41.7783 48.9634 28.3257 28.9713 40.248 40.3067 26.2586 37.1909 42.8943 25.1595 25.2774 35.5075 34.8685 23.1579 32.5699 37.1973 21.9891 21.6018 31.0898 29.6568 20.23 28.5409 31.7535 19.231 18.1976 26.7042 25.026 17.5346 24.4169 26.9845 16.6384 15.4203 23.0389 21.009 14.9274 20.709 22.6013 14.1293 12.7637 19.358 17.0086 12.4669 17.1387 18.6358 11.7396 10.2004 15.9414 13.8427 10.2786 14.081 14.9223 9.78623 8.19445 13.0234 10.6968 8.29092 11.1111 11.9828 7.68681 6.1147 9.86326 7.85419 6.40721 8.33865 9.03896 5.73116 4.32538 7.15508 5.23838 4.6 5.89048 6.39438 4.00119 2.66598 4.68893 3.59417 3.04278 3.66562 3.92075 2.66292 1.84022 2.87388 1.24762 1.91594 1.6174 2.70341 0.924405 153.569 172.57 268.679 118.108 219.886 139.39 58.3586 226.836 90.2533 143.454 209.429 262.895 313.523 175.856 268.533 309.067 177.028 213.881 275.584 309.862 184.04 269.603 317.529 177.169 203.773 262.136 292.015 175.93 254.127 303.8 166.212 190.193 243.408 271.507 163.374 235.254 283.799 154.123 176.239 225.239 251.24 150.842 217.008 262.792 142.315 163.023 208.228 232.367 139.217 200.093 242.853 131.618 150.305 192.139 213.559 127.943 184.124 223.791 121.466 138.271 177.089 196.484 117.87 169.079 205.637 111.537 126.72 162.177 179.433 108.099 155.024 188.349 102.161 115.773 148.792 163.981 99.0256 141.45 171.918 93.6342 105.561 136.01 149.151 90.1161 128.843 156.364 85.3783 95.5658 123.374 134.768 81.804 116.816 141.76 77.4946 86.2275 111.849 121.221 74.1376 105.377 127.92 70.0339 77.6662 100.707 108.536 66.6435 94.5807 114.867 62.6323 69.0994 90.293 96.6012 59.5234 84.4875 102.31 56.1654 61.0414 80.2115 85.2737 52.9221 74.9652 90.4358 49.8897 54.2104 71.308 74.9857 46.8631 66.3295 79.9765 44.4067 47.1296 62.8625 64.8137 41.3966 57.8825 69.7229 38.6786 40.3412 54.3841 55.3597 35.7037 49.9304 59.9252 33.3956 34.5274 47.0833 47.5006 30.9707 43.3035 51.015 28.9427 29.2621 40.2887 39.6131 26.4277 36.5246 43.426 24.5214 24.3149 34.0481 32.9083 22.2541 30.6854 35.917 20.6281 20.0509 28.3887 26.6117 18.457 25.0756 29.6264 17.1402 15.848 23.1604 20.6966 15.0203 20.4985 23.4081 13.8477 12.14 18.6273 15.9788 12.1615 16.25 18.064 11.1427 9.14089 14.5656 11.7157 9.42394 12.7568 13.6571 8.6593 6.59601 11.1587 8.47628 7.36922 9.64691 10.2385 6.58039 4.57144 8.14739 5.79349 5.45866 6.96693 7.16466 4.726 3.0576 5.58432 3.84148 3.68659 4.49524 4.84253 3.14659 1.9021 3.59771 2.3919 2.18628 2.95856 3.00329 2.09456 1.16795 2.38754 1.03785 1.63347 1.28715 1.9856 0.864915 134.335 333.198 178.521 224.289 321.86 66.3738 128.099 196.738 197.462 212.976 127.722 357.22 183.862 235.412 355.986 186.497 236.513 128.011 358.811 182.603 238.032 351.022 187.772 232.387 123.383 343.27 174.145 228.816 333.723 180.973 219.788 116.178 321.832 162.875 215.227 311.641 170.975 205.06 108.431 299.437 151.589 200.04 288.559 159.497 190.171 100.604 277.253 140.086 185.007 266.555 147.67 175.611 92.706 255.661 129.262 170.574 245.094 136.144 161.598 85.1653 234.936 118.674 156.341 224.61 125.014 148.68 77.9036 215.267 108.539 143.338 205.47 114.461 135.888 71.4103 196.579 99.2145 130.55 187.009 104.582 123.92 65.0557 178.616 90.0632 118.521 169.48 95.0707 112.278 58.894 161.702 81.4199 107.409 153.098 86.0868 101.441 52.9786 145.594 73.0082 96.605 137.253 77.5463 90.8607 47.3902 130.53 65.5946 86.3972 122.842 69.2077 81.6389 42.1941 116.031 58.1079 76.7918 108.805 61.7002 72.3555 37.5079 102.786 51.4785 67.905 95.6944 54.6907 63.5941 32.9223 90.4298 44.9808 59.6243 83.5603 47.9601 55.7139 28.5001 78.254 38.745 51.4871 72.2216 41.3199 47.8987 24.3548 66.922 33.2309 44.2553 61.4526 35.5008 40.8564 20.738 56.7413 27.9944 37.2523 51.6987 30.0767 34.5928 17.333 47.7202 23.3405 31.2197 42.8391 25.1659 28.7342 14.0936 38.9075 18.7704 25.5098 34.7117 20.4453 23.1318 11.249 31.5905 15.3634 20.6215 27.9272 16.2757 18.8663 8.84271 24.5787 11.5463 16.0862 21.1401 13.0165 14.2471 6.48485 18.2437 8.48223 11.869 15.5443 9.53142 10.5863 4.62901 13.2734 6.02472 8.60424 11.2034 6.77109 7.50404 3.07246 9.13313 4.04914 5.97327 7.54159 4.61737 5.19335 1.96609 6.0227 2.58358 3.98861 4.89175 2.99195 3.34405 1.26089 3.73649 1.58184 2.50171 3.24992 1.78681 2.0501 0.635044 2.19476 0.815924 1.70527 2.15196 1.10074 1.21311 0.445793 1.63433 0.619759 1.07187 0.850612 0.664231 0.616942 124.63 307.126 272.968 211.947 362.688 200.755 107.189 131.873 80.095 70.909 194.906 106.922 179.315 244.69 197.271 331.239 296.852 220.955 331.703 168.478 112.84 298.098 168.852 223.105 199.633 335.559 289.733 221.881 327.475 171.87 115.386 300.432 167.3 220.773 187.91 324.166 274.008 214.429 314.349 168.533 113.101 284.08 160.287 212.374 175.225 305.357 255.39 202.422 295.217 159.895 106.954 265.232 150.099 199.225 162.134 283.507 236.365 188.106 273.198 148.564 99.2145 245.672 138.517 184.522 149.258 261.357 217.104 173.216 251.377 137.177 91.4913 226.465 127.359 169.809 136.938 239.779 199.564 158.896 230.208 125.538 83.9675 207.52 116.64 155.782 125.683 219.4 182.571 145.31 210.446 114.808 76.7891 190.3 106.538 142.33 115.163 200.762 166.932 132.812 192.307 104.885 70.0987 173.991 97.179 130.01 104.667 182.474 151.737 120.902 174.498 95.2563 63.6867 158.501 88.1509 117.867 95.0785 165.334 137.662 109.657 157.948 86.4289 57.768 143.921 79.6834 106.7 86.0334 149.296 124.289 98.9646 142.201 77.9713 52.0682 130.302 71.6349 96.1378 77.5354 134.09 111.506 89.0589 127.536 70.027 46.6758 117.355 63.9679 86.1388 69.6635 120.017 100.049 79.4576 113.472 62.4793 41.5453 105.346 56.9724 76.8313 61.9472 106.626 88.8212 70.352 100.6 55.2681 37.0273 93.7808 50.4355 68.1468 54.8419 93.9059 78.1537 62.2409 88.3125 48.6359 32.468 83.1344 44.1696 59.7006 48.2558 82.1905 68.7793 54.2713 76.7096 42.5634 28.2755 72.871 37.9562 52.0578 41.9996 71.0026 59.5006 46.7117 65.9593 36.4464 24.3744 63.3817 32.6243 44.8351 36.4559 60.7542 51.1078 40.0046 56.2593 30.9688 20.6582 54.8574 27.8204 38.1735 30.9711 51.566 43.6772 33.9056 47.1844 26.2062 17.4293 46.6142 23.1252 32.3583 26.292 42.9742 36.1791 28.2001 39.0252 21.7128 14.4733 39.4746 19.0002 26.4572 21.8236 35.1152 30.1589 23.0775 31.6521 17.6573 11.7763 32.4557 15.3652 21.5063 17.7843 28.2823 24.1604 18.3782 24.9662 13.8641 9.40298 26.4083 11.8767 16.8828 14.2511 21.6943 19.3619 14.2129 19.1372 10.5937 7.08218 21.0783 8.91726 13.0949 11.2587 16.574 15.0115 10.6543 14.0453 7.74588 5.19672 16.6041 6.58044 9.88441 8.59262 11.8883 10.7063 7.6282 9.75069 5.2648 3.57543 12.7542 4.36892 6.52615 6.06657 8.06059 7.83733 5.13691 6.31924 3.42943 2.3309 8.90749 2.8342 4.42579 4.28427 5.05504 4.80201 3.1901 3.60823 2.06229 1.30971 6.57164 1.51339 2.4749 2.52868 2.81241 3.01225 1.86511 2.14367 1.22658 0.805776 3.83844 0.81714 1.50423 1.60789 1.59207 1.50723 0.911881 1.17683 0.484335 0.371624 2.23209 0.537544 0.708596 0.951845 1.22306 0.65713 0.91992 0.726785 0.671503 0.445216 1.56528 0.292838 0.487872 62.6776 140.401 149.809 97.4028 199.424 39.7699 34.3316 98.0635 52.241 132.992 127.595 246.967 207.227 166.227 253.69 196.519 171.484 139.365 255.427 209.196 169.799 250.626 211.948 169.486 133.533 241.526 195.881 160.077 234.433 202.507 158.567 123.739 224.864 180.346 148.891 216.966 187.969 146.708 113.599 207.393 166.201 137.512 199.856 172.805 135.26 104.445 190.722 152.803 126.581 183.973 158.782 124.461 96.2035 175.373 141.094 116.027 168.605 145.8 114.517 88.5879 160.982 129.586 106.428 154.345 134.428 104.803 81.2704 147.278 119.035 97.377 141.444 123.115 95.9768 74.4536 134.434 108.915 89.0006 129.108 113.093 87.4869 68.5198 122.924 99.9859 81.2407 117.48 103.799 79.7028 62.5072 111.326 91.0945 73.724 106.345 94.7915 72.1428 56.9304 100.911 82.9973 66.6452 95.9372 86.0639 65.1649 51.7425 90.6726 75.0335 59.936 86.4881 78.1788 58.4802 46.5909 81.113 67.5995 53.7463 77.2875 70.5924 52.1784 41.9207 72.2944 60.7012 47.9826 68.3778 63.3733 46.2164 37.5576 63.9581 54.2373 42.1477 60.4819 56.7806 41.0017 33.5699 56.0893 47.8247 37.1502 52.818 50.5411 35.6276 29.4625 49.0253 42.0111 32.3681 45.9618 44.3221 30.9904 25.7494 42.1457 36.7762 27.8818 39.3014 38.7928 26.5058 22.7009 36.0761 31.8785 23.7728 33.4353 33.7408 22.4781 19.6288 30.6554 27.4263 19.8692 27.9892 29.1749 19.1229 16.7103 25.3555 23.1755 16.6251 23.073 24.8758 15.4905 14.088 21.1035 19.6348 13.6975 18.9686 20.9275 13.0885 11.919 17.139 15.9701 11.0328 15.0281 17.6896 10.2932 9.43211 13.3277 12.709 8.77524 11.595 14.1192 7.83244 7.50411 9.93941 9.77026 6.51846 8.49615 11.0113 5.71105 5.7554 7.44864 7.18547 5.03149 6.35271 8.25152 3.92287 3.95389 4.83397 4.67726 3.20916 3.78757 5.91447 2.6336 2.53633 3.05408 2.70128 1.86581 2.1809 3.753 1.26305 1.26017 1.49843 0.847684 1.20995 0.849477 2.00166 0.460142 30.2372 70.4788 89.2901 50.0171 116.735 19.3533 15.6603 48.512 24.1383 77.4414 82.0154 155.268 135.998 104.915 166.207 126.336 111.567 94.0884 174.746 141.071 116.195 171.22 143.409 115.711 89.2792 166.269 131.073 110.059 159.635 136.143 108.296 80.993 152.076 119.426 100.577 145.888 123.706 99.127 73.666 138.834 109.317 91.8287 133.963 112.413 91.0123 67.8106 127.684 100.692 84.3288 123.363 103.375 83.7927 62.7659 117.667 93.7153 77.7142 113.481 95.5555 77.3632 58.3516 108.822 87.2638 71.8506 105.33 88.7022 71.637 54.5235 100.709 81.5049 66.421 97.1264 82.9783 66.1528 50.8657 92.6289 76.0092 61.0702 89.4493 77.2944 60.9048 47.8594 85.9 71.0014 56.7352 82.8035 72.429 56.1061 44.3982 79.0508 66.1732 52.104 76.271 67.1756 51.8408 41.5033 72.7566 61.5783 47.8736 69.8779 62.7732 47.645 38.6132 66.8864 57.1282 43.879 64.1176 58.2598 43.6604 35.7425 61.0034 52.5166 40.153 58.4881 54.0194 39.622 33.0267 55.2633 48.4338 36.5866 52.6576 49.855 35.816 30.4596 50.3215 44.4695 33.1811 47.9728 45.6547 32.5617 27.9218 45.4599 40.4415 29.8682 42.9705 42.0377 29.0656 25.4427 40.4779 36.7729 26.5915 38.4152 37.9337 25.9822 23.0219 36.176 33.2251 23.7581 34.0551 34.7385 23.2859 20.8418 32.3301 29.71 21.2403 30.3556 31.193 20.4061 18.5138 28.3621 26.3957 18.708 26.5843 27.8114 17.9293 16.5405 24.7879 23.2782 16.2755 22.8181 24.6766 15.4474 14.4613 21.0927 20.0821 13.9188 19.512 21.4568 13.1413 12.3964 18.0911 17.0485 11.9731 16.6067 18.4327 11.0547 10.4618 14.9456 14.0183 9.82894 13.4202 15.6064 8.99959 8.45038 12.0791 11.2731 7.90568 10.719 12.5353 7.16083 6.70038 9.44971 8.63195 6.17898 7.90965 9.93574 5.43497 4.83993 6.68769 5.74921 4.39039 5.40855 7.1752 3.55201 3.22864 4.15018 3.37467 2.83729 3.15266 4.68808 2.16892 1.51714 2.34402 1.08789 1.57978 1.08976 2.42863 0.664926 21.5839 35.1639 74.0612 26.7405 76.9536 17.4626 6.62696 35.1818 11.3022 49.8958 70.525 107.626 116.662 72.6826 117.468 106.947 77.6896 81.1542 123.33 119.792 81.8182 119.377 122.336 79.6888 75.4352 115.31 109.564 76.1683 109.093 113.854 73.2149 67.2567 103.055 98.328 67.9392 97.9991 101.346 65.95 60.3612 93.0359 89.4949 61.246 89.2176 91.1384 60.2172 55.3864 85.4923 82.8516 56.2504 82.6234 83.4935 55.7795 51.631 79.5029 77.2997 52.1936 77.0461 77.7861 52.1463 48.4957 74.7039 72.9369 49.0327 72.5789 72.9924 49.1389 45.9365 70.3939 68.9352 46.3002 68.4742 69.0397 46.2708 43.5923 66.5926 65.2504 43.7657 64.8179 65.4235 43.8117 41.383 63.1701 61.6654 41.5065 61.2956 62.0676 41.35 39.1572 59.6058 58.2344 39.1968 57.9131 58.6506 39.0822 37.0541 56.203 54.8628 37.0069 54.4315 55.4943 36.7013 34.8845 52.8028 51.5148 34.7662 51.1115 52.2742 34.5688 32.8446 49.5741 48.3195 32.6564 47.7235 49.1487 32.1906 30.7177 46.3947 45.0372 30.4894 44.7223 45.9391 30.1736 28.7479 43.1954 41.8978 28.3489 41.3489 42.9707 27.9445 26.7127 39.9684 38.7393 26.2424 38.1916 39.8336 25.7784 24.6219 36.8375 35.5996 24.2104 35.1879 36.7875 23.6848 22.6282 33.6623 32.5566 22.2674 32.1424 33.7102 21.6096 20.7272 30.8108 29.5508 20.2927 29.008 30.8966 19.5884 18.6897 27.7506 26.5846 18.2441 26.1479 27.7542 17.5732 16.7653 24.8639 23.5247 16.4717 23.2902 24.9879 15.583 14.6903 21.8994 20.5007 14.4493 20.4593 21.9225 13.6926 12.7563 18.8051 17.5084 12.4821 17.345 19.0033 11.5641 10.7107 15.9287 14.6659 10.5855 14.4895 16.0846 9.70555 8.80521 12.952 11.72 8.55563 11.6707 13.1472 7.76891 6.96523 10.3052 9.01381 6.79903 8.86195 10.4423 6.04147 5.17723 7.57201 6.37279 4.96832 6.06456 7.74773 4.12537 3.46571 4.95897 3.87831 3.21116 3.65077 5.0366 2.5175 1.75481 2.33307 1.08979 1.45259 1.1405 2.41188 0.733877 40.6212 41.8474 107.23 31.6939 87.2127 34.7552 10.5141 61.9479 17.8965 55.2624 96.9345 117.114 155.079 79.1462 127.892 143.859 83.266 109.777 133.533 159.035 89.0724 129.808 162.441 85.0129 103.803 125.487 147.327 83.5033 119.206 153.957 78.0904 94.3861 113.191 133.914 75.2712 107.415 140.328 70.4456 85.8491 102.524 122.471 68.1274 97.8172 127.296 64.2198 78.8134 94.032 112.842 62.3976 90.2365 116.693 59.4246 72.7374 87.4977 104.262 57.9698 84.0012 107.826 55.3317 67.5373 81.7678 96.8821 54.1173 78.6189 99.8646 51.9911 62.6162 76.8302 89.9673 50.7832 73.9081 92.7243 48.9086 58.1675 72.3015 83.6284 47.7451 69.5593 86.2346 46.0019 54.0717 67.9782 77.737 44.9706 65.4964 80.263 43.3941 50.1135 63.9014 71.946 42.265 61.446 74.4074 40.768 46.5005 59.9659 66.7868 39.6254 57.4647 69.0382 38.2425 42.9228 55.9858 61.4485 36.9795 53.7366 63.5497 35.7399 39.4932 52.3709 56.4802 34.5088 50.1616 58.6683 33.3929 36.1682 48.6717 51.6188 32.1747 46.4677 53.8538 30.9697 33.0775 45.091 47.1887 29.863 43.0649 49.1525 28.6747 30.1133 41.5678 42.8041 27.4444 39.5457 44.805 26.4404 27.2077 38.1501 38.5566 25.1765 36.2868 40.548 24.2375 24.4912 34.8446 34.6267 22.9972 33.0338 36.5594 22.1231 21.872 31.6459 30.8485 20.867 29.7754 32.6483 19.9766 19.4407 28.405 27.4194 18.6998 26.6955 28.9396 17.9519 17.1608 25.3682 23.934 16.7292 23.6529 25.5629 15.8276 14.9221 22.1886 20.5434 14.6319 20.5453 22.118 13.7657 12.7096 19.1606 17.5452 12.5965 17.6655 18.8996 11.8968 10.6606 16.2298 14.5188 10.7113 14.642 15.9061 10.0113 8.71341 13.3137 11.5632 8.72927 11.7141 13.0524 7.93007 6.86064 10.4584 8.79372 6.78778 8.81884 10.1032 6.04744 4.84332 7.64338 6.11442 4.8807 6.30746 7.18798 4.31409 3.1292 5.07172 3.77239 3.30887 3.89929 4.84238 2.75289 1.87382 2.69058 1.31547 1.72843 1.23007 2.61471 0.769143 79.3901 85.6145 172.597 61.5134 139.669 69.3973 25.3506 119.432 40.8941 89.3802 146.409 176.158 227.128 118.702 187.31 216.759 122.399 158.89 195.63 230.777 130.712 191.47 235.415 125.559 152.153 186.929 216.623 124.835 179.404 225.696 117.642 140.677 172.274 200.21 115.077 164.497 208.75 108.092 129.672 157.891 183.688 104.982 150.609 191.965 98.9843 119.093 144.961 168.964 96.5364 138.779 176.265 91.0386 109.41 133.607 155.423 88.9369 127.72 161.955 83.9051 100.845 123.368 142.933 82.0454 117.762 149.085 77.3731 92.2549 113.527 131.063 75.4026 108.347 136.584 71.4944 84.6287 104.678 120.016 69.6318 99.964 125.622 65.9179 77.4788 96.5977 109.891 64.2105 92.1407 114.963 60.7765 70.8622 88.749 100.055 58.8838 84.2402 104.851 55.5453 64.298 81.2235 90.8288 53.9249 77.353 95.1603 51.0133 58.2125 74.3154 81.7414 49.3869 70.3446 86.241 46.4061 52.3027 67.4219 73.9077 44.6902 63.8589 77.5949 42.3973 47.1901 61.2753 65.8206 40.5597 57.7177 69.7971 38.2289 41.9909 55.1844 58.7158 36.5264 51.8836 62.2158 34.4603 37.0997 49.632 51.7615 32.8615 46.5873 55.0616 31.0355 32.6234 44.2991 45.2838 29.2687 41.411 48.3885 27.4265 28.3567 39.1567 39.5104 25.9594 36.58 42.0913 24.457 24.78 34.6499 34.2884 22.7314 32.056 36.6138 21.5493 21.1342 30.3715 29.1219 19.9968 28.0236 31.7665 18.8514 18.0328 26.322 24.7254 17.266 24.1224 26.6959 16.3001 14.9972 22.4937 20.3104 14.7708 20.3883 22.5333 13.7318 12.2456 18.7539 16.3738 12.3254 17.09 18.3949 11.4709 9.87784 15.4899 13.283 10.2885 13.8155 14.9342 9.35773 7.84204 12.4309 10.2614 8.18516 11.074 11.741 7.45419 5.82157 9.71069 7.59966 6.33949 8.21203 8.7954 5.6492 4.21916 6.74108 5.30114 4.47961 5.58358 6.2299 3.88696 2.65879 4.46885 3.18619 3.00711 3.55336 4.17329 2.33639 1.7003 2.64238 1.4074 1.60527 1.27952 2.41503 1.0235 150.887 168.067 264.232 116.614 217.968 137.993 56.996 224.366 89.1708 140.604 207.478 260.812 311.427 175.407 268.538 307.319 176.221 213.278 275.661 310.282 184.35 270.188 317.139 178.145 204.681 264.862 294.311 176.754 255.58 304.645 168.411 191.832 246.365 273.98 164.322 236.685 285.239 155.92 177.507 227.616 253.033 151.936 218.269 264.214 143.718 163.977 209.744 233.301 139.555 200.809 243.631 132.615 150.915 192.851 214.171 128.18 184.123 224.193 121.473 138.521 177.123 196.488 117.851 169.139 205.531 111.507 126.78 162.164 179.506 107.931 154.707 188.079 102.081 115.806 148.735 163.643 98.8207 141.145 171.757 93.1848 105.052 135.283 148.515 90.0303 128.629 156.119 85.0203 95.2821 123.162 134.36 81.6259 116.654 141.469 77.167 85.984 111.348 120.695 73.9649 105.237 127.746 69.5323 77.0502 100.176 108.084 66.5358 94.2091 114.8 62.4488 68.9353 89.637 96.0893 59.3991 84.2524 102.014 55.7402 60.7854 79.8955 84.6488 53.0043 74.7531 90.4641 49.4864 53.8047 70.8412 74.4529 46.6736 66.0399 79.5843 43.804 46.601 62.1296 64.4666 41.1504 57.5583 69.5547 38.2429 40.1932 53.7406 55.1954 35.672 49.9294 59.966 33.1073 34.3323 46.5178 47.0394 30.774 42.9342 51.1519 28.6622 29.3022 39.8673 39.5722 26.2766 36.2783 43.1692 24.2613 24.0905 33.4382 32.548 22.237 30.4234 35.8207 20.3289 19.8872 27.9303 26.1187 18.3258 25.1294 29.5595 16.7184 15.536 22.6792 20.6156 15.0469 20.5096 23.1268 13.5995 12.1049 18.1642 15.6091 12.1399 15.8749 18.2727 10.6322 8.95234 14.1211 11.5728 9.2206 12.5878 13.3276 8.48747 6.8383 11.118 8.59625 7.30004 9.49334 10.1029 6.51821 4.65392 8.17989 5.9246 5.15518 6.64396 7.01246 4.66542 3.0926 5.59243 3.95719 3.65516 4.67495 4.58378 3.10058 1.78262 3.34898 2.359 2.39837 2.78528 2.88762 1.83164 1.39038 2.35655 1.07244 1.53564 1.36443 1.90319 0.88786 135.737 332.648 177.424 223.703 319.412 67.0975 128.757 197.644 197.449 209.709 125.519 352.329 181.353 233.735 353.749 184.635 234.214 126.699 356.714 181.615 237.234 350.999 186.421 232.1 122.967 343.694 174.596 229.042 334.417 181.009 220.995 116.854 324.028 164.161 215.897 312.808 171.65 206.584 109.025 301.26 152.538 200.892 289.708 160.151 191.305 101.004 278.643 140.914 185.471 267.121 148.22 176.527 93.0901 256.562 129.824 170.704 245.414 136.574 162.464 85.6218 235.567 118.901 156.529 224.743 125.401 148.741 78.1128 215.337 108.621 143.126 205.272 114.5 135.735 71.3406 196.263 99.1555 130.424 186.969 104.403 123.802 64.9255 178.46 89.9111 118.735 169.173 95.1997 112.018 58.7578 161.407 81.3564 107.019 152.831 85.7445 101.299 52.8603 145.407 73.0055 96.5852 136.889 77.4717 90.8174 47.3629 130.146 65.4145 86.3063 122.645 69.1087 81.2739 42.2182 115.96 57.8913 76.7391 108.626 61.7024 72.1441 37.2713 102.224 51.1172 67.9259 95.5617 54.5644 63.249 32.8566 89.8565 44.7514 59.3552 83.2448 47.7927 55.4759 28.2407 77.7525 38.5317 51.6164 72.1949 41.4273 47.8226 24.4006 67.0568 33.1856 44.3953 61.5413 35.7025 41.0221 20.7178 56.832 27.8628 37.4647 51.5585 30.2286 34.2847 17.1868 47.4283 23.1799 31.0428 42.9231 24.9826 28.8056 14.0586 39.0534 18.7441 25.6624 34.7403 20.6757 23.2285 11.1922 31.4236 14.9593 20.7766 28.0649 16.4572 18.5724 8.82959 24.5289 11.5929 16.0602 21.4794 12.7993 14.2902 6.52694 18.377 8.5432 12.2844 15.7275 9.65251 10.437 4.61788 13.145 6.10846 8.5114 10.9858 6.77048 7.54455 3.26193 9.45069 4.08303 5.90285 7.87781 4.67256 5.27307 1.96902 6.09954 2.65778 3.88143 5.01415 2.88673 3.45585 1.16855 3.88119 1.78135 2.51908 3.24625 1.76075 2.41607 0.805869 2.61548 1.20963 1.60796 1.85545 1.23085 1.44907 0.515197 1.74051 0.500276 1.01504 0.985092 0.689124 0.644255 124.392 307.525 273.225 211.438 362.82 200.013 107.038 132.148 79.8714 70.6193 195.014 107.524 180.065 245.327 197.261 331.162 296.44 221.91 332.335 169.818 113.076 298.34 168.756 222.49 199.224 334.998 288.936 222.034 327.004 172.599 115.118 299.968 166.68 220.057 187.581 323.518 273.366 213.925 313.176 168.271 112.815 282.649 159.88 211.825 175.081 305.303 255.494 201.275 294.086 159.195 106.775 263.714 149.897 199.44 162.121 283.683 236.689 187.685 272.527 148.407 99.1764 244.393 138.297 184.544 149.476 261.591 217.553 172.665 250.975 136.583 91.6972 225.613 127.704 170.355 137.19 240.084 199.543 158.745 229.575 125.47 83.8778 207.392 116.197 155.341 125.742 219.035 182.712 144.699 210.161 114.591 76.5944 189.599 106.437 142.207 114.861 200.421 167.164 132.591 191.709 104.765 69.9608 173.638 96.9942 130.045 104.948 182.494 151.821 120.681 174.172 95.1834 63.5117 158.541 87.8497 117.863 95.1464 165.369 137.721 109.428 157.993 86.2484 57.5691 144.093 79.7535 106.869 86.1965 149.56 124.302 99.0778 142.194 77.8065 52.0707 130.554 71.6651 96.239 77.3225 134.287 111.544 88.8357 127.675 70.025 46.527 117.188 63.9629 86.1893 69.4116 119.983 100.144 79.4604 113.707 62.2958 41.6555 105.126 57.2601 77.1002 62.1174 106.548 88.8682 70.754 100.679 55.5406 37.0025 93.8899 50.2608 67.7232 55.0227 93.7934 78.3807 61.9819 88.4311 48.6819 32.5056 82.864 44.0332 59.8191 48.1598 82.1036 68.3812 54.2659 76.9816 42.2406 28.3507 73.2445 38.3769 52.0507 41.844 71.0134 59.2169 47.0743 66.5337 36.7582 24.495 63.4247 32.6911 44.5771 36.1701 60.5485 51.118 40.3296 56.3889 31.2921 20.6631 54.7646 27.4842 37.9591 30.8897 51.1604 43.2654 33.8628 47.3609 26.3072 17.4267 46.693 23.3141 32.0807 26.0853 42.8799 36.1935 28.3649 39.2277 21.7907 14.5013 39.5184 19.1501 26.4715 21.6919 35.1197 29.8265 23.2436 31.6986 17.6536 11.8103 32.7853 15.2972 21.4016 17.5504 27.791 23.9689 18.4436 24.9015 13.9727 9.25735 26.4817 11.7063 16.6529 14.2082 21.5254 19.3305 14.2857 19.2489 10.621 6.99744 21.4637 9.0466 12.9672 11.1784 16.4187 14.6683 10.8495 14.1738 7.91512 5.22607 17.0589 6.52502 9.55723 8.40466 11.5088 10.8074 7.69364 10.0251 5.57285 3.45301 12.7172 4.27808 6.4974 6.04004 7.82448 7.45232 5.35354 6.64477 3.61695 2.24845 9.21458 2.77322 4.27043 4.22096 4.89112 5.04514 3.37972 4.0287 2.14488 1.36331 6.41205 1.75654 2.59869 2.76032 3.01567 3.07022 2.00022 2.1897 1.03952 0.817841 4.34537 0.932275 1.50162 1.53223 1.51656 1.65347 1.02687 1.31977 0.555118 0.341001 2.31024 0.600493 0.735975 1.19253 1.42695 0.876659 1.1063 0.797781 0.784195 0.421309 1.82281 0.237557 0.519125 62.0822 140.001 149.14 98.0653 199.201 39.6107 34.314 99.0069 53.8188 133.119 127.727 247.311 207.133 166.223 253.276 195.753 171.446 139.161 255.148 209.114 169.337 249.415 210.624 169.256 133.771 241.562 196.131 159.116 232.987 201.414 158.512 123.899 224.76 180.78 148.094 216.066 186.864 146.984 113.826 207.651 166.54 136.645 199.211 172.168 135.698 104.663 191.283 153.492 126.115 183.404 158.584 124.904 96.119 175.458 140.976 115.854 168.564 145.849 114.44 88.3762 160.935 129.491 106.471 155.142 134.319 104.887 81.0205 147.131 119.028 97.6248 141.573 123.596 95.9378 74.5911 134.642 109.168 89.1623 129.212 113.28 87.5004 68.2983 122.588 99.9753 81.2019 117.619 103.915 79.4806 62.5337 111.306 91.3423 73.6217 106.73 95.0114 72.1944 56.8769 100.506 82.7701 66.6572 95.8659 86.6136 64.8363 51.7145 90.52 75.1757 59.737 86.379 78.2539 58.6129 46.7287 81.5626 67.7053 53.8922 77.7871 70.8403 52.4647 42.0209 72.7137 60.6947 48.0869 68.6611 63.8087 46.4446 37.5608 63.9348 54.3331 42.4502 60.7113 56.8344 40.8563 33.6644 56.0755 48.3054 37.2154 52.7764 51.027 35.8102 29.6475 49.0532 42.2705 32.2906 45.8986 44.8475 31.0427 26.0109 42.2238 36.7919 28.0529 39.4569 39.323 26.5143 22.4024 36.1317 31.7158 24.1216 33.6704 34.2867 22.5484 19.4255 30.3799 27.0074 20.2155 28.4247 29.5022 18.756 16.483 25.0723 22.9962 16.8462 23.1128 25.1509 15.4516 13.965 20.8677 19.1787 13.9471 19.3836 21.1999 12.8273 11.6998 17.02 15.7921 11.5471 15.4515 17.7846 10.0473 9.45384 13.3636 12.6931 9.03006 12.0477 14.3322 7.8928 7.38805 9.98714 9.67527 6.75998 8.84568 11.3245 5.69899 5.60578 7.51664 7.18029 5.01639 6.55755 8.66853 4.37257 4.17121 5.30946 4.67905 3.62901 4.23801 6.25766 2.60624 2.47108 2.90793 2.69523 1.97903 2.1594 3.738 1.36088 1.52938 2.07557 1.11062 1.39302 1.03266 2.05882 0.589559 29.739 69.8015 88.5115 50.207 115.825 18.9082 15.3815 47.6851 25.0702 77.0805 82.1502 155.498 136.032 104.059 164.8 124.528 111.593 93.9966 174.818 141.065 115.028 169.382 141.455 115.788 89.2863 166.498 131.305 109.12 158.61 134.404 108.61 81.2889 152.442 119.808 99.9753 145.298 122.7 99.3451 73.9454 139.056 109.811 91.2929 133.476 111.945 91.3159 68.0099 127.816 101.158 84.1056 123.349 103.366 84.0562 62.9997 117.818 93.9185 77.8103 113.681 96.0251 77.2834 58.274 108.758 87.2565 71.9752 105.626 89.3473 71.6569 54.4607 100.56 81.6624 66.7276 97.8178 83.4896 66.2411 51.0184 92.9329 75.9224 61.7107 90.2802 78.4669 60.8765 47.741 85.735 71.2647 57.0855 83.4668 73.2189 56.3933 44.3358 79.2291 66.0327 52.8659 77.0277 68.4258 51.8784 41.5846 72.7713 61.6037 48.5635 70.6068 63.7275 47.4036 38.6112 66.7392 56.9911 44.2918 64.5815 59.2085 43.5181 35.8403 60.858 52.8178 40.3241 58.7651 54.6442 39.5566 33.1998 55.2002 48.306 36.8009 53.3066 50.5809 35.5656 30.1311 49.975 44.3077 33.3832 48.4334 46.268 32.5655 27.8388 45.3053 40.5469 30.382 43.7175 42.535 29.1005 25.3442 40.5034 36.54 27.0868 39.0206 38.7701 25.9137 23.1471 36.2087 33.2265 24.1831 34.7106 35.0863 22.9537 20.7373 31.8631 29.6967 21.5042 30.4621 31.649 20.2372 18.6365 28.2678 26.3989 18.9328 26.8339 28.2977 17.7435 16.4224 24.5325 23.0467 16.5107 23.3849 24.9431 15.3876 14.3308 20.973 19.968 14.1497 19.6479 21.7525 12.9368 12.262 17.9529 17.0808 11.95 16.63 18.5897 11.1292 10.4543 14.9692 14.1738 10.0202 13.7425 15.6992 9.11882 8.51182 12.0291 11.1471 8.21642 10.9276 13.0211 7.06679 6.66959 9.30745 8.63776 6.33717 8.08583 10.1938 5.1817 4.84722 6.66335 5.82754 4.54421 5.63487 7.42352 3.56954 3.1484 4.29527 3.30622 2.83898 3.21219 4.74209 2.12926 1.52108 2.26844 1.12177 1.45452 1.10504 2.33551 0.768561 21.6758 35.2308 74.0831 25.8069 74.7898 17.3634 6.58262 33.5032 10.6323 49.7515 70.717 107.743 117.01 71.0664 114.878 104.576 77.8654 81.5938 123.636 120.402 80.1906 117.214 120.007 79.8812 75.8143 115.631 110.089 74.9008 107.66 112.175 73.5115 67.4296 103.523 98.8186 67.2198 97.5274 100.57 66.4082 60.5308 93.2756 89.7375 61.0437 89.4188 91.0623 60.4706 55.44 85.5445 82.8774 56.4142 83.1454 83.8923 55.8951 51.6261 79.5904 77.4427 52.6729 77.9195 78.4266 52.184 48.4862 74.5822 72.8414 49.7072 73.5516 73.9018 49.0358 45.8954 70.3397 68.8726 46.9013 69.4044 70.0137 46.2586 43.5395 66.5303 65.1674 44.4508 65.8065 66.3772 43.7101 41.3012 63.0453 61.5607 42.1443 62.4073 62.9893 41.4025 39.0841 59.402 58.1466 39.8698 58.6108 59.6193 38.8351 36.9634 56.1498 54.7659 37.5909 55.3373 56.3879 36.6524 34.8615 52.8224 51.412 35.4904 52.0043 53.112 34.3589 32.7132 49.5027 48.1715 33.2744 48.739 49.9262 32.1931 30.6874 46.3756 44.9315 31.167 45.4695 46.8688 30.037 28.6722 42.9999 41.7103 28.9588 42.1393 43.6976 27.7321 26.6387 39.9187 38.5802 26.9052 39.1352 40.579 25.722 24.557 36.6825 35.4888 24.8146 35.7533 37.4289 23.5134 22.6281 33.8224 32.4097 22.6768 32.8375 34.3799 21.642 20.6232 30.7193 29.4664 20.7073 29.7091 31.3122 19.4774 18.5918 27.5877 26.4072 18.6766 26.6513 28.3747 17.5404 16.6838 24.7941 23.5282 16.6841 23.6348 25.2768 15.5381 14.7222 21.8087 20.5822 14.5991 20.5992 22.3178 13.6871 12.8252 18.9018 17.5857 12.6579 17.6499 19.3772 11.6592 10.7967 16.0355 14.7054 10.7032 14.872 16.3192 9.78638 8.80339 13.0993 11.836 8.91959 11.9746 13.5815 7.84715 7.08966 10.3053 9.05354 7.0031 9.11109 10.6701 5.99475 5.202 7.64728 6.26371 5.26354 6.41742 7.88403 4.12598 3.32368 4.93491 3.65676 3.33134 3.65253 5.12007 2.32729 1.45944 2.3204 1.07902 1.55702 1.21941 2.44603 0.844436 40.3619 41.6769 107.216 31.2165 85.6099 34.7706 10.4451 61.8203 18.8745 55.3228 97.0923 117.21 155.182 77.7769 125.727 142.736 83.2999 109.858 133.786 159.425 87.6182 128.161 160.829 85.4141 104.003 125.888 147.916 82.4843 117.838 152.586 78.4318 94.783 113.44 134.444 74.6165 106.898 139.4 70.6233 86.0568 102.754 122.897 67.9462 97.8132 127.13 64.4221 78.9724 94.2333 112.835 62.6305 90.5968 117.025 59.3802 72.7622 87.4238 104.255 58.2661 84.7166 108.005 55.3649 67.2681 81.8074 96.7702 54.7089 79.4854 100.46 51.858 62.5817 76.6956 89.8693 51.3596 74.7674 93.4431 48.8061 57.9919 72.1491 83.4833 48.4073 70.4588 86.8587 45.9455 54.0185 67.8952 77.5912 45.5875 66.2681 80.8106 43.2892 50.104 63.8492 71.8562 42.8171 62.1891 75.0818 40.6676 46.4296 59.8945 66.5282 40.1462 58.3096 69.3611 38.1045 42.6541 55.9193 61.1734 37.5617 54.5242 64.2208 35.6586 39.4948 52.1996 56.481 35.0654 50.8278 59.0133 33.2928 36.1889 48.6549 51.4716 32.6716 47.1941 54.3526 30.8488 33.0003 45.0659 47.1799 30.2832 43.6248 49.5736 28.6799 30.0712 41.5869 42.7001 27.9247 40.2837 45.1651 26.4149 27.1819 38.1174 38.611 25.6381 36.8208 41.0917 24.181 24.5373 34.7483 34.5877 23.4078 33.4555 37.0165 22.007 22.0007 31.5931 30.8654 21.1675 30.2855 33.2759 19.9069 19.4665 28.3512 27.2264 19.0697 27.247 29.4751 17.9212 17.1414 25.3545 23.8538 17.0356 23.9193 25.9949 15.7934 14.8478 22.1647 20.5241 14.9058 20.8979 22.5201 13.7764 12.7387 19.1478 17.3784 12.8418 17.9939 19.2467 11.8304 10.6127 16.2841 14.4151 10.8509 14.8997 16.2118 9.8889 8.60326 13.1833 11.4592 8.9029 12.0263 13.0872 7.93715 6.79394 10.4064 8.69396 6.98398 9.15502 10.2422 6.03692 4.82931 7.60728 6.0666 5.0834 6.55946 7.38679 4.2763 3.26717 4.99469 3.7585 3.30591 3.91715 4.98415 2.54468 1.73811 2.36123 1.19015 1.76504 1.17181 2.67739 0.70089 78.9977 84.9608 172.25 61.9233 139.429 69.1492 25.2232 120.497 42.7037 89.2203 146.451 176.202 227.073 118.401 186.671 216.496 122.13 158.832 195.217 230.636 129.99 190.206 234.531 125.685 152.109 187.102 216.823 123.799 178.233 224.454 117.877 140.7 172.645 200.011 114.426 163.977 207.916 108.286 129.146 157.77 183.37 104.945 150.64 191.109 99.0189 118.988 145.14 168.978 96.8438 138.931 176.033 91.1378 109.399 133.701 155.177 89.1075 127.922 162.113 83.9858 100.635 123.249 142.727 82.1603 117.843 149.076 77.394 92.1674 113.658 130.607 75.8983 109.103 136.926 71.3492 84.6466 104.681 120.13 69.9713 100.289 125.739 65.8684 77.4488 96.5896 109.678 64.5302 92.4342 115.262 60.6931 70.7253 88.6209 99.8708 59.1929 84.8203 105.05 55.5348 64.2212 81.2366 90.7124 54.1293 77.4654 95.7145 50.9874 58.0392 74.1071 81.8301 49.4542 70.5507 86.2797 46.3448 52.2785 67.4371 73.4206 44.9889 64.3946 78.0789 42.4212 46.7991 61.2545 65.7083 40.9313 58.0839 70.0252 38.1741 41.9181 55.073 58.515 36.5914 52.2034 62.592 34.4116 37.0086 49.5534 51.8109 33.0295 46.8813 55.4176 30.9546 32.5903 44.2485 45.2867 29.5565 41.8644 48.8547 27.6131 28.3944 39.3401 39.4462 26.2795 37.0866 42.6194 24.317 24.5966 34.4408 33.8926 23.1687 32.5385 36.8405 21.3281 21.1569 30.2346 29.1273 20.2777 28.414 31.6296 18.7181 17.9301 26.1634 24.4366 17.4868 24.3093 26.9826 16.1261 15.0447 22.3125 20.2518 15.0033 20.7166 22.6305 13.6168 12.2356 18.7939 16.4491 12.6225 17.3609 18.5534 11.4309 9.89357 15.4248 13.2563 10.4144 14.2227 14.9215 9.34117 7.81395 12.4459 10.2229 8.35057 11.046 11.969 7.44396 5.86382 9.62054 7.48911 6.38048 8.41116 8.93228 5.54758 4.03108 6.83661 5.06186 4.54417 5.63854 6.30861 3.82355 2.63999 4.52608 3.54873 2.97858 3.62559 3.98625 2.46395 1.65797 2.48423 1.09514 1.63326 1.29198 2.43879 0.788866 150.458 167.46 263.912 117.147 218.811 137.555 56.7898 225.274 89.8869 140.451 207.369 260.894 311.963 175.547 268.615 308.398 176.494 213.126 275.987 310.317 184.242 269.894 317.36 178.126 204.835 264.487 294.381 175.971 254.704 304.016 168.431 191.995 246.359 274.193 163.71 235.932 284.513 156.005 177.811 227.478 253.407 151.115 217.047 263.398 143.614 163.96 209.532 233.43 139.192 200.412 242.924 132.457 150.879 192.695 214.181 128.247 183.799 223.806 121.254 138.475 176.894 196.414 117.553 168.898 205.295 111.456 126.71 162.039 179.5 107.982 154.535 188.379 101.845 115.548 148.47 163.348 98.606 141.495 171.731 93.2584 105.159 135.313 148.471 90.2809 128.682 156.509 84.9388 95.0872 122.761 134.197 81.6032 116.644 141.46 76.9571 86.0488 111.288 120.642 74.1739 105.6 127.88 69.6022 77.1565 100.071 107.98 66.5528 94.441 114.636 62.2664 68.526 89.6225 95.8426 59.9346 84.6763 102.309 55.6983 60.7903 79.5305 84.4867 53.1282 74.9338 90.5102 49.3821 53.5059 70.6171 74.287 47.068 66.3263 79.699 43.6643 46.8252 61.9856 64.303 41.3565 57.9052 69.818 38.1307 40.3374 53.9794 55.2083 36.0062 50.0763 60.1859 33.1196 34.3807 46.5232 46.8823 30.7801 42.9449 51.3029 28.5046 28.9725 39.9692 39.1956 26.4344 36.4773 43.2306 24.1328 24.0261 33.6291 32.5462 22.1984 30.5546 35.7955 20.3799 19.7515 27.7061 26.1912 18.3438 25.0515 29.4214 16.7308 15.6169 22.8776 20.3412 15.0056 20.419 23.7241 13.7748 12.2499 18.4182 15.7982 12.0911 16.1952 18.4416 10.856 8.94262 14.1534 11.6258 9.41229 12.5281 13.6938 8.43694 6.69507 11.0423 8.52542 7.35177 9.63545 9.9696 6.44221 4.54054 7.86619 5.66959 5.26396 6.7366 6.8738 4.57717 3.10529 5.46657 3.66586 3.55347 4.45067 4.70196 3.02709 1.85317 3.53655 2.50333 2.26906 2.8379 2.71318 2.02199 1.2371 2.30506 0.998416 1.50961 1.17661 1.79664 0.772891 135.789 332.205 177.196 223.133 321.24 66.9025 128.213 196.547 195.376 209.502 125.331 352.144 180.988 234.997 355.652 185.002 234.197 126.269 356.38 181.31 238.126 350.956 187.032 231.972 123.001 344.012 174.678 229.066 334.106 181.054 221.161 117.018 324.363 164.44 215.557 312.316 171.549 206.804 109.283 301.676 152.916 200.357 289.228 159.971 191.77 101.176 278.846 141.038 185.238 266.922 148.144 176.759 93.2539 256.746 129.848 170.528 245.239 136.512 162.403 85.5541 235.489 118.978 156.471 224.704 125.207 148.643 78.1528 215.201 108.653 143.198 205.554 114.545 135.929 71.4196 196.403 99.0643 130.656 186.472 104.723 123.465 64.9612 178.626 90.0798 118.708 169.614 94.9577 112.187 58.6053 161.133 81.0537 107.196 152.759 86.0657 101.228 52.8567 145.453 72.8497 96.5833 137.359 77.3904 90.7347 47.1029 130.001 65.3199 86.2541 122.498 69.2008 81.515 42.2252 115.722 57.6959 76.674 108.566 61.7838 71.779 37.1185 102.214 51.2261 67.7856 95.5575 54.3215 63.3909 32.797 89.6622 44.5052 59.2434 83.2953 47.7304 55.204 28.1012 77.8508 38.6988 51.5943 72.0129 41.2216 47.8666 24.4743 67.0139 33.144 44.1571 61.4318 35.4843 40.8242 20.6114 56.5511 27.8354 37.1624 51.4856 29.9271 34.344 17.1827 47.0022 22.9817 30.9629 42.6779 24.9725 28.2782 14.0505 38.787 18.6495 25.4745 34.7117 20.6043 23.0997 11.2106 31.4921 15.2586 20.7842 27.8981 16.3905 18.7048 8.94024 24.5057 11.6902 15.9852 21.1721 12.7863 14.0558 6.69156 18.5204 8.77575 11.9892 15.6779 9.55394 10.6865 4.67478 13.2608 6.04718 8.46364 11.0043 6.72145 7.57725 3.1909 9.34745 4.29597 5.9059 7.44959 4.62957 5.45515 2.19555 6.34118 2.69837 3.84611 4.63187 3.14448 3.34853 1.25236 3.86639 1.67631 2.32792 2.97068 1.63563 2.08268 0.684654 2.17623 0.991318 1.38057 1.95709 0.958111 1.34617 0.433019 1.57905 0.433986 1.07597 0.84096 0.760221 0.526174 126.025 307.409 273.48 211.289 362.57 198.338 106.91 131.634 82.0446 71.374 199.311 111.263 181.442 245.411 197.753 334.002 296.289 224.802 334.366 173.34 114.611 299.327 169.5 223.535 198.719 335.861 287.893 221.899 325.605 172.911 115.789 297.753 166.383 220.248 186.429 322.378 271.207 211.944 310.431 166.959 112.367 279.15 158.811 210.998 173.192 303.032 253.286 199.339 290.778 157.443 106.095 260.001 148.665 198.151 161 282.066 234.869 185.316 269.685 146.565 98.546 241.798 137.73 183.811 148.383 260.136 216.418 171.493 249.344 135.61 91.1867 223.3 126.893 169.221 136.5 239.05 198.925 157.677 228.942 124.561 83.6749 205.959 116.138 155.231 125.052 218.637 182.114 144.691 209.918 114.274 76.495 189.406 106.23 142.12 114.886 200.128 166.845 132.316 191.722 104.441 69.8498 173.646 97.1178 129.751 104.671 182.251 151.95 120.742 174.169 95.1262 63.6174 158.46 87.9359 117.797 95.2532 165.323 137.924 109.458 157.861 86.2834 57.6204 144.395 79.5968 106.813 86.3802 149.395 124.848 98.9158 142.299 77.9397 51.937 130.518 71.8235 96.1227 77.6287 134.571 112.108 89.05 128.13 70.258 47.0132 117.823 64.3329 86.6396 70.0299 120.315 100.548 79.7762 114.132 62.5124 41.6764 106.155 57.005 76.8717 62.1588 106.697 89.2551 70.6177 100.765 55.4351 36.9712 94.5216 50.4198 68.1294 55.0899 93.9799 78.6908 62.4239 88.7889 48.9969 32.6673 83.6244 44.158 59.7536 48.5492 82.1145 69.063 54.4842 77.2428 42.5628 28.3045 73.5772 38.0933 52.0476 42.3267 71.2155 59.9741 47.1079 66.7015 36.7723 24.3604 64.3226 32.8554 45.0312 36.7602 61.2319 51.9825 40.5486 56.9764 31.4498 20.8254 55.7269 27.9594 38.4943 31.3432 51.8792 43.4331 34.2252 47.9545 26.426 17.6352 47.8004 23.3655 32.2806 26.1017 42.8959 36.4239 28.5352 39.3838 21.9948 14.4449 40.143 18.9946 26.3598 21.8361 34.935 30.3029 23.2228 32.1934 17.7643 11.7713 33.2294 15.2936 21.5011 17.7911 28.014 24.2836 18.8674 25.5251 14.1821 9.20985 27.3427 11.8836 16.8829 14.2839 21.7271 19.396 14.5464 19.2983 10.5609 6.98005 21.9931 8.96749 13.0054 11.3431 16.4639 15.0802 10.8754 14.5494 7.99736 5.27917 17.3694 6.52635 9.70334 8.59176 11.8328 11.2778 7.93298 10.2186 5.35042 3.6499 13.3694 4.71167 7.05775 6.47031 8.50283 8.05205 5.55893 6.8618 3.81178 2.48945 9.8909 2.98385 4.6299 4.48939 5.38334 5.21364 3.53446 4.34899 2.28213 1.51544 6.7244 1.77599 2.76822 2.7973 2.94278 3.22472 2.11995 2.4775 1.18093 0.712453 4.43641 0.998525 1.47097 1.6116 1.77155 1.82717 1.20626 1.42649 0.570627 0.427666 2.76773 0.574734 0.876095 1.28727 1.52308 1.03763 1.08287 0.724152 0.691022 0.355303 1.76518 0.223971 0.600443 63.9812 143.482 149.029 101.859 200.904 41.3433 36.1676 104.359 59.4658 133.412 126.86 247.486 205.071 166.194 252.147 194.172 170.979 137.52 253.58 206.424 167.334 245.63 206.772 168.096 131.834 239.047 193.333 156.207 228.702 196.378 156.809 122.333 222.234 179.18 145.014 212.192 182.738 145.607 112.783 205.754 165.475 134.854 197.096 169.549 134.528 104.314 189.767 152.774 124.631 181.962 157.241 123.954 95.8824 174.663 141.21 115.035 167.912 145.408 114.373 88.6743 160.662 130.11 106.261 154.42 135.015 104.77 81.7841 147.457 119.564 97.3156 142.156 124.05 96.0502 74.9541 134.87 109.943 89.4619 129.989 114.654 87.8009 68.9759 123.214 100.91 81.7172 118.601 105.473 80.0206 63.1086 111.658 92.0105 74.1925 107.598 96.594 72.5266 57.4151 101.276 83.7533 67.5737 97.3503 88.1179 65.2728 52.3163 90.9812 75.7922 60.7748 87.7813 80.0651 58.7768 47.3149 81.8238 68.799 54.561 78.2225 72.3564 52.6831 42.8929 73.0169 61.3951 48.5766 69.8025 65.2195 46.5666 37.778 64.7139 54.9288 43.2534 61.5005 58.434 41.2842 34.153 56.6954 48.832 37.9191 53.9693 51.8771 35.9822 29.8556 49.3531 42.6902 33.2959 47.2464 45.8613 31.2677 26.3544 42.851 37.2789 28.9529 40.4016 40.4608 26.5123 22.9272 36.2494 32.7388 24.3814 34.5094 35.0891 22.7861 19.9918 30.8199 28.0385 20.8636 29.2076 30.8467 19.3546 17.1855 26.0187 23.4861 17.5741 24.226 26.487 15.7732 14.3565 21.299 20.0267 14.5392 19.8325 22.1369 13.0127 12.1005 17.3208 16.4444 11.7941 16.165 18.432 10.4607 9.73733 13.7667 13.176 9.32335 12.4612 14.9932 8.223 7.81051 10.4992 9.95507 7.26896 9.46026 12.1237 5.96447 5.9459 7.82258 7.61204 5.36565 6.77483 9.10806 4.382 4.35415 5.52179 5.05974 3.6196 4.44767 6.59659 2.93585 2.65186 3.18337 2.77766 2.30146 2.71537 4.09555 1.35057 1.42619 2.04245 1.02149 1.40508 1.04225 2.36827 0.679291 29.6102 71.9908 85.6213 52.5572 114.437 18.4078 16.918 48.3682 28.9226 76.4223 79.3958 153.261 132.058 101.794 160.525 118.213 109.862 91.273 171.644 137.371 111.628 164.449 135.059 113.661 87.0827 163.216 128.699 105.405 153.98 129.146 106.661 79.7181 149.836 118.497 97.1609 142.559 119.195 98.3537 73.3231 137.696 109.41 89.9679 132.199 110.791 90.5972 67.7626 127.268 101.616 83.6919 123.344 103.538 83.8813 63.3344 117.776 94.899 78.2698 114.731 97.475 77.6051 59.0865 109.279 88.8278 72.741 106.884 91.2357 72.0201 55.5225 101.315 83.2922 67.5667 99.1237 85.9323 66.545 52.1981 93.5957 77.8073 62.777 92.1511 80.6149 61.4647 48.8907 87.1201 72.7945 58.3993 85.3815 75.7581 57.0205 45.6322 80.4667 67.8806 53.9271 79.0296 70.6255 52.6293 42.6527 73.8742 63.1437 49.7669 72.2562 66.0512 48.141 39.6225 67.8698 58.5245 45.6891 66.6831 61.2648 44.0306 36.6424 61.9254 53.9011 41.7711 60.8966 57.0255 40.156 34.057 56.6027 49.8746 38.1802 55.2897 52.8389 36.5363 31.3455 51.0853 45.6523 34.6199 50.0111 48.5477 32.9218 28.5886 46.4452 41.6847 31.3412 45.2103 44.5147 29.8402 26.2272 41.3638 37.8935 28.0454 40.3805 40.7104 26.5688 23.8172 37.0705 34.0543 25.2352 36.0961 36.9605 23.4905 21.514 32.9282 30.7092 22.4615 32.1381 33.1568 20.8379 19.2561 29.1619 27.2299 19.9978 28.1745 29.686 18.31 16.9579 25.469 24.1059 17.3471 24.2166 26.3156 15.8563 15.023 21.8834 20.6843 14.7218 20.931 23.0297 13.5369 12.7325 18.5648 17.507 12.7877 17.6724 19.8913 11.3749 10.7013 15.3984 14.5477 10.5954 14.3977 16.6496 9.20294 8.87189 12.5335 11.8079 8.68425 11.5301 13.6158 7.40821 6.98919 9.69288 8.95751 6.56283 8.55551 10.6967 5.57906 5.09944 7.0658 6.28907 4.75987 5.95827 7.8331 3.84479 3.42069 4.56736 3.57361 3.16177 3.43762 5.33384 2.2649 1.65895 2.36397 1.07447 1.74349 1.29216 2.51848 0.690141 19.8141 32.7469 69.9645 22.9998 68.188 16.608 5.92659 29.3561 10.118 47.2518 67.4106 102.719 112.132 65.4975 106.427 96.4272 74.6232 78.058 118.529 115.991 74.7788 110.069 111.843 77.0112 73.2637 111.905 107.425 70.9002 103.327 106.186 71.6033 66.072 101.238 97.6856 65.1781 95.7523 97.6641 65.4351 60.2502 92.6049 89.9509 60.5976 89.7324 90.6199 60.5205 55.892 86.019 83.9209 57.1008 84.6929 85.1979 56.4231 52.506 80.7283 79.009 54.226 80.4643 80.7987 53.0973 49.7659 76.3594 74.805 51.4827 76.4056 76.9027 50.2976 47.3007 72.3981 70.8556 49.0374 72.7448 73.2839 47.6451 44.9323 68.7535 67.1671 46.7707 69.1015 69.8381 45.1249 42.7172 65.0961 63.67 44.3591 65.4028 66.295 42.6408 40.4531 61.4122 60.0616 41.8328 61.6348 62.8137 40.1241 38.2787 57.9617 56.6203 39.52 58.1618 59.4457 37.7963 36.1035 54.5229 53.1939 37.262 54.8183 55.9627 35.5742 33.8939 51.131 49.8215 35.1296 51.1483 52.7119 33.134 31.8893 47.8518 46.5304 32.8459 47.8959 49.3274 30.9417 29.723 44.6188 43.2127 30.5302 44.3972 46.0579 28.728 27.5966 41.2924 40.0084 28.3221 41.0286 42.7379 26.5321 25.5122 38.0959 36.7596 26.1209 37.7747 39.4387 24.3977 23.4403 34.9058 33.5908 23.932 34.5358 36.2542 22.2444 21.3134 31.7262 30.484 21.85 31.3183 33.0697 20.1677 19.4 28.7713 27.467 19.7004 28.0399 29.9089 18.1374 17.2787 25.5616 24.321 17.5725 24.8724 26.7244 16.083 15.2579 22.651 21.1757 15.6053 21.91 23.5932 14.0386 13.1317 19.4779 18.2396 13.4789 18.7028 20.4094 12.0632 11.2013 16.5085 15.2766 11.3781 15.5665 17.3878 10.0251 9.38486 13.7944 12.4217 9.34786 12.7364 14.3422 8.21812 7.34673 10.9096 9.42118 7.46845 9.8078 11.4383 6.24812 5.33249 7.8822 6.6554 5.47943 6.78752 8.46892 4.39894 3.54468 5.22601 3.79052 3.67791 4.00134 5.46738 2.52431 1.70133 2.59643 1.25226 1.69276 1.24368 2.53934 0.818168 41.8522 40.9901 105.843 30.3775 80.2954 37.082 11.3725 65.3949 22.3472 52.9597 95.3586 113.005 152.066 73.2717 118.218 138.183 80.2845 107.488 129.146 155.892 82.5474 121.244 154.55 82.5502 101.938 122.34 145.313 78.5745 113.465 147.412 76.5472 93.2771 111.538 133.086 72.7354 105.191 136.152 69.9146 85.3921 102.253 122.131 67.6043 98.2446 125.858 64.3646 78.7365 94.7135 113.193 63.305 92.0751 117.088 59.9673 73.0934 88.5736 105.114 59.7249 87.109 109.369 56.2601 68.1364 83.429 98.1876 56.5526 82.3374 102.329 52.9968 63.5835 78.5914 91.2366 53.4022 77.6825 95.7914 49.9451 59.0606 74.0493 84.9912 50.4228 73.4281 89.0221 47.1405 54.894 69.7943 78.9982 47.572 69.2175 83.1326 44.4845 51.1101 65.6455 73.3723 44.8738 65.0217 77.4576 41.8266 47.3108 61.664 67.817 42.1536 61.1119 71.8816 39.3198 43.8246 57.7007 62.7378 39.4105 57.0828 66.4551 36.7965 40.2583 53.9384 57.4706 36.8473 53.3059 61.3673 34.2791 36.8851 50.1842 52.7018 34.3262 49.618 56.2615 31.9001 33.856 46.5278 48.2285 31.8206 45.8019 51.5737 29.532 30.7345 42.8693 43.6988 29.3242 42.175 47.0798 27.2236 27.9842 39.3452 39.6463 26.9036 38.5927 42.771 24.9095 25.1645 35.9719 35.5258 24.5419 35.2903 38.5026 22.7532 22.5024 32.5539 31.7688 22.3933 31.9165 34.5313 20.5859 20.0243 29.3758 27.9904 20.1388 28.5843 30.8356 18.4555 17.6404 26.1454 24.567 17.8771 25.3097 27.1704 16.2825 15.2889 22.9123 21.2486 15.7099 22.0076 23.619 14.2776 13.1357 19.7602 18.0342 13.5702 18.9436 20.3401 12.26 11.0785 16.8416 14.9131 11.5296 15.7642 17.1587 10.2192 8.98104 13.8968 11.9524 9.50289 12.7211 13.9173 8.31659 7.02092 10.8254 8.9992 7.42857 9.70591 10.8705 6.26209 5.06364 7.93072 6.26309 5.51119 6.8346 7.959 4.54008 3.43505 5.41704 4.00246 3.52668 3.94901 5.25885 2.63995 1.97898 2.65925 1.38615 1.5049 1.13308 2.80742 0.883566 82.0366 87.9608 173.979 65.3977 139.673 72.158 27.3854 127.682 49.0731 89.0253 146.856 175.039 226.16 116.734 182.901 216.499 121.129 157.912 193.131 228.527 126.762 185.403 231.023 123.844 150.228 184.056 214.176 120.891 174.293 219.992 116.212 139.27 170.495 198.492 112.136 161.351 204.182 107.273 128.579 156.891 182.65 103.701 149.338 189.264 98.5443 118.323 144.709 168.54 96.2651 138.904 174.784 91.178 109.399 133.905 155.449 89.5259 128.84 162.106 84.2302 100.745 123.943 143.065 83.1027 119.447 149.764 77.9644 92.4556 114.565 131.429 77.0844 110.954 137.813 72.1144 85.1067 105.814 120.532 71.1917 102.01 127.281 66.4706 77.7424 97.4386 110.143 65.6018 94.1279 116.257 61.2113 70.9113 89.7394 100.773 60.5257 86.6856 106.198 56.374 64.8519 82.2758 91.3755 55.5509 79.2317 96.9983 51.4386 58.5657 75.1989 82.373 50.6087 72.5069 87.5067 47.0995 52.7071 68.3027 74.1828 46.2441 65.9998 79.0746 42.7479 47.2674 62.0952 66.4423 41.9245 59.6043 71.1482 38.8574 42.4805 55.9959 59.2538 37.8778 53.7429 63.7157 34.9355 37.5621 50.2848 52.4128 34.147 48.3464 56.5425 31.3074 33.0015 45.1098 46.0322 30.4667 43.3402 49.859 28.1997 29.0101 40.1211 40.0771 27.2204 38.4448 43.9395 25.0134 25.0951 35.577 34.6444 24.0732 33.7599 38.2302 21.9986 21.4937 30.9487 29.5821 20.9835 29.3351 32.7208 19.1661 18.2649 26.8021 24.8941 18.1808 25.3817 27.764 16.4881 15.3772 22.9828 20.9281 15.639 21.6044 23.4357 14.0886 12.5946 19.4345 16.9558 13.2456 18.2774 19.3624 11.851 10.1468 16.1357 13.6262 11.0251 14.9921 15.7471 9.82314 8.08609 12.9806 10.3393 8.8948 11.7269 12.636 7.57915 5.9509 9.85111 7.69418 6.73055 8.76604 9.26369 5.78092 4.4106 7.11244 5.25604 4.8435 6.04999 6.74689 3.89041 2.74774 4.48021 3.43527 3.03268 3.66656 4.20562 2.57012 1.68753 2.64032 1.16507 1.88282 1.46128 2.48755 0.835306 152.645 170.689 267.218 121.017 222.626 138.575 58.1348 230.847 94.4118 141.702 208.95 262.07 313.217 177.074 268.448 311.522 176.371 213.428 275.267 309.438 182.681 266.688 316.399 177.384 203.802 262.719 292.908 173.375 250.659 301.023 167.134 190.905 244.389 272.553 161.109 232.847 280.867 155.07 176.724 226.274 251.842 149.737 215.8 261.141 142.875 163.158 208.383 232.246 138.451 199.223 241.494 131.59 150.29 192.263 213.643 127.857 183.91 222.731 121.235 138.005 176.813 196.239 117.917 169.524 205.313 111.511 126.808 162.493 179.654 108.374 155.351 188.537 102.233 115.732 148.725 163.861 99.2772 142.227 171.842 93.4602 105.611 135.813 148.953 90.5947 129.363 156.897 85.2775 95.4803 123.091 134.531 82.0967 117.487 142.303 77.2734 86.292 112.011 121.14 74.8233 106.333 128.626 70.035 77.2522 100.599 108.012 67.1923 95.3635 115.289 62.5201 69.0364 90.3395 96.5539 60.0939 85.4229 102.72 56.2373 61.2183 80.4274 85.1954 53.6967 75.7005 91.5524 49.7695 53.8137 71.4052 74.5455 47.4464 67.1227 80.0814 44.231 47.0385 62.7602 64.8141 41.7845 58.7437 70.1303 38.7257 40.5608 54.6164 55.8702 36.4153 50.8467 60.3919 33.4263 34.864 46.9705 47.1769 31.5371 43.9286 51.9688 28.6823 29.0696 40.0504 39.5187 27.0399 37.2666 43.6542 24.4066 24.2409 33.9204 32.8399 22.7344 31.0875 36.2891 20.5927 19.9708 28.1832 26.0885 18.8519 25.8083 30.0161 16.8137 15.8329 23.011 20.8973 15.5014 21.3398 23.6168 13.8625 12.3327 18.6141 15.9776 12.5409 16.6834 18.6858 11.0184 9.3249 14.503 11.7915 9.74683 13.0685 14.0409 8.46113 6.71981 11.1475 8.62249 7.54865 9.83039 10.458 6.52966 4.5941 8.11509 5.67303 5.40493 6.90204 7.19084 4.60396 3.00089 5.52736 3.5244 3.71953 4.60155 4.6124 3.11397 1.73073 3.52057 2.29092 2.20135 3.08262 2.51395 1.95837 1.12784 2.07746 0.82565 1.51407 1.18824 1.94274 0.745813 134.066 331.784 177.777 223.802 328.382 65.7316 126.657 194.204 193.26 212.313 126.56 356.319 182.466 239.532 359.677 188.644 236.159 127.117 358.148 181.865 239.089 350.379 188.684 232.036 122.931 342.827 174.278 227.628 331.501 180.709 220.315 116.611 322.912 163.97 213.699 309.246 170.557 205.835 108.926 299.989 152.295 198.634 287.081 158.834 190.537 100.704 277.619 140.745 184.1 265.521 147.217 176.078 92.9315 255.739 129.646 169.79 244.385 135.975 162.017 85.4147 235.086 118.855 156.191 224.563 125.072 148.725 78.2216 215.609 108.829 143.362 205.79 114.646 136.053 71.4721 196.565 98.8986 130.536 186.894 104.727 123.581 64.7174 178.738 89.9592 118.995 169.788 94.952 112.285 58.7949 161.677 81.3556 107.515 153.586 85.9555 101.409 52.849 145.63 72.9453 96.9683 137.875 77.6205 91.0923 47.4246 130.302 65.2345 86.8967 122.924 69.606 81.2049 42.1471 115.834 58.0024 76.9338 109.169 61.6351 72.0898 37.3673 102.425 51.1609 68.1972 96.209 54.702 63.6247 32.8101 90.0517 44.6471 59.6409 83.7043 48.0532 55.4049 28.2866 77.9636 38.5982 51.8047 72.359 41.5818 47.9682 24.3711 66.9723 33.1191 44.3294 61.787 35.5961 41.0947 20.6046 57.1138 27.7245 37.7514 52.3156 30.2795 34.7184 17.1303 47.2861 23.0256 31.3037 43.2815 25.2538 28.7064 14.2082 39.0579 18.7879 25.8718 35.0102 20.9382 23.2428 11.3407 31.7058 15.2688 21.0214 28.1246 16.6572 18.7726 8.84752 24.7527 11.589 16.0145 21.6796 12.9175 14.6693 6.66739 18.9042 8.76577 12.3805 15.9096 9.89367 10.782 4.64032 13.3325 5.88263 8.69498 11.3099 6.79964 7.50128 3.05729 9.07123 3.88321 6.07986 7.84345 4.58988 5.0589 1.82318 5.85769 2.4979 4.0077 4.71936 2.9166 3.16258 1.08452 3.59306 1.45812 2.24157 2.7648 1.57067 1.87766 0.619671 1.85634 0.970065 1.07845 1.59036 0.748653 1.23317 0.49512 1.52681 0.456117 1.00953 0.824932 0.675674 0.452071 134.19 314.368 274.97 221.264 365.951 201.611 111.678 133.211 91.8014 76.7793 220.448 129.197 182.564 245.096 198.005 338.694 293.924 226.135 331.469 175.035 116.94 297.292 168.756 224.71 195.342 333.193 282.424 216.027 316.654 168.985 114.812 287.168 163.668 218.12 182.056 316.938 265.812 205.353 301.127 162.118 110.379 268.297 155.742 207.914 169.587 297.846 248.485 193.561 283.416 153.201 103.996 251.859 145.902 194.84 157.852 277.137 231.293 181.05 264.884 143.217 96.9945 235.924 135.792 181.288 146.471 256.792 214.883 168.641 245.977 133.297 89.7595 220.075 125.241 167.589 135.702 236.643 198.248 156.053 227.047 123.223 82.6925 204.808 115.533 154.156 125.172 218.05 182.35 144.092 209.332 113.825 76.2267 189.061 106.161 141.8 114.675 200.016 167.288 132.41 191.901 104.446 69.9089 173.985 96.8165 129.591 105.088 182.106 152.267 120.464 174.467 94.8216 63.482 159.291 87.8422 117.669 95.6013 165.233 138.626 109.684 158.402 86.2943 57.5512 145.335 79.6675 106.838 86.6316 149.588 125.596 99.3688 142.86 78.2255 52.094 131.829 71.8548 96.463 78.1317 134.648 112.81 89.4433 128.634 70.3372 46.9617 119.368 64.4217 86.5746 70.4084 120.473 101.305 79.873 114.638 62.6896 41.6996 107.003 56.9275 77.1342 62.9131 106.978 90.0863 71.0715 101.8 55.7993 37.0669 95.5508 50.6296 68.3261 55.6483 94.537 79.6341 62.7951 89.4552 48.8759 32.6708 84.951 44.4466 60.1723 48.9946 82.6435 69.991 54.9359 78.0762 42.653 28.4746 74.7934 38.5352 52.5496 42.971 71.8942 60.906 47.8041 67.4405 37.0752 24.5883 65.6734 33.1698 45.3784 37.1764 61.6934 52.6468 40.9721 57.5673 31.6074 21.0337 56.962 28.2037 38.8125 31.8918 52.197 44.6544 34.6278 48.6087 26.6335 17.743 48.8284 23.5515 32.5398 27.0695 43.7093 37.626 28.9561 40.4098 22.0867 14.7905 41.4235 19.4126 27.0715 22.6077 35.5712 31.1483 23.5897 32.6142 17.9161 11.8215 34.4511 15.6668 21.8297 18.4998 28.9844 25.4767 19.3128 26.1967 14.5233 9.57387 28.4572 12.1038 17.4246 15.0852 22.1241 20.2201 14.8306 20.1617 11.1209 7.00891 22.9133 9.24709 13.0985 11.8499 17.0144 15.5921 11.5664 15.4149 8.29902 5.58885 18.4364 6.91193 9.86098 9.20268 12.288 11.8672 8.41982 10.7773 6.00115 3.73856 13.9963 4.63104 6.85365 6.66868 8.59935 8.40102 5.90707 7.55339 4.00007 2.59896 10.2701 3.0398 4.67406 4.67886 5.38809 5.67131 3.75311 4.48122 2.29422 1.48575 7.50413 1.77091 2.93769 3.21025 3.24272 3.58401 2.19592 2.5176 1.19819 0.727755 4.84563 1.03531 1.63908 1.86854 1.90397 2.02958 1.55388 1.68515 0.856792 0.52564 2.87042 0.670978 0.873326 1.18876 1.64313 0.96163 1.00823 0.764784 0.705275 0.404629 1.76432 0.190841 0.55969 72.2528 157.271 150.82 117.632 209.458 49.2084 43.1554 125.162 76.9836 135.687 125.201 247.25 200.668 164.604 245.257 189.857 169.06 133.616 247.844 199.946 159.447 234.272 196.126 163.936 126.741 231.814 187.412 148.783 219.131 186.254 152.922 118.52 216.106 174.841 139.675 205.499 175.743 142.119 110.439 201.441 163.448 131.304 193.044 165.484 132.526 103.264 187.404 152.242 122.741 180.435 155.471 123.106 95.8369 173.879 141.259 114.863 168.459 145.948 113.774 89.0834 160.789 131.449 106.88 155.721 136.248 105.199 82.4545 147.614 121.316 98.3266 143.494 126.726 96.5304 76.3851 135.82 112.001 90.725 131.632 117.295 88.3741 70.3457 124.323 102.804 82.9782 120.425 108.279 80.72 64.5871 112.887 94.1901 75.3862 109.457 99.3579 73.2866 59.0578 102.746 86.0602 68.8967 99.2988 90.8796 66.3851 53.6994 92.8258 78.0746 62.1019 89.4306 82.6073 59.7714 48.6119 83.0879 70.5233 55.611 80.5547 74.9098 53.4989 43.8521 74.0876 63.1618 50.0121 71.4439 68.1123 47.4783 39.2748 65.8895 56.8727 44.238 63.4837 60.8315 41.9576 35.1884 58.0457 50.7323 39.1651 55.8592 54.5685 36.8797 31.3246 50.8195 44.7846 34.401 48.8775 48.6041 32.2777 27.5319 44.2397 39.1671 30.0184 42.3301 43.0418 27.7783 24.0511 37.8903 34.3034 25.8298 36.3304 37.5844 23.7926 21.23 32.31 29.563 21.9698 30.6716 32.983 19.9997 18.0263 26.9079 25.1884 18.4138 25.7441 28.1727 16.5441 15.4628 22.5585 21.1865 15.4714 21.359 23.9045 13.6695 12.7794 18.4616 17.5243 12.8036 17.311 20.0639 11.1426 10.5346 14.5915 13.9503 10.0476 13.5544 16.5361 8.53197 8.27797 11.1862 11.0639 7.79413 10.2307 13.1556 6.38485 6.51659 8.28376 8.17555 5.86528 7.5331 10.122 4.64398 4.74105 5.97887 5.5808 4.12558 4.87428 7.39757 3.18397 2.9382 3.60355 3.14042 2.39619 2.8795 4.68515 1.99387 1.73659 2.26029 1.09741 1.51769 0.941917 2.70289 0.556386 31.6852 81.6813 81.2195 62.9529 116.682 19.3865 21.5127 56.9473 40.2248 76.6637 73.7342 148.618 123.361 96.6373 150.743 106.196 106.172 85.0758 164.06 129.773 103.542 153.41 122.081 109.256 82.1867 155.526 123.375 98.6084 145.743 119.699 102.647 76.8876 144.765 115.9 93.0672 138.296 114.482 95.8232 72.3351 135.073 109.297 88.3481 131.096 109.749 89.5207 68.5413 126.522 103.218 83.5333 124.11 105.225 83.7554 64.9738 118.784 97.8913 79.3062 117.009 100.574 78.5529 61.1825 111.139 92.1224 74.7297 110.071 95.753 73.3186 57.9609 103.5 86.7653 69.8742 102.93 90.7252 68.2389 54.6818 96.7803 81.6402 65.4338 95.9592 85.8562 63.534 51.4359 89.9106 76.4151 60.9924 89.198 80.7309 58.7662 47.9548 83.0095 71.2822 56.3716 82.5421 75.4293 54.3436 44.9407 76.7937 66.5664 52.1547 76.1068 70.5998 50.0081 41.77 70.4366 61.7574 47.9681 70.0074 65.7387 45.8444 38.9902 64.4567 57.4193 44.0509 64.0934 61.2264 41.8719 36.3047 59.0852 52.7523 40.4372 58.6018 56.9216 37.9715 33.2439 53.4853 48.6456 36.7211 53.2215 52.4538 34.6296 30.5903 48.6114 44.1755 33.6149 48.3238 48.2455 31.075 28.0135 43.8208 40.3913 30.3817 43.4468 43.9975 27.7927 25.3891 39.1811 36.511 27.0815 38.9373 39.7836 24.8712 22.9287 35.0621 32.894 24.2613 34.5026 36.1468 22.2152 20.6694 31.2004 29.1379 21.664 30.7008 32.4532 19.461 18.0943 26.9516 25.545 18.9383 26.4915 28.6732 16.8432 15.8917 23.3614 22.0738 16.2439 22.8327 25.1399 14.3729 13.8249 19.8524 18.9917 13.8533 19.1226 21.5747 12.0255 11.5789 16.4693 15.7119 11.5779 15.9583 18.1485 9.99242 9.57781 13.6079 12.6422 9.63314 12.7528 15.2487 8.07796 7.45861 10.6623 9.65194 7.54145 9.65103 11.8097 5.95576 5.62883 7.65529 6.76758 5.36546 6.71292 8.80685 4.14685 3.73079 5.05241 3.88106 3.44395 3.86721 5.65179 2.34571 1.60183 2.5411 1.27746 1.71511 1.20737 2.68721 0.92145 17.7971 30.5423 60.9889 21.7655 56.9863 17.8177 6.26965 27.8906 13.9044 41.7895 59.4116 91.1847 100.708 53.966 90.2454 78.8353 67.2017 70.24 107.312 106.807 64.345 98.0236 96.5791 70.9837 67.8875 103.754 101.84 64.3391 96.9815 97.0085 67.8979 63.5877 97.2871 95.9843 62.6261 94.349 94.2424 64.1149 60.1059 92.0295 90.8873 61.0884 91.689 91.5478 60.7327 57.2528 87.8628 86.6889 59.395 89.0376 88.6982 58.1179 54.9184 84.1554 82.7748 57.5052 85.7771 85.9088 55.4929 52.584 80.2629 78.9217 55.3269 82.2327 82.799 52.8933 50.2779 76.7921 75.2638 53.2504 78.7432 79.3737 50.3529 47.9877 73.0913 71.6502 50.7572 74.8848 75.7399 47.8608 45.7168 69.5222 67.9926 48.2425 71.0995 72.1358 45.4654 43.35 65.6294 64.1344 45.7051 67.08 68.475 42.7856 41.0516 61.8991 60.4759 43.1104 63.2755 64.7973 40.2745 38.7222 58.4161 57.0546 40.6999 59.5257 61.1567 38.0091 36.5214 54.9986 53.4302 38.3561 55.955 57.6553 35.6117 34.159 51.5087 49.9453 35.925 52.2875 53.8783 33.2512 31.9078 47.7955 46.377 33.4748 48.6737 50.3429 30.8432 29.6717 44.4317 42.9229 31.1399 44.8369 46.8666 28.4553 27.3723 40.95 39.4861 28.5432 41.3989 43.1458 26.3278 25.1887 37.5059 36.1662 26.216 37.6509 39.7835 23.9525 23.0155 34.1631 32.837 23.8567 34.061 36.2624 21.6432 20.8155 30.8223 29.4001 21.5578 30.7885 32.7178 19.4245 18.5906 27.5649 26.133 19.237 27.17 29.2188 17.2577 16.4102 24.278 22.8847 17.038 23.9664 25.8175 15.1729 14.2009 21.1134 19.6834 14.7482 20.4497 22.3991 13.0568 12.1389 17.8382 16.4434 12.4073 17.0666 19.0898 10.8673 9.99403 14.6976 13.1739 10.3686 13.838 15.7579 8.71732 7.95594 11.6549 10.3244 8.06737 10.6602 12.4281 6.74638 6.02202 8.77601 7.33179 6.27552 7.705 9.4737 4.84194 3.95052 5.8743 4.30022 4.01337 4.39311 6.28364 2.82628 1.86962 2.62317 1.30577 1.72985 1.22179 2.86536 0.792528 48.7324 42.795 104.175 32.9086 70.8381 45.8963 15.4198 78.7568 32.4958 47.7094 91.2704 102.95 143.507 63.299 102.903 128.204 73.1692 101.311 118.502 147.448 72.844 109.658 141.906 76.4558 96.9919 114.862 139.398 72.8837 107.562 138.729 72.7844 90.4607 107.937 130.476 70.4383 103.812 131.706 68.6372 84.5092 101.931 122.065 68.0168 100.092 125.276 65.0085 79.3731 96.6313 114.58 65.5738 96.0248 119.184 61.5224 74.5637 91.7701 107.745 62.8818 91.9139 112.871 58.549 70.0272 87.2428 101.085 60.0818 87.6918 106.478 55.6761 65.7363 82.7891 94.5005 57.0505 83.3146 100.119 52.7888 61.2153 78.2981 88.3002 54.2026 78.9126 93.7433 50.0102 57.1577 74.0201 82.294 51.2918 74.5471 87.7237 47.1791 53.2374 69.752 76.5935 48.3453 70.2417 81.7627 44.3988 49.3911 65.5039 71.016 45.513 66.0054 76.1598 41.7844 45.6816 61.2843 65.6343 42.648 61.8425 70.5434 39.0636 42.2807 57.3973 60.4745 39.9314 57.7217 65.3964 36.5518 38.8348 53.5127 55.6262 37.1523 53.7326 60.1135 34.0676 35.7152 49.7194 50.8461 34.5608 49.8406 55.3876 31.5586 32.4251 45.8678 46.2339 31.9794 45.9924 50.5432 29.1023 29.5752 42.0541 41.9625 29.3199 42.0915 46.0118 26.6674 26.6421 38.4558 37.66 26.8704 38.5325 41.6899 24.4064 23.8786 35.0512 33.7475 24.4715 34.8353 37.4413 22.1031 21.354 31.5164 29.9791 21.989 31.1827 33.4376 19.7747 18.8149 28.0644 26.2928 19.5739 27.6046 29.4886 17.5434 16.431 24.6798 22.709 17.2542 24.1864 25.7913 15.2798 14.0794 21.2738 19.2956 14.8483 20.5768 22.2172 13.1505 11.8663 18.141 15.947 12.6454 17.351 18.6819 10.9569 9.58305 14.8274 12.7212 10.3719 13.927 15.2234 8.79239 7.50964 11.6275 9.74927 8.1586 10.8637 11.914 6.81239 5.58032 8.74165 6.86527 6.09189 7.66149 8.76884 4.82791 3.60188 5.60412 4.16427 3.93533 4.50934 5.71442 2.89316 1.92067 2.75533 1.20611 1.96231 1.41537 3.15144 0.823023 93.2765 100.935 178.007 78.2778 143.43 84.2501 34.8616 151.885 67.1001 89.8275 146.087 171.487 221.491 113.077 173.501 213.319 116.975 153.672 185.496 221.32 118.902 174.73 220.662 118.94 145.904 177.722 208.637 114.774 167.082 210.459 112.527 135.807 165.994 194.218 108.575 158.063 198.37 105.085 126.393 154.793 180.658 102.79 148.983 186.252 97.7448 117.44 144.51 168.295 96.7601 140.105 174.408 91.4676 109.567 135.21 156.083 91.0277 131.424 163.129 85.2797 101.363 125.896 144.419 85.0955 122.546 151.514 79.2465 93.5145 116.898 133.196 79.2167 113.995 140.196 73.73 86.5435 108.357 122.44 73.4633 105.793 129.552 68.1086 78.9704 100.05 112.117 68.1192 97.7464 118.952 62.9603 72.474 92.3256 102.606 62.7762 90.1751 108.968 58.0538 66.0266 84.9545 93.1495 57.8226 82.8329 99.628 53.2923 59.6711 77.5563 84.0326 52.9993 75.7933 90.293 48.6528 53.9125 70.9334 75.8769 48.5368 69.2322 81.7027 44.5303 48.6319 64.5305 68.1079 44.0745 62.8767 73.562 40.2841 43.455 58.4071 60.865 40.088 56.8625 66.1237 36.4157 38.5826 52.5923 54.1579 36.0579 51.2421 58.6695 32.8964 34.101 47.2671 47.5564 32.4768 45.9874 52.2085 29.4907 30.0149 42.1406 41.5073 29.0809 41.1434 45.9578 26.1966 26.0993 37.2893 36.2536 25.7084 36.0378 40.194 23.0777 22.5638 32.6801 30.9564 22.6153 31.7914 34.6958 20.2463 19.0885 28.4501 26.0503 19.7232 27.4671 29.7828 17.5688 16.0169 24.3916 21.9706 16.9533 23.5457 25.0443 14.9644 13.3892 20.6907 17.972 14.4153 19.7943 20.941 12.6345 10.7992 17.1739 14.5336 11.8858 16.2645 16.9861 10.3929 8.69013 13.862 11.5429 9.64626 12.9699 13.5427 8.17477 6.52904 10.6246 8.25666 7.45754 9.75216 10.426 6.16424 4.59284 7.72399 5.69424 5.3423 6.75164 7.44335 4.35536 2.99463 5.04814 3.51791 3.46016 4.00457 4.73207 2.65012 1.64408 2.84497 1.28534 2.00011 1.52432 2.8253 0.959197 161.796 185.113 274.154 137.744 233.787 146.975 64.665 253.136 113.386 145.471 211.448 263.758 312.459 176.682 263.221 312.26 174.93 211.258 270.442 304.805 176.628 256.507 308.116 173.334 200.173 256.178 287.181 166.501 241.904 291.285 163.286 186.942 239.072 267.993 156.607 227.237 273.683 152.015 174.308 222.8 249.194 146.89 213.068 256.367 141.418 161.773 206.881 231.237 137.41 198.456 239.39 131.142 149.827 192.105 213.17 128.07 184.385 222.539 121.227 138.199 177.267 196.715 118.301 170.34 204.953 111.998 127.102 163.423 180.305 109.287 157.166 189.206 102.918 116.221 150.198 164.343 100.638 143.949 173.521 94.4033 105.604 136.915 149.612 91.7264 131.325 157.528 85.9914 96.1267 124.59 135.323 83.6998 119.543 143.559 78.1698 86.8927 113.174 121.979 75.9977 108.128 129.542 70.5603 77.7683 101.66 108.969 68.3442 97.1041 116.411 63.3893 69.572 91.2831 97.0437 61.4588 86.9105 104.242 56.723 61.8841 81.4934 86.1375 54.597 77.3314 92.3433 50.6686 54.4961 72.4246 75.2246 48.5222 68.6801 81.5683 44.8652 47.5027 63.8137 65.5567 42.8761 60.332 71.3393 39.5125 40.8029 55.7436 56.0466 37.5971 52.4448 61.7647 34.2324 35.1604 48.221 47.8525 32.5334 45.5668 52.9486 29.404 29.5751 41.3257 40.4652 27.9038 38.7489 44.7045 25.3529 24.7573 35.1836 33.0903 23.8192 32.7864 37.4043 21.173 20.1002 29.1186 27.1529 19.9085 27.3039 30.7504 17.6442 16.3508 24.0565 21.2449 16.4004 22.3792 24.9021 14.6208 12.6744 19.6874 16.5691 13.4219 17.9878 19.5625 11.5998 9.53892 15.2415 12.3056 10.4502 14.1303 14.9962 9.1399 7.33821 12.0084 9.0331 8.19235 10.9165 11.2042 7.12357 4.93554 8.91535 6.19946 6.27277 7.82224 7.79574 4.98196 3.28053 6.0328 3.89108 4.21257 5.34619 5.03129 3.27336 1.69314 3.56093 2.35705 2.58766 3.25888 3.06727 2.0596 1.38938 2.26085 1.05423 1.78491 1.2401 2.28437 0.708248 132.334 338.095 179.936 234.02 342.709 64.7875 127.35 195.294 201.264 218.402 130.181 364.056 185.783 244.166 358.382 193.978 237.863 128.535 357.418 182.071 235.179 341.975 188.344 230.179 122.687 338.947 173.104 221.877 322.994 178.014 217.316 115.614 317.678 162.027 208.64 303.054 167.563 202.742 107.629 296.502 151.005 195.472 283.385 156.525 188.835 100.114 275.261 139.889 182.067 263.672 145.773 175.056 92.6009 254.908 129.195 169.477 243.919 135.52 161.359 85.2677 234.847 118.758 155.852 224.421 124.803 148.731 78.159 215.552 108.929 143.406 206.039 114.457 136.256 71.6276 196.887 99.0031 131.049 187.914 104.874 123.79 64.9306 178.929 90.0058 119.207 170.156 95.4058 112.39 58.7014 162.301 81.5992 108.209 154.475 86.1954 101.914 53.1782 146.304 73.2047 97.2563 138.568 77.8326 91.3396 47.5314 131.056 65.8272 87.3243 123.703 69.6261 81.7422 42.2382 116.547 58.2702 77.467 109.734 62.0046 72.6556 37.6357 103.407 51.594 68.6803 96.6523 54.9769 64.0339 32.8828 90.4071 44.7712 60.2004 84.4299 48.1498 55.666 28.5488 78.7149 38.9792 52.3367 73.069 41.8226 48.3868 24.4794 67.3796 33.2506 44.7588 62.0794 35.8442 41.1047 20.7071 57.3101 27.9519 38.061 52.842 30.3452 34.8304 17.2452 47.7184 23.3366 31.8412 43.7123 25.4607 28.9411 14.4205 39.6468 19.0212 26.2688 35.657 21.0688 23.3475 11.4136 31.8204 15.4273 21.0947 28.8689 16.644 19.076 8.91592 25.1647 11.5397 16.8114 22.0229 13.4005 14.3695 6.65476 18.7673 8.86526 12.405 16.4314 9.67892 11.0078 4.73926 13.7869 6.0698 9.30326 11.8178 7.14838 7.62554 3.1556 9.67558 4.32871 6.38553 8.20829 4.63217 5.47351 2.1205 6.30402 2.70551 3.95812 5.14469 3.04913 3.52122 1.14041 3.88041 1.45188 2.46876 3.32324 1.76494 2.09121 0.589842 1.95884 0.777067 1.61021 1.97526 1.05111 1.12136 0.377782 1.52322 0.429916 1.16676 0.98312 0.700396 0.568894 168.893 359.491 275.292 140.361 197.697 79.2098 140.361 146.124 130.957 103.782 153.7 61.1513 172.205 241.655 189.301 329.016 279.648 105.291 160.749 53.7183 112.192 143.376 157.975 217.184 182.107 314.639 265.947 99.5014 155.746 50.9441 108.278 137.193 154.306 208.049 170.694 300.425 252.946 96.9727 151.012 49.5044 104.863 130.494 149.074 199.321 161.843 285.541 240.355 93.7147 144.163 47.5656 100.141 125.055 141.993 188.975 153.282 269.523 226.942 89.4179 136.035 45.3951 94.6053 118.999 133.083 177.315 144.237 252.256 212.817 83.873 126.882 42.443 88.3136 112.266 124.047 165.294 135.137 234.708 197.999 78.176 118.04 39.6081 82.1399 105.1 115.194 153.327 125.01 217.31 182.822 72.6622 108.975 36.7621 75.9547 97.6742 105.972 141.375 115.292 199.764 168.635 66.7798 99.9761 33.759 69.7384 89.986 97.0702 129.814 106.129 182.531 154.083 61.0908 91.1798 30.8531 63.6058 82.9456 88.4287 118.055 97.1093 166.527 140.667 55.676 82.9596 28.1021 57.9686 75.6637 80.2874 107.428 88.1093 150.953 127.381 50.4209 75.0732 25.4299 52.566 68.6603 72.4577 97.0654 79.589 135.575 115.185 45.3215 67.2139 22.8144 47.0522 62.0181 64.8417 87.2949 71.6015 121.407 103.139 40.6039 59.9819 20.4422 42.0358 55.8836 57.704 77.8327 64.1141 108.524 92.2576 36.1103 53.4908 18.1642 37.5374 49.9335 51.3295 69.2838 57.1338 95.5764 81.6734 31.9563 46.9195 16.0029 32.8596 44.41 44.989 60.7384 50.4176 83.7747 71.8735 28.1324 40.9252 14.0725 28.7521 39.2523 39.0866 52.9376 44.3218 73.0499 62.8365 24.4071 35.4874 12.234 25.0218 34.4279 33.6331 45.9107 38.4568 62.436 54.2 20.8453 30.2095 10.3797 21.21 29.7936 28.7134 39.189 32.8894 53.1031 46.564 17.8831 25.6586 8.88363 18.0638 25.5596 24.1589 33.1723 28.3095 44.6692 39.3792 14.9788 21.2919 7.38399 14.9829 21.964 19.8876 27.6097 23.657 36.7142 32.7116 12.2887 17.2367 5.97973 12.2236 18.4145 16.0233 22.3485 19.6123 29.5779 26.795 9.77945 13.7752 4.7663 9.67791 15.1143 12.7396 18.077 15.7268 23.4301 21.7229 7.82802 10.705 3.73071 7.57574 12.2189 9.72171 14.0953 12.9779 17.8145 17.3648 5.87667 7.89283 2.74739 5.51186 9.82645 7.27669 10.4393 10.1392 13.4818 13.0614 4.51222 5.92063 2.13125 4.24485 7.7279 5.34709 7.62874 7.45746 9.49222 9.39569 3.23349 3.98683 1.55771 2.85004 5.71731 3.40693 5.17188 5.48241 6.21468 6.52186 2.1146 2.41914 0.977817 1.73059 4.02351 2.01728 3.10408 3.52606 3.63157 3.93449 1.26451 1.21791 0.575955 0.91094 2.61217 0.935219 1.59885 2.13356 2.07611 2.52363 0.600234 0.608307 0.293267 0.429127 1.49153 0.547438 1.04026 1.3408 1.41009 0.905682 0.411578 0.363729 0.232398 0.363729 0.97445 0.131331 0.491487 100.872 207.39 155.179 88.3265 123.822 77.3904 65.0845 94.5649 38.4084 141.956 117.272 235.042 187.187 75.7803 117.563 94.7225 160.364 121.912 228.082 185.135 71.997 113.753 93.9632 152.743 117.715 215.462 177.118 69.2278 108.973 90.5673 144.033 112.683 205.638 169.078 67.4647 105.032 87.6439 137.049 107.722 195.863 161.486 65.0402 100.188 84.4705 130.032 102.555 185.098 152.604 61.9623 94.6088 80.9967 122.15 96.6728 173.916 143.832 58.561 88.7565 76.4703 114.36 91.0765 162.059 134.438 54.4981 82.1754 71.8784 105.897 84.8319 149.837 125.259 50.4243 75.8882 66.8099 97.907 78.8554 138.263 115.654 46.7117 70.0139 62.1533 89.8478 72.7609 127.13 106.909 42.9328 64.1034 57.4693 82.5343 67.3191 115.792 98.1328 39.0765 58.1436 52.8482 74.845 61.5188 105.51 90.0183 35.5188 52.9582 48.259 68.2814 56.0961 95.322 81.5696 32.2111 47.664 44.2091 61.452 51.0275 85.6471 74.2339 28.966 42.7477 40.0922 55.2844 46.6784 77.3039 67.0843 26.1736 38.1742 36.5485 49.1765 41.6609 68.4074 60.167 23.1744 33.8484 32.5453 43.707 37.5782 60.8135 53.9489 20.5634 29.9082 29.2463 38.5405 33.5621 53.5319 47.8888 18.1121 26.2075 26.0855 33.7305 29.6277 46.4232 42.236 15.7121 22.715 22.9268 29.316 26.2035 40.4232 36.9178 13.8372 19.5513 20.3881 25.1461 22.835 34.4107 32.1069 11.7371 16.5343 17.6006 21.3583 19.7981 29.198 27.7907 10.0686 13.8876 15.3181 18.0012 17.0086 24.3062 23.0921 8.21566 11.3903 13.141 14.8467 14.1973 20.3473 19.4072 6.99676 9.54167 10.8985 12.2224 11.695 16.2431 15.572 5.79019 7.51082 9.01552 9.44618 9.41974 12.5332 12.2455 4.42976 5.58408 7.19634 7.1324 7.26568 9.50544 9.09303 3.23699 4.13767 5.46679 5.26739 5.21897 6.63202 6.17679 2.26342 2.64146 3.94548 3.34689 3.27949 3.97466 3.59953 1.37515 1.5729 2.43009 1.91718 1.84314 2.48627 1.27456 0.849407 0.833769 1.31827 0.734044 46.5152 116.585 76.5917 50.7142 71.4541 32.7817 35.7972 47.1038 21.2338 79.5081 61.3522 133.549 107.335 42.4123 70.4676 49.7319 96.985 73.3841 145.524 116.598 46.0564 74.2025 57.9951 99.3202 74.472 142.3 116.126 46.2001 73.5515 58.5809 96.2217 73.6178 137.622 113.909 45.6819 71.6451 58.2281 92.5799 72.2447 132.88 111.002 44.5575 69.2854 57.4173 89.1369 70.3658 127.519 107.061 43.3511 66.6415 56.1315 84.9754 68.0811 121.918 102.978 41.5423 63.2643 54.357 80.6877 65.1997 115.301 98.1865 39.4647 59.6228 52.0649 76.1556 62.1629 108.606 92.8859 37.0206 55.9672 49.5493 71.498 58.8984 101.562 87.8521 34.7938 52.0897 46.7524 66.4743 55.629 94.783 82.5084 32.4067 48.5031 44.0856 62.0524 52.0714 88.2792 77.0827 30.2533 45.0735 41.2957 57.5079 48.7842 81.4361 72.1636 27.884 41.5168 38.4545 53.0745 45.5994 75.2398 67.149 25.9166 38.0285 36.026 48.6615 42.5348 69.2001 62.425 23.6835 34.8782 33.3339 44.6902 39.5899 63.5397 57.7338 21.796 31.9577 30.9558 40.8806 36.6591 57.8871 53.1744 19.7785 28.9069 28.531 37.183 33.6083 52.6586 48.7938 18.0184 26.2043 26.0984 33.7455 30.8468 47.7625 44.5118 16.4212 23.7231 23.9469 30.4844 28.0423 42.9307 40.2946 14.7771 21.0665 21.8495 27.204 25.5626 38.4583 36.3048 13.2221 18.8334 19.6445 24.1211 22.8595 34.0755 32.3458 11.6704 16.5131 17.6007 21.3546 20.3056 30.073 28.5816 10.3115 14.6575 15.5658 18.858 17.7431 25.9895 24.6543 9.12847 12.4187 13.7713 15.8929 15.3784 22.0971 21.2266 7.55248 10.4846 11.7664 13.529 13.031 18.6284 17.5887 6.43098 8.65891 10.0449 11.1103 10.7758 15.2366 14.3138 5.16694 7.02593 8.12611 9.04241 8.40594 11.8562 10.8827 4.044 5.24657 6.53731 6.8151 6.30411 8.59476 7.75159 2.92743 3.70162 4.8587 4.7797 4.16938 5.70108 4.34709 1.93445 2.3096 3.35826 2.88666 2.06625 3.06811 1.40915 1.0307 0.940326 1.67902 0.931548 22.9489 44.0221 47.1366 18.2184 28.8325 28.8695 13.8399 22.5346 6.91177 34.8354 42.2902 66.6071 80.2943 18.4121 35.9908 28.829 54.0067 57.5129 87.9795 93.3636 26.785 44.6914 41.6334 61.6957 61.2496 93.1167 96.065 30.0352 47.7303 45.7043 63.4303 62.0916 94.2993 96.0781 31.3646 48.7429 47.0847 63.6604 61.8711 94.0927 94.8233 31.9024 48.6934 47.4033 63.0249 61.0409 92.8484 92.7368 31.7657 47.9581 47.0488 61.778 59.648 90.6412 89.8985 31.1419 46.6164 46.123 59.9321 57.8364 87.8174 86.5295 30.288 45.0239 44.737 57.6389 55.5645 84.3366 82.9434 29.0541 43.0445 42.9642 55.2554 53.1418 80.5647 78.9947 27.721 41.0463 41.0996 52.7271 50.6565 76.7926 74.9284 26.5276 39.0184 39.2074 49.9768 48.1049 72.6037 70.9502 25.009 36.7182 37.1725 47.2074 45.5239 68.5183 66.9488 23.6194 34.6727 35.1331 44.5687 43.0335 64.6985 63.0065 22.3922 32.6298 33.2624 41.8643 40.4725 60.8342 59.2537 21.0259 30.4813 31.2813 39.3303 37.9498 57.0191 55.2654 19.7285 28.5766 29.3452 36.7129 35.4947 53.2848 51.4718 18.3807 26.6268 27.3793 34.2361 32.9934 49.2579 47.6917 16.9917 24.491 25.4214 31.5695 30.4781 45.4948 43.8701 15.7243 22.5699 23.5296 29.069 28.06 41.6796 40.1236 14.4295 20.6355 21.6243 26.5122 25.6212 38.0416 36.4385 13.1873 18.7236 19.7997 24.0585 23.167 34.3377 32.8341 11.8768 16.8184 17.871 21.6708 20.6839 30.7159 28.9547 10.5751 14.9606 15.9939 19.1862 18.2182 27.1333 25.4874 9.32969 13.0885 14.0613 16.9217 15.8442 23.5104 21.8966 8.07997 11.3356 12.2199 14.5352 13.4691 19.9884 18.1685 7.01779 9.53805 10.5487 12.0797 11.124 16.5546 14.7793 5.72019 7.692 8.64497 9.80719 8.69307 12.9257 11.3416 4.48074 5.95169 6.75646 7.47668 6.75173 9.89949 8.44398 3.40157 4.3589 5.15141 5.4398 4.43659 6.47633 4.91833 2.30066 2.63484 3.46137 3.16328 2.10692 3.07977 1.35438 1.02447 0.960392 1.75027 0.933648 66.3546 57.5339 97.5677 21.9414 25.6527 69.3942 27.1286 53.4078 13.2467 40.4111 78.8356 81.4866 126.016 22.501 36.8738 51.1265 60.0249 89.7117 101.172 134.19 30.4053 46.0046 60.8543 67.6408 90.4968 105.933 132.942 33.6948 49.2982 63.2622 68.969 87.8677 105.793 128.699 34.7845 50.2031 62.7702 68.5085 84.7755 104.149 123.942 34.789 49.7786 61.4301 67.1014 81.5642 101.519 118.641 34.1216 48.7723 59.3883 65.2377 77.7169 98.1085 112.984 33.159 47.2597 56.9515 62.9321 73.6346 94.3061 106.844 31.916 45.5088 54.2438 60.4388 69.4782 89.9047 100.401 30.5271 43.5158 51.483 57.5644 65.1985 85.4091 94.028 29.0779 41.3685 48.4985 54.5804 61.0443 80.8595 87.9093 27.5506 39.189 45.5026 51.5978 56.9621 76.2447 82.0221 25.9933 37.1041 42.5261 48.741 53.1929 71.9292 76.5968 24.5195 34.9738 39.7847 45.892 49.4321 67.4614 70.8562 23.0427 32.9189 37.162 43.0853 45.7025 63.1834 65.4226 21.6087 30.8369 34.437 40.2611 42.0139 58.8119 60.1314 20.1875 28.7889 31.7863 37.4588 38.6736 54.7384 55.3632 18.7959 26.7717 29.3013 34.7759 35.4869 50.581 50.566 17.3663 24.8166 26.957 32.1967 32.3206 46.6353 45.778 16.0496 22.8506 24.6975 29.5216 29.1743 42.6644 41.4104 14.6983 20.9041 22.349 26.9743 26.353 38.8238 37.2208 13.3816 19.0492 20.1902 24.483 23.5419 34.9943 32.9782 12.0948 17.192 18.1673 22.0024 20.7713 31.1515 28.9952 10.809 15.132 16.1012 19.384 18.1696 27.4199 25.2556 9.46396 13.2839 14.0853 17.0374 15.7397 23.6823 21.5312 8.16755 11.393 12.215 14.5562 13.2352 20.1443 17.8983 6.99265 9.62196 10.3188 12.2063 10.8047 16.5158 14.4161 5.68873 7.80524 8.43363 9.90039 8.53451 13.0621 11.1184 4.46492 5.97265 6.71048 7.72066 6.33251 9.92117 7.76586 3.39931 4.59343 5.03119 5.65371 4.11683 6.65463 4.66817 2.36119 2.78795 3.39284 3.30793 2.17872 3.19037 1.49327 1.11401 0.985266 1.81511 1.00092 123.722 136.859 179.3 55.5122 67.9677 121.014 55.1989 101.574 29.2331 90.7335 137.033 158.227 206.734 47.9211 71.6751 93.9118 108.021 141.915 169.759 207.071 52.6545 76.6143 98.8536 110.268 137.669 167.137 199.343 53.2911 76.7997 97.1507 107.49 131.545 160.905 189.936 52.3421 74.4487 93.84 102.873 124.893 153.98 179.872 50.5113 71.6135 89.7258 98.1807 118.083 146.607 169.575 48.4853 68.3312 85.2726 93.0346 110.756 138.46 158.666 45.8783 64.8434 80.2224 87.9319 103.34 130.126 147.669 43.3877 60.8076 75.3898 82.2722 95.7661 121.496 136.497 40.6073 56.9966 70.0378 76.6914 88.5196 112.995 125.783 37.83 52.9832 64.827 71.2512 81.4437 104.887 115.812 35.0381 49.2152 59.7121 66.0716 74.6642 96.8736 106.059 32.4082 45.6228 54.9237 61.1121 68.4128 89.5112 96.8307 29.9559 42.2641 50.5009 56.3571 62.2048 82.2957 87.7661 27.7509 39.0388 46.1087 51.6978 56.3077 75.3102 79.4054 25.3771 35.7267 41.8504 47.3134 50.5901 68.5729 71.2874 23.1242 32.5934 37.7334 43.0921 45.6309 62.4361 63.8886 21.0464 29.7407 34.0684 39.1088 40.4152 56.4139 57.0407 19.1907 27.0612 30.3621 35.3836 36.2454 50.9183 50.5078 17.2897 24.3418 27.3611 31.6917 31.7567 45.4436 44.4973 15.4343 21.8089 24.0588 28.4706 28.0741 40.5684 38.8596 13.8166 19.469 21.3126 25.1369 24.2322 35.7234 33.4574 12.2426 17.242 18.5588 22.1625 20.7636 31.1753 28.5777 10.6985 14.9917 16.0173 19.263 17.6268 26.932 24.1082 9.26424 12.9899 13.7023 16.5785 14.7927 23.0116 20.0003 7.95391 11.138 11.5343 14.082 12.0689 19.1915 16.2177 6.67569 9.26113 9.5609 11.6076 9.73148 15.5474 12.9099 5.40495 7.42872 7.75748 9.38795 7.51621 12.2558 9.52671 4.2612 5.70822 6.07637 7.11143 5.33591 8.73991 6.28955 3.08144 4.07646 4.34258 4.89645 3.28436 5.67796 3.90384 2.00494 2.3792 2.7676 2.81911 1.97222 3.04027 1.54989 1.063 1.10328 1.44896 1.06692 196.976 234.936 275.436 95.0485 118.07 190.719 89.9588 160.693 48.6735 152.243 203.83 254.018 297.349 78.8738 115.24 143.939 167.421 199.409 253.792 289.615 79.3451 115.629 141.073 163.85 190.083 242.823 275.765 77.7015 112.317 135.637 155.983 180.763 231.162 261.384 74.8428 107.594 129.84 148.168 170.811 218.767 246.147 71.4645 101.959 123.459 139.722 160.725 206.249 230.072 67.6264 96.3496 116.397 131.178 149.718 192.864 213.852 63.5762 89.8819 108.972 122.26 138.402 179.14 197.122 59.166 83.7018 101.026 113.343 127.656 165.622 181.354 54.8662 77.2074 93.3403 104.494 117.364 152.725 166.297 50.4661 70.8863 85.6621 95.7555 106.786 139.256 151.237 45.9922 64.9292 78.1272 87.7417 97.2857 127.34 137.072 42.1862 59.2311 71.3566 79.8417 87.7951 115.807 123.596 38.4212 53.9759 64.5219 72.5157 78.9651 104.596 110.453 34.87 48.7674 58.2028 65.0395 70.7109 94.0102 99.1846 31.2601 43.939 51.8994 58.6446 62.8549 83.9996 87.4036 27.9844 38.9729 46.6044 52.1295 55.5129 74.7263 76.9682 24.8078 34.8994 41.1272 46.3953 48.5482 65.7941 67.1603 21.9116 30.689 36.0717 40.7941 42.1909 58.104 57.7502 19.4745 27.2336 31.5649 35.8189 36.128 50.4252 49.5766 16.9839 23.6088 27.0866 31.1284 30.8963 43.7903 41.9188 14.7034 20.514 23.197 26.6568 25.6123 37.1081 34.6762 12.6136 17.5175 19.4802 22.6093 21.2649 31.2632 28.5277 10.6209 14.709 16.2528 18.9684 17.2996 26.0759 22.7843 8.86158 12.3341 13.3142 15.6708 13.4379 21.2593 17.8767 7.33086 10.1001 10.4895 12.7068 10.4774 16.9576 13.5779 5.84405 8.09079 8.27769 10.063 7.80821 13.2805 10.0035 4.68758 6.47236 6.27011 7.8142 5.59471 10.0589 7.0191 3.57172 4.71295 4.71605 5.71759 3.61754 6.98211 4.37088 2.42246 3.20108 3.1248 3.92927 2.29456 4.20257 2.62123 1.39479 1.92373 1.89891 2.17413 1.48645 2.78161 1.33474 0.942241 1.06187 1.06367 1.03158 138.702 384.757 185.865 149.433 175.325 70.7581 149.457 149.457 78.6991 222.512 133.182 354.442 185.743 109.932 161.438 125.889 229.956 125.933 339.666 176.957 106.404 156.888 118.629 220.136 118.496 323.889 167.602 103.713 151.056 112.808 209.258 112.232 308.251 158.44 99.9515 144.198 107.578 198.032 105.648 290.966 148.641 95.0441 136.401 101.965 186.315 98.9795 273.092 138.553 89.5682 127.597 96.0411 173.644 92.0969 254.081 128.922 83.2898 118.817 89.0992 161.451 85.1962 234.735 118.678 77.1523 109.37 82.7563 148.456 78.1313 216.007 109 70.9388 100.618 76.0695 136.617 71.6041 197.66 99.4986 64.8865 91.9938 69.6798 124.682 65.3245 180.124 90.4432 59.2599 83.681 63.5118 113.052 59.0402 163.404 82.1361 53.7738 75.7981 57.5118 102.632 53.4454 147.254 73.6744 48.3465 68.0846 52.0418 92.0091 47.8309 132.1 66.0952 43.3623 60.9284 46.5472 82.3776 42.5583 117.573 58.484 38.549 54.4084 41.4704 73.2554 37.6475 104.349 51.6662 34.4075 47.8541 36.7893 64.2547 32.8733 91.3055 45.1212 30.0121 42.1969 31.9609 56.3936 28.6017 79.6889 39.3118 26.279 36.562 27.9735 48.9666 24.5985 68.5796 33.4493 22.667 31.3581 24.1584 41.7004 20.8312 58.2658 28.3684 19.0644 26.6499 20.3863 35.5089 17.5407 48.9764 23.7224 16.0318 22.3592 17.1389 29.648 14.4821 40.4425 19.4563 13.3732 18.313 14.2441 24.1581 11.7101 32.9861 15.7193 10.8387 14.9121 11.5709 19.6535 9.35604 26.2101 12.1195 8.63539 11.8672 9.21616 15.2114 6.86629 19.9001 9.05988 6.6006 8.92929 6.99272 11.515 4.90798 14.8724 6.6169 4.99075 6.71864 5.08179 8.51859 3.36794 10.4092 4.44446 3.56188 4.74936 3.54494 5.80893 2.15453 6.86213 2.83036 2.43596 3.26443 2.32956 3.83386 1.29948 4.293 1.60854 1.56407 1.81575 1.56223 2.12296 0.839692 2.52563 1.14421 0.727489 1.17764 0.693518 1.44818 0.482029 1.7586 0.590214 0.580399 0.678656 0.489732 0.696175 
CELL_DATA 12288
SCALARS stress float 1
LOOKUP_TABLE default
62.4057 67.8237 40.8236 49.0206 82.2931 75.4464 47.0381 58.7296 53.194 58.0402 55.1256 50.8747 44.2929 54.9158 49.4274 53.0827 53.7364 49.9598 43.3672 52.1225 46.0823 49.8971 52.8786 49.7765 42.276 49.2191 43.7079 47.0544 51.0154 48.3203 40.6847 46.1118 41.5525 44.2592 48.2209 46.3197 38.5314 43.021 39.3331 41.458 45.3318 43.6101 36.1435 39.7325 36.7342 38.6098 42.2534 40.7745 33.6634 36.6749 34.221 35.823 39.0574 37.5786 30.9555 33.7206 31.52 32.8266 35.8914 34.7823 28.6473 30.7294 28.9523 30.1036 32.8312 31.7838 25.9249 27.9302 26.5222 27.401 29.8503 28.9101 23.6243 25.2969 24.035 24.761 27.1222 26.2481 21.3211 22.7591 21.7456 22.2573 24.2871 23.6097 19.065 20.412 19.6287 19.8194 21.8156 21.0477 17.2414 17.9799 17.5354 17.8142 19.4467 18.6708 15.3257 15.813 15.5056 15.777 17.0038 16.5401 13.3785 13.9887 13.7154 13.9323 14.9023 14.3375 11.6869 12.0463 12.0697 11.9357 12.9031 12.571 10.1317 10.1456 10.5202 10.2965 10.9709 10.6461 8.6866 8.63342 8.85058 8.87619 9.27997 9.08921 7.4757 7.17514 7.67114 7.39934 7.69351 7.56028 6.14964 5.94625 6.40374 6.07597 6.38085 6.2904 4.94959 4.69489 5.23378 4.90998 4.94894 5.01261 3.94965 3.66724 4.18072 3.88325 3.90944 3.835 3.11345 2.80042 3.44373 2.98115 2.83107 3.01439 2.61539 2.03917 2.61926 2.30242 2.15617 2.32876 1.7046 1.33639 1.95621 1.56134 1.36562 1.53391 1.27843 0.955191 1.35848 1.04678 0.831566 0.943826 0.873204 0.45904 0.885168 0.636552 0.445145 0.604813 0.497683 0.367807 0.456951 0.347225 0.125076 0.168498 0.241364 0.287814 0.252175 0.218456 0.264288 0.246265 40.0252 38.1911 26.4668 29.365 52.1027 45.741 29.9054 42.871 32.793 40.3202 42.366 37.5896 30.5834 39.8365 33.5942 38.3297 40.1698 36.5404 30.5139 37.3251 32.2491 35.624 38.6714 36.0067 30.0498 35.5258 31.1498 33.8462 37.3942 35.1742 29.2487 33.6068 29.7024 32.0267 36.0268 34.1964 27.8969 31.6174 28.3469 30.3267 33.8514 32.6239 26.5716 29.543 26.8465 28.251 31.985 30.5798 24.9592 27.4401 25.1613 26.5003 29.7271 28.5883 23.028 25.3908 23.5307 24.3511 27.4771 26.4358 21.5058 23.3415 21.6724 22.6763 25.1917 24.5379 19.7042 21.2612 20.0311 20.7177 23.1639 22.5067 18.1492 19.3848 18.5624 18.9399 21.0262 20.3642 16.5286 17.6068 16.8887 17.1692 19.0974 18.6424 15.0881 15.9009 15.2028 15.631 17.087 16.8359 13.7467 14.2802 13.8065 14.0196 15.4487 15.0921 12.3648 12.7016 12.5555 12.5677 13.5965 13.3059 11.0501 11.1877 11.2288 11.1805 12.1147 11.9281 9.94054 9.94751 10.0882 9.80156 10.6191 10.4223 8.87985 8.59466 9.00079 8.79339 9.28578 9.26645 7.71149 7.59259 7.87425 7.75423 8.06877 7.98424 6.78662 6.48787 6.96301 6.62386 6.82852 6.78699 5.97917 5.49096 6.05651 5.59368 5.68898 5.94728 5.14471 4.54972 5.15946 4.70837 4.77781 4.96946 4.3098 3.84047 4.47183 3.97844 3.99857 4.21247 3.69594 3.04557 3.7465 3.31159 3.21603 3.56584 3.0159 2.4685 3.05893 2.68238 2.50555 2.66473 2.31654 1.89981 2.523 2.10874 1.92649 2.06714 1.78236 1.38248 1.86947 1.58446 1.35207 1.57044 1.29851 0.924043 1.39838 1.06596 0.891792 1.00106 0.758882 0.555916 0.931517 0.770872 0.500432 0.613621 0.359733 0.34807 0.497803 0.382227 0.304514 0.312384 21.7256 22.0247 15.2732 16.0448 31.9679 27.7019 15.1336 25.7586 16.5195 22.9862 25.3929 21.3261 18.2018 25.6149 19.873 24.289 26.2214 23.468 19.5918 24.6722 20.3676 23.3715 26.0487 24.0256 19.771 23.9473 20.198 22.5491 25.7124 24.1481 19.6169 22.9418 19.9508 21.4928 24.9339 23.6386 19.29 21.8656 19.1804 20.6171 23.9162 22.9339 18.7054 20.6791 18.6167 19.6062 22.8258 21.8389 17.8032 19.5495 17.694 18.6249 21.4901 20.7901 16.871 18.279 16.936 17.4924 20.1486 19.4952 15.9822 16.9931 15.8818 16.4081 18.6814 18.2856 15.019 15.8771 14.8975 15.266 17.3498 16.9282 14.077 14.64 13.9912 14.2782 16.0286 15.6919 13.1034 13.4413 12.9752 13.0659 14.7146 14.4479 12.1489 12.3665 12.2219 12.3005 13.4597 13.3553 11.2628 11.479 11.3367 11.1785 12.286 12.2322 10.4166 10.3851 10.5589 10.264 11.2228 11.1646 9.63022 9.35672 9.64464 9.39368 10.065 10.1222 8.72622 8.4419 8.82855 8.62567 9.18119 9.26109 8.02722 7.65644 8.08635 7.70132 8.24481 8.30587 7.3824 6.8532 7.52784 6.97219 7.49912 7.5727 6.61167 6.15096 6.6313 6.25534 6.49413 6.59839 6.03862 5.45285 5.95211 5.7066 5.81366 5.84972 5.21089 4.73639 5.31005 4.82601 4.93991 5.158 4.54746 4.11231 4.63699 4.27271 4.23012 4.52807 3.89463 3.40212 4.00883 3.57815 3.58293 3.90729 3.33019 2.94671 3.33549 3.08312 2.91567 3.06664 2.70924 2.34494 2.76716 2.52025 2.36723 2.5059 2.17507 1.7616 2.26285 1.95494 1.79016 1.95307 1.54213 1.36779 1.70859 1.48058 1.29122 1.46033 1.08237 0.845225 1.09139 0.974183 0.899095 0.918401 0.457555 0.461952 0.541156 0.53435 0.492507 0.470654 8.24637 8.67137 8.53596 4.7406 14.5997 12.7484 6.03048 13.2695 6.91406 11.5645 12.1289 8.65609 11.8395 15.1174 12.2935 14.4148 14.9772 13.1835 14.1173 15.6195 14.3063 14.9861 16.2047 15.2071 14.984 15.6546 14.9398 14.9987 16.6669 16.0229 15.3047 15.5091 15.1266 14.9698 16.8115 16.3943 15.2552 15.1698 15.0415 14.7697 16.5343 16.3702 15.0554 14.7886 14.8531 14.3946 16.1506 16.0294 14.6071 14.2972 14.4394 13.9344 15.609 15.513 14.1242 13.7319 13.9266 13.4975 14.9635 14.8752 13.564 12.9853 13.3873 12.8518 14.2952 14.1594 12.9413 12.3879 12.7936 12.2202 13.4534 13.4893 12.2994 11.6818 12.17 11.6547 12.7032 12.7848 11.6982 11.0594 11.5883 10.9978 11.9085 12.0624 11.03 10.4306 10.9455 10.4119 11.209 11.3896 10.3916 9.71932 10.3521 9.77034 10.4384 10.6264 9.78736 9.14867 9.67868 9.17566 9.77681 9.95801 9.12531 8.4417 9.06365 8.6217 9.05097 9.26163 8.5007 7.8712 8.40488 7.9491 8.33634 8.58422 7.81772 7.24654 7.8317 7.39677 7.67902 7.87708 7.24026 6.68754 7.20105 6.77205 7.05894 7.24906 6.59071 6.05901 6.62191 6.15264 6.36883 6.60941 5.93983 5.45159 5.98597 5.59921 5.79162 5.96067 5.36182 4.887 5.40074 4.99708 5.11032 5.31186 4.70119 4.30175 4.70597 4.37471 4.4806 4.63032 4.05053 3.68422 4.17898 3.81408 3.85621 4.03295 3.47143 3.14134 3.57766 3.25231 3.28505 3.45032 2.88006 2.5539 2.99835 2.65189 2.68475 2.87887 2.29586 2.01541 2.43297 2.11682 2.09252 2.19654 1.68051 1.47873 1.84739 1.60764 1.65907 1.66971 1.11346 0.959384 1.25815 1.04758 1.0947 1.08379 0.508553 0.449978 0.665641 0.418698 0.425173 0.521635 17.7255 7.23067 14.2649 9.31988 7.2572 9.99394 14.3044 13.7832 16.3145 14.8792 9.32205 9.48775 18.0544 16.0509 19.1066 17.4944 13.0821 13.6918 19.4784 16.5223 19.7793 17.8245 14.7007 15.6815 19.655 16.4231 19.7022 17.601 15.3631 16.2965 19.35 16.118 19.3979 17.2554 15.5454 16.5725 18.8824 15.6981 18.793 16.6781 15.4017 16.3412 18.1735 15.2078 18.123 16.0965 15.1008 15.9203 17.4217 14.6153 17.2554 15.4014 14.6376 15.4671 16.5547 13.9648 16.4491 14.6871 14.0902 14.7774 15.6162 13.2537 15.5535 13.9526 13.4606 14.1252 14.7272 12.5729 14.6295 13.1726 12.8225 13.4375 13.8349 11.9121 13.7279 12.481 12.1804 12.7375 12.9632 11.2466 12.9169 11.7209 11.5662 12.0642 12.1174 10.5732 12.0542 10.9883 10.8818 11.365 11.2549 9.92291 11.2705 10.2452 10.2471 10.6466 10.437 9.2623 10.3974 9.57602 9.60812 9.98127 9.67272 8.65095 9.73176 8.88602 8.98247 9.33138 8.8607 7.9793 8.91329 8.21895 8.34119 8.6593 8.14286 7.36296 8.15421 7.56354 7.71192 7.96319 7.43784 6.77326 7.48623 6.92669 7.10936 7.31266 6.72531 6.14602 6.78022 6.27714 6.44467 6.65606 6.05472 5.58551 6.08225 5.65173 5.82458 6.0023 5.41905 4.95021 5.4361 5.07224 5.18728 5.37303 4.67351 4.36952 4.77928 4.45238 4.59909 4.72256 4.08105 3.80632 4.17646 3.86241 3.95931 4.07368 3.44218 3.19291 3.54741 3.23268 3.36176 3.47619 2.8339 2.65235 2.91066 2.68938 2.75382 2.89472 2.24722 2.09123 2.30092 2.12444 2.15383 2.307 1.63227 1.54486 1.71944 1.60054 1.67495 1.6946 1.07751 0.987252 1.1948 1.02237 1.12069 1.22608 0.475555 0.476664 0.579087 0.473039 0.466703 0.543902 35.5365 20.9042 25.185 21.856 22.3975 23.9005 28.2484 26.4405 31.626 28.5952 20.9432 21.8277 29.8839 27.0356 32.1306 29.6912 22.8655 24.1987 30.1629 26.3586 31.381 28.6579 23.1956 24.8727 29.5443 25.2312 30.1048 27.4399 22.9211 24.5002 28.5155 23.9592 28.9542 26.0504 22.2403 23.7801 27.2441 22.7971 27.5679 24.6208 21.3077 22.8405 25.8181 21.4709 26.0387 23.2641 20.3057 21.7267 24.1093 20.1875 24.3329 21.8535 19.2105 20.4698 22.4728 18.7815 22.6754 20.3418 18.1349 19.1469 20.9419 17.6026 20.9785 18.85 16.9993 18.057 19.2491 16.3086 19.4703 17.5195 15.8027 16.9085 17.8034 14.9977 18.0458 16.1247 14.6849 15.5701 16.3519 13.9614 16.4432 14.8638 13.678 14.4108 14.9496 12.8505 15.0152 13.6666 12.6569 13.245 13.5365 11.7095 13.6509 12.5397 11.714 12.2809 12.3443 10.757 12.421 11.3248 10.7319 11.2866 11.1016 9.8019 11.2885 10.2592 9.84729 10.3167 9.95574 8.87212 10.1635 9.2838 9.02736 9.43931 8.91996 7.97934 9.03405 8.27732 8.1823 8.44894 7.89179 7.19816 8.0349 7.50473 7.38829 7.71125 7.07497 6.35686 7.15675 6.60706 6.58086 6.9078 6.25112 5.6521 6.29531 5.75906 5.90082 6.08419 5.37577 4.93019 5.43716 5.09707 5.22171 5.33271 4.60326 4.3218 4.74014 4.36492 4.5195 4.64053 3.87177 3.61279 3.93036 3.69868 3.90511 4.00601 3.21845 3.05861 3.30685 3.09788 3.23857 3.30206 2.59065 2.44888 2.6615 2.47128 2.62843 2.67294 2.00826 1.93354 2.07691 1.91403 2.18233 2.13222 1.3916 1.37981 1.48682 1.3891 1.51021 1.52905 0.866638 0.955931 0.923771 0.919845 1.02691 0.963318 0.482606 0.506927 0.50559 0.530882 0.451945 0.532894 57.2138 37.0642 39.5383 38.2524 41.0424 41.4361 43.652 42.3471 49.0344 45.1684 35.8492 36.4207 43.0655 41.0077 46.6138 44.0898 35.881 36.8658 42.4681 38.8639 44.3425 41.7117 35.172 36.5902 41.3961 36.8759 42.5436 39.3862 33.8938 35.4465 39.6372 34.6794 40.2899 37.0796 32.4159 33.9759 37.3949 32.5975 38.012 34.9 30.5575 32.3462 35.0764 30.4028 35.5787 32.6169 28.7799 30.1699 32.6109 28.3967 33.2 30.2411 26.7738 28.2227 30.186 26.0341 30.63 27.9121 24.8702 26.1827 27.8302 23.987 28.2308 25.7163 22.9616 24.0911 25.2953 21.9089 25.7437 23.4528 21.0951 22.1067 23.139 20.0339 23.5619 21.3376 19.2519 20.1615 20.8096 18.1558 21.2324 19.4377 17.5929 18.4537 18.8493 16.3561 19.2832 17.4894 15.8336 16.5543 16.9127 14.8145 17.2283 15.7115 14.3533 15.043 15.1913 13.2287 15.4639 14.0763 12.9949 13.387 13.422 11.6627 13.7827 12.4496 11.585 12.1099 11.8112 10.3763 11.9628 10.9838 10.4048 10.6191 10.2771 9.1616 10.4859 9.63305 9.11044 9.40704 8.94234 7.89648 9.1145 8.37065 8.06754 8.26961 7.68929 6.76709 7.87145 7.19079 6.98964 7.19887 6.45796 5.8944 6.56888 6.06657 6.11013 6.14916 5.42441 4.91044 5.59484 5.08539 5.14944 5.20576 4.5321 4.16367 4.48327 4.18587 4.35563 4.38059 3.60899 3.31202 3.7022 3.36651 3.54621 3.67614 2.87552 2.75976 2.89985 2.72241 2.93397 3.01875 2.1889 2.10881 2.23744 2.10564 2.40275 2.35171 1.56366 1.58911 1.59296 1.54517 1.80529 1.7987 1.03637 1.12997 1.14038 1.07077 1.18776 1.20648 0.596689 0.666384 0.774444 0.609482 0.70887 0.782694 0.429041 0.411113 0.372584 0.354435 0.487871 0.447327 91.596 57.8827 69.9768 67.1402 63.5164 62.3155 60.7123 59.0077 65.8855 61.6487 52.1649 51.9478 58.4202 55.0837 61.0105 58.1358 49.6156 50.6668 56.9118 52.2189 58.5919 55.0721 48.2162 49.6154 54.7685 49.5168 56.0074 52.3908 46.2672 47.9409 51.9423 46.4616 52.9702 49.2218 43.9045 45.6662 48.9029 43.4493 49.9266 46.0825 41.3244 42.8649 45.5721 40.4576 46.4544 42.8701 38.4369 40.1108 42.1653 37.292 42.9481 39.6788 35.579 36.9765 38.5726 34.3201 39.5467 36.5128 32.9699 34.1895 35.4365 31.3828 36.1392 33.4603 30.1274 31.2222 32.3935 28.4805 33.0967 30.2964 27.402 28.4157 29.2534 25.869 30.0085 27.4486 24.8007 25.9301 26.4054 23.3074 27.1888 24.8623 22.4085 23.2173 23.4993 20.7785 24.3871 22.09 20.0949 20.9018 21.0318 18.5012 21.7062 19.7042 17.9777 18.7362 18.5967 16.3475 19.1836 17.5866 16.103 16.4847 16.2838 14.4005 16.8412 15.2618 14.038 14.6659 14.1629 12.5988 14.5664 13.1571 12.1502 12.7148 12.1523 10.7674 12.5535 11.4877 10.5814 10.9394 10.1566 9.08948 10.8046 9.59578 9.05182 9.41922 8.45667 7.69417 8.91792 8.15711 7.64154 7.94854 7.14344 6.33542 7.51795 6.67657 6.40812 6.58131 5.81562 5.2151 6.01588 5.29268 5.25128 5.3782 4.46847 4.02286 4.70867 4.24852 4.17765 4.33267 3.34989 3.1447 3.70807 3.11904 3.28971 3.3724 2.47098 2.34829 2.67181 2.44744 2.47016 2.42173 1.64016 1.64035 1.80915 1.51691 1.90029 1.95657 0.994807 1.04596 1.11251 0.920761 1.26168 1.24464 0.499426 0.710988 0.781167 0.561861 0.844045 0.769993 0.204884 0.463661 0.460073 0.382929 0.441562 0.425155 0.363232 0.320708 0.300084 0.247198 0.378981 0.168767 38.6152 63.6481 31.8698 44.135 66.7508 66.9967 55.3492 58.3865 55.7252 57.7861 60.9464 59.0254 52.4738 57.1828 53.9446 55.8349 59.9053 56.9104 48.111 54.1594 49.4138 52.5615 56.8848 54.1461 44.9691 50.7309 45.9763 49.0417 53.4622 51.0124 41.99 47.2566 42.964 45.7788 49.9347 47.6304 39.2053 43.7013 40.0715 42.3766 46.1839 44.3842 36.2441 40.0498 36.9248 38.9219 42.7126 40.9164 33.5728 36.8944 34.1859 35.8545 39.3182 37.7224 30.9109 33.6861 31.4241 32.8704 35.8933 34.537 28.1728 30.7902 28.8329 30.163 32.8771 31.4279 25.7244 27.9496 26.2035 27.3967 29.8096 28.6543 23.3769 25.283 23.8504 24.6192 26.892 25.9194 20.9402 22.6024 21.5012 22.2076 24.1122 23.2535 18.8798 20.13 19.2592 19.8623 21.3241 20.8958 16.893 17.9537 17.3446 17.5806 18.9678 18.4877 14.9472 15.8408 15.2133 15.6851 16.8847 16.3012 13.06 13.6918 13.2845 13.6908 14.6629 14.1571 11.3518 11.8651 11.816 11.9657 12.5688 12.3208 9.93606 10.0294 10.2253 10.2341 10.8503 10.481 8.27675 8.65728 8.55883 8.66059 9.06004 8.81956 7.03437 7.08573 7.22987 7.21344 7.61837 7.45727 5.83893 5.76561 6.07017 5.86821 6.09976 5.9882 4.87831 4.536 5.02013 4.86306 4.94474 4.8964 3.70161 3.44045 3.91688 3.61237 3.60994 3.60664 2.95316 2.63674 3.10113 2.9601 2.82802 2.89243 2.38464 1.92346 2.47321 2.26689 1.8351 1.89353 1.63949 1.20073 1.68776 1.47489 1.24852 1.23854 1.1653 0.837138 1.24875 0.897309 0.676026 0.833085 0.62453 0.399822 0.708864 0.602802 0.365221 0.34383 0.54933 0.191784 0.520051 0.293958 0.234566 0.175218 0.155274 0.33504 0.345397 0.23482 0.228769 0.245102 22.0784 32.0666 17.8676 24.1436 32.6587 30.9851 36.9557 45.0229 36.0843 42.0447 48.0107 45.4287 37.1392 43.3451 36.7363 40.438 46.3144 43.5055 34.2184 40.036 34.7583 37.8226 42.6029 39.8551 32.026 37.1221 32.638 35.2256 39.6091 37.2205 29.8721 34.5594 30.5351 32.9076 36.9444 35.0034 27.9524 32.1362 28.6452 30.6334 34.4311 32.7463 26.1032 29.7797 26.5619 28.5291 32.0783 30.3087 24.4611 27.2193 24.752 26.267 29.641 28.1903 22.4796 25.1682 22.9226 24.1353 27.1008 25.9133 20.84 23.0079 21.1209 22.3523 24.7196 23.8599 19.176 21.0472 19.4062 20.3542 22.8003 21.8259 17.5796 19.0828 17.9556 18.4683 20.6691 19.8106 15.925 17.4089 16.1784 16.7037 18.6409 17.9149 14.4066 15.5741 14.7293 15.1028 16.8448 16.1786 13.1155 13.8818 13.3371 13.5613 14.9101 14.431 11.7486 12.3863 12.031 12.1683 13.3496 12.8416 10.3652 10.879 10.6222 10.851 11.841 11.4144 9.23455 9.61909 9.61651 9.39641 10.2332 9.97219 8.24596 8.33935 8.37501 8.35686 8.92085 8.79985 7.16497 7.26099 7.40701 7.21953 7.68796 7.47354 6.2757 6.14525 6.34889 6.26558 6.54258 6.50328 5.40317 5.19439 5.50027 5.26265 5.39324 5.57165 4.58701 4.39536 4.71156 4.591 4.4254 4.57314 3.92462 3.57074 3.99962 3.76283 3.64307 3.83882 3.27592 2.81065 3.45211 3.07077 2.96752 3.05387 2.57896 2.24575 2.7184 2.37637 2.18934 2.29479 2.05935 1.72067 2.18527 1.90643 1.72704 1.72617 1.53367 1.29814 1.71598 1.45158 1.16788 1.37516 1.09255 0.93011 1.23555 0.986214 0.717106 0.834158 0.752387 0.604287 0.772321 0.582861 0.494658 0.498726 0.374711 0.347292 0.379344 0.450405 0.28724 0.320636 11.1201 17.4818 8.88874 12.6123 18.2452 17.5324 21.5151 27.9259 21.1429 25.2863 29.6934 26.8633 23.5187 28.8099 23.6759 26.809 31.2915 28.4021 22.0049 26.9226 22.4715 25.2658 29.1061 26.7637 20.7353 24.9147 21.1617 23.3789 27.1687 25.2692 19.5632 23.3428 19.8807 21.8571 25.4553 23.7294 18.6911 21.6953 19.0719 20.4889 23.892 22.5379 17.7753 20.2375 17.9827 19.1554 22.4173 21.216 16.6889 19.0281 16.8092 18.0453 20.9208 19.8168 15.6949 17.6013 15.8712 16.7362 19.4441 18.3944 14.7384 16.3334 14.82 15.5984 17.9263 17.2377 13.8996 15.22 13.9753 14.547 16.6782 16.0554 12.8864 13.9882 13.0382 13.4799 15.3065 14.6857 12.0578 12.735 12.165 12.4328 14.002 13.667 11.2254 11.7493 11.2485 11.5125 12.8352 12.4484 10.4087 10.678 10.4037 10.5257 11.5415 11.3872 9.53359 9.69213 9.62386 9.60216 10.5445 10.2895 8.72727 8.81102 8.76297 8.82339 9.41065 9.40703 7.943 8.0667 8.16442 8.11171 8.61053 8.44954 7.26978 7.15291 7.39587 7.10299 7.62496 7.48313 6.62202 6.33898 6.64476 6.25882 6.67069 6.83945 6.00148 5.63906 5.99583 5.78581 5.94886 5.92337 5.4004 4.88347 5.33972 5.11627 5.14107 5.34592 4.69449 4.31804 4.80386 4.49159 4.53242 4.73074 4.14607 3.81586 4.21209 3.83834 3.96681 3.88921 3.49234 3.16223 3.56407 3.30285 3.28592 3.34738 2.93134 2.60844 3.01024 2.68157 2.70253 2.77586 2.41486 2.19869 2.52638 2.31271 2.1256 2.25139 1.90887 1.62878 1.96967 1.76451 1.69802 1.76502 1.51203 1.2637 1.56936 1.3318 1.12409 1.35595 0.81951 0.692374 0.954674 0.8058 0.71897 0.812575 0.498904 0.407251 0.560136 0.47731 0.431285 0.442288 3.07224 8.08611 2.88313 4.9288 8.15703 7.10406 13.561 16.8059 13.8402 15.3982 16.5153 14.4976 16.1646 18.3726 17.0265 17.7024 18.8038 16.7498 15.6625 17.304 16.4167 16.7206 18.2008 16.634 14.9781 16.2789 15.4642 15.6236 17.2149 16.1358 14.4722 15.2928 14.658 14.6905 16.4646 15.6241 13.9918 14.5091 14.0737 14.0251 15.7982 15.1781 13.5836 13.8956 13.5679 13.3814 15.0614 14.639 13.1071 13.2822 13.042 12.8536 14.3894 14.0601 12.5764 12.5569 12.5613 12.2966 13.6681 13.4813 12.0842 11.9728 11.9769 11.7061 12.9613 12.7671 11.4839 11.3801 11.5018 11.1128 12.1881 12.1245 10.9338 10.7157 10.8962 10.5706 11.5742 11.4109 10.4091 10.1312 10.3801 9.95602 10.845 10.8067 9.87313 9.46528 9.798 9.42187 10.1103 10.1435 9.22075 8.89777 9.24253 8.90048 9.4961 9.54175 8.66051 8.33257 8.62572 8.30306 8.81806 8.89828 8.12629 7.78929 8.08837 7.7815 8.19147 8.25063 7.54683 7.14509 7.56077 7.21054 7.49329 7.62033 6.96773 6.56882 7.0177 6.67038 6.91146 7.12351 6.40381 6.03331 6.43666 6.08857 6.28224 6.44578 5.90261 5.51005 5.89942 5.56807 5.705 5.83639 5.28518 4.93177 5.33972 5.03795 5.1688 5.29442 4.77609 4.37081 4.80489 4.48556 4.53632 4.7157 4.21876 3.87259 4.30615 3.99935 4.00075 4.15431 3.61021 3.36889 3.75439 3.45079 3.47168 3.61982 3.1641 2.91204 3.13798 2.91502 3.00256 3.08027 2.56891 2.31402 2.57659 2.43265 2.39706 2.48416 2.04108 1.82739 2.11727 1.91494 1.85218 1.92829 1.54428 1.40803 1.63339 1.4752 1.41575 1.42821 0.963231 0.855443 1.0723 0.950904 0.832925 0.96344 0.391346 0.390938 0.531198 0.467176 0.440026 0.426924 9.5312 8.00129 7.58142 6.97428 5.16315 6.5412 19.9439 16.8867 19.7153 17.662 13.9611 14.2573 22.0113 18.7101 22.8064 20.346 16.2171 16.4691 21.0788 17.9593 21.9202 19.5881 15.9668 16.5258 19.889 16.7872 20.5034 18.2452 15.3426 15.9746 18.8143 15.7944 19.2762 16.9974 14.8085 15.5761 17.9009 14.964 18.1532 16.058 14.2854 15.0303 17.0694 14.2373 17.183 15.196 13.7676 14.5218 16.1367 13.5283 16.2526 14.4183 13.2243 13.9597 15.2416 12.8828 15.3305 13.646 12.6464 13.2958 14.3524 12.2155 14.4066 12.907 12.1143 12.7184 13.5045 11.5977 13.5939 12.1692 11.5388 12.0798 12.6638 10.9388 12.6655 11.4752 10.9389 11.4098 11.8177 10.3 11.9027 10.7929 10.3349 10.7492 10.9999 9.67568 11.0283 10.0632 9.7356 10.1772 10.2364 9.07819 10.2982 9.41136 9.18223 9.5281 9.4727 8.4623 9.55261 8.78211 8.61944 8.91655 8.74881 7.89143 8.82788 8.11897 8.0546 8.32305 8.04683 7.32009 8.09317 7.46103 7.44574 7.72063 7.3153 6.71849 7.37145 6.88351 6.92148 7.13186 6.70556 6.16776 6.78436 6.28638 6.29844 6.54878 6.03998 5.60907 6.09672 5.719 5.79414 5.93775 5.42213 5.05731 5.48065 5.12178 5.21499 5.38028 4.79512 4.50679 4.8942 4.58885 4.64993 4.79074 4.21595 3.95055 4.29792 4.01452 4.10213 4.24944 3.62006 3.45013 3.73152 3.49302 3.53681 3.66709 3.04048 2.89092 3.16076 2.907 3.04537 3.13505 2.55008 2.40243 2.6245 2.43953 2.4601 2.53723 1.97145 1.96056 2.05885 1.95425 1.95187 2.0292 1.44053 1.39787 1.4966 1.4189 1.48404 1.48953 0.972203 0.888978 1.01028 0.926842 0.936462 0.97658 0.459809 0.548906 0.562332 0.499263 0.467171 0.472917 20.3032 17.524 16.3079 16.6444 14.4381 17.3101 33.9198 27.8683 33.1423 29.5649 24.5218 25.9589 34.9222 29.4228 35.2571 32.1848 26.1368 27.2552 32.7972 28.015 33.6078 30.6325 24.8114 26.2011 30.6422 25.994 31.2724 28.4334 23.4176 24.8796 28.7202 24.1144 29.1815 26.3668 22.0336 23.4294 26.9173 22.5519 27.4028 24.532 20.7284 22.168 25.1783 21.0468 25.5168 22.7704 19.5061 20.8418 23.4124 19.6258 23.775 21.245 18.2372 19.6195 21.727 18.2555 21.9749 19.7628 17.1264 18.1858 20.0415 16.9575 20.3917 18.254 15.9997 16.9547 18.4139 15.6471 18.83 16.819 14.8359 15.7806 17.0383 14.3965 17.2871 15.4915 13.7335 14.6132 15.508 13.2477 15.7616 14.1366 12.8077 13.4887 14.1967 12.22 14.4629 12.9717 11.7644 12.4303 12.8685 11.1564 13.1321 11.8999 10.8955 11.4036 11.634 10.1784 11.8514 10.7051 9.92947 10.4441 10.4494 9.17629 10.655 9.66047 9.12362 9.50726 9.42325 8.29698 9.50974 8.69771 8.27001 8.57334 8.45087 7.47932 8.53407 7.74034 7.49404 7.77696 7.37754 6.70939 7.56001 6.94152 6.73668 6.96657 6.4913 5.95495 6.62344 6.19651 6.02039 6.22718 5.6848 5.24601 5.78033 5.35186 5.3984 5.47353 4.85392 4.55007 5.03737 4.70821 4.6514 4.83398 4.15446 3.89466 4.30085 3.9591 4.06205 4.15774 3.44846 3.30322 3.59196 3.38154 3.45497 3.53796 2.82771 2.79806 2.90576 2.76953 2.93131 2.99598 2.26314 2.28184 2.38561 2.24243 2.36203 2.40521 1.76078 1.73903 1.846 1.82318 1.87191 1.8837 1.19376 1.21013 1.32433 1.29603 1.32741 1.31135 0.829137 0.782808 0.835421 0.772963 0.938061 0.887166 0.369487 0.531023 0.386336 0.462402 0.412547 0.522038 36.319 31.0994 31.2399 31.7878 26.8508 30.5437 50.7335 43.0292 49.9883 45.6613 39.9002 41.5215 49.5619 43.3329 49.7422 46.4265 40.2067 41.4228 46.1519 40.7051 46.7406 43.8646 37.6743 39.1755 42.9585 37.8945 44.0314 40.7032 35.0454 36.6466 40.2251 35.1658 41.0292 37.8662 32.715 34.4224 37.7205 32.6843 38.3885 35.1827 30.5634 32.1416 34.939 30.2326 35.6233 32.5738 28.4414 29.9383 32.3172 27.8426 32.9457 30.0868 26.3332 27.7736 29.7366 25.6678 30.3512 27.5896 24.1961 25.5255 27.2988 23.6982 27.8995 25.3519 22.3589 23.5421 24.8712 21.5193 25.381 23.0725 20.547 21.4987 22.5067 19.5896 23.2552 21.0913 18.6494 19.6975 20.5 17.7247 20.8474 19.0558 16.9333 17.8627 18.3707 16.1005 18.9074 17.1608 15.4915 16.0466 16.4833 14.3575 16.9251 15.3334 13.9104 14.4746 14.7496 12.8369 15.1626 13.7171 12.5099 12.8588 12.9967 11.3905 13.366 12.1331 11.2315 11.5323 11.4066 10.0098 11.6319 10.6681 9.86607 10.2922 9.85848 8.6957 10.2397 9.28258 8.6567 9.03203 8.47373 7.67655 8.75269 7.99017 7.55036 7.84794 7.30337 6.48867 7.55111 6.85433 6.49231 6.75752 6.08315 5.63009 6.34185 5.74867 5.63546 5.75547 4.96724 4.72401 5.23543 4.77555 4.70938 4.90852 4.10717 3.82528 4.2974 4.01048 4.01231 4.04662 3.24048 3.15849 3.44271 3.21355 3.29827 3.27257 2.48801 2.55435 2.64292 2.50909 2.63261 2.65916 1.89999 1.97216 2.13376 1.94048 2.02809 2.13815 1.41676 1.45119 1.43983 1.36385 1.53184 1.54332 0.852801 0.963055 0.97328 0.958135 1.09081 1.09764 0.445909 0.716578 0.527682 0.532421 0.640139 0.691851 0.265243 0.528517 0.347152 0.377208 0.368493 0.475704 67.8696 50.9167 65.7385 62.3109 44.8061 48.9452 65.7506 59.5393 69.119 61.9867 56.8395 58.1993 64.456 57.6155 64.1679 60.3552 54.9586 56.0649 60.4202 54.2203 60.8086 57.1652 51.2057 52.7018 56.6615 50.7732 57.4786 53.7537 47.818 49.6022 53.1072 47.3147 53.9443 50.0157 44.6216 46.519 49.3055 43.9646 50.3246 46.5486 41.4847 43.4115 45.6925 40.6302 46.6308 42.9207 38.5067 40.2519 42.0374 37.4085 43.1791 39.7746 35.438 37.0098 38.4739 34.1358 39.5532 36.365 32.6455 34.0653 35.3718 31.1521 36.2009 33.2526 29.9293 31.1464 32.1197 28.3573 33.1086 30.1001 27.0052 28.2516 29.0887 25.6529 29.8792 27.2905 24.6506 25.7647 26.2531 23.0921 26.9944 24.4803 22.2527 23.1199 23.4798 20.7012 24.1681 22.0138 19.8928 20.8182 20.8417 18.5348 21.5562 19.5335 17.7893 18.5001 18.5316 16.2485 19.0158 17.3377 15.697 16.3734 16.2307 14.2457 16.8305 15.1879 13.9029 14.249 13.8158 12.3773 14.5299 13.2739 11.8679 12.4763 11.9731 10.5525 12.4949 11.2898 10.3079 10.765 10.11 9.12665 10.6907 9.49317 8.81847 9.01527 8.46689 7.4965 8.90842 7.95701 7.54662 7.7361 6.88342 6.17376 7.31759 6.57645 6.23091 6.28068 5.58372 5.09855 5.95353 5.23553 5.0816 5.15377 4.26808 3.93671 4.54742 3.94033 3.93603 3.96594 3.29919 3.08737 3.55654 3.16652 3.14209 3.12367 2.17343 2.16177 2.52788 2.16518 2.21341 2.16358 1.57197 1.58281 1.67764 1.51032 1.71658 1.67893 0.961257 1.00986 1.16722 0.929972 1.1168 1.10416 0.55391 0.62801 0.533965 0.465333 0.689803 0.698985 0.293003 0.341948 0.255319 0.204227 0.527947 0.43467 0.242679 0.316611 0.20213 0.251759 0.294263 0.298149 36.6517 63.998 29.0984 43.094 66.8158 66.9961 53.6267 56.6747 53.5952 56.1956 57.9862 57.2501 53.1244 56.8157 54.7819 55.5714 59.6183 57.3227 49.8739 54.8631 51.1334 53.2979 58.174 55.5509 46.602 51.6108 47.5483 50.1724 54.7098 52.3865 43.0274 47.8621 43.9602 46.4157 50.7495 48.6604 39.8697 44.0317 40.6511 42.8147 46.8428 44.947 36.5677 40.6068 37.5405 39.3034 42.8902 41.2775 33.6535 36.953 34.396 35.9945 39.398 37.827 30.8531 33.7515 31.4509 33.0666 36.0445 34.5241 28.2296 30.8001 28.7347 30.033 32.8055 31.5767 25.5847 27.7576 26.1664 27.2299 29.7503 28.5874 23.1884 25.0762 23.7913 24.6348 26.7749 25.8825 20.8215 22.6645 21.4357 22.2631 24.1644 23.3109 18.7967 20.2509 19.232 19.868 21.5437 20.8851 16.7271 17.9564 17.0128 17.5501 19.0914 18.4248 14.8177 15.6297 15.2528 15.4585 16.6667 16.1979 12.8951 13.862 13.254 13.7734 14.7358 14.0395 11.1905 11.8597 11.5805 11.8343 12.7063 12.3329 9.68209 10.0849 9.92979 10.0778 10.7455 10.4984 8.211 8.52481 8.49476 8.66562 9.07981 8.82915 6.87567 6.87593 7.22866 7.19425 7.58922 7.35117 5.72737 5.59452 5.92847 5.79877 6.03842 5.87287 4.67766 4.54989 4.77739 4.76134 4.85137 4.67594 3.6768 3.35052 3.80837 3.72255 3.7073 3.63389 2.79595 2.57334 2.9184 2.82869 2.66753 2.65255 2.06352 1.88015 2.24347 2.13677 1.8357 1.81652 1.52067 1.3372 1.68924 1.54463 1.1883 1.22544 0.963129 0.743838 1.17174 0.95953 0.627096 0.787122 0.677859 0.409669 0.79728 0.710657 0.356976 0.3173 0.32932 0.209638 0.400521 0.311937 0.165925 0.101024 0.226899 0.192698 0.127331 0.239065 0.171159 0.211561 19.1269 30.6235 14.1953 22.3052 30.6998 27.8858 35.3946 44.282 34.5122 41.1652 46.8961 45.0179 37.6885 44.3117 38.1355 41.4764 47.1902 44.9819 35.9918 41.1222 36.8218 39.2288 43.9454 41.7987 33.3113 38.0955 34.1138 36.3317 40.9007 38.6433 30.8459 35.1179 31.4198 33.7538 37.8928 35.8668 28.4799 32.4954 29.0639 31.0796 35.0108 33.2026 26.3886 29.8311 26.7358 28.6237 32.2507 30.6352 24.2057 27.2927 24.6379 26.3384 29.4961 28.2317 22.3811 24.9903 22.6579 24.2277 27.1984 25.7397 20.4293 23.0116 20.9351 22.1246 24.8337 23.5148 18.8283 20.9563 19.1029 20.1157 22.5723 21.5287 17.0668 18.8264 17.4755 18.3135 20.5448 19.5204 15.5772 17.2669 15.7498 16.697 18.3274 17.6881 14.1179 15.439 14.4003 14.9998 16.6314 15.9747 12.7362 13.6321 12.9636 13.5661 14.7376 14.3114 11.5041 12.3396 11.7546 11.9539 13.0472 12.5186 10.0372 10.681 10.3113 10.7689 11.535 11.1544 8.93256 9.35822 9.26294 9.32089 10.0723 9.86286 7.87015 8.13715 8.26168 8.22161 8.73303 8.5729 6.92266 7.01423 7.1164 7.06269 7.48578 7.26638 6.01385 5.96045 6.11144 6.07337 6.28516 6.16601 5.03013 4.97421 5.30563 5.16312 5.28726 5.32209 4.1518 4.10524 4.45113 4.21941 4.17904 4.25857 3.71381 3.39125 3.76326 3.54493 3.49846 3.59574 2.99116 2.69562 3.02052 2.83145 2.86332 2.85496 2.41525 2.08793 2.56619 2.26732 2.14903 2.15667 2.01809 1.63438 2.01071 1.76449 1.55784 1.66323 1.52396 1.14998 1.6054 1.32945 1.09424 1.19368 0.982096 0.765311 1.07275 0.928135 0.7749 0.731194 0.57232 0.57006 0.671806 0.526096 0.407815 0.422534 0.416233 0.343811 0.475039 0.277216 0.308902 0.291284 9.34686 16.2941 6.0518 11.3836 16.0719 14.7083 22.0605 28.3909 21.3891 25.5817 28.7709 26.8381 25.0734 30.1176 25.7428 28.3112 32.2036 30.2469 23.7498 28.2815 24.3638 26.5988 30.6861 28.747 21.7437 25.8899 22.3314 24.3927 28.3124 26.3542 19.9641 23.6734 20.3425 22.2574 26.0941 24.2862 18.5608 21.9521 18.9111 20.627 24.1799 22.6449 17.4908 20.1639 17.7882 19.0258 22.3525 20.8724 16.1781 18.838 16.4371 17.7503 20.6541 19.5647 15.1344 17.5418 15.3172 16.4792 19.1958 18.1002 14.1305 15.9652 14.3035 15.1792 17.6613 16.6551 13.1718 14.7111 13.3664 14.1643 16.0994 15.4925 12.2623 13.5863 12.3891 13.1162 14.9088 14.2128 11.45 12.4089 11.5671 12.0865 13.6285 12.9642 10.5318 11.4943 10.7329 10.986 12.4409 11.8504 9.69418 10.4592 9.89145 10.1137 11.234 10.8585 8.85877 9.48159 9.00325 9.28837 10.0766 9.8498 8.13568 8.49329 8.27093 8.4089 9.0874 8.84045 7.40638 7.81092 7.5581 7.6961 8.19952 8.04884 6.72576 6.75131 6.8593 6.76748 7.27985 7.13367 6.13794 6.04197 6.23333 6.07881 6.31541 6.39851 5.57462 5.4424 5.58936 5.49073 5.53817 5.5191 4.8844 4.69717 4.96897 4.72804 4.89374 4.8954 4.3156 4.1425 4.33882 4.19605 4.15255 4.29935 3.72569 3.55604 3.90512 3.58959 3.56929 3.67117 3.21923 2.96158 3.36856 3.07093 3.02863 3.07882 2.66361 2.45133 2.74664 2.54343 2.47689 2.49265 2.18251 1.94782 2.3138 2.06774 2.008 2.01798 1.72721 1.56809 1.82611 1.67799 1.46113 1.56745 1.22793 1.08567 1.40515 1.19608 1.07185 1.12649 0.767515 0.617321 0.902248 0.769814 0.614228 0.71052 0.385543 0.426674 0.458876 0.402472 0.275821 0.379299 3.7146 8.69798 1.30172 5.4104 7.60247 6.78821 16.2216 18.2483 15.9495 17.0959 17.6943 16.7149 18.7526 19.9681 19.721 19.5171 20.3998 19.1179 17.3988 18.6024 18.4113 18.245 19.5781 18.2457 15.6714 16.7361 16.3609 16.3544 18.1655 16.9175 14.4128 15.3875 14.7998 14.8749 16.762 15.6888 13.5404 14.2882 13.6939 13.7678 15.5325 14.747 12.8136 13.4889 12.9341 13.0194 14.6406 13.9723 12.2312 12.7014 12.2879 12.2605 13.8212 13.261 11.6642 12.0108 11.6804 11.6819 13.0066 12.6198 11.1047 11.3371 11.12 11.001 12.2565 11.8936 10.6215 10.7931 10.6281 10.4294 11.5046 11.2549 10.0593 10.22 10.076 9.96912 10.8386 10.6061 9.52953 9.57562 9.54247 9.37467 10.1536 9.96204 9.00626 8.93741 9.13071 8.86816 9.5508 9.46653 8.46254 8.43208 8.51971 8.36511 8.8123 8.83524 7.9747 7.83175 8.03619 7.87731 8.1942 8.18756 7.47942 7.30908 7.49145 7.33966 7.68992 7.5478 6.93453 6.74408 6.95899 6.79947 7.03666 7.08203 6.40997 6.21317 6.50898 6.24672 6.41396 6.48968 5.90265 5.69258 5.98209 5.8004 5.81278 5.91951 5.42655 5.2019 5.45794 5.22504 5.25704 5.34688 4.86025 4.6776 4.94841 4.80513 4.80655 4.85284 4.39189 4.14869 4.4822 4.27009 4.21959 4.32063 3.8653 3.64038 3.91115 3.75208 3.65186 3.79466 3.37699 3.13897 3.511 3.2263 3.21358 3.31969 2.79078 2.69487 2.9279 2.75185 2.65721 2.77546 2.31838 2.22486 2.45993 2.24451 2.20071 2.2947 1.86005 1.79337 1.95057 1.82158 1.72401 1.80956 1.33265 1.318 1.46195 1.30467 1.27129 1.34497 0.930256 0.763151 1.03415 0.827701 0.801524 0.881365 0.471672 0.399566 0.492938 0.414161 0.359781 0.337469 8.00511 9.05376 4.78223 6.89607 6.03988 7.02787 21.2867 18.3759 20.682 19.0972 16.1957 17.0522 24.1864 20.2169 24.8815 21.8134 18.3475 18.9388 22.6192 18.9384 23.5255 20.7788 17.3454 17.9137 20.6733 17.3267 21.409 18.8655 15.9743 16.5946 19.0152 15.823 19.4761 17.1471 14.7571 15.5115 17.699 14.7214 17.9859 15.8391 13.8228 14.527 16.5213 13.7842 16.7142 14.8382 13.1258 13.7536 15.4628 12.9974 15.65 13.8616 12.4292 13.1003 14.5448 12.2989 14.6756 13.0056 11.8242 12.4427 13.6155 11.6201 13.7099 12.2693 11.2694 11.7546 12.7365 10.9948 12.8308 11.5802 10.7164 11.1944 11.8876 10.3588 11.968 10.8469 10.1489 10.5839 11.1078 9.76123 11.2489 10.1547 9.60036 10.0145 10.2758 9.16296 10.4203 9.53539 9.04779 9.36585 9.59135 8.53961 9.74441 8.88525 8.48759 8.74995 8.85837 8.00584 9.00087 8.29788 7.96808 8.21487 8.20779 7.47479 8.27914 7.6721 7.4296 7.64819 7.48483 6.87754 7.57538 7.04577 6.91545 7.09952 6.80285 6.37844 6.95887 6.49835 6.39308 6.53968 6.20467 5.83253 6.28109 5.9252 5.8978 6.00063 5.56551 5.28779 5.70783 5.38844 5.34087 5.50153 5.0376 4.77834 5.17338 4.82442 4.80686 4.91536 4.42092 4.23194 4.5406 4.28186 4.31079 4.39654 3.91078 3.70455 4.00248 3.77804 3.76923 3.8926 3.33823 3.22257 3.45134 3.28447 3.32471 3.35577 2.78973 2.70347 2.93806 2.8252 2.7851 2.81158 2.30809 2.29632 2.41869 2.28464 2.27928 2.31738 1.78715 1.76864 1.85255 1.76482 1.76753 1.81668 1.29694 1.29385 1.3959 1.26524 1.3025 1.34425 0.863392 0.864331 0.956308 0.846459 0.826392 0.944644 0.401048 0.426918 0.553709 0.480517 0.517044 0.486974 17.1544 16.9328 12.4267 15.0295 13.0442 15.0561 33.5416 28.0018 32.1829 29.5913 24.9507 26.7809 36.22 30.3433 36.6386 33.1128 27.4306 29.1764 34.3252 28.9159 35.1246 31.5754 26.1583 27.6486 31.6267 26.6176 32.5296 29.171 24.1932 25.5447 29.1234 24.5036 29.8191 26.7534 22.2335 23.6579 27.0643 22.5608 27.6067 24.6323 20.68 21.9822 24.939 20.9749 25.5607 22.6883 19.0697 20.6227 23.156 19.2754 23.5228 20.9363 17.8577 19.1356 21.2856 17.9051 21.6911 19.4175 16.5441 17.7531 19.6616 16.5009 20.0358 17.8815 15.3658 16.4398 18.0534 15.2649 18.3609 16.4696 14.2626 15.2363 16.4883 14.1113 16.8642 15.1503 13.2422 14.0834 15.1436 12.9858 15.486 13.8189 12.2376 12.9495 13.621 11.9307 13.9028 12.6062 11.2771 11.8222 12.37 10.7915 12.6521 11.4349 10.3366 10.8576 11.2362 9.84873 11.5068 10.4755 9.39537 9.86259 10.0394 8.83116 10.2204 9.29876 8.62593 8.99245 8.89415 8.02811 9.16094 8.43547 7.80641 8.16284 7.97435 7.10447 8.2545 7.56 7.0802 7.32997 7.01167 6.36939 7.21062 6.7049 6.36368 6.58778 6.19679 5.66234 6.38434 5.82373 5.66294 5.77733 5.34913 5.02573 5.48118 5.0676 5.04023 5.1259 4.53613 4.29561 4.66924 4.39568 4.35643 4.4511 3.8893 3.73872 4.07496 3.75594 3.76402 3.81597 3.19453 3.13622 3.41295 3.13632 3.23122 3.24678 2.62966 2.64369 2.71183 2.54974 2.68357 2.72292 2.09179 2.12082 2.28605 2.09369 2.20016 2.23086 1.60667 1.63305 1.65155 1.60423 1.66774 1.70002 1.13293 1.20767 1.20251 1.16089 1.24867 1.20241 0.651671 0.803325 0.729832 0.82028 0.858069 0.825758 0.46223 0.508148 0.509297 0.469796 0.531886 0.392519 33.415 29.5747 28.4487 29.9099 24.0987 27.1232 48.8882 42.2301 47.5541 44.6781 38.7123 40.8325 50.1149 44.0552 50.54 46.943 41.0687 42.8621 47.5005 41.8297 48.5024 44.7357 38.8473 40.7206 44.317 38.6997 45.1961 41.448 35.9941 37.7532 41.1121 35.6558 41.935 38.4407 33.202 34.8934 38.0616 32.8998 38.7254 35.4944 30.7073 32.3393 34.9644 30.2406 35.9126 32.6591 28.4822 29.8803 32.2257 27.9331 33.0466 30.0568 26.1792 27.647 29.5429 25.6747 30.1604 27.5501 23.9902 25.2589 27.059 23.4574 27.7218 25.1897 22.0282 23.3356 24.843 21.3787 25.3614 22.9091 20.1765 21.3413 22.4015 19.3566 23.0436 20.8169 18.3715 19.3835 20.2453 17.6576 20.8653 18.8743 16.62 17.5869 18.307 15.8247 18.8038 17.0231 15.0484 15.7 16.3491 14.2661 16.7957 15.0882 13.5886 14.2053 14.4459 12.6589 14.9226 13.449 12.0894 12.6458 12.7907 11.1164 13.2845 11.8701 10.9367 11.3097 11.2074 9.86279 11.6033 10.5571 9.6118 10.0202 9.75142 8.5464 9.91478 9.13185 8.3294 8.71022 8.36905 7.49756 8.54547 7.81052 7.25145 7.60922 7.06058 6.36721 7.37779 6.70426 6.32903 6.44986 6.03099 5.47146 6.12978 5.61272 5.30006 5.50307 4.88529 4.5053 5.11778 4.70719 4.48692 4.68618 3.9634 3.67162 4.16185 3.80523 3.78443 3.77386 3.04681 3.07387 3.25692 3.0325 3.08235 3.13486 2.32472 2.36759 2.51997 2.40551 2.49132 2.45646 1.71165 1.8429 1.84164 1.86987 1.97371 1.91894 1.17259 1.39976 1.33861 1.34912 1.45671 1.43059 0.802662 0.963316 0.913731 0.924967 1.02662 0.953026 0.499506 0.576262 0.596617 0.570323 0.708211 0.64679 0.307243 0.475827 0.316154 0.423404 0.392869 0.472046 67.9612 49.2162 66.3738 61.7249 42.4891 45.4327 62.5944 58.1699 65.1275 59.9271 54.8172 56.584 63.3276 58.017 64.6839 60.4282 55.2093 57.1447 61.252 55.271 62.131 57.9021 52.4986 54.215 57.5001 51.7029 58.6781 54.3958 48.9766 50.5786 53.6353 47.8166 54.7959 50.7089 45.375 47.1053 49.7553 44.2922 50.8484 46.8421 41.9442 43.5707 45.9464 40.7734 46.7596 43.3363 38.6548 40.1906 42.0404 37.3857 43.1249 39.6273 35.6125 37.1455 38.4156 34.4045 39.4881 36.4337 32.6118 33.9138 35.2009 31.1449 36.2094 33.1528 29.8469 31.0243 32.0663 28.3189 32.9894 30.0592 27.0382 28.1436 29.0407 25.641 29.8532 27.2434 24.4796 25.4441 26.0434 23.0556 26.9351 24.5826 22.0612 22.9158 23.3413 20.6893 24.0489 21.8347 19.866 20.7495 20.6903 18.3477 21.5038 19.5195 17.6068 18.3625 18.4528 16.1863 19.0551 17.331 15.4866 16.2744 16.1711 14.329 16.7512 15.0818 13.8062 14.2904 13.9809 12.3778 14.5192 13.098 11.9412 12.3369 11.9277 10.5367 12.4272 11.1935 10.1383 10.6987 10.1334 8.7994 10.6046 9.41493 8.81348 8.97548 8.4475 7.41274 8.88551 7.91835 7.41099 7.64515 6.84579 6.13166 7.24783 6.43021 6.02242 6.22962 5.55402 5.04929 5.69497 5.18477 4.9985 5.10895 4.14226 3.82145 4.70045 4.05842 3.90131 3.95477 3.03553 2.85938 3.44931 2.94169 2.97691 2.98087 2.16318 2.13756 2.46583 2.16267 2.15864 2.18551 1.39643 1.45041 1.67603 1.48386 1.5923 1.53409 0.847465 0.966435 1.11862 0.948339 1.09381 1.04803 0.572798 0.66865 0.68809 0.514123 0.672552 0.620278 0.246276 0.448113 0.388768 0.368506 0.357864 0.38523 0.261375 0.285993 0.184418 0.285598 0.258557 0.358384 36.1834 64.351 28.0708 42.8382 67.5221 68.1603 53.2468 56.0169 53.2314 55.7758 56.8232 56.1447 53.0989 56.5711 54.6798 55.4578 58.8146 56.9365 50.3728 54.9842 51.5213 53.5008 58.1165 55.6707 47.0573 51.8149 48.2304 50.356 55.1394 52.7592 43.8112 48.2021 44.5688 46.7573 51.0124 49.1549 40.1858 44.3009 41.1509 43.2034 47.1904 45.326 36.8766 40.6255 37.749 39.5436 43.342 41.6423 33.8159 37.1529 34.6524 36.1452 39.6362 37.9978 31.1082 33.9102 31.7038 32.9921 36.1885 34.8594 28.1958 30.839 28.811 30.1514 32.8477 31.6291 25.5242 28.0072 26.0939 27.296 29.7607 28.6518 23.0968 25.2938 23.6586 24.6289 26.7744 25.8431 20.7636 22.6752 21.335 22.1853 24.0006 23.1301 18.7062 20.0918 19.1327 19.8754 21.4534 20.757 16.5774 17.9106 17.0125 17.6084 19.1167 18.4004 14.7086 15.7372 15.0482 15.5815 16.7308 16.0996 12.8348 13.7712 13.2025 13.6677 14.5043 14.21 11.1157 11.7466 11.6382 11.7053 12.6278 12.169 9.63582 9.97741 10.0193 10.0191 10.6808 10.4218 8.13033 8.49532 8.42662 8.64431 8.93395 8.93551 6.75721 7.02275 7.32036 7.16846 7.45057 7.25488 5.64261 5.68473 5.88693 5.86485 6.09158 5.94446 4.64674 4.59371 4.79045 4.67986 4.80927 4.76231 3.66083 3.45855 3.7024 3.60883 3.62363 3.64005 2.80106 2.4908 3.02838 2.80283 2.70592 2.745 2.11074 1.79545 2.35441 2.07907 1.77998 1.76868 1.54542 1.15208 1.54063 1.43685 1.17882 1.20679 0.921035 0.737094 1.1219 0.918284 0.572611 0.784118 0.538817 0.437339 0.614738 0.503437 0.368437 0.349646 0.30997 0.154513 0.491955 0.29419 0.21711 0.124335 0.215659 0.152378 0.199096 0.168055 0.292838 0.195034 18.3304 30.3332 12.6407 21.6909 30.0421 27.3638 35.7143 44.163 34.3978 41.1882 46.63 44.8735 38.0219 44.5723 38.4022 41.578 47.2816 45.5709 36.4012 41.6299 37.3689 39.2648 44.3857 42.4759 33.9502 38.5071 34.8641 36.8413 41.4305 39.2709 31.3103 35.4704 31.9029 34.1035 38.2841 36.3219 28.6572 32.6858 29.3762 31.2779 35.2359 33.4887 26.5292 29.8263 26.9559 28.7807 32.4863 30.7944 24.2247 27.5074 24.8375 26.3985 29.7072 28.3071 22.2708 25.2451 22.6877 24.1012 27.1059 25.8677 20.2632 22.9212 20.8771 22.1261 24.7394 23.5072 18.7659 20.8554 19.0168 20.2234 22.6049 21.4575 16.9315 18.9326 17.3503 18.2901 20.3453 19.4758 15.4141 17.112 15.7645 16.5571 18.3248 17.7382 13.9633 15.2785 14.2255 14.8765 16.5463 15.7826 12.5462 13.5956 12.7203 13.4311 14.7617 14.0581 11.2673 12.1381 11.463 11.8955 12.947 12.5834 9.95162 10.681 10.1711 10.5149 11.5375 11.1019 8.87318 9.32137 9.12494 9.23741 9.9243 9.60806 7.70365 8.17827 8.0011 8.09412 8.62255 8.42563 6.67478 7.0228 6.96401 6.9782 7.39137 7.11458 5.87307 5.94269 6.04294 5.95694 6.27174 5.98871 5.00041 4.90488 5.11417 5.1035 5.38916 5.14331 4.29 4.10912 4.3074 4.28308 4.23804 4.12784 3.51003 3.35355 3.66721 3.45736 3.53433 3.58107 2.90574 2.67482 3.14968 2.82348 2.75441 2.83086 2.29343 2.08814 2.43938 2.26851 2.03932 2.19893 1.80542 1.53793 1.88523 1.70896 1.44258 1.55929 1.37727 1.26678 1.45532 1.25386 0.974548 1.12086 0.926757 0.678926 0.998816 0.828647 0.696194 0.704626 0.585235 0.42685 0.723992 0.508784 0.379114 0.430102 0.293799 0.290653 0.249776 0.204062 0.246437 0.213705 8.79905 16.1916 4.72267 10.9376 15.5148 14.313 22.8435 28.4049 21.8157 25.7978 29.0777 27.3289 25.9005 30.5133 26.5146 28.6459 32.4275 30.7442 24.5574 28.6163 25.3488 27.191 31.1462 29.4093 22.3474 26.2157 22.9631 24.7777 28.7095 27.0624 20.3268 24.0057 20.8483 22.5069 26.3797 24.7669 18.6299 22.0569 19.1097 20.7559 24.3551 22.7762 17.3308 20.2384 17.5537 19.1076 22.48 20.9565 15.9769 18.7972 16.2711 17.6556 20.7286 19.3927 14.9142 17.2581 15.1361 16.3796 19.0538 17.9672 13.7668 15.8734 14.0401 15.0918 17.4399 16.417 12.9345 14.7483 13.1085 13.9394 15.9887 15.1806 11.8891 13.4934 12.0066 12.9301 14.732 13.9996 11.1086 12.2997 11.2182 11.891 13.452 12.7871 10.2182 11.2593 10.4977 10.9082 12.2944 11.7086 9.41366 10.2877 9.67229 9.9852 11.0367 10.6078 8.56358 9.2895 8.77149 9.20594 9.90084 9.53194 7.86633 8.4863 8.09094 8.29226 8.94856 8.63712 7.1464 7.58118 7.44696 7.52906 7.99058 7.76576 6.5039 6.70363 6.66109 6.64815 7.05413 6.907 5.87411 5.84354 6.00086 6.02018 6.26705 6.17028 5.27631 5.28108 5.45286 5.39575 5.50377 5.42035 4.66049 4.68771 4.77093 4.71107 4.82649 4.70545 4.11019 3.99075 4.23941 4.15792 4.12211 4.16754 3.51204 3.50731 3.69673 3.46102 3.40347 3.51214 3.06559 2.96768 3.20283 3.02286 2.89589 2.93624 2.57057 2.36644 2.69082 2.53178 2.33286 2.4531 2.15579 1.94056 2.1556 2.05803 1.8729 1.89621 1.64245 1.4354 1.74979 1.64193 1.48741 1.49273 1.15315 1.05265 1.30637 1.14846 0.975665 1.05139 0.746462 0.639996 0.81873 0.706226 0.587107 0.651662 0.372535 0.376412 0.457498 0.472649 0.340179 0.324746 4.49601 8.97303 0.96935 5.65761 7.74243 7.32543 17.5331 18.7904 16.9985 17.8294 18.5657 17.9087 20.176 20.4902 20.9598 20.2553 21.1832 20.265 18.458 19.0723 19.4187 18.8219 20.3007 19.2386 16.3393 17.1392 16.9727 16.703 18.5433 17.3577 14.558 15.5826 15.0069 15.0422 16.9083 15.9379 13.3762 14.465 13.631 13.74 15.606 14.6741 12.4652 13.2969 12.67 12.8293 14.5845 13.6569 11.749 12.5456 11.8782 12.0267 13.5579 12.9464 11.1592 11.8253 11.2597 11.3749 12.6479 12.1269 10.6077 11.1529 10.7133 10.7827 11.9059 11.43 10.1021 10.5729 10.2376 10.2381 11.2435 10.7758 9.57423 9.97756 9.67216 9.65856 10.525 10.1983 9.13233 9.34436 9.16195 9.19696 9.83208 9.53528 8.56342 8.71619 8.69737 8.63661 9.18114 9.00806 8.10029 8.16313 8.19472 8.18487 8.49345 8.43769 7.59045 7.64833 7.67763 7.58184 8.0433 7.85312 7.12694 7.10709 7.18019 7.09697 7.39526 7.28898 6.62667 6.57776 6.71415 6.5461 6.75065 6.75311 6.10601 6.05127 6.20829 6.06631 6.22641 6.1792 5.60873 5.5753 5.71974 5.55942 5.57166 5.62744 5.15627 5.01519 5.26956 5.14097 5.09744 5.13132 4.66939 4.54367 4.75842 4.60126 4.53871 4.63916 4.17482 4.11552 4.25919 4.13614 4.07536 4.10287 3.64115 3.60248 3.77887 3.62592 3.65009 3.60095 3.15319 3.06437 3.30096 3.14065 3.06363 3.08234 2.6537 2.6383 2.7642 2.6539 2.56212 2.65652 2.20691 2.07982 2.28981 2.19711 2.05916 2.11918 1.73878 1.64246 1.8209 1.76967 1.66567 1.66773 1.24829 1.22709 1.41042 1.29764 1.15333 1.23524 0.822729 0.804901 0.969094 0.767713 0.858542 0.735989 0.379735 0.296496 0.558957 0.364008 0.390613 0.343264 7.59705 9.43557 3.45634 7.05772 6.68301 7.61773 22.1151 18.9349 21.3383 19.6233 17.0585 18.0437 25.1829 20.713 25.6749 22.4889 19.3054 20.1682 23.5334 19.3955 24.3079 21.2314 18.163 18.8556 21.1416 17.5352 21.8749 19.1969 16.4095 17.0326 19.1598 15.8882 19.6771 17.3265 14.9081 15.5645 17.5815 14.6519 17.9393 15.8079 13.7273 14.3241 16.2134 13.6623 16.6316 14.7415 12.8334 13.4154 15.1756 12.7895 15.4065 13.6764 12.079 12.6408 14.1138 12.0693 14.4378 12.8335 11.4483 11.9275 13.2221 11.4048 13.4501 12.0826 10.8665 11.2753 12.3762 10.7498 12.5014 11.3587 10.2934 10.6986 11.4981 10.1455 11.7256 10.6764 9.76528 10.0905 10.7428 9.5497 10.9273 9.98497 9.21009 9.55111 9.95448 8.95524 10.1489 9.33245 8.66847 8.92625 9.28823 8.38148 9.44655 8.6986 8.16808 8.38796 8.56019 7.80803 8.70915 8.12774 7.6416 7.82495 7.87649 7.29911 8.03037 7.47275 7.14164 7.27067 7.18249 6.73782 7.37413 6.88827 6.63405 6.75106 6.53808 6.18939 6.72757 6.32776 6.11818 6.24909 5.97015 5.6738 6.06759 5.80266 5.62593 5.70451 5.3533 5.15626 5.52398 5.26873 5.14507 5.19857 4.79393 4.62653 4.89977 4.73318 4.63534 4.71621 4.27095 4.18474 4.40355 4.1968 4.14651 4.16561 3.7441 3.62725 3.82112 3.69435 3.64299 3.65883 3.18677 3.14139 3.29061 3.17324 3.16074 3.20782 2.68742 2.62055 2.80082 2.72741 2.6722 2.72137 2.17869 2.15671 2.38073 2.237 2.15179 2.20882 1.73826 1.68877 1.83701 1.73246 1.71677 1.74512 1.2212 1.27128 1.37673 1.20882 1.24724 1.31811 0.738386 0.836834 0.912644 0.836091 0.83705 0.910716 0.466991 0.449327 0.53086 0.474261 0.366789 0.402354 16.0518 16.8387 10.8904 14.4602 12.7292 14.6443 33.6296 28.2427 32.302 29.7048 25.2383 27.0408 36.7707 30.7128 36.8255 33.2939 28.2067 29.8204 34.9519 29.2087 35.5717 31.9606 26.7535 28.4822 32.2767 26.7943 32.8915 29.5149 24.5754 26.2209 29.5418 24.5246 30.3332 26.9629 22.4876 24.0404 27.1873 22.6007 27.7376 24.7188 20.6919 22.025 25.0225 20.8021 25.5112 22.8105 19.0902 20.3701 23.0427 19.2564 23.5647 20.8801 17.6988 18.9258 21.1731 17.6984 21.5179 19.2306 16.3661 17.5414 19.4004 16.3925 19.8697 17.7172 15.1028 16.1951 17.8151 15.1318 18.2249 16.3951 14.0624 14.9685 16.3875 13.8905 16.7619 14.9837 12.9992 13.7262 14.9572 12.8293 15.2183 13.6016 12.0011 12.6159 13.5552 11.7972 13.8505 12.5457 11.0222 11.5445 12.228 10.6616 12.402 11.4374 10.0969 10.5961 11.006 9.70517 11.4115 10.2928 9.1937 9.66601 9.92986 8.75212 10.1117 9.25746 8.41854 8.71469 8.81075 7.9333 9.01146 8.31558 7.62336 7.93755 7.82844 7.08856 8.04354 7.43103 6.85349 7.05403 6.84514 6.31897 6.98956 6.52938 6.13451 6.33913 6.07206 5.53313 6.22297 5.76039 5.46157 5.5998 5.15027 4.87433 5.42691 5.06102 4.87262 4.98638 4.46946 4.26419 4.62346 4.36892 4.22214 4.37386 3.6996 3.6855 3.93547 3.76865 3.6714 3.73311 3.11072 3.07729 3.2261 3.10122 3.15493 3.08365 2.50861 2.59172 2.62921 2.60315 2.58062 2.57659 1.96371 2.06789 2.11976 2.08076 2.0861 2.1127 1.47809 1.59226 1.59512 1.66027 1.69311 1.69184 1.05933 1.10205 1.12579 1.13845 1.14334 1.17211 0.645811 0.743562 0.795943 0.775563 0.734608 0.773362 0.360626 0.429838 0.400438 0.427985 0.446129 0.577367 32.7137 29.1405 27.6297 29.3663 23.3074 25.9095 48.5134 42.0156 47.1114 44.2759 38.4613 40.4344 50.0386 44.0201 50.1743 47.1511 41.2738 43.0032 47.9888 42.2238 48.7515 45.1169 39.4052 41.3762 44.909 38.9797 45.717 41.9126 36.5294 38.3176 41.5071 36.0712 42.2946 38.7785 33.7256 35.2385 38.2244 33.0821 39.1933 35.5605 31.0859 32.598 35.1217 30.3303 36.1068 32.8242 28.5462 29.9221 32.3573 27.9789 33.0647 29.9405 26.2589 27.5224 29.668 25.6871 30.2257 27.5004 23.8769 25.206 27.1668 23.401 27.7969 25.2008 21.9577 23.2117 24.7223 21.3437 25.1209 22.8945 20.0951 21.106 22.3852 19.4106 22.9796 20.8396 18.3022 19.2453 20.2325 17.5368 20.7358 18.8837 16.5857 17.3733 18.0752 15.8736 18.6275 16.9459 14.9332 15.7205 16.1803 14.2301 16.7187 15.0764 13.4426 13.9889 14.3841 12.7316 14.8109 13.4979 12.041 12.4301 12.7054 11.1919 13.2114 11.8039 10.7575 11.1712 11.124 9.85099 11.424 10.4513 9.42654 9.85265 9.49982 8.50298 9.92359 9.0401 8.24847 8.52559 8.21331 7.33519 8.50514 7.82806 7.18683 7.44928 7.02507 6.2661 7.3759 6.65023 6.21884 6.33114 5.78651 5.3575 6.09795 5.61333 5.19955 5.3834 4.73957 4.49998 5.08369 4.66227 4.43989 4.50494 3.80144 3.70494 3.97182 3.80175 3.65722 3.74199 3.09589 2.96612 3.17207 3.02823 2.94267 2.95926 2.27325 2.3331 2.4558 2.27448 2.40693 2.37759 1.77901 1.83955 1.87138 1.83157 1.91902 1.87745 1.24362 1.30919 1.36011 1.36163 1.43917 1.46615 0.832019 0.99199 0.887317 0.872775 1.04205 0.966284 0.457579 0.650582 0.511115 0.581132 0.566451 0.582116 0.315794 0.469823 0.352776 0.3303 0.46941 0.418449 68.6392 48.7038 67.0975 61.6597 41.8396 44.7084 61.4427 57.5734 64.0767 59.0844 54.2796 55.8719 62.6603 58.0014 64.0387 60.024 55.0638 56.9263 60.9395 55.343 62.028 58.0819 52.5981 54.7039 57.9008 51.8907 58.9531 54.7404 49.3155 51.2273 53.9921 48.1341 55.0327 51.0088 45.5707 47.522 49.9799 44.3354 51.0236 47.1882 42.2235 43.8925 46.048 40.7794 47.0421 43.369 38.9076 40.4162 42.2621 37.3744 43.3597 39.7801 35.725 37.0655 38.5397 34.2804 39.5731 36.3776 32.6061 33.96 35.2197 31.1806 36.1209 33.0478 29.662 31.0325 32.0221 28.2775 32.9034 30.2039 26.9315 28.1213 28.9901 25.5783 29.7677 27.1972 24.339 25.5346 26.0285 23.0618 26.8318 24.5932 21.954 22.9382 23.324 20.6216 24.0388 21.8863 19.726 20.5491 20.6769 18.3863 21.5414 19.4573 17.65 18.2477 18.3046 16.1796 18.9667 17.2796 15.4109 16.083 16.127 14.1868 16.7295 15.0256 13.7012 14.0864 13.7027 12.3007 14.538 13.1504 11.7522 12.3086 11.8802 10.5727 12.5204 11.2414 10.1971 10.6449 10.0573 8.94822 10.6605 9.51961 8.66566 8.98067 8.36203 7.52171 8.82482 7.81359 7.37952 7.52661 6.76726 6.13041 7.29132 6.60812 6.07568 6.18065 5.39599 5.04277 5.79623 5.17598 5.0212 4.9914 4.25764 3.89333 4.57195 3.98785 3.86939 3.94873 3.14042 2.94508 3.38653 3.0856 2.89183 2.9275 2.14259 2.06395 2.47529 2.14239 2.15934 2.16142 1.45748 1.47189 1.80445 1.41934 1.71602 1.58152 0.924989 0.93216 1.04403 0.931496 1.11803 1.14884 0.584595 0.60445 0.58395 0.605032 0.768814 0.734345 0.343464 0.428456 0.462405 0.450504 0.385471 0.545186 0.194215 0.38362 0.320982 0.197436 0.338193 0.306062 36.1799 64.3225 27.9043 42.715 67.8254 68.5782 53.4088 56.3685 53.052 55.8714 56.7076 55.754 53.0264 56.6445 54.6246 55.4035 58.4735 56.8258 50.3624 54.8487 51.3999 53.3581 57.9668 55.582 47.2013 51.7456 48.1089 50.1676 55.0298 53.0502 43.8554 48.1062 44.5997 46.7605 51.0702 49.2913 40.2948 44.2379 41.1935 42.9887 47.4593 45.4167 37.0453 40.6463 37.8804 39.5987 43.2315 41.6815 33.9114 37.0397 34.5027 35.9256 39.5546 38.1009 31.0162 33.8791 31.5481 33.0032 36.0816 34.8932 28.2096 30.7968 28.9541 30.1158 32.7149 31.7024 25.6777 27.8239 26.1349 27.3109 29.7452 28.6765 23.2072 25.2278 23.6673 24.7805 26.8429 25.8346 20.8636 22.51 21.2493 22.3122 24.0169 23.3348 18.7099 20.0485 18.94 19.8975 21.6071 20.7804 16.5018 17.9761 17.0358 17.6769 19.0264 18.3312 14.7466 15.7825 14.9137 15.4519 16.7231 16.1755 12.7807 13.6103 13.2206 13.6998 14.7404 14.0517 11.1351 11.92 11.542 11.7165 12.575 12.1248 9.58576 10.0941 9.85523 10.0221 10.569 10.4224 8.07234 8.40952 8.46208 8.50565 9.01722 8.69364 6.77021 7.04991 7.12279 7.24701 7.45134 7.23867 5.59417 5.77148 5.85416 5.92733 6.03881 5.93377 4.50166 4.58985 4.76054 4.66851 4.6675 4.60293 3.57015 3.43761 3.78131 3.60119 3.55983 3.57532 2.73439 2.59722 2.94249 2.88955 2.62884 2.62624 1.97592 1.76142 2.16738 2.13476 1.69159 1.77776 1.39635 1.12272 1.56429 1.46376 1.12573 1.15162 0.898154 0.674687 1.02029 0.972801 0.688623 0.636573 0.563659 0.389274 0.594852 0.678645 0.428567 0.360673 0.278104 0.196253 0.404928 0.307455 0.144748 0.185074 0.317919 0.183753 0.134161 0.271992 0.237557 0.281568 18.0025 30.2007 12.5476 21.7665 30.1076 27.3761 35.9579 44.1985 34.5265 41.1088 46.602 44.9174 37.9974 44.5288 38.4046 41.5217 47.0439 45.6518 36.4686 41.4668 37.3872 39.1732 44.3519 42.7138 34.032 38.3446 34.8299 36.6164 41.4266 39.5103 31.3733 35.2106 32.0412 34.0056 38.4555 36.5646 28.858 32.6165 29.4012 31.277 35.3712 33.7591 26.5092 29.8191 27.0024 28.7707 32.4456 30.9106 24.2552 27.5119 24.7276 26.3563 29.8164 28.2672 22.2003 25.0932 22.5613 24.2421 27.2038 25.8303 20.3865 22.9434 20.7504 22.1533 24.8413 23.5668 18.6602 20.8375 18.9969 20.0954 22.4962 21.5016 17.0488 18.8999 17.1792 18.3036 20.422 19.4524 15.3967 16.9299 15.6612 16.6588 18.2797 17.5793 13.9278 15.2652 14.1168 14.8604 16.4965 15.8533 12.5416 13.6953 12.8374 13.4258 14.8845 14.178 11.338 12.3535 11.5187 11.8835 13.0089 12.611 9.93933 10.6318 10.2274 10.5973 11.5267 11.0124 8.91317 9.26336 9.10049 9.21674 9.90357 9.67821 7.65265 8.11724 8.14738 8.081 8.61188 8.44311 6.75903 7.02896 6.98066 7.007 7.32633 7.12181 5.76615 6.02646 6.04233 6.02385 6.16586 6.10701 4.86657 5.03294 5.14384 5.13169 5.21067 4.99424 4.1273 4.06667 4.29051 4.26063 4.22155 4.10565 3.50681 3.39306 3.65599 3.46843 3.46364 3.37977 2.85681 2.81559 3.02065 2.96329 2.68593 2.67771 2.27919 2.14414 2.37348 2.3102 2.11722 2.1394 1.76511 1.59014 1.85406 1.78212 1.48925 1.50647 1.2885 1.15836 1.46682 1.23646 1.14416 1.22235 0.943983 0.881741 1.1164 0.889656 0.720069 0.757609 0.538967 0.499416 0.607088 0.521471 0.34978 0.391211 0.402845 0.463282 0.376814 0.243072 0.277172 0.312387 8.73739 16.145 4.46335 10.9181 15.3871 14.1505 23.1751 28.2098 21.9051 25.6377 29.0331 27.5374 26.0196 30.3188 26.5216 28.5012 32.4405 31.0163 24.7184 28.66 25.354 26.9771 31.2557 29.5329 22.4748 26.1289 23.087 24.7345 28.908 27.1085 20.4073 23.9001 20.9405 22.3882 26.5111 24.9088 18.7006 22.0061 19.2125 20.6834 24.3979 22.8154 17.3962 20.2632 17.6318 19.2112 22.3442 20.9719 15.9194 18.7328 16.2158 17.7514 20.6606 19.4785 14.9084 17.2664 15.0379 16.4799 18.9926 17.8749 13.7738 15.9551 14.074 15.2997 17.499 16.3312 12.8714 14.6668 12.994 14.0523 15.9744 15.1761 11.8104 13.5669 12.1499 13.093 14.7388 13.8701 11.0281 12.428 11.2565 12.013 13.391 12.6548 10.1266 11.3649 10.4365 10.9213 12.3049 11.5849 9.37736 10.2407 9.61653 10.0117 11.109 10.5027 8.5696 9.29853 8.88545 9.05944 9.86558 9.52161 7.75232 8.37539 7.90103 8.27736 9.01869 8.65018 7.07488 7.64942 7.28386 7.61275 8.00137 7.68308 6.42075 6.79588 6.64673 6.76936 7.05162 6.81901 5.86399 6.05362 5.9543 6.0888 6.21762 6.03041 5.1826 5.28115 5.33574 5.36992 5.31278 5.3809 4.66907 4.65223 4.80971 4.7338 4.76287 4.64013 4.05202 3.97276 4.22006 4.12042 4.09244 4.07483 3.52434 3.43959 3.64507 3.57522 3.36265 3.42614 3.01231 2.90065 3.1399 3.00813 2.92167 2.97028 2.52437 2.44184 2.71668 2.52059 2.35933 2.40635 2.01604 1.94848 2.24049 2.11265 1.82041 1.89105 1.64206 1.49163 1.73048 1.62484 1.35885 1.45959 1.13096 1.07876 1.24782 1.11544 1.03206 1.05831 0.804428 0.670409 0.811273 0.667902 0.654619 0.68664 0.35755 0.35433 0.408716 0.379286 0.395387 0.373174 4.6301 8.87671 1.01451 5.56811 7.66158 7.47979 17.8286 18.547 17.1003 17.5098 18.5229 18.2341 20.5067 20.2827 21.1157 19.9926 21.1727 20.566 18.7708 18.9044 19.5445 18.5981 20.3096 19.5033 16.4623 17.0104 17.0515 16.6472 18.7167 17.6346 14.6253 15.5251 15.0144 15.0424 17.0724 15.9959 13.3808 14.4176 13.6099 13.7924 15.6793 14.6646 12.4359 13.4023 12.6226 12.9286 14.5695 13.6315 11.6589 12.6297 11.8476 12.1354 13.5091 12.8014 11.0692 11.8163 11.2299 11.4954 12.6982 12.0308 10.5025 11.2624 10.685 10.8446 11.9083 11.3276 10.0015 10.6327 10.1919 10.2824 11.2429 10.694 9.49223 9.99313 9.63436 9.83135 10.3825 10.0685 9.00765 9.46647 9.13743 9.24676 9.8336 9.45793 8.49709 8.95334 8.66345 8.69744 9.09478 8.91632 7.99514 8.3383 8.11783 8.23 8.50815 8.31326 7.51962 7.82465 7.65219 7.71949 7.9201 7.73957 7.01259 7.19789 7.18155 7.19581 7.27983 7.13224 6.50633 6.68332 6.66184 6.6582 6.7968 6.6122 6.04324 6.17384 6.1414 6.17159 6.1029 6.04955 5.56261 5.6207 5.73863 5.62234 5.70814 5.57003 5.09775 5.11116 5.18672 5.17706 5.10782 5.03878 4.56237 4.57782 4.69299 4.63783 4.57994 4.53676 4.15161 4.10706 4.24103 4.18269 4.04327 4.06843 3.63601 3.57406 3.76896 3.65743 3.58729 3.5849 3.16116 3.0954 3.32002 3.19491 3.01441 3.11591 2.66545 2.62003 2.78177 2.74712 2.59324 2.62785 2.15028 2.15788 2.3138 2.25149 2.0974 2.12842 1.75298 1.67146 1.88066 1.74068 1.62558 1.63392 1.24085 1.30886 1.3814 1.35385 1.15958 1.20274 0.794412 0.823041 0.91929 0.844377 0.709661 0.844131 0.3387 0.363767 0.440484 0.333012 0.391045 0.453391 7.41662 9.32597 3.4222 7.0229 6.70523 7.78398 22.3028 18.7181 21.3839 19.4496 17.07 18.2851 25.4135 20.5271 25.7105 22.2342 19.4443 20.4569 23.7129 19.2156 24.388 21.1248 18.2835 19.1635 21.3351 17.4467 21.9518 19.0331 16.469 17.204 19.2956 15.9324 19.6444 17.3058 14.9586 15.6172 17.5861 14.7111 18.0096 15.8366 13.7382 14.3517 16.2049 13.7401 16.5592 14.7311 12.8274 13.3611 15.0947 12.8973 15.3733 13.803 12.0824 12.5567 14.029 12.1812 14.3313 12.8876 11.4151 11.8514 13.0794 11.51 13.377 12.1625 10.842 11.1782 12.2741 10.8553 12.477 11.4482 10.2526 10.588 11.4867 10.2318 11.7021 10.7465 9.72568 9.95647 10.6745 9.65656 10.9192 10.0662 9.16177 9.41624 9.85438 9.05051 10.1018 9.42463 8.65047 8.83744 9.16606 8.47046 9.41082 8.75982 8.1298 8.26264 8.49774 7.90475 8.72396 8.17639 7.61088 7.74114 7.83677 7.35057 7.96744 7.52935 7.12747 7.25433 7.13321 6.82631 7.34832 6.94982 6.64418 6.68505 6.48819 6.26336 6.67285 6.41278 6.10905 6.17121 5.9227 5.73024 6.08269 5.81805 5.59665 5.59801 5.34369 5.20496 5.52362 5.28876 5.13374 5.09837 4.7416 4.72931 4.90096 4.77379 4.60709 4.5985 4.23341 4.14923 4.40494 4.31069 4.14192 4.11427 3.67116 3.70189 3.84184 3.69538 3.61533 3.63913 3.14076 3.22597 3.32191 3.2 3.11801 3.14114 2.67472 2.65765 2.82005 2.75121 2.69186 2.68864 2.1461 2.17546 2.27747 2.23094 2.16384 2.18946 1.6662 1.74639 1.81747 1.76637 1.70963 1.70035 1.16911 1.2837 1.33502 1.29192 1.29605 1.23149 0.765525 0.811852 0.955832 0.792933 0.798123 0.870422 0.39088 0.393319 0.489843 0.386294 0.286933 0.413957 15.7755 16.7835 10.6583 14.5649 12.7396 14.4389 33.6333 28.1751 32.3246 29.7172 25.2305 27.1215 36.8059 30.4822 36.6079 33.1704 28.2514 29.899 35.0732 28.9979 35.6178 31.9171 26.9039 28.5924 32.3581 26.779 32.9763 29.4044 24.717 26.4102 29.4919 24.647 30.2622 26.8965 22.4698 24.0028 27.1225 22.7119 27.7532 24.7931 20.6648 22.0944 25.0041 20.8725 25.5776 22.8009 19.1256 20.3202 23.0386 19.2397 23.5892 20.9509 17.5604 18.8704 21.1243 17.845 21.5812 19.3821 16.3764 17.3492 19.4277 16.4 19.788 17.8356 15.1355 16.0943 17.7613 15.1927 18.218 16.4204 14.0747 14.9223 16.3354 13.9613 16.7051 14.9909 12.9539 13.6742 14.8884 12.8194 15.1862 13.7205 12.0165 12.6057 13.5357 11.7894 13.8356 12.5297 10.9085 11.5083 12.0801 10.7335 12.4994 11.4286 10.1844 10.5112 10.9837 9.73116 11.3128 10.4129 9.236 9.57803 9.87088 8.78159 10.1125 9.24764 8.4145 8.64596 8.76271 7.96348 8.9887 8.36245 7.62615 7.8499 7.71104 7.14294 8.03867 7.43986 6.87788 7.03807 6.8053 6.39016 7.09623 6.60089 6.14172 6.30577 5.93579 5.65672 6.12458 5.74492 5.47669 5.50212 5.17357 5.02106 5.32463 5.02466 4.80286 4.88786 4.3839 4.28708 4.63594 4.39145 4.21596 4.24903 3.69748 3.70806 3.92091 3.74022 3.62672 3.61915 3.05795 3.14732 3.25307 3.1179 3.12871 3.08898 2.5408 2.55935 2.62486 2.58835 2.55858 2.55285 1.90665 2.08891 2.10294 2.1268 2.09078 2.12986 1.49592 1.62604 1.634 1.58932 1.68422 1.59103 1.05826 1.17475 1.13892 1.13341 1.15043 1.18084 0.669924 0.779322 0.711858 0.780416 0.766492 0.818065 0.34389 0.472077 0.485249 0.394144 0.385312 0.403554 32.2955 29.2099 27.5089 29.2809 23.3539 25.8111 48.5479 41.9566 46.8856 44.4006 38.536 40.5673 50.0692 44.0576 50.2737 47.1168 41.3607 43.1092 48.0219 41.9425 48.6464 45.0096 39.475 41.3912 44.9701 38.8195 45.6775 41.8869 36.5462 38.4594 41.5538 35.819 42.3845 38.6149 33.5733 35.5327 38.3081 33.1122 39.0708 35.4369 31.0005 32.604 35.1698 30.3739 36.0432 32.8089 28.4436 29.8555 32.4299 27.8867 33.0212 29.9335 26.1207 27.5017 29.6111 25.57 30.2876 27.5459 23.8919 25.1325 27.0435 23.3995 27.7658 25.0543 22.0314 23.1755 24.6735 21.35 25.0431 23.0084 20.1195 21.1186 22.2388 19.4619 22.9933 20.7074 18.2228 19.1369 20.1716 17.6042 20.7495 18.8479 16.5425 17.3728 18.1571 15.7917 18.6384 17.0486 14.8762 15.5592 16.0972 14.2491 16.6694 15.1615 13.45 13.9953 14.3035 12.5966 14.783 13.4699 11.906 12.4714 12.6428 11.1858 13.0624 11.9422 10.7489 11.035 11.1691 9.8153 11.4351 10.4453 9.44189 9.67899 9.65047 8.61906 9.91123 9.09862 8.22149 8.47848 8.25793 7.41384 8.61352 7.80606 7.07901 7.35281 7.09813 6.36983 7.31103 6.76173 6.16644 6.26209 5.78998 5.38736 6.12801 5.57626 5.27136 5.47617 4.72926 4.52488 4.99865 4.63368 4.38543 4.43425 3.8165 3.72324 4.13702 3.77409 3.70306 3.72366 3.08952 2.9371 3.30606 3.04197 2.98747 3.05603 2.19776 2.31524 2.43788 2.37459 2.41267 2.41527 1.76891 1.8701 1.83201 1.77699 1.93426 1.86 1.1819 1.30145 1.33124 1.31671 1.43245 1.30245 0.789926 0.918972 0.930446 0.911825 0.914934 1.00047 0.545826 0.597761 0.513478 0.598212 0.66045 0.620827 0.310326 0.481133 0.306798 0.433912 0.347695 0.425195 68.8864 48.7358 66.9025 61.31 41.9175 44.4529 61.4741 57.7284 63.8571 59.2741 54.207 55.6031 62.358 57.8906 63.9112 60.4762 54.8927 56.8509 60.8994 55.4725 62.1013 58.1273 52.694 54.7176 57.9561 51.9084 59.0614 54.6882 49.4392 51.3096 54.1091 48.0588 55.1743 50.8806 45.8134 47.6398 50.0083 44.2866 51.1674 47.15 42.2949 43.9392 46.163 40.746 47.0909 43.4338 38.92 40.3928 42.2616 37.4165 43.2925 39.7978 35.6078 37.1133 38.5497 34.2682 39.603 36.3186 32.5432 33.9178 35.2341 31.165 36.1855 33.2825 29.5741 30.9615 32.0925 28.4509 32.8687 30.0612 26.9914 28.1616 28.7796 25.4863 29.8257 27.2082 24.3688 25.4641 26.0467 23.1181 26.8101 24.5852 22.0096 22.8836 23.1835 20.5276 23.9194 21.9221 19.8333 20.6148 20.7037 18.2152 21.5215 19.5453 17.5442 18.1917 18.318 16.1802 18.8005 17.2426 15.5236 16.1487 16.0376 14.1666 16.7593 14.9592 13.6342 14.1053 13.7389 12.4377 14.3623 13.1022 11.7833 12.4263 11.9407 10.637 12.5336 11.1235 10.1387 10.6404 10.0485 8.84497 10.5629 9.48215 8.66428 8.94832 8.34418 7.40343 8.83855 7.89284 7.1599 7.36329 6.77628 6.0666 7.2742 6.48086 6.04148 6.14756 5.485 5.05491 5.72564 5.18503 4.9687 5.07285 4.2395 3.95947 4.70074 3.96253 3.70391 3.93953 3.18039 2.88993 3.51118 2.90114 2.96441 3.07338 2.1528 2.12366 2.52198 2.12674 2.18332 2.15226 1.44877 1.49785 1.74213 1.49955 1.59629 1.56286 0.911206 0.957315 1.28434 1.01166 1.07009 1.10657 0.571766 0.693434 0.680589 0.491281 0.691488 0.737829 0.317941 0.383848 0.366713 0.286646 0.410022 0.411064 0.170707 0.357081 0.262313 0.262775 0.262895 0.263279 36.2479 64.097 28.5609 42.813 67.5374 68.1527 53.4031 57.429 53.2452 56.4756 57.1823 56.2671 52.933 56.8872 54.6557 55.4302 58.9017 57.0528 50.0887 54.5744 51.3862 52.9071 57.7927 55.6292 46.7262 51.2802 47.838 49.7384 54.8143 52.6354 43.4917 47.5719 44.4231 46.2786 50.974 49.327 40.2134 44.0667 40.8212 42.6892 47.12 45.2251 36.8823 40.4688 37.5712 39.3043 43.2061 41.6173 33.7377 36.9406 34.4169 35.9908 39.5544 37.9965 30.9922 33.6805 31.5743 32.9952 36.1693 34.7166 28.1687 30.8308 28.7472 30.1178 32.7866 31.6 25.6528 27.836 26.0967 27.3134 29.7844 28.64 23.2977 25.13 23.7059 24.6824 26.8069 25.7717 20.7589 22.7528 21.2802 22.2638 24.2604 23.2546 18.7125 20.231 19.2831 19.8415 21.4454 20.802 16.598 17.9097 16.9745 17.6499 19.0615 18.503 14.6512 15.8642 15.0709 15.4941 16.8031 16.0964 12.8963 13.7337 13.233 13.6212 14.5708 14.0595 11.1955 11.7645 11.6594 11.7579 12.5959 12.2423 9.75156 10.0893 10.0228 10.1702 10.7361 10.4619 8.21445 8.47081 8.54384 8.75242 9.16443 8.73322 6.79181 6.98026 7.16216 7.22082 7.46465 7.27616 5.67586 5.75804 5.84708 5.77189 6.01326 5.8689 4.53525 4.477 4.81563 4.80334 4.73284 4.64998 3.63003 3.41355 3.76294 3.73716 3.56649 3.61691 2.75738 2.56665 2.98765 2.83434 2.71252 2.60538 1.93553 1.7004 2.27202 2.11343 1.94949 1.86194 1.49608 1.2662 1.75034 1.49598 1.22325 1.27098 0.999603 0.777869 1.15294 0.982735 0.737572 0.732625 0.593632 0.400882 0.660485 0.637535 0.31157 0.338675 0.3501 0.241861 0.375627 0.445093 0.185805 0.17306 0.27408 0.131332 0.259632 0.257598 0.223971 0.376472 18.5129 30.8555 13.5395 22.6281 30.361 27.5854 35.8282 44.3769 34.3701 41.0959 46.7277 45.087 37.7839 44.1535 38.0826 41.0819 46.9764 45.5021 36.1531 40.941 37.0141 38.6035 44.0126 42.3226 33.7956 37.5986 34.4336 36.0398 41.0292 39.3374 31.2026 34.9809 31.7489 33.4913 38.1041 36.2264 28.7797 32.1889 29.2615 30.9359 35.1597 33.4415 26.4362 29.6632 26.7674 28.585 32.3833 30.8279 24.3257 27.2535 24.7898 26.372 29.6437 28.2773 22.483 25.1246 22.8116 24.0372 27.1945 25.8065 20.4954 22.9662 20.8205 22.2287 24.789 23.5703 18.6764 20.9393 19.085 20.3566 22.5644 21.5925 17.0182 18.8683 17.3708 18.4928 20.5082 19.4 15.5156 17.2053 15.8337 16.7847 18.3843 17.5529 13.9328 15.4022 14.3102 15.0254 16.632 15.6785 12.5924 13.8811 12.9206 13.5457 14.7052 14.1787 11.3979 12.3261 11.7472 12.052 13.0417 12.452 10.0064 10.8387 10.243 10.8299 11.5811 11.2148 8.98657 9.51318 9.1348 9.35349 9.95862 9.74869 7.75419 8.3055 8.02561 8.24931 8.68031 8.33822 6.85298 7.26698 6.97133 7.27787 7.31792 7.16396 5.94211 5.94663 5.9717 6.05871 6.20109 6.1292 5.00201 5.06711 5.21519 5.24063 5.24608 5.04891 4.29312 4.21522 4.57846 4.48116 4.22498 4.22574 3.50341 3.41496 3.62701 3.69547 3.47594 3.58217 2.94059 2.77174 3.04082 2.91374 2.8263 2.8276 2.37153 2.25301 2.44063 2.36614 2.13121 2.2042 1.80024 1.71106 1.99983 1.88777 1.51283 1.58748 1.45953 1.23789 1.48282 1.38134 1.09896 1.16205 0.992003 0.812297 1.21133 0.909668 0.730886 0.86561 0.567999 0.52767 0.681117 0.658236 0.358205 0.39014 0.394462 0.366474 0.282529 0.319698 0.387083 0.292208 8.78547 16.2524 5.36659 11.5515 15.6765 14.3584 22.8321 27.962 21.4648 24.9226 28.7002 27.3795 25.6544 29.6128 26.0224 27.7597 32.0409 30.554 24.2714 27.8378 24.8205 26.2454 30.829 29.2114 22.13 25.5919 22.6185 24.0024 28.5117 26.9819 20.2406 23.5767 20.6505 22.2095 26.2547 24.764 18.6283 21.9409 18.9892 20.5893 24.3321 22.7878 17.3321 20.3065 17.6144 19.147 22.3723 21.0038 15.9614 18.912 16.3572 17.8718 20.6468 19.5296 14.9693 17.4583 15.2534 16.5903 19.0312 18.012 14.0255 16.1431 14.2217 15.28 17.495 16.4303 13.1237 14.9776 13.2198 14.3196 16.2368 15.2427 12.1642 13.8179 12.3257 13.2154 14.9016 14.0419 11.249 12.5894 11.4181 12.2677 13.4765 12.8735 10.3799 11.7201 10.613 11.178 12.3532 11.6256 9.51522 10.6143 9.75907 10.2927 11.1876 10.5565 8.82664 9.65406 8.97289 9.43907 10.0937 9.61627 8.02837 8.60267 8.22048 8.60581 8.92587 8.70213 7.25526 7.82242 7.4692 7.82459 8.20922 7.86452 6.61778 6.91053 6.81504 6.95139 7.16529 6.90377 5.94328 6.19873 6.23721 6.26249 6.33137 6.09737 5.44085 5.42832 5.5312 5.53055 5.58503 5.41223 4.81572 4.93316 4.90646 4.93414 4.8414 4.73102 4.20569 4.19183 4.36171 4.37584 4.12205 4.21188 3.64121 3.58728 3.89141 3.63094 3.63883 3.49368 3.08121 3.11967 3.26262 3.14179 2.99945 2.96001 2.58707 2.56071 2.73996 2.67546 2.36447 2.47072 2.11588 2.11026 2.24208 2.12568 1.90018 2.03941 1.6851 1.52506 1.80933 1.65928 1.4785 1.53561 1.21521 1.10478 1.3691 1.19586 1.04604 1.1348 0.831461 0.700917 0.889889 0.774056 0.70183 0.669203 0.365575 0.414385 0.473092 0.420775 0.334816 0.355325 4.14418 8.03463 0.920022 5.00657 7.42356 7.21792 17.2246 17.2778 16.2991 16.3112 17.8211 17.7849 19.8356 19.1807 20.1948 18.8224 20.4155 20.0797 18.2972 18.1948 18.784 17.7321 19.7961 19.1012 16.1674 16.6263 16.5304 16.1756 18.3433 17.3949 14.5546 15.5026 14.8084 14.8885 16.9293 15.9215 13.4527 14.472 13.6547 14.0149 15.6731 14.7516 12.5736 13.7086 12.7948 13.2036 14.6793 13.7684 11.9372 12.9837 12.1067 12.5429 13.7841 13.0049 11.3429 12.3604 11.5697 11.9389 12.9394 12.2468 10.7916 11.6978 11.0069 11.4519 12.2531 11.5522 10.2738 11.0864 10.5274 10.7922 11.4608 10.9554 9.74416 10.4179 10.0008 10.2237 10.7245 10.3012 9.24477 9.87598 9.44249 9.65596 10.1096 9.6329 8.74732 9.20436 8.95956 9.09419 9.42517 9.09228 8.22275 8.68907 8.4111 8.64565 8.67908 8.48338 7.76777 8.1278 7.92187 8.04967 8.12963 7.85508 7.22894 7.56953 7.44495 7.51201 7.52716 7.33621 6.74938 6.97862 6.91778 6.94684 6.8855 6.81428 6.25575 6.4455 6.41342 6.41888 6.34891 6.21345 5.71066 5.88054 5.93007 5.90526 5.75613 5.72312 5.25475 5.31499 5.35373 5.41138 5.22699 5.16434 4.80219 4.83205 4.88578 4.89062 4.70188 4.65878 4.2237 4.27127 4.42839 4.34832 4.11927 4.17065 3.70977 3.83126 3.94666 3.84639 3.6591 3.65783 3.22106 3.27015 3.36407 3.35755 3.11853 3.14656 2.69398 2.76157 2.9524 2.84573 2.61271 2.64209 2.30512 2.3248 2.45999 2.31028 2.18913 2.20509 1.80811 1.79572 1.96544 1.85846 1.69903 1.78286 1.28792 1.29185 1.38942 1.37682 1.22328 1.31291 0.820639 0.934207 0.971059 0.891691 0.765133 0.843278 0.395648 0.466709 0.547889 0.368013 0.353573 0.464595 7.46008 8.70701 4.39153 6.98101 6.04289 7.40753 21.8552 17.6175 20.8663 18.6429 16.2694 17.754 24.9254 19.4227 25.0256 21.2355 18.6049 19.9315 23.3594 18.4472 23.7738 20.2399 17.7354 18.7845 21.1182 17.136 21.4029 18.6244 16.2382 17.0185 19.1484 15.9284 19.5095 17.1483 14.9588 15.5596 17.6244 14.9167 17.9016 15.9446 13.868 14.4583 16.2797 14.0911 16.6783 14.9627 13.0465 13.5152 15.2694 13.377 15.5615 14.1369 12.3451 12.7392 14.2652 12.6494 14.6137 13.2988 11.7387 12.0256 13.3344 11.988 13.6485 12.5322 11.1458 11.4003 12.4892 11.3247 12.769 11.8254 10.5912 10.7947 11.6709 10.6985 11.9482 11.1504 10.0096 10.168 10.8034 10.1092 11.1941 10.455 9.48229 9.62007 10.065 9.46491 10.3816 9.83588 8.93176 9.02156 9.3458 8.86427 9.69603 9.1472 8.3958 8.48932 8.66607 8.29945 8.89574 8.49828 7.9002 7.92443 8.01843 7.69319 8.20625 7.86917 7.35587 7.38487 7.28791 7.10681 7.52418 7.26711 6.82266 6.86063 6.65308 6.5551 6.88671 6.65356 6.28795 6.30884 6.08012 6.00101 6.24135 6.07141 5.79856 5.77943 5.44205 5.4479 5.61836 5.55681 5.25702 5.23173 4.83827 4.92796 5.10303 4.99416 4.78407 4.72832 4.34031 4.38183 4.53132 4.41175 4.24473 4.23541 3.77738 3.85282 3.91995 3.88241 3.74861 3.73111 3.2086 3.33853 3.441 3.35685 3.20807 3.20719 2.74543 2.81287 2.94608 2.89862 2.74201 2.69662 2.22907 2.35154 2.39362 2.38699 2.2682 2.26743 1.71282 1.83726 1.9404 1.84056 1.73592 1.7584 1.22611 1.35967 1.42257 1.34521 1.29548 1.28167 0.843111 0.88709 1.062 0.900933 0.865892 0.858016 0.493873 0.365775 0.568989 0.347051 0.392012 0.491554 16.1887 17.2552 11.9501 15.4353 12.7454 14.3861 33.522 27.7512 32.281 29.6128 24.8858 26.9867 36.575 29.8225 36.5336 32.723 27.7141 29.7628 34.6364 28.3363 35.1562 31.2112 26.4683 28.2474 32.1804 26.3005 32.4987 28.9973 24.4554 26.0624 29.3882 24.3633 30.1336 26.6213 22.3709 24.0138 27.1483 22.5588 27.5677 24.5919 20.6517 22.1905 25.0121 20.9951 25.5509 22.785 19.1402 20.4219 22.9914 19.5092 23.56 21.1081 17.7964 18.9783 21.0926 18.1692 21.59 19.5997 16.5353 17.5786 19.5396 16.689 19.9276 18.0729 15.3886 16.1961 17.8772 15.4721 18.2591 16.6267 14.1636 15.0398 16.4006 14.3299 16.7353 15.2725 13.1611 13.84 14.9615 13.1884 15.383 13.99 12.1249 12.6279 13.5604 12.1128 13.9115 12.7742 11.2652 11.5748 12.261 11.0188 12.5883 11.6712 10.1977 10.5657 11.0809 9.97472 11.4172 10.5673 9.34859 9.70639 9.88019 9.03652 10.2825 9.51991 8.59483 8.68194 8.82194 8.18845 9.14099 8.51778 7.73396 7.88164 7.85072 7.35721 8.11945 7.57233 7.08715 7.12293 6.91504 6.57092 7.2047 6.78495 6.27211 6.37338 6.06851 5.77578 6.36793 5.99997 5.66624 5.69856 5.23135 5.14255 5.45056 5.18323 4.9404 5.00059 4.48129 4.44378 4.71675 4.50834 4.32494 4.32695 3.78632 3.86296 3.95274 3.88342 3.72865 3.76875 3.15644 3.31802 3.33876 3.2524 3.1681 3.20081 2.59044 2.72745 2.70525 2.77681 2.6595 2.67623 2.03546 2.19689 2.26632 2.22108 2.16147 2.09939 1.5306 1.68277 1.64698 1.6713 1.68493 1.63452 1.101 1.19098 1.23197 1.2295 1.22398 1.13501 0.597471 0.738363 0.80046 0.730968 0.791576 0.821375 0.332448 0.515404 0.531804 0.425363 0.40072 0.434586 32.599 30.0802 28.007 30.1278 23.8176 26.0573 48.6831 42.5842 47.1058 44.7216 38.4689 40.5067 50.0546 43.6968 50.4438 46.9518 41.1067 43.0132 47.8189 41.2959 48.6337 44.6306 39.1394 41.2004 44.6583 38.4011 45.5411 41.2528 36.1901 38.3454 41.4193 35.5769 42.1863 38.3487 33.4807 35.2621 38.1891 32.8346 38.7671 35.3651 30.7727 32.454 35.1623 30.3889 35.8745 32.4885 28.4473 29.9016 32.2687 27.9996 32.878 30.0085 26.1943 27.4638 29.647 25.6921 30.234 27.6193 24.081 25.2192 27.078 23.5377 27.7216 25.2112 22.1018 23.0742 24.7398 21.3926 25.242 23.0422 20.2134 21.1827 22.2948 19.4234 23.0276 20.8538 18.3519 19.1391 20.1627 17.8244 20.8096 18.9727 16.6829 17.5591 18.1902 16.0537 18.6551 17.1379 15.0401 15.5223 16.4296 14.3114 16.6597 15.298 13.5463 14.0945 14.4868 12.7222 14.9261 13.6704 12.0471 12.5749 12.7407 11.3511 13.1733 11.9742 10.9667 11.1992 11.265 10.0009 11.482 10.5831 9.5983 9.83092 9.70315 8.71038 10.0153 9.28112 8.32098 8.58541 8.19639 7.66079 8.64787 7.87204 7.22955 7.36382 7.00372 6.4251 7.32279 6.76615 6.23357 6.29908 5.86724 5.51766 6.19841 5.67553 5.29409 5.3675 4.70469 4.59829 5.19006 4.74107 4.46853 4.48056 3.84906 3.8375 4.03746 3.8271 3.80063 3.65923 3.0911 3.0314 3.20045 3.20223 3.068 3.02092 2.34138 2.42953 2.5337 2.39575 2.42156 2.38108 1.77826 1.87704 1.86386 1.79462 1.90726 1.92643 1.20193 1.34029 1.38603 1.30994 1.43304 1.44387 0.777816 1.00618 0.86918 0.857874 1.07145 0.944857 0.474966 0.649189 0.59873 0.498936 0.700622 0.598123 0.246783 0.425243 0.300872 0.358751 0.398033 0.34778 68.3348 49.6424 65.7316 60.9259 42.3967 44.7524 61.8703 58.5843 64.6894 60.4748 54.5764 56.1239 62.6444 58.0201 64.4722 60.9869 54.9099 57.1146 60.8252 54.9216 62.1059 57.9053 52.4281 54.6408 57.7989 51.4846 58.812 54.4345 49.221 51.161 53.9158 47.6995 55.0105 50.4421 45.419 47.5017 49.8267 44.2362 50.8776 46.7387 41.9656 43.9747 45.9877 40.5683 46.9438 43.1942 38.6846 40.3605 42.1171 37.3427 43.2977 39.6738 35.5152 37.1398 38.6232 34.2852 39.5984 36.472 32.6419 33.988 35.2545 31.2185 36.2176 33.2058 29.7136 30.9545 32.0278 28.5304 32.6896 30.223 27.099 28.1682 29.0317 25.6498 29.7632 27.2545 24.5081 25.4701 25.9952 23.203 26.8538 24.5768 22.1168 22.8848 23.3593 20.6206 24.0653 22.0255 19.7863 20.4451 20.717 18.3105 21.4301 19.5434 17.6366 18.1965 18.2784 16.2995 19.089 17.1677 15.5059 16.0844 16.0119 14.2182 16.7982 15.2362 13.6814 14.1057 13.757 12.3539 14.5295 13.0882 11.9376 12.2973 11.8273 10.5757 12.5439 11.1895 10.2665 10.5693 9.88208 9.13092 10.7225 9.53628 8.88881 8.95319 8.24107 7.41797 8.88927 7.98712 7.32512 7.42557 6.84921 6.09565 7.35894 6.59673 6.07956 6.07779 5.47983 5.111 5.86092 5.22457 4.96504 5.06445 4.123 3.8821 4.72452 4.01862 4.06428 3.9402 3.14163 2.98519 3.52576 3.13908 3.05598 3.05655 2.07272 2.17409 2.5676 2.10183 2.27573 2.14052 1.3879 1.51381 1.66939 1.41564 1.56389 1.5206 0.848472 0.968199 0.974709 0.999695 1.03795 1.02866 0.46376 0.644893 0.620762 0.475202 0.709 0.679442 0.304752 0.319691 0.314919 0.174303 0.337345 0.405327 0.235134 0.349103 0.259986 0.230515 0.231087 0.220983 37.1525 66.196 31.2969 45.4823 67.0147 67.226 53.4974 58.4301 53.7364 57.1194 58.5103 57.4002 52.4864 55.8841 54.438 54.3611 58.9282 57.0955 49.2292 53.2281 50.5846 51.512 57.1511 55.2335 46.1741 49.9791 46.9175 48.6122 54.0167 52.1459 42.8921 46.575 43.367 45.3102 50.4195 48.5735 39.6823 43.2719 40.1944 42.1002 46.4877 45.0551 36.6607 39.8439 37.1368 38.9098 42.8487 41.2432 33.8241 36.8289 34.2087 35.8556 39.3978 37.9354 30.9478 33.841 31.5449 32.9219 36.0679 34.6922 28.2886 30.6913 28.7733 30.0572 32.7906 31.5048 25.6413 27.771 26.0925 27.2806 29.7802 28.6672 23.1812 25.2066 23.7103 24.6807 26.8874 25.9222 20.7859 22.7041 21.39 22.2633 24.2577 23.2476 18.8547 20.2672 19.1726 19.8968 21.4324 20.849 16.7314 17.8681 17.2258 17.627 19.1987 18.3266 14.8287 15.775 15.1449 15.6558 16.8958 16.2368 12.9794 13.7953 13.2841 13.7555 14.6793 14.1498 11.2881 11.8777 11.7424 11.9781 12.7105 12.2973 9.77609 10.1862 10.0975 10.273 10.8475 10.5131 8.218 8.57183 8.66756 8.78443 9.17117 8.78401 7.01266 7.09744 7.30172 7.28294 7.69307 7.32151 5.80122 5.70685 6.04426 6.01266 6.11466 5.89161 4.77705 4.6788 4.95014 4.8733 4.89507 4.81003 3.81635 3.44093 3.95175 3.76779 3.56798 3.57933 2.86377 2.76879 3.04084 2.91032 2.82005 2.61066 2.24125 1.96645 2.30486 2.12542 1.77211 1.8779 1.54212 1.30801 1.65271 1.55092 1.29095 1.25463 0.988278 0.767073 1.14671 0.981777 0.718675 0.785584 0.608698 0.42054 0.801735 0.631696 0.307215 0.472835 0.378985 0.337198 0.468131 0.390895 0.188442 0.140324 0.325092 0.213788 0.275812 0.268748 0.190841 0.368849 19.9272 34.2595 16.9105 26.2449 31.4812 28.4479 35.5075 44.2533 34.6365 41.1209 46.518 45.2139 37.1612 42.3278 37.5855 39.7426 46.0897 44.9376 35.119 39.0992 35.8403 37.0688 43.1431 41.5433 32.7686 36.4498 33.3963 34.8392 40.0456 38.6068 30.6111 34.1405 30.855 32.6116 37.4521 35.7707 28.4581 31.7239 28.8459 30.4574 34.87 33.0483 26.2462 29.6854 26.7339 28.4533 32.2191 30.5408 24.3673 27.4866 24.585 26.4293 29.6523 28.2683 22.2805 25.0519 22.9369 24.3411 27.1305 25.8733 20.6393 23.3134 21.0956 22.4309 24.7127 23.6277 18.8688 21.0153 19.3805 20.6532 22.8522 21.5525 17.3574 19.134 17.6947 18.6206 20.6062 19.4739 15.7678 17.4842 16.1948 17.0117 18.4716 17.8159 14.2438 15.7108 14.6756 15.422 16.6703 16.1033 12.856 13.9495 13.2421 13.7557 15.0064 14.2782 11.4761 12.4925 11.8298 12.3844 13.1822 12.7224 10.3638 11.0472 10.5185 11.0551 11.6839 11.221 9.13477 9.75417 9.3714 9.68131 10.1864 9.91763 8.05458 8.53697 8.27596 8.49971 8.76576 8.68654 6.99259 7.40254 7.30357 7.5218 7.60375 7.41543 6.0272 6.30323 6.31541 6.4437 6.45192 6.34883 5.28544 5.29051 5.48676 5.50511 5.47168 5.27045 4.47576 4.44319 4.66707 4.59047 4.32944 4.40198 3.75052 3.73357 3.93779 3.87487 3.58348 3.67826 3.14695 2.995 3.20267 3.2051 2.95025 2.96165 2.4998 2.37124 2.73939 2.49136 2.28532 2.2044 1.92323 1.82936 2.06161 1.98064 1.64449 1.74691 1.5208 1.40695 1.58733 1.40612 1.13693 1.22563 1.06953 0.910519 1.23315 1.04827 0.889298 0.828096 0.575848 0.520777 0.842304 0.624269 0.500648 0.539702 0.430212 0.320169 0.539883 0.413638 0.267689 0.288697 9.58677 18.5696 7.7844 13.7283 16.8455 15.1666 21.841 26.8889 20.5775 24.074 28.1686 27.0684 24.3738 27.9178 24.6607 26.2746 30.9512 29.882 23.1213 26.1789 23.5461 24.8766 29.6028 28.2004 21.3839 24.6335 21.7267 23.1167 27.7215 26.1827 19.9327 23.1008 20.1302 21.7888 25.872 24.249 18.6325 21.8449 18.8966 20.5031 24.1156 22.5293 17.6698 20.5008 17.7254 19.3851 22.3561 21.1465 16.3049 19.2096 16.7285 18.3217 20.9215 19.6524 15.3794 17.9132 15.7027 17.042 19.3238 18.1387 14.4691 16.7129 14.7464 16.03 17.9372 16.8848 13.4927 15.5204 13.8159 14.8962 16.576 15.6094 12.5483 14.3255 12.7941 13.7867 15.2094 14.3455 11.7241 13.1386 11.9727 12.8159 13.9566 13.1858 10.7503 12.055 11.0763 11.7894 12.725 12.0407 9.96498 10.9931 10.3114 10.7673 11.5207 10.8991 9.1831 10.16 9.5734 9.87861 10.3862 9.90393 8.37352 9.0357 8.65861 9.02282 9.35669 9.03794 7.66533 8.27945 7.95466 8.28029 8.40278 8.02888 7.01105 7.54516 7.18729 7.45603 7.44892 7.17239 6.35253 6.63689 6.5173 6.65411 6.59885 6.42142 5.70216 5.90578 5.91187 5.93907 5.8027 5.80047 5.09088 5.32512 5.29928 5.31278 5.13269 5.03962 4.40264 4.50043 4.5818 4.7069 4.38305 4.37674 3.83863 3.96281 4.0564 4.02702 3.81165 3.66492 3.41302 3.33222 3.4852 3.41117 3.09755 3.11323 2.78789 2.74073 2.97672 2.83801 2.55465 2.57131 2.30855 2.23032 2.46698 2.39948 2.06281 2.13977 1.78586 1.80303 1.93477 1.94061 1.60543 1.59262 1.31369 1.28262 1.44978 1.30793 1.15575 1.14553 0.903274 0.82413 0.984581 0.860992 0.695916 0.783519 0.365373 0.387999 0.465203 0.401075 0.378496 0.542954 3.20983 7.23406 1.90157 4.36808 7.07999 6.74881 15.4523 15.0653 14.2174 13.7432 16.2503 16.4561 18.0404 17.0547 18.0091 16.4862 18.9866 18.7353 16.9486 16.78 17.0568 16.2049 18.7393 18.0247 15.5284 16.0606 15.6074 15.5266 17.7163 16.8478 14.4668 15.5159 14.5795 14.9712 16.7563 15.7398 13.6951 15.0763 13.8507 14.3859 15.936 14.9188 13.0952 14.4619 13.3302 13.9329 15.1166 14.2185 12.5283 13.8589 12.7867 13.371 14.2902 13.4279 11.9872 13.2808 12.2838 12.8914 13.5979 12.7509 11.4875 12.6535 11.7547 12.2493 12.8128 12.1335 10.96 12.0081 11.2649 11.6495 12.1191 11.5205 10.3865 11.2988 10.7249 11.1009 11.3136 10.8048 9.85559 10.611 10.1761 10.4911 10.6328 10.1325 9.35447 10.0332 9.59511 9.91412 9.91013 9.60902 8.80951 9.3795 9.12455 9.36539 9.3343 8.98537 8.22228 8.8784 8.52286 8.76913 8.66981 8.44619 7.69362 8.18832 7.98665 8.14849 8.0234 7.75501 7.17671 7.61328 7.42197 7.6428 7.35702 7.21995 6.61615 6.96808 6.90947 6.96886 6.84707 6.64037 6.08104 6.35679 6.35361 6.48671 6.1625 6.0652 5.58818 5.77215 5.83435 5.89048 5.54248 5.53541 5.06092 5.27361 5.28937 5.27599 5.00566 4.91677 4.5004 4.65835 4.74047 4.76163 4.45155 4.45255 4.00106 4.08588 4.18186 4.17178 3.91082 3.92661 3.44615 3.52804 3.68929 3.6462 3.39867 3.40504 2.91877 2.98155 3.14462 3.10848 2.83273 2.85201 2.40648 2.4939 2.62344 2.55911 2.30838 2.3063 1.96055 1.94523 2.09717 2.00547 1.79276 1.85372 1.49558 1.51795 1.58692 1.51297 1.34742 1.31518 0.91063 0.95191 1.1549 1.02445 0.891028 0.941381 0.434644 0.402123 0.557965 0.43591 0.369131 0.423397 8.05134 7.81112 7.31485 8.10499 4.87461 6.63809 20.6782 15.3278 19.5863 16.6104 14.414 16.3331 23.4215 17.2953 23.341 19.0811 16.8951 18.4676 22.2326 17.2623 22.2759 18.8171 16.6197 17.6548 20.4508 16.6825 20.5523 17.9575 15.7695 16.5242 18.9767 16.0826 19.1671 17.1764 14.977 15.5509 17.7756 15.4587 18.0863 16.3942 14.2483 14.6682 16.6837 14.8665 16.976 15.63 13.6265 13.9874 15.7406 14.2192 16.1065 14.8286 13.0499 13.2981 14.7926 13.5297 15.226 14.1021 12.4772 12.6615 13.8699 12.8744 14.2307 13.4194 11.8711 12.0326 13.0271 12.196 13.4092 12.6972 11.2959 11.3948 12.2255 11.5339 12.5309 11.9575 10.7047 10.7995 11.3642 10.8627 11.695 11.1996 10.1572 10.2253 10.5755 10.2173 10.8838 10.5182 9.55529 9.53423 9.84832 9.59349 10.1564 9.81775 8.99383 8.98754 9.1436 8.96462 9.41641 9.15397 8.44923 8.38485 8.42574 8.346 8.73863 8.49493 7.88157 7.83254 7.68057 7.75296 7.97267 7.87184 7.32002 7.2697 7.01447 7.09198 7.3078 7.20474 6.75466 6.68049 6.34259 6.54415 6.65515 6.57714 6.20992 6.12689 5.76864 5.94438 6.03837 6.03127 5.64863 5.61993 5.17255 5.36573 5.42493 5.40965 5.0995 5.0441 4.58365 4.78411 4.83276 4.79837 4.56558 4.49991 4.04421 4.21141 4.25664 4.22123 4.01583 3.93047 3.43807 3.59916 3.68075 3.65271 3.46627 3.43679 2.90974 3.1258 3.15183 3.09556 2.94968 2.90837 2.36783 2.54673 2.54613 2.55277 2.41737 2.39653 1.86204 1.97037 2.00225 1.97624 1.92785 1.88871 1.40802 1.49037 1.49079 1.50504 1.44915 1.39829 0.853005 0.963733 1.02722 0.953253 0.921253 0.885657 0.416774 0.429283 0.546542 0.539708 0.447727 0.375296 17.6969 19.6607 15.9409 18.9207 13.7055 15.0103 33.0646 27.0667 31.9849 29.1267 23.9392 26.3052 35.5574 28.1632 35.6786 31.0521 26.3855 28.6595 33.9072 27.0911 34.0884 29.8062 25.3923 27.4367 31.3138 25.6081 31.7408 27.9575 23.8494 25.5243 29.0011 24.2209 29.4479 26.2632 22.1445 23.7153 26.9408 22.7771 27.3558 24.529 20.7341 22.1735 25.111 21.4899 25.6237 22.9362 19.4142 20.6348 23.2368 20.0474 23.7249 21.5058 18.1327 19.2486 21.3955 18.7206 21.8978 19.9674 16.9971 17.92 19.9332 17.3289 20.3231 18.4898 15.7859 16.4966 18.1803 16.0051 18.6286 17.1975 14.7163 15.3227 16.7586 14.842 17.1384 15.7829 13.639 14.1647 15.3356 13.6889 15.7044 14.5457 12.643 13.037 13.8119 12.5826 14.2952 13.3171 11.6397 11.9097 12.5834 11.5898 12.9647 12.1387 10.6862 10.9708 11.4136 10.4944 11.8317 11.0417 9.7804 9.9688 10.2352 9.60098 10.5571 9.97776 8.94983 9.08621 9.11722 8.67603 9.39034 8.98931 8.09588 8.32358 8.10655 7.82461 8.42156 8.05535 7.42837 7.43063 7.21159 7.02094 7.46866 7.16305 6.62341 6.65295 6.3817 6.17559 6.56714 6.35312 5.89602 5.91572 5.50147 5.48944 5.71742 5.5485 5.26706 5.15626 4.64259 4.78466 4.94496 4.87801 4.61379 4.58609 3.95355 4.15973 4.18988 4.17904 3.97042 3.93902 3.30728 3.54231 3.51412 3.54082 3.4183 3.3679 2.7088 2.93999 2.93777 2.91057 2.86471 2.81208 2.20871 2.3652 2.36324 2.35284 2.30389 2.26812 1.63688 1.84016 1.79222 1.81054 1.80519 1.73959 1.13217 1.38014 1.29707 1.32239 1.30137 1.29085 0.730803 0.849641 0.882407 0.880735 0.87201 0.832546 0.396891 0.543314 0.481822 0.463746 0.414036 0.545161 33.6203 34.3078 30.6637 34.0013 25.3309 27.1886 49.1068 42.7431 47.7109 45.2407 38.2947 40.6617 49.6497 42.3061 50.1314 45.8422 40.1299 42.3824 47.0848 39.85 47.7869 43.035 38.058 40.3634 43.9215 37.3157 44.6862 40.1783 35.4368 37.5339 40.8835 34.9402 41.4896 37.555 33.0038 34.9276 37.9548 32.5904 38.4948 34.9919 30.5528 32.2962 35.1269 30.4144 35.7038 32.5893 28.4176 29.8527 32.323 28.1278 32.8898 30.0667 26.2737 27.5857 29.735 26.0135 30.3904 27.7483 24.2076 25.3277 27.067 23.939 27.972 25.4108 22.3481 23.4612 24.7795 21.7436 25.3044 23.2896 20.4179 21.3804 22.4169 19.9714 23.1063 21.0868 18.6056 19.4026 20.3974 18.15 20.9388 19.2228 16.8366 17.6288 18.294 16.3154 18.7652 17.3298 15.2485 15.7067 16.3246 14.604 16.9403 15.4938 13.7605 14.1598 14.659 13.004 15.076 13.7266 12.3827 12.6452 12.8163 11.6406 13.4955 12.1452 11.0222 11.3048 11.2495 10.2604 11.6675 10.8706 9.81459 9.95102 9.6576 8.98882 10.2548 9.49211 8.58409 8.76618 8.41466 7.84678 8.76248 8.11971 7.48785 7.58958 7.24956 6.69407 7.43294 6.89368 6.45636 6.59911 6.02378 5.7945 6.30954 5.9879 5.55046 5.51739 4.85051 4.86489 5.16679 4.93836 4.63605 4.66201 3.91833 3.98351 4.33401 4.01216 3.88999 3.91849 3.15142 3.2912 3.42954 3.38275 3.27663 3.15588 2.40227 2.54523 2.63012 2.53721 2.60739 2.51928 1.90781 2.0245 1.99566 2.01756 2.09367 1.96918 1.29466 1.59175 1.47231 1.5884 1.50819 1.46005 0.80867 1.06334 1.00213 1.01159 1.10027 1.0468 0.422967 0.717476 0.555216 0.571073 0.663943 0.630257 0.365118 0.422079 0.378682 0.38672 0.343288 0.36496 67.5468 53.7487 64.7875 62.5625 43.7628 45.687 63.4797 59.6209 66.7018 62.2505 55.0097 56.9937 63.2254 56.9994 65.3098 60.5498 54.4775 56.8561 60.698 53.652 61.9891 56.8561 51.6493 54.1028 57.3108 50.1362 58.3032 53.2607 48.1978 50.4693 53.3816 47.0224 54.2474 49.8277 44.9122 47.1105 49.6009 43.6759 50.5126 46.2999 41.6475 43.5239 45.8365 40.5139 46.7643 43.1204 38.4821 40.1908 42.1005 37.2993 43.1672 39.5189 35.687 37.0742 38.5759 34.3424 39.583 36.3865 32.6345 34.0293 35.3036 31.3675 36.3239 33.2686 29.8148 30.8084 32.0394 28.4196 32.8911 30.276 27.1001 28.2027 28.9377 25.922 29.7637 27.3234 24.6815 25.6731 26.1898 23.3124 26.9884 24.5708 22.2442 22.9987 23.5153 20.8627 24.0162 22.0805 19.8464 20.7353 20.6616 18.5978 21.5766 19.5838 17.7093 18.4183 18.4454 16.4362 19.1903 17.3377 15.7129 16.2846 16.0188 14.4525 16.864 15.1724 13.7318 14.1676 13.964 12.5224 14.5848 13.1818 12.0633 12.3986 11.8628 10.7298 12.6166 11.3083 10.1607 10.7014 10.0207 9.1434 10.6864 9.55626 8.83982 9.0635 8.37744 7.51615 8.86776 8.05934 7.37649 7.52118 6.98254 6.32508 7.43801 6.60539 6.09892 6.19685 5.57173 5.07351 5.84183 5.20991 5.00936 5.11407 4.17438 4.08601 4.74154 4.211 4.01247 3.93935 3.22883 2.97432 3.42593 2.99172 3.1191 3.02738 2.13021 2.26027 2.60905 2.25229 2.24626 2.28884 1.50485 1.70243 1.65075 1.43969 1.7323 1.64556 0.9422 1.03416 1.1783 0.917347 1.13441 1.0976 0.474707 0.684707 0.665701 0.623506 0.785022 0.646765 0.259432 0.366358 0.33041 0.329008 0.348602 0.325027 0.185174 0.321425 0.192608 0.255119 0.324151 0.244742 41.0844 79.2098 42.6307 61.1513 66.9144 68.5009 52.4534 53.7183 54.6671 51.5726 58.4733 58.1316 50.0144 50.9441 52.0219 48.5574 57.3335 55.7674 47.0818 49.5044 47.4801 47.4683 55.3589 53.5311 44.3223 47.5656 44.282 46.1491 52.575 50.6469 41.7328 45.3951 41.7303 44.0228 49.2103 47.4316 39.1144 42.443 39.2431 41.43 45.8706 44.1548 36.4525 39.6081 36.7005 38.5679 42.5318 40.847 33.6035 36.7621 34.0481 35.9001 39.1926 37.8036 31.0217 33.759 31.3577 33.0208 35.9794 34.6252 28.3377 30.8531 28.9718 30.2377 32.7527 31.3775 25.976 28.1021 26.3512 27.574 29.8665 28.6569 23.5988 25.4299 23.914 24.991 27.1362 25.8827 21.0806 22.8144 21.5394 22.5072 24.2378 23.3954 18.8803 20.4422 19.5 20.1617 21.5936 20.8287 17.0183 18.1642 17.4642 17.9461 19.3732 18.558 15.12 16.0029 15.3992 15.9534 16.8567 16.2442 13.2069 14.0725 13.5777 14.0598 14.6795 14.1782 11.5385 12.234 11.9068 12.1731 12.7878 12.4097 9.92194 10.3797 10.2476 10.4655 10.8303 10.5909 8.38996 8.88363 8.76829 8.99948 9.18013 8.88155 7.18533 7.38399 7.51585 7.59479 7.5989 7.39035 5.90481 5.97973 6.31146 6.309 6.24382 5.9654 4.82782 4.7663 5.12616 5.01315 4.91161 4.93286 3.78695 3.73071 4.13521 4.09731 3.84504 3.83488 3.12153 2.74739 3.28608 3.12928 2.76447 2.76575 2.40684 2.13125 2.52806 2.38097 2.1136 1.9211 1.64841 1.55771 1.91826 1.67578 1.29233 1.39972 1.22989 0.977817 1.34304 1.13678 0.752777 0.774365 0.70102 0.575955 0.888392 0.68855 0.334985 0.442668 0.442054 0.293267 0.514229 0.306967 0.13586 0.383734 0.165542 0.232398 0.341486 0.17918 0.131331 0.360155 24.0626 49.9181 26.6761 38.4084 35.2596 33.065 34.5447 37.1359 34.9869 38.6444 45.0442 44.6855 34.8066 36.614 35.251 35.383 43.4569 42.5701 33.182 35.5456 33.0334 33.6822 40.5861 39.4331 31.4438 34.6236 31.1726 32.841 38.6149 36.9423 29.7515 33.2463 29.6978 31.7939 36.5725 34.8008 27.9035 31.5929 28.2894 30.3694 34.2862 32.6562 26.2533 29.8312 26.4781 28.7298 32.1531 30.4707 24.6904 27.7259 24.9645 26.7721 29.6327 28.2735 22.7939 25.6075 23.1737 24.8168 27.305 26.1397 21.2546 23.736 21.4866 22.9757 25.0836 23.7261 19.383 21.7385 19.8439 21.1943 23.0436 21.9267 17.7676 19.7552 18.2427 19.3213 20.8412 19.8641 16.2487 17.9715 16.5925 17.5472 18.9975 18.1521 14.6262 16.2219 15.1426 15.9891 16.9992 16.3429 13.284 14.5232 13.667 14.4428 15.1084 14.6218 12.1545 13.0574 12.4381 13.1162 13.5571 12.9806 10.6543 11.6148 11.0792 11.5596 12.0182 11.4814 9.59791 10.348 9.99199 10.2154 10.5285 10.1317 8.43863 9.08047 8.84863 9.03167 9.20676 8.9257 7.44948 7.79178 7.67774 7.92029 7.9394 7.64454 6.48745 6.85338 6.74817 6.98384 6.75495 6.59538 5.62194 5.79405 5.85277 5.94302 5.64668 5.55222 4.70086 4.97497 5.06581 5.0936 4.6834 4.67932 4.00798 3.98641 4.40927 4.22925 3.81827 3.855 3.39403 3.41109 3.5878 3.58567 3.15925 3.20943 2.78258 2.81887 2.88237 2.97133 2.38546 2.40245 2.16301 2.12326 2.35177 2.30649 1.76752 1.82113 1.6792 1.54368 1.85045 1.6933 1.36579 1.37302 1.26754 1.03522 1.30039 1.2282 0.901419 0.899243 0.709532 0.670331 0.841415 0.704817 0.506948 0.541614 0.429819 0.453784 0.472999 0.395623 0.379985 0.35406 11.9331 29.4804 14.5633 21.2338 20.6527 18.7218 19.658 21.0913 18.8126 21.321 26.6493 26.0164 21.8019 23.3292 21.5922 22.7271 28.5249 27.5481 21.2176 23.8517 20.8988 22.3484 27.6482 26.3353 20.3224 23.6303 20.1867 22.0516 26.4361 24.9946 19.5873 22.9788 19.5704 21.5787 25.2934 23.8713 18.7896 22.338 18.9591 21.0131 24.0237 22.3957 18.0926 21.2625 18.2762 20.2799 22.679 21.3278 17.1448 20.1418 17.358 19.3229 21.2799 20.0536 16.2233 18.8195 16.621 18.2012 20.0449 18.6957 15.3128 17.691 15.6544 17.1028 18.4232 17.3781 14.3373 16.4311 14.6975 15.9756 17.1029 16.2386 13.3345 15.2842 13.7418 14.9691 16.0247 14.9249 12.4728 14.1193 12.7937 13.7647 14.5583 13.7274 11.5452 13.0774 11.9496 12.8392 13.2499 12.5785 10.7497 11.9823 11.132 11.7012 12.0942 11.5407 9.90666 10.9943 10.2536 10.8017 11.0915 10.492 9.11555 9.90655 9.42524 9.87193 10.0209 9.54701 8.36621 9.03888 8.63562 8.97953 8.94946 8.68893 7.60545 8.20522 7.89115 8.21599 8.06963 7.77505 6.83212 7.32878 7.19143 7.44827 7.1717 6.95841 6.29623 6.65606 6.50787 6.56606 6.31179 6.12025 5.53751 5.80485 5.82355 5.86552 5.55546 5.48861 4.88978 5.15869 5.15775 5.15282 4.87277 4.84114 4.22181 4.50246 4.5181 4.62601 4.08886 4.03224 3.67046 3.72507 3.94434 3.82741 3.49038 3.43946 3.08534 3.16182 3.32997 3.26916 2.86822 2.91385 2.6502 2.53807 2.69939 2.62887 2.36689 2.35313 1.9645 1.92304 2.20143 2.12096 1.81299 1.8333 1.44307 1.41689 1.65827 1.51054 1.23414 1.33184 0.91859 0.883862 1.16313 1.05059 0.844678 0.840234 0.485165 0.449649 0.620689 0.581055 0.490676 0.440871 2.60812 11.3066 6.92816 6.91177 8.71211 7.55528 11.6195 9.59829 9.75422 8.8138 13.2833 13.538 14.8295 13.6758 14.0761 13.1092 16.3141 15.9746 15.0973 15.3337 14.7055 14.7014 17.0218 16.2569 14.9018 15.9899 14.7769 15.3747 17.1189 16.1371 14.6936 16.2682 14.7702 15.6341 16.8188 15.9077 14.4311 16.1593 14.692 15.6064 16.4578 15.5017 14.1132 15.8009 14.4775 15.3409 15.9114 14.9973 13.711 15.3839 14.1193 14.9041 15.313 14.386 13.1933 14.7272 13.6128 14.327 14.5915 13.8849 12.677 13.9951 13.0532 13.7259 13.9361 13.1775 12.093 13.4125 12.4985 13.1151 13.1816 12.4918 11.5005 12.5848 11.879 12.4243 12.4102 11.805 10.9026 11.8961 11.269 11.7232 11.6216 11.1058 10.3254 11.2373 10.6863 11.155 10.8674 10.4272 9.74522 10.5007 10.0446 10.5252 10.1524 9.86602 9.12223 9.90045 9.48379 9.8281 9.52922 9.15527 8.55395 9.23385 8.88154 9.14689 8.88447 8.58406 7.97601 8.48324 8.2591 8.50848 8.12322 7.90785 7.336 7.83974 7.65386 7.88452 7.51045 7.27024 6.75817 7.20977 7.06863 7.21971 6.80895 6.61434 6.15457 6.57052 6.4722 6.61675 6.18797 6.03955 5.56493 5.91166 5.86588 5.96513 5.58681 5.44325 4.98355 5.25521 5.32081 5.31994 5.00285 4.83352 4.40749 4.6272 4.64734 4.70249 4.37595 4.37286 3.86312 3.99466 4.08753 4.08531 3.76897 3.71083 3.22029 3.44579 3.48343 3.572 3.16993 3.09694 2.70578 2.79786 2.89049 2.92233 2.62834 2.60979 2.11718 2.21492 2.30325 2.26581 2.02509 1.99949 1.66937 1.68989 1.74042 1.71168 1.51289 1.57524 1.0444 1.14454 1.19554 1.15612 0.943115 0.992605 0.441282 0.477279 0.680375 0.547188 0.483114 0.450535 10.5088 8.69466 13.8819 13.2467 4.718 6.4837 18.0889 10.261 16.9694 12.24 10.6555 13.2719 20.6678 14.448 20.1403 15.9573 14.1592 15.7998 20.5665 16.2974 20.2844 17.3974 15.1494 16.2377 19.754 16.9331 19.7305 17.8514 15.4799 16.0443 18.9453 16.9989 19.1942 17.7901 15.4084 15.8125 18.3165 16.7503 18.5092 17.3713 15.1675 15.4043 17.472 16.3045 17.8114 16.8545 14.7528 14.9132 16.6154 15.7136 17.0636 16.2025 14.2925 14.4186 15.6771 15.0244 16.2249 15.5027 13.734 13.7416 14.8154 14.3205 15.3314 14.7574 13.0911 13.0933 13.9375 13.5937 14.4391 13.9569 12.4712 12.4611 13.0952 12.8692 13.5414 13.1241 11.8562 11.7586 12.2973 12.1409 12.7475 12.3787 11.2114 11.1534 11.4084 11.4212 11.9056 11.6215 10.6006 10.5041 10.6646 10.7116 11.0834 10.8972 9.97113 9.85553 9.84463 10.0334 10.2802 10.1542 9.31044 9.18906 9.12053 9.35084 9.51421 9.44511 8.7084 8.59936 8.38611 8.65386 8.75571 8.71244 8.10441 7.96848 7.68072 7.99125 8.06546 8.05835 7.49701 7.34247 7.00555 7.33591 7.31974 7.36234 6.89731 6.74352 6.341 6.71074 6.66266 6.67083 6.28374 6.15486 5.68808 6.04003 5.98967 6.05474 5.6962 5.52556 5.06867 5.35319 5.32487 5.45576 5.02631 4.9227 4.42849 4.71144 4.68245 4.75252 4.45194 4.39304 3.84156 4.04705 4.07187 4.1205 3.84653 3.75483 3.20553 3.49328 3.45549 3.49938 3.27209 3.21855 2.64511 2.83214 2.85907 2.85659 2.69557 2.62732 2.05931 2.1874 2.29998 2.27752 2.08525 2.15267 1.52505 1.69931 1.78274 1.7 1.64264 1.57143 1.00913 1.10971 1.18816 1.25148 1.08694 1.00921 0.454964 0.522707 0.620476 0.591301 0.462559 0.53836 22.2136 26.2791 25.9658 29.2331 15.6847 17.4827 31.8917 21.9172 31.5622 26.0039 21.8602 24.9918 33.18 24.7567 33.2714 27.8978 24.1469 26.5064 31.964 25.5804 31.9042 27.7107 24.0655 25.9124 30.3699 25.1884 30.3587 27.1538 23.1949 24.6396 28.7296 24.4458 28.9732 26.0655 22.1902 23.5758 27.0752 23.5078 27.4372 24.9775 21.2307 22.3788 25.4461 22.2856 25.8324 23.5927 20.1479 21.1555 23.6397 20.9777 24.2185 22.41 18.9779 19.9026 21.9563 19.7553 22.5397 20.852 17.8209 18.5723 20.3379 18.4097 20.8778 19.4204 16.6421 17.3069 18.8031 17.1066 19.3708 17.9315 15.5611 16.1136 17.279 15.8607 17.8494 16.5475 14.4648 14.8722 15.7985 14.6586 16.4777 15.2974 13.4895 13.7895 14.4324 13.6348 14.962 14.1161 12.4833 12.6671 13.1384 12.4564 13.6267 12.9207 11.498 11.6699 11.8714 11.3519 12.3732 11.7723 10.5372 10.667 10.7736 10.342 11.1836 10.7043 9.6969 9.73562 9.61226 9.48888 9.97448 9.70179 8.85624 8.78028 8.60359 8.57367 9.03099 8.71604 8.00074 7.99322 7.64786 7.6669 7.93032 7.76738 7.18207 7.24908 6.81726 6.85669 7.07956 6.95988 6.49263 6.36241 5.89309 6.12292 6.16221 6.11968 5.74125 5.68428 5.11348 5.32062 5.35914 5.37787 5.05711 4.94705 4.29765 4.65031 4.64487 4.61393 4.40832 4.31693 3.63588 4.02265 3.92197 3.93126 3.80361 3.69625 2.9565 3.36392 3.27033 3.31177 3.21023 3.07874 2.39651 2.71797 2.63168 2.68698 2.58252 2.53171 1.81307 2.13298 2.14549 2.12822 2.04224 1.99376 1.24822 1.54844 1.54243 1.533 1.47628 1.39154 0.82096 0.953194 0.97689 1.05175 0.966345 0.908825 0.426075 0.603337 0.484273 0.459667 0.499943 0.566974 38.0994 46.375 41.2853 48.6735 29.1673 31.335 48.3598 36.3457 49.2123 42.5281 37.2337 40.3386 47.8142 37.6844 48.1877 41.6607 37.7793 40.6657 45.1309 37.5358 45.2393 40.1658 36.2655 38.4853 42.6152 36.3275 42.7171 38.5153 34.4889 36.4974 40.027 34.6871 40.4046 36.7774 32.5032 34.3675 37.6824 32.858 38.0825 34.7684 30.7127 32.1451 35.0376 30.7972 35.5408 32.7789 28.68 30.0289 32.3111 28.7613 33.1464 30.4047 26.7205 27.7956 29.7877 26.6462 30.6072 28.22 24.624 25.7371 27.6013 24.5289 28.1952 25.9372 22.7751 23.6871 24.9742 22.4099 25.7109 23.5824 20.8599 21.719 22.8541 20.5268 23.5033 21.6594 19.009 19.7874 20.6063 18.7258 21.35 19.6953 17.4108 18.0187 18.5459 17.0306 19.2469 17.8394 15.7798 16.1531 16.7437 15.303 17.1496 15.957 14.2396 14.6174 14.8107 13.5879 15.3913 14.3964 12.7576 13.0557 13.055 12.1804 13.6888 12.6274 11.4932 11.6814 11.4705 10.6859 11.9948 11.2258 10.1426 10.2745 9.97381 9.61405 10.5166 9.86046 8.99677 9.14237 8.55288 8.36111 9.05694 8.6228 7.81742 8.014 7.4578 7.27315 7.86668 7.43026 6.90414 6.8583 6.19458 6.27688 6.55765 6.33673 5.90002 5.84223 5.13446 5.28024 5.52644 5.34063 5.01071 4.97075 4.25123 4.4435 4.56886 4.41808 4.24078 4.15348 3.34265 3.68107 3.6268 3.64979 3.55376 3.40525 2.59499 2.9788 2.88254 2.86525 2.86323 2.77281 2.00916 2.43882 2.17821 2.24876 2.26447 2.14113 1.42923 1.80265 1.63953 1.76907 1.75499 1.66339 0.903411 1.26715 1.1439 1.15531 1.27811 1.23422 0.616172 0.738969 0.761121 0.65582 0.747543 0.682944 0.501371 0.505022 0.306422 0.437218 0.556845 0.474735 67.9435 70.7343 70.7581 78.6991 46.8574 49.7652 65.0257 52.199 68.1565 57.733 54.059 57.2685 62.4841 51.2246 63.4491 55.1798 52.1827 55.1457 59.1691 50.232 59.3272 53.4807 49.4804 52.1996 55.9987 48.6075 56.2336 51.344 46.823 49.2439 52.4503 46.2771 53.1976 48.7671 44.1021 46.1714 48.96 43.5465 50.0195 46.0216 41.4134 43.1311 45.6352 40.6523 46.4618 42.6374 38.4868 40.2075 42.1173 37.475 43.0789 39.6774 35.4697 36.9167 38.4876 34.513 39.6437 36.4258 32.7478 34.1892 35.2812 31.5297 36.3229 33.3568 30.0381 31.1316 32.2386 28.8339 33.0859 30.426 27.2671 28.2728 29.1084 26.1938 29.9318 27.58 24.7345 25.8557 26.2733 23.4767 27.172 24.8698 22.3622 23.0997 23.5295 21.1166 24.3014 22.2458 20.0557 20.8516 20.8442 18.7928 21.7142 19.7562 18.0248 18.4413 18.4489 16.8167 19.1986 17.5907 15.8363 16.4575 16.1135 14.811 16.7598 15.2011 13.958 14.4621 14.0561 12.8511 14.5457 13.4279 12.2318 12.5764 11.9192 11.1879 12.6793 11.4791 10.5126 10.8014 10.1026 9.40682 10.7287 9.65761 9.11132 9.25877 8.53359 7.90003 9.00713 8.13173 7.67181 7.73212 7.0254 6.58583 7.4567 6.78737 6.27426 6.31298 5.59222 5.38573 6.11792 5.45294 5.21829 5.21903 4.448 4.32727 4.90804 4.30812 4.15221 4.06643 3.26126 3.2129 3.60502 3.3877 3.25554 3.17767 2.28704 2.52991 2.62095 2.46085 2.47 2.50366 1.54174 1.84315 1.8262 1.71874 1.77769 1.70168 0.95348 1.30745 1.20105 1.12851 1.2185 1.05314 0.475737 0.825591 0.823744 0.738482 0.744636 0.684808 0.391694 0.481969 0.447998 0.24552 0.435298 0.523154 0.25267 0.320026 0.229359 0.260373 0.35863 0.337545 
SCALARS volume float 1
LOOKUP_TABLE default
0.00812905 0.00812832 0.0081208 0.00811946 0.00812857 0.00813127 0.00813344 0.00813201 0.00813166 0.00813056 0.00813176 0.00813349 0.00813373 0.0081323 0.00813335 0.00813248 0.00813217 0.00813335 0.0081337 0.00813254 0.00813337 0.00813288 0.00813257 0.00813326 0.00813367 0.00813284 0.00813355 0.00813314 0.00813293 0.00813342 0.00813392 0.00813314 0.00813377 0.00813346 0.00813313 0.00813363 0.00813413 0.00813344 0.0081341 0.00813371 0.00813367 0.00813378 0.00813429 0.00813378 0.00813431 0.00813404 0.00813383 0.00813403 0.00813472 0.00813416 0.00813459 0.00813444 0.00813431 0.0081344 0.00813491 0.00813442 0.00813492 0.00813452 0.00813453 0.00813474 0.00813517 0.00813471 0.00813522 0.00813492 0.00813487 0.00813494 0.00813542 0.00813509 0.00813533 0.00813518 0.00813529 0.0081353 0.00813575 0.00813542 0.00813559 0.00813546 0.00813544 0.00813555 0.00813592 0.00813558 0.0081359 0.00813582 0.00813571 0.00813575 0.00813606 0.00813586 0.00813619 0.00813595 0.00813615 0.00813589 0.00813637 0.00813611 0.00813636 0.0081363 0.00813629 0.00813624 0.00813644 0.00813653 0.00813655 0.0081365 0.00813653 0.00813641 0.00813663 0.00813656 0.0081368 0.00813671 0.00813657 0.00813675 0.00813674 0.00813671 0.00813685 0.00813682 0.0081367 0.00813683 0.00813712 0.00813703 0.008137 0.008137 0.00813697 0.00813667 0.00813725 0.00813703 0.00813721 0.00813724 0.00813706 0.00813713 0.00813736 0.00813722 0.00813727 0.00813728 0.00813713 0.00813751 0.00813739 0.0081374 0.00813744 0.00813747 0.0081375 0.00813742 0.00813756 0.00813756 0.00813745 0.00813734 0.00813745 0.00813766 0.00813763 0.00813757 0.0081378 0.00813764 0.0081378 0.00813775 0.00813789 0.00813778 0.00813786 0.00813756 0.00813787 0.0081377 0.00813785 0.00813787 0.00813766 0.00813776 0.00813776 0.00813775 0.00813782 0.00813803 0.00813797 0.00813773 0.00813788 0.00813796 0.00813808 0.00813784 0.00813808 0.00813784 0.00813783 0.00813794 0.00813806 0.00813819 0.00813791 0.00813793 0.00813805 0.00813809 0.00813789 0.008138 0.00813817 0.00813807 0.00813785 0.00813799 0.00813816 0.00813812 0.00813811 0.00813771 0.00813792 0.00813814 0.00813219 0.00813201 0.00812643 0.00812726 0.00812853 0.00813404 0.00813533 0.00813362 0.00813235 0.00813212 0.00813298 0.00813523 0.00813532 0.00813424 0.00813433 0.008134 0.00813384 0.008135 0.00813532 0.00813434 0.00813492 0.00813441 0.00813423 0.00813482 0.00813525 0.00813441 0.00813505 0.00813454 0.00813431 0.00813482 0.00813525 0.00813444 0.00813514 0.00813477 0.00813452 0.00813489 0.00813539 0.00813468 0.00813519 0.00813494 0.00813478 0.00813502 0.00813556 0.00813495 0.00813543 0.00813517 0.008135 0.00813521 0.00813566 0.00813508 0.00813571 0.00813545 0.00813534 0.0081354 0.00813591 0.0081354 0.00813586 0.00813564 0.00813545 0.00813568 0.00813612 0.00813554 0.00813611 0.00813578 0.00813566 0.00813588 0.0081362 0.00813586 0.00813636 0.00813619 0.00813583 0.00813608 0.00813628 0.00813612 0.00813636 0.00813624 0.00813624 0.00813622 0.00813664 0.00813621 0.00813658 0.00813637 0.00813635 0.00813636 0.00813668 0.00813631 0.00813667 0.00813663 0.0081364 0.00813663 0.00813694 0.0081365 0.00813696 0.00813683 0.00813666 0.00813667 0.00813706 0.00813678 0.00813698 0.0081369 0.00813696 0.00813678 0.00813712 0.00813698 0.00813714 0.00813696 0.00813697 0.00813698 0.00813729 0.00813715 0.00813725 0.00813741 0.00813724 0.008137 0.00813749 0.00813713 0.00813744 0.00813747 0.00813742 0.00813728 0.00813739 0.00813738 0.00813756 0.00813745 0.00813759 0.00813744 0.00813742 0.00813727 0.00813755 0.00813769 0.0081376 0.0081374 0.00813757 0.00813758 0.00813763 0.00813763 0.00813764 0.0081376 0.0081376 0.00813775 0.00813776 0.00813777 0.00813772 0.00813744 0.00813777 0.00813762 0.00813785 0.00813781 0.00813772 0.00813777 0.00813805 0.0081377 0.00813797 0.00813787 0.0081377 0.00813789 0.00813777 0.00813788 0.00813798 0.008138 0.008138 0.00813804 0.00813815 0.00813812 0.00813789 0.00813794 0.00813792 0.00813801 0.00813815 0.00813795 0.00813793 0.00813793 0.00813795 0.00813778 0.00813797 0.00813782 0.00813808 0.00813804 0.00813811 0.0081379 0.00813807 0.00813801 0.00813809 0.00813818 0.00813787 0.00813807 0.00813792 0.00813811 0.00813797 0.00813814 0.00813825 0.00813803 0.00813506 0.00813439 0.00813195 0.00813182 0.00813205 0.00813574 0.0081367 0.00813556 0.00813487 0.0081344 0.00813442 0.00813659 0.00813681 0.00813578 0.0081359 0.00813557 0.00813522 0.00813641 0.00813662 0.00813578 0.00813633 0.00813594 0.00813553 0.00813617 0.00813643 0.00813582 0.00813647 0.00813595 0.0081357 0.00813624 0.00813647 0.00813579 0.0081366 0.00813616 0.00813585 0.00813612 0.00813646 0.00813589 0.00813654 0.00813618 0.00813605 0.00813622 0.00813658 0.00813604 0.00813663 0.00813632 0.00813612 0.0081364 0.00813679 0.00813616 0.00813681 0.00813637 0.00813632 0.00813653 0.00813671 0.00813636 0.00813678 0.00813654 0.00813648 0.00813645 0.00813697 0.00813646 0.00813706 0.00813671 0.00813657 0.00813685 0.00813691 0.00813662 0.00813709 0.00813669 0.00813675 0.00813695 0.00813708 0.00813661 0.00813705 0.00813694 0.00813683 0.00813704 0.00813715 0.0081368 0.00813736 0.00813712 0.00813702 0.00813706 0.00813738 0.00813696 0.00813729 0.00813702 0.0081372 0.00813716 0.00813714 0.00813712 0.00813734 0.00813728 0.00813723 0.00813734 0.00813746 0.00813725 0.00813767 0.00813737 0.00813735 0.0081374 0.00813756 0.00813731 0.00813749 0.00813747 0.00813732 0.00813731 0.00813766 0.0081374 0.0081378 0.00813748 0.00813748 0.00813758 0.00813774 0.00813732 0.00813784 0.00813768 0.00813755 0.00813758 0.00813763 0.00813753 0.00813774 0.00813775 0.00813752 0.00813777 0.00813763 0.00813768 0.00813781 0.0081378 0.00813771 0.00813749 0.00813774 0.0081378 0.00813788 0.00813795 0.00813768 0.00813753 0.00813804 0.00813777 0.00813812 0.00813787 0.00813765 0.00813778 0.0081377 0.00813772 0.008138 0.00813783 0.00813793 0.00813788 0.00813785 0.00813789 0.00813807 0.00813804 0.0081378 0.00813781 0.00813792 0.00813792 0.00813791 0.00813778 0.00813788 0.00813778 0.00813814 0.00813791 0.00813778 0.00813802 0.00813805 0.00813786 0.00813806 0.00813785 0.00813797 0.00813819 0.00813807 0.00813783 0.00813787 0.008138 0.00813806 0.00813812 0.00813788 0.0081378 0.00813837 0.00813789 0.00813783 0.00813811 0.00813805 0.00813792 0.00813817 0.00813796 0.00813802 0.00813816 0.00813792 0.00813801 0.00813787 0.00813688 0.00813717 0.00813594 0.0081354 0.00813734 0.00813811 0.00813735 0.00813756 0.00813655 0.00813632 0.00813768 0.00813795 0.00813734 0.00813773 0.00813706 0.00813675 0.00813761 0.00813784 0.00813724 0.0081378 0.00813723 0.00813694 0.0081375 0.00813781 0.00813713 0.00813783 0.00813736 0.00813701 0.00813735 0.00813767 0.00813721 0.00813783 0.00813738 0.00813721 0.00813742 0.00813778 0.00813715 0.00813778 0.00813741 0.00813721 0.00813746 0.00813778 0.00813712 0.0081377 0.00813753 0.00813722 0.00813746 0.00813759 0.0081372 0.0081379 0.00813747 0.00813734 0.00813762 0.00813773 0.00813729 0.00813789 0.00813765 0.00813738 0.0081376 0.00813778 0.00813742 0.00813775 0.00813757 0.00813751 0.00813755 0.00813786 0.00813739 0.0081379 0.00813763 0.00813743 0.00813764 0.00813776 0.00813738 0.00813792 0.00813767 0.00813766 0.00813773 0.00813781 0.00813756 0.00813797 0.00813772 0.0081375 0.00813777 0.00813765 0.00813749 0.00813788 0.00813789 0.00813772 0.00813754 0.00813774 0.00813761 0.00813793 0.00813791 0.00813767 0.00813774 0.00813797 0.00813769 0.00813793 0.00813785 0.00813771 0.00813771 0.00813802 0.00813744 0.00813798 0.00813783 0.00813778 0.00813788 0.00813815 0.0081377 0.00813804 0.0081378 0.00813777 0.00813763 0.00813817 0.00813796 0.00813808 0.00813794 0.00813773 0.00813762 0.00813794 0.00813786 0.00813813 0.00813789 0.00813794 0.00813794 0.00813806 0.00813801 0.00813783 0.00813806 0.00813801 0.00813775 0.00813795 0.0081379 0.00813771 0.00813796 0.00813783 0.00813783 0.00813793 0.00813793 0.00813777 0.00813797 0.008138 0.00813802 0.00813813 0.00813815 0.00813813 0.0081378 0.00813796 0.00813799 0.00813793 0.00813787 0.00813803 0.00813796 0.00813796 0.00813795 0.00813794 0.00813787 0.00813798 0.00813799 0.00813796 0.00813795 0.00813797 0.00813794 0.00813806 0.00813808 0.0081381 0.00813825 0.00813787 0.00813797 0.0081381 0.00813805 0.00813827 0.00813781 0.008138 0.008138 0.00813794 0.00813796 0.00813804 0.00813827 0.00813809 0.00813779 0.008138 0.00813814 0.00813815 0.00813802 0.00813812 0.00813815 0.00813786 0.00813799 0.00813815 0.00813792 0.00814069 0.00813929 0.00814252 0.00813987 0.00813868 0.00813884 0.00813923 0.00813905 0.00814027 0.00813877 0.00813837 0.0081387 0.00813918 0.00813868 0.0081396 0.00813859 0.00813837 0.00813862 0.00813907 0.00813859 0.00813925 0.00813869 0.00813849 0.00813866 0.00813896 0.00813838 0.00813914 0.00813876 0.00813839 0.0081386 0.00813894 0.00813837 0.0081391 0.00813875 0.00813833 0.00813865 0.00813883 0.00813826 0.00813898 0.00813871 0.0081384 0.00813854 0.00813892 0.00813832 0.00813892 0.0081387 0.00813839 0.00813858 0.00813889 0.00813829 0.00813891 0.00813857 0.00813831 0.00813838 0.00813867 0.00813819 0.0081388 0.00813854 0.00813837 0.00813842 0.00813848 0.00813816 0.00813887 0.00813861 0.00813835 0.00813849 0.00813855 0.00813818 0.00813866 0.00813853 0.00813832 0.00813845 0.00813857 0.00813816 0.00813866 0.00813839 0.0081383 0.00813856 0.00813845 0.0081381 0.00813862 0.00813836 0.00813823 0.00813839 0.00813843 0.00813821 0.00813859 0.0081384 0.00813828 0.00813817 0.00813836 0.00813808 0.00813856 0.00813845 0.00813837 0.00813819 0.00813843 0.00813811 0.00813836 0.00813858 0.00813828 0.0081383 0.00813818 0.00813816 0.00813839 0.00813838 0.0081382 0.00813819 0.00813838 0.00813803 0.00813842 0.00813826 0.00813838 0.00813813 0.00813824 0.00813812 0.00813826 0.00813841 0.00813815 0.008138 0.00813815 0.00813805 0.0081382 0.00813828 0.00813799 0.00813827 0.00813805 0.008138 0.00813836 0.0081381 0.0081383 0.00813805 0.0081381 0.00813806 0.0081382 0.00813828 0.0081383 0.00813809 0.00813789 0.00813793 0.00813815 0.00813834 0.00813814 0.00813826 0.00813805 0.00813805 0.00813804 0.00813811 0.00813801 0.00813804 0.00813814 0.00813797 0.00813838 0.00813814 0.00813785 0.00813792 0.00813827 0.00813803 0.00813814 0.00813816 0.00813821 0.00813816 0.00813818 0.00813806 0.00813808 0.00813776 0.00813805 0.00813823 0.008138 0.00813806 0.00813835 0.00813803 0.00813793 0.00813794 0.0081382 0.00813794 0.0081379 0.00813818 0.00813801 0.00813818 0.00813812 0.00813783 0.00813819 0.00813784 0.00813795 0.00813813 0.00813791 0.00813781 0.00813806 0.00813796 0.00813814 0.00813768 0.00814344 0.00814186 0.0081481 0.00814402 0.0081418 0.00814053 0.00814046 0.00814063 0.00814296 0.00814102 0.00814032 0.00813973 0.00814034 0.0081401 0.00814132 0.00814017 0.00814007 0.00814 0.00814024 0.00813979 0.00814069 0.00814006 0.00813983 0.00813999 0.00814038 0.0081397 0.00814055 0.00813999 0.00813969 0.00813988 0.00814021 0.00813967 0.00814026 0.00813992 0.00813957 0.00813992 0.00814007 0.00813949 0.00814022 0.00813987 0.00813955 0.00813976 0.00813989 0.00813938 0.00814013 0.00813989 0.00813955 0.00813953 0.00813987 0.00813923 0.00813989 0.00813977 0.00813942 0.00813954 0.0081396 0.00813923 0.00813982 0.0081396 0.00813924 0.00813928 0.00813948 0.00813922 0.00813968 0.00813947 0.00813913 0.0081393 0.00813936 0.00813907 0.00813948 0.00813939 0.00813905 0.00813931 0.0081392 0.00813886 0.00813947 0.00813919 0.00813903 0.00813916 0.00813919 0.00813893 0.00813925 0.00813911 0.00813882 0.00813879 0.00813907 0.00813875 0.00813905 0.008139 0.00813884 0.00813891 0.00813888 0.0081387 0.00813901 0.00813891 0.00813867 0.00813874 0.00813879 0.00813858 0.008139 0.0081389 0.00813862 0.00813868 0.00813857 0.00813849 0.00813873 0.00813879 0.00813849 0.00813855 0.00813859 0.00813865 0.00813874 0.00813867 0.00813844 0.00813849 0.0081385 0.00813857 0.00813867 0.00813844 0.00813848 0.00813833 0.00813844 0.00813833 0.00813845 0.00813847 0.00813858 0.00813852 0.00813814 0.00813848 0.00813843 0.00813844 0.0081385 0.00813843 0.00813812 0.00813834 0.00813826 0.00813827 0.00813829 0.00813826 0.0081382 0.00813813 0.00813818 0.00813838 0.00813814 0.00813828 0.00813829 0.00813811 0.00813829 0.00813802 0.00813826 0.00813823 0.00813829 0.00813812 0.00813806 0.00813835 0.00813816 0.00813814 0.00813817 0.00813781 0.00813808 0.00813826 0.00813799 0.00813786 0.00813832 0.00813811 0.00813813 0.00813821 0.00813815 0.00813821 0.00813784 0.00813824 0.00813824 0.0081382 0.00813794 0.00813797 0.00813805 0.00813801 0.0081382 0.008138 0.0081382 0.00813794 0.00813787 0.00813792 0.00813806 0.00813823 0.00813814 0.00813796 0.00813796 0.00813803 0.00813791 0.00813806 0.00813792 0.00813794 0.00814618 0.00814413 0.00815457 0.00814836 0.00814492 0.00814221 0.00814177 0.00814212 0.00814492 0.00814325 0.00814237 0.00814103 0.00814165 0.00814148 0.00814263 0.00814172 0.00814166 0.00814111 0.00814153 0.0081412 0.00814206 0.00814155 0.00814127 0.00814124 0.00814154 0.00814097 0.00814182 0.00814132 0.00814113 0.00814123 0.00814156 0.0081408 0.00814161 0.00814123 0.00814096 0.00814115 0.0081413 0.00814062 0.00814135 0.00814108 0.00814067 0.00814099 0.00814094 0.00814051 0.00814115 0.00814094 0.00814058 0.00814082 0.0081409 0.0081403 0.00814095 0.00814065 0.00814049 0.00814044 0.00814064 0.00814016 0.00814062 0.00814049 0.00814017 0.00814028 0.00814055 0.00813999 0.00814052 0.00814031 0.00813995 0.00814021 0.00814031 0.00813975 0.00814036 0.00814009 0.00813978 0.00814004 0.00814004 0.00813972 0.00814007 0.00813993 0.00813973 0.00813964 0.00813981 0.00813948 0.00813994 0.00813988 0.00813943 0.00813954 0.00813982 0.00813929 0.00813963 0.00813971 0.00813934 0.00813936 0.00813934 0.00813916 0.00813951 0.00813938 0.00813927 0.00813944 0.00813933 0.00813908 0.00813938 0.00813932 0.008139 0.00813909 0.00813917 0.00813898 0.00813932 0.00813921 0.00813898 0.00813901 0.00813883 0.00813892 0.00813903 0.00813906 0.00813897 0.0081389 0.00813888 0.00813866 0.00813876 0.00813888 0.00813865 0.00813868 0.00813861 0.00813858 0.00813874 0.00813897 0.00813862 0.00813856 0.0081388 0.00813841 0.00813853 0.00813869 0.00813851 0.00813857 0.00813858 0.00813823 0.00813866 0.00813863 0.00813824 0.00813858 0.00813839 0.00813829 0.00813836 0.00813848 0.00813856 0.00813821 0.00813821 0.00813835 0.00813852 0.00813844 0.00813821 0.00813816 0.00813787 0.00813808 0.00813829 0.00813832 0.0081383 0.00813826 0.00813809 0.00813821 0.00813818 0.00813799 0.00813822 0.0081384 0.00813808 0.00813799 0.0081382 0.00813807 0.00813791 0.00813827 0.00813792 0.00813797 0.00813826 0.0081382 0.00813787 0.00813826 0.00813797 0.00813833 0.00813814 0.00813835 0.00813818 0.00813791 0.00813798 0.00813815 0.00813796 0.0081381 0.00813784 0.00813816 0.00813807 0.00813785 0.00813807 0.0081381 0.00813797 0.00813831 0.00814732 0.00814592 0.00815919 0.00815289 0.00814693 0.00814421 0.00814349 0.0081434 0.00814397 0.00814517 0.00814391 0.00814237 0.00814345 0.0081427 0.00814329 0.00814326 0.00814312 0.00814258 0.00814317 0.0081426 0.00814353 0.0081429 0.00814266 0.00814265 0.00814301 0.00814239 0.00814316 0.00814272 0.00814247 0.00814267 0.00814289 0.00814202 0.00814302 0.00814251 0.00814218 0.0081423 0.00814251 0.00814176 0.00814253 0.00814245 0.00814202 0.00814212 0.00814212 0.0081416 0.00814236 0.00814206 0.00814166 0.00814187 0.008142 0.00814134 0.00814209 0.00814179 0.00814136 0.00814162 0.00814162 0.00814102 0.00814167 0.00814146 0.00814115 0.00814126 0.00814127 0.00814087 0.00814131 0.00814121 0.00814088 0.00814084 0.00814096 0.00814054 0.00814112 0.00814096 0.00814055 0.00814048 0.00814067 0.00814036 0.00814067 0.00814064 0.00814032 0.00814062 0.0081405 0.00814015 0.00814055 0.00814041 0.00814011 0.00814015 0.00814035 0.00813982 0.00814012 0.00814022 0.00814001 0.00813997 0.00814007 0.00813995 0.00813997 0.00814002 0.00813974 0.00813961 0.00813993 0.00813929 0.00813972 0.00813974 0.00813941 0.00813945 0.00813939 0.00813927 0.00813971 0.00813967 0.00813918 0.00813931 0.00813925 0.00813924 0.00813938 0.00813936 0.00813919 0.00813925 0.00813926 0.00813889 0.00813934 0.00813914 0.00813885 0.00813903 0.00813905 0.00813878 0.00813925 0.00813906 0.008139 0.00813902 0.00813884 0.00813878 0.00813885 0.00813881 0.00813875 0.00813873 0.00813864 0.00813857 0.0081386 0.00813872 0.00813847 0.00813862 0.00813883 0.00813861 0.00813854 0.0081384 0.00813866 0.0081384 0.00813867 0.00813856 0.00813825 0.00813844 0.00813827 0.00813824 0.00813852 0.00813847 0.00813841 0.0081382 0.00813814 0.00813825 0.00813809 0.00813814 0.00813831 0.0081383 0.00813819 0.00813825 0.00813819 0.00813823 0.00813827 0.00813822 0.00813831 0.00813818 0.00813789 0.00813803 0.00813818 0.00813822 0.00813802 0.00813823 0.00813805 0.00813803 0.00813817 0.00813806 0.00813792 0.00813822 0.00813766 0.0081381 0.00813801 0.00813814 0.00813783 0.00813779 0.00813798 0.00813793 0.00813799 0.00813795 0.00813775 0.00813806 0.00813193 0.00812737 0.00812371 0.00811938 0.0081292 0.00812564 0.00813258 0.00813158 0.00813144 0.00812849 0.00813116 0.0081307 0.00813309 0.00813195 0.00813324 0.00813106 0.00813178 0.00813204 0.00813321 0.00813218 0.00813314 0.00813217 0.00813219 0.0081327 0.00813338 0.00813254 0.00813331 0.00813267 0.00813267 0.00813322 0.00813367 0.00813305 0.00813363 0.0081333 0.00813313 0.0081335 0.00813395 0.00813347 0.00813396 0.0081336 0.00813355 0.00813378 0.0081343 0.00813373 0.00813436 0.00813403 0.00813399 0.00813411 0.00813461 0.00813407 0.00813466 0.00813441 0.00813424 0.00813451 0.00813481 0.00813455 0.00813494 0.00813456 0.00813442 0.00813474 0.00813509 0.00813481 0.0081351 0.00813494 0.00813479 0.00813509 0.00813553 0.00813501 0.00813542 0.00813526 0.00813525 0.00813538 0.00813554 0.0081354 0.00813574 0.00813558 0.00813542 0.00813564 0.00813592 0.00813568 0.00813587 0.00813575 0.00813582 0.00813573 0.00813614 0.00813582 0.00813613 0.00813593 0.00813608 0.00813597 0.00813623 0.00813599 0.00813635 0.00813638 0.00813639 0.00813615 0.00813657 0.0081364 0.00813651 0.00813646 0.00813658 0.00813676 0.00813656 0.00813647 0.00813683 0.00813667 0.00813648 0.00813659 0.00813696 0.00813673 0.00813698 0.00813694 0.00813693 0.00813691 0.0081371 0.00813673 0.00813715 0.00813704 0.00813696 0.00813707 0.0081372 0.0081371 0.00813724 0.00813716 0.00813737 0.00813723 0.0081373 0.00813724 0.00813735 0.00813728 0.00813729 0.00813731 0.0081374 0.0081377 0.0081375 0.00813756 0.00813757 0.00813757 0.00813764 0.00813765 0.00813768 0.00813765 0.00813766 0.00813762 0.00813748 0.00813763 0.0081377 0.00813761 0.00813774 0.00813773 0.00813771 0.0081378 0.00813776 0.00813767 0.00813779 0.00813774 0.00813791 0.00813791 0.00813786 0.00813772 0.00813791 0.00813783 0.00813783 0.00813798 0.00813784 0.00813778 0.00813795 0.00813816 0.00813789 0.008138 0.00813813 0.00813798 0.00813787 0.00813799 0.00813787 0.00813785 0.0081381 0.0081382 0.0081381 0.00813809 0.00813804 0.00813796 0.00813815 0.00813794 0.00813804 0.00813813 0.00813782 0.00813835 0.00813796 0.00813801 0.00813815 0.00813831 0.00813415 0.00813227 0.00812801 0.00812751 0.00812745 0.00812878 0.00813422 0.00813318 0.00813134 0.0081306 0.00813215 0.00813285 0.00813434 0.00813353 0.00813357 0.00813254 0.00813341 0.00813394 0.00813459 0.00813377 0.00813447 0.00813363 0.00813388 0.00813438 0.00813479 0.00813415 0.00813488 0.00813426 0.0081342 0.00813459 0.00813504 0.00813437 0.00813502 0.00813468 0.00813454 0.00813479 0.00813522 0.00813465 0.00813517 0.00813503 0.00813481 0.00813499 0.00813537 0.00813487 0.00813544 0.00813519 0.00813495 0.00813522 0.00813563 0.00813514 0.00813576 0.00813549 0.00813533 0.00813548 0.00813576 0.00813534 0.00813584 0.00813563 0.00813556 0.00813571 0.00813591 0.00813549 0.00813601 0.00813591 0.00813573 0.0081359 0.00813603 0.00813565 0.00813637 0.00813608 0.008136 0.0081361 0.00813629 0.00813605 0.00813638 0.00813624 0.00813612 0.00813624 0.00813642 0.00813626 0.00813661 0.00813646 0.00813644 0.00813651 0.00813679 0.00813638 0.00813679 0.00813676 0.00813652 0.00813656 0.00813675 0.0081365 0.008137 0.00813667 0.00813677 0.00813666 0.00813703 0.00813681 0.00813717 0.00813702 0.0081368 0.00813705 0.00813701 0.0081369 0.00813729 0.00813704 0.00813692 0.00813713 0.00813714 0.008137 0.00813719 0.00813711 0.00813712 0.00813717 0.00813737 0.00813713 0.00813748 0.00813736 0.00813733 0.00813726 0.00813747 0.00813743 0.00813748 0.00813752 0.00813746 0.00813736 0.00813759 0.00813757 0.00813769 0.00813748 0.00813756 0.00813727 0.00813773 0.00813755 0.00813755 0.00813751 0.00813759 0.00813762 0.0081377 0.00813779 0.00813777 0.00813768 0.0081377 0.00813786 0.00813788 0.00813792 0.00813778 0.00813773 0.00813779 0.00813773 0.00813776 0.00813772 0.00813795 0.00813774 0.00813776 0.00813782 0.00813769 0.00813783 0.00813815 0.00813779 0.00813789 0.00813776 0.00813777 0.0081379 0.00813805 0.00813781 0.00813808 0.00813801 0.00813788 0.00813802 0.00813812 0.00813818 0.00813795 0.00813797 0.0081381 0.00813809 0.00813805 0.00813803 0.00813801 0.00813797 0.00813792 0.00813784 0.00813799 0.00813796 0.00813779 0.00813805 0.00813809 0.00813815 0.00813814 0.00813776 0.0081381 0.00813803 0.00813647 0.0081348 0.00813252 0.00813203 0.00813073 0.00813243 0.00813641 0.00813509 0.00813431 0.00813352 0.00813373 0.00813471 0.00813617 0.00813517 0.0081355 0.00813464 0.00813484 0.00813562 0.00813628 0.00813543 0.00813603 0.00813535 0.00813523 0.00813582 0.0081363 0.00813552 0.00813635 0.00813575 0.00813555 0.00813595 0.00813637 0.00813568 0.00813639 0.00813605 0.00813587 0.00813612 0.00813641 0.00813584 0.00813651 0.00813628 0.00813604 0.00813626 0.00813656 0.00813589 0.00813657 0.00813638 0.00813609 0.00813645 0.00813653 0.00813613 0.00813678 0.00813657 0.00813631 0.00813657 0.00813673 0.00813616 0.00813683 0.00813657 0.00813654 0.00813665 0.00813668 0.00813634 0.008137 0.00813688 0.00813667 0.00813693 0.00813681 0.00813662 0.00813709 0.00813692 0.00813678 0.00813697 0.00813706 0.00813677 0.00813722 0.00813697 0.00813699 0.00813701 0.0081371 0.0081369 0.00813732 0.00813709 0.00813694 0.00813703 0.00813711 0.00813682 0.00813727 0.00813721 0.00813705 0.00813717 0.00813727 0.00813711 0.00813741 0.0081374 0.00813707 0.00813734 0.00813724 0.00813721 0.00813755 0.00813738 0.00813739 0.00813747 0.00813754 0.00813735 0.00813747 0.00813768 0.00813747 0.0081374 0.00813758 0.00813739 0.00813752 0.00813765 0.00813765 0.0081376 0.00813766 0.00813749 0.00813778 0.00813764 0.00813757 0.00813719 0.00813773 0.0081376 0.0081377 0.00813776 0.00813767 0.0081377 0.00813768 0.00813754 0.00813791 0.00813774 0.00813756 0.00813774 0.00813771 0.00813772 0.00813784 0.00813787 0.00813782 0.00813786 0.00813795 0.0081376 0.00813783 0.00813775 0.00813785 0.00813786 0.00813782 0.00813774 0.00813799 0.00813791 0.00813793 0.00813773 0.00813802 0.00813788 0.00813806 0.00813808 0.00813778 0.00813771 0.00813777 0.00813792 0.0081381 0.00813799 0.00813778 0.00813794 0.00813817 0.00813817 0.00813807 0.00813806 0.00813787 0.00813792 0.00813808 0.00813804 0.00813785 0.00813805 0.00813782 0.00813775 0.008138 0.00813786 0.0081381 0.00813809 0.00813826 0.008138 0.00813801 0.00813791 0.00813803 0.00813803 0.00813801 0.00813793 0.00813817 0.00813822 0.0081381 0.00813807 0.00813798 0.00813818 0.00813893 0.00813735 0.00813702 0.00813612 0.00813448 0.00813598 0.00813849 0.00813724 0.00813752 0.00813644 0.0081359 0.00813675 0.00813794 0.00813703 0.00813773 0.00813672 0.00813649 0.00813717 0.00813773 0.00813691 0.00813785 0.00813702 0.00813688 0.0081373 0.0081377 0.00813701 0.0081378 0.00813726 0.00813691 0.00813739 0.00813756 0.00813704 0.00813776 0.00813738 0.00813704 0.00813743 0.00813764 0.00813702 0.00813777 0.00813744 0.00813723 0.00813755 0.00813766 0.00813696 0.00813778 0.00813742 0.00813734 0.00813746 0.00813759 0.00813712 0.0081378 0.00813756 0.00813723 0.00813766 0.00813764 0.00813716 0.00813789 0.00813754 0.00813744 0.00813754 0.0081377 0.00813731 0.00813797 0.00813766 0.00813744 0.00813773 0.00813758 0.00813735 0.00813786 0.00813774 0.00813746 0.00813775 0.00813773 0.00813739 0.008138 0.00813773 0.00813762 0.00813778 0.00813771 0.00813755 0.00813788 0.00813781 0.0081376 0.00813775 0.00813773 0.00813759 0.00813795 0.00813772 0.00813782 0.0081377 0.008138 0.00813757 0.00813797 0.00813787 0.00813771 0.00813769 0.00813789 0.00813774 0.00813791 0.00813788 0.00813773 0.00813787 0.00813782 0.00813763 0.00813807 0.00813777 0.00813791 0.00813787 0.00813795 0.00813759 0.00813797 0.00813778 0.00813789 0.00813785 0.00813773 0.00813773 0.00813809 0.00813798 0.00813787 0.00813802 0.00813787 0.00813776 0.00813779 0.00813785 0.00813807 0.00813795 0.00813798 0.00813796 0.00813793 0.00813802 0.00813793 0.00813782 0.008138 0.00813791 0.00813796 0.00813808 0.00813812 0.008138 0.00813789 0.00813768 0.00813788 0.00813806 0.00813807 0.00813813 0.00813774 0.00813806 0.00813806 0.008138 0.00813798 0.00813801 0.00813812 0.00813767 0.00813819 0.0081381 0.00813791 0.00813807 0.00813803 0.00813793 0.00813803 0.00813794 0.00813788 0.00813789 0.00813816 0.00813796 0.00813787 0.00813801 0.00813807 0.00813805 0.00813817 0.00813783 0.0081381 0.00813813 0.00813797 0.0081378 0.00813786 0.00813808 0.00813795 0.00813813 0.00813807 0.00813798 0.00813824 0.00813818 0.00813808 0.008138 0.00813792 0.00813799 0.00813793 0.00813795 0.00813807 0.00813814 0.00813815 0.00813807 0.00814157 0.00814006 0.00814152 0.00814004 0.00813823 0.00813947 0.00814032 0.00813933 0.0081408 0.0081393 0.00813844 0.0081388 0.00813958 0.00813873 0.00814009 0.00813884 0.00813852 0.00813876 0.00813922 0.00813849 0.00813955 0.0081388 0.00813848 0.00813871 0.00813894 0.00813835 0.00813924 0.00813878 0.00813844 0.00813871 0.00813892 0.00813832 0.00813906 0.00813867 0.00813848 0.0081386 0.00813881 0.00813823 0.008139 0.00813879 0.0081385 0.00813864 0.00813874 0.00813813 0.00813888 0.00813864 0.00813838 0.00813854 0.0081387 0.00813815 0.00813883 0.00813868 0.00813828 0.00813857 0.00813853 0.00813821 0.00813876 0.0081386 0.00813837 0.00813854 0.00813855 0.00813804 0.00813885 0.00813869 0.00813834 0.00813845 0.0081386 0.00813819 0.0081387 0.00813857 0.00813836 0.00813844 0.00813843 0.00813815 0.0081386 0.00813854 0.00813823 0.00813841 0.00813843 0.00813806 0.00813856 0.00813856 0.00813833 0.00813841 0.00813819 0.00813814 0.00813859 0.0081385 0.00813819 0.00813846 0.00813837 0.00813798 0.00813851 0.00813839 0.00813828 0.00813837 0.0081384 0.00813798 0.00813854 0.00813828 0.00813822 0.00813817 0.00813833 0.00813797 0.00813845 0.00813831 0.0081379 0.00813827 0.00813825 0.00813805 0.00813836 0.00813813 0.00813824 0.00813817 0.0081381 0.00813807 0.00813831 0.00813833 0.00813825 0.00813811 0.00813805 0.00813791 0.00813831 0.00813823 0.00813823 0.00813827 0.00813808 0.00813795 0.00813819 0.00813825 0.00813818 0.00813821 0.00813798 0.00813804 0.00813822 0.0081382 0.00813831 0.00813812 0.00813812 0.00813808 0.00813789 0.00813827 0.00813817 0.00813817 0.00813814 0.00813809 0.0081381 0.00813804 0.00813796 0.0081382 0.00813815 0.00813808 0.00813811 0.00813791 0.00813821 0.00813812 0.00813816 0.00813797 0.00813808 0.00813803 0.00813816 0.00813819 0.00813799 0.00813772 0.00813817 0.00813811 0.00813801 0.00813807 0.00813796 0.00813818 0.00813815 0.00813811 0.00813812 0.00813798 0.00813801 0.00813818 0.00813792 0.00813818 0.00813796 0.00813806 0.00813799 0.00813808 0.0081381 0.00813812 0.00813822 0.00813794 0.00813816 0.00813799 0.00813787 0.00813792 0.00813809 0.00813819 0.00814422 0.00814272 0.00814642 0.00814403 0.00814201 0.00814285 0.00814206 0.00814129 0.00814408 0.0081422 0.00814101 0.0081409 0.00814113 0.0081405 0.00814206 0.00814101 0.00814026 0.00814035 0.00814056 0.00814 0.0081412 0.00814051 0.00814009 0.00814016 0.00814033 0.00813976 0.00814066 0.00814025 0.00813986 0.00814012 0.00814012 0.00813956 0.00814043 0.00814017 0.00813978 0.00814 0.00814006 0.00813942 0.00814024 0.00813999 0.00813959 0.00813984 0.00813989 0.00813923 0.00814007 0.00813984 0.00813952 0.00813971 0.00813985 0.00813915 0.00813995 0.00813966 0.00813941 0.00813973 0.00813946 0.00813914 0.00813976 0.00813965 0.0081392 0.00813938 0.0081395 0.00813905 0.00813971 0.0081394 0.00813916 0.0081394 0.00813924 0.00813891 0.00813947 0.00813933 0.00813902 0.00813924 0.00813923 0.00813884 0.00813941 0.00813917 0.00813916 0.00813914 0.00813912 0.00813874 0.00813921 0.00813911 0.00813896 0.00813917 0.00813887 0.00813876 0.00813907 0.00813905 0.00813878 0.00813891 0.00813883 0.00813863 0.008139 0.00813892 0.00813868 0.00813887 0.00813872 0.00813858 0.00813882 0.0081387 0.0081387 0.00813871 0.00813884 0.0081385 0.00813891 0.00813877 0.00813852 0.0081386 0.00813847 0.0081384 0.00813873 0.00813866 0.00813852 0.00813862 0.00813834 0.00813831 0.00813852 0.0081385 0.00813838 0.00813852 0.00813834 0.00813852 0.00813854 0.0081386 0.00813823 0.0081384 0.0081383 0.00813824 0.00813843 0.00813849 0.00813821 0.00813828 0.00813816 0.00813825 0.00813856 0.00813846 0.00813819 0.00813831 0.00813836 0.00813815 0.00813829 0.00813843 0.00813815 0.00813809 0.00813812 0.00813809 0.00813841 0.0081385 0.00813805 0.00813819 0.0081383 0.00813806 0.00813829 0.0081382 0.00813816 0.00813799 0.00813816 0.00813807 0.00813807 0.00813812 0.00813822 0.00813814 0.00813833 0.00813787 0.00813821 0.00813815 0.00813791 0.00813802 0.00813813 0.00813786 0.00813796 0.00813818 0.0081381 0.00813796 0.00813783 0.00813801 0.00813801 0.00813814 0.00813806 0.00813813 0.00813796 0.00813801 0.00813813 0.00813823 0.00813799 0.00813782 0.00813792 0.0081382 0.00813806 0.00813811 0.00813816 0.00813788 0.00814664 0.00814511 0.00815181 0.00814826 0.00814558 0.00814641 0.00814338 0.00814298 0.00814627 0.00814498 0.0081432 0.00814307 0.00814236 0.00814195 0.00814341 0.00814307 0.00814215 0.00814204 0.00814198 0.00814144 0.0081425 0.00814223 0.0081415 0.00814163 0.00814171 0.00814106 0.00814207 0.00814173 0.00814121 0.00814146 0.0081414 0.00814082 0.00814183 0.00814137 0.008141 0.00814124 0.00814118 0.0081406 0.00814154 0.00814123 0.00814078 0.00814104 0.00814108 0.00814042 0.00814134 0.00814101 0.00814056 0.00814079 0.00814066 0.00814023 0.00814097 0.00814081 0.00814043 0.00814056 0.00814058 0.00814012 0.0081407 0.00814048 0.00814023 0.00814035 0.00814042 0.00814004 0.00814045 0.0081403 0.00814006 0.0081402 0.00814007 0.00813972 0.00814016 0.00814011 0.00813975 0.00814013 0.00813988 0.00813957 0.00814007 0.0081398 0.00813961 0.00813982 0.00813957 0.00813943 0.00813991 0.00813984 0.00813954 0.00813962 0.00813956 0.0081393 0.00813969 0.00813947 0.00813951 0.00813939 0.00813932 0.00813904 0.00813937 0.00813946 0.00813917 0.00813926 0.00813932 0.00813901 0.00813932 0.00813937 0.00813912 0.00813923 0.00813913 0.00813893 0.00813901 0.00813907 0.00813905 0.00813904 0.0081388 0.00813882 0.00813884 0.00813896 0.00813893 0.008139 0.00813888 0.00813859 0.00813893 0.00813889 0.0081388 0.00813881 0.00813857 0.00813854 0.00813873 0.00813888 0.00813871 0.00813866 0.00813843 0.00813861 0.00813868 0.00813862 0.00813858 0.00813841 0.00813859 0.00813826 0.00813851 0.00813858 0.00813821 0.0081384 0.00813839 0.00813846 0.00813859 0.00813842 0.00813845 0.00813843 0.00813816 0.00813802 0.00813846 0.00813828 0.00813824 0.00813826 0.00813824 0.00813824 0.00813826 0.00813847 0.0081381 0.00813821 0.0081381 0.00813815 0.00813828 0.00813811 0.00813821 0.00813832 0.00813825 0.008138 0.00813825 0.00813819 0.00813808 0.00813807 0.0081382 0.00813792 0.00813804 0.00813809 0.00813813 0.00813809 0.00813807 0.00813813 0.00813797 0.00813807 0.00813803 0.00813802 0.00813816 0.00813814 0.00813809 0.00813792 0.00813783 0.00813807 0.00813809 0.00813808 0.00813802 0.00813799 0.00813797 0.00813781 0.00814838 0.008147 0.00815901 0.00815284 0.00814844 0.00814995 0.00814402 0.00814414 0.00814404 0.00814694 0.00814456 0.00814483 0.00814404 0.00814325 0.00814376 0.00814453 0.00814342 0.0081435 0.00814361 0.0081429 0.00814381 0.00814362 0.00814293 0.00814302 0.00814322 0.00814244 0.00814333 0.00814304 0.00814267 0.00814269 0.00814288 0.00814227 0.00814288 0.00814275 0.00814216 0.00814243 0.00814256 0.00814194 0.00814264 0.00814243 0.00814192 0.00814202 0.00814217 0.00814164 0.00814222 0.00814206 0.00814165 0.0081418 0.00814188 0.0081412 0.00814205 0.00814184 0.00814126 0.00814149 0.00814151 0.00814103 0.0081416 0.00814146 0.00814111 0.00814115 0.00814123 0.00814074 0.00814131 0.00814126 0.00814087 0.00814113 0.00814113 0.00814042 0.00814099 0.0081408 0.00814068 0.00814082 0.00814069 0.0081404 0.00814067 0.00814061 0.00814048 0.00814044 0.00814051 0.00814012 0.00814036 0.00814053 0.00814008 0.00814019 0.00814025 0.00814004 0.00814017 0.00814025 0.00813996 0.00814002 0.00813995 0.00813965 0.00814 0.00813995 0.00813966 0.00813981 0.00813971 0.00813954 0.00813977 0.00813967 0.00813951 0.00813961 0.00813944 0.00813916 0.00813961 0.00813944 0.00813923 0.00813935 0.0081393 0.00813912 0.00813944 0.00813934 0.00813921 0.00813928 0.00813917 0.00813907 0.00813913 0.00813911 0.00813919 0.00813899 0.0081389 0.00813882 0.00813891 0.00813875 0.00813876 0.00813873 0.00813873 0.00813877 0.00813895 0.00813884 0.00813862 0.00813887 0.00813853 0.00813852 0.00813853 0.00813868 0.00813845 0.00813864 0.00813872 0.00813851 0.00813864 0.00813832 0.00813836 0.00813866 0.00813833 0.00813833 0.00813847 0.00813834 0.00813808 0.00813821 0.00813841 0.00813827 0.00813846 0.0081384 0.00813812 0.00813831 0.00813815 0.00813816 0.00813793 0.00813812 0.00813809 0.00813818 0.00813807 0.0081381 0.00813828 0.00813818 0.00813815 0.00813832 0.00813823 0.00813806 0.00813813 0.00813803 0.008138 0.00813801 0.00813804 0.00813809 0.00813793 0.00813806 0.00813813 0.0081381 0.00813815 0.00813797 0.00813804 0.00813826 0.00813809 0.00813819 0.00813799 0.00813832 0.00813807 0.00813793 0.00813801 0.00813813 0.00813132 0.00812634 0.00812333 0.00811869 0.00812859 0.00812516 0.00813241 0.00813116 0.00813053 0.00812793 0.00813088 0.00812947 0.00813279 0.00813152 0.008133 0.00813047 0.00813152 0.00813124 0.00813296 0.00813204 0.00813308 0.00813162 0.008132 0.00813221 0.00813323 0.00813252 0.00813329 0.00813251 0.00813259 0.00813291 0.0081335 0.00813287 0.00813364 0.00813317 0.00813305 0.00813334 0.00813389 0.00813334 0.0081339 0.00813357 0.00813356 0.00813374 0.00813421 0.00813367 0.00813432 0.00813396 0.00813393 0.00813413 0.00813453 0.00813395 0.00813466 0.00813441 0.00813434 0.00813446 0.00813477 0.00813452 0.00813479 0.00813462 0.00813458 0.00813481 0.0081352 0.00813478 0.00813527 0.00813495 0.0081349 0.00813503 0.00813555 0.00813501 0.00813534 0.00813523 0.00813521 0.00813534 0.00813554 0.00813534 0.00813572 0.00813542 0.00813553 0.00813552 0.00813595 0.00813556 0.00813597 0.00813566 0.00813565 0.00813588 0.00813604 0.00813587 0.00813621 0.00813614 0.00813597 0.00813611 0.00813629 0.00813602 0.00813639 0.00813633 0.00813622 0.00813623 0.00813657 0.00813649 0.00813643 0.00813626 0.00813671 0.00813662 0.00813672 0.0081366 0.00813674 0.00813657 0.00813649 0.00813665 0.00813692 0.00813678 0.00813712 0.00813688 0.00813701 0.00813698 0.00813712 0.00813709 0.00813707 0.00813695 0.00813693 0.00813702 0.00813727 0.00813704 0.00813741 0.00813716 0.00813703 0.00813729 0.00813734 0.0081374 0.00813749 0.00813725 0.00813731 0.00813745 0.00813761 0.00813745 0.00813756 0.00813732 0.00813746 0.00813738 0.00813756 0.00813767 0.00813735 0.0081375 0.00813756 0.00813768 0.00813762 0.00813773 0.00813803 0.00813753 0.00813761 0.00813764 0.00813773 0.00813786 0.00813807 0.00813796 0.0081378 0.00813785 0.0081378 0.00813782 0.00813767 0.0081377 0.00813799 0.0081377 0.00813777 0.00813807 0.00813792 0.00813812 0.00813795 0.00813811 0.00813813 0.00813808 0.00813789 0.00813775 0.00813787 0.0081382 0.00813816 0.00813803 0.00813799 0.00813803 0.00813811 0.00813777 0.00813821 0.00813792 0.00813801 0.00813809 0.0081381 0.00813793 0.00813803 0.00813821 0.00813801 0.00813799 0.00813821 0.00813797 0.0081339 0.0081317 0.00812775 0.00812707 0.008127 0.00812799 0.00813399 0.00813302 0.00813061 0.00813016 0.00813145 0.00813159 0.00813405 0.00813335 0.00813325 0.00813217 0.00813299 0.00813307 0.00813437 0.00813367 0.00813436 0.0081333 0.00813368 0.0081338 0.00813469 0.00813389 0.00813476 0.00813394 0.00813409 0.00813432 0.00813485 0.00813423 0.00813504 0.00813449 0.00813439 0.00813468 0.00813511 0.00813446 0.00813525 0.00813488 0.00813472 0.008135 0.00813539 0.0081348 0.00813543 0.00813514 0.00813494 0.00813526 0.00813551 0.00813508 0.00813569 0.00813531 0.00813529 0.00813551 0.00813567 0.00813525 0.00813582 0.00813563 0.00813556 0.00813569 0.00813598 0.00813551 0.00813611 0.00813587 0.00813594 0.00813586 0.00813616 0.00813566 0.0081363 0.0081361 0.00813616 0.00813618 0.00813635 0.00813596 0.00813641 0.00813632 0.00813605 0.0081363 0.00813655 0.00813615 0.00813657 0.00813644 0.00813637 0.00813646 0.00813663 0.00813642 0.0081367 0.00813658 0.0081366 0.00813664 0.00813671 0.00813651 0.00813705 0.00813686 0.00813676 0.0081369 0.00813696 0.00813663 0.00813704 0.0081369 0.00813699 0.00813701 0.00813711 0.00813686 0.00813726 0.00813718 0.00813704 0.00813717 0.00813712 0.00813711 0.00813741 0.00813718 0.00813709 0.00813733 0.00813731 0.00813734 0.0081374 0.00813737 0.00813753 0.0081374 0.00813741 0.00813732 0.00813763 0.00813743 0.00813745 0.0081375 0.00813747 0.0081375 0.0081376 0.00813762 0.00813754 0.00813757 0.00813736 0.00813735 0.00813757 0.00813754 0.00813774 0.00813758 0.00813774 0.00813753 0.0081376 0.00813776 0.00813781 0.00813787 0.00813756 0.00813771 0.00813792 0.00813766 0.00813756 0.00813789 0.00813785 0.00813798 0.00813781 0.00813777 0.00813775 0.00813771 0.00813793 0.00813778 0.00813793 0.00813799 0.00813791 0.00813776 0.00813789 0.00813805 0.00813817 0.0081382 0.00813776 0.00813779 0.00813798 0.00813785 0.0081382 0.00813813 0.0081379 0.00813779 0.00813787 0.0081379 0.00813798 0.00813798 0.00813799 0.00813786 0.00813796 0.00813787 0.00813807 0.00813796 0.0081381 0.00813817 0.00813813 0.00813796 0.00813814 0.00813799 0.00813829 0.00813836 0.00813635 0.00813445 0.00813232 0.0081317 0.0081304 0.00813179 0.00813644 0.00813505 0.00813379 0.00813316 0.00813306 0.00813381 0.00813596 0.008135 0.00813519 0.00813435 0.00813453 0.00813493 0.00813598 0.00813523 0.00813589 0.00813521 0.00813515 0.00813545 0.00813608 0.00813537 0.00813626 0.00813563 0.0081355 0.00813577 0.00813621 0.00813555 0.00813636 0.00813589 0.00813572 0.00813597 0.00813627 0.00813577 0.00813645 0.0081361 0.00813597 0.00813616 0.00813648 0.00813572 0.00813661 0.00813636 0.00813618 0.00813632 0.00813658 0.00813611 0.00813669 0.00813651 0.00813634 0.00813646 0.00813662 0.00813629 0.00813679 0.00813662 0.00813648 0.00813661 0.00813697 0.00813633 0.00813695 0.00813672 0.00813673 0.00813681 0.00813697 0.00813646 0.00813706 0.00813696 0.00813667 0.00813681 0.00813692 0.00813665 0.00813712 0.00813694 0.00813701 0.00813708 0.00813709 0.00813669 0.00813731 0.00813711 0.00813697 0.00813721 0.00813727 0.00813692 0.00813733 0.00813722 0.00813711 0.00813727 0.00813735 0.00813704 0.00813739 0.00813711 0.00813727 0.00813727 0.00813726 0.00813709 0.00813759 0.00813742 0.0081374 0.00813739 0.00813742 0.00813732 0.0081377 0.00813756 0.00813743 0.00813729 0.00813743 0.00813748 0.00813759 0.00813756 0.00813748 0.0081375 0.00813755 0.00813748 0.00813788 0.00813775 0.00813774 0.00813766 0.00813766 0.00813748 0.00813784 0.00813795 0.00813761 0.00813783 0.00813759 0.00813758 0.00813781 0.00813777 0.00813788 0.00813759 0.00813771 0.00813788 0.00813782 0.00813784 0.0081379 0.00813772 0.00813788 0.00813767 0.0081378 0.00813797 0.00813798 0.00813786 0.00813781 0.00813777 0.00813797 0.00813781 0.00813781 0.0081379 0.00813802 0.00813774 0.0081382 0.00813805 0.00813801 0.00813787 0.00813792 0.00813782 0.00813798 0.00813783 0.00813803 0.00813816 0.00813795 0.00813791 0.00813812 0.00813809 0.00813787 0.00813805 0.00813809 0.00813793 0.00813812 0.00813796 0.00813795 0.00813795 0.00813807 0.00813808 0.00813796 0.00813808 0.00813806 0.00813792 0.00813819 0.00813807 0.00813802 0.00813808 0.00813804 0.00813807 0.00813813 0.00813805 0.00813799 0.00813799 0.008138 0.00813812 0.00813915 0.00813739 0.00813685 0.00813597 0.00813433 0.00813569 0.00813866 0.00813735 0.0081373 0.00813629 0.0081356 0.00813628 0.00813796 0.00813694 0.00813766 0.0081367 0.00813646 0.00813698 0.00813766 0.0081368 0.0081378 0.00813704 0.00813685 0.00813716 0.00813748 0.00813679 0.00813781 0.0081373 0.00813696 0.00813726 0.00813756 0.00813678 0.00813772 0.00813742 0.00813711 0.00813744 0.00813751 0.008137 0.00813768 0.0081374 0.00813726 0.00813746 0.00813756 0.00813696 0.00813785 0.00813756 0.00813734 0.00813749 0.0081376 0.008137 0.00813774 0.00813758 0.00813739 0.00813755 0.00813759 0.00813726 0.00813783 0.00813759 0.00813743 0.0081376 0.00813763 0.0081372 0.00813795 0.00813771 0.00813742 0.00813757 0.00813776 0.00813732 0.00813784 0.00813761 0.00813762 0.00813774 0.00813773 0.00813734 0.00813794 0.00813767 0.00813771 0.00813759 0.0081378 0.00813732 0.00813795 0.00813784 0.00813764 0.00813773 0.00813767 0.0081374 0.00813789 0.00813778 0.00813775 0.00813786 0.00813769 0.00813747 0.00813803 0.00813775 0.00813777 0.00813796 0.00813784 0.00813787 0.00813803 0.00813777 0.00813787 0.00813797 0.00813781 0.00813771 0.00813803 0.00813792 0.00813777 0.00813784 0.00813774 0.00813776 0.00813791 0.00813804 0.00813805 0.0081379 0.00813785 0.00813768 0.00813791 0.00813786 0.0081379 0.00813789 0.00813803 0.00813776 0.00813786 0.00813796 0.00813784 0.00813802 0.00813789 0.00813787 0.00813798 0.00813785 0.00813804 0.00813787 0.00813801 0.00813801 0.00813791 0.00813787 0.00813805 0.00813805 0.00813794 0.00813782 0.008138 0.00813779 0.00813798 0.00813789 0.00813801 0.00813788 0.008138 0.00813813 0.00813784 0.00813811 0.00813795 0.00813797 0.00813813 0.00813811 0.00813799 0.00813791 0.00813788 0.00813801 0.00813783 0.00813799 0.00813801 0.00813804 0.00813809 0.00813801 0.008138 0.00813811 0.00813822 0.00813795 0.00813798 0.0081379 0.0081378 0.00813814 0.00813801 0.00813788 0.00813797 0.00813803 0.00813805 0.00813809 0.00813813 0.00813806 0.00813791 0.00813774 0.00813792 0.00813799 0.00813788 0.00813811 0.00813791 0.00813797 0.00813831 0.00813793 0.00813807 0.0081378 0.00814207 0.0081403 0.00814144 0.00814003 0.00813828 0.00813942 0.00814081 0.00813959 0.00814087 0.00813948 0.0081384 0.00813904 0.00813983 0.0081389 0.00814019 0.00813915 0.00813844 0.00813887 0.00813928 0.00813839 0.00813963 0.00813892 0.00813843 0.00813886 0.00813905 0.00813824 0.00813935 0.00813879 0.00813845 0.00813876 0.0081389 0.00813817 0.00813916 0.00813885 0.00813843 0.00813877 0.00813875 0.00813815 0.00813892 0.00813875 0.00813846 0.00813861 0.00813867 0.00813815 0.008139 0.00813871 0.0081384 0.00813865 0.00813864 0.00813802 0.00813887 0.0081386 0.0081384 0.00813858 0.00813851 0.00813813 0.00813885 0.00813865 0.00813834 0.00813846 0.00813852 0.0081381 0.00813873 0.00813851 0.00813846 0.00813848 0.00813843 0.00813813 0.00813866 0.00813866 0.0081384 0.00813843 0.00813838 0.00813804 0.0081386 0.00813844 0.00813845 0.00813856 0.00813834 0.00813815 0.00813852 0.00813844 0.00813835 0.00813841 0.00813837 0.00813814 0.00813837 0.00813831 0.00813831 0.00813837 0.00813847 0.00813801 0.00813849 0.00813836 0.0081381 0.0081383 0.00813837 0.00813802 0.00813843 0.00813838 0.00813818 0.00813835 0.00813826 0.008138 0.00813844 0.00813821 0.00813827 0.00813832 0.00813814 0.00813802 0.00813833 0.00813832 0.00813817 0.00813822 0.00813824 0.00813797 0.00813834 0.0081382 0.00813817 0.0081382 0.00813811 0.00813803 0.00813813 0.00813815 0.00813829 0.00813825 0.00813812 0.00813795 0.0081383 0.00813809 0.0081383 0.00813801 0.00813806 0.00813811 0.00813803 0.00813831 0.00813816 0.00813804 0.00813797 0.00813818 0.00813806 0.00813818 0.0081381 0.00813811 0.00813824 0.00813787 0.00813813 0.00813809 0.00813799 0.00813826 0.00813805 0.00813802 0.00813793 0.00813803 0.00813818 0.00813816 0.00813803 0.00813796 0.00813819 0.00813823 0.00813813 0.00813825 0.00813798 0.00813801 0.00813802 0.0081379 0.00813823 0.00813797 0.00813804 0.00813792 0.00813796 0.00813787 0.00813794 0.00813816 0.008138 0.00813799 0.00813813 0.00813794 0.00813788 0.00813795 0.00813802 0.0081381 0.00813824 0.00813798 0.00813798 0.00813791 0.0081378 0.00813815 0.00813793 0.00813797 0.00813792 0.00813808 0.00814492 0.00814321 0.00814639 0.00814409 0.00814217 0.00814304 0.00814271 0.00814164 0.00814439 0.00814263 0.00814106 0.00814168 0.00814141 0.00814066 0.00814242 0.00814152 0.00814053 0.00814101 0.0081407 0.00814003 0.0081413 0.0081408 0.0081401 0.00814053 0.00814041 0.00813977 0.00814077 0.00814042 0.00813988 0.0081402 0.00814026 0.00813947 0.00814043 0.00814021 0.00813975 0.00813999 0.00813999 0.00813932 0.00814026 0.00813999 0.00813962 0.00813986 0.0081398 0.00813926 0.00814007 0.0081398 0.00813948 0.00813974 0.00813973 0.00813919 0.00813996 0.00813977 0.00813941 0.00813952 0.00813958 0.00813907 0.00813976 0.00813962 0.00813928 0.00813946 0.00813945 0.00813899 0.00813974 0.00813947 0.0081391 0.00813934 0.00813936 0.008139 0.00813949 0.00813939 0.00813915 0.00813923 0.00813915 0.00813875 0.00813934 0.00813917 0.0081389 0.00813915 0.00813905 0.00813871 0.00813926 0.00813903 0.00813887 0.00813886 0.00813911 0.00813861 0.00813892 0.00813896 0.00813896 0.00813903 0.00813885 0.00813851 0.00813889 0.00813881 0.00813881 0.00813881 0.0081387 0.0081385 0.00813901 0.00813893 0.00813853 0.00813868 0.00813859 0.0081385 0.00813872 0.00813876 0.00813859 0.00813881 0.00813844 0.0081384 0.00813878 0.00813872 0.00813853 0.00813865 0.00813852 0.00813827 0.00813882 0.0081385 0.00813833 0.00813849 0.00813838 0.00813815 0.00813843 0.00813849 0.0081385 0.00813863 0.00813824 0.0081383 0.00813834 0.00813833 0.00813847 0.00813828 0.0081383 0.00813819 0.00813823 0.00813833 0.00813863 0.00813839 0.0081384 0.00813815 0.00813811 0.00813822 0.00813814 0.00813817 0.00813807 0.00813817 0.00813832 0.00813828 0.00813825 0.0081381 0.00813805 0.00813803 0.0081382 0.00813828 0.00813826 0.00813818 0.00813815 0.00813797 0.00813808 0.00813819 0.00813804 0.00813806 0.00813788 0.0081383 0.00813812 0.00813811 0.00813817 0.00813812 0.00813816 0.00813815 0.00813825 0.00813821 0.00813803 0.00813789 0.00813797 0.008138 0.00813803 0.00813805 0.00813798 0.0081379 0.0081381 0.00813816 0.00813791 0.00813801 0.00813804 0.00813807 0.00813803 0.00813804 0.00813796 0.00813788 0.00813805 0.00813825 0.00814745 0.00814586 0.00815193 0.00814857 0.00814582 0.00814676 0.00814403 0.00814349 0.00814691 0.00814558 0.00814355 0.00814429 0.00814278 0.00814219 0.00814375 0.00814363 0.00814225 0.00814286 0.00814223 0.00814161 0.00814261 0.00814262 0.00814164 0.00814205 0.00814193 0.00814114 0.00814201 0.00814193 0.00814134 0.00814166 0.00814158 0.00814082 0.0081417 0.00814152 0.00814105 0.00814131 0.00814129 0.0081407 0.00814135 0.00814121 0.0081409 0.00814091 0.00814101 0.00814043 0.00814119 0.008141 0.00814058 0.00814079 0.00814073 0.00814019 0.00814094 0.0081407 0.0081404 0.00814058 0.00814054 0.00814 0.00814075 0.00814048 0.00814021 0.00814037 0.00814017 0.00813984 0.0081404 0.00814034 0.00814004 0.00814028 0.00814019 0.00813961 0.00814024 0.00814012 0.00813984 0.00814004 0.00813987 0.00813955 0.00814006 0.00813992 0.00813973 0.0081399 0.00813974 0.00813938 0.00813988 0.00813963 0.00813956 0.00813956 0.00813939 0.00813924 0.00813977 0.00813971 0.00813944 0.00813947 0.00813931 0.00813915 0.00813942 0.00813941 0.0081393 0.00813927 0.00813912 0.00813895 0.00813937 0.00813933 0.00813912 0.00813923 0.00813919 0.00813879 0.00813912 0.00813911 0.00813898 0.00813917 0.00813891 0.00813876 0.00813904 0.00813892 0.00813882 0.00813888 0.00813871 0.00813882 0.00813883 0.00813887 0.0081386 0.00813877 0.00813857 0.00813847 0.00813877 0.00813874 0.00813853 0.00813861 0.00813852 0.00813846 0.0081387 0.00813852 0.0081386 0.00813855 0.00813842 0.00813844 0.00813842 0.00813869 0.00813854 0.00813837 0.00813833 0.00813818 0.00813838 0.00813851 0.00813828 0.00813837 0.00813823 0.00813832 0.00813827 0.00813836 0.00813801 0.00813827 0.00813824 0.0081381 0.00813833 0.00813827 0.00813825 0.00813812 0.00813803 0.00813816 0.00813796 0.00813817 0.00813805 0.00813828 0.0081382 0.00813834 0.00813822 0.00813802 0.00813798 0.00813815 0.00813806 0.00813814 0.008138 0.00813806 0.00813798 0.00813796 0.0081381 0.00813814 0.008138 0.00813804 0.00813803 0.00813806 0.00813784 0.00813801 0.00813805 0.00813804 0.00813788 0.00813803 0.008138 0.00813804 0.00813793 0.00813826 0.00813781 0.00813812 0.00814928 0.00814786 0.00816061 0.00815338 0.00814878 0.00815049 0.00814453 0.00814462 0.00814469 0.00814756 0.00814513 0.00814602 0.00814405 0.00814354 0.00814393 0.00814508 0.00814372 0.00814413 0.00814373 0.008143 0.00814391 0.00814401 0.00814307 0.00814333 0.00814345 0.0081426 0.00814349 0.00814329 0.00814279 0.00814292 0.00814292 0.00814211 0.00814304 0.00814282 0.00814244 0.00814255 0.0081426 0.00814182 0.00814264 0.00814248 0.00814199 0.00814211 0.00814222 0.0081416 0.00814222 0.00814205 0.00814167 0.00814186 0.00814193 0.00814127 0.0081419 0.00814176 0.00814135 0.00814147 0.00814157 0.00814103 0.0081415 0.00814142 0.00814115 0.00814126 0.00814119 0.00814079 0.00814126 0.00814113 0.00814079 0.00814099 0.00814111 0.00814052 0.00814101 0.0081409 0.00814061 0.00814067 0.00814067 0.00814026 0.00814059 0.00814059 0.00814036 0.00814057 0.00814038 0.00814013 0.00814035 0.00814019 0.00814002 0.00814015 0.00814013 0.00813984 0.00814026 0.00814019 0.00813983 0.00814005 0.00813997 0.0081397 0.00813985 0.00814001 0.00813963 0.00813979 0.00813955 0.00813942 0.00813981 0.00813963 0.00813949 0.00813961 0.00813927 0.0081392 0.00813967 0.00813957 0.0081392 0.00813939 0.00813923 0.00813899 0.00813951 0.00813922 0.00813922 0.00813927 0.00813906 0.00813888 0.00813909 0.0081392 0.00813898 0.00813911 0.00813872 0.00813887 0.00813913 0.00813908 0.00813895 0.00813902 0.0081388 0.00813871 0.00813883 0.00813871 0.00813874 0.00813869 0.00813856 0.00813869 0.00813852 0.00813875 0.00813861 0.00813856 0.00813831 0.00813861 0.00813845 0.00813858 0.00813863 0.00813865 0.00813823 0.00813828 0.00813858 0.00813836 0.00813824 0.00813824 0.00813833 0.0081381 0.00813828 0.00813832 0.00813824 0.00813842 0.00813811 0.00813815 0.0081384 0.00813826 0.00813806 0.00813815 0.00813825 0.00813808 0.00813814 0.008138 0.00813824 0.00813814 0.00813805 0.00813786 0.00813796 0.00813812 0.00813807 0.00813796 0.00813803 0.00813798 0.00813797 0.00813807 0.00813799 0.00813804 0.00813789 0.0081381 0.00813812 0.00813791 0.00813802 0.00813787 0.00813786 0.00813784 0.00813822 0.00813804 0.00813792 0.00813819 0.00813092 0.00812587 0.00812319 0.00811829 0.00812822 0.00812479 0.00813218 0.0081309 0.00813018 0.00812775 0.00813075 0.0081291 0.00813272 0.00813154 0.00813263 0.00813037 0.0081313 0.00813096 0.00813285 0.00813194 0.00813306 0.00813164 0.00813192 0.008132 0.00813313 0.00813236 0.00813325 0.00813246 0.00813238 0.00813272 0.00813351 0.00813286 0.00813355 0.00813309 0.008133 0.00813317 0.00813391 0.00813318 0.00813391 0.00813358 0.00813347 0.00813374 0.00813419 0.00813362 0.00813429 0.00813397 0.00813394 0.00813402 0.00813458 0.00813409 0.0081346 0.00813438 0.0081343 0.00813431 0.00813483 0.00813422 0.00813487 0.00813474 0.00813461 0.00813487 0.00813498 0.00813483 0.00813525 0.00813502 0.00813487 0.00813509 0.00813548 0.00813515 0.00813549 0.0081352 0.0081351 0.00813535 0.00813564 0.00813519 0.00813568 0.00813554 0.0081356 0.00813568 0.00813588 0.00813552 0.00813602 0.00813581 0.00813574 0.00813588 0.00813614 0.00813589 0.00813617 0.00813608 0.00813587 0.00813618 0.00813638 0.00813612 0.00813649 0.00813619 0.00813625 0.00813621 0.00813648 0.00813634 0.00813669 0.00813653 0.00813654 0.00813665 0.00813656 0.00813667 0.00813697 0.00813676 0.00813663 0.00813678 0.00813692 0.00813695 0.0081369 0.0081368 0.00813684 0.008137 0.00813713 0.00813696 0.00813716 0.00813676 0.00813739 0.00813704 0.00813733 0.00813701 0.00813712 0.0081374 0.00813738 0.00813734 0.00813724 0.00813707 0.00813743 0.00813718 0.00813755 0.00813754 0.00813739 0.00813741 0.00813742 0.00813747 0.00813759 0.0081375 0.00813742 0.00813747 0.00813776 0.0081377 0.00813767 0.00813772 0.0081377 0.0081378 0.00813774 0.00813767 0.00813769 0.00813756 0.00813808 0.00813773 0.00813784 0.00813785 0.00813763 0.0081378 0.00813775 0.00813769 0.00813792 0.00813785 0.00813791 0.00813786 0.00813798 0.00813804 0.00813799 0.00813797 0.00813799 0.00813792 0.00813781 0.00813819 0.00813796 0.00813809 0.0081379 0.0081379 0.00813792 0.00813835 0.00813819 0.00813801 0.00813801 0.0081379 0.00813816 0.00813803 0.00813804 0.00813819 0.0081379 0.00813809 0.00813801 0.00813818 0.00813805 0.00813795 0.00813816 0.00813796 0.00813367 0.00813142 0.00812778 0.00812689 0.00812684 0.00812785 0.00813396 0.0081329 0.00813031 0.00812991 0.00813119 0.00813106 0.00813397 0.00813332 0.00813291 0.00813202 0.00813276 0.0081327 0.00813431 0.00813361 0.00813425 0.00813319 0.00813348 0.00813365 0.00813454 0.00813393 0.00813483 0.00813388 0.00813401 0.00813416 0.00813478 0.00813413 0.00813506 0.00813451 0.00813434 0.00813463 0.00813504 0.00813439 0.00813529 0.00813485 0.00813473 0.00813492 0.00813533 0.00813465 0.0081354 0.0081352 0.00813497 0.00813529 0.0081354 0.0081351 0.00813565 0.00813531 0.00813531 0.00813556 0.00813568 0.00813531 0.00813589 0.00813569 0.00813557 0.00813569 0.00813593 0.00813547 0.00813622 0.00813583 0.0081357 0.00813587 0.00813624 0.00813571 0.00813627 0.00813601 0.00813609 0.00813619 0.00813637 0.00813594 0.00813645 0.00813628 0.0081362 0.0081363 0.00813646 0.00813615 0.00813673 0.00813648 0.00813639 0.00813641 0.00813651 0.00813643 0.00813683 0.0081366 0.0081365 0.00813665 0.00813685 0.00813657 0.008137 0.00813679 0.00813679 0.00813678 0.00813694 0.00813687 0.00813704 0.00813677 0.00813697 0.00813707 0.00813707 0.00813703 0.00813729 0.00813705 0.00813704 0.0081371 0.00813707 0.00813716 0.00813728 0.00813717 0.00813725 0.00813713 0.00813739 0.00813722 0.00813743 0.00813726 0.00813756 0.00813734 0.00813728 0.00813724 0.0081376 0.00813749 0.00813746 0.00813739 0.00813755 0.00813752 0.00813756 0.00813756 0.00813741 0.00813748 0.0081375 0.00813757 0.00813764 0.00813754 0.00813762 0.00813759 0.00813773 0.00813769 0.00813789 0.00813775 0.00813768 0.00813775 0.00813771 0.00813767 0.00813778 0.00813769 0.00813786 0.00813782 0.00813778 0.00813762 0.0081379 0.00813787 0.00813795 0.0081379 0.00813794 0.008138 0.008138 0.00813791 0.00813798 0.00813784 0.00813796 0.00813777 0.00813782 0.00813774 0.00813807 0.00813798 0.00813785 0.00813805 0.00813803 0.00813804 0.008138 0.00813807 0.00813822 0.00813806 0.0081382 0.00813797 0.0081378 0.00813819 0.00813786 0.00813792 0.00813841 0.00813812 0.00813794 0.00813798 0.008138 0.00813808 0.00813801 0.00813803 0.00813845 0.00813795 0.00813638 0.00813434 0.00813233 0.00813152 0.00813021 0.00813175 0.00813641 0.00813508 0.00813357 0.00813302 0.00813286 0.00813345 0.00813595 0.00813506 0.00813489 0.00813438 0.00813432 0.00813477 0.00813587 0.00813508 0.00813584 0.00813515 0.00813502 0.00813535 0.008136 0.00813532 0.0081362 0.00813567 0.00813541 0.00813578 0.00813611 0.00813551 0.00813643 0.00813587 0.00813571 0.00813599 0.00813624 0.00813571 0.00813655 0.00813616 0.00813595 0.00813627 0.00813639 0.00813579 0.00813665 0.00813628 0.00813618 0.00813633 0.00813652 0.0081361 0.00813674 0.00813659 0.00813632 0.00813657 0.00813664 0.00813618 0.00813687 0.0081366 0.0081366 0.00813667 0.00813671 0.00813648 0.00813692 0.00813683 0.00813665 0.00813676 0.00813687 0.00813661 0.00813717 0.00813691 0.00813677 0.00813688 0.00813703 0.0081367 0.00813715 0.00813687 0.00813686 0.00813707 0.00813716 0.00813674 0.00813731 0.00813709 0.00813701 0.00813715 0.00813725 0.00813683 0.0081374 0.00813718 0.00813705 0.00813723 0.0081372 0.00813704 0.00813734 0.00813717 0.00813739 0.00813743 0.00813734 0.0081371 0.00813763 0.00813729 0.00813736 0.00813744 0.00813724 0.00813734 0.00813759 0.00813735 0.00813734 0.0081375 0.00813757 0.00813742 0.00813783 0.00813756 0.00813742 0.00813763 0.00813758 0.00813754 0.00813763 0.00813756 0.00813761 0.0081374 0.00813794 0.0081375 0.00813785 0.00813775 0.00813766 0.0081376 0.00813776 0.00813757 0.00813779 0.00813762 0.00813782 0.00813767 0.00813775 0.00813777 0.0081378 0.00813776 0.00813801 0.00813793 0.00813783 0.00813776 0.00813774 0.00813807 0.00813795 0.00813782 0.00813781 0.00813777 0.00813798 0.00813775 0.00813792 0.00813791 0.00813786 0.00813788 0.00813817 0.00813813 0.00813799 0.00813783 0.00813792 0.00813789 0.008138 0.00813797 0.00813802 0.00813807 0.0081381 0.00813794 0.00813808 0.00813801 0.00813795 0.00813784 0.00813805 0.00813801 0.0081381 0.00813799 0.00813787 0.00813795 0.00813791 0.00813815 0.00813792 0.00813791 0.00813814 0.00813794 0.00813782 0.00813811 0.00813795 0.00813804 0.00813785 0.00813796 0.00813814 0.00813805 0.00813813 0.00813811 0.00813804 0.00813806 0.00813924 0.00813734 0.00813682 0.00813586 0.00813422 0.00813563 0.00813878 0.00813742 0.00813714 0.00813634 0.00813539 0.00813621 0.00813806 0.00813696 0.0081375 0.00813672 0.0081363 0.00813687 0.0081376 0.0081368 0.00813774 0.00813705 0.00813677 0.00813711 0.00813756 0.00813671 0.00813781 0.00813729 0.00813693 0.00813724 0.00813741 0.0081369 0.00813779 0.00813747 0.0081371 0.00813738 0.00813753 0.00813693 0.00813773 0.00813731 0.00813731 0.0081375 0.00813752 0.00813696 0.00813779 0.00813746 0.00813728 0.00813736 0.00813756 0.00813706 0.0081378 0.00813769 0.00813735 0.00813746 0.00813758 0.00813712 0.0081378 0.00813763 0.00813752 0.00813762 0.0081376 0.0081372 0.00813795 0.00813771 0.00813756 0.00813767 0.00813761 0.00813735 0.00813792 0.0081378 0.00813758 0.00813766 0.00813768 0.00813733 0.00813784 0.00813778 0.00813768 0.00813774 0.00813768 0.0081374 0.00813789 0.0081378 0.00813769 0.00813766 0.00813784 0.00813744 0.00813789 0.00813776 0.00813779 0.0081378 0.00813782 0.00813761 0.00813793 0.00813784 0.00813775 0.00813781 0.00813759 0.00813766 0.00813799 0.00813797 0.00813782 0.00813797 0.00813777 0.00813773 0.00813806 0.00813794 0.00813774 0.00813786 0.0081381 0.00813778 0.00813804 0.00813777 0.00813798 0.00813793 0.00813789 0.00813767 0.00813787 0.00813794 0.00813786 0.00813778 0.00813787 0.00813781 0.00813803 0.00813798 0.00813809 0.00813776 0.00813786 0.00813774 0.00813797 0.00813819 0.00813796 0.00813803 0.00813787 0.00813782 0.00813791 0.00813795 0.0081379 0.00813808 0.00813776 0.00813795 0.00813798 0.008138 0.00813812 0.00813799 0.00813792 0.008138 0.00813792 0.00813795 0.00813786 0.00813796 0.00813812 0.00813783 0.00813801 0.00813803 0.00813791 0.0081379 0.00813788 0.00813793 0.00813804 0.00813794 0.00813805 0.00813795 0.00813797 0.00813807 0.00813817 0.00813824 0.00813797 0.00813783 0.00813792 0.00813798 0.00813812 0.0081383 0.00813796 0.00813779 0.00813801 0.00813819 0.00813819 0.00813825 0.00813795 0.00813785 0.00813817 0.00813815 0.00813812 0.00813819 0.00813799 0.00813798 0.00813793 0.00813799 0.00813804 0.00813808 0.00813819 0.00813789 0.00814232 0.00814037 0.00814146 0.00814007 0.0081381 0.00813944 0.00814108 0.00813971 0.00814098 0.00813956 0.00813824 0.00813913 0.0081399 0.008139 0.00814015 0.00813925 0.00813838 0.008139 0.00813929 0.00813843 0.00813973 0.00813892 0.00813848 0.00813894 0.00813901 0.00813825 0.00813932 0.00813891 0.00813848 0.00813883 0.00813879 0.00813819 0.00813914 0.00813881 0.00813844 0.00813873 0.00813874 0.00813807 0.008139 0.00813877 0.00813842 0.00813858 0.0081387 0.00813807 0.00813892 0.00813872 0.00813836 0.00813862 0.00813864 0.00813807 0.00813891 0.00813869 0.00813841 0.00813856 0.00813855 0.00813801 0.00813876 0.00813858 0.00813837 0.00813849 0.00813857 0.0081381 0.00813882 0.00813863 0.00813833 0.00813851 0.00813846 0.00813813 0.00813871 0.00813855 0.00813824 0.00813841 0.00813838 0.00813802 0.00813867 0.00813854 0.00813826 0.00813842 0.00813835 0.008138 0.00813863 0.00813826 0.0081384 0.00813851 0.00813834 0.008138 0.00813856 0.00813847 0.00813825 0.00813839 0.00813844 0.00813803 0.0081385 0.0081383 0.00813825 0.00813843 0.00813827 0.00813793 0.00813844 0.00813839 0.00813815 0.0081382 0.00813822 0.00813807 0.00813847 0.00813834 0.00813838 0.00813828 0.00813805 0.00813796 0.00813832 0.00813843 0.00813826 0.00813821 0.0081381 0.00813803 0.00813846 0.00813828 0.00813828 0.00813818 0.00813812 0.00813799 0.00813838 0.00813846 0.00813817 0.0081382 0.00813799 0.00813814 0.00813821 0.00813815 0.00813818 0.00813812 0.00813816 0.00813793 0.00813827 0.00813831 0.00813812 0.00813822 0.008138 0.00813813 0.00813808 0.00813808 0.00813813 0.0081381 0.00813812 0.00813793 0.00813815 0.00813805 0.00813823 0.00813819 0.00813819 0.00813796 0.00813804 0.00813814 0.00813811 0.00813807 0.00813787 0.00813799 0.00813803 0.00813825 0.00813797 0.00813795 0.00813801 0.00813807 0.00813807 0.00813811 0.00813807 0.00813811 0.00813799 0.008138 0.00813809 0.00813803 0.00813789 0.00813805 0.00813802 0.00813819 0.00813815 0.00813798 0.00813796 0.00813812 0.00813788 0.00813806 0.00813821 0.00813796 0.00813792 0.00813825 0.00813812 0.00813804 0.00813802 0.00813795 0.00813812 0.00813809 0.00814526 0.00814348 0.00814641 0.00814424 0.00814207 0.00814324 0.00814296 0.00814189 0.00814453 0.00814272 0.0081411 0.00814198 0.00814163 0.00814066 0.00814248 0.00814172 0.00814048 0.0081412 0.00814085 0.00814014 0.0081414 0.00814099 0.00814019 0.00814068 0.00814045 0.00813971 0.00814082 0.00814054 0.00813992 0.00814039 0.00814024 0.00813954 0.00814054 0.00814028 0.00813983 0.00814008 0.00813991 0.00813935 0.00814025 0.00814006 0.00813966 0.00813989 0.00813988 0.00813922 0.00814003 0.00813984 0.00813952 0.00813964 0.00813967 0.00813917 0.00813981 0.00813979 0.00813944 0.0081396 0.00813959 0.00813899 0.00813974 0.00813953 0.00813925 0.00813943 0.00813943 0.00813904 0.00813953 0.00813944 0.00813924 0.00813949 0.00813927 0.00813891 0.00813955 0.00813933 0.00813896 0.0081393 0.00813912 0.00813885 0.00813948 0.00813926 0.00813898 0.00813913 0.00813897 0.00813875 0.00813919 0.00813906 0.00813898 0.00813908 0.00813895 0.00813872 0.00813908 0.00813897 0.00813892 0.00813895 0.00813878 0.00813863 0.00813895 0.00813898 0.00813875 0.0081388 0.00813871 0.00813854 0.00813892 0.00813882 0.00813867 0.0081388 0.00813857 0.00813842 0.0081388 0.00813874 0.00813851 0.00813854 0.00813865 0.00813836 0.00813862 0.00813857 0.00813835 0.00813856 0.00813847 0.00813836 0.00813863 0.00813862 0.00813836 0.00813837 0.00813844 0.00813822 0.00813837 0.00813853 0.00813826 0.00813842 0.00813824 0.00813813 0.00813858 0.00813847 0.00813844 0.00813837 0.00813821 0.00813818 0.00813822 0.00813831 0.00813825 0.00813837 0.00813811 0.00813837 0.00813814 0.00813819 0.0081385 0.00813838 0.00813824 0.00813824 0.00813811 0.00813809 0.00813826 0.00813837 0.00813805 0.00813811 0.00813825 0.00813838 0.00813824 0.00813798 0.00813834 0.00813804 0.00813814 0.00813824 0.00813806 0.00813794 0.0081381 0.00813805 0.00813803 0.00813818 0.00813793 0.00813829 0.00813799 0.008138 0.00813792 0.00813809 0.008138 0.0081381 0.00813793 0.00813822 0.00813802 0.00813819 0.00813797 0.008138 0.00813807 0.00813822 0.00813792 0.00813811 0.00813801 0.00813817 0.00813803 0.00813812 0.00813797 0.00813781 0.00813818 0.00813798 0.00814787 0.00814631 0.00815201 0.00814869 0.00814583 0.00814694 0.00814428 0.00814363 0.00814705 0.00814582 0.00814365 0.0081447 0.00814295 0.00814232 0.00814393 0.00814397 0.00814243 0.00814315 0.00814238 0.00814165 0.00814276 0.00814282 0.00814171 0.00814232 0.00814187 0.00814119 0.00814211 0.00814199 0.0081413 0.00814174 0.00814156 0.00814093 0.00814184 0.00814151 0.00814103 0.00814142 0.00814123 0.00814065 0.00814153 0.00814123 0.00814079 0.00814117 0.00814093 0.00814042 0.00814117 0.00814096 0.00814062 0.00814085 0.00814074 0.00814019 0.00814098 0.00814075 0.00814048 0.00814066 0.00814058 0.00813999 0.00814072 0.00814059 0.00814028 0.00814041 0.00814031 0.0081397 0.00814045 0.00814036 0.00814005 0.00814021 0.00814013 0.00813965 0.00814021 0.00814012 0.00813981 0.00813998 0.00813987 0.00813949 0.00814002 0.00813987 0.00813967 0.00813981 0.00813968 0.0081394 0.00813974 0.00813969 0.00813961 0.00813974 0.00813941 0.00813919 0.00813958 0.00813962 0.00813948 0.00813952 0.00813932 0.008139 0.00813938 0.00813952 0.0081393 0.00813939 0.00813934 0.00813891 0.00813939 0.00813934 0.00813905 0.00813915 0.00813909 0.00813879 0.00813924 0.00813918 0.00813888 0.00813913 0.00813887 0.00813879 0.00813907 0.00813896 0.00813893 0.00813883 0.00813872 0.00813864 0.00813881 0.00813891 0.00813884 0.00813891 0.0081387 0.00813852 0.00813861 0.00813881 0.0081386 0.00813861 0.00813843 0.00813858 0.00813868 0.00813857 0.00813859 0.00813861 0.00813823 0.00813849 0.00813845 0.00813849 0.00813854 0.00813834 0.00813838 0.00813814 0.00813836 0.00813859 0.00813834 0.00813838 0.00813831 0.0081383 0.00813818 0.00813848 0.00813838 0.00813829 0.00813817 0.00813815 0.00813811 0.0081383 0.00813831 0.00813822 0.00813805 0.00813801 0.00813816 0.00813816 0.00813825 0.00813828 0.00813802 0.008138 0.00813812 0.00813819 0.00813807 0.00813821 0.008138 0.00813796 0.0081381 0.0081382 0.00813834 0.00813798 0.00813791 0.00813805 0.00813789 0.00813832 0.00813793 0.00813808 0.00813808 0.00813788 0.00813801 0.00813806 0.0081381 0.00813802 0.00813807 0.00813791 0.00813822 0.00813811 0.008138 0.00813801 0.00814986 0.00814832 0.00816118 0.00815365 0.00814895 0.00815079 0.00814489 0.00814477 0.00814492 0.00814776 0.0081453 0.00814652 0.00814437 0.00814362 0.00814404 0.00814533 0.00814391 0.00814446 0.00814386 0.00814306 0.00814397 0.0081441 0.00814313 0.00814362 0.00814337 0.00814263 0.0081436 0.00814328 0.00814275 0.00814304 0.00814302 0.00814228 0.00814314 0.00814295 0.00814233 0.00814257 0.00814269 0.00814185 0.00814275 0.00814238 0.00814197 0.00814221 0.00814222 0.00814162 0.00814229 0.00814209 0.00814169 0.00814195 0.00814188 0.00814124 0.00814204 0.0081417 0.00814143 0.00814158 0.00814142 0.00814099 0.00814157 0.00814148 0.00814118 0.00814127 0.0081412 0.00814073 0.00814129 0.00814114 0.00814101 0.00814102 0.00814089 0.00814056 0.00814075 0.00814092 0.0081406 0.0081406 0.00814067 0.00814025 0.0081407 0.0081406 0.00814029 0.00814048 0.00814026 0.00813998 0.00814037 0.00814031 0.00814017 0.00814041 0.00814006 0.00813974 0.0081401 0.00814005 0.00813984 0.00813988 0.00814 0.00813971 0.00814001 0.00813995 0.00813962 0.00813982 0.00813969 0.00813929 0.00813988 0.0081396 0.00813939 0.00813964 0.00813948 0.00813914 0.00813968 0.00813945 0.00813928 0.00813932 0.00813941 0.00813903 0.00813928 0.00813924 0.00813908 0.00813911 0.00813911 0.00813903 0.008139 0.00813927 0.00813911 0.00813894 0.00813899 0.00813876 0.00813898 0.00813903 0.00813906 0.00813874 0.00813866 0.00813868 0.00813867 0.00813883 0.00813856 0.00813876 0.00813844 0.0081385 0.00813852 0.00813858 0.00813865 0.00813869 0.00813838 0.00813831 0.00813848 0.00813845 0.00813841 0.00813851 0.00813849 0.00813824 0.00813846 0.00813844 0.00813845 0.00813842 0.0081382 0.00813817 0.0081384 0.00813823 0.00813831 0.00813831 0.00813822 0.00813827 0.00813827 0.00813804 0.00813813 0.00813834 0.00813848 0.00813787 0.00813816 0.0081379 0.00813814 0.00813813 0.00813807 0.00813799 0.00813802 0.00813824 0.008138 0.00813791 0.00813824 0.00813806 0.00813782 0.00813811 0.00813801 0.00813797 0.00813802 0.00813802 0.00813788 0.00813804 0.00813794 0.00813816 0.00813807 0.00813807 0.00813808 0.0081378 0.0081378 0.00813773 0.00813077 0.0081257 0.00812323 0.00811842 0.00812811 0.00812478 0.0081321 0.00813107 0.00813018 0.00812786 0.00813048 0.00812906 0.00813276 0.00813165 0.00813253 0.00813035 0.00813131 0.00813087 0.00813286 0.008132 0.00813294 0.00813164 0.00813183 0.00813199 0.00813313 0.00813242 0.00813326 0.00813241 0.00813253 0.00813274 0.00813345 0.00813284 0.00813355 0.00813311 0.008133 0.00813318 0.00813386 0.00813325 0.00813389 0.00813367 0.00813341 0.00813368 0.00813425 0.00813373 0.00813429 0.00813397 0.00813381 0.0081341 0.00813452 0.00813402 0.00813457 0.00813435 0.00813427 0.00813447 0.00813482 0.0081343 0.00813486 0.00813466 0.00813465 0.00813465 0.00813519 0.00813475 0.0081352 0.00813508 0.00813488 0.00813503 0.00813537 0.0081351 0.00813559 0.0081352 0.00813519 0.00813539 0.0081357 0.00813536 0.00813578 0.00813558 0.00813549 0.00813556 0.00813607 0.00813573 0.008136 0.00813583 0.00813575 0.00813587 0.00813606 0.00813593 0.00813623 0.00813609 0.00813599 0.00813606 0.00813623 0.00813615 0.00813639 0.00813623 0.00813636 0.00813636 0.00813658 0.00813637 0.00813658 0.00813643 0.00813665 0.00813652 0.00813665 0.00813662 0.00813672 0.00813679 0.00813674 0.00813653 0.00813684 0.00813681 0.00813679 0.00813702 0.00813685 0.00813714 0.00813704 0.00813702 0.00813728 0.00813707 0.00813714 0.00813706 0.00813746 0.00813712 0.00813713 0.00813712 0.00813732 0.00813708 0.00813731 0.00813725 0.00813736 0.00813743 0.00813756 0.00813735 0.00813744 0.00813727 0.00813745 0.00813751 0.00813738 0.00813739 0.00813772 0.00813761 0.00813773 0.00813758 0.00813747 0.00813767 0.0081376 0.00813779 0.00813778 0.0081377 0.00813764 0.00813778 0.00813773 0.00813774 0.00813796 0.00813778 0.00813775 0.00813784 0.00813788 0.00813774 0.00813797 0.00813776 0.00813786 0.00813784 0.0081379 0.00813792 0.00813807 0.00813769 0.00813815 0.00813784 0.00813804 0.0081379 0.00813808 0.00813825 0.00813802 0.00813795 0.00813808 0.00813779 0.0081381 0.00813801 0.00813776 0.00813791 0.00813805 0.00813808 0.00813791 0.00813809 0.00813795 0.00813809 0.00813812 0.00813808 0.00813808 0.00813815 0.0081382 0.00813819 0.0081336 0.00813138 0.00812776 0.00812691 0.00812684 0.00812781 0.00813391 0.00813309 0.00813028 0.00812997 0.00813113 0.00813108 0.00813399 0.00813339 0.00813279 0.00813205 0.00813262 0.00813267 0.00813432 0.00813363 0.00813409 0.00813325 0.00813343 0.00813362 0.0081345 0.00813389 0.00813474 0.00813397 0.00813396 0.00813421 0.00813479 0.00813416 0.008135 0.00813456 0.00813435 0.00813457 0.00813502 0.00813444 0.00813525 0.0081349 0.00813476 0.00813491 0.0081353 0.00813464 0.00813544 0.0081352 0.00813501 0.00813518 0.00813547 0.00813493 0.00813576 0.00813538 0.00813531 0.00813559 0.00813574 0.00813519 0.00813595 0.00813563 0.00813553 0.00813565 0.00813593 0.00813555 0.00813606 0.00813597 0.00813574 0.00813586 0.0081361 0.00813584 0.00813635 0.00813608 0.00813595 0.00813613 0.00813622 0.00813599 0.00813649 0.00813629 0.00813616 0.00813628 0.00813657 0.00813614 0.00813659 0.00813633 0.00813635 0.00813651 0.00813662 0.00813633 0.00813682 0.0081366 0.00813664 0.00813673 0.00813677 0.00813665 0.00813696 0.00813685 0.00813688 0.0081368 0.00813686 0.00813681 0.00813712 0.00813694 0.00813691 0.00813704 0.00813691 0.00813709 0.00813719 0.00813701 0.00813698 0.00813708 0.00813718 0.00813699 0.00813745 0.00813711 0.00813722 0.00813735 0.00813728 0.0081372 0.00813742 0.00813733 0.00813728 0.00813734 0.00813749 0.00813732 0.00813744 0.00813744 0.00813755 0.00813753 0.00813755 0.00813746 0.0081376 0.00813755 0.00813758 0.00813767 0.00813771 0.00813749 0.00813768 0.00813766 0.00813765 0.00813766 0.00813781 0.00813759 0.00813779 0.0081375 0.0081378 0.00813787 0.0081378 0.00813769 0.00813794 0.00813792 0.00813771 0.00813774 0.00813776 0.00813797 0.00813804 0.00813796 0.00813803 0.00813771 0.00813772 0.00813783 0.00813795 0.00813789 0.00813791 0.00813796 0.00813788 0.00813804 0.00813807 0.00813802 0.00813806 0.00813796 0.00813798 0.0081378 0.00813791 0.00813789 0.00813798 0.00813808 0.00813805 0.00813777 0.00813808 0.00813809 0.00813807 0.00813799 0.00813803 0.00813799 0.0081381 0.00813834 0.00813797 0.00813796 0.00813818 0.00813799 0.00813818 0.00813817 0.00813806 0.00813824 0.0081364 0.00813433 0.00813227 0.00813155 0.00813029 0.0081318 0.0081364 0.0081353 0.00813353 0.00813303 0.00813267 0.00813346 0.00813599 0.00813524 0.00813484 0.00813434 0.00813421 0.00813467 0.00813585 0.00813516 0.00813573 0.00813519 0.00813495 0.00813533 0.00813595 0.0081353 0.00813618 0.0081357 0.00813537 0.00813568 0.00813606 0.00813541 0.00813639 0.0081359 0.0081358 0.00813606 0.00813617 0.00813561 0.00813651 0.0081362 0.00813605 0.00813618 0.00813635 0.00813578 0.00813665 0.00813637 0.00813623 0.00813634 0.00813651 0.00813602 0.0081368 0.00813655 0.00813634 0.00813649 0.00813665 0.00813615 0.00813684 0.0081366 0.0081365 0.00813667 0.0081367 0.00813637 0.00813695 0.00813671 0.00813658 0.00813678 0.00813671 0.00813651 0.00813719 0.00813688 0.00813667 0.00813694 0.00813685 0.00813669 0.00813727 0.00813705 0.00813694 0.00813713 0.00813714 0.00813682 0.00813735 0.00813718 0.00813703 0.00813704 0.00813729 0.00813696 0.00813729 0.00813719 0.0081372 0.00813719 0.00813726 0.00813696 0.00813744 0.00813724 0.00813735 0.00813738 0.00813734 0.00813708 0.00813742 0.00813736 0.00813733 0.00813755 0.00813733 0.00813728 0.00813767 0.00813755 0.00813736 0.00813754 0.00813747 0.00813753 0.00813764 0.00813747 0.00813755 0.00813762 0.00813751 0.00813745 0.0081378 0.00813773 0.00813765 0.0081376 0.00813763 0.0081375 0.00813793 0.00813769 0.00813774 0.00813779 0.00813769 0.00813762 0.00813796 0.00813767 0.00813779 0.00813781 0.0081377 0.00813772 0.00813775 0.00813775 0.00813797 0.00813766 0.00813783 0.00813778 0.00813778 0.00813795 0.00813767 0.00813772 0.00813784 0.0081378 0.00813801 0.00813785 0.00813785 0.00813794 0.00813792 0.00813797 0.00813805 0.00813774 0.00813783 0.00813795 0.00813775 0.00813807 0.0081379 0.00813783 0.00813785 0.00813781 0.00813803 0.008138 0.00813797 0.00813816 0.00813818 0.00813805 0.00813804 0.00813799 0.00813784 0.00813806 0.00813796 0.00813799 0.00813778 0.00813801 0.00813812 0.008138 0.00813781 0.00813789 0.00813807 0.00813806 0.00813806 0.00813791 0.00813805 0.00813813 0.00813796 0.00813807 0.00813799 0.00813782 0.00813804 0.00813814 0.00813929 0.00813732 0.00813677 0.00813586 0.00813415 0.00813569 0.00813882 0.00813752 0.00813706 0.00813627 0.00813521 0.00813622 0.00813809 0.00813714 0.00813747 0.00813676 0.00813624 0.00813671 0.00813757 0.00813688 0.00813752 0.00813718 0.00813674 0.00813717 0.0081375 0.00813677 0.00813775 0.00813734 0.00813694 0.00813722 0.00813736 0.0081368 0.00813778 0.00813744 0.00813711 0.00813738 0.00813737 0.00813686 0.00813781 0.00813754 0.00813707 0.00813752 0.00813753 0.00813695 0.00813787 0.00813742 0.00813735 0.0081375 0.00813751 0.00813709 0.00813776 0.00813758 0.00813739 0.00813751 0.00813758 0.00813708 0.00813778 0.00813763 0.00813733 0.00813755 0.00813764 0.00813721 0.00813789 0.00813761 0.00813762 0.00813762 0.00813761 0.00813733 0.00813779 0.00813769 0.00813747 0.00813767 0.00813776 0.00813747 0.00813794 0.00813766 0.00813762 0.00813776 0.00813775 0.00813743 0.0081379 0.00813768 0.0081377 0.00813773 0.00813778 0.00813738 0.00813788 0.00813771 0.00813763 0.00813777 0.00813783 0.00813763 0.00813809 0.00813792 0.00813779 0.00813785 0.00813795 0.00813763 0.00813796 0.00813786 0.00813779 0.00813792 0.00813789 0.00813753 0.00813805 0.00813782 0.00813769 0.00813777 0.00813774 0.00813772 0.00813799 0.00813802 0.00813797 0.00813804 0.00813797 0.00813774 0.00813819 0.00813808 0.00813799 0.00813791 0.0081377 0.00813771 0.00813799 0.00813791 0.00813782 0.00813791 0.00813784 0.00813789 0.00813801 0.0081381 0.00813801 0.00813794 0.0081379 0.00813767 0.00813806 0.00813792 0.00813799 0.00813791 0.00813796 0.00813784 0.00813819 0.00813808 0.00813788 0.00813798 0.00813802 0.00813784 0.00813796 0.008138 0.008138 0.00813797 0.00813801 0.00813794 0.00813808 0.00813824 0.00813792 0.00813784 0.00813795 0.00813812 0.00813793 0.0081381 0.00813791 0.00813795 0.00813795 0.00813791 0.0081382 0.008138 0.00813814 0.00813811 0.00813791 0.00813775 0.00813803 0.00813815 0.00813792 0.00813789 0.00813814 0.00813796 0.00813828 0.00813812 0.00813814 0.00813799 0.00813807 0.00813796 0.00813793 0.00813821 0.00813804 0.00813788 0.00813805 0.00813836 0.00813813 0.00813802 0.0081379 0.00813779 0.00814246 0.00814043 0.00814133 0.00814006 0.00813802 0.00813941 0.00814107 0.00813972 0.00814073 0.00813958 0.00813812 0.00813908 0.00813999 0.00813906 0.00814005 0.00813927 0.00813839 0.00813903 0.00813923 0.00813842 0.0081396 0.00813906 0.00813846 0.00813894 0.00813898 0.00813824 0.00813935 0.00813895 0.00813847 0.00813881 0.00813871 0.00813823 0.00813912 0.00813892 0.00813845 0.00813876 0.00813871 0.00813814 0.00813903 0.00813878 0.00813843 0.00813866 0.00813876 0.0081381 0.008139 0.00813873 0.0081384 0.00813869 0.00813852 0.00813811 0.00813889 0.00813858 0.00813837 0.00813852 0.00813864 0.00813803 0.00813881 0.00813857 0.00813841 0.00813844 0.00813849 0.00813812 0.00813874 0.0081386 0.00813841 0.00813852 0.00813842 0.00813811 0.00813871 0.00813851 0.00813841 0.00813849 0.00813843 0.00813807 0.00813865 0.00813854 0.0081384 0.00813832 0.00813841 0.008138 0.00813856 0.00813846 0.00813838 0.00813839 0.00813835 0.00813789 0.00813839 0.00813823 0.00813834 0.00813846 0.0081383 0.00813806 0.00813852 0.00813832 0.00813822 0.00813841 0.0081384 0.00813795 0.00813848 0.0081384 0.00813822 0.00813812 0.00813823 0.00813811 0.00813832 0.00813839 0.00813816 0.00813825 0.00813803 0.00813819 0.0081384 0.00813822 0.00813812 0.00813825 0.00813825 0.00813805 0.00813831 0.00813824 0.00813823 0.00813822 0.00813814 0.0081381 0.00813838 0.00813822 0.00813815 0.00813799 0.0081381 0.00813796 0.00813828 0.00813829 0.008138 0.0081381 0.00813812 0.0081381 0.00813829 0.00813836 0.00813812 0.00813816 0.00813798 0.00813792 0.00813803 0.00813825 0.008138 0.00813831 0.00813803 0.00813795 0.00813834 0.00813803 0.00813815 0.00813806 0.00813799 0.00813795 0.00813812 0.00813806 0.00813799 0.00813798 0.00813806 0.00813793 0.00813811 0.00813817 0.00813781 0.00813802 0.00813798 0.00813812 0.0081381 0.00813816 0.00813799 0.00813814 0.00813793 0.00813799 0.00813817 0.00813806 0.00813786 0.00813793 0.0081378 0.00813809 0.00813811 0.00813795 0.00813801 0.00813809 0.0081379 0.00813788 0.00813795 0.00813805 0.008138 0.00813796 0.00813819 0.00813813 0.00813792 0.00813815 0.00813817 0.00813786 0.00814534 0.0081435 0.00814624 0.00814429 0.00814199 0.00814325 0.00814301 0.00814181 0.00814437 0.00814281 0.00814101 0.00814206 0.00814162 0.00814074 0.00814246 0.00814175 0.00814053 0.00814121 0.00814086 0.00814002 0.00814133 0.00814101 0.00814018 0.0081407 0.00814043 0.00813975 0.00814071 0.00814055 0.00813997 0.00814033 0.0081402 0.00813953 0.00814045 0.00814023 0.00813982 0.0081401 0.00813997 0.00813941 0.0081402 0.00813999 0.00813962 0.00813994 0.00813983 0.00813925 0.00814012 0.00813984 0.00813959 0.00813978 0.00813973 0.00813911 0.00813991 0.00813974 0.00813941 0.00813953 0.00813954 0.00813894 0.00813969 0.00813954 0.00813931 0.00813938 0.00813933 0.00813901 0.00813968 0.00813958 0.00813911 0.00813939 0.00813926 0.00813891 0.00813951 0.00813929 0.00813913 0.00813925 0.00813922 0.00813863 0.00813929 0.00813914 0.008139 0.00813909 0.00813903 0.00813868 0.00813919 0.0081392 0.00813887 0.00813891 0.00813892 0.00813859 0.00813911 0.00813899 0.00813886 0.00813901 0.00813878 0.00813854 0.00813904 0.00813894 0.00813873 0.00813884 0.00813862 0.00813854 0.00813882 0.00813879 0.00813862 0.00813878 0.00813867 0.00813845 0.00813892 0.00813869 0.00813851 0.00813859 0.00813846 0.00813838 0.00813864 0.00813862 0.00813854 0.00813868 0.00813854 0.00813822 0.00813869 0.00813861 0.00813851 0.00813846 0.00813851 0.00813833 0.00813867 0.00813852 0.00813821 0.00813855 0.0081383 0.00813819 0.0081387 0.00813832 0.00813832 0.00813832 0.00813812 0.00813817 0.0081383 0.00813834 0.00813813 0.0081383 0.00813808 0.00813807 0.00813836 0.00813827 0.00813832 0.00813841 0.00813797 0.00813809 0.00813838 0.0081383 0.00813803 0.0081383 0.00813824 0.00813812 0.0081382 0.0081381 0.0081382 0.00813816 0.008138 0.00813815 0.00813812 0.00813825 0.00813804 0.00813808 0.00813802 0.00813783 0.00813815 0.00813813 0.00813809 0.00813801 0.00813809 0.00813806 0.00813774 0.00813797 0.00813805 0.00813801 0.00813814 0.00813785 0.00813807 0.00813818 0.00813789 0.00813796 0.00813812 0.00813813 0.00813795 0.00813819 0.00813822 0.00813801 0.00813799 0.00813773 0.00813797 0.00813798 0.00813792 0.00813831 0.00814795 0.00814635 0.00815188 0.00814886 0.00814575 0.00814715 0.00814434 0.00814354 0.00814696 0.00814577 0.00814352 0.00814476 0.00814297 0.0081422 0.00814398 0.00814389 0.00814243 0.00814324 0.00814231 0.0081416 0.0081426 0.00814272 0.00814177 0.00814235 0.00814189 0.00814116 0.00814217 0.00814198 0.00814142 0.0081418 0.00814156 0.00814086 0.00814181 0.00814162 0.00814109 0.00814144 0.00814132 0.00814066 0.00814145 0.00814123 0.00814088 0.00814108 0.00814101 0.0081404 0.00814117 0.00814094 0.00814063 0.00814089 0.00814067 0.0081402 0.00814098 0.00814072 0.00814049 0.00814049 0.00814051 0.00813998 0.00814071 0.00814059 0.00814022 0.00814033 0.00814035 0.00813997 0.00814053 0.00814036 0.00814001 0.00814007 0.00814008 0.00813978 0.00814034 0.00814024 0.00813994 0.00814 0.00813974 0.00813938 0.00814008 0.00813996 0.00813969 0.00813985 0.00813968 0.0081394 0.0081399 0.00813969 0.0081396 0.00813965 0.00813952 0.00813936 0.00813965 0.00813969 0.00813935 0.00813949 0.00813948 0.00813909 0.00813939 0.00813939 0.0081392 0.00813923 0.00813927 0.00813903 0.00813935 0.00813924 0.00813897 0.00813912 0.00813902 0.0081389 0.00813932 0.00813915 0.00813898 0.00813904 0.00813897 0.00813871 0.00813902 0.00813893 0.00813873 0.00813911 0.00813879 0.00813857 0.00813896 0.00813877 0.00813857 0.00813871 0.00813861 0.00813853 0.00813874 0.0081387 0.00813854 0.00813872 0.0081384 0.00813846 0.00813875 0.00813861 0.00813826 0.00813841 0.00813841 0.00813851 0.00813856 0.00813846 0.00813843 0.00813856 0.00813841 0.00813825 0.0081384 0.00813849 0.00813827 0.00813823 0.00813826 0.00813824 0.00813832 0.00813856 0.00813816 0.00813841 0.00813829 0.0081381 0.0081383 0.00813836 0.0081381 0.00813811 0.00813787 0.00813802 0.00813818 0.00813814 0.00813814 0.00813821 0.00813815 0.00813812 0.00813815 0.00813816 0.00813804 0.00813813 0.00813815 0.00813801 0.00813821 0.00813806 0.00813812 0.00813807 0.00813786 0.008138 0.00813817 0.00813823 0.0081381 0.00813786 0.00813805 0.00813795 0.00813812 0.00813825 0.00813797 0.00813797 0.00813805 0.00813807 0.00813805 0.00813803 0.00813809 0.00813812 0.00814996 0.00814833 0.00816107 0.00815374 0.00814885 0.00815095 0.00814499 0.00814464 0.00814496 0.00814783 0.00814533 0.00814664 0.00814438 0.00814363 0.00814404 0.00814535 0.0081439 0.0081446 0.00814385 0.008143 0.00814402 0.00814406 0.00814324 0.00814364 0.00814346 0.0081426 0.00814357 0.0081433 0.00814269 0.00814307 0.00814302 0.00814227 0.00814315 0.00814277 0.00814235 0.00814263 0.00814257 0.00814178 0.00814266 0.00814238 0.008142 0.00814223 0.00814223 0.00814156 0.00814231 0.00814207 0.00814169 0.00814187 0.00814188 0.00814117 0.00814198 0.00814175 0.00814135 0.00814153 0.00814148 0.00814104 0.00814162 0.00814152 0.00814103 0.0081412 0.00814119 0.00814075 0.00814127 0.00814117 0.00814082 0.00814088 0.00814101 0.00814049 0.00814096 0.00814092 0.00814053 0.00814072 0.00814064 0.00814029 0.00814068 0.00814069 0.00814022 0.0081405 0.00814051 0.00814009 0.00814053 0.00814035 0.00813999 0.00814032 0.00814014 0.00813983 0.00814017 0.00814007 0.0081399 0.00814007 0.00813984 0.00813969 0.00814005 0.00813983 0.00813984 0.00813982 0.00813956 0.00813945 0.00813972 0.00813961 0.0081396 0.00813942 0.00813957 0.00813928 0.00813964 0.00813952 0.00813917 0.00813916 0.00813925 0.00813911 0.00813913 0.00813926 0.0081391 0.00813913 0.00813907 0.00813905 0.00813911 0.00813921 0.00813907 0.00813888 0.00813897 0.00813881 0.00813877 0.00813885 0.0081389 0.00813884 0.00813877 0.00813871 0.00813864 0.00813876 0.00813871 0.0081387 0.00813864 0.00813851 0.00813861 0.00813858 0.00813855 0.00813868 0.00813851 0.00813846 0.0081384 0.00813845 0.00813839 0.0081384 0.00813833 0.0081385 0.00813836 0.00813835 0.00813841 0.00813831 0.00813835 0.00813819 0.00813812 0.00813828 0.00813841 0.00813839 0.00813814 0.0081383 0.00813796 0.00813809 0.0081381 0.00813828 0.00813816 0.00813812 0.00813821 0.00813807 0.00813809 0.00813814 0.00813805 0.00813818 0.00813807 0.00813775 0.00813793 0.00813803 0.00813809 0.00813814 0.00813818 0.00813812 0.00813804 0.00813812 0.00813782 0.00813812 0.00813812 0.00813813 0.00813791 0.00813803 0.00813799 0.00813806 0.00813785 0.00813763 0.00813805 0.00813822 0.0081309 0.00812614 0.00812348 0.00811888 0.00812835 0.00812494 0.00813231 0.00813153 0.0081303 0.00812811 0.00813072 0.00812934 0.00813286 0.00813199 0.00813269 0.00813065 0.00813143 0.00813107 0.00813302 0.00813212 0.00813309 0.00813189 0.00813202 0.00813212 0.00813319 0.00813256 0.00813326 0.00813268 0.0081325 0.00813286 0.00813345 0.00813296 0.00813357 0.00813314 0.00813304 0.00813333 0.00813385 0.00813328 0.00813393 0.00813353 0.00813347 0.00813364 0.00813428 0.00813375 0.00813435 0.00813406 0.00813383 0.00813403 0.00813455 0.00813413 0.00813461 0.00813432 0.00813421 0.00813447 0.00813493 0.00813452 0.00813492 0.00813465 0.00813453 0.00813471 0.0081351 0.00813484 0.00813522 0.00813488 0.00813503 0.00813505 0.00813543 0.00813497 0.00813552 0.00813526 0.00813507 0.0081354 0.00813575 0.00813531 0.00813582 0.00813555 0.00813558 0.00813561 0.00813587 0.00813555 0.00813581 0.00813587 0.00813567 0.00813583 0.00813625 0.00813601 0.00813622 0.00813599 0.00813581 0.00813618 0.00813635 0.00813612 0.00813655 0.00813633 0.00813628 0.00813622 0.0081365 0.00813625 0.00813667 0.00813648 0.00813649 0.0081365 0.00813685 0.00813654 0.00813672 0.00813667 0.00813673 0.00813676 0.00813694 0.00813679 0.00813696 0.00813688 0.00813665 0.00813693 0.00813715 0.00813694 0.00813717 0.00813704 0.00813709 0.00813706 0.00813725 0.00813721 0.00813725 0.00813726 0.0081373 0.00813732 0.00813745 0.00813742 0.00813746 0.0081373 0.00813732 0.00813738 0.00813734 0.00813742 0.00813754 0.0081375 0.00813747 0.00813756 0.00813761 0.00813744 0.00813768 0.0081374 0.00813762 0.00813769 0.00813767 0.0081377 0.00813779 0.00813761 0.00813765 0.00813762 0.00813781 0.00813801 0.00813779 0.0081377 0.00813785 0.00813763 0.00813765 0.008138 0.00813772 0.00813798 0.00813778 0.00813788 0.00813792 0.00813793 0.00813796 0.00813789 0.00813791 0.00813812 0.00813821 0.00813809 0.00813791 0.00813759 0.00813799 0.00813803 0.00813803 0.0081381 0.00813809 0.00813784 0.00813807 0.00813793 0.00813804 0.00813794 0.00813798 0.00813806 0.00813829 0.00813798 0.00813819 0.00813811 0.00813815 0.00813811 0.00813798 0.00813801 0.00813373 0.00813157 0.00812792 0.00812707 0.00812699 0.00812795 0.00813403 0.00813343 0.00813036 0.00813026 0.0081312 0.00813134 0.00813415 0.00813368 0.00813291 0.00813238 0.0081327 0.00813293 0.00813443 0.00813382 0.00813423 0.00813356 0.00813347 0.00813367 0.00813456 0.00813392 0.00813478 0.00813423 0.00813401 0.00813429 0.00813477 0.00813419 0.00813499 0.00813458 0.00813444 0.00813464 0.008135 0.00813455 0.00813522 0.00813492 0.00813471 0.0081349 0.00813535 0.00813472 0.00813542 0.00813518 0.00813504 0.0081353 0.00813547 0.00813504 0.00813565 0.00813537 0.00813532 0.00813545 0.00813566 0.0081353 0.00813593 0.00813561 0.00813565 0.00813565 0.00813597 0.00813557 0.00813609 0.00813588 0.00813572 0.00813589 0.00813607 0.00813581 0.00813627 0.00813598 0.00813597 0.00813612 0.00813628 0.00813612 0.00813642 0.00813628 0.00813624 0.00813626 0.00813649 0.00813604 0.00813662 0.00813647 0.00813637 0.00813649 0.00813678 0.00813635 0.00813669 0.00813645 0.00813664 0.00813666 0.00813694 0.00813657 0.00813677 0.00813673 0.00813679 0.00813678 0.00813694 0.00813668 0.00813699 0.00813699 0.00813684 0.00813696 0.00813704 0.00813694 0.00813719 0.00813692 0.00813711 0.00813724 0.0081371 0.00813722 0.00813723 0.00813712 0.00813718 0.00813721 0.00813719 0.00813728 0.00813744 0.00813724 0.00813734 0.00813731 0.00813737 0.00813723 0.00813758 0.0081374 0.00813743 0.00813743 0.00813755 0.0081375 0.00813762 0.00813739 0.00813754 0.00813738 0.00813762 0.00813769 0.00813769 0.0081377 0.00813759 0.00813772 0.00813779 0.00813767 0.00813776 0.00813769 0.00813765 0.00813763 0.00813763 0.00813788 0.00813776 0.00813783 0.00813783 0.00813773 0.00813775 0.00813782 0.00813789 0.00813769 0.00813797 0.008138 0.00813806 0.00813772 0.008138 0.00813769 0.00813792 0.008138 0.00813791 0.00813797 0.008138 0.00813797 0.00813818 0.00813798 0.00813786 0.00813787 0.00813808 0.008138 0.00813798 0.00813776 0.00813788 0.00813797 0.00813804 0.00813803 0.00813817 0.00813795 0.00813796 0.00813804 0.0081382 0.00813823 0.00813798 0.00813774 0.00813808 0.0081379 0.00813817 0.00813782 0.00813789 0.00813785 0.00813642 0.00813445 0.00813235 0.00813174 0.00813027 0.00813189 0.00813646 0.00813544 0.00813352 0.00813314 0.00813271 0.00813369 0.00813607 0.0081353 0.00813496 0.00813458 0.00813425 0.00813483 0.00813587 0.00813537 0.00813577 0.00813549 0.00813502 0.0081355 0.00813601 0.00813524 0.0081362 0.00813578 0.00813541 0.00813586 0.00813602 0.00813552 0.00813643 0.00813604 0.00813581 0.008136 0.00813631 0.00813567 0.00813652 0.00813626 0.00813598 0.0081362 0.00813635 0.00813583 0.00813667 0.00813637 0.00813625 0.00813634 0.0081365 0.00813589 0.00813672 0.00813655 0.00813638 0.0081365 0.00813663 0.00813631 0.00813673 0.00813668 0.00813651 0.00813674 0.00813671 0.00813626 0.00813709 0.00813672 0.00813665 0.00813681 0.0081368 0.00813654 0.00813718 0.00813691 0.00813682 0.00813681 0.00813697 0.00813654 0.00813709 0.00813707 0.00813693 0.00813709 0.00813714 0.00813679 0.00813726 0.00813706 0.00813705 0.00813716 0.0081371 0.00813682 0.00813734 0.00813714 0.00813726 0.00813715 0.00813746 0.00813697 0.00813732 0.00813725 0.00813738 0.00813734 0.00813738 0.0081372 0.0081374 0.00813755 0.00813747 0.00813741 0.0081374 0.00813724 0.00813759 0.00813746 0.00813749 0.00813733 0.0081374 0.00813732 0.00813763 0.00813768 0.00813753 0.00813766 0.0081377 0.00813739 0.00813768 0.00813762 0.00813747 0.00813755 0.00813763 0.00813766 0.00813771 0.00813772 0.00813778 0.00813773 0.00813754 0.00813763 0.00813783 0.00813784 0.00813753 0.0081376 0.00813773 0.00813774 0.00813783 0.00813775 0.00813769 0.00813795 0.00813787 0.00813761 0.00813793 0.00813793 0.008138 0.00813776 0.00813791 0.00813798 0.00813796 0.00813818 0.00813777 0.00813779 0.00813783 0.00813788 0.00813799 0.00813786 0.00813781 0.00813786 0.00813788 0.00813789 0.00813801 0.00813805 0.00813789 0.00813789 0.00813789 0.00813788 0.00813806 0.00813803 0.00813804 0.00813786 0.00813783 0.00813818 0.00813795 0.00813806 0.00813804 0.00813788 0.00813798 0.00813814 0.00813801 0.00813799 0.0081379 0.00813807 0.00813812 0.00813809 0.00813828 0.00813813 0.00813803 0.00813801 0.00813795 0.00813796 0.00813796 0.00813813 0.00813781 0.0081383 0.00813934 0.0081374 0.00813672 0.00813607 0.00813407 0.00813584 0.0081388 0.0081376 0.008137 0.0081363 0.00813522 0.00813633 0.00813801 0.00813716 0.00813742 0.0081368 0.00813626 0.00813686 0.0081376 0.00813687 0.00813767 0.00813721 0.00813673 0.0081372 0.00813737 0.00813676 0.00813776 0.00813736 0.00813695 0.00813734 0.00813738 0.00813684 0.00813781 0.00813737 0.00813714 0.00813741 0.00813748 0.00813685 0.00813774 0.00813756 0.00813724 0.00813746 0.00813744 0.00813696 0.00813782 0.00813746 0.00813735 0.00813761 0.00813759 0.00813702 0.00813784 0.00813751 0.00813743 0.00813756 0.00813761 0.00813712 0.00813776 0.00813763 0.0081375 0.00813753 0.00813762 0.00813723 0.00813793 0.00813773 0.00813744 0.00813774 0.00813766 0.00813732 0.00813793 0.00813767 0.00813741 0.00813781 0.00813769 0.00813748 0.00813803 0.00813763 0.00813764 0.00813773 0.00813764 0.00813739 0.00813799 0.00813763 0.00813767 0.00813788 0.00813781 0.00813752 0.00813792 0.00813768 0.00813776 0.00813777 0.00813776 0.00813735 0.00813792 0.00813783 0.0081378 0.00813785 0.00813776 0.00813748 0.00813799 0.00813779 0.00813782 0.0081378 0.0081378 0.0081377 0.00813797 0.00813789 0.00813784 0.00813778 0.00813801 0.00813772 0.0081379 0.00813775 0.00813781 0.0081379 0.00813798 0.00813784 0.008138 0.00813783 0.00813798 0.0081379 0.00813807 0.00813776 0.00813803 0.00813781 0.00813783 0.00813793 0.00813796 0.0081379 0.00813806 0.00813788 0.00813776 0.00813799 0.00813778 0.00813789 0.00813818 0.00813786 0.00813804 0.00813791 0.00813799 0.00813772 0.00813805 0.00813792 0.00813788 0.00813787 0.00813798 0.00813791 0.00813799 0.00813794 0.00813803 0.00813799 0.00813807 0.00813784 0.00813797 0.00813792 0.0081381 0.00813789 0.008138 0.00813777 0.00813804 0.00813799 0.00813791 0.00813812 0.00813781 0.00813811 0.00813813 0.00813797 0.00813796 0.00813795 0.00813814 0.00813812 0.00813796 0.00813794 0.008138 0.00813782 0.00813803 0.00813801 0.00813818 0.0081382 0.00813798 0.00813794 0.00813793 0.00813832 0.00813813 0.00813811 0.00813816 0.00813797 0.00813789 0.0081381 0.00813802 0.00813797 0.00813809 0.00813816 0.0081424 0.00814044 0.00814122 0.00814025 0.00813792 0.00813957 0.00814095 0.0081396 0.0081406 0.00813954 0.00813802 0.0081391 0.00813984 0.00813883 0.00814001 0.00813919 0.00813832 0.00813905 0.00813919 0.00813841 0.00813957 0.00813907 0.00813848 0.00813886 0.00813891 0.00813824 0.00813933 0.00813896 0.00813841 0.0081388 0.0081388 0.00813815 0.00813912 0.00813882 0.00813851 0.00813876 0.00813865 0.00813807 0.008139 0.00813872 0.00813851 0.00813865 0.00813863 0.00813814 0.00813888 0.0081387 0.00813845 0.00813864 0.00813861 0.00813804 0.00813885 0.00813868 0.00813836 0.00813864 0.00813857 0.0081381 0.00813893 0.00813858 0.00813845 0.00813852 0.00813855 0.00813814 0.00813874 0.0081386 0.00813834 0.0081385 0.00813849 0.00813803 0.00813864 0.00813851 0.00813833 0.00813845 0.00813851 0.0081381 0.00813861 0.00813858 0.00813825 0.00813839 0.00813842 0.00813819 0.00813868 0.00813839 0.00813824 0.00813846 0.00813834 0.00813803 0.00813853 0.00813843 0.00813832 0.00813843 0.00813827 0.00813796 0.00813846 0.00813836 0.00813819 0.00813832 0.00813838 0.00813812 0.0081386 0.00813835 0.00813826 0.00813836 0.00813818 0.00813807 0.00813856 0.00813842 0.0081382 0.00813833 0.00813829 0.00813793 0.00813836 0.00813838 0.00813835 0.00813829 0.00813825 0.00813804 0.0081383 0.00813828 0.00813815 0.00813804 0.00813812 0.00813794 0.00813826 0.00813831 0.00813828 0.00813827 0.00813826 0.00813797 0.00813838 0.00813829 0.00813803 0.00813811 0.00813803 0.00813814 0.00813793 0.00813823 0.00813802 0.00813818 0.00813823 0.00813793 0.00813816 0.00813811 0.00813825 0.00813807 0.00813807 0.00813801 0.00813803 0.00813818 0.00813819 0.00813826 0.00813797 0.00813801 0.00813816 0.00813807 0.00813804 0.00813809 0.00813813 0.00813799 0.00813812 0.00813808 0.00813806 0.00813811 0.00813816 0.00813805 0.00813788 0.00813786 0.00813815 0.00813808 0.00813813 0.008138 0.00813788 0.00813793 0.00813816 0.00813803 0.00813788 0.00813808 0.00813794 0.00813813 0.00813789 0.00813813 0.00813814 0.0081382 0.00813816 0.00813817 0.00813773 0.00813774 0.00813822 0.00813808 0.00813811 0.008138 0.00813836 0.00813822 0.00814529 0.00814335 0.00814608 0.00814451 0.00814176 0.0081433 0.00814282 0.00814155 0.00814416 0.00814269 0.00814086 0.00814199 0.00814144 0.00814054 0.00814235 0.00814141 0.00814047 0.00814115 0.00814083 0.00813996 0.00814125 0.00814079 0.0081402 0.00814064 0.00814036 0.00813964 0.0081407 0.00814041 0.00813991 0.00814029 0.00814019 0.00813945 0.00814044 0.00814021 0.00813985 0.00814004 0.00813999 0.00813942 0.00814016 0.00814001 0.00813968 0.00813992 0.00813979 0.00813927 0.00814004 0.00813987 0.00813957 0.00813972 0.00813971 0.00813916 0.00813995 0.00813974 0.00813939 0.00813957 0.00813953 0.00813915 0.00813983 0.00813953 0.00813933 0.00813946 0.00813941 0.00813894 0.00813967 0.00813941 0.00813924 0.00813939 0.00813925 0.00813891 0.00813959 0.0081394 0.00813917 0.00813925 0.00813923 0.00813876 0.00813938 0.00813917 0.00813909 0.0081392 0.00813904 0.00813873 0.00813917 0.00813906 0.00813892 0.00813907 0.00813886 0.00813866 0.00813909 0.00813906 0.00813877 0.00813895 0.00813892 0.00813852 0.00813902 0.00813885 0.00813868 0.0081388 0.00813872 0.00813857 0.008139 0.00813889 0.00813861 0.00813872 0.00813855 0.00813855 0.00813875 0.00813875 0.00813844 0.00813864 0.00813858 0.0081382 0.00813875 0.00813857 0.00813861 0.00813862 0.00813849 0.00813844 0.00813836 0.0081385 0.00813846 0.00813832 0.00813848 0.00813826 0.00813847 0.00813856 0.00813837 0.00813849 0.00813831 0.00813825 0.0081383 0.00813842 0.00813831 0.00813843 0.00813811 0.00813817 0.00813824 0.00813818 0.00813833 0.00813827 0.00813822 0.0081381 0.00813812 0.00813821 0.00813824 0.00813822 0.00813819 0.0081382 0.00813828 0.0081383 0.00813834 0.00813818 0.00813806 0.00813803 0.00813821 0.00813826 0.0081379 0.00813802 0.0081381 0.00813801 0.00813808 0.00813813 0.00813834 0.00813813 0.00813829 0.00813785 0.0081381 0.0081381 0.00813823 0.00813812 0.00813799 0.00813804 0.00813808 0.00813815 0.00813818 0.00813799 0.00813797 0.0081381 0.00813807 0.00813819 0.00813797 0.00813786 0.00813795 0.00813793 0.00813792 0.00813811 0.00813814 0.00813803 0.00813795 0.00813786 0.00813804 0.0081381 0.0081382 0.00813794 0.00814785 0.00814601 0.00815169 0.00814889 0.00814544 0.00814705 0.00814404 0.00814322 0.00814676 0.00814569 0.00814333 0.00814464 0.00814284 0.00814197 0.00814382 0.00814352 0.00814233 0.00814319 0.00814227 0.00814146 0.00814267 0.0081425 0.00814175 0.00814227 0.00814186 0.00814116 0.00814211 0.0081419 0.00814134 0.00814169 0.00814157 0.00814078 0.00814179 0.00814148 0.0081411 0.0081413 0.00814129 0.00814053 0.00814143 0.00814129 0.00814083 0.00814109 0.00814104 0.00814043 0.0081412 0.00814091 0.0081406 0.00814084 0.00814079 0.00814019 0.00814099 0.00814068 0.00814038 0.00814056 0.00814046 0.00814009 0.00814059 0.00814049 0.00814019 0.00814045 0.00814037 0.00813983 0.00814053 0.00814028 0.00813993 0.00814028 0.00814003 0.00813974 0.00814032 0.00814006 0.00813983 0.00814007 0.00813987 0.00813954 0.00814004 0.00813988 0.00813961 0.00813981 0.00813972 0.00813934 0.00813989 0.00813974 0.00813955 0.00813977 0.00813945 0.00813928 0.00813964 0.00813948 0.00813938 0.00813955 0.00813941 0.00813898 0.0081395 0.00813947 0.00813922 0.00813934 0.00813917 0.00813906 0.0081393 0.00813928 0.0081392 0.00813925 0.00813895 0.0081389 0.00813912 0.00813908 0.00813887 0.00813909 0.00813884 0.00813884 0.008139 0.0081389 0.00813883 0.00813897 0.00813869 0.00813862 0.00813894 0.00813883 0.00813891 0.00813875 0.00813861 0.00813858 0.0081388 0.00813873 0.00813868 0.0081387 0.00813856 0.00813845 0.00813866 0.00813871 0.00813837 0.00813851 0.00813839 0.00813846 0.00813844 0.00813857 0.00813836 0.00813853 0.00813848 0.00813831 0.0081385 0.00813863 0.00813835 0.00813831 0.00813843 0.00813831 0.00813808 0.00813829 0.00813831 0.00813816 0.00813841 0.00813808 0.00813832 0.00813825 0.00813825 0.00813827 0.00813821 0.00813788 0.00813817 0.00813815 0.00813807 0.00813813 0.00813833 0.00813807 0.00813811 0.00813818 0.00813813 0.00813819 0.00813793 0.0081381 0.00813807 0.00813816 0.00813806 0.00813798 0.00813823 0.00813829 0.00813798 0.00813799 0.00813796 0.00813803 0.00813806 0.00813811 0.00813795 0.00813796 0.00813817 0.00813803 0.00813807 0.00813812 0.00813799 0.00813808 0.00813823 0.00813806 0.0081495 0.00814808 0.00816029 0.00815352 0.00814855 0.00815077 0.00814484 0.00814427 0.00814475 0.00814759 0.00814505 0.00814636 0.0081443 0.00814331 0.00814392 0.00814502 0.00814384 0.00814452 0.00814386 0.00814278 0.00814384 0.00814378 0.00814306 0.00814357 0.00814346 0.00814254 0.00814359 0.00814312 0.00814272 0.00814293 0.00814302 0.00814223 0.0081431 0.00814273 0.00814235 0.00814266 0.00814262 0.00814181 0.00814263 0.00814243 0.00814188 0.00814226 0.00814219 0.00814152 0.0081423 0.00814191 0.00814166 0.00814184 0.00814183 0.00814124 0.0081421 0.00814175 0.00814127 0.00814144 0.00814159 0.00814102 0.00814157 0.00814144 0.00814116 0.00814129 0.00814128 0.00814072 0.00814124 0.00814115 0.00814084 0.00814095 0.00814108 0.00814048 0.00814093 0.0081408 0.00814052 0.00814074 0.00814067 0.00814022 0.00814083 0.00814071 0.0081403 0.00814051 0.0081404 0.00814 0.00814056 0.00814035 0.00814016 0.00814024 0.00814018 0.00813997 0.00814023 0.00814022 0.00813997 0.00814 0.00813982 0.00813965 0.00813992 0.00813991 0.00813957 0.00813984 0.00813967 0.00813932 0.00813984 0.00813967 0.00813939 0.00813961 0.00813942 0.00813924 0.00813949 0.00813939 0.0081392 0.00813941 0.00813932 0.00813898 0.00813932 0.00813939 0.00813909 0.00813933 0.00813913 0.00813899 0.00813913 0.00813905 0.00813878 0.00813906 0.00813892 0.00813889 0.00813892 0.00813869 0.00813873 0.00813898 0.00813883 0.00813865 0.00813871 0.0081388 0.00813855 0.00813888 0.00813852 0.00813846 0.00813865 0.00813862 0.00813842 0.00813871 0.00813858 0.00813842 0.00813853 0.00813839 0.00813836 0.00813862 0.00813851 0.00813816 0.00813851 0.00813856 0.00813838 0.0081385 0.00813828 0.00813803 0.00813824 0.00813826 0.00813819 0.00813836 0.00813815 0.00813805 0.00813799 0.008138 0.00813804 0.00813849 0.00813813 0.00813787 0.00813831 0.00813815 0.00813804 0.00813824 0.00813812 0.00813811 0.00813809 0.00813795 0.00813799 0.00813803 0.00813807 0.00813791 0.00813802 0.00813805 0.00813792 0.008138 0.00813809 0.00813809 0.00813844 0.00813812 0.00813811 0.00813794 0.00813787 0.008138 0.0081381 0.00813813 0.00813788 0.0081381 0.00813144 0.00812695 0.00812384 0.00811967 0.00812875 0.00812579 0.00813274 0.00813206 0.0081308 0.00812903 0.00813116 0.00812996 0.00813315 0.00813229 0.00813312 0.00813151 0.00813167 0.00813154 0.00813316 0.00813242 0.00813332 0.0081324 0.00813218 0.00813236 0.00813333 0.00813271 0.00813337 0.00813299 0.00813265 0.00813297 0.00813356 0.00813308 0.00813373 0.0081334 0.00813309 0.00813342 0.00813389 0.00813342 0.00813401 0.00813375 0.00813343 0.00813376 0.00813425 0.00813369 0.00813434 0.00813401 0.00813381 0.00813421 0.00813445 0.00813414 0.00813469 0.00813429 0.00813427 0.00813446 0.00813481 0.00813448 0.00813491 0.00813468 0.00813463 0.0081347 0.00813511 0.0081347 0.00813519 0.00813497 0.00813487 0.00813508 0.00813551 0.00813509 0.00813542 0.00813522 0.00813517 0.00813544 0.00813577 0.00813535 0.0081357 0.00813539 0.00813554 0.00813546 0.00813582 0.00813564 0.00813584 0.00813577 0.00813576 0.00813573 0.00813616 0.00813584 0.00813614 0.00813601 0.00813597 0.00813615 0.00813634 0.00813613 0.0081364 0.0081362 0.00813616 0.00813609 0.00813656 0.00813644 0.0081365 0.00813648 0.00813626 0.00813643 0.00813673 0.0081366 0.00813687 0.00813673 0.00813659 0.00813666 0.00813688 0.00813685 0.00813701 0.00813687 0.00813698 0.00813688 0.00813713 0.00813689 0.00813709 0.00813712 0.00813707 0.00813695 0.00813728 0.00813712 0.00813719 0.00813723 0.0081373 0.00813725 0.00813724 0.0081373 0.00813738 0.00813729 0.00813762 0.00813739 0.00813734 0.00813747 0.00813756 0.00813743 0.00813741 0.00813744 0.00813767 0.00813748 0.00813752 0.00813742 0.00813769 0.00813766 0.00813768 0.00813769 0.00813781 0.0081377 0.00813765 0.00813786 0.00813776 0.00813782 0.00813784 0.00813768 0.00813777 0.00813778 0.00813778 0.00813769 0.0081377 0.00813792 0.00813793 0.00813784 0.00813793 0.00813777 0.00813782 0.00813778 0.00813801 0.00813798 0.00813774 0.008138 0.00813806 0.00813809 0.00813798 0.00813817 0.00813815 0.00813818 0.00813811 0.00813804 0.00813805 0.00813811 0.00813779 0.00813778 0.00813807 0.00813796 0.00813794 0.00813797 0.00813793 0.008138 0.00813807 0.00813812 0.00813825 0.00813827 0.00813416 0.00813205 0.00812817 0.00812738 0.00812728 0.00812854 0.00813444 0.00813395 0.00813082 0.00813103 0.00813158 0.00813192 0.00813436 0.00813402 0.00813337 0.00813318 0.008133 0.00813329 0.00813449 0.00813398 0.00813451 0.00813405 0.00813375 0.00813401 0.00813468 0.00813406 0.00813489 0.00813455 0.00813418 0.00813445 0.00813488 0.0081343 0.00813511 0.00813476 0.00813444 0.00813473 0.00813505 0.00813452 0.00813532 0.00813497 0.00813474 0.00813506 0.0081353 0.00813475 0.0081355 0.00813521 0.00813495 0.00813533 0.00813553 0.00813506 0.00813576 0.00813533 0.00813526 0.0081355 0.00813564 0.00813539 0.00813584 0.00813558 0.00813562 0.00813569 0.00813589 0.00813553 0.00813605 0.00813587 0.0081358 0.00813601 0.00813608 0.00813573 0.0081362 0.00813596 0.00813596 0.00813617 0.00813631 0.00813599 0.0081365 0.0081362 0.00813624 0.00813636 0.0081366 0.00813616 0.00813674 0.00813642 0.00813645 0.00813646 0.00813656 0.00813645 0.00813676 0.00813661 0.00813656 0.0081368 0.00813677 0.00813669 0.00813696 0.00813674 0.00813677 0.00813674 0.00813703 0.00813672 0.00813699 0.00813683 0.008137 0.00813689 0.00813709 0.00813704 0.00813715 0.00813697 0.00813712 0.00813728 0.00813704 0.0081371 0.0081373 0.00813711 0.00813717 0.00813725 0.00813738 0.00813715 0.00813749 0.00813728 0.00813727 0.00813742 0.00813754 0.00813734 0.00813757 0.00813742 0.00813741 0.00813759 0.00813755 0.00813734 0.00813744 0.0081374 0.00813749 0.00813768 0.00813772 0.00813749 0.00813786 0.00813755 0.00813754 0.00813764 0.00813773 0.00813765 0.00813764 0.00813767 0.00813774 0.00813778 0.00813775 0.00813789 0.00813779 0.00813775 0.00813775 0.00813785 0.00813768 0.00813799 0.008138 0.00813772 0.00813781 0.00813787 0.00813779 0.00813765 0.00813799 0.00813795 0.00813794 0.0081379 0.00813806 0.0081379 0.0081379 0.00813795 0.00813806 0.00813818 0.00813806 0.00813808 0.00813802 0.00813793 0.0081377 0.00813785 0.00813808 0.00813793 0.00813809 0.00813785 0.00813806 0.00813812 0.00813804 0.00813814 0.00813814 0.00813802 0.00813793 0.0081382 0.00813821 0.00813798 0.00813816 0.00813796 0.00813787 0.0081382 0.00813659 0.00813474 0.00813247 0.00813197 0.00813041 0.0081323 0.00813662 0.00813587 0.00813387 0.00813366 0.00813313 0.00813398 0.00813614 0.00813561 0.00813525 0.00813516 0.00813454 0.00813507 0.00813598 0.00813547 0.00813599 0.0081358 0.00813528 0.00813572 0.00813603 0.0081354 0.00813629 0.00813599 0.00813561 0.00813593 0.00813614 0.00813551 0.0081364 0.00813616 0.0081358 0.00813614 0.00813619 0.00813574 0.00813657 0.0081363 0.00813602 0.00813629 0.00813647 0.0081359 0.00813666 0.00813636 0.00813616 0.00813642 0.00813657 0.00813609 0.00813679 0.00813648 0.0081363 0.00813652 0.0081367 0.00813628 0.00813687 0.00813662 0.00813656 0.00813663 0.00813685 0.00813636 0.00813697 0.00813675 0.00813663 0.00813675 0.00813699 0.00813661 0.00813702 0.00813693 0.00813684 0.00813692 0.00813708 0.00813681 0.00813711 0.008137 0.00813693 0.00813698 0.00813712 0.00813677 0.00813728 0.00813703 0.00813687 0.00813713 0.0081372 0.00813693 0.00813734 0.00813717 0.00813707 0.00813717 0.00813738 0.00813718 0.00813741 0.0081373 0.00813733 0.00813744 0.00813736 0.00813711 0.00813741 0.00813733 0.00813736 0.0081374 0.00813762 0.00813717 0.00813762 0.00813728 0.00813739 0.0081377 0.00813766 0.00813737 0.00813762 0.00813746 0.00813753 0.0081375 0.00813773 0.00813747 0.00813769 0.00813772 0.00813751 0.00813769 0.00813764 0.00813763 0.00813771 0.00813766 0.00813774 0.00813765 0.00813776 0.00813753 0.00813776 0.00813768 0.00813794 0.00813778 0.00813775 0.00813759 0.00813791 0.00813787 0.00813775 0.00813783 0.00813793 0.00813781 0.00813794 0.00813798 0.00813794 0.00813764 0.00813766 0.00813778 0.00813791 0.00813793 0.00813788 0.00813775 0.00813784 0.00813801 0.00813804 0.00813794 0.00813785 0.00813796 0.00813804 0.00813795 0.00813785 0.00813766 0.00813795 0.00813793 0.00813804 0.00813798 0.00813795 0.00813772 0.00813807 0.0081381 0.00813791 0.00813798 0.00813806 0.00813818 0.00813801 0.00813792 0.00813794 0.00813823 0.00813811 0.00813802 0.00813789 0.00813791 0.00813803 0.0081382 0.00813807 0.00813809 0.00813813 0.00813787 0.00813803 0.0081381 0.008138 0.0081382 0.00813803 0.00813801 0.00813924 0.00813742 0.00813672 0.0081362 0.00813411 0.00813596 0.00813874 0.00813761 0.00813715 0.00813644 0.00813546 0.00813644 0.00813798 0.00813718 0.00813749 0.00813703 0.00813645 0.00813694 0.00813754 0.00813692 0.00813775 0.00813736 0.00813686 0.00813723 0.00813741 0.00813685 0.00813779 0.00813742 0.00813708 0.00813745 0.0081374 0.00813685 0.00813776 0.0081374 0.00813718 0.0081375 0.0081375 0.00813699 0.00813776 0.00813754 0.00813721 0.00813745 0.00813753 0.008137 0.00813775 0.00813754 0.00813733 0.00813756 0.00813759 0.00813707 0.00813782 0.00813753 0.00813734 0.00813755 0.0081377 0.0081372 0.00813777 0.00813753 0.00813743 0.00813761 0.00813766 0.00813732 0.00813793 0.00813762 0.00813747 0.00813766 0.00813772 0.0081373 0.00813788 0.00813754 0.00813764 0.00813763 0.0081377 0.0081374 0.0081379 0.00813778 0.00813756 0.00813781 0.00813777 0.00813743 0.00813801 0.00813762 0.00813767 0.00813783 0.00813783 0.00813748 0.00813783 0.00813772 0.00813763 0.0081378 0.00813782 0.0081376 0.00813791 0.00813782 0.00813779 0.00813779 0.00813777 0.00813774 0.00813793 0.00813776 0.00813788 0.00813781 0.00813784 0.00813771 0.00813799 0.00813784 0.00813788 0.00813788 0.00813773 0.0081378 0.00813787 0.0081378 0.008138 0.00813792 0.00813788 0.00813776 0.00813803 0.00813787 0.00813783 0.00813817 0.00813789 0.00813777 0.00813819 0.00813788 0.00813796 0.00813801 0.00813789 0.00813782 0.00813806 0.0081379 0.00813799 0.00813808 0.00813802 0.0081378 0.00813795 0.00813783 0.00813786 0.00813801 0.00813801 0.0081378 0.00813802 0.00813798 0.00813801 0.0081381 0.00813792 0.00813799 0.00813802 0.00813791 0.00813789 0.0081381 0.00813792 0.00813793 0.00813811 0.008138 0.00813803 0.00813809 0.00813786 0.00813796 0.00813806 0.00813793 0.00813809 0.00813817 0.00813807 0.00813812 0.00813819 0.0081379 0.00813811 0.00813814 0.00813788 0.00813794 0.0081381 0.00813801 0.00813803 0.0081379 0.00813797 0.00813804 0.00813807 0.00813803 0.00813842 0.00813802 0.00813785 0.00813813 0.00813782 0.00813804 0.00813812 0.0081381 0.00813795 0.00813805 0.00813811 0.00813795 0.00813818 0.00813806 0.00814209 0.00814012 0.00814112 0.00814032 0.00813774 0.00813954 0.0081406 0.00813935 0.00814046 0.00813925 0.0081381 0.00813904 0.00813965 0.00813863 0.00813995 0.00813897 0.00813848 0.00813885 0.00813917 0.00813839 0.00813952 0.00813895 0.00813852 0.00813881 0.0081389 0.0081382 0.00813927 0.00813894 0.00813844 0.00813876 0.00813877 0.00813815 0.00813917 0.00813877 0.00813853 0.0081388 0.00813872 0.00813815 0.00813902 0.0081388 0.00813848 0.00813867 0.00813869 0.00813811 0.00813883 0.00813865 0.00813846 0.00813863 0.00813869 0.00813808 0.00813886 0.00813867 0.00813834 0.00813856 0.00813857 0.00813816 0.00813879 0.00813863 0.00813842 0.00813853 0.0081385 0.00813815 0.0081387 0.00813863 0.0081383 0.0081385 0.0081385 0.00813814 0.0081387 0.00813843 0.00813837 0.00813848 0.00813848 0.00813816 0.00813866 0.00813844 0.00813842 0.00813841 0.00813838 0.00813817 0.00813852 0.00813842 0.00813824 0.0081385 0.0081383 0.00813803 0.0081385 0.00813837 0.00813825 0.00813839 0.00813837 0.00813817 0.00813846 0.00813823 0.00813817 0.0081383 0.00813823 0.00813814 0.00813848 0.00813829 0.00813821 0.00813835 0.00813819 0.0081382 0.0081384 0.00813827 0.00813828 0.00813825 0.0081384 0.0081381 0.00813836 0.00813818 0.00813824 0.00813839 0.0081382 0.00813796 0.00813844 0.00813839 0.0081382 0.00813811 0.00813819 0.0081382 0.00813826 0.00813836 0.00813811 0.00813814 0.00813809 0.00813793 0.00813817 0.00813822 0.00813812 0.00813817 0.00813813 0.00813796 0.00813817 0.0081383 0.00813808 0.008138 0.00813809 0.00813801 0.00813811 0.00813814 0.00813823 0.00813813 0.00813803 0.00813808 0.00813788 0.00813819 0.00813809 0.00813815 0.0081381 0.00813807 0.00813826 0.00813803 0.00813797 0.00813814 0.0081381 0.0081382 0.00813801 0.00813795 0.00813794 0.0081381 0.0081382 0.00813806 0.00813815 0.00813802 0.00813803 0.0081382 0.0081379 0.00813806 0.00813798 0.00813785 0.00813805 0.00813806 0.00813802 0.00813809 0.00813795 0.00813796 0.00813795 0.00813789 0.00813809 0.00813799 0.00813799 0.00813809 0.008138 0.00813801 0.00813813 0.00813797 0.00813787 0.008138 0.00813789 0.00813807 0.00814492 0.00814273 0.00814587 0.00814451 0.00814142 0.00814307 0.00814228 0.00814092 0.00814375 0.00814213 0.00814081 0.00814158 0.00814107 0.00814006 0.00814209 0.00814092 0.00814036 0.00814087 0.00814061 0.00813974 0.00814107 0.00814045 0.00814013 0.00814043 0.00814032 0.00813964 0.00814063 0.00814032 0.00813985 0.00814022 0.00814023 0.00813948 0.00814047 0.00814014 0.00813971 0.00813999 0.00814002 0.00813947 0.0081402 0.00813997 0.00813969 0.0081399 0.00813989 0.00813926 0.00814003 0.00813987 0.00813954 0.0081397 0.00813965 0.00813921 0.00813992 0.00813968 0.00813943 0.00813965 0.00813952 0.0081392 0.00813983 0.00813951 0.00813928 0.00813949 0.00813945 0.00813896 0.00813952 0.00813944 0.00813923 0.00813934 0.00813936 0.00813892 0.00813947 0.00813937 0.00813899 0.00813927 0.00813921 0.00813881 0.00813928 0.00813906 0.00813903 0.00813915 0.0081391 0.0081388 0.0081392 0.00813916 0.00813881 0.00813913 0.00813899 0.00813877 0.00813914 0.0081389 0.00813887 0.00813907 0.00813894 0.00813857 0.00813903 0.00813899 0.00813872 0.0081388 0.00813883 0.00813851 0.00813893 0.00813881 0.00813843 0.00813862 0.0081387 0.0081384 0.00813887 0.00813884 0.00813839 0.00813865 0.00813852 0.00813846 0.00813847 0.00813866 0.00813855 0.00813861 0.00813865 0.00813847 0.00813876 0.00813849 0.00813829 0.00813857 0.0081385 0.00813853 0.00813849 0.00813857 0.00813839 0.00813832 0.00813837 0.0081382 0.00813837 0.00813842 0.00813844 0.00813838 0.00813822 0.00813818 0.0081383 0.00813828 0.00813826 0.00813838 0.00813823 0.00813825 0.00813834 0.00813834 0.00813817 0.00813833 0.00813818 0.00813809 0.00813823 0.00813819 0.00813836 0.00813825 0.00813816 0.0081382 0.00813819 0.0081381 0.0081381 0.00813826 0.00813821 0.00813805 0.00813817 0.00813812 0.00813809 0.00813821 0.00813826 0.00813797 0.00813825 0.00813812 0.00813793 0.00813805 0.00813789 0.00813806 0.00813822 0.00813814 0.00813814 0.00813806 0.00813785 0.00813787 0.00813816 0.00813812 0.00813802 0.00813793 0.00813827 0.0081379 0.00813813 0.00813812 0.00813796 0.0081382 0.00813811 0.00813804 0.00813782 0.008138 0.00813813 0.00813797 0.00814732 0.00814527 0.00815139 0.00814902 0.00814507 0.00814668 0.0081436 0.00814235 0.00814621 0.00814485 0.00814321 0.00814413 0.00814242 0.00814149 0.0081435 0.00814279 0.00814213 0.00814271 0.00814207 0.00814122 0.00814244 0.00814202 0.00814162 0.00814194 0.00814175 0.00814099 0.00814204 0.00814167 0.00814123 0.00814153 0.00814156 0.00814083 0.00814165 0.00814137 0.008141 0.00814121 0.00814132 0.00814068 0.00814145 0.00814115 0.00814086 0.00814092 0.00814098 0.00814037 0.00814107 0.00814092 0.00814065 0.00814086 0.00814075 0.00814027 0.008141 0.00814082 0.0081403 0.00814063 0.00814053 0.00814016 0.0081407 0.00814048 0.00814021 0.0081405 0.00814028 0.00813988 0.00814053 0.00814034 0.00814011 0.0081401 0.00814016 0.00813972 0.00814019 0.00814006 0.00813982 0.00814011 0.00813988 0.00813958 0.00814 0.00813987 0.00813975 0.00813985 0.00813982 0.00813948 0.00813975 0.0081397 0.00813947 0.00813975 0.00813965 0.00813921 0.00813963 0.00813948 0.00813935 0.00813952 0.0081393 0.00813912 0.00813946 0.00813942 0.00813923 0.00813928 0.0081392 0.00813893 0.00813934 0.00813922 0.00813907 0.00813913 0.00813903 0.00813885 0.0081393 0.00813927 0.00813897 0.00813906 0.00813882 0.00813868 0.0081391 0.00813897 0.00813882 0.00813892 0.00813858 0.00813886 0.00813899 0.00813886 0.00813891 0.0081388 0.00813844 0.00813846 0.00813879 0.00813874 0.00813863 0.00813886 0.00813843 0.00813834 0.00813873 0.00813853 0.00813852 0.00813855 0.00813855 0.00813845 0.00813846 0.00813851 0.00813842 0.00813848 0.00813844 0.00813833 0.00813839 0.00813843 0.00813841 0.00813837 0.00813822 0.00813834 0.00813826 0.00813835 0.00813816 0.0081382 0.00813821 0.00813819 0.00813822 0.00813829 0.00813812 0.00813817 0.00813824 0.0081381 0.00813799 0.00813823 0.00813819 0.00813813 0.00813816 0.00813813 0.00813819 0.00813818 0.00813816 0.00813809 0.00813804 0.00813821 0.00813814 0.00813823 0.00813803 0.00813799 0.00813811 0.00813814 0.00813797 0.00813816 0.00813804 0.00813826 0.00813786 0.00813795 0.00813795 0.00813795 0.00813828 0.00813794 0.0081382 0.00813785 0.00813785 0.008138 0.0081382 0.00813805 0.00814881 0.00814725 0.00815883 0.00815312 0.00814816 0.00815026 0.0081444 0.00814351 0.00814425 0.00814687 0.00814478 0.00814582 0.0081439 0.00814286 0.00814371 0.00814438 0.00814347 0.00814416 0.00814371 0.00814261 0.00814371 0.00814328 0.00814295 0.0081433 0.00814328 0.00814245 0.00814334 0.00814291 0.00814251 0.00814284 0.00814287 0.00814212 0.00814292 0.00814257 0.00814233 0.0081425 0.00814258 0.00814185 0.00814259 0.00814237 0.00814191 0.00814217 0.00814229 0.00814151 0.00814237 0.00814202 0.00814164 0.00814185 0.0081419 0.00814134 0.00814194 0.00814173 0.00814132 0.00814154 0.00814166 0.00814108 0.00814171 0.00814145 0.00814107 0.00814131 0.00814131 0.00814084 0.00814136 0.00814107 0.00814085 0.00814106 0.00814088 0.00814049 0.00814111 0.00814083 0.00814066 0.00814081 0.00814067 0.00814026 0.00814066 0.00814063 0.00814044 0.00814042 0.00814038 0.00814 0.00814044 0.00814041 0.00814005 0.00814023 0.00814007 0.00813969 0.00814029 0.00814014 0.00813992 0.00814 0.0081399 0.00813969 0.00813991 0.00813994 0.00813971 0.00813984 0.00813974 0.00813943 0.0081398 0.00813981 0.00813943 0.00813959 0.00813938 0.0081394 0.00813973 0.00813943 0.00813928 0.00813935 0.00813938 0.00813924 0.0081395 0.00813934 0.00813907 0.00813921 0.00813901 0.00813895 0.00813925 0.00813912 0.00813889 0.00813904 0.00813888 0.00813896 0.00813901 0.00813892 0.00813884 0.00813905 0.00813892 0.00813875 0.00813875 0.00813874 0.00813846 0.0081388 0.00813874 0.00813845 0.00813878 0.00813865 0.00813863 0.00813847 0.00813833 0.00813848 0.00813843 0.0081386 0.00813835 0.00813848 0.00813843 0.00813851 0.00813853 0.00813831 0.00813844 0.00813836 0.0081383 0.00813831 0.00813847 0.00813815 0.00813838 0.00813828 0.00813836 0.00813808 0.00813827 0.00813817 0.00813826 0.00813827 0.00813813 0.00813797 0.0081381 0.00813811 0.00813803 0.00813801 0.00813813 0.00813816 0.00813811 0.00813811 0.00813794 0.00813808 0.00813792 0.00813802 0.00813807 0.00813798 0.00813806 0.00813809 0.00813802 0.00813811 0.00813828 0.00813809 0.00813786 0.00813792 0.00813816 0.00813818 0.00813784 0.00813801 0.00813826 0.0081378 0.00813265 0.00812871 0.00812526 0.0081209 0.00812943 0.00812777 0.00813358 0.00813214 0.00813222 0.00813233 0.00813207 0.00813126 0.00813367 0.00813249 0.00813393 0.00813313 0.00813238 0.00813231 0.00813344 0.00813265 0.00813378 0.00813325 0.0081326 0.00813282 0.0081335 0.00813284 0.00813365 0.00813332 0.00813292 0.00813318 0.00813363 0.0081332 0.00813379 0.00813352 0.00813326 0.00813347 0.00813395 0.00813358 0.00813397 0.00813382 0.00813359 0.00813374 0.00813428 0.00813385 0.0081343 0.00813405 0.00813383 0.0081341 0.00813456 0.00813412 0.00813459 0.00813428 0.00813419 0.00813447 0.00813493 0.00813452 0.00813492 0.00813452 0.00813448 0.00813469 0.00813517 0.00813486 0.00813512 0.00813488 0.00813491 0.00813503 0.00813543 0.00813514 0.00813537 0.00813521 0.00813513 0.00813541 0.00813565 0.00813527 0.00813571 0.00813543 0.00813538 0.00813556 0.00813594 0.00813568 0.00813588 0.00813568 0.00813584 0.00813583 0.00813614 0.00813599 0.00813605 0.00813592 0.00813606 0.00813606 0.00813634 0.00813629 0.00813631 0.00813617 0.00813621 0.00813629 0.00813659 0.00813628 0.00813673 0.00813638 0.00813636 0.00813648 0.00813669 0.0081365 0.00813669 0.00813663 0.00813655 0.0081367 0.00813679 0.00813679 0.00813698 0.0081368 0.0081371 0.00813692 0.00813707 0.00813699 0.00813702 0.00813699 0.00813725 0.00813699 0.00813719 0.00813709 0.00813729 0.00813746 0.008137 0.00813719 0.00813733 0.00813715 0.00813746 0.00813731 0.00813724 0.00813723 0.00813742 0.00813743 0.00813743 0.00813747 0.00813753 0.00813743 0.00813759 0.00813765 0.00813757 0.00813749 0.00813744 0.00813766 0.00813768 0.00813772 0.00813783 0.00813756 0.00813745 0.00813752 0.00813767 0.00813794 0.00813785 0.00813754 0.00813786 0.00813779 0.00813786 0.0081378 0.00813766 0.00813782 0.00813804 0.0081379 0.00813796 0.00813791 0.00813796 0.00813798 0.00813788 0.00813779 0.00813802 0.00813772 0.00813798 0.00813806 0.00813783 0.00813777 0.00813791 0.00813804 0.00813801 0.00813804 0.00813811 0.00813789 0.00813824 0.00813815 0.0081379 0.00813777 0.00813794 0.00813798 0.00813787 0.00813796 0.00813789 0.00813786 0.00813818 0.00813807 0.00813472 0.00813274 0.00812894 0.00812688 0.0081278 0.00813004 0.0081349 0.00813475 0.00813243 0.00813406 0.0081328 0.00813303 0.00813475 0.00813441 0.00813436 0.00813489 0.00813387 0.00813402 0.00813481 0.00813425 0.00813498 0.00813484 0.0081342 0.00813441 0.00813485 0.00813432 0.00813513 0.00813481 0.00813443 0.00813462 0.00813499 0.00813445 0.00813515 0.00813488 0.00813458 0.00813488 0.00813514 0.00813471 0.00813533 0.00813506 0.0081348 0.00813512 0.00813533 0.00813498 0.00813545 0.00813522 0.00813503 0.00813526 0.00813555 0.0081352 0.00813565 0.0081354 0.0081352 0.00813551 0.00813576 0.00813549 0.00813586 0.00813554 0.00813547 0.0081357 0.00813599 0.00813562 0.008136 0.0081358 0.00813571 0.00813585 0.00813621 0.00813588 0.00813628 0.00813605 0.00813593 0.00813618 0.00813633 0.0081361 0.00813643 0.00813629 0.00813613 0.00813628 0.00813659 0.00813633 0.0081365 0.00813632 0.00813636 0.00813639 0.00813665 0.0081366 0.00813674 0.00813657 0.00813648 0.00813667 0.00813685 0.00813671 0.00813694 0.00813664 0.00813662 0.00813686 0.00813685 0.00813684 0.00813714 0.00813687 0.0081367 0.0081369 0.00813708 0.00813705 0.00813713 0.00813685 0.00813695 0.00813706 0.00813718 0.00813724 0.00813721 0.00813708 0.00813705 0.00813729 0.00813726 0.00813721 0.00813749 0.00813735 0.00813709 0.00813729 0.00813741 0.00813754 0.00813758 0.00813724 0.00813742 0.00813748 0.00813768 0.00813739 0.00813735 0.00813743 0.00813753 0.00813754 0.00813761 0.00813767 0.00813772 0.00813752 0.00813762 0.00813764 0.00813774 0.00813773 0.00813762 0.00813762 0.00813767 0.00813774 0.00813771 0.00813779 0.00813783 0.00813769 0.00813774 0.00813783 0.00813775 0.00813784 0.0081379 0.00813796 0.00813772 0.00813782 0.00813782 0.00813788 0.00813777 0.00813796 0.00813803 0.00813777 0.00813782 0.00813787 0.00813803 0.00813798 0.00813791 0.00813806 0.00813784 0.00813802 0.00813793 0.00813779 0.0081378 0.00813793 0.00813789 0.00813796 0.00813813 0.00813796 0.00813808 0.008138 0.00813796 0.00813787 0.00813805 0.00813806 0.00813805 0.00813787 0.0081381 0.00813807 0.00813826 0.00813796 0.00813786 0.00813788 0.00813661 0.00813477 0.00813305 0.00813156 0.00813086 0.00813317 0.00813676 0.00813606 0.00813491 0.00813571 0.00813431 0.00813478 0.00813637 0.0081359 0.00813602 0.00813639 0.00813542 0.00813558 0.00813619 0.00813576 0.00813641 0.00813638 0.00813564 0.00813596 0.00813616 0.00813577 0.00813648 0.00813611 0.00813584 0.00813604 0.00813624 0.00813583 0.00813657 0.00813624 0.0081359 0.00813612 0.00813641 0.00813594 0.00813661 0.00813627 0.00813603 0.00813636 0.00813654 0.00813606 0.00813666 0.00813632 0.00813621 0.00813635 0.00813658 0.00813624 0.00813673 0.0081365 0.00813631 0.00813657 0.00813676 0.00813633 0.00813692 0.00813652 0.00813649 0.00813663 0.00813686 0.00813652 0.00813689 0.00813677 0.00813657 0.00813671 0.0081369 0.00813665 0.00813714 0.00813677 0.00813669 0.0081369 0.008137 0.00813671 0.00813714 0.00813693 0.00813679 0.00813701 0.00813722 0.00813697 0.00813716 0.00813693 0.00813704 0.00813715 0.00813718 0.00813702 0.00813741 0.00813725 0.00813712 0.00813712 0.00813736 0.00813714 0.00813739 0.00813728 0.00813721 0.00813722 0.00813743 0.00813735 0.00813757 0.00813739 0.00813728 0.00813741 0.00813741 0.00813735 0.0081376 0.0081374 0.00813751 0.00813745 0.0081376 0.00813746 0.00813755 0.00813765 0.00813749 0.00813744 0.00813757 0.00813754 0.00813774 0.00813747 0.0081375 0.00813762 0.00813763 0.00813764 0.00813776 0.00813771 0.00813746 0.00813769 0.00813756 0.0081377 0.00813778 0.00813758 0.00813782 0.00813773 0.00813793 0.0081378 0.00813792 0.00813775 0.00813768 0.00813778 0.00813792 0.0081378 0.00813795 0.00813783 0.00813775 0.00813781 0.00813814 0.00813779 0.00813798 0.00813786 0.00813777 0.00813783 0.00813798 0.00813773 0.00813792 0.00813801 0.0081378 0.00813783 0.00813781 0.00813784 0.00813791 0.00813795 0.00813805 0.00813814 0.00813793 0.00813809 0.00813801 0.00813785 0.00813804 0.00813807 0.00813804 0.00813795 0.00813787 0.00813798 0.00813811 0.00813788 0.00813793 0.00813801 0.008138 0.00813793 0.00813779 0.00813819 0.00813805 0.00813786 0.00813798 0.00813785 0.00813791 0.00813812 0.008138 0.00813796 0.00813811 0.00813791 0.00813831 0.00813775 0.00813886 0.00813683 0.00813711 0.00813608 0.00813435 0.00813613 0.0081384 0.00813744 0.00813759 0.00813727 0.00813621 0.00813662 0.00813784 0.00813717 0.00813785 0.00813744 0.00813699 0.00813709 0.00813759 0.00813708 0.00813794 0.00813755 0.00813709 0.00813732 0.00813752 0.00813705 0.00813785 0.00813754 0.00813712 0.00813743 0.00813753 0.00813708 0.00813778 0.00813748 0.00813711 0.00813745 0.00813761 0.0081371 0.00813771 0.00813751 0.00813725 0.0081375 0.00813768 0.0081372 0.0081378 0.0081375 0.00813723 0.00813759 0.00813763 0.00813723 0.00813781 0.00813747 0.0081373 0.00813758 0.00813766 0.00813731 0.00813783 0.00813744 0.00813726 0.00813765 0.00813766 0.00813732 0.00813786 0.00813757 0.00813752 0.00813775 0.00813776 0.00813756 0.00813776 0.00813768 0.00813755 0.00813767 0.00813768 0.00813757 0.00813783 0.00813779 0.00813755 0.00813762 0.0081377 0.00813755 0.00813785 0.00813774 0.00813764 0.00813782 0.00813775 0.00813766 0.0081379 0.00813765 0.00813781 0.0081379 0.00813787 0.00813774 0.00813791 0.00813786 0.00813771 0.00813786 0.00813776 0.00813776 0.00813795 0.00813782 0.00813771 0.00813785 0.00813766 0.00813775 0.00813798 0.00813788 0.00813777 0.00813785 0.00813783 0.00813777 0.00813795 0.00813792 0.00813783 0.00813797 0.00813784 0.00813783 0.00813819 0.00813799 0.00813791 0.00813788 0.00813783 0.00813782 0.00813809 0.00813812 0.00813802 0.00813791 0.00813785 0.0081378 0.00813802 0.00813815 0.00813797 0.0081379 0.00813797 0.00813791 0.00813802 0.00813817 0.00813791 0.00813797 0.008138 0.00813793 0.00813789 0.00813797 0.00813807 0.00813795 0.00813799 0.0081377 0.00813817 0.00813819 0.00813791 0.00813802 0.00813793 0.00813797 0.00813812 0.00813789 0.00813803 0.00813788 0.00813785 0.00813798 0.00813782 0.00813798 0.00813791 0.00813812 0.00813796 0.00813798 0.00813809 0.00813794 0.00813801 0.0081381 0.00813803 0.00813831 0.00813783 0.00813786 0.00813804 0.00813801 0.00813807 0.00813811 0.00813822 0.0081379 0.00813799 0.00813799 0.0081379 0.00813789 0.00813811 0.00813803 0.00813814 0.00813799 0.00813826 0.00813809 0.00813809 0.00813806 0.00813801 0.00813808 0.00814116 0.0081389 0.00814136 0.00814062 0.00813795 0.00813909 0.00813988 0.0081386 0.00814029 0.00813881 0.00813835 0.0081386 0.00813922 0.00813844 0.00813958 0.0081387 0.00813849 0.00813863 0.008139 0.0081384 0.0081394 0.00813874 0.00813856 0.00813877 0.00813891 0.00813835 0.00813915 0.0081388 0.00813845 0.00813871 0.0081388 0.00813834 0.00813895 0.00813879 0.00813845 0.0081387 0.00813879 0.00813834 0.00813889 0.00813868 0.00813841 0.00813863 0.00813876 0.0081383 0.00813894 0.00813857 0.00813838 0.00813867 0.00813873 0.00813829 0.00813883 0.00813852 0.00813835 0.00813859 0.00813863 0.0081383 0.00813885 0.00813858 0.00813836 0.00813848 0.00813863 0.00813832 0.0081387 0.00813854 0.00813825 0.00813844 0.00813853 0.00813818 0.00813869 0.00813841 0.00813839 0.00813851 0.00813841 0.00813824 0.00813856 0.00813845 0.00813823 0.00813841 0.00813843 0.00813831 0.00813861 0.00813849 0.00813827 0.00813831 0.00813835 0.00813812 0.0081384 0.00813839 0.00813818 0.00813839 0.00813832 0.00813813 0.00813858 0.00813831 0.00813813 0.0081384 0.00813836 0.00813822 0.00813846 0.0081383 0.00813824 0.00813838 0.00813827 0.00813828 0.00813826 0.00813833 0.00813817 0.00813816 0.00813811 0.00813822 0.0081382 0.00813848 0.0081381 0.00813821 0.00813826 0.0081384 0.00813828 0.00813834 0.00813803 0.00813802 0.00813817 0.00813824 0.00813814 0.00813823 0.00813805 0.00813811 0.00813817 0.00813816 0.00813816 0.00813799 0.00813804 0.00813811 0.00813821 0.00813812 0.00813822 0.00813819 0.00813804 0.00813803 0.00813822 0.00813796 0.0081382 0.00813841 0.00813812 0.0081381 0.00813818 0.00813813 0.00813815 0.00813801 0.00813793 0.00813826 0.00813806 0.00813792 0.00813822 0.0081381 0.00813806 0.00813797 0.00813801 0.00813798 0.00813788 0.00813806 0.00813807 0.0081379 0.00813799 0.00813798 0.00813802 0.00813828 0.00813786 0.00813794 0.00813792 0.00813794 0.00813799 0.00813807 0.00813804 0.00813813 0.00813791 0.00813806 0.00813804 0.00813794 0.00813804 0.00813807 0.00813815 0.00813804 0.0081381 0.00813819 0.00813794 0.00813791 0.00813807 0.00813803 0.00813811 0.00813815 0.00813834 0.00813802 0.00814362 0.00814109 0.00814592 0.00814527 0.00814139 0.00814201 0.00814129 0.00813986 0.00814291 0.00814044 0.00814054 0.00814058 0.00814055 0.00813963 0.00814132 0.00813994 0.00814016 0.00814033 0.0081404 0.00813963 0.00814073 0.00814004 0.00813988 0.00814018 0.00814028 0.00813963 0.00814043 0.00814009 0.00813977 0.0081401 0.00814009 0.00813963 0.00814028 0.00814 0.00813975 0.00813993 0.00814005 0.00813945 0.00814019 0.00813992 0.00813958 0.00813984 0.00813993 0.00813943 0.00814004 0.00813986 0.00813946 0.00813976 0.00813972 0.00813931 0.00813994 0.00813969 0.00813941 0.00813955 0.00813956 0.00813931 0.00813974 0.0081396 0.00813926 0.00813951 0.00813949 0.00813919 0.00813963 0.00813951 0.00813922 0.00813934 0.00813927 0.00813901 0.00813953 0.00813928 0.00813903 0.00813935 0.00813927 0.00813895 0.00813947 0.00813913 0.00813893 0.00813917 0.00813906 0.00813892 0.00813924 0.00813916 0.00813893 0.00813908 0.00813896 0.00813877 0.00813908 0.00813893 0.00813878 0.00813892 0.00813885 0.0081387 0.00813901 0.00813882 0.00813862 0.00813882 0.00813876 0.0081386 0.00813885 0.00813875 0.00813876 0.00813874 0.00813879 0.00813858 0.00813878 0.00813876 0.00813869 0.00813857 0.00813856 0.00813843 0.00813861 0.0081386 0.0081385 0.00813848 0.00813846 0.00813843 0.00813861 0.00813871 0.00813843 0.00813855 0.00813839 0.00813823 0.00813854 0.00813839 0.00813839 0.0081384 0.00813819 0.00813844 0.00813843 0.00813829 0.00813843 0.00813836 0.00813834 0.00813835 0.00813835 0.00813838 0.00813827 0.00813821 0.00813823 0.00813815 0.00813813 0.00813828 0.00813833 0.00813819 0.00813798 0.00813831 0.00813828 0.00813835 0.00813811 0.00813818 0.00813806 0.00813824 0.00813839 0.00813824 0.00813819 0.00813817 0.00813803 0.00813798 0.00813795 0.00813803 0.00813813 0.00813829 0.00813812 0.00813799 0.00813808 0.00813797 0.00813808 0.00813823 0.00813791 0.0081381 0.00813817 0.00813806 0.00813791 0.00813814 0.00813796 0.00813815 0.00813798 0.00813809 0.00813818 0.00813792 0.00813809 0.00813812 0.00813801 0.00813824 0.00813802 0.00813792 0.00813783 0.00813814 0.00813789 0.00813782 0.00813804 0.00813793 0.00814599 0.00814337 0.00815137 0.00814995 0.00814478 0.00814512 0.00814251 0.00814128 0.00814505 0.00814217 0.00814248 0.00814271 0.00814185 0.00814095 0.00814268 0.00814136 0.00814154 0.00814194 0.00814176 0.00814105 0.00814197 0.00814134 0.00814125 0.00814166 0.00814161 0.00814093 0.00814173 0.00814133 0.00814112 0.00814139 0.00814151 0.00814085 0.00814152 0.0081412 0.00814092 0.00814121 0.00814125 0.00814071 0.00814135 0.0081411 0.0081408 0.00814108 0.00814111 0.00814054 0.00814116 0.00814089 0.00814045 0.00814079 0.00814075 0.00814043 0.00814096 0.00814071 0.00814026 0.0081406 0.00814061 0.00814024 0.00814069 0.00814047 0.00814021 0.00814044 0.00814041 0.00814008 0.0081405 0.00814025 0.00813997 0.00814022 0.0081401 0.00813988 0.0081404 0.00814005 0.00813973 0.00814011 0.00813993 0.0081397 0.0081401 0.00813992 0.00813964 0.00813991 0.00813983 0.00813962 0.00813994 0.00813967 0.00813944 0.00813979 0.00813972 0.00813937 0.00813964 0.00813951 0.00813941 0.00813949 0.00813934 0.0081392 0.00813934 0.00813939 0.0081393 0.00813931 0.00813938 0.00813883 0.00813939 0.00813929 0.00813912 0.00813909 0.00813912 0.00813908 0.00813921 0.00813917 0.00813896 0.00813897 0.00813885 0.00813891 0.00813908 0.00813892 0.00813883 0.00813907 0.0081387 0.0081386 0.00813916 0.00813884 0.00813869 0.00813882 0.00813871 0.00813871 0.00813889 0.00813896 0.00813864 0.00813866 0.00813866 0.0081387 0.00813871 0.00813852 0.0081384 0.00813852 0.00813848 0.00813876 0.00813859 0.00813857 0.00813844 0.00813841 0.00813842 0.00813829 0.00813818 0.00813844 0.00813833 0.00813858 0.00813827 0.00813841 0.00813845 0.00813838 0.00813826 0.00813831 0.00813835 0.00813829 0.00813831 0.00813824 0.00813812 0.00813829 0.00813811 0.00813839 0.00813819 0.00813799 0.0081382 0.00813821 0.00813819 0.00813819 0.00813819 0.00813813 0.00813823 0.00813817 0.00813808 0.00813823 0.00813793 0.00813811 0.00813825 0.00813811 0.00813802 0.00813805 0.00813793 0.00813791 0.00813819 0.008138 0.00813815 0.00813793 0.0081381 0.00813814 0.00813785 0.00813799 0.0081382 0.00813797 0.00813806 0.00813791 0.00813788 0.00813793 0.00814798 0.00814598 0.00815688 0.00815375 0.00814745 0.00814863 0.00814376 0.00814254 0.00814363 0.00814401 0.00814394 0.00814458 0.00814343 0.00814242 0.00814323 0.00814287 0.00814296 0.00814333 0.00814332 0.00814239 0.00814335 0.00814274 0.00814265 0.00814292 0.00814311 0.00814232 0.00814319 0.00814271 0.00814234 0.00814267 0.00814277 0.00814215 0.00814291 0.00814259 0.00814218 0.00814243 0.00814249 0.00814185 0.0081426 0.00814217 0.00814189 0.00814211 0.00814218 0.00814167 0.00814225 0.00814199 0.00814173 0.00814185 0.00814195 0.0081413 0.00814204 0.00814176 0.00814132 0.00814163 0.00814152 0.00814108 0.00814157 0.00814147 0.00814118 0.00814134 0.00814132 0.00814082 0.00814135 0.00814128 0.0081408 0.008141 0.00814105 0.00814059 0.00814119 0.00814101 0.0081404 0.00814077 0.00814078 0.00814039 0.00814083 0.00814062 0.0081404 0.00814055 0.00814039 0.0081402 0.00814045 0.00814048 0.00814009 0.00814016 0.00814012 0.00813987 0.00814016 0.00814018 0.00814003 0.00814005 0.00813999 0.00813967 0.00813995 0.00813998 0.00813961 0.00813972 0.00813992 0.0081395 0.00813988 0.00813963 0.00813945 0.00813954 0.00813938 0.0081394 0.00813966 0.00813956 0.00813936 0.00813932 0.00813935 0.00813917 0.00813925 0.0081393 0.00813892 0.00813939 0.00813938 0.00813907 0.0081392 0.00813878 0.00813899 0.00813902 0.00813891 0.00813888 0.00813897 0.00813905 0.00813878 0.0081391 0.0081387 0.00813859 0.00813901 0.00813868 0.0081386 0.00813866 0.00813857 0.00813871 0.00813876 0.00813887 0.00813864 0.00813851 0.00813826 0.00813839 0.00813861 0.00813866 0.00813863 0.00813844 0.00813834 0.0081383 0.00813849 0.0081385 0.00813837 0.00813842 0.00813816 0.00813818 0.00813847 0.00813869 0.00813848 0.00813836 0.00813821 0.00813817 0.00813817 0.00813824 0.00813819 0.00813831 0.00813817 0.00813833 0.00813838 0.00813837 0.00813809 0.00813802 0.0081378 0.00813809 0.0081379 0.00813825 0.00813796 0.00813796 0.00813795 0.00813815 0.00813822 0.00813829 0.00813813 0.00813809 0.00813803 0.00813828 0.00813793 0.00813801 0.00813781 0.0081382 0.00813802 0.00813801 0.00813819 0.00813796 0.00813807 0.00813822 
SCALARS volume_diff float 1
LOOKUP_TABLE default
0.00780353 0.0078028 0.00779527 0.00779394 0.00780305 0.00780575 0.00780792 0.00780649 0.00780614 0.00780504 0.00780624 0.00780797 0.00780821 0.00780678 0.00780783 0.00780696 0.00780665 0.00780783 0.00780818 0.00780702 0.00780785 0.00780736 0.00780705 0.00780774 0.00780815 0.00780732 0.00780802 0.00780762 0.00780741 0.0078079 0.00780839 0.00780762 0.00780825 0.00780794 0.00780761 0.00780811 0.00780861 0.00780792 0.00780858 0.00780819 0.00780815 0.00780826 0.00780877 0.00780826 0.00780879 0.00780852 0.00780831 0.0078085 0.0078092 0.00780864 0.00780907 0.00780892 0.00780879 0.00780888 0.00780939 0.0078089 0.00780939 0.007809 0.00780901 0.00780922 0.00780965 0.00780919 0.0078097 0.0078094 0.00780935 0.00780942 0.00780989 0.00780957 0.00780981 0.00780966 0.00780977 0.00780978 0.00781023 0.0078099 0.00781007 0.00780994 0.00780992 0.00781003 0.0078104 0.00781006 0.00781037 0.00781029 0.00781019 0.00781023 0.00781054 0.00781034 0.00781067 0.00781043 0.00781063 0.00781037 0.00781085 0.00781059 0.00781084 0.00781078 0.00781077 0.00781072 0.00781092 0.00781101 0.00781103 0.00781098 0.00781101 0.00781089 0.00781111 0.00781104 0.00781128 0.00781119 0.00781105 0.00781123 0.00781121 0.00781119 0.00781133 0.0078113 0.00781118 0.00781131 0.00781159 0.00781151 0.00781148 0.00781148 0.00781145 0.00781115 0.00781173 0.00781151 0.00781169 0.00781171 0.00781154 0.00781161 0.00781184 0.0078117 0.00781175 0.00781175 0.00781161 0.00781199 0.00781187 0.00781188 0.00781192 0.00781195 0.00781197 0.0078119 0.00781204 0.00781204 0.00781193 0.00781182 0.00781193 0.00781214 0.00781211 0.00781205 0.00781227 0.00781212 0.00781228 0.00781223 0.00781237 0.00781226 0.00781234 0.00781203 0.00781235 0.00781218 0.00781233 0.00781235 0.00781214 0.00781224 0.00781224 0.00781223 0.0078123 0.00781251 0.00781245 0.00781221 0.00781236 0.00781244 0.00781256 0.00781231 0.00781255 0.00781232 0.00781231 0.00781242 0.00781254 0.00781267 0.00781238 0.00781241 0.00781253 0.00781257 0.00781237 0.00781248 0.00781265 0.00781255 0.00781233 0.00781247 0.00781264 0.0078126 0.00781259 0.00781219 0.00781239 0.00781262 0.00780667 0.00780649 0.00780091 0.00780174 0.007803 0.00780851 0.0078098 0.0078081 0.00780683 0.0078066 0.00780746 0.00780971 0.0078098 0.00780872 0.00780881 0.00780848 0.00780832 0.00780948 0.0078098 0.00780882 0.0078094 0.00780889 0.00780871 0.0078093 0.00780972 0.00780889 0.00780953 0.00780902 0.00780879 0.0078093 0.00780973 0.00780892 0.00780961 0.00780925 0.007809 0.00780937 0.00780987 0.00780916 0.00780967 0.00780941 0.00780926 0.0078095 0.00781004 0.00780943 0.00780991 0.00780965 0.00780948 0.00780969 0.00781014 0.00780955 0.00781019 0.00780993 0.00780982 0.00780988 0.00781039 0.00780988 0.00781034 0.00781011 0.00780993 0.00781016 0.0078106 0.00781002 0.00781059 0.00781026 0.00781014 0.00781036 0.00781068 0.00781034 0.00781084 0.00781067 0.00781031 0.00781056 0.00781076 0.0078106 0.00781084 0.00781072 0.00781072 0.0078107 0.00781112 0.00781069 0.00781106 0.00781085 0.00781083 0.00781084 0.00781116 0.00781079 0.00781115 0.00781111 0.00781088 0.00781111 0.00781142 0.00781098 0.00781143 0.00781131 0.00781114 0.00781115 0.00781154 0.00781126 0.00781146 0.00781137 0.00781144 0.00781126 0.0078116 0.00781145 0.00781162 0.00781144 0.00781145 0.00781146 0.00781177 0.00781163 0.00781173 0.00781189 0.00781172 0.00781148 0.00781197 0.00781161 0.00781192 0.00781195 0.0078119 0.00781176 0.00781187 0.00781186 0.00781204 0.00781193 0.00781207 0.00781192 0.0078119 0.00781175 0.00781203 0.00781217 0.00781208 0.00781188 0.00781205 0.00781206 0.00781211 0.00781211 0.00781211 0.00781208 0.00781208 0.00781223 0.00781224 0.00781224 0.0078122 0.00781192 0.00781225 0.0078121 0.00781233 0.00781229 0.0078122 0.00781225 0.00781252 0.00781218 0.00781245 0.00781235 0.00781218 0.00781237 0.00781225 0.00781236 0.00781246 0.00781248 0.00781248 0.00781252 0.00781262 0.00781259 0.00781236 0.00781242 0.0078124 0.00781249 0.00781263 0.00781243 0.00781241 0.00781241 0.00781243 0.00781226 0.00781245 0.00781229 0.00781256 0.00781251 0.00781259 0.00781238 0.00781255 0.00781249 0.00781257 0.00781265 0.00781235 0.00781255 0.00781239 0.00781259 0.00781245 0.00781262 0.00781273 0.0078125 0.00780954 0.00780887 0.00780643 0.0078063 0.00780653 0.00781022 0.00781118 0.00781004 0.00780934 0.00780888 0.0078089 0.00781107 0.00781129 0.00781026 0.00781038 0.00781005 0.0078097 0.00781089 0.0078111 0.00781026 0.00781081 0.00781042 0.00781001 0.00781065 0.00781091 0.0078103 0.00781095 0.00781043 0.00781017 0.00781072 0.00781095 0.00781027 0.00781108 0.00781064 0.00781033 0.00781059 0.00781094 0.00781037 0.00781102 0.00781066 0.00781053 0.0078107 0.00781106 0.00781052 0.00781111 0.0078108 0.0078106 0.00781088 0.00781127 0.00781064 0.00781129 0.00781085 0.0078108 0.00781101 0.00781118 0.00781084 0.00781126 0.00781102 0.00781096 0.00781093 0.00781145 0.00781094 0.00781154 0.00781119 0.00781105 0.00781133 0.00781139 0.0078111 0.00781157 0.00781117 0.00781123 0.00781143 0.00781156 0.00781109 0.00781153 0.00781142 0.00781131 0.00781152 0.00781163 0.00781127 0.00781184 0.0078116 0.00781149 0.00781154 0.00781186 0.00781144 0.00781177 0.0078115 0.00781168 0.00781164 0.00781162 0.0078116 0.00781182 0.00781176 0.00781171 0.00781182 0.00781194 0.00781173 0.00781215 0.00781185 0.00781183 0.00781188 0.00781204 0.00781179 0.00781197 0.00781195 0.0078118 0.00781179 0.00781214 0.00781187 0.00781228 0.00781196 0.00781196 0.00781206 0.00781222 0.00781179 0.00781232 0.00781215 0.00781203 0.00781206 0.00781211 0.00781201 0.00781222 0.00781223 0.007812 0.00781225 0.00781211 0.00781216 0.00781229 0.00781228 0.00781219 0.00781196 0.00781222 0.00781228 0.00781236 0.00781243 0.00781216 0.007812 0.00781252 0.00781225 0.0078126 0.00781234 0.00781213 0.00781226 0.00781218 0.00781219 0.00781248 0.00781231 0.00781241 0.00781236 0.00781233 0.00781236 0.00781254 0.00781252 0.00781228 0.00781229 0.0078124 0.0078124 0.00781239 0.00781226 0.00781236 0.00781226 0.00781261 0.00781239 0.00781226 0.0078125 0.00781253 0.00781233 0.00781254 0.00781233 0.00781245 0.00781267 0.00781255 0.00781231 0.00781235 0.00781248 0.00781254 0.00781259 0.00781236 0.00781228 0.00781285 0.00781237 0.00781231 0.00781259 0.00781253 0.0078124 0.00781265 0.00781244 0.0078125 0.00781264 0.0078124 0.00781249 0.00781235 0.00781136 0.00781165 0.00781042 0.00780988 0.00781182 0.00781259 0.00781183 0.00781204 0.00781103 0.0078108 0.00781216 0.00781243 0.00781182 0.00781221 0.00781154 0.00781123 0.00781209 0.00781232 0.00781172 0.00781228 0.00781171 0.00781142 0.00781198 0.00781229 0.0078116 0.00781231 0.00781183 0.00781149 0.00781183 0.00781214 0.00781169 0.00781231 0.00781186 0.00781169 0.0078119 0.00781226 0.00781163 0.00781226 0.00781189 0.00781169 0.00781194 0.00781226 0.0078116 0.00781218 0.00781201 0.0078117 0.00781194 0.00781207 0.00781168 0.00781237 0.00781195 0.00781182 0.0078121 0.00781221 0.00781177 0.00781237 0.00781213 0.00781185 0.00781208 0.00781226 0.0078119 0.00781223 0.00781205 0.00781199 0.00781203 0.00781234 0.00781187 0.00781238 0.00781211 0.00781191 0.00781212 0.00781223 0.00781186 0.0078124 0.00781215 0.00781214 0.00781221 0.00781229 0.00781203 0.00781245 0.0078122 0.00781198 0.00781225 0.00781213 0.00781197 0.00781236 0.00781237 0.0078122 0.00781202 0.00781222 0.00781209 0.00781241 0.00781239 0.00781215 0.00781222 0.00781245 0.00781217 0.0078124 0.00781233 0.00781219 0.00781219 0.0078125 0.00781192 0.00781246 0.00781231 0.00781226 0.00781236 0.00781263 0.00781218 0.00781252 0.00781228 0.00781225 0.00781211 0.00781265 0.00781244 0.00781255 0.00781242 0.00781221 0.0078121 0.00781242 0.00781233 0.00781261 0.00781236 0.00781242 0.00781242 0.00781254 0.00781249 0.00781231 0.00781254 0.00781249 0.00781223 0.00781243 0.00781238 0.00781219 0.00781244 0.00781231 0.00781231 0.00781241 0.00781241 0.00781225 0.00781245 0.00781248 0.0078125 0.00781261 0.00781263 0.00781261 0.00781228 0.00781244 0.00781247 0.00781241 0.00781235 0.00781251 0.00781244 0.00781243 0.00781243 0.00781242 0.00781235 0.00781246 0.00781248 0.00781245 0.00781243 0.00781245 0.00781242 0.00781254 0.00781256 0.00781258 0.00781273 0.00781235 0.00781245 0.00781258 0.00781253 0.00781276 0.00781229 0.00781247 0.00781248 0.00781242 0.00781244 0.00781252 0.00781275 0.00781257 0.00781227 0.00781248 0.00781262 0.00781263 0.0078125 0.0078126 0.00781263 0.00781234 0.00781247 0.00781263 0.0078124 0.00781516 0.00781377 0.007817 0.00781435 0.00781316 0.00781332 0.00781371 0.00781353 0.00781475 0.00781325 0.00781284 0.00781318 0.00781366 0.00781316 0.00781408 0.00781307 0.00781285 0.0078131 0.00781355 0.00781307 0.00781373 0.00781317 0.00781296 0.00781314 0.00781344 0.00781286 0.00781362 0.00781324 0.00781287 0.00781308 0.00781342 0.00781284 0.00781358 0.00781323 0.00781281 0.00781312 0.00781331 0.00781274 0.00781345 0.00781319 0.00781288 0.00781302 0.0078134 0.0078128 0.0078134 0.00781318 0.00781287 0.00781306 0.00781337 0.00781277 0.00781338 0.00781305 0.00781279 0.00781286 0.00781315 0.00781267 0.00781328 0.00781301 0.00781285 0.0078129 0.00781295 0.00781264 0.00781335 0.00781309 0.00781283 0.00781297 0.00781303 0.00781266 0.00781314 0.00781301 0.0078128 0.00781293 0.00781305 0.00781264 0.00781314 0.00781287 0.00781278 0.00781304 0.00781293 0.00781258 0.0078131 0.00781284 0.00781271 0.00781287 0.0078129 0.00781269 0.00781307 0.00781288 0.00781276 0.00781265 0.00781284 0.00781256 0.00781303 0.00781293 0.00781284 0.00781266 0.00781291 0.00781258 0.00781284 0.00781306 0.00781276 0.00781278 0.00781265 0.00781264 0.00781286 0.00781286 0.00781268 0.00781267 0.00781286 0.00781251 0.0078129 0.00781274 0.00781285 0.00781261 0.00781272 0.0078126 0.00781273 0.00781289 0.00781263 0.00781248 0.00781263 0.00781252 0.00781268 0.00781276 0.00781247 0.00781274 0.00781253 0.00781247 0.00781284 0.00781257 0.00781278 0.00781253 0.00781258 0.00781254 0.00781268 0.00781276 0.00781278 0.00781257 0.00781237 0.00781241 0.00781263 0.00781282 0.00781262 0.00781274 0.00781253 0.00781253 0.00781252 0.00781259 0.00781249 0.00781252 0.00781261 0.00781245 0.00781286 0.00781262 0.00781233 0.0078124 0.00781275 0.00781251 0.00781262 0.00781264 0.00781269 0.00781264 0.00781266 0.00781254 0.00781255 0.00781224 0.00781253 0.00781271 0.00781248 0.00781254 0.00781283 0.00781251 0.00781241 0.00781242 0.00781267 0.00781242 0.00781238 0.00781265 0.00781249 0.00781266 0.0078126 0.0078123 0.00781267 0.00781232 0.00781243 0.00781261 0.00781239 0.00781229 0.00781254 0.00781244 0.00781262 0.00781215 0.00781792 0.00781634 0.00782258 0.0078185 0.00781628 0.007815 0.00781494 0.00781511 0.00781744 0.0078155 0.0078148 0.00781421 0.00781482 0.00781458 0.00781579 0.00781465 0.00781455 0.00781448 0.00781472 0.00781427 0.00781517 0.00781454 0.00781431 0.00781447 0.00781486 0.00781418 0.00781502 0.00781447 0.00781417 0.00781436 0.00781469 0.00781414 0.00781474 0.0078144 0.00781405 0.00781439 0.00781455 0.00781397 0.0078147 0.00781435 0.00781403 0.00781424 0.00781437 0.00781386 0.00781461 0.00781437 0.00781403 0.00781401 0.00781435 0.00781371 0.00781437 0.00781425 0.0078139 0.00781402 0.00781407 0.0078137 0.0078143 0.00781408 0.00781372 0.00781376 0.00781396 0.0078137 0.00781416 0.00781395 0.00781361 0.00781378 0.00781384 0.00781355 0.00781396 0.00781387 0.00781353 0.00781379 0.00781368 0.00781334 0.00781394 0.00781367 0.00781351 0.00781364 0.00781367 0.00781341 0.00781373 0.00781358 0.0078133 0.00781327 0.00781355 0.00781323 0.00781353 0.00781348 0.00781332 0.00781339 0.00781336 0.00781318 0.00781349 0.00781338 0.00781315 0.00781322 0.00781326 0.00781306 0.00781348 0.00781337 0.0078131 0.00781316 0.00781305 0.00781297 0.00781321 0.00781327 0.00781297 0.00781303 0.00781307 0.00781313 0.00781322 0.00781315 0.00781292 0.00781297 0.00781298 0.00781305 0.00781315 0.00781292 0.00781296 0.00781281 0.00781292 0.00781281 0.00781293 0.00781295 0.00781305 0.007813 0.00781262 0.00781296 0.00781291 0.00781292 0.00781298 0.00781291 0.0078126 0.00781281 0.00781274 0.00781275 0.00781277 0.00781274 0.00781268 0.00781261 0.00781266 0.00781286 0.00781262 0.00781276 0.00781277 0.00781259 0.00781277 0.0078125 0.00781274 0.00781271 0.00781276 0.0078126 0.00781254 0.00781283 0.00781264 0.00781262 0.00781265 0.00781229 0.00781256 0.00781274 0.00781247 0.00781234 0.0078128 0.00781259 0.00781261 0.00781268 0.00781263 0.00781269 0.00781232 0.00781272 0.00781272 0.00781267 0.00781242 0.00781245 0.00781253 0.00781249 0.00781268 0.00781248 0.00781268 0.00781242 0.00781235 0.0078124 0.00781254 0.0078127 0.00781262 0.00781244 0.00781244 0.00781251 0.00781238 0.00781254 0.0078124 0.00781241 0.00782066 0.0078186 0.00782905 0.00782284 0.0078194 0.00781669 0.00781625 0.0078166 0.0078194 0.00781773 0.00781685 0.00781551 0.00781613 0.00781596 0.0078171 0.00781619 0.00781614 0.00781559 0.00781601 0.00781568 0.00781654 0.00781603 0.00781574 0.00781572 0.00781602 0.00781545 0.0078163 0.0078158 0.00781561 0.00781571 0.00781604 0.00781528 0.00781609 0.00781571 0.00781543 0.00781563 0.00781578 0.0078151 0.00781583 0.00781556 0.00781515 0.00781547 0.00781542 0.00781499 0.00781562 0.00781542 0.00781506 0.0078153 0.00781537 0.00781478 0.00781543 0.00781513 0.00781497 0.00781492 0.00781512 0.00781464 0.0078151 0.00781497 0.00781465 0.00781476 0.00781503 0.00781447 0.007815 0.00781479 0.00781443 0.00781468 0.00781479 0.00781423 0.00781484 0.00781457 0.00781426 0.00781452 0.00781452 0.0078142 0.00781455 0.00781441 0.00781421 0.00781412 0.00781429 0.00781395 0.00781442 0.00781436 0.00781391 0.00781402 0.00781429 0.00781377 0.00781411 0.00781419 0.00781381 0.00781384 0.00781382 0.00781364 0.00781398 0.00781386 0.00781375 0.00781392 0.00781381 0.00781356 0.00781386 0.0078138 0.00781348 0.00781357 0.00781365 0.00781346 0.0078138 0.00781369 0.00781346 0.00781349 0.00781331 0.0078134 0.0078135 0.00781354 0.00781345 0.00781338 0.00781335 0.00781314 0.00781324 0.00781336 0.00781313 0.00781316 0.00781309 0.00781306 0.00781322 0.00781345 0.0078131 0.00781304 0.00781327 0.00781289 0.00781301 0.00781317 0.00781299 0.00781305 0.00781306 0.00781271 0.00781314 0.00781311 0.00781272 0.00781306 0.00781287 0.00781277 0.00781284 0.00781296 0.00781303 0.00781269 0.00781269 0.00781283 0.007813 0.00781292 0.00781269 0.00781264 0.00781235 0.00781256 0.00781277 0.0078128 0.00781278 0.00781274 0.00781257 0.00781269 0.00781266 0.00781247 0.0078127 0.00781288 0.00781256 0.00781246 0.00781268 0.00781255 0.00781239 0.00781275 0.0078124 0.00781245 0.00781274 0.00781268 0.00781235 0.00781274 0.00781245 0.00781281 0.00781262 0.00781283 0.00781266 0.00781239 0.00781246 0.00781263 0.00781243 0.00781257 0.00781232 0.00781264 0.00781254 0.00781233 0.00781255 0.00781258 0.00781245 0.00781278 0.0078218 0.0078204 0.00783367 0.00782737 0.00782141 0.00781869 0.00781797 0.00781788 0.00781845 0.00781965 0.00781839 0.00781684 0.00781793 0.00781718 0.00781777 0.00781774 0.0078176 0.00781706 0.00781764 0.00781708 0.00781801 0.00781738 0.00781714 0.00781713 0.00781748 0.00781687 0.00781764 0.00781721 0.00781695 0.00781715 0.00781737 0.0078165 0.0078175 0.00781699 0.00781666 0.00781678 0.00781699 0.00781623 0.00781701 0.00781693 0.0078165 0.0078166 0.0078166 0.00781608 0.00781684 0.00781654 0.00781614 0.00781635 0.00781648 0.00781582 0.00781657 0.00781627 0.00781584 0.0078161 0.0078161 0.0078155 0.00781615 0.00781594 0.00781563 0.00781574 0.00781575 0.00781535 0.00781579 0.00781569 0.00781536 0.00781532 0.00781544 0.00781502 0.0078156 0.00781544 0.00781503 0.00781496 0.00781515 0.00781484 0.00781515 0.00781512 0.0078148 0.0078151 0.00781497 0.00781463 0.00781503 0.00781489 0.00781459 0.00781463 0.00781483 0.0078143 0.0078146 0.0078147 0.00781449 0.00781445 0.00781455 0.00781443 0.00781445 0.0078145 0.00781421 0.00781409 0.00781441 0.00781376 0.0078142 0.00781422 0.00781389 0.00781393 0.00781387 0.00781375 0.00781419 0.00781414 0.00781366 0.00781379 0.00781373 0.00781372 0.00781386 0.00781384 0.00781367 0.00781373 0.00781374 0.00781337 0.00781382 0.00781362 0.00781333 0.00781352 0.00781353 0.00781326 0.00781373 0.00781354 0.00781348 0.0078135 0.00781332 0.00781326 0.00781333 0.00781329 0.00781323 0.00781321 0.00781312 0.00781305 0.00781308 0.00781319 0.00781295 0.0078131 0.00781331 0.00781309 0.00781302 0.00781288 0.00781314 0.00781288 0.00781315 0.00781304 0.00781273 0.00781292 0.00781275 0.00781272 0.00781299 0.00781295 0.00781289 0.00781268 0.00781262 0.00781273 0.00781257 0.00781262 0.00781279 0.00781278 0.00781267 0.00781273 0.00781267 0.00781271 0.00781274 0.0078127 0.00781279 0.00781266 0.00781236 0.00781251 0.00781266 0.0078127 0.0078125 0.00781271 0.00781253 0.0078125 0.00781265 0.00781254 0.0078124 0.0078127 0.00781214 0.00781258 0.00781249 0.00781261 0.00781231 0.00781227 0.00781246 0.00781241 0.00781246 0.00781243 0.00781223 0.00781254 0.00780641 0.00780185 0.00779819 0.00779386 0.00780368 0.00780012 0.00780705 0.00780606 0.00780591 0.00780297 0.00780564 0.00780518 0.00780757 0.00780643 0.00780772 0.00780554 0.00780625 0.00780652 0.00780769 0.00780666 0.00780762 0.00780664 0.00780667 0.00780718 0.00780786 0.00780702 0.00780779 0.00780715 0.00780715 0.0078077 0.00780815 0.00780753 0.00780811 0.00780778 0.0078076 0.00780798 0.00780843 0.00780795 0.00780844 0.00780808 0.00780803 0.00780826 0.00780878 0.00780821 0.00780884 0.00780851 0.00780847 0.00780859 0.00780908 0.00780855 0.00780914 0.00780889 0.00780872 0.00780899 0.00780928 0.00780903 0.00780942 0.00780904 0.00780889 0.00780922 0.00780957 0.00780929 0.00780958 0.00780942 0.00780927 0.00780957 0.00781001 0.00780949 0.00780989 0.00780974 0.00780973 0.00780986 0.00781002 0.00780988 0.00781022 0.00781006 0.0078099 0.00781012 0.0078104 0.00781016 0.00781035 0.00781023 0.0078103 0.00781021 0.00781062 0.0078103 0.00781061 0.00781041 0.00781056 0.00781045 0.00781071 0.00781047 0.00781083 0.00781086 0.00781087 0.00781063 0.00781105 0.00781088 0.00781099 0.00781094 0.00781105 0.00781124 0.00781104 0.00781095 0.00781131 0.00781115 0.00781095 0.00781107 0.00781143 0.00781121 0.00781146 0.00781142 0.0078114 0.00781139 0.00781158 0.00781121 0.00781163 0.00781152 0.00781144 0.00781155 0.00781167 0.00781158 0.00781171 0.00781164 0.00781185 0.0078117 0.00781178 0.00781171 0.00781183 0.00781176 0.00781177 0.00781179 0.00781188 0.00781218 0.00781198 0.00781204 0.00781204 0.00781205 0.00781212 0.00781213 0.00781216 0.00781213 0.00781214 0.00781209 0.00781196 0.0078121 0.00781218 0.00781209 0.00781222 0.00781221 0.00781219 0.00781228 0.00781224 0.00781215 0.00781227 0.00781222 0.00781239 0.00781239 0.00781234 0.0078122 0.00781239 0.00781231 0.00781231 0.00781245 0.00781232 0.00781226 0.00781243 0.00781264 0.00781237 0.00781248 0.00781261 0.00781246 0.00781235 0.00781247 0.00781235 0.00781233 0.00781258 0.00781267 0.00781258 0.00781257 0.00781252 0.00781244 0.00781263 0.00781242 0.00781252 0.00781261 0.0078123 0.00781282 0.00781244 0.00781249 0.00781262 0.00781279 0.00780863 0.00780675 0.00780249 0.00780199 0.00780193 0.00780326 0.0078087 0.00780766 0.00780581 0.00780508 0.00780663 0.00780733 0.00780882 0.00780801 0.00780805 0.00780702 0.00780789 0.00780842 0.00780907 0.00780825 0.00780895 0.00780811 0.00780836 0.00780886 0.00780927 0.00780863 0.00780936 0.00780874 0.00780868 0.00780907 0.00780952 0.00780885 0.0078095 0.00780916 0.00780902 0.00780927 0.00780969 0.00780913 0.00780965 0.00780951 0.00780929 0.00780947 0.00780985 0.00780934 0.00780992 0.00780967 0.00780943 0.0078097 0.00781011 0.00780962 0.00781024 0.00780997 0.00780981 0.00780996 0.00781024 0.00780982 0.00781032 0.00781011 0.00781004 0.00781018 0.00781039 0.00780996 0.00781049 0.00781039 0.00781021 0.00781038 0.00781051 0.00781013 0.00781085 0.00781056 0.00781048 0.00781058 0.00781077 0.00781053 0.00781086 0.00781072 0.00781059 0.00781072 0.0078109 0.00781074 0.00781109 0.00781094 0.00781092 0.00781099 0.00781127 0.00781086 0.00781127 0.00781123 0.007811 0.00781104 0.00781123 0.00781098 0.00781148 0.00781115 0.00781125 0.00781114 0.00781151 0.00781129 0.00781165 0.00781149 0.00781128 0.00781153 0.00781148 0.00781138 0.00781177 0.00781152 0.0078114 0.00781161 0.00781162 0.00781148 0.00781167 0.00781159 0.0078116 0.00781165 0.00781185 0.00781161 0.00781196 0.00781184 0.00781181 0.00781174 0.00781195 0.00781191 0.00781196 0.007812 0.00781194 0.00781184 0.00781207 0.00781205 0.00781217 0.00781196 0.00781204 0.00781174 0.0078122 0.00781203 0.00781203 0.00781199 0.00781207 0.00781209 0.00781218 0.00781227 0.00781225 0.00781216 0.00781218 0.00781234 0.00781236 0.0078124 0.00781226 0.00781221 0.00781227 0.00781221 0.00781224 0.0078122 0.00781243 0.00781222 0.00781224 0.0078123 0.00781217 0.00781231 0.00781263 0.00781227 0.00781237 0.00781224 0.00781225 0.00781238 0.00781252 0.00781229 0.00781255 0.00781249 0.00781236 0.00781249 0.0078126 0.00781266 0.00781243 0.00781245 0.00781258 0.00781257 0.00781253 0.00781251 0.00781249 0.00781245 0.0078124 0.00781232 0.00781247 0.00781244 0.00781227 0.00781253 0.00781256 0.00781263 0.00781262 0.00781224 0.00781257 0.0078125 0.00781095 0.00780928 0.007807 0.00780651 0.00780521 0.00780691 0.00781089 0.00780957 0.00780879 0.007808 0.00780821 0.00780918 0.00781065 0.00780965 0.00780998 0.00780912 0.00780932 0.0078101 0.00781076 0.00780991 0.00781051 0.00780983 0.00780971 0.0078103 0.00781078 0.00781 0.00781083 0.00781022 0.00781003 0.00781043 0.00781085 0.00781015 0.00781087 0.00781053 0.00781035 0.0078106 0.00781089 0.00781032 0.00781099 0.00781075 0.00781052 0.00781074 0.00781104 0.00781037 0.00781105 0.00781085 0.00781057 0.00781093 0.00781101 0.00781061 0.00781126 0.00781105 0.00781079 0.00781105 0.00781121 0.00781064 0.00781131 0.00781105 0.00781102 0.00781113 0.00781116 0.00781082 0.00781147 0.00781136 0.00781115 0.00781141 0.00781129 0.0078111 0.00781156 0.0078114 0.00781126 0.00781145 0.00781154 0.00781125 0.0078117 0.00781145 0.00781147 0.00781149 0.00781158 0.00781138 0.0078118 0.00781157 0.00781142 0.00781151 0.00781159 0.0078113 0.00781175 0.00781169 0.00781153 0.00781165 0.00781174 0.00781159 0.00781189 0.00781188 0.00781155 0.00781182 0.00781172 0.00781169 0.00781203 0.00781186 0.00781187 0.00781195 0.00781202 0.00781183 0.00781195 0.00781216 0.00781195 0.00781188 0.00781206 0.00781187 0.007812 0.00781213 0.00781213 0.00781208 0.00781213 0.00781196 0.00781226 0.00781212 0.00781205 0.00781167 0.00781221 0.00781208 0.00781218 0.00781224 0.00781215 0.00781218 0.00781216 0.00781202 0.00781239 0.00781222 0.00781204 0.00781222 0.00781219 0.00781219 0.00781232 0.00781235 0.0078123 0.00781234 0.00781243 0.00781208 0.00781231 0.00781223 0.00781233 0.00781234 0.0078123 0.00781222 0.00781247 0.00781239 0.0078124 0.00781221 0.0078125 0.00781236 0.00781254 0.00781256 0.00781226 0.00781219 0.00781225 0.0078124 0.00781258 0.00781247 0.00781226 0.00781242 0.00781264 0.00781265 0.00781254 0.00781253 0.00781235 0.0078124 0.00781256 0.00781252 0.00781232 0.00781253 0.0078123 0.00781223 0.00781248 0.00781234 0.00781258 0.00781257 0.00781274 0.00781248 0.00781249 0.00781239 0.00781251 0.0078125 0.00781249 0.00781241 0.00781265 0.0078127 0.00781258 0.00781255 0.00781246 0.00781266 0.00781341 0.00781183 0.0078115 0.0078106 0.00780896 0.00781046 0.00781297 0.00781172 0.007812 0.00781092 0.00781037 0.00781123 0.00781242 0.00781151 0.00781221 0.0078112 0.00781097 0.00781165 0.00781221 0.00781139 0.00781233 0.0078115 0.00781136 0.00781178 0.00781218 0.00781149 0.00781228 0.00781174 0.00781139 0.00781187 0.00781204 0.00781152 0.00781224 0.00781186 0.00781152 0.00781191 0.00781211 0.0078115 0.00781225 0.00781192 0.0078117 0.00781203 0.00781214 0.00781144 0.00781226 0.0078119 0.00781182 0.00781194 0.00781207 0.0078116 0.00781228 0.00781204 0.00781171 0.00781214 0.00781212 0.00781163 0.00781237 0.00781202 0.00781192 0.00781202 0.00781218 0.00781179 0.00781245 0.00781214 0.00781192 0.00781221 0.00781206 0.00781183 0.00781234 0.00781222 0.00781194 0.00781223 0.00781221 0.00781186 0.00781248 0.00781221 0.0078121 0.00781226 0.00781219 0.00781202 0.00781235 0.00781228 0.00781208 0.00781223 0.00781221 0.00781207 0.00781243 0.0078122 0.0078123 0.00781218 0.00781248 0.00781205 0.00781245 0.00781235 0.00781219 0.00781216 0.00781237 0.00781222 0.00781239 0.00781236 0.0078122 0.00781235 0.0078123 0.00781211 0.00781255 0.00781225 0.00781239 0.00781235 0.00781243 0.00781207 0.00781245 0.00781226 0.00781237 0.00781233 0.00781221 0.00781221 0.00781257 0.00781246 0.00781235 0.0078125 0.00781235 0.00781224 0.00781227 0.00781233 0.00781254 0.00781243 0.00781246 0.00781244 0.00781241 0.0078125 0.00781241 0.0078123 0.00781248 0.00781239 0.00781244 0.00781256 0.0078126 0.00781248 0.00781237 0.00781215 0.00781236 0.00781254 0.00781254 0.00781261 0.00781222 0.00781254 0.00781254 0.00781248 0.00781246 0.00781249 0.0078126 0.00781215 0.00781267 0.00781258 0.00781239 0.00781255 0.00781251 0.00781241 0.00781251 0.00781242 0.00781236 0.00781237 0.00781264 0.00781244 0.00781235 0.00781249 0.00781255 0.00781253 0.00781265 0.00781231 0.00781257 0.00781261 0.00781246 0.00781228 0.00781234 0.00781256 0.00781243 0.00781261 0.00781255 0.00781246 0.00781272 0.00781266 0.00781256 0.00781248 0.0078124 0.00781247 0.00781241 0.00781243 0.00781255 0.00781262 0.00781262 0.00781255 0.00781605 0.00781454 0.007816 0.00781452 0.00781271 0.00781395 0.0078148 0.0078138 0.00781528 0.00781378 0.00781292 0.00781328 0.00781406 0.00781321 0.00781457 0.00781331 0.007813 0.00781324 0.0078137 0.00781297 0.00781403 0.00781327 0.00781296 0.00781319 0.00781342 0.00781283 0.00781371 0.00781326 0.00781292 0.00781318 0.0078134 0.0078128 0.00781354 0.00781315 0.00781296 0.00781308 0.00781329 0.00781271 0.00781347 0.00781327 0.00781297 0.00781312 0.00781322 0.00781261 0.00781336 0.00781312 0.00781286 0.00781302 0.00781318 0.00781263 0.00781331 0.00781316 0.00781276 0.00781305 0.00781301 0.00781269 0.00781324 0.00781308 0.00781285 0.00781302 0.00781303 0.00781252 0.00781333 0.00781317 0.00781282 0.00781293 0.00781307 0.00781267 0.00781318 0.00781305 0.00781284 0.00781292 0.00781291 0.00781262 0.00781308 0.00781302 0.00781271 0.00781288 0.00781291 0.00781254 0.00781303 0.00781304 0.00781281 0.00781289 0.00781267 0.00781262 0.00781307 0.00781298 0.00781267 0.00781294 0.00781285 0.00781246 0.00781299 0.00781287 0.00781276 0.00781285 0.00781288 0.00781246 0.00781302 0.00781276 0.0078127 0.00781265 0.00781281 0.00781244 0.00781293 0.00781278 0.00781238 0.00781275 0.00781273 0.00781253 0.00781284 0.00781261 0.00781272 0.00781265 0.00781257 0.00781255 0.00781279 0.0078128 0.00781273 0.00781259 0.00781253 0.00781238 0.00781279 0.00781271 0.00781271 0.00781275 0.00781256 0.00781243 0.00781267 0.00781273 0.00781266 0.00781269 0.00781246 0.00781252 0.0078127 0.00781268 0.00781279 0.0078126 0.0078126 0.00781255 0.00781237 0.00781274 0.00781265 0.00781265 0.00781262 0.00781257 0.00781258 0.00781251 0.00781244 0.00781268 0.00781263 0.00781255 0.00781259 0.00781239 0.00781269 0.0078126 0.00781264 0.00781245 0.00781256 0.00781251 0.00781264 0.00781267 0.00781246 0.0078122 0.00781265 0.00781259 0.00781249 0.00781255 0.00781244 0.00781265 0.00781263 0.00781258 0.00781261 0.00781246 0.00781249 0.00781266 0.0078124 0.00781266 0.00781244 0.00781254 0.00781247 0.00781256 0.00781258 0.0078126 0.0078127 0.00781242 0.00781263 0.00781247 0.00781235 0.0078124 0.00781257 0.00781266 0.0078187 0.00781719 0.0078209 0.00781851 0.00781649 0.00781733 0.00781654 0.00781577 0.00781856 0.00781668 0.00781549 0.00781538 0.0078156 0.00781498 0.00781654 0.00781549 0.00781474 0.00781483 0.00781503 0.00781448 0.00781568 0.00781499 0.00781457 0.00781464 0.00781481 0.00781424 0.00781514 0.00781473 0.00781434 0.0078146 0.0078146 0.00781404 0.00781491 0.00781464 0.00781426 0.00781448 0.00781453 0.0078139 0.00781472 0.00781447 0.00781407 0.00781432 0.00781437 0.00781371 0.00781455 0.00781432 0.007814 0.00781419 0.00781433 0.00781363 0.00781443 0.00781414 0.00781389 0.0078142 0.00781394 0.00781362 0.00781423 0.00781413 0.00781368 0.00781386 0.00781398 0.00781353 0.00781419 0.00781388 0.00781364 0.00781388 0.00781372 0.00781339 0.00781395 0.00781381 0.0078135 0.00781372 0.00781371 0.00781331 0.00781389 0.00781365 0.00781364 0.00781361 0.0078136 0.00781322 0.00781369 0.00781359 0.00781344 0.00781365 0.00781335 0.00781324 0.00781355 0.00781353 0.00781326 0.00781339 0.00781331 0.00781311 0.00781348 0.0078134 0.00781316 0.00781335 0.0078132 0.00781306 0.0078133 0.00781318 0.00781318 0.00781319 0.00781332 0.00781297 0.00781339 0.00781325 0.007813 0.00781308 0.00781295 0.00781288 0.00781321 0.00781314 0.00781299 0.0078131 0.00781282 0.00781279 0.007813 0.00781298 0.00781286 0.007813 0.00781282 0.007813 0.00781302 0.00781308 0.00781271 0.00781288 0.00781278 0.00781272 0.00781291 0.00781297 0.00781269 0.00781276 0.00781264 0.00781273 0.00781304 0.00781293 0.00781267 0.00781279 0.00781284 0.00781263 0.00781277 0.00781291 0.00781263 0.00781257 0.0078126 0.00781257 0.00781289 0.00781298 0.00781253 0.00781267 0.00781278 0.00781254 0.00781276 0.00781268 0.00781264 0.00781247 0.00781264 0.00781255 0.00781255 0.0078126 0.0078127 0.00781262 0.0078128 0.00781235 0.00781269 0.00781262 0.00781239 0.0078125 0.00781261 0.00781234 0.00781243 0.00781266 0.00781258 0.00781244 0.00781231 0.00781248 0.00781249 0.00781262 0.00781254 0.00781261 0.00781244 0.00781249 0.00781261 0.0078127 0.00781246 0.0078123 0.0078124 0.00781268 0.00781254 0.00781259 0.00781264 0.00781236 0.00782112 0.00781959 0.00782629 0.00782274 0.00782006 0.00782089 0.00781786 0.00781746 0.00782075 0.00781946 0.00781768 0.00781755 0.00781684 0.00781643 0.00781789 0.00781755 0.00781663 0.00781652 0.00781646 0.00781592 0.00781698 0.00781671 0.00781598 0.00781611 0.00781619 0.00781554 0.00781655 0.00781621 0.00781569 0.00781593 0.00781588 0.0078153 0.00781631 0.00781585 0.00781548 0.00781572 0.00781566 0.00781508 0.00781602 0.00781571 0.00781525 0.00781552 0.00781556 0.0078149 0.00781582 0.00781549 0.00781504 0.00781527 0.00781514 0.00781471 0.00781545 0.00781529 0.00781491 0.00781504 0.00781506 0.0078146 0.00781518 0.00781496 0.00781471 0.00781483 0.0078149 0.00781452 0.00781493 0.00781478 0.00781454 0.00781468 0.00781455 0.0078142 0.00781464 0.00781459 0.00781423 0.00781461 0.00781436 0.00781405 0.00781455 0.00781428 0.00781409 0.0078143 0.00781405 0.00781391 0.00781439 0.00781432 0.00781402 0.0078141 0.00781404 0.00781378 0.00781417 0.00781395 0.00781399 0.00781387 0.0078138 0.00781352 0.00781385 0.00781394 0.00781365 0.00781374 0.00781379 0.00781349 0.0078138 0.00781385 0.0078136 0.00781371 0.00781361 0.00781341 0.00781349 0.00781355 0.00781353 0.00781352 0.00781328 0.0078133 0.00781331 0.00781344 0.00781341 0.00781348 0.00781335 0.00781307 0.00781341 0.00781337 0.00781328 0.00781329 0.00781305 0.00781302 0.00781321 0.00781335 0.00781319 0.00781314 0.00781291 0.00781308 0.00781315 0.0078131 0.00781306 0.00781289 0.00781307 0.00781274 0.00781299 0.00781306 0.00781269 0.00781288 0.00781286 0.00781294 0.00781307 0.0078129 0.00781293 0.00781291 0.00781264 0.0078125 0.00781294 0.00781276 0.00781272 0.00781274 0.00781272 0.00781272 0.00781273 0.00781295 0.00781258 0.00781269 0.00781258 0.00781262 0.00781276 0.00781259 0.00781269 0.0078128 0.00781273 0.00781248 0.00781273 0.00781267 0.00781256 0.00781255 0.00781268 0.0078124 0.00781252 0.00781257 0.00781261 0.00781257 0.00781254 0.00781261 0.00781245 0.00781254 0.00781251 0.0078125 0.00781263 0.00781262 0.00781257 0.00781239 0.00781231 0.00781255 0.00781257 0.00781256 0.0078125 0.00781247 0.00781245 0.00781228 0.00782286 0.00782148 0.00783349 0.00782732 0.00782292 0.00782442 0.0078185 0.00781862 0.00781852 0.00782142 0.00781904 0.00781931 0.00781852 0.00781772 0.00781824 0.00781901 0.0078179 0.00781798 0.00781809 0.00781738 0.00781829 0.0078181 0.00781741 0.0078175 0.0078177 0.00781692 0.00781781 0.00781752 0.00781715 0.00781717 0.00781736 0.00781675 0.00781736 0.00781723 0.00781664 0.00781691 0.00781703 0.00781642 0.00781712 0.00781691 0.00781639 0.0078165 0.00781665 0.00781612 0.0078167 0.00781654 0.00781613 0.00781628 0.00781636 0.00781568 0.00781653 0.00781632 0.00781573 0.00781597 0.00781599 0.00781551 0.00781608 0.00781594 0.00781558 0.00781563 0.00781571 0.00781522 0.00781579 0.00781574 0.00781535 0.00781561 0.00781561 0.0078149 0.00781547 0.00781528 0.00781516 0.0078153 0.00781517 0.00781487 0.00781515 0.00781509 0.00781496 0.00781492 0.00781499 0.0078146 0.00781484 0.00781501 0.00781456 0.00781467 0.00781473 0.00781452 0.00781465 0.00781473 0.00781444 0.0078145 0.00781443 0.00781413 0.00781448 0.00781443 0.00781414 0.00781429 0.00781419 0.00781402 0.00781425 0.00781415 0.00781399 0.00781409 0.00781392 0.00781364 0.00781409 0.00781392 0.00781371 0.00781383 0.00781378 0.0078136 0.00781392 0.00781382 0.00781369 0.00781376 0.00781365 0.00781355 0.00781361 0.00781359 0.00781367 0.00781347 0.00781338 0.0078133 0.00781338 0.00781323 0.00781324 0.00781321 0.00781321 0.00781325 0.00781342 0.00781332 0.0078131 0.00781335 0.00781301 0.007813 0.00781301 0.00781316 0.00781293 0.00781312 0.0078132 0.00781299 0.00781312 0.0078128 0.00781284 0.00781314 0.00781281 0.00781281 0.00781295 0.00781281 0.00781256 0.00781269 0.00781289 0.00781275 0.00781293 0.00781288 0.0078126 0.00781279 0.00781263 0.00781264 0.00781241 0.0078126 0.00781257 0.00781266 0.00781255 0.00781257 0.00781276 0.00781266 0.00781263 0.0078128 0.00781271 0.00781254 0.00781261 0.0078125 0.00781248 0.00781249 0.00781251 0.00781257 0.00781241 0.00781254 0.00781261 0.00781258 0.00781262 0.00781245 0.00781251 0.00781274 0.00781257 0.00781267 0.00781246 0.0078128 0.00781255 0.00781241 0.00781248 0.00781261 0.0078058 0.00780082 0.00779781 0.00779317 0.00780307 0.00779964 0.00780689 0.00780564 0.00780501 0.00780241 0.00780536 0.00780395 0.00780727 0.007806 0.00780748 0.00780495 0.007806 0.00780572 0.00780744 0.00780652 0.00780756 0.0078061 0.00780648 0.00780669 0.0078077 0.007807 0.00780777 0.00780699 0.00780707 0.00780739 0.00780798 0.00780735 0.00780811 0.00780765 0.00780753 0.00780782 0.00780837 0.00780782 0.00780838 0.00780805 0.00780804 0.00780822 0.00780869 0.00780815 0.0078088 0.00780844 0.00780841 0.00780861 0.00780901 0.00780843 0.00780914 0.00780889 0.00780882 0.00780894 0.00780925 0.007809 0.00780927 0.0078091 0.00780906 0.00780929 0.00780968 0.00780926 0.00780975 0.00780943 0.00780937 0.00780951 0.00781003 0.00780949 0.00780982 0.00780971 0.00780969 0.00780982 0.00781002 0.00780982 0.00781019 0.0078099 0.00781001 0.00781 0.00781043 0.00781004 0.00781045 0.00781014 0.00781013 0.00781036 0.00781052 0.00781034 0.00781069 0.00781062 0.00781045 0.00781059 0.00781076 0.0078105 0.00781087 0.00781081 0.0078107 0.00781071 0.00781104 0.00781097 0.0078109 0.00781074 0.00781119 0.0078111 0.00781119 0.00781108 0.00781122 0.00781105 0.00781097 0.00781113 0.0078114 0.00781126 0.0078116 0.00781136 0.00781149 0.00781146 0.0078116 0.00781157 0.00781155 0.00781143 0.00781141 0.0078115 0.00781175 0.00781151 0.00781189 0.00781164 0.00781151 0.00781177 0.00781182 0.00781188 0.00781197 0.00781173 0.00781178 0.00781193 0.00781209 0.00781193 0.00781204 0.00781179 0.00781194 0.00781186 0.00781204 0.00781215 0.00781183 0.00781198 0.00781204 0.00781216 0.00781211 0.00781221 0.00781251 0.00781201 0.00781209 0.00781212 0.00781221 0.00781234 0.00781255 0.00781244 0.00781228 0.00781233 0.00781228 0.0078123 0.00781215 0.00781218 0.00781247 0.00781218 0.00781225 0.00781255 0.0078124 0.00781259 0.00781243 0.00781259 0.00781261 0.00781256 0.00781237 0.00781223 0.00781235 0.00781268 0.00781264 0.0078125 0.00781247 0.00781251 0.00781259 0.00781225 0.00781269 0.0078124 0.00781249 0.00781257 0.00781258 0.00781241 0.0078125 0.00781269 0.00781249 0.00781247 0.00781268 0.00781245 0.00780838 0.00780617 0.00780223 0.00780155 0.00780148 0.00780247 0.00780847 0.0078075 0.00780509 0.00780463 0.00780593 0.00780607 0.00780853 0.00780782 0.00780773 0.00780665 0.00780747 0.00780755 0.00780885 0.00780815 0.00780884 0.00780778 0.00780816 0.00780828 0.00780917 0.00780837 0.00780924 0.00780842 0.00780857 0.0078088 0.00780933 0.00780871 0.00780952 0.00780897 0.00780886 0.00780916 0.00780959 0.00780894 0.00780973 0.00780936 0.0078092 0.00780948 0.00780987 0.00780928 0.00780991 0.00780962 0.00780942 0.00780974 0.00780999 0.00780955 0.00781017 0.00780979 0.00780977 0.00780998 0.00781015 0.00780973 0.0078103 0.00781011 0.00781004 0.00781017 0.00781046 0.00780999 0.00781059 0.00781035 0.00781042 0.00781034 0.00781064 0.00781014 0.00781078 0.00781058 0.00781064 0.00781066 0.00781083 0.00781044 0.00781089 0.0078108 0.00781053 0.00781077 0.00781103 0.00781063 0.00781105 0.00781092 0.00781085 0.00781094 0.00781111 0.0078109 0.00781118 0.00781106 0.00781108 0.00781112 0.00781119 0.00781099 0.00781152 0.00781134 0.00781124 0.00781138 0.00781144 0.00781111 0.00781152 0.00781138 0.00781147 0.00781148 0.00781159 0.00781134 0.00781174 0.00781166 0.00781152 0.00781165 0.0078116 0.00781159 0.00781189 0.00781165 0.00781157 0.00781181 0.00781178 0.00781182 0.00781187 0.00781184 0.00781201 0.00781188 0.00781189 0.0078118 0.00781211 0.0078119 0.00781193 0.00781198 0.00781195 0.00781198 0.00781208 0.0078121 0.00781202 0.00781204 0.00781184 0.00781183 0.00781205 0.00781202 0.00781222 0.00781206 0.00781222 0.00781201 0.00781208 0.00781224 0.00781229 0.00781235 0.00781204 0.00781219 0.0078124 0.00781214 0.00781204 0.00781237 0.00781233 0.00781246 0.00781229 0.00781225 0.00781223 0.00781219 0.00781241 0.00781226 0.00781241 0.00781247 0.00781239 0.00781224 0.00781237 0.00781253 0.00781265 0.00781268 0.00781224 0.00781227 0.00781246 0.00781233 0.00781268 0.00781261 0.00781238 0.00781227 0.00781235 0.00781238 0.00781246 0.00781246 0.00781247 0.00781234 0.00781244 0.00781235 0.00781254 0.00781243 0.00781258 0.00781265 0.00781261 0.00781244 0.00781262 0.00781246 0.00781276 0.00781283 0.00781083 0.00780893 0.0078068 0.00780618 0.00780488 0.00780627 0.00781092 0.00780953 0.00780827 0.00780764 0.00780754 0.00780829 0.00781044 0.00780947 0.00780967 0.00780883 0.00780901 0.00780941 0.00781046 0.00780971 0.00781037 0.00780969 0.00780963 0.00780993 0.00781056 0.00780985 0.00781074 0.00781011 0.00780998 0.00781025 0.00781069 0.00781002 0.00781083 0.00781037 0.0078102 0.00781045 0.00781075 0.00781025 0.00781093 0.00781058 0.00781045 0.00781064 0.00781096 0.0078102 0.00781109 0.00781084 0.00781066 0.0078108 0.00781106 0.00781059 0.00781117 0.00781099 0.00781082 0.00781094 0.0078111 0.00781076 0.00781127 0.00781109 0.00781095 0.00781109 0.00781144 0.00781081 0.00781143 0.0078112 0.00781121 0.00781129 0.00781144 0.00781094 0.00781153 0.00781144 0.00781115 0.00781129 0.0078114 0.00781113 0.0078116 0.00781142 0.00781149 0.00781156 0.00781157 0.00781117 0.00781179 0.00781159 0.00781145 0.00781169 0.00781174 0.0078114 0.00781181 0.0078117 0.00781159 0.00781174 0.00781183 0.00781152 0.00781187 0.00781159 0.00781175 0.00781175 0.00781174 0.00781157 0.00781207 0.0078119 0.00781188 0.00781187 0.00781189 0.0078118 0.00781218 0.00781204 0.00781191 0.00781177 0.00781191 0.00781196 0.00781207 0.00781204 0.00781196 0.00781198 0.00781203 0.00781196 0.00781236 0.00781223 0.00781222 0.00781214 0.00781214 0.00781196 0.00781232 0.00781243 0.00781209 0.0078123 0.00781207 0.00781205 0.00781229 0.00781225 0.00781236 0.00781206 0.00781219 0.00781236 0.0078123 0.00781232 0.00781237 0.0078122 0.00781235 0.00781215 0.00781228 0.00781245 0.00781246 0.00781234 0.00781229 0.00781225 0.00781245 0.00781228 0.00781229 0.00781238 0.00781249 0.00781222 0.00781268 0.00781253 0.00781248 0.00781235 0.0078124 0.0078123 0.00781246 0.00781231 0.00781251 0.00781264 0.00781243 0.00781239 0.00781259 0.00781257 0.00781235 0.00781253 0.00781257 0.00781241 0.0078126 0.00781243 0.00781243 0.00781243 0.00781255 0.00781256 0.00781244 0.00781256 0.00781254 0.0078124 0.00781267 0.00781255 0.0078125 0.00781255 0.00781251 0.00781255 0.0078126 0.00781254 0.00781247 0.00781247 0.00781248 0.0078126 0.00781363 0.00781186 0.00781133 0.00781045 0.00780881 0.00781017 0.00781314 0.00781183 0.00781178 0.00781077 0.00781008 0.00781076 0.00781244 0.00781142 0.00781214 0.00781118 0.00781094 0.00781146 0.00781214 0.00781128 0.00781227 0.00781152 0.00781133 0.00781164 0.00781196 0.00781127 0.00781229 0.00781177 0.00781144 0.00781174 0.00781204 0.00781126 0.0078122 0.0078119 0.00781159 0.00781192 0.00781199 0.00781148 0.00781216 0.00781188 0.00781174 0.00781194 0.00781204 0.00781144 0.00781233 0.00781204 0.00781181 0.00781197 0.00781208 0.00781148 0.00781222 0.00781206 0.00781187 0.00781203 0.00781207 0.00781174 0.00781231 0.00781207 0.00781191 0.00781208 0.00781211 0.00781168 0.00781243 0.00781219 0.0078119 0.00781204 0.00781224 0.0078118 0.00781232 0.00781208 0.0078121 0.00781222 0.00781221 0.00781182 0.00781242 0.00781215 0.00781219 0.00781207 0.00781228 0.00781179 0.00781243 0.00781231 0.00781212 0.00781221 0.00781215 0.00781188 0.00781236 0.00781226 0.00781223 0.00781234 0.00781217 0.00781195 0.00781251 0.00781223 0.00781225 0.00781244 0.00781232 0.00781235 0.0078125 0.00781225 0.00781235 0.00781245 0.00781229 0.00781219 0.00781251 0.0078124 0.00781225 0.00781232 0.00781222 0.00781224 0.00781239 0.00781252 0.00781253 0.00781238 0.00781233 0.00781216 0.00781239 0.00781234 0.00781238 0.00781237 0.0078125 0.00781224 0.00781234 0.00781244 0.00781232 0.0078125 0.00781237 0.00781235 0.00781246 0.00781232 0.00781252 0.00781235 0.00781249 0.00781249 0.00781239 0.00781235 0.00781253 0.00781254 0.00781242 0.0078123 0.00781248 0.00781227 0.00781246 0.00781237 0.00781249 0.00781236 0.00781248 0.00781261 0.00781232 0.00781259 0.00781243 0.00781245 0.00781261 0.00781259 0.00781247 0.00781239 0.00781236 0.00781249 0.00781231 0.00781247 0.00781249 0.00781252 0.00781257 0.00781249 0.00781248 0.00781259 0.00781269 0.00781242 0.00781246 0.00781238 0.00781228 0.00781262 0.00781249 0.00781236 0.00781245 0.00781251 0.00781253 0.00781257 0.00781261 0.00781254 0.00781238 0.00781222 0.0078124 0.00781247 0.00781235 0.00781259 0.00781239 0.00781245 0.00781279 0.00781241 0.00781254 0.00781227 0.00781654 0.00781478 0.00781592 0.0078145 0.00781276 0.0078139 0.00781529 0.00781407 0.00781535 0.00781396 0.00781288 0.00781352 0.0078143 0.00781338 0.00781467 0.00781363 0.00781292 0.00781335 0.00781376 0.00781287 0.00781411 0.00781339 0.00781291 0.00781334 0.00781352 0.00781272 0.00781383 0.00781327 0.00781293 0.00781324 0.00781338 0.00781265 0.00781364 0.00781333 0.00781291 0.00781325 0.00781323 0.00781263 0.0078134 0.00781323 0.00781294 0.00781309 0.00781315 0.00781263 0.00781348 0.00781319 0.00781288 0.00781313 0.00781312 0.0078125 0.00781335 0.00781308 0.00781288 0.00781306 0.00781299 0.00781261 0.00781333 0.00781313 0.00781282 0.00781294 0.007813 0.00781257 0.00781321 0.00781299 0.00781294 0.00781296 0.00781291 0.00781261 0.00781314 0.00781314 0.00781287 0.00781291 0.00781286 0.00781252 0.00781308 0.00781292 0.00781292 0.00781303 0.00781282 0.00781263 0.007813 0.00781292 0.00781283 0.00781289 0.00781285 0.00781261 0.00781285 0.00781279 0.00781278 0.00781285 0.00781295 0.00781248 0.00781297 0.00781284 0.00781258 0.00781278 0.00781284 0.0078125 0.00781291 0.00781286 0.00781266 0.00781283 0.00781274 0.00781248 0.00781292 0.00781269 0.00781275 0.0078128 0.00781262 0.0078125 0.0078128 0.0078128 0.00781265 0.0078127 0.00781272 0.00781245 0.00781281 0.00781268 0.00781265 0.00781268 0.00781259 0.00781251 0.00781261 0.00781262 0.00781277 0.00781273 0.0078126 0.00781243 0.00781278 0.00781257 0.00781278 0.00781249 0.00781254 0.00781259 0.00781251 0.00781279 0.00781264 0.00781251 0.00781245 0.00781266 0.00781254 0.00781266 0.00781258 0.00781258 0.00781272 0.00781235 0.00781261 0.00781257 0.00781247 0.00781274 0.00781253 0.0078125 0.00781241 0.0078125 0.00781266 0.00781264 0.00781251 0.00781244 0.00781267 0.00781271 0.00781261 0.00781273 0.00781246 0.00781249 0.0078125 0.00781238 0.00781271 0.00781245 0.00781251 0.0078124 0.00781243 0.00781234 0.00781243 0.00781264 0.00781248 0.00781247 0.00781261 0.00781242 0.00781236 0.00781243 0.0078125 0.00781258 0.00781272 0.00781246 0.00781246 0.00781239 0.00781228 0.00781263 0.00781241 0.00781245 0.0078124 0.00781256 0.0078194 0.00781769 0.00782087 0.00781857 0.00781665 0.00781752 0.00781719 0.00781612 0.00781887 0.00781711 0.00781554 0.00781616 0.00781589 0.00781514 0.0078169 0.007816 0.00781501 0.00781549 0.00781518 0.00781451 0.00781578 0.00781528 0.00781458 0.00781501 0.00781489 0.00781425 0.00781525 0.0078149 0.00781436 0.00781468 0.00781474 0.00781395 0.00781491 0.00781468 0.00781423 0.00781447 0.00781447 0.00781379 0.00781474 0.00781447 0.0078141 0.00781434 0.00781428 0.00781374 0.00781455 0.00781428 0.00781396 0.00781422 0.00781421 0.00781367 0.00781444 0.00781425 0.00781389 0.007814 0.00781406 0.00781355 0.00781424 0.00781409 0.00781376 0.00781394 0.00781393 0.00781346 0.00781422 0.00781394 0.00781358 0.00781382 0.00781384 0.00781348 0.00781397 0.00781387 0.00781363 0.00781371 0.00781363 0.00781322 0.00781382 0.00781364 0.00781338 0.00781363 0.00781353 0.00781319 0.00781374 0.00781351 0.00781335 0.00781334 0.00781359 0.00781309 0.0078134 0.00781344 0.00781344 0.00781351 0.00781333 0.00781299 0.00781337 0.00781329 0.00781329 0.00781329 0.00781318 0.00781298 0.00781349 0.00781341 0.00781301 0.00781316 0.00781306 0.00781298 0.0078132 0.00781324 0.00781307 0.00781329 0.00781292 0.00781287 0.00781326 0.0078132 0.00781301 0.00781313 0.007813 0.00781275 0.0078133 0.00781298 0.00781281 0.00781297 0.00781286 0.00781262 0.00781291 0.00781297 0.00781298 0.0078131 0.00781271 0.00781278 0.00781282 0.00781281 0.00781295 0.00781276 0.00781278 0.00781267 0.00781271 0.00781281 0.00781311 0.00781287 0.00781288 0.00781262 0.00781259 0.0078127 0.00781262 0.00781265 0.00781255 0.00781264 0.0078128 0.00781276 0.00781273 0.00781258 0.00781253 0.0078125 0.00781268 0.00781276 0.00781274 0.00781266 0.00781263 0.00781245 0.00781256 0.00781267 0.00781252 0.00781254 0.00781236 0.00781278 0.00781259 0.00781259 0.00781265 0.0078126 0.00781264 0.00781263 0.00781272 0.00781269 0.00781251 0.00781237 0.00781245 0.00781248 0.00781251 0.00781253 0.00781246 0.00781238 0.00781258 0.00781264 0.00781238 0.00781248 0.00781252 0.00781255 0.0078125 0.00781252 0.00781244 0.00781236 0.00781253 0.00781273 0.00782193 0.00782034 0.00782641 0.00782305 0.0078203 0.00782124 0.00781851 0.00781797 0.00782139 0.00782006 0.00781803 0.00781877 0.00781726 0.00781667 0.00781823 0.00781811 0.00781673 0.00781734 0.00781671 0.00781609 0.00781709 0.0078171 0.00781612 0.00781653 0.00781641 0.00781562 0.00781649 0.00781641 0.00781581 0.00781614 0.00781606 0.0078153 0.00781618 0.007816 0.00781552 0.00781579 0.00781577 0.00781518 0.00781582 0.00781569 0.00781538 0.00781539 0.00781549 0.00781491 0.00781567 0.00781548 0.00781506 0.00781527 0.00781521 0.00781467 0.00781542 0.00781517 0.00781487 0.00781506 0.00781502 0.00781448 0.00781523 0.00781496 0.00781469 0.00781485 0.00781465 0.00781432 0.00781488 0.00781482 0.00781452 0.00781476 0.00781467 0.00781409 0.00781472 0.0078146 0.00781432 0.00781452 0.00781435 0.00781403 0.00781454 0.0078144 0.00781421 0.00781438 0.00781422 0.00781386 0.00781436 0.00781411 0.00781404 0.00781404 0.00781387 0.00781372 0.00781425 0.00781419 0.00781392 0.00781394 0.00781379 0.00781363 0.0078139 0.00781388 0.00781378 0.00781375 0.0078136 0.00781343 0.00781385 0.00781381 0.0078136 0.00781371 0.00781367 0.00781327 0.00781359 0.00781359 0.00781346 0.00781365 0.00781339 0.00781324 0.00781352 0.0078134 0.0078133 0.00781336 0.00781319 0.0078133 0.00781331 0.00781335 0.00781308 0.00781325 0.00781305 0.00781294 0.00781325 0.00781321 0.007813 0.00781308 0.007813 0.00781294 0.00781318 0.007813 0.00781308 0.00781303 0.0078129 0.00781292 0.0078129 0.00781317 0.00781302 0.00781285 0.00781281 0.00781266 0.00781286 0.00781299 0.00781276 0.00781285 0.00781271 0.0078128 0.00781274 0.00781284 0.00781249 0.00781275 0.00781272 0.00781258 0.00781281 0.00781275 0.00781273 0.0078126 0.00781251 0.00781264 0.00781244 0.00781265 0.00781253 0.00781276 0.00781268 0.00781281 0.0078127 0.0078125 0.00781246 0.00781263 0.00781254 0.00781262 0.00781247 0.00781254 0.00781246 0.00781244 0.00781258 0.00781262 0.00781248 0.00781251 0.00781251 0.00781254 0.00781232 0.00781249 0.00781253 0.00781251 0.00781236 0.00781251 0.00781248 0.00781252 0.00781241 0.00781274 0.00781229 0.0078126 0.00782376 0.00782234 0.00783508 0.00782786 0.00782326 0.00782497 0.00781901 0.0078191 0.00781917 0.00782204 0.00781961 0.0078205 0.00781852 0.00781802 0.00781841 0.00781956 0.0078182 0.00781861 0.00781821 0.00781748 0.00781839 0.00781849 0.00781755 0.00781781 0.00781793 0.00781708 0.00781797 0.00781777 0.00781727 0.0078174 0.0078174 0.00781659 0.00781752 0.0078173 0.00781691 0.00781703 0.00781708 0.0078163 0.00781712 0.00781696 0.00781647 0.00781659 0.0078167 0.00781608 0.0078167 0.00781653 0.00781615 0.00781634 0.00781641 0.00781575 0.00781638 0.00781624 0.00781583 0.00781595 0.00781605 0.00781551 0.00781597 0.0078159 0.00781563 0.00781574 0.00781567 0.00781527 0.00781574 0.00781561 0.00781527 0.00781547 0.00781559 0.007815 0.00781549 0.00781538 0.00781509 0.00781515 0.00781515 0.00781474 0.00781507 0.00781507 0.00781484 0.00781505 0.00781485 0.00781461 0.00781483 0.00781467 0.0078145 0.00781463 0.00781461 0.00781432 0.00781474 0.00781467 0.00781431 0.00781453 0.00781445 0.00781418 0.00781433 0.00781449 0.00781411 0.00781427 0.00781402 0.0078139 0.00781428 0.00781411 0.00781397 0.00781409 0.00781375 0.00781368 0.00781415 0.00781405 0.00781368 0.00781387 0.00781371 0.00781347 0.00781399 0.0078137 0.0078137 0.00781375 0.00781354 0.00781336 0.00781356 0.00781368 0.00781346 0.00781359 0.0078132 0.00781335 0.00781361 0.00781356 0.00781343 0.0078135 0.00781328 0.00781319 0.00781331 0.00781319 0.00781322 0.00781318 0.00781304 0.00781316 0.007813 0.00781322 0.00781308 0.00781304 0.00781279 0.00781309 0.00781292 0.00781306 0.00781311 0.00781313 0.00781271 0.00781276 0.00781306 0.00781284 0.00781272 0.00781272 0.00781281 0.00781258 0.00781275 0.0078128 0.00781272 0.0078129 0.00781259 0.00781263 0.00781288 0.00781274 0.00781254 0.00781263 0.00781273 0.00781256 0.00781262 0.00781248 0.00781272 0.00781262 0.00781253 0.00781234 0.00781244 0.0078126 0.00781256 0.00781245 0.00781251 0.00781246 0.00781245 0.00781255 0.00781247 0.00781252 0.00781237 0.00781258 0.0078126 0.00781239 0.0078125 0.00781235 0.00781234 0.00781232 0.0078127 0.00781252 0.0078124 0.00781266 0.00780539 0.00780035 0.00779767 0.00779277 0.0078027 0.00779927 0.00780666 0.00780538 0.00780466 0.00780223 0.00780523 0.00780358 0.00780719 0.00780602 0.00780711 0.00780485 0.00780578 0.00780544 0.00780733 0.00780642 0.00780754 0.00780612 0.0078064 0.00780648 0.00780761 0.00780684 0.00780773 0.00780694 0.00780686 0.0078072 0.00780799 0.00780734 0.00780803 0.00780757 0.00780748 0.00780765 0.00780839 0.00780766 0.00780839 0.00780806 0.00780795 0.00780822 0.00780867 0.0078081 0.00780877 0.00780845 0.00780842 0.0078085 0.00780906 0.00780857 0.00780908 0.00780886 0.00780878 0.00780879 0.00780931 0.0078087 0.00780935 0.00780922 0.00780909 0.00780935 0.00780946 0.00780931 0.00780973 0.0078095 0.00780934 0.00780957 0.00780995 0.00780963 0.00780997 0.00780968 0.00780958 0.00780983 0.00781012 0.00780967 0.00781016 0.00781002 0.00781008 0.00781016 0.00781036 0.00781 0.00781049 0.00781029 0.00781022 0.00781036 0.00781062 0.00781037 0.00781065 0.00781056 0.00781035 0.00781066 0.00781086 0.0078106 0.00781097 0.00781067 0.00781073 0.00781069 0.00781095 0.00781082 0.00781117 0.00781101 0.00781102 0.00781113 0.00781104 0.00781115 0.00781144 0.00781124 0.00781111 0.00781126 0.0078114 0.00781143 0.00781138 0.00781128 0.00781131 0.00781147 0.00781161 0.00781143 0.00781163 0.00781124 0.00781187 0.00781152 0.00781181 0.00781149 0.0078116 0.00781188 0.00781186 0.00781181 0.00781172 0.00781155 0.00781191 0.00781166 0.00781203 0.00781202 0.00781187 0.00781188 0.0078119 0.00781195 0.00781207 0.00781198 0.0078119 0.00781195 0.00781224 0.00781218 0.00781215 0.0078122 0.00781218 0.00781228 0.00781222 0.00781215 0.00781217 0.00781204 0.00781256 0.00781221 0.00781232 0.00781233 0.00781211 0.00781228 0.00781223 0.00781217 0.0078124 0.00781233 0.00781239 0.00781234 0.00781246 0.00781252 0.00781246 0.00781245 0.00781246 0.0078124 0.00781228 0.00781267 0.00781244 0.00781257 0.00781238 0.00781238 0.0078124 0.00781282 0.00781267 0.00781248 0.00781249 0.00781238 0.00781264 0.00781251 0.00781252 0.00781266 0.00781238 0.00781257 0.00781249 0.00781266 0.00781253 0.00781243 0.00781264 0.00781244 0.00780815 0.00780589 0.00780226 0.00780137 0.00780131 0.00780233 0.00780844 0.00780738 0.00780479 0.00780439 0.00780567 0.00780554 0.00780845 0.0078078 0.00780739 0.0078065 0.00780724 0.00780718 0.00780879 0.00780809 0.00780873 0.00780767 0.00780796 0.00780812 0.00780902 0.00780841 0.00780931 0.00780836 0.00780849 0.00780864 0.00780926 0.00780861 0.00780954 0.00780899 0.00780882 0.00780911 0.00780951 0.00780887 0.00780977 0.00780933 0.0078092 0.0078094 0.0078098 0.00780913 0.00780988 0.00780968 0.00780945 0.00780977 0.00780988 0.00780958 0.00781013 0.00780979 0.00780979 0.00781004 0.00781016 0.00780978 0.00781037 0.00781017 0.00781004 0.00781017 0.0078104 0.00780995 0.0078107 0.0078103 0.00781018 0.00781034 0.00781072 0.00781019 0.00781075 0.00781049 0.00781057 0.00781067 0.00781085 0.00781042 0.00781093 0.00781076 0.00781068 0.00781078 0.00781094 0.00781062 0.00781121 0.00781096 0.00781087 0.00781089 0.00781099 0.00781091 0.00781131 0.00781108 0.00781098 0.00781113 0.00781133 0.00781105 0.00781148 0.00781127 0.00781127 0.00781126 0.00781142 0.00781135 0.00781151 0.00781125 0.00781145 0.00781155 0.00781155 0.00781151 0.00781177 0.00781152 0.00781152 0.00781158 0.00781155 0.00781164 0.00781176 0.00781165 0.00781172 0.00781161 0.00781187 0.0078117 0.0078119 0.00781174 0.00781204 0.00781182 0.00781176 0.00781172 0.00781208 0.00781197 0.00781194 0.00781187 0.00781203 0.007812 0.00781204 0.00781204 0.00781189 0.00781196 0.00781198 0.00781204 0.00781212 0.00781202 0.0078121 0.00781207 0.00781221 0.00781217 0.00781237 0.00781223 0.00781216 0.00781223 0.00781219 0.00781215 0.00781226 0.00781216 0.00781234 0.0078123 0.00781226 0.0078121 0.00781238 0.00781235 0.00781243 0.00781238 0.00781242 0.00781248 0.00781248 0.00781239 0.00781246 0.00781232 0.00781244 0.00781225 0.0078123 0.00781222 0.00781255 0.00781246 0.00781233 0.00781253 0.00781251 0.00781251 0.00781248 0.00781255 0.0078127 0.00781253 0.00781268 0.00781245 0.00781228 0.00781267 0.00781234 0.0078124 0.00781288 0.00781259 0.00781242 0.00781246 0.00781248 0.00781256 0.00781249 0.00781251 0.00781292 0.00781243 0.00781086 0.00780881 0.00780681 0.007806 0.00780469 0.00780622 0.00781089 0.00780956 0.00780805 0.0078075 0.00780733 0.00780793 0.00781043 0.00780953 0.00780937 0.00780886 0.0078088 0.00780925 0.00781035 0.00780956 0.00781032 0.00780963 0.0078095 0.00780983 0.00781048 0.0078098 0.00781068 0.00781014 0.00780989 0.00781026 0.00781059 0.00780998 0.00781091 0.00781035 0.00781019 0.00781047 0.00781072 0.00781019 0.00781103 0.00781064 0.00781043 0.00781075 0.00781087 0.00781027 0.00781113 0.00781076 0.00781066 0.00781081 0.007811 0.00781058 0.00781122 0.00781107 0.0078108 0.00781105 0.00781112 0.00781065 0.00781135 0.00781108 0.00781108 0.00781114 0.00781119 0.00781096 0.0078114 0.0078113 0.00781113 0.00781124 0.00781135 0.00781109 0.00781164 0.00781139 0.00781125 0.00781136 0.00781151 0.00781118 0.00781163 0.00781134 0.00781134 0.00781155 0.00781164 0.00781122 0.00781179 0.00781157 0.00781149 0.00781163 0.00781173 0.00781131 0.00781188 0.00781165 0.00781153 0.00781171 0.00781168 0.00781152 0.00781182 0.00781165 0.00781187 0.0078119 0.00781182 0.00781158 0.00781211 0.00781177 0.00781184 0.00781192 0.00781172 0.00781182 0.00781207 0.00781183 0.00781182 0.00781198 0.00781205 0.0078119 0.00781231 0.00781204 0.0078119 0.00781211 0.00781206 0.00781202 0.00781211 0.00781204 0.00781209 0.00781188 0.00781242 0.00781197 0.00781233 0.00781223 0.00781213 0.00781207 0.00781224 0.00781205 0.00781227 0.0078121 0.0078123 0.00781215 0.00781223 0.00781224 0.00781228 0.00781223 0.00781248 0.00781241 0.00781231 0.00781224 0.00781222 0.00781255 0.00781243 0.00781229 0.00781229 0.00781225 0.00781246 0.00781223 0.0078124 0.00781239 0.00781234 0.00781236 0.00781265 0.00781261 0.00781247 0.00781231 0.0078124 0.00781237 0.00781248 0.00781245 0.0078125 0.00781255 0.00781257 0.00781242 0.00781255 0.00781249 0.00781243 0.00781232 0.00781253 0.00781249 0.00781258 0.00781247 0.00781236 0.00781243 0.00781238 0.00781262 0.0078124 0.00781239 0.00781262 0.00781242 0.0078123 0.00781259 0.00781242 0.00781252 0.00781233 0.00781244 0.00781262 0.00781253 0.00781261 0.00781259 0.00781252 0.00781254 0.00781372 0.00781182 0.0078113 0.00781033 0.0078087 0.00781011 0.00781326 0.0078119 0.00781161 0.00781082 0.00780987 0.00781069 0.00781254 0.00781144 0.00781198 0.0078112 0.00781077 0.00781135 0.00781208 0.00781128 0.00781222 0.00781153 0.00781125 0.00781159 0.00781204 0.00781118 0.00781229 0.00781177 0.00781141 0.00781172 0.00781189 0.00781138 0.00781227 0.00781195 0.00781158 0.00781186 0.00781201 0.00781141 0.0078122 0.00781179 0.00781179 0.00781197 0.007812 0.00781144 0.00781227 0.00781194 0.00781176 0.00781184 0.00781204 0.00781154 0.00781228 0.00781217 0.00781183 0.00781193 0.00781206 0.0078116 0.00781228 0.00781211 0.007812 0.0078121 0.00781208 0.00781168 0.00781243 0.00781219 0.00781204 0.00781215 0.00781209 0.00781183 0.00781239 0.00781228 0.00781206 0.00781214 0.00781216 0.00781181 0.00781232 0.00781225 0.00781215 0.00781222 0.00781216 0.00781188 0.00781237 0.00781228 0.00781217 0.00781214 0.00781232 0.00781192 0.00781237 0.00781224 0.00781226 0.00781228 0.0078123 0.00781208 0.0078124 0.00781232 0.00781223 0.00781228 0.00781207 0.00781213 0.00781247 0.00781245 0.0078123 0.00781245 0.00781225 0.00781221 0.00781253 0.00781242 0.00781222 0.00781234 0.00781258 0.00781226 0.00781252 0.00781225 0.00781246 0.00781241 0.00781237 0.00781214 0.00781235 0.00781242 0.00781234 0.00781226 0.00781235 0.00781229 0.00781251 0.00781246 0.00781257 0.00781224 0.00781234 0.00781222 0.00781245 0.00781267 0.00781244 0.00781251 0.00781235 0.0078123 0.00781238 0.00781243 0.00781238 0.00781256 0.00781224 0.00781243 0.00781246 0.00781248 0.0078126 0.00781247 0.0078124 0.00781248 0.00781239 0.00781243 0.00781234 0.00781244 0.0078126 0.00781231 0.00781249 0.00781251 0.00781239 0.00781238 0.00781236 0.00781241 0.00781252 0.00781242 0.00781253 0.00781243 0.00781245 0.00781255 0.00781265 0.00781271 0.00781245 0.00781231 0.0078124 0.00781246 0.0078126 0.00781278 0.00781244 0.00781227 0.00781249 0.00781267 0.00781267 0.00781273 0.00781243 0.00781233 0.00781265 0.00781263 0.0078126 0.00781267 0.00781246 0.00781246 0.00781241 0.00781246 0.00781252 0.00781256 0.00781266 0.00781237 0.0078168 0.00781485 0.00781594 0.00781455 0.00781258 0.00781392 0.00781556 0.00781418 0.00781546 0.00781403 0.00781272 0.00781361 0.00781438 0.00781348 0.00781463 0.00781373 0.00781286 0.00781348 0.00781377 0.00781291 0.00781421 0.0078134 0.00781296 0.00781342 0.00781349 0.00781273 0.0078138 0.00781339 0.00781296 0.00781331 0.00781327 0.00781267 0.00781362 0.00781329 0.00781292 0.00781321 0.00781321 0.00781255 0.00781348 0.00781325 0.00781289 0.00781306 0.00781318 0.00781255 0.0078134 0.0078132 0.00781284 0.0078131 0.00781312 0.00781255 0.00781339 0.00781317 0.00781289 0.00781304 0.00781303 0.00781249 0.00781324 0.00781306 0.00781285 0.00781297 0.00781305 0.00781257 0.0078133 0.0078131 0.00781281 0.00781299 0.00781294 0.00781261 0.00781319 0.00781303 0.00781272 0.00781289 0.00781286 0.00781249 0.00781315 0.00781302 0.00781273 0.0078129 0.00781283 0.00781247 0.00781311 0.00781274 0.00781288 0.00781299 0.00781282 0.00781248 0.00781304 0.00781295 0.00781273 0.00781287 0.00781292 0.00781251 0.00781298 0.00781278 0.00781273 0.00781291 0.00781274 0.00781241 0.00781292 0.00781287 0.00781263 0.00781268 0.00781269 0.00781255 0.00781295 0.00781282 0.00781286 0.00781276 0.00781253 0.00781244 0.0078128 0.00781291 0.00781273 0.00781269 0.00781258 0.00781251 0.00781293 0.00781276 0.00781276 0.00781266 0.0078126 0.00781247 0.00781286 0.00781293 0.00781265 0.00781268 0.00781247 0.00781262 0.00781269 0.00781263 0.00781266 0.0078126 0.00781264 0.00781241 0.00781274 0.00781278 0.0078126 0.0078127 0.00781248 0.00781261 0.00781256 0.00781256 0.00781261 0.00781258 0.0078126 0.00781241 0.00781262 0.00781253 0.00781271 0.00781266 0.00781267 0.00781244 0.00781252 0.00781262 0.00781259 0.00781255 0.00781235 0.00781247 0.00781251 0.00781273 0.00781245 0.00781243 0.00781249 0.00781255 0.00781255 0.00781258 0.00781254 0.00781259 0.00781247 0.00781248 0.00781257 0.0078125 0.00781237 0.00781253 0.0078125 0.00781267 0.00781262 0.00781246 0.00781244 0.00781261 0.00781236 0.00781254 0.00781268 0.00781244 0.0078124 0.00781273 0.0078126 0.00781252 0.0078125 0.00781243 0.00781259 0.00781257 0.00781974 0.00781796 0.00782089 0.00781872 0.00781654 0.00781772 0.00781744 0.00781637 0.00781901 0.0078172 0.00781557 0.00781646 0.00781611 0.00781513 0.00781696 0.0078162 0.00781496 0.00781568 0.00781533 0.00781462 0.00781588 0.00781547 0.00781467 0.00781515 0.00781493 0.00781419 0.0078153 0.00781502 0.0078144 0.00781487 0.00781472 0.00781402 0.00781502 0.00781476 0.00781431 0.00781456 0.00781439 0.00781383 0.00781472 0.00781453 0.00781414 0.00781437 0.00781435 0.0078137 0.00781451 0.00781432 0.007814 0.00781412 0.00781415 0.00781365 0.00781429 0.00781426 0.00781392 0.00781408 0.00781407 0.00781347 0.00781422 0.00781401 0.00781373 0.0078139 0.00781391 0.00781352 0.00781401 0.00781391 0.00781372 0.00781397 0.00781375 0.00781338 0.00781402 0.00781381 0.00781344 0.00781378 0.0078136 0.00781333 0.00781396 0.00781374 0.00781346 0.00781361 0.00781345 0.00781322 0.00781367 0.00781353 0.00781346 0.00781356 0.00781343 0.00781319 0.00781356 0.00781345 0.0078134 0.00781343 0.00781325 0.00781311 0.00781343 0.00781345 0.00781323 0.00781328 0.00781319 0.00781301 0.00781339 0.0078133 0.00781315 0.00781328 0.00781305 0.0078129 0.00781328 0.00781322 0.00781299 0.00781302 0.00781312 0.00781284 0.0078131 0.00781305 0.00781283 0.00781304 0.00781295 0.00781284 0.0078131 0.0078131 0.00781284 0.00781285 0.00781292 0.0078127 0.00781285 0.007813 0.00781274 0.0078129 0.00781272 0.00781261 0.00781306 0.00781295 0.00781292 0.00781285 0.00781269 0.00781266 0.0078127 0.00781279 0.00781273 0.00781285 0.00781259 0.00781285 0.00781262 0.00781267 0.00781297 0.00781286 0.00781272 0.00781271 0.00781259 0.00781257 0.00781274 0.00781285 0.00781252 0.00781259 0.00781273 0.00781286 0.00781272 0.00781246 0.00781282 0.00781252 0.00781262 0.00781272 0.00781254 0.00781242 0.00781257 0.00781253 0.0078125 0.00781265 0.0078124 0.00781277 0.00781246 0.00781248 0.00781239 0.00781257 0.00781248 0.00781259 0.00781241 0.0078127 0.0078125 0.00781267 0.00781245 0.00781248 0.00781255 0.0078127 0.0078124 0.00781259 0.00781249 0.00781265 0.00781251 0.00781259 0.00781244 0.00781229 0.00781266 0.00781245 0.00782235 0.00782079 0.00782649 0.00782317 0.00782031 0.00782142 0.00781876 0.00781811 0.00782153 0.0078203 0.00781813 0.00781918 0.00781743 0.0078168 0.00781841 0.00781845 0.00781691 0.00781763 0.00781686 0.00781613 0.00781723 0.0078173 0.00781619 0.0078168 0.00781635 0.00781567 0.00781659 0.00781647 0.00781577 0.00781622 0.00781604 0.00781541 0.00781631 0.00781599 0.00781551 0.0078159 0.00781571 0.00781513 0.00781601 0.00781571 0.00781527 0.00781565 0.00781541 0.0078149 0.00781565 0.00781544 0.0078151 0.00781533 0.00781522 0.00781467 0.00781546 0.00781523 0.00781496 0.00781514 0.00781506 0.00781447 0.0078152 0.00781507 0.00781476 0.00781489 0.00781479 0.00781417 0.00781493 0.00781484 0.00781453 0.00781469 0.00781461 0.00781413 0.00781469 0.0078146 0.00781429 0.00781445 0.00781435 0.00781396 0.0078145 0.00781435 0.00781415 0.00781429 0.00781416 0.00781388 0.00781422 0.00781417 0.00781409 0.00781422 0.00781389 0.00781367 0.00781406 0.0078141 0.00781396 0.007814 0.0078138 0.00781347 0.00781386 0.007814 0.00781377 0.00781387 0.00781382 0.00781338 0.00781387 0.00781381 0.00781352 0.00781363 0.00781357 0.00781327 0.00781372 0.00781366 0.00781336 0.00781361 0.00781335 0.00781326 0.00781355 0.00781344 0.0078134 0.00781331 0.0078132 0.00781311 0.00781329 0.00781339 0.00781332 0.00781339 0.00781318 0.007813 0.00781309 0.00781328 0.00781307 0.00781308 0.00781291 0.00781306 0.00781316 0.00781305 0.00781307 0.00781309 0.0078127 0.00781297 0.00781293 0.00781297 0.00781301 0.00781282 0.00781286 0.00781261 0.00781284 0.00781307 0.00781282 0.00781286 0.00781279 0.00781278 0.00781266 0.00781296 0.00781286 0.00781277 0.00781265 0.00781263 0.00781259 0.00781278 0.00781279 0.00781269 0.00781253 0.00781249 0.00781264 0.00781264 0.00781273 0.00781276 0.0078125 0.00781248 0.00781259 0.00781267 0.00781255 0.00781269 0.00781248 0.00781244 0.00781257 0.00781268 0.00781282 0.00781246 0.00781239 0.00781253 0.00781237 0.0078128 0.00781241 0.00781256 0.00781256 0.00781236 0.00781249 0.00781253 0.00781257 0.0078125 0.00781255 0.00781239 0.0078127 0.00781259 0.00781247 0.00781249 0.00782434 0.0078228 0.00783566 0.00782813 0.00782343 0.00782527 0.00781937 0.00781925 0.00781939 0.00782224 0.00781978 0.007821 0.00781885 0.0078181 0.00781852 0.00781981 0.00781839 0.00781894 0.00781834 0.00781754 0.00781845 0.00781858 0.00781761 0.0078181 0.00781785 0.00781711 0.00781808 0.00781776 0.00781723 0.00781752 0.0078175 0.00781676 0.00781761 0.00781743 0.00781681 0.00781705 0.00781717 0.00781632 0.00781723 0.00781686 0.00781645 0.00781669 0.0078167 0.0078161 0.00781677 0.00781657 0.00781617 0.00781643 0.00781636 0.00781572 0.00781652 0.00781618 0.0078159 0.00781606 0.0078159 0.00781547 0.00781605 0.00781596 0.00781566 0.00781575 0.00781568 0.0078152 0.00781577 0.00781561 0.00781549 0.0078155 0.00781537 0.00781504 0.00781523 0.0078154 0.00781508 0.00781508 0.00781515 0.00781472 0.00781518 0.00781508 0.00781477 0.00781496 0.00781474 0.00781446 0.00781485 0.00781479 0.00781465 0.00781489 0.00781454 0.00781422 0.00781457 0.00781453 0.00781432 0.00781436 0.00781448 0.00781419 0.00781449 0.00781443 0.0078141 0.0078143 0.00781417 0.00781377 0.00781436 0.00781408 0.00781387 0.00781412 0.00781396 0.00781362 0.00781415 0.00781393 0.00781376 0.0078138 0.00781388 0.0078135 0.00781376 0.00781372 0.00781356 0.00781359 0.00781359 0.00781351 0.00781348 0.00781375 0.00781359 0.00781342 0.00781347 0.00781323 0.00781346 0.0078135 0.00781354 0.00781322 0.00781314 0.00781315 0.00781315 0.00781331 0.00781304 0.00781324 0.00781292 0.00781298 0.007813 0.00781306 0.00781313 0.00781317 0.00781286 0.00781279 0.00781296 0.00781293 0.00781289 0.00781299 0.00781297 0.00781272 0.00781294 0.00781292 0.00781293 0.0078129 0.00781268 0.00781265 0.00781288 0.00781271 0.00781279 0.00781278 0.0078127 0.00781275 0.00781275 0.00781253 0.00781261 0.00781282 0.00781296 0.00781235 0.00781264 0.00781238 0.00781262 0.00781261 0.00781255 0.00781247 0.0078125 0.00781272 0.00781248 0.00781239 0.00781272 0.00781254 0.0078123 0.00781259 0.00781249 0.00781246 0.0078125 0.0078125 0.00781236 0.00781252 0.00781242 0.00781264 0.00781255 0.00781255 0.00781256 0.00781228 0.00781228 0.00781221 0.00780525 0.00780018 0.00779771 0.0077929 0.00780259 0.00779926 0.00780658 0.00780555 0.00780466 0.00780234 0.00780496 0.00780354 0.00780724 0.00780613 0.00780701 0.00780483 0.00780579 0.00780535 0.00780734 0.00780648 0.00780742 0.00780612 0.00780631 0.00780647 0.00780761 0.0078069 0.00780774 0.00780689 0.00780701 0.00780722 0.00780793 0.00780732 0.00780803 0.00780759 0.00780748 0.00780766 0.00780834 0.00780773 0.00780837 0.00780815 0.00780789 0.00780816 0.00780873 0.00780821 0.00780877 0.00780845 0.00780829 0.00780858 0.007809 0.0078085 0.00780905 0.00780883 0.00780875 0.00780895 0.0078093 0.00780878 0.00780934 0.00780914 0.00780913 0.00780913 0.00780966 0.00780923 0.00780968 0.00780956 0.00780935 0.00780951 0.00780985 0.00780958 0.00781007 0.00780968 0.00780967 0.00780987 0.00781018 0.00780984 0.00781026 0.00781006 0.00780997 0.00781004 0.00781055 0.00781021 0.00781048 0.0078103 0.00781022 0.00781035 0.00781054 0.00781041 0.00781071 0.00781056 0.00781047 0.00781054 0.00781071 0.00781063 0.00781087 0.00781071 0.00781084 0.00781084 0.00781106 0.00781085 0.00781106 0.00781091 0.00781113 0.007811 0.00781113 0.0078111 0.0078112 0.00781127 0.00781122 0.00781101 0.00781132 0.00781129 0.00781127 0.0078115 0.00781133 0.00781162 0.00781151 0.0078115 0.00781176 0.00781155 0.00781162 0.00781154 0.00781193 0.0078116 0.00781161 0.00781159 0.0078118 0.00781156 0.00781179 0.00781173 0.00781184 0.00781191 0.00781204 0.00781183 0.00781192 0.00781175 0.00781193 0.00781199 0.00781186 0.00781187 0.0078122 0.00781209 0.00781221 0.00781206 0.00781195 0.00781215 0.00781208 0.00781227 0.00781226 0.00781218 0.00781212 0.00781226 0.0078122 0.00781222 0.00781244 0.00781226 0.00781223 0.00781232 0.00781236 0.00781222 0.00781245 0.00781224 0.00781234 0.00781232 0.00781237 0.0078124 0.00781255 0.00781217 0.00781263 0.00781232 0.00781251 0.00781238 0.00781256 0.00781273 0.0078125 0.00781244 0.00781256 0.00781226 0.00781258 0.00781249 0.00781224 0.00781239 0.00781253 0.00781256 0.00781239 0.00781257 0.00781243 0.00781257 0.0078126 0.00781255 0.00781256 0.00781263 0.00781268 0.00781266 0.00780808 0.00780586 0.00780224 0.00780139 0.00780132 0.00780229 0.00780839 0.00780757 0.00780476 0.00780445 0.00780561 0.00780556 0.00780847 0.00780787 0.00780727 0.00780653 0.00780709 0.00780714 0.0078088 0.00780811 0.00780857 0.00780773 0.00780791 0.0078081 0.00780898 0.00780837 0.00780922 0.00780845 0.00780844 0.00780869 0.00780927 0.00780864 0.00780948 0.00780904 0.00780883 0.00780905 0.0078095 0.00780892 0.00780972 0.00780938 0.00780924 0.00780939 0.00780978 0.00780912 0.00780991 0.00780968 0.00780948 0.00780966 0.00780995 0.00780941 0.00781024 0.00780986 0.00780979 0.00781006 0.00781022 0.00780967 0.00781043 0.00781011 0.00781001 0.00781013 0.0078104 0.00781003 0.00781054 0.00781044 0.00781022 0.00781034 0.00781058 0.00781032 0.00781083 0.00781056 0.00781043 0.00781061 0.0078107 0.00781047 0.00781097 0.00781077 0.00781063 0.00781076 0.00781105 0.00781061 0.00781107 0.00781081 0.00781083 0.00781099 0.0078111 0.00781081 0.0078113 0.00781108 0.00781112 0.00781121 0.00781124 0.00781113 0.00781144 0.00781133 0.00781136 0.00781128 0.00781134 0.00781129 0.0078116 0.00781142 0.00781139 0.00781152 0.00781139 0.00781157 0.00781167 0.00781149 0.00781146 0.00781156 0.00781166 0.00781147 0.00781193 0.00781158 0.0078117 0.00781183 0.00781176 0.00781168 0.0078119 0.00781181 0.00781176 0.00781182 0.00781197 0.0078118 0.00781192 0.00781192 0.00781203 0.00781201 0.00781203 0.00781194 0.00781208 0.00781203 0.00781206 0.00781215 0.00781219 0.00781197 0.00781216 0.00781214 0.00781213 0.00781214 0.00781229 0.00781207 0.00781227 0.00781197 0.00781228 0.00781235 0.00781228 0.00781216 0.00781242 0.0078124 0.00781219 0.00781222 0.00781224 0.00781245 0.00781252 0.00781243 0.00781251 0.00781219 0.0078122 0.00781231 0.00781243 0.00781237 0.00781239 0.00781244 0.00781236 0.00781251 0.00781255 0.0078125 0.00781254 0.00781244 0.00781246 0.00781228 0.00781238 0.00781236 0.00781246 0.00781256 0.00781253 0.00781225 0.00781256 0.00781256 0.00781255 0.00781247 0.00781251 0.00781247 0.00781258 0.00781281 0.00781245 0.00781244 0.00781266 0.00781247 0.00781266 0.00781265 0.00781254 0.00781272 0.00781088 0.00780881 0.00780675 0.00780603 0.00780477 0.00780628 0.00781088 0.00780978 0.00780801 0.00780751 0.00780715 0.00780794 0.00781047 0.00780972 0.00780932 0.00780882 0.00780869 0.00780915 0.00781033 0.00780964 0.00781021 0.00780967 0.00780943 0.0078098 0.00781043 0.00780978 0.00781066 0.00781017 0.00780985 0.00781016 0.00781054 0.00780989 0.00781087 0.00781038 0.00781028 0.00781054 0.00781065 0.00781009 0.00781099 0.00781068 0.00781053 0.00781066 0.00781083 0.00781026 0.00781113 0.00781085 0.0078107 0.00781082 0.00781099 0.0078105 0.00781128 0.00781103 0.00781082 0.00781097 0.00781113 0.00781063 0.00781132 0.00781108 0.00781098 0.00781115 0.00781118 0.00781085 0.00781143 0.00781119 0.00781105 0.00781126 0.00781119 0.00781098 0.00781167 0.00781136 0.00781115 0.00781142 0.00781133 0.00781116 0.00781175 0.00781153 0.00781142 0.00781161 0.00781162 0.0078113 0.00781183 0.00781166 0.00781151 0.00781152 0.00781177 0.00781144 0.00781177 0.00781167 0.00781168 0.00781167 0.00781174 0.00781144 0.00781192 0.00781172 0.00781183 0.00781186 0.00781181 0.00781156 0.0078119 0.00781184 0.00781181 0.00781203 0.00781181 0.00781176 0.00781215 0.00781203 0.00781184 0.00781202 0.00781195 0.00781201 0.00781212 0.00781195 0.00781203 0.0078121 0.00781199 0.00781193 0.00781227 0.00781221 0.00781213 0.00781208 0.00781211 0.00781197 0.00781241 0.00781217 0.00781222 0.00781227 0.00781217 0.0078121 0.00781243 0.00781215 0.00781227 0.00781229 0.00781218 0.0078122 0.00781223 0.00781223 0.00781245 0.00781214 0.00781231 0.00781225 0.00781226 0.00781243 0.00781215 0.0078122 0.00781232 0.00781228 0.00781249 0.00781233 0.00781233 0.00781242 0.0078124 0.00781244 0.00781253 0.00781222 0.00781231 0.00781243 0.00781223 0.00781255 0.00781238 0.00781231 0.00781233 0.00781229 0.00781251 0.00781248 0.00781245 0.00781264 0.00781266 0.00781253 0.00781251 0.00781247 0.00781232 0.00781254 0.00781244 0.00781247 0.00781226 0.00781249 0.00781259 0.00781248 0.00781229 0.00781237 0.00781255 0.00781254 0.00781254 0.00781239 0.00781253 0.00781261 0.00781244 0.00781255 0.00781246 0.0078123 0.00781252 0.00781262 0.00781377 0.0078118 0.00781125 0.00781034 0.00780863 0.00781017 0.0078133 0.007812 0.00781154 0.00781075 0.00780969 0.0078107 0.00781257 0.00781162 0.00781195 0.00781124 0.00781071 0.00781118 0.00781205 0.00781135 0.007812 0.00781166 0.00781122 0.00781165 0.00781198 0.00781125 0.00781223 0.00781182 0.00781142 0.0078117 0.00781184 0.00781128 0.00781226 0.00781192 0.00781159 0.00781186 0.00781185 0.00781134 0.00781229 0.00781202 0.00781155 0.007812 0.00781201 0.00781143 0.00781235 0.0078119 0.00781183 0.00781198 0.00781199 0.00781156 0.00781224 0.00781206 0.00781187 0.00781199 0.00781205 0.00781156 0.00781226 0.00781211 0.00781181 0.00781203 0.00781212 0.00781169 0.00781237 0.00781209 0.0078121 0.00781209 0.00781209 0.00781181 0.00781226 0.00781217 0.00781195 0.00781215 0.00781224 0.00781195 0.00781242 0.00781214 0.0078121 0.00781224 0.00781223 0.00781191 0.00781238 0.00781216 0.00781218 0.00781221 0.00781226 0.00781185 0.00781236 0.00781219 0.00781211 0.00781224 0.00781231 0.00781211 0.00781257 0.0078124 0.00781227 0.00781233 0.00781243 0.00781211 0.00781244 0.00781234 0.00781227 0.0078124 0.00781237 0.00781201 0.00781253 0.0078123 0.00781217 0.00781225 0.00781222 0.0078122 0.00781247 0.0078125 0.00781245 0.00781252 0.00781245 0.00781222 0.00781267 0.00781256 0.00781247 0.00781239 0.00781218 0.00781219 0.00781247 0.00781239 0.0078123 0.00781239 0.00781232 0.00781237 0.00781249 0.00781258 0.00781249 0.00781242 0.00781238 0.00781215 0.00781254 0.0078124 0.00781247 0.00781239 0.00781244 0.00781232 0.00781267 0.00781256 0.00781236 0.00781246 0.0078125 0.00781232 0.00781244 0.00781248 0.00781248 0.00781245 0.00781249 0.00781242 0.00781256 0.00781272 0.0078124 0.00781231 0.00781243 0.0078126 0.00781241 0.00781258 0.00781239 0.00781243 0.00781243 0.00781239 0.00781268 0.00781248 0.00781262 0.00781259 0.00781239 0.00781223 0.00781251 0.00781263 0.0078124 0.00781237 0.00781262 0.00781244 0.00781276 0.00781259 0.00781262 0.00781247 0.00781255 0.00781244 0.00781241 0.00781269 0.00781252 0.00781236 0.00781253 0.00781284 0.00781261 0.0078125 0.00781238 0.00781227 0.00781694 0.00781491 0.00781581 0.00781454 0.0078125 0.00781389 0.00781554 0.0078142 0.0078152 0.00781406 0.0078126 0.00781356 0.00781447 0.00781354 0.00781453 0.00781375 0.00781287 0.00781351 0.00781371 0.00781289 0.00781408 0.00781354 0.00781294 0.00781341 0.00781345 0.00781272 0.00781383 0.00781343 0.00781295 0.00781329 0.00781319 0.00781271 0.0078136 0.0078134 0.00781292 0.00781324 0.00781319 0.00781261 0.00781351 0.00781326 0.00781291 0.00781314 0.00781324 0.00781257 0.00781348 0.00781321 0.00781287 0.00781317 0.007813 0.00781259 0.00781337 0.00781306 0.00781285 0.007813 0.00781312 0.00781251 0.00781329 0.00781305 0.00781289 0.00781292 0.00781297 0.0078126 0.00781322 0.00781308 0.00781289 0.007813 0.0078129 0.00781259 0.00781319 0.00781298 0.00781289 0.00781297 0.0078129 0.00781255 0.00781312 0.00781302 0.00781288 0.0078128 0.00781288 0.00781248 0.00781304 0.00781294 0.00781286 0.00781287 0.00781283 0.00781237 0.00781287 0.00781271 0.00781282 0.00781294 0.00781277 0.00781254 0.007813 0.0078128 0.0078127 0.00781289 0.00781288 0.00781243 0.00781296 0.00781288 0.0078127 0.00781259 0.00781271 0.00781259 0.0078128 0.00781287 0.00781264 0.00781273 0.00781251 0.00781267 0.00781288 0.0078127 0.0078126 0.00781273 0.00781273 0.00781253 0.00781279 0.00781272 0.00781271 0.0078127 0.00781262 0.00781258 0.00781286 0.00781269 0.00781262 0.00781247 0.00781258 0.00781244 0.00781276 0.00781277 0.00781248 0.00781258 0.00781259 0.00781257 0.00781277 0.00781284 0.0078126 0.00781264 0.00781246 0.0078124 0.00781251 0.00781273 0.00781248 0.00781279 0.00781251 0.00781243 0.00781282 0.00781251 0.00781263 0.00781254 0.00781247 0.00781243 0.00781259 0.00781254 0.00781247 0.00781246 0.00781254 0.00781241 0.00781259 0.00781265 0.00781229 0.0078125 0.00781246 0.0078126 0.00781258 0.00781264 0.00781247 0.00781262 0.00781241 0.00781247 0.00781265 0.00781254 0.00781234 0.00781241 0.00781228 0.00781257 0.00781259 0.00781242 0.00781249 0.00781257 0.00781238 0.00781236 0.00781242 0.00781253 0.00781248 0.00781244 0.00781267 0.00781261 0.0078124 0.00781263 0.00781265 0.00781233 0.00781982 0.00781798 0.00782072 0.00781877 0.00781647 0.00781773 0.00781749 0.00781629 0.00781885 0.00781729 0.00781548 0.00781654 0.0078161 0.00781522 0.00781694 0.00781623 0.00781501 0.00781569 0.00781534 0.0078145 0.00781581 0.00781549 0.00781466 0.00781518 0.00781491 0.00781422 0.00781518 0.00781503 0.00781445 0.00781481 0.00781468 0.00781401 0.00781493 0.00781471 0.0078143 0.00781458 0.00781444 0.00781389 0.00781467 0.00781447 0.0078141 0.00781442 0.00781431 0.00781373 0.0078146 0.00781432 0.00781407 0.00781426 0.00781421 0.00781359 0.00781439 0.00781422 0.00781388 0.00781401 0.00781402 0.00781342 0.00781417 0.00781402 0.00781378 0.00781386 0.00781381 0.00781349 0.00781416 0.00781406 0.00781359 0.00781387 0.00781374 0.00781339 0.00781399 0.00781376 0.00781361 0.00781373 0.0078137 0.00781311 0.00781377 0.00781362 0.00781348 0.00781357 0.00781351 0.00781316 0.00781367 0.00781368 0.00781335 0.00781339 0.0078134 0.00781307 0.00781359 0.00781347 0.00781334 0.00781349 0.00781325 0.00781302 0.00781352 0.00781342 0.00781321 0.00781332 0.0078131 0.00781302 0.0078133 0.00781327 0.0078131 0.00781326 0.00781315 0.00781293 0.0078134 0.00781317 0.00781299 0.00781307 0.00781294 0.00781286 0.00781312 0.0078131 0.00781302 0.00781316 0.00781302 0.0078127 0.00781316 0.00781309 0.00781299 0.00781294 0.00781299 0.00781281 0.00781315 0.007813 0.00781269 0.00781303 0.00781278 0.00781267 0.00781318 0.0078128 0.0078128 0.0078128 0.0078126 0.00781265 0.00781278 0.00781282 0.0078126 0.00781278 0.00781256 0.00781255 0.00781284 0.00781275 0.0078128 0.00781289 0.00781245 0.00781257 0.00781286 0.00781278 0.00781251 0.00781278 0.00781272 0.0078126 0.00781268 0.00781258 0.00781268 0.00781264 0.00781248 0.00781263 0.0078126 0.00781273 0.00781252 0.00781257 0.0078125 0.00781231 0.00781263 0.00781261 0.00781257 0.00781249 0.00781257 0.00781254 0.00781222 0.00781245 0.00781253 0.00781249 0.00781261 0.00781233 0.00781255 0.00781266 0.00781237 0.00781244 0.00781259 0.00781261 0.00781243 0.00781267 0.0078127 0.00781249 0.00781247 0.00781221 0.00781245 0.00781246 0.00781239 0.00781279 0.00782243 0.00782083 0.00782636 0.00782334 0.00782022 0.00782163 0.00781882 0.00781802 0.00782144 0.00782025 0.00781799 0.00781924 0.00781745 0.00781667 0.00781846 0.00781837 0.00781691 0.00781772 0.00781679 0.00781608 0.00781708 0.0078172 0.00781625 0.00781683 0.00781637 0.00781564 0.00781665 0.00781646 0.0078159 0.00781628 0.00781604 0.00781533 0.00781629 0.0078161 0.00781557 0.00781592 0.0078158 0.00781514 0.00781593 0.00781571 0.00781536 0.00781556 0.00781549 0.00781487 0.00781565 0.00781542 0.00781511 0.00781537 0.00781515 0.00781468 0.00781546 0.0078152 0.00781497 0.00781497 0.00781499 0.00781446 0.00781519 0.00781507 0.0078147 0.00781481 0.00781483 0.00781445 0.00781501 0.00781484 0.00781449 0.00781455 0.00781456 0.00781426 0.00781482 0.00781471 0.00781442 0.00781448 0.00781421 0.00781386 0.00781456 0.00781444 0.00781417 0.00781433 0.00781416 0.00781388 0.00781438 0.00781417 0.00781408 0.00781413 0.00781401 0.00781383 0.00781413 0.00781417 0.00781383 0.00781397 0.00781396 0.00781357 0.00781387 0.00781387 0.00781368 0.00781371 0.00781375 0.00781351 0.00781382 0.00781372 0.00781345 0.0078136 0.0078135 0.00781338 0.0078138 0.00781363 0.00781346 0.00781352 0.00781345 0.00781319 0.00781349 0.00781341 0.00781321 0.00781359 0.00781327 0.00781305 0.00781344 0.00781325 0.00781304 0.00781319 0.00781309 0.007813 0.00781322 0.00781317 0.00781302 0.0078132 0.00781288 0.00781294 0.00781323 0.00781309 0.00781274 0.00781289 0.00781289 0.00781299 0.00781304 0.00781294 0.00781291 0.00781304 0.00781289 0.00781273 0.00781288 0.00781297 0.00781275 0.00781271 0.00781274 0.00781272 0.0078128 0.00781304 0.00781264 0.00781289 0.00781276 0.00781258 0.00781278 0.00781284 0.00781258 0.00781259 0.00781235 0.0078125 0.00781266 0.00781262 0.00781262 0.00781269 0.00781263 0.0078126 0.00781263 0.00781264 0.00781252 0.00781261 0.00781263 0.00781249 0.00781269 0.00781254 0.0078126 0.00781255 0.00781234 0.00781247 0.00781265 0.00781271 0.00781258 0.00781234 0.00781253 0.00781243 0.0078126 0.00781273 0.00781245 0.00781245 0.00781253 0.00781255 0.00781253 0.00781251 0.00781256 0.00781259 0.00782444 0.00782282 0.00783555 0.00782822 0.00782333 0.00782543 0.00781947 0.00781912 0.00781944 0.00782231 0.00781981 0.00782112 0.00781886 0.00781811 0.00781852 0.00781983 0.00781838 0.00781908 0.00781833 0.00781748 0.0078185 0.00781854 0.00781772 0.00781812 0.00781794 0.00781708 0.00781805 0.00781778 0.00781717 0.00781755 0.00781749 0.00781675 0.00781763 0.00781725 0.00781683 0.00781711 0.00781705 0.00781626 0.00781714 0.00781686 0.00781648 0.00781671 0.00781671 0.00781604 0.00781679 0.00781655 0.00781617 0.00781635 0.00781636 0.00781565 0.00781646 0.00781623 0.00781583 0.00781601 0.00781596 0.00781552 0.0078161 0.007816 0.00781551 0.00781568 0.00781567 0.00781523 0.00781575 0.00781565 0.0078153 0.00781536 0.00781549 0.00781497 0.00781544 0.0078154 0.00781501 0.0078152 0.00781512 0.00781476 0.00781516 0.00781517 0.0078147 0.00781498 0.00781499 0.00781457 0.00781501 0.00781483 0.00781447 0.0078148 0.00781462 0.00781431 0.00781465 0.00781455 0.00781438 0.00781455 0.00781432 0.00781417 0.00781453 0.00781431 0.00781432 0.0078143 0.00781404 0.00781393 0.0078142 0.00781409 0.00781408 0.0078139 0.00781405 0.00781376 0.00781412 0.007814 0.00781365 0.00781364 0.00781373 0.00781359 0.00781361 0.00781374 0.00781358 0.00781361 0.00781355 0.00781353 0.00781359 0.00781369 0.00781355 0.00781336 0.00781345 0.00781329 0.00781325 0.00781333 0.00781338 0.00781332 0.00781325 0.00781319 0.00781312 0.00781323 0.00781319 0.00781318 0.00781312 0.00781299 0.00781309 0.00781306 0.00781303 0.00781316 0.00781299 0.00781294 0.00781288 0.00781293 0.00781287 0.00781288 0.00781281 0.00781298 0.00781284 0.00781283 0.00781289 0.00781279 0.00781282 0.00781267 0.0078126 0.00781276 0.00781289 0.00781287 0.00781262 0.00781278 0.00781244 0.00781257 0.00781257 0.00781276 0.00781264 0.00781259 0.00781268 0.00781255 0.00781257 0.00781262 0.00781253 0.00781266 0.00781254 0.00781223 0.00781241 0.00781251 0.00781257 0.00781262 0.00781266 0.0078126 0.00781252 0.0078126 0.0078123 0.0078126 0.0078126 0.00781261 0.00781239 0.00781251 0.00781247 0.00781254 0.00781233 0.00781211 0.00781253 0.0078127 0.00780538 0.00780062 0.00779796 0.00779336 0.00780282 0.00779942 0.00780679 0.00780601 0.00780478 0.00780259 0.0078052 0.00780382 0.00780734 0.00780647 0.00780717 0.00780513 0.00780591 0.00780555 0.0078075 0.0078066 0.00780757 0.00780637 0.0078065 0.0078066 0.00780767 0.00780704 0.00780773 0.00780716 0.00780698 0.00780734 0.00780793 0.00780744 0.00780805 0.00780762 0.00780752 0.00780781 0.00780833 0.00780776 0.00780841 0.00780801 0.00780795 0.00780812 0.00780876 0.00780823 0.00780883 0.00780854 0.00780831 0.00780851 0.00780903 0.00780861 0.00780908 0.0078088 0.00780869 0.00780895 0.00780941 0.007809 0.00780939 0.00780913 0.00780901 0.00780919 0.00780958 0.00780932 0.0078097 0.00780936 0.00780951 0.00780953 0.00780991 0.00780945 0.00781 0.00780974 0.00780955 0.00780988 0.00781023 0.00780979 0.0078103 0.00781002 0.00781006 0.00781009 0.00781035 0.00781003 0.00781029 0.00781035 0.00781015 0.00781031 0.00781073 0.00781049 0.0078107 0.00781047 0.00781029 0.00781066 0.00781083 0.00781059 0.00781103 0.00781081 0.00781076 0.0078107 0.00781098 0.00781073 0.00781115 0.00781096 0.00781097 0.00781098 0.00781133 0.00781102 0.0078112 0.00781115 0.00781121 0.00781124 0.00781142 0.00781127 0.00781144 0.00781136 0.00781113 0.00781141 0.00781163 0.00781142 0.00781165 0.00781152 0.00781156 0.00781154 0.00781173 0.00781169 0.00781173 0.00781174 0.00781178 0.00781179 0.00781193 0.0078119 0.00781194 0.00781178 0.00781181 0.00781186 0.00781181 0.0078119 0.00781202 0.00781198 0.00781195 0.00781204 0.00781209 0.00781192 0.00781216 0.00781188 0.0078121 0.00781217 0.00781215 0.00781218 0.00781227 0.00781208 0.00781212 0.0078121 0.00781229 0.00781249 0.00781227 0.00781218 0.00781233 0.00781211 0.00781213 0.00781248 0.0078122 0.00781246 0.00781226 0.00781236 0.0078124 0.00781241 0.00781244 0.00781237 0.00781239 0.00781259 0.00781269 0.00781257 0.00781239 0.00781207 0.00781247 0.00781251 0.00781251 0.00781257 0.00781257 0.00781232 0.00781255 0.00781241 0.00781252 0.00781242 0.00781246 0.00781254 0.00781277 0.00781246 0.00781267 0.00781259 0.00781263 0.00781259 0.00781246 0.00781249 0.00780821 0.00780605 0.0078024 0.00780154 0.00780147 0.00780243 0.00780851 0.00780791 0.00780484 0.00780473 0.00780568 0.00780581 0.00780863 0.00780816 0.00780739 0.00780686 0.00780718 0.00780741 0.00780891 0.0078083 0.00780871 0.00780804 0.00780795 0.00780815 0.00780904 0.0078084 0.00780925 0.00780871 0.00780849 0.00780877 0.00780925 0.00780867 0.00780947 0.00780906 0.00780892 0.00780912 0.00780948 0.00780903 0.0078097 0.00780939 0.00780919 0.00780937 0.00780983 0.0078092 0.0078099 0.00780966 0.00780952 0.00780978 0.00780995 0.00780952 0.00781013 0.00780985 0.0078098 0.00780992 0.00781014 0.00780978 0.00781041 0.00781009 0.00781013 0.00781013 0.00781045 0.00781005 0.00781057 0.00781036 0.0078102 0.00781037 0.00781055 0.00781029 0.00781075 0.00781046 0.00781045 0.00781059 0.00781076 0.0078106 0.0078109 0.00781075 0.00781072 0.00781074 0.00781097 0.00781052 0.00781109 0.00781095 0.00781085 0.00781097 0.00781126 0.00781083 0.00781117 0.00781093 0.00781112 0.00781114 0.00781142 0.00781105 0.00781125 0.0078112 0.00781127 0.00781126 0.00781142 0.00781116 0.00781147 0.00781147 0.00781132 0.00781144 0.00781151 0.00781142 0.00781166 0.00781139 0.00781159 0.00781172 0.00781158 0.0078117 0.00781171 0.0078116 0.00781166 0.00781169 0.00781167 0.00781176 0.00781192 0.00781172 0.00781182 0.00781179 0.00781185 0.00781171 0.00781206 0.00781187 0.00781191 0.00781191 0.00781203 0.00781198 0.0078121 0.00781187 0.00781202 0.00781186 0.0078121 0.00781217 0.00781217 0.00781218 0.00781207 0.0078122 0.00781227 0.00781215 0.00781224 0.00781217 0.00781213 0.00781211 0.00781211 0.00781235 0.00781224 0.00781231 0.0078123 0.00781221 0.00781223 0.0078123 0.00781236 0.00781216 0.00781245 0.00781248 0.00781254 0.0078122 0.00781247 0.00781217 0.0078124 0.00781248 0.00781239 0.00781245 0.00781247 0.00781245 0.00781266 0.00781246 0.00781234 0.00781235 0.00781256 0.00781248 0.00781246 0.00781224 0.00781236 0.00781245 0.00781252 0.00781251 0.00781265 0.00781243 0.00781244 0.00781252 0.00781268 0.00781271 0.00781246 0.00781222 0.00781256 0.00781238 0.00781265 0.0078123 0.00781236 0.00781233 0.0078109 0.00780893 0.00780683 0.00780622 0.00780475 0.00780637 0.00781094 0.00780992 0.007808 0.00780762 0.00780719 0.00780816 0.00781055 0.00780978 0.00780944 0.00780906 0.00780873 0.00780931 0.00781035 0.00780985 0.00781025 0.00780997 0.00780949 0.00780998 0.00781049 0.00780972 0.00781068 0.00781026 0.00780989 0.00781034 0.0078105 0.00780999 0.00781091 0.00781052 0.00781029 0.00781048 0.00781078 0.00781015 0.007811 0.00781074 0.00781046 0.00781068 0.00781082 0.00781031 0.00781115 0.00781085 0.00781073 0.00781082 0.00781098 0.00781037 0.0078112 0.00781103 0.00781086 0.00781097 0.00781111 0.00781079 0.00781121 0.00781116 0.00781099 0.00781122 0.00781118 0.00781074 0.00781157 0.00781119 0.00781113 0.00781129 0.00781128 0.00781102 0.00781165 0.00781139 0.0078113 0.00781129 0.00781145 0.00781102 0.00781157 0.00781155 0.00781141 0.00781156 0.00781162 0.00781127 0.00781174 0.00781154 0.00781153 0.00781164 0.00781158 0.0078113 0.00781182 0.00781162 0.00781174 0.00781163 0.00781194 0.00781145 0.0078118 0.00781173 0.00781186 0.00781182 0.00781186 0.00781167 0.00781188 0.00781203 0.00781194 0.00781189 0.00781188 0.00781172 0.00781207 0.00781194 0.00781197 0.00781181 0.00781188 0.0078118 0.00781211 0.00781216 0.007812 0.00781214 0.00781217 0.00781187 0.00781215 0.0078121 0.00781195 0.00781203 0.00781211 0.00781214 0.00781219 0.0078122 0.00781226 0.00781221 0.00781201 0.0078121 0.00781231 0.00781232 0.00781201 0.00781208 0.0078122 0.00781222 0.00781231 0.00781223 0.00781217 0.00781243 0.00781234 0.00781208 0.00781241 0.00781241 0.00781248 0.00781224 0.00781239 0.00781246 0.00781244 0.00781266 0.00781225 0.00781227 0.00781231 0.00781236 0.00781247 0.00781234 0.00781229 0.00781234 0.00781236 0.00781238 0.00781249 0.00781253 0.00781237 0.00781237 0.00781237 0.00781236 0.00781254 0.00781251 0.00781252 0.00781234 0.00781231 0.00781266 0.00781243 0.00781254 0.00781252 0.00781236 0.00781245 0.00781262 0.00781248 0.00781247 0.00781238 0.00781255 0.00781259 0.00781257 0.00781275 0.00781261 0.00781251 0.00781249 0.00781243 0.00781244 0.00781244 0.00781261 0.00781229 0.00781278 0.00781382 0.00781188 0.0078112 0.00781055 0.00780855 0.00781032 0.00781328 0.00781208 0.00781148 0.00781078 0.0078097 0.00781081 0.00781249 0.00781164 0.0078119 0.00781128 0.00781074 0.00781134 0.00781208 0.00781135 0.00781215 0.00781169 0.00781121 0.00781167 0.00781185 0.00781124 0.00781224 0.00781184 0.00781143 0.00781182 0.00781186 0.00781132 0.00781229 0.00781185 0.00781162 0.00781189 0.00781196 0.00781133 0.00781222 0.00781204 0.00781172 0.00781194 0.00781192 0.00781144 0.0078123 0.00781194 0.00781183 0.00781209 0.00781207 0.0078115 0.00781231 0.00781199 0.00781191 0.00781204 0.00781208 0.0078116 0.00781224 0.00781211 0.00781198 0.00781201 0.0078121 0.00781171 0.00781241 0.00781221 0.00781192 0.00781222 0.00781214 0.0078118 0.00781241 0.00781215 0.00781188 0.00781229 0.00781217 0.00781196 0.0078125 0.00781211 0.00781212 0.00781221 0.00781212 0.00781187 0.00781247 0.00781211 0.00781215 0.00781236 0.00781229 0.007812 0.0078124 0.00781216 0.00781224 0.00781225 0.00781224 0.00781182 0.00781239 0.00781231 0.00781228 0.00781233 0.00781224 0.00781196 0.00781247 0.00781227 0.00781229 0.00781227 0.00781227 0.00781218 0.00781245 0.00781237 0.00781232 0.00781226 0.00781249 0.0078122 0.00781238 0.00781223 0.00781229 0.00781238 0.00781246 0.00781232 0.00781248 0.00781231 0.00781246 0.00781238 0.00781255 0.00781224 0.00781251 0.00781229 0.00781231 0.00781241 0.00781244 0.00781238 0.00781254 0.00781236 0.00781224 0.00781247 0.00781226 0.00781237 0.00781265 0.00781234 0.00781251 0.00781239 0.00781247 0.0078122 0.00781253 0.0078124 0.00781235 0.00781235 0.00781246 0.00781239 0.00781247 0.00781242 0.00781251 0.00781247 0.00781255 0.00781232 0.00781245 0.00781239 0.00781258 0.00781237 0.00781248 0.00781225 0.00781252 0.00781247 0.00781239 0.0078126 0.00781229 0.00781259 0.00781261 0.00781245 0.00781244 0.00781243 0.00781262 0.0078126 0.00781244 0.00781242 0.00781248 0.0078123 0.00781251 0.00781249 0.00781266 0.00781268 0.00781246 0.00781242 0.00781241 0.0078128 0.0078126 0.00781259 0.00781264 0.00781245 0.00781237 0.00781258 0.0078125 0.00781245 0.00781257 0.00781264 0.00781688 0.00781492 0.0078157 0.00781473 0.0078124 0.00781405 0.00781543 0.00781408 0.00781508 0.00781402 0.0078125 0.00781358 0.00781432 0.00781331 0.00781449 0.00781367 0.00781279 0.00781353 0.00781367 0.00781289 0.00781405 0.00781354 0.00781296 0.00781334 0.00781339 0.00781272 0.00781381 0.00781344 0.00781289 0.00781328 0.00781328 0.00781263 0.0078136 0.0078133 0.00781299 0.00781324 0.00781313 0.00781255 0.00781348 0.0078132 0.00781299 0.00781313 0.0078131 0.00781262 0.00781336 0.00781318 0.00781293 0.00781311 0.00781309 0.00781251 0.00781333 0.00781316 0.00781284 0.00781312 0.00781305 0.00781258 0.00781341 0.00781306 0.00781293 0.007813 0.00781303 0.00781262 0.00781322 0.00781308 0.00781282 0.00781298 0.00781297 0.00781251 0.00781312 0.00781299 0.00781281 0.00781293 0.00781299 0.00781258 0.00781309 0.00781306 0.00781273 0.00781287 0.0078129 0.00781267 0.00781316 0.00781287 0.00781272 0.00781294 0.00781282 0.00781251 0.00781301 0.00781291 0.0078128 0.00781291 0.00781275 0.00781244 0.00781294 0.00781284 0.00781267 0.0078128 0.00781286 0.0078126 0.00781307 0.00781283 0.00781274 0.00781284 0.00781265 0.00781255 0.00781304 0.0078129 0.00781268 0.00781281 0.00781277 0.00781241 0.00781284 0.00781286 0.00781282 0.00781277 0.00781272 0.00781252 0.00781278 0.00781276 0.00781263 0.00781252 0.00781259 0.00781242 0.00781274 0.00781279 0.00781276 0.00781274 0.00781274 0.00781245 0.00781285 0.00781277 0.00781251 0.00781259 0.00781251 0.00781262 0.00781241 0.00781271 0.0078125 0.00781266 0.0078127 0.0078124 0.00781264 0.00781259 0.00781273 0.00781255 0.00781255 0.00781249 0.00781251 0.00781266 0.00781267 0.00781273 0.00781245 0.00781249 0.00781264 0.00781255 0.00781252 0.00781257 0.00781261 0.00781247 0.0078126 0.00781256 0.00781254 0.00781259 0.00781263 0.00781252 0.00781236 0.00781234 0.00781263 0.00781256 0.00781261 0.00781248 0.00781236 0.00781241 0.00781264 0.00781251 0.00781236 0.00781255 0.00781242 0.00781261 0.00781237 0.00781261 0.00781262 0.00781268 0.00781263 0.00781265 0.00781221 0.00781222 0.0078127 0.00781256 0.00781259 0.00781248 0.00781284 0.00781269 0.00781977 0.00781783 0.00782056 0.00781898 0.00781624 0.00781778 0.0078173 0.00781603 0.00781864 0.00781717 0.00781534 0.00781647 0.00781592 0.00781502 0.00781683 0.00781589 0.00781495 0.00781562 0.00781531 0.00781444 0.00781573 0.00781527 0.00781467 0.00781512 0.00781483 0.00781412 0.00781518 0.00781489 0.00781438 0.00781476 0.00781467 0.00781393 0.00781492 0.00781469 0.00781433 0.00781452 0.00781447 0.0078139 0.00781464 0.00781449 0.00781415 0.0078144 0.00781427 0.00781375 0.00781452 0.00781435 0.00781405 0.0078142 0.00781418 0.00781364 0.00781443 0.00781422 0.00781387 0.00781405 0.007814 0.00781363 0.0078143 0.00781401 0.00781381 0.00781394 0.00781389 0.00781342 0.00781415 0.00781389 0.00781371 0.00781387 0.00781373 0.00781339 0.00781407 0.00781388 0.00781364 0.00781373 0.00781371 0.00781323 0.00781386 0.00781365 0.00781356 0.00781368 0.00781352 0.00781321 0.00781365 0.00781354 0.0078134 0.00781354 0.00781334 0.00781314 0.00781357 0.00781354 0.00781325 0.00781343 0.00781339 0.007813 0.0078135 0.00781333 0.00781316 0.00781328 0.0078132 0.00781305 0.00781348 0.00781337 0.00781309 0.0078132 0.00781303 0.00781302 0.00781322 0.00781322 0.00781292 0.00781312 0.00781306 0.00781268 0.00781323 0.00781305 0.00781309 0.0078131 0.00781297 0.00781292 0.00781284 0.00781298 0.00781294 0.0078128 0.00781296 0.00781274 0.00781295 0.00781304 0.00781285 0.00781297 0.00781279 0.00781273 0.00781278 0.0078129 0.00781279 0.00781291 0.00781259 0.00781265 0.00781272 0.00781266 0.00781281 0.00781275 0.00781269 0.00781257 0.00781259 0.00781269 0.00781272 0.0078127 0.00781267 0.00781267 0.00781276 0.00781278 0.00781282 0.00781266 0.00781254 0.00781251 0.00781269 0.00781273 0.00781238 0.0078125 0.00781258 0.00781249 0.00781255 0.00781261 0.00781282 0.00781261 0.00781277 0.00781233 0.00781258 0.00781258 0.00781271 0.00781259 0.00781247 0.00781252 0.00781256 0.00781262 0.00781266 0.00781247 0.00781245 0.00781258 0.00781255 0.00781267 0.00781245 0.00781234 0.00781243 0.00781241 0.00781239 0.00781259 0.00781262 0.00781251 0.00781243 0.00781234 0.00781252 0.00781258 0.00781268 0.00781242 0.00782233 0.00782049 0.00782617 0.00782337 0.00781992 0.00782153 0.00781851 0.0078177 0.00782124 0.00782017 0.00781781 0.00781912 0.00781731 0.00781645 0.0078183 0.007818 0.00781681 0.00781767 0.00781675 0.00781594 0.00781715 0.00781698 0.00781623 0.00781675 0.00781634 0.00781564 0.00781659 0.00781638 0.00781582 0.00781617 0.00781605 0.00781525 0.00781627 0.00781596 0.00781558 0.00781578 0.00781577 0.00781501 0.0078159 0.00781577 0.00781531 0.00781557 0.00781552 0.00781491 0.00781568 0.00781539 0.00781508 0.00781532 0.00781527 0.00781467 0.00781547 0.00781515 0.00781486 0.00781504 0.00781494 0.00781457 0.00781507 0.00781497 0.00781466 0.00781493 0.00781485 0.00781431 0.00781501 0.00781476 0.00781441 0.00781475 0.00781451 0.00781421 0.0078148 0.00781454 0.00781431 0.00781455 0.00781435 0.00781402 0.00781452 0.00781436 0.00781409 0.00781429 0.0078142 0.00781382 0.00781437 0.00781422 0.00781403 0.00781425 0.00781393 0.00781376 0.00781412 0.00781396 0.00781386 0.00781403 0.00781389 0.00781346 0.00781398 0.00781395 0.0078137 0.00781382 0.00781365 0.00781353 0.00781378 0.00781376 0.00781368 0.00781373 0.00781343 0.00781337 0.00781359 0.00781356 0.00781335 0.00781357 0.00781332 0.00781331 0.00781348 0.00781338 0.00781331 0.00781345 0.00781316 0.0078131 0.00781342 0.00781331 0.00781339 0.00781323 0.00781309 0.00781306 0.00781328 0.00781321 0.00781315 0.00781318 0.00781304 0.00781293 0.00781314 0.00781319 0.00781285 0.00781299 0.00781287 0.00781294 0.00781292 0.00781305 0.00781284 0.007813 0.00781296 0.00781279 0.00781298 0.0078131 0.00781283 0.00781279 0.00781291 0.00781279 0.00781256 0.00781277 0.00781279 0.00781264 0.00781289 0.00781255 0.0078128 0.00781273 0.00781273 0.00781275 0.00781269 0.00781236 0.00781265 0.00781263 0.00781255 0.00781261 0.0078128 0.00781255 0.00781258 0.00781266 0.00781261 0.00781266 0.00781241 0.00781258 0.00781255 0.00781264 0.00781254 0.00781246 0.00781271 0.00781277 0.00781246 0.00781247 0.00781245 0.00781251 0.00781254 0.00781258 0.00781242 0.00781243 0.00781265 0.00781251 0.00781255 0.0078126 0.00781247 0.00781256 0.00781271 0.00781254 0.00782398 0.00782255 0.00783477 0.007828 0.00782303 0.00782525 0.00781932 0.00781875 0.00781923 0.00782207 0.00781953 0.00782084 0.00781878 0.00781779 0.00781839 0.0078195 0.00781832 0.007819 0.00781834 0.00781726 0.00781832 0.00781826 0.00781754 0.00781805 0.00781794 0.00781702 0.00781807 0.0078176 0.0078172 0.00781741 0.0078175 0.00781671 0.00781757 0.00781721 0.00781683 0.00781714 0.0078171 0.00781629 0.00781711 0.00781691 0.00781636 0.00781674 0.00781667 0.007816 0.00781678 0.00781639 0.00781614 0.00781632 0.00781631 0.00781572 0.00781658 0.00781623 0.00781575 0.00781593 0.00781607 0.0078155 0.00781605 0.00781592 0.00781564 0.00781577 0.00781576 0.0078152 0.00781572 0.00781563 0.00781532 0.00781543 0.00781556 0.00781496 0.00781541 0.00781528 0.007815 0.00781522 0.00781515 0.0078147 0.00781531 0.00781519 0.00781478 0.00781499 0.00781488 0.00781448 0.00781503 0.00781483 0.00781464 0.00781472 0.00781466 0.00781445 0.00781471 0.0078147 0.00781445 0.00781448 0.00781429 0.00781413 0.00781439 0.00781439 0.00781405 0.00781432 0.00781415 0.0078138 0.00781432 0.00781415 0.00781387 0.00781409 0.0078139 0.00781372 0.00781397 0.00781387 0.00781368 0.00781389 0.0078138 0.00781346 0.0078138 0.00781387 0.00781356 0.00781381 0.00781361 0.00781347 0.00781361 0.00781353 0.00781326 0.00781354 0.0078134 0.00781337 0.00781339 0.00781316 0.00781321 0.00781346 0.00781331 0.00781313 0.00781319 0.00781328 0.00781303 0.00781336 0.007813 0.00781294 0.00781314 0.0078131 0.0078129 0.00781319 0.00781306 0.00781289 0.00781301 0.00781287 0.00781284 0.0078131 0.00781299 0.00781264 0.00781298 0.00781304 0.00781286 0.00781298 0.00781276 0.0078125 0.00781272 0.00781274 0.00781267 0.00781284 0.00781263 0.00781253 0.00781247 0.00781248 0.00781252 0.00781297 0.0078126 0.00781235 0.00781278 0.00781263 0.00781252 0.00781272 0.0078126 0.00781259 0.00781256 0.00781243 0.00781247 0.00781251 0.00781255 0.00781239 0.0078125 0.00781252 0.0078124 0.00781248 0.00781257 0.00781256 0.00781292 0.00781259 0.00781259 0.00781242 0.00781234 0.00781248 0.00781258 0.00781261 0.00781235 0.00781258 0.00780592 0.00780142 0.00779832 0.00779415 0.00780323 0.00780027 0.00780722 0.00780654 0.00780528 0.00780351 0.00780564 0.00780444 0.00780763 0.00780677 0.0078076 0.00780599 0.00780615 0.00780602 0.00780764 0.0078069 0.0078078 0.00780688 0.00780666 0.00780684 0.00780781 0.00780718 0.00780785 0.00780747 0.00780713 0.00780745 0.00780804 0.00780756 0.00780821 0.00780788 0.00780757 0.0078079 0.00780837 0.0078079 0.00780849 0.00780823 0.0078079 0.00780824 0.00780873 0.00780817 0.00780882 0.00780849 0.00780829 0.00780869 0.00780893 0.00780862 0.00780917 0.00780877 0.00780875 0.00780894 0.00780929 0.00780896 0.00780939 0.00780916 0.00780911 0.00780918 0.00780959 0.00780918 0.00780967 0.00780945 0.00780935 0.00780955 0.00780999 0.00780957 0.0078099 0.0078097 0.00780965 0.00780992 0.00781025 0.00780983 0.00781017 0.00780987 0.00781002 0.00780994 0.0078103 0.00781011 0.00781032 0.00781025 0.00781024 0.00781021 0.00781064 0.00781032 0.00781062 0.00781049 0.00781045 0.00781063 0.00781081 0.00781061 0.00781088 0.00781068 0.00781063 0.00781057 0.00781104 0.00781091 0.00781098 0.00781096 0.00781074 0.00781091 0.00781121 0.00781107 0.00781135 0.00781121 0.00781107 0.00781114 0.00781136 0.00781133 0.00781148 0.00781135 0.00781146 0.00781136 0.00781161 0.00781137 0.00781157 0.0078116 0.00781155 0.00781143 0.00781176 0.0078116 0.00781167 0.0078117 0.00781177 0.00781172 0.00781172 0.00781177 0.00781186 0.00781177 0.0078121 0.00781186 0.00781182 0.00781195 0.00781204 0.00781191 0.00781189 0.00781192 0.00781215 0.00781196 0.00781199 0.0078119 0.00781217 0.00781214 0.00781216 0.00781217 0.00781229 0.00781218 0.00781213 0.00781234 0.00781224 0.0078123 0.00781232 0.00781216 0.00781225 0.00781226 0.00781226 0.00781216 0.00781218 0.0078124 0.00781241 0.00781232 0.00781241 0.00781225 0.00781229 0.00781226 0.00781249 0.00781246 0.00781222 0.00781248 0.00781254 0.00781257 0.00781246 0.00781265 0.00781263 0.00781266 0.00781258 0.00781252 0.00781253 0.00781259 0.00781227 0.00781226 0.00781255 0.00781244 0.00781242 0.00781245 0.00781241 0.00781247 0.00781254 0.0078126 0.00781272 0.00781275 0.00780864 0.00780653 0.00780265 0.00780186 0.00780176 0.00780302 0.00780892 0.00780843 0.0078053 0.00780551 0.00780606 0.0078064 0.00780883 0.0078085 0.00780785 0.00780766 0.00780748 0.00780777 0.00780897 0.00780846 0.00780898 0.00780853 0.00780823 0.00780849 0.00780916 0.00780854 0.00780937 0.00780903 0.00780866 0.00780893 0.00780936 0.00780878 0.00780959 0.00780924 0.00780892 0.00780921 0.00780953 0.007809 0.0078098 0.00780945 0.00780922 0.00780953 0.00780978 0.00780923 0.00780998 0.00780969 0.00780943 0.00780981 0.00781001 0.00780954 0.00781024 0.00780981 0.00780974 0.00780998 0.00781012 0.00780987 0.00781032 0.00781006 0.0078101 0.00781017 0.00781037 0.00781001 0.00781053 0.00781035 0.00781028 0.00781048 0.00781056 0.00781021 0.00781068 0.00781044 0.00781044 0.00781065 0.00781079 0.00781047 0.00781098 0.00781068 0.00781072 0.00781084 0.00781108 0.00781064 0.00781122 0.0078109 0.00781093 0.00781094 0.00781104 0.00781093 0.00781124 0.00781109 0.00781104 0.00781128 0.00781125 0.00781117 0.00781143 0.00781121 0.00781125 0.00781122 0.00781151 0.0078112 0.00781147 0.00781131 0.00781148 0.00781137 0.00781157 0.00781152 0.00781163 0.00781145 0.0078116 0.00781176 0.00781152 0.00781158 0.00781178 0.00781159 0.00781165 0.00781173 0.00781186 0.00781163 0.00781197 0.00781176 0.00781174 0.0078119 0.00781202 0.00781182 0.00781205 0.0078119 0.00781189 0.00781207 0.00781203 0.00781182 0.00781192 0.00781188 0.00781196 0.00781216 0.0078122 0.00781197 0.00781234 0.00781203 0.00781202 0.00781212 0.00781221 0.00781213 0.00781212 0.00781215 0.00781222 0.00781226 0.00781223 0.00781237 0.00781227 0.00781223 0.00781223 0.00781233 0.00781215 0.00781247 0.00781248 0.0078122 0.00781229 0.00781235 0.00781227 0.00781213 0.00781247 0.00781243 0.00781242 0.00781238 0.00781254 0.00781238 0.00781238 0.00781242 0.00781254 0.00781266 0.00781254 0.00781256 0.0078125 0.00781241 0.00781218 0.00781233 0.00781255 0.0078124 0.00781257 0.00781233 0.00781254 0.00781261 0.00781252 0.00781262 0.00781262 0.0078125 0.00781241 0.00781268 0.00781269 0.00781246 0.00781264 0.00781244 0.00781235 0.00781268 0.00781107 0.00780922 0.00780695 0.00780645 0.00780489 0.00780678 0.00781109 0.00781035 0.00780835 0.00780814 0.00780761 0.00780846 0.00781062 0.00781009 0.00780973 0.00780964 0.00780902 0.00780954 0.00781046 0.00780995 0.00781047 0.00781028 0.00780976 0.0078102 0.00781051 0.00780988 0.00781077 0.00781047 0.00781008 0.00781041 0.00781062 0.00780998 0.00781088 0.00781064 0.00781028 0.00781062 0.00781067 0.00781022 0.00781104 0.00781078 0.0078105 0.00781077 0.00781095 0.00781038 0.00781114 0.00781084 0.00781064 0.0078109 0.00781105 0.00781057 0.00781127 0.00781095 0.00781078 0.007811 0.00781118 0.00781076 0.00781135 0.00781109 0.00781104 0.00781111 0.00781133 0.00781084 0.00781144 0.00781123 0.00781111 0.00781123 0.00781147 0.00781109 0.0078115 0.00781141 0.00781132 0.0078114 0.00781156 0.00781129 0.00781159 0.00781148 0.0078114 0.00781146 0.0078116 0.00781125 0.00781176 0.00781151 0.00781135 0.00781161 0.00781168 0.00781141 0.00781182 0.00781165 0.00781155 0.00781165 0.00781186 0.00781166 0.00781189 0.00781178 0.00781181 0.00781192 0.00781184 0.00781158 0.00781189 0.00781181 0.00781184 0.00781188 0.0078121 0.00781165 0.0078121 0.00781176 0.00781187 0.00781218 0.00781214 0.00781185 0.0078121 0.00781193 0.00781201 0.00781198 0.00781221 0.00781195 0.00781217 0.0078122 0.00781199 0.00781217 0.00781212 0.00781211 0.00781219 0.00781214 0.00781222 0.00781213 0.00781224 0.00781201 0.00781224 0.00781216 0.00781242 0.00781226 0.00781223 0.00781207 0.00781239 0.00781235 0.00781223 0.00781231 0.00781241 0.00781228 0.00781242 0.00781246 0.00781242 0.00781212 0.00781214 0.00781226 0.00781239 0.00781241 0.00781236 0.00781223 0.00781232 0.00781249 0.00781252 0.00781241 0.00781233 0.00781244 0.00781252 0.00781243 0.00781234 0.00781214 0.00781243 0.00781241 0.00781252 0.00781246 0.00781243 0.0078122 0.00781255 0.00781258 0.00781239 0.00781246 0.00781254 0.00781266 0.00781249 0.0078124 0.00781242 0.0078127 0.00781259 0.00781249 0.00781237 0.00781239 0.00781251 0.00781268 0.00781254 0.00781256 0.00781261 0.00781235 0.00781251 0.00781258 0.00781248 0.00781268 0.00781251 0.00781249 0.00781372 0.0078119 0.0078112 0.00781068 0.00780859 0.00781044 0.00781322 0.00781209 0.00781163 0.00781091 0.00780994 0.00781092 0.00781246 0.00781166 0.00781197 0.00781151 0.00781093 0.00781142 0.00781202 0.0078114 0.00781223 0.00781184 0.00781134 0.0078117 0.00781189 0.00781133 0.00781227 0.0078119 0.00781156 0.00781193 0.00781188 0.00781133 0.00781224 0.00781188 0.00781166 0.00781198 0.00781198 0.00781147 0.00781224 0.00781202 0.00781169 0.00781193 0.00781201 0.00781148 0.00781223 0.00781201 0.00781181 0.00781204 0.00781207 0.00781155 0.0078123 0.00781201 0.00781182 0.00781203 0.00781218 0.00781168 0.00781225 0.00781201 0.00781191 0.00781209 0.00781214 0.00781179 0.00781241 0.0078121 0.00781195 0.00781214 0.00781219 0.00781177 0.00781236 0.00781202 0.00781212 0.00781211 0.00781218 0.00781188 0.00781238 0.00781226 0.00781204 0.00781229 0.00781225 0.00781191 0.00781249 0.0078121 0.00781215 0.00781231 0.00781231 0.00781196 0.00781231 0.0078122 0.00781211 0.00781228 0.0078123 0.00781208 0.00781239 0.0078123 0.00781227 0.00781227 0.00781225 0.00781222 0.00781241 0.00781224 0.00781236 0.00781229 0.00781232 0.00781218 0.00781247 0.00781232 0.00781236 0.00781236 0.0078122 0.00781228 0.00781235 0.00781228 0.00781247 0.0078124 0.00781236 0.00781224 0.00781251 0.00781235 0.00781231 0.00781265 0.00781237 0.00781225 0.00781267 0.00781236 0.00781244 0.00781249 0.00781237 0.0078123 0.00781254 0.00781238 0.00781247 0.00781256 0.00781249 0.00781228 0.00781243 0.00781231 0.00781234 0.00781249 0.00781249 0.00781228 0.0078125 0.00781246 0.00781249 0.00781258 0.0078124 0.00781247 0.0078125 0.00781238 0.00781237 0.00781258 0.0078124 0.00781241 0.00781258 0.00781247 0.00781251 0.00781257 0.00781234 0.00781244 0.00781254 0.00781241 0.00781257 0.00781265 0.00781255 0.0078126 0.00781267 0.00781238 0.00781259 0.00781262 0.00781236 0.00781242 0.00781258 0.00781249 0.00781251 0.00781238 0.00781245 0.00781252 0.00781255 0.00781251 0.0078129 0.0078125 0.00781233 0.00781261 0.0078123 0.00781251 0.0078126 0.00781258 0.00781243 0.00781253 0.00781259 0.00781243 0.00781266 0.00781254 0.00781657 0.0078146 0.0078156 0.0078148 0.00781222 0.00781402 0.00781508 0.00781383 0.00781494 0.00781373 0.00781258 0.00781352 0.00781413 0.00781311 0.00781443 0.00781345 0.00781296 0.00781333 0.00781365 0.00781287 0.007814 0.00781343 0.00781299 0.00781329 0.00781338 0.00781268 0.00781375 0.00781342 0.00781292 0.00781324 0.00781325 0.00781263 0.00781365 0.00781325 0.00781301 0.00781328 0.00781319 0.00781263 0.0078135 0.00781328 0.00781296 0.00781315 0.00781317 0.00781259 0.0078133 0.00781313 0.00781294 0.00781311 0.00781317 0.00781256 0.00781334 0.00781315 0.00781282 0.00781304 0.00781304 0.00781264 0.00781326 0.00781311 0.0078129 0.00781301 0.00781298 0.00781263 0.00781318 0.00781311 0.00781278 0.00781298 0.00781298 0.00781262 0.00781318 0.00781291 0.00781285 0.00781296 0.00781296 0.00781264 0.00781314 0.00781292 0.0078129 0.00781289 0.00781286 0.00781264 0.007813 0.0078129 0.00781271 0.00781298 0.00781278 0.00781251 0.00781298 0.00781285 0.00781273 0.00781287 0.00781285 0.00781265 0.00781293 0.00781271 0.00781265 0.00781278 0.00781271 0.00781262 0.00781296 0.00781276 0.00781269 0.00781283 0.00781267 0.00781268 0.00781288 0.00781274 0.00781276 0.00781273 0.00781288 0.00781258 0.00781284 0.00781266 0.00781272 0.00781287 0.00781268 0.00781243 0.00781291 0.00781287 0.00781268 0.00781259 0.00781267 0.00781268 0.00781274 0.00781284 0.00781259 0.00781262 0.00781257 0.00781241 0.00781265 0.0078127 0.00781259 0.00781265 0.00781261 0.00781244 0.00781265 0.00781278 0.00781256 0.00781247 0.00781257 0.00781249 0.00781259 0.00781262 0.00781271 0.00781261 0.00781251 0.00781256 0.00781236 0.00781267 0.00781257 0.00781262 0.00781258 0.00781254 0.00781274 0.0078125 0.00781245 0.00781262 0.00781258 0.00781268 0.00781249 0.00781243 0.00781242 0.00781258 0.00781268 0.00781254 0.00781262 0.0078125 0.0078125 0.00781268 0.00781238 0.00781254 0.00781245 0.00781233 0.00781253 0.00781254 0.0078125 0.00781257 0.00781243 0.00781244 0.00781243 0.00781237 0.00781257 0.00781247 0.00781247 0.00781257 0.00781248 0.00781249 0.00781261 0.00781245 0.00781235 0.00781247 0.00781237 0.00781255 0.0078194 0.00781721 0.00782035 0.00781898 0.00781589 0.00781755 0.00781676 0.0078154 0.00781823 0.00781661 0.00781529 0.00781606 0.00781555 0.00781453 0.00781657 0.0078154 0.00781484 0.00781535 0.00781509 0.00781422 0.00781555 0.00781493 0.00781461 0.00781491 0.0078148 0.00781412 0.0078151 0.0078148 0.00781433 0.0078147 0.00781471 0.00781396 0.00781495 0.00781462 0.00781419 0.00781446 0.0078145 0.00781395 0.00781468 0.00781445 0.00781417 0.00781438 0.00781437 0.00781374 0.0078145 0.00781435 0.00781402 0.00781418 0.00781413 0.00781369 0.0078144 0.00781416 0.00781391 0.00781413 0.007814 0.00781367 0.00781431 0.00781399 0.00781376 0.00781397 0.00781393 0.00781344 0.007814 0.00781391 0.00781371 0.00781381 0.00781383 0.0078134 0.00781395 0.00781385 0.00781347 0.00781375 0.00781369 0.00781329 0.00781376 0.00781354 0.0078135 0.00781362 0.00781358 0.00781328 0.00781368 0.00781364 0.00781329 0.00781361 0.00781347 0.00781325 0.00781362 0.00781338 0.00781335 0.00781355 0.00781342 0.00781304 0.0078135 0.00781346 0.0078132 0.00781328 0.00781331 0.00781299 0.00781341 0.00781329 0.00781291 0.0078131 0.00781318 0.00781288 0.00781335 0.00781331 0.00781287 0.00781313 0.00781299 0.00781294 0.00781295 0.00781313 0.00781303 0.00781309 0.00781313 0.00781294 0.00781324 0.00781296 0.00781277 0.00781305 0.00781298 0.00781301 0.00781297 0.00781305 0.00781287 0.0078128 0.00781285 0.00781268 0.00781285 0.00781289 0.00781292 0.00781286 0.00781269 0.00781266 0.00781277 0.00781276 0.00781274 0.00781286 0.00781271 0.00781273 0.00781282 0.00781282 0.00781265 0.00781281 0.00781266 0.00781257 0.00781271 0.00781267 0.00781284 0.00781273 0.00781264 0.00781268 0.00781266 0.00781258 0.00781258 0.00781274 0.00781269 0.00781253 0.00781265 0.0078126 0.00781257 0.00781269 0.00781274 0.00781245 0.00781273 0.0078126 0.00781241 0.00781253 0.00781237 0.00781254 0.0078127 0.00781261 0.00781262 0.00781254 0.00781232 0.00781235 0.00781264 0.0078126 0.0078125 0.00781241 0.00781275 0.00781238 0.00781261 0.0078126 0.00781244 0.00781268 0.00781259 0.00781251 0.0078123 0.00781248 0.00781261 0.00781245 0.0078218 0.00781975 0.00782587 0.0078235 0.00781954 0.00782116 0.00781808 0.00781683 0.00782069 0.00781933 0.00781769 0.00781861 0.0078169 0.00781597 0.00781798 0.00781727 0.00781661 0.00781719 0.00781655 0.0078157 0.00781692 0.0078165 0.0078161 0.00781642 0.00781623 0.00781547 0.00781651 0.00781615 0.00781571 0.00781601 0.00781604 0.00781531 0.00781612 0.00781585 0.00781547 0.00781569 0.0078158 0.00781516 0.00781593 0.00781563 0.00781534 0.0078154 0.00781546 0.00781485 0.00781555 0.0078154 0.00781513 0.00781534 0.00781523 0.00781474 0.00781547 0.0078153 0.00781478 0.00781511 0.00781501 0.00781464 0.00781518 0.00781496 0.00781469 0.00781498 0.00781475 0.00781436 0.00781501 0.00781482 0.00781459 0.00781458 0.00781463 0.00781419 0.00781467 0.00781454 0.0078143 0.00781459 0.00781436 0.00781406 0.00781448 0.00781435 0.00781422 0.00781433 0.0078143 0.00781396 0.00781422 0.00781418 0.00781395 0.00781423 0.00781413 0.00781368 0.00781411 0.00781396 0.00781383 0.007814 0.00781378 0.0078136 0.00781394 0.0078139 0.00781371 0.00781376 0.00781368 0.00781341 0.00781382 0.00781369 0.00781355 0.00781361 0.00781351 0.00781333 0.00781378 0.00781375 0.00781345 0.00781354 0.0078133 0.00781315 0.00781358 0.00781345 0.0078133 0.0078134 0.00781306 0.00781334 0.00781347 0.00781334 0.0078134 0.00781328 0.00781292 0.00781294 0.00781326 0.00781322 0.00781311 0.00781334 0.00781291 0.00781282 0.00781321 0.00781301 0.007813 0.00781303 0.00781303 0.00781293 0.00781294 0.00781299 0.0078129 0.00781296 0.00781291 0.00781281 0.00781287 0.00781291 0.00781289 0.00781285 0.00781269 0.00781282 0.00781273 0.00781283 0.00781264 0.00781268 0.00781269 0.00781267 0.0078127 0.00781277 0.0078126 0.00781265 0.00781272 0.00781258 0.00781247 0.00781271 0.00781267 0.00781261 0.00781264 0.00781261 0.00781267 0.00781266 0.00781264 0.00781257 0.00781251 0.00781269 0.00781262 0.0078127 0.00781251 0.00781247 0.00781259 0.00781262 0.00781245 0.00781264 0.00781252 0.00781274 0.00781234 0.00781243 0.00781242 0.00781243 0.00781276 0.00781242 0.00781268 0.00781233 0.00781233 0.00781248 0.00781268 0.00781253 0.00782329 0.00782173 0.00783331 0.0078276 0.00782264 0.00782474 0.00781888 0.00781799 0.00781872 0.00782135 0.00781925 0.0078203 0.00781837 0.00781734 0.00781818 0.00781886 0.00781795 0.00781863 0.00781819 0.00781709 0.00781819 0.00781776 0.00781743 0.00781778 0.00781776 0.00781693 0.00781782 0.00781739 0.00781699 0.00781732 0.00781735 0.0078166 0.0078174 0.00781705 0.00781681 0.00781698 0.00781706 0.00781633 0.00781707 0.00781685 0.00781639 0.00781665 0.00781677 0.00781599 0.00781685 0.0078165 0.00781612 0.00781633 0.00781638 0.00781582 0.00781642 0.00781621 0.0078158 0.00781602 0.00781614 0.00781556 0.00781619 0.00781593 0.00781555 0.00781579 0.00781579 0.00781532 0.00781584 0.00781555 0.00781533 0.00781554 0.00781536 0.00781496 0.00781559 0.00781531 0.00781514 0.00781529 0.00781515 0.00781474 0.00781514 0.00781511 0.00781492 0.0078149 0.00781486 0.00781448 0.00781492 0.0078149 0.00781453 0.00781471 0.00781455 0.00781417 0.00781476 0.00781462 0.0078144 0.00781448 0.00781438 0.00781417 0.00781439 0.00781442 0.00781419 0.00781432 0.00781422 0.00781391 0.00781428 0.00781429 0.00781391 0.00781407 0.00781386 0.00781387 0.00781421 0.00781391 0.00781376 0.00781383 0.00781386 0.00781372 0.00781398 0.00781382 0.00781355 0.00781368 0.00781348 0.00781343 0.00781373 0.0078136 0.00781337 0.00781352 0.00781336 0.00781344 0.00781349 0.0078134 0.00781332 0.00781353 0.0078134 0.00781323 0.00781323 0.00781322 0.00781294 0.00781328 0.00781322 0.00781293 0.00781326 0.00781313 0.00781311 0.00781295 0.00781281 0.00781296 0.00781291 0.00781308 0.00781283 0.00781296 0.00781291 0.00781299 0.00781301 0.00781279 0.00781292 0.00781284 0.00781278 0.00781279 0.00781295 0.00781263 0.00781286 0.00781276 0.00781284 0.00781256 0.00781275 0.00781266 0.00781274 0.00781275 0.0078126 0.00781245 0.00781257 0.00781259 0.00781251 0.00781249 0.00781261 0.00781264 0.00781259 0.00781258 0.00781242 0.00781257 0.00781239 0.00781249 0.00781255 0.00781246 0.00781254 0.00781257 0.0078125 0.00781259 0.00781276 0.00781257 0.00781234 0.0078124 0.00781264 0.00781266 0.00781232 0.00781249 0.00781273 0.00781228 0.00780713 0.00780319 0.00779974 0.00779538 0.00780391 0.00780225 0.00780806 0.00780662 0.0078067 0.00780681 0.00780655 0.00780574 0.00780814 0.00780697 0.00780841 0.00780761 0.00780686 0.00780679 0.00780792 0.00780713 0.00780826 0.00780773 0.00780708 0.0078073 0.00780798 0.00780732 0.00780812 0.0078078 0.0078074 0.00780766 0.00780811 0.00780768 0.00780827 0.007808 0.00780774 0.00780795 0.00780843 0.00780806 0.00780845 0.0078083 0.00780807 0.00780822 0.00780875 0.00780833 0.00780877 0.00780853 0.00780831 0.00780858 0.00780904 0.00780859 0.00780907 0.00780876 0.00780867 0.00780895 0.00780941 0.00780899 0.0078094 0.00780899 0.00780896 0.00780917 0.00780965 0.00780934 0.0078096 0.00780936 0.00780939 0.00780951 0.00780991 0.00780962 0.00780985 0.00780969 0.00780961 0.00780989 0.00781013 0.00780975 0.00781018 0.00780991 0.00780986 0.00781004 0.00781042 0.00781016 0.00781036 0.00781016 0.00781032 0.00781031 0.00781062 0.00781047 0.00781053 0.0078104 0.00781054 0.00781054 0.00781082 0.00781076 0.00781079 0.00781065 0.00781069 0.00781077 0.00781106 0.00781076 0.00781121 0.00781086 0.00781084 0.00781096 0.00781116 0.00781098 0.00781117 0.00781111 0.00781103 0.00781118 0.00781127 0.00781127 0.00781146 0.00781128 0.00781158 0.00781139 0.00781155 0.00781147 0.0078115 0.00781147 0.00781173 0.00781147 0.00781167 0.00781156 0.00781177 0.00781194 0.00781148 0.00781167 0.00781181 0.00781163 0.00781194 0.00781179 0.00781172 0.0078117 0.0078119 0.00781191 0.00781191 0.00781195 0.00781201 0.00781191 0.00781207 0.00781212 0.00781205 0.00781197 0.00781192 0.00781214 0.00781216 0.0078122 0.00781231 0.00781204 0.00781193 0.007812 0.00781215 0.00781242 0.00781233 0.00781202 0.00781234 0.00781227 0.00781234 0.00781228 0.00781214 0.0078123 0.00781252 0.00781238 0.00781244 0.00781239 0.00781244 0.00781246 0.00781236 0.00781227 0.00781249 0.0078122 0.00781246 0.00781254 0.00781231 0.00781225 0.00781239 0.00781252 0.00781249 0.00781252 0.00781259 0.00781237 0.00781272 0.00781262 0.00781238 0.00781224 0.00781242 0.00781246 0.00781235 0.00781244 0.00781237 0.00781234 0.00781265 0.00781254 0.0078092 0.00780722 0.00780342 0.00780136 0.00780228 0.00780452 0.00780938 0.00780923 0.0078069 0.00780854 0.00780728 0.00780751 0.00780923 0.00780889 0.00780884 0.00780937 0.00780835 0.0078085 0.00780929 0.00780873 0.00780946 0.00780932 0.00780868 0.00780889 0.00780933 0.0078088 0.0078096 0.00780929 0.00780891 0.0078091 0.00780947 0.00780893 0.00780962 0.00780936 0.00780906 0.00780936 0.00780961 0.00780919 0.00780981 0.00780954 0.00780928 0.0078096 0.00780981 0.00780946 0.00780993 0.0078097 0.00780951 0.00780974 0.00781003 0.00780968 0.00781013 0.00780988 0.00780968 0.00780999 0.00781024 0.00780997 0.00781034 0.00781002 0.00780995 0.00781018 0.00781047 0.0078101 0.00781048 0.00781028 0.00781019 0.00781033 0.00781069 0.00781036 0.00781075 0.00781053 0.00781041 0.00781066 0.0078108 0.00781058 0.0078109 0.00781076 0.00781061 0.00781076 0.00781106 0.00781081 0.00781098 0.0078108 0.00781083 0.00781087 0.00781113 0.00781108 0.00781122 0.00781105 0.00781096 0.00781115 0.00781133 0.00781118 0.00781142 0.00781112 0.0078111 0.00781134 0.00781133 0.00781132 0.00781162 0.00781135 0.00781118 0.00781137 0.00781155 0.00781153 0.00781161 0.00781133 0.00781143 0.00781154 0.00781166 0.00781172 0.00781169 0.00781156 0.00781153 0.00781176 0.00781173 0.00781168 0.00781197 0.00781183 0.00781156 0.00781177 0.00781189 0.00781202 0.00781206 0.00781171 0.0078119 0.00781196 0.00781216 0.00781186 0.00781183 0.0078119 0.00781201 0.00781202 0.00781209 0.00781215 0.0078122 0.007812 0.00781209 0.00781212 0.00781222 0.0078122 0.0078121 0.0078121 0.00781214 0.00781222 0.00781219 0.00781226 0.00781231 0.00781217 0.00781222 0.00781231 0.00781222 0.00781232 0.00781238 0.00781243 0.00781219 0.0078123 0.0078123 0.00781236 0.00781225 0.00781244 0.00781251 0.00781225 0.0078123 0.00781235 0.00781251 0.00781246 0.00781239 0.00781254 0.00781232 0.0078125 0.00781241 0.00781227 0.00781229 0.00781242 0.00781237 0.00781244 0.00781261 0.00781244 0.00781256 0.00781248 0.00781244 0.00781235 0.00781253 0.00781254 0.00781253 0.00781235 0.00781258 0.00781255 0.00781274 0.00781244 0.00781234 0.00781236 0.00781109 0.00780925 0.00780753 0.00780604 0.00780534 0.00780765 0.00781124 0.00781053 0.00780939 0.00781019 0.00780879 0.00780926 0.00781085 0.00781038 0.00781049 0.00781087 0.0078099 0.00781006 0.00781067 0.00781023 0.00781089 0.00781086 0.00781012 0.00781043 0.00781064 0.00781025 0.00781096 0.00781059 0.00781032 0.00781052 0.00781072 0.00781031 0.00781105 0.00781072 0.00781038 0.0078106 0.00781089 0.00781042 0.00781109 0.00781075 0.00781051 0.00781084 0.00781102 0.00781054 0.00781114 0.0078108 0.00781069 0.00781083 0.00781106 0.00781072 0.00781121 0.00781098 0.00781079 0.00781105 0.00781124 0.00781081 0.00781139 0.007811 0.00781097 0.00781111 0.00781134 0.007811 0.00781137 0.00781124 0.00781105 0.00781119 0.00781138 0.00781113 0.00781162 0.00781125 0.00781117 0.00781137 0.00781148 0.00781119 0.00781162 0.00781141 0.00781127 0.00781149 0.0078117 0.00781145 0.00781164 0.0078114 0.00781152 0.00781163 0.00781166 0.0078115 0.00781189 0.00781173 0.0078116 0.0078116 0.00781184 0.00781162 0.00781187 0.00781176 0.00781168 0.0078117 0.00781191 0.00781183 0.00781204 0.00781187 0.00781176 0.00781189 0.00781189 0.00781183 0.00781208 0.00781188 0.00781199 0.00781193 0.00781208 0.00781193 0.00781203 0.00781213 0.00781197 0.00781192 0.00781205 0.00781202 0.00781222 0.00781195 0.00781198 0.0078121 0.00781211 0.00781212 0.00781224 0.00781219 0.00781194 0.00781217 0.00781204 0.00781218 0.00781226 0.00781206 0.0078123 0.00781221 0.00781241 0.00781228 0.0078124 0.00781223 0.00781216 0.00781226 0.0078124 0.00781228 0.00781243 0.00781231 0.00781223 0.00781229 0.00781262 0.00781227 0.00781246 0.00781234 0.00781224 0.00781231 0.00781245 0.00781221 0.0078124 0.00781249 0.00781228 0.00781231 0.00781229 0.00781232 0.00781239 0.00781243 0.00781253 0.00781262 0.00781241 0.00781257 0.00781249 0.00781232 0.00781252 0.00781255 0.00781252 0.00781243 0.00781235 0.00781246 0.00781259 0.00781236 0.00781241 0.00781249 0.00781248 0.00781241 0.00781227 0.00781267 0.00781253 0.00781234 0.00781246 0.00781232 0.00781239 0.0078126 0.00781248 0.00781244 0.00781259 0.00781239 0.00781279 0.00781223 0.00781334 0.00781131 0.00781159 0.00781056 0.00780883 0.00781061 0.00781287 0.00781192 0.00781207 0.00781175 0.00781069 0.0078111 0.00781231 0.00781165 0.00781233 0.00781192 0.00781147 0.00781157 0.00781207 0.00781156 0.00781242 0.00781203 0.00781157 0.00781179 0.007812 0.00781153 0.00781233 0.00781202 0.0078116 0.00781191 0.007812 0.00781156 0.00781226 0.00781196 0.00781159 0.00781193 0.00781209 0.00781158 0.00781219 0.00781199 0.00781173 0.00781198 0.00781216 0.00781168 0.00781228 0.00781198 0.00781171 0.00781207 0.00781211 0.00781171 0.00781229 0.00781195 0.00781178 0.00781206 0.00781214 0.00781179 0.00781231 0.00781192 0.00781174 0.00781213 0.00781214 0.00781179 0.00781234 0.00781205 0.007812 0.00781223 0.00781224 0.00781204 0.00781223 0.00781216 0.00781203 0.00781215 0.00781216 0.00781205 0.00781231 0.00781227 0.00781203 0.0078121 0.00781218 0.00781202 0.00781233 0.00781222 0.00781212 0.0078123 0.00781223 0.00781214 0.00781238 0.00781213 0.00781229 0.00781238 0.00781235 0.00781221 0.00781239 0.00781234 0.00781219 0.00781234 0.00781224 0.00781224 0.00781243 0.0078123 0.00781219 0.00781233 0.00781214 0.00781223 0.00781246 0.00781236 0.00781225 0.00781233 0.00781231 0.00781225 0.00781242 0.0078124 0.00781231 0.00781245 0.00781232 0.0078123 0.00781267 0.00781247 0.00781239 0.00781236 0.00781231 0.0078123 0.00781257 0.0078126 0.0078125 0.00781239 0.00781233 0.00781228 0.0078125 0.00781263 0.00781245 0.00781238 0.00781245 0.00781238 0.0078125 0.00781265 0.00781239 0.00781245 0.00781248 0.00781241 0.00781236 0.00781245 0.00781255 0.00781243 0.00781247 0.00781218 0.00781265 0.00781267 0.00781239 0.0078125 0.00781241 0.00781245 0.00781259 0.00781237 0.00781251 0.00781236 0.00781233 0.00781246 0.0078123 0.00781246 0.00781239 0.0078126 0.00781244 0.00781246 0.00781257 0.00781242 0.00781249 0.00781258 0.00781251 0.00781278 0.00781231 0.00781234 0.00781252 0.00781249 0.00781255 0.00781259 0.0078127 0.00781238 0.00781247 0.00781247 0.00781237 0.00781236 0.00781258 0.00781251 0.00781262 0.00781247 0.00781274 0.00781257 0.00781257 0.00781254 0.00781249 0.00781256 0.00781564 0.00781337 0.00781584 0.00781509 0.00781242 0.00781357 0.00781436 0.00781308 0.00781477 0.00781329 0.00781283 0.00781308 0.0078137 0.00781292 0.00781406 0.00781318 0.00781297 0.0078131 0.00781348 0.00781288 0.00781388 0.00781322 0.00781304 0.00781325 0.00781338 0.00781283 0.00781363 0.00781328 0.00781293 0.00781319 0.00781328 0.00781281 0.00781343 0.00781326 0.00781293 0.00781318 0.00781327 0.00781282 0.00781336 0.00781316 0.00781289 0.00781311 0.00781324 0.00781278 0.00781342 0.00781305 0.00781286 0.00781315 0.00781321 0.00781276 0.00781331 0.007813 0.00781283 0.00781307 0.0078131 0.00781278 0.00781333 0.00781306 0.00781284 0.00781296 0.00781311 0.0078128 0.00781318 0.00781302 0.00781273 0.00781291 0.00781301 0.00781266 0.00781316 0.00781289 0.00781287 0.00781299 0.00781289 0.00781272 0.00781304 0.00781293 0.0078127 0.00781289 0.00781291 0.00781279 0.00781309 0.00781297 0.00781275 0.00781279 0.00781283 0.0078126 0.00781288 0.00781287 0.00781266 0.00781287 0.0078128 0.00781261 0.00781306 0.00781279 0.00781261 0.00781288 0.00781284 0.0078127 0.00781293 0.00781278 0.00781272 0.00781286 0.00781275 0.00781275 0.00781274 0.00781281 0.00781265 0.00781264 0.00781259 0.0078127 0.00781268 0.00781296 0.00781258 0.00781269 0.00781274 0.00781288 0.00781276 0.00781282 0.00781251 0.0078125 0.00781265 0.00781272 0.00781262 0.00781271 0.00781253 0.00781259 0.00781265 0.00781264 0.00781264 0.00781247 0.00781252 0.00781258 0.00781269 0.0078126 0.0078127 0.00781267 0.00781252 0.00781251 0.0078127 0.00781244 0.00781268 0.00781288 0.0078126 0.00781257 0.00781266 0.00781261 0.00781263 0.00781249 0.00781241 0.00781274 0.00781254 0.0078124 0.00781269 0.00781258 0.00781254 0.00781245 0.00781249 0.00781246 0.00781236 0.00781254 0.00781255 0.00781238 0.00781247 0.00781246 0.00781249 0.00781276 0.00781234 0.00781242 0.0078124 0.00781242 0.00781247 0.00781255 0.00781252 0.00781261 0.00781239 0.00781254 0.00781252 0.00781242 0.00781252 0.00781255 0.00781263 0.00781252 0.00781257 0.00781267 0.00781242 0.00781239 0.00781254 0.00781251 0.00781258 0.00781263 0.00781282 0.0078125 0.0078181 0.00781557 0.0078204 0.00781975 0.00781586 0.00781649 0.00781577 0.00781434 0.00781739 0.00781492 0.00781502 0.00781506 0.00781502 0.00781411 0.0078158 0.00781442 0.00781464 0.00781481 0.00781488 0.00781411 0.00781521 0.00781451 0.00781436 0.00781466 0.00781475 0.00781411 0.00781491 0.00781456 0.00781425 0.00781458 0.00781457 0.00781411 0.00781476 0.00781448 0.00781423 0.00781441 0.00781453 0.00781393 0.00781467 0.0078144 0.00781406 0.00781432 0.00781441 0.00781391 0.00781452 0.00781434 0.00781394 0.00781424 0.00781419 0.00781379 0.00781442 0.00781417 0.00781389 0.00781403 0.00781403 0.00781379 0.00781422 0.00781408 0.00781374 0.00781399 0.00781397 0.00781367 0.00781411 0.00781399 0.0078137 0.00781382 0.00781375 0.00781349 0.00781401 0.00781376 0.00781351 0.00781383 0.00781375 0.00781343 0.00781395 0.00781361 0.00781341 0.00781365 0.00781354 0.0078134 0.00781372 0.00781364 0.00781341 0.00781356 0.00781344 0.00781325 0.00781355 0.00781341 0.00781326 0.0078134 0.00781333 0.00781317 0.00781348 0.0078133 0.0078131 0.0078133 0.00781323 0.00781307 0.00781333 0.00781323 0.00781324 0.00781322 0.00781327 0.00781306 0.00781326 0.00781324 0.00781317 0.00781305 0.00781304 0.00781291 0.00781309 0.00781307 0.00781297 0.00781296 0.00781294 0.00781291 0.00781309 0.00781319 0.00781291 0.00781303 0.00781287 0.00781271 0.00781302 0.00781287 0.00781286 0.00781288 0.00781267 0.00781292 0.00781291 0.00781277 0.00781291 0.00781284 0.00781282 0.00781283 0.00781283 0.00781286 0.00781275 0.00781269 0.00781271 0.00781262 0.00781261 0.00781276 0.0078128 0.00781266 0.00781246 0.00781279 0.00781276 0.00781283 0.00781259 0.00781266 0.00781254 0.00781272 0.00781287 0.00781272 0.00781267 0.00781265 0.00781251 0.00781246 0.00781243 0.00781251 0.00781261 0.00781277 0.0078126 0.00781247 0.00781255 0.00781245 0.00781256 0.00781271 0.00781239 0.00781258 0.00781265 0.00781254 0.00781239 0.00781262 0.00781244 0.00781263 0.00781246 0.00781257 0.00781266 0.0078124 0.00781256 0.0078126 0.00781249 0.00781271 0.0078125 0.0078124 0.00781231 0.00781262 0.00781237 0.0078123 0.00781252 0.00781241 0.00782047 0.00781785 0.00782585 0.00782442 0.00781926 0.0078196 0.00781699 0.00781576 0.00781953 0.00781665 0.00781696 0.00781719 0.00781632 0.00781543 0.00781716 0.00781584 0.00781602 0.00781642 0.00781623 0.00781553 0.00781645 0.00781582 0.00781573 0.00781613 0.00781608 0.00781541 0.00781621 0.00781581 0.0078156 0.00781587 0.00781599 0.00781533 0.007816 0.00781567 0.0078154 0.00781569 0.00781573 0.00781519 0.00781583 0.00781558 0.00781528 0.00781556 0.00781559 0.00781502 0.00781564 0.00781537 0.00781493 0.00781527 0.00781523 0.0078149 0.00781544 0.00781519 0.00781474 0.00781507 0.00781509 0.00781472 0.00781517 0.00781495 0.00781469 0.00781492 0.00781489 0.00781456 0.00781497 0.00781473 0.00781445 0.00781469 0.00781458 0.00781436 0.00781488 0.00781452 0.00781421 0.00781459 0.0078144 0.00781418 0.00781458 0.0078144 0.00781412 0.00781439 0.00781431 0.0078141 0.00781442 0.00781415 0.00781392 0.00781426 0.0078142 0.00781385 0.00781412 0.00781399 0.00781389 0.00781397 0.00781382 0.00781368 0.00781382 0.00781387 0.00781379 0.00781379 0.00781386 0.00781331 0.00781387 0.00781376 0.0078136 0.00781356 0.0078136 0.00781356 0.00781369 0.00781365 0.00781344 0.00781345 0.00781333 0.00781339 0.00781356 0.0078134 0.00781331 0.00781355 0.00781317 0.00781308 0.00781364 0.00781331 0.00781317 0.0078133 0.00781318 0.00781318 0.00781337 0.00781344 0.00781312 0.00781314 0.00781314 0.00781318 0.00781319 0.007813 0.00781288 0.007813 0.00781296 0.00781324 0.00781307 0.00781305 0.00781292 0.00781289 0.0078129 0.00781277 0.00781266 0.00781292 0.0078128 0.00781306 0.00781275 0.00781289 0.00781293 0.00781286 0.00781274 0.00781279 0.00781283 0.00781277 0.00781279 0.00781272 0.00781259 0.00781277 0.00781259 0.00781287 0.00781267 0.00781247 0.00781268 0.00781269 0.00781267 0.00781266 0.00781267 0.00781261 0.00781271 0.00781265 0.00781256 0.00781271 0.00781241 0.00781259 0.00781273 0.00781259 0.0078125 0.00781253 0.00781241 0.00781239 0.00781268 0.00781248 0.00781263 0.00781241 0.00781258 0.00781261 0.00781233 0.00781247 0.00781268 0.00781245 0.00781254 0.00781239 0.00781235 0.00781241 0.00782246 0.00782046 0.00783135 0.00782823 0.00782192 0.00782311 0.00781824 0.00781702 0.0078181 0.00781849 0.00781842 0.00781906 0.0078179 0.0078169 0.00781771 0.00781735 0.00781744 0.00781781 0.0078178 0.00781686 0.00781783 0.00781722 0.00781713 0.0078174 0.00781759 0.0078168 0.00781767 0.00781719 0.00781682 0.00781715 0.00781724 0.00781663 0.00781739 0.00781707 0.00781665 0.00781691 0.00781697 0.00781633 0.00781708 0.00781665 0.00781637 0.00781659 0.00781666 0.00781615 0.00781673 0.00781647 0.00781621 0.00781633 0.00781643 0.00781578 0.00781652 0.00781624 0.0078158 0.00781612 0.00781599 0.00781555 0.00781605 0.00781595 0.00781566 0.00781582 0.0078158 0.0078153 0.00781583 0.00781576 0.00781528 0.00781548 0.00781553 0.00781507 0.00781566 0.00781549 0.00781487 0.00781525 0.00781525 0.00781487 0.00781531 0.0078151 0.00781488 0.00781503 0.00781487 0.00781468 0.00781493 0.00781496 0.00781457 0.00781464 0.0078146 0.00781435 0.00781464 0.00781466 0.00781451 0.00781453 0.00781447 0.00781415 0.00781442 0.00781446 0.00781409 0.0078142 0.0078144 0.00781398 0.00781436 0.00781411 0.00781392 0.00781402 0.00781385 0.00781388 0.00781414 0.00781404 0.00781384 0.0078138 0.00781383 0.00781365 0.00781373 0.00781378 0.0078134 0.00781387 0.00781385 0.00781354 0.00781368 0.00781326 0.00781347 0.0078135 0.00781339 0.00781336 0.00781345 0.00781353 0.00781326 0.00781358 0.00781318 0.00781307 0.00781349 0.00781316 0.00781308 0.00781314 0.00781305 0.00781319 0.00781324 0.00781335 0.00781311 0.00781299 0.00781274 0.00781287 0.00781309 0.00781314 0.00781311 0.00781292 0.00781282 0.00781278 0.00781297 0.00781298 0.00781284 0.0078129 0.00781263 0.00781266 0.00781295 0.00781317 0.00781296 0.00781284 0.00781269 0.00781265 0.00781265 0.00781272 0.00781267 0.00781279 0.00781264 0.00781281 0.00781286 0.00781285 0.00781257 0.0078125 0.00781228 0.00781257 0.00781238 0.00781273 0.00781244 0.00781244 0.00781243 0.00781263 0.0078127 0.00781277 0.00781261 0.00781257 0.0078125 0.00781276 0.0078124 0.00781249 0.00781229 0.00781268 0.0078125 0.00781249 0.00781266 0.00781244 0.00781255 0.0078127 
