# vtk DataFile Version 5.1
vtk output
ASCII

DATASET UNSTRUCTURED_GRID
POINTS 18785 float
0 0 -1.1
0.0625 0 -1.1
0.125 0 -1.1
0.1875 0 -1.1
0.25 0 -1.1
0.3125 0 -1.1
0.375 0 -1.1
0.4375 0 -1.1
0.5 0 -1.1
0.5625 0 -1.1
0.625 0 -1.1
0.6875 0 -1.1
0.75 0 -1.1
0.8125 0 -1.1
0.875 0 -1.1
0.9375 0 -1.1
1 0 -1.1
1.0625 0 -1.1
1.125 0 -1.1
1.1875 0 -1.1
1.25 0 -1.1
1.3125 0 -1.1
1.375 0 -1.1
1.4375 0 -1.1
1.5 0 -1.1
1.5625 0 -1.1
1.625 0 -1.1
1.6875 0 -1.1
1.75 0 -1.1
1.8125 0 -1.1
1.875 0 -1.1
1.9375 0 -1.1
2 0 -1.1
2.0625 0 -1.1
2.125 0 -1.1
2.1875 0 -1.1
2.25 0 -1.1
2.3125 0 -1.1
2.375 0 -1.1
2.4375 0 -1.1
2.5 0 -1.1
2.5625 0 -1.1
2.625 0 -1.1
2.6875 0 -1.1
2.75 0 -1.1
2.8125 0 -1.1
2.875 0 -1.1
2.9375 0 -1.1
3 0 -1.1
3.0625 0 -1.1
3.125 0 -1.1
3.1875 0 -1.1
3.25 0 -1.1
3.3125 0 -1.1
3.375 0 -1.1
3.4375 0 -1.1
3.5 0 -1.1
3.5625 0 -1.1
3.625 0 -1.1
3.6875 0 -1.1
3.75 0 -1.1
3.8125 0 -1.1
3.875 0 -1.1
3.9375 0 -1.1
4 0 -1.1
0 0.0625 -1.1
0.0625 0.0625 -1.1
0.125 0.0625 -1.1
0.1875 0.0625 -1.1
0.25 0.0625 -1.1
0.3125 0.0625 -1.1
0.375 0.0625 -1.1
0.4375 0.0625 -1.1
0.5 0.0625 -1.1
0.5625 0.0625 -1.1
0.625 0.0625 -1.1
0.6875 0.0625 -1.1
0.75 0.0625 -1.1
0.8125 0.0625 -1.1
0.875 0.0625 -1.1
0.9375 0.0625 -1.1
1 0.0625 -1.1
1.0625 0.0625 -1.1
1.125 0.0625 -1.1
1.1875 0.0625 -1.1
1.25 0.0625 -1.1
1.3125 0.0625 -1.1
1.375 0.0625 -1.1
1.4375 0.0625 -1.1
1.5 0.0625 -1.1
1.5625 0.0625 -1.1
1.625 0.0625 -1.1
1.6875 0.0625 -1.1
1.75 0.0625 -1.1
1.8125 0.0625 -1.1
1.875 0.0625 -1.1
1.9375 0.0625 -1.1
2 0.0625 -1.1
2.0625 0.0625 -1.1
2.125 0.0625 -1.1
2.1875 0.0625 -1.1
2.25 0.0625 -1.1
2.3125 0.0625 -1.1
2.375 0.0625 -1.1
2.4375 0.0625 -1.1
2.5 0.0625 -1.1
2.5625 0.0625 -1.1
2.625 0.0625 -1.1
2.6875 0.0625 -1.1
2.75 0.0625 -1.1
2.8125 0.0625 -1.1
2.875 0.0625 -1.1
2.9375 0.0625 -1.1
3 0.0625 -1.1
3.0625 0.0625 -1.1
3.125 0.0625 -1.1
3.1875 0.0625 -1.1
3.25 0.0625 -1.1
3.3125 0.0625 -1.1
3.375 0.0625 -1.1
3.4375 0.0625 -1.1
3.5 0.0625 -1.1
3.5625 0.0625 -1.1
3.625 0.0625 -1.1
3.6875 0.0625 -1.1
3.75 0.0625 -1.1
3.8125 0.0625 -1.1
3.875 0.0625 -1.1
3.9375 0.0625 -1.1
4 0.0625 -1.1
0 0.125 -1.1
0.0625 0.125 -1.1
0.125 0.125 -1.1
0.1875 0.125 -1.1
0.25 0.125 -1.1
0.3125 0.125 -1.1
0.375 0.125 -1.1
0.4375 0.125 -1.1
0.5 0.125 -1.1
0.5625 0.125 -1.1
0.625 0.125 -1.1
0.6875 0.125 -1.1
0.75 0.125 -1.1
0.8125 0.125 -1.1
0.875 0.125 -1.1
0.9375 0.125 -1.1
1 0.125 -1.1
1.0625 0.125 -1.1
1.125 0.125 -1.1
1.1875 0.125 -1.1
1.25 0.125 -1.1
1.3125 0.125 -1.1
1.375 0.125 -1.1
1.4375 0.125 -1.1
1.5 0.125 -1.1
1.5625 0.125 -1.1
1.625 0.125 -1.1
1.6875 0.125 -1.1
1.75 0.125 -1.1
1.8125 0.125 -1.1
1.875 0.125 -1.1
1.9375 0.125 -1.1
2 0.125 -1.1
2.0625 0.125 -1.1
2.125 0.125 -1.1
2.1875 0.125 -1.1
2.25 0.125 -1.1
2.3125 0.125 -1.1
2.375 0.125 -1.1
2.4375 0.125 -1.1
2.5 0.125 -1.1
2.5625 0.125 -1.1
2.625 0.125 -1.1
2.6875 0.125 -1.1
2.75 0.125 -1.1
2.8125 0.125 -1.1
2.875 0.125 -1.1
2.9375 0.125 -1.1
3 0.125 -1.1
3.0625 0.125 -1.1
3.125 0.125 -1.1
3.1875 0.125 -1.1
3.25 0.125 -1.1
3.3125 0.125 -1.1
3.375 0.125 -1.1
3.4375 0.125 -1.1
3.5 0.125 -1.1
3.5625 0.125 -1.1
3.625 0.125 -1.1
3.6875 0.125 -1.1
3.75 0.125 -1.1
3.8125 0.125 -1.1
3.875 0.125 -1.1
3.9375 0.125 -1.1
4 0.125 -1.1
0 0.1875 -1.1
0.0625 0.1875 -1.1
0.125 0.1875 -1.1
0.1875 0.1875 -1.1
0.25 0.1875 -1.1
0.3125 0.1875 -1.1
0.375 0.1875 -1.1
0.4375 0.1875 -1.1
0.5 0.1875 -1.1
0.5625 0.1875 -1.1
0.625 0.1875 -1.1
0.6875 0.1875 -1.1
0.75 0.1875 -1.1
0.8125 0.1875 -1.1
0.875 0.1875 -1.1
0.9375 0.1875 -1.1
1 0.1875 -1.1
1.0625 0.1875 -1.1
1.125 0.1875 -1.1
1.1875 0.1875 -1.1
1.25 0.1875 -1.1
1.3125 0.1875 -1.1
1.375 0.1875 -1.1
1.4375 0.1875 -1.1
1.5 0.1875 -1.1
1.5625 0.1875 -1.1
1.625 0.1875 -1.1
1.6875 0.1875 -1.1
1.75 0.1875 -1.1
1.8125 0.1875 -1.1
1.875 0.1875 -1.1
1.9375 0.1875 -1.1
2 0.1875 -1.1
2.0625 0.1875 -1.1
2.125 0.1875 -1.1
2.1875 0.1875 -1.1
2.25 0.1875 -1.1
2.3125 0.1875 -1.1
2.375 0.1875 -1.1
2.4375 0.1875 -1.1
2.5 0.1875 -1.1
2.5625 0.1875 -1.1
2.625 0.1875 -1.1
2.6875 0.1875 -1.1
2.75 0.1875 -1.1
2.8125 0.1875 -1.1
2.875 0.1875 -1.1
2.9375 0.1875 -1.1
3 0.1875 -1.1
3.0625 0.1875 -1.1
3.125 0.1875 -1.1
3.1875 0.1875 -1.1
3.25 0.1875 -1.1
3.3125 0.1875 -1.1
3.375 0.1875 -1.1
3.4375 0.1875 -1.1
3.5 0.1875 -1.1
3.5625 0.1875 -1.1
3.625 0.1875 -1.1
3.6875 0.1875 -1.1
3.75 0.1875 -1.1
3.8125 0.1875 -1.1
3.875 0.1875 -1.1
3.9375 0.1875 -1.1
4 0.1875 -1.1
0 0.25 -1.1
0.0625 0.25 -1.1
0.125 0.25 -1.1
0.1875 0.25 -1.1
0.25 0.25 -1.1
0.3125 0.25 -1.1
0.375 0.25 -1.1
0.4375 0.25 -1.1
0.5 0.25 -1.1
0.5625 0.25 -1.1
0.625 0.25 -1.1
0.6875 0.25 -1.1
0.75 0.25 -1.1
0.8125 0.25 -1.1
0.875 0.25 -1.1
0.9375 0.25 -1.1
1 0.25 -1.1
1.0625 0.25 -1.1
1.125 0.25 -1.1
1.1875 0.25 -1.1
1.25 0.25 -1.1
1.3125 0.25 -1.1
1.375 0.25 -1.1
1.4375 0.25 -1.1
1.5 0.25 -1.1
1.5625 0.25 -1.1
1.625 0.25 -1.1
1.6875 0.25 -1.1
1.75 0.25 -1.1
1.8125 0.25 -1.1
1.875 0.25 -1.1
1.9375 0.25 -1.1
2 0.25 -1.1
2.0625 0.25 -1.1
2.125 0.25 -1.1
2.1875 0.25 -1.1
2.25 0.25 -1.1
2.3125 0.25 -1.1
2.375 0.25 -1.1
2.4375 0.25 -1.1
2.5 0.25 -1.1
2.5625 0.25 -1.1
2.625 0.25 -1.1
2.6875 0.25 -1.1
2.75 0.25 -1.1
2.8125 0.25 -1.1
2.875 0.25 -1.1
2.9375 0.25 -1.1
3 0.25 -1.1
3.0625 0.25 -1.1
3.125 0.25 -1.1
3.1875 0.25 -1.1
3.25 0.25 -1.1
3.3125 0.25 -1.1
3.375 0.25 -1.1
3.4375 0.25 -1.1
3.5 0.25 -1.1
3.5625 0.25 -1.1
3.625 0.25 -1.1
3.6875 0.25 -1.1
3.75 0.25 -1.1
3.8125 0.25 -1.1
3.875 0.25 -1.1
3.9375 0.25 -1.1
4 0.25 -1.1
0 0.3125 -1.1
0.0625 0.3125 -1.1
0.125 0.3125 -1.1
0.1875 0.3125 -1.1
0.25 0.3125 -1.1
0.3125 0.3125 -1.1
0.375 0.3125 -1.1
0.4375 0.3125 -1.1
0.5 0.3125 -1.1
0.5625 0.3125 -1.1
0.625 0.3125 -1.1
0.6875 0.3125 -1.1
0.75 0.3125 -1.1
0.8125 0.3125 -1.1
0.875 0.3125 -1.1
0.9375 0.3125 -1.1
1 0.3125 -1.1
1.0625 0.3125 -1.1
1.125 0.3125 -1.1
1.1875 0.3125 -1.1
1.25 0.3125 -1.1
1.3125 0.3125 -1.1
1.375 0.3125 -1.1
1.4375 0.3125 -1.1
1.5 0.3125 -1.1
1.5625 0.3125 -1.1
1.625 0.3125 -1.1
1.6875 0.3125 -1.1
1.75 0.3125 -1.1
1.8125 0.3125 -1.1
1.875 0.3125 -1.1
1.9375 0.3125 -1.1
2 0.3125 -1.1
2.0625 0.3125 -1.1
2.125 0.3125 -1.1
2.1875 0.3125 -1.1
2.25 0.3125 -1.1
2.3125 0.3125 -1.1
2.375 0.3125 -1.1
2.4375 0.3125 -1.1
2.5 0.3125 -1.1
2.5625 0.3125 -1.1
2.625 0.3125 -1.1
2.6875 0.3125 -1.1
2.75 0.3125 -1.1
2.8125 0.3125 -1.1
2.875 0.3125 -1.1
2.9375 0.3125 -1.1
3 0.3125 -1.1
3.0625 0.3125 -1.1
3.125 0.3125 -1.1
3.1875 0.3125 -1.1
3.25 0.3125 -1.1
3.3125 0.3125 -1.1
3.375 0.3125 -1.1
3.4375 0.3125 -1.1
3.5 0.3125 -1.1
3.5625 0.3125 -1.1
3.625 0.3125 -1.1
3.6875 0.3125 -1.1
3.75 0.3125 -1.1
3.8125 0.3125 -1.1
3.875 0.3125 -1.1
3.9375 0.3125 -1.1
4 0.3125 -1.1
0 0.375 -1.1
0.0625 0.375 -1.1
0.125 0.375 -1.1
0.1875 0.375 -1.1
0.25 0.375 -1.1
0.3125 0.375 -1.1
0.375 0.375 -1.1
0.4375 0.375 -1.1
0.5 0.375 -1.1
0.5625 0.375 -1.1
0.625 0.375 -1.1
0.6875 0.375 -1.1
0.75 0.375 -1.1
0.8125 0.375 -1.1
0.875 0.375 -1.1
0.9375 0.375 -1.1
1 0.375 -1.1
1.0625 0.375 -1.1
1.125 0.375 -1.1
1.1875 0.375 -1.1
1.25 0.375 -1.1
1.3125 0.375 -1.1
1.375 0.375 -1.1
1.4375 0.375 -1.1
1.5 0.375 -1.1
1.5625 0.375 -1.1
1.625 0.375 -1.1
1.6875 0.375 -1.1
1.75 0.375 -1.1
1.8125 0.375 -1.1
1.875 0.375 -1.1
1.9375 0.375 -1.1
2 0.375 -1.1
2.0625 0.375 -1.1
2.125 0.375 -1.1
2.1875 0.375 -1.1
2.25 0.375 -1.1
2.3125 0.375 -1.1
2.375 0.375 -1.1
2.4375 0.375 -1.1
2.5 0.375 -1.1
2.5625 0.375 -1.1
2.625 0.375 -1.1
2.6875 0.375 -1.1
2.75 0.375 -1.1
2.8125 0.375 -1.1
2.875 0.375 -1.1
2.9375 0.375 -1.1
3 0.375 -1.1
3.0625 0.375 -1.1
3.125 0.375 -1.1
3.1875 0.375 -1.1
3.25 0.375 -1.1
3.3125 0.375 -1.1
3.375 0.375 -1.1
3.4375 0.375 -1.1
3.5 0.375 -1.1
3.5625 0.375 -1.1
3.625 0.375 -1.1
3.6875 0.375 -1.1
3.75 0.375 -1.1
3.8125 0.375 -1.1
3.875 0.375 -1.1
3.9375 0.375 -1.1
4 0.375 -1.1
0 0.4375 -1.1
0.0625 0.4375 -1.1
0.125 0.4375 -1.1
0.1875 0.4375 -1.1
0.25 0.4375 -1.1
0.3125 0.4375 -1.1
0.375 0.4375 -1.1
0.4375 0.4375 -1.1
0.5 0.4375 -1.1
0.5625 0.4375 -1.1
0.625 0.4375 -1.1
0.6875 0.4375 -1.1
0.75 0.4375 -1.1
0.8125 0.4375 -1.1
0.875 0.4375 -1.1
0.9375 0.4375 -1.1
1 0.4375 -1.1
1.0625 0.4375 -1.1
1.125 0.4375 -1.1
1.1875 0.4375 -1.1
1.25 0.4375 -1.1
1.3125 0.4375 -1.1
1.375 0.4375 -1.1
1.4375 0.4375 -1.1
1.5 0.4375 -1.1
1.5625 0.4375 -1.1
1.625 0.4375 -1.1
1.6875 0.4375 -1.1
1.75 0.4375 -1.1
1.8125 0.4375 -1.1
1.875 0.4375 -1.1
1.9375 0.4375 -1.1
2 0.4375 -1.1
2.0625 0.4375 -1.1
2.125 0.4375 -1.1
2.1875 0.4375 -1.1
2.25 0.4375 -1.1
2.3125 0.4375 -1.1
2.375 0.4375 -1.1
2.4375 0.4375 -1.1
2.5 0.4375 -1.1
2.5625 0.4375 -1.1
2.625 0.4375 -1.1
2.6875 0.4375 -1.1
2.75 0.4375 -1.1
2.8125 0.4375 -1.1
2.875 0.4375 -1.1
2.9375 0.4375 -1.1
3 0.4375 -1.1
3.0625 0.4375 -1.1
3.125 0.4375 -1.1
3.1875 0.4375 -1.1
3.25 0.4375 -1.1
3.3125 0.4375 -1.1
3.375 0.4375 -1.1
3.4375 0.4375 -1.1
3.5 0.4375 -1.1
3.5625 0.4375 -1.1
3.625 0.4375 -1.1
3.6875 0.4375 -1.1
3.75 0.4375 -1.1
3.8125 0.4375 -1.1
3.875 0.4375 -1.1
3.9375 0.4375 -1.1
4 0.4375 -1.1
0 0.5 -1.1
0.0625 0.5 -1.1
0.125 0.5 -1.1
0.1875 0.5 -1.1
0.25 0.5 -1.1
0.3125 0.5 -1.1
0.375 0.5 -1.1
0.4375 0.5 -1.1
0.5 0.5 -1.1
0.5625 0.5 -1.1
0.625 0.5 -1.1
0.6875 0.5 -1.1
0.75 0.5 -1.1
0.8125 0.5 -1.1
0.875 0.5 -1.1
0.9375 0.5 -1.1
1 0.5 -1.1
1.0625 0.5 -1.1
1.125 0.5 -1.1
1.1875 0.5 -1.1
1.25 0.5 -1.1
1.3125 0.5 -1.1
1.375 0.5 -1.1
1.4375 0.5 -1.1
1.5 0.5 -1.1
1.5625 0.5 -1.1
1.625 0.5 -1.1
1.6875 0.5 -1.1
1.75 0.5 -1.1
1.8125 0.5 -1.1
1.875 0.5 -1.1
1.9375 0.5 -1.1
2 0.5 -1.1
2.0625 0.5 -1.1
2.125 0.5 -1.1
2.1875 0.5 -1.1
2.25 0.5 -1.1
2.3125 0.5 -1.1
2.375 0.5 -1.1
2.4375 0.5 -1.1
2.5 0.5 -1.1
2.5625 0.5 -1.1
2.625 0.5 -1.1
2.6875 0.5 -1.1
2.75 0.5 -1.1
2.8125 0.5 -1.1
2.875 0.5 -1.1
2.9375 0.5 -1.1
3 0.5 -1.1
3.0625 0.5 -1.1
3.125 0.5 -1.1
3.1875 0.5 -1.1
3.25 0.5 -1.1
3.3125 0.5 -1.1
3.375 0.5 -1.1
3.4375 0.5 -1.1
3.5 0.5 -1.1
3.5625 0.5 -1.1
3.625 0.5 -1.1
3.6875 0.5 -1.1
3.75 0.5 -1.1
3.8125 0.5 -1.1
3.875 0.5 -1.1
3.9375 0.5 -1.1
4 0.5 -1.1
0 0.5625 -1.1
0.0625 0.5625 -1.1
0.125 0.5625 -1.1
0.1875 0.5625 -1.1
0.25 0.5625 -1.1
0.3125 0.5625 -1.1
0.375 0.5625 -1.1
0.4375 0.5625 -1.1
0.5 0.5625 -1.1
0.5625 0.5625 -1.1
0.625 0.5625 -1.1
0.6875 0.5625 -1.1
0.75 0.5625 -1.1
0.8125 0.5625 -1.1
0.875 0.5625 -1.1
0.9375 0.5625 -1.1
1 0.5625 -1.1
1.0625 0.5625 -1.1
1.125 0.5625 -1.1
1.1875 0.5625 -1.1
1.25 0.5625 -1.1
1.3125 0.5625 -1.1
1.375 0.5625 -1.1
1.4375 0.5625 -1.1
1.5 0.5625 -1.1
1.5625 0.5625 -1.1
1.625 0.5625 -1.1
1.6875 0.5625 -1.1
1.75 0.5625 -1.1
1.8125 0.5625 -1.1
1.875 0.5625 -1.1
1.9375 0.5625 -1.1
2 0.5625 -1.1
2.0625 0.5625 -1.1
2.125 0.5625 -1.1
2.1875 0.5625 -1.1
2.25 0.5625 -1.1
2.3125 0.5625 -1.1
2.375 0.5625 -1.1
2.4375 0.5625 -1.1
2.5 0.5625 -1.1
2.5625 0.5625 -1.1
2.625 0.5625 -1.1
2.6875 0.5625 -1.1
2.75 0.5625 -1.1
2.8125 0.5625 -1.1
2.875 0.5625 -1.1
2.9375 0.5625 -1.1
3 0.5625 -1.1
3.0625 0.5625 -1.1
3.125 0.5625 -1.1
3.1875 0.5625 -1.1
3.25 0.5625 -1.1
3.3125 0.5625 -1.1
3.375 0.5625 -1.1
3.4375 0.5625 -1.1
3.5 0.5625 -1.1
3.5625 0.5625 -1.1
3.625 0.5625 -1.1
3.6875 0.5625 -1.1
3.75 0.5625 -1.1
3.8125 0.5625 -1.1
3.875 0.5625 -1.1
3.9375 0.5625 -1.1
4 0.5625 -1.1
0 0.625 -1.1
0.0625 0.625 -1.1
0.125 0.625 -1.1
0.1875 0.625 -1.1
0.25 0.625 -1.1
0.3125 0.625 -1.1
0.375 0.625 -1.1
0.4375 0.625 -1.1
0.5 0.625 -1.1
0.5625 0.625 -1.1
0.625 0.625 -1.1
0.6875 0.625 -1.1
0.75 0.625 -1.1
0.8125 0.625 -1.1
0.875 0.625 -1.1
0.9375 0.625 -1.1
1 0.625 -1.1
1.0625 0.625 -1.1
1.125 0.625 -1.1
1.1875 0.625 -1.1
1.25 0.625 -1.1
1.3125 0.625 -1.1
1.375 0.625 -1.1
1.4375 0.625 -1.1
1.5 0.625 -1.1
1.5625 0.625 -1.1
1.625 0.625 -1.1
1.6875 0.625 -1.1
1.75 0.625 -1.1
1.8125 0.625 -1.1
1.875 0.625 -1.1
1.9375 0.625 -1.1
2 0.625 -1.1
2.0625 0.625 -1.1
2.125 0.625 -1.1
2.1875 0.625 -1.1
2.25 0.625 -1.1
2.3125 0.625 -1.1
2.375 0.625 -1.1
2.4375 0.625 -1.1
2.5 0.625 -1.1
2.5625 0.625 -1.1
2.625 0.625 -1.1
2.6875 0.625 -1.1
2.75 0.625 -1.1
2.8125 0.625 -1.1
2.875 0.625 -1.1
2.9375 0.625 -1.1
3 0.625 -1.1
3.0625 0.625 -1.1
3.125 0.625 -1.1
3.1875 0.625 -1.1
3.25 0.625 -1.1
3.3125 0.625 -1.1
3.375 0.625 -1.1
3.4375 0.625 -1.1
3.5 0.625 -1.1
3.5625 0.625 -1.1
3.625 0.625 -1.1
3.6875 0.625 -1.1
3.75 0.625 -1.1
3.8125 0.625 -1.1
3.875 0.625 -1.1
3.9375 0.625 -1.1
4 0.625 -1.1
0 0.6875 -1.1
0.0625 0.6875 -1.1
0.125 0.6875 -1.1
0.1875 0.6875 -1.1
0.25 0.6875 -1.1
0.3125 0.6875 -1.1
0.375 0.6875 -1.1
0.4375 0.6875 -1.1
0.5 0.6875 -1.1
0.5625 0.6875 -1.1
0.625 0.6875 -1.1
0.6875 0.6875 -1.1
0.75 0.6875 -1.1
0.8125 0.6875 -1.1
0.875 0.6875 -1.1
0.9375 0.6875 -1.1
1 0.6875 -1.1
1.0625 0.6875 -1.1
1.125 0.6875 -1.1
1.1875 0.6875 -1.1
1.25 0.6875 -1.1
1.3125 0.6875 -1.1
1.375 0.6875 -1.1
1.4375 0.6875 -1.1
1.5 0.6875 -1.1
1.5625 0.6875 -1.1
1.625 0.6875 -1.1
1.6875 0.6875 -1.1
1.75 0.6875 -1.1
1.8125 0.6875 -1.1
1.875 0.6875 -1.1
1.9375 0.6875 -1.1
2 0.6875 -1.1
2.0625 0.6875 -1.1
2.125 0.6875 -1.1
2.1875 0.6875 -1.1
2.25 0.6875 -1.1
2.3125 0.6875 -1.1
2.375 0.6875 -1.1
2.4375 0.6875 -1.1
2.5 0.6875 -1.1
2.5625 0.6875 -1.1
2.625 0.6875 -1.1
2.6875 0.6875 -1.1
2.75 0.6875 -1.1
2.8125 0.6875 -1.1
2.875 0.6875 -1.1
2.9375 0.6875 -1.1
3 0.6875 -1.1
3.0625 0.6875 -1.1
3.125 0.6875 -1.1
3.1875 0.6875 -1.1
3.25 0.6875 -1.1
3.3125 0.6875 -1.1
3.375 0.6875 -1.1
3.4375 0.6875 -1.1
3.5 0.6875 -1.1
3.5625 0.6875 -1.1
3.625 0.6875 -1.1
3.6875 0.6875 -1.1
3.75 0.6875 -1.1
3.8125 0.6875 -1.1
3.875 0.6875 -1.1
3.9375 0.6875 -1.1
4 0.6875 -1.1
0 0.75 -1.1
0.0625 0.75 -1.1
0.125 0.75 -1.1
0.1875 0.75 -1.1
0.25 0.75 -1.1
0.3125 0.75 -1.1
0.375 0.75 -1.1
0.4375 0.75 -1.1
0.5 0.75 -1.1
0.5625 0.75 -1.1
0.625 0.75 -1.1
0.6875 0.75 -1.1
0.75 0.75 -1.1
0.8125 0.75 -1.1
0.875 0.75 -1.1
0.9375 0.75 -1.1
1 0.75 -1.1
1.0625 0.75 -1.1
1.125 0.75 -1.1
1.1875 0.75 -1.1
1.25 0.75 -1.1
1.3125 0.75 -1.1
1.375 0.75 -1.1
1.4375 0.75 -1.1
1.5 0.75 -1.1
1.5625 0.75 -1.1
1.625 0.75 -1.1
1.6875 0.75 -1.1
1.75 0.75 -1.1
1.8125 0.75 -1.1
1.875 0.75 -1.1
1.9375 0.75 -1.1
2 0.75 -1.1
2.0625 0.75 -1.1
2.125 0.75 -1.1
2.1875 0.75 -1.1
2.25 0.75 -1.1
2.3125 0.75 -1.1
2.375 0.75 -1.1
2.4375 0.75 -1.1
2.5 0.75 -1.1
2.5625 0.75 -1.1
2.625 0.75 -1.1
2.6875 0.75 -1.1
2.75 0.75 -1.1
2.8125 0.75 -1.1
2.875 0.75 -1.1
2.9375 0.75 -1.1
3 0.75 -1.1
3.0625 0.75 -1.1
3.125 0.75 -1.1
3.1875 0.75 -1.1
3.25 0.75 -1.1
3.3125 0.75 -1.1
3.375 0.75 -1.1
3.4375 0.75 -1.1
3.5 0.75 -1.1
3.5625 0.75 -1.1
3.625 0.75 -1.1
3.6875 0.75 -1.1
3.75 0.75 -1.1
3.8125 0.75 -1.1
3.875 0.75 -1.1
3.9375 0.75 -1.1
4 0.75 -1.1
0 0.8125 -1.1
0.0625 0.8125 -1.1
0.125 0.8125 -1.1
0.1875 0.8125 -1.1
0.25 0.8125 -1.1
0.3125 0.8125 -1.1
0.375 0.8125 -1.1
0.4375 0.8125 -1.1
0.5 0.8125 -1.1
0.5625 0.8125 -1.1
0.625 0.8125 -1.1
0.6875 0.8125 -1.1
0.75 0.8125 -1.1
0.8125 0.8125 -1.1
0.875 0.8125 -1.1
0.9375 0.8125 -1.1
1 0.8125 -1.1
1.0625 0.8125 -1.1
1.125 0.8125 -1.1
1.1875 0.8125 -1.1
1.25 0.8125 -1.1
1.3125 0.8125 -1.1
1.375 0.8125 -1.1
1.4375 0.8125 -1.1
1.5 0.8125 -1.1
1.5625 0.8125 -1.1
1.625 0.8125 -1.1
1.6875 0.8125 -1.1
1.75 0.8125 -1.1
1.8125 0.8125 -1.1
1.875 0.8125 -1.1
1.9375 0.8125 -1.1
2 0.8125 -1.1
2.0625 0.8125 -1.1
2.125 0.8125 -1.1
2.1875 0.8125 -1.1
2.25 0.8125 -1.1
2.3125 0.8125 -1.1
2.375 0.8125 -1.1
2.4375 0.8125 -1.1
2.5 0.8125 -1.1
2.5625 0.8125 -1.1
2.625 0.8125 -1.1
2.6875 0.8125 -1.1
2.75 0.8125 -1.1
2.8125 0.8125 -1.1
2.875 0.8125 -1.1
2.9375 0.8125 -1.1
3 0.8125 -1.1
3.0625 0.8125 -1.1
3.125 0.8125 -1.1
3.1875 0.8125 -1.1
3.25 0.8125 -1.1
3.3125 0.8125 -1.1
3.375 0.8125 -1.1
3.4375 0.8125 -1.1
3.5 0.8125 -1.1
3.5625 0.8125 -1.1
3.625 0.8125 -1.1
3.6875 0.8125 -1.1
3.75 0.8125 -1.1
3.8125 0.8125 -1.1
3.875 0.8125 -1.1
3.9375 0.8125 -1.1
4 0.8125 -1.1
0 0.875 -1.1
0.0625 0.875 -1.1
0.125 0.875 -1.1
0.1875 0.875 -1.1
0.25 0.875 -1.1
0.3125 0.875 -1.1
0.375 0.875 -1.1
0.4375 0.875 -1.1
0.5 0.875 -1.1
0.5625 0.875 -1.1
0.625 0.875 -1.1
0.6875 0.875 -1.1
0.75 0.875 -1.1
0.8125 0.875 -1.1
0.875 0.875 -1.1
0.9375 0.875 -1.1
1 0.875 -1.1
1.0625 0.875 -1.1
1.125 0.875 -1.1
1.1875 0.875 -1.1
1.25 0.875 -1.1
1.3125 0.875 -1.1
1.375 0.875 -1.1
1.4375 0.875 -1.1
1.5 0.875 -1.1
1.5625 0.875 -1.1
1.625 0.875 -1.1
1.6875 0.875 -1.1
1.75 0.875 -1.1
1.8125 0.875 -1.1
1.875 0.875 -1.1
1.9375 0.875 -1.1
2 0.875 -1.1
2.0625 0.875 -1.1
2.125 0.875 -1.1
2.1875 0.875 -1.1
2.25 0.875 -1.1
2.3125 0.875 -1.1
2.375 0.875 -1.1
2.4375 0.875 -1.1
2.5 0.875 -1.1
2.5625 0.875 -1.1
2.625 0.875 -1.1
2.6875 0.875 -1.1
2.75 0.875 -1.1
2.8125 0.875 -1.1
2.875 0.875 -1.1
2.9375 0.875 -1.1
3 0.875 -1.1
3.0625 0.875 -1.1
3.125 0.875 -1.1
3.1875 0.875 -1.1
3.25 0.875 -1.1
3.3125 0.875 -1.1
3.375 0.875 -1.1
3.4375 0.875 -1.1
3.5 0.875 -1.1
3.5625 0.875 -1.1
3.625 0.875 -1.1
3.6875 0.875 -1.1
3.75 0.875 -1.1
3.8125 0.875 -1.1
3.875 0.875 -1.1
3.9375 0.875 -1.1
4 0.875 -1.1
0 0.9375 -1.1
0.0625 0.9375 -1.1
0.125 0.9375 -1.1
0.1875 0.9375 -1.1
0.25 0.9375 -1.1
0.3125 0.9375 -1.1
0.375 0.9375 -1.1
0.4375 0.9375 -1.1
0.5 0.9375 -1.1
0.5625 0.9375 -1.1
0.625 0.9375 -1.1
0.6875 0.9375 -1.1
0.75 0.9375 -1.1
0.8125 0.9375 -1.1
0.875 0.9375 -1.1
0.9375 0.9375 -1.1
1 0.9375 -1.1
1.0625 0.9375 -1.1
1.125 0.9375 -1.1
1.1875 0.9375 -1.1
1.25 0.9375 -1.1
1.3125 0.9375 -1.1
1.375 0.9375 -1.1
1.4375 0.9375 -1.1
1.5 0.9375 -1.1
1.5625 0.9375 -1.1
1.625 0.9375 -1.1
1.6875 0.9375 -1.1
1.75 0.9375 -1.1
1.8125 0.9375 -1.1
1.875 0.9375 -1.1
1.9375 0.9375 -1.1
2 0.9375 -1.1
2.0625 0.9375 -1.1
2.125 0.9375 -1.1
2.1875 0.9375 -1.1
2.25 0.9375 -1.1
2.3125 0.9375 -1.1
2.375 0.9375 -1.1
2.4375 0.9375 -1.1
2.5 0.9375 -1.1
2.5625 0.9375 -1.1
2.625 0.9375 -1.1
2.6875 0.9375 -1.1
2.75 0.9375 -1.1
2.8125 0.9375 -1.1
2.875 0.9375 -1.1
2.9375 0.9375 -1.1
3 0.9375 -1.1
3.0625 0.9375 -1.1
3.125 0.9375 -1.1
3.1875 0.9375 -1.1
3.25 0.9375 -1.1
3.3125 0.9375 -1.1
3.375 0.9375 -1.1
3.4375 0.9375 -1.1
3.5 0.9375 -1.1
3.5625 0.9375 -1.1
3.625 0.9375 -1.1
3.6875 0.9375 -1.1
3.75 0.9375 -1.1
3.8125 0.9375 -1.1
3.875 0.9375 -1.1
3.9375 0.9375 -1.1
4 0.9375 -1.1
0 1 -1.1
0.0625 1 -1.1
0.125 1 -1.1
0.1875 1 -1.1
0.25 1 -1.1
0.3125 1 -1.1
0.375 1 -1.1
0.4375 1 -1.1
0.5 1 -1.1
0.5625 1 -1.1
0.625 1 -1.1
0.6875 1 -1.1
0.75 1 -1.1
0.8125 1 -1.1
0.875 1 -1.1
0.9375 1 -1.1
1 1 -1.1
1.0625 1 -1.1
1.125 1 -1.1
1.1875 1 -1.1
1.25 1 -1.1
1.3125 1 -1.1
1.375 1 -1.1
1.4375 1 -1.1
1.5 1 -1.1
1.5625 1 -1.1
1.625 1 -1.1
1.6875 1 -1.1
1.75 1 -1.1
1.8125 1 -1.1
1.875 1 -1.1
1.9375 1 -1.1
2 1 -1.1
2.0625 1 -1.1
2.125 1 -1.1
2.1875 1 -1.1
2.25 1 -1.1
2.3125 1 -1.1
2.375 1 -1.1
2.4375 1 -1.1
2.5 1 -1.1
2.5625 1 -1.1
2.625 1 -1.1
2.6875 1 -1.1
2.75 1 -1.1
2.8125 1 -1.1
2.875 1 -1.1
2.9375 1 -1.1
3 1 -1.1
3.0625 1 -1.1
3.125 1 -1.1
3.1875 1 -1.1
3.25 1 -1.1
3.3125 1 -1.1
3.375 1 -1.1
3.4375 1 -1.1
3.5 1 -1.1
3.5625 1 -1.1
3.625 1 -1.1
3.6875 1 -1.1
3.75 1 -1.1
3.8125 1 -1.1
3.875 1 -1.1
3.9375 1 -1.1
4 1 -1.1
0 0 -1.0375
0.0625 0 -1.0375
0.125 0 -1.0375
0.1875 0 -1.0375
0.25 0 -1.0375
0.3125 0 -1.0375
0.375 0 -1.0375
0.4375 0 -1.0375
0.5 0 -1.0375
0.5625 0 -1.0375
0.625 0 -1.0375
0.6875 0 -1.0375
0.75 0 -1.0375
0.8125 0 -1.0375
0.875 0 -1.0375
0.9375 0 -1.0375
1 0 -1.0375
1.0625 0 -1.0375
1.125 0 -1.0375
1.1875 0 -1.0375
1.25 0 -1.0375
1.3125 0 -1.0375
1.375 0 -1.0375
1.4375 0 -1.0375
1.5 0 -1.0375
1.5625 0 -1.0375
1.625 0 -1.0375
1.6875 0 -1.0375
1.75 0 -1.0375
1.8125 0 -1.0375
1.875 0 -1.0375
1.9375 0 -1.0375
2 0 -1.0375
2.0625 0 -1.0375
2.125 0 -1.0375
2.1875 0 -1.0375
2.25 0 -1.0375
2.3125 0 -1.0375
2.375 0 -1.0375
2.4375 0 -1.0375
2.5 0 -1.0375
2.5625 0 -1.0375
2.625 0 -1.0375
2.6875 0 -1.0375
2.75 0 -1.0375
2.8125 0 -1.0375
2.875 0 -1.0375
2.9375 0 -1.0375
3 0 -1.0375
3.0625 0 -1.0375
3.125 0 -1.0375
3.1875 0 -1.0375
3.25 0 -1.0375
3.3125 0 -1.0375
3.375 0 -1.0375
3.4375 0 -1.0375
3.5 0 -1.0375
3.5625 0 -1.0375
3.625 0 -1.0375
3.6875 0 -1.0375
3.75 0 -1.0375
3.8125 0 -1.0375
3.875 0 -1.0375
3.9375 0 -1.0375
4 0 -1.0375
0 0.0625 -1.0375
0.0625 0.0625 -1.0375
0.125 0.0625 -1.0375
0.1875 0.0625 -1.0375
0.25 0.0625 -1.0375
0.3125 0.0625 -1.0375
0.375 0.0625 -1.0375
0.4375 0.0625 -1.0375
0.5 0.0625 -1.0375
0.5625 0.0625 -1.0375
0.625 0.0625 -1.0375
0.6875 0.0625 -1.0375
0.75 0.0625 -1.0375
0.8125 0.0625 -1.0375
0.875 0.0625 -1.0375
0.9375 0.0625 -1.0375
1 0.0625 -1.0375
1.0625 0.0625 -1.0375
1.125 0.0625 -1.0375
1.1875 0.0625 -1.0375
1.25 0.0625 -1.0375
1.3125 0.0625 -1.0375
1.375 0.0625 -1.0375
1.4375 0.0625 -1.0375
1.5 0.0625 -1.0375
1.5625 0.0625 -1.0375
1.625 0.0625 -1.0375
1.6875 0.0625 -1.0375
1.75 0.0625 -1.0375
1.8125 0.0625 -1.0375
1.875 0.0625 -1.0375
1.9375 0.0625 -1.0375
2 0.0625 -1.0375
2.0625 0.0625 -1.0375
2.125 0.0625 -1.0375
2.1875 0.0625 -1.0375
2.25 0.0625 -1.0375
2.3125 0.0625 -1.0375
2.375 0.0625 -1.0375
2.4375 0.0625 -1.0375
2.5 0.0625 -1.0375
2.5625 0.0625 -1.0375
2.625 0.0625 -1.0375
2.6875 0.0625 -1.0375
2.75 0.0625 -1.0375
2.8125 0.0625 -1.0375
2.875 0.0625 -1.0375
2.9375 0.0625 -1.0375
3 0.0625 -1.0375
3.0625 0.0625 -1.0375
3.125 0.0625 -1.0375
3.1875 0.0625 -1.0375
3.25 0.0625 -1.0375
3.3125 0.0625 -1.0375
3.375 0.0625 -1.0375
3.4375 0.0625 -1.0375
3.5 0.0625 -1.0375
3.5625 0.0625 -1.0375
3.625 0.0625 -1.0375
3.6875 0.0625 -1.0375
3.75 0.0625 -1.0375
3.8125 0.0625 -1.0375
3.875 0.0625 -1.0375
3.9375 0.0625 -1.0375
4 0.0625 -1.0375
0 0.125 -1.0375
0.0625 0.125 -1.0375
0.125 0.125 -1.0375
0.1875 0.125 -1.0375
0.25 0.125 -1.0375
0.3125 0.125 -1.0375
0.375 0.125 -1.0375
0.4375 0.125 -1.0375
0.5 0.125 -1.0375
0.5625 0.125 -1.0375
0.625 0.125 -1.0375
0.6875 0.125 -1.0375
0.75 0.125 -1.0375
0.8125 0.125 -1.0375
0.875 0.125 -1.0375
0.9375 0.125 -1.0375
1 0.125 -1.0375
1.0625 0.125 -1.0375
1.125 0.125 -1.0375
1.1875 0.125 -1.0375
1.25 0.125 -1.0375
1.3125 0.125 -1.0375
1.375 0.125 -1.0375
1.4375 0.125 -1.0375
1.5 0.125 -1.0375
1.5625 0.125 -1.0375
1.625 0.125 -1.0375
1.6875 0.125 -1.0375
1.75 0.125 -1.0375
1.8125 0.125 -1.0375
1.875 0.125 -1.0375
1.9375 0.125 -1.0375
2 0.125 -1.0375
2.0625 0.125 -1.0375
2.125 0.125 -1.0375
2.1875 0.125 -1.0375
2.25 0.125 -1.0375
2.3125 0.125 -1.0375
2.375 0.125 -1.0375
2.4375 0.125 -1.0375
2.5 0.125 -1.0375
2.5625 0.125 -1.0375
2.625 0.125 -1.0375
2.6875 0.125 -1.0375
2.75 0.125 -1.0375
2.8125 0.125 -1.0375
2.875 0.125 -1.0375
2.9375 0.125 -1.0375
3 0.125 -1.0375
3.0625 0.125 -1.0375
3.125 0.125 -1.0375
3.1875 0.125 -1.0375
3.25 0.125 -1.0375
3.3125 0.125 -1.0375
3.375 0.125 -1.0375
3.4375 0.125 -1.0375
3.5 0.125 -1.0375
3.5625 0.125 -1.0375
3.625 0.125 -1.0375
3.6875 0.125 -1.0375
3.75 0.125 -1.0375
3.8125 0.125 -1.0375
3.875 0.125 -1.0375
3.9375 0.125 -1.0375
4 0.125 -1.0375
0 0.1875 -1.0375
0.0625 0.1875 -1.0375
0.125 0.1875 -1.0375
0.1875 0.1875 -1.0375
0.25 0.1875 -1.0375
0.3125 0.1875 -1.0375
0.375 0.1875 -1.0375
0.4375 0.1875 -1.0375
0.5 0.1875 -1.0375
0.5625 0.1875 -1.0375
0.625 0.1875 -1.0375
0.6875 0.1875 -1.0375
0.75 0.1875 -1.0375
0.8125 0.1875 -1.0375
0.875 0.1875 -1.0375
0.9375 0.1875 -1.0375
1 0.1875 -1.0375
1.0625 0.1875 -1.0375
1.125 0.1875 -1.0375
1.1875 0.1875 -1.0375
1.25 0.1875 -1.0375
1.3125 0.1875 -1.0375
1.375 0.1875 -1.0375
1.4375 0.1875 -1.0375
1.5 0.1875 -1.0375
1.5625 0.1875 -1.0375
1.625 0.1875 -1.0375
1.6875 0.1875 -1.0375
1.75 0.1875 -1.0375
1.8125 0.1875 -1.0375
1.875 0.1875 -1.0375
1.9375 0.1875 -1.0375
2 0.1875 -1.0375
2.0625 0.1875 -1.0375
2.125 0.1875 -1.0375
2.1875 0.1875 -1.0375
2.25 0.1875 -1.0375
2.3125 0.1875 -1.0375
2.375 0.1875 -1.0375
2.4375 0.1875 -1.0375
2.5 0.1875 -1.0375
2.5625 0.1875 -1.0375
2.625 0.1875 -1.0375
2.6875 0.1875 -1.0375
2.75 0.1875 -1.0375
2.8125 0.1875 -1.0375
2.875 0.1875 -1.0375
2.9375 0.1875 -1.0375
3 0.1875 -1.0375
3.0625 0.1875 -1.0375
3.125 0.1875 -1.0375
3.1875 0.1875 -1.0375
3.25 0.1875 -1.0375
3.3125 0.1875 -1.0375
3.375 0.1875 -1.0375
3.4375 0.1875 -1.0375
3.5 0.1875 -1.0375
3.5625 0.1875 -1.0375
3.625 0.1875 -1.0375
3.6875 0.1875 -1.0375
3.75 0.1875 -1.0375
3.8125 0.1875 -1.0375
3.875 0.1875 -1.0375
3.9375 0.1875 -1.0375
4 0.1875 -1.0375
0 0.25 -1.0375
0.0625 0.25 -1.0375
0.125 0.25 -1.0375
0.1875 0.25 -1.0375
0.25 0.25 -1.0375
0.3125 0.25 -1.0375
0.375 0.25 -1.0375
0.4375 0.25 -1.0375
0.5 0.25 -1.0375
0.5625 0.25 -1.0375
0.625 0.25 -1.0375
0.6875 0.25 -1.0375
0.75 0.25 -1.0375
0.8125 0.25 -1.0375
0.875 0.25 -1.0375
0.9375 0.25 -1.0375
1 0.25 -1.0375
1.0625 0.25 -1.0375
1.125 0.25 -1.0375
1.1875 0.25 -1.0375
1.25 0.25 -1.0375
1.3125 0.25 -1.0375
1.375 0.25 -1.0375
1.4375 0.25 -1.0375
1.5 0.25 -1.0375
1.5625 0.25 -1.0375
1.625 0.25 -1.0375
1.6875 0.25 -1.0375
1.75 0.25 -1.0375
1.8125 0.25 -1.0375
1.875 0.25 -1.0375
1.9375 0.25 -1.0375
2 0.25 -1.0375
2.0625 0.25 -1.0375
2.125 0.25 -1.0375
2.1875 0.25 -1.0375
2.25 0.25 -1.0375
2.3125 0.25 -1.0375
2.375 0.25 -1.0375
2.4375 0.25 -1.0375
2.5 0.25 -1.0375
2.5625 0.25 -1.0375
2.625 0.25 -1.0375
2.6875 0.25 -1.0375
2.75 0.25 -1.0375
2.8125 0.25 -1.0375
2.875 0.25 -1.0375
2.9375 0.25 -1.0375
3 0.25 -1.0375
3.0625 0.25 -1.0375
3.125 0.25 -1.0375
3.1875 0.25 -1.0375
3.25 0.25 -1.0375
3.3125 0.25 -1.0375
3.375 0.25 -1.0375
3.4375 0.25 -1.0375
3.5 0.25 -1.0375
3.5625 0.25 -1.0375
3.625 0.25 -1.0375
3.6875 0.25 -1.0375
3.75 0.25 -1.0375
3.8125 0.25 -1.0375
3.875 0.25 -1.0375
3.9375 0.25 -1.0375
4 0.25 -1.0375
0 0.3125 -1.0375
0.0625 0.3125 -1.0375
0.125 0.3125 -1.0375
0.1875 0.3125 -1.0375
0.25 0.3125 -1.0375
0.3125 0.3125 -1.0375
0.375 0.3125 -1.0375
0.4375 0.3125 -1.0375
0.5 0.3125 -1.0375
0.5625 0.3125 -1.0375
0.625 0.3125 -1.0375
0.6875 0.3125 -1.0375
0.75 0.3125 -1.0375
0.8125 0.3125 -1.0375
0.875 0.3125 -1.0375
0.9375 0.3125 -1.0375
1 0.3125 -1.0375
1.0625 0.3125 -1.0375
1.125 0.3125 -1.0375
1.1875 0.3125 -1.0375
1.25 0.3125 -1.0375
1.3125 0.3125 -1.0375
1.375 0.3125 -1.0375
1.4375 0.3125 -1.0375
1.5 0.3125 -1.0375
1.5625 0.3125 -1.0375
1.625 0.3125 -1.0375
1.6875 0.3125 -1.0375
1.75 0.3125 -1.0375
1.8125 0.3125 -1.0375
1.875 0.3125 -1.0375
1.9375 0.3125 -1.0375
2 0.3125 -1.0375
2.0625 0.3125 -1.0375
2.125 0.3125 -1.0375
2.1875 0.3125 -1.0375
2.25 0.3125 -1.0375
2.3125 0.3125 -1.0375
2.375 0.3125 -1.0375
2.4375 0.3125 -1.0375
2.5 0.3125 -1.0375
2.5625 0.3125 -1.0375
2.625 0.3125 -1.0375
2.6875 0.3125 -1.0375
2.75 0.3125 -1.0375
2.8125 0.3125 -1.0375
2.875 0.3125 -1.0375
2.9375 0.3125 -1.0375
3 0.3125 -1.0375
3.0625 0.3125 -1.0375
3.125 0.3125 -1.0375
3.1875 0.3125 -1.0375
3.25 0.3125 -1.0375
3.3125 0.3125 -1.0375
3.375 0.3125 -1.0375
3.4375 0.3125 -1.0375
3.5 0.3125 -1.0375
3.5625 0.3125 -1.0375
3.625 0.3125 -1.0375
3.6875 0.3125 -1.0375
3.75 0.3125 -1.0375
3.8125 0.3125 -1.0375
3.875 0.3125 -1.0375
3.9375 0.3125 -1.0375
4 0.3125 -1.0375
0 0.375 -1.0375
0.0625 0.375 -1.0375
0.125 0.375 -1.0375
0.1875 0.375 -1.0375
0.25 0.375 -1.0375
0.3125 0.375 -1.0375
0.375 0.375 -1.0375
0.4375 0.375 -1.0375
0.5 0.375 -1.0375
0.5625 0.375 -1.0375
0.625 0.375 -1.0375
0.6875 0.375 -1.0375
0.75 0.375 -1.0375
0.8125 0.375 -1.0375
0.875 0.375 -1.0375
0.9375 0.375 -1.0375
1 0.375 -1.0375
1.0625 0.375 -1.0375
1.125 0.375 -1.0375
1.1875 0.375 -1.0375
1.25 0.375 -1.0375
1.3125 0.375 -1.0375
1.375 0.375 -1.0375
1.4375 0.375 -1.0375
1.5 0.375 -1.0375
1.5625 0.375 -1.0375
1.625 0.375 -1.0375
1.6875 0.375 -1.0375
1.75 0.375 -1.0375
1.8125 0.375 -1.0375
1.875 0.375 -1.0375
1.9375 0.375 -1.0375
2 0.375 -1.0375
2.0625 0.375 -1.0375
2.125 0.375 -1.0375
2.1875 0.375 -1.0375
2.25 0.375 -1.0375
2.3125 0.375 -1.0375
2.375 0.375 -1.0375
2.4375 0.375 -1.0375
2.5 0.375 -1.0375
2.5625 0.375 -1.0375
2.625 0.375 -1.0375
2.6875 0.375 -1.0375
2.75 0.375 -1.0375
2.8125 0.375 -1.0375
2.875 0.375 -1.0375
2.9375 0.375 -1.0375
3 0.375 -1.0375
3.0625 0.375 -1.0375
3.125 0.375 -1.0375
3.1875 0.375 -1.0375
3.25 0.375 -1.0375
3.3125 0.375 -1.0375
3.375 0.375 -1.0375
3.4375 0.375 -1.0375
3.5 0.375 -1.0375
3.5625 0.375 -1.0375
3.625 0.375 -1.0375
3.6875 0.375 -1.0375
3.75 0.375 -1.0375
3.8125 0.375 -1.0375
3.875 0.375 -1.0375
3.9375 0.375 -1.0375
4 0.375 -1.0375
0 0.4375 -1.0375
0.0625 0.4375 -1.0375
0.125 0.4375 -1.0375
0.1875 0.4375 -1.0375
0.25 0.4375 -1.0375
0.3125 0.4375 -1.0375
0.375 0.4375 -1.0375
0.4375 0.4375 -1.0375
0.5 0.4375 -1.0375
0.5625 0.4375 -1.0375
0.625 0.4375 -1.0375
0.6875 0.4375 -1.0375
0.75 0.4375 -1.0375
0.8125 0.4375 -1.0375
0.875 0.4375 -1.0375
0.9375 0.4375 -1.0375
1 0.4375 -1.0375
1.0625 0.4375 -1.0375
1.125 0.4375 -1.0375
1.1875 0.4375 -1.0375
1.25 0.4375 -1.0375
1.3125 0.4375 -1.0375
1.375 0.4375 -1.0375
1.4375 0.4375 -1.0375
1.5 0.4375 -1.0375
1.5625 0.4375 -1.0375
1.625 0.4375 -1.0375
1.6875 0.4375 -1.0375
1.75 0.4375 -1.0375
1.8125 0.4375 -1.0375
1.875 0.4375 -1.0375
1.9375 0.4375 -1.0375
2 0.4375 -1.0375
2.0625 0.4375 -1.0375
2.125 0.4375 -1.0375
2.1875 0.4375 -1.0375
2.25 0.4375 -1.0375
2.3125 0.4375 -1.0375
2.375 0.4375 -1.0375
2.4375 0.4375 -1.0375
2.5 0.4375 -1.0375
2.5625 0.4375 -1.0375
2.625 0.4375 -1.0375
2.6875 0.4375 -1.0375
2.75 0.4375 -1.0375
2.8125 0.4375 -1.0375
2.875 0.4375 -1.0375
2.9375 0.4375 -1.0375
3 0.4375 -1.0375
3.0625 0.4375 -1.0375
3.125 0.4375 -1.0375
3.1875 0.4375 -1.0375
3.25 0.4375 -1.0375
3.3125 0.4375 -1.0375
3.375 0.4375 -1.0375
3.4375 0.4375 -1.0375
3.5 0.4375 -1.0375
3.5625 0.4375 -1.0375
3.625 0.4375 -1.0375
3.6875 0.4375 -1.0375
3.75 0.4375 -1.0375
3.8125 0.4375 -1.0375
3.875 0.4375 -1.0375
3.9375 0.4375 -1.0375
4 0.4375 -1.0375
0 0.5 -1.0375
0.0625 0.5 -1.0375
0.125 0.5 -1.0375
0.1875 0.5 -1.0375
0.25 0.5 -1.0375
0.3125 0.5 -1.0375
0.375 0.5 -1.0375
0.4375 0.5 -1.0375
0.5 0.5 -1.0375
0.5625 0.5 -1.0375
0.625 0.5 -1.0375
0.6875 0.5 -1.0375
0.75 0.5 -1.0375
0.8125 0.5 -1.0375
0.875 0.5 -1.0375
0.9375 0.5 -1.0375
1 0.5 -1.0375
1.0625 0.5 -1.0375
1.125 0.5 -1.0375
1.1875 0.5 -1.0375
1.25 0.5 -1.0375
1.3125 0.5 -1.0375
1.375 0.5 -1.0375
1.4375 0.5 -1.0375
1.5 0.5 -1.0375
1.5625 0.5 -1.0375
1.625 0.5 -1.0375
1.6875 0.5 -1.0375
1.75 0.5 -1.0375
1.8125 0.5 -1.0375
1.875 0.5 -1.0375
1.9375 0.5 -1.0375
2 0.5 -1.0375
2.0625 0.5 -1.0375
2.125 0.5 -1.0375
2.1875 0.5 -1.0375
2.25 0.5 -1.0375
2.3125 0.5 -1.0375
2.375 0.5 -1.0375
2.4375 0.5 -1.0375
2.5 0.5 -1.0375
2.5625 0.5 -1.0375
2.625 0.5 -1.0375
2.6875 0.5 -1.0375
2.75 0.5 -1.0375
2.8125 0.5 -1.0375
2.875 0.5 -1.0375
2.9375 0.5 -1.0375
3 0.5 -1.0375
3.0625 0.5 -1.0375
3.125 0.5 -1.0375
3.1875 0.5 -1.0375
3.25 0.5 -1.0375
3.3125 0.5 -1.0375
3.375 0.5 -1.0375
3.4375 0.5 -1.0375
3.5 0.5 -1.0375
3.5625 0.5 -1.0375
3.625 0.5 -1.0375
3.6875 0.5 -1.0375
3.75 0.5 -1.0375
3.8125 0.5 -1.0375
3.875 0.5 -1.0375
3.9375 0.5 -1.0375
4 0.5 -1.0375
0 0.5625 -1.0375
0.0625 0.5625 -1.0375
0.125 0.5625 -1.0375
0.1875 0.5625 -1.0375
0.25 0.5625 -1.0375
0.3125 0.5625 -1.0375
0.375 0.5625 -1.0375
0.4375 0.5625 -1.0375
0.5 0.5625 -1.0375
0.5625 0.5625 -1.0375
0.625 0.5625 -1.0375
0.6875 0.5625 -1.0375
0.75 0.5625 -1.0375
0.8125 0.5625 -1.0375
0.875 0.5625 -1.0375
0.9375 0.5625 -1.0375
1 0.5625 -1.0375
1.0625 0.5625 -1.0375
1.125 0.5625 -1.0375
1.1875 0.5625 -1.0375
1.25 0.5625 -1.0375
1.3125 0.5625 -1.0375
1.375 0.5625 -1.0375
1.4375 0.5625 -1.0375
1.5 0.5625 -1.0375
1.5625 0.5625 -1.0375
1.625 0.5625 -1.0375
1.6875 0.5625 -1.0375
1.75 0.5625 -1.0375
1.8125 0.5625 -1.0375
1.875 0.5625 -1.0375
1.9375 0.5625 -1.0375
2 0.5625 -1.0375
2.0625 0.5625 -1.0375
2.125 0.5625 -1.0375
2.1875 0.5625 -1.0375
2.25 0.5625 -1.0375
2.3125 0.5625 -1.0375
2.375 0.5625 -1.0375
2.4375 0.5625 -1.0375
2.5 0.5625 -1.0375
2.5625 0.5625 -1.0375
2.625 0.5625 -1.0375
2.6875 0.5625 -1.0375
2.75 0.5625 -1.0375
2.8125 0.5625 -1.0375
2.875 0.5625 -1.0375
2.9375 0.5625 -1.0375
3 0.5625 -1.0375
3.0625 0.5625 -1.0375
3.125 0.5625 -1.0375
3.1875 0.5625 -1.0375
3.25 0.5625 -1.0375
3.3125 0.5625 -1.0375
3.375 0.5625 -1.0375
3.4375 0.5625 -1.0375
3.5 0.5625 -1.0375
3.5625 0.5625 -1.0375
3.625 0.5625 -1.0375
3.6875 0.5625 -1.0375
3.75 0.5625 -1.0375
3.8125 0.5625 -1.0375
3.875 0.5625 -1.0375
3.9375 0.5625 -1.0375
4 0.5625 -1.0375
0 0.625 -1.0375
0.0625 0.625 -1.0375
0.125 0.625 -1.0375
0.1875 0.625 -1.0375
0.25 0.625 -1.0375
0.3125 0.625 -1.0375
0.375 0.625 -1.0375
0.4375 0.625 -1.0375
0.5 0.625 -1.0375
0.5625 0.625 -1.0375
0.625 0.625 -1.0375
0.6875 0.625 -1.0375
0.75 0.625 -1.0375
0.8125 0.625 -1.0375
0.875 0.625 -1.0375
0.9375 0.625 -1.0375
1 0.625 -1.0375
1.0625 0.625 -1.0375
1.125 0.625 -1.0375
1.1875 0.625 -1.0375
1.25 0.625 -1.0375
1.3125 0.625 -1.0375
1.375 0.625 -1.0375
1.4375 0.625 -1.0375
1.5 0.625 -1.0375
1.5625 0.625 -1.0375
1.625 0.625 -1.0375
1.6875 0.625 -1.0375
1.75 0.625 -1.0375
1.8125 0.625 -1.0375
1.875 0.625 -1.0375
1.9375 0.625 -1.0375
2 0.625 -1.0375
2.0625 0.625 -1.0375
2.125 0.625 -1.0375
2.1875 0.625 -1.0375
2.25 0.625 -1.0375
2.3125 0.625 -1.0375
2.375 0.625 -1.0375
2.4375 0.625 -1.0375
2.5 0.625 -1.0375
2.5625 0.625 -1.0375
2.625 0.625 -1.0375
2.6875 0.625 -1.0375
2.75 0.625 -1.0375
2.8125 0.625 -1.0375
2.875 0.625 -1.0375
2.9375 0.625 -1.0375
3 0.625 -1.0375
3.0625 0.625 -1.0375
3.125 0.625 -1.0375
3.1875 0.625 -1.0375
3.25 0.625 -1.0375
3.3125 0.625 -1.0375
3.375 0.625 -1.0375
3.4375 0.625 -1.0375
3.5 0.625 -1.0375
3.5625 0.625 -1.0375
3.625 0.625 -1.0375
3.6875 0.625 -1.0375
3.75 0.625 -1.0375
3.8125 0.625 -1.0375
3.875 0.625 -1.0375
3.9375 0.625 -1.0375
4 0.625 -1.0375
0 0.6875 -1.0375
0.0625 0.6875 -1.0375
0.125 0.6875 -1.0375
0.1875 0.6875 -1.0375
0.25 0.6875 -1.0375
0.3125 0.6875 -1.0375
0.375 0.6875 -1.0375
0.4375 0.6875 -1.0375
0.5 0.6875 -1.0375
0.5625 0.6875 -1.0375
0.625 0.6875 -1.0375
0.6875 0.6875 -1.0375
0.75 0.6875 -1.0375
0.8125 0.6875 -1.0375
0.875 0.6875 -1.0375
0.9375 0.6875 -1.0375
1 0.6875 -1.0375
1.0625 0.6875 -1.0375
1.125 0.6875 -1.0375
1.1875 0.6875 -1.0375
1.25 0.6875 -1.0375
1.3125 0.6875 -1.0375
1.375 0.6875 -1.0375
1.4375 0.6875 -1.0375
1.5 0.6875 -1.0375
1.5625 0.6875 -1.0375
1.625 0.6875 -1.0375
1.6875 0.6875 -1.0375
1.75 0.6875 -1.0375
1.8125 0.6875 -1.0375
1.875 0.6875 -1.0375
1.9375 0.6875 -1.0375
2 0.6875 -1.0375
2.0625 0.6875 -1.0375
2.125 0.6875 -1.0375
2.1875 0.6875 -1.0375
2.25 0.6875 -1.0375
2.3125 0.6875 -1.0375
2.375 0.6875 -1.0375
2.4375 0.6875 -1.0375
2.5 0.6875 -1.0375
2.5625 0.6875 -1.0375
2.625 0.6875 -1.0375
2.6875 0.6875 -1.0375
2.75 0.6875 -1.0375
2.8125 0.6875 -1.0375
2.875 0.6875 -1.0375
2.9375 0.6875 -1.0375
3 0.6875 -1.0375
3.0625 0.6875 -1.0375
3.125 0.6875 -1.0375
3.1875 0.6875 -1.0375
3.25 0.6875 -1.0375
3.3125 0.6875 -1.0375
3.375 0.6875 -1.0375
3.4375 0.6875 -1.0375
3.5 0.6875 -1.0375
3.5625 0.6875 -1.0375
3.625 0.6875 -1.0375
3.6875 0.6875 -1.0375
3.75 0.6875 -1.0375
3.8125 0.6875 -1.0375
3.875 0.6875 -1.0375
3.9375 0.6875 -1.0375
4 0.6875 -1.0375
0 0.75 -1.0375
0.0625 0.75 -1.0375
0.125 0.75 -1.0375
0.1875 0.75 -1.0375
0.25 0.75 -1.0375
0.3125 0.75 -1.0375
0.375 0.75 -1.0375
0.4375 0.75 -1.0375
0.5 0.75 -1.0375
0.5625 0.75 -1.0375
0.625 0.75 -1.0375
0.6875 0.75 -1.0375
0.75 0.75 -1.0375
0.8125 0.75 -1.0375
0.875 0.75 -1.0375
0.9375 0.75 -1.0375
1 0.75 -1.0375
1.0625 0.75 -1.0375
1.125 0.75 -1.0375
1.1875 0.75 -1.0375
1.25 0.75 -1.0375
1.3125 0.75 -1.0375
1.375 0.75 -1.0375
1.4375 0.75 -1.0375
1.5 0.75 -1.0375
1.5625 0.75 -1.0375
1.625 0.75 -1.0375
1.6875 0.75 -1.0375
1.75 0.75 -1.0375
1.8125 0.75 -1.0375
1.875 0.75 -1.0375
1.9375 0.75 -1.0375
2 0.75 -1.0375
2.0625 0.75 -1.0375
2.125 0.75 -1.0375
2.1875 0.75 -1.0375
2.25 0.75 -1.0375
2.3125 0.75 -1.0375
2.375 0.75 -1.0375
2.4375 0.75 -1.0375
2.5 0.75 -1.0375
2.5625 0.75 -1.0375
2.625 0.75 -1.0375
2.6875 0.75 -1.0375
2.75 0.75 -1.0375
2.8125 0.75 -1.0375
2.875 0.75 -1.0375
2.9375 0.75 -1.0375
3 0.75 -1.0375
3.0625 0.75 -1.0375
3.125 0.75 -1.0375
3.1875 0.75 -1.0375
3.25 0.75 -1.0375
3.3125 0.75 -1.0375
3.375 0.75 -1.0375
3.4375 0.75 -1.0375
3.5 0.75 -1.0375
3.5625 0.75 -1.0375
3.625 0.75 -1.0375
3.6875 0.75 -1.0375
3.75 0.75 -1.0375
3.8125 0.75 -1.0375
3.875 0.75 -1.0375
3.9375 0.75 -1.0375
4 0.75 -1.0375
0 0.8125 -1.0375
0.0625 0.8125 -1.0375
0.125 0.8125 -1.0375
0.1875 0.8125 -1.0375
0.25 0.8125 -1.0375
0.3125 0.8125 -1.0375
0.375 0.8125 -1.0375
0.4375 0.8125 -1.0375
0.5 0.8125 -1.0375
0.5625 0.8125 -1.0375
0.625 0.8125 -1.0375
0.6875 0.8125 -1.0375
0.75 0.8125 -1.0375
0.8125 0.8125 -1.0375
0.875 0.8125 -1.0375
0.9375 0.8125 -1.0375
1 0.8125 -1.0375
1.0625 0.8125 -1.0375
1.125 0.8125 -1.0375
1.1875 0.8125 -1.0375
1.25 0.8125 -1.0375
1.3125 0.8125 -1.0375
1.375 0.8125 -1.0375
1.4375 0.8125 -1.0375
1.5 0.8125 -1.0375
1.5625 0.8125 -1.0375
1.625 0.8125 -1.0375
1.6875 0.8125 -1.0375
1.75 0.8125 -1.0375
1.8125 0.8125 -1.0375
1.875 0.8125 -1.0375
1.9375 0.8125 -1.0375
2 0.8125 -1.0375
2.0625 0.8125 -1.0375
2.125 0.8125 -1.0375
2.1875 0.8125 -1.0375
2.25 0.8125 -1.0375
2.3125 0.8125 -1.0375
2.375 0.8125 -1.0375
2.4375 0.8125 -1.0375
2.5 0.8125 -1.0375
2.5625 0.8125 -1.0375
2.625 0.8125 -1.0375
2.6875 0.8125 -1.0375
2.75 0.8125 -1.0375
2.8125 0.8125 -1.0375
2.875 0.8125 -1.0375
2.9375 0.8125 -1.0375
3 0.8125 -1.0375
3.0625 0.8125 -1.0375
3.125 0.8125 -1.0375
3.1875 0.8125 -1.0375
3.25 0.8125 -1.0375
3.3125 0.8125 -1.0375
3.375 0.8125 -1.0375
3.4375 0.8125 -1.0375
3.5 0.8125 -1.0375
3.5625 0.8125 -1.0375
3.625 0.8125 -1.0375
3.6875 0.8125 -1.0375
3.75 0.8125 -1.0375
3.8125 0.8125 -1.0375
3.875 0.8125 -1.0375
3.9375 0.8125 -1.0375
4 0.8125 -1.0375
0 0.875 -1.0375
0.0625 0.875 -1.0375
0.125 0.875 -1.0375
0.1875 0.875 -1.0375
0.25 0.875 -1.0375
0.3125 0.875 -1.0375
0.375 0.875 -1.0375
0.4375 0.875 -1.0375
0.5 0.875 -1.0375
0.5625 0.875 -1.0375
0.625 0.875 -1.0375
0.6875 0.875 -1.0375
0.75 0.875 -1.0375
0.8125 0.875 -1.0375
0.875 0.875 -1.0375
0.9375 0.875 -1.0375
1 0.875 -1.0375
1.0625 0.875 -1.0375
1.125 0.875 -1.0375
1.1875 0.875 -1.0375
1.25 0.875 -1.0375
1.3125 0.875 -1.0375
1.375 0.875 -1.0375
1.4375 0.875 -1.0375
1.5 0.875 -1.0375
1.5625 0.875 -1.0375
1.625 0.875 -1.0375
1.6875 0.875 -1.0375
1.75 0.875 -1.0375
1.8125 0.875 -1.0375
1.875 0.875 -1.0375
1.9375 0.875 -1.0375
2 0.875 -1.0375
2.0625 0.875 -1.0375
2.125 0.875 -1.0375
2.1875 0.875 -1.0375
2.25 0.875 -1.0375
2.3125 0.875 -1.0375
2.375 0.875 -1.0375
2.4375 0.875 -1.0375
2.5 0.875 -1.0375
2.5625 0.875 -1.0375
2.625 0.875 -1.0375
2.6875 0.875 -1.0375
2.75 0.875 -1.0375
2.8125 0.875 -1.0375
2.875 0.875 -1.0375
2.9375 0.875 -1.0375
3 0.875 -1.0375
3.0625 0.875 -1.0375
3.125 0.875 -1.0375
3.1875 0.875 -1.0375
3.25 0.875 -1.0375
3.3125 0.875 -1.0375
3.375 0.875 -1.0375
3.4375 0.875 -1.0375
3.5 0.875 -1.0375
3.5625 0.875 -1.0375
3.625 0.875 -1.0375
3.6875 0.875 -1.0375
3.75 0.875 -1.0375
3.8125 0.875 -1.0375
3.875 0.875 -1.0375
3.9375 0.875 -1.0375
4 0.875 -1.0375
0 0.9375 -1.0375
0.0625 0.9375 -1.0375
0.125 0.9375 -1.0375
0.1875 0.9375 -1.0375
0.25 0.9375 -1.0375
0.3125 0.9375 -1.0375
0.375 0.9375 -1.0375
0.4375 0.9375 -1.0375
0.5 0.9375 -1.0375
0.5625 0.9375 -1.0375
0.625 0.9375 -1.0375
0.6875 0.9375 -1.0375
0.75 0.9375 -1.0375
0.8125 0.9375 -1.0375
0.875 0.9375 -1.0375
0.9375 0.9375 -1.0375
1 0.9375 -1.0375
1.0625 0.9375 -1.0375
1.125 0.9375 -1.0375
1.1875 0.9375 -1.0375
1.25 0.9375 -1.0375
1.3125 0.9375 -1.0375
1.375 0.9375 -1.0375
1.4375 0.9375 -1.0375
1.5 0.9375 -1.0375
1.5625 0.9375 -1.0375
1.625 0.9375 -1.0375
1.6875 0.9375 -1.0375
1.75 0.9375 -1.0375
1.8125 0.9375 -1.0375
1.875 0.9375 -1.0375
1.9375 0.9375 -1.0375
2 0.9375 -1.0375
2.0625 0.9375 -1.0375
2.125 0.9375 -1.0375
2.1875 0.9375 -1.0375
2.25 0.9375 -1.0375
2.3125 0.9375 -1.0375
2.375 0.9375 -1.0375
2.4375 0.9375 -1.0375
2.5 0.9375 -1.0375
2.5625 0.9375 -1.0375
2.625 0.9375 -1.0375
2.6875 0.9375 -1.0375
2.75 0.9375 -1.0375
2.8125 0.9375 -1.0375
2.875 0.9375 -1.0375
2.9375 0.9375 -1.0375
3 0.9375 -1.0375
3.0625 0.9375 -1.0375
3.125 0.9375 -1.0375
3.1875 0.9375 -1.0375
3.25 0.9375 -1.0375
3.3125 0.9375 -1.0375
3.375 0.9375 -1.0375
3.4375 0.9375 -1.0375
3.5 0.9375 -1.0375
3.5625 0.9375 -1.0375
3.625 0.9375 -1.0375
3.6875 0.9375 -1.0375
3.75 0.9375 -1.0375
3.8125 0.9375 -1.0375
3.875 0.9375 -1.0375
3.9375 0.9375 -1.0375
4 0.9375 -1.0375
0 1 -1.0375
0.0625 1 -1.0375
0.125 1 -1.0375
0.1875 1 -1.0375
0.25 1 -1.0375
0.3125 1 -1.0375
0.375 1 -1.0375
0.4375 1 -1.0375
0.5 1 -1.0375
0.5625 1 -1.0375
0.625 1 -1.0375
0.6875 1 -1.0375
0.75 1 -1.0375
0.8125 1 -1.0375
0.875 1 -1.0375
0.9375 1 -1.0375
1 1 -1.0375
1.0625 1 -1.0375
1.125 1 -1.0375
1.1875 1 -1.0375
1.25 1 -1.0375
1.3125 1 -1.0375
1.375 1 -1.0375
1.4375 1 -1.0375
1.5 1 -1.0375
1.5625 1 -1.0375
1.625 1 -1.0375
1.6875 1 -1.0375
1.75 1 -1.0375
1.8125 1 -1.0375
1.875 1 -1.0375
1.9375 1 -1.0375
2 1 -1.0375
2.0625 1 -1.0375
2.125 1 -1.0375
2.1875 1 -1.0375
2.25 1 -1.0375
2.3125 1 -1.0375
2.375 1 -1.0375
2.4375 1 -1.0375
2.5 1 -1.0375
2.5625 1 -1.0375
2.625 1 -1.0375
2.6875 1 -1.0375
2.75 1 -1.0375
2.8125 1 -1.0375
2.875 1 -1.0375
2.9375 1 -1.0375
3 1 -1.0375
3.0625 1 -1.0375
3.125 1 -1.0375
3.1875 1 -1.0375
3.25 1 -1.0375
3.3125 1 -1.0375
3.375 1 -1.0375
3.4375 1 -1.0375
3.5 1 -1.0375
3.5625 1 -1.0375
3.625 1 -1.0375
3.6875 1 -1.0375
3.75 1 -1.0375
3.8125 1 -1.0375
3.875 1 -1.0375
3.9375 1 -1.0375
4 1 -1.0375
0 0 -0.975
0.0625 0 -0.975
0.125 0 -0.975
0.1875 0 -0.975
0.25 0 -0.975
0.3125 0 -0.975
0.375 0 -0.975
0.4375 0 -0.975
0.5 0 -0.975
0.5625 0 -0.975
0.625 0 -0.975
0.6875 0 -0.975
0.75 0 -0.975
0.8125 0 -0.975
0.875 0 -0.975
0.9375 0 -0.975
1 0 -0.975
1.0625 0 -0.975
1.125 0 -0.975
1.1875 0 -0.975
1.25 0 -0.975
1.3125 0 -0.975
1.375 0 -0.975
1.4375 0 -0.975
1.5 0 -0.975
1.5625 0 -0.975
1.625 0 -0.975
1.6875 0 -0.975
1.75 0 -0.975
1.8125 0 -0.975
1.875 0 -0.975
1.9375 0 -0.975
2 0 -0.975
2.0625 0 -0.975
2.125 0 -0.975
2.1875 0 -0.975
2.25 0 -0.975
2.3125 0 -0.975
2.375 0 -0.975
2.4375 0 -0.975
2.5 0 -0.975
2.5625 0 -0.975
2.625 0 -0.975
2.6875 0 -0.975
2.75 0 -0.975
2.8125 0 -0.975
2.875 0 -0.975
2.9375 0 -0.975
3 0 -0.975
3.0625 0 -0.975
3.125 0 -0.975
3.1875 0 -0.975
3.25 0 -0.975
3.3125 0 -0.975
3.375 0 -0.975
3.4375 0 -0.975
3.5 0 -0.975
3.5625 0 -0.975
3.625 0 -0.975
3.6875 0 -0.975
3.75 0 -0.975
3.8125 0 -0.975
3.875 0 -0.975
3.9375 0 -0.975
4 0 -0.975
0 0.0625 -0.975
0.0625 0.0625 -0.975
0.125 0.0625 -0.975
0.1875 0.0625 -0.975
0.25 0.0625 -0.975
0.3125 0.0625 -0.975
0.375 0.0625 -0.975
0.4375 0.0625 -0.975
0.5 0.0625 -0.975
0.5625 0.0625 -0.975
0.625 0.0625 -0.975
0.6875 0.0625 -0.975
0.75 0.0625 -0.975
0.8125 0.0625 -0.975
0.875 0.0625 -0.975
0.9375 0.0625 -0.975
1 0.0625 -0.975
1.0625 0.0625 -0.975
1.125 0.0625 -0.975
1.1875 0.0625 -0.975
1.25 0.0625 -0.975
1.3125 0.0625 -0.975
1.375 0.0625 -0.975
1.4375 0.0625 -0.975
1.5 0.0625 -0.975
1.5625 0.0625 -0.975
1.625 0.0625 -0.975
1.6875 0.0625 -0.975
1.75 0.0625 -0.975
1.8125 0.0625 -0.975
1.875 0.0625 -0.975
1.9375 0.0625 -0.975
2 0.0625 -0.975
2.0625 0.0625 -0.975
2.125 0.0625 -0.975
2.1875 0.0625 -0.975
2.25 0.0625 -0.975
2.3125 0.0625 -0.975
2.375 0.0625 -0.975
2.4375 0.0625 -0.975
2.5 0.0625 -0.975
2.5625 0.0625 -0.975
2.625 0.0625 -0.975
2.6875 0.0625 -0.975
2.75 0.0625 -0.975
2.8125 0.0625 -0.975
2.875 0.0625 -0.975
2.9375 0.0625 -0.975
3 0.0625 -0.975
3.0625 0.0625 -0.975
3.125 0.0625 -0.975
3.1875 0.0625 -0.975
3.25 0.0625 -0.975
3.3125 0.0625 -0.975
3.375 0.0625 -0.975
3.4375 0.0625 -0.975
3.5 0.0625 -0.975
3.5625 0.0625 -0.975
3.625 0.0625 -0.975
3.6875 0.0625 -0.975
3.75 0.0625 -0.975
3.8125 0.0625 -0.975
3.875 0.0625 -0.975
3.9375 0.0625 -0.975
4 0.0625 -0.975
0 0.125 -0.975
0.0625 0.125 -0.975
0.125 0.125 -0.975
0.1875 0.125 -0.975
0.25 0.125 -0.975
0.3125 0.125 -0.975
0.375 0.125 -0.975
0.4375 0.125 -0.975
0.5 0.125 -0.975
0.5625 0.125 -0.975
0.625 0.125 -0.975
0.6875 0.125 -0.975
0.75 0.125 -0.975
0.8125 0.125 -0.975
0.875 0.125 -0.975
0.9375 0.125 -0.975
1 0.125 -0.975
1.0625 0.125 -0.975
1.125 0.125 -0.975
1.1875 0.125 -0.975
1.25 0.125 -0.975
1.3125 0.125 -0.975
1.375 0.125 -0.975
1.4375 0.125 -0.975
1.5 0.125 -0.975
1.5625 0.125 -0.975
1.625 0.125 -0.975
1.6875 0.125 -0.975
1.75 0.125 -0.975
1.8125 0.125 -0.975
1.875 0.125 -0.975
1.9375 0.125 -0.975
2 0.125 -0.975
2.0625 0.125 -0.975
2.125 0.125 -0.975
2.1875 0.125 -0.975
2.25 0.125 -0.975
2.3125 0.125 -0.975
2.375 0.125 -0.975
2.4375 0.125 -0.975
2.5 0.125 -0.975
2.5625 0.125 -0.975
2.625 0.125 -0.975
2.6875 0.125 -0.975
2.75 0.125 -0.975
2.8125 0.125 -0.975
2.875 0.125 -0.975
2.9375 0.125 -0.975
3 0.125 -0.975
3.0625 0.125 -0.975
3.125 0.125 -0.975
3.1875 0.125 -0.975
3.25 0.125 -0.975
3.3125 0.125 -0.975
3.375 0.125 -0.975
3.4375 0.125 -0.975
3.5 0.125 -0.975
3.5625 0.125 -0.975
3.625 0.125 -0.975
3.6875 0.125 -0.975
3.75 0.125 -0.975
3.8125 0.125 -0.975
3.875 0.125 -0.975
3.9375 0.125 -0.975
4 0.125 -0.975
0 0.1875 -0.975
0.0625 0.1875 -0.975
0.125 0.1875 -0.975
0.1875 0.1875 -0.975
0.25 0.1875 -0.975
0.3125 0.1875 -0.975
0.375 0.1875 -0.975
0.4375 0.1875 -0.975
0.5 0.1875 -0.975
0.5625 0.1875 -0.975
0.625 0.1875 -0.975
0.6875 0.1875 -0.975
0.75 0.1875 -0.975
0.8125 0.1875 -0.975
0.875 0.1875 -0.975
0.9375 0.1875 -0.975
1 0.1875 -0.975
1.0625 0.1875 -0.975
1.125 0.1875 -0.975
1.1875 0.1875 -0.975
1.25 0.1875 -0.975
1.3125 0.1875 -0.975
1.375 0.1875 -0.975
1.4375 0.1875 -0.975
1.5 0.1875 -0.975
1.5625 0.1875 -0.975
1.625 0.1875 -0.975
1.6875 0.1875 -0.975
1.75 0.1875 -0.975
1.8125 0.1875 -0.975
1.875 0.1875 -0.975
1.9375 0.1875 -0.975
2 0.1875 -0.975
2.0625 0.1875 -0.975
2.125 0.1875 -0.975
2.1875 0.1875 -0.975
2.25 0.1875 -0.975
2.3125 0.1875 -0.975
2.375 0.1875 -0.975
2.4375 0.1875 -0.975
2.5 0.1875 -0.975
2.5625 0.1875 -0.975
2.625 0.1875 -0.975
2.6875 0.1875 -0.975
2.75 0.1875 -0.975
2.8125 0.1875 -0.975
2.875 0.1875 -0.975
2.9375 0.1875 -0.975
3 0.1875 -0.975
3.0625 0.1875 -0.975
3.125 0.1875 -0.975
3.1875 0.1875 -0.975
3.25 0.1875 -0.975
3.3125 0.1875 -0.975
3.375 0.1875 -0.975
3.4375 0.1875 -0.975
3.5 0.1875 -0.975
3.5625 0.1875 -0.975
3.625 0.1875 -0.975
3.6875 0.1875 -0.975
3.75 0.1875 -0.975
3.8125 0.1875 -0.975
3.875 0.1875 -0.975
3.9375 0.1875 -0.975
4 0.1875 -0.975
0 0.25 -0.975
0.0625 0.25 -0.975
0.125 0.25 -0.975
0.1875 0.25 -0.975
0.25 0.25 -0.975
0.3125 0.25 -0.975
0.375 0.25 -0.975
0.4375 0.25 -0.975
0.5 0.25 -0.975
0.5625 0.25 -0.975
0.625 0.25 -0.975
0.6875 0.25 -0.975
0.75 0.25 -0.975
0.8125 0.25 -0.975
0.875 0.25 -0.975
0.9375 0.25 -0.975
1 0.25 -0.975
1.0625 0.25 -0.975
1.125 0.25 -0.975
1.1875 0.25 -0.975
1.25 0.25 -0.975
1.3125 0.25 -0.975
1.375 0.25 -0.975
1.4375 0.25 -0.975
1.5 0.25 -0.975
1.5625 0.25 -0.975
1.625 0.25 -0.975
1.6875 0.25 -0.975
1.75 0.25 -0.975
1.8125 0.25 -0.975
1.875 0.25 -0.975
1.9375 0.25 -0.975
2 0.25 -0.975
2.0625 0.25 -0.975
2.125 0.25 -0.975
2.1875 0.25 -0.975
2.25 0.25 -0.975
2.3125 0.25 -0.975
2.375 0.25 -0.975
2.4375 0.25 -0.975
2.5 0.25 -0.975
2.5625 0.25 -0.975
2.625 0.25 -0.975
2.6875 0.25 -0.975
2.75 0.25 -0.975
2.8125 0.25 -0.975
2.875 0.25 -0.975
2.9375 0.25 -0.975
3 0.25 -0.975
3.0625 0.25 -0.975
3.125 0.25 -0.975
3.1875 0.25 -0.975
3.25 0.25 -0.975
3.3125 0.25 -0.975
3.375 0.25 -0.975
3.4375 0.25 -0.975
3.5 0.25 -0.975
3.5625 0.25 -0.975
3.625 0.25 -0.975
3.6875 0.25 -0.975
3.75 0.25 -0.975
3.8125 0.25 -0.975
3.875 0.25 -0.975
3.9375 0.25 -0.975
4 0.25 -0.975
0 0.3125 -0.975
0.0625 0.3125 -0.975
0.125 0.3125 -0.975
0.1875 0.3125 -0.975
0.25 0.3125 -0.975
0.3125 0.3125 -0.975
0.375 0.3125 -0.975
0.4375 0.3125 -0.975
0.5 0.3125 -0.975
0.5625 0.3125 -0.975
0.625 0.3125 -0.975
0.6875 0.3125 -0.975
0.75 0.3125 -0.975
0.8125 0.3125 -0.975
0.875 0.3125 -0.975
0.9375 0.3125 -0.975
1 0.3125 -0.975
1.0625 0.3125 -0.975
1.125 0.3125 -0.975
1.1875 0.3125 -0.975
1.25 0.3125 -0.975
1.3125 0.3125 -0.975
1.375 0.3125 -0.975
1.4375 0.3125 -0.975
1.5 0.3125 -0.975
1.5625 0.3125 -0.975
1.625 0.3125 -0.975
1.6875 0.3125 -0.975
1.75 0.3125 -0.975
1.8125 0.3125 -0.975
1.875 0.3125 -0.975
1.9375 0.3125 -0.975
2 0.3125 -0.975
2.0625 0.3125 -0.975
2.125 0.3125 -0.975
2.1875 0.3125 -0.975
2.25 0.3125 -0.975
2.3125 0.3125 -0.975
2.375 0.3125 -0.975
2.4375 0.3125 -0.975
2.5 0.3125 -0.975
2.5625 0.3125 -0.975
2.625 0.3125 -0.975
2.6875 0.3125 -0.975
2.75 0.3125 -0.975
2.8125 0.3125 -0.975
2.875 0.3125 -0.975
2.9375 0.3125 -0.975
3 0.3125 -0.975
3.0625 0.3125 -0.975
3.125 0.3125 -0.975
3.1875 0.3125 -0.975
3.25 0.3125 -0.975
3.3125 0.3125 -0.975
3.375 0.3125 -0.975
3.4375 0.3125 -0.975
3.5 0.3125 -0.975
3.5625 0.3125 -0.975
3.625 0.3125 -0.975
3.6875 0.3125 -0.975
3.75 0.3125 -0.975
3.8125 0.3125 -0.975
3.875 0.3125 -0.975
3.9375 0.3125 -0.975
4 0.3125 -0.975
0 0.375 -0.975
0.0625 0.375 -0.975
0.125 0.375 -0.975
0.1875 0.375 -0.975
0.25 0.375 -0.975
0.3125 0.375 -0.975
0.375 0.375 -0.975
0.4375 0.375 -0.975
0.5 0.375 -0.975
0.5625 0.375 -0.975
0.625 0.375 -0.975
0.6875 0.375 -0.975
0.75 0.375 -0.975
0.8125 0.375 -0.975
0.875 0.375 -0.975
0.9375 0.375 -0.975
1 0.375 -0.975
1.0625 0.375 -0.975
1.125 0.375 -0.975
1.1875 0.375 -0.975
1.25 0.375 -0.975
1.3125 0.375 -0.975
1.375 0.375 -0.975
1.4375 0.375 -0.975
1.5 0.375 -0.975
1.5625 0.375 -0.975
1.625 0.375 -0.975
1.6875 0.375 -0.975
1.75 0.375 -0.975
1.8125 0.375 -0.975
1.875 0.375 -0.975
1.9375 0.375 -0.975
2 0.375 -0.975
2.0625 0.375 -0.975
2.125 0.375 -0.975
2.1875 0.375 -0.975
2.25 0.375 -0.975
2.3125 0.375 -0.975
2.375 0.375 -0.975
2.4375 0.375 -0.975
2.5 0.375 -0.975
2.5625 0.375 -0.975
2.625 0.375 -0.975
2.6875 0.375 -0.975
2.75 0.375 -0.975
2.8125 0.375 -0.975
2.875 0.375 -0.975
2.9375 0.375 -0.975
3 0.375 -0.975
3.0625 0.375 -0.975
3.125 0.375 -0.975
3.1875 0.375 -0.975
3.25 0.375 -0.975
3.3125 0.375 -0.975
3.375 0.375 -0.975
3.4375 0.375 -0.975
3.5 0.375 -0.975
3.5625 0.375 -0.975
3.625 0.375 -0.975
3.6875 0.375 -0.975
3.75 0.375 -0.975
3.8125 0.375 -0.975
3.875 0.375 -0.975
3.9375 0.375 -0.975
4 0.375 -0.975
0 0.4375 -0.975
0.0625 0.4375 -0.975
0.125 0.4375 -0.975
0.1875 0.4375 -0.975
0.25 0.4375 -0.975
0.3125 0.4375 -0.975
0.375 0.4375 -0.975
0.4375 0.4375 -0.975
0.5 0.4375 -0.975
0.5625 0.4375 -0.975
0.625 0.4375 -0.975
0.6875 0.4375 -0.975
0.75 0.4375 -0.975
0.8125 0.4375 -0.975
0.875 0.4375 -0.975
0.9375 0.4375 -0.975
1 0.4375 -0.975
1.0625 0.4375 -0.975
1.125 0.4375 -0.975
1.1875 0.4375 -0.975
1.25 0.4375 -0.975
1.3125 0.4375 -0.975
1.375 0.4375 -0.975
1.4375 0.4375 -0.975
1.5 0.4375 -0.975
1.5625 0.4375 -0.975
1.625 0.4375 -0.975
1.6875 0.4375 -0.975
1.75 0.4375 -0.975
1.8125 0.4375 -0.975
1.875 0.4375 -0.975
1.9375 0.4375 -0.975
2 0.4375 -0.975
2.0625 0.4375 -0.975
2.125 0.4375 -0.975
2.1875 0.4375 -0.975
2.25 0.4375 -0.975
2.3125 0.4375 -0.975
2.375 0.4375 -0.975
2.4375 0.4375 -0.975
2.5 0.4375 -0.975
2.5625 0.4375 -0.975
2.625 0.4375 -0.975
2.6875 0.4375 -0.975
2.75 0.4375 -0.975
2.8125 0.4375 -0.975
2.875 0.4375 -0.975
2.9375 0.4375 -0.975
3 0.4375 -0.975
3.0625 0.4375 -0.975
3.125 0.4375 -0.975
3.1875 0.4375 -0.975
3.25 0.4375 -0.975
3.3125 0.4375 -0.975
3.375 0.4375 -0.975
3.4375 0.4375 -0.975
3.5 0.4375 -0.975
3.5625 0.4375 -0.975
3.625 0.4375 -0.975
3.6875 0.4375 -0.975
3.75 0.4375 -0.975
3.8125 0.4375 -0.975
3.875 0.4375 -0.975
3.9375 0.4375 -0.975
4 0.4375 -0.975
0 0.5 -0.975
0.0625 0.5 -0.975
0.125 0.5 -0.975
0.1875 0.5 -0.975
0.25 0.5 -0.975
0.3125 0.5 -0.975
0.375 0.5 -0.975
0.4375 0.5 -0.975
0.5 0.5 -0.975
0.5625 0.5 -0.975
0.625 0.5 -0.975
0.6875 0.5 -0.975
0.75 0.5 -0.975
0.8125 0.5 -0.975
0.875 0.5 -0.975
0.9375 0.5 -0.975
1 0.5 -0.975
1.0625 0.5 -0.975
1.125 0.5 -0.975
1.1875 0.5 -0.975
1.25 0.5 -0.975
1.3125 0.5 -0.975
1.375 0.5 -0.975
1.4375 0.5 -0.975
1.5 0.5 -0.975
1.5625 0.5 -0.975
1.625 0.5 -0.975
1.6875 0.5 -0.975
1.75 0.5 -0.975
1.8125 0.5 -0.975
1.875 0.5 -0.975
1.9375 0.5 -0.975
2 0.5 -0.975
2.0625 0.5 -0.975
2.125 0.5 -0.975
2.1875 0.5 -0.975
2.25 0.5 -0.975
2.3125 0.5 -0.975
2.375 0.5 -0.975
2.4375 0.5 -0.975
2.5 0.5 -0.975
2.5625 0.5 -0.975
2.625 0.5 -0.975
2.6875 0.5 -0.975
2.75 0.5 -0.975
2.8125 0.5 -0.975
2.875 0.5 -0.975
2.9375 0.5 -0.975
3 0.5 -0.975
3.0625 0.5 -0.975
3.125 0.5 -0.975
3.1875 0.5 -0.975
3.25 0.5 -0.975
3.3125 0.5 -0.975
3.375 0.5 -0.975
3.4375 0.5 -0.975
3.5 0.5 -0.975
3.5625 0.5 -0.975
3.625 0.5 -0.975
3.6875 0.5 -0.975
3.75 0.5 -0.975
3.8125 0.5 -0.975
3.875 0.5 -0.975
3.9375 0.5 -0.975
4 0.5 -0.975
0 0.5625 -0.975
0.0625 0.5625 -0.975
0.125 0.5625 -0.975
0.1875 0.5625 -0.975
0.25 0.5625 -0.975
0.3125 0.5625 -0.975
0.375 0.5625 -0.975
0.4375 0.5625 -0.975
0.5 0.5625 -0.975
0.5625 0.5625 -0.975
0.625 0.5625 -0.975
0.6875 0.5625 -0.975
0.75 0.5625 -0.975
0.8125 0.5625 -0.975
0.875 0.5625 -0.975
0.9375 0.5625 -0.975
1 0.5625 -0.975
1.0625 0.5625 -0.975
1.125 0.5625 -0.975
1.1875 0.5625 -0.975
1.25 0.5625 -0.975
1.3125 0.5625 -0.975
1.375 0.5625 -0.975
1.4375 0.5625 -0.975
1.5 0.5625 -0.975
1.5625 0.5625 -0.975
1.625 0.5625 -0.975
1.6875 0.5625 -0.975
1.75 0.5625 -0.975
1.8125 0.5625 -0.975
1.875 0.5625 -0.975
1.9375 0.5625 -0.975
2 0.5625 -0.975
2.0625 0.5625 -0.975
2.125 0.5625 -0.975
2.1875 0.5625 -0.975
2.25 0.5625 -0.975
2.3125 0.5625 -0.975
2.375 0.5625 -0.975
2.4375 0.5625 -0.975
2.5 0.5625 -0.975
2.5625 0.5625 -0.975
2.625 0.5625 -0.975
2.6875 0.5625 -0.975
2.75 0.5625 -0.975
2.8125 0.5625 -0.975
2.875 0.5625 -0.975
2.9375 0.5625 -0.975
3 0.5625 -0.975
3.0625 0.5625 -0.975
3.125 0.5625 -0.975
3.1875 0.5625 -0.975
3.25 0.5625 -0.975
3.3125 0.5625 -0.975
3.375 0.5625 -0.975
3.4375 0.5625 -0.975
3.5 0.5625 -0.975
3.5625 0.5625 -0.975
3.625 0.5625 -0.975
3.6875 0.5625 -0.975
3.75 0.5625 -0.975
3.8125 0.5625 -0.975
3.875 0.5625 -0.975
3.9375 0.5625 -0.975
4 0.5625 -0.975
0 0.625 -0.975
0.0625 0.625 -0.975
0.125 0.625 -0.975
0.1875 0.625 -0.975
0.25 0.625 -0.975
0.3125 0.625 -0.975
0.375 0.625 -0.975
0.4375 0.625 -0.975
0.5 0.625 -0.975
0.5625 0.625 -0.975
0.625 0.625 -0.975
0.6875 0.625 -0.975
0.75 0.625 -0.975
0.8125 0.625 -0.975
0.875 0.625 -0.975
0.9375 0.625 -0.975
1 0.625 -0.975
1.0625 0.625 -0.975
1.125 0.625 -0.975
1.1875 0.625 -0.975
1.25 0.625 -0.975
1.3125 0.625 -0.975
1.375 0.625 -0.975
1.4375 0.625 -0.975
1.5 0.625 -0.975
1.5625 0.625 -0.975
1.625 0.625 -0.975
1.6875 0.625 -0.975
1.75 0.625 -0.975
1.8125 0.625 -0.975
1.875 0.625 -0.975
1.9375 0.625 -0.975
2 0.625 -0.975
2.0625 0.625 -0.975
2.125 0.625 -0.975
2.1875 0.625 -0.975
2.25 0.625 -0.975
2.3125 0.625 -0.975
2.375 0.625 -0.975
2.4375 0.625 -0.975
2.5 0.625 -0.975
2.5625 0.625 -0.975
2.625 0.625 -0.975
2.6875 0.625 -0.975
2.75 0.625 -0.975
2.8125 0.625 -0.975
2.875 0.625 -0.975
2.9375 0.625 -0.975
3 0.625 -0.975
3.0625 0.625 -0.975
3.125 0.625 -0.975
3.1875 0.625 -0.975
3.25 0.625 -0.975
3.3125 0.625 -0.975
3.375 0.625 -0.975
3.4375 0.625 -0.975
3.5 0.625 -0.975
3.5625 0.625 -0.975
3.625 0.625 -0.975
3.6875 0.625 -0.975
3.75 0.625 -0.975
3.8125 0.625 -0.975
3.875 0.625 -0.975
3.9375 0.625 -0.975
4 0.625 -0.975
0 0.6875 -0.975
0.0625 0.6875 -0.975
0.125 0.6875 -0.975
0.1875 0.6875 -0.975
0.25 0.6875 -0.975
0.3125 0.6875 -0.975
0.375 0.6875 -0.975
0.4375 0.6875 -0.975
0.5 0.6875 -0.975
0.5625 0.6875 -0.975
0.625 0.6875 -0.975
0.6875 0.6875 -0.975
0.75 0.6875 -0.975
0.8125 0.6875 -0.975
0.875 0.6875 -0.975
0.9375 0.6875 -0.975
1 0.6875 -0.975
1.0625 0.6875 -0.975
1.125 0.6875 -0.975
1.1875 0.6875 -0.975
1.25 0.6875 -0.975
1.3125 0.6875 -0.975
1.375 0.6875 -0.975
1.4375 0.6875 -0.975
1.5 0.6875 -0.975
1.5625 0.6875 -0.975
1.625 0.6875 -0.975
1.6875 0.6875 -0.975
1.75 0.6875 -0.975
1.8125 0.6875 -0.975
1.875 0.6875 -0.975
1.9375 0.6875 -0.975
2 0.6875 -0.975
2.0625 0.6875 -0.975
2.125 0.6875 -0.975
2.1875 0.6875 -0.975
2.25 0.6875 -0.975
2.3125 0.6875 -0.975
2.375 0.6875 -0.975
2.4375 0.6875 -0.975
2.5 0.6875 -0.975
2.5625 0.6875 -0.975
2.625 0.6875 -0.975
2.6875 0.6875 -0.975
2.75 0.6875 -0.975
2.8125 0.6875 -0.975
2.875 0.6875 -0.975
2.9375 0.6875 -0.975
3 0.6875 -0.975
3.0625 0.6875 -0.975
3.125 0.6875 -0.975
3.1875 0.6875 -0.975
3.25 0.6875 -0.975
3.3125 0.6875 -0.975
3.375 0.6875 -0.975
3.4375 0.6875 -0.975
3.5 0.6875 -0.975
3.5625 0.6875 -0.975
3.625 0.6875 -0.975
3.6875 0.6875 -0.975
3.75 0.6875 -0.975
3.8125 0.6875 -0.975
3.875 0.6875 -0.975
3.9375 0.6875 -0.975
4 0.6875 -0.975
0 0.75 -0.975
0.0625 0.75 -0.975
0.125 0.75 -0.975
0.1875 0.75 -0.975
0.25 0.75 -0.975
0.3125 0.75 -0.975
0.375 0.75 -0.975
0.4375 0.75 -0.975
0.5 0.75 -0.975
0.5625 0.75 -0.975
0.625 0.75 -0.975
0.6875 0.75 -0.975
0.75 0.75 -0.975
0.8125 0.75 -0.975
0.875 0.75 -0.975
0.9375 0.75 -0.975
1 0.75 -0.975
1.0625 0.75 -0.975
1.125 0.75 -0.975
1.1875 0.75 -0.975
1.25 0.75 -0.975
1.3125 0.75 -0.975
1.375 0.75 -0.975
1.4375 0.75 -0.975
1.5 0.75 -0.975
1.5625 0.75 -0.975
1.625 0.75 -0.975
1.6875 0.75 -0.975
1.75 0.75 -0.975
1.8125 0.75 -0.975
1.875 0.75 -0.975
1.9375 0.75 -0.975
2 0.75 -0.975
2.0625 0.75 -0.975
2.125 0.75 -0.975
2.1875 0.75 -0.975
2.25 0.75 -0.975
2.3125 0.75 -0.975
2.375 0.75 -0.975
2.4375 0.75 -0.975
2.5 0.75 -0.975
2.5625 0.75 -0.975
2.625 0.75 -0.975
2.6875 0.75 -0.975
2.75 0.75 -0.975
2.8125 0.75 -0.975
2.875 0.75 -0.975
2.9375 0.75 -0.975
3 0.75 -0.975
3.0625 0.75 -0.975
3.125 0.75 -0.975
3.1875 0.75 -0.975
3.25 0.75 -0.975
3.3125 0.75 -0.975
3.375 0.75 -0.975
3.4375 0.75 -0.975
3.5 0.75 -0.975
3.5625 0.75 -0.975
3.625 0.75 -0.975
3.6875 0.75 -0.975
3.75 0.75 -0.975
3.8125 0.75 -0.975
3.875 0.75 -0.975
3.9375 0.75 -0.975
4 0.75 -0.975
0 0.8125 -0.975
0.0625 0.8125 -0.975
0.125 0.8125 -0.975
0.1875 0.8125 -0.975
0.25 0.8125 -0.975
0.3125 0.8125 -0.975
0.375 0.8125 -0.975
0.4375 0.8125 -0.975
0.5 0.8125 -0.975
0.5625 0.8125 -0.975
0.625 0.8125 -0.975
0.6875 0.8125 -0.975
0.75 0.8125 -0.975
0.8125 0.8125 -0.975
0.875 0.8125 -0.975
0.9375 0.8125 -0.975
1 0.8125 -0.975
1.0625 0.8125 -0.975
1.125 0.8125 -0.975
1.1875 0.8125 -0.975
1.25 0.8125 -0.975
1.3125 0.8125 -0.975
1.375 0.8125 -0.975
1.4375 0.8125 -0.975
1.5 0.8125 -0.975
1.5625 0.8125 -0.975
1.625 0.8125 -0.975
1.6875 0.8125 -0.975
1.75 0.8125 -0.975
1.8125 0.8125 -0.975
1.875 0.8125 -0.975
1.9375 0.8125 -0.975
2 0.8125 -0.975
2.0625 0.8125 -0.975
2.125 0.8125 -0.975
2.1875 0.8125 -0.975
2.25 0.8125 -0.975
2.3125 0.8125 -0.975
2.375 0.8125 -0.975
2.4375 0.8125 -0.975
2.5 0.8125 -0.975
2.5625 0.8125 -0.975
2.625 0.8125 -0.975
2.6875 0.8125 -0.975
2.75 0.8125 -0.975
2.8125 0.8125 -0.975
2.875 0.8125 -0.975
2.9375 0.8125 -0.975
3 0.8125 -0.975
3.0625 0.8125 -0.975
3.125 0.8125 -0.975
3.1875 0.8125 -0.975
3.25 0.8125 -0.975
3.3125 0.8125 -0.975
3.375 0.8125 -0.975
3.4375 0.8125 -0.975
3.5 0.8125 -0.975
3.5625 0.8125 -0.975
3.625 0.8125 -0.975
3.6875 0.8125 -0.975
3.75 0.8125 -0.975
3.8125 0.8125 -0.975
3.875 0.8125 -0.975
3.9375 0.8125 -0.975
4 0.8125 -0.975
0 0.875 -0.975
0.0625 0.875 -0.975
0.125 0.875 -0.975
0.1875 0.875 -0.975
0.25 0.875 -0.975
0.3125 0.875 -0.975
0.375 0.875 -0.975
0.4375 0.875 -0.975
0.5 0.875 -0.975
0.5625 0.875 -0.975
0.625 0.875 -0.975
0.6875 0.875 -0.975
0.75 0.875 -0.975
0.8125 0.875 -0.975
0.875 0.875 -0.975
0.9375 0.875 -0.975
1 0.875 -0.975
1.0625 0.875 -0.975
1.125 0.875 -0.975
1.1875 0.875 -0.975
1.25 0.875 -0.975
1.3125 0.875 -0.975
1.375 0.875 -0.975
1.4375 0.875 -0.975
1.5 0.875 -0.975
1.5625 0.875 -0.975
1.625 0.875 -0.975
1.6875 0.875 -0.975
1.75 0.875 -0.975
1.8125 0.875 -0.975
1.875 0.875 -0.975
1.9375 0.875 -0.975
2 0.875 -0.975
2.0625 0.875 -0.975
2.125 0.875 -0.975
2.1875 0.875 -0.975
2.25 0.875 -0.975
2.3125 0.875 -0.975
2.375 0.875 -0.975
2.4375 0.875 -0.975
2.5 0.875 -0.975
2.5625 0.875 -0.975
2.625 0.875 -0.975
2.6875 0.875 -0.975
2.75 0.875 -0.975
2.8125 0.875 -0.975
2.875 0.875 -0.975
2.9375 0.875 -0.975
3 0.875 -0.975
3.0625 0.875 -0.975
3.125 0.875 -0.975
3.1875 0.875 -0.975
3.25 0.875 -0.975
3.3125 0.875 -0.975
3.375 0.875 -0.975
3.4375 0.875 -0.975
3.5 0.875 -0.975
3.5625 0.875 -0.975
3.625 0.875 -0.975
3.6875 0.875 -0.975
3.75 0.875 -0.975
3.8125 0.875 -0.975
3.875 0.875 -0.975
3.9375 0.875 -0.975
4 0.875 -0.975
0 0.9375 -0.975
0.0625 0.9375 -0.975
0.125 0.9375 -0.975
0.1875 0.9375 -0.975
0.25 0.9375 -0.975
0.3125 0.9375 -0.975
0.375 0.9375 -0.975
0.4375 0.9375 -0.975
0.5 0.9375 -0.975
0.5625 0.9375 -0.975
0.625 0.9375 -0.975
0.6875 0.9375 -0.975
0.75 0.9375 -0.975
0.8125 0.9375 -0.975
0.875 0.9375 -0.975
0.9375 0.9375 -0.975
1 0.9375 -0.975
1.0625 0.9375 -0.975
1.125 0.9375 -0.975
1.1875 0.9375 -0.975
1.25 0.9375 -0.975
1.3125 0.9375 -0.975
1.375 0.9375 -0.975
1.4375 0.9375 -0.975
1.5 0.9375 -0.975
1.5625 0.9375 -0.975
1.625 0.9375 -0.975
1.6875 0.9375 -0.975
1.75 0.9375 -0.975
1.8125 0.9375 -0.975
1.875 0.9375 -0.975
1.9375 0.9375 -0.975
2 0.9375 -0.975
2.0625 0.9375 -0.975
2.125 0.9375 -0.975
2.1875 0.9375 -0.975
2.25 0.9375 -0.975
2.3125 0.9375 -0.975
2.375 0.9375 -0.975
2.4375 0.9375 -0.975
2.5 0.9375 -0.975
2.5625 0.9375 -0.975
2.625 0.9375 -0.975
2.6875 0.9375 -0.975
2.75 0.9375 -0.975
2.8125 0.9375 -0.975
2.875 0.9375 -0.975
2.9375 0.9375 -0.975
3 0.9375 -0.975
3.0625 0.9375 -0.975
3.125 0.9375 -0.975
3.1875 0.9375 -0.975
3.25 0.9375 -0.975
3.3125 0.9375 -0.975
3.375 0.9375 -0.975
3.4375 0.9375 -0.975
3.5 0.9375 -0.975
3.5625 0.9375 -0.975
3.625 0.9375 -0.975
3.6875 0.9375 -0.975
3.75 0.9375 -0.975
3.8125 0.9375 -0.975
3.875 0.9375 -0.975
3.9375 0.9375 -0.975
4 0.9375 -0.975
0 1 -0.975
0.0625 1 -0.975
0.125 1 -0.975
0.1875 1 -0.975
0.25 1 -0.975
0.3125 1 -0.975
0.375 1 -0.975
0.4375 1 -0.975
0.5 1 -0.975
0.5625 1 -0.975
0.625 1 -0.975
0.6875 1 -0.975
0.75 1 -0.975
0.8125 1 -0.975
0.875 1 -0.975
0.9375 1 -0.975
1 1 -0.975
1.0625 1 -0.975
1.125 1 -0.975
1.1875 1 -0.975
1.25 1 -0.975
1.3125 1 -0.975
1.375 1 -0.975
1.4375 1 -0.975
1.5 1 -0.975
1.5625 1 -0.975
1.625 1 -0.975
1.6875 1 -0.975
1.75 1 -0.975
1.8125 1 -0.975
1.875 1 -0.975
1.9375 1 -0.975
2 1 -0.975
2.0625 1 -0.975
2.125 1 -0.975
2.1875 1 -0.975
2.25 1 -0.975
2.3125 1 -0.975
2.375 1 -0.975
2.4375 1 -0.975
2.5 1 -0.975
2.5625 1 -0.975
2.625 1 -0.975
2.6875 1 -0.975
2.75 1 -0.975
2.8125 1 -0.975
2.875 1 -0.975
2.9375 1 -0.975
3 1 -0.975
3.0625 1 -0.975
3.125 1 -0.975
3.1875 1 -0.975
3.25 1 -0.975
3.3125 1 -0.975
3.375 1 -0.975
3.4375 1 -0.975
3.5 1 -0.975
3.5625 1 -0.975
3.625 1 -0.975
3.6875 1 -0.975
3.75 1 -0.975
3.8125 1 -0.975
3.875 1 -0.975
3.9375 1 -0.975
4 1 -0.975
0 0 -0.9125
0.0625 0 -0.9125
0.125 0 -0.9125
0.1875 0 -0.9125
0.25 0 -0.9125
0.3125 0 -0.9125
0.375 0 -0.9125
0.4375 0 -0.9125
0.5 0 -0.9125
0.5625 0 -0.9125
0.625 0 -0.9125
0.6875 0 -0.9125
0.75 0 -0.9125
0.8125 0 -0.9125
0.875 0 -0.9125
0.9375 0 -0.9125
1 0 -0.9125
1.0625 0 -0.9125
1.125 0 -0.9125
1.1875 0 -0.9125
1.25 0 -0.9125
1.3125 0 -0.9125
1.375 0 -0.9125
1.4375 0 -0.9125
1.5 0 -0.9125
1.5625 0 -0.9125
1.625 0 -0.9125
1.6875 0 -0.9125
1.75 0 -0.9125
1.8125 0 -0.9125
1.875 0 -0.9125
1.9375 0 -0.9125
2 0 -0.9125
2.0625 0 -0.9125
2.125 0 -0.9125
2.1875 0 -0.9125
2.25 0 -0.9125
2.3125 0 -0.9125
2.375 0 -0.9125
2.4375 0 -0.9125
2.5 0 -0.9125
2.5625 0 -0.9125
2.625 0 -0.9125
2.6875 0 -0.9125
2.75 0 -0.9125
2.8125 0 -0.9125
2.875 0 -0.9125
2.9375 0 -0.9125
3 0 -0.9125
3.0625 0 -0.9125
3.125 0 -0.9125
3.1875 0 -0.9125
3.25 0 -0.9125
3.3125 0 -0.9125
3.375 0 -0.9125
3.4375 0 -0.9125
3.5 0 -0.9125
3.5625 0 -0.9125
3.625 0 -0.9125
3.6875 0 -0.9125
3.75 0 -0.9125
3.8125 0 -0.9125
3.875 0 -0.9125
3.9375 0 -0.9125
4 0 -0.9125
0 0.0625 -0.9125
0.0625 0.0625 -0.9125
0.125 0.0625 -0.9125
0.1875 0.0625 -0.9125
0.25 0.0625 -0.9125
0.3125 0.0625 -0.9125
0.375 0.0625 -0.9125
0.4375 0.0625 -0.9125
0.5 0.0625 -0.9125
0.5625 0.0625 -0.9125
0.625 0.0625 -0.9125
0.6875 0.0625 -0.9125
0.75 0.0625 -0.9125
0.8125 0.0625 -0.9125
0.875 0.0625 -0.9125
0.9375 0.0625 -0.9125
1 0.0625 -0.9125
1.0625 0.0625 -0.9125
1.125 0.0625 -0.9125
1.1875 0.0625 -0.9125
1.25 0.0625 -0.9125
1.3125 0.0625 -0.9125
1.375 0.0625 -0.9125
1.4375 0.0625 -0.9125
1.5 0.0625 -0.9125
1.5625 0.0625 -0.9125
1.625 0.0625 -0.9125
1.6875 0.0625 -0.9125
1.75 0.0625 -0.9125
1.8125 0.0625 -0.9125
1.875 0.0625 -0.9125
1.9375 0.0625 -0.9125
2 0.0625 -0.9125
2.0625 0.0625 -0.9125
2.125 0.0625 -0.9125
2.1875 0.0625 -0.9125
2.25 0.0625 -0.9125
2.3125 0.0625 -0.9125
2.375 0.0625 -0.9125
2.4375 0.0625 -0.9125
2.5 0.0625 -0.9125
2.5625 0.0625 -0.9125
2.625 0.0625 -0.9125
2.6875 0.0625 -0.9125
2.75 0.0625 -0.9125
2.8125 0.0625 -0.9125
2.875 0.0625 -0.9125
2.9375 0.0625 -0.9125
3 0.0625 -0.9125
3.0625 0.0625 -0.9125
3.125 0.0625 -0.9125
3.1875 0.0625 -0.9125
3.25 0.0625 -0.9125
3.3125 0.0625 -0.9125
3.375 0.0625 -0.9125
3.4375 0.0625 -0.9125
3.5 0.0625 -0.9125
3.5625 0.0625 -0.9125
3.625 0.0625 -0.9125
3.6875 0.0625 -0.9125
3.75 0.0625 -0.9125
3.8125 0.0625 -0.9125
3.875 0.0625 -0.9125
3.9375 0.0625 -0.9125
4 0.0625 -0.9125
0 0.125 -0.9125
0.0625 0.125 -0.9125
0.125 0.125 -0.9125
0.1875 0.125 -0.9125
0.25 0.125 -0.9125
0.3125 0.125 -0.9125
0.375 0.125 -0.9125
0.4375 0.125 -0.9125
0.5 0.125 -0.9125
0.5625 0.125 -0.9125
0.625 0.125 -0.9125
0.6875 0.125 -0.9125
0.75 0.125 -0.9125
0.8125 0.125 -0.9125
0.875 0.125 -0.9125
0.9375 0.125 -0.9125
1 0.125 -0.9125
1.0625 0.125 -0.9125
1.125 0.125 -0.9125
1.1875 0.125 -0.9125
1.25 0.125 -0.9125
1.3125 0.125 -0.9125
1.375 0.125 -0.9125
1.4375 0.125 -0.9125
1.5 0.125 -0.9125
1.5625 0.125 -0.9125
1.625 0.125 -0.9125
1.6875 0.125 -0.9125
1.75 0.125 -0.9125
1.8125 0.125 -0.9125
1.875 0.125 -0.9125
1.9375 0.125 -0.9125
2 0.125 -0.9125
2.0625 0.125 -0.9125
2.125 0.125 -0.9125
2.1875 0.125 -0.9125
2.25 0.125 -0.9125
2.3125 0.125 -0.9125
2.375 0.125 -0.9125
2.4375 0.125 -0.9125
2.5 0.125 -0.9125
2.5625 0.125 -0.9125
2.625 0.125 -0.9125
2.6875 0.125 -0.9125
2.75 0.125 -0.9125
2.8125 0.125 -0.9125
2.875 0.125 -0.9125
2.9375 0.125 -0.9125
3 0.125 -0.9125
3.0625 0.125 -0.9125
3.125 0.125 -0.9125
3.1875 0.125 -0.9125
3.25 0.125 -0.9125
3.3125 0.125 -0.9125
3.375 0.125 -0.9125
3.4375 0.125 -0.9125
3.5 0.125 -0.9125
3.5625 0.125 -0.9125
3.625 0.125 -0.9125
3.6875 0.125 -0.9125
3.75 0.125 -0.9125
3.8125 0.125 -0.9125
3.875 0.125 -0.9125
3.9375 0.125 -0.9125
4 0.125 -0.9125
0 0.1875 -0.9125
0.0625 0.1875 -0.9125
0.125 0.1875 -0.9125
0.1875 0.1875 -0.9125
0.25 0.1875 -0.9125
0.3125 0.1875 -0.9125
0.375 0.1875 -0.9125
0.4375 0.1875 -0.9125
0.5 0.1875 -0.9125
0.5625 0.1875 -0.9125
0.625 0.1875 -0.9125
0.6875 0.1875 -0.9125
0.75 0.1875 -0.9125
0.8125 0.1875 -0.9125
0.875 0.1875 -0.9125
0.9375 0.1875 -0.9125
1 0.1875 -0.9125
1.0625 0.1875 -0.9125
1.125 0.1875 -0.9125
1.1875 0.1875 -0.9125
1.25 0.1875 -0.9125
1.3125 0.1875 -0.9125
1.375 0.1875 -0.9125
1.4375 0.1875 -0.9125
1.5 0.1875 -0.9125
1.5625 0.1875 -0.9125
1.625 0.1875 -0.9125
1.6875 0.1875 -0.9125
1.75 0.1875 -0.9125
1.8125 0.1875 -0.9125
1.875 0.1875 -0.9125
1.9375 0.1875 -0.9125
2 0.1875 -0.9125
2.0625 0.1875 -0.9125
2.125 0.1875 -0.9125
2.1875 0.1875 -0.9125
2.25 0.1875 -0.9125
2.3125 0.1875 -0.9125
2.375 0.1875 -0.9125
2.4375 0.1875 -0.9125
2.5 0.1875 -0.9125
2.5625 0.1875 -0.9125
2.625 0.1875 -0.9125
2.6875 0.1875 -0.9125
2.75 0.1875 -0.9125
2.8125 0.1875 -0.9125
2.875 0.1875 -0.9125
2.9375 0.1875 -0.9125
3 0.1875 -0.9125
3.0625 0.1875 -0.9125
3.125 0.1875 -0.9125
3.1875 0.1875 -0.9125
3.25 0.1875 -0.9125
3.3125 0.1875 -0.9125
3.375 0.1875 -0.9125
3.4375 0.1875 -0.9125
3.5 0.1875 -0.9125
3.5625 0.1875 -0.9125
3.625 0.1875 -0.9125
3.6875 0.1875 -0.9125
3.75 0.1875 -0.9125
3.8125 0.1875 -0.9125
3.875 0.1875 -0.9125
3.9375 0.1875 -0.9125
4 0.1875 -0.9125
0 0.25 -0.9125
0.0625 0.25 -0.9125
0.125 0.25 -0.9125
0.1875 0.25 -0.9125
0.25 0.25 -0.9125
0.3125 0.25 -0.9125
0.375 0.25 -0.9125
0.4375 0.25 -0.9125
0.5 0.25 -0.9125
0.5625 0.25 -0.9125
0.625 0.25 -0.9125
0.6875 0.25 -0.9125
0.75 0.25 -0.9125
0.8125 0.25 -0.9125
0.875 0.25 -0.9125
0.9375 0.25 -0.9125
1 0.25 -0.9125
1.0625 0.25 -0.9125
1.125 0.25 -0.9125
1.1875 0.25 -0.9125
1.25 0.25 -0.9125
1.3125 0.25 -0.9125
1.375 0.25 -0.9125
1.4375 0.25 -0.9125
1.5 0.25 -0.9125
1.5625 0.25 -0.9125
1.625 0.25 -0.9125
1.6875 0.25 -0.9125
1.75 0.25 -0.9125
1.8125 0.25 -0.9125
1.875 0.25 -0.9125
1.9375 0.25 -0.9125
2 0.25 -0.9125
2.0625 0.25 -0.9125
2.125 0.25 -0.9125
2.1875 0.25 -0.9125
2.25 0.25 -0.9125
2.3125 0.25 -0.9125
2.375 0.25 -0.9125
2.4375 0.25 -0.9125
2.5 0.25 -0.9125
2.5625 0.25 -0.9125
2.625 0.25 -0.9125
2.6875 0.25 -0.9125
2.75 0.25 -0.9125
2.8125 0.25 -0.9125
2.875 0.25 -0.9125
2.9375 0.25 -0.9125
3 0.25 -0.9125
3.0625 0.25 -0.9125
3.125 0.25 -0.9125
3.1875 0.25 -0.9125
3.25 0.25 -0.9125
3.3125 0.25 -0.9125
3.375 0.25 -0.9125
3.4375 0.25 -0.9125
3.5 0.25 -0.9125
3.5625 0.25 -0.9125
3.625 0.25 -0.9125
3.6875 0.25 -0.9125
3.75 0.25 -0.9125
3.8125 0.25 -0.9125
3.875 0.25 -0.9125
3.9375 0.25 -0.9125
4 0.25 -0.9125
0 0.3125 -0.9125
0.0625 0.3125 -0.9125
0.125 0.3125 -0.9125
0.1875 0.3125 -0.9125
0.25 0.3125 -0.9125
0.3125 0.3125 -0.9125
0.375 0.3125 -0.9125
0.4375 0.3125 -0.9125
0.5 0.3125 -0.9125
0.5625 0.3125 -0.9125
0.625 0.3125 -0.9125
0.6875 0.3125 -0.9125
0.75 0.3125 -0.9125
0.8125 0.3125 -0.9125
0.875 0.3125 -0.9125
0.9375 0.3125 -0.9125
1 0.3125 -0.9125
1.0625 0.3125 -0.9125
1.125 0.3125 -0.9125
1.1875 0.3125 -0.9125
1.25 0.3125 -0.9125
1.3125 0.3125 -0.9125
1.375 0.3125 -0.9125
1.4375 0.3125 -0.9125
1.5 0.3125 -0.9125
1.5625 0.3125 -0.9125
1.625 0.3125 -0.9125
1.6875 0.3125 -0.9125
1.75 0.3125 -0.9125
1.8125 0.3125 -0.9125
1.875 0.3125 -0.9125
1.9375 0.3125 -0.9125
2 0.3125 -0.9125
2.0625 0.3125 -0.9125
2.125 0.3125 -0.9125
2.1875 0.3125 -0.9125
2.25 0.3125 -0.9125
2.3125 0.3125 -0.9125
2.375 0.3125 -0.9125
2.4375 0.3125 -0.9125
2.5 0.3125 -0.9125
2.5625 0.3125 -0.9125
2.625 0.3125 -0.9125
2.6875 0.3125 -0.9125
2.75 0.3125 -0.9125
2.8125 0.3125 -0.9125
2.875 0.3125 -0.9125
2.9375 0.3125 -0.9125
3 0.3125 -0.9125
3.0625 0.3125 -0.9125
3.125 0.3125 -0.9125
3.1875 0.3125 -0.9125
3.25 0.3125 -0.9125
3.3125 0.3125 -0.9125
3.375 0.3125 -0.9125
3.4375 0.3125 -0.9125
3.5 0.3125 -0.9125
3.5625 0.3125 -0.9125
3.625 0.3125 -0.9125
3.6875 0.3125 -0.9125
3.75 0.3125 -0.9125
3.8125 0.3125 -0.9125
3.875 0.3125 -0.9125
3.9375 0.3125 -0.9125
4 0.3125 -0.9125
0 0.375 -0.9125
0.0625 0.375 -0.9125
0.125 0.375 -0.9125
0.1875 0.375 -0.9125
0.25 0.375 -0.9125
0.3125 0.375 -0.9125
0.375 0.375 -0.9125
0.4375 0.375 -0.9125
0.5 0.375 -0.9125
0.5625 0.375 -0.9125
0.625 0.375 -0.9125
0.6875 0.375 -0.9125
0.75 0.375 -0.9125
0.8125 0.375 -0.9125
0.875 0.375 -0.9125
0.9375 0.375 -0.9125
1 0.375 -0.9125
1.0625 0.375 -0.9125
1.125 0.375 -0.9125
1.1875 0.375 -0.9125
1.25 0.375 -0.9125
1.3125 0.375 -0.9125
1.375 0.375 -0.9125
1.4375 0.375 -0.9125
1.5 0.375 -0.9125
1.5625 0.375 -0.9125
1.625 0.375 -0.9125
1.6875 0.375 -0.9125
1.75 0.375 -0.9125
1.8125 0.375 -0.9125
1.875 0.375 -0.9125
1.9375 0.375 -0.9125
2 0.375 -0.9125
2.0625 0.375 -0.9125
2.125 0.375 -0.9125
2.1875 0.375 -0.9125
2.25 0.375 -0.9125
2.3125 0.375 -0.9125
2.375 0.375 -0.9125
2.4375 0.375 -0.9125
2.5 0.375 -0.9125
2.5625 0.375 -0.9125
2.625 0.375 -0.9125
2.6875 0.375 -0.9125
2.75 0.375 -0.9125
2.8125 0.375 -0.9125
2.875 0.375 -0.9125
2.9375 0.375 -0.9125
3 0.375 -0.9125
3.0625 0.375 -0.9125
3.125 0.375 -0.9125
3.1875 0.375 -0.9125
3.25 0.375 -0.9125
3.3125 0.375 -0.9125
3.375 0.375 -0.9125
3.4375 0.375 -0.9125
3.5 0.375 -0.9125
3.5625 0.375 -0.9125
3.625 0.375 -0.9125
3.6875 0.375 -0.9125
3.75 0.375 -0.9125
3.8125 0.375 -0.9125
3.875 0.375 -0.9125
3.9375 0.375 -0.9125
4 0.375 -0.9125
0 0.4375 -0.9125
0.0625 0.4375 -0.9125
0.125 0.4375 -0.9125
0.1875 0.4375 -0.9125
0.25 0.4375 -0.9125
0.3125 0.4375 -0.9125
0.375 0.4375 -0.9125
0.4375 0.4375 -0.9125
0.5 0.4375 -0.9125
0.5625 0.4375 -0.9125
0.625 0.4375 -0.9125
0.6875 0.4375 -0.9125
0.75 0.4375 -0.9125
0.8125 0.4375 -0.9125
0.875 0.4375 -0.9125
0.9375 0.4375 -0.9125
1 0.4375 -0.9125
1.0625 0.4375 -0.9125
1.125 0.4375 -0.9125
1.1875 0.4375 -0.9125
1.25 0.4375 -0.9125
1.3125 0.4375 -0.9125
1.375 0.4375 -0.9125
1.4375 0.4375 -0.9125
1.5 0.4375 -0.9125
1.5625 0.4375 -0.9125
1.625 0.4375 -0.9125
1.6875 0.4375 -0.9125
1.75 0.4375 -0.9125
1.8125 0.4375 -0.9125
1.875 0.4375 -0.9125
1.9375 0.4375 -0.9125
2 0.4375 -0.9125
2.0625 0.4375 -0.9125
2.125 0.4375 -0.9125
2.1875 0.4375 -0.9125
2.25 0.4375 -0.9125
2.3125 0.4375 -0.9125
2.375 0.4375 -0.9125
2.4375 0.4375 -0.9125
2.5 0.4375 -0.9125
2.5625 0.4375 -0.9125
2.625 0.4375 -0.9125
2.6875 0.4375 -0.9125
2.75 0.4375 -0.9125
2.8125 0.4375 -0.9125
2.875 0.4375 -0.9125
2.9375 0.4375 -0.9125
3 0.4375 -0.9125
3.0625 0.4375 -0.9125
3.125 0.4375 -0.9125
3.1875 0.4375 -0.9125
3.25 0.4375 -0.9125
3.3125 0.4375 -0.9125
3.375 0.4375 -0.9125
3.4375 0.4375 -0.9125
3.5 0.4375 -0.9125
3.5625 0.4375 -0.9125
3.625 0.4375 -0.9125
3.6875 0.4375 -0.9125
3.75 0.4375 -0.9125
3.8125 0.4375 -0.9125
3.875 0.4375 -0.9125
3.9375 0.4375 -0.9125
4 0.4375 -0.9125
0 0.5 -0.9125
0.0625 0.5 -0.9125
0.125 0.5 -0.9125
0.1875 0.5 -0.9125
0.25 0.5 -0.9125
0.3125 0.5 -0.9125
0.375 0.5 -0.9125
0.4375 0.5 -0.9125
0.5 0.5 -0.9125
0.5625 0.5 -0.9125
0.625 0.5 -0.9125
0.6875 0.5 -0.9125
0.75 0.5 -0.9125
0.8125 0.5 -0.9125
0.875 0.5 -0.9125
0.9375 0.5 -0.9125
1 0.5 -0.9125
1.0625 0.5 -0.9125
1.125 0.5 -0.9125
1.1875 0.5 -0.9125
1.25 0.5 -0.9125
1.3125 0.5 -0.9125
1.375 0.5 -0.9125
1.4375 0.5 -0.9125
1.5 0.5 -0.9125
1.5625 0.5 -0.9125
1.625 0.5 -0.9125
1.6875 0.5 -0.9125
1.75 0.5 -0.9125
1.8125 0.5 -0.9125
1.875 0.5 -0.9125
1.9375 0.5 -0.9125
2 0.5 -0.9125
2.0625 0.5 -0.9125
2.125 0.5 -0.9125
2.1875 0.5 -0.9125
2.25 0.5 -0.9125
2.3125 0.5 -0.9125
2.375 0.5 -0.9125
2.4375 0.5 -0.9125
2.5 0.5 -0.9125
2.5625 0.5 -0.9125
2.625 0.5 -0.9125
2.6875 0.5 -0.9125
2.75 0.5 -0.9125
2.8125 0.5 -0.9125
2.875 0.5 -0.9125
2.9375 0.5 -0.9125
3 0.5 -0.9125
3.0625 0.5 -0.9125
3.125 0.5 -0.9125
3.1875 0.5 -0.9125
3.25 0.5 -0.9125
3.3125 0.5 -0.9125
3.375 0.5 -0.9125
3.4375 0.5 -0.9125
3.5 0.5 -0.9125
3.5625 0.5 -0.9125
3.625 0.5 -0.9125
3.6875 0.5 -0.9125
3.75 0.5 -0.9125
3.8125 0.5 -0.9125
3.875 0.5 -0.9125
3.9375 0.5 -0.9125
4 0.5 -0.9125
0 0.5625 -0.9125
0.0625 0.5625 -0.9125
0.125 0.5625 -0.9125
0.1875 0.5625 -0.9125
0.25 0.5625 -0.9125
0.3125 0.5625 -0.9125
0.375 0.5625 -0.9125
0.4375 0.5625 -0.9125
0.5 0.5625 -0.9125
0.5625 0.5625 -0.9125
0.625 0.5625 -0.9125
0.6875 0.5625 -0.9125
0.75 0.5625 -0.9125
0.8125 0.5625 -0.9125
0.875 0.5625 -0.9125
0.9375 0.5625 -0.9125
1 0.5625 -0.9125
1.0625 0.5625 -0.9125
1.125 0.5625 -0.9125
1.1875 0.5625 -0.9125
1.25 0.5625 -0.9125
1.3125 0.5625 -0.9125
1.375 0.5625 -0.9125
1.4375 0.5625 -0.9125
1.5 0.5625 -0.9125
1.5625 0.5625 -0.9125
1.625 0.5625 -0.9125
1.6875 0.5625 -0.9125
1.75 0.5625 -0.9125
1.8125 0.5625 -0.9125
1.875 0.5625 -0.9125
1.9375 0.5625 -0.9125
2 0.5625 -0.9125
2.0625 0.5625 -0.9125
2.125 0.5625 -0.9125
2.1875 0.5625 -0.9125
2.25 0.5625 -0.9125
2.3125 0.5625 -0.9125
2.375 0.5625 -0.9125
2.4375 0.5625 -0.9125
2.5 0.5625 -0.9125
2.5625 0.5625 -0.9125
2.625 0.5625 -0.9125
2.6875 0.5625 -0.9125
2.75 0.5625 -0.9125
2.8125 0.5625 -0.9125
2.875 0.5625 -0.9125
2.9375 0.5625 -0.9125
3 0.5625 -0.9125
3.0625 0.5625 -0.9125
3.125 0.5625 -0.9125
3.1875 0.5625 -0.9125
3.25 0.5625 -0.9125
3.3125 0.5625 -0.9125
3.375 0.5625 -0.9125
3.4375 0.5625 -0.9125
3.5 0.5625 -0.9125
3.5625 0.5625 -0.9125
3.625 0.5625 -0.9125
3.6875 0.5625 -0.9125
3.75 0.5625 -0.9125
3.8125 0.5625 -0.9125
3.875 0.5625 -0.9125
3.9375 0.5625 -0.9125
4 0.5625 -0.9125
0 0.625 -0.9125
0.0625 0.625 -0.9125
0.125 0.625 -0.9125
0.1875 0.625 -0.9125
0.25 0.625 -0.9125
0.3125 0.625 -0.9125
0.375 0.625 -0.9125
0.4375 0.625 -0.9125
0.5 0.625 -0.9125
0.5625 0.625 -0.9125
0.625 0.625 -0.9125
0.6875 0.625 -0.9125
0.75 0.625 -0.9125
0.8125 0.625 -0.9125
0.875 0.625 -0.9125
0.9375 0.625 -0.9125
1 0.625 -0.9125
1.0625 0.625 -0.9125
1.125 0.625 -0.9125
1.1875 0.625 -0.9125
1.25 0.625 -0.9125
1.3125 0.625 -0.9125
1.375 0.625 -0.9125
1.4375 0.625 -0.9125
1.5 0.625 -0.9125
1.5625 0.625 -0.9125
1.625 0.625 -0.9125
1.6875 0.625 -0.9125
1.75 0.625 -0.9125
1.8125 0.625 -0.9125
1.875 0.625 -0.9125
1.9375 0.625 -0.9125
2 0.625 -0.9125
2.0625 0.625 -0.9125
2.125 0.625 -0.9125
2.1875 0.625 -0.9125
2.25 0.625 -0.9125
2.3125 0.625 -0.9125
2.375 0.625 -0.9125
2.4375 0.625 -0.9125
2.5 0.625 -0.9125
2.5625 0.625 -0.9125
2.625 0.625 -0.9125
2.6875 0.625 -0.9125
2.75 0.625 -0.9125
2.8125 0.625 -0.9125
2.875 0.625 -0.9125
2.9375 0.625 -0.9125
3 0.625 -0.9125
3.0625 0.625 -0.9125
3.125 0.625 -0.9125
3.1875 0.625 -0.9125
3.25 0.625 -0.9125
3.3125 0.625 -0.9125
3.375 0.625 -0.9125
3.4375 0.625 -0.9125
3.5 0.625 -0.9125
3.5625 0.625 -0.9125
3.625 0.625 -0.9125
3.6875 0.625 -0.9125
3.75 0.625 -0.9125
3.8125 0.625 -0.9125
3.875 0.625 -0.9125
3.9375 0.625 -0.9125
4 0.625 -0.9125
0 0.6875 -0.9125
0.0625 0.6875 -0.9125
0.125 0.6875 -0.9125
0.1875 0.6875 -0.9125
0.25 0.6875 -0.9125
0.3125 0.6875 -0.9125
0.375 0.6875 -0.9125
0.4375 0.6875 -0.9125
0.5 0.6875 -0.9125
0.5625 0.6875 -0.9125
0.625 0.6875 -0.9125
0.6875 0.6875 -0.9125
0.75 0.6875 -0.9125
0.8125 0.6875 -0.9125
0.875 0.6875 -0.9125
0.9375 0.6875 -0.9125
1 0.6875 -0.9125
1.0625 0.6875 -0.9125
1.125 0.6875 -0.9125
1.1875 0.6875 -0.9125
1.25 0.6875 -0.9125
1.3125 0.6875 -0.9125
1.375 0.6875 -0.9125
1.4375 0.6875 -0.9125
1.5 0.6875 -0.9125
1.5625 0.6875 -0.9125
1.625 0.6875 -0.9125
1.6875 0.6875 -0.9125
1.75 0.6875 -0.9125
1.8125 0.6875 -0.9125
1.875 0.6875 -0.9125
1.9375 0.6875 -0.9125
2 0.6875 -0.9125
2.0625 0.6875 -0.9125
2.125 0.6875 -0.9125
2.1875 0.6875 -0.9125
2.25 0.6875 -0.9125
2.3125 0.6875 -0.9125
2.375 0.6875 -0.9125
2.4375 0.6875 -0.9125
2.5 0.6875 -0.9125
2.5625 0.6875 -0.9125
2.625 0.6875 -0.9125
2.6875 0.6875 -0.9125
2.75 0.6875 -0.9125
2.8125 0.6875 -0.9125
2.875 0.6875 -0.9125
2.9375 0.6875 -0.9125
3 0.6875 -0.9125
3.0625 0.6875 -0.9125
3.125 0.6875 -0.9125
3.1875 0.6875 -0.9125
3.25 0.6875 -0.9125
3.3125 0.6875 -0.9125
3.375 0.6875 -0.9125
3.4375 0.6875 -0.9125
3.5 0.6875 -0.9125
3.5625 0.6875 -0.9125
3.625 0.6875 -0.9125
3.6875 0.6875 -0.9125
3.75 0.6875 -0.9125
3.8125 0.6875 -0.9125
3.875 0.6875 -0.9125
3.9375 0.6875 -0.9125
4 0.6875 -0.9125
0 0.75 -0.9125
0.0625 0.75 -0.9125
0.125 0.75 -0.9125
0.1875 0.75 -0.9125
0.25 0.75 -0.9125
0.3125 0.75 -0.9125
0.375 0.75 -0.9125
0.4375 0.75 -0.9125
0.5 0.75 -0.9125
0.5625 0.75 -0.9125
0.625 0.75 -0.9125
0.6875 0.75 -0.9125
0.75 0.75 -0.9125
0.8125 0.75 -0.9125
0.875 0.75 -0.9125
0.9375 0.75 -0.9125
1 0.75 -0.9125
1.0625 0.75 -0.9125
1.125 0.75 -0.9125
1.1875 0.75 -0.9125
1.25 0.75 -0.9125
1.3125 0.75 -0.9125
1.375 0.75 -0.9125
1.4375 0.75 -0.9125
1.5 0.75 -0.9125
1.5625 0.75 -0.9125
1.625 0.75 -0.9125
1.6875 0.75 -0.9125
1.75 0.75 -0.9125
1.8125 0.75 -0.9125
1.875 0.75 -0.9125
1.9375 0.75 -0.9125
2 0.75 -0.9125
2.0625 0.75 -0.9125
2.125 0.75 -0.9125
2.1875 0.75 -0.9125
2.25 0.75 -0.9125
2.3125 0.75 -0.9125
2.375 0.75 -0.9125
2.4375 0.75 -0.9125
2.5 0.75 -0.9125
2.5625 0.75 -0.9125
2.625 0.75 -0.9125
2.6875 0.75 -0.9125
2.75 0.75 -0.9125
2.8125 0.75 -0.9125
2.875 0.75 -0.9125
2.9375 0.75 -0.9125
3 0.75 -0.9125
3.0625 0.75 -0.9125
3.125 0.75 -0.9125
3.1875 0.75 -0.9125
3.25 0.75 -0.9125
3.3125 0.75 -0.9125
3.375 0.75 -0.9125
3.4375 0.75 -0.9125
3.5 0.75 -0.9125
3.5625 0.75 -0.9125
3.625 0.75 -0.9125
3.6875 0.75 -0.9125
3.75 0.75 -0.9125
3.8125 0.75 -0.9125
3.875 0.75 -0.9125
3.9375 0.75 -0.9125
4 0.75 -0.9125
0 0.8125 -0.9125
0.0625 0.8125 -0.9125
0.125 0.8125 -0.9125
0.1875 0.8125 -0.9125
0.25 0.8125 -0.9125
0.3125 0.8125 -0.9125
0.375 0.8125 -0.9125
0.4375 0.8125 -0.9125
0.5 0.8125 -0.9125
0.5625 0.8125 -0.9125
0.625 0.8125 -0.9125
0.6875 0.8125 -0.9125
0.75 0.8125 -0.9125
0.8125 0.8125 -0.9125
0.875 0.8125 -0.9125
0.9375 0.8125 -0.9125
1 0.8125 -0.9125
1.0625 0.8125 -0.9125
1.125 0.8125 -0.9125
1.1875 0.8125 -0.9125
1.25 0.8125 -0.9125
1.3125 0.8125 -0.9125
1.375 0.8125 -0.9125
1.4375 0.8125 -0.9125
1.5 0.8125 -0.9125
1.5625 0.8125 -0.9125
1.625 0.8125 -0.9125
1.6875 0.8125 -0.9125
1.75 0.8125 -0.9125
1.8125 0.8125 -0.9125
1.875 0.8125 -0.9125
1.9375 0.8125 -0.9125
2 0.8125 -0.9125
2.0625 0.8125 -0.9125
2.125 0.8125 -0.9125
2.1875 0.8125 -0.9125
2.25 0.8125 -0.9125
2.3125 0.8125 -0.9125
2.375 0.8125 -0.9125
2.4375 0.8125 -0.9125
2.5 0.8125 -0.9125
2.5625 0.8125 -0.9125
2.625 0.8125 -0.9125
2.6875 0.8125 -0.9125
2.75 0.8125 -0.9125
2.8125 0.8125 -0.9125
2.875 0.8125 -0.9125
2.9375 0.8125 -0.9125
3 0.8125 -0.9125
3.0625 0.8125 -0.9125
3.125 0.8125 -0.9125
3.1875 0.8125 -0.9125
3.25 0.8125 -0.9125
3.3125 0.8125 -0.9125
3.375 0.8125 -0.9125
3.4375 0.8125 -0.9125
3.5 0.8125 -0.9125
3.5625 0.8125 -0.9125
3.625 0.8125 -0.9125
3.6875 0.8125 -0.9125
3.75 0.8125 -0.9125
3.8125 0.8125 -0.9125
3.875 0.8125 -0.9125
3.9375 0.8125 -0.9125
4 0.8125 -0.9125
0 0.875 -0.9125
0.0625 0.875 -0.9125
0.125 0.875 -0.9125
0.1875 0.875 -0.9125
0.25 0.875 -0.9125
0.3125 0.875 -0.9125
0.375 0.875 -0.9125
0.4375 0.875 -0.9125
0.5 0.875 -0.9125
0.5625 0.875 -0.9125
0.625 0.875 -0.9125
0.6875 0.875 -0.9125
0.75 0.875 -0.9125
0.8125 0.875 -0.9125
0.875 0.875 -0.9125
0.9375 0.875 -0.9125
1 0.875 -0.9125
1.0625 0.875 -0.9125
1.125 0.875 -0.9125
1.1875 0.875 -0.9125
1.25 0.875 -0.9125
1.3125 0.875 -0.9125
1.375 0.875 -0.9125
1.4375 0.875 -0.9125
1.5 0.875 -0.9125
1.5625 0.875 -0.9125
1.625 0.875 -0.9125
1.6875 0.875 -0.9125
1.75 0.875 -0.9125
1.8125 0.875 -0.9125
1.875 0.875 -0.9125
1.9375 0.875 -0.9125
2 0.875 -0.9125
2.0625 0.875 -0.9125
2.125 0.875 -0.9125
2.1875 0.875 -0.9125
2.25 0.875 -0.9125
2.3125 0.875 -0.9125
2.375 0.875 -0.9125
2.4375 0.875 -0.9125
2.5 0.875 -0.9125
2.5625 0.875 -0.9125
2.625 0.875 -0.9125
2.6875 0.875 -0.9125
2.75 0.875 -0.9125
2.8125 0.875 -0.9125
2.875 0.875 -0.9125
2.9375 0.875 -0.9125
3 0.875 -0.9125
3.0625 0.875 -0.9125
3.125 0.875 -0.9125
3.1875 0.875 -0.9125
3.25 0.875 -0.9125
3.3125 0.875 -0.9125
3.375 0.875 -0.9125
3.4375 0.875 -0.9125
3.5 0.875 -0.9125
3.5625 0.875 -0.9125
3.625 0.875 -0.9125
3.6875 0.875 -0.9125
3.75 0.875 -0.9125
3.8125 0.875 -0.9125
3.875 0.875 -0.9125
3.9375 0.875 -0.9125
4 0.875 -0.9125
0 0.9375 -0.9125
0.0625 0.9375 -0.9125
0.125 0.9375 -0.9125
0.1875 0.9375 -0.9125
0.25 0.9375 -0.9125
0.3125 0.9375 -0.9125
0.375 0.9375 -0.9125
0.4375 0.9375 -0.9125
0.5 0.9375 -0.9125
0.5625 0.9375 -0.9125
0.625 0.9375 -0.9125
0.6875 0.9375 -0.9125
0.75 0.9375 -0.9125
0.8125 0.9375 -0.9125
0.875 0.9375 -0.9125
0.9375 0.9375 -0.9125
1 0.9375 -0.9125
1.0625 0.9375 -0.9125
1.125 0.9375 -0.9125
1.1875 0.9375 -0.9125
1.25 0.9375 -0.9125
1.3125 0.9375 -0.9125
1.375 0.9375 -0.9125
1.4375 0.9375 -0.9125
1.5 0.9375 -0.9125
1.5625 0.9375 -0.9125
1.625 0.9375 -0.9125
1.6875 0.9375 -0.9125
1.75 0.9375 -0.9125
1.8125 0.9375 -0.9125
1.875 0.9375 -0.9125
1.9375 0.9375 -0.9125
2 0.9375 -0.9125
2.0625 0.9375 -0.9125
2.125 0.9375 -0.9125
2.1875 0.9375 -0.9125
2.25 0.9375 -0.9125
2.3125 0.9375 -0.9125
2.375 0.9375 -0.9125
2.4375 0.9375 -0.9125
2.5 0.9375 -0.9125
2.5625 0.9375 -0.9125
2.625 0.9375 -0.9125
2.6875 0.9375 -0.9125
2.75 0.9375 -0.9125
2.8125 0.9375 -0.9125
2.875 0.9375 -0.9125
2.9375 0.9375 -0.9125
3 0.9375 -0.9125
3.0625 0.9375 -0.9125
3.125 0.9375 -0.9125
3.1875 0.9375 -0.9125
3.25 0.9375 -0.9125
3.3125 0.9375 -0.9125
3.375 0.9375 -0.9125
3.4375 0.9375 -0.9125
3.5 0.9375 -0.9125
3.5625 0.9375 -0.9125
3.625 0.9375 -0.9125
3.6875 0.9375 -0.9125
3.75 0.9375 -0.9125
3.8125 0.9375 -0.9125
3.875 0.9375 -0.9125
3.9375 0.9375 -0.9125
4 0.9375 -0.9125
0 1 -0.9125
0.0625 1 -0.9125
0.125 1 -0.9125
0.1875 1 -0.9125
0.25 1 -0.9125
0.3125 1 -0.9125
0.375 1 -0.9125
0.4375 1 -0.9125
0.5 1 -0.9125
0.5625 1 -0.9125
0.625 1 -0.9125
0.6875 1 -0.9125
0.75 1 -0.9125
0.8125 1 -0.9125
0.875 1 -0.9125
0.9375 1 -0.9125
1 1 -0.9125
1.0625 1 -0.9125
1.125 1 -0.9125
1.1875 1 -0.9125
1.25 1 -0.9125
1.3125 1 -0.9125
1.375 1 -0.9125
1.4375 1 -0.9125
1.5 1 -0.9125
1.5625 1 -0.9125
1.625 1 -0.9125
1.6875 1 -0.9125
1.75 1 -0.9125
1.8125 1 -0.9125
1.875 1 -0.9125
1.9375 1 -0.9125
2 1 -0.9125
2.0625 1 -0.9125
2.125 1 -0.9125
2.1875 1 -0.9125
2.25 1 -0.9125
2.3125 1 -0.9125
2.375 1 -0.9125
2.4375 1 -0.9125
2.5 1 -0.9125
2.5625 1 -0.9125
2.625 1 -0.9125
2.6875 1 -0.9125
2.75 1 -0.9125
2.8125 1 -0.9125
2.875 1 -0.9125
2.9375 1 -0.9125
3 1 -0.9125
3.0625 1 -0.9125
3.125 1 -0.9125
3.1875 1 -0.9125
3.25 1 -0.9125
3.3125 1 -0.9125
3.375 1 -0.9125
3.4375 1 -0.9125
3.5 1 -0.9125
3.5625 1 -0.9125
3.625 1 -0.9125
3.6875 1 -0.9125
3.75 1 -0.9125
3.8125 1 -0.9125
3.875 1 -0.9125
3.9375 1 -0.9125
4 1 -0.9125
0 0 -0.85
0.0625 0 -0.85
0.125 0 -0.85
0.1875 0 -0.85
0.25 0 -0.85
0.3125 0 -0.85
0.375 0 -0.85
0.4375 0 -0.85
0.5 0 -0.85
0.5625 0 -0.85
0.625 0 -0.85
0.6875 0 -0.85
0.75 0 -0.85
0.8125 0 -0.85
0.875 0 -0.85
0.9375 0 -0.85
1 0 -0.85
1.0625 0 -0.85
1.125 0 -0.85
1.1875 0 -0.85
1.25 0 -0.85
1.3125 0 -0.85
1.375 0 -0.85
1.4375 0 -0.85
1.5 0 -0.85
1.5625 0 -0.85
1.625 0 -0.85
1.6875 0 -0.85
1.75 0 -0.85
1.8125 0 -0.85
1.875 0 -0.85
1.9375 0 -0.85
2 0 -0.85
2.0625 0 -0.85
2.125 0 -0.85
2.1875 0 -0.85
2.25 0 -0.85
2.3125 0 -0.85
2.375 0 -0.85
2.4375 0 -0.85
2.5 0 -0.85
2.5625 0 -0.85
2.625 0 -0.85
2.6875 0 -0.85
2.75 0 -0.85
2.8125 0 -0.85
2.875 0 -0.85
2.9375 0 -0.85
3 0 -0.85
3.0625 0 -0.85
3.125 0 -0.85
3.1875 0 -0.85
3.25 0 -0.85
3.3125 0 -0.85
3.375 0 -0.85
3.4375 0 -0.85
3.5 0 -0.85
3.5625 0 -0.85
3.625 0 -0.85
3.6875 0 -0.85
3.75 0 -0.85
3.8125 0 -0.85
3.875 0 -0.85
3.9375 0 -0.85
4 0 -0.85
0 0.0625 -0.85
0.0625 0.0625 -0.85
0.125 0.0625 -0.85
0.1875 0.0625 -0.85
0.25 0.0625 -0.85
0.3125 0.0625 -0.85
0.375 0.0625 -0.85
0.4375 0.0625 -0.85
0.5 0.0625 -0.85
0.5625 0.0625 -0.85
0.625 0.0625 -0.85
0.6875 0.0625 -0.85
0.75 0.0625 -0.85
0.8125 0.0625 -0.85
0.875 0.0625 -0.85
0.9375 0.0625 -0.85
1 0.0625 -0.85
1.0625 0.0625 -0.85
1.125 0.0625 -0.85
1.1875 0.0625 -0.85
1.25 0.0625 -0.85
1.3125 0.0625 -0.85
1.375 0.0625 -0.85
1.4375 0.0625 -0.85
1.5 0.0625 -0.85
1.5625 0.0625 -0.85
1.625 0.0625 -0.85
1.6875 0.0625 -0.85
1.75 0.0625 -0.85
1.8125 0.0625 -0.85
1.875 0.0625 -0.85
1.9375 0.0625 -0.85
2 0.0625 -0.85
2.0625 0.0625 -0.85
2.125 0.0625 -0.85
2.1875 0.0625 -0.85
2.25 0.0625 -0.85
2.3125 0.0625 -0.85
2.375 0.0625 -0.85
2.4375 0.0625 -0.85
2.5 0.0625 -0.85
2.5625 0.0625 -0.85
2.625 0.0625 -0.85
2.6875 0.0625 -0.85
2.75 0.0625 -0.85
2.8125 0.0625 -0.85
2.875 0.0625 -0.85
2.9375 0.0625 -0.85
3 0.0625 -0.85
3.0625 0.0625 -0.85
3.125 0.0625 -0.85
3.1875 0.0625 -0.85
3.25 0.0625 -0.85
3.3125 0.0625 -0.85
3.375 0.0625 -0.85
3.4375 0.0625 -0.85
3.5 0.0625 -0.85
3.5625 0.0625 -0.85
3.625 0.0625 -0.85
3.6875 0.0625 -0.85
3.75 0.0625 -0.85
3.8125 0.0625 -0.85
3.875 0.0625 -0.85
3.9375 0.0625 -0.85
4 0.0625 -0.85
0 0.125 -0.85
0.0625 0.125 -0.85
0.125 0.125 -0.85
0.1875 0.125 -0.85
0.25 0.125 -0.85
0.3125 0.125 -0.85
0.375 0.125 -0.85
0.4375 0.125 -0.85
0.5 0.125 -0.85
0.5625 0.125 -0.85
0.625 0.125 -0.85
0.6875 0.125 -0.85
0.75 0.125 -0.85
0.8125 0.125 -0.85
0.875 0.125 -0.85
0.9375 0.125 -0.85
1 0.125 -0.85
1.0625 0.125 -0.85
1.125 0.125 -0.85
1.1875 0.125 -0.85
1.25 0.125 -0.85
1.3125 0.125 -0.85
1.375 0.125 -0.85
1.4375 0.125 -0.85
1.5 0.125 -0.85
1.5625 0.125 -0.85
1.625 0.125 -0.85
1.6875 0.125 -0.85
1.75 0.125 -0.85
1.8125 0.125 -0.85
1.875 0.125 -0.85
1.9375 0.125 -0.85
2 0.125 -0.85
2.0625 0.125 -0.85
2.125 0.125 -0.85
2.1875 0.125 -0.85
2.25 0.125 -0.85
2.3125 0.125 -0.85
2.375 0.125 -0.85
2.4375 0.125 -0.85
2.5 0.125 -0.85
2.5625 0.125 -0.85
2.625 0.125 -0.85
2.6875 0.125 -0.85
2.75 0.125 -0.85
2.8125 0.125 -0.85
2.875 0.125 -0.85
2.9375 0.125 -0.85
3 0.125 -0.85
3.0625 0.125 -0.85
3.125 0.125 -0.85
3.1875 0.125 -0.85
3.25 0.125 -0.85
3.3125 0.125 -0.85
3.375 0.125 -0.85
3.4375 0.125 -0.85
3.5 0.125 -0.85
3.5625 0.125 -0.85
3.625 0.125 -0.85
3.6875 0.125 -0.85
3.75 0.125 -0.85
3.8125 0.125 -0.85
3.875 0.125 -0.85
3.9375 0.125 -0.85
4 0.125 -0.85
0 0.1875 -0.85
0.0625 0.1875 -0.85
0.125 0.1875 -0.85
0.1875 0.1875 -0.85
0.25 0.1875 -0.85
0.3125 0.1875 -0.85
0.375 0.1875 -0.85
0.4375 0.1875 -0.85
0.5 0.1875 -0.85
0.5625 0.1875 -0.85
0.625 0.1875 -0.85
0.6875 0.1875 -0.85
0.75 0.1875 -0.85
0.8125 0.1875 -0.85
0.875 0.1875 -0.85
0.9375 0.1875 -0.85
1 0.1875 -0.85
1.0625 0.1875 -0.85
1.125 0.1875 -0.85
1.1875 0.1875 -0.85
1.25 0.1875 -0.85
1.3125 0.1875 -0.85
1.375 0.1875 -0.85
1.4375 0.1875 -0.85
1.5 0.1875 -0.85
1.5625 0.1875 -0.85
1.625 0.1875 -0.85
1.6875 0.1875 -0.85
1.75 0.1875 -0.85
1.8125 0.1875 -0.85
1.875 0.1875 -0.85
1.9375 0.1875 -0.85
2 0.1875 -0.85
2.0625 0.1875 -0.85
2.125 0.1875 -0.85
2.1875 0.1875 -0.85
2.25 0.1875 -0.85
2.3125 0.1875 -0.85
2.375 0.1875 -0.85
2.4375 0.1875 -0.85
2.5 0.1875 -0.85
2.5625 0.1875 -0.85
2.625 0.1875 -0.85
2.6875 0.1875 -0.85
2.75 0.1875 -0.85
2.8125 0.1875 -0.85
2.875 0.1875 -0.85
2.9375 0.1875 -0.85
3 0.1875 -0.85
3.0625 0.1875 -0.85
3.125 0.1875 -0.85
3.1875 0.1875 -0.85
3.25 0.1875 -0.85
3.3125 0.1875 -0.85
3.375 0.1875 -0.85
3.4375 0.1875 -0.85
3.5 0.1875 -0.85
3.5625 0.1875 -0.85
3.625 0.1875 -0.85
3.6875 0.1875 -0.85
3.75 0.1875 -0.85
3.8125 0.1875 -0.85
3.875 0.1875 -0.85
3.9375 0.1875 -0.85
4 0.1875 -0.85
0 0.25 -0.85
0.0625 0.25 -0.85
0.125 0.25 -0.85
0.1875 0.25 -0.85
0.25 0.25 -0.85
0.3125 0.25 -0.85
0.375 0.25 -0.85
0.4375 0.25 -0.85
0.5 0.25 -0.85
0.5625 0.25 -0.85
0.625 0.25 -0.85
0.6875 0.25 -0.85
0.75 0.25 -0.85
0.8125 0.25 -0.85
0.875 0.25 -0.85
0.9375 0.25 -0.85
1 0.25 -0.85
1.0625 0.25 -0.85
1.125 0.25 -0.85
1.1875 0.25 -0.85
1.25 0.25 -0.85
1.3125 0.25 -0.85
1.375 0.25 -0.85
1.4375 0.25 -0.85
1.5 0.25 -0.85
1.5625 0.25 -0.85
1.625 0.25 -0.85
1.6875 0.25 -0.85
1.75 0.25 -0.85
1.8125 0.25 -0.85
1.875 0.25 -0.85
1.9375 0.25 -0.85
2 0.25 -0.85
2.0625 0.25 -0.85
2.125 0.25 -0.85
2.1875 0.25 -0.85
2.25 0.25 -0.85
2.3125 0.25 -0.85
2.375 0.25 -0.85
2.4375 0.25 -0.85
2.5 0.25 -0.85
2.5625 0.25 -0.85
2.625 0.25 -0.85
2.6875 0.25 -0.85
2.75 0.25 -0.85
2.8125 0.25 -0.85
2.875 0.25 -0.85
2.9375 0.25 -0.85
3 0.25 -0.85
3.0625 0.25 -0.85
3.125 0.25 -0.85
3.1875 0.25 -0.85
3.25 0.25 -0.85
3.3125 0.25 -0.85
3.375 0.25 -0.85
3.4375 0.25 -0.85
3.5 0.25 -0.85
3.5625 0.25 -0.85
3.625 0.25 -0.85
3.6875 0.25 -0.85
3.75 0.25 -0.85
3.8125 0.25 -0.85
3.875 0.25 -0.85
3.9375 0.25 -0.85
4 0.25 -0.85
0 0.3125 -0.85
0.0625 0.3125 -0.85
0.125 0.3125 -0.85
0.1875 0.3125 -0.85
0.25 0.3125 -0.85
0.3125 0.3125 -0.85
0.375 0.3125 -0.85
0.4375 0.3125 -0.85
0.5 0.3125 -0.85
0.5625 0.3125 -0.85
0.625 0.3125 -0.85
0.6875 0.3125 -0.85
0.75 0.3125 -0.85
0.8125 0.3125 -0.85
0.875 0.3125 -0.85
0.9375 0.3125 -0.85
1 0.3125 -0.85
1.0625 0.3125 -0.85
1.125 0.3125 -0.85
1.1875 0.3125 -0.85
1.25 0.3125 -0.85
1.3125 0.3125 -0.85
1.375 0.3125 -0.85
1.4375 0.3125 -0.85
1.5 0.3125 -0.85
1.5625 0.3125 -0.85
1.625 0.3125 -0.85
1.6875 0.3125 -0.85
1.75 0.3125 -0.85
1.8125 0.3125 -0.85
1.875 0.3125 -0.85
1.9375 0.3125 -0.85
2 0.3125 -0.85
2.0625 0.3125 -0.85
2.125 0.3125 -0.85
2.1875 0.3125 -0.85
2.25 0.3125 -0.85
2.3125 0.3125 -0.85
2.375 0.3125 -0.85
2.4375 0.3125 -0.85
2.5 0.3125 -0.85
2.5625 0.3125 -0.85
2.625 0.3125 -0.85
2.6875 0.3125 -0.85
2.75 0.3125 -0.85
2.8125 0.3125 -0.85
2.875 0.3125 -0.85
2.9375 0.3125 -0.85
3 0.3125 -0.85
3.0625 0.3125 -0.85
3.125 0.3125 -0.85
3.1875 0.3125 -0.85
3.25 0.3125 -0.85
3.3125 0.3125 -0.85
3.375 0.3125 -0.85
3.4375 0.3125 -0.85
3.5 0.3125 -0.85
3.5625 0.3125 -0.85
3.625 0.3125 -0.85
3.6875 0.3125 -0.85
3.75 0.3125 -0.85
3.8125 0.3125 -0.85
3.875 0.3125 -0.85
3.9375 0.3125 -0.85
4 0.3125 -0.85
0 0.375 -0.85
0.0625 0.375 -0.85
0.125 0.375 -0.85
0.1875 0.375 -0.85
0.25 0.375 -0.85
0.3125 0.375 -0.85
0.375 0.375 -0.85
0.4375 0.375 -0.85
0.5 0.375 -0.85
0.5625 0.375 -0.85
0.625 0.375 -0.85
0.6875 0.375 -0.85
0.75 0.375 -0.85
0.8125 0.375 -0.85
0.875 0.375 -0.85
0.9375 0.375 -0.85
1 0.375 -0.85
1.0625 0.375 -0.85
1.125 0.375 -0.85
1.1875 0.375 -0.85
1.25 0.375 -0.85
1.3125 0.375 -0.85
1.375 0.375 -0.85
1.4375 0.375 -0.85
1.5 0.375 -0.85
1.5625 0.375 -0.85
1.625 0.375 -0.85
1.6875 0.375 -0.85
1.75 0.375 -0.85
1.8125 0.375 -0.85
1.875 0.375 -0.85
1.9375 0.375 -0.85
2 0.375 -0.85
2.0625 0.375 -0.85
2.125 0.375 -0.85
2.1875 0.375 -0.85
2.25 0.375 -0.85
2.3125 0.375 -0.85
2.375 0.375 -0.85
2.4375 0.375 -0.85
2.5 0.375 -0.85
2.5625 0.375 -0.85
2.625 0.375 -0.85
2.6875 0.375 -0.85
2.75 0.375 -0.85
2.8125 0.375 -0.85
2.875 0.375 -0.85
2.9375 0.375 -0.85
3 0.375 -0.85
3.0625 0.375 -0.85
3.125 0.375 -0.85
3.1875 0.375 -0.85
3.25 0.375 -0.85
3.3125 0.375 -0.85
3.375 0.375 -0.85
3.4375 0.375 -0.85
3.5 0.375 -0.85
3.5625 0.375 -0.85
3.625 0.375 -0.85
3.6875 0.375 -0.85
3.75 0.375 -0.85
3.8125 0.375 -0.85
3.875 0.375 -0.85
3.9375 0.375 -0.85
4 0.375 -0.85
0 0.4375 -0.85
0.0625 0.4375 -0.85
0.125 0.4375 -0.85
0.1875 0.4375 -0.85
0.25 0.4375 -0.85
0.3125 0.4375 -0.85
0.375 0.4375 -0.85
0.4375 0.4375 -0.85
0.5 0.4375 -0.85
0.5625 0.4375 -0.85
0.625 0.4375 -0.85
0.6875 0.4375 -0.85
0.75 0.4375 -0.85
0.8125 0.4375 -0.85
0.875 0.4375 -0.85
0.9375 0.4375 -0.85
1 0.4375 -0.85
1.0625 0.4375 -0.85
1.125 0.4375 -0.85
1.1875 0.4375 -0.85
1.25 0.4375 -0.85
1.3125 0.4375 -0.85
1.375 0.4375 -0.85
1.4375 0.4375 -0.85
1.5 0.4375 -0.85
1.5625 0.4375 -0.85
1.625 0.4375 -0.85
1.6875 0.4375 -0.85
1.75 0.4375 -0.85
1.8125 0.4375 -0.85
1.875 0.4375 -0.85
1.9375 0.4375 -0.85
2 0.4375 -0.85
2.0625 0.4375 -0.85
2.125 0.4375 -0.85
2.1875 0.4375 -0.85
2.25 0.4375 -0.85
2.3125 0.4375 -0.85
2.375 0.4375 -0.85
2.4375 0.4375 -0.85
2.5 0.4375 -0.85
2.5625 0.4375 -0.85
2.625 0.4375 -0.85
2.6875 0.4375 -0.85
2.75 0.4375 -0.85
2.8125 0.4375 -0.85
2.875 0.4375 -0.85
2.9375 0.4375 -0.85
3 0.4375 -0.85
3.0625 0.4375 -0.85
3.125 0.4375 -0.85
3.1875 0.4375 -0.85
3.25 0.4375 -0.85
3.3125 0.4375 -0.85
3.375 0.4375 -0.85
3.4375 0.4375 -0.85
3.5 0.4375 -0.85
3.5625 0.4375 -0.85
3.625 0.4375 -0.85
3.6875 0.4375 -0.85
3.75 0.4375 -0.85
3.8125 0.4375 -0.85
3.875 0.4375 -0.85
3.9375 0.4375 -0.85
4 0.4375 -0.85
0 0.5 -0.85
0.0625 0.5 -0.85
0.125 0.5 -0.85
0.1875 0.5 -0.85
0.25 0.5 -0.85
0.3125 0.5 -0.85
0.375 0.5 -0.85
0.4375 0.5 -0.85
0.5 0.5 -0.85
0.5625 0.5 -0.85
0.625 0.5 -0.85
0.6875 0.5 -0.85
0.75 0.5 -0.85
0.8125 0.5 -0.85
0.875 0.5 -0.85
0.9375 0.5 -0.85
1 0.5 -0.85
1.0625 0.5 -0.85
1.125 0.5 -0.85
1.1875 0.5 -0.85
1.25 0.5 -0.85
1.3125 0.5 -0.85
1.375 0.5 -0.85
1.4375 0.5 -0.85
1.5 0.5 -0.85
1.5625 0.5 -0.85
1.625 0.5 -0.85
1.6875 0.5 -0.85
1.75 0.5 -0.85
1.8125 0.5 -0.85
1.875 0.5 -0.85
1.9375 0.5 -0.85
2 0.5 -0.85
2.0625 0.5 -0.85
2.125 0.5 -0.85
2.1875 0.5 -0.85
2.25 0.5 -0.85
2.3125 0.5 -0.85
2.375 0.5 -0.85
2.4375 0.5 -0.85
2.5 0.5 -0.85
2.5625 0.5 -0.85
2.625 0.5 -0.85
2.6875 0.5 -0.85
2.75 0.5 -0.85
2.8125 0.5 -0.85
2.875 0.5 -0.85
2.9375 0.5 -0.85
3 0.5 -0.85
3.0625 0.5 -0.85
3.125 0.5 -0.85
3.1875 0.5 -0.85
3.25 0.5 -0.85
3.3125 0.5 -0.85
3.375 0.5 -0.85
3.4375 0.5 -0.85
3.5 0.5 -0.85
3.5625 0.5 -0.85
3.625 0.5 -0.85
3.6875 0.5 -0.85
3.75 0.5 -0.85
3.8125 0.5 -0.85
3.875 0.5 -0.85
3.9375 0.5 -0.85
4 0.5 -0.85
0 0.5625 -0.85
0.0625 0.5625 -0.85
0.125 0.5625 -0.85
0.1875 0.5625 -0.85
0.25 0.5625 -0.85
0.3125 0.5625 -0.85
0.375 0.5625 -0.85
0.4375 0.5625 -0.85
0.5 0.5625 -0.85
0.5625 0.5625 -0.85
0.625 0.5625 -0.85
0.6875 0.5625 -0.85
0.75 0.5625 -0.85
0.8125 0.5625 -0.85
0.875 0.5625 -0.85
0.9375 0.5625 -0.85
1 0.5625 -0.85
1.0625 0.5625 -0.85
1.125 0.5625 -0.85
1.1875 0.5625 -0.85
1.25 0.5625 -0.85
1.3125 0.5625 -0.85
1.375 0.5625 -0.85
1.4375 0.5625 -0.85
1.5 0.5625 -0.85
1.5625 0.5625 -0.85
1.625 0.5625 -0.85
1.6875 0.5625 -0.85
1.75 0.5625 -0.85
1.8125 0.5625 -0.85
1.875 0.5625 -0.85
1.9375 0.5625 -0.85
2 0.5625 -0.85
2.0625 0.5625 -0.85
2.125 0.5625 -0.85
2.1875 0.5625 -0.85
2.25 0.5625 -0.85
2.3125 0.5625 -0.85
2.375 0.5625 -0.85
2.4375 0.5625 -0.85
2.5 0.5625 -0.85
2.5625 0.5625 -0.85
2.625 0.5625 -0.85
2.6875 0.5625 -0.85
2.75 0.5625 -0.85
2.8125 0.5625 -0.85
2.875 0.5625 -0.85
2.9375 0.5625 -0.85
3 0.5625 -0.85
3.0625 0.5625 -0.85
3.125 0.5625 -0.85
3.1875 0.5625 -0.85
3.25 0.5625 -0.85
3.3125 0.5625 -0.85
3.375 0.5625 -0.85
3.4375 0.5625 -0.85
3.5 0.5625 -0.85
3.5625 0.5625 -0.85
3.625 0.5625 -0.85
3.6875 0.5625 -0.85
3.75 0.5625 -0.85
3.8125 0.5625 -0.85
3.875 0.5625 -0.85
3.9375 0.5625 -0.85
4 0.5625 -0.85
0 0.625 -0.85
0.0625 0.625 -0.85
0.125 0.625 -0.85
0.1875 0.625 -0.85
0.25 0.625 -0.85
0.3125 0.625 -0.85
0.375 0.625 -0.85
0.4375 0.625 -0.85
0.5 0.625 -0.85
0.5625 0.625 -0.85
0.625 0.625 -0.85
0.6875 0.625 -0.85
0.75 0.625 -0.85
0.8125 0.625 -0.85
0.875 0.625 -0.85
0.9375 0.625 -0.85
1 0.625 -0.85
1.0625 0.625 -0.85
1.125 0.625 -0.85
1.1875 0.625 -0.85
1.25 0.625 -0.85
1.3125 0.625 -0.85
1.375 0.625 -0.85
1.4375 0.625 -0.85
1.5 0.625 -0.85
1.5625 0.625 -0.85
1.625 0.625 -0.85
1.6875 0.625 -0.85
1.75 0.625 -0.85
1.8125 0.625 -0.85
1.875 0.625 -0.85
1.9375 0.625 -0.85
2 0.625 -0.85
2.0625 0.625 -0.85
2.125 0.625 -0.85
2.1875 0.625 -0.85
2.25 0.625 -0.85
2.3125 0.625 -0.85
2.375 0.625 -0.85
2.4375 0.625 -0.85
2.5 0.625 -0.85
2.5625 0.625 -0.85
2.625 0.625 -0.85
2.6875 0.625 -0.85
2.75 0.625 -0.85
2.8125 0.625 -0.85
2.875 0.625 -0.85
2.9375 0.625 -0.85
3 0.625 -0.85
3.0625 0.625 -0.85
3.125 0.625 -0.85
3.1875 0.625 -0.85
3.25 0.625 -0.85
3.3125 0.625 -0.85
3.375 0.625 -0.85
3.4375 0.625 -0.85
3.5 0.625 -0.85
3.5625 0.625 -0.85
3.625 0.625 -0.85
3.6875 0.625 -0.85
3.75 0.625 -0.85
3.8125 0.625 -0.85
3.875 0.625 -0.85
3.9375 0.625 -0.85
4 0.625 -0.85
0 0.6875 -0.85
0.0625 0.6875 -0.85
0.125 0.6875 -0.85
0.1875 0.6875 -0.85
0.25 0.6875 -0.85
0.3125 0.6875 -0.85
0.375 0.6875 -0.85
0.4375 0.6875 -0.85
0.5 0.6875 -0.85
0.5625 0.6875 -0.85
0.625 0.6875 -0.85
0.6875 0.6875 -0.85
0.75 0.6875 -0.85
0.8125 0.6875 -0.85
0.875 0.6875 -0.85
0.9375 0.6875 -0.85
1 0.6875 -0.85
1.0625 0.6875 -0.85
1.125 0.6875 -0.85
1.1875 0.6875 -0.85
1.25 0.6875 -0.85
1.3125 0.6875 -0.85
1.375 0.6875 -0.85
1.4375 0.6875 -0.85
1.5 0.6875 -0.85
1.5625 0.6875 -0.85
1.625 0.6875 -0.85
1.6875 0.6875 -0.85
1.75 0.6875 -0.85
1.8125 0.6875 -0.85
1.875 0.6875 -0.85
1.9375 0.6875 -0.85
2 0.6875 -0.85
2.0625 0.6875 -0.85
2.125 0.6875 -0.85
2.1875 0.6875 -0.85
2.25 0.6875 -0.85
2.3125 0.6875 -0.85
2.375 0.6875 -0.85
2.4375 0.6875 -0.85
2.5 0.6875 -0.85
2.5625 0.6875 -0.85
2.625 0.6875 -0.85
2.6875 0.6875 -0.85
2.75 0.6875 -0.85
2.8125 0.6875 -0.85
2.875 0.6875 -0.85
2.9375 0.6875 -0.85
3 0.6875 -0.85
3.0625 0.6875 -0.85
3.125 0.6875 -0.85
3.1875 0.6875 -0.85
3.25 0.6875 -0.85
3.3125 0.6875 -0.85
3.375 0.6875 -0.85
3.4375 0.6875 -0.85
3.5 0.6875 -0.85
3.5625 0.6875 -0.85
3.625 0.6875 -0.85
3.6875 0.6875 -0.85
3.75 0.6875 -0.85
3.8125 0.6875 -0.85
3.875 0.6875 -0.85
3.9375 0.6875 -0.85
4 0.6875 -0.85
0 0.75 -0.85
0.0625 0.75 -0.85
0.125 0.75 -0.85
0.1875 0.75 -0.85
0.25 0.75 -0.85
0.3125 0.75 -0.85
0.375 0.75 -0.85
0.4375 0.75 -0.85
0.5 0.75 -0.85
0.5625 0.75 -0.85
0.625 0.75 -0.85
0.6875 0.75 -0.85
0.75 0.75 -0.85
0.8125 0.75 -0.85
0.875 0.75 -0.85
0.9375 0.75 -0.85
1 0.75 -0.85
1.0625 0.75 -0.85
1.125 0.75 -0.85
1.1875 0.75 -0.85
1.25 0.75 -0.85
1.3125 0.75 -0.85
1.375 0.75 -0.85
1.4375 0.75 -0.85
1.5 0.75 -0.85
1.5625 0.75 -0.85
1.625 0.75 -0.85
1.6875 0.75 -0.85
1.75 0.75 -0.85
1.8125 0.75 -0.85
1.875 0.75 -0.85
1.9375 0.75 -0.85
2 0.75 -0.85
2.0625 0.75 -0.85
2.125 0.75 -0.85
2.1875 0.75 -0.85
2.25 0.75 -0.85
2.3125 0.75 -0.85
2.375 0.75 -0.85
2.4375 0.75 -0.85
2.5 0.75 -0.85
2.5625 0.75 -0.85
2.625 0.75 -0.85
2.6875 0.75 -0.85
2.75 0.75 -0.85
2.8125 0.75 -0.85
2.875 0.75 -0.85
2.9375 0.75 -0.85
3 0.75 -0.85
3.0625 0.75 -0.85
3.125 0.75 -0.85
3.1875 0.75 -0.85
3.25 0.75 -0.85
3.3125 0.75 -0.85
3.375 0.75 -0.85
3.4375 0.75 -0.85
3.5 0.75 -0.85
3.5625 0.75 -0.85
3.625 0.75 -0.85
3.6875 0.75 -0.85
3.75 0.75 -0.85
3.8125 0.75 -0.85
3.875 0.75 -0.85
3.9375 0.75 -0.85
4 0.75 -0.85
0 0.8125 -0.85
0.0625 0.8125 -0.85
0.125 0.8125 -0.85
0.1875 0.8125 -0.85
0.25 0.8125 -0.85
0.3125 0.8125 -0.85
0.375 0.8125 -0.85
0.4375 0.8125 -0.85
0.5 0.8125 -0.85
0.5625 0.8125 -0.85
0.625 0.8125 -0.85
0.6875 0.8125 -0.85
0.75 0.8125 -0.85
0.8125 0.8125 -0.85
0.875 0.8125 -0.85
0.9375 0.8125 -0.85
1 0.8125 -0.85
1.0625 0.8125 -0.85
1.125 0.8125 -0.85
1.1875 0.8125 -0.85
1.25 0.8125 -0.85
1.3125 0.8125 -0.85
1.375 0.8125 -0.85
1.4375 0.8125 -0.85
1.5 0.8125 -0.85
1.5625 0.8125 -0.85
1.625 0.8125 -0.85
1.6875 0.8125 -0.85
1.75 0.8125 -0.85
1.8125 0.8125 -0.85
1.875 0.8125 -0.85
1.9375 0.8125 -0.85
2 0.8125 -0.85
2.0625 0.8125 -0.85
2.125 0.8125 -0.85
2.1875 0.8125 -0.85
2.25 0.8125 -0.85
2.3125 0.8125 -0.85
2.375 0.8125 -0.85
2.4375 0.8125 -0.85
2.5 0.8125 -0.85
2.5625 0.8125 -0.85
2.625 0.8125 -0.85
2.6875 0.8125 -0.85
2.75 0.8125 -0.85
2.8125 0.8125 -0.85
2.875 0.8125 -0.85
2.9375 0.8125 -0.85
3 0.8125 -0.85
3.0625 0.8125 -0.85
3.125 0.8125 -0.85
3.1875 0.8125 -0.85
3.25 0.8125 -0.85
3.3125 0.8125 -0.85
3.375 0.8125 -0.85
3.4375 0.8125 -0.85
3.5 0.8125 -0.85
3.5625 0.8125 -0.85
3.625 0.8125 -0.85
3.6875 0.8125 -0.85
3.75 0.8125 -0.85
3.8125 0.8125 -0.85
3.875 0.8125 -0.85
3.9375 0.8125 -0.85
4 0.8125 -0.85
0 0.875 -0.85
0.0625 0.875 -0.85
0.125 0.875 -0.85
0.1875 0.875 -0.85
0.25 0.875 -0.85
0.3125 0.875 -0.85
0.375 0.875 -0.85
0.4375 0.875 -0.85
0.5 0.875 -0.85
0.5625 0.875 -0.85
0.625 0.875 -0.85
0.6875 0.875 -0.85
0.75 0.875 -0.85
0.8125 0.875 -0.85
0.875 0.875 -0.85
0.9375 0.875 -0.85
1 0.875 -0.85
1.0625 0.875 -0.85
1.125 0.875 -0.85
1.1875 0.875 -0.85
1.25 0.875 -0.85
1.3125 0.875 -0.85
1.375 0.875 -0.85
1.4375 0.875 -0.85
1.5 0.875 -0.85
1.5625 0.875 -0.85
1.625 0.875 -0.85
1.6875 0.875 -0.85
1.75 0.875 -0.85
1.8125 0.875 -0.85
1.875 0.875 -0.85
1.9375 0.875 -0.85
2 0.875 -0.85
2.0625 0.875 -0.85
2.125 0.875 -0.85
2.1875 0.875 -0.85
2.25 0.875 -0.85
2.3125 0.875 -0.85
2.375 0.875 -0.85
2.4375 0.875 -0.85
2.5 0.875 -0.85
2.5625 0.875 -0.85
2.625 0.875 -0.85
2.6875 0.875 -0.85
2.75 0.875 -0.85
2.8125 0.875 -0.85
2.875 0.875 -0.85
2.9375 0.875 -0.85
3 0.875 -0.85
3.0625 0.875 -0.85
3.125 0.875 -0.85
3.1875 0.875 -0.85
3.25 0.875 -0.85
3.3125 0.875 -0.85
3.375 0.875 -0.85
3.4375 0.875 -0.85
3.5 0.875 -0.85
3.5625 0.875 -0.85
3.625 0.875 -0.85
3.6875 0.875 -0.85
3.75 0.875 -0.85
3.8125 0.875 -0.85
3.875 0.875 -0.85
3.9375 0.875 -0.85
4 0.875 -0.85
0 0.9375 -0.85
0.0625 0.9375 -0.85
0.125 0.9375 -0.85
0.1875 0.9375 -0.85
0.25 0.9375 -0.85
0.3125 0.9375 -0.85
0.375 0.9375 -0.85
0.4375 0.9375 -0.85
0.5 0.9375 -0.85
0.5625 0.9375 -0.85
0.625 0.9375 -0.85
0.6875 0.9375 -0.85
0.75 0.9375 -0.85
0.8125 0.9375 -0.85
0.875 0.9375 -0.85
0.9375 0.9375 -0.85
1 0.9375 -0.85
1.0625 0.9375 -0.85
1.125 0.9375 -0.85
1.1875 0.9375 -0.85
1.25 0.9375 -0.85
1.3125 0.9375 -0.85
1.375 0.9375 -0.85
1.4375 0.9375 -0.85
1.5 0.9375 -0.85
1.5625 0.9375 -0.85
1.625 0.9375 -0.85
1.6875 0.9375 -0.85
1.75 0.9375 -0.85
1.8125 0.9375 -0.85
1.875 0.9375 -0.85
1.9375 0.9375 -0.85
2 0.9375 -0.85
2.0625 0.9375 -0.85
2.125 0.9375 -0.85
2.1875 0.9375 -0.85
2.25 0.9375 -0.85
2.3125 0.9375 -0.85
2.375 0.9375 -0.85
2.4375 0.9375 -0.85
2.5 0.9375 -0.85
2.5625 0.9375 -0.85
2.625 0.9375 -0.85
2.6875 0.9375 -0.85
2.75 0.9375 -0.85
2.8125 0.9375 -0.85
2.875 0.9375 -0.85
2.9375 0.9375 -0.85
3 0.9375 -0.85
3.0625 0.9375 -0.85
3.125 0.9375 -0.85
3.1875 0.9375 -0.85
3.25 0.9375 -0.85
3.3125 0.9375 -0.85
3.375 0.9375 -0.85
3.4375 0.9375 -0.85
3.5 0.9375 -0.85
3.5625 0.9375 -0.85
3.625 0.9375 -0.85
3.6875 0.9375 -0.85
3.75 0.9375 -0.85
3.8125 0.9375 -0.85
3.875 0.9375 -0.85
3.9375 0.9375 -0.85
4 0.9375 -0.85
0 1 -0.85
0.0625 1 -0.85
0.125 1 -0.85
0.1875 1 -0.85
0.25 1 -0.85
0.3125 1 -0.85
0.375 1 -0.85
0.4375 1 -0.85
0.5 1 -0.85
0.5625 1 -0.85
0.625 1 -0.85
0.6875 1 -0.85
0.75 1 -0.85
0.8125 1 -0.85
0.875 1 -0.85
0.9375 1 -0.85
1 1 -0.85
1.0625 1 -0.85
1.125 1 -0.85
1.1875 1 -0.85
1.25 1 -0.85
1.3125 1 -0.85
1.375 1 -0.85
1.4375 1 -0.85
1.5 1 -0.85
1.5625 1 -0.85
1.625 1 -0.85
1.6875 1 -0.85
1.75 1 -0.85
1.8125 1 -0.85
1.875 1 -0.85
1.9375 1 -0.85
2 1 -0.85
2.0625 1 -0.85
2.125 1 -0.85
2.1875 1 -0.85
2.25 1 -0.85
2.3125 1 -0.85
2.375 1 -0.85
2.4375 1 -0.85
2.5 1 -0.85
2.5625 1 -0.85
2.625 1 -0.85
2.6875 1 -0.85
2.75 1 -0.85
2.8125 1 -0.85
2.875 1 -0.85
2.9375 1 -0.85
3 1 -0.85
3.0625 1 -0.85
3.125 1 -0.85
3.1875 1 -0.85
3.25 1 -0.85
3.3125 1 -0.85
3.375 1 -0.85
3.4375 1 -0.85
3.5 1 -0.85
3.5625 1 -0.85
3.625 1 -0.85
3.6875 1 -0.85
3.75 1 -0.85
3.8125 1 -0.85
3.875 1 -0.85
3.9375 1 -0.85
4 1 -0.85
0 0 -0.7875
0.0625 0 -0.7875
0.125 0 -0.7875
0.1875 0 -0.7875
0.25 0 -0.7875
0.3125 0 -0.7875
0.375 0 -0.7875
0.4375 0 -0.7875
0.5 0 -0.7875
0.5625 0 -0.7875
0.625 0 -0.7875
0.6875 0 -0.7875
0.75 0 -0.7875
0.8125 0 -0.7875
0.875 0 -0.7875
0.9375 0 -0.7875
1 0 -0.7875
1.0625 0 -0.7875
1.125 0 -0.7875
1.1875 0 -0.7875
1.25 0 -0.7875
1.3125 0 -0.7875
1.375 0 -0.7875
1.4375 0 -0.7875
1.5 0 -0.7875
1.5625 0 -0.7875
1.625 0 -0.7875
1.6875 0 -0.7875
1.75 0 -0.7875
1.8125 0 -0.7875
1.875 0 -0.7875
1.9375 0 -0.7875
2 0 -0.7875
2.0625 0 -0.7875
2.125 0 -0.7875
2.1875 0 -0.7875
2.25 0 -0.7875
2.3125 0 -0.7875
2.375 0 -0.7875
2.4375 0 -0.7875
2.5 0 -0.7875
2.5625 0 -0.7875
2.625 0 -0.7875
2.6875 0 -0.7875
2.75 0 -0.7875
2.8125 0 -0.7875
2.875 0 -0.7875
2.9375 0 -0.7875
3 0 -0.7875
3.0625 0 -0.7875
3.125 0 -0.7875
3.1875 0 -0.7875
3.25 0 -0.7875
3.3125 0 -0.7875
3.375 0 -0.7875
3.4375 0 -0.7875
3.5 0 -0.7875
3.5625 0 -0.7875
3.625 0 -0.7875
3.6875 0 -0.7875
3.75 0 -0.7875
3.8125 0 -0.7875
3.875 0 -0.7875
3.9375 0 -0.7875
4 0 -0.7875
0 0.0625 -0.7875
0.0625 0.0625 -0.7875
0.125 0.0625 -0.7875
0.1875 0.0625 -0.7875
0.25 0.0625 -0.7875
0.3125 0.0625 -0.7875
0.375 0.0625 -0.7875
0.4375 0.0625 -0.7875
0.5 0.0625 -0.7875
0.5625 0.0625 -0.7875
0.625 0.0625 -0.7875
0.6875 0.0625 -0.7875
0.75 0.0625 -0.7875
0.8125 0.0625 -0.7875
0.875 0.0625 -0.7875
0.9375 0.0625 -0.7875
1 0.0625 -0.7875
1.0625 0.0625 -0.7875
1.125 0.0625 -0.7875
1.1875 0.0625 -0.7875
1.25 0.0625 -0.7875
1.3125 0.0625 -0.7875
1.375 0.0625 -0.7875
1.4375 0.0625 -0.7875
1.5 0.0625 -0.7875
1.5625 0.0625 -0.7875
1.625 0.0625 -0.7875
1.6875 0.0625 -0.7875
1.75 0.0625 -0.7875
1.8125 0.0625 -0.7875
1.875 0.0625 -0.7875
1.9375 0.0625 -0.7875
2 0.0625 -0.7875
2.0625 0.0625 -0.7875
2.125 0.0625 -0.7875
2.1875 0.0625 -0.7875
2.25 0.0625 -0.7875
2.3125 0.0625 -0.7875
2.375 0.0625 -0.7875
2.4375 0.0625 -0.7875
2.5 0.0625 -0.7875
2.5625 0.0625 -0.7875
2.625 0.0625 -0.7875
2.6875 0.0625 -0.7875
2.75 0.0625 -0.7875
2.8125 0.0625 -0.7875
2.875 0.0625 -0.7875
2.9375 0.0625 -0.7875
3 0.0625 -0.7875
3.0625 0.0625 -0.7875
3.125 0.0625 -0.7875
3.1875 0.0625 -0.7875
3.25 0.0625 -0.7875
3.3125 0.0625 -0.7875
3.375 0.0625 -0.7875
3.4375 0.0625 -0.7875
3.5 0.0625 -0.7875
3.5625 0.0625 -0.7875
3.625 0.0625 -0.7875
3.6875 0.0625 -0.7875
3.75 0.0625 -0.7875
3.8125 0.0625 -0.7875
3.875 0.0625 -0.7875
3.9375 0.0625 -0.7875
4 0.0625 -0.7875
0 0.125 -0.7875
0.0625 0.125 -0.7875
0.125 0.125 -0.7875
0.1875 0.125 -0.7875
0.25 0.125 -0.7875
0.3125 0.125 -0.7875
0.375 0.125 -0.7875
0.4375 0.125 -0.7875
0.5 0.125 -0.7875
0.5625 0.125 -0.7875
0.625 0.125 -0.7875
0.6875 0.125 -0.7875
0.75 0.125 -0.7875
0.8125 0.125 -0.7875
0.875 0.125 -0.7875
0.9375 0.125 -0.7875
1 0.125 -0.7875
1.0625 0.125 -0.7875
1.125 0.125 -0.7875
1.1875 0.125 -0.7875
1.25 0.125 -0.7875
1.3125 0.125 -0.7875
1.375 0.125 -0.7875
1.4375 0.125 -0.7875
1.5 0.125 -0.7875
1.5625 0.125 -0.7875
1.625 0.125 -0.7875
1.6875 0.125 -0.7875
1.75 0.125 -0.7875
1.8125 0.125 -0.7875
1.875 0.125 -0.7875
1.9375 0.125 -0.7875
2 0.125 -0.7875
2.0625 0.125 -0.7875
2.125 0.125 -0.7875
2.1875 0.125 -0.7875
2.25 0.125 -0.7875
2.3125 0.125 -0.7875
2.375 0.125 -0.7875
2.4375 0.125 -0.7875
2.5 0.125 -0.7875
2.5625 0.125 -0.7875
2.625 0.125 -0.7875
2.6875 0.125 -0.7875
2.75 0.125 -0.7875
2.8125 0.125 -0.7875
2.875 0.125 -0.7875
2.9375 0.125 -0.7875
3 0.125 -0.7875
3.0625 0.125 -0.7875
3.125 0.125 -0.7875
3.1875 0.125 -0.7875
3.25 0.125 -0.7875
3.3125 0.125 -0.7875
3.375 0.125 -0.7875
3.4375 0.125 -0.7875
3.5 0.125 -0.7875
3.5625 0.125 -0.7875
3.625 0.125 -0.7875
3.6875 0.125 -0.7875
3.75 0.125 -0.7875
3.8125 0.125 -0.7875
3.875 0.125 -0.7875
3.9375 0.125 -0.7875
4 0.125 -0.7875
0 0.1875 -0.7875
0.0625 0.1875 -0.7875
0.125 0.1875 -0.7875
0.1875 0.1875 -0.7875
0.25 0.1875 -0.7875
0.3125 0.1875 -0.7875
0.375 0.1875 -0.7875
0.4375 0.1875 -0.7875
0.5 0.1875 -0.7875
0.5625 0.1875 -0.7875
0.625 0.1875 -0.7875
0.6875 0.1875 -0.7875
0.75 0.1875 -0.7875
0.8125 0.1875 -0.7875
0.875 0.1875 -0.7875
0.9375 0.1875 -0.7875
1 0.1875 -0.7875
1.0625 0.1875 -0.7875
1.125 0.1875 -0.7875
1.1875 0.1875 -0.7875
1.25 0.1875 -0.7875
1.3125 0.1875 -0.7875
1.375 0.1875 -0.7875
1.4375 0.1875 -0.7875
1.5 0.1875 -0.7875
1.5625 0.1875 -0.7875
1.625 0.1875 -0.7875
1.6875 0.1875 -0.7875
1.75 0.1875 -0.7875
1.8125 0.1875 -0.7875
1.875 0.1875 -0.7875
1.9375 0.1875 -0.7875
2 0.1875 -0.7875
2.0625 0.1875 -0.7875
2.125 0.1875 -0.7875
2.1875 0.1875 -0.7875
2.25 0.1875 -0.7875
2.3125 0.1875 -0.7875
2.375 0.1875 -0.7875
2.4375 0.1875 -0.7875
2.5 0.1875 -0.7875
2.5625 0.1875 -0.7875
2.625 0.1875 -0.7875
2.6875 0.1875 -0.7875
2.75 0.1875 -0.7875
2.8125 0.1875 -0.7875
2.875 0.1875 -0.7875
2.9375 0.1875 -0.7875
3 0.1875 -0.7875
3.0625 0.1875 -0.7875
3.125 0.1875 -0.7875
3.1875 0.1875 -0.7875
3.25 0.1875 -0.7875
3.3125 0.1875 -0.7875
3.375 0.1875 -0.7875
3.4375 0.1875 -0.7875
3.5 0.1875 -0.7875
3.5625 0.1875 -0.7875
3.625 0.1875 -0.7875
3.6875 0.1875 -0.7875
3.75 0.1875 -0.7875
3.8125 0.1875 -0.7875
3.875 0.1875 -0.7875
3.9375 0.1875 -0.7875
4 0.1875 -0.7875
0 0.25 -0.7875
0.0625 0.25 -0.7875
0.125 0.25 -0.7875
0.1875 0.25 -0.7875
0.25 0.25 -0.7875
0.3125 0.25 -0.7875
0.375 0.25 -0.7875
0.4375 0.25 -0.7875
0.5 0.25 -0.7875
0.5625 0.25 -0.7875
0.625 0.25 -0.7875
0.6875 0.25 -0.7875
0.75 0.25 -0.7875
0.8125 0.25 -0.7875
0.875 0.25 -0.7875
0.9375 0.25 -0.7875
1 0.25 -0.7875
1.0625 0.25 -0.7875
1.125 0.25 -0.7875
1.1875 0.25 -0.7875
1.25 0.25 -0.7875
1.3125 0.25 -0.7875
1.375 0.25 -0.7875
1.4375 0.25 -0.7875
1.5 0.25 -0.7875
1.5625 0.25 -0.7875
1.625 0.25 -0.7875
1.6875 0.25 -0.7875
1.75 0.25 -0.7875
1.8125 0.25 -0.7875
1.875 0.25 -0.7875
1.9375 0.25 -0.7875
2 0.25 -0.7875
2.0625 0.25 -0.7875
2.125 0.25 -0.7875
2.1875 0.25 -0.7875
2.25 0.25 -0.7875
2.3125 0.25 -0.7875
2.375 0.25 -0.7875
2.4375 0.25 -0.7875
2.5 0.25 -0.7875
2.5625 0.25 -0.7875
2.625 0.25 -0.7875
2.6875 0.25 -0.7875
2.75 0.25 -0.7875
2.8125 0.25 -0.7875
2.875 0.25 -0.7875
2.9375 0.25 -0.7875
3 0.25 -0.7875
3.0625 0.25 -0.7875
3.125 0.25 -0.7875
3.1875 0.25 -0.7875
3.25 0.25 -0.7875
3.3125 0.25 -0.7875
3.375 0.25 -0.7875
3.4375 0.25 -0.7875
3.5 0.25 -0.7875
3.5625 0.25 -0.7875
3.625 0.25 -0.7875
3.6875 0.25 -0.7875
3.75 0.25 -0.7875
3.8125 0.25 -0.7875
3.875 0.25 -0.7875
3.9375 0.25 -0.7875
4 0.25 -0.7875
0 0.3125 -0.7875
0.0625 0.3125 -0.7875
0.125 0.3125 -0.7875
0.1875 0.3125 -0.7875
0.25 0.3125 -0.7875
0.3125 0.3125 -0.7875
0.375 0.3125 -0.7875
0.4375 0.3125 -0.7875
0.5 0.3125 -0.7875
0.5625 0.3125 -0.7875
0.625 0.3125 -0.7875
0.6875 0.3125 -0.7875
0.75 0.3125 -0.7875
0.8125 0.3125 -0.7875
0.875 0.3125 -0.7875
0.9375 0.3125 -0.7875
1 0.3125 -0.7875
1.0625 0.3125 -0.7875
1.125 0.3125 -0.7875
1.1875 0.3125 -0.7875
1.25 0.3125 -0.7875
1.3125 0.3125 -0.7875
1.375 0.3125 -0.7875
1.4375 0.3125 -0.7875
1.5 0.3125 -0.7875
1.5625 0.3125 -0.7875
1.625 0.3125 -0.7875
1.6875 0.3125 -0.7875
1.75 0.3125 -0.7875
1.8125 0.3125 -0.7875
1.875 0.3125 -0.7875
1.9375 0.3125 -0.7875
2 0.3125 -0.7875
2.0625 0.3125 -0.7875
2.125 0.3125 -0.7875
2.1875 0.3125 -0.7875
2.25 0.3125 -0.7875
2.3125 0.3125 -0.7875
2.375 0.3125 -0.7875
2.4375 0.3125 -0.7875
2.5 0.3125 -0.7875
2.5625 0.3125 -0.7875
2.625 0.3125 -0.7875
2.6875 0.3125 -0.7875
2.75 0.3125 -0.7875
2.8125 0.3125 -0.7875
2.875 0.3125 -0.7875
2.9375 0.3125 -0.7875
3 0.3125 -0.7875
3.0625 0.3125 -0.7875
3.125 0.3125 -0.7875
3.1875 0.3125 -0.7875
3.25 0.3125 -0.7875
3.3125 0.3125 -0.7875
3.375 0.3125 -0.7875
3.4375 0.3125 -0.7875
3.5 0.3125 -0.7875
3.5625 0.3125 -0.7875
3.625 0.3125 -0.7875
3.6875 0.3125 -0.7875
3.75 0.3125 -0.7875
3.8125 0.3125 -0.7875
3.875 0.3125 -0.7875
3.9375 0.3125 -0.7875
4 0.3125 -0.7875
0 0.375 -0.7875
0.0625 0.375 -0.7875
0.125 0.375 -0.7875
0.1875 0.375 -0.7875
0.25 0.375 -0.7875
0.3125 0.375 -0.7875
0.375 0.375 -0.7875
0.4375 0.375 -0.7875
0.5 0.375 -0.7875
0.5625 0.375 -0.7875
0.625 0.375 -0.7875
0.6875 0.375 -0.7875
0.75 0.375 -0.7875
0.8125 0.375 -0.7875
0.875 0.375 -0.7875
0.9375 0.375 -0.7875
1 0.375 -0.7875
1.0625 0.375 -0.7875
1.125 0.375 -0.7875
1.1875 0.375 -0.7875
1.25 0.375 -0.7875
1.3125 0.375 -0.7875
1.375 0.375 -0.7875
1.4375 0.375 -0.7875
1.5 0.375 -0.7875
1.5625 0.375 -0.7875
1.625 0.375 -0.7875
1.6875 0.375 -0.7875
1.75 0.375 -0.7875
1.8125 0.375 -0.7875
1.875 0.375 -0.7875
1.9375 0.375 -0.7875
2 0.375 -0.7875
2.0625 0.375 -0.7875
2.125 0.375 -0.7875
2.1875 0.375 -0.7875
2.25 0.375 -0.7875
2.3125 0.375 -0.7875
2.375 0.375 -0.7875
2.4375 0.375 -0.7875
2.5 0.375 -0.7875
2.5625 0.375 -0.7875
2.625 0.375 -0.7875
2.6875 0.375 -0.7875
2.75 0.375 -0.7875
2.8125 0.375 -0.7875
2.875 0.375 -0.7875
2.9375 0.375 -0.7875
3 0.375 -0.7875
3.0625 0.375 -0.7875
3.125 0.375 -0.7875
3.1875 0.375 -0.7875
3.25 0.375 -0.7875
3.3125 0.375 -0.7875
3.375 0.375 -0.7875
3.4375 0.375 -0.7875
3.5 0.375 -0.7875
3.5625 0.375 -0.7875
3.625 0.375 -0.7875
3.6875 0.375 -0.7875
3.75 0.375 -0.7875
3.8125 0.375 -0.7875
3.875 0.375 -0.7875
3.9375 0.375 -0.7875
4 0.375 -0.7875
0 0.4375 -0.7875
0.0625 0.4375 -0.7875
0.125 0.4375 -0.7875
0.1875 0.4375 -0.7875
0.25 0.4375 -0.7875
0.3125 0.4375 -0.7875
0.375 0.4375 -0.7875
0.4375 0.4375 -0.7875
0.5 0.4375 -0.7875
0.5625 0.4375 -0.7875
0.625 0.4375 -0.7875
0.6875 0.4375 -0.7875
0.75 0.4375 -0.7875
0.8125 0.4375 -0.7875
0.875 0.4375 -0.7875
0.9375 0.4375 -0.7875
1 0.4375 -0.7875
1.0625 0.4375 -0.7875
1.125 0.4375 -0.7875
1.1875 0.4375 -0.7875
1.25 0.4375 -0.7875
1.3125 0.4375 -0.7875
1.375 0.4375 -0.7875
1.4375 0.4375 -0.7875
1.5 0.4375 -0.7875
1.5625 0.4375 -0.7875
1.625 0.4375 -0.7875
1.6875 0.4375 -0.7875
1.75 0.4375 -0.7875
1.8125 0.4375 -0.7875
1.875 0.4375 -0.7875
1.9375 0.4375 -0.7875
2 0.4375 -0.7875
2.0625 0.4375 -0.7875
2.125 0.4375 -0.7875
2.1875 0.4375 -0.7875
2.25 0.4375 -0.7875
2.3125 0.4375 -0.7875
2.375 0.4375 -0.7875
2.4375 0.4375 -0.7875
2.5 0.4375 -0.7875
2.5625 0.4375 -0.7875
2.625 0.4375 -0.7875
2.6875 0.4375 -0.7875
2.75 0.4375 -0.7875
2.8125 0.4375 -0.7875
2.875 0.4375 -0.7875
2.9375 0.4375 -0.7875
3 0.4375 -0.7875
3.0625 0.4375 -0.7875
3.125 0.4375 -0.7875
3.1875 0.4375 -0.7875
3.25 0.4375 -0.7875
3.3125 0.4375 -0.7875
3.375 0.4375 -0.7875
3.4375 0.4375 -0.7875
3.5 0.4375 -0.7875
3.5625 0.4375 -0.7875
3.625 0.4375 -0.7875
3.6875 0.4375 -0.7875
3.75 0.4375 -0.7875
3.8125 0.4375 -0.7875
3.875 0.4375 -0.7875
3.9375 0.4375 -0.7875
4 0.4375 -0.7875
0 0.5 -0.7875
0.0625 0.5 -0.7875
0.125 0.5 -0.7875
0.1875 0.5 -0.7875
0.25 0.5 -0.7875
0.3125 0.5 -0.7875
0.375 0.5 -0.7875
0.4375 0.5 -0.7875
0.5 0.5 -0.7875
0.5625 0.5 -0.7875
0.625 0.5 -0.7875
0.6875 0.5 -0.7875
0.75 0.5 -0.7875
0.8125 0.5 -0.7875
0.875 0.5 -0.7875
0.9375 0.5 -0.7875
1 0.5 -0.7875
1.0625 0.5 -0.7875
1.125 0.5 -0.7875
1.1875 0.5 -0.7875
1.25 0.5 -0.7875
1.3125 0.5 -0.7875
1.375 0.5 -0.7875
1.4375 0.5 -0.7875
1.5 0.5 -0.7875
1.5625 0.5 -0.7875
1.625 0.5 -0.7875
1.6875 0.5 -0.7875
1.75 0.5 -0.7875
1.8125 0.5 -0.7875
1.875 0.5 -0.7875
1.9375 0.5 -0.7875
2 0.5 -0.7875
2.0625 0.5 -0.7875
2.125 0.5 -0.7875
2.1875 0.5 -0.7875
2.25 0.5 -0.7875
2.3125 0.5 -0.7875
2.375 0.5 -0.7875
2.4375 0.5 -0.7875
2.5 0.5 -0.7875
2.5625 0.5 -0.7875
2.625 0.5 -0.7875
2.6875 0.5 -0.7875
2.75 0.5 -0.7875
2.8125 0.5 -0.7875
2.875 0.5 -0.7875
2.9375 0.5 -0.7875
3 0.5 -0.7875
3.0625 0.5 -0.7875
3.125 0.5 -0.7875
3.1875 0.5 -0.7875
3.25 0.5 -0.7875
3.3125 0.5 -0.7875
3.375 0.5 -0.7875
3.4375 0.5 -0.7875
3.5 0.5 -0.7875
3.5625 0.5 -0.7875
3.625 0.5 -0.7875
3.6875 0.5 -0.7875
3.75 0.5 -0.7875
3.8125 0.5 -0.7875
3.875 0.5 -0.7875
3.9375 0.5 -0.7875
4 0.5 -0.7875
0 0.5625 -0.7875
0.0625 0.5625 -0.7875
0.125 0.5625 -0.7875
0.1875 0.5625 -0.7875
0.25 0.5625 -0.7875
0.3125 0.5625 -0.7875
0.375 0.5625 -0.7875
0.4375 0.5625 -0.7875
0.5 0.5625 -0.7875
0.5625 0.5625 -0.7875
0.625 0.5625 -0.7875
0.6875 0.5625 -0.7875
0.75 0.5625 -0.7875
0.8125 0.5625 -0.7875
0.875 0.5625 -0.7875
0.9375 0.5625 -0.7875
1 0.5625 -0.7875
1.0625 0.5625 -0.7875
1.125 0.5625 -0.7875
1.1875 0.5625 -0.7875
1.25 0.5625 -0.7875
1.3125 0.5625 -0.7875
1.375 0.5625 -0.7875
1.4375 0.5625 -0.7875
1.5 0.5625 -0.7875
1.5625 0.5625 -0.7875
1.625 0.5625 -0.7875
1.6875 0.5625 -0.7875
1.75 0.5625 -0.7875
1.8125 0.5625 -0.7875
1.875 0.5625 -0.7875
1.9375 0.5625 -0.7875
2 0.5625 -0.7875
2.0625 0.5625 -0.7875
2.125 0.5625 -0.7875
2.1875 0.5625 -0.7875
2.25 0.5625 -0.7875
2.3125 0.5625 -0.7875
2.375 0.5625 -0.7875
2.4375 0.5625 -0.7875
2.5 0.5625 -0.7875
2.5625 0.5625 -0.7875
2.625 0.5625 -0.7875
2.6875 0.5625 -0.7875
2.75 0.5625 -0.7875
2.8125 0.5625 -0.7875
2.875 0.5625 -0.7875
2.9375 0.5625 -0.7875
3 0.5625 -0.7875
3.0625 0.5625 -0.7875
3.125 0.5625 -0.7875
3.1875 0.5625 -0.7875
3.25 0.5625 -0.7875
3.3125 0.5625 -0.7875
3.375 0.5625 -0.7875
3.4375 0.5625 -0.7875
3.5 0.5625 -0.7875
3.5625 0.5625 -0.7875
3.625 0.5625 -0.7875
3.6875 0.5625 -0.7875
3.75 0.5625 -0.7875
3.8125 0.5625 -0.7875
3.875 0.5625 -0.7875
3.9375 0.5625 -0.7875
4 0.5625 -0.7875
0 0.625 -0.7875
0.0625 0.625 -0.7875
0.125 0.625 -0.7875
0.1875 0.625 -0.7875
0.25 0.625 -0.7875
0.3125 0.625 -0.7875
0.375 0.625 -0.7875
0.4375 0.625 -0.7875
0.5 0.625 -0.7875
0.5625 0.625 -0.7875
0.625 0.625 -0.7875
0.6875 0.625 -0.7875
0.75 0.625 -0.7875
0.8125 0.625 -0.7875
0.875 0.625 -0.7875
0.9375 0.625 -0.7875
1 0.625 -0.7875
1.0625 0.625 -0.7875
1.125 0.625 -0.7875
1.1875 0.625 -0.7875
1.25 0.625 -0.7875
1.3125 0.625 -0.7875
1.375 0.625 -0.7875
1.4375 0.625 -0.7875
1.5 0.625 -0.7875
1.5625 0.625 -0.7875
1.625 0.625 -0.7875
1.6875 0.625 -0.7875
1.75 0.625 -0.7875
1.8125 0.625 -0.7875
1.875 0.625 -0.7875
1.9375 0.625 -0.7875
2 0.625 -0.7875
2.0625 0.625 -0.7875
2.125 0.625 -0.7875
2.1875 0.625 -0.7875
2.25 0.625 -0.7875
2.3125 0.625 -0.7875
2.375 0.625 -0.7875
2.4375 0.625 -0.7875
2.5 0.625 -0.7875
2.5625 0.625 -0.7875
2.625 0.625 -0.7875
2.6875 0.625 -0.7875
2.75 0.625 -0.7875
2.8125 0.625 -0.7875
2.875 0.625 -0.7875
2.9375 0.625 -0.7875
3 0.625 -0.7875
3.0625 0.625 -0.7875
3.125 0.625 -0.7875
3.1875 0.625 -0.7875
3.25 0.625 -0.7875
3.3125 0.625 -0.7875
3.375 0.625 -0.7875
3.4375 0.625 -0.7875
3.5 0.625 -0.7875
3.5625 0.625 -0.7875
3.625 0.625 -0.7875
3.6875 0.625 -0.7875
3.75 0.625 -0.7875
3.8125 0.625 -0.7875
3.875 0.625 -0.7875
3.9375 0.625 -0.7875
4 0.625 -0.7875
0 0.6875 -0.7875
0.0625 0.6875 -0.7875
0.125 0.6875 -0.7875
0.1875 0.6875 -0.7875
0.25 0.6875 -0.7875
0.3125 0.6875 -0.7875
0.375 0.6875 -0.7875
0.4375 0.6875 -0.7875
0.5 0.6875 -0.7875
0.5625 0.6875 -0.7875
0.625 0.6875 -0.7875
0.6875 0.6875 -0.7875
0.75 0.6875 -0.7875
0.8125 0.6875 -0.7875
0.875 0.6875 -0.7875
0.9375 0.6875 -0.7875
1 0.6875 -0.7875
1.0625 0.6875 -0.7875
1.125 0.6875 -0.7875
1.1875 0.6875 -0.7875
1.25 0.6875 -0.7875
1.3125 0.6875 -0.7875
1.375 0.6875 -0.7875
1.4375 0.6875 -0.7875
1.5 0.6875 -0.7875
1.5625 0.6875 -0.7875
1.625 0.6875 -0.7875
1.6875 0.6875 -0.7875
1.75 0.6875 -0.7875
1.8125 0.6875 -0.7875
1.875 0.6875 -0.7875
1.9375 0.6875 -0.7875
2 0.6875 -0.7875
2.0625 0.6875 -0.7875
2.125 0.6875 -0.7875
2.1875 0.6875 -0.7875
2.25 0.6875 -0.7875
2.3125 0.6875 -0.7875
2.375 0.6875 -0.7875
2.4375 0.6875 -0.7875
2.5 0.6875 -0.7875
2.5625 0.6875 -0.7875
2.625 0.6875 -0.7875
2.6875 0.6875 -0.7875
2.75 0.6875 -0.7875
2.8125 0.6875 -0.7875
2.875 0.6875 -0.7875
2.9375 0.6875 -0.7875
3 0.6875 -0.7875
3.0625 0.6875 -0.7875
3.125 0.6875 -0.7875
3.1875 0.6875 -0.7875
3.25 0.6875 -0.7875
3.3125 0.6875 -0.7875
3.375 0.6875 -0.7875
3.4375 0.6875 -0.7875
3.5 0.6875 -0.7875
3.5625 0.6875 -0.7875
3.625 0.6875 -0.7875
3.6875 0.6875 -0.7875
3.75 0.6875 -0.7875
3.8125 0.6875 -0.7875
3.875 0.6875 -0.7875
3.9375 0.6875 -0.7875
4 0.6875 -0.7875
0 0.75 -0.7875
0.0625 0.75 -0.7875
0.125 0.75 -0.7875
0.1875 0.75 -0.7875
0.25 0.75 -0.7875
0.3125 0.75 -0.7875
0.375 0.75 -0.7875
0.4375 0.75 -0.7875
0.5 0.75 -0.7875
0.5625 0.75 -0.7875
0.625 0.75 -0.7875
0.6875 0.75 -0.7875
0.75 0.75 -0.7875
0.8125 0.75 -0.7875
0.875 0.75 -0.7875
0.9375 0.75 -0.7875
1 0.75 -0.7875
1.0625 0.75 -0.7875
1.125 0.75 -0.7875
1.1875 0.75 -0.7875
1.25 0.75 -0.7875
1.3125 0.75 -0.7875
1.375 0.75 -0.7875
1.4375 0.75 -0.7875
1.5 0.75 -0.7875
1.5625 0.75 -0.7875
1.625 0.75 -0.7875
1.6875 0.75 -0.7875
1.75 0.75 -0.7875
1.8125 0.75 -0.7875
1.875 0.75 -0.7875
1.9375 0.75 -0.7875
2 0.75 -0.7875
2.0625 0.75 -0.7875
2.125 0.75 -0.7875
2.1875 0.75 -0.7875
2.25 0.75 -0.7875
2.3125 0.75 -0.7875
2.375 0.75 -0.7875
2.4375 0.75 -0.7875
2.5 0.75 -0.7875
2.5625 0.75 -0.7875
2.625 0.75 -0.7875
2.6875 0.75 -0.7875
2.75 0.75 -0.7875
2.8125 0.75 -0.7875
2.875 0.75 -0.7875
2.9375 0.75 -0.7875
3 0.75 -0.7875
3.0625 0.75 -0.7875
3.125 0.75 -0.7875
3.1875 0.75 -0.7875
3.25 0.75 -0.7875
3.3125 0.75 -0.7875
3.375 0.75 -0.7875
3.4375 0.75 -0.7875
3.5 0.75 -0.7875
3.5625 0.75 -0.7875
3.625 0.75 -0.7875
3.6875 0.75 -0.7875
3.75 0.75 -0.7875
3.8125 0.75 -0.7875
3.875 0.75 -0.7875
3.9375 0.75 -0.7875
4 0.75 -0.7875
0 0.8125 -0.7875
0.0625 0.8125 -0.7875
0.125 0.8125 -0.7875
0.1875 0.8125 -0.7875
0.25 0.8125 -0.7875
0.3125 0.8125 -0.7875
0.375 0.8125 -0.7875
0.4375 0.8125 -0.7875
0.5 0.8125 -0.7875
0.5625 0.8125 -0.7875
0.625 0.8125 -0.7875
0.6875 0.8125 -0.7875
0.75 0.8125 -0.7875
0.8125 0.8125 -0.7875
0.875 0.8125 -0.7875
0.9375 0.8125 -0.7875
1 0.8125 -0.7875
1.0625 0.8125 -0.7875
1.125 0.8125 -0.7875
1.1875 0.8125 -0.7875
1.25 0.8125 -0.7875
1.3125 0.8125 -0.7875
1.375 0.8125 -0.7875
1.4375 0.8125 -0.7875
1.5 0.8125 -0.7875
1.5625 0.8125 -0.7875
1.625 0.8125 -0.7875
1.6875 0.8125 -0.7875
1.75 0.8125 -0.7875
1.8125 0.8125 -0.7875
1.875 0.8125 -0.7875
1.9375 0.8125 -0.7875
2 0.8125 -0.7875
2.0625 0.8125 -0.7875
2.125 0.8125 -0.7875
2.1875 0.8125 -0.7875
2.25 0.8125 -0.7875
2.3125 0.8125 -0.7875
2.375 0.8125 -0.7875
2.4375 0.8125 -0.7875
2.5 0.8125 -0.7875
2.5625 0.8125 -0.7875
2.625 0.8125 -0.7875
2.6875 0.8125 -0.7875
2.75 0.8125 -0.7875
2.8125 0.8125 -0.7875
2.875 0.8125 -0.7875
2.9375 0.8125 -0.7875
3 0.8125 -0.7875
3.0625 0.8125 -0.7875
3.125 0.8125 -0.7875
3.1875 0.8125 -0.7875
3.25 0.8125 -0.7875
3.3125 0.8125 -0.7875
3.375 0.8125 -0.7875
3.4375 0.8125 -0.7875
3.5 0.8125 -0.7875
3.5625 0.8125 -0.7875
3.625 0.8125 -0.7875
3.6875 0.8125 -0.7875
3.75 0.8125 -0.7875
3.8125 0.8125 -0.7875
3.875 0.8125 -0.7875
3.9375 0.8125 -0.7875
4 0.8125 -0.7875
0 0.875 -0.7875
0.0625 0.875 -0.7875
0.125 0.875 -0.7875
0.1875 0.875 -0.7875
0.25 0.875 -0.7875
0.3125 0.875 -0.7875
0.375 0.875 -0.7875
0.4375 0.875 -0.7875
0.5 0.875 -0.7875
0.5625 0.875 -0.7875
0.625 0.875 -0.7875
0.6875 0.875 -0.7875
0.75 0.875 -0.7875
0.8125 0.875 -0.7875
0.875 0.875 -0.7875
0.9375 0.875 -0.7875
1 0.875 -0.7875
1.0625 0.875 -0.7875
1.125 0.875 -0.7875
1.1875 0.875 -0.7875
1.25 0.875 -0.7875
1.3125 0.875 -0.7875
1.375 0.875 -0.7875
1.4375 0.875 -0.7875
1.5 0.875 -0.7875
1.5625 0.875 -0.7875
1.625 0.875 -0.7875
1.6875 0.875 -0.7875
1.75 0.875 -0.7875
1.8125 0.875 -0.7875
1.875 0.875 -0.7875
1.9375 0.875 -0.7875
2 0.875 -0.7875
2.0625 0.875 -0.7875
2.125 0.875 -0.7875
2.1875 0.875 -0.7875
2.25 0.875 -0.7875
2.3125 0.875 -0.7875
2.375 0.875 -0.7875
2.4375 0.875 -0.7875
2.5 0.875 -0.7875
2.5625 0.875 -0.7875
2.625 0.875 -0.7875
2.6875 0.875 -0.7875
2.75 0.875 -0.7875
2.8125 0.875 -0.7875
2.875 0.875 -0.7875
2.9375 0.875 -0.7875
3 0.875 -0.7875
3.0625 0.875 -0.7875
3.125 0.875 -0.7875
3.1875 0.875 -0.7875
3.25 0.875 -0.7875
3.3125 0.875 -0.7875
3.375 0.875 -0.7875
3.4375 0.875 -0.7875
3.5 0.875 -0.7875
3.5625 0.875 -0.7875
3.625 0.875 -0.7875
3.6875 0.875 -0.7875
3.75 0.875 -0.7875
3.8125 0.875 -0.7875
3.875 0.875 -0.7875
3.9375 0.875 -0.7875
4 0.875 -0.7875
0 0.9375 -0.7875
0.0625 0.9375 -0.7875
0.125 0.9375 -0.7875
0.1875 0.9375 -0.7875
0.25 0.9375 -0.7875
0.3125 0.9375 -0.7875
0.375 0.9375 -0.7875
0.4375 0.9375 -0.7875
0.5 0.9375 -0.7875
0.5625 0.9375 -0.7875
0.625 0.9375 -0.7875
0.6875 0.9375 -0.7875
0.75 0.9375 -0.7875
0.8125 0.9375 -0.7875
0.875 0.9375 -0.7875
0.9375 0.9375 -0.7875
1 0.9375 -0.7875
1.0625 0.9375 -0.7875
1.125 0.9375 -0.7875
1.1875 0.9375 -0.7875
1.25 0.9375 -0.7875
1.3125 0.9375 -0.7875
1.375 0.9375 -0.7875
1.4375 0.9375 -0.7875
1.5 0.9375 -0.7875
1.5625 0.9375 -0.7875
1.625 0.9375 -0.7875
1.6875 0.9375 -0.7875
1.75 0.9375 -0.7875
1.8125 0.9375 -0.7875
1.875 0.9375 -0.7875
1.9375 0.9375 -0.7875
2 0.9375 -0.7875
2.0625 0.9375 -0.7875
2.125 0.9375 -0.7875
2.1875 0.9375 -0.7875
2.25 0.9375 -0.7875
2.3125 0.9375 -0.7875
2.375 0.9375 -0.7875
2.4375 0.9375 -0.7875
2.5 0.9375 -0.7875
2.5625 0.9375 -0.7875
2.625 0.9375 -0.7875
2.6875 0.9375 -0.7875
2.75 0.9375 -0.7875
2.8125 0.9375 -0.7875
2.875 0.9375 -0.7875
2.9375 0.9375 -0.7875
3 0.9375 -0.7875
3.0625 0.9375 -0.7875
3.125 0.9375 -0.7875
3.1875 0.9375 -0.7875
3.25 0.9375 -0.7875
3.3125 0.9375 -0.7875
3.375 0.9375 -0.7875
3.4375 0.9375 -0.7875
3.5 0.9375 -0.7875
3.5625 0.9375 -0.7875
3.625 0.9375 -0.7875
3.6875 0.9375 -0.7875
3.75 0.9375 -0.7875
3.8125 0.9375 -0.7875
3.875 0.9375 -0.7875
3.9375 0.9375 -0.7875
4 0.9375 -0.7875
0 1 -0.7875
0.0625 1 -0.7875
0.125 1 -0.7875
0.1875 1 -0.7875
0.25 1 -0.7875
0.3125 1 -0.7875
0.375 1 -0.7875
0.4375 1 -0.7875
0.5 1 -0.7875
0.5625 1 -0.7875
0.625 1 -0.7875
0.6875 1 -0.7875
0.75 1 -0.7875
0.8125 1 -0.7875
0.875 1 -0.7875
0.9375 1 -0.7875
1 1 -0.7875
1.0625 1 -0.7875
1.125 1 -0.7875
1.1875 1 -0.7875
1.25 1 -0.7875
1.3125 1 -0.7875
1.375 1 -0.7875
1.4375 1 -0.7875
1.5 1 -0.7875
1.5625 1 -0.7875
1.625 1 -0.7875
1.6875 1 -0.7875
1.75 1 -0.7875
1.8125 1 -0.7875
1.875 1 -0.7875
1.9375 1 -0.7875
2 1 -0.7875
2.0625 1 -0.7875
2.125 1 -0.7875
2.1875 1 -0.7875
2.25 1 -0.7875
2.3125 1 -0.7875
2.375 1 -0.7875
2.4375 1 -0.7875
2.5 1 -0.7875
2.5625 1 -0.7875
2.625 1 -0.7875
2.6875 1 -0.7875
2.75 1 -0.7875
2.8125 1 -0.7875
2.875 1 -0.7875
2.9375 1 -0.7875
3 1 -0.7875
3.0625 1 -0.7875
3.125 1 -0.7875
3.1875 1 -0.7875
3.25 1 -0.7875
3.3125 1 -0.7875
3.375 1 -0.7875
3.4375 1 -0.7875
3.5 1 -0.7875
3.5625 1 -0.7875
3.625 1 -0.7875
3.6875 1 -0.7875
3.75 1 -0.7875
3.8125 1 -0.7875
3.875 1 -0.7875
3.9375 1 -0.7875
4 1 -0.7875
0 0 -0.725
0.0625 0 -0.725
0.125 0 -0.725
0.1875 0 -0.725
0.25 0 -0.725
0.3125 0 -0.725
0.375 0 -0.725
0.4375 0 -0.725
0.5 0 -0.725
0.5625 0 -0.725
0.625 0 -0.725
0.6875 0 -0.725
0.75 0 -0.725
0.8125 0 -0.725
0.875 0 -0.725
0.9375 0 -0.725
1 0 -0.725
1.0625 0 -0.725
1.125 0 -0.725
1.1875 0 -0.725
1.25 0 -0.725
1.3125 0 -0.725
1.375 0 -0.725
1.4375 0 -0.725
1.5 0 -0.725
1.5625 0 -0.725
1.625 0 -0.725
1.6875 0 -0.725
1.75 0 -0.725
1.8125 0 -0.725
1.875 0 -0.725
1.9375 0 -0.725
2 0 -0.725
2.0625 0 -0.725
2.125 0 -0.725
2.1875 0 -0.725
2.25 0 -0.725
2.3125 0 -0.725
2.375 0 -0.725
2.4375 0 -0.725
2.5 0 -0.725
2.5625 0 -0.725
2.625 0 -0.725
2.6875 0 -0.725
2.75 0 -0.725
2.8125 0 -0.725
2.875 0 -0.725
2.9375 0 -0.725
3 0 -0.725
3.0625 0 -0.725
3.125 0 -0.725
3.1875 0 -0.725
3.25 0 -0.725
3.3125 0 -0.725
3.375 0 -0.725
3.4375 0 -0.725
3.5 0 -0.725
3.5625 0 -0.725
3.625 0 -0.725
3.6875 0 -0.725
3.75 0 -0.725
3.8125 0 -0.725
3.875 0 -0.725
3.9375 0 -0.725
4 0 -0.725
0 0.0625 -0.725
0.0625 0.0625 -0.725
0.125 0.0625 -0.725
0.1875 0.0625 -0.725
0.25 0.0625 -0.725
0.3125 0.0625 -0.725
0.375 0.0625 -0.725
0.4375 0.0625 -0.725
0.5 0.0625 -0.725
0.5625 0.0625 -0.725
0.625 0.0625 -0.725
0.6875 0.0625 -0.725
0.75 0.0625 -0.725
0.8125 0.0625 -0.725
0.875 0.0625 -0.725
0.9375 0.0625 -0.725
1 0.0625 -0.725
1.0625 0.0625 -0.725
1.125 0.0625 -0.725
1.1875 0.0625 -0.725
1.25 0.0625 -0.725
1.3125 0.0625 -0.725
1.375 0.0625 -0.725
1.4375 0.0625 -0.725
1.5 0.0625 -0.725
1.5625 0.0625 -0.725
1.625 0.0625 -0.725
1.6875 0.0625 -0.725
1.75 0.0625 -0.725
1.8125 0.0625 -0.725
1.875 0.0625 -0.725
1.9375 0.0625 -0.725
2 0.0625 -0.725
2.0625 0.0625 -0.725
2.125 0.0625 -0.725
2.1875 0.0625 -0.725
2.25 0.0625 -0.725
2.3125 0.0625 -0.725
2.375 0.0625 -0.725
2.4375 0.0625 -0.725
2.5 0.0625 -0.725
2.5625 0.0625 -0.725
2.625 0.0625 -0.725
2.6875 0.0625 -0.725
2.75 0.0625 -0.725
2.8125 0.0625 -0.725
2.875 0.0625 -0.725
2.9375 0.0625 -0.725
3 0.0625 -0.725
3.0625 0.0625 -0.725
3.125 0.0625 -0.725
3.1875 0.0625 -0.725
3.25 0.0625 -0.725
3.3125 0.0625 -0.725
3.375 0.0625 -0.725
3.4375 0.0625 -0.725
3.5 0.0625 -0.725
3.5625 0.0625 -0.725
3.625 0.0625 -0.725
3.6875 0.0625 -0.725
3.75 0.0625 -0.725
3.8125 0.0625 -0.725
3.875 0.0625 -0.725
3.9375 0.0625 -0.725
4 0.0625 -0.725
0 0.125 -0.725
0.0625 0.125 -0.725
0.125 0.125 -0.725
0.1875 0.125 -0.725
0.25 0.125 -0.725
0.3125 0.125 -0.725
0.375 0.125 -0.725
0.4375 0.125 -0.725
0.5 0.125 -0.725
0.5625 0.125 -0.725
0.625 0.125 -0.725
0.6875 0.125 -0.725
0.75 0.125 -0.725
0.8125 0.125 -0.725
0.875 0.125 -0.725
0.9375 0.125 -0.725
1 0.125 -0.725
1.0625 0.125 -0.725
1.125 0.125 -0.725
1.1875 0.125 -0.725
1.25 0.125 -0.725
1.3125 0.125 -0.725
1.375 0.125 -0.725
1.4375 0.125 -0.725
1.5 0.125 -0.725
1.5625 0.125 -0.725
1.625 0.125 -0.725
1.6875 0.125 -0.725
1.75 0.125 -0.725
1.8125 0.125 -0.725
1.875 0.125 -0.725
1.9375 0.125 -0.725
2 0.125 -0.725
2.0625 0.125 -0.725
2.125 0.125 -0.725
2.1875 0.125 -0.725
2.25 0.125 -0.725
2.3125 0.125 -0.725
2.375 0.125 -0.725
2.4375 0.125 -0.725
2.5 0.125 -0.725
2.5625 0.125 -0.725
2.625 0.125 -0.725
2.6875 0.125 -0.725
2.75 0.125 -0.725
2.8125 0.125 -0.725
2.875 0.125 -0.725
2.9375 0.125 -0.725
3 0.125 -0.725
3.0625 0.125 -0.725
3.125 0.125 -0.725
3.1875 0.125 -0.725
3.25 0.125 -0.725
3.3125 0.125 -0.725
3.375 0.125 -0.725
3.4375 0.125 -0.725
3.5 0.125 -0.725
3.5625 0.125 -0.725
3.625 0.125 -0.725
3.6875 0.125 -0.725
3.75 0.125 -0.725
3.8125 0.125 -0.725
3.875 0.125 -0.725
3.9375 0.125 -0.725
4 0.125 -0.725
0 0.1875 -0.725
0.0625 0.1875 -0.725
0.125 0.1875 -0.725
0.1875 0.1875 -0.725
0.25 0.1875 -0.725
0.3125 0.1875 -0.725
0.375 0.1875 -0.725
0.4375 0.1875 -0.725
0.5 0.1875 -0.725
0.5625 0.1875 -0.725
0.625 0.1875 -0.725
0.6875 0.1875 -0.725
0.75 0.1875 -0.725
0.8125 0.1875 -0.725
0.875 0.1875 -0.725
0.9375 0.1875 -0.725
1 0.1875 -0.725
1.0625 0.1875 -0.725
1.125 0.1875 -0.725
1.1875 0.1875 -0.725
1.25 0.1875 -0.725
1.3125 0.1875 -0.725
1.375 0.1875 -0.725
1.4375 0.1875 -0.725
1.5 0.1875 -0.725
1.5625 0.1875 -0.725
1.625 0.1875 -0.725
1.6875 0.1875 -0.725
1.75 0.1875 -0.725
1.8125 0.1875 -0.725
1.875 0.1875 -0.725
1.9375 0.1875 -0.725
2 0.1875 -0.725
2.0625 0.1875 -0.725
2.125 0.1875 -0.725
2.1875 0.1875 -0.725
2.25 0.1875 -0.725
2.3125 0.1875 -0.725
2.375 0.1875 -0.725
2.4375 0.1875 -0.725
2.5 0.1875 -0.725
2.5625 0.1875 -0.725
2.625 0.1875 -0.725
2.6875 0.1875 -0.725
2.75 0.1875 -0.725
2.8125 0.1875 -0.725
2.875 0.1875 -0.725
2.9375 0.1875 -0.725
3 0.1875 -0.725
3.0625 0.1875 -0.725
3.125 0.1875 -0.725
3.1875 0.1875 -0.725
3.25 0.1875 -0.725
3.3125 0.1875 -0.725
3.375 0.1875 -0.725
3.4375 0.1875 -0.725
3.5 0.1875 -0.725
3.5625 0.1875 -0.725
3.625 0.1875 -0.725
3.6875 0.1875 -0.725
3.75 0.1875 -0.725
3.8125 0.1875 -0.725
3.875 0.1875 -0.725
3.9375 0.1875 -0.725
4 0.1875 -0.725
0 0.25 -0.725
0.0625 0.25 -0.725
0.125 0.25 -0.725
0.1875 0.25 -0.725
0.25 0.25 -0.725
0.3125 0.25 -0.725
0.375 0.25 -0.725
0.4375 0.25 -0.725
0.5 0.25 -0.725
0.5625 0.25 -0.725
0.625 0.25 -0.725
0.6875 0.25 -0.725
0.75 0.25 -0.725
0.8125 0.25 -0.725
0.875 0.25 -0.725
0.9375 0.25 -0.725
1 0.25 -0.725
1.0625 0.25 -0.725
1.125 0.25 -0.725
1.1875 0.25 -0.725
1.25 0.25 -0.725
1.3125 0.25 -0.725
1.375 0.25 -0.725
1.4375 0.25 -0.725
1.5 0.25 -0.725
1.5625 0.25 -0.725
1.625 0.25 -0.725
1.6875 0.25 -0.725
1.75 0.25 -0.725
1.8125 0.25 -0.725
1.875 0.25 -0.725
1.9375 0.25 -0.725
2 0.25 -0.725
2.0625 0.25 -0.725
2.125 0.25 -0.725
2.1875 0.25 -0.725
2.25 0.25 -0.725
2.3125 0.25 -0.725
2.375 0.25 -0.725
2.4375 0.25 -0.725
2.5 0.25 -0.725
2.5625 0.25 -0.725
2.625 0.25 -0.725
2.6875 0.25 -0.725
2.75 0.25 -0.725
2.8125 0.25 -0.725
2.875 0.25 -0.725
2.9375 0.25 -0.725
3 0.25 -0.725
3.0625 0.25 -0.725
3.125 0.25 -0.725
3.1875 0.25 -0.725
3.25 0.25 -0.725
3.3125 0.25 -0.725
3.375 0.25 -0.725
3.4375 0.25 -0.725
3.5 0.25 -0.725
3.5625 0.25 -0.725
3.625 0.25 -0.725
3.6875 0.25 -0.725
3.75 0.25 -0.725
3.8125 0.25 -0.725
3.875 0.25 -0.725
3.9375 0.25 -0.725
4 0.25 -0.725
0 0.3125 -0.725
0.0625 0.3125 -0.725
0.125 0.3125 -0.725
0.1875 0.3125 -0.725
0.25 0.3125 -0.725
0.3125 0.3125 -0.725
0.375 0.3125 -0.725
0.4375 0.3125 -0.725
0.5 0.3125 -0.725
0.5625 0.3125 -0.725
0.625 0.3125 -0.725
0.6875 0.3125 -0.725
0.75 0.3125 -0.725
0.8125 0.3125 -0.725
0.875 0.3125 -0.725
0.9375 0.3125 -0.725
1 0.3125 -0.725
1.0625 0.3125 -0.725
1.125 0.3125 -0.725
1.1875 0.3125 -0.725
1.25 0.3125 -0.725
1.3125 0.3125 -0.725
1.375 0.3125 -0.725
1.4375 0.3125 -0.725
1.5 0.3125 -0.725
1.5625 0.3125 -0.725
1.625 0.3125 -0.725
1.6875 0.3125 -0.725
1.75 0.3125 -0.725
1.8125 0.3125 -0.725
1.875 0.3125 -0.725
1.9375 0.3125 -0.725
2 0.3125 -0.725
2.0625 0.3125 -0.725
2.125 0.3125 -0.725
2.1875 0.3125 -0.725
2.25 0.3125 -0.725
2.3125 0.3125 -0.725
2.375 0.3125 -0.725
2.4375 0.3125 -0.725
2.5 0.3125 -0.725
2.5625 0.3125 -0.725
2.625 0.3125 -0.725
2.6875 0.3125 -0.725
2.75 0.3125 -0.725
2.8125 0.3125 -0.725
2.875 0.3125 -0.725
2.9375 0.3125 -0.725
3 0.3125 -0.725
3.0625 0.3125 -0.725
3.125 0.3125 -0.725
3.1875 0.3125 -0.725
3.25 0.3125 -0.725
3.3125 0.3125 -0.725
3.375 0.3125 -0.725
3.4375 0.3125 -0.725
3.5 0.3125 -0.725
3.5625 0.3125 -0.725
3.625 0.3125 -0.725
3.6875 0.3125 -0.725
3.75 0.3125 -0.725
3.8125 0.3125 -0.725
3.875 0.3125 -0.725
3.9375 0.3125 -0.725
4 0.3125 -0.725
0 0.375 -0.725
0.0625 0.375 -0.725
0.125 0.375 -0.725
0.1875 0.375 -0.725
0.25 0.375 -0.725
0.3125 0.375 -0.725
0.375 0.375 -0.725
0.4375 0.375 -0.725
0.5 0.375 -0.725
0.5625 0.375 -0.725
0.625 0.375 -0.725
0.6875 0.375 -0.725
0.75 0.375 -0.725
0.8125 0.375 -0.725
0.875 0.375 -0.725
0.9375 0.375 -0.725
1 0.375 -0.725
1.0625 0.375 -0.725
1.125 0.375 -0.725
1.1875 0.375 -0.725
1.25 0.375 -0.725
1.3125 0.375 -0.725
1.375 0.375 -0.725
1.4375 0.375 -0.725
1.5 0.375 -0.725
1.5625 0.375 -0.725
1.625 0.375 -0.725
1.6875 0.375 -0.725
1.75 0.375 -0.725
1.8125 0.375 -0.725
1.875 0.375 -0.725
1.9375 0.375 -0.725
2 0.375 -0.725
2.0625 0.375 -0.725
2.125 0.375 -0.725
2.1875 0.375 -0.725
2.25 0.375 -0.725
2.3125 0.375 -0.725
2.375 0.375 -0.725
2.4375 0.375 -0.725
2.5 0.375 -0.725
2.5625 0.375 -0.725
2.625 0.375 -0.725
2.6875 0.375 -0.725
2.75 0.375 -0.725
2.8125 0.375 -0.725
2.875 0.375 -0.725
2.9375 0.375 -0.725
3 0.375 -0.725
3.0625 0.375 -0.725
3.125 0.375 -0.725
3.1875 0.375 -0.725
3.25 0.375 -0.725
3.3125 0.375 -0.725
3.375 0.375 -0.725
3.4375 0.375 -0.725
3.5 0.375 -0.725
3.5625 0.375 -0.725
3.625 0.375 -0.725
3.6875 0.375 -0.725
3.75 0.375 -0.725
3.8125 0.375 -0.725
3.875 0.375 -0.725
3.9375 0.375 -0.725
4 0.375 -0.725
0 0.4375 -0.725
0.0625 0.4375 -0.725
0.125 0.4375 -0.725
0.1875 0.4375 -0.725
0.25 0.4375 -0.725
0.3125 0.4375 -0.725
0.375 0.4375 -0.725
0.4375 0.4375 -0.725
0.5 0.4375 -0.725
0.5625 0.4375 -0.725
0.625 0.4375 -0.725
0.6875 0.4375 -0.725
0.75 0.4375 -0.725
0.8125 0.4375 -0.725
0.875 0.4375 -0.725
0.9375 0.4375 -0.725
1 0.4375 -0.725
1.0625 0.4375 -0.725
1.125 0.4375 -0.725
1.1875 0.4375 -0.725
1.25 0.4375 -0.725
1.3125 0.4375 -0.725
1.375 0.4375 -0.725
1.4375 0.4375 -0.725
1.5 0.4375 -0.725
1.5625 0.4375 -0.725
1.625 0.4375 -0.725
1.6875 0.4375 -0.725
1.75 0.4375 -0.725
1.8125 0.4375 -0.725
1.875 0.4375 -0.725
1.9375 0.4375 -0.725
2 0.4375 -0.725
2.0625 0.4375 -0.725
2.125 0.4375 -0.725
2.1875 0.4375 -0.725
2.25 0.4375 -0.725
2.3125 0.4375 -0.725
2.375 0.4375 -0.725
2.4375 0.4375 -0.725
2.5 0.4375 -0.725
2.5625 0.4375 -0.725
2.625 0.4375 -0.725
2.6875 0.4375 -0.725
2.75 0.4375 -0.725
2.8125 0.4375 -0.725
2.875 0.4375 -0.725
2.9375 0.4375 -0.725
3 0.4375 -0.725
3.0625 0.4375 -0.725
3.125 0.4375 -0.725
3.1875 0.4375 -0.725
3.25 0.4375 -0.725
3.3125 0.4375 -0.725
3.375 0.4375 -0.725
3.4375 0.4375 -0.725
3.5 0.4375 -0.725
3.5625 0.4375 -0.725
3.625 0.4375 -0.725
3.6875 0.4375 -0.725
3.75 0.4375 -0.725
3.8125 0.4375 -0.725
3.875 0.4375 -0.725
3.9375 0.4375 -0.725
4 0.4375 -0.725
0 0.5 -0.725
0.0625 0.5 -0.725
0.125 0.5 -0.725
0.1875 0.5 -0.725
0.25 0.5 -0.725
0.3125 0.5 -0.725
0.375 0.5 -0.725
0.4375 0.5 -0.725
0.5 0.5 -0.725
0.5625 0.5 -0.725
0.625 0.5 -0.725
0.6875 0.5 -0.725
0.75 0.5 -0.725
0.8125 0.5 -0.725
0.875 0.5 -0.725
0.9375 0.5 -0.725
1 0.5 -0.725
1.0625 0.5 -0.725
1.125 0.5 -0.725
1.1875 0.5 -0.725
1.25 0.5 -0.725
1.3125 0.5 -0.725
1.375 0.5 -0.725
1.4375 0.5 -0.725
1.5 0.5 -0.725
1.5625 0.5 -0.725
1.625 0.5 -0.725
1.6875 0.5 -0.725
1.75 0.5 -0.725
1.8125 0.5 -0.725
1.875 0.5 -0.725
1.9375 0.5 -0.725
2 0.5 -0.725
2.0625 0.5 -0.725
2.125 0.5 -0.725
2.1875 0.5 -0.725
2.25 0.5 -0.725
2.3125 0.5 -0.725
2.375 0.5 -0.725
2.4375 0.5 -0.725
2.5 0.5 -0.725
2.5625 0.5 -0.725
2.625 0.5 -0.725
2.6875 0.5 -0.725
2.75 0.5 -0.725
2.8125 0.5 -0.725
2.875 0.5 -0.725
2.9375 0.5 -0.725
3 0.5 -0.725
3.0625 0.5 -0.725
3.125 0.5 -0.725
3.1875 0.5 -0.725
3.25 0.5 -0.725
3.3125 0.5 -0.725
3.375 0.5 -0.725
3.4375 0.5 -0.725
3.5 0.5 -0.725
3.5625 0.5 -0.725
3.625 0.5 -0.725
3.6875 0.5 -0.725
3.75 0.5 -0.725
3.8125 0.5 -0.725
3.875 0.5 -0.725
3.9375 0.5 -0.725
4 0.5 -0.725
0 0.5625 -0.725
0.0625 0.5625 -0.725
0.125 0.5625 -0.725
0.1875 0.5625 -0.725
0.25 0.5625 -0.725
0.3125 0.5625 -0.725
0.375 0.5625 -0.725
0.4375 0.5625 -0.725
0.5 0.5625 -0.725
0.5625 0.5625 -0.725
0.625 0.5625 -0.725
0.6875 0.5625 -0.725
0.75 0.5625 -0.725
0.8125 0.5625 -0.725
0.875 0.5625 -0.725
0.9375 0.5625 -0.725
1 0.5625 -0.725
1.0625 0.5625 -0.725
1.125 0.5625 -0.725
1.1875 0.5625 -0.725
1.25 0.5625 -0.725
1.3125 0.5625 -0.725
1.375 0.5625 -0.725
1.4375 0.5625 -0.725
1.5 0.5625 -0.725
1.5625 0.5625 -0.725
1.625 0.5625 -0.725
1.6875 0.5625 -0.725
1.75 0.5625 -0.725
1.8125 0.5625 -0.725
1.875 0.5625 -0.725
1.9375 0.5625 -0.725
2 0.5625 -0.725
2.0625 0.5625 -0.725
2.125 0.5625 -0.725
2.1875 0.5625 -0.725
2.25 0.5625 -0.725
2.3125 0.5625 -0.725
2.375 0.5625 -0.725
2.4375 0.5625 -0.725
2.5 0.5625 -0.725
2.5625 0.5625 -0.725
2.625 0.5625 -0.725
2.6875 0.5625 -0.725
2.75 0.5625 -0.725
2.8125 0.5625 -0.725
2.875 0.5625 -0.725
2.9375 0.5625 -0.725
3 0.5625 -0.725
3.0625 0.5625 -0.725
3.125 0.5625 -0.725
3.1875 0.5625 -0.725
3.25 0.5625 -0.725
3.3125 0.5625 -0.725
3.375 0.5625 -0.725
3.4375 0.5625 -0.725
3.5 0.5625 -0.725
3.5625 0.5625 -0.725
3.625 0.5625 -0.725
3.6875 0.5625 -0.725
3.75 0.5625 -0.725
3.8125 0.5625 -0.725
3.875 0.5625 -0.725
3.9375 0.5625 -0.725
4 0.5625 -0.725
0 0.625 -0.725
0.0625 0.625 -0.725
0.125 0.625 -0.725
0.1875 0.625 -0.725
0.25 0.625 -0.725
0.3125 0.625 -0.725
0.375 0.625 -0.725
0.4375 0.625 -0.725
0.5 0.625 -0.725
0.5625 0.625 -0.725
0.625 0.625 -0.725
0.6875 0.625 -0.725
0.75 0.625 -0.725
0.8125 0.625 -0.725
0.875 0.625 -0.725
0.9375 0.625 -0.725
1 0.625 -0.725
1.0625 0.625 -0.725
1.125 0.625 -0.725
1.1875 0.625 -0.725
1.25 0.625 -0.725
1.3125 0.625 -0.725
1.375 0.625 -0.725
1.4375 0.625 -0.725
1.5 0.625 -0.725
1.5625 0.625 -0.725
1.625 0.625 -0.725
1.6875 0.625 -0.725
1.75 0.625 -0.725
1.8125 0.625 -0.725
1.875 0.625 -0.725
1.9375 0.625 -0.725
2 0.625 -0.725
2.0625 0.625 -0.725
2.125 0.625 -0.725
2.1875 0.625 -0.725
2.25 0.625 -0.725
2.3125 0.625 -0.725
2.375 0.625 -0.725
2.4375 0.625 -0.725
2.5 0.625 -0.725
2.5625 0.625 -0.725
2.625 0.625 -0.725
2.6875 0.625 -0.725
2.75 0.625 -0.725
2.8125 0.625 -0.725
2.875 0.625 -0.725
2.9375 0.625 -0.725
3 0.625 -0.725
3.0625 0.625 -0.725
3.125 0.625 -0.725
3.1875 0.625 -0.725
3.25 0.625 -0.725
3.3125 0.625 -0.725
3.375 0.625 -0.725
3.4375 0.625 -0.725
3.5 0.625 -0.725
3.5625 0.625 -0.725
3.625 0.625 -0.725
3.6875 0.625 -0.725
3.75 0.625 -0.725
3.8125 0.625 -0.725
3.875 0.625 -0.725
3.9375 0.625 -0.725
4 0.625 -0.725
0 0.6875 -0.725
0.0625 0.6875 -0.725
0.125 0.6875 -0.725
0.1875 0.6875 -0.725
0.25 0.6875 -0.725
0.3125 0.6875 -0.725
0.375 0.6875 -0.725
0.4375 0.6875 -0.725
0.5 0.6875 -0.725
0.5625 0.6875 -0.725
0.625 0.6875 -0.725
0.6875 0.6875 -0.725
0.75 0.6875 -0.725
0.8125 0.6875 -0.725
0.875 0.6875 -0.725
0.9375 0.6875 -0.725
1 0.6875 -0.725
1.0625 0.6875 -0.725
1.125 0.6875 -0.725
1.1875 0.6875 -0.725
1.25 0.6875 -0.725
1.3125 0.6875 -0.725
1.375 0.6875 -0.725
1.4375 0.6875 -0.725
1.5 0.6875 -0.725
1.5625 0.6875 -0.725
1.625 0.6875 -0.725
1.6875 0.6875 -0.725
1.75 0.6875 -0.725
1.8125 0.6875 -0.725
1.875 0.6875 -0.725
1.9375 0.6875 -0.725
2 0.6875 -0.725
2.0625 0.6875 -0.725
2.125 0.6875 -0.725
2.1875 0.6875 -0.725
2.25 0.6875 -0.725
2.3125 0.6875 -0.725
2.375 0.6875 -0.725
2.4375 0.6875 -0.725
2.5 0.6875 -0.725
2.5625 0.6875 -0.725
2.625 0.6875 -0.725
2.6875 0.6875 -0.725
2.75 0.6875 -0.725
2.8125 0.6875 -0.725
2.875 0.6875 -0.725
2.9375 0.6875 -0.725
3 0.6875 -0.725
3.0625 0.6875 -0.725
3.125 0.6875 -0.725
3.1875 0.6875 -0.725
3.25 0.6875 -0.725
3.3125 0.6875 -0.725
3.375 0.6875 -0.725
3.4375 0.6875 -0.725
3.5 0.6875 -0.725
3.5625 0.6875 -0.725
3.625 0.6875 -0.725
3.6875 0.6875 -0.725
3.75 0.6875 -0.725
3.8125 0.6875 -0.725
3.875 0.6875 -0.725
3.9375 0.6875 -0.725
4 0.6875 -0.725
0 0.75 -0.725
0.0625 0.75 -0.725
0.125 0.75 -0.725
0.1875 0.75 -0.725
0.25 0.75 -0.725
0.3125 0.75 -0.725
0.375 0.75 -0.725
0.4375 0.75 -0.725
0.5 0.75 -0.725
0.5625 0.75 -0.725
0.625 0.75 -0.725
0.6875 0.75 -0.725
0.75 0.75 -0.725
0.8125 0.75 -0.725
0.875 0.75 -0.725
0.9375 0.75 -0.725
1 0.75 -0.725
1.0625 0.75 -0.725
1.125 0.75 -0.725
1.1875 0.75 -0.725
1.25 0.75 -0.725
1.3125 0.75 -0.725
1.375 0.75 -0.725
1.4375 0.75 -0.725
1.5 0.75 -0.725
1.5625 0.75 -0.725
1.625 0.75 -0.725
1.6875 0.75 -0.725
1.75 0.75 -0.725
1.8125 0.75 -0.725
1.875 0.75 -0.725
1.9375 0.75 -0.725
2 0.75 -0.725
2.0625 0.75 -0.725
2.125 0.75 -0.725
2.1875 0.75 -0.725
2.25 0.75 -0.725
2.3125 0.75 -0.725
2.375 0.75 -0.725
2.4375 0.75 -0.725
2.5 0.75 -0.725
2.5625 0.75 -0.725
2.625 0.75 -0.725
2.6875 0.75 -0.725
2.75 0.75 -0.725
2.8125 0.75 -0.725
2.875 0.75 -0.725
2.9375 0.75 -0.725
3 0.75 -0.725
3.0625 0.75 -0.725
3.125 0.75 -0.725
3.1875 0.75 -0.725
3.25 0.75 -0.725
3.3125 0.75 -0.725
3.375 0.75 -0.725
3.4375 0.75 -0.725
3.5 0.75 -0.725
3.5625 0.75 -0.725
3.625 0.75 -0.725
3.6875 0.75 -0.725
3.75 0.75 -0.725
3.8125 0.75 -0.725
3.875 0.75 -0.725
3.9375 0.75 -0.725
4 0.75 -0.725
0 0.8125 -0.725
0.0625 0.8125 -0.725
0.125 0.8125 -0.725
0.1875 0.8125 -0.725
0.25 0.8125 -0.725
0.3125 0.8125 -0.725
0.375 0.8125 -0.725
0.4375 0.8125 -0.725
0.5 0.8125 -0.725
0.5625 0.8125 -0.725
0.625 0.8125 -0.725
0.6875 0.8125 -0.725
0.75 0.8125 -0.725
0.8125 0.8125 -0.725
0.875 0.8125 -0.725
0.9375 0.8125 -0.725
1 0.8125 -0.725
1.0625 0.8125 -0.725
1.125 0.8125 -0.725
1.1875 0.8125 -0.725
1.25 0.8125 -0.725
1.3125 0.8125 -0.725
1.375 0.8125 -0.725
1.4375 0.8125 -0.725
1.5 0.8125 -0.725
1.5625 0.8125 -0.725
1.625 0.8125 -0.725
1.6875 0.8125 -0.725
1.75 0.8125 -0.725
1.8125 0.8125 -0.725
1.875 0.8125 -0.725
1.9375 0.8125 -0.725
2 0.8125 -0.725
2.0625 0.8125 -0.725
2.125 0.8125 -0.725
2.1875 0.8125 -0.725
2.25 0.8125 -0.725
2.3125 0.8125 -0.725
2.375 0.8125 -0.725
2.4375 0.8125 -0.725
2.5 0.8125 -0.725
2.5625 0.8125 -0.725
2.625 0.8125 -0.725
2.6875 0.8125 -0.725
2.75 0.8125 -0.725
2.8125 0.8125 -0.725
2.875 0.8125 -0.725
2.9375 0.8125 -0.725
3 0.8125 -0.725
3.0625 0.8125 -0.725
3.125 0.8125 -0.725
3.1875 0.8125 -0.725
3.25 0.8125 -0.725
3.3125 0.8125 -0.725
3.375 0.8125 -0.725
3.4375 0.8125 -0.725
3.5 0.8125 -0.725
3.5625 0.8125 -0.725
3.625 0.8125 -0.725
3.6875 0.8125 -0.725
3.75 0.8125 -0.725
3.8125 0.8125 -0.725
3.875 0.8125 -0.725
3.9375 0.8125 -0.725
4 0.8125 -0.725
0 0.875 -0.725
0.0625 0.875 -0.725
0.125 0.875 -0.725
0.1875 0.875 -0.725
0.25 0.875 -0.725
0.3125 0.875 -0.725
0.375 0.875 -0.725
0.4375 0.875 -0.725
0.5 0.875 -0.725
0.5625 0.875 -0.725
0.625 0.875 -0.725
0.6875 0.875 -0.725
0.75 0.875 -0.725
0.8125 0.875 -0.725
0.875 0.875 -0.725
0.9375 0.875 -0.725
1 0.875 -0.725
1.0625 0.875 -0.725
1.125 0.875 -0.725
1.1875 0.875 -0.725
1.25 0.875 -0.725
1.3125 0.875 -0.725
1.375 0.875 -0.725
1.4375 0.875 -0.725
1.5 0.875 -0.725
1.5625 0.875 -0.725
1.625 0.875 -0.725
1.6875 0.875 -0.725
1.75 0.875 -0.725
1.8125 0.875 -0.725
1.875 0.875 -0.725
1.9375 0.875 -0.725
2 0.875 -0.725
2.0625 0.875 -0.725
2.125 0.875 -0.725
2.1875 0.875 -0.725
2.25 0.875 -0.725
2.3125 0.875 -0.725
2.375 0.875 -0.725
2.4375 0.875 -0.725
2.5 0.875 -0.725
2.5625 0.875 -0.725
2.625 0.875 -0.725
2.6875 0.875 -0.725
2.75 0.875 -0.725
2.8125 0.875 -0.725
2.875 0.875 -0.725
2.9375 0.875 -0.725
3 0.875 -0.725
3.0625 0.875 -0.725
3.125 0.875 -0.725
3.1875 0.875 -0.725
3.25 0.875 -0.725
3.3125 0.875 -0.725
3.375 0.875 -0.725
3.4375 0.875 -0.725
3.5 0.875 -0.725
3.5625 0.875 -0.725
3.625 0.875 -0.725
3.6875 0.875 -0.725
3.75 0.875 -0.725
3.8125 0.875 -0.725
3.875 0.875 -0.725
3.9375 0.875 -0.725
4 0.875 -0.725
0 0.9375 -0.725
0.0625 0.9375 -0.725
0.125 0.9375 -0.725
0.1875 0.9375 -0.725
0.25 0.9375 -0.725
0.3125 0.9375 -0.725
0.375 0.9375 -0.725
0.4375 0.9375 -0.725
0.5 0.9375 -0.725
0.5625 0.9375 -0.725
0.625 0.9375 -0.725
0.6875 0.9375 -0.725
0.75 0.9375 -0.725
0.8125 0.9375 -0.725
0.875 0.9375 -0.725
0.9375 0.9375 -0.725
1 0.9375 -0.725
1.0625 0.9375 -0.725
1.125 0.9375 -0.725
1.1875 0.9375 -0.725
1.25 0.9375 -0.725
1.3125 0.9375 -0.725
1.375 0.9375 -0.725
1.4375 0.9375 -0.725
1.5 0.9375 -0.725
1.5625 0.9375 -0.725
1.625 0.9375 -0.725
1.6875 0.9375 -0.725
1.75 0.9375 -0.725
1.8125 0.9375 -0.725
1.875 0.9375 -0.725
1.9375 0.9375 -0.725
2 0.9375 -0.725
2.0625 0.9375 -0.725
2.125 0.9375 -0.725
2.1875 0.9375 -0.725
2.25 0.9375 -0.725
2.3125 0.9375 -0.725
2.375 0.9375 -0.725
2.4375 0.9375 -0.725
2.5 0.9375 -0.725
2.5625 0.9375 -0.725
2.625 0.9375 -0.725
2.6875 0.9375 -0.725
2.75 0.9375 -0.725
2.8125 0.9375 -0.725
2.875 0.9375 -0.725
2.9375 0.9375 -0.725
3 0.9375 -0.725
3.0625 0.9375 -0.725
3.125 0.9375 -0.725
3.1875 0.9375 -0.725
3.25 0.9375 -0.725
3.3125 0.9375 -0.725
3.375 0.9375 -0.725
3.4375 0.9375 -0.725
3.5 0.9375 -0.725
3.5625 0.9375 -0.725
3.625 0.9375 -0.725
3.6875 0.9375 -0.725
3.75 0.9375 -0.725
3.8125 0.9375 -0.725
3.875 0.9375 -0.725
3.9375 0.9375 -0.725
4 0.9375 -0.725
0 1 -0.725
0.0625 1 -0.725
0.125 1 -0.725
0.1875 1 -0.725
0.25 1 -0.725
0.3125 1 -0.725
0.375 1 -0.725
0.4375 1 -0.725
0.5 1 -0.725
0.5625 1 -0.725
0.625 1 -0.725
0.6875 1 -0.725
0.75 1 -0.725
0.8125 1 -0.725
0.875 1 -0.725
0.9375 1 -0.725
1 1 -0.725
1.0625 1 -0.725
1.125 1 -0.725
1.1875 1 -0.725
1.25 1 -0.725
1.3125 1 -0.725
1.375 1 -0.725
1.4375 1 -0.725
1.5 1 -0.725
1.5625 1 -0.725
1.625 1 -0.725
1.6875 1 -0.725
1.75 1 -0.725
1.8125 1 -0.725
1.875 1 -0.725
1.9375 1 -0.725
2 1 -0.725
2.0625 1 -0.725
2.125 1 -0.725
2.1875 1 -0.725
2.25 1 -0.725
2.3125 1 -0.725
2.375 1 -0.725
2.4375 1 -0.725
2.5 1 -0.725
2.5625 1 -0.725
2.625 1 -0.725
2.6875 1 -0.725
2.75 1 -0.725
2.8125 1 -0.725
2.875 1 -0.725
2.9375 1 -0.725
3 1 -0.725
3.0625 1 -0.725
3.125 1 -0.725
3.1875 1 -0.725
3.25 1 -0.725
3.3125 1 -0.725
3.375 1 -0.725
3.4375 1 -0.725
3.5 1 -0.725
3.5625 1 -0.725
3.625 1 -0.725
3.6875 1 -0.725
3.75 1 -0.725
3.8125 1 -0.725
3.875 1 -0.725
3.9375 1 -0.725
4 1 -0.725
0 0 -0.6625
0.0625 0 -0.6625
0.125 0 -0.6625
0.1875 0 -0.6625
0.25 0 -0.6625
0.3125 0 -0.6625
0.375 0 -0.6625
0.4375 0 -0.6625
0.5 0 -0.6625
0.5625 0 -0.6625
0.625 0 -0.6625
0.6875 0 -0.6625
0.75 0 -0.6625
0.8125 0 -0.6625
0.875 0 -0.6625
0.9375 0 -0.6625
1 0 -0.6625
1.0625 0 -0.6625
1.125 0 -0.6625
1.1875 0 -0.6625
1.25 0 -0.6625
1.3125 0 -0.6625
1.375 0 -0.6625
1.4375 0 -0.6625
1.5 0 -0.6625
1.5625 0 -0.6625
1.625 0 -0.6625
1.6875 0 -0.6625
1.75 0 -0.6625
1.8125 0 -0.6625
1.875 0 -0.6625
1.9375 0 -0.6625
2 0 -0.6625
2.0625 0 -0.6625
2.125 0 -0.6625
2.1875 0 -0.6625
2.25 0 -0.6625
2.3125 0 -0.6625
2.375 0 -0.6625
2.4375 0 -0.6625
2.5 0 -0.6625
2.5625 0 -0.6625
2.625 0 -0.6625
2.6875 0 -0.6625
2.75 0 -0.6625
2.8125 0 -0.6625
2.875 0 -0.6625
2.9375 0 -0.6625
3 0 -0.6625
3.0625 0 -0.6625
3.125 0 -0.6625
3.1875 0 -0.6625
3.25 0 -0.6625
3.3125 0 -0.6625
3.375 0 -0.6625
3.4375 0 -0.6625
3.5 0 -0.6625
3.5625 0 -0.6625
3.625 0 -0.6625
3.6875 0 -0.6625
3.75 0 -0.6625
3.8125 0 -0.6625
3.875 0 -0.6625
3.9375 0 -0.6625
4 0 -0.6625
0 0.0625 -0.6625
0.0625 0.0625 -0.6625
0.125 0.0625 -0.6625
0.1875 0.0625 -0.6625
0.25 0.0625 -0.6625
0.3125 0.0625 -0.6625
0.375 0.0625 -0.6625
0.4375 0.0625 -0.6625
0.5 0.0625 -0.6625
0.5625 0.0625 -0.6625
0.625 0.0625 -0.6625
0.6875 0.0625 -0.6625
0.75 0.0625 -0.6625
0.8125 0.0625 -0.6625
0.875 0.0625 -0.6625
0.9375 0.0625 -0.6625
1 0.0625 -0.6625
1.0625 0.0625 -0.6625
1.125 0.0625 -0.6625
1.1875 0.0625 -0.6625
1.25 0.0625 -0.6625
1.3125 0.0625 -0.6625
1.375 0.0625 -0.6625
1.4375 0.0625 -0.6625
1.5 0.0625 -0.6625
1.5625 0.0625 -0.6625
1.625 0.0625 -0.6625
1.6875 0.0625 -0.6625
1.75 0.0625 -0.6625
1.8125 0.0625 -0.6625
1.875 0.0625 -0.6625
1.9375 0.0625 -0.6625
2 0.0625 -0.6625
2.0625 0.0625 -0.6625
2.125 0.0625 -0.6625
2.1875 0.0625 -0.6625
2.25 0.0625 -0.6625
2.3125 0.0625 -0.6625
2.375 0.0625 -0.6625
2.4375 0.0625 -0.6625
2.5 0.0625 -0.6625
2.5625 0.0625 -0.6625
2.625 0.0625 -0.6625
2.6875 0.0625 -0.6625
2.75 0.0625 -0.6625
2.8125 0.0625 -0.6625
2.875 0.0625 -0.6625
2.9375 0.0625 -0.6625
3 0.0625 -0.6625
3.0625 0.0625 -0.6625
3.125 0.0625 -0.6625
3.1875 0.0625 -0.6625
3.25 0.0625 -0.6625
3.3125 0.0625 -0.6625
3.375 0.0625 -0.6625
3.4375 0.0625 -0.6625
3.5 0.0625 -0.6625
3.5625 0.0625 -0.6625
3.625 0.0625 -0.6625
3.6875 0.0625 -0.6625
3.75 0.0625 -0.6625
3.8125 0.0625 -0.6625
3.875 0.0625 -0.6625
3.9375 0.0625 -0.6625
4 0.0625 -0.6625
0 0.125 -0.6625
0.0625 0.125 -0.6625
0.125 0.125 -0.6625
0.1875 0.125 -0.6625
0.25 0.125 -0.6625
0.3125 0.125 -0.6625
0.375 0.125 -0.6625
0.4375 0.125 -0.6625
0.5 0.125 -0.6625
0.5625 0.125 -0.6625
0.625 0.125 -0.6625
0.6875 0.125 -0.6625
0.75 0.125 -0.6625
0.8125 0.125 -0.6625
0.875 0.125 -0.6625
0.9375 0.125 -0.6625
1 0.125 -0.6625
1.0625 0.125 -0.6625
1.125 0.125 -0.6625
1.1875 0.125 -0.6625
1.25 0.125 -0.6625
1.3125 0.125 -0.6625
1.375 0.125 -0.6625
1.4375 0.125 -0.6625
1.5 0.125 -0.6625
1.5625 0.125 -0.6625
1.625 0.125 -0.6625
1.6875 0.125 -0.6625
1.75 0.125 -0.6625
1.8125 0.125 -0.6625
1.875 0.125 -0.6625
1.9375 0.125 -0.6625
2 0.125 -0.6625
2.0625 0.125 -0.6625
2.125 0.125 -0.6625
2.1875 0.125 -0.6625
2.25 0.125 -0.6625
2.3125 0.125 -0.6625
2.375 0.125 -0.6625
2.4375 0.125 -0.6625
2.5 0.125 -0.6625
2.5625 0.125 -0.6625
2.625 0.125 -0.6625
2.6875 0.125 -0.6625
2.75 0.125 -0.6625
2.8125 0.125 -0.6625
2.875 0.125 -0.6625
2.9375 0.125 -0.6625
3 0.125 -0.6625
3.0625 0.125 -0.6625
3.125 0.125 -0.6625
3.1875 0.125 -0.6625
3.25 0.125 -0.6625
3.3125 0.125 -0.6625
3.375 0.125 -0.6625
3.4375 0.125 -0.6625
3.5 0.125 -0.6625
3.5625 0.125 -0.6625
3.625 0.125 -0.6625
3.6875 0.125 -0.6625
3.75 0.125 -0.6625
3.8125 0.125 -0.6625
3.875 0.125 -0.6625
3.9375 0.125 -0.6625
4 0.125 -0.6625
0 0.1875 -0.6625
0.0625 0.1875 -0.6625
0.125 0.1875 -0.6625
0.1875 0.1875 -0.6625
0.25 0.1875 -0.6625
0.3125 0.1875 -0.6625
0.375 0.1875 -0.6625
0.4375 0.1875 -0.6625
0.5 0.1875 -0.6625
0.5625 0.1875 -0.6625
0.625 0.1875 -0.6625
0.6875 0.1875 -0.6625
0.75 0.1875 -0.6625
0.8125 0.1875 -0.6625
0.875 0.1875 -0.6625
0.9375 0.1875 -0.6625
1 0.1875 -0.6625
1.0625 0.1875 -0.6625
1.125 0.1875 -0.6625
1.1875 0.1875 -0.6625
1.25 0.1875 -0.6625
1.3125 0.1875 -0.6625
1.375 0.1875 -0.6625
1.4375 0.1875 -0.6625
1.5 0.1875 -0.6625
1.5625 0.1875 -0.6625
1.625 0.1875 -0.6625
1.6875 0.1875 -0.6625
1.75 0.1875 -0.6625
1.8125 0.1875 -0.6625
1.875 0.1875 -0.6625
1.9375 0.1875 -0.6625
2 0.1875 -0.6625
2.0625 0.1875 -0.6625
2.125 0.1875 -0.6625
2.1875 0.1875 -0.6625
2.25 0.1875 -0.6625
2.3125 0.1875 -0.6625
2.375 0.1875 -0.6625
2.4375 0.1875 -0.6625
2.5 0.1875 -0.6625
2.5625 0.1875 -0.6625
2.625 0.1875 -0.6625
2.6875 0.1875 -0.6625
2.75 0.1875 -0.6625
2.8125 0.1875 -0.6625
2.875 0.1875 -0.6625
2.9375 0.1875 -0.6625
3 0.1875 -0.6625
3.0625 0.1875 -0.6625
3.125 0.1875 -0.6625
3.1875 0.1875 -0.6625
3.25 0.1875 -0.6625
3.3125 0.1875 -0.6625
3.375 0.1875 -0.6625
3.4375 0.1875 -0.6625
3.5 0.1875 -0.6625
3.5625 0.1875 -0.6625
3.625 0.1875 -0.6625
3.6875 0.1875 -0.6625
3.75 0.1875 -0.6625
3.8125 0.1875 -0.6625
3.875 0.1875 -0.6625
3.9375 0.1875 -0.6625
4 0.1875 -0.6625
0 0.25 -0.6625
0.0625 0.25 -0.6625
0.125 0.25 -0.6625
0.1875 0.25 -0.6625
0.25 0.25 -0.6625
0.3125 0.25 -0.6625
0.375 0.25 -0.6625
0.4375 0.25 -0.6625
0.5 0.25 -0.6625
0.5625 0.25 -0.6625
0.625 0.25 -0.6625
0.6875 0.25 -0.6625
0.75 0.25 -0.6625
0.8125 0.25 -0.6625
0.875 0.25 -0.6625
0.9375 0.25 -0.6625
1 0.25 -0.6625
1.0625 0.25 -0.6625
1.125 0.25 -0.6625
1.1875 0.25 -0.6625
1.25 0.25 -0.6625
1.3125 0.25 -0.6625
1.375 0.25 -0.6625
1.4375 0.25 -0.6625
1.5 0.25 -0.6625
1.5625 0.25 -0.6625
1.625 0.25 -0.6625
1.6875 0.25 -0.6625
1.75 0.25 -0.6625
1.8125 0.25 -0.6625
1.875 0.25 -0.6625
1.9375 0.25 -0.6625
2 0.25 -0.6625
2.0625 0.25 -0.6625
2.125 0.25 -0.6625
2.1875 0.25 -0.6625
2.25 0.25 -0.6625
2.3125 0.25 -0.6625
2.375 0.25 -0.6625
2.4375 0.25 -0.6625
2.5 0.25 -0.6625
2.5625 0.25 -0.6625
2.625 0.25 -0.6625
2.6875 0.25 -0.6625
2.75 0.25 -0.6625
2.8125 0.25 -0.6625
2.875 0.25 -0.6625
2.9375 0.25 -0.6625
3 0.25 -0.6625
3.0625 0.25 -0.6625
3.125 0.25 -0.6625
3.1875 0.25 -0.6625
3.25 0.25 -0.6625
3.3125 0.25 -0.6625
3.375 0.25 -0.6625
3.4375 0.25 -0.6625
3.5 0.25 -0.6625
3.5625 0.25 -0.6625
3.625 0.25 -0.6625
3.6875 0.25 -0.6625
3.75 0.25 -0.6625
3.8125 0.25 -0.6625
3.875 0.25 -0.6625
3.9375 0.25 -0.6625
4 0.25 -0.6625
0 0.3125 -0.6625
0.0625 0.3125 -0.6625
0.125 0.3125 -0.6625
0.1875 0.3125 -0.6625
0.25 0.3125 -0.6625
0.3125 0.3125 -0.6625
0.375 0.3125 -0.6625
0.4375 0.3125 -0.6625
0.5 0.3125 -0.6625
0.5625 0.3125 -0.6625
0.625 0.3125 -0.6625
0.6875 0.3125 -0.6625
0.75 0.3125 -0.6625
0.8125 0.3125 -0.6625
0.875 0.3125 -0.6625
0.9375 0.3125 -0.6625
1 0.3125 -0.6625
1.0625 0.3125 -0.6625
1.125 0.3125 -0.6625
1.1875 0.3125 -0.6625
1.25 0.3125 -0.6625
1.3125 0.3125 -0.6625
1.375 0.3125 -0.6625
1.4375 0.3125 -0.6625
1.5 0.3125 -0.6625
1.5625 0.3125 -0.6625
1.625 0.3125 -0.6625
1.6875 0.3125 -0.6625
1.75 0.3125 -0.6625
1.8125 0.3125 -0.6625
1.875 0.3125 -0.6625
1.9375 0.3125 -0.6625
2 0.3125 -0.6625
2.0625 0.3125 -0.6625
2.125 0.3125 -0.6625
2.1875 0.3125 -0.6625
2.25 0.3125 -0.6625
2.3125 0.3125 -0.6625
2.375 0.3125 -0.6625
2.4375 0.3125 -0.6625
2.5 0.3125 -0.6625
2.5625 0.3125 -0.6625
2.625 0.3125 -0.6625
2.6875 0.3125 -0.6625
2.75 0.3125 -0.6625
2.8125 0.3125 -0.6625
2.875 0.3125 -0.6625
2.9375 0.3125 -0.6625
3 0.3125 -0.6625
3.0625 0.3125 -0.6625
3.125 0.3125 -0.6625
3.1875 0.3125 -0.6625
3.25 0.3125 -0.6625
3.3125 0.3125 -0.6625
3.375 0.3125 -0.6625
3.4375 0.3125 -0.6625
3.5 0.3125 -0.6625
3.5625 0.3125 -0.6625
3.625 0.3125 -0.6625
3.6875 0.3125 -0.6625
3.75 0.3125 -0.6625
3.8125 0.3125 -0.6625
3.875 0.3125 -0.6625
3.9375 0.3125 -0.6625
4 0.3125 -0.6625
0 0.375 -0.6625
0.0625 0.375 -0.6625
0.125 0.375 -0.6625
0.1875 0.375 -0.6625
0.25 0.375 -0.6625
0.3125 0.375 -0.6625
0.375 0.375 -0.6625
0.4375 0.375 -0.6625
0.5 0.375 -0.6625
0.5625 0.375 -0.6625
0.625 0.375 -0.6625
0.6875 0.375 -0.6625
0.75 0.375 -0.6625
0.8125 0.375 -0.6625
0.875 0.375 -0.6625
0.9375 0.375 -0.6625
1 0.375 -0.6625
1.0625 0.375 -0.6625
1.125 0.375 -0.6625
1.1875 0.375 -0.6625
1.25 0.375 -0.6625
1.3125 0.375 -0.6625
1.375 0.375 -0.6625
1.4375 0.375 -0.6625
1.5 0.375 -0.6625
1.5625 0.375 -0.6625
1.625 0.375 -0.6625
1.6875 0.375 -0.6625
1.75 0.375 -0.6625
1.8125 0.375 -0.6625
1.875 0.375 -0.6625
1.9375 0.375 -0.6625
2 0.375 -0.6625
2.0625 0.375 -0.6625
2.125 0.375 -0.6625
2.1875 0.375 -0.6625
2.25 0.375 -0.6625
2.3125 0.375 -0.6625
2.375 0.375 -0.6625
2.4375 0.375 -0.6625
2.5 0.375 -0.6625
2.5625 0.375 -0.6625
2.625 0.375 -0.6625
2.6875 0.375 -0.6625
2.75 0.375 -0.6625
2.8125 0.375 -0.6625
2.875 0.375 -0.6625
2.9375 0.375 -0.6625
3 0.375 -0.6625
3.0625 0.375 -0.6625
3.125 0.375 -0.6625
3.1875 0.375 -0.6625
3.25 0.375 -0.6625
3.3125 0.375 -0.6625
3.375 0.375 -0.6625
3.4375 0.375 -0.6625
3.5 0.375 -0.6625
3.5625 0.375 -0.6625
3.625 0.375 -0.6625
3.6875 0.375 -0.6625
3.75 0.375 -0.6625
3.8125 0.375 -0.6625
3.875 0.375 -0.6625
3.9375 0.375 -0.6625
4 0.375 -0.6625
0 0.4375 -0.6625
0.0625 0.4375 -0.6625
0.125 0.4375 -0.6625
0.1875 0.4375 -0.6625
0.25 0.4375 -0.6625
0.3125 0.4375 -0.6625
0.375 0.4375 -0.6625
0.4375 0.4375 -0.6625
0.5 0.4375 -0.6625
0.5625 0.4375 -0.6625
0.625 0.4375 -0.6625
0.6875 0.4375 -0.6625
0.75 0.4375 -0.6625
0.8125 0.4375 -0.6625
0.875 0.4375 -0.6625
0.9375 0.4375 -0.6625
1 0.4375 -0.6625
1.0625 0.4375 -0.6625
1.125 0.4375 -0.6625
1.1875 0.4375 -0.6625
1.25 0.4375 -0.6625
1.3125 0.4375 -0.6625
1.375 0.4375 -0.6625
1.4375 0.4375 -0.6625
1.5 0.4375 -0.6625
1.5625 0.4375 -0.6625
1.625 0.4375 -0.6625
1.6875 0.4375 -0.6625
1.75 0.4375 -0.6625
1.8125 0.4375 -0.6625
1.875 0.4375 -0.6625
1.9375 0.4375 -0.6625
2 0.4375 -0.6625
2.0625 0.4375 -0.6625
2.125 0.4375 -0.6625
2.1875 0.4375 -0.6625
2.25 0.4375 -0.6625
2.3125 0.4375 -0.6625
2.375 0.4375 -0.6625
2.4375 0.4375 -0.6625
2.5 0.4375 -0.6625
2.5625 0.4375 -0.6625
2.625 0.4375 -0.6625
2.6875 0.4375 -0.6625
2.75 0.4375 -0.6625
2.8125 0.4375 -0.6625
2.875 0.4375 -0.6625
2.9375 0.4375 -0.6625
3 0.4375 -0.6625
3.0625 0.4375 -0.6625
3.125 0.4375 -0.6625
3.1875 0.4375 -0.6625
3.25 0.4375 -0.6625
3.3125 0.4375 -0.6625
3.375 0.4375 -0.6625
3.4375 0.4375 -0.6625
3.5 0.4375 -0.6625
3.5625 0.4375 -0.6625
3.625 0.4375 -0.6625
3.6875 0.4375 -0.6625
3.75 0.4375 -0.6625
3.8125 0.4375 -0.6625
3.875 0.4375 -0.6625
3.9375 0.4375 -0.6625
4 0.4375 -0.6625
0 0.5 -0.6625
0.0625 0.5 -0.6625
0.125 0.5 -0.6625
0.1875 0.5 -0.6625
0.25 0.5 -0.6625
0.3125 0.5 -0.6625
0.375 0.5 -0.6625
0.4375 0.5 -0.6625
0.5 0.5 -0.6625
0.5625 0.5 -0.6625
0.625 0.5 -0.6625
0.6875 0.5 -0.6625
0.75 0.5 -0.6625
0.8125 0.5 -0.6625
0.875 0.5 -0.6625
0.9375 0.5 -0.6625
1 0.5 -0.6625
1.0625 0.5 -0.6625
1.125 0.5 -0.6625
1.1875 0.5 -0.6625
1.25 0.5 -0.6625
1.3125 0.5 -0.6625
1.375 0.5 -0.6625
1.4375 0.5 -0.6625
1.5 0.5 -0.6625
1.5625 0.5 -0.6625
1.625 0.5 -0.6625
1.6875 0.5 -0.6625
1.75 0.5 -0.6625
1.8125 0.5 -0.6625
1.875 0.5 -0.6625
1.9375 0.5 -0.6625
2 0.5 -0.6625
2.0625 0.5 -0.6625
2.125 0.5 -0.6625
2.1875 0.5 -0.6625
2.25 0.5 -0.6625
2.3125 0.5 -0.6625
2.375 0.5 -0.6625
2.4375 0.5 -0.6625
2.5 0.5 -0.6625
2.5625 0.5 -0.6625
2.625 0.5 -0.6625
2.6875 0.5 -0.6625
2.75 0.5 -0.6625
2.8125 0.5 -0.6625
2.875 0.5 -0.6625
2.9375 0.5 -0.6625
3 0.5 -0.6625
3.0625 0.5 -0.6625
3.125 0.5 -0.6625
3.1875 0.5 -0.6625
3.25 0.5 -0.6625
3.3125 0.5 -0.6625
3.375 0.5 -0.6625
3.4375 0.5 -0.6625
3.5 0.5 -0.6625
3.5625 0.5 -0.6625
3.625 0.5 -0.6625
3.6875 0.5 -0.6625
3.75 0.5 -0.6625
3.8125 0.5 -0.6625
3.875 0.5 -0.6625
3.9375 0.5 -0.6625
4 0.5 -0.6625
0 0.5625 -0.6625
0.0625 0.5625 -0.6625
0.125 0.5625 -0.6625
0.1875 0.5625 -0.6625
0.25 0.5625 -0.6625
0.3125 0.5625 -0.6625
0.375 0.5625 -0.6625
0.4375 0.5625 -0.6625
0.5 0.5625 -0.6625
0.5625 0.5625 -0.6625
0.625 0.5625 -0.6625
0.6875 0.5625 -0.6625
0.75 0.5625 -0.6625
0.8125 0.5625 -0.6625
0.875 0.5625 -0.6625
0.9375 0.5625 -0.6625
1 0.5625 -0.6625
1.0625 0.5625 -0.6625
1.125 0.5625 -0.6625
1.1875 0.5625 -0.6625
1.25 0.5625 -0.6625
1.3125 0.5625 -0.6625
1.375 0.5625 -0.6625
1.4375 0.5625 -0.6625
1.5 0.5625 -0.6625
1.5625 0.5625 -0.6625
1.625 0.5625 -0.6625
1.6875 0.5625 -0.6625
1.75 0.5625 -0.6625
1.8125 0.5625 -0.6625
1.875 0.5625 -0.6625
1.9375 0.5625 -0.6625
2 0.5625 -0.6625
2.0625 0.5625 -0.6625
2.125 0.5625 -0.6625
2.1875 0.5625 -0.6625
2.25 0.5625 -0.6625
2.3125 0.5625 -0.6625
2.375 0.5625 -0.6625
2.4375 0.5625 -0.6625
2.5 0.5625 -0.6625
2.5625 0.5625 -0.6625
2.625 0.5625 -0.6625
2.6875 0.5625 -0.6625
2.75 0.5625 -0.6625
2.8125 0.5625 -0.6625
2.875 0.5625 -0.6625
2.9375 0.5625 -0.6625
3 0.5625 -0.6625
3.0625 0.5625 -0.6625
3.125 0.5625 -0.6625
3.1875 0.5625 -0.6625
3.25 0.5625 -0.6625
3.3125 0.5625 -0.6625
3.375 0.5625 -0.6625
3.4375 0.5625 -0.6625
3.5 0.5625 -0.6625
3.5625 0.5625 -0.6625
3.625 0.5625 -0.6625
3.6875 0.5625 -0.6625
3.75 0.5625 -0.6625
3.8125 0.5625 -0.6625
3.875 0.5625 -0.6625
3.9375 0.5625 -0.6625
4 0.5625 -0.6625
0 0.625 -0.6625
0.0625 0.625 -0.6625
0.125 0.625 -0.6625
0.1875 0.625 -0.6625
0.25 0.625 -0.6625
0.3125 0.625 -0.6625
0.375 0.625 -0.6625
0.4375 0.625 -0.6625
0.5 0.625 -0.6625
0.5625 0.625 -0.6625
0.625 0.625 -0.6625
0.6875 0.625 -0.6625
0.75 0.625 -0.6625
0.8125 0.625 -0.6625
0.875 0.625 -0.6625
0.9375 0.625 -0.6625
1 0.625 -0.6625
1.0625 0.625 -0.6625
1.125 0.625 -0.6625
1.1875 0.625 -0.6625
1.25 0.625 -0.6625
1.3125 0.625 -0.6625
1.375 0.625 -0.6625
1.4375 0.625 -0.6625
1.5 0.625 -0.6625
1.5625 0.625 -0.6625
1.625 0.625 -0.6625
1.6875 0.625 -0.6625
1.75 0.625 -0.6625
1.8125 0.625 -0.6625
1.875 0.625 -0.6625
1.9375 0.625 -0.6625
2 0.625 -0.6625
2.0625 0.625 -0.6625
2.125 0.625 -0.6625
2.1875 0.625 -0.6625
2.25 0.625 -0.6625
2.3125 0.625 -0.6625
2.375 0.625 -0.6625
2.4375 0.625 -0.6625
2.5 0.625 -0.6625
2.5625 0.625 -0.6625
2.625 0.625 -0.6625
2.6875 0.625 -0.6625
2.75 0.625 -0.6625
2.8125 0.625 -0.6625
2.875 0.625 -0.6625
2.9375 0.625 -0.6625
3 0.625 -0.6625
3.0625 0.625 -0.6625
3.125 0.625 -0.6625
3.1875 0.625 -0.6625
3.25 0.625 -0.6625
3.3125 0.625 -0.6625
3.375 0.625 -0.6625
3.4375 0.625 -0.6625
3.5 0.625 -0.6625
3.5625 0.625 -0.6625
3.625 0.625 -0.6625
3.6875 0.625 -0.6625
3.75 0.625 -0.6625
3.8125 0.625 -0.6625
3.875 0.625 -0.6625
3.9375 0.625 -0.6625
4 0.625 -0.6625
0 0.6875 -0.6625
0.0625 0.6875 -0.6625
0.125 0.6875 -0.6625
0.1875 0.6875 -0.6625
0.25 0.6875 -0.6625
0.3125 0.6875 -0.6625
0.375 0.6875 -0.6625
0.4375 0.6875 -0.6625
0.5 0.6875 -0.6625
0.5625 0.6875 -0.6625
0.625 0.6875 -0.6625
0.6875 0.6875 -0.6625
0.75 0.6875 -0.6625
0.8125 0.6875 -0.6625
0.875 0.6875 -0.6625
0.9375 0.6875 -0.6625
1 0.6875 -0.6625
1.0625 0.6875 -0.6625
1.125 0.6875 -0.6625
1.1875 0.6875 -0.6625
1.25 0.6875 -0.6625
1.3125 0.6875 -0.6625
1.375 0.6875 -0.6625
1.4375 0.6875 -0.6625
1.5 0.6875 -0.6625
1.5625 0.6875 -0.6625
1.625 0.6875 -0.6625
1.6875 0.6875 -0.6625
1.75 0.6875 -0.6625
1.8125 0.6875 -0.6625
1.875 0.6875 -0.6625
1.9375 0.6875 -0.6625
2 0.6875 -0.6625
2.0625 0.6875 -0.6625
2.125 0.6875 -0.6625
2.1875 0.6875 -0.6625
2.25 0.6875 -0.6625
2.3125 0.6875 -0.6625
2.375 0.6875 -0.6625
2.4375 0.6875 -0.6625
2.5 0.6875 -0.6625
2.5625 0.6875 -0.6625
2.625 0.6875 -0.6625
2.6875 0.6875 -0.6625
2.75 0.6875 -0.6625
2.8125 0.6875 -0.6625
2.875 0.6875 -0.6625
2.9375 0.6875 -0.6625
3 0.6875 -0.6625
3.0625 0.6875 -0.6625
3.125 0.6875 -0.6625
3.1875 0.6875 -0.6625
3.25 0.6875 -0.6625
3.3125 0.6875 -0.6625
3.375 0.6875 -0.6625
3.4375 0.6875 -0.6625
3.5 0.6875 -0.6625
3.5625 0.6875 -0.6625
3.625 0.6875 -0.6625
3.6875 0.6875 -0.6625
3.75 0.6875 -0.6625
3.8125 0.6875 -0.6625
3.875 0.6875 -0.6625
3.9375 0.6875 -0.6625
4 0.6875 -0.6625
0 0.75 -0.6625
0.0625 0.75 -0.6625
0.125 0.75 -0.6625
0.1875 0.75 -0.6625
0.25 0.75 -0.6625
0.3125 0.75 -0.6625
0.375 0.75 -0.6625
0.4375 0.75 -0.6625
0.5 0.75 -0.6625
0.5625 0.75 -0.6625
0.625 0.75 -0.6625
0.6875 0.75 -0.6625
0.75 0.75 -0.6625
0.8125 0.75 -0.6625
0.875 0.75 -0.6625
0.9375 0.75 -0.6625
1 0.75 -0.6625
1.0625 0.75 -0.6625
1.125 0.75 -0.6625
1.1875 0.75 -0.6625
1.25 0.75 -0.6625
1.3125 0.75 -0.6625
1.375 0.75 -0.6625
1.4375 0.75 -0.6625
1.5 0.75 -0.6625
1.5625 0.75 -0.6625
1.625 0.75 -0.6625
1.6875 0.75 -0.6625
1.75 0.75 -0.6625
1.8125 0.75 -0.6625
1.875 0.75 -0.6625
1.9375 0.75 -0.6625
2 0.75 -0.6625
2.0625 0.75 -0.6625
2.125 0.75 -0.6625
2.1875 0.75 -0.6625
2.25 0.75 -0.6625
2.3125 0.75 -0.6625
2.375 0.75 -0.6625
2.4375 0.75 -0.6625
2.5 0.75 -0.6625
2.5625 0.75 -0.6625
2.625 0.75 -0.6625
2.6875 0.75 -0.6625
2.75 0.75 -0.6625
2.8125 0.75 -0.6625
2.875 0.75 -0.6625
2.9375 0.75 -0.6625
3 0.75 -0.6625
3.0625 0.75 -0.6625
3.125 0.75 -0.6625
3.1875 0.75 -0.6625
3.25 0.75 -0.6625
3.3125 0.75 -0.6625
3.375 0.75 -0.6625
3.4375 0.75 -0.6625
3.5 0.75 -0.6625
3.5625 0.75 -0.6625
3.625 0.75 -0.6625
3.6875 0.75 -0.6625
3.75 0.75 -0.6625
3.8125 0.75 -0.6625
3.875 0.75 -0.6625
3.9375 0.75 -0.6625
4 0.75 -0.6625
0 0.8125 -0.6625
0.0625 0.8125 -0.6625
0.125 0.8125 -0.6625
0.1875 0.8125 -0.6625
0.25 0.8125 -0.6625
0.3125 0.8125 -0.6625
0.375 0.8125 -0.6625
0.4375 0.8125 -0.6625
0.5 0.8125 -0.6625
0.5625 0.8125 -0.6625
0.625 0.8125 -0.6625
0.6875 0.8125 -0.6625
0.75 0.8125 -0.6625
0.8125 0.8125 -0.6625
0.875 0.8125 -0.6625
0.9375 0.8125 -0.6625
1 0.8125 -0.6625
1.0625 0.8125 -0.6625
1.125 0.8125 -0.6625
1.1875 0.8125 -0.6625
1.25 0.8125 -0.6625
1.3125 0.8125 -0.6625
1.375 0.8125 -0.6625
1.4375 0.8125 -0.6625
1.5 0.8125 -0.6625
1.5625 0.8125 -0.6625
1.625 0.8125 -0.6625
1.6875 0.8125 -0.6625
1.75 0.8125 -0.6625
1.8125 0.8125 -0.6625
1.875 0.8125 -0.6625
1.9375 0.8125 -0.6625
2 0.8125 -0.6625
2.0625 0.8125 -0.6625
2.125 0.8125 -0.6625
2.1875 0.8125 -0.6625
2.25 0.8125 -0.6625
2.3125 0.8125 -0.6625
2.375 0.8125 -0.6625
2.4375 0.8125 -0.6625
2.5 0.8125 -0.6625
2.5625 0.8125 -0.6625
2.625 0.8125 -0.6625
2.6875 0.8125 -0.6625
2.75 0.8125 -0.6625
2.8125 0.8125 -0.6625
2.875 0.8125 -0.6625
2.9375 0.8125 -0.6625
3 0.8125 -0.6625
3.0625 0.8125 -0.6625
3.125 0.8125 -0.6625
3.1875 0.8125 -0.6625
3.25 0.8125 -0.6625
3.3125 0.8125 -0.6625
3.375 0.8125 -0.6625
3.4375 0.8125 -0.6625
3.5 0.8125 -0.6625
3.5625 0.8125 -0.6625
3.625 0.8125 -0.6625
3.6875 0.8125 -0.6625
3.75 0.8125 -0.6625
3.8125 0.8125 -0.6625
3.875 0.8125 -0.6625
3.9375 0.8125 -0.6625
4 0.8125 -0.6625
0 0.875 -0.6625
0.0625 0.875 -0.6625
0.125 0.875 -0.6625
0.1875 0.875 -0.6625
0.25 0.875 -0.6625
0.3125 0.875 -0.6625
0.375 0.875 -0.6625
0.4375 0.875 -0.6625
0.5 0.875 -0.6625
0.5625 0.875 -0.6625
0.625 0.875 -0.6625
0.6875 0.875 -0.6625
0.75 0.875 -0.6625
0.8125 0.875 -0.6625
0.875 0.875 -0.6625
0.9375 0.875 -0.6625
1 0.875 -0.6625
1.0625 0.875 -0.6625
1.125 0.875 -0.6625
1.1875 0.875 -0.6625
1.25 0.875 -0.6625
1.3125 0.875 -0.6625
1.375 0.875 -0.6625
1.4375 0.875 -0.6625
1.5 0.875 -0.6625
1.5625 0.875 -0.6625
1.625 0.875 -0.6625
1.6875 0.875 -0.6625
1.75 0.875 -0.6625
1.8125 0.875 -0.6625
1.875 0.875 -0.6625
1.9375 0.875 -0.6625
2 0.875 -0.6625
2.0625 0.875 -0.6625
2.125 0.875 -0.6625
2.1875 0.875 -0.6625
2.25 0.875 -0.6625
2.3125 0.875 -0.6625
2.375 0.875 -0.6625
2.4375 0.875 -0.6625
2.5 0.875 -0.6625
2.5625 0.875 -0.6625
2.625 0.875 -0.6625
2.6875 0.875 -0.6625
2.75 0.875 -0.6625
2.8125 0.875 -0.6625
2.875 0.875 -0.6625
2.9375 0.875 -0.6625
3 0.875 -0.6625
3.0625 0.875 -0.6625
3.125 0.875 -0.6625
3.1875 0.875 -0.6625
3.25 0.875 -0.6625
3.3125 0.875 -0.6625
3.375 0.875 -0.6625
3.4375 0.875 -0.6625
3.5 0.875 -0.6625
3.5625 0.875 -0.6625
3.625 0.875 -0.6625
3.6875 0.875 -0.6625
3.75 0.875 -0.6625
3.8125 0.875 -0.6625
3.875 0.875 -0.6625
3.9375 0.875 -0.6625
4 0.875 -0.6625
0 0.9375 -0.6625
0.0625 0.9375 -0.6625
0.125 0.9375 -0.6625
0.1875 0.9375 -0.6625
0.25 0.9375 -0.6625
0.3125 0.9375 -0.6625
0.375 0.9375 -0.6625
0.4375 0.9375 -0.6625
0.5 0.9375 -0.6625
0.5625 0.9375 -0.6625
0.625 0.9375 -0.6625
0.6875 0.9375 -0.6625
0.75 0.9375 -0.6625
0.8125 0.9375 -0.6625
0.875 0.9375 -0.6625
0.9375 0.9375 -0.6625
1 0.9375 -0.6625
1.0625 0.9375 -0.6625
1.125 0.9375 -0.6625
1.1875 0.9375 -0.6625
1.25 0.9375 -0.6625
1.3125 0.9375 -0.6625
1.375 0.9375 -0.6625
1.4375 0.9375 -0.6625
1.5 0.9375 -0.6625
1.5625 0.9375 -0.6625
1.625 0.9375 -0.6625
1.6875 0.9375 -0.6625
1.75 0.9375 -0.6625
1.8125 0.9375 -0.6625
1.875 0.9375 -0.6625
1.9375 0.9375 -0.6625
2 0.9375 -0.6625
2.0625 0.9375 -0.6625
2.125 0.9375 -0.6625
2.1875 0.9375 -0.6625
2.25 0.9375 -0.6625
2.3125 0.9375 -0.6625
2.375 0.9375 -0.6625
2.4375 0.9375 -0.6625
2.5 0.9375 -0.6625
2.5625 0.9375 -0.6625
2.625 0.9375 -0.6625
2.6875 0.9375 -0.6625
2.75 0.9375 -0.6625
2.8125 0.9375 -0.6625
2.875 0.9375 -0.6625
2.9375 0.9375 -0.6625
3 0.9375 -0.6625
3.0625 0.9375 -0.6625
3.125 0.9375 -0.6625
3.1875 0.9375 -0.6625
3.25 0.9375 -0.6625
3.3125 0.9375 -0.6625
3.375 0.9375 -0.6625
3.4375 0.9375 -0.6625
3.5 0.9375 -0.6625
3.5625 0.9375 -0.6625
3.625 0.9375 -0.6625
3.6875 0.9375 -0.6625
3.75 0.9375 -0.6625
3.8125 0.9375 -0.6625
3.875 0.9375 -0.6625
3.9375 0.9375 -0.6625
4 0.9375 -0.6625
0 1 -0.6625
0.0625 1 -0.6625
0.125 1 -0.6625
0.1875 1 -0.6625
0.25 1 -0.6625
0.3125 1 -0.6625
0.375 1 -0.6625
0.4375 1 -0.6625
0.5 1 -0.6625
0.5625 1 -0.6625
0.625 1 -0.6625
0.6875 1 -0.6625
0.75 1 -0.6625
0.8125 1 -0.6625
0.875 1 -0.6625
0.9375 1 -0.6625
1 1 -0.6625
1.0625 1 -0.6625
1.125 1 -0.6625
1.1875 1 -0.6625
1.25 1 -0.6625
1.3125 1 -0.6625
1.375 1 -0.6625
1.4375 1 -0.6625
1.5 1 -0.6625
1.5625 1 -0.6625
1.625 1 -0.6625
1.6875 1 -0.6625
1.75 1 -0.6625
1.8125 1 -0.6625
1.875 1 -0.6625
1.9375 1 -0.6625
2 1 -0.6625
2.0625 1 -0.6625
2.125 1 -0.6625
2.1875 1 -0.6625
2.25 1 -0.6625
2.3125 1 -0.6625
2.375 1 -0.6625
2.4375 1 -0.6625
2.5 1 -0.6625
2.5625 1 -0.6625
2.625 1 -0.6625
2.6875 1 -0.6625
2.75 1 -0.6625
2.8125 1 -0.6625
2.875 1 -0.6625
2.9375 1 -0.6625
3 1 -0.6625
3.0625 1 -0.6625
3.125 1 -0.6625
3.1875 1 -0.6625
3.25 1 -0.6625
3.3125 1 -0.6625
3.375 1 -0.6625
3.4375 1 -0.6625
3.5 1 -0.6625
3.5625 1 -0.6625
3.625 1 -0.6625
3.6875 1 -0.6625
3.75 1 -0.6625
3.8125 1 -0.6625
3.875 1 -0.6625
3.9375 1 -0.6625
4 1 -0.6625
0 0 -0.6
0.0625 0 -0.6
0.125 0 -0.6
0.1875 0 -0.6
0.25 0 -0.6
0.3125 0 -0.6
0.375 0 -0.6
0.4375 0 -0.6
0.5 0 -0.6
0.5625 0 -0.6
0.625 0 -0.6
0.6875 0 -0.6
0.75 0 -0.6
0.8125 0 -0.6
0.875 0 -0.6
0.9375 0 -0.6
1 0 -0.6
1.0625 0 -0.6
1.125 0 -0.6
1.1875 0 -0.6
1.25 0 -0.6
1.3125 0 -0.6
1.375 0 -0.6
1.4375 0 -0.6
1.5 0 -0.6
1.5625 0 -0.6
1.625 0 -0.6
1.6875 0 -0.6
1.75 0 -0.6
1.8125 0 -0.6
1.875 0 -0.6
1.9375 0 -0.6
2 0 -0.6
2.0625 0 -0.6
2.125 0 -0.6
2.1875 0 -0.6
2.25 0 -0.6
2.3125 0 -0.6
2.375 0 -0.6
2.4375 0 -0.6
2.5 0 -0.6
2.5625 0 -0.6
2.625 0 -0.6
2.6875 0 -0.6
2.75 0 -0.6
2.8125 0 -0.6
2.875 0 -0.6
2.9375 0 -0.6
3 0 -0.6
3.0625 0 -0.6
3.125 0 -0.6
3.1875 0 -0.6
3.25 0 -0.6
3.3125 0 -0.6
3.375 0 -0.6
3.4375 0 -0.6
3.5 0 -0.6
3.5625 0 -0.6
3.625 0 -0.6
3.6875 0 -0.6
3.75 0 -0.6
3.8125 0 -0.6
3.875 0 -0.6
3.9375 0 -0.6
4 0 -0.6
0 0.0625 -0.6
0.0625 0.0625 -0.6
0.125 0.0625 -0.6
0.1875 0.0625 -0.6
0.25 0.0625 -0.6
0.3125 0.0625 -0.6
0.375 0.0625 -0.6
0.4375 0.0625 -0.6
0.5 0.0625 -0.6
0.5625 0.0625 -0.6
0.625 0.0625 -0.6
0.6875 0.0625 -0.6
0.75 0.0625 -0.6
0.8125 0.0625 -0.6
0.875 0.0625 -0.6
0.9375 0.0625 -0.6
1 0.0625 -0.6
1.0625 0.0625 -0.6
1.125 0.0625 -0.6
1.1875 0.0625 -0.6
1.25 0.0625 -0.6
1.3125 0.0625 -0.6
1.375 0.0625 -0.6
1.4375 0.0625 -0.6
1.5 0.0625 -0.6
1.5625 0.0625 -0.6
1.625 0.0625 -0.6
1.6875 0.0625 -0.6
1.75 0.0625 -0.6
1.8125 0.0625 -0.6
1.875 0.0625 -0.6
1.9375 0.0625 -0.6
2 0.0625 -0.6
2.0625 0.0625 -0.6
2.125 0.0625 -0.6
2.1875 0.0625 -0.6
2.25 0.0625 -0.6
2.3125 0.0625 -0.6
2.375 0.0625 -0.6
2.4375 0.0625 -0.6
2.5 0.0625 -0.6
2.5625 0.0625 -0.6
2.625 0.0625 -0.6
2.6875 0.0625 -0.6
2.75 0.0625 -0.6
2.8125 0.0625 -0.6
2.875 0.0625 -0.6
2.9375 0.0625 -0.6
3 0.0625 -0.6
3.0625 0.0625 -0.6
3.125 0.0625 -0.6
3.1875 0.0625 -0.6
3.25 0.0625 -0.6
3.3125 0.0625 -0.6
3.375 0.0625 -0.6
3.4375 0.0625 -0.6
3.5 0.0625 -0.6
3.5625 0.0625 -0.6
3.625 0.0625 -0.6
3.6875 0.0625 -0.6
3.75 0.0625 -0.6
3.8125 0.0625 -0.6
3.875 0.0625 -0.6
3.9375 0.0625 -0.6
4 0.0625 -0.6
0 0.125 -0.6
0.0625 0.125 -0.6
0.125 0.125 -0.6
0.1875 0.125 -0.6
0.25 0.125 -0.6
0.3125 0.125 -0.6
0.375 0.125 -0.6
0.4375 0.125 -0.6
0.5 0.125 -0.6
0.5625 0.125 -0.6
0.625 0.125 -0.6
0.6875 0.125 -0.6
0.75 0.125 -0.6
0.8125 0.125 -0.6
0.875 0.125 -0.6
0.9375 0.125 -0.6
1 0.125 -0.6
1.0625 0.125 -0.6
1.125 0.125 -0.6
1.1875 0.125 -0.6
1.25 0.125 -0.6
1.3125 0.125 -0.6
1.375 0.125 -0.6
1.4375 0.125 -0.6
1.5 0.125 -0.6
1.5625 0.125 -0.6
1.625 0.125 -0.6
1.6875 0.125 -0.6
1.75 0.125 -0.6
1.8125 0.125 -0.6
1.875 0.125 -0.6
1.9375 0.125 -0.6
2 0.125 -0.6
2.0625 0.125 -0.6
2.125 0.125 -0.6
2.1875 0.125 -0.6
2.25 0.125 -0.6
2.3125 0.125 -0.6
2.375 0.125 -0.6
2.4375 0.125 -0.6
2.5 0.125 -0.6
2.5625 0.125 -0.6
2.625 0.125 -0.6
2.6875 0.125 -0.6
2.75 0.125 -0.6
2.8125 0.125 -0.6
2.875 0.125 -0.6
2.9375 0.125 -0.6
3 0.125 -0.6
3.0625 0.125 -0.6
3.125 0.125 -0.6
3.1875 0.125 -0.6
3.25 0.125 -0.6
3.3125 0.125 -0.6
3.375 0.125 -0.6
3.4375 0.125 -0.6
3.5 0.125 -0.6
3.5625 0.125 -0.6
3.625 0.125 -0.6
3.6875 0.125 -0.6
3.75 0.125 -0.6
3.8125 0.125 -0.6
3.875 0.125 -0.6
3.9375 0.125 -0.6
4 0.125 -0.6
0 0.1875 -0.6
0.0625 0.1875 -0.6
0.125 0.1875 -0.6
0.1875 0.1875 -0.6
0.25 0.1875 -0.6
0.3125 0.1875 -0.6
0.375 0.1875 -0.6
0.4375 0.1875 -0.6
0.5 0.1875 -0.6
0.5625 0.1875 -0.6
0.625 0.1875 -0.6
0.6875 0.1875 -0.6
0.75 0.1875 -0.6
0.8125 0.1875 -0.6
0.875 0.1875 -0.6
0.9375 0.1875 -0.6
1 0.1875 -0.6
1.0625 0.1875 -0.6
1.125 0.1875 -0.6
1.1875 0.1875 -0.6
1.25 0.1875 -0.6
1.3125 0.1875 -0.6
1.375 0.1875 -0.6
1.4375 0.1875 -0.6
1.5 0.1875 -0.6
1.5625 0.1875 -0.6
1.625 0.1875 -0.6
1.6875 0.1875 -0.6
1.75 0.1875 -0.6
1.8125 0.1875 -0.6
1.875 0.1875 -0.6
1.9375 0.1875 -0.6
2 0.1875 -0.6
2.0625 0.1875 -0.6
2.125 0.1875 -0.6
2.1875 0.1875 -0.6
2.25 0.1875 -0.6
2.3125 0.1875 -0.6
2.375 0.1875 -0.6
2.4375 0.1875 -0.6
2.5 0.1875 -0.6
2.5625 0.1875 -0.6
2.625 0.1875 -0.6
2.6875 0.1875 -0.6
2.75 0.1875 -0.6
2.8125 0.1875 -0.6
2.875 0.1875 -0.6
2.9375 0.1875 -0.6
3 0.1875 -0.6
3.0625 0.1875 -0.6
3.125 0.1875 -0.6
3.1875 0.1875 -0.6
3.25 0.1875 -0.6
3.3125 0.1875 -0.6
3.375 0.1875 -0.6
3.4375 0.1875 -0.6
3.5 0.1875 -0.6
3.5625 0.1875 -0.6
3.625 0.1875 -0.6
3.6875 0.1875 -0.6
3.75 0.1875 -0.6
3.8125 0.1875 -0.6
3.875 0.1875 -0.6
3.9375 0.1875 -0.6
4 0.1875 -0.6
0 0.25 -0.6
0.0625 0.25 -0.6
0.125 0.25 -0.6
0.1875 0.25 -0.6
0.25 0.25 -0.6
0.3125 0.25 -0.6
0.375 0.25 -0.6
0.4375 0.25 -0.6
0.5 0.25 -0.6
0.5625 0.25 -0.6
0.625 0.25 -0.6
0.6875 0.25 -0.6
0.75 0.25 -0.6
0.8125 0.25 -0.6
0.875 0.25 -0.6
0.9375 0.25 -0.6
1 0.25 -0.6
1.0625 0.25 -0.6
1.125 0.25 -0.6
1.1875 0.25 -0.6
1.25 0.25 -0.6
1.3125 0.25 -0.6
1.375 0.25 -0.6
1.4375 0.25 -0.6
1.5 0.25 -0.6
1.5625 0.25 -0.6
1.625 0.25 -0.6
1.6875 0.25 -0.6
1.75 0.25 -0.6
1.8125 0.25 -0.6
1.875 0.25 -0.6
1.9375 0.25 -0.6
2 0.25 -0.6
2.0625 0.25 -0.6
2.125 0.25 -0.6
2.1875 0.25 -0.6
2.25 0.25 -0.6
2.3125 0.25 -0.6
2.375 0.25 -0.6
2.4375 0.25 -0.6
2.5 0.25 -0.6
2.5625 0.25 -0.6
2.625 0.25 -0.6
2.6875 0.25 -0.6
2.75 0.25 -0.6
2.8125 0.25 -0.6
2.875 0.25 -0.6
2.9375 0.25 -0.6
3 0.25 -0.6
3.0625 0.25 -0.6
3.125 0.25 -0.6
3.1875 0.25 -0.6
3.25 0.25 -0.6
3.3125 0.25 -0.6
3.375 0.25 -0.6
3.4375 0.25 -0.6
3.5 0.25 -0.6
3.5625 0.25 -0.6
3.625 0.25 -0.6
3.6875 0.25 -0.6
3.75 0.25 -0.6
3.8125 0.25 -0.6
3.875 0.25 -0.6
3.9375 0.25 -0.6
4 0.25 -0.6
0 0.3125 -0.6
0.0625 0.3125 -0.6
0.125 0.3125 -0.6
0.1875 0.3125 -0.6
0.25 0.3125 -0.6
0.3125 0.3125 -0.6
0.375 0.3125 -0.6
0.4375 0.3125 -0.6
0.5 0.3125 -0.6
0.5625 0.3125 -0.6
0.625 0.3125 -0.6
0.6875 0.3125 -0.6
0.75 0.3125 -0.6
0.8125 0.3125 -0.6
0.875 0.3125 -0.6
0.9375 0.3125 -0.6
1 0.3125 -0.6
1.0625 0.3125 -0.6
1.125 0.3125 -0.6
1.1875 0.3125 -0.6
1.25 0.3125 -0.6
1.3125 0.3125 -0.6
1.375 0.3125 -0.6
1.4375 0.3125 -0.6
1.5 0.3125 -0.6
1.5625 0.3125 -0.6
1.625 0.3125 -0.6
1.6875 0.3125 -0.6
1.75 0.3125 -0.6
1.8125 0.3125 -0.6
1.875 0.3125 -0.6
1.9375 0.3125 -0.6
2 0.3125 -0.6
2.0625 0.3125 -0.6
2.125 0.3125 -0.6
2.1875 0.3125 -0.6
2.25 0.3125 -0.6
2.3125 0.3125 -0.6
2.375 0.3125 -0.6
2.4375 0.3125 -0.6
2.5 0.3125 -0.6
2.5625 0.3125 -0.6
2.625 0.3125 -0.6
2.6875 0.3125 -0.6
2.75 0.3125 -0.6
2.8125 0.3125 -0.6
2.875 0.3125 -0.6
2.9375 0.3125 -0.6
3 0.3125 -0.6
3.0625 0.3125 -0.6
3.125 0.3125 -0.6
3.1875 0.3125 -0.6
3.25 0.3125 -0.6
3.3125 0.3125 -0.6
3.375 0.3125 -0.6
3.4375 0.3125 -0.6
3.5 0.3125 -0.6
3.5625 0.3125 -0.6
3.625 0.3125 -0.6
3.6875 0.3125 -0.6
3.75 0.3125 -0.6
3.8125 0.3125 -0.6
3.875 0.3125 -0.6
3.9375 0.3125 -0.6
4 0.3125 -0.6
0 0.375 -0.6
0.0625 0.375 -0.6
0.125 0.375 -0.6
0.1875 0.375 -0.6
0.25 0.375 -0.6
0.3125 0.375 -0.6
0.375 0.375 -0.6
0.4375 0.375 -0.6
0.5 0.375 -0.6
0.5625 0.375 -0.6
0.625 0.375 -0.6
0.6875 0.375 -0.6
0.75 0.375 -0.6
0.8125 0.375 -0.6
0.875 0.375 -0.6
0.9375 0.375 -0.6
1 0.375 -0.6
1.0625 0.375 -0.6
1.125 0.375 -0.6
1.1875 0.375 -0.6
1.25 0.375 -0.6
1.3125 0.375 -0.6
1.375 0.375 -0.6
1.4375 0.375 -0.6
1.5 0.375 -0.6
1.5625 0.375 -0.6
1.625 0.375 -0.6
1.6875 0.375 -0.6
1.75 0.375 -0.6
1.8125 0.375 -0.6
1.875 0.375 -0.6
1.9375 0.375 -0.6
2 0.375 -0.6
2.0625 0.375 -0.6
2.125 0.375 -0.6
2.1875 0.375 -0.6
2.25 0.375 -0.6
2.3125 0.375 -0.6
2.375 0.375 -0.6
2.4375 0.375 -0.6
2.5 0.375 -0.6
2.5625 0.375 -0.6
2.625 0.375 -0.6
2.6875 0.375 -0.6
2.75 0.375 -0.6
2.8125 0.375 -0.6
2.875 0.375 -0.6
2.9375 0.375 -0.6
3 0.375 -0.6
3.0625 0.375 -0.6
3.125 0.375 -0.6
3.1875 0.375 -0.6
3.25 0.375 -0.6
3.3125 0.375 -0.6
3.375 0.375 -0.6
3.4375 0.375 -0.6
3.5 0.375 -0.6
3.5625 0.375 -0.6
3.625 0.375 -0.6
3.6875 0.375 -0.6
3.75 0.375 -0.6
3.8125 0.375 -0.6
3.875 0.375 -0.6
3.9375 0.375 -0.6
4 0.375 -0.6
0 0.4375 -0.6
0.0625 0.4375 -0.6
0.125 0.4375 -0.6
0.1875 0.4375 -0.6
0.25 0.4375 -0.6
0.3125 0.4375 -0.6
0.375 0.4375 -0.6
0.4375 0.4375 -0.6
0.5 0.4375 -0.6
0.5625 0.4375 -0.6
0.625 0.4375 -0.6
0.6875 0.4375 -0.6
0.75 0.4375 -0.6
0.8125 0.4375 -0.6
0.875 0.4375 -0.6
0.9375 0.4375 -0.6
1 0.4375 -0.6
1.0625 0.4375 -0.6
1.125 0.4375 -0.6
1.1875 0.4375 -0.6
1.25 0.4375 -0.6
1.3125 0.4375 -0.6
1.375 0.4375 -0.6
1.4375 0.4375 -0.6
1.5 0.4375 -0.6
1.5625 0.4375 -0.6
1.625 0.4375 -0.6
1.6875 0.4375 -0.6
1.75 0.4375 -0.6
1.8125 0.4375 -0.6
1.875 0.4375 -0.6
1.9375 0.4375 -0.6
2 0.4375 -0.6
2.0625 0.4375 -0.6
2.125 0.4375 -0.6
2.1875 0.4375 -0.6
2.25 0.4375 -0.6
2.3125 0.4375 -0.6
2.375 0.4375 -0.6
2.4375 0.4375 -0.6
2.5 0.4375 -0.6
2.5625 0.4375 -0.6
2.625 0.4375 -0.6
2.6875 0.4375 -0.6
2.75 0.4375 -0.6
2.8125 0.4375 -0.6
2.875 0.4375 -0.6
2.9375 0.4375 -0.6
3 0.4375 -0.6
3.0625 0.4375 -0.6
3.125 0.4375 -0.6
3.1875 0.4375 -0.6
3.25 0.4375 -0.6
3.3125 0.4375 -0.6
3.375 0.4375 -0.6
3.4375 0.4375 -0.6
3.5 0.4375 -0.6
3.5625 0.4375 -0.6
3.625 0.4375 -0.6
3.6875 0.4375 -0.6
3.75 0.4375 -0.6
3.8125 0.4375 -0.6
3.875 0.4375 -0.6
3.9375 0.4375 -0.6
4 0.4375 -0.6
0 0.5 -0.6
0.0625 0.5 -0.6
0.125 0.5 -0.6
0.1875 0.5 -0.6
0.25 0.5 -0.6
0.3125 0.5 -0.6
0.375 0.5 -0.6
0.4375 0.5 -0.6
0.5 0.5 -0.6
0.5625 0.5 -0.6
0.625 0.5 -0.6
0.6875 0.5 -0.6
0.75 0.5 -0.6
0.8125 0.5 -0.6
0.875 0.5 -0.6
0.9375 0.5 -0.6
1 0.5 -0.6
1.0625 0.5 -0.6
1.125 0.5 -0.6
1.1875 0.5 -0.6
1.25 0.5 -0.6
1.3125 0.5 -0.6
1.375 0.5 -0.6
1.4375 0.5 -0.6
1.5 0.5 -0.6
1.5625 0.5 -0.6
1.625 0.5 -0.6
1.6875 0.5 -0.6
1.75 0.5 -0.6
1.8125 0.5 -0.6
1.875 0.5 -0.6
1.9375 0.5 -0.6
2 0.5 -0.6
2.0625 0.5 -0.6
2.125 0.5 -0.6
2.1875 0.5 -0.6
2.25 0.5 -0.6
2.3125 0.5 -0.6
2.375 0.5 -0.6
2.4375 0.5 -0.6
2.5 0.5 -0.6
2.5625 0.5 -0.6
2.625 0.5 -0.6
2.6875 0.5 -0.6
2.75 0.5 -0.6
2.8125 0.5 -0.6
2.875 0.5 -0.6
2.9375 0.5 -0.6
3 0.5 -0.6
3.0625 0.5 -0.6
3.125 0.5 -0.6
3.1875 0.5 -0.6
3.25 0.5 -0.6
3.3125 0.5 -0.6
3.375 0.5 -0.6
3.4375 0.5 -0.6
3.5 0.5 -0.6
3.5625 0.5 -0.6
3.625 0.5 -0.6
3.6875 0.5 -0.6
3.75 0.5 -0.6
3.8125 0.5 -0.6
3.875 0.5 -0.6
3.9375 0.5 -0.6
4 0.5 -0.6
0 0.5625 -0.6
0.0625 0.5625 -0.6
0.125 0.5625 -0.6
0.1875 0.5625 -0.6
0.25 0.5625 -0.6
0.3125 0.5625 -0.6
0.375 0.5625 -0.6
0.4375 0.5625 -0.6
0.5 0.5625 -0.6
0.5625 0.5625 -0.6
0.625 0.5625 -0.6
0.6875 0.5625 -0.6
0.75 0.5625 -0.6
0.8125 0.5625 -0.6
0.875 0.5625 -0.6
0.9375 0.5625 -0.6
1 0.5625 -0.6
1.0625 0.5625 -0.6
1.125 0.5625 -0.6
1.1875 0.5625 -0.6
1.25 0.5625 -0.6
1.3125 0.5625 -0.6
1.375 0.5625 -0.6
1.4375 0.5625 -0.6
1.5 0.5625 -0.6
1.5625 0.5625 -0.6
1.625 0.5625 -0.6
1.6875 0.5625 -0.6
1.75 0.5625 -0.6
1.8125 0.5625 -0.6
1.875 0.5625 -0.6
1.9375 0.5625 -0.6
2 0.5625 -0.6
2.0625 0.5625 -0.6
2.125 0.5625 -0.6
2.1875 0.5625 -0.6
2.25 0.5625 -0.6
2.3125 0.5625 -0.6
2.375 0.5625 -0.6
2.4375 0.5625 -0.6
2.5 0.5625 -0.6
2.5625 0.5625 -0.6
2.625 0.5625 -0.6
2.6875 0.5625 -0.6
2.75 0.5625 -0.6
2.8125 0.5625 -0.6
2.875 0.5625 -0.6
2.9375 0.5625 -0.6
3 0.5625 -0.6
3.0625 0.5625 -0.6
3.125 0.5625 -0.6
3.1875 0.5625 -0.6
3.25 0.5625 -0.6
3.3125 0.5625 -0.6
3.375 0.5625 -0.6
3.4375 0.5625 -0.6
3.5 0.5625 -0.6
3.5625 0.5625 -0.6
3.625 0.5625 -0.6
3.6875 0.5625 -0.6
3.75 0.5625 -0.6
3.8125 0.5625 -0.6
3.875 0.5625 -0.6
3.9375 0.5625 -0.6
4 0.5625 -0.6
0 0.625 -0.6
0.0625 0.625 -0.6
0.125 0.625 -0.6
0.1875 0.625 -0.6
0.25 0.625 -0.6
0.3125 0.625 -0.6
0.375 0.625 -0.6
0.4375 0.625 -0.6
0.5 0.625 -0.6
0.5625 0.625 -0.6
0.625 0.625 -0.6
0.6875 0.625 -0.6
0.75 0.625 -0.6
0.8125 0.625 -0.6
0.875 0.625 -0.6
0.9375 0.625 -0.6
1 0.625 -0.6
1.0625 0.625 -0.6
1.125 0.625 -0.6
1.1875 0.625 -0.6
1.25 0.625 -0.6
1.3125 0.625 -0.6
1.375 0.625 -0.6
1.4375 0.625 -0.6
1.5 0.625 -0.6
1.5625 0.625 -0.6
1.625 0.625 -0.6
1.6875 0.625 -0.6
1.75 0.625 -0.6
1.8125 0.625 -0.6
1.875 0.625 -0.6
1.9375 0.625 -0.6
2 0.625 -0.6
2.0625 0.625 -0.6
2.125 0.625 -0.6
2.1875 0.625 -0.6
2.25 0.625 -0.6
2.3125 0.625 -0.6
2.375 0.625 -0.6
2.4375 0.625 -0.6
2.5 0.625 -0.6
2.5625 0.625 -0.6
2.625 0.625 -0.6
2.6875 0.625 -0.6
2.75 0.625 -0.6
2.8125 0.625 -0.6
2.875 0.625 -0.6
2.9375 0.625 -0.6
3 0.625 -0.6
3.0625 0.625 -0.6
3.125 0.625 -0.6
3.1875 0.625 -0.6
3.25 0.625 -0.6
3.3125 0.625 -0.6
3.375 0.625 -0.6
3.4375 0.625 -0.6
3.5 0.625 -0.6
3.5625 0.625 -0.6
3.625 0.625 -0.6
3.6875 0.625 -0.6
3.75 0.625 -0.6
3.8125 0.625 -0.6
3.875 0.625 -0.6
3.9375 0.625 -0.6
4 0.625 -0.6
0 0.6875 -0.6
0.0625 0.6875 -0.6
0.125 0.6875 -0.6
0.1875 0.6875 -0.6
0.25 0.6875 -0.6
0.3125 0.6875 -0.6
0.375 0.6875 -0.6
0.4375 0.6875 -0.6
0.5 0.6875 -0.6
0.5625 0.6875 -0.6
0.625 0.6875 -0.6
0.6875 0.6875 -0.6
0.75 0.6875 -0.6
0.8125 0.6875 -0.6
0.875 0.6875 -0.6
0.9375 0.6875 -0.6
1 0.6875 -0.6
1.0625 0.6875 -0.6
1.125 0.6875 -0.6
1.1875 0.6875 -0.6
1.25 0.6875 -0.6
1.3125 0.6875 -0.6
1.375 0.6875 -0.6
1.4375 0.6875 -0.6
1.5 0.6875 -0.6
1.5625 0.6875 -0.6
1.625 0.6875 -0.6
1.6875 0.6875 -0.6
1.75 0.6875 -0.6
1.8125 0.6875 -0.6
1.875 0.6875 -0.6
1.9375 0.6875 -0.6
2 0.6875 -0.6
2.0625 0.6875 -0.6
2.125 0.6875 -0.6
2.1875 0.6875 -0.6
2.25 0.6875 -0.6
2.3125 0.6875 -0.6
2.375 0.6875 -0.6
2.4375 0.6875 -0.6
2.5 0.6875 -0.6
2.5625 0.6875 -0.6
2.625 0.6875 -0.6
2.6875 0.6875 -0.6
2.75 0.6875 -0.6
2.8125 0.6875 -0.6
2.875 0.6875 -0.6
2.9375 0.6875 -0.6
3 0.6875 -0.6
3.0625 0.6875 -0.6
3.125 0.6875 -0.6
3.1875 0.6875 -0.6
3.25 0.6875 -0.6
3.3125 0.6875 -0.6
3.375 0.6875 -0.6
3.4375 0.6875 -0.6
3.5 0.6875 -0.6
3.5625 0.6875 -0.6
3.625 0.6875 -0.6
3.6875 0.6875 -0.6
3.75 0.6875 -0.6
3.8125 0.6875 -0.6
3.875 0.6875 -0.6
3.9375 0.6875 -0.6
4 0.6875 -0.6
0 0.75 -0.6
0.0625 0.75 -0.6
0.125 0.75 -0.6
0.1875 0.75 -0.6
0.25 0.75 -0.6
0.3125 0.75 -0.6
0.375 0.75 -0.6
0.4375 0.75 -0.6
0.5 0.75 -0.6
0.5625 0.75 -0.6
0.625 0.75 -0.6
0.6875 0.75 -0.6
0.75 0.75 -0.6
0.8125 0.75 -0.6
0.875 0.75 -0.6
0.9375 0.75 -0.6
1 0.75 -0.6
1.0625 0.75 -0.6
1.125 0.75 -0.6
1.1875 0.75 -0.6
1.25 0.75 -0.6
1.3125 0.75 -0.6
1.375 0.75 -0.6
1.4375 0.75 -0.6
1.5 0.75 -0.6
1.5625 0.75 -0.6
1.625 0.75 -0.6
1.6875 0.75 -0.6
1.75 0.75 -0.6
1.8125 0.75 -0.6
1.875 0.75 -0.6
1.9375 0.75 -0.6
2 0.75 -0.6
2.0625 0.75 -0.6
2.125 0.75 -0.6
2.1875 0.75 -0.6
2.25 0.75 -0.6
2.3125 0.75 -0.6
2.375 0.75 -0.6
2.4375 0.75 -0.6
2.5 0.75 -0.6
2.5625 0.75 -0.6
2.625 0.75 -0.6
2.6875 0.75 -0.6
2.75 0.75 -0.6
2.8125 0.75 -0.6
2.875 0.75 -0.6
2.9375 0.75 -0.6
3 0.75 -0.6
3.0625 0.75 -0.6
3.125 0.75 -0.6
3.1875 0.75 -0.6
3.25 0.75 -0.6
3.3125 0.75 -0.6
3.375 0.75 -0.6
3.4375 0.75 -0.6
3.5 0.75 -0.6
3.5625 0.75 -0.6
3.625 0.75 -0.6
3.6875 0.75 -0.6
3.75 0.75 -0.6
3.8125 0.75 -0.6
3.875 0.75 -0.6
3.9375 0.75 -0.6
4 0.75 -0.6
0 0.8125 -0.6
0.0625 0.8125 -0.6
0.125 0.8125 -0.6
0.1875 0.8125 -0.6
0.25 0.8125 -0.6
0.3125 0.8125 -0.6
0.375 0.8125 -0.6
0.4375 0.8125 -0.6
0.5 0.8125 -0.6
0.5625 0.8125 -0.6
0.625 0.8125 -0.6
0.6875 0.8125 -0.6
0.75 0.8125 -0.6
0.8125 0.8125 -0.6
0.875 0.8125 -0.6
0.9375 0.8125 -0.6
1 0.8125 -0.6
1.0625 0.8125 -0.6
1.125 0.8125 -0.6
1.1875 0.8125 -0.6
1.25 0.8125 -0.6
1.3125 0.8125 -0.6
1.375 0.8125 -0.6
1.4375 0.8125 -0.6
1.5 0.8125 -0.6
1.5625 0.8125 -0.6
1.625 0.8125 -0.6
1.6875 0.8125 -0.6
1.75 0.8125 -0.6
1.8125 0.8125 -0.6
1.875 0.8125 -0.6
1.9375 0.8125 -0.6
2 0.8125 -0.6
2.0625 0.8125 -0.6
2.125 0.8125 -0.6
2.1875 0.8125 -0.6
2.25 0.8125 -0.6
2.3125 0.8125 -0.6
2.375 0.8125 -0.6
2.4375 0.8125 -0.6
2.5 0.8125 -0.6
2.5625 0.8125 -0.6
2.625 0.8125 -0.6
2.6875 0.8125 -0.6
2.75 0.8125 -0.6
2.8125 0.8125 -0.6
2.875 0.8125 -0.6
2.9375 0.8125 -0.6
3 0.8125 -0.6
3.0625 0.8125 -0.6
3.125 0.8125 -0.6
3.1875 0.8125 -0.6
3.25 0.8125 -0.6
3.3125 0.8125 -0.6
3.375 0.8125 -0.6
3.4375 0.8125 -0.6
3.5 0.8125 -0.6
3.5625 0.8125 -0.6
3.625 0.8125 -0.6
3.6875 0.8125 -0.6
3.75 0.8125 -0.6
3.8125 0.8125 -0.6
3.875 0.8125 -0.6
3.9375 0.8125 -0.6
4 0.8125 -0.6
0 0.875 -0.6
0.0625 0.875 -0.6
0.125 0.875 -0.6
0.1875 0.875 -0.6
0.25 0.875 -0.6
0.3125 0.875 -0.6
0.375 0.875 -0.6
0.4375 0.875 -0.6
0.5 0.875 -0.6
0.5625 0.875 -0.6
0.625 0.875 -0.6
0.6875 0.875 -0.6
0.75 0.875 -0.6
0.8125 0.875 -0.6
0.875 0.875 -0.6
0.9375 0.875 -0.6
1 0.875 -0.6
1.0625 0.875 -0.6
1.125 0.875 -0.6
1.1875 0.875 -0.6
1.25 0.875 -0.6
1.3125 0.875 -0.6
1.375 0.875 -0.6
1.4375 0.875 -0.6
1.5 0.875 -0.6
1.5625 0.875 -0.6
1.625 0.875 -0.6
1.6875 0.875 -0.6
1.75 0.875 -0.6
1.8125 0.875 -0.6
1.875 0.875 -0.6
1.9375 0.875 -0.6
2 0.875 -0.6
2.0625 0.875 -0.6
2.125 0.875 -0.6
2.1875 0.875 -0.6
2.25 0.875 -0.6
2.3125 0.875 -0.6
2.375 0.875 -0.6
2.4375 0.875 -0.6
2.5 0.875 -0.6
2.5625 0.875 -0.6
2.625 0.875 -0.6
2.6875 0.875 -0.6
2.75 0.875 -0.6
2.8125 0.875 -0.6
2.875 0.875 -0.6
2.9375 0.875 -0.6
3 0.875 -0.6
3.0625 0.875 -0.6
3.125 0.875 -0.6
3.1875 0.875 -0.6
3.25 0.875 -0.6
3.3125 0.875 -0.6
3.375 0.875 -0.6
3.4375 0.875 -0.6
3.5 0.875 -0.6
3.5625 0.875 -0.6
3.625 0.875 -0.6
3.6875 0.875 -0.6
3.75 0.875 -0.6
3.8125 0.875 -0.6
3.875 0.875 -0.6
3.9375 0.875 -0.6
4 0.875 -0.6
0 0.9375 -0.6
0.0625 0.9375 -0.6
0.125 0.9375 -0.6
0.1875 0.9375 -0.6
0.25 0.9375 -0.6
0.3125 0.9375 -0.6
0.375 0.9375 -0.6
0.4375 0.9375 -0.6
0.5 0.9375 -0.6
0.5625 0.9375 -0.6
0.625 0.9375 -0.6
0.6875 0.9375 -0.6
0.75 0.9375 -0.6
0.8125 0.9375 -0.6
0.875 0.9375 -0.6
0.9375 0.9375 -0.6
1 0.9375 -0.6
1.0625 0.9375 -0.6
1.125 0.9375 -0.6
1.1875 0.9375 -0.6
1.25 0.9375 -0.6
1.3125 0.9375 -0.6
1.375 0.9375 -0.6
1.4375 0.9375 -0.6
1.5 0.9375 -0.6
1.5625 0.9375 -0.6
1.625 0.9375 -0.6
1.6875 0.9375 -0.6
1.75 0.9375 -0.6
1.8125 0.9375 -0.6
1.875 0.9375 -0.6
1.9375 0.9375 -0.6
2 0.9375 -0.6
2.0625 0.9375 -0.6
2.125 0.9375 -0.6
2.1875 0.9375 -0.6
2.25 0.9375 -0.6
2.3125 0.9375 -0.6
2.375 0.9375 -0.6
2.4375 0.9375 -0.6
2.5 0.9375 -0.6
2.5625 0.9375 -0.6
2.625 0.9375 -0.6
2.6875 0.9375 -0.6
2.75 0.9375 -0.6
2.8125 0.9375 -0.6
2.875 0.9375 -0.6
2.9375 0.9375 -0.6
3 0.9375 -0.6
3.0625 0.9375 -0.6
3.125 0.9375 -0.6
3.1875 0.9375 -0.6
3.25 0.9375 -0.6
3.3125 0.9375 -0.6
3.375 0.9375 -0.6
3.4375 0.9375 -0.6
3.5 0.9375 -0.6
3.5625 0.9375 -0.6
3.625 0.9375 -0.6
3.6875 0.9375 -0.6
3.75 0.9375 -0.6
3.8125 0.9375 -0.6
3.875 0.9375 -0.6
3.9375 0.9375 -0.6
4 0.9375 -0.6
0 1 -0.6
0.0625 1 -0.6
0.125 1 -0.6
0.1875 1 -0.6
0.25 1 -0.6
0.3125 1 -0.6
0.375 1 -0.6
0.4375 1 -0.6
0.5 1 -0.6
0.5625 1 -0.6
0.625 1 -0.6
0.6875 1 -0.6
0.75 1 -0.6
0.8125 1 -0.6
0.875 1 -0.6
0.9375 1 -0.6
1 1 -0.6
1.0625 1 -0.6
1.125 1 -0.6
1.1875 1 -0.6
1.25 1 -0.6
1.3125 1 -0.6
1.375 1 -0.6
1.4375 1 -0.6
1.5 1 -0.6
1.5625 1 -0.6
1.625 1 -0.6
1.6875 1 -0.6
1.75 1 -0.6
1.8125 1 -0.6
1.875 1 -0.6
1.9375 1 -0.6
2 1 -0.6
2.0625 1 -0.6
2.125 1 -0.6
2.1875 1 -0.6
2.25 1 -0.6
2.3125 1 -0.6
2.375 1 -0.6
2.4375 1 -0.6
2.5 1 -0.6
2.5625 1 -0.6
2.625 1 -0.6
2.6875 1 -0.6
2.75 1 -0.6
2.8125 1 -0.6
2.875 1 -0.6
2.9375 1 -0.6
3 1 -0.6
3.0625 1 -0.6
3.125 1 -0.6
3.1875 1 -0.6
3.25 1 -0.6
3.3125 1 -0.6
3.375 1 -0.6
3.4375 1 -0.6
3.5 1 -0.6
3.5625 1 -0.6
3.625 1 -0.6
3.6875 1 -0.6
3.75 1 -0.6
3.8125 1 -0.6
3.875 1 -0.6
3.9375 1 -0.6
4 1 -0.6
0 0 -0.5375
0.0625 0 -0.5375
0.125 0 -0.5375
0.1875 0 -0.5375
0.25 0 -0.5375
0.3125 0 -0.5375
0.375 0 -0.5375
0.4375 0 -0.5375
0.5 0 -0.5375
0.5625 0 -0.5375
0.625 0 -0.5375
0.6875 0 -0.5375
0.75 0 -0.5375
0.8125 0 -0.5375
0.875 0 -0.5375
0.9375 0 -0.5375
1 0 -0.5375
1.0625 0 -0.5375
1.125 0 -0.5375
1.1875 0 -0.5375
1.25 0 -0.5375
1.3125 0 -0.5375
1.375 0 -0.5375
1.4375 0 -0.5375
1.5 0 -0.5375
1.5625 0 -0.5375
1.625 0 -0.5375
1.6875 0 -0.5375
1.75 0 -0.5375
1.8125 0 -0.5375
1.875 0 -0.5375
1.9375 0 -0.5375
2 0 -0.5375
2.0625 0 -0.5375
2.125 0 -0.5375
2.1875 0 -0.5375
2.25 0 -0.5375
2.3125 0 -0.5375
2.375 0 -0.5375
2.4375 0 -0.5375
2.5 0 -0.5375
2.5625 0 -0.5375
2.625 0 -0.5375
2.6875 0 -0.5375
2.75 0 -0.5375
2.8125 0 -0.5375
2.875 0 -0.5375
2.9375 0 -0.5375
3 0 -0.5375
3.0625 0 -0.5375
3.125 0 -0.5375
3.1875 0 -0.5375
3.25 0 -0.5375
3.3125 0 -0.5375
3.375 0 -0.5375
3.4375 0 -0.5375
3.5 0 -0.5375
3.5625 0 -0.5375
3.625 0 -0.5375
3.6875 0 -0.5375
3.75 0 -0.5375
3.8125 0 -0.5375
3.875 0 -0.5375
3.9375 0 -0.5375
4 0 -0.5375
0 0.0625 -0.5375
0.0625 0.0625 -0.5375
0.125 0.0625 -0.5375
0.1875 0.0625 -0.5375
0.25 0.0625 -0.5375
0.3125 0.0625 -0.5375
0.375 0.0625 -0.5375
0.4375 0.0625 -0.5375
0.5 0.0625 -0.5375
0.5625 0.0625 -0.5375
0.625 0.0625 -0.5375
0.6875 0.0625 -0.5375
0.75 0.0625 -0.5375
0.8125 0.0625 -0.5375
0.875 0.0625 -0.5375
0.9375 0.0625 -0.5375
1 0.0625 -0.5375
1.0625 0.0625 -0.5375
1.125 0.0625 -0.5375
1.1875 0.0625 -0.5375
1.25 0.0625 -0.5375
1.3125 0.0625 -0.5375
1.375 0.0625 -0.5375
1.4375 0.0625 -0.5375
1.5 0.0625 -0.5375
1.5625 0.0625 -0.5375
1.625 0.0625 -0.5375
1.6875 0.0625 -0.5375
1.75 0.0625 -0.5375
1.8125 0.0625 -0.5375
1.875 0.0625 -0.5375
1.9375 0.0625 -0.5375
2 0.0625 -0.5375
2.0625 0.0625 -0.5375
2.125 0.0625 -0.5375
2.1875 0.0625 -0.5375
2.25 0.0625 -0.5375
2.3125 0.0625 -0.5375
2.375 0.0625 -0.5375
2.4375 0.0625 -0.5375
2.5 0.0625 -0.5375
2.5625 0.0625 -0.5375
2.625 0.0625 -0.5375
2.6875 0.0625 -0.5375
2.75 0.0625 -0.5375
2.8125 0.0625 -0.5375
2.875 0.0625 -0.5375
2.9375 0.0625 -0.5375
3 0.0625 -0.5375
3.0625 0.0625 -0.5375
3.125 0.0625 -0.5375
3.1875 0.0625 -0.5375
3.25 0.0625 -0.5375
3.3125 0.0625 -0.5375
3.375 0.0625 -0.5375
3.4375 0.0625 -0.5375
3.5 0.0625 -0.5375
3.5625 0.0625 -0.5375
3.625 0.0625 -0.5375
3.6875 0.0625 -0.5375
3.75 0.0625 -0.5375
3.8125 0.0625 -0.5375
3.875 0.0625 -0.5375
3.9375 0.0625 -0.5375
4 0.0625 -0.5375
0 0.125 -0.5375
0.0625 0.125 -0.5375
0.125 0.125 -0.5375
0.1875 0.125 -0.5375
0.25 0.125 -0.5375
0.3125 0.125 -0.5375
0.375 0.125 -0.5375
0.4375 0.125 -0.5375
0.5 0.125 -0.5375
0.5625 0.125 -0.5375
0.625 0.125 -0.5375
0.6875 0.125 -0.5375
0.75 0.125 -0.5375
0.8125 0.125 -0.5375
0.875 0.125 -0.5375
0.9375 0.125 -0.5375
1 0.125 -0.5375
1.0625 0.125 -0.5375
1.125 0.125 -0.5375
1.1875 0.125 -0.5375
1.25 0.125 -0.5375
1.3125 0.125 -0.5375
1.375 0.125 -0.5375
1.4375 0.125 -0.5375
1.5 0.125 -0.5375
1.5625 0.125 -0.5375
1.625 0.125 -0.5375
1.6875 0.125 -0.5375
1.75 0.125 -0.5375
1.8125 0.125 -0.5375
1.875 0.125 -0.5375
1.9375 0.125 -0.5375
2 0.125 -0.5375
2.0625 0.125 -0.5375
2.125 0.125 -0.5375
2.1875 0.125 -0.5375
2.25 0.125 -0.5375
2.3125 0.125 -0.5375
2.375 0.125 -0.5375
2.4375 0.125 -0.5375
2.5 0.125 -0.5375
2.5625 0.125 -0.5375
2.625 0.125 -0.5375
2.6875 0.125 -0.5375
2.75 0.125 -0.5375
2.8125 0.125 -0.5375
2.875 0.125 -0.5375
2.9375 0.125 -0.5375
3 0.125 -0.5375
3.0625 0.125 -0.5375
3.125 0.125 -0.5375
3.1875 0.125 -0.5375
3.25 0.125 -0.5375
3.3125 0.125 -0.5375
3.375 0.125 -0.5375
3.4375 0.125 -0.5375
3.5 0.125 -0.5375
3.5625 0.125 -0.5375
3.625 0.125 -0.5375
3.6875 0.125 -0.5375
3.75 0.125 -0.5375
3.8125 0.125 -0.5375
3.875 0.125 -0.5375
3.9375 0.125 -0.5375
4 0.125 -0.5375
0 0.1875 -0.5375
0.0625 0.1875 -0.5375
0.125 0.1875 -0.5375
0.1875 0.1875 -0.5375
0.25 0.1875 -0.5375
0.3125 0.1875 -0.5375
0.375 0.1875 -0.5375
0.4375 0.1875 -0.5375
0.5 0.1875 -0.5375
0.5625 0.1875 -0.5375
0.625 0.1875 -0.5375
0.6875 0.1875 -0.5375
0.75 0.1875 -0.5375
0.8125 0.1875 -0.5375
0.875 0.1875 -0.5375
0.9375 0.1875 -0.5375
1 0.1875 -0.5375
1.0625 0.1875 -0.5375
1.125 0.1875 -0.5375
1.1875 0.1875 -0.5375
1.25 0.1875 -0.5375
1.3125 0.1875 -0.5375
1.375 0.1875 -0.5375
1.4375 0.1875 -0.5375
1.5 0.1875 -0.5375
1.5625 0.1875 -0.5375
1.625 0.1875 -0.5375
1.6875 0.1875 -0.5375
1.75 0.1875 -0.5375
1.8125 0.1875 -0.5375
1.875 0.1875 -0.5375
1.9375 0.1875 -0.5375
2 0.1875 -0.5375
2.0625 0.1875 -0.5375
2.125 0.1875 -0.5375
2.1875 0.1875 -0.5375
2.25 0.1875 -0.5375
2.3125 0.1875 -0.5375
2.375 0.1875 -0.5375
2.4375 0.1875 -0.5375
2.5 0.1875 -0.5375
2.5625 0.1875 -0.5375
2.625 0.1875 -0.5375
2.6875 0.1875 -0.5375
2.75 0.1875 -0.5375
2.8125 0.1875 -0.5375
2.875 0.1875 -0.5375
2.9375 0.1875 -0.5375
3 0.1875 -0.5375
3.0625 0.1875 -0.5375
3.125 0.1875 -0.5375
3.1875 0.1875 -0.5375
3.25 0.1875 -0.5375
3.3125 0.1875 -0.5375
3.375 0.1875 -0.5375
3.4375 0.1875 -0.5375
3.5 0.1875 -0.5375
3.5625 0.1875 -0.5375
3.625 0.1875 -0.5375
3.6875 0.1875 -0.5375
3.75 0.1875 -0.5375
3.8125 0.1875 -0.5375
3.875 0.1875 -0.5375
3.9375 0.1875 -0.5375
4 0.1875 -0.5375
0 0.25 -0.5375
0.0625 0.25 -0.5375
0.125 0.25 -0.5375
0.1875 0.25 -0.5375
0.25 0.25 -0.5375
0.3125 0.25 -0.5375
0.375 0.25 -0.5375
0.4375 0.25 -0.5375
0.5 0.25 -0.5375
0.5625 0.25 -0.5375
0.625 0.25 -0.5375
0.6875 0.25 -0.5375
0.75 0.25 -0.5375
0.8125 0.25 -0.5375
0.875 0.25 -0.5375
0.9375 0.25 -0.5375
1 0.25 -0.5375
1.0625 0.25 -0.5375
1.125 0.25 -0.5375
1.1875 0.25 -0.5375
1.25 0.25 -0.5375
1.3125 0.25 -0.5375
1.375 0.25 -0.5375
1.4375 0.25 -0.5375
1.5 0.25 -0.5375
1.5625 0.25 -0.5375
1.625 0.25 -0.5375
1.6875 0.25 -0.5375
1.75 0.25 -0.5375
1.8125 0.25 -0.5375
1.875 0.25 -0.5375
1.9375 0.25 -0.5375
2 0.25 -0.5375
2.0625 0.25 -0.5375
2.125 0.25 -0.5375
2.1875 0.25 -0.5375
2.25 0.25 -0.5375
2.3125 0.25 -0.5375
2.375 0.25 -0.5375
2.4375 0.25 -0.5375
2.5 0.25 -0.5375
2.5625 0.25 -0.5375
2.625 0.25 -0.5375
2.6875 0.25 -0.5375
2.75 0.25 -0.5375
2.8125 0.25 -0.5375
2.875 0.25 -0.5375
2.9375 0.25 -0.5375
3 0.25 -0.5375
3.0625 0.25 -0.5375
3.125 0.25 -0.5375
3.1875 0.25 -0.5375
3.25 0.25 -0.5375
3.3125 0.25 -0.5375
3.375 0.25 -0.5375
3.4375 0.25 -0.5375
3.5 0.25 -0.5375
3.5625 0.25 -0.5375
3.625 0.25 -0.5375
3.6875 0.25 -0.5375
3.75 0.25 -0.5375
3.8125 0.25 -0.5375
3.875 0.25 -0.5375
3.9375 0.25 -0.5375
4 0.25 -0.5375
0 0.3125 -0.5375
0.0625 0.3125 -0.5375
0.125 0.3125 -0.5375
0.1875 0.3125 -0.5375
0.25 0.3125 -0.5375
0.3125 0.3125 -0.5375
0.375 0.3125 -0.5375
0.4375 0.3125 -0.5375
0.5 0.3125 -0.5375
0.5625 0.3125 -0.5375
0.625 0.3125 -0.5375
0.6875 0.3125 -0.5375
0.75 0.3125 -0.5375
0.8125 0.3125 -0.5375
0.875 0.3125 -0.5375
0.9375 0.3125 -0.5375
1 0.3125 -0.5375
1.0625 0.3125 -0.5375
1.125 0.3125 -0.5375
1.1875 0.3125 -0.5375
1.25 0.3125 -0.5375
1.3125 0.3125 -0.5375
1.375 0.3125 -0.5375
1.4375 0.3125 -0.5375
1.5 0.3125 -0.5375
1.5625 0.3125 -0.5375
1.625 0.3125 -0.5375
1.6875 0.3125 -0.5375
1.75 0.3125 -0.5375
1.8125 0.3125 -0.5375
1.875 0.3125 -0.5375
1.9375 0.3125 -0.5375
2 0.3125 -0.5375
2.0625 0.3125 -0.5375
2.125 0.3125 -0.5375
2.1875 0.3125 -0.5375
2.25 0.3125 -0.5375
2.3125 0.3125 -0.5375
2.375 0.3125 -0.5375
2.4375 0.3125 -0.5375
2.5 0.3125 -0.5375
2.5625 0.3125 -0.5375
2.625 0.3125 -0.5375
2.6875 0.3125 -0.5375
2.75 0.3125 -0.5375
2.8125 0.3125 -0.5375
2.875 0.3125 -0.5375
2.9375 0.3125 -0.5375
3 0.3125 -0.5375
3.0625 0.3125 -0.5375
3.125 0.3125 -0.5375
3.1875 0.3125 -0.5375
3.25 0.3125 -0.5375
3.3125 0.3125 -0.5375
3.375 0.3125 -0.5375
3.4375 0.3125 -0.5375
3.5 0.3125 -0.5375
3.5625 0.3125 -0.5375
3.625 0.3125 -0.5375
3.6875 0.3125 -0.5375
3.75 0.3125 -0.5375
3.8125 0.3125 -0.5375
3.875 0.3125 -0.5375
3.9375 0.3125 -0.5375
4 0.3125 -0.5375
0 0.375 -0.5375
0.0625 0.375 -0.5375
0.125 0.375 -0.5375
0.1875 0.375 -0.5375
0.25 0.375 -0.5375
0.3125 0.375 -0.5375
0.375 0.375 -0.5375
0.4375 0.375 -0.5375
0.5 0.375 -0.5375
0.5625 0.375 -0.5375
0.625 0.375 -0.5375
0.6875 0.375 -0.5375
0.75 0.375 -0.5375
0.8125 0.375 -0.5375
0.875 0.375 -0.5375
0.9375 0.375 -0.5375
1 0.375 -0.5375
1.0625 0.375 -0.5375
1.125 0.375 -0.5375
1.1875 0.375 -0.5375
1.25 0.375 -0.5375
1.3125 0.375 -0.5375
1.375 0.375 -0.5375
1.4375 0.375 -0.5375
1.5 0.375 -0.5375
1.5625 0.375 -0.5375
1.625 0.375 -0.5375
1.6875 0.375 -0.5375
1.75 0.375 -0.5375
1.8125 0.375 -0.5375
1.875 0.375 -0.5375
1.9375 0.375 -0.5375
2 0.375 -0.5375
2.0625 0.375 -0.5375
2.125 0.375 -0.5375
2.1875 0.375 -0.5375
2.25 0.375 -0.5375
2.3125 0.375 -0.5375
2.375 0.375 -0.5375
2.4375 0.375 -0.5375
2.5 0.375 -0.5375
2.5625 0.375 -0.5375
2.625 0.375 -0.5375
2.6875 0.375 -0.5375
2.75 0.375 -0.5375
2.8125 0.375 -0.5375
2.875 0.375 -0.5375
2.9375 0.375 -0.5375
3 0.375 -0.5375
3.0625 0.375 -0.5375
3.125 0.375 -0.5375
3.1875 0.375 -0.5375
3.25 0.375 -0.5375
3.3125 0.375 -0.5375
3.375 0.375 -0.5375
3.4375 0.375 -0.5375
3.5 0.375 -0.5375
3.5625 0.375 -0.5375
3.625 0.375 -0.5375
3.6875 0.375 -0.5375
3.75 0.375 -0.5375
3.8125 0.375 -0.5375
3.875 0.375 -0.5375
3.9375 0.375 -0.5375
4 0.375 -0.5375
0 0.4375 -0.5375
0.0625 0.4375 -0.5375
0.125 0.4375 -0.5375
0.1875 0.4375 -0.5375
0.25 0.4375 -0.5375
0.3125 0.4375 -0.5375
0.375 0.4375 -0.5375
0.4375 0.4375 -0.5375
0.5 0.4375 -0.5375
0.5625 0.4375 -0.5375
0.625 0.4375 -0.5375
0.6875 0.4375 -0.5375
0.75 0.4375 -0.5375
0.8125 0.4375 -0.5375
0.875 0.4375 -0.5375
0.9375 0.4375 -0.5375
1 0.4375 -0.5375
1.0625 0.4375 -0.5375
1.125 0.4375 -0.5375
1.1875 0.4375 -0.5375
1.25 0.4375 -0.5375
1.3125 0.4375 -0.5375
1.375 0.4375 -0.5375
1.4375 0.4375 -0.5375
1.5 0.4375 -0.5375
1.5625 0.4375 -0.5375
1.625 0.4375 -0.5375
1.6875 0.4375 -0.5375
1.75 0.4375 -0.5375
1.8125 0.4375 -0.5375
1.875 0.4375 -0.5375
1.9375 0.4375 -0.5375
2 0.4375 -0.5375
2.0625 0.4375 -0.5375
2.125 0.4375 -0.5375
2.1875 0.4375 -0.5375
2.25 0.4375 -0.5375
2.3125 0.4375 -0.5375
2.375 0.4375 -0.5375
2.4375 0.4375 -0.5375
2.5 0.4375 -0.5375
2.5625 0.4375 -0.5375
2.625 0.4375 -0.5375
2.6875 0.4375 -0.5375
2.75 0.4375 -0.5375
2.8125 0.4375 -0.5375
2.875 0.4375 -0.5375
2.9375 0.4375 -0.5375
3 0.4375 -0.5375
3.0625 0.4375 -0.5375
3.125 0.4375 -0.5375
3.1875 0.4375 -0.5375
3.25 0.4375 -0.5375
3.3125 0.4375 -0.5375
3.375 0.4375 -0.5375
3.4375 0.4375 -0.5375
3.5 0.4375 -0.5375
3.5625 0.4375 -0.5375
3.625 0.4375 -0.5375
3.6875 0.4375 -0.5375
3.75 0.4375 -0.5375
3.8125 0.4375 -0.5375
3.875 0.4375 -0.5375
3.9375 0.4375 -0.5375
4 0.4375 -0.5375
0 0.5 -0.5375
0.0625 0.5 -0.5375
0.125 0.5 -0.5375
0.1875 0.5 -0.5375
0.25 0.5 -0.5375
0.3125 0.5 -0.5375
0.375 0.5 -0.5375
0.4375 0.5 -0.5375
0.5 0.5 -0.5375
0.5625 0.5 -0.5375
0.625 0.5 -0.5375
0.6875 0.5 -0.5375
0.75 0.5 -0.5375
0.8125 0.5 -0.5375
0.875 0.5 -0.5375
0.9375 0.5 -0.5375
1 0.5 -0.5375
1.0625 0.5 -0.5375
1.125 0.5 -0.5375
1.1875 0.5 -0.5375
1.25 0.5 -0.5375
1.3125 0.5 -0.5375
1.375 0.5 -0.5375
1.4375 0.5 -0.5375
1.5 0.5 -0.5375
1.5625 0.5 -0.5375
1.625 0.5 -0.5375
1.6875 0.5 -0.5375
1.75 0.5 -0.5375
1.8125 0.5 -0.5375
1.875 0.5 -0.5375
1.9375 0.5 -0.5375
2 0.5 -0.5375
2.0625 0.5 -0.5375
2.125 0.5 -0.5375
2.1875 0.5 -0.5375
2.25 0.5 -0.5375
2.3125 0.5 -0.5375
2.375 0.5 -0.5375
2.4375 0.5 -0.5375
2.5 0.5 -0.5375
2.5625 0.5 -0.5375
2.625 0.5 -0.5375
2.6875 0.5 -0.5375
2.75 0.5 -0.5375
2.8125 0.5 -0.5375
2.875 0.5 -0.5375
2.9375 0.5 -0.5375
3 0.5 -0.5375
3.0625 0.5 -0.5375
3.125 0.5 -0.5375
3.1875 0.5 -0.5375
3.25 0.5 -0.5375
3.3125 0.5 -0.5375
3.375 0.5 -0.5375
3.4375 0.5 -0.5375
3.5 0.5 -0.5375
3.5625 0.5 -0.5375
3.625 0.5 -0.5375
3.6875 0.5 -0.5375
3.75 0.5 -0.5375
3.8125 0.5 -0.5375
3.875 0.5 -0.5375
3.9375 0.5 -0.5375
4 0.5 -0.5375
0 0.5625 -0.5375
0.0625 0.5625 -0.5375
0.125 0.5625 -0.5375
0.1875 0.5625 -0.5375
0.25 0.5625 -0.5375
0.3125 0.5625 -0.5375
0.375 0.5625 -0.5375
0.4375 0.5625 -0.5375
0.5 0.5625 -0.5375
0.5625 0.5625 -0.5375
0.625 0.5625 -0.5375
0.6875 0.5625 -0.5375
0.75 0.5625 -0.5375
0.8125 0.5625 -0.5375
0.875 0.5625 -0.5375
0.9375 0.5625 -0.5375
1 0.5625 -0.5375
1.0625 0.5625 -0.5375
1.125 0.5625 -0.5375
1.1875 0.5625 -0.5375
1.25 0.5625 -0.5375
1.3125 0.5625 -0.5375
1.375 0.5625 -0.5375
1.4375 0.5625 -0.5375
1.5 0.5625 -0.5375
1.5625 0.5625 -0.5375
1.625 0.5625 -0.5375
1.6875 0.5625 -0.5375
1.75 0.5625 -0.5375
1.8125 0.5625 -0.5375
1.875 0.5625 -0.5375
1.9375 0.5625 -0.5375
2 0.5625 -0.5375
2.0625 0.5625 -0.5375
2.125 0.5625 -0.5375
2.1875 0.5625 -0.5375
2.25 0.5625 -0.5375
2.3125 0.5625 -0.5375
2.375 0.5625 -0.5375
2.4375 0.5625 -0.5375
2.5 0.5625 -0.5375
2.5625 0.5625 -0.5375
2.625 0.5625 -0.5375
2.6875 0.5625 -0.5375
2.75 0.5625 -0.5375
2.8125 0.5625 -0.5375
2.875 0.5625 -0.5375
2.9375 0.5625 -0.5375
3 0.5625 -0.5375
3.0625 0.5625 -0.5375
3.125 0.5625 -0.5375
3.1875 0.5625 -0.5375
3.25 0.5625 -0.5375
3.3125 0.5625 -0.5375
3.375 0.5625 -0.5375
3.4375 0.5625 -0.5375
3.5 0.5625 -0.5375
3.5625 0.5625 -0.5375
3.625 0.5625 -0.5375
3.6875 0.5625 -0.5375
3.75 0.5625 -0.5375
3.8125 0.5625 -0.5375
3.875 0.5625 -0.5375
3.9375 0.5625 -0.5375
4 0.5625 -0.5375
0 0.625 -0.5375
0.0625 0.625 -0.5375
0.125 0.625 -0.5375
0.1875 0.625 -0.5375
0.25 0.625 -0.5375
0.3125 0.625 -0.5375
0.375 0.625 -0.5375
0.4375 0.625 -0.5375
0.5 0.625 -0.5375
0.5625 0.625 -0.5375
0.625 0.625 -0.5375
0.6875 0.625 -0.5375
0.75 0.625 -0.5375
0.8125 0.625 -0.5375
0.875 0.625 -0.5375
0.9375 0.625 -0.5375
1 0.625 -0.5375
1.0625 0.625 -0.5375
1.125 0.625 -0.5375
1.1875 0.625 -0.5375
1.25 0.625 -0.5375
1.3125 0.625 -0.5375
1.375 0.625 -0.5375
1.4375 0.625 -0.5375
1.5 0.625 -0.5375
1.5625 0.625 -0.5375
1.625 0.625 -0.5375
1.6875 0.625 -0.5375
1.75 0.625 -0.5375
1.8125 0.625 -0.5375
1.875 0.625 -0.5375
1.9375 0.625 -0.5375
2 0.625 -0.5375
2.0625 0.625 -0.5375
2.125 0.625 -0.5375
2.1875 0.625 -0.5375
2.25 0.625 -0.5375
2.3125 0.625 -0.5375
2.375 0.625 -0.5375
2.4375 0.625 -0.5375
2.5 0.625 -0.5375
2.5625 0.625 -0.5375
2.625 0.625 -0.5375
2.6875 0.625 -0.5375
2.75 0.625 -0.5375
2.8125 0.625 -0.5375
2.875 0.625 -0.5375
2.9375 0.625 -0.5375
3 0.625 -0.5375
3.0625 0.625 -0.5375
3.125 0.625 -0.5375
3.1875 0.625 -0.5375
3.25 0.625 -0.5375
3.3125 0.625 -0.5375
3.375 0.625 -0.5375
3.4375 0.625 -0.5375
3.5 0.625 -0.5375
3.5625 0.625 -0.5375
3.625 0.625 -0.5375
3.6875 0.625 -0.5375
3.75 0.625 -0.5375
3.8125 0.625 -0.5375
3.875 0.625 -0.5375
3.9375 0.625 -0.5375
4 0.625 -0.5375
0 0.6875 -0.5375
0.0625 0.6875 -0.5375
0.125 0.6875 -0.5375
0.1875 0.6875 -0.5375
0.25 0.6875 -0.5375
0.3125 0.6875 -0.5375
0.375 0.6875 -0.5375
0.4375 0.6875 -0.5375
0.5 0.6875 -0.5375
0.5625 0.6875 -0.5375
0.625 0.6875 -0.5375
0.6875 0.6875 -0.5375
0.75 0.6875 -0.5375
0.8125 0.6875 -0.5375
0.875 0.6875 -0.5375
0.9375 0.6875 -0.5375
1 0.6875 -0.5375
1.0625 0.6875 -0.5375
1.125 0.6875 -0.5375
1.1875 0.6875 -0.5375
1.25 0.6875 -0.5375
1.3125 0.6875 -0.5375
1.375 0.6875 -0.5375
1.4375 0.6875 -0.5375
1.5 0.6875 -0.5375
1.5625 0.6875 -0.5375
1.625 0.6875 -0.5375
1.6875 0.6875 -0.5375
1.75 0.6875 -0.5375
1.8125 0.6875 -0.5375
1.875 0.6875 -0.5375
1.9375 0.6875 -0.5375
2 0.6875 -0.5375
2.0625 0.6875 -0.5375
2.125 0.6875 -0.5375
2.1875 0.6875 -0.5375
2.25 0.6875 -0.5375
2.3125 0.6875 -0.5375
2.375 0.6875 -0.5375
2.4375 0.6875 -0.5375
2.5 0.6875 -0.5375
2.5625 0.6875 -0.5375
2.625 0.6875 -0.5375
2.6875 0.6875 -0.5375
2.75 0.6875 -0.5375
2.8125 0.6875 -0.5375
2.875 0.6875 -0.5375
2.9375 0.6875 -0.5375
3 0.6875 -0.5375
3.0625 0.6875 -0.5375
3.125 0.6875 -0.5375
3.1875 0.6875 -0.5375
3.25 0.6875 -0.5375
3.3125 0.6875 -0.5375
3.375 0.6875 -0.5375
3.4375 0.6875 -0.5375
3.5 0.6875 -0.5375
3.5625 0.6875 -0.5375
3.625 0.6875 -0.5375
3.6875 0.6875 -0.5375
3.75 0.6875 -0.5375
3.8125 0.6875 -0.5375
3.875 0.6875 -0.5375
3.9375 0.6875 -0.5375
4 0.6875 -0.5375
0 0.75 -0.5375
0.0625 0.75 -0.5375
0.125 0.75 -0.5375
0.1875 0.75 -0.5375
0.25 0.75 -0.5375
0.3125 0.75 -0.5375
0.375 0.75 -0.5375
0.4375 0.75 -0.5375
0.5 0.75 -0.5375
0.5625 0.75 -0.5375
0.625 0.75 -0.5375
0.6875 0.75 -0.5375
0.75 0.75 -0.5375
0.8125 0.75 -0.5375
0.875 0.75 -0.5375
0.9375 0.75 -0.5375
1 0.75 -0.5375
1.0625 0.75 -0.5375
1.125 0.75 -0.5375
1.1875 0.75 -0.5375
1.25 0.75 -0.5375
1.3125 0.75 -0.5375
1.375 0.75 -0.5375
1.4375 0.75 -0.5375
1.5 0.75 -0.5375
1.5625 0.75 -0.5375
1.625 0.75 -0.5375
1.6875 0.75 -0.5375
1.75 0.75 -0.5375
1.8125 0.75 -0.5375
1.875 0.75 -0.5375
1.9375 0.75 -0.5375
2 0.75 -0.5375
2.0625 0.75 -0.5375
2.125 0.75 -0.5375
2.1875 0.75 -0.5375
2.25 0.75 -0.5375
2.3125 0.75 -0.5375
2.375 0.75 -0.5375
2.4375 0.75 -0.5375
2.5 0.75 -0.5375
2.5625 0.75 -0.5375
2.625 0.75 -0.5375
2.6875 0.75 -0.5375
2.75 0.75 -0.5375
2.8125 0.75 -0.5375
2.875 0.75 -0.5375
2.9375 0.75 -0.5375
3 0.75 -0.5375
3.0625 0.75 -0.5375
3.125 0.75 -0.5375
3.1875 0.75 -0.5375
3.25 0.75 -0.5375
3.3125 0.75 -0.5375
3.375 0.75 -0.5375
3.4375 0.75 -0.5375
3.5 0.75 -0.5375
3.5625 0.75 -0.5375
3.625 0.75 -0.5375
3.6875 0.75 -0.5375
3.75 0.75 -0.5375
3.8125 0.75 -0.5375
3.875 0.75 -0.5375
3.9375 0.75 -0.5375
4 0.75 -0.5375
0 0.8125 -0.5375
0.0625 0.8125 -0.5375
0.125 0.8125 -0.5375
0.1875 0.8125 -0.5375
0.25 0.8125 -0.5375
0.3125 0.8125 -0.5375
0.375 0.8125 -0.5375
0.4375 0.8125 -0.5375
0.5 0.8125 -0.5375
0.5625 0.8125 -0.5375
0.625 0.8125 -0.5375
0.6875 0.8125 -0.5375
0.75 0.8125 -0.5375
0.8125 0.8125 -0.5375
0.875 0.8125 -0.5375
0.9375 0.8125 -0.5375
1 0.8125 -0.5375
1.0625 0.8125 -0.5375
1.125 0.8125 -0.5375
1.1875 0.8125 -0.5375
1.25 0.8125 -0.5375
1.3125 0.8125 -0.5375
1.375 0.8125 -0.5375
1.4375 0.8125 -0.5375
1.5 0.8125 -0.5375
1.5625 0.8125 -0.5375
1.625 0.8125 -0.5375
1.6875 0.8125 -0.5375
1.75 0.8125 -0.5375
1.8125 0.8125 -0.5375
1.875 0.8125 -0.5375
1.9375 0.8125 -0.5375
2 0.8125 -0.5375
2.0625 0.8125 -0.5375
2.125 0.8125 -0.5375
2.1875 0.8125 -0.5375
2.25 0.8125 -0.5375
2.3125 0.8125 -0.5375
2.375 0.8125 -0.5375
2.4375 0.8125 -0.5375
2.5 0.8125 -0.5375
2.5625 0.8125 -0.5375
2.625 0.8125 -0.5375
2.6875 0.8125 -0.5375
2.75 0.8125 -0.5375
2.8125 0.8125 -0.5375
2.875 0.8125 -0.5375
2.9375 0.8125 -0.5375
3 0.8125 -0.5375
3.0625 0.8125 -0.5375
3.125 0.8125 -0.5375
3.1875 0.8125 -0.5375
3.25 0.8125 -0.5375
3.3125 0.8125 -0.5375
3.375 0.8125 -0.5375
3.4375 0.8125 -0.5375
3.5 0.8125 -0.5375
3.5625 0.8125 -0.5375
3.625 0.8125 -0.5375
3.6875 0.8125 -0.5375
3.75 0.8125 -0.5375
3.8125 0.8125 -0.5375
3.875 0.8125 -0.5375
3.9375 0.8125 -0.5375
4 0.8125 -0.5375
0 0.875 -0.5375
0.0625 0.875 -0.5375
0.125 0.875 -0.5375
0.1875 0.875 -0.5375
0.25 0.875 -0.5375
0.3125 0.875 -0.5375
0.375 0.875 -0.5375
0.4375 0.875 -0.5375
0.5 0.875 -0.5375
0.5625 0.875 -0.5375
0.625 0.875 -0.5375
0.6875 0.875 -0.5375
0.75 0.875 -0.5375
0.8125 0.875 -0.5375
0.875 0.875 -0.5375
0.9375 0.875 -0.5375
1 0.875 -0.5375
1.0625 0.875 -0.5375
1.125 0.875 -0.5375
1.1875 0.875 -0.5375
1.25 0.875 -0.5375
1.3125 0.875 -0.5375
1.375 0.875 -0.5375
1.4375 0.875 -0.5375
1.5 0.875 -0.5375
1.5625 0.875 -0.5375
1.625 0.875 -0.5375
1.6875 0.875 -0.5375
1.75 0.875 -0.5375
1.8125 0.875 -0.5375
1.875 0.875 -0.5375
1.9375 0.875 -0.5375
2 0.875 -0.5375
2.0625 0.875 -0.5375
2.125 0.875 -0.5375
2.1875 0.875 -0.5375
2.25 0.875 -0.5375
2.3125 0.875 -0.5375
2.375 0.875 -0.5375
2.4375 0.875 -0.5375
2.5 0.875 -0.5375
2.5625 0.875 -0.5375
2.625 0.875 -0.5375
2.6875 0.875 -0.5375
2.75 0.875 -0.5375
2.8125 0.875 -0.5375
2.875 0.875 -0.5375
2.9375 0.875 -0.5375
3 0.875 -0.5375
3.0625 0.875 -0.5375
3.125 0.875 -0.5375
3.1875 0.875 -0.5375
3.25 0.875 -0.5375
3.3125 0.875 -0.5375
3.375 0.875 -0.5375
3.4375 0.875 -0.5375
3.5 0.875 -0.5375
3.5625 0.875 -0.5375
3.625 0.875 -0.5375
3.6875 0.875 -0.5375
3.75 0.875 -0.5375
3.8125 0.875 -0.5375
3.875 0.875 -0.5375
3.9375 0.875 -0.5375
4 0.875 -0.5375
0 0.9375 -0.5375
0.0625 0.9375 -0.5375
0.125 0.9375 -0.5375
0.1875 0.9375 -0.5375
0.25 0.9375 -0.5375
0.3125 0.9375 -0.5375
0.375 0.9375 -0.5375
0.4375 0.9375 -0.5375
0.5 0.9375 -0.5375
0.5625 0.9375 -0.5375
0.625 0.9375 -0.5375
0.6875 0.9375 -0.5375
0.75 0.9375 -0.5375
0.8125 0.9375 -0.5375
0.875 0.9375 -0.5375
0.9375 0.9375 -0.5375
1 0.9375 -0.5375
1.0625 0.9375 -0.5375
1.125 0.9375 -0.5375
1.1875 0.9375 -0.5375
1.25 0.9375 -0.5375
1.3125 0.9375 -0.5375
1.375 0.9375 -0.5375
1.4375 0.9375 -0.5375
1.5 0.9375 -0.5375
1.5625 0.9375 -0.5375
1.625 0.9375 -0.5375
1.6875 0.9375 -0.5375
1.75 0.9375 -0.5375
1.8125 0.9375 -0.5375
1.875 0.9375 -0.5375
1.9375 0.9375 -0.5375
2 0.9375 -0.5375
2.0625 0.9375 -0.5375
2.125 0.9375 -0.5375
2.1875 0.9375 -0.5375
2.25 0.9375 -0.5375
2.3125 0.9375 -0.5375
2.375 0.9375 -0.5375
2.4375 0.9375 -0.5375
2.5 0.9375 -0.5375
2.5625 0.9375 -0.5375
2.625 0.9375 -0.5375
2.6875 0.9375 -0.5375
2.75 0.9375 -0.5375
2.8125 0.9375 -0.5375
2.875 0.9375 -0.5375
2.9375 0.9375 -0.5375
3 0.9375 -0.5375
3.0625 0.9375 -0.5375
3.125 0.9375 -0.5375
3.1875 0.9375 -0.5375
3.25 0.9375 -0.5375
3.3125 0.9375 -0.5375
3.375 0.9375 -0.5375
3.4375 0.9375 -0.5375
3.5 0.9375 -0.5375
3.5625 0.9375 -0.5375
3.625 0.9375 -0.5375
3.6875 0.9375 -0.5375
3.75 0.9375 -0.5375
3.8125 0.9375 -0.5375
3.875 0.9375 -0.5375
3.9375 0.9375 -0.5375
4 0.9375 -0.5375
0 1 -0.5375
0.0625 1 -0.5375
0.125 1 -0.5375
0.1875 1 -0.5375
0.25 1 -0.5375
0.3125 1 -0.5375
0.375 1 -0.5375
0.4375 1 -0.5375
0.5 1 -0.5375
0.5625 1 -0.5375
0.625 1 -0.5375
0.6875 1 -0.5375
0.75 1 -0.5375
0.8125 1 -0.5375
0.875 1 -0.5375
0.9375 1 -0.5375
1 1 -0.5375
1.0625 1 -0.5375
1.125 1 -0.5375
1.1875 1 -0.5375
1.25 1 -0.5375
1.3125 1 -0.5375
1.375 1 -0.5375
1.4375 1 -0.5375
1.5 1 -0.5375
1.5625 1 -0.5375
1.625 1 -0.5375
1.6875 1 -0.5375
1.75 1 -0.5375
1.8125 1 -0.5375
1.875 1 -0.5375
1.9375 1 -0.5375
2 1 -0.5375
2.0625 1 -0.5375
2.125 1 -0.5375
2.1875 1 -0.5375
2.25 1 -0.5375
2.3125 1 -0.5375
2.375 1 -0.5375
2.4375 1 -0.5375
2.5 1 -0.5375
2.5625 1 -0.5375
2.625 1 -0.5375
2.6875 1 -0.5375
2.75 1 -0.5375
2.8125 1 -0.5375
2.875 1 -0.5375
2.9375 1 -0.5375
3 1 -0.5375
3.0625 1 -0.5375
3.125 1 -0.5375
3.1875 1 -0.5375
3.25 1 -0.5375
3.3125 1 -0.5375
3.375 1 -0.5375
3.4375 1 -0.5375
3.5 1 -0.5375
3.5625 1 -0.5375
3.625 1 -0.5375
3.6875 1 -0.5375
3.75 1 -0.5375
3.8125 1 -0.5375
3.875 1 -0.5375
3.9375 1 -0.5375
4 1 -0.5375
0 0 -0.475
0.0625 0 -0.475
0.125 0 -0.475
0.1875 0 -0.475
0.25 0 -0.475
0.3125 0 -0.475
0.375 0 -0.475
0.4375 0 -0.475
0.5 0 -0.475
0.5625 0 -0.475
0.625 0 -0.475
0.6875 0 -0.475
0.75 0 -0.475
0.8125 0 -0.475
0.875 0 -0.475
0.9375 0 -0.475
1 0 -0.475
1.0625 0 -0.475
1.125 0 -0.475
1.1875 0 -0.475
1.25 0 -0.475
1.3125 0 -0.475
1.375 0 -0.475
1.4375 0 -0.475
1.5 0 -0.475
1.5625 0 -0.475
1.625 0 -0.475
1.6875 0 -0.475
1.75 0 -0.475
1.8125 0 -0.475
1.875 0 -0.475
1.9375 0 -0.475
2 0 -0.475
2.0625 0 -0.475
2.125 0 -0.475
2.1875 0 -0.475
2.25 0 -0.475
2.3125 0 -0.475
2.375 0 -0.475
2.4375 0 -0.475
2.5 0 -0.475
2.5625 0 -0.475
2.625 0 -0.475
2.6875 0 -0.475
2.75 0 -0.475
2.8125 0 -0.475
2.875 0 -0.475
2.9375 0 -0.475
3 0 -0.475
3.0625 0 -0.475
3.125 0 -0.475
3.1875 0 -0.475
3.25 0 -0.475
3.3125 0 -0.475
3.375 0 -0.475
3.4375 0 -0.475
3.5 0 -0.475
3.5625 0 -0.475
3.625 0 -0.475
3.6875 0 -0.475
3.75 0 -0.475
3.8125 0 -0.475
3.875 0 -0.475
3.9375 0 -0.475
4 0 -0.475
0 0.0625 -0.475
0.0625 0.0625 -0.475
0.125 0.0625 -0.475
0.1875 0.0625 -0.475
0.25 0.0625 -0.475
0.3125 0.0625 -0.475
0.375 0.0625 -0.475
0.4375 0.0625 -0.475
0.5 0.0625 -0.475
0.5625 0.0625 -0.475
0.625 0.0625 -0.475
0.6875 0.0625 -0.475
0.75 0.0625 -0.475
0.8125 0.0625 -0.475
0.875 0.0625 -0.475
0.9375 0.0625 -0.475
1 0.0625 -0.475
1.0625 0.0625 -0.475
1.125 0.0625 -0.475
1.1875 0.0625 -0.475
1.25 0.0625 -0.475
1.3125 0.0625 -0.475
1.375 0.0625 -0.475
1.4375 0.0625 -0.475
1.5 0.0625 -0.475
1.5625 0.0625 -0.475
1.625 0.0625 -0.475
1.6875 0.0625 -0.475
1.75 0.0625 -0.475
1.8125 0.0625 -0.475
1.875 0.0625 -0.475
1.9375 0.0625 -0.475
2 0.0625 -0.475
2.0625 0.0625 -0.475
2.125 0.0625 -0.475
2.1875 0.0625 -0.475
2.25 0.0625 -0.475
2.3125 0.0625 -0.475
2.375 0.0625 -0.475
2.4375 0.0625 -0.475
2.5 0.0625 -0.475
2.5625 0.0625 -0.475
2.625 0.0625 -0.475
2.6875 0.0625 -0.475
2.75 0.0625 -0.475
2.8125 0.0625 -0.475
2.875 0.0625 -0.475
2.9375 0.0625 -0.475
3 0.0625 -0.475
3.0625 0.0625 -0.475
3.125 0.0625 -0.475
3.1875 0.0625 -0.475
3.25 0.0625 -0.475
3.3125 0.0625 -0.475
3.375 0.0625 -0.475
3.4375 0.0625 -0.475
3.5 0.0625 -0.475
3.5625 0.0625 -0.475
3.625 0.0625 -0.475
3.6875 0.0625 -0.475
3.75 0.0625 -0.475
3.8125 0.0625 -0.475
3.875 0.0625 -0.475
3.9375 0.0625 -0.475
4 0.0625 -0.475
0 0.125 -0.475
0.0625 0.125 -0.475
0.125 0.125 -0.475
0.1875 0.125 -0.475
0.25 0.125 -0.475
0.3125 0.125 -0.475
0.375 0.125 -0.475
0.4375 0.125 -0.475
0.5 0.125 -0.475
0.5625 0.125 -0.475
0.625 0.125 -0.475
0.6875 0.125 -0.475
0.75 0.125 -0.475
0.8125 0.125 -0.475
0.875 0.125 -0.475
0.9375 0.125 -0.475
1 0.125 -0.475
1.0625 0.125 -0.475
1.125 0.125 -0.475
1.1875 0.125 -0.475
1.25 0.125 -0.475
1.3125 0.125 -0.475
1.375 0.125 -0.475
1.4375 0.125 -0.475
1.5 0.125 -0.475
1.5625 0.125 -0.475
1.625 0.125 -0.475
1.6875 0.125 -0.475
1.75 0.125 -0.475
1.8125 0.125 -0.475
1.875 0.125 -0.475
1.9375 0.125 -0.475
2 0.125 -0.475
2.0625 0.125 -0.475
2.125 0.125 -0.475
2.1875 0.125 -0.475
2.25 0.125 -0.475
2.3125 0.125 -0.475
2.375 0.125 -0.475
2.4375 0.125 -0.475
2.5 0.125 -0.475
2.5625 0.125 -0.475
2.625 0.125 -0.475
2.6875 0.125 -0.475
2.75 0.125 -0.475
2.8125 0.125 -0.475
2.875 0.125 -0.475
2.9375 0.125 -0.475
3 0.125 -0.475
3.0625 0.125 -0.475
3.125 0.125 -0.475
3.1875 0.125 -0.475
3.25 0.125 -0.475
3.3125 0.125 -0.475
3.375 0.125 -0.475
3.4375 0.125 -0.475
3.5 0.125 -0.475
3.5625 0.125 -0.475
3.625 0.125 -0.475
3.6875 0.125 -0.475
3.75 0.125 -0.475
3.8125 0.125 -0.475
3.875 0.125 -0.475
3.9375 0.125 -0.475
4 0.125 -0.475
0 0.1875 -0.475
0.0625 0.1875 -0.475
0.125 0.1875 -0.475
0.1875 0.1875 -0.475
0.25 0.1875 -0.475
0.3125 0.1875 -0.475
0.375 0.1875 -0.475
0.4375 0.1875 -0.475
0.5 0.1875 -0.475
0.5625 0.1875 -0.475
0.625 0.1875 -0.475
0.6875 0.1875 -0.475
0.75 0.1875 -0.475
0.8125 0.1875 -0.475
0.875 0.1875 -0.475
0.9375 0.1875 -0.475
1 0.1875 -0.475
1.0625 0.1875 -0.475
1.125 0.1875 -0.475
1.1875 0.1875 -0.475
1.25 0.1875 -0.475
1.3125 0.1875 -0.475
1.375 0.1875 -0.475
1.4375 0.1875 -0.475
1.5 0.1875 -0.475
1.5625 0.1875 -0.475
1.625 0.1875 -0.475
1.6875 0.1875 -0.475
1.75 0.1875 -0.475
1.8125 0.1875 -0.475
1.875 0.1875 -0.475
1.9375 0.1875 -0.475
2 0.1875 -0.475
2.0625 0.1875 -0.475
2.125 0.1875 -0.475
2.1875 0.1875 -0.475
2.25 0.1875 -0.475
2.3125 0.1875 -0.475
2.375 0.1875 -0.475
2.4375 0.1875 -0.475
2.5 0.1875 -0.475
2.5625 0.1875 -0.475
2.625 0.1875 -0.475
2.6875 0.1875 -0.475
2.75 0.1875 -0.475
2.8125 0.1875 -0.475
2.875 0.1875 -0.475
2.9375 0.1875 -0.475
3 0.1875 -0.475
3.0625 0.1875 -0.475
3.125 0.1875 -0.475
3.1875 0.1875 -0.475
3.25 0.1875 -0.475
3.3125 0.1875 -0.475
3.375 0.1875 -0.475
3.4375 0.1875 -0.475
3.5 0.1875 -0.475
3.5625 0.1875 -0.475
3.625 0.1875 -0.475
3.6875 0.1875 -0.475
3.75 0.1875 -0.475
3.8125 0.1875 -0.475
3.875 0.1875 -0.475
3.9375 0.1875 -0.475
4 0.1875 -0.475
0 0.25 -0.475
0.0625 0.25 -0.475
0.125 0.25 -0.475
0.1875 0.25 -0.475
0.25 0.25 -0.475
0.3125 0.25 -0.475
0.375 0.25 -0.475
0.4375 0.25 -0.475
0.5 0.25 -0.475
0.5625 0.25 -0.475
0.625 0.25 -0.475
0.6875 0.25 -0.475
0.75 0.25 -0.475
0.8125 0.25 -0.475
0.875 0.25 -0.475
0.9375 0.25 -0.475
1 0.25 -0.475
1.0625 0.25 -0.475
1.125 0.25 -0.475
1.1875 0.25 -0.475
1.25 0.25 -0.475
1.3125 0.25 -0.475
1.375 0.25 -0.475
1.4375 0.25 -0.475
1.5 0.25 -0.475
1.5625 0.25 -0.475
1.625 0.25 -0.475
1.6875 0.25 -0.475
1.75 0.25 -0.475
1.8125 0.25 -0.475
1.875 0.25 -0.475
1.9375 0.25 -0.475
2 0.25 -0.475
2.0625 0.25 -0.475
2.125 0.25 -0.475
2.1875 0.25 -0.475
2.25 0.25 -0.475
2.3125 0.25 -0.475
2.375 0.25 -0.475
2.4375 0.25 -0.475
2.5 0.25 -0.475
2.5625 0.25 -0.475
2.625 0.25 -0.475
2.6875 0.25 -0.475
2.75 0.25 -0.475
2.8125 0.25 -0.475
2.875 0.25 -0.475
2.9375 0.25 -0.475
3 0.25 -0.475
3.0625 0.25 -0.475
3.125 0.25 -0.475
3.1875 0.25 -0.475
3.25 0.25 -0.475
3.3125 0.25 -0.475
3.375 0.25 -0.475
3.4375 0.25 -0.475
3.5 0.25 -0.475
3.5625 0.25 -0.475
3.625 0.25 -0.475
3.6875 0.25 -0.475
3.75 0.25 -0.475
3.8125 0.25 -0.475
3.875 0.25 -0.475
3.9375 0.25 -0.475
4 0.25 -0.475
0 0.3125 -0.475
0.0625 0.3125 -0.475
0.125 0.3125 -0.475
0.1875 0.3125 -0.475
0.25 0.3125 -0.475
0.3125 0.3125 -0.475
0.375 0.3125 -0.475
0.4375 0.3125 -0.475
0.5 0.3125 -0.475
0.5625 0.3125 -0.475
0.625 0.3125 -0.475
0.6875 0.3125 -0.475
0.75 0.3125 -0.475
0.8125 0.3125 -0.475
0.875 0.3125 -0.475
0.9375 0.3125 -0.475
1 0.3125 -0.475
1.0625 0.3125 -0.475
1.125 0.3125 -0.475
1.1875 0.3125 -0.475
1.25 0.3125 -0.475
1.3125 0.3125 -0.475
1.375 0.3125 -0.475
1.4375 0.3125 -0.475
1.5 0.3125 -0.475
1.5625 0.3125 -0.475
1.625 0.3125 -0.475
1.6875 0.3125 -0.475
1.75 0.3125 -0.475
1.8125 0.3125 -0.475
1.875 0.3125 -0.475
1.9375 0.3125 -0.475
2 0.3125 -0.475
2.0625 0.3125 -0.475
2.125 0.3125 -0.475
2.1875 0.3125 -0.475
2.25 0.3125 -0.475
2.3125 0.3125 -0.475
2.375 0.3125 -0.475
2.4375 0.3125 -0.475
2.5 0.3125 -0.475
2.5625 0.3125 -0.475
2.625 0.3125 -0.475
2.6875 0.3125 -0.475
2.75 0.3125 -0.475
2.8125 0.3125 -0.475
2.875 0.3125 -0.475
2.9375 0.3125 -0.475
3 0.3125 -0.475
3.0625 0.3125 -0.475
3.125 0.3125 -0.475
3.1875 0.3125 -0.475
3.25 0.3125 -0.475
3.3125 0.3125 -0.475
3.375 0.3125 -0.475
3.4375 0.3125 -0.475
3.5 0.3125 -0.475
3.5625 0.3125 -0.475
3.625 0.3125 -0.475
3.6875 0.3125 -0.475
3.75 0.3125 -0.475
3.8125 0.3125 -0.475
3.875 0.3125 -0.475
3.9375 0.3125 -0.475
4 0.3125 -0.475
0 0.375 -0.475
0.0625 0.375 -0.475
0.125 0.375 -0.475
0.1875 0.375 -0.475
0.25 0.375 -0.475
0.3125 0.375 -0.475
0.375 0.375 -0.475
0.4375 0.375 -0.475
0.5 0.375 -0.475
0.5625 0.375 -0.475
0.625 0.375 -0.475
0.6875 0.375 -0.475
0.75 0.375 -0.475
0.8125 0.375 -0.475
0.875 0.375 -0.475
0.9375 0.375 -0.475
1 0.375 -0.475
1.0625 0.375 -0.475
1.125 0.375 -0.475
1.1875 0.375 -0.475
1.25 0.375 -0.475
1.3125 0.375 -0.475
1.375 0.375 -0.475
1.4375 0.375 -0.475
1.5 0.375 -0.475
1.5625 0.375 -0.475
1.625 0.375 -0.475
1.6875 0.375 -0.475
1.75 0.375 -0.475
1.8125 0.375 -0.475
1.875 0.375 -0.475
1.9375 0.375 -0.475
2 0.375 -0.475
2.0625 0.375 -0.475
2.125 0.375 -0.475
2.1875 0.375 -0.475
2.25 0.375 -0.475
2.3125 0.375 -0.475
2.375 0.375 -0.475
2.4375 0.375 -0.475
2.5 0.375 -0.475
2.5625 0.375 -0.475
2.625 0.375 -0.475
2.6875 0.375 -0.475
2.75 0.375 -0.475
2.8125 0.375 -0.475
2.875 0.375 -0.475
2.9375 0.375 -0.475
3 0.375 -0.475
3.0625 0.375 -0.475
3.125 0.375 -0.475
3.1875 0.375 -0.475
3.25 0.375 -0.475
3.3125 0.375 -0.475
3.375 0.375 -0.475
3.4375 0.375 -0.475
3.5 0.375 -0.475
3.5625 0.375 -0.475
3.625 0.375 -0.475
3.6875 0.375 -0.475
3.75 0.375 -0.475
3.8125 0.375 -0.475
3.875 0.375 -0.475
3.9375 0.375 -0.475
4 0.375 -0.475
0 0.4375 -0.475
0.0625 0.4375 -0.475
0.125 0.4375 -0.475
0.1875 0.4375 -0.475
0.25 0.4375 -0.475
0.3125 0.4375 -0.475
0.375 0.4375 -0.475
0.4375 0.4375 -0.475
0.5 0.4375 -0.475
0.5625 0.4375 -0.475
0.625 0.4375 -0.475
0.6875 0.4375 -0.475
0.75 0.4375 -0.475
0.8125 0.4375 -0.475
0.875 0.4375 -0.475
0.9375 0.4375 -0.475
1 0.4375 -0.475
1.0625 0.4375 -0.475
1.125 0.4375 -0.475
1.1875 0.4375 -0.475
1.25 0.4375 -0.475
1.3125 0.4375 -0.475
1.375 0.4375 -0.475
1.4375 0.4375 -0.475
1.5 0.4375 -0.475
1.5625 0.4375 -0.475
1.625 0.4375 -0.475
1.6875 0.4375 -0.475
1.75 0.4375 -0.475
1.8125 0.4375 -0.475
1.875 0.4375 -0.475
1.9375 0.4375 -0.475
2 0.4375 -0.475
2.0625 0.4375 -0.475
2.125 0.4375 -0.475
2.1875 0.4375 -0.475
2.25 0.4375 -0.475
2.3125 0.4375 -0.475
2.375 0.4375 -0.475
2.4375 0.4375 -0.475
2.5 0.4375 -0.475
2.5625 0.4375 -0.475
2.625 0.4375 -0.475
2.6875 0.4375 -0.475
2.75 0.4375 -0.475
2.8125 0.4375 -0.475
2.875 0.4375 -0.475
2.9375 0.4375 -0.475
3 0.4375 -0.475
3.0625 0.4375 -0.475
3.125 0.4375 -0.475
3.1875 0.4375 -0.475
3.25 0.4375 -0.475
3.3125 0.4375 -0.475
3.375 0.4375 -0.475
3.4375 0.4375 -0.475
3.5 0.4375 -0.475
3.5625 0.4375 -0.475
3.625 0.4375 -0.475
3.6875 0.4375 -0.475
3.75 0.4375 -0.475
3.8125 0.4375 -0.475
3.875 0.4375 -0.475
3.9375 0.4375 -0.475
4 0.4375 -0.475
0 0.5 -0.475
0.0625 0.5 -0.475
0.125 0.5 -0.475
0.1875 0.5 -0.475
0.25 0.5 -0.475
0.3125 0.5 -0.475
0.375 0.5 -0.475
0.4375 0.5 -0.475
0.5 0.5 -0.475
0.5625 0.5 -0.475
0.625 0.5 -0.475
0.6875 0.5 -0.475
0.75 0.5 -0.475
0.8125 0.5 -0.475
0.875 0.5 -0.475
0.9375 0.5 -0.475
1 0.5 -0.475
1.0625 0.5 -0.475
1.125 0.5 -0.475
1.1875 0.5 -0.475
1.25 0.5 -0.475
1.3125 0.5 -0.475
1.375 0.5 -0.475
1.4375 0.5 -0.475
1.5 0.5 -0.475
1.5625 0.5 -0.475
1.625 0.5 -0.475
1.6875 0.5 -0.475
1.75 0.5 -0.475
1.8125 0.5 -0.475
1.875 0.5 -0.475
1.9375 0.5 -0.475
2 0.5 -0.475
2.0625 0.5 -0.475
2.125 0.5 -0.475
2.1875 0.5 -0.475
2.25 0.5 -0.475
2.3125 0.5 -0.475
2.375 0.5 -0.475
2.4375 0.5 -0.475
2.5 0.5 -0.475
2.5625 0.5 -0.475
2.625 0.5 -0.475
2.6875 0.5 -0.475
2.75 0.5 -0.475
2.8125 0.5 -0.475
2.875 0.5 -0.475
2.9375 0.5 -0.475
3 0.5 -0.475
3.0625 0.5 -0.475
3.125 0.5 -0.475
3.1875 0.5 -0.475
3.25 0.5 -0.475
3.3125 0.5 -0.475
3.375 0.5 -0.475
3.4375 0.5 -0.475
3.5 0.5 -0.475
3.5625 0.5 -0.475
3.625 0.5 -0.475
3.6875 0.5 -0.475
3.75 0.5 -0.475
3.8125 0.5 -0.475
3.875 0.5 -0.475
3.9375 0.5 -0.475
4 0.5 -0.475
0 0.5625 -0.475
0.0625 0.5625 -0.475
0.125 0.5625 -0.475
0.1875 0.5625 -0.475
0.25 0.5625 -0.475
0.3125 0.5625 -0.475
0.375 0.5625 -0.475
0.4375 0.5625 -0.475
0.5 0.5625 -0.475
0.5625 0.5625 -0.475
0.625 0.5625 -0.475
0.6875 0.5625 -0.475
0.75 0.5625 -0.475
0.8125 0.5625 -0.475
0.875 0.5625 -0.475
0.9375 0.5625 -0.475
1 0.5625 -0.475
1.0625 0.5625 -0.475
1.125 0.5625 -0.475
1.1875 0.5625 -0.475
1.25 0.5625 -0.475
1.3125 0.5625 -0.475
1.375 0.5625 -0.475
1.4375 0.5625 -0.475
1.5 0.5625 -0.475
1.5625 0.5625 -0.475
1.625 0.5625 -0.475
1.6875 0.5625 -0.475
1.75 0.5625 -0.475
1.8125 0.5625 -0.475
1.875 0.5625 -0.475
1.9375 0.5625 -0.475
2 0.5625 -0.475
2.0625 0.5625 -0.475
2.125 0.5625 -0.475
2.1875 0.5625 -0.475
2.25 0.5625 -0.475
2.3125 0.5625 -0.475
2.375 0.5625 -0.475
2.4375 0.5625 -0.475
2.5 0.5625 -0.475
2.5625 0.5625 -0.475
2.625 0.5625 -0.475
2.6875 0.5625 -0.475
2.75 0.5625 -0.475
2.8125 0.5625 -0.475
2.875 0.5625 -0.475
2.9375 0.5625 -0.475
3 0.5625 -0.475
3.0625 0.5625 -0.475
3.125 0.5625 -0.475
3.1875 0.5625 -0.475
3.25 0.5625 -0.475
3.3125 0.5625 -0.475
3.375 0.5625 -0.475
3.4375 0.5625 -0.475
3.5 0.5625 -0.475
3.5625 0.5625 -0.475
3.625 0.5625 -0.475
3.6875 0.5625 -0.475
3.75 0.5625 -0.475
3.8125 0.5625 -0.475
3.875 0.5625 -0.475
3.9375 0.5625 -0.475
4 0.5625 -0.475
0 0.625 -0.475
0.0625 0.625 -0.475
0.125 0.625 -0.475
0.1875 0.625 -0.475
0.25 0.625 -0.475
0.3125 0.625 -0.475
0.375 0.625 -0.475
0.4375 0.625 -0.475
0.5 0.625 -0.475
0.5625 0.625 -0.475
0.625 0.625 -0.475
0.6875 0.625 -0.475
0.75 0.625 -0.475
0.8125 0.625 -0.475
0.875 0.625 -0.475
0.9375 0.625 -0.475
1 0.625 -0.475
1.0625 0.625 -0.475
1.125 0.625 -0.475
1.1875 0.625 -0.475
1.25 0.625 -0.475
1.3125 0.625 -0.475
1.375 0.625 -0.475
1.4375 0.625 -0.475
1.5 0.625 -0.475
1.5625 0.625 -0.475
1.625 0.625 -0.475
1.6875 0.625 -0.475
1.75 0.625 -0.475
1.8125 0.625 -0.475
1.875 0.625 -0.475
1.9375 0.625 -0.475
2 0.625 -0.475
2.0625 0.625 -0.475
2.125 0.625 -0.475
2.1875 0.625 -0.475
2.25 0.625 -0.475
2.3125 0.625 -0.475
2.375 0.625 -0.475
2.4375 0.625 -0.475
2.5 0.625 -0.475
2.5625 0.625 -0.475
2.625 0.625 -0.475
2.6875 0.625 -0.475
2.75 0.625 -0.475
2.8125 0.625 -0.475
2.875 0.625 -0.475
2.9375 0.625 -0.475
3 0.625 -0.475
3.0625 0.625 -0.475
3.125 0.625 -0.475
3.1875 0.625 -0.475
3.25 0.625 -0.475
3.3125 0.625 -0.475
3.375 0.625 -0.475
3.4375 0.625 -0.475
3.5 0.625 -0.475
3.5625 0.625 -0.475
3.625 0.625 -0.475
3.6875 0.625 -0.475
3.75 0.625 -0.475
3.8125 0.625 -0.475
3.875 0.625 -0.475
3.9375 0.625 -0.475
4 0.625 -0.475
0 0.6875 -0.475
0.0625 0.6875 -0.475
0.125 0.6875 -0.475
0.1875 0.6875 -0.475
0.25 0.6875 -0.475
0.3125 0.6875 -0.475
0.375 0.6875 -0.475
0.4375 0.6875 -0.475
0.5 0.6875 -0.475
0.5625 0.6875 -0.475
0.625 0.6875 -0.475
0.6875 0.6875 -0.475
0.75 0.6875 -0.475
0.8125 0.6875 -0.475
0.875 0.6875 -0.475
0.9375 0.6875 -0.475
1 0.6875 -0.475
1.0625 0.6875 -0.475
1.125 0.6875 -0.475
1.1875 0.6875 -0.475
1.25 0.6875 -0.475
1.3125 0.6875 -0.475
1.375 0.6875 -0.475
1.4375 0.6875 -0.475
1.5 0.6875 -0.475
1.5625 0.6875 -0.475
1.625 0.6875 -0.475
1.6875 0.6875 -0.475
1.75 0.6875 -0.475
1.8125 0.6875 -0.475
1.875 0.6875 -0.475
1.9375 0.6875 -0.475
2 0.6875 -0.475
2.0625 0.6875 -0.475
2.125 0.6875 -0.475
2.1875 0.6875 -0.475
2.25 0.6875 -0.475
2.3125 0.6875 -0.475
2.375 0.6875 -0.475
2.4375 0.6875 -0.475
2.5 0.6875 -0.475
2.5625 0.6875 -0.475
2.625 0.6875 -0.475
2.6875 0.6875 -0.475
2.75 0.6875 -0.475
2.8125 0.6875 -0.475
2.875 0.6875 -0.475
2.9375 0.6875 -0.475
3 0.6875 -0.475
3.0625 0.6875 -0.475
3.125 0.6875 -0.475
3.1875 0.6875 -0.475
3.25 0.6875 -0.475
3.3125 0.6875 -0.475
3.375 0.6875 -0.475
3.4375 0.6875 -0.475
3.5 0.6875 -0.475
3.5625 0.6875 -0.475
3.625 0.6875 -0.475
3.6875 0.6875 -0.475
3.75 0.6875 -0.475
3.8125 0.6875 -0.475
3.875 0.6875 -0.475
3.9375 0.6875 -0.475
4 0.6875 -0.475
0 0.75 -0.475
0.0625 0.75 -0.475
0.125 0.75 -0.475
0.1875 0.75 -0.475
0.25 0.75 -0.475
0.3125 0.75 -0.475
0.375 0.75 -0.475
0.4375 0.75 -0.475
0.5 0.75 -0.475
0.5625 0.75 -0.475
0.625 0.75 -0.475
0.6875 0.75 -0.475
0.75 0.75 -0.475
0.8125 0.75 -0.475
0.875 0.75 -0.475
0.9375 0.75 -0.475
1 0.75 -0.475
1.0625 0.75 -0.475
1.125 0.75 -0.475
1.1875 0.75 -0.475
1.25 0.75 -0.475
1.3125 0.75 -0.475
1.375 0.75 -0.475
1.4375 0.75 -0.475
1.5 0.75 -0.475
1.5625 0.75 -0.475
1.625 0.75 -0.475
1.6875 0.75 -0.475
1.75 0.75 -0.475
1.8125 0.75 -0.475
1.875 0.75 -0.475
1.9375 0.75 -0.475
2 0.75 -0.475
2.0625 0.75 -0.475
2.125 0.75 -0.475
2.1875 0.75 -0.475
2.25 0.75 -0.475
2.3125 0.75 -0.475
2.375 0.75 -0.475
2.4375 0.75 -0.475
2.5 0.75 -0.475
2.5625 0.75 -0.475
2.625 0.75 -0.475
2.6875 0.75 -0.475
2.75 0.75 -0.475
2.8125 0.75 -0.475
2.875 0.75 -0.475
2.9375 0.75 -0.475
3 0.75 -0.475
3.0625 0.75 -0.475
3.125 0.75 -0.475
3.1875 0.75 -0.475
3.25 0.75 -0.475
3.3125 0.75 -0.475
3.375 0.75 -0.475
3.4375 0.75 -0.475
3.5 0.75 -0.475
3.5625 0.75 -0.475
3.625 0.75 -0.475
3.6875 0.75 -0.475
3.75 0.75 -0.475
3.8125 0.75 -0.475
3.875 0.75 -0.475
3.9375 0.75 -0.475
4 0.75 -0.475
0 0.8125 -0.475
0.0625 0.8125 -0.475
0.125 0.8125 -0.475
0.1875 0.8125 -0.475
0.25 0.8125 -0.475
0.3125 0.8125 -0.475
0.375 0.8125 -0.475
0.4375 0.8125 -0.475
0.5 0.8125 -0.475
0.5625 0.8125 -0.475
0.625 0.8125 -0.475
0.6875 0.8125 -0.475
0.75 0.8125 -0.475
0.8125 0.8125 -0.475
0.875 0.8125 -0.475
0.9375 0.8125 -0.475
1 0.8125 -0.475
1.0625 0.8125 -0.475
1.125 0.8125 -0.475
1.1875 0.8125 -0.475
1.25 0.8125 -0.475
1.3125 0.8125 -0.475
1.375 0.8125 -0.475
1.4375 0.8125 -0.475
1.5 0.8125 -0.475
1.5625 0.8125 -0.475
1.625 0.8125 -0.475
1.6875 0.8125 -0.475
1.75 0.8125 -0.475
1.8125 0.8125 -0.475
1.875 0.8125 -0.475
1.9375 0.8125 -0.475
2 0.8125 -0.475
2.0625 0.8125 -0.475
2.125 0.8125 -0.475
2.1875 0.8125 -0.475
2.25 0.8125 -0.475
2.3125 0.8125 -0.475
2.375 0.8125 -0.475
2.4375 0.8125 -0.475
2.5 0.8125 -0.475
2.5625 0.8125 -0.475
2.625 0.8125 -0.475
2.6875 0.8125 -0.475
2.75 0.8125 -0.475
2.8125 0.8125 -0.475
2.875 0.8125 -0.475
2.9375 0.8125 -0.475
3 0.8125 -0.475
3.0625 0.8125 -0.475
3.125 0.8125 -0.475
3.1875 0.8125 -0.475
3.25 0.8125 -0.475
3.3125 0.8125 -0.475
3.375 0.8125 -0.475
3.4375 0.8125 -0.475
3.5 0.8125 -0.475
3.5625 0.8125 -0.475
3.625 0.8125 -0.475
3.6875 0.8125 -0.475
3.75 0.8125 -0.475
3.8125 0.8125 -0.475
3.875 0.8125 -0.475
3.9375 0.8125 -0.475
4 0.8125 -0.475
0 0.875 -0.475
0.0625 0.875 -0.475
0.125 0.875 -0.475
0.1875 0.875 -0.475
0.25 0.875 -0.475
0.3125 0.875 -0.475
0.375 0.875 -0.475
0.4375 0.875 -0.475
0.5 0.875 -0.475
0.5625 0.875 -0.475
0.625 0.875 -0.475
0.6875 0.875 -0.475
0.75 0.875 -0.475
0.8125 0.875 -0.475
0.875 0.875 -0.475
0.9375 0.875 -0.475
1 0.875 -0.475
1.0625 0.875 -0.475
1.125 0.875 -0.475
1.1875 0.875 -0.475
1.25 0.875 -0.475
1.3125 0.875 -0.475
1.375 0.875 -0.475
1.4375 0.875 -0.475
1.5 0.875 -0.475
1.5625 0.875 -0.475
1.625 0.875 -0.475
1.6875 0.875 -0.475
1.75 0.875 -0.475
1.8125 0.875 -0.475
1.875 0.875 -0.475
1.9375 0.875 -0.475
2 0.875 -0.475
2.0625 0.875 -0.475
2.125 0.875 -0.475
2.1875 0.875 -0.475
2.25 0.875 -0.475
2.3125 0.875 -0.475
2.375 0.875 -0.475
2.4375 0.875 -0.475
2.5 0.875 -0.475
2.5625 0.875 -0.475
2.625 0.875 -0.475
2.6875 0.875 -0.475
2.75 0.875 -0.475
2.8125 0.875 -0.475
2.875 0.875 -0.475
2.9375 0.875 -0.475
3 0.875 -0.475
3.0625 0.875 -0.475
3.125 0.875 -0.475
3.1875 0.875 -0.475
3.25 0.875 -0.475
3.3125 0.875 -0.475
3.375 0.875 -0.475
3.4375 0.875 -0.475
3.5 0.875 -0.475
3.5625 0.875 -0.475
3.625 0.875 -0.475
3.6875 0.875 -0.475
3.75 0.875 -0.475
3.8125 0.875 -0.475
3.875 0.875 -0.475
3.9375 0.875 -0.475
4 0.875 -0.475
0 0.9375 -0.475
0.0625 0.9375 -0.475
0.125 0.9375 -0.475
0.1875 0.9375 -0.475
0.25 0.9375 -0.475
0.3125 0.9375 -0.475
0.375 0.9375 -0.475
0.4375 0.9375 -0.475
0.5 0.9375 -0.475
0.5625 0.9375 -0.475
0.625 0.9375 -0.475
0.6875 0.9375 -0.475
0.75 0.9375 -0.475
0.8125 0.9375 -0.475
0.875 0.9375 -0.475
0.9375 0.9375 -0.475
1 0.9375 -0.475
1.0625 0.9375 -0.475
1.125 0.9375 -0.475
1.1875 0.9375 -0.475
1.25 0.9375 -0.475
1.3125 0.9375 -0.475
1.375 0.9375 -0.475
1.4375 0.9375 -0.475
1.5 0.9375 -0.475
1.5625 0.9375 -0.475
1.625 0.9375 -0.475
1.6875 0.9375 -0.475
1.75 0.9375 -0.475
1.8125 0.9375 -0.475
1.875 0.9375 -0.475
1.9375 0.9375 -0.475
2 0.9375 -0.475
2.0625 0.9375 -0.475
2.125 0.9375 -0.475
2.1875 0.9375 -0.475
2.25 0.9375 -0.475
2.3125 0.9375 -0.475
2.375 0.9375 -0.475
2.4375 0.9375 -0.475
2.5 0.9375 -0.475
2.5625 0.9375 -0.475
2.625 0.9375 -0.475
2.6875 0.9375 -0.475
2.75 0.9375 -0.475
2.8125 0.9375 -0.475
2.875 0.9375 -0.475
2.9375 0.9375 -0.475
3 0.9375 -0.475
3.0625 0.9375 -0.475
3.125 0.9375 -0.475
3.1875 0.9375 -0.475
3.25 0.9375 -0.475
3.3125 0.9375 -0.475
3.375 0.9375 -0.475
3.4375 0.9375 -0.475
3.5 0.9375 -0.475
3.5625 0.9375 -0.475
3.625 0.9375 -0.475
3.6875 0.9375 -0.475
3.75 0.9375 -0.475
3.8125 0.9375 -0.475
3.875 0.9375 -0.475
3.9375 0.9375 -0.475
4 0.9375 -0.475
0 1 -0.475
0.0625 1 -0.475
0.125 1 -0.475
0.1875 1 -0.475
0.25 1 -0.475
0.3125 1 -0.475
0.375 1 -0.475
0.4375 1 -0.475
0.5 1 -0.475
0.5625 1 -0.475
0.625 1 -0.475
0.6875 1 -0.475
0.75 1 -0.475
0.8125 1 -0.475
0.875 1 -0.475
0.9375 1 -0.475
1 1 -0.475
1.0625 1 -0.475
1.125 1 -0.475
1.1875 1 -0.475
1.25 1 -0.475
1.3125 1 -0.475
1.375 1 -0.475
1.4375 1 -0.475
1.5 1 -0.475
1.5625 1 -0.475
1.625 1 -0.475
1.6875 1 -0.475
1.75 1 -0.475
1.8125 1 -0.475
1.875 1 -0.475
1.9375 1 -0.475
2 1 -0.475
2.0625 1 -0.475
2.125 1 -0.475
2.1875 1 -0.475
2.25 1 -0.475
2.3125 1 -0.475
2.375 1 -0.475
2.4375 1 -0.475
2.5 1 -0.475
2.5625 1 -0.475
2.625 1 -0.475
2.6875 1 -0.475
2.75 1 -0.475
2.8125 1 -0.475
2.875 1 -0.475
2.9375 1 -0.475
3 1 -0.475
3.0625 1 -0.475
3.125 1 -0.475
3.1875 1 -0.475
3.25 1 -0.475
3.3125 1 -0.475
3.375 1 -0.475
3.4375 1 -0.475
3.5 1 -0.475
3.5625 1 -0.475
3.625 1 -0.475
3.6875 1 -0.475
3.75 1 -0.475
3.8125 1 -0.475
3.875 1 -0.475
3.9375 1 -0.475
4 1 -0.475
0 0 -0.4125
0.0625 0 -0.4125
0.125 0 -0.4125
0.1875 0 -0.4125
0.25 0 -0.4125
0.3125 0 -0.4125
0.375 0 -0.4125
0.4375 0 -0.4125
0.5 0 -0.4125
0.5625 0 -0.4125
0.625 0 -0.4125
0.6875 0 -0.4125
0.75 0 -0.4125
0.8125 0 -0.4125
0.875 0 -0.4125
0.9375 0 -0.4125
1 0 -0.4125
1.0625 0 -0.4125
1.125 0 -0.4125
1.1875 0 -0.4125
1.25 0 -0.4125
1.3125 0 -0.4125
1.375 0 -0.4125
1.4375 0 -0.4125
1.5 0 -0.4125
1.5625 0 -0.4125
1.625 0 -0.4125
1.6875 0 -0.4125
1.75 0 -0.4125
1.8125 0 -0.4125
1.875 0 -0.4125
1.9375 0 -0.4125
2 0 -0.4125
2.0625 0 -0.4125
2.125 0 -0.4125
2.1875 0 -0.4125
2.25 0 -0.4125
2.3125 0 -0.4125
2.375 0 -0.4125
2.4375 0 -0.4125
2.5 0 -0.4125
2.5625 0 -0.4125
2.625 0 -0.4125
2.6875 0 -0.4125
2.75 0 -0.4125
2.8125 0 -0.4125
2.875 0 -0.4125
2.9375 0 -0.4125
3 0 -0.4125
3.0625 0 -0.4125
3.125 0 -0.4125
3.1875 0 -0.4125
3.25 0 -0.4125
3.3125 0 -0.4125
3.375 0 -0.4125
3.4375 0 -0.4125
3.5 0 -0.4125
3.5625 0 -0.4125
3.625 0 -0.4125
3.6875 0 -0.4125
3.75 0 -0.4125
3.8125 0 -0.4125
3.875 0 -0.4125
3.9375 0 -0.4125
4 0 -0.4125
0 0.0625 -0.4125
0.0625 0.0625 -0.4125
0.125 0.0625 -0.4125
0.1875 0.0625 -0.4125
0.25 0.0625 -0.4125
0.3125 0.0625 -0.4125
0.375 0.0625 -0.4125
0.4375 0.0625 -0.4125
0.5 0.0625 -0.4125
0.5625 0.0625 -0.4125
0.625 0.0625 -0.4125
0.6875 0.0625 -0.4125
0.75 0.0625 -0.4125
0.8125 0.0625 -0.4125
0.875 0.0625 -0.4125
0.9375 0.0625 -0.4125
1 0.0625 -0.4125
1.0625 0.0625 -0.4125
1.125 0.0625 -0.4125
1.1875 0.0625 -0.4125
1.25 0.0625 -0.4125
1.3125 0.0625 -0.4125
1.375 0.0625 -0.4125
1.4375 0.0625 -0.4125
1.5 0.0625 -0.4125
1.5625 0.0625 -0.4125
1.625 0.0625 -0.4125
1.6875 0.0625 -0.4125
1.75 0.0625 -0.4125
1.8125 0.0625 -0.4125
1.875 0.0625 -0.4125
1.9375 0.0625 -0.4125
2 0.0625 -0.4125
2.0625 0.0625 -0.4125
2.125 0.0625 -0.4125
2.1875 0.0625 -0.4125
2.25 0.0625 -0.4125
2.3125 0.0625 -0.4125
2.375 0.0625 -0.4125
2.4375 0.0625 -0.4125
2.5 0.0625 -0.4125
2.5625 0.0625 -0.4125
2.625 0.0625 -0.4125
2.6875 0.0625 -0.4125
2.75 0.0625 -0.4125
2.8125 0.0625 -0.4125
2.875 0.0625 -0.4125
2.9375 0.0625 -0.4125
3 0.0625 -0.4125
3.0625 0.0625 -0.4125
3.125 0.0625 -0.4125
3.1875 0.0625 -0.4125
3.25 0.0625 -0.4125
3.3125 0.0625 -0.4125
3.375 0.0625 -0.4125
3.4375 0.0625 -0.4125
3.5 0.0625 -0.4125
3.5625 0.0625 -0.4125
3.625 0.0625 -0.4125
3.6875 0.0625 -0.4125
3.75 0.0625 -0.4125
3.8125 0.0625 -0.4125
3.875 0.0625 -0.4125
3.9375 0.0625 -0.4125
4 0.0625 -0.4125
0 0.125 -0.4125
0.0625 0.125 -0.4125
0.125 0.125 -0.4125
0.1875 0.125 -0.4125
0.25 0.125 -0.4125
0.3125 0.125 -0.4125
0.375 0.125 -0.4125
0.4375 0.125 -0.4125
0.5 0.125 -0.4125
0.5625 0.125 -0.4125
0.625 0.125 -0.4125
0.6875 0.125 -0.4125
0.75 0.125 -0.4125
0.8125 0.125 -0.4125
0.875 0.125 -0.4125
0.9375 0.125 -0.4125
1 0.125 -0.4125
1.0625 0.125 -0.4125
1.125 0.125 -0.4125
1.1875 0.125 -0.4125
1.25 0.125 -0.4125
1.3125 0.125 -0.4125
1.375 0.125 -0.4125
1.4375 0.125 -0.4125
1.5 0.125 -0.4125
1.5625 0.125 -0.4125
1.625 0.125 -0.4125
1.6875 0.125 -0.4125
1.75 0.125 -0.4125
1.8125 0.125 -0.4125
1.875 0.125 -0.4125
1.9375 0.125 -0.4125
2 0.125 -0.4125
2.0625 0.125 -0.4125
2.125 0.125 -0.4125
2.1875 0.125 -0.4125
2.25 0.125 -0.4125
2.3125 0.125 -0.4125
2.375 0.125 -0.4125
2.4375 0.125 -0.4125
2.5 0.125 -0.4125
2.5625 0.125 -0.4125
2.625 0.125 -0.4125
2.6875 0.125 -0.4125
2.75 0.125 -0.4125
2.8125 0.125 -0.4125
2.875 0.125 -0.4125
2.9375 0.125 -0.4125
3 0.125 -0.4125
3.0625 0.125 -0.4125
3.125 0.125 -0.4125
3.1875 0.125 -0.4125
3.25 0.125 -0.4125
3.3125 0.125 -0.4125
3.375 0.125 -0.4125
3.4375 0.125 -0.4125
3.5 0.125 -0.4125
3.5625 0.125 -0.4125
3.625 0.125 -0.4125
3.6875 0.125 -0.4125
3.75 0.125 -0.4125
3.8125 0.125 -0.4125
3.875 0.125 -0.4125
3.9375 0.125 -0.4125
4 0.125 -0.4125
0 0.1875 -0.4125
0.0625 0.1875 -0.4125
0.125 0.1875 -0.4125
0.1875 0.1875 -0.4125
0.25 0.1875 -0.4125
0.3125 0.1875 -0.4125
0.375 0.1875 -0.4125
0.4375 0.1875 -0.4125
0.5 0.1875 -0.4125
0.5625 0.1875 -0.4125
0.625 0.1875 -0.4125
0.6875 0.1875 -0.4125
0.75 0.1875 -0.4125
0.8125 0.1875 -0.4125
0.875 0.1875 -0.4125
0.9375 0.1875 -0.4125
1 0.1875 -0.4125
1.0625 0.1875 -0.4125
1.125 0.1875 -0.4125
1.1875 0.1875 -0.4125
1.25 0.1875 -0.4125
1.3125 0.1875 -0.4125
1.375 0.1875 -0.4125
1.4375 0.1875 -0.4125
1.5 0.1875 -0.4125
1.5625 0.1875 -0.4125
1.625 0.1875 -0.4125
1.6875 0.1875 -0.4125
1.75 0.1875 -0.4125
1.8125 0.1875 -0.4125
1.875 0.1875 -0.4125
1.9375 0.1875 -0.4125
2 0.1875 -0.4125
2.0625 0.1875 -0.4125
2.125 0.1875 -0.4125
2.1875 0.1875 -0.4125
2.25 0.1875 -0.4125
2.3125 0.1875 -0.4125
2.375 0.1875 -0.4125
2.4375 0.1875 -0.4125
2.5 0.1875 -0.4125
2.5625 0.1875 -0.4125
2.625 0.1875 -0.4125
2.6875 0.1875 -0.4125
2.75 0.1875 -0.4125
2.8125 0.1875 -0.4125
2.875 0.1875 -0.4125
2.9375 0.1875 -0.4125
3 0.1875 -0.4125
3.0625 0.1875 -0.4125
3.125 0.1875 -0.4125
3.1875 0.1875 -0.4125
3.25 0.1875 -0.4125
3.3125 0.1875 -0.4125
3.375 0.1875 -0.4125
3.4375 0.1875 -0.4125
3.5 0.1875 -0.4125
3.5625 0.1875 -0.4125
3.625 0.1875 -0.4125
3.6875 0.1875 -0.4125
3.75 0.1875 -0.4125
3.8125 0.1875 -0.4125
3.875 0.1875 -0.4125
3.9375 0.1875 -0.4125
4 0.1875 -0.4125
0 0.25 -0.4125
0.0625 0.25 -0.4125
0.125 0.25 -0.4125
0.1875 0.25 -0.4125
0.25 0.25 -0.4125
0.3125 0.25 -0.4125
0.375 0.25 -0.4125
0.4375 0.25 -0.4125
0.5 0.25 -0.4125
0.5625 0.25 -0.4125
0.625 0.25 -0.4125
0.6875 0.25 -0.4125
0.75 0.25 -0.4125
0.8125 0.25 -0.4125
0.875 0.25 -0.4125
0.9375 0.25 -0.4125
1 0.25 -0.4125
1.0625 0.25 -0.4125
1.125 0.25 -0.4125
1.1875 0.25 -0.4125
1.25 0.25 -0.4125
1.3125 0.25 -0.4125
1.375 0.25 -0.4125
1.4375 0.25 -0.4125
1.5 0.25 -0.4125
1.5625 0.25 -0.4125
1.625 0.25 -0.4125
1.6875 0.25 -0.4125
1.75 0.25 -0.4125
1.8125 0.25 -0.4125
1.875 0.25 -0.4125
1.9375 0.25 -0.4125
2 0.25 -0.4125
2.0625 0.25 -0.4125
2.125 0.25 -0.4125
2.1875 0.25 -0.4125
2.25 0.25 -0.4125
2.3125 0.25 -0.4125
2.375 0.25 -0.4125
2.4375 0.25 -0.4125
2.5 0.25 -0.4125
2.5625 0.25 -0.4125
2.625 0.25 -0.4125
2.6875 0.25 -0.4125
2.75 0.25 -0.4125
2.8125 0.25 -0.4125
2.875 0.25 -0.4125
2.9375 0.25 -0.4125
3 0.25 -0.4125
3.0625 0.25 -0.4125
3.125 0.25 -0.4125
3.1875 0.25 -0.4125
3.25 0.25 -0.4125
3.3125 0.25 -0.4125
3.375 0.25 -0.4125
3.4375 0.25 -0.4125
3.5 0.25 -0.4125
3.5625 0.25 -0.4125
3.625 0.25 -0.4125
3.6875 0.25 -0.4125
3.75 0.25 -0.4125
3.8125 0.25 -0.4125
3.875 0.25 -0.4125
3.9375 0.25 -0.4125
4 0.25 -0.4125
0 0.3125 -0.4125
0.0625 0.3125 -0.4125
0.125 0.3125 -0.4125
0.1875 0.3125 -0.4125
0.25 0.3125 -0.4125
0.3125 0.3125 -0.4125
0.375 0.3125 -0.4125
0.4375 0.3125 -0.4125
0.5 0.3125 -0.4125
0.5625 0.3125 -0.4125
0.625 0.3125 -0.4125
0.6875 0.3125 -0.4125
0.75 0.3125 -0.4125
0.8125 0.3125 -0.4125
0.875 0.3125 -0.4125
0.9375 0.3125 -0.4125
1 0.3125 -0.4125
1.0625 0.3125 -0.4125
1.125 0.3125 -0.4125
1.1875 0.3125 -0.4125
1.25 0.3125 -0.4125
1.3125 0.3125 -0.4125
1.375 0.3125 -0.4125
1.4375 0.3125 -0.4125
1.5 0.3125 -0.4125
1.5625 0.3125 -0.4125
1.625 0.3125 -0.4125
1.6875 0.3125 -0.4125
1.75 0.3125 -0.4125
1.8125 0.3125 -0.4125
1.875 0.3125 -0.4125
1.9375 0.3125 -0.4125
2 0.3125 -0.4125
2.0625 0.3125 -0.4125
2.125 0.3125 -0.4125
2.1875 0.3125 -0.4125
2.25 0.3125 -0.4125
2.3125 0.3125 -0.4125
2.375 0.3125 -0.4125
2.4375 0.3125 -0.4125
2.5 0.3125 -0.4125
2.5625 0.3125 -0.4125
2.625 0.3125 -0.4125
2.6875 0.3125 -0.4125
2.75 0.3125 -0.4125
2.8125 0.3125 -0.4125
2.875 0.3125 -0.4125
2.9375 0.3125 -0.4125
3 0.3125 -0.4125
3.0625 0.3125 -0.4125
3.125 0.3125 -0.4125
3.1875 0.3125 -0.4125
3.25 0.3125 -0.4125
3.3125 0.3125 -0.4125
3.375 0.3125 -0.4125
3.4375 0.3125 -0.4125
3.5 0.3125 -0.4125
3.5625 0.3125 -0.4125
3.625 0.3125 -0.4125
3.6875 0.3125 -0.4125
3.75 0.3125 -0.4125
3.8125 0.3125 -0.4125
3.875 0.3125 -0.4125
3.9375 0.3125 -0.4125
4 0.3125 -0.4125
0 0.375 -0.4125
0.0625 0.375 -0.4125
0.125 0.375 -0.4125
0.1875 0.375 -0.4125
0.25 0.375 -0.4125
0.3125 0.375 -0.4125
0.375 0.375 -0.4125
0.4375 0.375 -0.4125
0.5 0.375 -0.4125
0.5625 0.375 -0.4125
0.625 0.375 -0.4125
0.6875 0.375 -0.4125
0.75 0.375 -0.4125
0.8125 0.375 -0.4125
0.875 0.375 -0.4125
0.9375 0.375 -0.4125
1 0.375 -0.4125
1.0625 0.375 -0.4125
1.125 0.375 -0.4125
1.1875 0.375 -0.4125
1.25 0.375 -0.4125
1.3125 0.375 -0.4125
1.375 0.375 -0.4125
1.4375 0.375 -0.4125
1.5 0.375 -0.4125
1.5625 0.375 -0.4125
1.625 0.375 -0.4125
1.6875 0.375 -0.4125
1.75 0.375 -0.4125
1.8125 0.375 -0.4125
1.875 0.375 -0.4125
1.9375 0.375 -0.4125
2 0.375 -0.4125
2.0625 0.375 -0.4125
2.125 0.375 -0.4125
2.1875 0.375 -0.4125
2.25 0.375 -0.4125
2.3125 0.375 -0.4125
2.375 0.375 -0.4125
2.4375 0.375 -0.4125
2.5 0.375 -0.4125
2.5625 0.375 -0.4125
2.625 0.375 -0.4125
2.6875 0.375 -0.4125
2.75 0.375 -0.4125
2.8125 0.375 -0.4125
2.875 0.375 -0.4125
2.9375 0.375 -0.4125
3 0.375 -0.4125
3.0625 0.375 -0.4125
3.125 0.375 -0.4125
3.1875 0.375 -0.4125
3.25 0.375 -0.4125
3.3125 0.375 -0.4125
3.375 0.375 -0.4125
3.4375 0.375 -0.4125
3.5 0.375 -0.4125
3.5625 0.375 -0.4125
3.625 0.375 -0.4125
3.6875 0.375 -0.4125
3.75 0.375 -0.4125
3.8125 0.375 -0.4125
3.875 0.375 -0.4125
3.9375 0.375 -0.4125
4 0.375 -0.4125
0 0.4375 -0.4125
0.0625 0.4375 -0.4125
0.125 0.4375 -0.4125
0.1875 0.4375 -0.4125
0.25 0.4375 -0.4125
0.3125 0.4375 -0.4125
0.375 0.4375 -0.4125
0.4375 0.4375 -0.4125
0.5 0.4375 -0.4125
0.5625 0.4375 -0.4125
0.625 0.4375 -0.4125
0.6875 0.4375 -0.4125
0.75 0.4375 -0.4125
0.8125 0.4375 -0.4125
0.875 0.4375 -0.4125
0.9375 0.4375 -0.4125
1 0.4375 -0.4125
1.0625 0.4375 -0.4125
1.125 0.4375 -0.4125
1.1875 0.4375 -0.4125
1.25 0.4375 -0.4125
1.3125 0.4375 -0.4125
1.375 0.4375 -0.4125
1.4375 0.4375 -0.4125
1.5 0.4375 -0.4125
1.5625 0.4375 -0.4125
1.625 0.4375 -0.4125
1.6875 0.4375 -0.4125
1.75 0.4375 -0.4125
1.8125 0.4375 -0.4125
1.875 0.4375 -0.4125
1.9375 0.4375 -0.4125
2 0.4375 -0.4125
2.0625 0.4375 -0.4125
2.125 0.4375 -0.4125
2.1875 0.4375 -0.4125
2.25 0.4375 -0.4125
2.3125 0.4375 -0.4125
2.375 0.4375 -0.4125
2.4375 0.4375 -0.4125
2.5 0.4375 -0.4125
2.5625 0.4375 -0.4125
2.625 0.4375 -0.4125
2.6875 0.4375 -0.4125
2.75 0.4375 -0.4125
2.8125 0.4375 -0.4125
2.875 0.4375 -0.4125
2.9375 0.4375 -0.4125
3 0.4375 -0.4125
3.0625 0.4375 -0.4125
3.125 0.4375 -0.4125
3.1875 0.4375 -0.4125
3.25 0.4375 -0.4125
3.3125 0.4375 -0.4125
3.375 0.4375 -0.4125
3.4375 0.4375 -0.4125
3.5 0.4375 -0.4125
3.5625 0.4375 -0.4125
3.625 0.4375 -0.4125
3.6875 0.4375 -0.4125
3.75 0.4375 -0.4125
3.8125 0.4375 -0.4125
3.875 0.4375 -0.4125
3.9375 0.4375 -0.4125
4 0.4375 -0.4125
0 0.5 -0.4125
0.0625 0.5 -0.4125
0.125 0.5 -0.4125
0.1875 0.5 -0.4125
0.25 0.5 -0.4125
0.3125 0.5 -0.4125
0.375 0.5 -0.4125
0.4375 0.5 -0.4125
0.5 0.5 -0.4125
0.5625 0.5 -0.4125
0.625 0.5 -0.4125
0.6875 0.5 -0.4125
0.75 0.5 -0.4125
0.8125 0.5 -0.4125
0.875 0.5 -0.4125
0.9375 0.5 -0.4125
1 0.5 -0.4125
1.0625 0.5 -0.4125
1.125 0.5 -0.4125
1.1875 0.5 -0.4125
1.25 0.5 -0.4125
1.3125 0.5 -0.4125
1.375 0.5 -0.4125
1.4375 0.5 -0.4125
1.5 0.5 -0.4125
1.5625 0.5 -0.4125
1.625 0.5 -0.4125
1.6875 0.5 -0.4125
1.75 0.5 -0.4125
1.8125 0.5 -0.4125
1.875 0.5 -0.4125
1.9375 0.5 -0.4125
2 0.5 -0.4125
2.0625 0.5 -0.4125
2.125 0.5 -0.4125
2.1875 0.5 -0.4125
2.25 0.5 -0.4125
2.3125 0.5 -0.4125
2.375 0.5 -0.4125
2.4375 0.5 -0.4125
2.5 0.5 -0.4125
2.5625 0.5 -0.4125
2.625 0.5 -0.4125
2.6875 0.5 -0.4125
2.75 0.5 -0.4125
2.8125 0.5 -0.4125
2.875 0.5 -0.4125
2.9375 0.5 -0.4125
3 0.5 -0.4125
3.0625 0.5 -0.4125
3.125 0.5 -0.4125
3.1875 0.5 -0.4125
3.25 0.5 -0.4125
3.3125 0.5 -0.4125
3.375 0.5 -0.4125
3.4375 0.5 -0.4125
3.5 0.5 -0.4125
3.5625 0.5 -0.4125
3.625 0.5 -0.4125
3.6875 0.5 -0.4125
3.75 0.5 -0.4125
3.8125 0.5 -0.4125
3.875 0.5 -0.4125
3.9375 0.5 -0.4125
4 0.5 -0.4125
0 0.5625 -0.4125
0.0625 0.5625 -0.4125
0.125 0.5625 -0.4125
0.1875 0.5625 -0.4125
0.25 0.5625 -0.4125
0.3125 0.5625 -0.4125
0.375 0.5625 -0.4125
0.4375 0.5625 -0.4125
0.5 0.5625 -0.4125
0.5625 0.5625 -0.4125
0.625 0.5625 -0.4125
0.6875 0.5625 -0.4125
0.75 0.5625 -0.4125
0.8125 0.5625 -0.4125
0.875 0.5625 -0.4125
0.9375 0.5625 -0.4125
1 0.5625 -0.4125
1.0625 0.5625 -0.4125
1.125 0.5625 -0.4125
1.1875 0.5625 -0.4125
1.25 0.5625 -0.4125
1.3125 0.5625 -0.4125
1.375 0.5625 -0.4125
1.4375 0.5625 -0.4125
1.5 0.5625 -0.4125
1.5625 0.5625 -0.4125
1.625 0.5625 -0.4125
1.6875 0.5625 -0.4125
1.75 0.5625 -0.4125
1.8125 0.5625 -0.4125
1.875 0.5625 -0.4125
1.9375 0.5625 -0.4125
2 0.5625 -0.4125
2.0625 0.5625 -0.4125
2.125 0.5625 -0.4125
2.1875 0.5625 -0.4125
2.25 0.5625 -0.4125
2.3125 0.5625 -0.4125
2.375 0.5625 -0.4125
2.4375 0.5625 -0.4125
2.5 0.5625 -0.4125
2.5625 0.5625 -0.4125
2.625 0.5625 -0.4125
2.6875 0.5625 -0.4125
2.75 0.5625 -0.4125
2.8125 0.5625 -0.4125
2.875 0.5625 -0.4125
2.9375 0.5625 -0.4125
3 0.5625 -0.4125
3.0625 0.5625 -0.4125
3.125 0.5625 -0.4125
3.1875 0.5625 -0.4125
3.25 0.5625 -0.4125
3.3125 0.5625 -0.4125
3.375 0.5625 -0.4125
3.4375 0.5625 -0.4125
3.5 0.5625 -0.4125
3.5625 0.5625 -0.4125
3.625 0.5625 -0.4125
3.6875 0.5625 -0.4125
3.75 0.5625 -0.4125
3.8125 0.5625 -0.4125
3.875 0.5625 -0.4125
3.9375 0.5625 -0.4125
4 0.5625 -0.4125
0 0.625 -0.4125
0.0625 0.625 -0.4125
0.125 0.625 -0.4125
0.1875 0.625 -0.4125
0.25 0.625 -0.4125
0.3125 0.625 -0.4125
0.375 0.625 -0.4125
0.4375 0.625 -0.4125
0.5 0.625 -0.4125
0.5625 0.625 -0.4125
0.625 0.625 -0.4125
0.6875 0.625 -0.4125
0.75 0.625 -0.4125
0.8125 0.625 -0.4125
0.875 0.625 -0.4125
0.9375 0.625 -0.4125
1 0.625 -0.4125
1.0625 0.625 -0.4125
1.125 0.625 -0.4125
1.1875 0.625 -0.4125
1.25 0.625 -0.4125
1.3125 0.625 -0.4125
1.375 0.625 -0.4125
1.4375 0.625 -0.4125
1.5 0.625 -0.4125
1.5625 0.625 -0.4125
1.625 0.625 -0.4125
1.6875 0.625 -0.4125
1.75 0.625 -0.4125
1.8125 0.625 -0.4125
1.875 0.625 -0.4125
1.9375 0.625 -0.4125
2 0.625 -0.4125
2.0625 0.625 -0.4125
2.125 0.625 -0.4125
2.1875 0.625 -0.4125
2.25 0.625 -0.4125
2.3125 0.625 -0.4125
2.375 0.625 -0.4125
2.4375 0.625 -0.4125
2.5 0.625 -0.4125
2.5625 0.625 -0.4125
2.625 0.625 -0.4125
2.6875 0.625 -0.4125
2.75 0.625 -0.4125
2.8125 0.625 -0.4125
2.875 0.625 -0.4125
2.9375 0.625 -0.4125
3 0.625 -0.4125
3.0625 0.625 -0.4125
3.125 0.625 -0.4125
3.1875 0.625 -0.4125
3.25 0.625 -0.4125
3.3125 0.625 -0.4125
3.375 0.625 -0.4125
3.4375 0.625 -0.4125
3.5 0.625 -0.4125
3.5625 0.625 -0.4125
3.625 0.625 -0.4125
3.6875 0.625 -0.4125
3.75 0.625 -0.4125
3.8125 0.625 -0.4125
3.875 0.625 -0.4125
3.9375 0.625 -0.4125
4 0.625 -0.4125
0 0.6875 -0.4125
0.0625 0.6875 -0.4125
0.125 0.6875 -0.4125
0.1875 0.6875 -0.4125
0.25 0.6875 -0.4125
0.3125 0.6875 -0.4125
0.375 0.6875 -0.4125
0.4375 0.6875 -0.4125
0.5 0.6875 -0.4125
0.5625 0.6875 -0.4125
0.625 0.6875 -0.4125
0.6875 0.6875 -0.4125
0.75 0.6875 -0.4125
0.8125 0.6875 -0.4125
0.875 0.6875 -0.4125
0.9375 0.6875 -0.4125
1 0.6875 -0.4125
1.0625 0.6875 -0.4125
1.125 0.6875 -0.4125
1.1875 0.6875 -0.4125
1.25 0.6875 -0.4125
1.3125 0.6875 -0.4125
1.375 0.6875 -0.4125
1.4375 0.6875 -0.4125
1.5 0.6875 -0.4125
1.5625 0.6875 -0.4125
1.625 0.6875 -0.4125
1.6875 0.6875 -0.4125
1.75 0.6875 -0.4125
1.8125 0.6875 -0.4125
1.875 0.6875 -0.4125
1.9375 0.6875 -0.4125
2 0.6875 -0.4125
2.0625 0.6875 -0.4125
2.125 0.6875 -0.4125
2.1875 0.6875 -0.4125
2.25 0.6875 -0.4125
2.3125 0.6875 -0.4125
2.375 0.6875 -0.4125
2.4375 0.6875 -0.4125
2.5 0.6875 -0.4125
2.5625 0.6875 -0.4125
2.625 0.6875 -0.4125
2.6875 0.6875 -0.4125
2.75 0.6875 -0.4125
2.8125 0.6875 -0.4125
2.875 0.6875 -0.4125
2.9375 0.6875 -0.4125
3 0.6875 -0.4125
3.0625 0.6875 -0.4125
3.125 0.6875 -0.4125
3.1875 0.6875 -0.4125
3.25 0.6875 -0.4125
3.3125 0.6875 -0.4125
3.375 0.6875 -0.4125
3.4375 0.6875 -0.4125
3.5 0.6875 -0.4125
3.5625 0.6875 -0.4125
3.625 0.6875 -0.4125
3.6875 0.6875 -0.4125
3.75 0.6875 -0.4125
3.8125 0.6875 -0.4125
3.875 0.6875 -0.4125
3.9375 0.6875 -0.4125
4 0.6875 -0.4125
0 0.75 -0.4125
0.0625 0.75 -0.4125
0.125 0.75 -0.4125
0.1875 0.75 -0.4125
0.25 0.75 -0.4125
0.3125 0.75 -0.4125
0.375 0.75 -0.4125
0.4375 0.75 -0.4125
0.5 0.75 -0.4125
0.5625 0.75 -0.4125
0.625 0.75 -0.4125
0.6875 0.75 -0.4125
0.75 0.75 -0.4125
0.8125 0.75 -0.4125
0.875 0.75 -0.4125
0.9375 0.75 -0.4125
1 0.75 -0.4125
1.0625 0.75 -0.4125
1.125 0.75 -0.4125
1.1875 0.75 -0.4125
1.25 0.75 -0.4125
1.3125 0.75 -0.4125
1.375 0.75 -0.4125
1.4375 0.75 -0.4125
1.5 0.75 -0.4125
1.5625 0.75 -0.4125
1.625 0.75 -0.4125
1.6875 0.75 -0.4125
1.75 0.75 -0.4125
1.8125 0.75 -0.4125
1.875 0.75 -0.4125
1.9375 0.75 -0.4125
2 0.75 -0.4125
2.0625 0.75 -0.4125
2.125 0.75 -0.4125
2.1875 0.75 -0.4125
2.25 0.75 -0.4125
2.3125 0.75 -0.4125
2.375 0.75 -0.4125
2.4375 0.75 -0.4125
2.5 0.75 -0.4125
2.5625 0.75 -0.4125
2.625 0.75 -0.4125
2.6875 0.75 -0.4125
2.75 0.75 -0.4125
2.8125 0.75 -0.4125
2.875 0.75 -0.4125
2.9375 0.75 -0.4125
3 0.75 -0.4125
3.0625 0.75 -0.4125
3.125 0.75 -0.4125
3.1875 0.75 -0.4125
3.25 0.75 -0.4125
3.3125 0.75 -0.4125
3.375 0.75 -0.4125
3.4375 0.75 -0.4125
3.5 0.75 -0.4125
3.5625 0.75 -0.4125
3.625 0.75 -0.4125
3.6875 0.75 -0.4125
3.75 0.75 -0.4125
3.8125 0.75 -0.4125
3.875 0.75 -0.4125
3.9375 0.75 -0.4125
4 0.75 -0.4125
0 0.8125 -0.4125
0.0625 0.8125 -0.4125
0.125 0.8125 -0.4125
0.1875 0.8125 -0.4125
0.25 0.8125 -0.4125
0.3125 0.8125 -0.4125
0.375 0.8125 -0.4125
0.4375 0.8125 -0.4125
0.5 0.8125 -0.4125
0.5625 0.8125 -0.4125
0.625 0.8125 -0.4125
0.6875 0.8125 -0.4125
0.75 0.8125 -0.4125
0.8125 0.8125 -0.4125
0.875 0.8125 -0.4125
0.9375 0.8125 -0.4125
1 0.8125 -0.4125
1.0625 0.8125 -0.4125
1.125 0.8125 -0.4125
1.1875 0.8125 -0.4125
1.25 0.8125 -0.4125
1.3125 0.8125 -0.4125
1.375 0.8125 -0.4125
1.4375 0.8125 -0.4125
1.5 0.8125 -0.4125
1.5625 0.8125 -0.4125
1.625 0.8125 -0.4125
1.6875 0.8125 -0.4125
1.75 0.8125 -0.4125
1.8125 0.8125 -0.4125
1.875 0.8125 -0.4125
1.9375 0.8125 -0.4125
2 0.8125 -0.4125
2.0625 0.8125 -0.4125
2.125 0.8125 -0.4125
2.1875 0.8125 -0.4125
2.25 0.8125 -0.4125
2.3125 0.8125 -0.4125
2.375 0.8125 -0.4125
2.4375 0.8125 -0.4125
2.5 0.8125 -0.4125
2.5625 0.8125 -0.4125
2.625 0.8125 -0.4125
2.6875 0.8125 -0.4125
2.75 0.8125 -0.4125
2.8125 0.8125 -0.4125
2.875 0.8125 -0.4125
2.9375 0.8125 -0.4125
3 0.8125 -0.4125
3.0625 0.8125 -0.4125
3.125 0.8125 -0.4125
3.1875 0.8125 -0.4125
3.25 0.8125 -0.4125
3.3125 0.8125 -0.4125
3.375 0.8125 -0.4125
3.4375 0.8125 -0.4125
3.5 0.8125 -0.4125
3.5625 0.8125 -0.4125
3.625 0.8125 -0.4125
3.6875 0.8125 -0.4125
3.75 0.8125 -0.4125
3.8125 0.8125 -0.4125
3.875 0.8125 -0.4125
3.9375 0.8125 -0.4125
4 0.8125 -0.4125
0 0.875 -0.4125
0.0625 0.875 -0.4125
0.125 0.875 -0.4125
0.1875 0.875 -0.4125
0.25 0.875 -0.4125
0.3125 0.875 -0.4125
0.375 0.875 -0.4125
0.4375 0.875 -0.4125
0.5 0.875 -0.4125
0.5625 0.875 -0.4125
0.625 0.875 -0.4125
0.6875 0.875 -0.4125
0.75 0.875 -0.4125
0.8125 0.875 -0.4125
0.875 0.875 -0.4125
0.9375 0.875 -0.4125
1 0.875 -0.4125
1.0625 0.875 -0.4125
1.125 0.875 -0.4125
1.1875 0.875 -0.4125
1.25 0.875 -0.4125
1.3125 0.875 -0.4125
1.375 0.875 -0.4125
1.4375 0.875 -0.4125
1.5 0.875 -0.4125
1.5625 0.875 -0.4125
1.625 0.875 -0.4125
1.6875 0.875 -0.4125
1.75 0.875 -0.4125
1.8125 0.875 -0.4125
1.875 0.875 -0.4125
1.9375 0.875 -0.4125
2 0.875 -0.4125
2.0625 0.875 -0.4125
2.125 0.875 -0.4125
2.1875 0.875 -0.4125
2.25 0.875 -0.4125
2.3125 0.875 -0.4125
2.375 0.875 -0.4125
2.4375 0.875 -0.4125
2.5 0.875 -0.4125
2.5625 0.875 -0.4125
2.625 0.875 -0.4125
2.6875 0.875 -0.4125
2.75 0.875 -0.4125
2.8125 0.875 -0.4125
2.875 0.875 -0.4125
2.9375 0.875 -0.4125
3 0.875 -0.4125
3.0625 0.875 -0.4125
3.125 0.875 -0.4125
3.1875 0.875 -0.4125
3.25 0.875 -0.4125
3.3125 0.875 -0.4125
3.375 0.875 -0.4125
3.4375 0.875 -0.4125
3.5 0.875 -0.4125
3.5625 0.875 -0.4125
3.625 0.875 -0.4125
3.6875 0.875 -0.4125
3.75 0.875 -0.4125
3.8125 0.875 -0.4125
3.875 0.875 -0.4125
3.9375 0.875 -0.4125
4 0.875 -0.4125
0 0.9375 -0.4125
0.0625 0.9375 -0.4125
0.125 0.9375 -0.4125
0.1875 0.9375 -0.4125
0.25 0.9375 -0.4125
0.3125 0.9375 -0.4125
0.375 0.9375 -0.4125
0.4375 0.9375 -0.4125
0.5 0.9375 -0.4125
0.5625 0.9375 -0.4125
0.625 0.9375 -0.4125
0.6875 0.9375 -0.4125
0.75 0.9375 -0.4125
0.8125 0.9375 -0.4125
0.875 0.9375 -0.4125
0.9375 0.9375 -0.4125
1 0.9375 -0.4125
1.0625 0.9375 -0.4125
1.125 0.9375 -0.4125
1.1875 0.9375 -0.4125
1.25 0.9375 -0.4125
1.3125 0.9375 -0.4125
1.375 0.9375 -0.4125
1.4375 0.9375 -0.4125
1.5 0.9375 -0.4125
1.5625 0.9375 -0.4125
1.625 0.9375 -0.4125
1.6875 0.9375 -0.4125
1.75 0.9375 -0.4125
1.8125 0.9375 -0.4125
1.875 0.9375 -0.4125
1.9375 0.9375 -0.4125
2 0.9375 -0.4125
2.0625 0.9375 -0.4125
2.125 0.9375 -0.4125
2.1875 0.9375 -0.4125
2.25 0.9375 -0.4125
2.3125 0.9375 -0.4125
2.375 0.9375 -0.4125
2.4375 0.9375 -0.4125
2.5 0.9375 -0.4125
2.5625 0.9375 -0.4125
2.625 0.9375 -0.4125
2.6875 0.9375 -0.4125
2.75 0.9375 -0.4125
2.8125 0.9375 -0.4125
2.875 0.9375 -0.4125
2.9375 0.9375 -0.4125
3 0.9375 -0.4125
3.0625 0.9375 -0.4125
3.125 0.9375 -0.4125
3.1875 0.9375 -0.4125
3.25 0.9375 -0.4125
3.3125 0.9375 -0.4125
3.375 0.9375 -0.4125
3.4375 0.9375 -0.4125
3.5 0.9375 -0.4125
3.5625 0.9375 -0.4125
3.625 0.9375 -0.4125
3.6875 0.9375 -0.4125
3.75 0.9375 -0.4125
3.8125 0.9375 -0.4125
3.875 0.9375 -0.4125
3.9375 0.9375 -0.4125
4 0.9375 -0.4125
0 1 -0.4125
0.0625 1 -0.4125
0.125 1 -0.4125
0.1875 1 -0.4125
0.25 1 -0.4125
0.3125 1 -0.4125
0.375 1 -0.4125
0.4375 1 -0.4125
0.5 1 -0.4125
0.5625 1 -0.4125
0.625 1 -0.4125
0.6875 1 -0.4125
0.75 1 -0.4125
0.8125 1 -0.4125
0.875 1 -0.4125
0.9375 1 -0.4125
1 1 -0.4125
1.0625 1 -0.4125
1.125 1 -0.4125
1.1875 1 -0.4125
1.25 1 -0.4125
1.3125 1 -0.4125
1.375 1 -0.4125
1.4375 1 -0.4125
1.5 1 -0.4125
1.5625 1 -0.4125
1.625 1 -0.4125
1.6875 1 -0.4125
1.75 1 -0.4125
1.8125 1 -0.4125
1.875 1 -0.4125
1.9375 1 -0.4125
2 1 -0.4125
2.0625 1 -0.4125
2.125 1 -0.4125
2.1875 1 -0.4125
2.25 1 -0.4125
2.3125 1 -0.4125
2.375 1 -0.4125
2.4375 1 -0.4125
2.5 1 -0.4125
2.5625 1 -0.4125
2.625 1 -0.4125
2.6875 1 -0.4125
2.75 1 -0.4125
2.8125 1 -0.4125
2.875 1 -0.4125
2.9375 1 -0.4125
3 1 -0.4125
3.0625 1 -0.4125
3.125 1 -0.4125
3.1875 1 -0.4125
3.25 1 -0.4125
3.3125 1 -0.4125
3.375 1 -0.4125
3.4375 1 -0.4125
3.5 1 -0.4125
3.5625 1 -0.4125
3.625 1 -0.4125
3.6875 1 -0.4125
3.75 1 -0.4125
3.8125 1 -0.4125
3.875 1 -0.4125
3.9375 1 -0.4125
4 1 -0.4125
0 0 -0.35
0.0625 0 -0.35
0.125 0 -0.35
0.1875 0 -0.35
0.25 0 -0.35
0.3125 0 -0.35
0.375 0 -0.35
0.4375 0 -0.35
0.5 0 -0.35
0.5625 0 -0.35
0.625 0 -0.35
0.6875 0 -0.35
0.75 0 -0.35
0.8125 0 -0.35
0.875 0 -0.35
0.9375 0 -0.35
1 0 -0.35
1.0625 0 -0.35
1.125 0 -0.35
1.1875 0 -0.35
1.25 0 -0.35
1.3125 0 -0.35
1.375 0 -0.35
1.4375 0 -0.35
1.5 0 -0.35
1.5625 0 -0.35
1.625 0 -0.35
1.6875 0 -0.35
1.75 0 -0.35
1.8125 0 -0.35
1.875 0 -0.35
1.9375 0 -0.35
2 0 -0.35
2.0625 0 -0.35
2.125 0 -0.35
2.1875 0 -0.35
2.25 0 -0.35
2.3125 0 -0.35
2.375 0 -0.35
2.4375 0 -0.35
2.5 0 -0.35
2.5625 0 -0.35
2.625 0 -0.35
2.6875 0 -0.35
2.75 0 -0.35
2.8125 0 -0.35
2.875 0 -0.35
2.9375 0 -0.35
3 0 -0.35
3.0625 0 -0.35
3.125 0 -0.35
3.1875 0 -0.35
3.25 0 -0.35
3.3125 0 -0.35
3.375 0 -0.35
3.4375 0 -0.35
3.5 0 -0.35
3.5625 0 -0.35
3.625 0 -0.35
3.6875 0 -0.35
3.75 0 -0.35
3.8125 0 -0.35
3.875 0 -0.35
3.9375 0 -0.35
4 0 -0.35
0 0.0625 -0.35
0.0625 0.0625 -0.35
0.125 0.0625 -0.35
0.1875 0.0625 -0.35
0.25 0.0625 -0.35
0.3125 0.0625 -0.35
0.375 0.0625 -0.35
0.4375 0.0625 -0.35
0.5 0.0625 -0.35
0.5625 0.0625 -0.35
0.625 0.0625 -0.35
0.6875 0.0625 -0.35
0.75 0.0625 -0.35
0.8125 0.0625 -0.35
0.875 0.0625 -0.35
0.9375 0.0625 -0.35
1 0.0625 -0.35
1.0625 0.0625 -0.35
1.125 0.0625 -0.35
1.1875 0.0625 -0.35
1.25 0.0625 -0.35
1.3125 0.0625 -0.35
1.375 0.0625 -0.35
1.4375 0.0625 -0.35
1.5 0.0625 -0.35
1.5625 0.0625 -0.35
1.625 0.0625 -0.35
1.6875 0.0625 -0.35
1.75 0.0625 -0.35
1.8125 0.0625 -0.35
1.875 0.0625 -0.35
1.9375 0.0625 -0.35
2 0.0625 -0.35
2.0625 0.0625 -0.35
2.125 0.0625 -0.35
2.1875 0.0625 -0.35
2.25 0.0625 -0.35
2.3125 0.0625 -0.35
2.375 0.0625 -0.35
2.4375 0.0625 -0.35
2.5 0.0625 -0.35
2.5625 0.0625 -0.35
2.625 0.0625 -0.35
2.6875 0.0625 -0.35
2.75 0.0625 -0.35
2.8125 0.0625 -0.35
2.875 0.0625 -0.35
2.9375 0.0625 -0.35
3 0.0625 -0.35
3.0625 0.0625 -0.35
3.125 0.0625 -0.35
3.1875 0.0625 -0.35
3.25 0.0625 -0.35
3.3125 0.0625 -0.35
3.375 0.0625 -0.35
3.4375 0.0625 -0.35
3.5 0.0625 -0.35
3.5625 0.0625 -0.35
3.625 0.0625 -0.35
3.6875 0.0625 -0.35
3.75 0.0625 -0.35
3.8125 0.0625 -0.35
3.875 0.0625 -0.35
3.9375 0.0625 -0.35
4 0.0625 -0.35
0 0.125 -0.35
0.0625 0.125 -0.35
0.125 0.125 -0.35
0.1875 0.125 -0.35
0.25 0.125 -0.35
0.3125 0.125 -0.35
0.375 0.125 -0.35
0.4375 0.125 -0.35
0.5 0.125 -0.35
0.5625 0.125 -0.35
0.625 0.125 -0.35
0.6875 0.125 -0.35
0.75 0.125 -0.35
0.8125 0.125 -0.35
0.875 0.125 -0.35
0.9375 0.125 -0.35
1 0.125 -0.35
1.0625 0.125 -0.35
1.125 0.125 -0.35
1.1875 0.125 -0.35
1.25 0.125 -0.35
1.3125 0.125 -0.35
1.375 0.125 -0.35
1.4375 0.125 -0.35
1.5 0.125 -0.35
1.5625 0.125 -0.35
1.625 0.125 -0.35
1.6875 0.125 -0.35
1.75 0.125 -0.35
1.8125 0.125 -0.35
1.875 0.125 -0.35
1.9375 0.125 -0.35
2 0.125 -0.35
2.0625 0.125 -0.35
2.125 0.125 -0.35
2.1875 0.125 -0.35
2.25 0.125 -0.35
2.3125 0.125 -0.35
2.375 0.125 -0.35
2.4375 0.125 -0.35
2.5 0.125 -0.35
2.5625 0.125 -0.35
2.625 0.125 -0.35
2.6875 0.125 -0.35
2.75 0.125 -0.35
2.8125 0.125 -0.35
2.875 0.125 -0.35
2.9375 0.125 -0.35
3 0.125 -0.35
3.0625 0.125 -0.35
3.125 0.125 -0.35
3.1875 0.125 -0.35
3.25 0.125 -0.35
3.3125 0.125 -0.35
3.375 0.125 -0.35
3.4375 0.125 -0.35
3.5 0.125 -0.35
3.5625 0.125 -0.35
3.625 0.125 -0.35
3.6875 0.125 -0.35
3.75 0.125 -0.35
3.8125 0.125 -0.35
3.875 0.125 -0.35
3.9375 0.125 -0.35
4 0.125 -0.35
0 0.1875 -0.35
0.0625 0.1875 -0.35
0.125 0.1875 -0.35
0.1875 0.1875 -0.35
0.25 0.1875 -0.35
0.3125 0.1875 -0.35
0.375 0.1875 -0.35
0.4375 0.1875 -0.35
0.5 0.1875 -0.35
0.5625 0.1875 -0.35
0.625 0.1875 -0.35
0.6875 0.1875 -0.35
0.75 0.1875 -0.35
0.8125 0.1875 -0.35
0.875 0.1875 -0.35
0.9375 0.1875 -0.35
1 0.1875 -0.35
1.0625 0.1875 -0.35
1.125 0.1875 -0.35
1.1875 0.1875 -0.35
1.25 0.1875 -0.35
1.3125 0.1875 -0.35
1.375 0.1875 -0.35
1.4375 0.1875 -0.35
1.5 0.1875 -0.35
1.5625 0.1875 -0.35
1.625 0.1875 -0.35
1.6875 0.1875 -0.35
1.75 0.1875 -0.35
1.8125 0.1875 -0.35
1.875 0.1875 -0.35
1.9375 0.1875 -0.35
2 0.1875 -0.35
2.0625 0.1875 -0.35
2.125 0.1875 -0.35
2.1875 0.1875 -0.35
2.25 0.1875 -0.35
2.3125 0.1875 -0.35
2.375 0.1875 -0.35
2.4375 0.1875 -0.35
2.5 0.1875 -0.35
2.5625 0.1875 -0.35
2.625 0.1875 -0.35
2.6875 0.1875 -0.35
2.75 0.1875 -0.35
2.8125 0.1875 -0.35
2.875 0.1875 -0.35
2.9375 0.1875 -0.35
3 0.1875 -0.35
3.0625 0.1875 -0.35
3.125 0.1875 -0.35
3.1875 0.1875 -0.35
3.25 0.1875 -0.35
3.3125 0.1875 -0.35
3.375 0.1875 -0.35
3.4375 0.1875 -0.35
3.5 0.1875 -0.35
3.5625 0.1875 -0.35
3.625 0.1875 -0.35
3.6875 0.1875 -0.35
3.75 0.1875 -0.35
3.8125 0.1875 -0.35
3.875 0.1875 -0.35
3.9375 0.1875 -0.35
4 0.1875 -0.35
0 0.25 -0.35
0.0625 0.25 -0.35
0.125 0.25 -0.35
0.1875 0.25 -0.35
0.25 0.25 -0.35
0.3125 0.25 -0.35
0.375 0.25 -0.35
0.4375 0.25 -0.35
0.5 0.25 -0.35
0.5625 0.25 -0.35
0.625 0.25 -0.35
0.6875 0.25 -0.35
0.75 0.25 -0.35
0.8125 0.25 -0.35
0.875 0.25 -0.35
0.9375 0.25 -0.35
1 0.25 -0.35
1.0625 0.25 -0.35
1.125 0.25 -0.35
1.1875 0.25 -0.35
1.25 0.25 -0.35
1.3125 0.25 -0.35
1.375 0.25 -0.35
1.4375 0.25 -0.35
1.5 0.25 -0.35
1.5625 0.25 -0.35
1.625 0.25 -0.35
1.6875 0.25 -0.35
1.75 0.25 -0.35
1.8125 0.25 -0.35
1.875 0.25 -0.35
1.9375 0.25 -0.35
2 0.25 -0.35
2.0625 0.25 -0.35
2.125 0.25 -0.35
2.1875 0.25 -0.35
2.25 0.25 -0.35
2.3125 0.25 -0.35
2.375 0.25 -0.35
2.4375 0.25 -0.35
2.5 0.25 -0.35
2.5625 0.25 -0.35
2.625 0.25 -0.35
2.6875 0.25 -0.35
2.75 0.25 -0.35
2.8125 0.25 -0.35
2.875 0.25 -0.35
2.9375 0.25 -0.35
3 0.25 -0.35
3.0625 0.25 -0.35
3.125 0.25 -0.35
3.1875 0.25 -0.35
3.25 0.25 -0.35
3.3125 0.25 -0.35
3.375 0.25 -0.35
3.4375 0.25 -0.35
3.5 0.25 -0.35
3.5625 0.25 -0.35
3.625 0.25 -0.35
3.6875 0.25 -0.35
3.75 0.25 -0.35
3.8125 0.25 -0.35
3.875 0.25 -0.35
3.9375 0.25 -0.35
4 0.25 -0.35
0 0.3125 -0.35
0.0625 0.3125 -0.35
0.125 0.3125 -0.35
0.1875 0.3125 -0.35
0.25 0.3125 -0.35
0.3125 0.3125 -0.35
0.375 0.3125 -0.35
0.4375 0.3125 -0.35
0.5 0.3125 -0.35
0.5625 0.3125 -0.35
0.625 0.3125 -0.35
0.6875 0.3125 -0.35
0.75 0.3125 -0.35
0.8125 0.3125 -0.35
0.875 0.3125 -0.35
0.9375 0.3125 -0.35
1 0.3125 -0.35
1.0625 0.3125 -0.35
1.125 0.3125 -0.35
1.1875 0.3125 -0.35
1.25 0.3125 -0.35
1.3125 0.3125 -0.35
1.375 0.3125 -0.35
1.4375 0.3125 -0.35
1.5 0.3125 -0.35
1.5625 0.3125 -0.35
1.625 0.3125 -0.35
1.6875 0.3125 -0.35
1.75 0.3125 -0.35
1.8125 0.3125 -0.35
1.875 0.3125 -0.35
1.9375 0.3125 -0.35
2 0.3125 -0.35
2.0625 0.3125 -0.35
2.125 0.3125 -0.35
2.1875 0.3125 -0.35
2.25 0.3125 -0.35
2.3125 0.3125 -0.35
2.375 0.3125 -0.35
2.4375 0.3125 -0.35
2.5 0.3125 -0.35
2.5625 0.3125 -0.35
2.625 0.3125 -0.35
2.6875 0.3125 -0.35
2.75 0.3125 -0.35
2.8125 0.3125 -0.35
2.875 0.3125 -0.35
2.9375 0.3125 -0.35
3 0.3125 -0.35
3.0625 0.3125 -0.35
3.125 0.3125 -0.35
3.1875 0.3125 -0.35
3.25 0.3125 -0.35
3.3125 0.3125 -0.35
3.375 0.3125 -0.35
3.4375 0.3125 -0.35
3.5 0.3125 -0.35
3.5625 0.3125 -0.35
3.625 0.3125 -0.35
3.6875 0.3125 -0.35
3.75 0.3125 -0.35
3.8125 0.3125 -0.35
3.875 0.3125 -0.35
3.9375 0.3125 -0.35
4 0.3125 -0.35
0 0.375 -0.35
0.0625 0.375 -0.35
0.125 0.375 -0.35
0.1875 0.375 -0.35
0.25 0.375 -0.35
0.3125 0.375 -0.35
0.375 0.375 -0.35
0.4375 0.375 -0.35
0.5 0.375 -0.35
0.5625 0.375 -0.35
0.625 0.375 -0.35
0.6875 0.375 -0.35
0.75 0.375 -0.35
0.8125 0.375 -0.35
0.875 0.375 -0.35
0.9375 0.375 -0.35
1 0.375 -0.35
1.0625 0.375 -0.35
1.125 0.375 -0.35
1.1875 0.375 -0.35
1.25 0.375 -0.35
1.3125 0.375 -0.35
1.375 0.375 -0.35
1.4375 0.375 -0.35
1.5 0.375 -0.35
1.5625 0.375 -0.35
1.625 0.375 -0.35
1.6875 0.375 -0.35
1.75 0.375 -0.35
1.8125 0.375 -0.35
1.875 0.375 -0.35
1.9375 0.375 -0.35
2 0.375 -0.35
2.0625 0.375 -0.35
2.125 0.375 -0.35
2.1875 0.375 -0.35
2.25 0.375 -0.35
2.3125 0.375 -0.35
2.375 0.375 -0.35
2.4375 0.375 -0.35
2.5 0.375 -0.35
2.5625 0.375 -0.35
2.625 0.375 -0.35
2.6875 0.375 -0.35
2.75 0.375 -0.35
2.8125 0.375 -0.35
2.875 0.375 -0.35
2.9375 0.375 -0.35
3 0.375 -0.35
3.0625 0.375 -0.35
3.125 0.375 -0.35
3.1875 0.375 -0.35
3.25 0.375 -0.35
3.3125 0.375 -0.35
3.375 0.375 -0.35
3.4375 0.375 -0.35
3.5 0.375 -0.35
3.5625 0.375 -0.35
3.625 0.375 -0.35
3.6875 0.375 -0.35
3.75 0.375 -0.35
3.8125 0.375 -0.35
3.875 0.375 -0.35
3.9375 0.375 -0.35
4 0.375 -0.35
0 0.4375 -0.35
0.0625 0.4375 -0.35
0.125 0.4375 -0.35
0.1875 0.4375 -0.35
0.25 0.4375 -0.35
0.3125 0.4375 -0.35
0.375 0.4375 -0.35
0.4375 0.4375 -0.35
0.5 0.4375 -0.35
0.5625 0.4375 -0.35
0.625 0.4375 -0.35
0.6875 0.4375 -0.35
0.75 0.4375 -0.35
0.8125 0.4375 -0.35
0.875 0.4375 -0.35
0.9375 0.4375 -0.35
1 0.4375 -0.35
1.0625 0.4375 -0.35
1.125 0.4375 -0.35
1.1875 0.4375 -0.35
1.25 0.4375 -0.35
1.3125 0.4375 -0.35
1.375 0.4375 -0.35
1.4375 0.4375 -0.35
1.5 0.4375 -0.35
1.5625 0.4375 -0.35
1.625 0.4375 -0.35
1.6875 0.4375 -0.35
1.75 0.4375 -0.35
1.8125 0.4375 -0.35
1.875 0.4375 -0.35
1.9375 0.4375 -0.35
2 0.4375 -0.35
2.0625 0.4375 -0.35
2.125 0.4375 -0.35
2.1875 0.4375 -0.35
2.25 0.4375 -0.35
2.3125 0.4375 -0.35
2.375 0.4375 -0.35
2.4375 0.4375 -0.35
2.5 0.4375 -0.35
2.5625 0.4375 -0.35
2.625 0.4375 -0.35
2.6875 0.4375 -0.35
2.75 0.4375 -0.35
2.8125 0.4375 -0.35
2.875 0.4375 -0.35
2.9375 0.4375 -0.35
3 0.4375 -0.35
3.0625 0.4375 -0.35
3.125 0.4375 -0.35
3.1875 0.4375 -0.35
3.25 0.4375 -0.35
3.3125 0.4375 -0.35
3.375 0.4375 -0.35
3.4375 0.4375 -0.35
3.5 0.4375 -0.35
3.5625 0.4375 -0.35
3.625 0.4375 -0.35
3.6875 0.4375 -0.35
3.75 0.4375 -0.35
3.8125 0.4375 -0.35
3.875 0.4375 -0.35
3.9375 0.4375 -0.35
4 0.4375 -0.35
0 0.5 -0.35
0.0625 0.5 -0.35
0.125 0.5 -0.35
0.1875 0.5 -0.35
0.25 0.5 -0.35
0.3125 0.5 -0.35
0.375 0.5 -0.35
0.4375 0.5 -0.35
0.5 0.5 -0.35
0.5625 0.5 -0.35
0.625 0.5 -0.35
0.6875 0.5 -0.35
0.75 0.5 -0.35
0.8125 0.5 -0.35
0.875 0.5 -0.35
0.9375 0.5 -0.35
1 0.5 -0.35
1.0625 0.5 -0.35
1.125 0.5 -0.35
1.1875 0.5 -0.35
1.25 0.5 -0.35
1.3125 0.5 -0.35
1.375 0.5 -0.35
1.4375 0.5 -0.35
1.5 0.5 -0.35
1.5625 0.5 -0.35
1.625 0.5 -0.35
1.6875 0.5 -0.35
1.75 0.5 -0.35
1.8125 0.5 -0.35
1.875 0.5 -0.35
1.9375 0.5 -0.35
2 0.5 -0.35
2.0625 0.5 -0.35
2.125 0.5 -0.35
2.1875 0.5 -0.35
2.25 0.5 -0.35
2.3125 0.5 -0.35
2.375 0.5 -0.35
2.4375 0.5 -0.35
2.5 0.5 -0.35
2.5625 0.5 -0.35
2.625 0.5 -0.35
2.6875 0.5 -0.35
2.75 0.5 -0.35
2.8125 0.5 -0.35
2.875 0.5 -0.35
2.9375 0.5 -0.35
3 0.5 -0.35
3.0625 0.5 -0.35
3.125 0.5 -0.35
3.1875 0.5 -0.35
3.25 0.5 -0.35
3.3125 0.5 -0.35
3.375 0.5 -0.35
3.4375 0.5 -0.35
3.5 0.5 -0.35
3.5625 0.5 -0.35
3.625 0.5 -0.35
3.6875 0.5 -0.35
3.75 0.5 -0.35
3.8125 0.5 -0.35
3.875 0.5 -0.35
3.9375 0.5 -0.35
4 0.5 -0.35
0 0.5625 -0.35
0.0625 0.5625 -0.35
0.125 0.5625 -0.35
0.1875 0.5625 -0.35
0.25 0.5625 -0.35
0.3125 0.5625 -0.35
0.375 0.5625 -0.35
0.4375 0.5625 -0.35
0.5 0.5625 -0.35
0.5625 0.5625 -0.35
0.625 0.5625 -0.35
0.6875 0.5625 -0.35
0.75 0.5625 -0.35
0.8125 0.5625 -0.35
0.875 0.5625 -0.35
0.9375 0.5625 -0.35
1 0.5625 -0.35
1.0625 0.5625 -0.35
1.125 0.5625 -0.35
1.1875 0.5625 -0.35
1.25 0.5625 -0.35
1.3125 0.5625 -0.35
1.375 0.5625 -0.35
1.4375 0.5625 -0.35
1.5 0.5625 -0.35
1.5625 0.5625 -0.35
1.625 0.5625 -0.35
1.6875 0.5625 -0.35
1.75 0.5625 -0.35
1.8125 0.5625 -0.35
1.875 0.5625 -0.35
1.9375 0.5625 -0.35
2 0.5625 -0.35
2.0625 0.5625 -0.35
2.125 0.5625 -0.35
2.1875 0.5625 -0.35
2.25 0.5625 -0.35
2.3125 0.5625 -0.35
2.375 0.5625 -0.35
2.4375 0.5625 -0.35
2.5 0.5625 -0.35
2.5625 0.5625 -0.35
2.625 0.5625 -0.35
2.6875 0.5625 -0.35
2.75 0.5625 -0.35
2.8125 0.5625 -0.35
2.875 0.5625 -0.35
2.9375 0.5625 -0.35
3 0.5625 -0.35
3.0625 0.5625 -0.35
3.125 0.5625 -0.35
3.1875 0.5625 -0.35
3.25 0.5625 -0.35
3.3125 0.5625 -0.35
3.375 0.5625 -0.35
3.4375 0.5625 -0.35
3.5 0.5625 -0.35
3.5625 0.5625 -0.35
3.625 0.5625 -0.35
3.6875 0.5625 -0.35
3.75 0.5625 -0.35
3.8125 0.5625 -0.35
3.875 0.5625 -0.35
3.9375 0.5625 -0.35
4 0.5625 -0.35
0 0.625 -0.35
0.0625 0.625 -0.35
0.125 0.625 -0.35
0.1875 0.625 -0.35
0.25 0.625 -0.35
0.3125 0.625 -0.35
0.375 0.625 -0.35
0.4375 0.625 -0.35
0.5 0.625 -0.35
0.5625 0.625 -0.35
0.625 0.625 -0.35
0.6875 0.625 -0.35
0.75 0.625 -0.35
0.8125 0.625 -0.35
0.875 0.625 -0.35
0.9375 0.625 -0.35
1 0.625 -0.35
1.0625 0.625 -0.35
1.125 0.625 -0.35
1.1875 0.625 -0.35
1.25 0.625 -0.35
1.3125 0.625 -0.35
1.375 0.625 -0.35
1.4375 0.625 -0.35
1.5 0.625 -0.35
1.5625 0.625 -0.35
1.625 0.625 -0.35
1.6875 0.625 -0.35
1.75 0.625 -0.35
1.8125 0.625 -0.35
1.875 0.625 -0.35
1.9375 0.625 -0.35
2 0.625 -0.35
2.0625 0.625 -0.35
2.125 0.625 -0.35
2.1875 0.625 -0.35
2.25 0.625 -0.35
2.3125 0.625 -0.35
2.375 0.625 -0.35
2.4375 0.625 -0.35
2.5 0.625 -0.35
2.5625 0.625 -0.35
2.625 0.625 -0.35
2.6875 0.625 -0.35
2.75 0.625 -0.35
2.8125 0.625 -0.35
2.875 0.625 -0.35
2.9375 0.625 -0.35
3 0.625 -0.35
3.0625 0.625 -0.35
3.125 0.625 -0.35
3.1875 0.625 -0.35
3.25 0.625 -0.35
3.3125 0.625 -0.35
3.375 0.625 -0.35
3.4375 0.625 -0.35
3.5 0.625 -0.35
3.5625 0.625 -0.35
3.625 0.625 -0.35
3.6875 0.625 -0.35
3.75 0.625 -0.35
3.8125 0.625 -0.35
3.875 0.625 -0.35
3.9375 0.625 -0.35
4 0.625 -0.35
0 0.6875 -0.35
0.0625 0.6875 -0.35
0.125 0.6875 -0.35
0.1875 0.6875 -0.35
0.25 0.6875 -0.35
0.3125 0.6875 -0.35
0.375 0.6875 -0.35
0.4375 0.6875 -0.35
0.5 0.6875 -0.35
0.5625 0.6875 -0.35
0.625 0.6875 -0.35
0.6875 0.6875 -0.35
0.75 0.6875 -0.35
0.8125 0.6875 -0.35
0.875 0.6875 -0.35
0.9375 0.6875 -0.35
1 0.6875 -0.35
1.0625 0.6875 -0.35
1.125 0.6875 -0.35
1.1875 0.6875 -0.35
1.25 0.6875 -0.35
1.3125 0.6875 -0.35
1.375 0.6875 -0.35
1.4375 0.6875 -0.35
1.5 0.6875 -0.35
1.5625 0.6875 -0.35
1.625 0.6875 -0.35
1.6875 0.6875 -0.35
1.75 0.6875 -0.35
1.8125 0.6875 -0.35
1.875 0.6875 -0.35
1.9375 0.6875 -0.35
2 0.6875 -0.35
2.0625 0.6875 -0.35
2.125 0.6875 -0.35
2.1875 0.6875 -0.35
2.25 0.6875 -0.35
2.3125 0.6875 -0.35
2.375 0.6875 -0.35
2.4375 0.6875 -0.35
2.5 0.6875 -0.35
2.5625 0.6875 -0.35
2.625 0.6875 -0.35
2.6875 0.6875 -0.35
2.75 0.6875 -0.35
2.8125 0.6875 -0.35
2.875 0.6875 -0.35
2.9375 0.6875 -0.35
3 0.6875 -0.35
3.0625 0.6875 -0.35
3.125 0.6875 -0.35
3.1875 0.6875 -0.35
3.25 0.6875 -0.35
3.3125 0.6875 -0.35
3.375 0.6875 -0.35
3.4375 0.6875 -0.35
3.5 0.6875 -0.35
3.5625 0.6875 -0.35
3.625 0.6875 -0.35
3.6875 0.6875 -0.35
3.75 0.6875 -0.35
3.8125 0.6875 -0.35
3.875 0.6875 -0.35
3.9375 0.6875 -0.35
4 0.6875 -0.35
0 0.75 -0.35
0.0625 0.75 -0.35
0.125 0.75 -0.35
0.1875 0.75 -0.35
0.25 0.75 -0.35
0.3125 0.75 -0.35
0.375 0.75 -0.35
0.4375 0.75 -0.35
0.5 0.75 -0.35
0.5625 0.75 -0.35
0.625 0.75 -0.35
0.6875 0.75 -0.35
0.75 0.75 -0.35
0.8125 0.75 -0.35
0.875 0.75 -0.35
0.9375 0.75 -0.35
1 0.75 -0.35
1.0625 0.75 -0.35
1.125 0.75 -0.35
1.1875 0.75 -0.35
1.25 0.75 -0.35
1.3125 0.75 -0.35
1.375 0.75 -0.35
1.4375 0.75 -0.35
1.5 0.75 -0.35
1.5625 0.75 -0.35
1.625 0.75 -0.35
1.6875 0.75 -0.35
1.75 0.75 -0.35
1.8125 0.75 -0.35
1.875 0.75 -0.35
1.9375 0.75 -0.35
2 0.75 -0.35
2.0625 0.75 -0.35
2.125 0.75 -0.35
2.1875 0.75 -0.35
2.25 0.75 -0.35
2.3125 0.75 -0.35
2.375 0.75 -0.35
2.4375 0.75 -0.35
2.5 0.75 -0.35
2.5625 0.75 -0.35
2.625 0.75 -0.35
2.6875 0.75 -0.35
2.75 0.75 -0.35
2.8125 0.75 -0.35
2.875 0.75 -0.35
2.9375 0.75 -0.35
3 0.75 -0.35
3.0625 0.75 -0.35
3.125 0.75 -0.35
3.1875 0.75 -0.35
3.25 0.75 -0.35
3.3125 0.75 -0.35
3.375 0.75 -0.35
3.4375 0.75 -0.35
3.5 0.75 -0.35
3.5625 0.75 -0.35
3.625 0.75 -0.35
3.6875 0.75 -0.35
3.75 0.75 -0.35
3.8125 0.75 -0.35
3.875 0.75 -0.35
3.9375 0.75 -0.35
4 0.75 -0.35
0 0.8125 -0.35
0.0625 0.8125 -0.35
0.125 0.8125 -0.35
0.1875 0.8125 -0.35
0.25 0.8125 -0.35
0.3125 0.8125 -0.35
0.375 0.8125 -0.35
0.4375 0.8125 -0.35
0.5 0.8125 -0.35
0.5625 0.8125 -0.35
0.625 0.8125 -0.35
0.6875 0.8125 -0.35
0.75 0.8125 -0.35
0.8125 0.8125 -0.35
0.875 0.8125 -0.35
0.9375 0.8125 -0.35
1 0.8125 -0.35
1.0625 0.8125 -0.35
1.125 0.8125 -0.35
1.1875 0.8125 -0.35
1.25 0.8125 -0.35
1.3125 0.8125 -0.35
1.375 0.8125 -0.35
1.4375 0.8125 -0.35
1.5 0.8125 -0.35
1.5625 0.8125 -0.35
1.625 0.8125 -0.35
1.6875 0.8125 -0.35
1.75 0.8125 -0.35
1.8125 0.8125 -0.35
1.875 0.8125 -0.35
1.9375 0.8125 -0.35
2 0.8125 -0.35
2.0625 0.8125 -0.35
2.125 0.8125 -0.35
2.1875 0.8125 -0.35
2.25 0.8125 -0.35
2.3125 0.8125 -0.35
2.375 0.8125 -0.35
2.4375 0.8125 -0.35
2.5 0.8125 -0.35
2.5625 0.8125 -0.35
2.625 0.8125 -0.35
2.6875 0.8125 -0.35
2.75 0.8125 -0.35
2.8125 0.8125 -0.35
2.875 0.8125 -0.35
2.9375 0.8125 -0.35
3 0.8125 -0.35
3.0625 0.8125 -0.35
3.125 0.8125 -0.35
3.1875 0.8125 -0.35
3.25 0.8125 -0.35
3.3125 0.8125 -0.35
3.375 0.8125 -0.35
3.4375 0.8125 -0.35
3.5 0.8125 -0.35
3.5625 0.8125 -0.35
3.625 0.8125 -0.35
3.6875 0.8125 -0.35
3.75 0.8125 -0.35
3.8125 0.8125 -0.35
3.875 0.8125 -0.35
3.9375 0.8125 -0.35
4 0.8125 -0.35
0 0.875 -0.35
0.0625 0.875 -0.35
0.125 0.875 -0.35
0.1875 0.875 -0.35
0.25 0.875 -0.35
0.3125 0.875 -0.35
0.375 0.875 -0.35
0.4375 0.875 -0.35
0.5 0.875 -0.35
0.5625 0.875 -0.35
0.625 0.875 -0.35
0.6875 0.875 -0.35
0.75 0.875 -0.35
0.8125 0.875 -0.35
0.875 0.875 -0.35
0.9375 0.875 -0.35
1 0.875 -0.35
1.0625 0.875 -0.35
1.125 0.875 -0.35
1.1875 0.875 -0.35
1.25 0.875 -0.35
1.3125 0.875 -0.35
1.375 0.875 -0.35
1.4375 0.875 -0.35
1.5 0.875 -0.35
1.5625 0.875 -0.35
1.625 0.875 -0.35
1.6875 0.875 -0.35
1.75 0.875 -0.35
1.8125 0.875 -0.35
1.875 0.875 -0.35
1.9375 0.875 -0.35
2 0.875 -0.35
2.0625 0.875 -0.35
2.125 0.875 -0.35
2.1875 0.875 -0.35
2.25 0.875 -0.35
2.3125 0.875 -0.35
2.375 0.875 -0.35
2.4375 0.875 -0.35
2.5 0.875 -0.35
2.5625 0.875 -0.35
2.625 0.875 -0.35
2.6875 0.875 -0.35
2.75 0.875 -0.35
2.8125 0.875 -0.35
2.875 0.875 -0.35
2.9375 0.875 -0.35
3 0.875 -0.35
3.0625 0.875 -0.35
3.125 0.875 -0.35
3.1875 0.875 -0.35
3.25 0.875 -0.35
3.3125 0.875 -0.35
3.375 0.875 -0.35
3.4375 0.875 -0.35
3.5 0.875 -0.35
3.5625 0.875 -0.35
3.625 0.875 -0.35
3.6875 0.875 -0.35
3.75 0.875 -0.35
3.8125 0.875 -0.35
3.875 0.875 -0.35
3.9375 0.875 -0.35
4 0.875 -0.35
0 0.9375 -0.35
0.0625 0.9375 -0.35
0.125 0.9375 -0.35
0.1875 0.9375 -0.35
0.25 0.9375 -0.35
0.3125 0.9375 -0.35
0.375 0.9375 -0.35
0.4375 0.9375 -0.35
0.5 0.9375 -0.35
0.5625 0.9375 -0.35
0.625 0.9375 -0.35
0.6875 0.9375 -0.35
0.75 0.9375 -0.35
0.8125 0.9375 -0.35
0.875 0.9375 -0.35
0.9375 0.9375 -0.35
1 0.9375 -0.35
1.0625 0.9375 -0.35
1.125 0.9375 -0.35
1.1875 0.9375 -0.35
1.25 0.9375 -0.35
1.3125 0.9375 -0.35
1.375 0.9375 -0.35
1.4375 0.9375 -0.35
1.5 0.9375 -0.35
1.5625 0.9375 -0.35
1.625 0.9375 -0.35
1.6875 0.9375 -0.35
1.75 0.9375 -0.35
1.8125 0.9375 -0.35
1.875 0.9375 -0.35
1.9375 0.9375 -0.35
2 0.9375 -0.35
2.0625 0.9375 -0.35
2.125 0.9375 -0.35
2.1875 0.9375 -0.35
2.25 0.9375 -0.35
2.3125 0.9375 -0.35
2.375 0.9375 -0.35
2.4375 0.9375 -0.35
2.5 0.9375 -0.35
2.5625 0.9375 -0.35
2.625 0.9375 -0.35
2.6875 0.9375 -0.35
2.75 0.9375 -0.35
2.8125 0.9375 -0.35
2.875 0.9375 -0.35
2.9375 0.9375 -0.35
3 0.9375 -0.35
3.0625 0.9375 -0.35
3.125 0.9375 -0.35
3.1875 0.9375 -0.35
3.25 0.9375 -0.35
3.3125 0.9375 -0.35
3.375 0.9375 -0.35
3.4375 0.9375 -0.35
3.5 0.9375 -0.35
3.5625 0.9375 -0.35
3.625 0.9375 -0.35
3.6875 0.9375 -0.35
3.75 0.9375 -0.35
3.8125 0.9375 -0.35
3.875 0.9375 -0.35
3.9375 0.9375 -0.35
4 0.9375 -0.35
0 1 -0.35
0.0625 1 -0.35
0.125 1 -0.35
0.1875 1 -0.35
0.25 1 -0.35
0.3125 1 -0.35
0.375 1 -0.35
0.4375 1 -0.35
0.5 1 -0.35
0.5625 1 -0.35
0.625 1 -0.35
0.6875 1 -0.35
0.75 1 -0.35
0.8125 1 -0.35
0.875 1 -0.35
0.9375 1 -0.35
1 1 -0.35
1.0625 1 -0.35
1.125 1 -0.35
1.1875 1 -0.35
1.25 1 -0.35
1.3125 1 -0.35
1.375 1 -0.35
1.4375 1 -0.35
1.5 1 -0.35
1.5625 1 -0.35
1.625 1 -0.35
1.6875 1 -0.35
1.75 1 -0.35
1.8125 1 -0.35
1.875 1 -0.35
1.9375 1 -0.35
2 1 -0.35
2.0625 1 -0.35
2.125 1 -0.35
2.1875 1 -0.35
2.25 1 -0.35
2.3125 1 -0.35
2.375 1 -0.35
2.4375 1 -0.35
2.5 1 -0.35
2.5625 1 -0.35
2.625 1 -0.35
2.6875 1 -0.35
2.75 1 -0.35
2.8125 1 -0.35
2.875 1 -0.35
2.9375 1 -0.35
3 1 -0.35
3.0625 1 -0.35
3.125 1 -0.35
3.1875 1 -0.35
3.25 1 -0.35
3.3125 1 -0.35
3.375 1 -0.35
3.4375 1 -0.35
3.5 1 -0.35
3.5625 1 -0.35
3.625 1 -0.35
3.6875 1 -0.35
3.75 1 -0.35
3.8125 1 -0.35
3.875 1 -0.35
3.9375 1 -0.35
4 1 -0.35
0 0 -0.2875
0.0625 0 -0.2875
0.125 0 -0.2875
0.1875 0 -0.2875
0.25 0 -0.2875
0.3125 0 -0.2875
0.375 0 -0.2875
0.4375 0 -0.2875
0.5 0 -0.2875
0.5625 0 -0.2875
0.625 0 -0.2875
0.6875 0 -0.2875
0.75 0 -0.2875
0.8125 0 -0.2875
0.875 0 -0.2875
0.9375 0 -0.2875
1 0 -0.2875
1.0625 0 -0.2875
1.125 0 -0.2875
1.1875 0 -0.2875
1.25 0 -0.2875
1.3125 0 -0.2875
1.375 0 -0.2875
1.4375 0 -0.2875
1.5 0 -0.2875
1.5625 0 -0.2875
1.625 0 -0.2875
1.6875 0 -0.2875
1.75 0 -0.2875
1.8125 0 -0.2875
1.875 0 -0.2875
1.9375 0 -0.2875
2 0 -0.2875
2.0625 0 -0.2875
2.125 0 -0.2875
2.1875 0 -0.2875
2.25 0 -0.2875
2.3125 0 -0.2875
2.375 0 -0.2875
2.4375 0 -0.2875
2.5 0 -0.2875
2.5625 0 -0.2875
2.625 0 -0.2875
2.6875 0 -0.2875
2.75 0 -0.2875
2.8125 0 -0.2875
2.875 0 -0.2875
2.9375 0 -0.2875
3 0 -0.2875
3.0625 0 -0.2875
3.125 0 -0.2875
3.1875 0 -0.2875
3.25 0 -0.2875
3.3125 0 -0.2875
3.375 0 -0.2875
3.4375 0 -0.2875
3.5 0 -0.2875
3.5625 0 -0.2875
3.625 0 -0.2875
3.6875 0 -0.2875
3.75 0 -0.2875
3.8125 0 -0.2875
3.875 0 -0.2875
3.9375 0 -0.2875
4 0 -0.2875
0 0.0625 -0.2875
0.0625 0.0625 -0.2875
0.125 0.0625 -0.2875
0.1875 0.0625 -0.2875
0.25 0.0625 -0.2875
0.3125 0.0625 -0.2875
0.375 0.0625 -0.2875
0.4375 0.0625 -0.2875
0.5 0.0625 -0.2875
0.5625 0.0625 -0.2875
0.625 0.0625 -0.2875
0.6875 0.0625 -0.2875
0.75 0.0625 -0.2875
0.8125 0.0625 -0.2875
0.875 0.0625 -0.2875
0.9375 0.0625 -0.2875
1 0.0625 -0.2875
1.0625 0.0625 -0.2875
1.125 0.0625 -0.2875
1.1875 0.0625 -0.2875
1.25 0.0625 -0.2875
1.3125 0.0625 -0.2875
1.375 0.0625 -0.2875
1.4375 0.0625 -0.2875
1.5 0.0625 -0.2875
1.5625 0.0625 -0.2875
1.625 0.0625 -0.2875
1.6875 0.0625 -0.2875
1.75 0.0625 -0.2875
1.8125 0.0625 -0.2875
1.875 0.0625 -0.2875
1.9375 0.0625 -0.2875
2 0.0625 -0.2875
2.0625 0.0625 -0.2875
2.125 0.0625 -0.2875
2.1875 0.0625 -0.2875
2.25 0.0625 -0.2875
2.3125 0.0625 -0.2875
2.375 0.0625 -0.2875
2.4375 0.0625 -0.2875
2.5 0.0625 -0.2875
2.5625 0.0625 -0.2875
2.625 0.0625 -0.2875
2.6875 0.0625 -0.2875
2.75 0.0625 -0.2875
2.8125 0.0625 -0.2875
2.875 0.0625 -0.2875
2.9375 0.0625 -0.2875
3 0.0625 -0.2875
3.0625 0.0625 -0.2875
3.125 0.0625 -0.2875
3.1875 0.0625 -0.2875
3.25 0.0625 -0.2875
3.3125 0.0625 -0.2875
3.375 0.0625 -0.2875
3.4375 0.0625 -0.2875
3.5 0.0625 -0.2875
3.5625 0.0625 -0.2875
3.625 0.0625 -0.2875
3.6875 0.0625 -0.2875
3.75 0.0625 -0.2875
3.8125 0.0625 -0.2875
3.875 0.0625 -0.2875
3.9375 0.0625 -0.2875
4 0.0625 -0.2875
0 0.125 -0.2875
0.0625 0.125 -0.2875
0.125 0.125 -0.2875
0.1875 0.125 -0.2875
0.25 0.125 -0.2875
0.3125 0.125 -0.2875
0.375 0.125 -0.2875
0.4375 0.125 -0.2875
0.5 0.125 -0.2875
0.5625 0.125 -0.2875
0.625 0.125 -0.2875
0.6875 0.125 -0.2875
0.75 0.125 -0.2875
0.8125 0.125 -0.2875
0.875 0.125 -0.2875
0.9375 0.125 -0.2875
1 0.125 -0.2875
1.0625 0.125 -0.2875
1.125 0.125 -0.2875
1.1875 0.125 -0.2875
1.25 0.125 -0.2875
1.3125 0.125 -0.2875
1.375 0.125 -0.2875
1.4375 0.125 -0.2875
1.5 0.125 -0.2875
1.5625 0.125 -0.2875
1.625 0.125 -0.2875
1.6875 0.125 -0.2875
1.75 0.125 -0.2875
1.8125 0.125 -0.2875
1.875 0.125 -0.2875
1.9375 0.125 -0.2875
2 0.125 -0.2875
2.0625 0.125 -0.2875
2.125 0.125 -0.2875
2.1875 0.125 -0.2875
2.25 0.125 -0.2875
2.3125 0.125 -0.2875
2.375 0.125 -0.2875
2.4375 0.125 -0.2875
2.5 0.125 -0.2875
2.5625 0.125 -0.2875
2.625 0.125 -0.2875
2.6875 0.125 -0.2875
2.75 0.125 -0.2875
2.8125 0.125 -0.2875
2.875 0.125 -0.2875
2.9375 0.125 -0.2875
3 0.125 -0.2875
3.0625 0.125 -0.2875
3.125 0.125 -0.2875
3.1875 0.125 -0.2875
3.25 0.125 -0.2875
3.3125 0.125 -0.2875
3.375 0.125 -0.2875
3.4375 0.125 -0.2875
3.5 0.125 -0.2875
3.5625 0.125 -0.2875
3.625 0.125 -0.2875
3.6875 0.125 -0.2875
3.75 0.125 -0.2875
3.8125 0.125 -0.2875
3.875 0.125 -0.2875
3.9375 0.125 -0.2875
4 0.125 -0.2875
0 0.1875 -0.2875
0.0625 0.1875 -0.2875
0.125 0.1875 -0.2875
0.1875 0.1875 -0.2875
0.25 0.1875 -0.2875
0.3125 0.1875 -0.2875
0.375 0.1875 -0.2875
0.4375 0.1875 -0.2875
0.5 0.1875 -0.2875
0.5625 0.1875 -0.2875
0.625 0.1875 -0.2875
0.6875 0.1875 -0.2875
0.75 0.1875 -0.2875
0.8125 0.1875 -0.2875
0.875 0.1875 -0.2875
0.9375 0.1875 -0.2875
1 0.1875 -0.2875
1.0625 0.1875 -0.2875
1.125 0.1875 -0.2875
1.1875 0.1875 -0.2875
1.25 0.1875 -0.2875
1.3125 0.1875 -0.2875
1.375 0.1875 -0.2875
1.4375 0.1875 -0.2875
1.5 0.1875 -0.2875
1.5625 0.1875 -0.2875
1.625 0.1875 -0.2875
1.6875 0.1875 -0.2875
1.75 0.1875 -0.2875
1.8125 0.1875 -0.2875
1.875 0.1875 -0.2875
1.9375 0.1875 -0.2875
2 0.1875 -0.2875
2.0625 0.1875 -0.2875
2.125 0.1875 -0.2875
2.1875 0.1875 -0.2875
2.25 0.1875 -0.2875
2.3125 0.1875 -0.2875
2.375 0.1875 -0.2875
2.4375 0.1875 -0.2875
2.5 0.1875 -0.2875
2.5625 0.1875 -0.2875
2.625 0.1875 -0.2875
2.6875 0.1875 -0.2875
2.75 0.1875 -0.2875
2.8125 0.1875 -0.2875
2.875 0.1875 -0.2875
2.9375 0.1875 -0.2875
3 0.1875 -0.2875
3.0625 0.1875 -0.2875
3.125 0.1875 -0.2875
3.1875 0.1875 -0.2875
3.25 0.1875 -0.2875
3.3125 0.1875 -0.2875
3.375 0.1875 -0.2875
3.4375 0.1875 -0.2875
3.5 0.1875 -0.2875
3.5625 0.1875 -0.2875
3.625 0.1875 -0.2875
3.6875 0.1875 -0.2875
3.75 0.1875 -0.2875
3.8125 0.1875 -0.2875
3.875 0.1875 -0.2875
3.9375 0.1875 -0.2875
4 0.1875 -0.2875
0 0.25 -0.2875
0.0625 0.25 -0.2875
0.125 0.25 -0.2875
0.1875 0.25 -0.2875
0.25 0.25 -0.2875
0.3125 0.25 -0.2875
0.375 0.25 -0.2875
0.4375 0.25 -0.2875
0.5 0.25 -0.2875
0.5625 0.25 -0.2875
0.625 0.25 -0.2875
0.6875 0.25 -0.2875
0.75 0.25 -0.2875
0.8125 0.25 -0.2875
0.875 0.25 -0.2875
0.9375 0.25 -0.2875
1 0.25 -0.2875
1.0625 0.25 -0.2875
1.125 0.25 -0.2875
1.1875 0.25 -0.2875
1.25 0.25 -0.2875
1.3125 0.25 -0.2875
1.375 0.25 -0.2875
1.4375 0.25 -0.2875
1.5 0.25 -0.2875
1.5625 0.25 -0.2875
1.625 0.25 -0.2875
1.6875 0.25 -0.2875
1.75 0.25 -0.2875
1.8125 0.25 -0.2875
1.875 0.25 -0.2875
1.9375 0.25 -0.2875
2 0.25 -0.2875
2.0625 0.25 -0.2875
2.125 0.25 -0.2875
2.1875 0.25 -0.2875
2.25 0.25 -0.2875
2.3125 0.25 -0.2875
2.375 0.25 -0.2875
2.4375 0.25 -0.2875
2.5 0.25 -0.2875
2.5625 0.25 -0.2875
2.625 0.25 -0.2875
2.6875 0.25 -0.2875
2.75 0.25 -0.2875
2.8125 0.25 -0.2875
2.875 0.25 -0.2875
2.9375 0.25 -0.2875
3 0.25 -0.2875
3.0625 0.25 -0.2875
3.125 0.25 -0.2875
3.1875 0.25 -0.2875
3.25 0.25 -0.2875
3.3125 0.25 -0.2875
3.375 0.25 -0.2875
3.4375 0.25 -0.2875
3.5 0.25 -0.2875
3.5625 0.25 -0.2875
3.625 0.25 -0.2875
3.6875 0.25 -0.2875
3.75 0.25 -0.2875
3.8125 0.25 -0.2875
3.875 0.25 -0.2875
3.9375 0.25 -0.2875
4 0.25 -0.2875
0 0.3125 -0.2875
0.0625 0.3125 -0.2875
0.125 0.3125 -0.2875
0.1875 0.3125 -0.2875
0.25 0.3125 -0.2875
0.3125 0.3125 -0.2875
0.375 0.3125 -0.2875
0.4375 0.3125 -0.2875
0.5 0.3125 -0.2875
0.5625 0.3125 -0.2875
0.625 0.3125 -0.2875
0.6875 0.3125 -0.2875
0.75 0.3125 -0.2875
0.8125 0.3125 -0.2875
0.875 0.3125 -0.2875
0.9375 0.3125 -0.2875
1 0.3125 -0.2875
1.0625 0.3125 -0.2875
1.125 0.3125 -0.2875
1.1875 0.3125 -0.2875
1.25 0.3125 -0.2875
1.3125 0.3125 -0.2875
1.375 0.3125 -0.2875
1.4375 0.3125 -0.2875
1.5 0.3125 -0.2875
1.5625 0.3125 -0.2875
1.625 0.3125 -0.2875
1.6875 0.3125 -0.2875
1.75 0.3125 -0.2875
1.8125 0.3125 -0.2875
1.875 0.3125 -0.2875
1.9375 0.3125 -0.2875
2 0.3125 -0.2875
2.0625 0.3125 -0.2875
2.125 0.3125 -0.2875
2.1875 0.3125 -0.2875
2.25 0.3125 -0.2875
2.3125 0.3125 -0.2875
2.375 0.3125 -0.2875
2.4375 0.3125 -0.2875
2.5 0.3125 -0.2875
2.5625 0.3125 -0.2875
2.625 0.3125 -0.2875
2.6875 0.3125 -0.2875
2.75 0.3125 -0.2875
2.8125 0.3125 -0.2875
2.875 0.3125 -0.2875
2.9375 0.3125 -0.2875
3 0.3125 -0.2875
3.0625 0.3125 -0.2875
3.125 0.3125 -0.2875
3.1875 0.3125 -0.2875
3.25 0.3125 -0.2875
3.3125 0.3125 -0.2875
3.375 0.3125 -0.2875
3.4375 0.3125 -0.2875
3.5 0.3125 -0.2875
3.5625 0.3125 -0.2875
3.625 0.3125 -0.2875
3.6875 0.3125 -0.2875
3.75 0.3125 -0.2875
3.8125 0.3125 -0.2875
3.875 0.3125 -0.2875
3.9375 0.3125 -0.2875
4 0.3125 -0.2875
0 0.375 -0.2875
0.0625 0.375 -0.2875
0.125 0.375 -0.2875
0.1875 0.375 -0.2875
0.25 0.375 -0.2875
0.3125 0.375 -0.2875
0.375 0.375 -0.2875
0.4375 0.375 -0.2875
0.5 0.375 -0.2875
0.5625 0.375 -0.2875
0.625 0.375 -0.2875
0.6875 0.375 -0.2875
0.75 0.375 -0.2875
0.8125 0.375 -0.2875
0.875 0.375 -0.2875
0.9375 0.375 -0.2875
1 0.375 -0.2875
1.0625 0.375 -0.2875
1.125 0.375 -0.2875
1.1875 0.375 -0.2875
1.25 0.375 -0.2875
1.3125 0.375 -0.2875
1.375 0.375 -0.2875
1.4375 0.375 -0.2875
1.5 0.375 -0.2875
1.5625 0.375 -0.2875
1.625 0.375 -0.2875
1.6875 0.375 -0.2875
1.75 0.375 -0.2875
1.8125 0.375 -0.2875
1.875 0.375 -0.2875
1.9375 0.375 -0.2875
2 0.375 -0.2875
2.0625 0.375 -0.2875
2.125 0.375 -0.2875
2.1875 0.375 -0.2875
2.25 0.375 -0.2875
2.3125 0.375 -0.2875
2.375 0.375 -0.2875
2.4375 0.375 -0.2875
2.5 0.375 -0.2875
2.5625 0.375 -0.2875
2.625 0.375 -0.2875
2.6875 0.375 -0.2875
2.75 0.375 -0.2875
2.8125 0.375 -0.2875
2.875 0.375 -0.2875
2.9375 0.375 -0.2875
3 0.375 -0.2875
3.0625 0.375 -0.2875
3.125 0.375 -0.2875
3.1875 0.375 -0.2875
3.25 0.375 -0.2875
3.3125 0.375 -0.2875
3.375 0.375 -0.2875
3.4375 0.375 -0.2875
3.5 0.375 -0.2875
3.5625 0.375 -0.2875
3.625 0.375 -0.2875
3.6875 0.375 -0.2875
3.75 0.375 -0.2875
3.8125 0.375 -0.2875
3.875 0.375 -0.2875
3.9375 0.375 -0.2875
4 0.375 -0.2875
0 0.4375 -0.2875
0.0625 0.4375 -0.2875
0.125 0.4375 -0.2875
0.1875 0.4375 -0.2875
0.25 0.4375 -0.2875
0.3125 0.4375 -0.2875
0.375 0.4375 -0.2875
0.4375 0.4375 -0.2875
0.5 0.4375 -0.2875
0.5625 0.4375 -0.2875
0.625 0.4375 -0.2875
0.6875 0.4375 -0.2875
0.75 0.4375 -0.2875
0.8125 0.4375 -0.2875
0.875 0.4375 -0.2875
0.9375 0.4375 -0.2875
1 0.4375 -0.2875
1.0625 0.4375 -0.2875
1.125 0.4375 -0.2875
1.1875 0.4375 -0.2875
1.25 0.4375 -0.2875
1.3125 0.4375 -0.2875
1.375 0.4375 -0.2875
1.4375 0.4375 -0.2875
1.5 0.4375 -0.2875
1.5625 0.4375 -0.2875
1.625 0.4375 -0.2875
1.6875 0.4375 -0.2875
1.75 0.4375 -0.2875
1.8125 0.4375 -0.2875
1.875 0.4375 -0.2875
1.9375 0.4375 -0.2875
2 0.4375 -0.2875
2.0625 0.4375 -0.2875
2.125 0.4375 -0.2875
2.1875 0.4375 -0.2875
2.25 0.4375 -0.2875
2.3125 0.4375 -0.2875
2.375 0.4375 -0.2875
2.4375 0.4375 -0.2875
2.5 0.4375 -0.2875
2.5625 0.4375 -0.2875
2.625 0.4375 -0.2875
2.6875 0.4375 -0.2875
2.75 0.4375 -0.2875
2.8125 0.4375 -0.2875
2.875 0.4375 -0.2875
2.9375 0.4375 -0.2875
3 0.4375 -0.2875
3.0625 0.4375 -0.2875
3.125 0.4375 -0.2875
3.1875 0.4375 -0.2875
3.25 0.4375 -0.2875
3.3125 0.4375 -0.2875
3.375 0.4375 -0.2875
3.4375 0.4375 -0.2875
3.5 0.4375 -0.2875
3.5625 0.4375 -0.2875
3.625 0.4375 -0.2875
3.6875 0.4375 -0.2875
3.75 0.4375 -0.2875
3.8125 0.4375 -0.2875
3.875 0.4375 -0.2875
3.9375 0.4375 -0.2875
4 0.4375 -0.2875
0 0.5 -0.2875
0.0625 0.5 -0.2875
0.125 0.5 -0.2875
0.1875 0.5 -0.2875
0.25 0.5 -0.2875
0.3125 0.5 -0.2875
0.375 0.5 -0.2875
0.4375 0.5 -0.2875
0.5 0.5 -0.2875
0.5625 0.5 -0.2875
0.625 0.5 -0.2875
0.6875 0.5 -0.2875
0.75 0.5 -0.2875
0.8125 0.5 -0.2875
0.875 0.5 -0.2875
0.9375 0.5 -0.2875
1 0.5 -0.2875
1.0625 0.5 -0.2875
1.125 0.5 -0.2875
1.1875 0.5 -0.2875
1.25 0.5 -0.2875
1.3125 0.5 -0.2875
1.375 0.5 -0.2875
1.4375 0.5 -0.2875
1.5 0.5 -0.2875
1.5625 0.5 -0.2875
1.625 0.5 -0.2875
1.6875 0.5 -0.2875
1.75 0.5 -0.2875
1.8125 0.5 -0.2875
1.875 0.5 -0.2875
1.9375 0.5 -0.2875
2 0.5 -0.2875
2.0625 0.5 -0.2875
2.125 0.5 -0.2875
2.1875 0.5 -0.2875
2.25 0.5 -0.2875
2.3125 0.5 -0.2875
2.375 0.5 -0.2875
2.4375 0.5 -0.2875
2.5 0.5 -0.2875
2.5625 0.5 -0.2875
2.625 0.5 -0.2875
2.6875 0.5 -0.2875
2.75 0.5 -0.2875
2.8125 0.5 -0.2875
2.875 0.5 -0.2875
2.9375 0.5 -0.2875
3 0.5 -0.2875
3.0625 0.5 -0.2875
3.125 0.5 -0.2875
3.1875 0.5 -0.2875
3.25 0.5 -0.2875
3.3125 0.5 -0.2875
3.375 0.5 -0.2875
3.4375 0.5 -0.2875
3.5 0.5 -0.2875
3.5625 0.5 -0.2875
3.625 0.5 -0.2875
3.6875 0.5 -0.2875
3.75 0.5 -0.2875
3.8125 0.5 -0.2875
3.875 0.5 -0.2875
3.9375 0.5 -0.2875
4 0.5 -0.2875
0 0.5625 -0.2875
0.0625 0.5625 -0.2875
0.125 0.5625 -0.2875
0.1875 0.5625 -0.2875
0.25 0.5625 -0.2875
0.3125 0.5625 -0.2875
0.375 0.5625 -0.2875
0.4375 0.5625 -0.2875
0.5 0.5625 -0.2875
0.5625 0.5625 -0.2875
0.625 0.5625 -0.2875
0.6875 0.5625 -0.2875
0.75 0.5625 -0.2875
0.8125 0.5625 -0.2875
0.875 0.5625 -0.2875
0.9375 0.5625 -0.2875
1 0.5625 -0.2875
1.0625 0.5625 -0.2875
1.125 0.5625 -0.2875
1.1875 0.5625 -0.2875
1.25 0.5625 -0.2875
1.3125 0.5625 -0.2875
1.375 0.5625 -0.2875
1.4375 0.5625 -0.2875
1.5 0.5625 -0.2875
1.5625 0.5625 -0.2875
1.625 0.5625 -0.2875
1.6875 0.5625 -0.2875
1.75 0.5625 -0.2875
1.8125 0.5625 -0.2875
1.875 0.5625 -0.2875
1.9375 0.5625 -0.2875
2 0.5625 -0.2875
2.0625 0.5625 -0.2875
2.125 0.5625 -0.2875
2.1875 0.5625 -0.2875
2.25 0.5625 -0.2875
2.3125 0.5625 -0.2875
2.375 0.5625 -0.2875
2.4375 0.5625 -0.2875
2.5 0.5625 -0.2875
2.5625 0.5625 -0.2875
2.625 0.5625 -0.2875
2.6875 0.5625 -0.2875
2.75 0.5625 -0.2875
2.8125 0.5625 -0.2875
2.875 0.5625 -0.2875
2.9375 0.5625 -0.2875
3 0.5625 -0.2875
3.0625 0.5625 -0.2875
3.125 0.5625 -0.2875
3.1875 0.5625 -0.2875
3.25 0.5625 -0.2875
3.3125 0.5625 -0.2875
3.375 0.5625 -0.2875
3.4375 0.5625 -0.2875
3.5 0.5625 -0.2875
3.5625 0.5625 -0.2875
3.625 0.5625 -0.2875
3.6875 0.5625 -0.2875
3.75 0.5625 -0.2875
3.8125 0.5625 -0.2875
3.875 0.5625 -0.2875
3.9375 0.5625 -0.2875
4 0.5625 -0.2875
0 0.625 -0.2875
0.0625 0.625 -0.2875
0.125 0.625 -0.2875
0.1875 0.625 -0.2875
0.25 0.625 -0.2875
0.3125 0.625 -0.2875
0.375 0.625 -0.2875
0.4375 0.625 -0.2875
0.5 0.625 -0.2875
0.5625 0.625 -0.2875
0.625 0.625 -0.2875
0.6875 0.625 -0.2875
0.75 0.625 -0.2875
0.8125 0.625 -0.2875
0.875 0.625 -0.2875
0.9375 0.625 -0.2875
1 0.625 -0.2875
1.0625 0.625 -0.2875
1.125 0.625 -0.2875
1.1875 0.625 -0.2875
1.25 0.625 -0.2875
1.3125 0.625 -0.2875
1.375 0.625 -0.2875
1.4375 0.625 -0.2875
1.5 0.625 -0.2875
1.5625 0.625 -0.2875
1.625 0.625 -0.2875
1.6875 0.625 -0.2875
1.75 0.625 -0.2875
1.8125 0.625 -0.2875
1.875 0.625 -0.2875
1.9375 0.625 -0.2875
2 0.625 -0.2875
2.0625 0.625 -0.2875
2.125 0.625 -0.2875
2.1875 0.625 -0.2875
2.25 0.625 -0.2875
2.3125 0.625 -0.2875
2.375 0.625 -0.2875
2.4375 0.625 -0.2875
2.5 0.625 -0.2875
2.5625 0.625 -0.2875
2.625 0.625 -0.2875
2.6875 0.625 -0.2875
2.75 0.625 -0.2875
2.8125 0.625 -0.2875
2.875 0.625 -0.2875
2.9375 0.625 -0.2875
3 0.625 -0.2875
3.0625 0.625 -0.2875
3.125 0.625 -0.2875
3.1875 0.625 -0.2875
3.25 0.625 -0.2875
3.3125 0.625 -0.2875
3.375 0.625 -0.2875
3.4375 0.625 -0.2875
3.5 0.625 -0.2875
3.5625 0.625 -0.2875
3.625 0.625 -0.2875
3.6875 0.625 -0.2875
3.75 0.625 -0.2875
3.8125 0.625 -0.2875
3.875 0.625 -0.2875
3.9375 0.625 -0.2875
4 0.625 -0.2875
0 0.6875 -0.2875
0.0625 0.6875 -0.2875
0.125 0.6875 -0.2875
0.1875 0.6875 -0.2875
0.25 0.6875 -0.2875
0.3125 0.6875 -0.2875
0.375 0.6875 -0.2875
0.4375 0.6875 -0.2875
0.5 0.6875 -0.2875
0.5625 0.6875 -0.2875
0.625 0.6875 -0.2875
0.6875 0.6875 -0.2875
0.75 0.6875 -0.2875
0.8125 0.6875 -0.2875
0.875 0.6875 -0.2875
0.9375 0.6875 -0.2875
1 0.6875 -0.2875
1.0625 0.6875 -0.2875
1.125 0.6875 -0.2875
1.1875 0.6875 -0.2875
1.25 0.6875 -0.2875
1.3125 0.6875 -0.2875
1.375 0.6875 -0.2875
1.4375 0.6875 -0.2875
1.5 0.6875 -0.2875
1.5625 0.6875 -0.2875
1.625 0.6875 -0.2875
1.6875 0.6875 -0.2875
1.75 0.6875 -0.2875
1.8125 0.6875 -0.2875
1.875 0.6875 -0.2875
1.9375 0.6875 -0.2875
2 0.6875 -0.2875
2.0625 0.6875 -0.2875
2.125 0.6875 -0.2875
2.1875 0.6875 -0.2875
2.25 0.6875 -0.2875
2.3125 0.6875 -0.2875
2.375 0.6875 -0.2875
2.4375 0.6875 -0.2875
2.5 0.6875 -0.2875
2.5625 0.6875 -0.2875
2.625 0.6875 -0.2875
2.6875 0.6875 -0.2875
2.75 0.6875 -0.2875
2.8125 0.6875 -0.2875
2.875 0.6875 -0.2875
2.9375 0.6875 -0.2875
3 0.6875 -0.2875
3.0625 0.6875 -0.2875
3.125 0.6875 -0.2875
3.1875 0.6875 -0.2875
3.25 0.6875 -0.2875
3.3125 0.6875 -0.2875
3.375 0.6875 -0.2875
3.4375 0.6875 -0.2875
3.5 0.6875 -0.2875
3.5625 0.6875 -0.2875
3.625 0.6875 -0.2875
3.6875 0.6875 -0.2875
3.75 0.6875 -0.2875
3.8125 0.6875 -0.2875
3.875 0.6875 -0.2875
3.9375 0.6875 -0.2875
4 0.6875 -0.2875
0 0.75 -0.2875
0.0625 0.75 -0.2875
0.125 0.75 -0.2875
0.1875 0.75 -0.2875
0.25 0.75 -0.2875
0.3125 0.75 -0.2875
0.375 0.75 -0.2875
0.4375 0.75 -0.2875
0.5 0.75 -0.2875
0.5625 0.75 -0.2875
0.625 0.75 -0.2875
0.6875 0.75 -0.2875
0.75 0.75 -0.2875
0.8125 0.75 -0.2875
0.875 0.75 -0.2875
0.9375 0.75 -0.2875
1 0.75 -0.2875
1.0625 0.75 -0.2875
1.125 0.75 -0.2875
1.1875 0.75 -0.2875
1.25 0.75 -0.2875
1.3125 0.75 -0.2875
1.375 0.75 -0.2875
1.4375 0.75 -0.2875
1.5 0.75 -0.2875
1.5625 0.75 -0.2875
1.625 0.75 -0.2875
1.6875 0.75 -0.2875
1.75 0.75 -0.2875
1.8125 0.75 -0.2875
1.875 0.75 -0.2875
1.9375 0.75 -0.2875
2 0.75 -0.2875
2.0625 0.75 -0.2875
2.125 0.75 -0.2875
2.1875 0.75 -0.2875
2.25 0.75 -0.2875
2.3125 0.75 -0.2875
2.375 0.75 -0.2875
2.4375 0.75 -0.2875
2.5 0.75 -0.2875
2.5625 0.75 -0.2875
2.625 0.75 -0.2875
2.6875 0.75 -0.2875
2.75 0.75 -0.2875
2.8125 0.75 -0.2875
2.875 0.75 -0.2875
2.9375 0.75 -0.2875
3 0.75 -0.2875
3.0625 0.75 -0.2875
3.125 0.75 -0.2875
3.1875 0.75 -0.2875
3.25 0.75 -0.2875
3.3125 0.75 -0.2875
3.375 0.75 -0.2875
3.4375 0.75 -0.2875
3.5 0.75 -0.2875
3.5625 0.75 -0.2875
3.625 0.75 -0.2875
3.6875 0.75 -0.2875
3.75 0.75 -0.2875
3.8125 0.75 -0.2875
3.875 0.75 -0.2875
3.9375 0.75 -0.2875
4 0.75 -0.2875
0 0.8125 -0.2875
0.0625 0.8125 -0.2875
0.125 0.8125 -0.2875
0.1875 0.8125 -0.2875
0.25 0.8125 -0.2875
0.3125 0.8125 -0.2875
0.375 0.8125 -0.2875
0.4375 0.8125 -0.2875
0.5 0.8125 -0.2875
0.5625 0.8125 -0.2875
0.625 0.8125 -0.2875
0.6875 0.8125 -0.2875
0.75 0.8125 -0.2875
0.8125 0.8125 -0.2875
0.875 0.8125 -0.2875
0.9375 0.8125 -0.2875
1 0.8125 -0.2875
1.0625 0.8125 -0.2875
1.125 0.8125 -0.2875
1.1875 0.8125 -0.2875
1.25 0.8125 -0.2875
1.3125 0.8125 -0.2875
1.375 0.8125 -0.2875
1.4375 0.8125 -0.2875
1.5 0.8125 -0.2875
1.5625 0.8125 -0.2875
1.625 0.8125 -0.2875
1.6875 0.8125 -0.2875
1.75 0.8125 -0.2875
1.8125 0.8125 -0.2875
1.875 0.8125 -0.2875
1.9375 0.8125 -0.2875
2 0.8125 -0.2875
2.0625 0.8125 -0.2875
2.125 0.8125 -0.2875
2.1875 0.8125 -0.2875
2.25 0.8125 -0.2875
2.3125 0.8125 -0.2875
2.375 0.8125 -0.2875
2.4375 0.8125 -0.2875
2.5 0.8125 -0.2875
2.5625 0.8125 -0.2875
2.625 0.8125 -0.2875
2.6875 0.8125 -0.2875
2.75 0.8125 -0.2875
2.8125 0.8125 -0.2875
2.875 0.8125 -0.2875
2.9375 0.8125 -0.2875
3 0.8125 -0.2875
3.0625 0.8125 -0.2875
3.125 0.8125 -0.2875
3.1875 0.8125 -0.2875
3.25 0.8125 -0.2875
3.3125 0.8125 -0.2875
3.375 0.8125 -0.2875
3.4375 0.8125 -0.2875
3.5 0.8125 -0.2875
3.5625 0.8125 -0.2875
3.625 0.8125 -0.2875
3.6875 0.8125 -0.2875
3.75 0.8125 -0.2875
3.8125 0.8125 -0.2875
3.875 0.8125 -0.2875
3.9375 0.8125 -0.2875
4 0.8125 -0.2875
0 0.875 -0.2875
0.0625 0.875 -0.2875
0.125 0.875 -0.2875
0.1875 0.875 -0.2875
0.25 0.875 -0.2875
0.3125 0.875 -0.2875
0.375 0.875 -0.2875
0.4375 0.875 -0.2875
0.5 0.875 -0.2875
0.5625 0.875 -0.2875
0.625 0.875 -0.2875
0.6875 0.875 -0.2875
0.75 0.875 -0.2875
0.8125 0.875 -0.2875
0.875 0.875 -0.2875
0.9375 0.875 -0.2875
1 0.875 -0.2875
1.0625 0.875 -0.2875
1.125 0.875 -0.2875
1.1875 0.875 -0.2875
1.25 0.875 -0.2875
1.3125 0.875 -0.2875
1.375 0.875 -0.2875
1.4375 0.875 -0.2875
1.5 0.875 -0.2875
1.5625 0.875 -0.2875
1.625 0.875 -0.2875
1.6875 0.875 -0.2875
1.75 0.875 -0.2875
1.8125 0.875 -0.2875
1.875 0.875 -0.2875
1.9375 0.875 -0.2875
2 0.875 -0.2875
2.0625 0.875 -0.2875
2.125 0.875 -0.2875
2.1875 0.875 -0.2875
2.25 0.875 -0.2875
2.3125 0.875 -0.2875
2.375 0.875 -0.2875
2.4375 0.875 -0.2875
2.5 0.875 -0.2875
2.5625 0.875 -0.2875
2.625 0.875 -0.2875
2.6875 0.875 -0.2875
2.75 0.875 -0.2875
2.8125 0.875 -0.2875
2.875 0.875 -0.2875
2.9375 0.875 -0.2875
3 0.875 -0.2875
3.0625 0.875 -0.2875
3.125 0.875 -0.2875
3.1875 0.875 -0.2875
3.25 0.875 -0.2875
3.3125 0.875 -0.2875
3.375 0.875 -0.2875
3.4375 0.875 -0.2875
3.5 0.875 -0.2875
3.5625 0.875 -0.2875
3.625 0.875 -0.2875
3.6875 0.875 -0.2875
3.75 0.875 -0.2875
3.8125 0.875 -0.2875
3.875 0.875 -0.2875
3.9375 0.875 -0.2875
4 0.875 -0.2875
0 0.9375 -0.2875
0.0625 0.9375 -0.2875
0.125 0.9375 -0.2875
0.1875 0.9375 -0.2875
0.25 0.9375 -0.2875
0.3125 0.9375 -0.2875
0.375 0.9375 -0.2875
0.4375 0.9375 -0.2875
0.5 0.9375 -0.2875
0.5625 0.9375 -0.2875
0.625 0.9375 -0.2875
0.6875 0.9375 -0.2875
0.75 0.9375 -0.2875
0.8125 0.9375 -0.2875
0.875 0.9375 -0.2875
0.9375 0.9375 -0.2875
1 0.9375 -0.2875
1.0625 0.9375 -0.2875
1.125 0.9375 -0.2875
1.1875 0.9375 -0.2875
1.25 0.9375 -0.2875
1.3125 0.9375 -0.2875
1.375 0.9375 -0.2875
1.4375 0.9375 -0.2875
1.5 0.9375 -0.2875
1.5625 0.9375 -0.2875
1.625 0.9375 -0.2875
1.6875 0.9375 -0.2875
1.75 0.9375 -0.2875
1.8125 0.9375 -0.2875
1.875 0.9375 -0.2875
1.9375 0.9375 -0.2875
2 0.9375 -0.2875
2.0625 0.9375 -0.2875
2.125 0.9375 -0.2875
2.1875 0.9375 -0.2875
2.25 0.9375 -0.2875
2.3125 0.9375 -0.2875
2.375 0.9375 -0.2875
2.4375 0.9375 -0.2875
2.5 0.9375 -0.2875
2.5625 0.9375 -0.2875
2.625 0.9375 -0.2875
2.6875 0.9375 -0.2875
2.75 0.9375 -0.2875
2.8125 0.9375 -0.2875
2.875 0.9375 -0.2875
2.9375 0.9375 -0.2875
3 0.9375 -0.2875
3.0625 0.9375 -0.2875
3.125 0.9375 -0.2875
3.1875 0.9375 -0.2875
3.25 0.9375 -0.2875
3.3125 0.9375 -0.2875
3.375 0.9375 -0.2875
3.4375 0.9375 -0.2875
3.5 0.9375 -0.2875
3.5625 0.9375 -0.2875
3.625 0.9375 -0.2875
3.6875 0.9375 -0.2875
3.75 0.9375 -0.2875
3.8125 0.9375 -0.2875
3.875 0.9375 -0.2875
3.9375 0.9375 -0.2875
4 0.9375 -0.2875
0 1 -0.2875
0.0625 1 -0.2875
0.125 1 -0.2875
0.1875 1 -0.2875
0.25 1 -0.2875
0.3125 1 -0.2875
0.375 1 -0.2875
0.4375 1 -0.2875
0.5 1 -0.2875
0.5625 1 -0.2875
0.625 1 -0.2875
0.6875 1 -0.2875
0.75 1 -0.2875
0.8125 1 -0.2875
0.875 1 -0.2875
0.9375 1 -0.2875
1 1 -0.2875
1.0625 1 -0.2875
1.125 1 -0.2875
1.1875 1 -0.2875
1.25 1 -0.2875
1.3125 1 -0.2875
1.375 1 -0.2875
1.4375 1 -0.2875
1.5 1 -0.2875
1.5625 1 -0.2875
1.625 1 -0.2875
1.6875 1 -0.2875
1.75 1 -0.2875
1.8125 1 -0.2875
1.875 1 -0.2875
1.9375 1 -0.2875
2 1 -0.2875
2.0625 1 -0.2875
2.125 1 -0.2875
2.1875 1 -0.2875
2.25 1 -0.2875
2.3125 1 -0.2875
2.375 1 -0.2875
2.4375 1 -0.2875
2.5 1 -0.2875
2.5625 1 -0.2875
2.625 1 -0.2875
2.6875 1 -0.2875
2.75 1 -0.2875
2.8125 1 -0.2875
2.875 1 -0.2875
2.9375 1 -0.2875
3 1 -0.2875
3.0625 1 -0.2875
3.125 1 -0.2875
3.1875 1 -0.2875
3.25 1 -0.2875
3.3125 1 -0.2875
3.375 1 -0.2875
3.4375 1 -0.2875
3.5 1 -0.2875
3.5625 1 -0.2875
3.625 1 -0.2875
3.6875 1 -0.2875
3.75 1 -0.2875
3.8125 1 -0.2875
3.875 1 -0.2875
3.9375 1 -0.2875
4 1 -0.2875
0 0 -0.225
0.0625 0 -0.225
0.125 0 -0.225
0.1875 0 -0.225
0.25 0 -0.225
0.3125 0 -0.225
0.375 0 -0.225
0.4375 0 -0.225
0.5 0 -0.225
0.5625 0 -0.225
0.625 0 -0.225
0.6875 0 -0.225
0.75 0 -0.225
0.8125 0 -0.225
0.875 0 -0.225
0.9375 0 -0.225
1 0 -0.225
1.0625 0 -0.225
1.125 0 -0.225
1.1875 0 -0.225
1.25 0 -0.225
1.3125 0 -0.225
1.375 0 -0.225
1.4375 0 -0.225
1.5 0 -0.225
1.5625 0 -0.225
1.625 0 -0.225
1.6875 0 -0.225
1.75 0 -0.225
1.8125 0 -0.225
1.875 0 -0.225
1.9375 0 -0.225
2 0 -0.225
2.0625 0 -0.225
2.125 0 -0.225
2.1875 0 -0.225
2.25 0 -0.225
2.3125 0 -0.225
2.375 0 -0.225
2.4375 0 -0.225
2.5 0 -0.225
2.5625 0 -0.225
2.625 0 -0.225
2.6875 0 -0.225
2.75 0 -0.225
2.8125 0 -0.225
2.875 0 -0.225
2.9375 0 -0.225
3 0 -0.225
3.0625 0 -0.225
3.125 0 -0.225
3.1875 0 -0.225
3.25 0 -0.225
3.3125 0 -0.225
3.375 0 -0.225
3.4375 0 -0.225
3.5 0 -0.225
3.5625 0 -0.225
3.625 0 -0.225
3.6875 0 -0.225
3.75 0 -0.225
3.8125 0 -0.225
3.875 0 -0.225
3.9375 0 -0.225
4 0 -0.225
0 0.0625 -0.225
0.0625 0.0625 -0.225
0.125 0.0625 -0.225
0.1875 0.0625 -0.225
0.25 0.0625 -0.225
0.3125 0.0625 -0.225
0.375 0.0625 -0.225
0.4375 0.0625 -0.225
0.5 0.0625 -0.225
0.5625 0.0625 -0.225
0.625 0.0625 -0.225
0.6875 0.0625 -0.225
0.75 0.0625 -0.225
0.8125 0.0625 -0.225
0.875 0.0625 -0.225
0.9375 0.0625 -0.225
1 0.0625 -0.225
1.0625 0.0625 -0.225
1.125 0.0625 -0.225
1.1875 0.0625 -0.225
1.25 0.0625 -0.225
1.3125 0.0625 -0.225
1.375 0.0625 -0.225
1.4375 0.0625 -0.225
1.5 0.0625 -0.225
1.5625 0.0625 -0.225
1.625 0.0625 -0.225
1.6875 0.0625 -0.225
1.75 0.0625 -0.225
1.8125 0.0625 -0.225
1.875 0.0625 -0.225
1.9375 0.0625 -0.225
2 0.0625 -0.225
2.0625 0.0625 -0.225
2.125 0.0625 -0.225
2.1875 0.0625 -0.225
2.25 0.0625 -0.225
2.3125 0.0625 -0.225
2.375 0.0625 -0.225
2.4375 0.0625 -0.225
2.5 0.0625 -0.225
2.5625 0.0625 -0.225
2.625 0.0625 -0.225
2.6875 0.0625 -0.225
2.75 0.0625 -0.225
2.8125 0.0625 -0.225
2.875 0.0625 -0.225
2.9375 0.0625 -0.225
3 0.0625 -0.225
3.0625 0.0625 -0.225
3.125 0.0625 -0.225
3.1875 0.0625 -0.225
3.25 0.0625 -0.225
3.3125 0.0625 -0.225
3.375 0.0625 -0.225
3.4375 0.0625 -0.225
3.5 0.0625 -0.225
3.5625 0.0625 -0.225
3.625 0.0625 -0.225
3.6875 0.0625 -0.225
3.75 0.0625 -0.225
3.8125 0.0625 -0.225
3.875 0.0625 -0.225
3.9375 0.0625 -0.225
4 0.0625 -0.225
0 0.125 -0.225
0.0625 0.125 -0.225
0.125 0.125 -0.225
0.1875 0.125 -0.225
0.25 0.125 -0.225
0.3125 0.125 -0.225
0.375 0.125 -0.225
0.4375 0.125 -0.225
0.5 0.125 -0.225
0.5625 0.125 -0.225
0.625 0.125 -0.225
0.6875 0.125 -0.225
0.75 0.125 -0.225
0.8125 0.125 -0.225
0.875 0.125 -0.225
0.9375 0.125 -0.225
1 0.125 -0.225
1.0625 0.125 -0.225
1.125 0.125 -0.225
1.1875 0.125 -0.225
1.25 0.125 -0.225
1.3125 0.125 -0.225
1.375 0.125 -0.225
1.4375 0.125 -0.225
1.5 0.125 -0.225
1.5625 0.125 -0.225
1.625 0.125 -0.225
1.6875 0.125 -0.225
1.75 0.125 -0.225
1.8125 0.125 -0.225
1.875 0.125 -0.225
1.9375 0.125 -0.225
2 0.125 -0.225
2.0625 0.125 -0.225
2.125 0.125 -0.225
2.1875 0.125 -0.225
2.25 0.125 -0.225
2.3125 0.125 -0.225
2.375 0.125 -0.225
2.4375 0.125 -0.225
2.5 0.125 -0.225
2.5625 0.125 -0.225
2.625 0.125 -0.225
2.6875 0.125 -0.225
2.75 0.125 -0.225
2.8125 0.125 -0.225
2.875 0.125 -0.225
2.9375 0.125 -0.225
3 0.125 -0.225
3.0625 0.125 -0.225
3.125 0.125 -0.225
3.1875 0.125 -0.225
3.25 0.125 -0.225
3.3125 0.125 -0.225
3.375 0.125 -0.225
3.4375 0.125 -0.225
3.5 0.125 -0.225
3.5625 0.125 -0.225
3.625 0.125 -0.225
3.6875 0.125 -0.225
3.75 0.125 -0.225
3.8125 0.125 -0.225
3.875 0.125 -0.225
3.9375 0.125 -0.225
4 0.125 -0.225
0 0.1875 -0.225
0.0625 0.1875 -0.225
0.125 0.1875 -0.225
0.1875 0.1875 -0.225
0.25 0.1875 -0.225
0.3125 0.1875 -0.225
0.375 0.1875 -0.225
0.4375 0.1875 -0.225
0.5 0.1875 -0.225
0.5625 0.1875 -0.225
0.625 0.1875 -0.225
0.6875 0.1875 -0.225
0.75 0.1875 -0.225
0.8125 0.1875 -0.225
0.875 0.1875 -0.225
0.9375 0.1875 -0.225
1 0.1875 -0.225
1.0625 0.1875 -0.225
1.125 0.1875 -0.225
1.1875 0.1875 -0.225
1.25 0.1875 -0.225
1.3125 0.1875 -0.225
1.375 0.1875 -0.225
1.4375 0.1875 -0.225
1.5 0.1875 -0.225
1.5625 0.1875 -0.225
1.625 0.1875 -0.225
1.6875 0.1875 -0.225
1.75 0.1875 -0.225
1.8125 0.1875 -0.225
1.875 0.1875 -0.225
1.9375 0.1875 -0.225
2 0.1875 -0.225
2.0625 0.1875 -0.225
2.125 0.1875 -0.225
2.1875 0.1875 -0.225
2.25 0.1875 -0.225
2.3125 0.1875 -0.225
2.375 0.1875 -0.225
2.4375 0.1875 -0.225
2.5 0.1875 -0.225
2.5625 0.1875 -0.225
2.625 0.1875 -0.225
2.6875 0.1875 -0.225
2.75 0.1875 -0.225
2.8125 0.1875 -0.225
2.875 0.1875 -0.225
2.9375 0.1875 -0.225
3 0.1875 -0.225
3.0625 0.1875 -0.225
3.125 0.1875 -0.225
3.1875 0.1875 -0.225
3.25 0.1875 -0.225
3.3125 0.1875 -0.225
3.375 0.1875 -0.225
3.4375 0.1875 -0.225
3.5 0.1875 -0.225
3.5625 0.1875 -0.225
3.625 0.1875 -0.225
3.6875 0.1875 -0.225
3.75 0.1875 -0.225
3.8125 0.1875 -0.225
3.875 0.1875 -0.225
3.9375 0.1875 -0.225
4 0.1875 -0.225
0 0.25 -0.225
0.0625 0.25 -0.225
0.125 0.25 -0.225
0.1875 0.25 -0.225
0.25 0.25 -0.225
0.3125 0.25 -0.225
0.375 0.25 -0.225
0.4375 0.25 -0.225
0.5 0.25 -0.225
0.5625 0.25 -0.225
0.625 0.25 -0.225
0.6875 0.25 -0.225
0.75 0.25 -0.225
0.8125 0.25 -0.225
0.875 0.25 -0.225
0.9375 0.25 -0.225
1 0.25 -0.225
1.0625 0.25 -0.225
1.125 0.25 -0.225
1.1875 0.25 -0.225
1.25 0.25 -0.225
1.3125 0.25 -0.225
1.375 0.25 -0.225
1.4375 0.25 -0.225
1.5 0.25 -0.225
1.5625 0.25 -0.225
1.625 0.25 -0.225
1.6875 0.25 -0.225
1.75 0.25 -0.225
1.8125 0.25 -0.225
1.875 0.25 -0.225
1.9375 0.25 -0.225
2 0.25 -0.225
2.0625 0.25 -0.225
2.125 0.25 -0.225
2.1875 0.25 -0.225
2.25 0.25 -0.225
2.3125 0.25 -0.225
2.375 0.25 -0.225
2.4375 0.25 -0.225
2.5 0.25 -0.225
2.5625 0.25 -0.225
2.625 0.25 -0.225
2.6875 0.25 -0.225
2.75 0.25 -0.225
2.8125 0.25 -0.225
2.875 0.25 -0.225
2.9375 0.25 -0.225
3 0.25 -0.225
3.0625 0.25 -0.225
3.125 0.25 -0.225
3.1875 0.25 -0.225
3.25 0.25 -0.225
3.3125 0.25 -0.225
3.375 0.25 -0.225
3.4375 0.25 -0.225
3.5 0.25 -0.225
3.5625 0.25 -0.225
3.625 0.25 -0.225
3.6875 0.25 -0.225
3.75 0.25 -0.225
3.8125 0.25 -0.225
3.875 0.25 -0.225
3.9375 0.25 -0.225
4 0.25 -0.225
0 0.3125 -0.225
0.0625 0.3125 -0.225
0.125 0.3125 -0.225
0.1875 0.3125 -0.225
0.25 0.3125 -0.225
0.3125 0.3125 -0.225
0.375 0.3125 -0.225
0.4375 0.3125 -0.225
0.5 0.3125 -0.225
0.5625 0.3125 -0.225
0.625 0.3125 -0.225
0.6875 0.3125 -0.225
0.75 0.3125 -0.225
0.8125 0.3125 -0.225
0.875 0.3125 -0.225
0.9375 0.3125 -0.225
1 0.3125 -0.225
1.0625 0.3125 -0.225
1.125 0.3125 -0.225
1.1875 0.3125 -0.225
1.25 0.3125 -0.225
1.3125 0.3125 -0.225
1.375 0.3125 -0.225
1.4375 0.3125 -0.225
1.5 0.3125 -0.225
1.5625 0.3125 -0.225
1.625 0.3125 -0.225
1.6875 0.3125 -0.225
1.75 0.3125 -0.225
1.8125 0.3125 -0.225
1.875 0.3125 -0.225
1.9375 0.3125 -0.225
2 0.3125 -0.225
2.0625 0.3125 -0.225
2.125 0.3125 -0.225
2.1875 0.3125 -0.225
2.25 0.3125 -0.225
2.3125 0.3125 -0.225
2.375 0.3125 -0.225
2.4375 0.3125 -0.225
2.5 0.3125 -0.225
2.5625 0.3125 -0.225
2.625 0.3125 -0.225
2.6875 0.3125 -0.225
2.75 0.3125 -0.225
2.8125 0.3125 -0.225
2.875 0.3125 -0.225
2.9375 0.3125 -0.225
3 0.3125 -0.225
3.0625 0.3125 -0.225
3.125 0.3125 -0.225
3.1875 0.3125 -0.225
3.25 0.3125 -0.225
3.3125 0.3125 -0.225
3.375 0.3125 -0.225
3.4375 0.3125 -0.225
3.5 0.3125 -0.225
3.5625 0.3125 -0.225
3.625 0.3125 -0.225
3.6875 0.3125 -0.225
3.75 0.3125 -0.225
3.8125 0.3125 -0.225
3.875 0.3125 -0.225
3.9375 0.3125 -0.225
4 0.3125 -0.225
0 0.375 -0.225
0.0625 0.375 -0.225
0.125 0.375 -0.225
0.1875 0.375 -0.225
0.25 0.375 -0.225
0.3125 0.375 -0.225
0.375 0.375 -0.225
0.4375 0.375 -0.225
0.5 0.375 -0.225
0.5625 0.375 -0.225
0.625 0.375 -0.225
0.6875 0.375 -0.225
0.75 0.375 -0.225
0.8125 0.375 -0.225
0.875 0.375 -0.225
0.9375 0.375 -0.225
1 0.375 -0.225
1.0625 0.375 -0.225
1.125 0.375 -0.225
1.1875 0.375 -0.225
1.25 0.375 -0.225
1.3125 0.375 -0.225
1.375 0.375 -0.225
1.4375 0.375 -0.225
1.5 0.375 -0.225
1.5625 0.375 -0.225
1.625 0.375 -0.225
1.6875 0.375 -0.225
1.75 0.375 -0.225
1.8125 0.375 -0.225
1.875 0.375 -0.225
1.9375 0.375 -0.225
2 0.375 -0.225
2.0625 0.375 -0.225
2.125 0.375 -0.225
2.1875 0.375 -0.225
2.25 0.375 -0.225
2.3125 0.375 -0.225
2.375 0.375 -0.225
2.4375 0.375 -0.225
2.5 0.375 -0.225
2.5625 0.375 -0.225
2.625 0.375 -0.225
2.6875 0.375 -0.225
2.75 0.375 -0.225
2.8125 0.375 -0.225
2.875 0.375 -0.225
2.9375 0.375 -0.225
3 0.375 -0.225
3.0625 0.375 -0.225
3.125 0.375 -0.225
3.1875 0.375 -0.225
3.25 0.375 -0.225
3.3125 0.375 -0.225
3.375 0.375 -0.225
3.4375 0.375 -0.225
3.5 0.375 -0.225
3.5625 0.375 -0.225
3.625 0.375 -0.225
3.6875 0.375 -0.225
3.75 0.375 -0.225
3.8125 0.375 -0.225
3.875 0.375 -0.225
3.9375 0.375 -0.225
4 0.375 -0.225
0 0.4375 -0.225
0.0625 0.4375 -0.225
0.125 0.4375 -0.225
0.1875 0.4375 -0.225
0.25 0.4375 -0.225
0.3125 0.4375 -0.225
0.375 0.4375 -0.225
0.4375 0.4375 -0.225
0.5 0.4375 -0.225
0.5625 0.4375 -0.225
0.625 0.4375 -0.225
0.6875 0.4375 -0.225
0.75 0.4375 -0.225
0.8125 0.4375 -0.225
0.875 0.4375 -0.225
0.9375 0.4375 -0.225
1 0.4375 -0.225
1.0625 0.4375 -0.225
1.125 0.4375 -0.225
1.1875 0.4375 -0.225
1.25 0.4375 -0.225
1.3125 0.4375 -0.225
1.375 0.4375 -0.225
1.4375 0.4375 -0.225
1.5 0.4375 -0.225
1.5625 0.4375 -0.225
1.625 0.4375 -0.225
1.6875 0.4375 -0.225
1.75 0.4375 -0.225
1.8125 0.4375 -0.225
1.875 0.4375 -0.225
1.9375 0.4375 -0.225
2 0.4375 -0.225
2.0625 0.4375 -0.225
2.125 0.4375 -0.225
2.1875 0.4375 -0.225
2.25 0.4375 -0.225
2.3125 0.4375 -0.225
2.375 0.4375 -0.225
2.4375 0.4375 -0.225
2.5 0.4375 -0.225
2.5625 0.4375 -0.225
2.625 0.4375 -0.225
2.6875 0.4375 -0.225
2.75 0.4375 -0.225
2.8125 0.4375 -0.225
2.875 0.4375 -0.225
2.9375 0.4375 -0.225
3 0.4375 -0.225
3.0625 0.4375 -0.225
3.125 0.4375 -0.225
3.1875 0.4375 -0.225
3.25 0.4375 -0.225
3.3125 0.4375 -0.225
3.375 0.4375 -0.225
3.4375 0.4375 -0.225
3.5 0.4375 -0.225
3.5625 0.4375 -0.225
3.625 0.4375 -0.225
3.6875 0.4375 -0.225
3.75 0.4375 -0.225
3.8125 0.4375 -0.225
3.875 0.4375 -0.225
3.9375 0.4375 -0.225
4 0.4375 -0.225
0 0.5 -0.225
0.0625 0.5 -0.225
0.125 0.5 -0.225
0.1875 0.5 -0.225
0.25 0.5 -0.225
0.3125 0.5 -0.225
0.375 0.5 -0.225
0.4375 0.5 -0.225
0.5 0.5 -0.225
0.5625 0.5 -0.225
0.625 0.5 -0.225
0.6875 0.5 -0.225
0.75 0.5 -0.225
0.8125 0.5 -0.225
0.875 0.5 -0.225
0.9375 0.5 -0.225
1 0.5 -0.225
1.0625 0.5 -0.225
1.125 0.5 -0.225
1.1875 0.5 -0.225
1.25 0.5 -0.225
1.3125 0.5 -0.225
1.375 0.5 -0.225
1.4375 0.5 -0.225
1.5 0.5 -0.225
1.5625 0.5 -0.225
1.625 0.5 -0.225
1.6875 0.5 -0.225
1.75 0.5 -0.225
1.8125 0.5 -0.225
1.875 0.5 -0.225
1.9375 0.5 -0.225
2 0.5 -0.225
2.0625 0.5 -0.225
2.125 0.5 -0.225
2.1875 0.5 -0.225
2.25 0.5 -0.225
2.3125 0.5 -0.225
2.375 0.5 -0.225
2.4375 0.5 -0.225
2.5 0.5 -0.225
2.5625 0.5 -0.225
2.625 0.5 -0.225
2.6875 0.5 -0.225
2.75 0.5 -0.225
2.8125 0.5 -0.225
2.875 0.5 -0.225
2.9375 0.5 -0.225
3 0.5 -0.225
3.0625 0.5 -0.225
3.125 0.5 -0.225
3.1875 0.5 -0.225
3.25 0.5 -0.225
3.3125 0.5 -0.225
3.375 0.5 -0.225
3.4375 0.5 -0.225
3.5 0.5 -0.225
3.5625 0.5 -0.225
3.625 0.5 -0.225
3.6875 0.5 -0.225
3.75 0.5 -0.225
3.8125 0.5 -0.225
3.875 0.5 -0.225
3.9375 0.5 -0.225
4 0.5 -0.225
0 0.5625 -0.225
0.0625 0.5625 -0.225
0.125 0.5625 -0.225
0.1875 0.5625 -0.225
0.25 0.5625 -0.225
0.3125 0.5625 -0.225
0.375 0.5625 -0.225
0.4375 0.5625 -0.225
0.5 0.5625 -0.225
0.5625 0.5625 -0.225
0.625 0.5625 -0.225
0.6875 0.5625 -0.225
0.75 0.5625 -0.225
0.8125 0.5625 -0.225
0.875 0.5625 -0.225
0.9375 0.5625 -0.225
1 0.5625 -0.225
1.0625 0.5625 -0.225
1.125 0.5625 -0.225
1.1875 0.5625 -0.225
1.25 0.5625 -0.225
1.3125 0.5625 -0.225
1.375 0.5625 -0.225
1.4375 0.5625 -0.225
1.5 0.5625 -0.225
1.5625 0.5625 -0.225
1.625 0.5625 -0.225
1.6875 0.5625 -0.225
1.75 0.5625 -0.225
1.8125 0.5625 -0.225
1.875 0.5625 -0.225
1.9375 0.5625 -0.225
2 0.5625 -0.225
2.0625 0.5625 -0.225
2.125 0.5625 -0.225
2.1875 0.5625 -0.225
2.25 0.5625 -0.225
2.3125 0.5625 -0.225
2.375 0.5625 -0.225
2.4375 0.5625 -0.225
2.5 0.5625 -0.225
2.5625 0.5625 -0.225
2.625 0.5625 -0.225
2.6875 0.5625 -0.225
2.75 0.5625 -0.225
2.8125 0.5625 -0.225
2.875 0.5625 -0.225
2.9375 0.5625 -0.225
3 0.5625 -0.225
3.0625 0.5625 -0.225
3.125 0.5625 -0.225
3.1875 0.5625 -0.225
3.25 0.5625 -0.225
3.3125 0.5625 -0.225
3.375 0.5625 -0.225
3.4375 0.5625 -0.225
3.5 0.5625 -0.225
3.5625 0.5625 -0.225
3.625 0.5625 -0.225
3.6875 0.5625 -0.225
3.75 0.5625 -0.225
3.8125 0.5625 -0.225
3.875 0.5625 -0.225
3.9375 0.5625 -0.225
4 0.5625 -0.225
0 0.625 -0.225
0.0625 0.625 -0.225
0.125 0.625 -0.225
0.1875 0.625 -0.225
0.25 0.625 -0.225
0.3125 0.625 -0.225
0.375 0.625 -0.225
0.4375 0.625 -0.225
0.5 0.625 -0.225
0.5625 0.625 -0.225
0.625 0.625 -0.225
0.6875 0.625 -0.225
0.75 0.625 -0.225
0.8125 0.625 -0.225
0.875 0.625 -0.225
0.9375 0.625 -0.225
1 0.625 -0.225
1.0625 0.625 -0.225
1.125 0.625 -0.225
1.1875 0.625 -0.225
1.25 0.625 -0.225
1.3125 0.625 -0.225
1.375 0.625 -0.225
1.4375 0.625 -0.225
1.5 0.625 -0.225
1.5625 0.625 -0.225
1.625 0.625 -0.225
1.6875 0.625 -0.225
1.75 0.625 -0.225
1.8125 0.625 -0.225
1.875 0.625 -0.225
1.9375 0.625 -0.225
2 0.625 -0.225
2.0625 0.625 -0.225
2.125 0.625 -0.225
2.1875 0.625 -0.225
2.25 0.625 -0.225
2.3125 0.625 -0.225
2.375 0.625 -0.225
2.4375 0.625 -0.225
2.5 0.625 -0.225
2.5625 0.625 -0.225
2.625 0.625 -0.225
2.6875 0.625 -0.225
2.75 0.625 -0.225
2.8125 0.625 -0.225
2.875 0.625 -0.225
2.9375 0.625 -0.225
3 0.625 -0.225
3.0625 0.625 -0.225
3.125 0.625 -0.225
3.1875 0.625 -0.225
3.25 0.625 -0.225
3.3125 0.625 -0.225
3.375 0.625 -0.225
3.4375 0.625 -0.225
3.5 0.625 -0.225
3.5625 0.625 -0.225
3.625 0.625 -0.225
3.6875 0.625 -0.225
3.75 0.625 -0.225
3.8125 0.625 -0.225
3.875 0.625 -0.225
3.9375 0.625 -0.225
4 0.625 -0.225
0 0.6875 -0.225
0.0625 0.6875 -0.225
0.125 0.6875 -0.225
0.1875 0.6875 -0.225
0.25 0.6875 -0.225
0.3125 0.6875 -0.225
0.375 0.6875 -0.225
0.4375 0.6875 -0.225
0.5 0.6875 -0.225
0.5625 0.6875 -0.225
0.625 0.6875 -0.225
0.6875 0.6875 -0.225
0.75 0.6875 -0.225
0.8125 0.6875 -0.225
0.875 0.6875 -0.225
0.9375 0.6875 -0.225
1 0.6875 -0.225
1.0625 0.6875 -0.225
1.125 0.6875 -0.225
1.1875 0.6875 -0.225
1.25 0.6875 -0.225
1.3125 0.6875 -0.225
1.375 0.6875 -0.225
1.4375 0.6875 -0.225
1.5 0.6875 -0.225
1.5625 0.6875 -0.225
1.625 0.6875 -0.225
1.6875 0.6875 -0.225
1.75 0.6875 -0.225
1.8125 0.6875 -0.225
1.875 0.6875 -0.225
1.9375 0.6875 -0.225
2 0.6875 -0.225
2.0625 0.6875 -0.225
2.125 0.6875 -0.225
2.1875 0.6875 -0.225
2.25 0.6875 -0.225
2.3125 0.6875 -0.225
2.375 0.6875 -0.225
2.4375 0.6875 -0.225
2.5 0.6875 -0.225
2.5625 0.6875 -0.225
2.625 0.6875 -0.225
2.6875 0.6875 -0.225
2.75 0.6875 -0.225
2.8125 0.6875 -0.225
2.875 0.6875 -0.225
2.9375 0.6875 -0.225
3 0.6875 -0.225
3.0625 0.6875 -0.225
3.125 0.6875 -0.225
3.1875 0.6875 -0.225
3.25 0.6875 -0.225
3.3125 0.6875 -0.225
3.375 0.6875 -0.225
3.4375 0.6875 -0.225
3.5 0.6875 -0.225
3.5625 0.6875 -0.225
3.625 0.6875 -0.225
3.6875 0.6875 -0.225
3.75 0.6875 -0.225
3.8125 0.6875 -0.225
3.875 0.6875 -0.225
3.9375 0.6875 -0.225
4 0.6875 -0.225
0 0.75 -0.225
0.0625 0.75 -0.225
0.125 0.75 -0.225
0.1875 0.75 -0.225
0.25 0.75 -0.225
0.3125 0.75 -0.225
0.375 0.75 -0.225
0.4375 0.75 -0.225
0.5 0.75 -0.225
0.5625 0.75 -0.225
0.625 0.75 -0.225
0.6875 0.75 -0.225
0.75 0.75 -0.225
0.8125 0.75 -0.225
0.875 0.75 -0.225
0.9375 0.75 -0.225
1 0.75 -0.225
1.0625 0.75 -0.225
1.125 0.75 -0.225
1.1875 0.75 -0.225
1.25 0.75 -0.225
1.3125 0.75 -0.225
1.375 0.75 -0.225
1.4375 0.75 -0.225
1.5 0.75 -0.225
1.5625 0.75 -0.225
1.625 0.75 -0.225
1.6875 0.75 -0.225
1.75 0.75 -0.225
1.8125 0.75 -0.225
1.875 0.75 -0.225
1.9375 0.75 -0.225
2 0.75 -0.225
2.0625 0.75 -0.225
2.125 0.75 -0.225
2.1875 0.75 -0.225
2.25 0.75 -0.225
2.3125 0.75 -0.225
2.375 0.75 -0.225
2.4375 0.75 -0.225
2.5 0.75 -0.225
2.5625 0.75 -0.225
2.625 0.75 -0.225
2.6875 0.75 -0.225
2.75 0.75 -0.225
2.8125 0.75 -0.225
2.875 0.75 -0.225
2.9375 0.75 -0.225
3 0.75 -0.225
3.0625 0.75 -0.225
3.125 0.75 -0.225
3.1875 0.75 -0.225
3.25 0.75 -0.225
3.3125 0.75 -0.225
3.375 0.75 -0.225
3.4375 0.75 -0.225
3.5 0.75 -0.225
3.5625 0.75 -0.225
3.625 0.75 -0.225
3.6875 0.75 -0.225
3.75 0.75 -0.225
3.8125 0.75 -0.225
3.875 0.75 -0.225
3.9375 0.75 -0.225
4 0.75 -0.225
0 0.8125 -0.225
0.0625 0.8125 -0.225
0.125 0.8125 -0.225
0.1875 0.8125 -0.225
0.25 0.8125 -0.225
0.3125 0.8125 -0.225
0.375 0.8125 -0.225
0.4375 0.8125 -0.225
0.5 0.8125 -0.225
0.5625 0.8125 -0.225
0.625 0.8125 -0.225
0.6875 0.8125 -0.225
0.75 0.8125 -0.225
0.8125 0.8125 -0.225
0.875 0.8125 -0.225
0.9375 0.8125 -0.225
1 0.8125 -0.225
1.0625 0.8125 -0.225
1.125 0.8125 -0.225
1.1875 0.8125 -0.225
1.25 0.8125 -0.225
1.3125 0.8125 -0.225
1.375 0.8125 -0.225
1.4375 0.8125 -0.225
1.5 0.8125 -0.225
1.5625 0.8125 -0.225
1.625 0.8125 -0.225
1.6875 0.8125 -0.225
1.75 0.8125 -0.225
1.8125 0.8125 -0.225
1.875 0.8125 -0.225
1.9375 0.8125 -0.225
2 0.8125 -0.225
2.0625 0.8125 -0.225
2.125 0.8125 -0.225
2.1875 0.8125 -0.225
2.25 0.8125 -0.225
2.3125 0.8125 -0.225
2.375 0.8125 -0.225
2.4375 0.8125 -0.225
2.5 0.8125 -0.225
2.5625 0.8125 -0.225
2.625 0.8125 -0.225
2.6875 0.8125 -0.225
2.75 0.8125 -0.225
2.8125 0.8125 -0.225
2.875 0.8125 -0.225
2.9375 0.8125 -0.225
3 0.8125 -0.225
3.0625 0.8125 -0.225
3.125 0.8125 -0.225
3.1875 0.8125 -0.225
3.25 0.8125 -0.225
3.3125 0.8125 -0.225
3.375 0.8125 -0.225
3.4375 0.8125 -0.225
3.5 0.8125 -0.225
3.5625 0.8125 -0.225
3.625 0.8125 -0.225
3.6875 0.8125 -0.225
3.75 0.8125 -0.225
3.8125 0.8125 -0.225
3.875 0.8125 -0.225
3.9375 0.8125 -0.225
4 0.8125 -0.225
0 0.875 -0.225
0.0625 0.875 -0.225
0.125 0.875 -0.225
0.1875 0.875 -0.225
0.25 0.875 -0.225
0.3125 0.875 -0.225
0.375 0.875 -0.225
0.4375 0.875 -0.225
0.5 0.875 -0.225
0.5625 0.875 -0.225
0.625 0.875 -0.225
0.6875 0.875 -0.225
0.75 0.875 -0.225
0.8125 0.875 -0.225
0.875 0.875 -0.225
0.9375 0.875 -0.225
1 0.875 -0.225
1.0625 0.875 -0.225
1.125 0.875 -0.225
1.1875 0.875 -0.225
1.25 0.875 -0.225
1.3125 0.875 -0.225
1.375 0.875 -0.225
1.4375 0.875 -0.225
1.5 0.875 -0.225
1.5625 0.875 -0.225
1.625 0.875 -0.225
1.6875 0.875 -0.225
1.75 0.875 -0.225
1.8125 0.875 -0.225
1.875 0.875 -0.225
1.9375 0.875 -0.225
2 0.875 -0.225
2.0625 0.875 -0.225
2.125 0.875 -0.225
2.1875 0.875 -0.225
2.25 0.875 -0.225
2.3125 0.875 -0.225
2.375 0.875 -0.225
2.4375 0.875 -0.225
2.5 0.875 -0.225
2.5625 0.875 -0.225
2.625 0.875 -0.225
2.6875 0.875 -0.225
2.75 0.875 -0.225
2.8125 0.875 -0.225
2.875 0.875 -0.225
2.9375 0.875 -0.225
3 0.875 -0.225
3.0625 0.875 -0.225
3.125 0.875 -0.225
3.1875 0.875 -0.225
3.25 0.875 -0.225
3.3125 0.875 -0.225
3.375 0.875 -0.225
3.4375 0.875 -0.225
3.5 0.875 -0.225
3.5625 0.875 -0.225
3.625 0.875 -0.225
3.6875 0.875 -0.225
3.75 0.875 -0.225
3.8125 0.875 -0.225
3.875 0.875 -0.225
3.9375 0.875 -0.225
4 0.875 -0.225
0 0.9375 -0.225
0.0625 0.9375 -0.225
0.125 0.9375 -0.225
0.1875 0.9375 -0.225
0.25 0.9375 -0.225
0.3125 0.9375 -0.225
0.375 0.9375 -0.225
0.4375 0.9375 -0.225
0.5 0.9375 -0.225
0.5625 0.9375 -0.225
0.625 0.9375 -0.225
0.6875 0.9375 -0.225
0.75 0.9375 -0.225
0.8125 0.9375 -0.225
0.875 0.9375 -0.225
0.9375 0.9375 -0.225
1 0.9375 -0.225
1.0625 0.9375 -0.225
1.125 0.9375 -0.225
1.1875 0.9375 -0.225
1.25 0.9375 -0.225
1.3125 0.9375 -0.225
1.375 0.9375 -0.225
1.4375 0.9375 -0.225
1.5 0.9375 -0.225
1.5625 0.9375 -0.225
1.625 0.9375 -0.225
1.6875 0.9375 -0.225
1.75 0.9375 -0.225
1.8125 0.9375 -0.225
1.875 0.9375 -0.225
1.9375 0.9375 -0.225
2 0.9375 -0.225
2.0625 0.9375 -0.225
2.125 0.9375 -0.225
2.1875 0.9375 -0.225
2.25 0.9375 -0.225
2.3125 0.9375 -0.225
2.375 0.9375 -0.225
2.4375 0.9375 -0.225
2.5 0.9375 -0.225
2.5625 0.9375 -0.225
2.625 0.9375 -0.225
2.6875 0.9375 -0.225
2.75 0.9375 -0.225
2.8125 0.9375 -0.225
2.875 0.9375 -0.225
2.9375 0.9375 -0.225
3 0.9375 -0.225
3.0625 0.9375 -0.225
3.125 0.9375 -0.225
3.1875 0.9375 -0.225
3.25 0.9375 -0.225
3.3125 0.9375 -0.225
3.375 0.9375 -0.225
3.4375 0.9375 -0.225
3.5 0.9375 -0.225
3.5625 0.9375 -0.225
3.625 0.9375 -0.225
3.6875 0.9375 -0.225
3.75 0.9375 -0.225
3.8125 0.9375 -0.225
3.875 0.9375 -0.225
3.9375 0.9375 -0.225
4 0.9375 -0.225
0 1 -0.225
0.0625 1 -0.225
0.125 1 -0.225
0.1875 1 -0.225
0.25 1 -0.225
0.3125 1 -0.225
0.375 1 -0.225
0.4375 1 -0.225
0.5 1 -0.225
0.5625 1 -0.225
0.625 1 -0.225
0.6875 1 -0.225
0.75 1 -0.225
0.8125 1 -0.225
0.875 1 -0.225
0.9375 1 -0.225
1 1 -0.225
1.0625 1 -0.225
1.125 1 -0.225
1.1875 1 -0.225
1.25 1 -0.225
1.3125 1 -0.225
1.375 1 -0.225
1.4375 1 -0.225
1.5 1 -0.225
1.5625 1 -0.225
1.625 1 -0.225
1.6875 1 -0.225
1.75 1 -0.225
1.8125 1 -0.225
1.875 1 -0.225
1.9375 1 -0.225
2 1 -0.225
2.0625 1 -0.225
2.125 1 -0.225
2.1875 1 -0.225
2.25 1 -0.225
2.3125 1 -0.225
2.375 1 -0.225
2.4375 1 -0.225
2.5 1 -0.225
2.5625 1 -0.225
2.625 1 -0.225
2.6875 1 -0.225
2.75 1 -0.225
2.8125 1 -0.225
2.875 1 -0.225
2.9375 1 -0.225
3 1 -0.225
3.0625 1 -0.225
3.125 1 -0.225
3.1875 1 -0.225
3.25 1 -0.225
3.3125 1 -0.225
3.375 1 -0.225
3.4375 1 -0.225
3.5 1 -0.225
3.5625 1 -0.225
3.625 1 -0.225
3.6875 1 -0.225
3.75 1 -0.225
3.8125 1 -0.225
3.875 1 -0.225
3.9375 1 -0.225
4 1 -0.225
0 0 -0.1625
0.0625 0 -0.1625
0.125 0 -0.1625
0.1875 0 -0.1625
0.25 0 -0.1625
0.3125 0 -0.1625
0.375 0 -0.1625
0.4375 0 -0.1625
0.5 0 -0.1625
0.5625 0 -0.1625
0.625 0 -0.1625
0.6875 0 -0.1625
0.75 0 -0.1625
0.8125 0 -0.1625
0.875 0 -0.1625
0.9375 0 -0.1625
1 0 -0.1625
1.0625 0 -0.1625
1.125 0 -0.1625
1.1875 0 -0.1625
1.25 0 -0.1625
1.3125 0 -0.1625
1.375 0 -0.1625
1.4375 0 -0.1625
1.5 0 -0.1625
1.5625 0 -0.1625
1.625 0 -0.1625
1.6875 0 -0.1625
1.75 0 -0.1625
1.8125 0 -0.1625
1.875 0 -0.1625
1.9375 0 -0.1625
2 0 -0.1625
2.0625 0 -0.1625
2.125 0 -0.1625
2.1875 0 -0.1625
2.25 0 -0.1625
2.3125 0 -0.1625
2.375 0 -0.1625
2.4375 0 -0.1625
2.5 0 -0.1625
2.5625 0 -0.1625
2.625 0 -0.1625
2.6875 0 -0.1625
2.75 0 -0.1625
2.8125 0 -0.1625
2.875 0 -0.1625
2.9375 0 -0.1625
3 0 -0.1625
3.0625 0 -0.1625
3.125 0 -0.1625
3.1875 0 -0.1625
3.25 0 -0.1625
3.3125 0 -0.1625
3.375 0 -0.1625
3.4375 0 -0.1625
3.5 0 -0.1625
3.5625 0 -0.1625
3.625 0 -0.1625
3.6875 0 -0.1625
3.75 0 -0.1625
3.8125 0 -0.1625
3.875 0 -0.1625
3.9375 0 -0.1625
4 0 -0.1625
0 0.0625 -0.1625
0.0625 0.0625 -0.1625
0.125 0.0625 -0.1625
0.1875 0.0625 -0.1625
0.25 0.0625 -0.1625
0.3125 0.0625 -0.1625
0.375 0.0625 -0.1625
0.4375 0.0625 -0.1625
0.5 0.0625 -0.1625
0.5625 0.0625 -0.1625
0.625 0.0625 -0.1625
0.6875 0.0625 -0.1625
0.75 0.0625 -0.1625
0.8125 0.0625 -0.1625
0.875 0.0625 -0.1625
0.9375 0.0625 -0.1625
1 0.0625 -0.1625
1.0625 0.0625 -0.1625
1.125 0.0625 -0.1625
1.1875 0.0625 -0.1625
1.25 0.0625 -0.1625
1.3125 0.0625 -0.1625
1.375 0.0625 -0.1625
1.4375 0.0625 -0.1625
1.5 0.0625 -0.1625
1.5625 0.0625 -0.1625
1.625 0.0625 -0.1625
1.6875 0.0625 -0.1625
1.75 0.0625 -0.1625
1.8125 0.0625 -0.1625
1.875 0.0625 -0.1625
1.9375 0.0625 -0.1625
2 0.0625 -0.1625
2.0625 0.0625 -0.1625
2.125 0.0625 -0.1625
2.1875 0.0625 -0.1625
2.25 0.0625 -0.1625
2.3125 0.0625 -0.1625
2.375 0.0625 -0.1625
2.4375 0.0625 -0.1625
2.5 0.0625 -0.1625
2.5625 0.0625 -0.1625
2.625 0.0625 -0.1625
2.6875 0.0625 -0.1625
2.75 0.0625 -0.1625
2.8125 0.0625 -0.1625
2.875 0.0625 -0.1625
2.9375 0.0625 -0.1625
3 0.0625 -0.1625
3.0625 0.0625 -0.1625
3.125 0.0625 -0.1625
3.1875 0.0625 -0.1625
3.25 0.0625 -0.1625
3.3125 0.0625 -0.1625
3.375 0.0625 -0.1625
3.4375 0.0625 -0.1625
3.5 0.0625 -0.1625
3.5625 0.0625 -0.1625
3.625 0.0625 -0.1625
3.6875 0.0625 -0.1625
3.75 0.0625 -0.1625
3.8125 0.0625 -0.1625
3.875 0.0625 -0.1625
3.9375 0.0625 -0.1625
4 0.0625 -0.1625
0 0.125 -0.1625
0.0625 0.125 -0.1625
0.125 0.125 -0.1625
0.1875 0.125 -0.1625
0.25 0.125 -0.1625
0.3125 0.125 -0.1625
0.375 0.125 -0.1625
0.4375 0.125 -0.1625
0.5 0.125 -0.1625
0.5625 0.125 -0.1625
0.625 0.125 -0.1625
0.6875 0.125 -0.1625
0.75 0.125 -0.1625
0.8125 0.125 -0.1625
0.875 0.125 -0.1625
0.9375 0.125 -0.1625
1 0.125 -0.1625
1.0625 0.125 -0.1625
1.125 0.125 -0.1625
1.1875 0.125 -0.1625
1.25 0.125 -0.1625
1.3125 0.125 -0.1625
1.375 0.125 -0.1625
1.4375 0.125 -0.1625
1.5 0.125 -0.1625
1.5625 0.125 -0.1625
1.625 0.125 -0.1625
1.6875 0.125 -0.1625
1.75 0.125 -0.1625
1.8125 0.125 -0.1625
1.875 0.125 -0.1625
1.9375 0.125 -0.1625
2 0.125 -0.1625
2.0625 0.125 -0.1625
2.125 0.125 -0.1625
2.1875 0.125 -0.1625
2.25 0.125 -0.1625
2.3125 0.125 -0.1625
2.375 0.125 -0.1625
2.4375 0.125 -0.1625
2.5 0.125 -0.1625
2.5625 0.125 -0.1625
2.625 0.125 -0.1625
2.6875 0.125 -0.1625
2.75 0.125 -0.1625
2.8125 0.125 -0.1625
2.875 0.125 -0.1625
2.9375 0.125 -0.1625
3 0.125 -0.1625
3.0625 0.125 -0.1625
3.125 0.125 -0.1625
3.1875 0.125 -0.1625
3.25 0.125 -0.1625
3.3125 0.125 -0.1625
3.375 0.125 -0.1625
3.4375 0.125 -0.1625
3.5 0.125 -0.1625
3.5625 0.125 -0.1625
3.625 0.125 -0.1625
3.6875 0.125 -0.1625
3.75 0.125 -0.1625
3.8125 0.125 -0.1625
3.875 0.125 -0.1625
3.9375 0.125 -0.1625
4 0.125 -0.1625
0 0.1875 -0.1625
0.0625 0.1875 -0.1625
0.125 0.1875 -0.1625
0.1875 0.1875 -0.1625
0.25 0.1875 -0.1625
0.3125 0.1875 -0.1625
0.375 0.1875 -0.1625
0.4375 0.1875 -0.1625
0.5 0.1875 -0.1625
0.5625 0.1875 -0.1625
0.625 0.1875 -0.1625
0.6875 0.1875 -0.1625
0.75 0.1875 -0.1625
0.8125 0.1875 -0.1625
0.875 0.1875 -0.1625
0.9375 0.1875 -0.1625
1 0.1875 -0.1625
1.0625 0.1875 -0.1625
1.125 0.1875 -0.1625
1.1875 0.1875 -0.1625
1.25 0.1875 -0.1625
1.3125 0.1875 -0.1625
1.375 0.1875 -0.1625
1.4375 0.1875 -0.1625
1.5 0.1875 -0.1625
1.5625 0.1875 -0.1625
1.625 0.1875 -0.1625
1.6875 0.1875 -0.1625
1.75 0.1875 -0.1625
1.8125 0.1875 -0.1625
1.875 0.1875 -0.1625
1.9375 0.1875 -0.1625
2 0.1875 -0.1625
2.0625 0.1875 -0.1625
2.125 0.1875 -0.1625
2.1875 0.1875 -0.1625
2.25 0.1875 -0.1625
2.3125 0.1875 -0.1625
2.375 0.1875 -0.1625
2.4375 0.1875 -0.1625
2.5 0.1875 -0.1625
2.5625 0.1875 -0.1625
2.625 0.1875 -0.1625
2.6875 0.1875 -0.1625
2.75 0.1875 -0.1625
2.8125 0.1875 -0.1625
2.875 0.1875 -0.1625
2.9375 0.1875 -0.1625
3 0.1875 -0.1625
3.0625 0.1875 -0.1625
3.125 0.1875 -0.1625
3.1875 0.1875 -0.1625
3.25 0.1875 -0.1625
3.3125 0.1875 -0.1625
3.375 0.1875 -0.1625
3.4375 0.1875 -0.1625
3.5 0.1875 -0.1625
3.5625 0.1875 -0.1625
3.625 0.1875 -0.1625
3.6875 0.1875 -0.1625
3.75 0.1875 -0.1625
3.8125 0.1875 -0.1625
3.875 0.1875 -0.1625
3.9375 0.1875 -0.1625
4 0.1875 -0.1625
0 0.25 -0.1625
0.0625 0.25 -0.1625
0.125 0.25 -0.1625
0.1875 0.25 -0.1625
0.25 0.25 -0.1625
0.3125 0.25 -0.1625
0.375 0.25 -0.1625
0.4375 0.25 -0.1625
0.5 0.25 -0.1625
0.5625 0.25 -0.1625
0.625 0.25 -0.1625
0.6875 0.25 -0.1625
0.75 0.25 -0.1625
0.8125 0.25 -0.1625
0.875 0.25 -0.1625
0.9375 0.25 -0.1625
1 0.25 -0.1625
1.0625 0.25 -0.1625
1.125 0.25 -0.1625
1.1875 0.25 -0.1625
1.25 0.25 -0.1625
1.3125 0.25 -0.1625
1.375 0.25 -0.1625
1.4375 0.25 -0.1625
1.5 0.25 -0.1625
1.5625 0.25 -0.1625
1.625 0.25 -0.1625
1.6875 0.25 -0.1625
1.75 0.25 -0.1625
1.8125 0.25 -0.1625
1.875 0.25 -0.1625
1.9375 0.25 -0.1625
2 0.25 -0.1625
2.0625 0.25 -0.1625
2.125 0.25 -0.1625
2.1875 0.25 -0.1625
2.25 0.25 -0.1625
2.3125 0.25 -0.1625
2.375 0.25 -0.1625
2.4375 0.25 -0.1625
2.5 0.25 -0.1625
2.5625 0.25 -0.1625
2.625 0.25 -0.1625
2.6875 0.25 -0.1625
2.75 0.25 -0.1625
2.8125 0.25 -0.1625
2.875 0.25 -0.1625
2.9375 0.25 -0.1625
3 0.25 -0.1625
3.0625 0.25 -0.1625
3.125 0.25 -0.1625
3.1875 0.25 -0.1625
3.25 0.25 -0.1625
3.3125 0.25 -0.1625
3.375 0.25 -0.1625
3.4375 0.25 -0.1625
3.5 0.25 -0.1625
3.5625 0.25 -0.1625
3.625 0.25 -0.1625
3.6875 0.25 -0.1625
3.75 0.25 -0.1625
3.8125 0.25 -0.1625
3.875 0.25 -0.1625
3.9375 0.25 -0.1625
4 0.25 -0.1625
0 0.3125 -0.1625
0.0625 0.3125 -0.1625
0.125 0.3125 -0.1625
0.1875 0.3125 -0.1625
0.25 0.3125 -0.1625
0.3125 0.3125 -0.1625
0.375 0.3125 -0.1625
0.4375 0.3125 -0.1625
0.5 0.3125 -0.1625
0.5625 0.3125 -0.1625
0.625 0.3125 -0.1625
0.6875 0.3125 -0.1625
0.75 0.3125 -0.1625
0.8125 0.3125 -0.1625
0.875 0.3125 -0.1625
0.9375 0.3125 -0.1625
1 0.3125 -0.1625
1.0625 0.3125 -0.1625
1.125 0.3125 -0.1625
1.1875 0.3125 -0.1625
1.25 0.3125 -0.1625
1.3125 0.3125 -0.1625
1.375 0.3125 -0.1625
1.4375 0.3125 -0.1625
1.5 0.3125 -0.1625
1.5625 0.3125 -0.1625
1.625 0.3125 -0.1625
1.6875 0.3125 -0.1625
1.75 0.3125 -0.1625
1.8125 0.3125 -0.1625
1.875 0.3125 -0.1625
1.9375 0.3125 -0.1625
2 0.3125 -0.1625
2.0625 0.3125 -0.1625
2.125 0.3125 -0.1625
2.1875 0.3125 -0.1625
2.25 0.3125 -0.1625
2.3125 0.3125 -0.1625
2.375 0.3125 -0.1625
2.4375 0.3125 -0.1625
2.5 0.3125 -0.1625
2.5625 0.3125 -0.1625
2.625 0.3125 -0.1625
2.6875 0.3125 -0.1625
2.75 0.3125 -0.1625
2.8125 0.3125 -0.1625
2.875 0.3125 -0.1625
2.9375 0.3125 -0.1625
3 0.3125 -0.1625
3.0625 0.3125 -0.1625
3.125 0.3125 -0.1625
3.1875 0.3125 -0.1625
3.25 0.3125 -0.1625
3.3125 0.3125 -0.1625
3.375 0.3125 -0.1625
3.4375 0.3125 -0.1625
3.5 0.3125 -0.1625
3.5625 0.3125 -0.1625
3.625 0.3125 -0.1625
3.6875 0.3125 -0.1625
3.75 0.3125 -0.1625
3.8125 0.3125 -0.1625
3.875 0.3125 -0.1625
3.9375 0.3125 -0.1625
4 0.3125 -0.1625
0 0.375 -0.1625
0.0625 0.375 -0.1625
0.125 0.375 -0.1625
0.1875 0.375 -0.1625
0.25 0.375 -0.1625
0.3125 0.375 -0.1625
0.375 0.375 -0.1625
0.4375 0.375 -0.1625
0.5 0.375 -0.1625
0.5625 0.375 -0.1625
0.625 0.375 -0.1625
0.6875 0.375 -0.1625
0.75 0.375 -0.1625
0.8125 0.375 -0.1625
0.875 0.375 -0.1625
0.9375 0.375 -0.1625
1 0.375 -0.1625
1.0625 0.375 -0.1625
1.125 0.375 -0.1625
1.1875 0.375 -0.1625
1.25 0.375 -0.1625
1.3125 0.375 -0.1625
1.375 0.375 -0.1625
1.4375 0.375 -0.1625
1.5 0.375 -0.1625
1.5625 0.375 -0.1625
1.625 0.375 -0.1625
1.6875 0.375 -0.1625
1.75 0.375 -0.1625
1.8125 0.375 -0.1625
1.875 0.375 -0.1625
1.9375 0.375 -0.1625
2 0.375 -0.1625
2.0625 0.375 -0.1625
2.125 0.375 -0.1625
2.1875 0.375 -0.1625
2.25 0.375 -0.1625
2.3125 0.375 -0.1625
2.375 0.375 -0.1625
2.4375 0.375 -0.1625
2.5 0.375 -0.1625
2.5625 0.375 -0.1625
2.625 0.375 -0.1625
2.6875 0.375 -0.1625
2.75 0.375 -0.1625
2.8125 0.375 -0.1625
2.875 0.375 -0.1625
2.9375 0.375 -0.1625
3 0.375 -0.1625
3.0625 0.375 -0.1625
3.125 0.375 -0.1625
3.1875 0.375 -0.1625
3.25 0.375 -0.1625
3.3125 0.375 -0.1625
3.375 0.375 -0.1625
3.4375 0.375 -0.1625
3.5 0.375 -0.1625
3.5625 0.375 -0.1625
3.625 0.375 -0.1625
3.6875 0.375 -0.1625
3.75 0.375 -0.1625
3.8125 0.375 -0.1625
3.875 0.375 -0.1625
3.9375 0.375 -0.1625
4 0.375 -0.1625
0 0.4375 -0.1625
0.0625 0.4375 -0.1625
0.125 0.4375 -0.1625
0.1875 0.4375 -0.1625
0.25 0.4375 -0.1625
0.3125 0.4375 -0.1625
0.375 0.4375 -0.1625
0.4375 0.4375 -0.1625
0.5 0.4375 -0.1625
0.5625 0.4375 -0.1625
0.625 0.4375 -0.1625
0.6875 0.4375 -0.1625
0.75 0.4375 -0.1625
0.8125 0.4375 -0.1625
0.875 0.4375 -0.1625
0.9375 0.4375 -0.1625
1 0.4375 -0.1625
1.0625 0.4375 -0.1625
1.125 0.4375 -0.1625
1.1875 0.4375 -0.1625
1.25 0.4375 -0.1625
1.3125 0.4375 -0.1625
1.375 0.4375 -0.1625
1.4375 0.4375 -0.1625
1.5 0.4375 -0.1625
1.5625 0.4375 -0.1625
1.625 0.4375 -0.1625
1.6875 0.4375 -0.1625
1.75 0.4375 -0.1625
1.8125 0.4375 -0.1625
1.875 0.4375 -0.1625
1.9375 0.4375 -0.1625
2 0.4375 -0.1625
2.0625 0.4375 -0.1625
2.125 0.4375 -0.1625
2.1875 0.4375 -0.1625
2.25 0.4375 -0.1625
2.3125 0.4375 -0.1625
2.375 0.4375 -0.1625
2.4375 0.4375 -0.1625
2.5 0.4375 -0.1625
2.5625 0.4375 -0.1625
2.625 0.4375 -0.1625
2.6875 0.4375 -0.1625
2.75 0.4375 -0.1625
2.8125 0.4375 -0.1625
2.875 0.4375 -0.1625
2.9375 0.4375 -0.1625
3 0.4375 -0.1625
3.0625 0.4375 -0.1625
3.125 0.4375 -0.1625
3.1875 0.4375 -0.1625
3.25 0.4375 -0.1625
3.3125 0.4375 -0.1625
3.375 0.4375 -0.1625
3.4375 0.4375 -0.1625
3.5 0.4375 -0.1625
3.5625 0.4375 -0.1625
3.625 0.4375 -0.1625
3.6875 0.4375 -0.1625
3.75 0.4375 -0.1625
3.8125 0.4375 -0.1625
3.875 0.4375 -0.1625
3.9375 0.4375 -0.1625
4 0.4375 -0.1625
0 0.5 -0.1625
0.0625 0.5 -0.1625
0.125 0.5 -0.1625
0.1875 0.5 -0.1625
0.25 0.5 -0.1625
0.3125 0.5 -0.1625
0.375 0.5 -0.1625
0.4375 0.5 -0.1625
0.5 0.5 -0.1625
0.5625 0.5 -0.1625
0.625 0.5 -0.1625
0.6875 0.5 -0.1625
0.75 0.5 -0.1625
0.8125 0.5 -0.1625
0.875 0.5 -0.1625
0.9375 0.5 -0.1625
1 0.5 -0.1625
1.0625 0.5 -0.1625
1.125 0.5 -0.1625
1.1875 0.5 -0.1625
1.25 0.5 -0.1625
1.3125 0.5 -0.1625
1.375 0.5 -0.1625
1.4375 0.5 -0.1625
1.5 0.5 -0.1625
1.5625 0.5 -0.1625
1.625 0.5 -0.1625
1.6875 0.5 -0.1625
1.75 0.5 -0.1625
1.8125 0.5 -0.1625
1.875 0.5 -0.1625
1.9375 0.5 -0.1625
2 0.5 -0.1625
2.0625 0.5 -0.1625
2.125 0.5 -0.1625
2.1875 0.5 -0.1625
2.25 0.5 -0.1625
2.3125 0.5 -0.1625
2.375 0.5 -0.1625
2.4375 0.5 -0.1625
2.5 0.5 -0.1625
2.5625 0.5 -0.1625
2.625 0.5 -0.1625
2.6875 0.5 -0.1625
2.75 0.5 -0.1625
2.8125 0.5 -0.1625
2.875 0.5 -0.1625
2.9375 0.5 -0.1625
3 0.5 -0.1625
3.0625 0.5 -0.1625
3.125 0.5 -0.1625
3.1875 0.5 -0.1625
3.25 0.5 -0.1625
3.3125 0.5 -0.1625
3.375 0.5 -0.1625
3.4375 0.5 -0.1625
3.5 0.5 -0.1625
3.5625 0.5 -0.1625
3.625 0.5 -0.1625
3.6875 0.5 -0.1625
3.75 0.5 -0.1625
3.8125 0.5 -0.1625
3.875 0.5 -0.1625
3.9375 0.5 -0.1625
4 0.5 -0.1625
0 0.5625 -0.1625
0.0625 0.5625 -0.1625
0.125 0.5625 -0.1625
0.1875 0.5625 -0.1625
0.25 0.5625 -0.1625
0.3125 0.5625 -0.1625
0.375 0.5625 -0.1625
0.4375 0.5625 -0.1625
0.5 0.5625 -0.1625
0.5625 0.5625 -0.1625
0.625 0.5625 -0.1625
0.6875 0.5625 -0.1625
0.75 0.5625 -0.1625
0.8125 0.5625 -0.1625
0.875 0.5625 -0.1625
0.9375 0.5625 -0.1625
1 0.5625 -0.1625
1.0625 0.5625 -0.1625
1.125 0.5625 -0.1625
1.1875 0.5625 -0.1625
1.25 0.5625 -0.1625
1.3125 0.5625 -0.1625
1.375 0.5625 -0.1625
1.4375 0.5625 -0.1625
1.5 0.5625 -0.1625
1.5625 0.5625 -0.1625
1.625 0.5625 -0.1625
1.6875 0.5625 -0.1625
1.75 0.5625 -0.1625
1.8125 0.5625 -0.1625
1.875 0.5625 -0.1625
1.9375 0.5625 -0.1625
2 0.5625 -0.1625
2.0625 0.5625 -0.1625
2.125 0.5625 -0.1625
2.1875 0.5625 -0.1625
2.25 0.5625 -0.1625
2.3125 0.5625 -0.1625
2.375 0.5625 -0.1625
2.4375 0.5625 -0.1625
2.5 0.5625 -0.1625
2.5625 0.5625 -0.1625
2.625 0.5625 -0.1625
2.6875 0.5625 -0.1625
2.75 0.5625 -0.1625
2.8125 0.5625 -0.1625
2.875 0.5625 -0.1625
2.9375 0.5625 -0.1625
3 0.5625 -0.1625
3.0625 0.5625 -0.1625
3.125 0.5625 -0.1625
3.1875 0.5625 -0.1625
3.25 0.5625 -0.1625
3.3125 0.5625 -0.1625
3.375 0.5625 -0.1625
3.4375 0.5625 -0.1625
3.5 0.5625 -0.1625
3.5625 0.5625 -0.1625
3.625 0.5625 -0.1625
3.6875 0.5625 -0.1625
3.75 0.5625 -0.1625
3.8125 0.5625 -0.1625
3.875 0.5625 -0.1625
3.9375 0.5625 -0.1625
4 0.5625 -0.1625
0 0.625 -0.1625
0.0625 0.625 -0.1625
0.125 0.625 -0.1625
0.1875 0.625 -0.1625
0.25 0.625 -0.1625
0.3125 0.625 -0.1625
0.375 0.625 -0.1625
0.4375 0.625 -0.1625
0.5 0.625 -0.1625
0.5625 0.625 -0.1625
0.625 0.625 -0.1625
0.6875 0.625 -0.1625
0.75 0.625 -0.1625
0.8125 0.625 -0.1625
0.875 0.625 -0.1625
0.9375 0.625 -0.1625
1 0.625 -0.1625
1.0625 0.625 -0.1625
1.125 0.625 -0.1625
1.1875 0.625 -0.1625
1.25 0.625 -0.1625
1.3125 0.625 -0.1625
1.375 0.625 -0.1625
1.4375 0.625 -0.1625
1.5 0.625 -0.1625
1.5625 0.625 -0.1625
1.625 0.625 -0.1625
1.6875 0.625 -0.1625
1.75 0.625 -0.1625
1.8125 0.625 -0.1625
1.875 0.625 -0.1625
1.9375 0.625 -0.1625
2 0.625 -0.1625
2.0625 0.625 -0.1625
2.125 0.625 -0.1625
2.1875 0.625 -0.1625
2.25 0.625 -0.1625
2.3125 0.625 -0.1625
2.375 0.625 -0.1625
2.4375 0.625 -0.1625
2.5 0.625 -0.1625
2.5625 0.625 -0.1625
2.625 0.625 -0.1625
2.6875 0.625 -0.1625
2.75 0.625 -0.1625
2.8125 0.625 -0.1625
2.875 0.625 -0.1625
2.9375 0.625 -0.1625
3 0.625 -0.1625
3.0625 0.625 -0.1625
3.125 0.625 -0.1625
3.1875 0.625 -0.1625
3.25 0.625 -0.1625
3.3125 0.625 -0.1625
3.375 0.625 -0.1625
3.4375 0.625 -0.1625
3.5 0.625 -0.1625
3.5625 0.625 -0.1625
3.625 0.625 -0.1625
3.6875 0.625 -0.1625
3.75 0.625 -0.1625
3.8125 0.625 -0.1625
3.875 0.625 -0.1625
3.9375 0.625 -0.1625
4 0.625 -0.1625
0 0.6875 -0.1625
0.0625 0.6875 -0.1625
0.125 0.6875 -0.1625
0.1875 0.6875 -0.1625
0.25 0.6875 -0.1625
0.3125 0.6875 -0.1625
0.375 0.6875 -0.1625
0.4375 0.6875 -0.1625
0.5 0.6875 -0.1625
0.5625 0.6875 -0.1625
0.625 0.6875 -0.1625
0.6875 0.6875 -0.1625
0.75 0.6875 -0.1625
0.8125 0.6875 -0.1625
0.875 0.6875 -0.1625
0.9375 0.6875 -0.1625
1 0.6875 -0.1625
1.0625 0.6875 -0.1625
1.125 0.6875 -0.1625
1.1875 0.6875 -0.1625
1.25 0.6875 -0.1625
1.3125 0.6875 -0.1625
1.375 0.6875 -0.1625
1.4375 0.6875 -0.1625
1.5 0.6875 -0.1625
1.5625 0.6875 -0.1625
1.625 0.6875 -0.1625
1.6875 0.6875 -0.1625
1.75 0.6875 -0.1625
1.8125 0.6875 -0.1625
1.875 0.6875 -0.1625
1.9375 0.6875 -0.1625
2 0.6875 -0.1625
2.0625 0.6875 -0.1625
2.125 0.6875 -0.1625
2.1875 0.6875 -0.1625
2.25 0.6875 -0.1625
2.3125 0.6875 -0.1625
2.375 0.6875 -0.1625
2.4375 0.6875 -0.1625
2.5 0.6875 -0.1625
2.5625 0.6875 -0.1625
2.625 0.6875 -0.1625
2.6875 0.6875 -0.1625
2.75 0.6875 -0.1625
2.8125 0.6875 -0.1625
2.875 0.6875 -0.1625
2.9375 0.6875 -0.1625
3 0.6875 -0.1625
3.0625 0.6875 -0.1625
3.125 0.6875 -0.1625
3.1875 0.6875 -0.1625
3.25 0.6875 -0.1625
3.3125 0.6875 -0.1625
3.375 0.6875 -0.1625
3.4375 0.6875 -0.1625
3.5 0.6875 -0.1625
3.5625 0.6875 -0.1625
3.625 0.6875 -0.1625
3.6875 0.6875 -0.1625
3.75 0.6875 -0.1625
3.8125 0.6875 -0.1625
3.875 0.6875 -0.1625
3.9375 0.6875 -0.1625
4 0.6875 -0.1625
0 0.75 -0.1625
0.0625 0.75 -0.1625
0.125 0.75 -0.1625
0.1875 0.75 -0.1625
0.25 0.75 -0.1625
0.3125 0.75 -0.1625
0.375 0.75 -0.1625
0.4375 0.75 -0.1625
0.5 0.75 -0.1625
0.5625 0.75 -0.1625
0.625 0.75 -0.1625
0.6875 0.75 -0.1625
0.75 0.75 -0.1625
0.8125 0.75 -0.1625
0.875 0.75 -0.1625
0.9375 0.75 -0.1625
1 0.75 -0.1625
1.0625 0.75 -0.1625
1.125 0.75 -0.1625
1.1875 0.75 -0.1625
1.25 0.75 -0.1625
1.3125 0.75 -0.1625
1.375 0.75 -0.1625
1.4375 0.75 -0.1625
1.5 0.75 -0.1625
1.5625 0.75 -0.1625
1.625 0.75 -0.1625
1.6875 0.75 -0.1625
1.75 0.75 -0.1625
1.8125 0.75 -0.1625
1.875 0.75 -0.1625
1.9375 0.75 -0.1625
2 0.75 -0.1625
2.0625 0.75 -0.1625
2.125 0.75 -0.1625
2.1875 0.75 -0.1625
2.25 0.75 -0.1625
2.3125 0.75 -0.1625
2.375 0.75 -0.1625
2.4375 0.75 -0.1625
2.5 0.75 -0.1625
2.5625 0.75 -0.1625
2.625 0.75 -0.1625
2.6875 0.75 -0.1625
2.75 0.75 -0.1625
2.8125 0.75 -0.1625
2.875 0.75 -0.1625
2.9375 0.75 -0.1625
3 0.75 -0.1625
3.0625 0.75 -0.1625
3.125 0.75 -0.1625
3.1875 0.75 -0.1625
3.25 0.75 -0.1625
3.3125 0.75 -0.1625
3.375 0.75 -0.1625
3.4375 0.75 -0.1625
3.5 0.75 -0.1625
3.5625 0.75 -0.1625
3.625 0.75 -0.1625
3.6875 0.75 -0.1625
3.75 0.75 -0.1625
3.8125 0.75 -0.1625
3.875 0.75 -0.1625
3.9375 0.75 -0.1625
4 0.75 -0.1625
0 0.8125 -0.1625
0.0625 0.8125 -0.1625
0.125 0.8125 -0.1625
0.1875 0.8125 -0.1625
0.25 0.8125 -0.1625
0.3125 0.8125 -0.1625
0.375 0.8125 -0.1625
0.4375 0.8125 -0.1625
0.5 0.8125 -0.1625
0.5625 0.8125 -0.1625
0.625 0.8125 -0.1625
0.6875 0.8125 -0.1625
0.75 0.8125 -0.1625
0.8125 0.8125 -0.1625
0.875 0.8125 -0.1625
0.9375 0.8125 -0.1625
1 0.8125 -0.1625
1.0625 0.8125 -0.1625
1.125 0.8125 -0.1625
1.1875 0.8125 -0.1625
1.25 0.8125 -0.1625
1.3125 0.8125 -0.1625
1.375 0.8125 -0.1625
1.4375 0.8125 -0.1625
1.5 0.8125 -0.1625
1.5625 0.8125 -0.1625
1.625 0.8125 -0.1625
1.6875 0.8125 -0.1625
1.75 0.8125 -0.1625
1.8125 0.8125 -0.1625
1.875 0.8125 -0.1625
1.9375 0.8125 -0.1625
2 0.8125 -0.1625
2.0625 0.8125 -0.1625
2.125 0.8125 -0.1625
2.1875 0.8125 -0.1625
2.25 0.8125 -0.1625
2.3125 0.8125 -0.1625
2.375 0.8125 -0.1625
2.4375 0.8125 -0.1625
2.5 0.8125 -0.1625
2.5625 0.8125 -0.1625
2.625 0.8125 -0.1625
2.6875 0.8125 -0.1625
2.75 0.8125 -0.1625
2.8125 0.8125 -0.1625
2.875 0.8125 -0.1625
2.9375 0.8125 -0.1625
3 0.8125 -0.1625
3.0625 0.8125 -0.1625
3.125 0.8125 -0.1625
3.1875 0.8125 -0.1625
3.25 0.8125 -0.1625
3.3125 0.8125 -0.1625
3.375 0.8125 -0.1625
3.4375 0.8125 -0.1625
3.5 0.8125 -0.1625
3.5625 0.8125 -0.1625
3.625 0.8125 -0.1625
3.6875 0.8125 -0.1625
3.75 0.8125 -0.1625
3.8125 0.8125 -0.1625
3.875 0.8125 -0.1625
3.9375 0.8125 -0.1625
4 0.8125 -0.1625
0 0.875 -0.1625
0.0625 0.875 -0.1625
0.125 0.875 -0.1625
0.1875 0.875 -0.1625
0.25 0.875 -0.1625
0.3125 0.875 -0.1625
0.375 0.875 -0.1625
0.4375 0.875 -0.1625
0.5 0.875 -0.1625
0.5625 0.875 -0.1625
0.625 0.875 -0.1625
0.6875 0.875 -0.1625
0.75 0.875 -0.1625
0.8125 0.875 -0.1625
0.875 0.875 -0.1625
0.9375 0.875 -0.1625
1 0.875 -0.1625
1.0625 0.875 -0.1625
1.125 0.875 -0.1625
1.1875 0.875 -0.1625
1.25 0.875 -0.1625
1.3125 0.875 -0.1625
1.375 0.875 -0.1625
1.4375 0.875 -0.1625
1.5 0.875 -0.1625
1.5625 0.875 -0.1625
1.625 0.875 -0.1625
1.6875 0.875 -0.1625
1.75 0.875 -0.1625
1.8125 0.875 -0.1625
1.875 0.875 -0.1625
1.9375 0.875 -0.1625
2 0.875 -0.1625
2.0625 0.875 -0.1625
2.125 0.875 -0.1625
2.1875 0.875 -0.1625
2.25 0.875 -0.1625
2.3125 0.875 -0.1625
2.375 0.875 -0.1625
2.4375 0.875 -0.1625
2.5 0.875 -0.1625
2.5625 0.875 -0.1625
2.625 0.875 -0.1625
2.6875 0.875 -0.1625
2.75 0.875 -0.1625
2.8125 0.875 -0.1625
2.875 0.875 -0.1625
2.9375 0.875 -0.1625
3 0.875 -0.1625
3.0625 0.875 -0.1625
3.125 0.875 -0.1625
3.1875 0.875 -0.1625
3.25 0.875 -0.1625
3.3125 0.875 -0.1625
3.375 0.875 -0.1625
3.4375 0.875 -0.1625
3.5 0.875 -0.1625
3.5625 0.875 -0.1625
3.625 0.875 -0.1625
3.6875 0.875 -0.1625
3.75 0.875 -0.1625
3.8125 0.875 -0.1625
3.875 0.875 -0.1625
3.9375 0.875 -0.1625
4 0.875 -0.1625
0 0.9375 -0.1625
0.0625 0.9375 -0.1625
0.125 0.9375 -0.1625
0.1875 0.9375 -0.1625
0.25 0.9375 -0.1625
0.3125 0.9375 -0.1625
0.375 0.9375 -0.1625
0.4375 0.9375 -0.1625
0.5 0.9375 -0.1625
0.5625 0.9375 -0.1625
0.625 0.9375 -0.1625
0.6875 0.9375 -0.1625
0.75 0.9375 -0.1625
0.8125 0.9375 -0.1625
0.875 0.9375 -0.1625
0.9375 0.9375 -0.1625
1 0.9375 -0.1625
1.0625 0.9375 -0.1625
1.125 0.9375 -0.1625
1.1875 0.9375 -0.1625
1.25 0.9375 -0.1625
1.3125 0.9375 -0.1625
1.375 0.9375 -0.1625
1.4375 0.9375 -0.1625
1.5 0.9375 -0.1625
1.5625 0.9375 -0.1625
1.625 0.9375 -0.1625
1.6875 0.9375 -0.1625
1.75 0.9375 -0.1625
1.8125 0.9375 -0.1625
1.875 0.9375 -0.1625
1.9375 0.9375 -0.1625
2 0.9375 -0.1625
2.0625 0.9375 -0.1625
2.125 0.9375 -0.1625
2.1875 0.9375 -0.1625
2.25 0.9375 -0.1625
2.3125 0.9375 -0.1625
2.375 0.9375 -0.1625
2.4375 0.9375 -0.1625
2.5 0.9375 -0.1625
2.5625 0.9375 -0.1625
2.625 0.9375 -0.1625
2.6875 0.9375 -0.1625
2.75 0.9375 -0.1625
2.8125 0.9375 -0.1625
2.875 0.9375 -0.1625
2.9375 0.9375 -0.1625
3 0.9375 -0.1625
3.0625 0.9375 -0.1625
3.125 0.9375 -0.1625
3.1875 0.9375 -0.1625
3.25 0.9375 -0.1625
3.3125 0.9375 -0.1625
3.375 0.9375 -0.1625
3.4375 0.9375 -0.1625
3.5 0.9375 -0.1625
3.5625 0.9375 -0.1625
3.625 0.9375 -0.1625
3.6875 0.9375 -0.1625
3.75 0.9375 -0.1625
3.8125 0.9375 -0.1625
3.875 0.9375 -0.1625
3.9375 0.9375 -0.1625
4 0.9375 -0.1625
0 1 -0.1625
0.0625 1 -0.1625
0.125 1 -0.1625
0.1875 1 -0.1625
0.25 1 -0.1625
0.3125 1 -0.1625
0.375 1 -0.1625
0.4375 1 -0.1625
0.5 1 -0.1625
0.5625 1 -0.1625
0.625 1 -0.1625
0.6875 1 -0.1625
0.75 1 -0.1625
0.8125 1 -0.1625
0.875 1 -0.1625
0.9375 1 -0.1625
1 1 -0.1625
1.0625 1 -0.1625
1.125 1 -0.1625
1.1875 1 -0.1625
1.25 1 -0.1625
1.3125 1 -0.1625
1.375 1 -0.1625
1.4375 1 -0.1625
1.5 1 -0.1625
1.5625 1 -0.1625
1.625 1 -0.1625
1.6875 1 -0.1625
1.75 1 -0.1625
1.8125 1 -0.1625
1.875 1 -0.1625
1.9375 1 -0.1625
2 1 -0.1625
2.0625 1 -0.1625
2.125 1 -0.1625
2.1875 1 -0.1625
2.25 1 -0.1625
2.3125 1 -0.1625
2.375 1 -0.1625
2.4375 1 -0.1625
2.5 1 -0.1625
2.5625 1 -0.1625
2.625 1 -0.1625
2.6875 1 -0.1625
2.75 1 -0.1625
2.8125 1 -0.1625
2.875 1 -0.1625
2.9375 1 -0.1625
3 1 -0.1625
3.0625 1 -0.1625
3.125 1 -0.1625
3.1875 1 -0.1625
3.25 1 -0.1625
3.3125 1 -0.1625
3.375 1 -0.1625
3.4375 1 -0.1625
3.5 1 -0.1625
3.5625 1 -0.1625
3.625 1 -0.1625
3.6875 1 -0.1625
3.75 1 -0.1625
3.8125 1 -0.1625
3.875 1 -0.1625
3.9375 1 -0.1625
4 1 -0.1625
0 0 -0.1
0.0625 0 -0.1
0.125 0 -0.1
0.1875 0 -0.1
0.25 0 -0.1
0.3125 0 -0.1
0.375 0 -0.1
0.4375 0 -0.1
0.5 0 -0.1
0.5625 0 -0.1
0.625 0 -0.1
0.6875 0 -0.1
0.75 0 -0.1
0.8125 0 -0.1
0.875 0 -0.1
0.9375 0 -0.1
1 0 -0.1
1.0625 0 -0.1
1.125 0 -0.1
1.1875 0 -0.1
1.25 0 -0.1
1.3125 0 -0.1
1.375 0 -0.1
1.4375 0 -0.1
1.5 0 -0.1
1.5625 0 -0.1
1.625 0 -0.1
1.6875 0 -0.1
1.75 0 -0.1
1.8125 0 -0.1
1.875 0 -0.1
1.9375 0 -0.1
2 0 -0.1
2.0625 0 -0.1
2.125 0 -0.1
2.1875 0 -0.1
2.25 0 -0.1
2.3125 0 -0.1
2.375 0 -0.1
2.4375 0 -0.1
2.5 0 -0.1
2.5625 0 -0.1
2.625 0 -0.1
2.6875 0 -0.1
2.75 0 -0.1
2.8125 0 -0.1
2.875 0 -0.1
2.9375 0 -0.1
3 0 -0.1
3.0625 0 -0.1
3.125 0 -0.1
3.1875 0 -0.1
3.25 0 -0.1
3.3125 0 -0.1
3.375 0 -0.1
3.4375 0 -0.1
3.5 0 -0.1
3.5625 0 -0.1
3.625 0 -0.1
3.6875 0 -0.1
3.75 0 -0.1
3.8125 0 -0.1
3.875 0 -0.1
3.9375 0 -0.1
4 0 -0.1
0 0.0625 -0.1
0.0625 0.0625 -0.1
0.125 0.0625 -0.1
0.1875 0.0625 -0.1
0.25 0.0625 -0.1
0.3125 0.0625 -0.1
0.375 0.0625 -0.1
0.4375 0.0625 -0.1
0.5 0.0625 -0.1
0.5625 0.0625 -0.1
0.625 0.0625 -0.1
0.6875 0.0625 -0.1
0.75 0.0625 -0.1
0.8125 0.0625 -0.1
0.875 0.0625 -0.1
0.9375 0.0625 -0.1
1 0.0625 -0.1
1.0625 0.0625 -0.1
1.125 0.0625 -0.1
1.1875 0.0625 -0.1
1.25 0.0625 -0.1
1.3125 0.0625 -0.1
1.375 0.0625 -0.1
1.4375 0.0625 -0.1
1.5 0.0625 -0.1
1.5625 0.0625 -0.1
1.625 0.0625 -0.1
1.6875 0.0625 -0.1
1.75 0.0625 -0.1
1.8125 0.0625 -0.1
1.875 0.0625 -0.1
1.9375 0.0625 -0.1
2 0.0625 -0.1
2.0625 0.0625 -0.1
2.125 0.0625 -0.1
2.1875 0.0625 -0.1
2.25 0.0625 -0.1
2.3125 0.0625 -0.1
2.375 0.0625 -0.1
2.4375 0.0625 -0.1
2.5 0.0625 -0.1
2.5625 0.0625 -0.1
2.625 0.0625 -0.1
2.6875 0.0625 -0.1
2.75 0.0625 -0.1
2.8125 0.0625 -0.1
2.875 0.0625 -0.1
2.9375 0.0625 -0.1
3 0.0625 -0.1
3.0625 0.0625 -0.1
3.125 0.0625 -0.1
3.1875 0.0625 -0.1
3.25 0.0625 -0.1
3.3125 0.0625 -0.1
3.375 0.0625 -0.1
3.4375 0.0625 -0.1
3.5 0.0625 -0.1
3.5625 0.0625 -0.1
3.625 0.0625 -0.1
3.6875 0.0625 -0.1
3.75 0.0625 -0.1
3.8125 0.0625 -0.1
3.875 0.0625 -0.1
3.9375 0.0625 -0.1
4 0.0625 -0.1
0 0.125 -0.1
0.0625 0.125 -0.1
0.125 0.125 -0.1
0.1875 0.125 -0.1
0.25 0.125 -0.1
0.3125 0.125 -0.1
0.375 0.125 -0.1
0.4375 0.125 -0.1
0.5 0.125 -0.1
0.5625 0.125 -0.1
0.625 0.125 -0.1
0.6875 0.125 -0.1
0.75 0.125 -0.1
0.8125 0.125 -0.1
0.875 0.125 -0.1
0.9375 0.125 -0.1
1 0.125 -0.1
1.0625 0.125 -0.1
1.125 0.125 -0.1
1.1875 0.125 -0.1
1.25 0.125 -0.1
1.3125 0.125 -0.1
1.375 0.125 -0.1
1.4375 0.125 -0.1
1.5 0.125 -0.1
1.5625 0.125 -0.1
1.625 0.125 -0.1
1.6875 0.125 -0.1
1.75 0.125 -0.1
1.8125 0.125 -0.1
1.875 0.125 -0.1
1.9375 0.125 -0.1
2 0.125 -0.1
2.0625 0.125 -0.1
2.125 0.125 -0.1
2.1875 0.125 -0.1
2.25 0.125 -0.1
2.3125 0.125 -0.1
2.375 0.125 -0.1
2.4375 0.125 -0.1
2.5 0.125 -0.1
2.5625 0.125 -0.1
2.625 0.125 -0.1
2.6875 0.125 -0.1
2.75 0.125 -0.1
2.8125 0.125 -0.1
2.875 0.125 -0.1
2.9375 0.125 -0.1
3 0.125 -0.1
3.0625 0.125 -0.1
3.125 0.125 -0.1
3.1875 0.125 -0.1
3.25 0.125 -0.1
3.3125 0.125 -0.1
3.375 0.125 -0.1
3.4375 0.125 -0.1
3.5 0.125 -0.1
3.5625 0.125 -0.1
3.625 0.125 -0.1
3.6875 0.125 -0.1
3.75 0.125 -0.1
3.8125 0.125 -0.1
3.875 0.125 -0.1
3.9375 0.125 -0.1
4 0.125 -0.1
0 0.1875 -0.1
0.0625 0.1875 -0.1
0.125 0.1875 -0.1
0.1875 0.1875 -0.1
0.25 0.1875 -0.1
0.3125 0.1875 -0.1
0.375 0.1875 -0.1
0.4375 0.1875 -0.1
0.5 0.1875 -0.1
0.5625 0.1875 -0.1
0.625 0.1875 -0.1
0.6875 0.1875 -0.1
0.75 0.1875 -0.1
0.8125 0.1875 -0.1
0.875 0.1875 -0.1
0.9375 0.1875 -0.1
1 0.1875 -0.1
1.0625 0.1875 -0.1
1.125 0.1875 -0.1
1.1875 0.1875 -0.1
1.25 0.1875 -0.1
1.3125 0.1875 -0.1
1.375 0.1875 -0.1
1.4375 0.1875 -0.1
1.5 0.1875 -0.1
1.5625 0.1875 -0.1
1.625 0.1875 -0.1
1.6875 0.1875 -0.1
1.75 0.1875 -0.1
1.8125 0.1875 -0.1
1.875 0.1875 -0.1
1.9375 0.1875 -0.1
2 0.1875 -0.1
2.0625 0.1875 -0.1
2.125 0.1875 -0.1
2.1875 0.1875 -0.1
2.25 0.1875 -0.1
2.3125 0.1875 -0.1
2.375 0.1875 -0.1
2.4375 0.1875 -0.1
2.5 0.1875 -0.1
2.5625 0.1875 -0.1
2.625 0.1875 -0.1
2.6875 0.1875 -0.1
2.75 0.1875 -0.1
2.8125 0.1875 -0.1
2.875 0.1875 -0.1
2.9375 0.1875 -0.1
3 0.1875 -0.1
3.0625 0.1875 -0.1
3.125 0.1875 -0.1
3.1875 0.1875 -0.1
3.25 0.1875 -0.1
3.3125 0.1875 -0.1
3.375 0.1875 -0.1
3.4375 0.1875 -0.1
3.5 0.1875 -0.1
3.5625 0.1875 -0.1
3.625 0.1875 -0.1
3.6875 0.1875 -0.1
3.75 0.1875 -0.1
3.8125 0.1875 -0.1
3.875 0.1875 -0.1
3.9375 0.1875 -0.1
4 0.1875 -0.1
0 0.25 -0.1
0.0625 0.25 -0.1
0.125 0.25 -0.1
0.1875 0.25 -0.1
0.25 0.25 -0.1
0.3125 0.25 -0.1
0.375 0.25 -0.1
0.4375 0.25 -0.1
0.5 0.25 -0.1
0.5625 0.25 -0.1
0.625 0.25 -0.1
0.6875 0.25 -0.1
0.75 0.25 -0.1
0.8125 0.25 -0.1
0.875 0.25 -0.1
0.9375 0.25 -0.1
1 0.25 -0.1
1.0625 0.25 -0.1
1.125 0.25 -0.1
1.1875 0.25 -0.1
1.25 0.25 -0.1
1.3125 0.25 -0.1
1.375 0.25 -0.1
1.4375 0.25 -0.1
1.5 0.25 -0.1
1.5625 0.25 -0.1
1.625 0.25 -0.1
1.6875 0.25 -0.1
1.75 0.25 -0.1
1.8125 0.25 -0.1
1.875 0.25 -0.1
1.9375 0.25 -0.1
2 0.25 -0.1
2.0625 0.25 -0.1
2.125 0.25 -0.1
2.1875 0.25 -0.1
2.25 0.25 -0.1
2.3125 0.25 -0.1
2.375 0.25 -0.1
2.4375 0.25 -0.1
2.5 0.25 -0.1
2.5625 0.25 -0.1
2.625 0.25 -0.1
2.6875 0.25 -0.1
2.75 0.25 -0.1
2.8125 0.25 -0.1
2.875 0.25 -0.1
2.9375 0.25 -0.1
3 0.25 -0.1
3.0625 0.25 -0.1
3.125 0.25 -0.1
3.1875 0.25 -0.1
3.25 0.25 -0.1
3.3125 0.25 -0.1
3.375 0.25 -0.1
3.4375 0.25 -0.1
3.5 0.25 -0.1
3.5625 0.25 -0.1
3.625 0.25 -0.1
3.6875 0.25 -0.1
3.75 0.25 -0.1
3.8125 0.25 -0.1
3.875 0.25 -0.1
3.9375 0.25 -0.1
4 0.25 -0.1
0 0.3125 -0.1
0.0625 0.3125 -0.1
0.125 0.3125 -0.1
0.1875 0.3125 -0.1
0.25 0.3125 -0.1
0.3125 0.3125 -0.1
0.375 0.3125 -0.1
0.4375 0.3125 -0.1
0.5 0.3125 -0.1
0.5625 0.3125 -0.1
0.625 0.3125 -0.1
0.6875 0.3125 -0.1
0.75 0.3125 -0.1
0.8125 0.3125 -0.1
0.875 0.3125 -0.1
0.9375 0.3125 -0.1
1 0.3125 -0.1
1.0625 0.3125 -0.1
1.125 0.3125 -0.1
1.1875 0.3125 -0.1
1.25 0.3125 -0.1
1.3125 0.3125 -0.1
1.375 0.3125 -0.1
1.4375 0.3125 -0.1
1.5 0.3125 -0.1
1.5625 0.3125 -0.1
1.625 0.3125 -0.1
1.6875 0.3125 -0.1
1.75 0.3125 -0.1
1.8125 0.3125 -0.1
1.875 0.3125 -0.1
1.9375 0.3125 -0.1
2 0.3125 -0.1
2.0625 0.3125 -0.1
2.125 0.3125 -0.1
2.1875 0.3125 -0.1
2.25 0.3125 -0.1
2.3125 0.3125 -0.1
2.375 0.3125 -0.1
2.4375 0.3125 -0.1
2.5 0.3125 -0.1
2.5625 0.3125 -0.1
2.625 0.3125 -0.1
2.6875 0.3125 -0.1
2.75 0.3125 -0.1
2.8125 0.3125 -0.1
2.875 0.3125 -0.1
2.9375 0.3125 -0.1
3 0.3125 -0.1
3.0625 0.3125 -0.1
3.125 0.3125 -0.1
3.1875 0.3125 -0.1
3.25 0.3125 -0.1
3.3125 0.3125 -0.1
3.375 0.3125 -0.1
3.4375 0.3125 -0.1
3.5 0.3125 -0.1
3.5625 0.3125 -0.1
3.625 0.3125 -0.1
3.6875 0.3125 -0.1
3.75 0.3125 -0.1
3.8125 0.3125 -0.1
3.875 0.3125 -0.1
3.9375 0.3125 -0.1
4 0.3125 -0.1
0 0.375 -0.1
0.0625 0.375 -0.1
0.125 0.375 -0.1
0.1875 0.375 -0.1
0.25 0.375 -0.1
0.3125 0.375 -0.1
0.375 0.375 -0.1
0.4375 0.375 -0.1
0.5 0.375 -0.1
0.5625 0.375 -0.1
0.625 0.375 -0.1
0.6875 0.375 -0.1
0.75 0.375 -0.1
0.8125 0.375 -0.1
0.875 0.375 -0.1
0.9375 0.375 -0.1
1 0.375 -0.1
1.0625 0.375 -0.1
1.125 0.375 -0.1
1.1875 0.375 -0.1
1.25 0.375 -0.1
1.3125 0.375 -0.1
1.375 0.375 -0.1
1.4375 0.375 -0.1
1.5 0.375 -0.1
1.5625 0.375 -0.1
1.625 0.375 -0.1
1.6875 0.375 -0.1
1.75 0.375 -0.1
1.8125 0.375 -0.1
1.875 0.375 -0.1
1.9375 0.375 -0.1
2 0.375 -0.1
2.0625 0.375 -0.1
2.125 0.375 -0.1
2.1875 0.375 -0.1
2.25 0.375 -0.1
2.3125 0.375 -0.1
2.375 0.375 -0.1
2.4375 0.375 -0.1
2.5 0.375 -0.1
2.5625 0.375 -0.1
2.625 0.375 -0.1
2.6875 0.375 -0.1
2.75 0.375 -0.1
2.8125 0.375 -0.1
2.875 0.375 -0.1
2.9375 0.375 -0.1
3 0.375 -0.1
3.0625 0.375 -0.1
3.125 0.375 -0.1
3.1875 0.375 -0.1
3.25 0.375 -0.1
3.3125 0.375 -0.1
3.375 0.375 -0.1
3.4375 0.375 -0.1
3.5 0.375 -0.1
3.5625 0.375 -0.1
3.625 0.375 -0.1
3.6875 0.375 -0.1
3.75 0.375 -0.1
3.8125 0.375 -0.1
3.875 0.375 -0.1
3.9375 0.375 -0.1
4 0.375 -0.1
0 0.4375 -0.1
0.0625 0.4375 -0.1
0.125 0.4375 -0.1
0.1875 0.4375 -0.1
0.25 0.4375 -0.1
0.3125 0.4375 -0.1
0.375 0.4375 -0.1
0.4375 0.4375 -0.1
0.5 0.4375 -0.1
0.5625 0.4375 -0.1
0.625 0.4375 -0.1
0.6875 0.4375 -0.1
0.75 0.4375 -0.1
0.8125 0.4375 -0.1
0.875 0.4375 -0.1
0.9375 0.4375 -0.1
1 0.4375 -0.1
1.0625 0.4375 -0.1
1.125 0.4375 -0.1
1.1875 0.4375 -0.1
1.25 0.4375 -0.1
1.3125 0.4375 -0.1
1.375 0.4375 -0.1
1.4375 0.4375 -0.1
1.5 0.4375 -0.1
1.5625 0.4375 -0.1
1.625 0.4375 -0.1
1.6875 0.4375 -0.1
1.75 0.4375 -0.1
1.8125 0.4375 -0.1
1.875 0.4375 -0.1
1.9375 0.4375 -0.1
2 0.4375 -0.1
2.0625 0.4375 -0.1
2.125 0.4375 -0.1
2.1875 0.4375 -0.1
2.25 0.4375 -0.1
2.3125 0.4375 -0.1
2.375 0.4375 -0.1
2.4375 0.4375 -0.1
2.5 0.4375 -0.1
2.5625 0.4375 -0.1
2.625 0.4375 -0.1
2.6875 0.4375 -0.1
2.75 0.4375 -0.1
2.8125 0.4375 -0.1
2.875 0.4375 -0.1
2.9375 0.4375 -0.1
3 0.4375 -0.1
3.0625 0.4375 -0.1
3.125 0.4375 -0.1
3.1875 0.4375 -0.1
3.25 0.4375 -0.1
3.3125 0.4375 -0.1
3.375 0.4375 -0.1
3.4375 0.4375 -0.1
3.5 0.4375 -0.1
3.5625 0.4375 -0.1
3.625 0.4375 -0.1
3.6875 0.4375 -0.1
3.75 0.4375 -0.1
3.8125 0.4375 -0.1
3.875 0.4375 -0.1
3.9375 0.4375 -0.1
4 0.4375 -0.1
0 0.5 -0.1
0.0625 0.5 -0.1
0.125 0.5 -0.1
0.1875 0.5 -0.1
0.25 0.5 -0.1
0.3125 0.5 -0.1
0.375 0.5 -0.1
0.4375 0.5 -0.1
0.5 0.5 -0.1
0.5625 0.5 -0.1
0.625 0.5 -0.1
0.6875 0.5 -0.1
0.75 0.5 -0.1
0.8125 0.5 -0.1
0.875 0.5 -0.1
0.9375 0.5 -0.1
1 0.5 -0.1
1.0625 0.5 -0.1
1.125 0.5 -0.1
1.1875 0.5 -0.1
1.25 0.5 -0.1
1.3125 0.5 -0.1
1.375 0.5 -0.1
1.4375 0.5 -0.1
1.5 0.5 -0.1
1.5625 0.5 -0.1
1.625 0.5 -0.1
1.6875 0.5 -0.1
1.75 0.5 -0.1
1.8125 0.5 -0.1
1.875 0.5 -0.1
1.9375 0.5 -0.1
2 0.5 -0.1
2.0625 0.5 -0.1
2.125 0.5 -0.1
2.1875 0.5 -0.1
2.25 0.5 -0.1
2.3125 0.5 -0.1
2.375 0.5 -0.1
2.4375 0.5 -0.1
2.5 0.5 -0.1
2.5625 0.5 -0.1
2.625 0.5 -0.1
2.6875 0.5 -0.1
2.75 0.5 -0.1
2.8125 0.5 -0.1
2.875 0.5 -0.1
2.9375 0.5 -0.1
3 0.5 -0.1
3.0625 0.5 -0.1
3.125 0.5 -0.1
3.1875 0.5 -0.1
3.25 0.5 -0.1
3.3125 0.5 -0.1
3.375 0.5 -0.1
3.4375 0.5 -0.1
3.5 0.5 -0.1
3.5625 0.5 -0.1
3.625 0.5 -0.1
3.6875 0.5 -0.1
3.75 0.5 -0.1
3.8125 0.5 -0.1
3.875 0.5 -0.1
3.9375 0.5 -0.1
4 0.5 -0.1
0 0.5625 -0.1
0.0625 0.5625 -0.1
0.125 0.5625 -0.1
0.1875 0.5625 -0.1
0.25 0.5625 -0.1
0.3125 0.5625 -0.1
0.375 0.5625 -0.1
0.4375 0.5625 -0.1
0.5 0.5625 -0.1
0.5625 0.5625 -0.1
0.625 0.5625 -0.1
0.6875 0.5625 -0.1
0.75 0.5625 -0.1
0.8125 0.5625 -0.1
0.875 0.5625 -0.1
0.9375 0.5625 -0.1
1 0.5625 -0.1
1.0625 0.5625 -0.1
1.125 0.5625 -0.1
1.1875 0.5625 -0.1
1.25 0.5625 -0.1
1.3125 0.5625 -0.1
1.375 0.5625 -0.1
1.4375 0.5625 -0.1
1.5 0.5625 -0.1
1.5625 0.5625 -0.1
1.625 0.5625 -0.1
1.6875 0.5625 -0.1
1.75 0.5625 -0.1
1.8125 0.5625 -0.1
1.875 0.5625 -0.1
1.9375 0.5625 -0.1
2 0.5625 -0.1
2.0625 0.5625 -0.1
2.125 0.5625 -0.1
2.1875 0.5625 -0.1
2.25 0.5625 -0.1
2.3125 0.5625 -0.1
2.375 0.5625 -0.1
2.4375 0.5625 -0.1
2.5 0.5625 -0.1
2.5625 0.5625 -0.1
2.625 0.5625 -0.1
2.6875 0.5625 -0.1
2.75 0.5625 -0.1
2.8125 0.5625 -0.1
2.875 0.5625 -0.1
2.9375 0.5625 -0.1
3 0.5625 -0.1
3.0625 0.5625 -0.1
3.125 0.5625 -0.1
3.1875 0.5625 -0.1
3.25 0.5625 -0.1
3.3125 0.5625 -0.1
3.375 0.5625 -0.1
3.4375 0.5625 -0.1
3.5 0.5625 -0.1
3.5625 0.5625 -0.1
3.625 0.5625 -0.1
3.6875 0.5625 -0.1
3.75 0.5625 -0.1
3.8125 0.5625 -0.1
3.875 0.5625 -0.1
3.9375 0.5625 -0.1
4 0.5625 -0.1
0 0.625 -0.1
0.0625 0.625 -0.1
0.125 0.625 -0.1
0.1875 0.625 -0.1
0.25 0.625 -0.1
0.3125 0.625 -0.1
0.375 0.625 -0.1
0.4375 0.625 -0.1
0.5 0.625 -0.1
0.5625 0.625 -0.1
0.625 0.625 -0.1
0.6875 0.625 -0.1
0.75 0.625 -0.1
0.8125 0.625 -0.1
0.875 0.625 -0.1
0.9375 0.625 -0.1
1 0.625 -0.1
1.0625 0.625 -0.1
1.125 0.625 -0.1
1.1875 0.625 -0.1
1.25 0.625 -0.1
1.3125 0.625 -0.1
1.375 0.625 -0.1
1.4375 0.625 -0.1
1.5 0.625 -0.1
1.5625 0.625 -0.1
1.625 0.625 -0.1
1.6875 0.625 -0.1
1.75 0.625 -0.1
1.8125 0.625 -0.1
1.875 0.625 -0.1
1.9375 0.625 -0.1
2 0.625 -0.1
2.0625 0.625 -0.1
2.125 0.625 -0.1
2.1875 0.625 -0.1
2.25 0.625 -0.1
2.3125 0.625 -0.1
2.375 0.625 -0.1
2.4375 0.625 -0.1
2.5 0.625 -0.1
2.5625 0.625 -0.1
2.625 0.625 -0.1
2.6875 0.625 -0.1
2.75 0.625 -0.1
2.8125 0.625 -0.1
2.875 0.625 -0.1
2.9375 0.625 -0.1
3 0.625 -0.1
3.0625 0.625 -0.1
3.125 0.625 -0.1
3.1875 0.625 -0.1
3.25 0.625 -0.1
3.3125 0.625 -0.1
3.375 0.625 -0.1
3.4375 0.625 -0.1
3.5 0.625 -0.1
3.5625 0.625 -0.1
3.625 0.625 -0.1
3.6875 0.625 -0.1
3.75 0.625 -0.1
3.8125 0.625 -0.1
3.875 0.625 -0.1
3.9375 0.625 -0.1
4 0.625 -0.1
0 0.6875 -0.1
0.0625 0.6875 -0.1
0.125 0.6875 -0.1
0.1875 0.6875 -0.1
0.25 0.6875 -0.1
0.3125 0.6875 -0.1
0.375 0.6875 -0.1
0.4375 0.6875 -0.1
0.5 0.6875 -0.1
0.5625 0.6875 -0.1
0.625 0.6875 -0.1
0.6875 0.6875 -0.1
0.75 0.6875 -0.1
0.8125 0.6875 -0.1
0.875 0.6875 -0.1
0.9375 0.6875 -0.1
1 0.6875 -0.1
1.0625 0.6875 -0.1
1.125 0.6875 -0.1
1.1875 0.6875 -0.1
1.25 0.6875 -0.1
1.3125 0.6875 -0.1
1.375 0.6875 -0.1
1.4375 0.6875 -0.1
1.5 0.6875 -0.1
1.5625 0.6875 -0.1
1.625 0.6875 -0.1
1.6875 0.6875 -0.1
1.75 0.6875 -0.1
1.8125 0.6875 -0.1
1.875 0.6875 -0.1
1.9375 0.6875 -0.1
2 0.6875 -0.1
2.0625 0.6875 -0.1
2.125 0.6875 -0.1
2.1875 0.6875 -0.1
2.25 0.6875 -0.1
2.3125 0.6875 -0.1
2.375 0.6875 -0.1
2.4375 0.6875 -0.1
2.5 0.6875 -0.1
2.5625 0.6875 -0.1
2.625 0.6875 -0.1
2.6875 0.6875 -0.1
2.75 0.6875 -0.1
2.8125 0.6875 -0.1
2.875 0.6875 -0.1
2.9375 0.6875 -0.1
3 0.6875 -0.1
3.0625 0.6875 -0.1
3.125 0.6875 -0.1
3.1875 0.6875 -0.1
3.25 0.6875 -0.1
3.3125 0.6875 -0.1
3.375 0.6875 -0.1
3.4375 0.6875 -0.1
3.5 0.6875 -0.1
3.5625 0.6875 -0.1
3.625 0.6875 -0.1
3.6875 0.6875 -0.1
3.75 0.6875 -0.1
3.8125 0.6875 -0.1
3.875 0.6875 -0.1
3.9375 0.6875 -0.1
4 0.6875 -0.1
0 0.75 -0.1
0.0625 0.75 -0.1
0.125 0.75 -0.1
0.1875 0.75 -0.1
0.25 0.75 -0.1
0.3125 0.75 -0.1
0.375 0.75 -0.1
0.4375 0.75 -0.1
0.5 0.75 -0.1
0.5625 0.75 -0.1
0.625 0.75 -0.1
0.6875 0.75 -0.1
0.75 0.75 -0.1
0.8125 0.75 -0.1
0.875 0.75 -0.1
0.9375 0.75 -0.1
1 0.75 -0.1
1.0625 0.75 -0.1
1.125 0.75 -0.1
1.1875 0.75 -0.1
1.25 0.75 -0.1
1.3125 0.75 -0.1
1.375 0.75 -0.1
1.4375 0.75 -0.1
1.5 0.75 -0.1
1.5625 0.75 -0.1
1.625 0.75 -0.1
1.6875 0.75 -0.1
1.75 0.75 -0.1
1.8125 0.75 -0.1
1.875 0.75 -0.1
1.9375 0.75 -0.1
2 0.75 -0.1
2.0625 0.75 -0.1
2.125 0.75 -0.1
2.1875 0.75 -0.1
2.25 0.75 -0.1
2.3125 0.75 -0.1
2.375 0.75 -0.1
2.4375 0.75 -0.1
2.5 0.75 -0.1
2.5625 0.75 -0.1
2.625 0.75 -0.1
2.6875 0.75 -0.1
2.75 0.75 -0.1
2.8125 0.75 -0.1
2.875 0.75 -0.1
2.9375 0.75 -0.1
3 0.75 -0.1
3.0625 0.75 -0.1
3.125 0.75 -0.1
3.1875 0.75 -0.1
3.25 0.75 -0.1
3.3125 0.75 -0.1
3.375 0.75 -0.1
3.4375 0.75 -0.1
3.5 0.75 -0.1
3.5625 0.75 -0.1
3.625 0.75 -0.1
3.6875 0.75 -0.1
3.75 0.75 -0.1
3.8125 0.75 -0.1
3.875 0.75 -0.1
3.9375 0.75 -0.1
4 0.75 -0.1
0 0.8125 -0.1
0.0625 0.8125 -0.1
0.125 0.8125 -0.1
0.1875 0.8125 -0.1
0.25 0.8125 -0.1
0.3125 0.8125 -0.1
0.375 0.8125 -0.1
0.4375 0.8125 -0.1
0.5 0.8125 -0.1
0.5625 0.8125 -0.1
0.625 0.8125 -0.1
0.6875 0.8125 -0.1
0.75 0.8125 -0.1
0.8125 0.8125 -0.1
0.875 0.8125 -0.1
0.9375 0.8125 -0.1
1 0.8125 -0.1
1.0625 0.8125 -0.1
1.125 0.8125 -0.1
1.1875 0.8125 -0.1
1.25 0.8125 -0.1
1.3125 0.8125 -0.1
1.375 0.8125 -0.1
1.4375 0.8125 -0.1
1.5 0.8125 -0.1
1.5625 0.8125 -0.1
1.625 0.8125 -0.1
1.6875 0.8125 -0.1
1.75 0.8125 -0.1
1.8125 0.8125 -0.1
1.875 0.8125 -0.1
1.9375 0.8125 -0.1
2 0.8125 -0.1
2.0625 0.8125 -0.1
2.125 0.8125 -0.1
2.1875 0.8125 -0.1
2.25 0.8125 -0.1
2.3125 0.8125 -0.1
2.375 0.8125 -0.1
2.4375 0.8125 -0.1
2.5 0.8125 -0.1
2.5625 0.8125 -0.1
2.625 0.8125 -0.1
2.6875 0.8125 -0.1
2.75 0.8125 -0.1
2.8125 0.8125 -0.1
2.875 0.8125 -0.1
2.9375 0.8125 -0.1
3 0.8125 -0.1
3.0625 0.8125 -0.1
3.125 0.8125 -0.1
3.1875 0.8125 -0.1
3.25 0.8125 -0.1
3.3125 0.8125 -0.1
3.375 0.8125 -0.1
3.4375 0.8125 -0.1
3.5 0.8125 -0.1
3.5625 0.8125 -0.1
3.625 0.8125 -0.1
3.6875 0.8125 -0.1
3.75 0.8125 -0.1
3.8125 0.8125 -0.1
3.875 0.8125 -0.1
3.9375 0.8125 -0.1
4 0.8125 -0.1
0 0.875 -0.1
0.0625 0.875 -0.1
0.125 0.875 -0.1
0.1875 0.875 -0.1
0.25 0.875 -0.1
0.3125 0.875 -0.1
0.375 0.875 -0.1
0.4375 0.875 -0.1
0.5 0.875 -0.1
0.5625 0.875 -0.1
0.625 0.875 -0.1
0.6875 0.875 -0.1
0.75 0.875 -0.1
0.8125 0.875 -0.1
0.875 0.875 -0.1
0.9375 0.875 -0.1
1 0.875 -0.1
1.0625 0.875 -0.1
1.125 0.875 -0.1
1.1875 0.875 -0.1
1.25 0.875 -0.1
1.3125 0.875 -0.1
1.375 0.875 -0.1
1.4375 0.875 -0.1
1.5 0.875 -0.1
1.5625 0.875 -0.1
1.625 0.875 -0.1
1.6875 0.875 -0.1
1.75 0.875 -0.1
1.8125 0.875 -0.1
1.875 0.875 -0.1
1.9375 0.875 -0.1
2 0.875 -0.1
2.0625 0.875 -0.1
2.125 0.875 -0.1
2.1875 0.875 -0.1
2.25 0.875 -0.1
2.3125 0.875 -0.1
2.375 0.875 -0.1
2.4375 0.875 -0.1
2.5 0.875 -0.1
2.5625 0.875 -0.1
2.625 0.875 -0.1
2.6875 0.875 -0.1
2.75 0.875 -0.1
2.8125 0.875 -0.1
2.875 0.875 -0.1
2.9375 0.875 -0.1
3 0.875 -0.1
3.0625 0.875 -0.1
3.125 0.875 -0.1
3.1875 0.875 -0.1
3.25 0.875 -0.1
3.3125 0.875 -0.1
3.375 0.875 -0.1
3.4375 0.875 -0.1
3.5 0.875 -0.1
3.5625 0.875 -0.1
3.625 0.875 -0.1
3.6875 0.875 -0.1
3.75 0.875 -0.1
3.8125 0.875 -0.1
3.875 0.875 -0.1
3.9375 0.875 -0.1
4 0.875 -0.1
0 0.9375 -0.1
0.0625 0.9375 -0.1
0.125 0.9375 -0.1
0.1875 0.9375 -0.1
0.25 0.9375 -0.1
0.3125 0.9375 -0.1
0.375 0.9375 -0.1
0.4375 0.9375 -0.1
0.5 0.9375 -0.1
0.5625 0.9375 -0.1
0.625 0.9375 -0.1
0.6875 0.9375 -0.1
0.75 0.9375 -0.1
0.8125 0.9375 -0.1
0.875 0.9375 -0.1
0.9375 0.9375 -0.1
1 0.9375 -0.1
1.0625 0.9375 -0.1
1.125 0.9375 -0.1
1.1875 0.9375 -0.1
1.25 0.9375 -0.1
1.3125 0.9375 -0.1
1.375 0.9375 -0.1
1.4375 0.9375 -0.1
1.5 0.9375 -0.1
1.5625 0.9375 -0.1
1.625 0.9375 -0.1
1.6875 0.9375 -0.1
1.75 0.9375 -0.1
1.8125 0.9375 -0.1
1.875 0.9375 -0.1
1.9375 0.9375 -0.1
2 0.9375 -0.1
2.0625 0.9375 -0.1
2.125 0.9375 -0.1
2.1875 0.9375 -0.1
2.25 0.9375 -0.1
2.3125 0.9375 -0.1
2.375 0.9375 -0.1
2.4375 0.9375 -0.1
2.5 0.9375 -0.1
2.5625 0.9375 -0.1
2.625 0.9375 -0.1
2.6875 0.9375 -0.1
2.75 0.9375 -0.1
2.8125 0.9375 -0.1
2.875 0.9375 -0.1
2.9375 0.9375 -0.1
3 0.9375 -0.1
3.0625 0.9375 -0.1
3.125 0.9375 -0.1
3.1875 0.9375 -0.1
3.25 0.9375 -0.1
3.3125 0.9375 -0.1
3.375 0.9375 -0.1
3.4375 0.9375 -0.1
3.5 0.9375 -0.1
3.5625 0.9375 -0.1
3.625 0.9375 -0.1
3.6875 0.9375 -0.1
3.75 0.9375 -0.1
3.8125 0.9375 -0.1
3.875 0.9375 -0.1
3.9375 0.9375 -0.1
4 0.9375 -0.1
0 1 -0.1
0.0625 1 -0.1
0.125 1 -0.1
0.1875 1 -0.1
0.25 1 -0.1
0.3125 1 -0.1
0.375 1 -0.1
0.4375 1 -0.1
0.5 1 -0.1
0.5625 1 -0.1
0.625 1 -0.1
0.6875 1 -0.1
0.75 1 -0.1
0.8125 1 -0.1
0.875 1 -0.1
0.9375 1 -0.1
1 1 -0.1
1.0625 1 -0.1
1.125 1 -0.1
1.1875 1 -0.1
1.25 1 -0.1
1.3125 1 -0.1
1.375 1 -0.1
1.4375 1 -0.1
1.5 1 -0.1
1.5625 1 -0.1
1.625 1 -0.1
1.6875 1 -0.1
1.75 1 -0.1
1.8125 1 -0.1
1.875 1 -0.1
1.9375 1 -0.1
2 1 -0.1
2.0625 1 -0.1
2.125 1 -0.1
2.1875 1 -0.1
2.25 1 -0.1
2.3125 1 -0.1
2.375 1 -0.1
2.4375 1 -0.1
2.5 1 -0.1
2.5625 1 -0.1
2.625 1 -0.1
2.6875 1 -0.1
2.75 1 -0.1
2.8125 1 -0.1
2.875 1 -0.1
2.9375 1 -0.1
3 1 -0.1
3.0625 1 -0.1
3.125 1 -0.1
3.1875 1 -0.1
3.25 1 -0.1
3.3125 1 -0.1
3.375 1 -0.1
3.4375 1 -0.1
3.5 1 -0.1
3.5625 1 -0.1
3.625 1 -0.1
3.6875 1 -0.1
3.75 1 -0.1
3.8125 1 -0.1
3.875 1 -0.1
3.9375 1 -0.1
4 1 -0.1

CELLS 16385 131072
OFFSETS vtktypeint64
0 8 16 24 32 40 48 56 64 72 80 88 96 104 112 120 128 136 144 152 160 168 176 184 192 200 208 216 224 232 240 248 256 264 272 280 288 296 304 312 320 328 336 344 352 360 368 376 384 392 400 408 416 424 432 440 448 456 464 472 480 488 496 504 512 520 528 536 544 552 560 568 576 584 592 600 608 616 624 632 640 648 656 664 672 680 688 696 704 712 720 728 736 744 752 760 768 776 784 792 800 808 816 824 832 840 848 856 864 872 880 888 896 904 912 920 928 936 944 952 960 968 976 984 992 1000 1008 1016 1024 1032 1040 1048 1056 1064 1072 1080 1088 1096 1104 1112 1120 1128 1136 1144 1152 1160 1168 1176 1184 1192 1200 1208 1216 1224 1232 1240 1248 1256 1264 1272 1280 1288 1296 1304 1312 1320 1328 1336 1344 1352 1360 1368 1376 1384 1392 1400 1408 1416 1424 1432 1440 1448 1456 1464 1472 1480 1488 1496 1504 1512 1520 1528 1536 1544 1552 1560 1568 1576 1584 1592 1600 1608 1616 1624 1632 1640 1648 1656 1664 1672 1680 1688 1696 1704 1712 1720 1728 1736 1744 1752 1760 1768 1776 1784 1792 1800 1808 1816 1824 1832 1840 1848 1856 1864 1872 1880 1888 1896 1904 1912 1920 1928 1936 1944 1952 1960 1968 1976 1984 1992 2000 2008 2016 2024 2032 2040 2048 2056 2064 2072 2080 2088 2096 2104 2112 2120 2128 2136 2144 2152 2160 2168 2176 2184 2192 2200 2208 2216 2224 2232 2240 2248 2256 2264 2272 2280 2288 2296 2304 2312 2320 2328 2336 2344 2352 2360 2368 2376 2384 2392 2400 2408 2416 2424 2432 2440 2448 2456 2464 2472 2480 2488 2496 2504 2512 2520 2528 2536 2544 2552 2560 2568 2576 2584 2592 2600 2608 2616 2624 2632 2640 2648 2656 2664 2672 2680 2688 2696 2704 2712 2720 2728 2736 2744 2752 2760 2768 2776 2784 2792 2800 2808 2816 2824 2832 2840 2848 2856 2864 2872 2880 2888 2896 2904 2912 2920 2928 2936 2944 2952 2960 2968 2976 2984 2992 3000 3008 3016 3024 3032 3040 3048 3056 3064 3072 3080 3088 3096 3104 3112 3120 3128 3136 3144 3152 3160 3168 3176 3184 3192 3200 3208 3216 3224 3232 3240 3248 3256 3264 3272 3280 3288 3296 3304 3312 3320 3328 3336 3344 3352 3360 3368 3376 3384 3392 3400 3408 3416 3424 3432 3440 3448 3456 3464 3472 3480 3488 3496 3504 3512 3520 3528 3536 3544 3552 3560 3568 3576 3584 3592 3600 3608 3616 3624 3632 3640 3648 3656 3664 3672 3680 3688 3696 3704 3712 3720 3728 3736 3744 3752 3760 3768 3776 3784 3792 3800 3808 3816 3824 3832 3840 3848 3856 3864 3872 3880 3888 3896 3904 3912 3920 3928 3936 3944 3952 3960 3968 3976 3984 3992 4000 4008 4016 4024 4032 4040 4048 4056 4064 4072 4080 4088 4096 4104 4112 4120 4128 4136 4144 4152 4160 4168 4176 4184 4192 4200 4208 4216 4224 4232 4240 4248 4256 4264 4272 4280 4288 4296 4304 4312 4320 4328 4336 4344 4352 4360 4368 4376 4384 4392 4400 4408 4416 4424 4432 4440 4448 4456 4464 4472 4480 4488 4496 4504 4512 4520 4528 4536 4544 4552 4560 4568 4576 4584 4592 4600 4608 4616 4624 4632 4640 4648 4656 4664 4672 4680 4688 4696 4704 4712 4720 4728 4736 4744 4752 4760 4768 4776 4784 4792 4800 4808 4816 4824 4832 4840 4848 4856 4864 4872 4880 4888 4896 4904 4912 4920 4928 4936 4944 4952 4960 4968 4976 4984 4992 5000 5008 5016 5024 5032 5040 5048 5056 5064 5072 5080 5088 5096 5104 5112 5120 5128 5136 5144 5152 5160 5168 5176 5184 5192 5200 5208 5216 5224 5232 5240 5248 5256 5264 5272 5280 5288 5296 5304 5312 5320 5328 5336 5344 5352 5360 5368 5376 5384 5392 5400 5408 5416 5424 5432 5440 5448 5456 5464 5472 5480 5488 5496 5504 5512 5520 5528 5536 5544 5552 5560 5568 5576 5584 5592 5600 5608 5616 5624 5632 5640 5648 5656 5664 5672 5680 5688 5696 5704 5712 5720 5728 5736 5744 5752 5760 5768 5776 5784 5792 5800 5808 5816 5824 5832 5840 5848 5856 5864 5872 5880 5888 5896 5904 5912 5920 5928 5936 5944 5952 5960 5968 5976 5984 5992 6000 6008 6016 6024 6032 6040 6048 6056 6064 6072 6080 6088 6096 6104 6112 6120 6128 6136 6144 6152 6160 6168 6176 6184 6192 6200 6208 6216 6224 6232 6240 6248 6256 6264 6272 6280 6288 6296 6304 6312 6320 6328 6336 6344 6352 6360 6368 6376 6384 6392 6400 6408 6416 6424 6432 6440 6448 6456 6464 6472 6480 6488 6496 6504 6512 6520 6528 6536 6544 6552 6560 6568 6576 6584 6592 6600 6608 6616 6624 6632 6640 6648 6656 6664 6672 6680 6688 6696 6704 6712 6720 6728 6736 6744 6752 6760 6768 6776 6784 6792 6800 6808 6816 6824 6832 6840 6848 6856 6864 6872 6880 6888 6896 6904 6912 6920 6928 6936 6944 6952 6960 6968 6976 6984 6992 7000 7008 7016 7024 7032 7040 7048 7056 7064 7072 7080 7088 7096 7104 7112 7120 7128 7136 7144 7152 7160 7168 7176 7184 7192 7200 7208 7216 7224 7232 7240 7248 7256 7264 7272 7280 7288 7296 7304 7312 7320 7328 7336 7344 7352 7360 7368 7376 7384 7392 7400 7408 7416 7424 7432 7440 7448 7456 7464 7472 7480 7488 7496 7504 7512 7520 7528 7536 7544 7552 7560 7568 7576 7584 7592 7600 7608 7616 7624 7632 7640 7648 7656 7664 7672 7680 7688 7696 7704 7712 7720 7728 7736 7744 7752 7760 7768 7776 7784 7792 7800 7808 7816 7824 7832 7840 7848 7856 7864 7872 7880 7888 7896 7904 7912 7920 7928 7936 7944 7952 7960 7968 7976 7984 7992 8000 8008 8016 8024 8032 8040 8048 8056 8064 8072 8080 8088 8096 8104 8112 8120 8128 8136 8144 8152 8160 8168 8176 8184 8192 8200 8208 8216 8224 8232 8240 8248 8256 8264 8272 8280 8288 8296 8304 8312 8320 8328 8336 8344 8352 8360 8368 8376 8384 8392 8400 8408 8416 8424 8432 8440 8448 8456 8464 8472 8480 8488 8496 8504 8512 8520 8528 8536 8544 8552 8560 8568 8576 8584 8592 8600 8608 8616 8624 8632 8640 8648 8656 8664 8672 8680 8688 8696 8704 8712 8720 8728 8736 8744 8752 8760 8768 8776 8784 8792 8800 8808 8816 8824 8832 8840 8848 8856 8864 8872 8880 8888 8896 8904 8912 8920 8928 8936 8944 8952 8960 8968 8976 8984 8992 9000 9008 9016 9024 9032 9040 9048 9056 9064 9072 9080 9088 9096 9104 9112 9120 9128 9136 9144 9152 9160 9168 9176 9184 9192 9200 9208 9216 9224 9232 9240 9248 9256 9264 9272 9280 9288 9296 9304 9312 9320 9328 9336 9344 9352 9360 9368 9376 9384 9392 9400 9408 9416 9424 9432 9440 9448 9456 9464 9472 9480 9488 9496 9504 9512 9520 9528 9536 9544 9552 9560 9568 9576 9584 9592 9600 9608 9616 9624 9632 9640 9648 9656 9664 9672 9680 9688 9696 9704 9712 9720 9728 9736 9744 9752 9760 9768 9776 9784 9792 9800 9808 9816 9824 9832 9840 9848 9856 9864 9872 9880 9888 9896 9904 9912 9920 9928 9936 9944 9952 9960 9968 9976 9984 9992 10000 10008 10016 10024 10032 10040 10048 10056 10064 10072 10080 10088 10096 10104 10112 10120 10128 10136 10144 10152 10160 10168 10176 10184 10192 10200 10208 10216 10224 10232 10240 10248 10256 10264 10272 10280 10288 10296 10304 10312 10320 10328 10336 10344 10352 10360 10368 10376 10384 10392 10400 10408 10416 10424 10432 10440 10448 10456 10464 10472 10480 10488 10496 10504 10512 10520 10528 10536 10544 10552 10560 10568 10576 10584 10592 10600 10608 10616 10624 10632 10640 10648 10656 10664 10672 10680 10688 10696 10704 10712 10720 10728 10736 10744 10752 10760 10768 10776 10784 10792 10800 10808 10816 10824 10832 10840 10848 10856 10864 10872 10880 10888 10896 10904 10912 10920 10928 10936 10944 10952 10960 10968 10976 10984 10992 11000 11008 11016 11024 11032 11040 11048 11056 11064 11072 11080 11088 11096 11104 11112 11120 11128 11136 11144 11152 11160 11168 11176 11184 11192 11200 11208 11216 11224 11232 11240 11248 11256 11264 11272 11280 11288 11296 11304 11312 11320 11328 11336 11344 11352 11360 11368 11376 11384 11392 11400 11408 11416 11424 11432 11440 11448 11456 11464 11472 11480 11488 11496 11504 11512 11520 11528 11536 11544 11552 11560 11568 11576 11584 11592 11600 11608 11616 11624 11632 11640 11648 11656 11664 11672 11680 11688 11696 11704 11712 11720 11728 11736 11744 11752 11760 11768 11776 11784 11792 11800 11808 11816 11824 11832 11840 11848 11856 11864 11872 11880 11888 11896 11904 11912 11920 11928 11936 11944 11952 11960 11968 11976 11984 11992 12000 12008 12016 12024 12032 12040 12048 12056 12064 12072 12080 12088 12096 12104 12112 12120 12128 12136 12144 12152 12160 12168 12176 12184 12192 12200 12208 12216 12224 12232 12240 12248 12256 12264 12272 12280 12288 12296 12304 12312 12320 12328 12336 12344 12352 12360 12368 12376 12384 12392 12400 12408 12416 12424 12432 12440 12448 12456 12464 12472 12480 12488 12496 12504 12512 12520 12528 12536 12544 12552 12560 12568 12576 12584 12592 12600 12608 12616 12624 12632 12640 12648 12656 12664 12672 12680 12688 12696 12704 12712 12720 12728 12736 12744 12752 12760 12768 12776 12784 12792 12800 12808 12816 12824 12832 12840 12848 12856 12864 12872 12880 12888 12896 12904 12912 12920 12928 12936 12944 12952 12960 12968 12976 12984 12992 13000 13008 13016 13024 13032 13040 13048 13056 13064 13072 13080 13088 13096 13104 13112 13120 13128 13136 13144 13152 13160 13168 13176 13184 13192 13200 13208 13216 13224 13232 13240 13248 13256 13264 13272 13280 13288 13296 13304 13312 13320 13328 13336 13344 13352 13360 13368 13376 13384 13392 13400 13408 13416 13424 13432 13440 13448 13456 13464 13472 13480 13488 13496 13504 13512 13520 13528 13536 13544 13552 13560 13568 13576 13584 13592 13600 13608 13616 13624 13632 13640 13648 13656 13664 13672 13680 13688 13696 13704 13712 13720 13728 13736 13744 13752 13760 13768 13776 13784 13792 13800 13808 13816 13824 13832 13840 13848 13856 13864 13872 13880 13888 13896 13904 13912 13920 13928 13936 13944 13952 13960 13968 13976 13984 13992 14000 14008 14016 14024 14032 14040 14048 14056 14064 14072 14080 14088 14096 14104 14112 14120 14128 14136 14144 14152 14160 14168 14176 14184 14192 14200 14208 14216 14224 14232 14240 14248 14256 14264 14272 14280 14288 14296 14304 14312 14320 14328 14336 14344 14352 14360 14368 14376 14384 14392 14400 14408 14416 14424 14432 14440 14448 14456 14464 14472 14480 14488 14496 14504 14512 14520 14528 14536 14544 14552 14560 14568 14576 14584 14592 14600 14608 14616 14624 14632 14640 14648 14656 14664 14672 14680 14688 14696 14704 14712 14720 14728 14736 14744 14752 14760 14768 14776 14784 14792 14800 14808 14816 14824 14832 14840 14848 14856 14864 14872 14880 14888 14896 14904 14912 14920 14928 14936 14944 14952 14960 14968 14976 14984 14992 15000 15008 15016 15024 15032 15040 15048 15056 15064 15072 15080 15088 15096 15104 15112 15120 15128 15136 15144 15152 15160 15168 15176 15184 15192 15200 15208 15216 15224 15232 15240 15248 15256 15264 15272 15280 15288 15296 15304 15312 15320 15328 15336 15344 15352 15360 15368 15376 15384 15392 15400 15408 15416 15424 15432 15440 15448 15456 15464 15472 15480 15488 15496 15504 15512 15520 15528 15536 15544 15552 15560 15568 15576 15584 15592 15600 15608 15616 15624 15632 15640 15648 15656 15664 15672 15680 15688 15696 15704 15712 15720 15728 15736 15744 15752 15760 15768 15776 15784 15792 15800 15808 15816 15824 15832 15840 15848 15856 15864 15872 15880 15888 15896 15904 15912 15920 15928 15936 15944 15952 15960 15968 15976 15984 15992 16000 16008 16016 16024 16032 16040 16048 16056 16064 16072 16080 16088 16096 16104 16112 16120 16128 16136 16144 16152 16160 16168 16176 16184 16192 16200 16208 16216 16224 16232 16240 16248 16256 16264 16272 16280 16288 16296 16304 16312 16320 16328 16336 16344 16352 16360 16368 16376 16384 16392 16400 16408 16416 16424 16432 16440 16448 16456 16464 16472 16480 16488 16496 16504 16512 16520 16528 16536 16544 16552 16560 16568 16576 16584 16592 16600 16608 16616 16624 16632 16640 16648 16656 16664 16672 16680 16688 16696 16704 16712 16720 16728 16736 16744 16752 16760 16768 16776 16784 16792 16800 16808 16816 16824 16832 16840 16848 16856 16864 16872 16880 16888 16896 16904 16912 16920 16928 16936 16944 16952 16960 16968 16976 16984 16992 17000 17008 17016 17024 17032 17040 17048 17056 17064 17072 17080 17088 17096 17104 17112 17120 17128 17136 17144 17152 17160 17168 17176 17184 17192 17200 17208 17216 17224 17232 17240 17248 17256 17264 17272 17280 17288 17296 17304 17312 17320 17328 17336 17344 17352 17360 17368 17376 17384 17392 17400 17408 17416 17424 17432 17440 17448 17456 17464 17472 17480 17488 17496 17504 17512 17520 17528 17536 17544 17552 17560 17568 17576 17584 17592 17600 17608 17616 17624 17632 17640 17648 17656 17664 17672 17680 17688 17696 17704 17712 17720 17728 17736 17744 17752 17760 17768 17776 17784 17792 17800 17808 17816 17824 17832 17840 17848 17856 17864 17872 17880 17888 17896 17904 17912 17920 17928 17936 17944 17952 17960 17968 17976 17984 17992 18000 18008 18016 18024 18032 18040 18048 18056 18064 18072 18080 18088 18096 18104 18112 18120 18128 18136 18144 18152 18160 18168 18176 18184 18192 18200 18208 18216 18224 18232 18240 18248 18256 18264 18272 18280 18288 18296 18304 18312 18320 18328 18336 18344 18352 18360 18368 18376 18384 18392 18400 18408 18416 18424 18432 18440 18448 18456 18464 18472 18480 18488 18496 18504 18512 18520 18528 18536 18544 18552 18560 18568 18576 18584 18592 18600 18608 18616 18624 18632 18640 18648 18656 18664 18672 18680 18688 18696 18704 18712 18720 18728 18736 18744 18752 18760 18768 18776 18784 18792 18800 18808 18816 18824 18832 18840 18848 18856 18864 18872 18880 18888 18896 18904 18912 18920 18928 18936 18944 18952 18960 18968 18976 18984 18992 19000 19008 19016 19024 19032 19040 19048 19056 19064 19072 19080 19088 19096 19104 19112 19120 19128 19136 19144 19152 19160 19168 19176 19184 19192 19200 19208 19216 19224 19232 19240 19248 19256 19264 19272 19280 19288 19296 19304 19312 19320 19328 19336 19344 19352 19360 19368 19376 19384 19392 19400 19408 19416 19424 19432 19440 19448 19456 19464 19472 19480 19488 19496 19504 19512 19520 19528 19536 19544 19552 19560 19568 19576 19584 19592 19600 19608 19616 19624 19632 19640 19648 19656 19664 19672 19680 19688 19696 19704 19712 19720 19728 19736 19744 19752 19760 19768 19776 19784 19792 19800 19808 19816 19824 19832 19840 19848 19856 19864 19872 19880 19888 19896 19904 19912 19920 19928 19936 19944 19952 19960 19968 19976 19984 19992 20000 20008 20016 20024 20032 20040 20048 20056 20064 20072 20080 20088 20096 20104 20112 20120 20128 20136 20144 20152 20160 20168 20176 20184 20192 20200 20208 20216 20224 20232 20240 20248 20256 20264 20272 20280 20288 20296 20304 20312 20320 20328 20336 20344 20352 20360 20368 20376 20384 20392 20400 20408 20416 20424 20432 20440 20448 20456 20464 20472 20480 20488 20496 20504 20512 20520 20528 20536 20544 20552 20560 20568 20576 20584 20592 20600 20608 20616 20624 20632 20640 20648 20656 20664 20672 20680 20688 20696 20704 20712 20720 20728 20736 20744 20752 20760 20768 20776 20784 20792 20800 20808 20816 20824 20832 20840 20848 20856 20864 20872 20880 20888 20896 20904 20912 20920 20928 20936 20944 20952 20960 20968 20976 20984 20992 21000 21008 21016 21024 21032 21040 21048 21056 21064 21072 21080 21088 21096 21104 21112 21120 21128 21136 21144 21152 21160 21168 21176 21184 21192 21200 21208 21216 21224 21232 21240 21248 21256 21264 21272 21280 21288 21296 21304 21312 21320 21328 21336 21344 21352 21360 21368 21376 21384 21392 21400 21408 21416 21424 21432 21440 21448 21456 21464 21472 21480 21488 21496 21504 21512 21520 21528 21536 21544 21552 21560 21568 21576 21584 21592 21600 21608 21616 21624 21632 21640 21648 21656 21664 21672 21680 21688 21696 21704 21712 21720 21728 21736 21744 21752 21760 21768 21776 21784 21792 21800 21808 21816 21824 21832 21840 21848 21856 21864 21872 21880 21888 21896 21904 21912 21920 21928 21936 21944 21952 21960 21968 21976 21984 21992 22000 22008 22016 22024 22032 22040 22048 22056 22064 22072 22080 22088 22096 22104 22112 22120 22128 22136 22144 22152 22160 22168 22176 22184 22192 22200 22208 22216 22224 22232 22240 22248 22256 22264 22272 22280 22288 22296 22304 22312 22320 22328 22336 22344 22352 22360 22368 22376 22384 22392 22400 22408 22416 22424 22432 22440 22448 22456 22464 22472 22480 22488 22496 22504 22512 22520 22528 22536 22544 22552 22560 22568 22576 22584 22592 22600 22608 22616 22624 22632 22640 22648 22656 22664 22672 22680 22688 22696 22704 22712 22720 22728 22736 22744 22752 22760 22768 22776 22784 22792 22800 22808 22816 22824 22832 22840 22848 22856 22864 22872 22880 22888 22896 22904 22912 22920 22928 22936 22944 22952 22960 22968 22976 22984 22992 23000 23008 23016 23024 23032 23040 23048 23056 23064 23072 23080 23088 23096 23104 23112 23120 23128 23136 23144 23152 23160 23168 23176 23184 23192 23200 23208 23216 23224 23232 23240 23248 23256 23264 23272 23280 23288 23296 23304 23312 23320 23328 23336 23344 23352 23360 23368 23376 23384 23392 23400 23408 23416 23424 23432 23440 23448 23456 23464 23472 23480 23488 23496 23504 23512 23520 23528 23536 23544 23552 23560 23568 23576 23584 23592 23600 23608 23616 23624 23632 23640 23648 23656 23664 23672 23680 23688 23696 23704 23712 23720 23728 23736 23744 23752 23760 23768 23776 23784 23792 23800 23808 23816 23824 23832 23840 23848 23856 23864 23872 23880 23888 23896 23904 23912 23920 23928 23936 23944 23952 23960 23968 23976 23984 23992 24000 24008 24016 24024 24032 24040 24048 24056 24064 24072 24080 24088 24096 24104 24112 24120 24128 24136 24144 24152 24160 24168 24176 24184 24192 24200 24208 24216 24224 24232 24240 24248 24256 24264 24272 24280 24288 24296 24304 24312 24320 24328 24336 24344 24352 24360 24368 24376 24384 24392 24400 24408 24416 24424 24432 24440 24448 24456 24464 24472 24480 24488 24496 24504 24512 24520 24528 24536 24544 24552 24560 24568 24576 24584 24592 24600 24608 24616 24624 24632 24640 24648 24656 24664 24672 24680 24688 24696 24704 24712 24720 24728 24736 24744 24752 24760 24768 24776 24784 24792 24800 24808 24816 24824 24832 24840 24848 24856 24864 24872 24880 24888 24896 24904 24912 24920 24928 24936 24944 24952 24960 24968 24976 24984 24992 25000 25008 25016 25024 25032 25040 25048 25056 25064 25072 25080 25088 25096 25104 25112 25120 25128 25136 25144 25152 25160 25168 25176 25184 25192 25200 25208 25216 25224 25232 25240 25248 25256 25264 25272 25280 25288 25296 25304 25312 25320 25328 25336 25344 25352 25360 25368 25376 25384 25392 25400 25408 25416 25424 25432 25440 25448 25456 25464 25472 25480 25488 25496 25504 25512 25520 25528 25536 25544 25552 25560 25568 25576 25584 25592 25600 25608 25616 25624 25632 25640 25648 25656 25664 25672 25680 25688 25696 25704 25712 25720 25728 25736 25744 25752 25760 25768 25776 25784 25792 25800 25808 25816 25824 25832 25840 25848 25856 25864 25872 25880 25888 25896 25904 25912 25920 25928 25936 25944 25952 25960 25968 25976 25984 25992 26000 26008 26016 26024 26032 26040 26048 26056 26064 26072 26080 26088 26096 26104 26112 26120 26128 26136 26144 26152 26160 26168 26176 26184 26192 26200 26208 26216 26224 26232 26240 26248 26256 26264 26272 26280 26288 26296 26304 26312 26320 26328 26336 26344 26352 26360 26368 26376 26384 26392 26400 26408 26416 26424 26432 26440 26448 26456 26464 26472 26480 26488 26496 26504 26512 26520 26528 26536 26544 26552 26560 26568 26576 26584 26592 26600 26608 26616 26624 26632 26640 26648 26656 26664 26672 26680 26688 26696 26704 26712 26720 26728 26736 26744 26752 26760 26768 26776 26784 26792 26800 26808 26816 26824 26832 26840 26848 26856 26864 26872 26880 26888 26896 26904 26912 26920 26928 26936 26944 26952 26960 26968 26976 26984 26992 27000 27008 27016 27024 27032 27040 27048 27056 27064 27072 27080 27088 27096 27104 27112 27120 27128 27136 27144 27152 27160 27168 27176 27184 27192 27200 27208 27216 27224 27232 27240 27248 27256 27264 27272 27280 27288 27296 27304 27312 27320 27328 27336 27344 27352 27360 27368 27376 27384 27392 27400 27408 27416 27424 27432 27440 27448 27456 27464 27472 27480 27488 27496 27504 27512 27520 27528 27536 27544 27552 27560 27568 27576 27584 27592 27600 27608 27616 27624 27632 27640 27648 27656 27664 27672 27680 27688 27696 27704 27712 27720 27728 27736 27744 27752 27760 27768 27776 27784 27792 27800 27808 27816 27824 27832 27840 27848 27856 27864 27872 27880 27888 27896 27904 27912 27920 27928 27936 27944 27952 27960 27968 27976 27984 27992 28000 28008 28016 28024 28032 28040 28048 28056 28064 28072 28080 28088 28096 28104 28112 28120 28128 28136 28144 28152 28160 28168 28176 28184 28192 28200 28208 28216 28224 28232 28240 28248 28256 28264 28272 28280 28288 28296 28304 28312 28320 28328 28336 28344 28352 28360 28368 28376 28384 28392 28400 28408 28416 28424 28432 28440 28448 28456 28464 28472 28480 28488 28496 28504 28512 28520 28528 28536 28544 28552 28560 28568 28576 28584 28592 28600 28608 28616 28624 28632 28640 28648 28656 28664 28672 28680 28688 28696 28704 28712 28720 28728 28736 28744 28752 28760 28768 28776 28784 28792 28800 28808 28816 28824 28832 28840 28848 28856 28864 28872 28880 28888 28896 28904 28912 28920 28928 28936 28944 28952 28960 28968 28976 28984 28992 29000 29008 29016 29024 29032 29040 29048 29056 29064 29072 29080 29088 29096 29104 29112 29120 29128 29136 29144 29152 29160 29168 29176 29184 29192 29200 29208 29216 29224 29232 29240 29248 29256 29264 29272 29280 29288 29296 29304 29312 29320 29328 29336 29344 29352 29360 29368 29376 29384 29392 29400 29408 29416 29424 29432 29440 29448 29456 29464 29472 29480 29488 29496 29504 29512 29520 29528 29536 29544 29552 29560 29568 29576 29584 29592 29600 29608 29616 29624 29632 29640 29648 29656 29664 29672 29680 29688 29696 29704 29712 29720 29728 29736 29744 29752 29760 29768 29776 29784 29792 29800 29808 29816 29824 29832 29840 29848 29856 29864 29872 29880 29888 29896 29904 29912 29920 29928 29936 29944 29952 29960 29968 29976 29984 29992 30000 30008 30016 30024 30032 30040 30048 30056 30064 30072 30080 30088 30096 30104 30112 30120 30128 30136 30144 30152 30160 30168 30176 30184 30192 30200 30208 30216 30224 30232 30240 30248 30256 30264 30272 30280 30288 30296 30304 30312 30320 30328 30336 30344 30352 30360 30368 30376 30384 30392 30400 30408 30416 30424 30432 30440 30448 30456 30464 30472 30480 30488 30496 30504 30512 30520 30528 30536 30544 30552 30560 30568 30576 30584 30592 30600 30608 30616 30624 30632 30640 30648 30656 30664 30672 30680 30688 30696 30704 30712 30720 30728 30736 30744 30752 30760 30768 30776 30784 30792 30800 30808 30816 30824 30832 30840 30848 30856 30864 30872 30880 30888 30896 30904 30912 30920 30928 30936 30944 30952 30960 30968 30976 30984 30992 31000 31008 31016 31024 31032 31040 31048 31056 31064 31072 31080 31088 31096 31104 31112 31120 31128 31136 31144 31152 31160 31168 31176 31184 31192 31200 31208 31216 31224 31232 31240 31248 31256 31264 31272 31280 31288 31296 31304 31312 31320 31328 31336 31344 31352 31360 31368 31376 31384 31392 31400 31408 31416 31424 31432 31440 31448 31456 31464 31472 31480 31488 31496 31504 31512 31520 31528 31536 31544 31552 31560 31568 31576 31584 31592 31600 31608 31616 31624 31632 31640 31648 31656 31664 31672 31680 31688 31696 31704 31712 31720 31728 31736 31744 31752 31760 31768 31776 31784 31792 31800 31808 31816 31824 31832 31840 31848 31856 31864 31872 31880 31888 31896 31904 31912 31920 31928 31936 31944 31952 31960 31968 31976 31984 31992 32000 32008 32016 32024 32032 32040 32048 32056 32064 32072 32080 32088 32096 32104 32112 32120 32128 32136 32144 32152 32160 32168 32176 32184 32192 32200 32208 32216 32224 32232 32240 32248 32256 32264 32272 32280 32288 32296 32304 32312 32320 32328 32336 32344 32352 32360 32368 32376 32384 32392 32400 32408 32416 32424 32432 32440 32448 32456 32464 32472 32480 32488 32496 32504 32512 32520 32528 32536 32544 32552 32560 32568 32576 32584 32592 32600 32608 32616 32624 32632 32640 32648 32656 32664 32672 32680 32688 32696 32704 32712 32720 32728 32736 32744 32752 32760 32768 32776 32784 32792 32800 32808 32816 32824 32832 32840 32848 32856 32864 32872 32880 32888 32896 32904 32912 32920 32928 32936 32944 32952 32960 32968 32976 32984 32992 33000 33008 33016 33024 33032 33040 33048 33056 33064 33072 33080 33088 33096 33104 33112 33120 33128 33136 33144 33152 33160 33168 33176 33184 33192 33200 33208 33216 33224 33232 33240 33248 33256 33264 33272 33280 33288 33296 33304 33312 33320 33328 33336 33344 33352 33360 33368 33376 33384 33392 33400 33408 33416 33424 33432 33440 33448 33456 33464 33472 33480 33488 33496 33504 33512 33520 33528 33536 33544 33552 33560 33568 33576 33584 33592 33600 33608 33616 33624 33632 33640 33648 33656 33664 33672 33680 33688 33696 33704 33712 33720 33728 33736 33744 33752 33760 33768 33776 33784 33792 33800 33808 33816 33824 33832 33840 33848 33856 33864 33872 33880 33888 33896 33904 33912 33920 33928 33936 33944 33952 33960 33968 33976 33984 33992 34000 34008 34016 34024 34032 34040 34048 34056 34064 34072 34080 34088 34096 34104 34112 34120 34128 34136 34144 34152 34160 34168 34176 34184 34192 34200 34208 34216 34224 34232 34240 34248 34256 34264 34272 34280 34288 34296 34304 34312 34320 34328 34336 34344 34352 34360 34368 34376 34384 34392 34400 34408 34416 34424 34432 34440 34448 34456 34464 34472 34480 34488 34496 34504 34512 34520 34528 34536 34544 34552 34560 34568 34576 34584 34592 34600 34608 34616 34624 34632 34640 34648 34656 34664 34672 34680 34688 34696 34704 34712 34720 34728 34736 34744 34752 34760 34768 34776 34784 34792 34800 34808 34816 34824 34832 34840 34848 34856 34864 34872 34880 34888 34896 34904 34912 34920 34928 34936 34944 34952 34960 34968 34976 34984 34992 35000 35008 35016 35024 35032 35040 35048 35056 35064 35072 35080 35088 35096 35104 35112 35120 35128 35136 35144 35152 35160 35168 35176 35184 35192 35200 35208 35216 35224 35232 35240 35248 35256 35264 35272 35280 35288 35296 35304 35312 35320 35328 35336 35344 35352 35360 35368 35376 35384 35392 35400 35408 35416 35424 35432 35440 35448 35456 35464 35472 35480 35488 35496 35504 35512 35520 35528 35536 35544 35552 35560 35568 35576 35584 35592 35600 35608 35616 35624 35632 35640 35648 35656 35664 35672 35680 35688 35696 35704 35712 35720 35728 35736 35744 35752 35760 35768 35776 35784 35792 35800 35808 35816 35824 35832 35840 35848 35856 35864 35872 35880 35888 35896 35904 35912 35920 35928 35936 35944 35952 35960 35968 35976 35984 35992 36000 36008 36016 36024 36032 36040 36048 36056 36064 36072 36080 36088 36096 36104 36112 36120 36128 36136 36144 36152 36160 36168 36176 36184 36192 36200 36208 36216 36224 36232 36240 36248 36256 36264 36272 36280 36288 36296 36304 36312 36320 36328 36336 36344 36352 36360 36368 36376 36384 36392 36400 36408 36416 36424 36432 36440 36448 36456 36464 36472 36480 36488 36496 36504 36512 36520 36528 36536 36544 36552 36560 36568 36576 36584 36592 36600 36608 36616 36624 36632 36640 36648 36656 36664 36672 36680 36688 36696 36704 36712 36720 36728 36736 36744 36752 36760 36768 36776 36784 36792 36800 36808 36816 36824 36832 36840 36848 36856 36864 36872 36880 36888 36896 36904 36912 36920 36928 36936 36944 36952 36960 36968 36976 36984 36992 37000 37008 37016 37024 37032 37040 37048 37056 37064 37072 37080 37088 37096 37104 37112 37120 37128 37136 37144 37152 37160 37168 37176 37184 37192 37200 37208 37216 37224 37232 37240 37248 37256 37264 37272 37280 37288 37296 37304 37312 37320 37328 37336 37344 37352 37360 37368 37376 37384 37392 37400 37408 37416 37424 37432 37440 37448 37456 37464 37472 37480 37488 37496 37504 37512 37520 37528 37536 37544 37552 37560 37568 37576 37584 37592 37600 37608 37616 37624 37632 37640 37648 37656 37664 37672 37680 37688 37696 37704 37712 37720 37728 37736 37744 37752 37760 37768 37776 37784 37792 37800 37808 37816 37824 37832 37840 37848 37856 37864 37872 37880 37888 37896 37904 37912 37920 37928 37936 37944 37952 37960 37968 37976 37984 37992 38000 38008 38016 38024 38032 38040 38048 38056 38064 38072 38080 38088 38096 38104 38112 38120 38128 38136 38144 38152 38160 38168 38176 38184 38192 38200 38208 38216 38224 38232 38240 38248 38256 38264 38272 38280 38288 38296 38304 38312 38320 38328 38336 38344 38352 38360 38368 38376 38384 38392 38400 38408 38416 38424 38432 38440 38448 38456 38464 38472 38480 38488 38496 38504 38512 38520 38528 38536 38544 38552 38560 38568 38576 38584 38592 38600 38608 38616 38624 38632 38640 38648 38656 38664 38672 38680 38688 38696 38704 38712 38720 38728 38736 38744 38752 38760 38768 38776 38784 38792 38800 38808 38816 38824 38832 38840 38848 38856 38864 38872 38880 38888 38896 38904 38912 38920 38928 38936 38944 38952 38960 38968 38976 38984 38992 39000 39008 39016 39024 39032 39040 39048 39056 39064 39072 39080 39088 39096 39104 39112 39120 39128 39136 39144 39152 39160 39168 39176 39184 39192 39200 39208 39216 39224 39232 39240 39248 39256 39264 39272 39280 39288 39296 39304 39312 39320 39328 39336 39344 39352 39360 39368 39376 39384 39392 39400 39408 39416 39424 39432 39440 39448 39456 39464 39472 39480 39488 39496 39504 39512 39520 39528 39536 39544 39552 39560 39568 39576 39584 39592 39600 39608 39616 39624 39632 39640 39648 39656 39664 39672 39680 39688 39696 39704 39712 39720 39728 39736 39744 39752 39760 39768 39776 39784 39792 39800 39808 39816 39824 39832 39840 39848 39856 39864 39872 39880 39888 39896 39904 39912 39920 39928 39936 39944 39952 39960 39968 39976 39984 39992 40000 40008 40016 40024 40032 40040 40048 40056 40064 40072 40080 40088 40096 40104 40112 40120 40128 40136 40144 40152 40160 40168 40176 40184 40192 40200 40208 40216 40224 40232 40240 40248 40256 40264 40272 40280 40288 40296 40304 40312 40320 40328 40336 40344 40352 40360 40368 40376 40384 40392 40400 40408 40416 40424 40432 40440 40448 40456 40464 40472 40480 40488 40496 40504 40512 40520 40528 40536 40544 40552 40560 40568 40576 40584 40592 40600 40608 40616 40624 40632 40640 40648 40656 40664 40672 40680 40688 40696 40704 40712 40720 40728 40736 40744 40752 40760 40768 40776 40784 40792 40800 40808 40816 40824 40832 40840 40848 40856 40864 40872 40880 40888 40896 40904 40912 40920 40928 40936 40944 40952 40960 40968 40976 40984 40992 41000 41008 41016 41024 41032 41040 41048 41056 41064 41072 41080 41088 41096 41104 41112 41120 41128 41136 41144 41152 41160 41168 41176 41184 41192 41200 41208 41216 41224 41232 41240 41248 41256 41264 41272 41280 41288 41296 41304 41312 41320 41328 41336 41344 41352 41360 41368 41376 41384 41392 41400 41408 41416 41424 41432 41440 41448 41456 41464 41472 41480 41488 41496 41504 41512 41520 41528 41536 41544 41552 41560 41568 41576 41584 41592 41600 41608 41616 41624 41632 41640 41648 41656 41664 41672 41680 41688 41696 41704 41712 41720 41728 41736 41744 41752 41760 41768 41776 41784 41792 41800 41808 41816 41824 41832 41840 41848 41856 41864 41872 41880 41888 41896 41904 41912 41920 41928 41936 41944 41952 41960 41968 41976 41984 41992 42000 42008 42016 42024 42032 42040 42048 42056 42064 42072 42080 42088 42096 42104 42112 42120 42128 42136 42144 42152 42160 42168 42176 42184 42192 42200 42208 42216 42224 42232 42240 42248 42256 42264 42272 42280 42288 42296 42304 42312 42320 42328 42336 42344 42352 42360 42368 42376 42384 42392 42400 42408 42416 42424 42432 42440 42448 42456 42464 42472 42480 42488 42496 42504 42512 42520 42528 42536 42544 42552 42560 42568 42576 42584 42592 42600 42608 42616 42624 42632 42640 42648 42656 42664 42672 42680 42688 42696 42704 42712 42720 42728 42736 42744 42752 42760 42768 42776 42784 42792 42800 42808 42816 42824 42832 42840 42848 42856 42864 42872 42880 42888 42896 42904 42912 42920 42928 42936 42944 42952 42960 42968 42976 42984 42992 43000 43008 43016 43024 43032 43040 43048 43056 43064 43072 43080 43088 43096 43104 43112 43120 43128 43136 43144 43152 43160 43168 43176 43184 43192 43200 43208 43216 43224 43232 43240 43248 43256 43264 43272 43280 43288 43296 43304 43312 43320 43328 43336 43344 43352 43360 43368 43376 43384 43392 43400 43408 43416 43424 43432 43440 43448 43456 43464 43472 43480 43488 43496 43504 43512 43520 43528 43536 43544 43552 43560 43568 43576 43584 43592 43600 43608 43616 43624 43632 43640 43648 43656 43664 43672 43680 43688 43696 43704 43712 43720 43728 43736 43744 43752 43760 43768 43776 43784 43792 43800 43808 43816 43824 43832 43840 43848 43856 43864 43872 43880 43888 43896 43904 43912 43920 43928 43936 43944 43952 43960 43968 43976 43984 43992 44000 44008 44016 44024 44032 44040 44048 44056 44064 44072 44080 44088 44096 44104 44112 44120 44128 44136 44144 44152 44160 44168 44176 44184 44192 44200 44208 44216 44224 44232 44240 44248 44256 44264 44272 44280 44288 44296 44304 44312 44320 44328 44336 44344 44352 44360 44368 44376 44384 44392 44400 44408 44416 44424 44432 44440 44448 44456 44464 44472 44480 44488 44496 44504 44512 44520 44528 44536 44544 44552 44560 44568 44576 44584 44592 44600 44608 44616 44624 44632 44640 44648 44656 44664 44672 44680 44688 44696 44704 44712 44720 44728 44736 44744 44752 44760 44768 44776 44784 44792 44800 44808 44816 44824 44832 44840 44848 44856 44864 44872 44880 44888 44896 44904 44912 44920 44928 44936 44944 44952 44960 44968 44976 44984 44992 45000 45008 45016 45024 45032 45040 45048 45056 45064 45072 45080 45088 45096 45104 45112 45120 45128 45136 45144 45152 45160 45168 45176 45184 45192 45200 45208 45216 45224 45232 45240 45248 45256 45264 45272 45280 45288 45296 45304 45312 45320 45328 45336 45344 45352 45360 45368 45376 45384 45392 45400 45408 45416 45424 45432 45440 45448 45456 45464 45472 45480 45488 45496 45504 45512 45520 45528 45536 45544 45552 45560 45568 45576 45584 45592 45600 45608 45616 45624 45632 45640 45648 45656 45664 45672 45680 45688 45696 45704 45712 45720 45728 45736 45744 45752 45760 45768 45776 45784 45792 45800 45808 45816 45824 45832 45840 45848 45856 45864 45872 45880 45888 45896 45904 45912 45920 45928 45936 45944 45952 45960 45968 45976 45984 45992 46000 46008 46016 46024 46032 46040 46048 46056 46064 46072 46080 46088 46096 46104 46112 46120 46128 46136 46144 46152 46160 46168 46176 46184 46192 46200 46208 46216 46224 46232 46240 46248 46256 46264 46272 46280 46288 46296 46304 46312 46320 46328 46336 46344 46352 46360 46368 46376 46384 46392 46400 46408 46416 46424 46432 46440 46448 46456 46464 46472 46480 46488 46496 46504 46512 46520 46528 46536 46544 46552 46560 46568 46576 46584 46592 46600 46608 46616 46624 46632 46640 46648 46656 46664 46672 46680 46688 46696 46704 46712 46720 46728 46736 46744 46752 46760 46768 46776 46784 46792 46800 46808 46816 46824 46832 46840 46848 46856 46864 46872 46880 46888 46896 46904 46912 46920 46928 46936 46944 46952 46960 46968 46976 46984 46992 47000 47008 47016 47024 47032 47040 47048 47056 47064 47072 47080 47088 47096 47104 47112 47120 47128 47136 47144 47152 47160 47168 47176 47184 47192 47200 47208 47216 47224 47232 47240 47248 47256 47264 47272 47280 47288 47296 47304 47312 47320 47328 47336 47344 47352 47360 47368 47376 47384 47392 47400 47408 47416 47424 47432 47440 47448 47456 47464 47472 47480 47488 47496 47504 47512 47520 47528 47536 47544 47552 47560 47568 47576 47584 47592 47600 47608 47616 47624 47632 47640 47648 47656 47664 47672 47680 47688 47696 47704 47712 47720 47728 47736 47744 47752 47760 47768 47776 47784 47792 47800 47808 47816 47824 47832 47840 47848 47856 47864 47872 47880 47888 47896 47904 47912 47920 47928 47936 47944 47952 47960 47968 47976 47984 47992 48000 48008 48016 48024 48032 48040 48048 48056 48064 48072 48080 48088 48096 48104 48112 48120 48128 48136 48144 48152 48160 48168 48176 48184 48192 48200 48208 48216 48224 48232 48240 48248 48256 48264 48272 48280 48288 48296 48304 48312 48320 48328 48336 48344 48352 48360 48368 48376 48384 48392 48400 48408 48416 48424 48432 48440 48448 48456 48464 48472 48480 48488 48496 48504 48512 48520 48528 48536 48544 48552 48560 48568 48576 48584 48592 48600 48608 48616 48624 48632 48640 48648 48656 48664 48672 48680 48688 48696 48704 48712 48720 48728 48736 48744 48752 48760 48768 48776 48784 48792 48800 48808 48816 48824 48832 48840 48848 48856 48864 48872 48880 48888 48896 48904 48912 48920 48928 48936 48944 48952 48960 48968 48976 48984 48992 49000 49008 49016 49024 49032 49040 49048 49056 49064 49072 49080 49088 49096 49104 49112 49120 49128 49136 49144 49152 49160 49168 49176 49184 49192 49200 49208 49216 49224 49232 49240 49248 49256 49264 49272 49280 49288 49296 49304 49312 49320 49328 49336 49344 49352 49360 49368 49376 49384 49392 49400 49408 49416 49424 49432 49440 49448 49456 49464 49472 49480 49488 49496 49504 49512 49520 49528 49536 49544 49552 49560 49568 49576 49584 49592 49600 49608 49616 49624 49632 49640 49648 49656 49664 49672 49680 49688 49696 49704 49712 49720 49728 49736 49744 49752 49760 49768 49776 49784 49792 49800 49808 49816 49824 49832 49840 49848 49856 49864 49872 49880 49888 49896 49904 49912 49920 49928 49936 49944 49952 49960 49968 49976 49984 49992 50000 50008 50016 50024 50032 50040 50048 50056 50064 50072 50080 50088 50096 50104 50112 50120 50128 50136 50144 50152 50160 50168 50176 50184 50192 50200 50208 50216 50224 50232 50240 50248 50256 50264 50272 50280 50288 50296 50304 50312 50320 50328 50336 50344 50352 50360 50368 50376 50384 50392 50400 50408 50416 50424 50432 50440 50448 50456 50464 50472 50480 50488 50496 50504 50512 50520 50528 50536 50544 50552 50560 50568 50576 50584 50592 50600 50608 50616 50624 50632 50640 50648 50656 50664 50672 50680 50688 50696 50704 50712 50720 50728 50736 50744 50752 50760 50768 50776 50784 50792 50800 50808 50816 50824 50832 50840 50848 50856 50864 50872 50880 50888 50896 50904 50912 50920 50928 50936 50944 50952 50960 50968 50976 50984 50992 51000 51008 51016 51024 51032 51040 51048 51056 51064 51072 51080 51088 51096 51104 51112 51120 51128 51136 51144 51152 51160 51168 51176 51184 51192 51200 51208 51216 51224 51232 51240 51248 51256 51264 51272 51280 51288 51296 51304 51312 51320 51328 51336 51344 51352 51360 51368 51376 51384 51392 51400 51408 51416 51424 51432 51440 51448 51456 51464 51472 51480 51488 51496 51504 51512 51520 51528 51536 51544 51552 51560 51568 51576 51584 51592 51600 51608 51616 51624 51632 51640 51648 51656 51664 51672 51680 51688 51696 51704 51712 51720 51728 51736 51744 51752 51760 51768 51776 51784 51792 51800 51808 51816 51824 51832 51840 51848 51856 51864 51872 51880 51888 51896 51904 51912 51920 51928 51936 51944 51952 51960 51968 51976 51984 51992 52000 52008 52016 52024 52032 52040 52048 52056 52064 52072 52080 52088 52096 52104 52112 52120 52128 52136 52144 52152 52160 52168 52176 52184 52192 52200 52208 52216 52224 52232 52240 52248 52256 52264 52272 52280 52288 52296 52304 52312 52320 52328 52336 52344 52352 52360 52368 52376 52384 52392 52400 52408 52416 52424 52432 52440 52448 52456 52464 52472 52480 52488 52496 52504 52512 52520 52528 52536 52544 52552 52560 52568 52576 52584 52592 52600 52608 52616 52624 52632 52640 52648 52656 52664 52672 52680 52688 52696 52704 52712 52720 52728 52736 52744 52752 52760 52768 52776 52784 52792 52800 52808 52816 52824 52832 52840 52848 52856 52864 52872 52880 52888 52896 52904 52912 52920 52928 52936 52944 52952 52960 52968 52976 52984 52992 53000 53008 53016 53024 53032 53040 53048 53056 53064 53072 53080 53088 53096 53104 53112 53120 53128 53136 53144 53152 53160 53168 53176 53184 53192 53200 53208 53216 53224 53232 53240 53248 53256 53264 53272 53280 53288 53296 53304 53312 53320 53328 53336 53344 53352 53360 53368 53376 53384 53392 53400 53408 53416 53424 53432 53440 53448 53456 53464 53472 53480 53488 53496 53504 53512 53520 53528 53536 53544 53552 53560 53568 53576 53584 53592 53600 53608 53616 53624 53632 53640 53648 53656 53664 53672 53680 53688 53696 53704 53712 53720 53728 53736 53744 53752 53760 53768 53776 53784 53792 53800 53808 53816 53824 53832 53840 53848 53856 53864 53872 53880 53888 53896 53904 53912 53920 53928 53936 53944 53952 53960 53968 53976 53984 53992 54000 54008 54016 54024 54032 54040 54048 54056 54064 54072 54080 54088 54096 54104 54112 54120 54128 54136 54144 54152 54160 54168 54176 54184 54192 54200 54208 54216 54224 54232 54240 54248 54256 54264 54272 54280 54288 54296 54304 54312 54320 54328 54336 54344 54352 54360 54368 54376 54384 54392 54400 54408 54416 54424 54432 54440 54448 54456 54464 54472 54480 54488 54496 54504 54512 54520 54528 54536 54544 54552 54560 54568 54576 54584 54592 54600 54608 54616 54624 54632 54640 54648 54656 54664 54672 54680 54688 54696 54704 54712 54720 54728 54736 54744 54752 54760 54768 54776 54784 54792 54800 54808 54816 54824 54832 54840 54848 54856 54864 54872 54880 54888 54896 54904 54912 54920 54928 54936 54944 54952 54960 54968 54976 54984 54992 55000 55008 55016 55024 55032 55040 55048 55056 55064 55072 55080 55088 55096 55104 55112 55120 55128 55136 55144 55152 55160 55168 55176 55184 55192 55200 55208 55216 55224 55232 55240 55248 55256 55264 55272 55280 55288 55296 55304 55312 55320 55328 55336 55344 55352 55360 55368 55376 55384 55392 55400 55408 55416 55424 55432 55440 55448 55456 55464 55472 55480 55488 55496 55504 55512 55520 55528 55536 55544 55552 55560 55568 55576 55584 55592 55600 55608 55616 55624 55632 55640 55648 55656 55664 55672 55680 55688 55696 55704 55712 55720 55728 55736 55744 55752 55760 55768 55776 55784 55792 55800 55808 55816 55824 55832 55840 55848 55856 55864 55872 55880 55888 55896 55904 55912 55920 55928 55936 55944 55952 55960 55968 55976 55984 55992 56000 56008 56016 56024 56032 56040 56048 56056 56064 56072 56080 56088 56096 56104 56112 56120 56128 56136 56144 56152 56160 56168 56176 56184 56192 56200 56208 56216 56224 56232 56240 56248 56256 56264 56272 56280 56288 56296 56304 56312 56320 56328 56336 56344 56352 56360 56368 56376 56384 56392 56400 56408 56416 56424 56432 56440 56448 56456 56464 56472 56480 56488 56496 56504 56512 56520 56528 56536 56544 56552 56560 56568 56576 56584 56592 56600 56608 56616 56624 56632 56640 56648 56656 56664 56672 56680 56688 56696 56704 56712 56720 56728 56736 56744 56752 56760 56768 56776 56784 56792 56800 56808 56816 56824 56832 56840 56848 56856 56864 56872 56880 56888 56896 56904 56912 56920 56928 56936 56944 56952 56960 56968 56976 56984 56992 57000 57008 57016 57024 57032 57040 57048 57056 57064 57072 57080 57088 57096 57104 57112 57120 57128 57136 57144 57152 57160 57168 57176 57184 57192 57200 57208 57216 57224 57232 57240 57248 57256 57264 57272 57280 57288 57296 57304 57312 57320 57328 57336 57344 57352 57360 57368 57376 57384 57392 57400 57408 57416 57424 57432 57440 57448 57456 57464 57472 57480 57488 57496 57504 57512 57520 57528 57536 57544 57552 57560 57568 57576 57584 57592 57600 57608 57616 57624 57632 57640 57648 57656 57664 57672 57680 57688 57696 57704 57712 57720 57728 57736 57744 57752 57760 57768 57776 57784 57792 57800 57808 57816 57824 57832 57840 57848 57856 57864 57872 57880 57888 57896 57904 57912 57920 57928 57936 57944 57952 57960 57968 57976 57984 57992 58000 58008 58016 58024 58032 58040 58048 58056 58064 58072 58080 58088 58096 58104 58112 58120 58128 58136 58144 58152 58160 58168 58176 58184 58192 58200 58208 58216 58224 58232 58240 58248 58256 58264 58272 58280 58288 58296 58304 58312 58320 58328 58336 58344 58352 58360 58368 58376 58384 58392 58400 58408 58416 58424 58432 58440 58448 58456 58464 58472 58480 58488 58496 58504 58512 58520 58528 58536 58544 58552 58560 58568 58576 58584 58592 58600 58608 58616 58624 58632 58640 58648 58656 58664 58672 58680 58688 58696 58704 58712 58720 58728 58736 58744 58752 58760 58768 58776 58784 58792 58800 58808 58816 58824 58832 58840 58848 58856 58864 58872 58880 58888 58896 58904 58912 58920 58928 58936 58944 58952 58960 58968 58976 58984 58992 59000 59008 59016 59024 59032 59040 59048 59056 59064 59072 59080 59088 59096 59104 59112 59120 59128 59136 59144 59152 59160 59168 59176 59184 59192 59200 59208 59216 59224 59232 59240 59248 59256 59264 59272 59280 59288 59296 59304 59312 59320 59328 59336 59344 59352 59360 59368 59376 59384 59392 59400 59408 59416 59424 59432 59440 59448 59456 59464 59472 59480 59488 59496 59504 59512 59520 59528 59536 59544 59552 59560 59568 59576 59584 59592 59600 59608 59616 59624 59632 59640 59648 59656 59664 59672 59680 59688 59696 59704 59712 59720 59728 59736 59744 59752 59760 59768 59776 59784 59792 59800 59808 59816 59824 59832 59840 59848 59856 59864 59872 59880 59888 59896 59904 59912 59920 59928 59936 59944 59952 59960 59968 59976 59984 59992 60000 60008 60016 60024 60032 60040 60048 60056 60064 60072 60080 60088 60096 60104 60112 60120 60128 60136 60144 60152 60160 60168 60176 60184 60192 60200 60208 60216 60224 60232 60240 60248 60256 60264 60272 60280 60288 60296 60304 60312 60320 60328 60336 60344 60352 60360 60368 60376 60384 60392 60400 60408 60416 60424 60432 60440 60448 60456 60464 60472 60480 60488 60496 60504 60512 60520 60528 60536 60544 60552 60560 60568 60576 60584 60592 60600 60608 60616 60624 60632 60640 60648 60656 60664 60672 60680 60688 60696 60704 60712 60720 60728 60736 60744 60752 60760 60768 60776 60784 60792 60800 60808 60816 60824 60832 60840 60848 60856 60864 60872 60880 60888 60896 60904 60912 60920 60928 60936 60944 60952 60960 60968 60976 60984 60992 61000 61008 61016 61024 61032 61040 61048 61056 61064 61072 61080 61088 61096 61104 61112 61120 61128 61136 61144 61152 61160 61168 61176 61184 61192 61200 61208 61216 61224 61232 61240 61248 61256 61264 61272 61280 61288 61296 61304 61312 61320 61328 61336 61344 61352 61360 61368 61376 61384 61392 61400 61408 61416 61424 61432 61440 61448 61456 61464 61472 61480 61488 61496 61504 61512 61520 61528 61536 61544 61552 61560 61568 61576 61584 61592 61600 61608 61616 61624 61632 61640 61648 61656 61664 61672 61680 61688 61696 61704 61712 61720 61728 61736 61744 61752 61760 61768 61776 61784 61792 61800 61808 61816 61824 61832 61840 61848 61856 61864 61872 61880 61888 61896 61904 61912 61920 61928 61936 61944 61952 61960 61968 61976 61984 61992 62000 62008 62016 62024 62032 62040 62048 62056 62064 62072 62080 62088 62096 62104 62112 62120 62128 62136 62144 62152 62160 62168 62176 62184 62192 62200 62208 62216 62224 62232 62240 62248 62256 62264 62272 62280 62288 62296 62304 62312 62320 62328 62336 62344 62352 62360 62368 62376 62384 62392 62400 62408 62416 62424 62432 62440 62448 62456 62464 62472 62480 62488 62496 62504 62512 62520 62528 62536 62544 62552 62560 62568 62576 62584 62592 62600 62608 62616 62624 62632 62640 62648 62656 62664 62672 62680 62688 62696 62704 62712 62720 62728 62736 62744 62752 62760 62768 62776 62784 62792 62800 62808 62816 62824 62832 62840 62848 62856 62864 62872 62880 62888 62896 62904 62912 62920 62928 62936 62944 62952 62960 62968 62976 62984 62992 63000 63008 63016 63024 63032 63040 63048 63056 63064 63072 63080 63088 63096 63104 63112 63120 63128 63136 63144 63152 63160 63168 63176 63184 63192 63200 63208 63216 63224 63232 63240 63248 63256 63264 63272 63280 63288 63296 63304 63312 63320 63328 63336 63344 63352 63360 63368 63376 63384 63392 63400 63408 63416 63424 63432 63440 63448 63456 63464 63472 63480 63488 63496 63504 63512 63520 63528 63536 63544 63552 63560 63568 63576 63584 63592 63600 63608 63616 63624 63632 63640 63648 63656 63664 63672 63680 63688 63696 63704 63712 63720 63728 63736 63744 63752 63760 63768 63776 63784 63792 63800 63808 63816 63824 63832 63840 63848 63856 63864 63872 63880 63888 63896 63904 63912 63920 63928 63936 63944 63952 63960 63968 63976 63984 63992 64000 64008 64016 64024 64032 64040 64048 64056 64064 64072 64080 64088 64096 64104 64112 64120 64128 64136 64144 64152 64160 64168 64176 64184 64192 64200 64208 64216 64224 64232 64240 64248 64256 64264 64272 64280 64288 64296 64304 64312 64320 64328 64336 64344 64352 64360 64368 64376 64384 64392 64400 64408 64416 64424 64432 64440 64448 64456 64464 64472 64480 64488 64496 64504 64512 64520 64528 64536 64544 64552 64560 64568 64576 64584 64592 64600 64608 64616 64624 64632 64640 64648 64656 64664 64672 64680 64688 64696 64704 64712 64720 64728 64736 64744 64752 64760 64768 64776 64784 64792 64800 64808 64816 64824 64832 64840 64848 64856 64864 64872 64880 64888 64896 64904 64912 64920 64928 64936 64944 64952 64960 64968 64976 64984 64992 65000 65008 65016 65024 65032 65040 65048 65056 65064 65072 65080 65088 65096 65104 65112 65120 65128 65136 65144 65152 65160 65168 65176 65184 65192 65200 65208 65216 65224 65232 65240 65248 65256 65264 65272 65280 65288 65296 65304 65312 65320 65328 65336 65344 65352 65360 65368 65376 65384 65392 65400 65408 65416 65424 65432 65440 65448 65456 65464 65472 65480 65488 65496 65504 65512 65520 65528 65536 65544 65552 65560 65568 65576 65584 65592 65600 65608 65616 65624 65632 65640 65648 65656 65664 65672 65680 65688 65696 65704 65712 65720 65728 65736 65744 65752 65760 65768 65776 65784 65792 65800 65808 65816 65824 65832 65840 65848 65856 65864 65872 65880 65888 65896 65904 65912 65920 65928 65936 65944 65952 65960 65968 65976 65984 65992 66000 66008 66016 66024 66032 66040 66048 66056 66064 66072 66080 66088 66096 66104 66112 66120 66128 66136 66144 66152 66160 66168 66176 66184 66192 66200 66208 66216 66224 66232 66240 66248 66256 66264 66272 66280 66288 66296 66304 66312 66320 66328 66336 66344 66352 66360 66368 66376 66384 66392 66400 66408 66416 66424 66432 66440 66448 66456 66464 66472 66480 66488 66496 66504 66512 66520 66528 66536 66544 66552 66560 66568 66576 66584 66592 66600 66608 66616 66624 66632 66640 66648 66656 66664 66672 66680 66688 66696 66704 66712 66720 66728 66736 66744 66752 66760 66768 66776 66784 66792 66800 66808 66816 66824 66832 66840 66848 66856 66864 66872 66880 66888 66896 66904 66912 66920 66928 66936 66944 66952 66960 66968 66976 66984 66992 67000 67008 67016 67024 67032 67040 67048 67056 67064 67072 67080 67088 67096 67104 67112 67120 67128 67136 67144 67152 67160 67168 67176 67184 67192 67200 67208 67216 67224 67232 67240 67248 67256 67264 67272 67280 67288 67296 67304 67312 67320 67328 67336 67344 67352 67360 67368 67376 67384 67392 67400 67408 67416 67424 67432 67440 67448 67456 67464 67472 67480 67488 67496 67504 67512 67520 67528 67536 67544 67552 67560 67568 67576 67584 67592 67600 67608 67616 67624 67632 67640 67648 67656 67664 67672 67680 67688 67696 67704 67712 67720 67728 67736 67744 67752 67760 67768 67776 67784 67792 67800 67808 67816 67824 67832 67840 67848 67856 67864 67872 67880 67888 67896 67904 67912 67920 67928 67936 67944 67952 67960 67968 67976 67984 67992 68000 68008 68016 68024 68032 68040 68048 68056 68064 68072 68080 68088 68096 68104 68112 68120 68128 68136 68144 68152 68160 68168 68176 68184 68192 68200 68208 68216 68224 68232 68240 68248 68256 68264 68272 68280 68288 68296 68304 68312 68320 68328 68336 68344 68352 68360 68368 68376 68384 68392 68400 68408 68416 68424 68432 68440 68448 68456 68464 68472 68480 68488 68496 68504 68512 68520 68528 68536 68544 68552 68560 68568 68576 68584 68592 68600 68608 68616 68624 68632 68640 68648 68656 68664 68672 68680 68688 68696 68704 68712 68720 68728 68736 68744 68752 68760 68768 68776 68784 68792 68800 68808 68816 68824 68832 68840 68848 68856 68864 68872 68880 68888 68896 68904 68912 68920 68928 68936 68944 68952 68960 68968 68976 68984 68992 69000 69008 69016 69024 69032 69040 69048 69056 69064 69072 69080 69088 69096 69104 69112 69120 69128 69136 69144 69152 69160 69168 69176 69184 69192 69200 69208 69216 69224 69232 69240 69248 69256 69264 69272 69280 69288 69296 69304 69312 69320 69328 69336 69344 69352 69360 69368 69376 69384 69392 69400 69408 69416 69424 69432 69440 69448 69456 69464 69472 69480 69488 69496 69504 69512 69520 69528 69536 69544 69552 69560 69568 69576 69584 69592 69600 69608 69616 69624 69632 69640 69648 69656 69664 69672 69680 69688 69696 69704 69712 69720 69728 69736 69744 69752 69760 69768 69776 69784 69792 69800 69808 69816 69824 69832 69840 69848 69856 69864 69872 69880 69888 69896 69904 69912 69920 69928 69936 69944 69952 69960 69968 69976 69984 69992 70000 70008 70016 70024 70032 70040 70048 70056 70064 70072 70080 70088 70096 70104 70112 70120 70128 70136 70144 70152 70160 70168 70176 70184 70192 70200 70208 70216 70224 70232 70240 70248 70256 70264 70272 70280 70288 70296 70304 70312 70320 70328 70336 70344 70352 70360 70368 70376 70384 70392 70400 70408 70416 70424 70432 70440 70448 70456 70464 70472 70480 70488 70496 70504 70512 70520 70528 70536 70544 70552 70560 70568 70576 70584 70592 70600 70608 70616 70624 70632 70640 70648 70656 70664 70672 70680 70688 70696 70704 70712 70720 70728 70736 70744 70752 70760 70768 70776 70784 70792 70800 70808 70816 70824 70832 70840 70848 70856 70864 70872 70880 70888 70896 70904 70912 70920 70928 70936 70944 70952 70960 70968 70976 70984 70992 71000 71008 71016 71024 71032 71040 71048 71056 71064 71072 71080 71088 71096 71104 71112 71120 71128 71136 71144 71152 71160 71168 71176 71184 71192 71200 71208 71216 71224 71232 71240 71248 71256 71264 71272 71280 71288 71296 71304 71312 71320 71328 71336 71344 71352 71360 71368 71376 71384 71392 71400 71408 71416 71424 71432 71440 71448 71456 71464 71472 71480 71488 71496 71504 71512 71520 71528 71536 71544 71552 71560 71568 71576 71584 71592 71600 71608 71616 71624 71632 71640 71648 71656 71664 71672 71680 71688 71696 71704 71712 71720 71728 71736 71744 71752 71760 71768 71776 71784 71792 71800 71808 71816 71824 71832 71840 71848 71856 71864 71872 71880 71888 71896 71904 71912 71920 71928 71936 71944 71952 71960 71968 71976 71984 71992 72000 72008 72016 72024 72032 72040 72048 72056 72064 72072 72080 72088 72096 72104 72112 72120 72128 72136 72144 72152 72160 72168 72176 72184 72192 72200 72208 72216 72224 72232 72240 72248 72256 72264 72272 72280 72288 72296 72304 72312 72320 72328 72336 72344 72352 72360 72368 72376 72384 72392 72400 72408 72416 72424 72432 72440 72448 72456 72464 72472 72480 72488 72496 72504 72512 72520 72528 72536 72544 72552 72560 72568 72576 72584 72592 72600 72608 72616 72624 72632 72640 72648 72656 72664 72672 72680 72688 72696 72704 72712 72720 72728 72736 72744 72752 72760 72768 72776 72784 72792 72800 72808 72816 72824 72832 72840 72848 72856 72864 72872 72880 72888 72896 72904 72912 72920 72928 72936 72944 72952 72960 72968 72976 72984 72992 73000 73008 73016 73024 73032 73040 73048 73056 73064 73072 73080 73088 73096 73104 73112 73120 73128 73136 73144 73152 73160 73168 73176 73184 73192 73200 73208 73216 73224 73232 73240 73248 73256 73264 73272 73280 73288 73296 73304 73312 73320 73328 73336 73344 73352 73360 73368 73376 73384 73392 73400 73408 73416 73424 73432 73440 73448 73456 73464 73472 73480 73488 73496 73504 73512 73520 73528 73536 73544 73552 73560 73568 73576 73584 73592 73600 73608 73616 73624 73632 73640 73648 73656 73664 73672 73680 73688 73696 73704 73712 73720 73728 73736 73744 73752 73760 73768 73776 73784 73792 73800 73808 73816 73824 73832 73840 73848 73856 73864 73872 73880 73888 73896 73904 73912 73920 73928 73936 73944 73952 73960 73968 73976 73984 73992 74000 74008 74016 74024 74032 74040 74048 74056 74064 74072 74080 74088 74096 74104 74112 74120 74128 74136 74144 74152 74160 74168 74176 74184 74192 74200 74208 74216 74224 74232 74240 74248 74256 74264 74272 74280 74288 74296 74304 74312 74320 74328 74336 74344 74352 74360 74368 74376 74384 74392 74400 74408 74416 74424 74432 74440 74448 74456 74464 74472 74480 74488 74496 74504 74512 74520 74528 74536 74544 74552 74560 74568 74576 74584 74592 74600 74608 74616 74624 74632 74640 74648 74656 74664 74672 74680 74688 74696 74704 74712 74720 74728 74736 74744 74752 74760 74768 74776 74784 74792 74800 74808 74816 74824 74832 74840 74848 74856 74864 74872 74880 74888 74896 74904 74912 74920 74928 74936 74944 74952 74960 74968 74976 74984 74992 75000 75008 75016 75024 75032 75040 75048 75056 75064 75072 75080 75088 75096 75104 75112 75120 75128 75136 75144 75152 75160 75168 75176 75184 75192 75200 75208 75216 75224 75232 75240 75248 75256 75264 75272 75280 75288 75296 75304 75312 75320 75328 75336 75344 75352 75360 75368 75376 75384 75392 75400 75408 75416 75424 75432 75440 75448 75456 75464 75472 75480 75488 75496 75504 75512 75520 75528 75536 75544 75552 75560 75568 75576 75584 75592 75600 75608 75616 75624 75632 75640 75648 75656 75664 75672 75680 75688 75696 75704 75712 75720 75728 75736 75744 75752 75760 75768 75776 75784 75792 75800 75808 75816 75824 75832 75840 75848 75856 75864 75872 75880 75888 75896 75904 75912 75920 75928 75936 75944 75952 75960 75968 75976 75984 75992 76000 76008 76016 76024 76032 76040 76048 76056 76064 76072 76080 76088 76096 76104 76112 76120 76128 76136 76144 76152 76160 76168 76176 76184 76192 76200 76208 76216 76224 76232 76240 76248 76256 76264 76272 76280 76288 76296 76304 76312 76320 76328 76336 76344 76352 76360 76368 76376 76384 76392 76400 76408 76416 76424 76432 76440 76448 76456 76464 76472 76480 76488 76496 76504 76512 76520 76528 76536 76544 76552 76560 76568 76576 76584 76592 76600 76608 76616 76624 76632 76640 76648 76656 76664 76672 76680 76688 76696 76704 76712 76720 76728 76736 76744 76752 76760 76768 76776 76784 76792 76800 76808 76816 76824 76832 76840 76848 76856 76864 76872 76880 76888 76896 76904 76912 76920 76928 76936 76944 76952 76960 76968 76976 76984 76992 77000 77008 77016 77024 77032 77040 77048 77056 77064 77072 77080 77088 77096 77104 77112 77120 77128 77136 77144 77152 77160 77168 77176 77184 77192 77200 77208 77216 77224 77232 77240 77248 77256 77264 77272 77280 77288 77296 77304 77312 77320 77328 77336 77344 77352 77360 77368 77376 77384 77392 77400 77408 77416 77424 77432 77440 77448 77456 77464 77472 77480 77488 77496 77504 77512 77520 77528 77536 77544 77552 77560 77568 77576 77584 77592 77600 77608 77616 77624 77632 77640 77648 77656 77664 77672 77680 77688 77696 77704 77712 77720 77728 77736 77744 77752 77760 77768 77776 77784 77792 77800 77808 77816 77824 77832 77840 77848 77856 77864 77872 77880 77888 77896 77904 77912 77920 77928 77936 77944 77952 77960 77968 77976 77984 77992 78000 78008 78016 78024 78032 78040 78048 78056 78064 78072 78080 78088 78096 78104 78112 78120 78128 78136 78144 78152 78160 78168 78176 78184 78192 78200 78208 78216 78224 78232 78240 78248 78256 78264 78272 78280 78288 78296 78304 78312 78320 78328 78336 78344 78352 78360 78368 78376 78384 78392 78400 78408 78416 78424 78432 78440 78448 78456 78464 78472 78480 78488 78496 78504 78512 78520 78528 78536 78544 78552 78560 78568 78576 78584 78592 78600 78608 78616 78624 78632 78640 78648 78656 78664 78672 78680 78688 78696 78704 78712 78720 78728 78736 78744 78752 78760 78768 78776 78784 78792 78800 78808 78816 78824 78832 78840 78848 78856 78864 78872 78880 78888 78896 78904 78912 78920 78928 78936 78944 78952 78960 78968 78976 78984 78992 79000 79008 79016 79024 79032 79040 79048 79056 79064 79072 79080 79088 79096 79104 79112 79120 79128 79136 79144 79152 79160 79168 79176 79184 79192 79200 79208 79216 79224 79232 79240 79248 79256 79264 79272 79280 79288 79296 79304 79312 79320 79328 79336 79344 79352 79360 79368 79376 79384 79392 79400 79408 79416 79424 79432 79440 79448 79456 79464 79472 79480 79488 79496 79504 79512 79520 79528 79536 79544 79552 79560 79568 79576 79584 79592 79600 79608 79616 79624 79632 79640 79648 79656 79664 79672 79680 79688 79696 79704 79712 79720 79728 79736 79744 79752 79760 79768 79776 79784 79792 79800 79808 79816 79824 79832 79840 79848 79856 79864 79872 79880 79888 79896 79904 79912 79920 79928 79936 79944 79952 79960 79968 79976 79984 79992 80000 80008 80016 80024 80032 80040 80048 80056 80064 80072 80080 80088 80096 80104 80112 80120 80128 80136 80144 80152 80160 80168 80176 80184 80192 80200 80208 80216 80224 80232 80240 80248 80256 80264 80272 80280 80288 80296 80304 80312 80320 80328 80336 80344 80352 80360 80368 80376 80384 80392 80400 80408 80416 80424 80432 80440 80448 80456 80464 80472 80480 80488 80496 80504 80512 80520 80528 80536 80544 80552 80560 80568 80576 80584 80592 80600 80608 80616 80624 80632 80640 80648 80656 80664 80672 80680 80688 80696 80704 80712 80720 80728 80736 80744 80752 80760 80768 80776 80784 80792 80800 80808 80816 80824 80832 80840 80848 80856 80864 80872 80880 80888 80896 80904 80912 80920 80928 80936 80944 80952 80960 80968 80976 80984 80992 81000 81008 81016 81024 81032 81040 81048 81056 81064 81072 81080 81088 81096 81104 81112 81120 81128 81136 81144 81152 81160 81168 81176 81184 81192 81200 81208 81216 81224 81232 81240 81248 81256 81264 81272 81280 81288 81296 81304 81312 81320 81328 81336 81344 81352 81360 81368 81376 81384 81392 81400 81408 81416 81424 81432 81440 81448 81456 81464 81472 81480 81488 81496 81504 81512 81520 81528 81536 81544 81552 81560 81568 81576 81584 81592 81600 81608 81616 81624 81632 81640 81648 81656 81664 81672 81680 81688 81696 81704 81712 81720 81728 81736 81744 81752 81760 81768 81776 81784 81792 81800 81808 81816 81824 81832 81840 81848 81856 81864 81872 81880 81888 81896 81904 81912 81920 81928 81936 81944 81952 81960 81968 81976 81984 81992 82000 82008 82016 82024 82032 82040 82048 82056 82064 82072 82080 82088 82096 82104 82112 82120 82128 82136 82144 82152 82160 82168 82176 82184 82192 82200 82208 82216 82224 82232 82240 82248 82256 82264 82272 82280 82288 82296 82304 82312 82320 82328 82336 82344 82352 82360 82368 82376 82384 82392 82400 82408 82416 82424 82432 82440 82448 82456 82464 82472 82480 82488 82496 82504 82512 82520 82528 82536 82544 82552 82560 82568 82576 82584 82592 82600 82608 82616 82624 82632 82640 82648 82656 82664 82672 82680 82688 82696 82704 82712 82720 82728 82736 82744 82752 82760 82768 82776 82784 82792 82800 82808 82816 82824 82832 82840 82848 82856 82864 82872 82880 82888 82896 82904 82912 82920 82928 82936 82944 82952 82960 82968 82976 82984 82992 83000 83008 83016 83024 83032 83040 83048 83056 83064 83072 83080 83088 83096 83104 83112 83120 83128 83136 83144 83152 83160 83168 83176 83184 83192 83200 83208 83216 83224 83232 83240 83248 83256 83264 83272 83280 83288 83296 83304 83312 83320 83328 83336 83344 83352 83360 83368 83376 83384 83392 83400 83408 83416 83424 83432 83440 83448 83456 83464 83472 83480 83488 83496 83504 83512 83520 83528 83536 83544 83552 83560 83568 83576 83584 83592 83600 83608 83616 83624 83632 83640 83648 83656 83664 83672 83680 83688 83696 83704 83712 83720 83728 83736 83744 83752 83760 83768 83776 83784 83792 83800 83808 83816 83824 83832 83840 83848 83856 83864 83872 83880 83888 83896 83904 83912 83920 83928 83936 83944 83952 83960 83968 83976 83984 83992 84000 84008 84016 84024 84032 84040 84048 84056 84064 84072 84080 84088 84096 84104 84112 84120 84128 84136 84144 84152 84160 84168 84176 84184 84192 84200 84208 84216 84224 84232 84240 84248 84256 84264 84272 84280 84288 84296 84304 84312 84320 84328 84336 84344 84352 84360 84368 84376 84384 84392 84400 84408 84416 84424 84432 84440 84448 84456 84464 84472 84480 84488 84496 84504 84512 84520 84528 84536 84544 84552 84560 84568 84576 84584 84592 84600 84608 84616 84624 84632 84640 84648 84656 84664 84672 84680 84688 84696 84704 84712 84720 84728 84736 84744 84752 84760 84768 84776 84784 84792 84800 84808 84816 84824 84832 84840 84848 84856 84864 84872 84880 84888 84896 84904 84912 84920 84928 84936 84944 84952 84960 84968 84976 84984 84992 85000 85008 85016 85024 85032 85040 85048 85056 85064 85072 85080 85088 85096 85104 85112 85120 85128 85136 85144 85152 85160 85168 85176 85184 85192 85200 85208 85216 85224 85232 85240 85248 85256 85264 85272 85280 85288 85296 85304 85312 85320 85328 85336 85344 85352 85360 85368 85376 85384 85392 85400 85408 85416 85424 85432 85440 85448 85456 85464 85472 85480 85488 85496 85504 85512 85520 85528 85536 85544 85552 85560 85568 85576 85584 85592 85600 85608 85616 85624 85632 85640 85648 85656 85664 85672 85680 85688 85696 85704 85712 85720 85728 85736 85744 85752 85760 85768 85776 85784 85792 85800 85808 85816 85824 85832 85840 85848 85856 85864 85872 85880 85888 85896 85904 85912 85920 85928 85936 85944 85952 85960 85968 85976 85984 85992 86000 86008 86016 86024 86032 86040 86048 86056 86064 86072 86080 86088 86096 86104 86112 86120 86128 86136 86144 86152 86160 86168 86176 86184 86192 86200 86208 86216 86224 86232 86240 86248 86256 86264 86272 86280 86288 86296 86304 86312 86320 86328 86336 86344 86352 86360 86368 86376 86384 86392 86400 86408 86416 86424 86432 86440 86448 86456 86464 86472 86480 86488 86496 86504 86512 86520 86528 86536 86544 86552 86560 86568 86576 86584 86592 86600 86608 86616 86624 86632 86640 86648 86656 86664 86672 86680 86688 86696 86704 86712 86720 86728 86736 86744 86752 86760 86768 86776 86784 86792 86800 86808 86816 86824 86832 86840 86848 86856 86864 86872 86880 86888 86896 86904 86912 86920 86928 86936 86944 86952 86960 86968 86976 86984 86992 87000 87008 87016 87024 87032 87040 87048 87056 87064 87072 87080 87088 87096 87104 87112 87120 87128 87136 87144 87152 87160 87168 87176 87184 87192 87200 87208 87216 87224 87232 87240 87248 87256 87264 87272 87280 87288 87296 87304 87312 87320 87328 87336 87344 87352 87360 87368 87376 87384 87392 87400 87408 87416 87424 87432 87440 87448 87456 87464 87472 87480 87488 87496 87504 87512 87520 87528 87536 87544 87552 87560 87568 87576 87584 87592 87600 87608 87616 87624 87632 87640 87648 87656 87664 87672 87680 87688 87696 87704 87712 87720 87728 87736 87744 87752 87760 87768 87776 87784 87792 87800 87808 87816 87824 87832 87840 87848 87856 87864 87872 87880 87888 87896 87904 87912 87920 87928 87936 87944 87952 87960 87968 87976 87984 87992 88000 88008 88016 88024 88032 88040 88048 88056 88064 88072 88080 88088 88096 88104 88112 88120 88128 88136 88144 88152 88160 88168 88176 88184 88192 88200 88208 88216 88224 88232 88240 88248 88256 88264 88272 88280 88288 88296 88304 88312 88320 88328 88336 88344 88352 88360 88368 88376 88384 88392 88400 88408 88416 88424 88432 88440 88448 88456 88464 88472 88480 88488 88496 88504 88512 88520 88528 88536 88544 88552 88560 88568 88576 88584 88592 88600 88608 88616 88624 88632 88640 88648 88656 88664 88672 88680 88688 88696 88704 88712 88720 88728 88736 88744 88752 88760 88768 88776 88784 88792 88800 88808 88816 88824 88832 88840 88848 88856 88864 88872 88880 88888 88896 88904 88912 88920 88928 88936 88944 88952 88960 88968 88976 88984 88992 89000 89008 89016 89024 89032 89040 89048 89056 89064 89072 89080 89088 89096 89104 89112 89120 89128 89136 89144 89152 89160 89168 89176 89184 89192 89200 89208 89216 89224 89232 89240 89248 89256 89264 89272 89280 89288 89296 89304 89312 89320 89328 89336 89344 89352 89360 89368 89376 89384 89392 89400 89408 89416 89424 89432 89440 89448 89456 89464 89472 89480 89488 89496 89504 89512 89520 89528 89536 89544 89552 89560 89568 89576 89584 89592 89600 89608 89616 89624 89632 89640 89648 89656 89664 89672 89680 89688 89696 89704 89712 89720 89728 89736 89744 89752 89760 89768 89776 89784 89792 89800 89808 89816 89824 89832 89840 89848 89856 89864 89872 89880 89888 89896 89904 89912 89920 89928 89936 89944 89952 89960 89968 89976 89984 89992 90000 90008 90016 90024 90032 90040 90048 90056 90064 90072 90080 90088 90096 90104 90112 90120 90128 90136 90144 90152 90160 90168 90176 90184 90192 90200 90208 90216 90224 90232 90240 90248 90256 90264 90272 90280 90288 90296 90304 90312 90320 90328 90336 90344 90352 90360 90368 90376 90384 90392 90400 90408 90416 90424 90432 90440 90448 90456 90464 90472 90480 90488 90496 90504 90512 90520 90528 90536 90544 90552 90560 90568 90576 90584 90592 90600 90608 90616 90624 90632 90640 90648 90656 90664 90672 90680 90688 90696 90704 90712 90720 90728 90736 90744 90752 90760 90768 90776 90784 90792 90800 90808 90816 90824 90832 90840 90848 90856 90864 90872 90880 90888 90896 90904 90912 90920 90928 90936 90944 90952 90960 90968 90976 90984 90992 91000 91008 91016 91024 91032 91040 91048 91056 91064 91072 91080 91088 91096 91104 91112 91120 91128 91136 91144 91152 91160 91168 91176 91184 91192 91200 91208 91216 91224 91232 91240 91248 91256 91264 91272 91280 91288 91296 91304 91312 91320 91328 91336 91344 91352 91360 91368 91376 91384 91392 91400 91408 91416 91424 91432 91440 91448 91456 91464 91472 91480 91488 91496 91504 91512 91520 91528 91536 91544 91552 91560 91568 91576 91584 91592 91600 91608 91616 91624 91632 91640 91648 91656 91664 91672 91680 91688 91696 91704 91712 91720 91728 91736 91744 91752 91760 91768 91776 91784 91792 91800 91808 91816 91824 91832 91840 91848 91856 91864 91872 91880 91888 91896 91904 91912 91920 91928 91936 91944 91952 91960 91968 91976 91984 91992 92000 92008 92016 92024 92032 92040 92048 92056 92064 92072 92080 92088 92096 92104 92112 92120 92128 92136 92144 92152 92160 92168 92176 92184 92192 92200 92208 92216 92224 92232 92240 92248 92256 92264 92272 92280 92288 92296 92304 92312 92320 92328 92336 92344 92352 92360 92368 92376 92384 92392 92400 92408 92416 92424 92432 92440 92448 92456 92464 92472 92480 92488 92496 92504 92512 92520 92528 92536 92544 92552 92560 92568 92576 92584 92592 92600 92608 92616 92624 92632 92640 92648 92656 92664 92672 92680 92688 92696 92704 92712 92720 92728 92736 92744 92752 92760 92768 92776 92784 92792 92800 92808 92816 92824 92832 92840 92848 92856 92864 92872 92880 92888 92896 92904 92912 92920 92928 92936 92944 92952 92960 92968 92976 92984 92992 93000 93008 93016 93024 93032 93040 93048 93056 93064 93072 93080 93088 93096 93104 93112 93120 93128 93136 93144 93152 93160 93168 93176 93184 93192 93200 93208 93216 93224 93232 93240 93248 93256 93264 93272 93280 93288 93296 93304 93312 93320 93328 93336 93344 93352 93360 93368 93376 93384 93392 93400 93408 93416 93424 93432 93440 93448 93456 93464 93472 93480 93488 93496 93504 93512 93520 93528 93536 93544 93552 93560 93568 93576 93584 93592 93600 93608 93616 93624 93632 93640 93648 93656 93664 93672 93680 93688 93696 93704 93712 93720 93728 93736 93744 93752 93760 93768 93776 93784 93792 93800 93808 93816 93824 93832 93840 93848 93856 93864 93872 93880 93888 93896 93904 93912 93920 93928 93936 93944 93952 93960 93968 93976 93984 93992 94000 94008 94016 94024 94032 94040 94048 94056 94064 94072 94080 94088 94096 94104 94112 94120 94128 94136 94144 94152 94160 94168 94176 94184 94192 94200 94208 94216 94224 94232 94240 94248 94256 94264 94272 94280 94288 94296 94304 94312 94320 94328 94336 94344 94352 94360 94368 94376 94384 94392 94400 94408 94416 94424 94432 94440 94448 94456 94464 94472 94480 94488 94496 94504 94512 94520 94528 94536 94544 94552 94560 94568 94576 94584 94592 94600 94608 94616 94624 94632 94640 94648 94656 94664 94672 94680 94688 94696 94704 94712 94720 94728 94736 94744 94752 94760 94768 94776 94784 94792 94800 94808 94816 94824 94832 94840 94848 94856 94864 94872 94880 94888 94896 94904 94912 94920 94928 94936 94944 94952 94960 94968 94976 94984 94992 95000 95008 95016 95024 95032 95040 95048 95056 95064 95072 95080 95088 95096 95104 95112 95120 95128 95136 95144 95152 95160 95168 95176 95184 95192 95200 95208 95216 95224 95232 95240 95248 95256 95264 95272 95280 95288 95296 95304 95312 95320 95328 95336 95344 95352 95360 95368 95376 95384 95392 95400 95408 95416 95424 95432 95440 95448 95456 95464 95472 95480 95488 95496 95504 95512 95520 95528 95536 95544 95552 95560 95568 95576 95584 95592 95600 95608 95616 95624 95632 95640 95648 95656 95664 95672 95680 95688 95696 95704 95712 95720 95728 95736 95744 95752 95760 95768 95776 95784 95792 95800 95808 95816 95824 95832 95840 95848 95856 95864 95872 95880 95888 95896 95904 95912 95920 95928 95936 95944 95952 95960 95968 95976 95984 95992 96000 96008 96016 96024 96032 96040 96048 96056 96064 96072 96080 96088 96096 96104 96112 96120 96128 96136 96144 96152 96160 96168 96176 96184 96192 96200 96208 96216 96224 96232 96240 96248 96256 96264 96272 96280 96288 96296 96304 96312 96320 96328 96336 96344 96352 96360 96368 96376 96384 96392 96400 96408 96416 96424 96432 96440 96448 96456 96464 96472 96480 96488 96496 96504 96512 96520 96528 96536 96544 96552 96560 96568 96576 96584 96592 96600 96608 96616 96624 96632 96640 96648 96656 96664 96672 96680 96688 96696 96704 96712 96720 96728 96736 96744 96752 96760 96768 96776 96784 96792 96800 96808 96816 96824 96832 96840 96848 96856 96864 96872 96880 96888 96896 96904 96912 96920 96928 96936 96944 96952 96960 96968 96976 96984 96992 97000 97008 97016 97024 97032 97040 97048 97056 97064 97072 97080 97088 97096 97104 97112 97120 97128 97136 97144 97152 97160 97168 97176 97184 97192 97200 97208 97216 97224 97232 97240 97248 97256 97264 97272 97280 97288 97296 97304 97312 97320 97328 97336 97344 97352 97360 97368 97376 97384 97392 97400 97408 97416 97424 97432 97440 97448 97456 97464 97472 97480 97488 97496 97504 97512 97520 97528 97536 97544 97552 97560 97568 97576 97584 97592 97600 97608 97616 97624 97632 97640 97648 97656 97664 97672 97680 97688 97696 97704 97712 97720 97728 97736 97744 97752 97760 97768 97776 97784 97792 97800 97808 97816 97824 97832 97840 97848 97856 97864 97872 97880 97888 97896 97904 97912 97920 97928 97936 97944 97952 97960 97968 97976 97984 97992 98000 98008 98016 98024 98032 98040 98048 98056 98064 98072 98080 98088 98096 98104 98112 98120 98128 98136 98144 98152 98160 98168 98176 98184 98192 98200 98208 98216 98224 98232 98240 98248 98256 98264 98272 98280 98288 98296 98304 98312 98320 98328 98336 98344 98352 98360 98368 98376 98384 98392 98400 98408 98416 98424 98432 98440 98448 98456 98464 98472 98480 98488 98496 98504 98512 98520 98528 98536 98544 98552 98560 98568 98576 98584 98592 98600 98608 98616 98624 98632 98640 98648 98656 98664 98672 98680 98688 98696 98704 98712 98720 98728 98736 98744 98752 98760 98768 98776 98784 98792 98800 98808 98816 98824 98832 98840 98848 98856 98864 98872 98880 98888 98896 98904 98912 98920 98928 98936 98944 98952 98960 98968 98976 98984 98992 99000 99008 99016 99024 99032 99040 99048 99056 99064 99072 99080 99088 99096 99104 99112 99120 99128 99136 99144 99152 99160 99168 99176 99184 99192 99200 99208 99216 99224 99232 99240 99248 99256 99264 99272 99280 99288 99296 99304 99312 99320 99328 99336 99344 99352 99360 99368 99376 99384 99392 99400 99408 99416 99424 99432 99440 99448 99456 99464 99472 99480 99488 99496 99504 99512 99520 99528 99536 99544 99552 99560 99568 99576 99584 99592 99600 99608 99616 99624 99632 99640 99648 99656 99664 99672 99680 99688 99696 99704 99712 99720 99728 99736 99744 99752 99760 99768 99776 99784 99792 99800 99808 99816 99824 99832 99840 99848 99856 99864 99872 99880 99888 99896 99904 99912 99920 99928 99936 99944 99952 99960 99968 99976 99984 99992 100000 100008 100016 100024 100032 100040 100048 100056 100064 100072 100080 100088 100096 100104 100112 100120 100128 100136 100144 100152 100160 100168 100176 100184 100192 100200 100208 100216 100224 100232 100240 100248 100256 100264 100272 100280 100288 100296 100304 100312 100320 100328 100336 100344 100352 100360 100368 100376 100384 100392 100400 100408 100416 100424 100432 100440 100448 100456 100464 100472 100480 100488 100496 100504 100512 100520 100528 100536 100544 100552 100560 100568 100576 100584 100592 100600 100608 100616 100624 100632 100640 100648 100656 100664 100672 100680 100688 100696 100704 100712 100720 100728 100736 100744 100752 100760 100768 100776 100784 100792 100800 100808 100816 100824 100832 100840 100848 100856 100864 100872 100880 100888 100896 100904 100912 100920 100928 100936 100944 100952 100960 100968 100976 100984 100992 101000 101008 101016 101024 101032 101040 101048 101056 101064 101072 101080 101088 101096 101104 101112 101120 101128 101136 101144 101152 101160 101168 101176 101184 101192 101200 101208 101216 101224 101232 101240 101248 101256 101264 101272 101280 101288 101296 101304 101312 101320 101328 101336 101344 101352 101360 101368 101376 101384 101392 101400 101408 101416 101424 101432 101440 101448 101456 101464 101472 101480 101488 101496 101504 101512 101520 101528 101536 101544 101552 101560 101568 101576 101584 101592 101600 101608 101616 101624 101632 101640 101648 101656 101664 101672 101680 101688 101696 101704 101712 101720 101728 101736 101744 101752 101760 101768 101776 101784 101792 101800 101808 101816 101824 101832 101840 101848 101856 101864 101872 101880 101888 101896 101904 101912 101920 101928 101936 101944 101952 101960 101968 101976 101984 101992 102000 102008 102016 102024 102032 102040 102048 102056 102064 102072 102080 102088 102096 102104 102112 102120 102128 102136 102144 102152 102160 102168 102176 102184 102192 102200 102208 102216 102224 102232 102240 102248 102256 102264 102272 102280 102288 102296 102304 102312 102320 102328 102336 102344 102352 102360 102368 102376 102384 102392 102400 102408 102416 102424 102432 102440 102448 102456 102464 102472 102480 102488 102496 102504 102512 102520 102528 102536 102544 102552 102560 102568 102576 102584 102592 102600 102608 102616 102624 102632 102640 102648 102656 102664 102672 102680 102688 102696 102704 102712 102720 102728 102736 102744 102752 102760 102768 102776 102784 102792 102800 102808 102816 102824 102832 102840 102848 102856 102864 102872 102880 102888 102896 102904 102912 102920 102928 102936 102944 102952 102960 102968 102976 102984 102992 103000 103008 103016 103024 103032 103040 103048 103056 103064 103072 103080 103088 103096 103104 103112 103120 103128 103136 103144 103152 103160 103168 103176 103184 103192 103200 103208 103216 103224 103232 103240 103248 103256 103264 103272 103280 103288 103296 103304 103312 103320 103328 103336 103344 103352 103360 103368 103376 103384 103392 103400 103408 103416 103424 103432 103440 103448 103456 103464 103472 103480 103488 103496 103504 103512 103520 103528 103536 103544 103552 103560 103568 103576 103584 103592 103600 103608 103616 103624 103632 103640 103648 103656 103664 103672 103680 103688 103696 103704 103712 103720 103728 103736 103744 103752 103760 103768 103776 103784 103792 103800 103808 103816 103824 103832 103840 103848 103856 103864 103872 103880 103888 103896 103904 103912 103920 103928 103936 103944 103952 103960 103968 103976 103984 103992 104000 104008 104016 104024 104032 104040 104048 104056 104064 104072 104080 104088 104096 104104 104112 104120 104128 104136 104144 104152 104160 104168 104176 104184 104192 104200 104208 104216 104224 104232 104240 104248 104256 104264 104272 104280 104288 104296 104304 104312 104320 104328 104336 104344 104352 104360 104368 104376 104384 104392 104400 104408 104416 104424 104432 104440 104448 104456 104464 104472 104480 104488 104496 104504 104512 104520 104528 104536 104544 104552 104560 104568 104576 104584 104592 104600 104608 104616 104624 104632 104640 104648 104656 104664 104672 104680 104688 104696 104704 104712 104720 104728 104736 104744 104752 104760 104768 104776 104784 104792 104800 104808 104816 104824 104832 104840 104848 104856 104864 104872 104880 104888 104896 104904 104912 104920 104928 104936 104944 104952 104960 104968 104976 104984 104992 105000 105008 105016 105024 105032 105040 105048 105056 105064 105072 105080 105088 105096 105104 105112 105120 105128 105136 105144 105152 105160 105168 105176 105184 105192 105200 105208 105216 105224 105232 105240 105248 105256 105264 105272 105280 105288 105296 105304 105312 105320 105328 105336 105344 105352 105360 105368 105376 105384 105392 105400 105408 105416 105424 105432 105440 105448 105456 105464 105472 105480 105488 105496 105504 105512 105520 105528 105536 105544 105552 105560 105568 105576 105584 105592 105600 105608 105616 105624 105632 105640 105648 105656 105664 105672 105680 105688 105696 105704 105712 105720 105728 105736 105744 105752 105760 105768 105776 105784 105792 105800 105808 105816 105824 105832 105840 105848 105856 105864 105872 105880 105888 105896 105904 105912 105920 105928 105936 105944 105952 105960 105968 105976 105984 105992 106000 106008 106016 106024 106032 106040 106048 106056 106064 106072 106080 106088 106096 106104 106112 106120 106128 106136 106144 106152 106160 106168 106176 106184 106192 106200 106208 106216 106224 106232 106240 106248 106256 106264 106272 106280 106288 106296 106304 106312 106320 106328 106336 106344 106352 106360 106368 106376 106384 106392 106400 106408 106416 106424 106432 106440 106448 106456 106464 106472 106480 106488 106496 106504 106512 106520 106528 106536 106544 106552 106560 106568 106576 106584 106592 106600 106608 106616 106624 106632 106640 106648 106656 106664 106672 106680 106688 106696 106704 106712 106720 106728 106736 106744 106752 106760 106768 106776 106784 106792 106800 106808 106816 106824 106832 106840 106848 106856 106864 106872 106880 106888 106896 106904 106912 106920 106928 106936 106944 106952 106960 106968 106976 106984 106992 107000 107008 107016 107024 107032 107040 107048 107056 107064 107072 107080 107088 107096 107104 107112 107120 107128 107136 107144 107152 107160 107168 107176 107184 107192 107200 107208 107216 107224 107232 107240 107248 107256 107264 107272 107280 107288 107296 107304 107312 107320 107328 107336 107344 107352 107360 107368 107376 107384 107392 107400 107408 107416 107424 107432 107440 107448 107456 107464 107472 107480 107488 107496 107504 107512 107520 107528 107536 107544 107552 107560 107568 107576 107584 107592 107600 107608 107616 107624 107632 107640 107648 107656 107664 107672 107680 107688 107696 107704 107712 107720 107728 107736 107744 107752 107760 107768 107776 107784 107792 107800 107808 107816 107824 107832 107840 107848 107856 107864 107872 107880 107888 107896 107904 107912 107920 107928 107936 107944 107952 107960 107968 107976 107984 107992 108000 108008 108016 108024 108032 108040 108048 108056 108064 108072 108080 108088 108096 108104 108112 108120 108128 108136 108144 108152 108160 108168 108176 108184 108192 108200 108208 108216 108224 108232 108240 108248 108256 108264 108272 108280 108288 108296 108304 108312 108320 108328 108336 108344 108352 108360 108368 108376 108384 108392 108400 108408 108416 108424 108432 108440 108448 108456 108464 108472 108480 108488 108496 108504 108512 108520 108528 108536 108544 108552 108560 108568 108576 108584 108592 108600 108608 108616 108624 108632 108640 108648 108656 108664 108672 108680 108688 108696 108704 108712 108720 108728 108736 108744 108752 108760 108768 108776 108784 108792 108800 108808 108816 108824 108832 108840 108848 108856 108864 108872 108880 108888 108896 108904 108912 108920 108928 108936 108944 108952 108960 108968 108976 108984 108992 109000 109008 109016 109024 109032 109040 109048 109056 109064 109072 109080 109088 109096 109104 109112 109120 109128 109136 109144 109152 109160 109168 109176 109184 109192 109200 109208 109216 109224 109232 109240 109248 109256 109264 109272 109280 109288 109296 109304 109312 109320 109328 109336 109344 109352 109360 109368 109376 109384 109392 109400 109408 109416 109424 109432 109440 109448 109456 109464 109472 109480 109488 109496 109504 109512 109520 109528 109536 109544 109552 109560 109568 109576 109584 109592 109600 109608 109616 109624 109632 109640 109648 109656 109664 109672 109680 109688 109696 109704 109712 109720 109728 109736 109744 109752 109760 109768 109776 109784 109792 109800 109808 109816 109824 109832 109840 109848 109856 109864 109872 109880 109888 109896 109904 109912 109920 109928 109936 109944 109952 109960 109968 109976 109984 109992 110000 110008 110016 110024 110032 110040 110048 110056 110064 110072 110080 110088 110096 110104 110112 110120 110128 110136 110144 110152 110160 110168 110176 110184 110192 110200 110208 110216 110224 110232 110240 110248 110256 110264 110272 110280 110288 110296 110304 110312 110320 110328 110336 110344 110352 110360 110368 110376 110384 110392 110400 110408 110416 110424 110432 110440 110448 110456 110464 110472 110480 110488 110496 110504 110512 110520 110528 110536 110544 110552 110560 110568 110576 110584 110592 110600 110608 110616 110624 110632 110640 110648 110656 110664 110672 110680 110688 110696 110704 110712 110720 110728 110736 110744 110752 110760 110768 110776 110784 110792 110800 110808 110816 110824 110832 110840 110848 110856 110864 110872 110880 110888 110896 110904 110912 110920 110928 110936 110944 110952 110960 110968 110976 110984 110992 111000 111008 111016 111024 111032 111040 111048 111056 111064 111072 111080 111088 111096 111104 111112 111120 111128 111136 111144 111152 111160 111168 111176 111184 111192 111200 111208 111216 111224 111232 111240 111248 111256 111264 111272 111280 111288 111296 111304 111312 111320 111328 111336 111344 111352 111360 111368 111376 111384 111392 111400 111408 111416 111424 111432 111440 111448 111456 111464 111472 111480 111488 111496 111504 111512 111520 111528 111536 111544 111552 111560 111568 111576 111584 111592 111600 111608 111616 111624 111632 111640 111648 111656 111664 111672 111680 111688 111696 111704 111712 111720 111728 111736 111744 111752 111760 111768 111776 111784 111792 111800 111808 111816 111824 111832 111840 111848 111856 111864 111872 111880 111888 111896 111904 111912 111920 111928 111936 111944 111952 111960 111968 111976 111984 111992 112000 112008 112016 112024 112032 112040 112048 112056 112064 112072 112080 112088 112096 112104 112112 112120 112128 112136 112144 112152 112160 112168 112176 112184 112192 112200 112208 112216 112224 112232 112240 112248 112256 112264 112272 112280 112288 112296 112304 112312 112320 112328 112336 112344 112352 112360 112368 112376 112384 112392 112400 112408 112416 112424 112432 112440 112448 112456 112464 112472 112480 112488 112496 112504 112512 112520 112528 112536 112544 112552 112560 112568 112576 112584 112592 112600 112608 112616 112624 112632 112640 112648 112656 112664 112672 112680 112688 112696 112704 112712 112720 112728 112736 112744 112752 112760 112768 112776 112784 112792 112800 112808 112816 112824 112832 112840 112848 112856 112864 112872 112880 112888 112896 112904 112912 112920 112928 112936 112944 112952 112960 112968 112976 112984 112992 113000 113008 113016 113024 113032 113040 113048 113056 113064 113072 113080 113088 113096 113104 113112 113120 113128 113136 113144 113152 113160 113168 113176 113184 113192 113200 113208 113216 113224 113232 113240 113248 113256 113264 113272 113280 113288 113296 113304 113312 113320 113328 113336 113344 113352 113360 113368 113376 113384 113392 113400 113408 113416 113424 113432 113440 113448 113456 113464 113472 113480 113488 113496 113504 113512 113520 113528 113536 113544 113552 113560 113568 113576 113584 113592 113600 113608 113616 113624 113632 113640 113648 113656 113664 113672 113680 113688 113696 113704 113712 113720 113728 113736 113744 113752 113760 113768 113776 113784 113792 113800 113808 113816 113824 113832 113840 113848 113856 113864 113872 113880 113888 113896 113904 113912 113920 113928 113936 113944 113952 113960 113968 113976 113984 113992 114000 114008 114016 114024 114032 114040 114048 114056 114064 114072 114080 114088 114096 114104 114112 114120 114128 114136 114144 114152 114160 114168 114176 114184 114192 114200 114208 114216 114224 114232 114240 114248 114256 114264 114272 114280 114288 114296 114304 114312 114320 114328 114336 114344 114352 114360 114368 114376 114384 114392 114400 114408 114416 114424 114432 114440 114448 114456 114464 114472 114480 114488 114496 114504 114512 114520 114528 114536 114544 114552 114560 114568 114576 114584 114592 114600 114608 114616 114624 114632 114640 114648 114656 114664 114672 114680 114688 114696 114704 114712 114720 114728 114736 114744 114752 114760 114768 114776 114784 114792 114800 114808 114816 114824 114832 114840 114848 114856 114864 114872 114880 114888 114896 114904 114912 114920 114928 114936 114944 114952 114960 114968 114976 114984 114992 115000 115008 115016 115024 115032 115040 115048 115056 115064 115072 115080 115088 115096 115104 115112 115120 115128 115136 115144 115152 115160 115168 115176 115184 115192 115200 115208 115216 115224 115232 115240 115248 115256 115264 115272 115280 115288 115296 115304 115312 115320 115328 115336 115344 115352 115360 115368 115376 115384 115392 115400 115408 115416 115424 115432 115440 115448 115456 115464 115472 115480 115488 115496 115504 115512 115520 115528 115536 115544 115552 115560 115568 115576 115584 115592 115600 115608 115616 115624 115632 115640 115648 115656 115664 115672 115680 115688 115696 115704 115712 115720 115728 115736 115744 115752 115760 115768 115776 115784 115792 115800 115808 115816 115824 115832 115840 115848 115856 115864 115872 115880 115888 115896 115904 115912 115920 115928 115936 115944 115952 115960 115968 115976 115984 115992 116000 116008 116016 116024 116032 116040 116048 116056 116064 116072 116080 116088 116096 116104 116112 116120 116128 116136 116144 116152 116160 116168 116176 116184 116192 116200 116208 116216 116224 116232 116240 116248 116256 116264 116272 116280 116288 116296 116304 116312 116320 116328 116336 116344 116352 116360 116368 116376 116384 116392 116400 116408 116416 116424 116432 116440 116448 116456 116464 116472 116480 116488 116496 116504 116512 116520 116528 116536 116544 116552 116560 116568 116576 116584 116592 116600 116608 116616 116624 116632 116640 116648 116656 116664 116672 116680 116688 116696 116704 116712 116720 116728 116736 116744 116752 116760 116768 116776 116784 116792 116800 116808 116816 116824 116832 116840 116848 116856 116864 116872 116880 116888 116896 116904 116912 116920 116928 116936 116944 116952 116960 116968 116976 116984 116992 117000 117008 117016 117024 117032 117040 117048 117056 117064 117072 117080 117088 117096 117104 117112 117120 117128 117136 117144 117152 117160 117168 117176 117184 117192 117200 117208 117216 117224 117232 117240 117248 117256 117264 117272 117280 117288 117296 117304 117312 117320 117328 117336 117344 117352 117360 117368 117376 117384 117392 117400 117408 117416 117424 117432 117440 117448 117456 117464 117472 117480 117488 117496 117504 117512 117520 117528 117536 117544 117552 117560 117568 117576 117584 117592 117600 117608 117616 117624 117632 117640 117648 117656 117664 117672 117680 117688 117696 117704 117712 117720 117728 117736 117744 117752 117760 117768 117776 117784 117792 117800 117808 117816 117824 117832 117840 117848 117856 117864 117872 117880 117888 117896 117904 117912 117920 117928 117936 117944 117952 117960 117968 117976 117984 117992 118000 118008 118016 118024 118032 118040 118048 118056 118064 118072 118080 118088 118096 118104 118112 118120 118128 118136 118144 118152 118160 118168 118176 118184 118192 118200 118208 118216 118224 118232 118240 118248 118256 118264 118272 118280 118288 118296 118304 118312 118320 118328 118336 118344 118352 118360 118368 118376 118384 118392 118400 118408 118416 118424 118432 118440 118448 118456 118464 118472 118480 118488 118496 118504 118512 118520 118528 118536 118544 118552 118560 118568 118576 118584 118592 118600 118608 118616 118624 118632 118640 118648 118656 118664 118672 118680 118688 118696 118704 118712 118720 118728 118736 118744 118752 118760 118768 118776 118784 118792 118800 118808 118816 118824 118832 118840 118848 118856 118864 118872 118880 118888 118896 118904 118912 118920 118928 118936 118944 118952 118960 118968 118976 118984 118992 119000 119008 119016 119024 119032 119040 119048 119056 119064 119072 119080 119088 119096 119104 119112 119120 119128 119136 119144 119152 119160 119168 119176 119184 119192 119200 119208 119216 119224 119232 119240 119248 119256 119264 119272 119280 119288 119296 119304 119312 119320 119328 119336 119344 119352 119360 119368 119376 119384 119392 119400 119408 119416 119424 119432 119440 119448 119456 119464 119472 119480 119488 119496 119504 119512 119520 119528 119536 119544 119552 119560 119568 119576 119584 119592 119600 119608 119616 119624 119632 119640 119648 119656 119664 119672 119680 119688 119696 119704 119712 119720 119728 119736 119744 119752 119760 119768 119776 119784 119792 119800 119808 119816 119824 119832 119840 119848 119856 119864 119872 119880 119888 119896 119904 119912 119920 119928 119936 119944 119952 119960 119968 119976 119984 119992 120000 120008 120016 120024 120032 120040 120048 120056 120064 120072 120080 120088 120096 120104 120112 120120 120128 120136 120144 120152 120160 120168 120176 120184 120192 120200 120208 120216 120224 120232 120240 120248 120256 120264 120272 120280 120288 120296 120304 120312 120320 120328 120336 120344 120352 120360 120368 120376 120384 120392 120400 120408 120416 120424 120432 120440 120448 120456 120464 120472 120480 120488 120496 120504 120512 120520 120528 120536 120544 120552 120560 120568 120576 120584 120592 120600 120608 120616 120624 120632 120640 120648 120656 120664 120672 120680 120688 120696 120704 120712 120720 120728 120736 120744 120752 120760 120768 120776 120784 120792 120800 120808 120816 120824 120832 120840 120848 120856 120864 120872 120880 120888 120896 120904 120912 120920 120928 120936 120944 120952 120960 120968 120976 120984 120992 121000 121008 121016 121024 121032 121040 121048 121056 121064 121072 121080 121088 121096 121104 121112 121120 121128 121136 121144 121152 121160 121168 121176 121184 121192 121200 121208 121216 121224 121232 121240 121248 121256 121264 121272 121280 121288 121296 121304 121312 121320 121328 121336 121344 121352 121360 121368 121376 121384 121392 121400 121408 121416 121424 121432 121440 121448 121456 121464 121472 121480 121488 121496 121504 121512 121520 121528 121536 121544 121552 121560 121568 121576 121584 121592 121600 121608 121616 121624 121632 121640 121648 121656 121664 121672 121680 121688 121696 121704 121712 121720 121728 121736 121744 121752 121760 121768 121776 121784 121792 121800 121808 121816 121824 121832 121840 121848 121856 121864 121872 121880 121888 121896 121904 121912 121920 121928 121936 121944 121952 121960 121968 121976 121984 121992 122000 122008 122016 122024 122032 122040 122048 122056 122064 122072 122080 122088 122096 122104 122112 122120 122128 122136 122144 122152 122160 122168 122176 122184 122192 122200 122208 122216 122224 122232 122240 122248 122256 122264 122272 122280 122288 122296 122304 122312 122320 122328 122336 122344 122352 122360 122368 122376 122384 122392 122400 122408 122416 122424 122432 122440 122448 122456 122464 122472 122480 122488 122496 122504 122512 122520 122528 122536 122544 122552 122560 122568 122576 122584 122592 122600 122608 122616 122624 122632 122640 122648 122656 122664 122672 122680 122688 122696 122704 122712 122720 122728 122736 122744 122752 122760 122768 122776 122784 122792 122800 122808 122816 122824 122832 122840 122848 122856 122864 122872 122880 122888 122896 122904 122912 122920 122928 122936 122944 122952 122960 122968 122976 122984 122992 123000 123008 123016 123024 123032 123040 123048 123056 123064 123072 123080 123088 123096 123104 123112 123120 123128 123136 123144 123152 123160 123168 123176 123184 123192 123200 123208 123216 123224 123232 123240 123248 123256 123264 123272 123280 123288 123296 123304 123312 123320 123328 123336 123344 123352 123360 123368 123376 123384 123392 123400 123408 123416 123424 123432 123440 123448 123456 123464 123472 123480 123488 123496 123504 123512 123520 123528 123536 123544 123552 123560 123568 123576 123584 123592 123600 123608 123616 123624 123632 123640 123648 123656 123664 123672 123680 123688 123696 123704 123712 123720 123728 123736 123744 123752 123760 123768 123776 123784 123792 123800 123808 123816 123824 123832 123840 123848 123856 123864 123872 123880 123888 123896 123904 123912 123920 123928 123936 123944 123952 123960 123968 123976 123984 123992 124000 124008 124016 124024 124032 124040 124048 124056 124064 124072 124080 124088 124096 124104 124112 124120 124128 124136 124144 124152 124160 124168 124176 124184 124192 124200 124208 124216 124224 124232 124240 124248 124256 124264 124272 124280 124288 124296 124304 124312 124320 124328 124336 124344 124352 124360 124368 124376 124384 124392 124400 124408 124416 124424 124432 124440 124448 124456 124464 124472 124480 124488 124496 124504 124512 124520 124528 124536 124544 124552 124560 124568 124576 124584 124592 124600 124608 124616 124624 124632 124640 124648 124656 124664 124672 124680 124688 124696 124704 124712 124720 124728 124736 124744 124752 124760 124768 124776 124784 124792 124800 124808 124816 124824 124832 124840 124848 124856 124864 124872 124880 124888 124896 124904 124912 124920 124928 124936 124944 124952 124960 124968 124976 124984 124992 125000 125008 125016 125024 125032 125040 125048 125056 125064 125072 125080 125088 125096 125104 125112 125120 125128 125136 125144 125152 125160 125168 125176 125184 125192 125200 125208 125216 125224 125232 125240 125248 125256 125264 125272 125280 125288 125296 125304 125312 125320 125328 125336 125344 125352 125360 125368 125376 125384 125392 125400 125408 125416 125424 125432 125440 125448 125456 125464 125472 125480 125488 125496 125504 125512 125520 125528 125536 125544 125552 125560 125568 125576 125584 125592 125600 125608 125616 125624 125632 125640 125648 125656 125664 125672 125680 125688 125696 125704 125712 125720 125728 125736 125744 125752 125760 125768 125776 125784 125792 125800 125808 125816 125824 125832 125840 125848 125856 125864 125872 125880 125888 125896 125904 125912 125920 125928 125936 125944 125952 125960 125968 125976 125984 125992 126000 126008 126016 126024 126032 126040 126048 126056 126064 126072 126080 126088 126096 126104 126112 126120 126128 126136 126144 126152 126160 126168 126176 126184 126192 126200 126208 126216 126224 126232 126240 126248 126256 126264 126272 126280 126288 126296 126304 126312 126320 126328 126336 126344 126352 126360 126368 126376 126384 126392 126400 126408 126416 126424 126432 126440 126448 126456 126464 126472 126480 126488 126496 126504 126512 126520 126528 126536 126544 126552 126560 126568 126576 126584 126592 126600 126608 126616 126624 126632 126640 126648 126656 126664 126672 126680 126688 126696 126704 126712 126720 126728 126736 126744 126752 126760 126768 126776 126784 126792 126800 126808 126816 126824 126832 126840 126848 126856 126864 126872 126880 126888 126896 126904 126912 126920 126928 126936 126944 126952 126960 126968 126976 126984 126992 127000 127008 127016 127024 127032 127040 127048 127056 127064 127072 127080 127088 127096 127104 127112 127120 127128 127136 127144 127152 127160 127168 127176 127184 127192 127200 127208 127216 127224 127232 127240 127248 127256 127264 127272 127280 127288 127296 127304 127312 127320 127328 127336 127344 127352 127360 127368 127376 127384 127392 127400 127408 127416 127424 127432 127440 127448 127456 127464 127472 127480 127488 127496 127504 127512 127520 127528 127536 127544 127552 127560 127568 127576 127584 127592 127600 127608 127616 127624 127632 127640 127648 127656 127664 127672 127680 127688 127696 127704 127712 127720 127728 127736 127744 127752 127760 127768 127776 127784 127792 127800 127808 127816 127824 127832 127840 127848 127856 127864 127872 127880 127888 127896 127904 127912 127920 127928 127936 127944 127952 127960 127968 127976 127984 127992 128000 128008 128016 128024 128032 128040 128048 128056 128064 128072 128080 128088 128096 128104 128112 128120 128128 128136 128144 128152 128160 128168 128176 128184 128192 128200 128208 128216 128224 128232 128240 128248 128256 128264 128272 128280 128288 128296 128304 128312 128320 128328 128336 128344 128352 128360 128368 128376 128384 128392 128400 128408 128416 128424 128432 128440 128448 128456 128464 128472 128480 128488 128496 128504 128512 128520 128528 128536 128544 128552 128560 128568 128576 128584 128592 128600 128608 128616 128624 128632 128640 128648 128656 128664 128672 128680 128688 128696 128704 128712 128720 128728 128736 128744 128752 128760 128768 128776 128784 128792 128800 128808 128816 128824 128832 128840 128848 128856 128864 128872 128880 128888 128896 128904 128912 128920 128928 128936 128944 128952 128960 128968 128976 128984 128992 129000 129008 129016 129024 129032 129040 129048 129056 129064 129072 129080 129088 129096 129104 129112 129120 129128 129136 129144 129152 129160 129168 129176 129184 129192 129200 129208 129216 129224 129232 129240 129248 129256 129264 129272 129280 129288 129296 129304 129312 129320 129328 129336 129344 129352 129360 129368 129376 129384 129392 129400 129408 129416 129424 129432 129440 129448 129456 129464 129472 129480 129488 129496 129504 129512 129520 129528 129536 129544 129552 129560 129568 129576 129584 129592 129600 129608 129616 129624 129632 129640 129648 129656 129664 129672 129680 129688 129696 129704 129712 129720 129728 129736 129744 129752 129760 129768 129776 129784 129792 129800 129808 129816 129824 129832 129840 129848 129856 129864 129872 129880 129888 129896 129904 129912 129920 129928 129936 129944 129952 129960 129968 129976 129984 129992 130000 130008 130016 130024 130032 130040 130048 130056 130064 130072 130080 130088 130096 130104 130112 130120 130128 130136 130144 130152 130160 130168 130176 130184 130192 130200 130208 130216 130224 130232 130240 130248 130256 130264 130272 130280 130288 130296 130304 130312 130320 130328 130336 130344 130352 130360 130368 130376 130384 130392 130400 130408 130416 130424 130432 130440 130448 130456 130464 130472 130480 130488 130496 130504 130512 130520 130528 130536 130544 130552 130560 130568 130576 130584 130592 130600 130608 130616 130624 130632 130640 130648 130656 130664 130672 130680 130688 130696 130704 130712 130720 130728 130736 130744 130752 130760 130768 130776 130784 130792 130800 130808 130816 130824 130832 130840 130848 130856 130864 130872 130880 130888 130896 130904 130912 130920 130928 130936 130944 130952 130960 130968 130976 130984 130992 131000 131008 131016 131024 131032 131040 131048 131056 131064 131072 
CONNECTIVITY vtktypeint64
0 1 1106 1105 65 66 1171 1170 
1 2 1107 1106 66 67 1172 1171 
2 3 1108 1107 67 68 1173 1172 
3 4 1109 1108 68 69 1174 1173 
4 5 1110 1109 69 70 1175 1174 
5 6 1111 1110 70 71 1176 1175 
6 7 1112 1111 71 72 1177 1176 
7 8 1113 1112 72 73 1178 1177 
8 9 1114 1113 73 74 1179 1178 
9 10 1115 1114 74 75 1180 1179 
10 11 1116 1115 75 76 1181 1180 
11 12 1117 1116 76 77 1182 1181 
12 13 1118 1117 77 78 1183 1182 
13 14 1119 1118 78 79 1184 1183 
14 15 1120 1119 79 80 1185 1184 
15 16 1121 1120 80 81 1186 1185 
16 17 1122 1121 81 82 1187 1186 
17 18 1123 1122 82 83 1188 1187 
18 19 1124 1123 83 84 1189 1188 
19 20 1125 1124 84 85 1190 1189 
20 21 1126 1125 85 86 1191 1190 
21 22 1127 1126 86 87 1192 1191 
22 23 1128 1127 87 88 1193 1192 
23 24 1129 1128 88 89 1194 1193 
24 25 1130 1129 89 90 1195 1194 
25 26 1131 1130 90 91 1196 1195 
26 27 1132 1131 91 92 1197 1196 
27 28 1133 1132 92 93 1198 1197 
28 29 1134 1133 93 94 1199 1198 
29 30 1135 1134 94 95 1200 1199 
30 31 1136 1135 95 96 1201 1200 
31 32 1137 1136 96 97 1202 1201 
32 33 1138 1137 97 98 1203 1202 
33 34 1139 1138 98 99 1204 1203 
34 35 1140 1139 99 100 1205 1204 
35 36 1141 1140 100 101 1206 1205 
36 37 1142 1141 101 102 1207 1206 
37 38 1143 1142 102 103 1208 1207 
38 39 1144 1143 103 104 1209 1208 
39 40 1145 1144 104 105 1210 1209 
40 41 1146 1145 105 106 1211 1210 
41 42 1147 1146 106 107 1212 1211 
42 43 1148 1147 107 108 1213 1212 
43 44 1149 1148 108 109 1214 1213 
44 45 1150 1149 109 110 1215 1214 
45 46 1151 1150 110 111 1216 1215 
46 47 1152 1151 111 112 1217 1216 
47 48 1153 1152 112 113 1218 1217 
48 49 1154 1153 113 114 1219 1218 
49 50 1155 1154 114 115 1220 1219 
50 51 1156 1155 115 116 1221 1220 
51 52 1157 1156 116 117 1222 1221 
52 53 1158 1157 117 118 1223 1222 
53 54 1159 1158 118 119 1224 1223 
54 55 1160 1159 119 120 1225 1224 
55 56 1161 1160 120 121 1226 1225 
56 57 1162 1161 121 122 1227 1226 
57 58 1163 1162 122 123 1228 1227 
58 59 1164 1163 123 124 1229 1228 
59 60 1165 1164 124 125 1230 1229 
60 61 1166 1165 125 126 1231 1230 
61 62 1167 1166 126 127 1232 1231 
62 63 1168 1167 127 128 1233 1232 
63 64 1169 1168 128 129 1234 1233 
65 66 1171 1170 130 131 1236 1235 
66 67 1172 1171 131 132 1237 1236 
67 68 1173 1172 132 133 1238 1237 
68 69 1174 1173 133 134 1239 1238 
69 70 1175 1174 134 135 1240 1239 
70 71 1176 1175 135 136 1241 1240 
71 72 1177 1176 136 137 1242 1241 
72 73 1178 1177 137 138 1243 1242 
73 74 1179 1178 138 139 1244 1243 
74 75 1180 1179 139 140 1245 1244 
75 76 1181 1180 140 141 1246 1245 
76 77 1182 1181 141 142 1247 1246 
77 78 1183 1182 142 143 1248 1247 
78 79 1184 1183 143 144 1249 1248 
79 80 1185 1184 144 145 1250 1249 
80 81 1186 1185 145 146 1251 1250 
81 82 1187 1186 146 147 1252 1251 
82 83 1188 1187 147 148 1253 1252 
83 84 1189 1188 148 149 1254 1253 
84 85 1190 1189 149 150 1255 1254 
85 86 1191 1190 150 151 1256 1255 
86 87 1192 1191 151 152 1257 1256 
87 88 1193 1192 152 153 1258 1257 
88 89 1194 1193 153 154 1259 1258 
89 90 1195 1194 154 155 1260 1259 
90 91 1196 1195 155 156 1261 1260 
91 92 1197 1196 156 157 1262 1261 
92 93 1198 1197 157 158 1263 1262 
93 94 1199 1198 158 159 1264 1263 
94 95 1200 1199 159 160 1265 1264 
95 96 1201 1200 160 161 1266 1265 
96 97 1202 1201 161 162 1267 1266 
97 98 1203 1202 162 163 1268 1267 
98 99 1204 1203 163 164 1269 1268 
99 100 1205 1204 164 165 1270 1269 
100 101 1206 1205 165 166 1271 1270 
101 102 1207 1206 166 167 1272 1271 
102 103 1208 1207 167 168 1273 1272 
103 104 1209 1208 168 169 1274 1273 
104 105 1210 1209 169 170 1275 1274 
105 106 1211 1210 170 171 1276 1275 
106 107 1212 1211 171 172 1277 1276 
107 108 1213 1212 172 173 1278 1277 
108 109 1214 1213 173 174 1279 1278 
109 110 1215 1214 174 175 1280 1279 
110 111 1216 1215 175 176 1281 1280 
111 112 1217 1216 176 177 1282 1281 
112 113 1218 1217 177 178 1283 1282 
113 114 1219 1218 178 179 1284 1283 
114 115 1220 1219 179 180 1285 1284 
115 116 1221 1220 180 181 1286 1285 
116 117 1222 1221 181 182 1287 1286 
117 118 1223 1222 182 183 1288 1287 
118 119 1224 1223 183 184 1289 1288 
119 120 1225 1224 184 185 1290 1289 
120 121 1226 1225 185 186 1291 1290 
121 122 1227 1226 186 187 1292 1291 
122 123 1228 1227 187 188 1293 1292 
123 124 1229 1228 188 189 1294 1293 
124 125 1230 1229 189 190 1295 1294 
125 126 1231 1230 190 191 1296 1295 
126 127 1232 1231 191 192 1297 1296 
127 128 1233 1232 192 193 1298 1297 
128 129 1234 1233 193 194 1299 1298 
130 131 1236 1235 195 196 1301 1300 
131 132 1237 1236 196 197 1302 1301 
132 133 1238 1237 197 198 1303 1302 
133 134 1239 1238 198 199 1304 1303 
134 135 1240 1239 199 200 1305 1304 
135 136 1241 1240 200 201 1306 1305 
136 137 1242 1241 201 202 1307 1306 
137 138 1243 1242 202 203 1308 1307 
138 139 1244 1243 203 204 1309 1308 
139 140 1245 1244 204 205 1310 1309 
140 141 1246 1245 205 206 1311 1310 
141 142 1247 1246 206 207 1312 1311 
142 143 1248 1247 207 208 1313 1312 
143 144 1249 1248 208 209 1314 1313 
144 145 1250 1249 209 210 1315 1314 
145 146 1251 1250 210 211 1316 1315 
146 147 1252 1251 211 212 1317 1316 
147 148 1253 1252 212 213 1318 1317 
148 149 1254 1253 213 214 1319 1318 
149 150 1255 1254 214 215 1320 1319 
150 151 1256 1255 215 216 1321 1320 
151 152 1257 1256 216 217 1322 1321 
152 153 1258 1257 217 218 1323 1322 
153 154 1259 1258 218 219 1324 1323 
154 155 1260 1259 219 220 1325 1324 
155 156 1261 1260 220 221 1326 1325 
156 157 1262 1261 221 222 1327 1326 
157 158 1263 1262 222 223 1328 1327 
158 159 1264 1263 223 224 1329 1328 
159 160 1265 1264 224 225 1330 1329 
160 161 1266 1265 225 226 1331 1330 
161 162 1267 1266 226 227 1332 1331 
162 163 1268 1267 227 228 1333 1332 
163 164 1269 1268 228 229 1334 1333 
164 165 1270 1269 229 230 1335 1334 
165 166 1271 1270 230 231 1336 1335 
166 167 1272 1271 231 232 1337 1336 
167 168 1273 1272 232 233 1338 1337 
168 169 1274 1273 233 234 1339 1338 
169 170 1275 1274 234 235 1340 1339 
170 171 1276 1275 235 236 1341 1340 
171 172 1277 1276 236 237 1342 1341 
172 173 1278 1277 237 238 1343 1342 
173 174 1279 1278 238 239 1344 1343 
174 175 1280 1279 239 240 1345 1344 
175 176 1281 1280 240 241 1346 1345 
176 177 1282 1281 241 242 1347 1346 
177 178 1283 1282 242 243 1348 1347 
178 179 1284 1283 243 244 1349 1348 
179 180 1285 1284 244 245 1350 1349 
180 181 1286 1285 245 246 1351 1350 
181 182 1287 1286 246 247 1352 1351 
182 183 1288 1287 247 248 1353 1352 
183 184 1289 1288 248 249 1354 1353 
184 185 1290 1289 249 250 1355 1354 
185 186 1291 1290 250 251 1356 1355 
186 187 1292 1291 251 252 1357 1356 
187 188 1293 1292 252 253 1358 1357 
188 189 1294 1293 253 254 1359 1358 
189 190 1295 1294 254 255 1360 1359 
190 191 1296 1295 255 256 1361 1360 
191 192 1297 1296 256 257 1362 1361 
192 193 1298 1297 257 258 1363 1362 
193 194 1299 1298 258 259 1364 1363 
195 196 1301 1300 260 261 1366 1365 
196 197 1302 1301 261 262 1367 1366 
197 198 1303 1302 262 263 1368 1367 
198 199 1304 1303 263 264 1369 1368 
199 200 1305 1304 264 265 1370 1369 
200 201 1306 1305 265 266 1371 1370 
201 202 1307 1306 266 267 1372 1371 
202 203 1308 1307 267 268 1373 1372 
203 204 1309 1308 268 269 1374 1373 
204 205 1310 1309 269 270 1375 1374 
205 206 1311 1310 270 271 1376 1375 
206 207 1312 1311 271 272 1377 1376 
207 208 1313 1312 272 273 1378 1377 
208 209 1314 1313 273 274 1379 1378 
209 210 1315 1314 274 275 1380 1379 
210 211 1316 1315 275 276 1381 1380 
211 212 1317 1316 276 277 1382 1381 
212 213 1318 1317 277 278 1383 1382 
213 214 1319 1318 278 279 1384 1383 
214 215 1320 1319 279 280 1385 1384 
215 216 1321 1320 280 281 1386 1385 
216 217 1322 1321 281 282 1387 1386 
217 218 1323 1322 282 283 1388 1387 
218 219 1324 1323 283 284 1389 1388 
219 220 1325 1324 284 285 1390 1389 
220 221 1326 1325 285 286 1391 1390 
221 222 1327 1326 286 287 1392 1391 
222 223 1328 1327 287 288 1393 1392 
223 224 1329 1328 288 289 1394 1393 
224 225 1330 1329 289 290 1395 1394 
225 226 1331 1330 290 291 1396 1395 
226 227 1332 1331 291 292 1397 1396 
227 228 1333 1332 292 293 1398 1397 
228 229 1334 1333 293 294 1399 1398 
229 230 1335 1334 294 295 1400 1399 
230 231 1336 1335 295 296 1401 1400 
231 232 1337 1336 296 297 1402 1401 
232 233 1338 1337 297 298 1403 1402 
233 234 1339 1338 298 299 1404 1403 
234 235 1340 1339 299 300 1405 1404 
235 236 1341 1340 300 301 1406 1405 
236 237 1342 1341 301 302 1407 1406 
237 238 1343 1342 302 303 1408 1407 
238 239 1344 1343 303 304 1409 1408 
239 240 1345 1344 304 305 1410 1409 
240 241 1346 1345 305 306 1411 1410 
241 242 1347 1346 306 307 1412 1411 
242 243 1348 1347 307 308 1413 1412 
243 244 1349 1348 308 309 1414 1413 
244 245 1350 1349 309 310 1415 1414 
245 246 1351 1350 310 311 1416 1415 
246 247 1352 1351 311 312 1417 1416 
247 248 1353 1352 312 313 1418 1417 
248 249 1354 1353 313 314 1419 1418 
249 250 1355 1354 314 315 1420 1419 
250 251 1356 1355 315 316 1421 1420 
251 252 1357 1356 316 317 1422 1421 
252 253 1358 1357 317 318 1423 1422 
253 254 1359 1358 318 319 1424 1423 
254 255 1360 1359 319 320 1425 1424 
255 256 1361 1360 320 321 1426 1425 
256 257 1362 1361 321 322 1427 1426 
257 258 1363 1362 322 323 1428 1427 
258 259 1364 1363 323 324 1429 1428 
260 261 1366 1365 325 326 1431 1430 
261 262 1367 1366 326 327 1432 1431 
262 263 1368 1367 327 328 1433 1432 
263 264 1369 1368 328 329 1434 1433 
264 265 1370 1369 329 330 1435 1434 
265 266 1371 1370 330 331 1436 1435 
266 267 1372 1371 331 332 1437 1436 
267 268 1373 1372 332 333 1438 1437 
268 269 1374 1373 333 334 1439 1438 
269 270 1375 1374 334 335 1440 1439 
270 271 1376 1375 335 336 1441 1440 
271 272 1377 1376 336 337 1442 1441 
272 273 1378 1377 337 338 1443 1442 
273 274 1379 1378 338 339 1444 1443 
274 275 1380 1379 339 340 1445 1444 
275 276 1381 1380 340 341 1446 1445 
276 277 1382 1381 341 342 1447 1446 
277 278 1383 1382 342 343 1448 1447 
278 279 1384 1383 343 344 1449 1448 
279 280 1385 1384 344 345 1450 1449 
280 281 1386 1385 345 346 1451 1450 
281 282 1387 1386 346 347 1452 1451 
282 283 1388 1387 347 348 1453 1452 
283 284 1389 1388 348 349 1454 1453 
284 285 1390 1389 349 350 1455 1454 
285 286 1391 1390 350 351 1456 1455 
286 287 1392 1391 351 352 1457 1456 
287 288 1393 1392 352 353 1458 1457 
288 289 1394 1393 353 354 1459 1458 
289 290 1395 1394 354 355 1460 1459 
290 291 1396 1395 355 356 1461 1460 
291 292 1397 1396 356 357 1462 1461 
292 293 1398 1397 357 358 1463 1462 
293 294 1399 1398 358 359 1464 1463 
294 295 1400 1399 359 360 1465 1464 
295 296 1401 1400 360 361 1466 1465 
296 297 1402 1401 361 362 1467 1466 
297 298 1403 1402 362 363 1468 1467 
298 299 1404 1403 363 364 1469 1468 
299 300 1405 1404 364 365 1470 1469 
300 301 1406 1405 365 366 1471 1470 
301 302 1407 1406 366 367 1472 1471 
302 303 1408 1407 367 368 1473 1472 
303 304 1409 1408 368 369 1474 1473 
304 305 1410 1409 369 370 1475 1474 
305 306 1411 1410 370 371 1476 1475 
306 307 1412 1411 371 372 1477 1476 
307 308 1413 1412 372 373 1478 1477 
308 309 1414 1413 373 374 1479 1478 
309 310 1415 1414 374 375 1480 1479 
310 311 1416 1415 375 376 1481 1480 
311 312 1417 1416 376 377 1482 1481 
312 313 1418 1417 377 378 1483 1482 
313 314 1419 1418 378 379 1484 1483 
314 315 1420 1419 379 380 1485 1484 
315 316 1421 1420 380 381 1486 1485 
316 317 1422 1421 381 382 1487 1486 
317 318 1423 1422 382 383 1488 1487 
318 319 1424 1423 383 384 1489 1488 
319 320 1425 1424 384 385 1490 1489 
320 321 1426 1425 385 386 1491 1490 
321 322 1427 1426 386 387 1492 1491 
322 323 1428 1427 387 388 1493 1492 
323 324 1429 1428 388 389 1494 1493 
325 326 1431 1430 390 391 1496 1495 
326 327 1432 1431 391 392 1497 1496 
327 328 1433 1432 392 393 1498 1497 
328 329 1434 1433 393 394 1499 1498 
329 330 1435 1434 394 395 1500 1499 
330 331 1436 1435 395 396 1501 1500 
331 332 1437 1436 396 397 1502 1501 
332 333 1438 1437 397 398 1503 1502 
333 334 1439 1438 398 399 1504 1503 
334 335 1440 1439 399 400 1505 1504 
335 336 1441 1440 400 401 1506 1505 
336 337 1442 1441 401 402 1507 1506 
337 338 1443 1442 402 403 1508 1507 
338 339 1444 1443 403 404 1509 1508 
339 340 1445 1444 404 405 1510 1509 
340 341 1446 1445 405 406 1511 1510 
341 342 1447 1446 406 407 1512 1511 
342 343 1448 1447 407 408 1513 1512 
343 344 1449 1448 408 409 1514 1513 
344 345 1450 1449 409 410 1515 1514 
345 346 1451 1450 410 411 1516 1515 
346 347 1452 1451 411 412 1517 1516 
347 348 1453 1452 412 413 1518 1517 
348 349 1454 1453 413 414 1519 1518 
349 350 1455 1454 414 415 1520 1519 
350 351 1456 1455 415 416 1521 1520 
351 352 1457 1456 416 417 1522 1521 
352 353 1458 1457 417 418 1523 1522 
353 354 1459 1458 418 419 1524 1523 
354 355 1460 1459 419 420 1525 1524 
355 356 1461 1460 420 421 1526 1525 
356 357 1462 1461 421 422 1527 1526 
357 358 1463 1462 422 423 1528 1527 
358 359 1464 1463 423 424 1529 1528 
359 360 1465 1464 424 425 1530 1529 
360 361 1466 1465 425 426 1531 1530 
361 362 1467 1466 426 427 1532 1531 
362 363 1468 1467 427 428 1533 1532 
363 364 1469 1468 428 429 1534 1533 
364 365 1470 1469 429 430 1535 1534 
365 366 1471 1470 430 431 1536 1535 
366 367 1472 1471 431 432 1537 1536 
367 368 1473 1472 432 433 1538 1537 
368 369 1474 1473 433 434 1539 1538 
369 370 1475 1474 434 435 1540 1539 
370 371 1476 1475 435 436 1541 1540 
371 372 1477 1476 436 437 1542 1541 
372 373 1478 1477 437 438 1543 1542 
373 374 1479 1478 438 439 1544 1543 
374 375 1480 1479 439 440 1545 1544 
375 376 1481 1480 440 441 1546 1545 
376 377 1482 1481 441 442 1547 1546 
377 378 1483 1482 442 443 1548 1547 
378 379 1484 1483 443 444 1549 1548 
379 380 1485 1484 444 445 1550 1549 
380 381 1486 1485 445 446 1551 1550 
381 382 1487 1486 446 447 1552 1551 
382 383 1488 1487 447 448 1553 1552 
383 384 1489 1488 448 449 1554 1553 
384 385 1490 1489 449 450 1555 1554 
385 386 1491 1490 450 451 1556 1555 
386 387 1492 1491 451 452 1557 1556 
387 388 1493 1492 452 453 1558 1557 
388 389 1494 1493 453 454 1559 1558 
390 391 1496 1495 455 456 1561 1560 
391 392 1497 1496 456 457 1562 1561 
392 393 1498 1497 457 458 1563 1562 
393 394 1499 1498 458 459 1564 1563 
394 395 1500 1499 459 460 1565 1564 
395 396 1501 1500 460 461 1566 1565 
396 397 1502 1501 461 462 1567 1566 
397 398 1503 1502 462 463 1568 1567 
398 399 1504 1503 463 464 1569 1568 
399 400 1505 1504 464 465 1570 1569 
400 401 1506 1505 465 466 1571 1570 
401 402 1507 1506 466 467 1572 1571 
402 403 1508 1507 467 468 1573 1572 
403 404 1509 1508 468 469 1574 1573 
404 405 1510 1509 469 470 1575 1574 
405 406 1511 1510 470 471 1576 1575 
406 407 1512 1511 471 472 1577 1576 
407 408 1513 1512 472 473 1578 1577 
408 409 1514 1513 473 474 1579 1578 
409 410 1515 1514 474 475 1580 1579 
410 411 1516 1515 475 476 1581 1580 
411 412 1517 1516 476 477 1582 1581 
412 413 1518 1517 477 478 1583 1582 
413 414 1519 1518 478 479 1584 1583 
414 415 1520 1519 479 480 1585 1584 
415 416 1521 1520 480 481 1586 1585 
416 417 1522 1521 481 482 1587 1586 
417 418 1523 1522 482 483 1588 1587 
418 419 1524 1523 483 484 1589 1588 
419 420 1525 1524 484 485 1590 1589 
420 421 1526 1525 485 486 1591 1590 
421 422 1527 1526 486 487 1592 1591 
422 423 1528 1527 487 488 1593 1592 
423 424 1529 1528 488 489 1594 1593 
424 425 1530 1529 489 490 1595 1594 
425 426 1531 1530 490 491 1596 1595 
426 427 1532 1531 491 492 1597 1596 
427 428 1533 1532 492 493 1598 1597 
428 429 1534 1533 493 494 1599 1598 
429 430 1535 1534 494 495 1600 1599 
430 431 1536 1535 495 496 1601 1600 
431 432 1537 1536 496 497 1602 1601 
432 433 1538 1537 497 498 1603 1602 
433 434 1539 1538 498 499 1604 1603 
434 435 1540 1539 499 500 1605 1604 
435 436 1541 1540 500 501 1606 1605 
436 437 1542 1541 501 502 1607 1606 
437 438 1543 1542 502 503 1608 1607 
438 439 1544 1543 503 504 1609 1608 
439 440 1545 1544 504 505 1610 1609 
440 441 1546 1545 505 506 1611 1610 
441 442 1547 1546 506 507 1612 1611 
442 443 1548 1547 507 508 1613 1612 
443 444 1549 1548 508 509 1614 1613 
444 445 1550 1549 509 510 1615 1614 
445 446 1551 1550 510 511 1616 1615 
446 447 1552 1551 511 512 1617 1616 
447 448 1553 1552 512 513 1618 1617 
448 449 1554 1553 513 514 1619 1618 
449 450 1555 1554 514 515 1620 1619 
450 451 1556 1555 515 516 1621 1620 
451 452 1557 1556 516 517 1622 1621 
452 453 1558 1557 517 518 1623 1622 
453 454 1559 1558 518 519 1624 1623 
455 456 1561 1560 520 521 1626 1625 
456 457 1562 1561 521 522 1627 1626 
457 458 1563 1562 522 523 1628 1627 
458 459 1564 1563 523 524 1629 1628 
459 460 1565 1564 524 525 1630 1629 
460 461 1566 1565 525 526 1631 1630 
461 462 1567 1566 526 527 1632 1631 
462 463 1568 1567 527 528 1633 1632 
463 464 1569 1568 528 529 1634 1633 
464 465 1570 1569 529 530 1635 1634 
465 466 1571 1570 530 531 1636 1635 
466 467 1572 1571 531 532 1637 1636 
467 468 1573 1572 532 533 1638 1637 
468 469 1574 1573 533 534 1639 1638 
469 470 1575 1574 534 535 1640 1639 
470 471 1576 1575 535 536 1641 1640 
471 472 1577 1576 536 537 1642 1641 
472 473 1578 1577 537 538 1643 1642 
473 474 1579 1578 538 539 1644 1643 
474 475 1580 1579 539 540 1645 1644 
475 476 1581 1580 540 541 1646 1645 
476 477 1582 1581 541 542 1647 1646 
477 478 1583 1582 542 543 1648 1647 
478 479 1584 1583 543 544 1649 1648 
479 480 1585 1584 544 545 1650 1649 
480 481 1586 1585 545 546 1651 1650 
481 482 1587 1586 546 547 1652 1651 
482 483 1588 1587 547 548 1653 1652 
483 484 1589 1588 548 549 1654 1653 
484 485 1590 1589 549 550 1655 1654 
485 486 1591 1590 550 551 1656 1655 
486 487 1592 1591 551 552 1657 1656 
487 488 1593 1592 552 553 1658 1657 
488 489 1594 1593 553 554 1659 1658 
489 490 1595 1594 554 555 1660 1659 
490 491 1596 1595 555 556 1661 1660 
491 492 1597 1596 556 557 1662 1661 
492 493 1598 1597 557 558 1663 1662 
493 494 1599 1598 558 559 1664 1663 
494 495 1600 1599 559 560 1665 1664 
495 496 1601 1600 560 561 1666 1665 
496 497 1602 1601 561 562 1667 1666 
497 498 1603 1602 562 563 1668 1667 
498 499 1604 1603 563 564 1669 1668 
499 500 1605 1604 564 565 1670 1669 
500 501 1606 1605 565 566 1671 1670 
501 502 1607 1606 566 567 1672 1671 
502 503 1608 1607 567 568 1673 1672 
503 504 1609 1608 568 569 1674 1673 
504 505 1610 1609 569 570 1675 1674 
505 506 1611 1610 570 571 1676 1675 
506 507 1612 1611 571 572 1677 1676 
507 508 1613 1612 572 573 1678 1677 
508 509 1614 1613 573 574 1679 1678 
509 510 1615 1614 574 575 1680 1679 
510 511 1616 1615 575 576 1681 1680 
511 512 1617 1616 576 577 1682 1681 
512 513 1618 1617 577 578 1683 1682 
513 514 1619 1618 578 579 1684 1683 
514 515 1620 1619 579 580 1685 1684 
515 516 1621 1620 580 581 1686 1685 
516 517 1622 1621 581 582 1687 1686 
517 518 1623 1622 582 583 1688 1687 
518 519 1624 1623 583 584 1689 1688 
520 521 1626 1625 585 586 1691 1690 
521 522 1627 1626 586 587 1692 1691 
522 523 1628 1627 587 588 1693 1692 
523 524 1629 1628 588 589 1694 1693 
524 525 1630 1629 589 590 1695 1694 
525 526 1631 1630 590 591 1696 1695 
526 527 1632 1631 591 592 1697 1696 
527 528 1633 1632 592 593 1698 1697 
528 529 1634 1633 593 594 1699 1698 
529 530 1635 1634 594 595 1700 1699 
530 531 1636 1635 595 596 1701 1700 
531 532 1637 1636 596 597 1702 1701 
532 533 1638 1637 597 598 1703 1702 
533 534 1639 1638 598 599 1704 1703 
534 535 1640 1639 599 600 1705 1704 
535 536 1641 1640 600 601 1706 1705 
536 537 1642 1641 601 602 1707 1706 
537 538 1643 1642 602 603 1708 1707 
538 539 1644 1643 603 604 1709 1708 
539 540 1645 1644 604 605 1710 1709 
540 541 1646 1645 605 606 1711 1710 
541 542 1647 1646 606 607 1712 1711 
542 543 1648 1647 607 608 1713 1712 
543 544 1649 1648 608 609 1714 1713 
544 545 1650 1649 609 610 1715 1714 
545 546 1651 1650 610 611 1716 1715 
546 547 1652 1651 611 612 1717 1716 
547 548 1653 1652 612 613 1718 1717 
548 549 1654 1653 613 614 1719 1718 
549 550 1655 1654 614 615 1720 1719 
550 551 1656 1655 615 616 1721 1720 
551 552 1657 1656 616 617 1722 1721 
552 553 1658 1657 617 618 1723 1722 
553 554 1659 1658 618 619 1724 1723 
554 555 1660 1659 619 620 1725 1724 
555 556 1661 1660 620 621 1726 1725 
556 557 1662 1661 621 622 1727 1726 
557 558 1663 1662 622 623 1728 1727 
558 559 1664 1663 623 624 1729 1728 
559 560 1665 1664 624 625 1730 1729 
560 561 1666 1665 625 626 1731 1730 
561 562 1667 1666 626 627 1732 1731 
562 563 1668 1667 627 628 1733 1732 
563 564 1669 1668 628 629 1734 1733 
564 565 1670 1669 629 630 1735 1734 
565 566 1671 1670 630 631 1736 1735 
566 567 1672 1671 631 632 1737 1736 
567 568 1673 1672 632 633 1738 1737 
568 569 1674 1673 633 634 1739 1738 
569 570 1675 1674 634 635 1740 1739 
570 571 1676 1675 635 636 1741 1740 
571 572 1677 1676 636 637 1742 1741 
572 573 1678 1677 637 638 1743 1742 
573 574 1679 1678 638 639 1744 1743 
574 575 1680 1679 639 640 1745 1744 
575 576 1681 1680 640 641 1746 1745 
576 577 1682 1681 641 642 1747 1746 
577 578 1683 1682 642 643 1748 1747 
578 579 1684 1683 643 644 1749 1748 
579 580 1685 1684 644 645 1750 1749 
580 581 1686 1685 645 646 1751 1750 
581 582 1687 1686 646 647 1752 1751 
582 583 1688 1687 647 648 1753 1752 
583 584 1689 1688 648 649 1754 1753 
585 586 1691 1690 650 651 1756 1755 
586 587 1692 1691 651 652 1757 1756 
587 588 1693 1692 652 653 1758 1757 
588 589 1694 1693 653 654 1759 1758 
589 590 1695 1694 654 655 1760 1759 
590 591 1696 1695 655 656 1761 1760 
591 592 1697 1696 656 657 1762 1761 
592 593 1698 1697 657 658 1763 1762 
593 594 1699 1698 658 659 1764 1763 
594 595 1700 1699 659 660 1765 1764 
595 596 1701 1700 660 661 1766 1765 
596 597 1702 1701 661 662 1767 1766 
597 598 1703 1702 662 663 1768 1767 
598 599 1704 1703 663 664 1769 1768 
599 600 1705 1704 664 665 1770 1769 
600 601 1706 1705 665 666 1771 1770 
601 602 1707 1706 666 667 1772 1771 
602 603 1708 1707 667 668 1773 1772 
603 604 1709 1708 668 669 1774 1773 
604 605 1710 1709 669 670 1775 1774 
605 606 1711 1710 670 671 1776 1775 
606 607 1712 1711 671 672 1777 1776 
607 608 1713 1712 672 673 1778 1777 
608 609 1714 1713 673 674 1779 1778 
609 610 1715 1714 674 675 1780 1779 
610 611 1716 1715 675 676 1781 1780 
611 612 1717 1716 676 677 1782 1781 
612 613 1718 1717 677 678 1783 1782 
613 614 1719 1718 678 679 1784 1783 
614 615 1720 1719 679 680 1785 1784 
615 616 1721 1720 680 681 1786 1785 
616 617 1722 1721 681 682 1787 1786 
617 618 1723 1722 682 683 1788 1787 
618 619 1724 1723 683 684 1789 1788 
619 620 1725 1724 684 685 1790 1789 
620 621 1726 1725 685 686 1791 1790 
621 622 1727 1726 686 687 1792 1791 
622 623 1728 1727 687 688 1793 1792 
623 624 1729 1728 688 689 1794 1793 
624 625 1730 1729 689 690 1795 1794 
625 626 1731 1730 690 691 1796 1795 
626 627 1732 1731 691 692 1797 1796 
627 628 1733 1732 692 693 1798 1797 
628 629 1734 1733 693 694 1799 1798 
629 630 1735 1734 694 695 1800 1799 
630 631 1736 1735 695 696 1801 1800 
631 632 1737 1736 696 697 1802 1801 
632 633 1738 1737 697 698 1803 1802 
633 634 1739 1738 698 699 1804 1803 
634 635 1740 1739 699 700 1805 1804 
635 636 1741 1740 700 701 1806 1805 
636 637 1742 1741 701 702 1807 1806 
637 638 1743 1742 702 703 1808 1807 
638 639 1744 1743 703 704 1809 1808 
639 640 1745 1744 704 705 1810 1809 
640 641 1746 1745 705 706 1811 1810 
641 642 1747 1746 706 707 1812 1811 
642 643 1748 1747 707 708 1813 1812 
643 644 1749 1748 708 709 1814 1813 
644 645 1750 1749 709 710 1815 1814 
645 646 1751 1750 710 711 1816 1815 
646 647 1752 1751 711 712 1817 1816 
647 648 1753 1752 712 713 1818 1817 
648 649 1754 1753 713 714 1819 1818 
650 651 1756 1755 715 716 1821 1820 
651 652 1757 1756 716 717 1822 1821 
652 653 1758 1757 717 718 1823 1822 
653 654 1759 1758 718 719 1824 1823 
654 655 1760 1759 719 720 1825 1824 
655 656 1761 1760 720 721 1826 1825 
656 657 1762 1761 721 722 1827 1826 
657 658 1763 1762 722 723 1828 1827 
658 659 1764 1763 723 724 1829 1828 
659 660 1765 1764 724 725 1830 1829 
660 661 1766 1765 725 726 1831 1830 
661 662 1767 1766 726 727 1832 1831 
662 663 1768 1767 727 728 1833 1832 
663 664 1769 1768 728 729 1834 1833 
664 665 1770 1769 729 730 1835 1834 
665 666 1771 1770 730 731 1836 1835 
666 667 1772 1771 731 732 1837 1836 
667 668 1773 1772 732 733 1838 1837 
668 669 1774 1773 733 734 1839 1838 
669 670 1775 1774 734 735 1840 1839 
670 671 1776 1775 735 736 1841 1840 
671 672 1777 1776 736 737 1842 1841 
672 673 1778 1777 737 738 1843 1842 
673 674 1779 1778 738 739 1844 1843 
674 675 1780 1779 739 740 1845 1844 
675 676 1781 1780 740 741 1846 1845 
676 677 1782 1781 741 742 1847 1846 
677 678 1783 1782 742 743 1848 1847 
678 679 1784 1783 743 744 1849 1848 
679 680 1785 1784 744 745 1850 1849 
680 681 1786 1785 745 746 1851 1850 
681 682 1787 1786 746 747 1852 1851 
682 683 1788 1787 747 748 1853 1852 
683 684 1789 1788 748 749 1854 1853 
684 685 1790 1789 749 750 1855 1854 
685 686 1791 1790 750 751 1856 1855 
686 687 1792 1791 751 752 1857 1856 
687 688 1793 1792 752 753 1858 1857 
688 689 1794 1793 753 754 1859 1858 
689 690 1795 1794 754 755 1860 1859 
690 691 1796 1795 755 756 1861 1860 
691 692 1797 1796 756 757 1862 1861 
692 693 1798 1797 757 758 1863 1862 
693 694 1799 1798 758 759 1864 1863 
694 695 1800 1799 759 760 1865 1864 
695 696 1801 1800 760 761 1866 1865 
696 697 1802 1801 761 762 1867 1866 
697 698 1803 1802 762 763 1868 1867 
698 699 1804 1803 763 764 1869 1868 
699 700 1805 1804 764 765 1870 1869 
700 701 1806 1805 765 766 1871 1870 
701 702 1807 1806 766 767 1872 1871 
702 703 1808 1807 767 768 1873 1872 
703 704 1809 1808 768 769 1874 1873 
704 705 1810 1809 769 770 1875 1874 
705 706 1811 1810 770 771 1876 1875 
706 707 1812 1811 771 772 1877 1876 
707 708 1813 1812 772 773 1878 1877 
708 709 1814 1813 773 774 1879 1878 
709 710 1815 1814 774 775 1880 1879 
710 711 1816 1815 775 776 1881 1880 
711 712 1817 1816 776 777 1882 1881 
712 713 1818 1817 777 778 1883 1882 
713 714 1819 1818 778 779 1884 1883 
715 716 1821 1820 780 781 1886 1885 
716 717 1822 1821 781 782 1887 1886 
717 718 1823 1822 782 783 1888 1887 
718 719 1824 1823 783 784 1889 1888 
719 720 1825 1824 784 785 1890 1889 
720 721 1826 1825 785 786 1891 1890 
721 722 1827 1826 786 787 1892 1891 
722 723 1828 1827 787 788 1893 1892 
723 724 1829 1828 788 789 1894 1893 
724 725 1830 1829 789 790 1895 1894 
725 726 1831 1830 790 791 1896 1895 
726 727 1832 1831 791 792 1897 1896 
727 728 1833 1832 792 793 1898 1897 
728 729 1834 1833 793 794 1899 1898 
729 730 1835 1834 794 795 1900 1899 
730 731 1836 1835 795 796 1901 1900 
731 732 1837 1836 796 797 1902 1901 
732 733 1838 1837 797 798 1903 1902 
733 734 1839 1838 798 799 1904 1903 
734 735 1840 1839 799 800 1905 1904 
735 736 1841 1840 800 801 1906 1905 
736 737 1842 1841 801 802 1907 1906 
737 738 1843 1842 802 803 1908 1907 
738 739 1844 1843 803 804 1909 1908 
739 740 1845 1844 804 805 1910 1909 
740 741 1846 1845 805 806 1911 1910 
741 742 1847 1846 806 807 1912 1911 
742 743 1848 1847 807 808 1913 1912 
743 744 1849 1848 808 809 1914 1913 
744 745 1850 1849 809 810 1915 1914 
745 746 1851 1850 810 811 1916 1915 
746 747 1852 1851 811 812 1917 1916 
747 748 1853 1852 812 813 1918 1917 
748 749 1854 1853 813 814 1919 1918 
749 750 1855 1854 814 815 1920 1919 
750 751 1856 1855 815 816 1921 1920 
751 752 1857 1856 816 817 1922 1921 
752 753 1858 1857 817 818 1923 1922 
753 754 1859 1858 818 819 1924 1923 
754 755 1860 1859 819 820 1925 1924 
755 756 1861 1860 820 821 1926 1925 
756 757 1862 1861 821 822 1927 1926 
757 758 1863 1862 822 823 1928 1927 
758 759 1864 1863 823 824 1929 1928 
759 760 1865 1864 824 825 1930 1929 
760 761 1866 1865 825 826 1931 1930 
761 762 1867 1866 826 827 1932 1931 
762 763 1868 1867 827 828 1933 1932 
763 764 1869 1868 828 829 1934 1933 
764 765 1870 1869 829 830 1935 1934 
765 766 1871 1870 830 831 1936 1935 
766 767 1872 1871 831 832 1937 1936 
767 768 1873 1872 832 833 1938 1937 
768 769 1874 1873 833 834 1939 1938 
769 770 1875 1874 834 835 1940 1939 
770 771 1876 1875 835 836 1941 1940 
771 772 1877 1876 836 837 1942 1941 
772 773 1878 1877 837 838 1943 1942 
773 774 1879 1878 838 839 1944 1943 
774 775 1880 1879 839 840 1945 1944 
775 776 1881 1880 840 841 1946 1945 
776 777 1882 1881 841 842 1947 1946 
777 778 1883 1882 842 843 1948 1947 
778 779 1884 1883 843 844 1949 1948 
780 781 1886 1885 845 846 1951 1950 
781 782 1887 1886 846 847 1952 1951 
782 783 1888 1887 847 848 1953 1952 
783 784 1889 1888 848 849 1954 1953 
784 785 1890 1889 849 850 1955 1954 
785 786 1891 1890 850 851 1956 1955 
786 787 1892 1891 851 852 1957 1956 
787 788 1893 1892 852 853 1958 1957 
788 789 1894 1893 853 854 1959 1958 
789 790 1895 1894 854 855 1960 1959 
790 791 1896 1895 855 856 1961 1960 
791 792 1897 1896 856 857 1962 1961 
792 793 1898 1897 857 858 1963 1962 
793 794 1899 1898 858 859 1964 1963 
794 795 1900 1899 859 860 1965 1964 
795 796 1901 1900 860 861 1966 1965 
796 797 1902 1901 861 862 1967 1966 
797 798 1903 1902 862 863 1968 1967 
798 799 1904 1903 863 864 1969 1968 
799 800 1905 1904 864 865 1970 1969 
800 801 1906 1905 865 866 1971 1970 
801 802 1907 1906 866 867 1972 1971 
802 803 1908 1907 867 868 1973 1972 
803 804 1909 1908 868 869 1974 1973 
804 805 1910 1909 869 870 1975 1974 
805 806 1911 1910 870 871 1976 1975 
806 807 1912 1911 871 872 1977 1976 
807 808 1913 1912 872 873 1978 1977 
808 809 1914 1913 873 874 1979 1978 
809 810 1915 1914 874 875 1980 1979 
810 811 1916 1915 875 876 1981 1980 
811 812 1917 1916 876 877 1982 1981 
812 813 1918 1917 877 878 1983 1982 
813 814 1919 1918 878 879 1984 1983 
814 815 1920 1919 879 880 1985 1984 
815 816 1921 1920 880 881 1986 1985 
816 817 1922 1921 881 882 1987 1986 
817 818 1923 1922 882 883 1988 1987 
818 819 1924 1923 883 884 1989 1988 
819 820 1925 1924 884 885 1990 1989 
820 821 1926 1925 885 886 1991 1990 
821 822 1927 1926 886 887 1992 1991 
822 823 1928 1927 887 888 1993 1992 
823 824 1929 1928 888 889 1994 1993 
824 825 1930 1929 889 890 1995 1994 
825 826 1931 1930 890 891 1996 1995 
826 827 1932 1931 891 892 1997 1996 
827 828 1933 1932 892 893 1998 1997 
828 829 1934 1933 893 894 1999 1998 
829 830 1935 1934 894 895 2000 1999 
830 831 1936 1935 895 896 2001 2000 
831 832 1937 1936 896 897 2002 2001 
832 833 1938 1937 897 898 2003 2002 
833 834 1939 1938 898 899 2004 2003 
834 835 1940 1939 899 900 2005 2004 
835 836 1941 1940 900 901 2006 2005 
836 837 1942 1941 901 902 2007 2006 
837 838 1943 1942 902 903 2008 2007 
838 839 1944 1943 903 904 2009 2008 
839 840 1945 1944 904 905 2010 2009 
840 841 1946 1945 905 906 2011 2010 
841 842 1947 1946 906 907 2012 2011 
842 843 1948 1947 907 908 2013 2012 
843 844 1949 1948 908 909 2014 2013 
845 846 1951 1950 910 911 2016 2015 
846 847 1952 1951 911 912 2017 2016 
847 848 1953 1952 912 913 2018 2017 
848 849 1954 1953 913 914 2019 2018 
849 850 1955 1954 914 915 2020 2019 
850 851 1956 1955 915 916 2021 2020 
851 852 1957 1956 916 917 2022 2021 
852 853 1958 1957 917 918 2023 2022 
853 854 1959 1958 918 919 2024 2023 
854 855 1960 1959 919 920 2025 2024 
855 856 1961 1960 920 921 2026 2025 
856 857 1962 1961 921 922 2027 2026 
857 858 1963 1962 922 923 2028 2027 
858 859 1964 1963 923 924 2029 2028 
859 860 1965 1964 924 925 2030 2029 
860 861 1966 1965 925 926 2031 2030 
861 862 1967 1966 926 927 2032 2031 
862 863 1968 1967 927 928 2033 2032 
863 864 1969 1968 928 929 2034 2033 
864 865 1970 1969 929 930 2035 2034 
865 866 1971 1970 930 931 2036 2035 
866 867 1972 1971 931 932 2037 2036 
867 868 1973 1972 932 933 2038 2037 
868 869 1974 1973 933 934 2039 2038 
869 870 1975 1974 934 935 2040 2039 
870 871 1976 1975 935 936 2041 2040 
871 872 1977 1976 936 937 2042 2041 
872 873 1978 1977 937 938 2043 2042 
873 874 1979 1978 938 939 2044 2043 
874 875 1980 1979 939 940 2045 2044 
875 876 1981 1980 940 941 2046 2045 
876 877 1982 1981 941 942 2047 2046 
877 878 1983 1982 942 943 2048 2047 
878 879 1984 1983 943 944 2049 2048 
879 880 1985 1984 944 945 2050 2049 
880 881 1986 1985 945 946 2051 2050 
881 882 1987 1986 946 947 2052 2051 
882 883 1988 1987 947 948 2053 2052 
883 884 1989 1988 948 949 2054 2053 
884 885 1990 1989 949 950 2055 2054 
885 886 1991 1990 950 951 2056 2055 
886 887 1992 1991 951 952 2057 2056 
887 888 1993 1992 952 953 2058 2057 
888 889 1994 1993 953 954 2059 2058 
889 890 1995 1994 954 955 2060 2059 
890 891 1996 1995 955 956 2061 2060 
891 892 1997 1996 956 957 2062 2061 
892 893 1998 1997 957 958 2063 2062 
893 894 1999 1998 958 959 2064 2063 
894 895 2000 1999 959 960 2065 2064 
895 896 2001 2000 960 961 2066 2065 
896 897 2002 2001 961 962 2067 2066 
897 898 2003 2002 962 963 2068 2067 
898 899 2004 2003 963 964 2069 2068 
899 900 2005 2004 964 965 2070 2069 
900 901 2006 2005 965 966 2071 2070 
901 902 2007 2006 966 967 2072 2071 
902 903 2008 2007 967 968 2073 2072 
903 904 2009 2008 968 969 2074 2073 
904 905 2010 2009 969 970 2075 2074 
905 906 2011 2010 970 971 2076 2075 
906 907 2012 2011 971 972 2077 2076 
907 908 2013 2012 972 973 2078 2077 
908 909 2014 2013 973 974 2079 2078 
910 911 2016 2015 975 976 2081 2080 
911 912 2017 2016 976 977 2082 2081 
912 913 2018 2017 977 978 2083 2082 
913 914 2019 2018 978 979 2084 2083 
914 915 2020 2019 979 980 2085 2084 
915 916 2021 2020 980 981 2086 2085 
916 917 2022 2021 981 982 2087 2086 
917 918 2023 2022 982 983 2088 2087 
918 919 2024 2023 983 984 2089 2088 
919 920 2025 2024 984 985 2090 2089 
920 921 2026 2025 985 986 2091 2090 
921 922 2027 2026 986 987 2092 2091 
922 923 2028 2027 987 988 2093 2092 
923 924 2029 2028 988 989 2094 2093 
924 925 2030 2029 989 990 2095 2094 
925 926 2031 2030 990 991 2096 2095 
926 927 2032 2031 991 992 2097 2096 
927 928 2033 2032 992 993 2098 2097 
928 929 2034 2033 993 994 2099 2098 
929 930 2035 2034 994 995 2100 2099 
930 931 2036 2035 995 996 2101 2100 
931 932 2037 2036 996 997 2102 2101 
932 933 2038 2037 997 998 2103 2102 
933 934 2039 2038 998 999 2104 2103 
934 935 2040 2039 999 1000 2105 2104 
935 936 2041 2040 1000 1001 2106 2105 
936 937 2042 2041 1001 1002 2107 2106 
937 938 2043 2042 1002 1003 2108 2107 
938 939 2044 2043 1003 1004 2109 2108 
939 940 2045 2044 1004 1005 2110 2109 
940 941 2046 2045 1005 1006 2111 2110 
941 942 2047 2046 1006 1007 2112 2111 
942 943 2048 2047 1007 1008 2113 2112 
943 944 2049 2048 1008 1009 2114 2113 
944 945 2050 2049 1009 1010 2115 2114 
945 946 2051 2050 1010 1011 2116 2115 
946 947 2052 2051 1011 1012 2117 2116 
947 948 2053 2052 1012 1013 2118 2117 
948 949 2054 2053 1013 1014 2119 2118 
949 950 2055 2054 1014 1015 2120 2119 
950 951 2056 2055 1015 1016 2121 2120 
951 952 2057 2056 1016 1017 2122 2121 
952 953 2058 2057 1017 1018 2123 2122 
953 954 2059 2058 1018 1019 2124 2123 
954 955 2060 2059 1019 1020 2125 2124 
955 956 2061 2060 1020 1021 2126 2125 
956 957 2062 2061 1021 1022 2127 2126 
957 958 2063 2062 1022 1023 2128 2127 
958 959 2064 2063 1023 1024 2129 2128 
959 960 2065 2064 1024 1025 2130 2129 
960 961 2066 2065 1025 1026 2131 2130 
961 962 2067 2066 1026 1027 2132 2131 
962 963 2068 2067 1027 1028 2133 2132 
963 964 2069 2068 1028 1029 2134 2133 
964 965 2070 2069 1029 1030 2135 2134 
965 966 2071 2070 1030 1031 2136 2135 
966 967 2072 2071 1031 1032 2137 2136 
967 968 2073 2072 1032 1033 2138 2137 
968 969 2074 2073 1033 1034 2139 2138 
969 970 2075 2074 1034 1035 2140 2139 
970 971 2076 2075 1035 1036 2141 2140 
971 972 2077 2076 1036 1037 2142 2141 
972 973 2078 2077 1037 1038 2143 2142 
973 974 2079 2078 1038 1039 2144 2143 
975 976 2081 2080 1040 1041 2146 2145 
976 977 2082 2081 1041 1042 2147 2146 
977 978 2083 2082 1042 1043 2148 2147 
978 979 2084 2083 1043 1044 2149 2148 
979 980 2085 2084 1044 1045 2150 2149 
980 981 2086 2085 1045 1046 2151 2150 
981 982 2087 2086 1046 1047 2152 2151 
982 983 2088 2087 1047 1048 2153 2152 
983 984 2089 2088 1048 1049 2154 2153 
984 985 2090 2089 1049 1050 2155 2154 
985 986 2091 2090 1050 1051 2156 2155 
986 987 2092 2091 1051 1052 2157 2156 
987 988 2093 2092 1052 1053 2158 2157 
988 989 2094 2093 1053 1054 2159 2158 
989 990 2095 2094 1054 1055 2160 2159 
990 991 2096 2095 1055 1056 2161 2160 
991 992 2097 2096 1056 1057 2162 2161 
992 993 2098 2097 1057 1058 2163 2162 
993 994 2099 2098 1058 1059 2164 2163 
994 995 2100 2099 1059 1060 2165 2164 
995 996 2101 2100 1060 1061 2166 2165 
996 997 2102 2101 1061 1062 2167 2166 
997 998 2103 2102 1062 1063 2168 2167 
998 999 2104 2103 1063 1064 2169 2168 
999 1000 2105 2104 1064 1065 2170 2169 
1000 1001 2106 2105 1065 1066 2171 2170 
1001 1002 2107 2106 1066 1067 2172 2171 
1002 1003 2108 2107 1067 1068 2173 2172 
1003 1004 2109 2108 1068 1069 2174 2173 
1004 1005 2110 2109 1069 1070 2175 2174 
1005 1006 2111 2110 1070 1071 2176 2175 
1006 1007 2112 2111 1071 1072 2177 2176 
1007 1008 2113 2112 1072 1073 2178 2177 
1008 1009 2114 2113 1073 1074 2179 2178 
1009 1010 2115 2114 1074 1075 2180 2179 
1010 1011 2116 2115 1075 1076 2181 2180 
1011 1012 2117 2116 1076 1077 2182 2181 
1012 1013 2118 2117 1077 1078 2183 2182 
1013 1014 2119 2118 1078 1079 2184 2183 
1014 1015 2120 2119 1079 1080 2185 2184 
1015 1016 2121 2120 1080 1081 2186 2185 
1016 1017 2122 2121 1081 1082 2187 2186 
1017 1018 2123 2122 1082 1083 2188 2187 
1018 1019 2124 2123 1083 1084 2189 2188 
1019 1020 2125 2124 1084 1085 2190 2189 
1020 1021 2126 2125 1085 1086 2191 2190 
1021 1022 2127 2126 1086 1087 2192 2191 
1022 1023 2128 2127 1087 1088 2193 2192 
1023 1024 2129 2128 1088 1089 2194 2193 
1024 1025 2130 2129 1089 1090 2195 2194 
1025 1026 2131 2130 1090 1091 2196 2195 
1026 1027 2132 2131 1091 1092 2197 2196 
1027 1028 2133 2132 1092 1093 2198 2197 
1028 1029 2134 2133 1093 1094 2199 2198 
1029 1030 2135 2134 1094 1095 2200 2199 
1030 1031 2136 2135 1095 1096 2201 2200 
1031 1032 2137 2136 1096 1097 2202 2201 
1032 1033 2138 2137 1097 1098 2203 2202 
1033 1034 2139 2138 1098 1099 2204 2203 
1034 1035 2140 2139 1099 1100 2205 2204 
1035 1036 2141 2140 1100 1101 2206 2205 
1036 1037 2142 2141 1101 1102 2207 2206 
1037 1038 2143 2142 1102 1103 2208 2207 
1038 1039 2144 2143 1103 1104 2209 2208 
1105 1106 2211 2210 1170 1171 2276 2275 
1106 1107 2212 2211 1171 1172 2277 2276 
1107 1108 2213 2212 1172 1173 2278 2277 
1108 1109 2214 2213 1173 1174 2279 2278 
1109 1110 2215 2214 1174 1175 2280 2279 
1110 1111 2216 2215 1175 1176 2281 2280 
1111 1112 2217 2216 1176 1177 2282 2281 
1112 1113 2218 2217 1177 1178 2283 2282 
1113 1114 2219 2218 1178 1179 2284 2283 
1114 1115 2220 2219 1179 1180 2285 2284 
1115 1116 2221 2220 1180 1181 2286 2285 
1116 1117 2222 2221 1181 1182 2287 2286 
1117 1118 2223 2222 1182 1183 2288 2287 
1118 1119 2224 2223 1183 1184 2289 2288 
1119 1120 2225 2224 1184 1185 2290 2289 
1120 1121 2226 2225 1185 1186 2291 2290 
1121 1122 2227 2226 1186 1187 2292 2291 
1122 1123 2228 2227 1187 1188 2293 2292 
1123 1124 2229 2228 1188 1189 2294 2293 
1124 1125 2230 2229 1189 1190 2295 2294 
1125 1126 2231 2230 1190 1191 2296 2295 
1126 1127 2232 2231 1191 1192 2297 2296 
1127 1128 2233 2232 1192 1193 2298 2297 
1128 1129 2234 2233 1193 1194 2299 2298 
1129 1130 2235 2234 1194 1195 2300 2299 
1130 1131 2236 2235 1195 1196 2301 2300 
1131 1132 2237 2236 1196 1197 2302 2301 
1132 1133 2238 2237 1197 1198 2303 2302 
1133 1134 2239 2238 1198 1199 2304 2303 
1134 1135 2240 2239 1199 1200 2305 2304 
1135 1136 2241 2240 1200 1201 2306 2305 
1136 1137 2242 2241 1201 1202 2307 2306 
1137 1138 2243 2242 1202 1203 2308 2307 
1138 1139 2244 2243 1203 1204 2309 2308 
1139 1140 2245 2244 1204 1205 2310 2309 
1140 1141 2246 2245 1205 1206 2311 2310 
1141 1142 2247 2246 1206 1207 2312 2311 
1142 1143 2248 2247 1207 1208 2313 2312 
1143 1144 2249 2248 1208 1209 2314 2313 
1144 1145 2250 2249 1209 1210 2315 2314 
1145 1146 2251 2250 1210 1211 2316 2315 
1146 1147 2252 2251 1211 1212 2317 2316 
1147 1148 2253 2252 1212 1213 2318 2317 
1148 1149 2254 2253 1213 1214 2319 2318 
1149 1150 2255 2254 1214 1215 2320 2319 
1150 1151 2256 2255 1215 1216 2321 2320 
1151 1152 2257 2256 1216 1217 2322 2321 
1152 1153 2258 2257 1217 1218 2323 2322 
1153 1154 2259 2258 1218 1219 2324 2323 
1154 1155 2260 2259 1219 1220 2325 2324 
1155 1156 2261 2260 1220 1221 2326 2325 
1156 1157 2262 2261 1221 1222 2327 2326 
1157 1158 2263 2262 1222 1223 2328 2327 
1158 1159 2264 2263 1223 1224 2329 2328 
1159 1160 2265 2264 1224 1225 2330 2329 
1160 1161 2266 2265 1225 1226 2331 2330 
1161 1162 2267 2266 1226 1227 2332 2331 
1162 1163 2268 2267 1227 1228 2333 2332 
1163 1164 2269 2268 1228 1229 2334 2333 
1164 1165 2270 2269 1229 1230 2335 2334 
1165 1166 2271 2270 1230 1231 2336 2335 
1166 1167 2272 2271 1231 1232 2337 2336 
1167 1168 2273 2272 1232 1233 2338 2337 
1168 1169 2274 2273 1233 1234 2339 2338 
1170 1171 2276 2275 1235 1236 2341 2340 
1171 1172 2277 2276 1236 1237 2342 2341 
1172 1173 2278 2277 1237 1238 2343 2342 
1173 1174 2279 2278 1238 1239 2344 2343 
1174 1175 2280 2279 1239 1240 2345 2344 
1175 1176 2281 2280 1240 1241 2346 2345 
1176 1177 2282 2281 1241 1242 2347 2346 
1177 1178 2283 2282 1242 1243 2348 2347 
1178 1179 2284 2283 1243 1244 2349 2348 
1179 1180 2285 2284 1244 1245 2350 2349 
1180 1181 2286 2285 1245 1246 2351 2350 
1181 1182 2287 2286 1246 1247 2352 2351 
1182 1183 2288 2287 1247 1248 2353 2352 
1183 1184 2289 2288 1248 1249 2354 2353 
1184 1185 2290 2289 1249 1250 2355 2354 
1185 1186 2291 2290 1250 1251 2356 2355 
1186 1187 2292 2291 1251 1252 2357 2356 
1187 1188 2293 2292 1252 1253 2358 2357 
1188 1189 2294 2293 1253 1254 2359 2358 
1189 1190 2295 2294 1254 1255 2360 2359 
1190 1191 2296 2295 1255 1256 2361 2360 
1191 1192 2297 2296 1256 1257 2362 2361 
1192 1193 2298 2297 1257 1258 2363 2362 
1193 1194 2299 2298 1258 1259 2364 2363 
1194 1195 2300 2299 1259 1260 2365 2364 
1195 1196 2301 2300 1260 1261 2366 2365 
1196 1197 2302 2301 1261 1262 2367 2366 
1197 1198 2303 2302 1262 1263 2368 2367 
1198 1199 2304 2303 1263 1264 2369 2368 
1199 1200 2305 2304 1264 1265 2370 2369 
1200 1201 2306 2305 1265 1266 2371 2370 
1201 1202 2307 2306 1266 1267 2372 2371 
1202 1203 2308 2307 1267 1268 2373 2372 
1203 1204 2309 2308 1268 1269 2374 2373 
1204 1205 2310 2309 1269 1270 2375 2374 
1205 1206 2311 2310 1270 1271 2376 2375 
1206 1207 2312 2311 1271 1272 2377 2376 
1207 1208 2313 2312 1272 1273 2378 2377 
1208 1209 2314 2313 1273 1274 2379 2378 
1209 1210 2315 2314 1274 1275 2380 2379 
1210 1211 2316 2315 1275 1276 2381 2380 
1211 1212 2317 2316 1276 1277 2382 2381 
1212 1213 2318 2317 1277 1278 2383 2382 
1213 1214 2319 2318 1278 1279 2384 2383 
1214 1215 2320 2319 1279 1280 2385 2384 
1215 1216 2321 2320 1280 1281 2386 2385 
1216 1217 2322 2321 1281 1282 2387 2386 
1217 1218 2323 2322 1282 1283 2388 2387 
1218 1219 2324 2323 1283 1284 2389 2388 
1219 1220 2325 2324 1284 1285 2390 2389 
1220 1221 2326 2325 1285 1286 2391 2390 
1221 1222 2327 2326 1286 1287 2392 2391 
1222 1223 2328 2327 1287 1288 2393 2392 
1223 1224 2329 2328 1288 1289 2394 2393 
1224 1225 2330 2329 1289 1290 2395 2394 
1225 1226 2331 2330 1290 1291 2396 2395 
1226 1227 2332 2331 1291 1292 2397 2396 
1227 1228 2333 2332 1292 1293 2398 2397 
1228 1229 2334 2333 1293 1294 2399 2398 
1229 1230 2335 2334 1294 1295 2400 2399 
1230 1231 2336 2335 1295 1296 2401 2400 
1231 1232 2337 2336 1296 1297 2402 2401 
1232 1233 2338 2337 1297 1298 2403 2402 
1233 1234 2339 2338 1298 1299 2404 2403 
1235 1236 2341 2340 1300 1301 2406 2405 
1236 1237 2342 2341 1301 1302 2407 2406 
1237 1238 2343 2342 1302 1303 2408 2407 
1238 1239 2344 2343 1303 1304 2409 2408 
1239 1240 2345 2344 1304 1305 2410 2409 
1240 1241 2346 2345 1305 1306 2411 2410 
1241 1242 2347 2346 1306 1307 2412 2411 
1242 1243 2348 2347 1307 1308 2413 2412 
1243 1244 2349 2348 1308 1309 2414 2413 
1244 1245 2350 2349 1309 1310 2415 2414 
1245 1246 2351 2350 1310 1311 2416 2415 
1246 1247 2352 2351 1311 1312 2417 2416 
1247 1248 2353 2352 1312 1313 2418 2417 
1248 1249 2354 2353 1313 1314 2419 2418 
1249 1250 2355 2354 1314 1315 2420 2419 
1250 1251 2356 2355 1315 1316 2421 2420 
1251 1252 2357 2356 1316 1317 2422 2421 
1252 1253 2358 2357 1317 1318 2423 2422 
1253 1254 2359 2358 1318 1319 2424 2423 
1254 1255 2360 2359 1319 1320 2425 2424 
1255 1256 2361 2360 1320 1321 2426 2425 
1256 1257 2362 2361 1321 1322 2427 2426 
1257 1258 2363 2362 1322 1323 2428 2427 
1258 1259 2364 2363 1323 1324 2429 2428 
1259 1260 2365 2364 1324 1325 2430 2429 
1260 1261 2366 2365 1325 1326 2431 2430 
1261 1262 2367 2366 1326 1327 2432 2431 
1262 1263 2368 2367 1327 1328 2433 2432 
1263 1264 2369 2368 1328 1329 2434 2433 
1264 1265 2370 2369 1329 1330 2435 2434 
1265 1266 2371 2370 1330 1331 2436 2435 
1266 1267 2372 2371 1331 1332 2437 2436 
1267 1268 2373 2372 1332 1333 2438 2437 
1268 1269 2374 2373 1333 1334 2439 2438 
1269 1270 2375 2374 1334 1335 2440 2439 
1270 1271 2376 2375 1335 1336 2441 2440 
1271 1272 2377 2376 1336 1337 2442 2441 
1272 1273 2378 2377 1337 1338 2443 2442 
1273 1274 2379 2378 1338 1339 2444 2443 
1274 1275 2380 2379 1339 1340 2445 2444 
1275 1276 2381 2380 1340 1341 2446 2445 
1276 1277 2382 2381 1341 1342 2447 2446 
1277 1278 2383 2382 1342 1343 2448 2447 
1278 1279 2384 2383 1343 1344 2449 2448 
1279 1280 2385 2384 1344 1345 2450 2449 
1280 1281 2386 2385 1345 1346 2451 2450 
1281 1282 2387 2386 1346 1347 2452 2451 
1282 1283 2388 2387 1347 1348 2453 2452 
1283 1284 2389 2388 1348 1349 2454 2453 
1284 1285 2390 2389 1349 1350 2455 2454 
1285 1286 2391 2390 1350 1351 2456 2455 
1286 1287 2392 2391 1351 1352 2457 2456 
1287 1288 2393 2392 1352 1353 2458 2457 
1288 1289 2394 2393 1353 1354 2459 2458 
1289 1290 2395 2394 1354 1355 2460 2459 
1290 1291 2396 2395 1355 1356 2461 2460 
1291 1292 2397 2396 1356 1357 2462 2461 
1292 1293 2398 2397 1357 1358 2463 2462 
1293 1294 2399 2398 1358 1359 2464 2463 
1294 1295 2400 2399 1359 1360 2465 2464 
1295 1296 2401 2400 1360 1361 2466 2465 
1296 1297 2402 2401 1361 1362 2467 2466 
1297 1298 2403 2402 1362 1363 2468 2467 
1298 1299 2404 2403 1363 1364 2469 2468 
1300 1301 2406 2405 1365 1366 2471 2470 
1301 1302 2407 2406 1366 1367 2472 2471 
1302 1303 2408 2407 1367 1368 2473 2472 
1303 1304 2409 2408 1368 1369 2474 2473 
1304 1305 2410 2409 1369 1370 2475 2474 
1305 1306 2411 2410 1370 1371 2476 2475 
1306 1307 2412 2411 1371 1372 2477 2476 
1307 1308 2413 2412 1372 1373 2478 2477 
1308 1309 2414 2413 1373 1374 2479 2478 
1309 1310 2415 2414 1374 1375 2480 2479 
1310 1311 2416 2415 1375 1376 2481 2480 
1311 1312 2417 2416 1376 1377 2482 2481 
1312 1313 2418 2417 1377 1378 2483 2482 
1313 1314 2419 2418 1378 1379 2484 2483 
1314 1315 2420 2419 1379 1380 2485 2484 
1315 1316 2421 2420 1380 1381 2486 2485 
1316 1317 2422 2421 1381 1382 2487 2486 
1317 1318 2423 2422 1382 1383 2488 2487 
1318 1319 2424 2423 1383 1384 2489 2488 
1319 1320 2425 2424 1384 1385 2490 2489 
1320 1321 2426 2425 1385 1386 2491 2490 
1321 1322 2427 2426 1386 1387 2492 2491 
1322 1323 2428 2427 1387 1388 2493 2492 
1323 1324 2429 2428 1388 1389 2494 2493 
1324 1325 2430 2429 1389 1390 2495 2494 
1325 1326 2431 2430 1390 1391 2496 2495 
1326 1327 2432 2431 1391 1392 2497 2496 
1327 1328 2433 2432 1392 1393 2498 2497 
1328 1329 2434 2433 1393 1394 2499 2498 
1329 1330 2435 2434 1394 1395 2500 2499 
1330 1331 2436 2435 1395 1396 2501 2500 
1331 1332 2437 2436 1396 1397 2502 2501 
1332 1333 2438 2437 1397 1398 2503 2502 
1333 1334 2439 2438 1398 1399 2504 2503 
1334 1335 2440 2439 1399 1400 2505 2504 
1335 1336 2441 2440 1400 1401 2506 2505 
1336 1337 2442 2441 1401 1402 2507 2506 
1337 1338 2443 2442 1402 1403 2508 2507 
1338 1339 2444 2443 1403 1404 2509 2508 
1339 1340 2445 2444 1404 1405 2510 2509 
1340 1341 2446 2445 1405 1406 2511 2510 
1341 1342 2447 2446 1406 1407 2512 2511 
1342 1343 2448 2447 1407 1408 2513 2512 
1343 1344 2449 2448 1408 1409 2514 2513 
1344 1345 2450 2449 1409 1410 2515 2514 
1345 1346 2451 2450 1410 1411 2516 2515 
1346 1347 2452 2451 1411 1412 2517 2516 
1347 1348 2453 2452 1412 1413 2518 2517 
1348 1349 2454 2453 1413 1414 2519 2518 
1349 1350 2455 2454 1414 1415 2520 2519 
1350 1351 2456 2455 1415 1416 2521 2520 
1351 1352 2457 2456 1416 1417 2522 2521 
1352 1353 2458 2457 1417 1418 2523 2522 
1353 1354 2459 2458 1418 1419 2524 2523 
1354 1355 2460 2459 1419 1420 2525 2524 
1355 1356 2461 2460 1420 1421 2526 2525 
1356 1357 2462 2461 1421 1422 2527 2526 
1357 1358 2463 2462 1422 1423 2528 2527 
1358 1359 2464 2463 1423 1424 2529 2528 
1359 1360 2465 2464 1424 1425 2530 2529 
1360 1361 2466 2465 1425 1426 2531 2530 
1361 1362 2467 2466 1426 1427 2532 2531 
1362 1363 2468 2467 1427 1428 2533 2532 
1363 1364 2469 2468 1428 1429 2534 2533 
1365 1366 2471 2470 1430 1431 2536 2535 
1366 1367 2472 2471 1431 1432 2537 2536 
1367 1368 2473 2472 1432 1433 2538 2537 
1368 1369 2474 2473 1433 1434 2539 2538 
1369 1370 2475 2474 1434 1435 2540 2539 
1370 1371 2476 2475 1435 1436 2541 2540 
1371 1372 2477 2476 1436 1437 2542 2541 
1372 1373 2478 2477 1437 1438 2543 2542 
1373 1374 2479 2478 1438 1439 2544 2543 
1374 1375 2480 2479 1439 1440 2545 2544 
1375 1376 2481 2480 1440 1441 2546 2545 
1376 1377 2482 2481 1441 1442 2547 2546 
1377 1378 2483 2482 1442 1443 2548 2547 
1378 1379 2484 2483 1443 1444 2549 2548 
1379 1380 2485 2484 1444 1445 2550 2549 
1380 1381 2486 2485 1445 1446 2551 2550 
1381 1382 2487 2486 1446 1447 2552 2551 
1382 1383 2488 2487 1447 1448 2553 2552 
1383 1384 2489 2488 1448 1449 2554 2553 
1384 1385 2490 2489 1449 1450 2555 2554 
1385 1386 2491 2490 1450 1451 2556 2555 
1386 1387 2492 2491 1451 1452 2557 2556 
1387 1388 2493 2492 1452 1453 2558 2557 
1388 1389 2494 2493 1453 1454 2559 2558 
1389 1390 2495 2494 1454 1455 2560 2559 
1390 1391 2496 2495 1455 1456 2561 2560 
1391 1392 2497 2496 1456 1457 2562 2561 
1392 1393 2498 2497 1457 1458 2563 2562 
1393 1394 2499 2498 1458 1459 2564 2563 
1394 1395 2500 2499 1459 1460 2565 2564 
1395 1396 2501 2500 1460 1461 2566 2565 
1396 1397 2502 2501 1461 1462 2567 2566 
1397 1398 2503 2502 1462 1463 2568 2567 
1398 1399 2504 2503 1463 1464 2569 2568 
1399 1400 2505 2504 1464 1465 2570 2569 
1400 1401 2506 2505 1465 1466 2571 2570 
1401 1402 2507 2506 1466 1467 2572 2571 
1402 1403 2508 2507 1467 1468 2573 2572 
1403 1404 2509 2508 1468 1469 2574 2573 
1404 1405 2510 2509 1469 1470 2575 2574 
1405 1406 2511 2510 1470 1471 2576 2575 
1406 1407 2512 2511 1471 1472 2577 2576 
1407 1408 2513 2512 1472 1473 2578 2577 
1408 1409 2514 2513 1473 1474 2579 2578 
1409 1410 2515 2514 1474 1475 2580 2579 
1410 1411 2516 2515 1475 1476 2581 2580 
1411 1412 2517 2516 1476 1477 2582 2581 
1412 1413 2518 2517 1477 1478 2583 2582 
1413 1414 2519 2518 1478 1479 2584 2583 
1414 1415 2520 2519 1479 1480 2585 2584 
1415 1416 2521 2520 1480 1481 2586 2585 
1416 1417 2522 2521 1481 1482 2587 2586 
1417 1418 2523 2522 1482 1483 2588 2587 
1418 1419 2524 2523 1483 1484 2589 2588 
1419 1420 2525 2524 1484 1485 2590 2589 
1420 1421 2526 2525 1485 1486 2591 2590 
1421 1422 2527 2526 1486 1487 2592 2591 
1422 1423 2528 2527 1487 1488 2593 2592 
1423 1424 2529 2528 1488 1489 2594 2593 
1424 1425 2530 2529 1489 1490 2595 2594 
1425 1426 2531 2530 1490 1491 2596 2595 
1426 1427 2532 2531 1491 1492 2597 2596 
1427 1428 2533 2532 1492 1493 2598 2597 
1428 1429 2534 2533 1493 1494 2599 2598 
1430 1431 2536 2535 1495 1496 2601 2600 
1431 1432 2537 2536 1496 1497 2602 2601 
1432 1433 2538 2537 1497 1498 2603 2602 
1433 1434 2539 2538 1498 1499 2604 2603 
1434 1435 2540 2539 1499 1500 2605 2604 
1435 1436 2541 2540 1500 1501 2606 2605 
1436 1437 2542 2541 1501 1502 2607 2606 
1437 1438 2543 2542 1502 1503 2608 2607 
1438 1439 2544 2543 1503 1504 2609 2608 
1439 1440 2545 2544 1504 1505 2610 2609 
1440 1441 2546 2545 1505 1506 2611 2610 
1441 1442 2547 2546 1506 1507 2612 2611 
1442 1443 2548 2547 1507 1508 2613 2612 
1443 1444 2549 2548 1508 1509 2614 2613 
1444 1445 2550 2549 1509 1510 2615 2614 
1445 1446 2551 2550 1510 1511 2616 2615 
1446 1447 2552 2551 1511 1512 2617 2616 
1447 1448 2553 2552 1512 1513 2618 2617 
1448 1449 2554 2553 1513 1514 2619 2618 
1449 1450 2555 2554 1514 1515 2620 2619 
1450 1451 2556 2555 1515 1516 2621 2620 
1451 1452 2557 2556 1516 1517 2622 2621 
1452 1453 2558 2557 1517 1518 2623 2622 
1453 1454 2559 2558 1518 1519 2624 2623 
1454 1455 2560 2559 1519 1520 2625 2624 
1455 1456 2561 2560 1520 1521 2626 2625 
1456 1457 2562 2561 1521 1522 2627 2626 
1457 1458 2563 2562 1522 1523 2628 2627 
1458 1459 2564 2563 1523 1524 2629 2628 
1459 1460 2565 2564 1524 1525 2630 2629 
1460 1461 2566 2565 1525 1526 2631 2630 
1461 1462 2567 2566 1526 1527 2632 2631 
1462 1463 2568 2567 1527 1528 2633 2632 
1463 1464 2569 2568 1528 1529 2634 2633 
1464 1465 2570 2569 1529 1530 2635 2634 
1465 1466 2571 2570 1530 1531 2636 2635 
1466 1467 2572 2571 1531 1532 2637 2636 
1467 1468 2573 2572 1532 1533 2638 2637 
1468 1469 2574 2573 1533 1534 2639 2638 
1469 1470 2575 2574 1534 1535 2640 2639 
1470 1471 2576 2575 1535 1536 2641 2640 
1471 1472 2577 2576 1536 1537 2642 2641 
1472 1473 2578 2577 1537 1538 2643 2642 
1473 1474 2579 2578 1538 1539 2644 2643 
1474 1475 2580 2579 1539 1540 2645 2644 
1475 1476 2581 2580 1540 1541 2646 2645 
1476 1477 2582 2581 1541 1542 2647 2646 
1477 1478 2583 2582 1542 1543 2648 2647 
1478 1479 2584 2583 1543 1544 2649 2648 
1479 1480 2585 2584 1544 1545 2650 2649 
1480 1481 2586 2585 1545 1546 2651 2650 
1481 1482 2587 2586 1546 1547 2652 2651 
1482 1483 2588 2587 1547 1548 2653 2652 
1483 1484 2589 2588 1548 1549 2654 2653 
1484 1485 2590 2589 1549 1550 2655 2654 
1485 1486 2591 2590 1550 1551 2656 2655 
1486 1487 2592 2591 1551 1552 2657 2656 
1487 1488 2593 2592 1552 1553 2658 2657 
1488 1489 2594 2593 1553 1554 2659 2658 
1489 1490 2595 2594 1554 1555 2660 2659 
1490 1491 2596 2595 1555 1556 2661 2660 
1491 1492 2597 2596 1556 1557 2662 2661 
1492 1493 2598 2597 1557 1558 2663 2662 
1493 1494 2599 2598 1558 1559 2664 2663 
1495 1496 2601 2600 1560 1561 2666 2665 
1496 1497 2602 2601 1561 1562 2667 2666 
1497 1498 2603 2602 1562 1563 2668 2667 
1498 1499 2604 2603 1563 1564 2669 2668 
1499 1500 2605 2604 1564 1565 2670 2669 
1500 1501 2606 2605 1565 1566 2671 2670 
1501 1502 2607 2606 1566 1567 2672 2671 
1502 1503 2608 2607 1567 1568 2673 2672 
1503 1504 2609 2608 1568 1569 2674 2673 
1504 1505 2610 2609 1569 1570 2675 2674 
1505 1506 2611 2610 1570 1571 2676 2675 
1506 1507 2612 2611 1571 1572 2677 2676 
1507 1508 2613 2612 1572 1573 2678 2677 
1508 1509 2614 2613 1573 1574 2679 2678 
1509 1510 2615 2614 1574 1575 2680 2679 
1510 1511 2616 2615 1575 1576 2681 2680 
1511 1512 2617 2616 1576 1577 2682 2681 
1512 1513 2618 2617 1577 1578 2683 2682 
1513 1514 2619 2618 1578 1579 2684 2683 
1514 1515 2620 2619 1579 1580 2685 2684 
1515 1516 2621 2620 1580 1581 2686 2685 
1516 1517 2622 2621 1581 1582 2687 2686 
1517 1518 2623 2622 1582 1583 2688 2687 
1518 1519 2624 2623 1583 1584 2689 2688 
1519 1520 2625 2624 1584 1585 2690 2689 
1520 1521 2626 2625 1585 1586 2691 2690 
1521 1522 2627 2626 1586 1587 2692 2691 
1522 1523 2628 2627 1587 1588 2693 2692 
1523 1524 2629 2628 1588 1589 2694 2693 
1524 1525 2630 2629 1589 1590 2695 2694 
1525 1526 2631 2630 1590 1591 2696 2695 
1526 1527 2632 2631 1591 1592 2697 2696 
1527 1528 2633 2632 1592 1593 2698 2697 
1528 1529 2634 2633 1593 1594 2699 2698 
1529 1530 2635 2634 1594 1595 2700 2699 
1530 1531 2636 2635 1595 1596 2701 2700 
1531 1532 2637 2636 1596 1597 2702 2701 
1532 1533 2638 2637 1597 1598 2703 2702 
1533 1534 2639 2638 1598 1599 2704 2703 
1534 1535 2640 2639 1599 1600 2705 2704 
1535 1536 2641 2640 1600 1601 2706 2705 
1536 1537 2642 2641 1601 1602 2707 2706 
1537 1538 2643 2642 1602 1603 2708 2707 
1538 1539 2644 2643 1603 1604 2709 2708 
1539 1540 2645 2644 1604 1605 2710 2709 
1540 1541 2646 2645 1605 1606 2711 2710 
1541 1542 2647 2646 1606 1607 2712 2711 
1542 1543 2648 2647 1607 1608 2713 2712 
1543 1544 2649 2648 1608 1609 2714 2713 
1544 1545 2650 2649 1609 1610 2715 2714 
1545 1546 2651 2650 1610 1611 2716 2715 
1546 1547 2652 2651 1611 1612 2717 2716 
1547 1548 2653 2652 1612 1613 2718 2717 
1548 1549 2654 2653 1613 1614 2719 2718 
1549 1550 2655 2654 1614 1615 2720 2719 
1550 1551 2656 2655 1615 1616 2721 2720 
1551 1552 2657 2656 1616 1617 2722 2721 
1552 1553 2658 2657 1617 1618 2723 2722 
1553 1554 2659 2658 1618 1619 2724 2723 
1554 1555 2660 2659 1619 1620 2725 2724 
1555 1556 2661 2660 1620 1621 2726 2725 
1556 1557 2662 2661 1621 1622 2727 2726 
1557 1558 2663 2662 1622 1623 2728 2727 
1558 1559 2664 2663 1623 1624 2729 2728 
1560 1561 2666 2665 1625 1626 2731 2730 
1561 1562 2667 2666 1626 1627 2732 2731 
1562 1563 2668 2667 1627 1628 2733 2732 
1563 1564 2669 2668 1628 1629 2734 2733 
1564 1565 2670 2669 1629 1630 2735 2734 
1565 1566 2671 2670 1630 1631 2736 2735 
1566 1567 2672 2671 1631 1632 2737 2736 
1567 1568 2673 2672 1632 1633 2738 2737 
1568 1569 2674 2673 1633 1634 2739 2738 
1569 1570 2675 2674 1634 1635 2740 2739 
1570 1571 2676 2675 1635 1636 2741 2740 
1571 1572 2677 2676 1636 1637 2742 2741 
1572 1573 2678 2677 1637 1638 2743 2742 
1573 1574 2679 2678 1638 1639 2744 2743 
1574 1575 2680 2679 1639 1640 2745 2744 
1575 1576 2681 2680 1640 1641 2746 2745 
1576 1577 2682 2681 1641 1642 2747 2746 
1577 1578 2683 2682 1642 1643 2748 2747 
1578 1579 2684 2683 1643 1644 2749 2748 
1579 1580 2685 2684 1644 1645 2750 2749 
1580 1581 2686 2685 1645 1646 2751 2750 
1581 1582 2687 2686 1646 1647 2752 2751 
1582 1583 2688 2687 1647 1648 2753 2752 
1583 1584 2689 2688 1648 1649 2754 2753 
1584 1585 2690 2689 1649 1650 2755 2754 
1585 1586 2691 2690 1650 1651 2756 2755 
1586 1587 2692 2691 1651 1652 2757 2756 
1587 1588 2693 2692 1652 1653 2758 2757 
1588 1589 2694 2693 1653 1654 2759 2758 
1589 1590 2695 2694 1654 1655 2760 2759 
1590 1591 2696 2695 1655 1656 2761 2760 
1591 1592 2697 2696 1656 1657 2762 2761 
1592 1593 2698 2697 1657 1658 2763 2762 
1593 1594 2699 2698 1658 1659 2764 2763 
1594 1595 2700 2699 1659 1660 2765 2764 
1595 1596 2701 2700 1660 1661 2766 2765 
1596 1597 2702 2701 1661 1662 2767 2766 
1597 1598 2703 2702 1662 1663 2768 2767 
1598 1599 2704 2703 1663 1664 2769 2768 
1599 1600 2705 2704 1664 1665 2770 2769 
1600 1601 2706 2705 1665 1666 2771 2770 
1601 1602 2707 2706 1666 1667 2772 2771 
1602 1603 2708 2707 1667 1668 2773 2772 
1603 1604 2709 2708 1668 1669 2774 2773 
1604 1605 2710 2709 1669 1670 2775 2774 
1605 1606 2711 2710 1670 1671 2776 2775 
1606 1607 2712 2711 1671 1672 2777 2776 
1607 1608 2713 2712 1672 1673 2778 2777 
1608 1609 2714 2713 1673 1674 2779 2778 
1609 1610 2715 2714 1674 1675 2780 2779 
1610 1611 2716 2715 1675 1676 2781 2780 
1611 1612 2717 2716 1676 1677 2782 2781 
1612 1613 2718 2717 1677 1678 2783 2782 
1613 1614 2719 2718 1678 1679 2784 2783 
1614 1615 2720 2719 1679 1680 2785 2784 
1615 1616 2721 2720 1680 1681 2786 2785 
1616 1617 2722 2721 1681 1682 2787 2786 
1617 1618 2723 2722 1682 1683 2788 2787 
1618 1619 2724 2723 1683 1684 2789 2788 
1619 1620 2725 2724 1684 1685 2790 2789 
1620 1621 2726 2725 1685 1686 2791 2790 
1621 1622 2727 2726 1686 1687 2792 2791 
1622 1623 2728 2727 1687 1688 2793 2792 
1623 1624 2729 2728 1688 1689 2794 2793 
1625 1626 2731 2730 1690 1691 2796 2795 
1626 1627 2732 2731 1691 1692 2797 2796 
1627 1628 2733 2732 1692 1693 2798 2797 
1628 1629 2734 2733 1693 1694 2799 2798 
1629 1630 2735 2734 1694 1695 2800 2799 
1630 1631 2736 2735 1695 1696 2801 2800 
1631 1632 2737 2736 1696 1697 2802 2801 
1632 1633 2738 2737 1697 1698 2803 2802 
1633 1634 2739 2738 1698 1699 2804 2803 
1634 1635 2740 2739 1699 1700 2805 2804 
1635 1636 2741 2740 1700 1701 2806 2805 
1636 1637 2742 2741 1701 1702 2807 2806 
1637 1638 2743 2742 1702 1703 2808 2807 
1638 1639 2744 2743 1703 1704 2809 2808 
1639 1640 2745 2744 1704 1705 2810 2809 
1640 1641 2746 2745 1705 1706 2811 2810 
1641 1642 2747 2746 1706 1707 2812 2811 
1642 1643 2748 2747 1707 1708 2813 2812 
1643 1644 2749 2748 1708 1709 2814 2813 
1644 1645 2750 2749 1709 1710 2815 2814 
1645 1646 2751 2750 1710 1711 2816 2815 
1646 1647 2752 2751 1711 1712 2817 2816 
1647 1648 2753 2752 1712 1713 2818 2817 
1648 1649 2754 2753 1713 1714 2819 2818 
1649 1650 2755 2754 1714 1715 2820 2819 
1650 1651 2756 2755 1715 1716 2821 2820 
1651 1652 2757 2756 1716 1717 2822 2821 
1652 1653 2758 2757 1717 1718 2823 2822 
1653 1654 2759 2758 1718 1719 2824 2823 
1654 1655 2760 2759 1719 1720 2825 2824 
1655 1656 2761 2760 1720 1721 2826 2825 
1656 1657 2762 2761 1721 1722 2827 2826 
1657 1658 2763 2762 1722 1723 2828 2827 
1658 1659 2764 2763 1723 1724 2829 2828 
1659 1660 2765 2764 1724 1725 2830 2829 
1660 1661 2766 2765 1725 1726 2831 2830 
1661 1662 2767 2766 1726 1727 2832 2831 
1662 1663 2768 2767 1727 1728 2833 2832 
1663 1664 2769 2768 1728 1729 2834 2833 
1664 1665 2770 2769 1729 1730 2835 2834 
1665 1666 2771 2770 1730 1731 2836 2835 
1666 1667 2772 2771 1731 1732 2837 2836 
1667 1668 2773 2772 1732 1733 2838 2837 
1668 1669 2774 2773 1733 1734 2839 2838 
1669 1670 2775 2774 1734 1735 2840 2839 
1670 1671 2776 2775 1735 1736 2841 2840 
1671 1672 2777 2776 1736 1737 2842 2841 
1672 1673 2778 2777 1737 1738 2843 2842 
1673 1674 2779 2778 1738 1739 2844 2843 
1674 1675 2780 2779 1739 1740 2845 2844 
1675 1676 2781 2780 1740 1741 2846 2845 
1676 1677 2782 2781 1741 1742 2847 2846 
1677 1678 2783 2782 1742 1743 2848 2847 
1678 1679 2784 2783 1743 1744 2849 2848 
1679 1680 2785 2784 1744 1745 2850 2849 
1680 1681 2786 2785 1745 1746 2851 2850 
1681 1682 2787 2786 1746 1747 2852 2851 
1682 1683 2788 2787 1747 1748 2853 2852 
1683 1684 2789 2788 1748 1749 2854 2853 
1684 1685 2790 2789 1749 1750 2855 2854 
1685 1686 2791 2790 1750 1751 2856 2855 
1686 1687 2792 2791 1751 1752 2857 2856 
1687 1688 2793 2792 1752 1753 2858 2857 
1688 1689 2794 2793 1753 1754 2859 2858 
1690 1691 2796 2795 1755 1756 2861 2860 
1691 1692 2797 2796 1756 1757 2862 2861 
1692 1693 2798 2797 1757 1758 2863 2862 
1693 1694 2799 2798 1758 1759 2864 2863 
1694 1695 2800 2799 1759 1760 2865 2864 
1695 1696 2801 2800 1760 1761 2866 2865 
1696 1697 2802 2801 1761 1762 2867 2866 
1697 1698 2803 2802 1762 1763 2868 2867 
1698 1699 2804 2803 1763 1764 2869 2868 
1699 1700 2805 2804 1764 1765 2870 2869 
1700 1701 2806 2805 1765 1766 2871 2870 
1701 1702 2807 2806 1766 1767 2872 2871 
1702 1703 2808 2807 1767 1768 2873 2872 
1703 1704 2809 2808 1768 1769 2874 2873 
1704 1705 2810 2809 1769 1770 2875 2874 
1705 1706 2811 2810 1770 1771 2876 2875 
1706 1707 2812 2811 1771 1772 2877 2876 
1707 1708 2813 2812 1772 1773 2878 2877 
1708 1709 2814 2813 1773 1774 2879 2878 
1709 1710 2815 2814 1774 1775 2880 2879 
1710 1711 2816 2815 1775 1776 2881 2880 
1711 1712 2817 2816 1776 1777 2882 2881 
1712 1713 2818 2817 1777 1778 2883 2882 
1713 1714 2819 2818 1778 1779 2884 2883 
1714 1715 2820 2819 1779 1780 2885 2884 
1715 1716 2821 2820 1780 1781 2886 2885 
1716 1717 2822 2821 1781 1782 2887 2886 
1717 1718 2823 2822 1782 1783 2888 2887 
1718 1719 2824 2823 1783 1784 2889 2888 
1719 1720 2825 2824 1784 1785 2890 2889 
1720 1721 2826 2825 1785 1786 2891 2890 
1721 1722 2827 2826 1786 1787 2892 2891 
1722 1723 2828 2827 1787 1788 2893 2892 
1723 1724 2829 2828 1788 1789 2894 2893 
1724 1725 2830 2829 1789 1790 2895 2894 
1725 1726 2831 2830 1790 1791 2896 2895 
1726 1727 2832 2831 1791 1792 2897 2896 
1727 1728 2833 2832 1792 1793 2898 2897 
1728 1729 2834 2833 1793 1794 2899 2898 
1729 1730 2835 2834 1794 1795 2900 2899 
1730 1731 2836 2835 1795 1796 2901 2900 
1731 1732 2837 2836 1796 1797 2902 2901 
1732 1733 2838 2837 1797 1798 2903 2902 
1733 1734 2839 2838 1798 1799 2904 2903 
1734 1735 2840 2839 1799 1800 2905 2904 
1735 1736 2841 2840 1800 1801 2906 2905 
1736 1737 2842 2841 1801 1802 2907 2906 
1737 1738 2843 2842 1802 1803 2908 2907 
1738 1739 2844 2843 1803 1804 2909 2908 
1739 1740 2845 2844 1804 1805 2910 2909 
1740 1741 2846 2845 1805 1806 2911 2910 
1741 1742 2847 2846 1806 1807 2912 2911 
1742 1743 2848 2847 1807 1808 2913 2912 
1743 1744 2849 2848 1808 1809 2914 2913 
1744 1745 2850 2849 1809 1810 2915 2914 
1745 1746 2851 2850 1810 1811 2916 2915 
1746 1747 2852 2851 1811 1812 2917 2916 
1747 1748 2853 2852 1812 1813 2918 2917 
1748 1749 2854 2853 1813 1814 2919 2918 
1749 1750 2855 2854 1814 1815 2920 2919 
1750 1751 2856 2855 1815 1816 2921 2920 
1751 1752 2857 2856 1816 1817 2922 2921 
1752 1753 2858 2857 1817 1818 2923 2922 
1753 1754 2859 2858 1818 1819 2924 2923 
1755 1756 2861 2860 1820 1821 2926 2925 
1756 1757 2862 2861 1821 1822 2927 2926 
1757 1758 2863 2862 1822 1823 2928 2927 
1758 1759 2864 2863 1823 1824 2929 2928 
1759 1760 2865 2864 1824 1825 2930 2929 
1760 1761 2866 2865 1825 1826 2931 2930 
1761 1762 2867 2866 1826 1827 2932 2931 
1762 1763 2868 2867 1827 1828 2933 2932 
1763 1764 2869 2868 1828 1829 2934 2933 
1764 1765 2870 2869 1829 1830 2935 2934 
1765 1766 2871 2870 1830 1831 2936 2935 
1766 1767 2872 2871 1831 1832 2937 2936 
1767 1768 2873 2872 1832 1833 2938 2937 
1768 1769 2874 2873 1833 1834 2939 2938 
1769 1770 2875 2874 1834 1835 2940 2939 
1770 1771 2876 2875 1835 1836 2941 2940 
1771 1772 2877 2876 1836 1837 2942 2941 
1772 1773 2878 2877 1837 1838 2943 2942 
1773 1774 2879 2878 1838 1839 2944 2943 
1774 1775 2880 2879 1839 1840 2945 2944 
1775 1776 2881 2880 1840 1841 2946 2945 
1776 1777 2882 2881 1841 1842 2947 2946 
1777 1778 2883 2882 1842 1843 2948 2947 
1778 1779 2884 2883 1843 1844 2949 2948 
1779 1780 2885 2884 1844 1845 2950 2949 
1780 1781 2886 2885 1845 1846 2951 2950 
1781 1782 2887 2886 1846 1847 2952 2951 
1782 1783 2888 2887 1847 1848 2953 2952 
1783 1784 2889 2888 1848 1849 2954 2953 
1784 1785 2890 2889 1849 1850 2955 2954 
1785 1786 2891 2890 1850 1851 2956 2955 
1786 1787 2892 2891 1851 1852 2957 2956 
1787 1788 2893 2892 1852 1853 2958 2957 
1788 1789 2894 2893 1853 1854 2959 2958 
1789 1790 2895 2894 1854 1855 2960 2959 
1790 1791 2896 2895 1855 1856 2961 2960 
1791 1792 2897 2896 1856 1857 2962 2961 
1792 1793 2898 2897 1857 1858 2963 2962 
1793 1794 2899 2898 1858 1859 2964 2963 
1794 1795 2900 2899 1859 1860 2965 2964 
1795 1796 2901 2900 1860 1861 2966 2965 
1796 1797 2902 2901 1861 1862 2967 2966 
1797 1798 2903 2902 1862 1863 2968 2967 
1798 1799 2904 2903 1863 1864 2969 2968 
1799 1800 2905 2904 1864 1865 2970 2969 
1800 1801 2906 2905 1865 1866 2971 2970 
1801 1802 2907 2906 1866 1867 2972 2971 
1802 1803 2908 2907 1867 1868 2973 2972 
1803 1804 2909 2908 1868 1869 2974 2973 
1804 1805 2910 2909 1869 1870 2975 2974 
1805 1806 2911 2910 1870 1871 2976 2975 
1806 1807 2912 2911 1871 1872 2977 2976 
1807 1808 2913 2912 1872 1873 2978 2977 
1808 1809 2914 2913 1873 1874 2979 2978 
1809 1810 2915 2914 1874 1875 2980 2979 
1810 1811 2916 2915 1875 1876 2981 2980 
1811 1812 2917 2916 1876 1877 2982 2981 
1812 1813 2918 2917 1877 1878 2983 2982 
1813 1814 2919 2918 1878 1879 2984 2983 
1814 1815 2920 2919 1879 1880 2985 2984 
1815 1816 2921 2920 1880 1881 2986 2985 
1816 1817 2922 2921 1881 1882 2987 2986 
1817 1818 2923 2922 1882 1883 2988 2987 
1818 1819 2924 2923 1883 1884 2989 2988 
1820 1821 2926 2925 1885 1886 2991 2990 
1821 1822 2927 2926 1886 1887 2992 2991 
1822 1823 2928 2927 1887 1888 2993 2992 
1823 1824 2929 2928 1888 1889 2994 2993 
1824 1825 2930 2929 1889 1890 2995 2994 
1825 1826 2931 2930 1890 1891 2996 2995 
1826 1827 2932 2931 1891 1892 2997 2996 
1827 1828 2933 2932 1892 1893 2998 2997 
1828 1829 2934 2933 1893 1894 2999 2998 
1829 1830 2935 2934 1894 1895 3000 2999 
1830 1831 2936 2935 1895 1896 3001 3000 
1831 1832 2937 2936 1896 1897 3002 3001 
1832 1833 2938 2937 1897 1898 3003 3002 
1833 1834 2939 2938 1898 1899 3004 3003 
1834 1835 2940 2939 1899 1900 3005 3004 
1835 1836 2941 2940 1900 1901 3006 3005 
1836 1837 2942 2941 1901 1902 3007 3006 
1837 1838 2943 2942 1902 1903 3008 3007 
1838 1839 2944 2943 1903 1904 3009 3008 
1839 1840 2945 2944 1904 1905 3010 3009 
1840 1841 2946 2945 1905 1906 3011 3010 
1841 1842 2947 2946 1906 1907 3012 3011 
1842 1843 2948 2947 1907 1908 3013 3012 
1843 1844 2949 2948 1908 1909 3014 3013 
1844 1845 2950 2949 1909 1910 3015 3014 
1845 1846 2951 2950 1910 1911 3016 3015 
1846 1847 2952 2951 1911 1912 3017 3016 
1847 1848 2953 2952 1912 1913 3018 3017 
1848 1849 2954 2953 1913 1914 3019 3018 
1849 1850 2955 2954 1914 1915 3020 3019 
1850 1851 2956 2955 1915 1916 3021 3020 
1851 1852 2957 2956 1916 1917 3022 3021 
1852 1853 2958 2957 1917 1918 3023 3022 
1853 1854 2959 2958 1918 1919 3024 3023 
1854 1855 2960 2959 1919 1920 3025 3024 
1855 1856 2961 2960 1920 1921 3026 3025 
1856 1857 2962 2961 1921 1922 3027 3026 
1857 1858 2963 2962 1922 1923 3028 3027 
1858 1859 2964 2963 1923 1924 3029 3028 
1859 1860 2965 2964 1924 1925 3030 3029 
1860 1861 2966 2965 1925 1926 3031 3030 
1861 1862 2967 2966 1926 1927 3032 3031 
1862 1863 2968 2967 1927 1928 3033 3032 
1863 1864 2969 2968 1928 1929 3034 3033 
1864 1865 2970 2969 1929 1930 3035 3034 
1865 1866 2971 2970 1930 1931 3036 3035 
1866 1867 2972 2971 1931 1932 3037 3036 
1867 1868 2973 2972 1932 1933 3038 3037 
1868 1869 2974 2973 1933 1934 3039 3038 
1869 1870 2975 2974 1934 1935 3040 3039 
1870 1871 2976 2975 1935 1936 3041 3040 
1871 1872 2977 2976 1936 1937 3042 3041 
1872 1873 2978 2977 1937 1938 3043 3042 
1873 1874 2979 2978 1938 1939 3044 3043 
1874 1875 2980 2979 1939 1940 3045 3044 
1875 1876 2981 2980 1940 1941 3046 3045 
1876 1877 2982 2981 1941 1942 3047 3046 
1877 1878 2983 2982 1942 1943 3048 3047 
1878 1879 2984 2983 1943 1944 3049 3048 
1879 1880 2985 2984 1944 1945 3050 3049 
1880 1881 2986 2985 1945 1946 3051 3050 
1881 1882 2987 2986 1946 1947 3052 3051 
1882 1883 2988 2987 1947 1948 3053 3052 
1883 1884 2989 2988 1948 1949 3054 3053 
1885 1886 2991 2990 1950 1951 3056 3055 
1886 1887 2992 2991 1951 1952 3057 3056 
1887 1888 2993 2992 1952 1953 3058 3057 
1888 1889 2994 2993 1953 1954 3059 3058 
1889 1890 2995 2994 1954 1955 3060 3059 
1890 1891 2996 2995 1955 1956 3061 3060 
1891 1892 2997 2996 1956 1957 3062 3061 
1892 1893 2998 2997 1957 1958 3063 3062 
1893 1894 2999 2998 1958 1959 3064 3063 
1894 1895 3000 2999 1959 1960 3065 3064 
1895 1896 3001 3000 1960 1961 3066 3065 
1896 1897 3002 3001 1961 1962 3067 3066 
1897 1898 3003 3002 1962 1963 3068 3067 
1898 1899 3004 3003 1963 1964 3069 3068 
1899 1900 3005 3004 1964 1965 3070 3069 
1900 1901 3006 3005 1965 1966 3071 3070 
1901 1902 3007 3006 1966 1967 3072 3071 
1902 1903 3008 3007 1967 1968 3073 3072 
1903 1904 3009 3008 1968 1969 3074 3073 
1904 1905 3010 3009 1969 1970 3075 3074 
1905 1906 3011 3010 1970 1971 3076 3075 
1906 1907 3012 3011 1971 1972 3077 3076 
1907 1908 3013 3012 1972 1973 3078 3077 
1908 1909 3014 3013 1973 1974 3079 3078 
1909 1910 3015 3014 1974 1975 3080 3079 
1910 1911 3016 3015 1975 1976 3081 3080 
1911 1912 3017 3016 1976 1977 3082 3081 
1912 1913 3018 3017 1977 1978 3083 3082 
1913 1914 3019 3018 1978 1979 3084 3083 
1914 1915 3020 3019 1979 1980 3085 3084 
1915 1916 3021 3020 1980 1981 3086 3085 
1916 1917 3022 3021 1981 1982 3087 3086 
1917 1918 3023 3022 1982 1983 3088 3087 
1918 1919 3024 3023 1983 1984 3089 3088 
1919 1920 3025 3024 1984 1985 3090 3089 
1920 1921 3026 3025 1985 1986 3091 3090 
1921 1922 3027 3026 1986 1987 3092 3091 
1922 1923 3028 3027 1987 1988 3093 3092 
1923 1924 3029 3028 1988 1989 3094 3093 
1924 1925 3030 3029 1989 1990 3095 3094 
1925 1926 3031 3030 1990 1991 3096 3095 
1926 1927 3032 3031 1991 1992 3097 3096 
1927 1928 3033 3032 1992 1993 3098 3097 
1928 1929 3034 3033 1993 1994 3099 3098 
1929 1930 3035 3034 1994 1995 3100 3099 
1930 1931 3036 3035 1995 1996 3101 3100 
1931 1932 3037 3036 1996 1997 3102 3101 
1932 1933 3038 3037 1997 1998 3103 3102 
1933 1934 3039 3038 1998 1999 3104 3103 
1934 1935 3040 3039 1999 2000 3105 3104 
1935 1936 3041 3040 2000 2001 3106 3105 
1936 1937 3042 3041 2001 2002 3107 3106 
1937 1938 3043 3042 2002 2003 3108 3107 
1938 1939 3044 3043 2003 2004 3109 3108 
1939 1940 3045 3044 2004 2005 3110 3109 
1940 1941 3046 3045 2005 2006 3111 3110 
1941 1942 3047 3046 2006 2007 3112 3111 
1942 1943 3048 3047 2007 2008 3113 3112 
1943 1944 3049 3048 2008 2009 3114 3113 
1944 1945 3050 3049 2009 2010 3115 3114 
1945 1946 3051 3050 2010 2011 3116 3115 
1946 1947 3052 3051 2011 2012 3117 3116 
1947 1948 3053 3052 2012 2013 3118 3117 
1948 1949 3054 3053 2013 2014 3119 3118 
1950 1951 3056 3055 2015 2016 3121 3120 
1951 1952 3057 3056 2016 2017 3122 3121 
1952 1953 3058 3057 2017 2018 3123 3122 
1953 1954 3059 3058 2018 2019 3124 3123 
1954 1955 3060 3059 2019 2020 3125 3124 
1955 1956 3061 3060 2020 2021 3126 3125 
1956 1957 3062 3061 2021 2022 3127 3126 
1957 1958 3063 3062 2022 2023 3128 3127 
1958 1959 3064 3063 2023 2024 3129 3128 
1959 1960 3065 3064 2024 2025 3130 3129 
1960 1961 3066 3065 2025 2026 3131 3130 
1961 1962 3067 3066 2026 2027 3132 3131 
1962 1963 3068 3067 2027 2028 3133 3132 
1963 1964 3069 3068 2028 2029 3134 3133 
1964 1965 3070 3069 2029 2030 3135 3134 
1965 1966 3071 3070 2030 2031 3136 3135 
1966 1967 3072 3071 2031 2032 3137 3136 
1967 1968 3073 3072 2032 2033 3138 3137 
1968 1969 3074 3073 2033 2034 3139 3138 
1969 1970 3075 3074 2034 2035 3140 3139 
1970 1971 3076 3075 2035 2036 3141 3140 
1971 1972 3077 3076 2036 2037 3142 3141 
1972 1973 3078 3077 2037 2038 3143 3142 
1973 1974 3079 3078 2038 2039 3144 3143 
1974 1975 3080 3079 2039 2040 3145 3144 
1975 1976 3081 3080 2040 2041 3146 3145 
1976 1977 3082 3081 2041 2042 3147 3146 
1977 1978 3083 3082 2042 2043 3148 3147 
1978 1979 3084 3083 2043 2044 3149 3148 
1979 1980 3085 3084 2044 2045 3150 3149 
1980 1981 3086 3085 2045 2046 3151 3150 
1981 1982 3087 3086 2046 2047 3152 3151 
1982 1983 3088 3087 2047 2048 3153 3152 
1983 1984 3089 3088 2048 2049 3154 3153 
1984 1985 3090 3089 2049 2050 3155 3154 
1985 1986 3091 3090 2050 2051 3156 3155 
1986 1987 3092 3091 2051 2052 3157 3156 
1987 1988 3093 3092 2052 2053 3158 3157 
1988 1989 3094 3093 2053 2054 3159 3158 
1989 1990 3095 3094 2054 2055 3160 3159 
1990 1991 3096 3095 2055 2056 3161 3160 
1991 1992 3097 3096 2056 2057 3162 3161 
1992 1993 3098 3097 2057 2058 3163 3162 
1993 1994 3099 3098 2058 2059 3164 3163 
1994 1995 3100 3099 2059 2060 3165 3164 
1995 1996 3101 3100 2060 2061 3166 3165 
1996 1997 3102 3101 2061 2062 3167 3166 
1997 1998 3103 3102 2062 2063 3168 3167 
1998 1999 3104 3103 2063 2064 3169 3168 
1999 2000 3105 3104 2064 2065 3170 3169 
2000 2001 3106 3105 2065 2066 3171 3170 
2001 2002 3107 3106 2066 2067 3172 3171 
2002 2003 3108 3107 2067 2068 3173 3172 
2003 2004 3109 3108 2068 2069 3174 3173 
2004 2005 3110 3109 2069 2070 3175 3174 
2005 2006 3111 3110 2070 2071 3176 3175 
2006 2007 3112 3111 2071 2072 3177 3176 
2007 2008 3113 3112 2072 2073 3178 3177 
2008 2009 3114 3113 2073 2074 3179 3178 
2009 2010 3115 3114 2074 2075 3180 3179 
2010 2011 3116 3115 2075 2076 3181 3180 
2011 2012 3117 3116 2076 2077 3182 3181 
2012 2013 3118 3117 2077 2078 3183 3182 
2013 2014 3119 3118 2078 2079 3184 3183 
2015 2016 3121 3120 2080 2081 3186 3185 
2016 2017 3122 3121 2081 2082 3187 3186 
2017 2018 3123 3122 2082 2083 3188 3187 
2018 2019 3124 3123 2083 2084 3189 3188 
2019 2020 3125 3124 2084 2085 3190 3189 
2020 2021 3126 3125 2085 2086 3191 3190 
2021 2022 3127 3126 2086 2087 3192 3191 
2022 2023 3128 3127 2087 2088 3193 3192 
2023 2024 3129 3128 2088 2089 3194 3193 
2024 2025 3130 3129 2089 2090 3195 3194 
2025 2026 3131 3130 2090 2091 3196 3195 
2026 2027 3132 3131 2091 2092 3197 3196 
2027 2028 3133 3132 2092 2093 3198 3197 
2028 2029 3134 3133 2093 2094 3199 3198 
2029 2030 3135 3134 2094 2095 3200 3199 
2030 2031 3136 3135 2095 2096 3201 3200 
2031 2032 3137 3136 2096 2097 3202 3201 
2032 2033 3138 3137 2097 2098 3203 3202 
2033 2034 3139 3138 2098 2099 3204 3203 
2034 2035 3140 3139 2099 2100 3205 3204 
2035 2036 3141 3140 2100 2101 3206 3205 
2036 2037 3142 3141 2101 2102 3207 3206 
2037 2038 3143 3142 2102 2103 3208 3207 
2038 2039 3144 3143 2103 2104 3209 3208 
2039 2040 3145 3144 2104 2105 3210 3209 
2040 2041 3146 3145 2105 2106 3211 3210 
2041 2042 3147 3146 2106 2107 3212 3211 
2042 2043 3148 3147 2107 2108 3213 3212 
2043 2044 3149 3148 2108 2109 3214 3213 
2044 2045 3150 3149 2109 2110 3215 3214 
2045 2046 3151 3150 2110 2111 3216 3215 
2046 2047 3152 3151 2111 2112 3217 3216 
2047 2048 3153 3152 2112 2113 3218 3217 
2048 2049 3154 3153 2113 2114 3219 3218 
2049 2050 3155 3154 2114 2115 3220 3219 
2050 2051 3156 3155 2115 2116 3221 3220 
2051 2052 3157 3156 2116 2117 3222 3221 
2052 2053 3158 3157 2117 2118 3223 3222 
2053 2054 3159 3158 2118 2119 3224 3223 
2054 2055 3160 3159 2119 2120 3225 3224 
2055 2056 3161 3160 2120 2121 3226 3225 
2056 2057 3162 3161 2121 2122 3227 3226 
2057 2058 3163 3162 2122 2123 3228 3227 
2058 2059 3164 3163 2123 2124 3229 3228 
2059 2060 3165 3164 2124 2125 3230 3229 
2060 2061 3166 3165 2125 2126 3231 3230 
2061 2062 3167 3166 2126 2127 3232 3231 
2062 2063 3168 3167 2127 2128 3233 3232 
2063 2064 3169 3168 2128 2129 3234 3233 
2064 2065 3170 3169 2129 2130 3235 3234 
2065 2066 3171 3170 2130 2131 3236 3235 
2066 2067 3172 3171 2131 2132 3237 3236 
2067 2068 3173 3172 2132 2133 3238 3237 
2068 2069 3174 3173 2133 2134 3239 3238 
2069 2070 3175 3174 2134 2135 3240 3239 
2070 2071 3176 3175 2135 2136 3241 3240 
2071 2072 3177 3176 2136 2137 3242 3241 
2072 2073 3178 3177 2137 2138 3243 3242 
2073 2074 3179 3178 2138 2139 3244 3243 
2074 2075 3180 3179 2139 2140 3245 3244 
2075 2076 3181 3180 2140 2141 3246 3245 
2076 2077 3182 3181 2141 2142 3247 3246 
2077 2078 3183 3182 2142 2143 3248 3247 
2078 2079 3184 3183 2143 2144 3249 3248 
2080 2081 3186 3185 2145 2146 3251 3250 
2081 2082 3187 3186 2146 2147 3252 3251 
2082 2083 3188 3187 2147 2148 3253 3252 
2083 2084 3189 3188 2148 2149 3254 3253 
2084 2085 3190 3189 2149 2150 3255 3254 
2085 2086 3191 3190 2150 2151 3256 3255 
2086 2087 3192 3191 2151 2152 3257 3256 
2087 2088 3193 3192 2152 2153 3258 3257 
2088 2089 3194 3193 2153 2154 3259 3258 
2089 2090 3195 3194 2154 2155 3260 3259 
2090 2091 3196 3195 2155 2156 3261 3260 
2091 2092 3197 3196 2156 2157 3262 3261 
2092 2093 3198 3197 2157 2158 3263 3262 
2093 2094 3199 3198 2158 2159 3264 3263 
2094 2095 3200 3199 2159 2160 3265 3264 
2095 2096 3201 3200 2160 2161 3266 3265 
2096 2097 3202 3201 2161 2162 3267 3266 
2097 2098 3203 3202 2162 2163 3268 3267 
2098 2099 3204 3203 2163 2164 3269 3268 
2099 2100 3205 3204 2164 2165 3270 3269 
2100 2101 3206 3205 2165 2166 3271 3270 
2101 2102 3207 3206 2166 2167 3272 3271 
2102 2103 3208 3207 2167 2168 3273 3272 
2103 2104 3209 3208 2168 2169 3274 3273 
2104 2105 3210 3209 2169 2170 3275 3274 
2105 2106 3211 3210 2170 2171 3276 3275 
2106 2107 3212 3211 2171 2172 3277 3276 
2107 2108 3213 3212 2172 2173 3278 3277 
2108 2109 3214 3213 2173 2174 3279 3278 
2109 2110 3215 3214 2174 2175 3280 3279 
2110 2111 3216 3215 2175 2176 3281 3280 
2111 2112 3217 3216 2176 2177 3282 3281 
2112 2113 3218 3217 2177 2178 3283 3282 
2113 2114 3219 3218 2178 2179 3284 3283 
2114 2115 3220 3219 2179 2180 3285 3284 
2115 2116 3221 3220 2180 2181 3286 3285 
2116 2117 3222 3221 2181 2182 3287 3286 
2117 2118 3223 3222 2182 2183 3288 3287 
2118 2119 3224 3223 2183 2184 3289 3288 
2119 2120 3225 3224 2184 2185 3290 3289 
2120 2121 3226 3225 2185 2186 3291 3290 
2121 2122 3227 3226 2186 2187 3292 3291 
2122 2123 3228 3227 2187 2188 3293 3292 
2123 2124 3229 3228 2188 2189 3294 3293 
2124 2125 3230 3229 2189 2190 3295 3294 
2125 2126 3231 3230 2190 2191 3296 3295 
2126 2127 3232 3231 2191 2192 3297 3296 
2127 2128 3233 3232 2192 2193 3298 3297 
2128 2129 3234 3233 2193 2194 3299 3298 
2129 2130 3235 3234 2194 2195 3300 3299 
2130 2131 3236 3235 2195 2196 3301 3300 
2131 2132 3237 3236 2196 2197 3302 3301 
2132 2133 3238 3237 2197 2198 3303 3302 
2133 2134 3239 3238 2198 2199 3304 3303 
2134 2135 3240 3239 2199 2200 3305 3304 
2135 2136 3241 3240 2200 2201 3306 3305 
2136 2137 3242 3241 2201 2202 3307 3306 
2137 2138 3243 3242 2202 2203 3308 3307 
2138 2139 3244 3243 2203 2204 3309 3308 
2139 2140 3245 3244 2204 2205 3310 3309 
2140 2141 3246 3245 2205 2206 3311 3310 
2141 2142 3247 3246 2206 2207 3312 3311 
2142 2143 3248 3247 2207 2208 3313 3312 
2143 2144 3249 3248 2208 2209 3314 3313 
2210 2211 3316 3315 2275 2276 3381 3380 
2211 2212 3317 3316 2276 2277 3382 3381 
2212 2213 3318 3317 2277 2278 3383 3382 
2213 2214 3319 3318 2278 2279 3384 3383 
2214 2215 3320 3319 2279 2280 3385 3384 
2215 2216 3321 3320 2280 2281 3386 3385 
2216 2217 3322 3321 2281 2282 3387 3386 
2217 2218 3323 3322 2282 2283 3388 3387 
2218 2219 3324 3323 2283 2284 3389 3388 
2219 2220 3325 3324 2284 2285 3390 3389 
2220 2221 3326 3325 2285 2286 3391 3390 
2221 2222 3327 3326 2286 2287 3392 3391 
2222 2223 3328 3327 2287 2288 3393 3392 
2223 2224 3329 3328 2288 2289 3394 3393 
2224 2225 3330 3329 2289 2290 3395 3394 
2225 2226 3331 3330 2290 2291 3396 3395 
2226 2227 3332 3331 2291 2292 3397 3396 
2227 2228 3333 3332 2292 2293 3398 3397 
2228 2229 3334 3333 2293 2294 3399 3398 
2229 2230 3335 3334 2294 2295 3400 3399 
2230 2231 3336 3335 2295 2296 3401 3400 
2231 2232 3337 3336 2296 2297 3402 3401 
2232 2233 3338 3337 2297 2298 3403 3402 
2233 2234 3339 3338 2298 2299 3404 3403 
2234 2235 3340 3339 2299 2300 3405 3404 
2235 2236 3341 3340 2300 2301 3406 3405 
2236 2237 3342 3341 2301 2302 3407 3406 
2237 2238 3343 3342 2302 2303 3408 3407 
2238 2239 3344 3343 2303 2304 3409 3408 
2239 2240 3345 3344 2304 2305 3410 3409 
2240 2241 3346 3345 2305 2306 3411 3410 
2241 2242 3347 3346 2306 2307 3412 3411 
2242 2243 3348 3347 2307 2308 3413 3412 
2243 2244 3349 3348 2308 2309 3414 3413 
2244 2245 3350 3349 2309 2310 3415 3414 
2245 2246 3351 3350 2310 2311 3416 3415 
2246 2247 3352 3351 2311 2312 3417 3416 
2247 2248 3353 3352 2312 2313 3418 3417 
2248 2249 3354 3353 2313 2314 3419 3418 
2249 2250 3355 3354 2314 2315 3420 3419 
2250 2251 3356 3355 2315 2316 3421 3420 
2251 2252 3357 3356 2316 2317 3422 3421 
2252 2253 3358 3357 2317 2318 3423 3422 
2253 2254 3359 3358 2318 2319 3424 3423 
2254 2255 3360 3359 2319 2320 3425 3424 
2255 2256 3361 3360 2320 2321 3426 3425 
2256 2257 3362 3361 2321 2322 3427 3426 
2257 2258 3363 3362 2322 2323 3428 3427 
2258 2259 3364 3363 2323 2324 3429 3428 
2259 2260 3365 3364 2324 2325 3430 3429 
2260 2261 3366 3365 2325 2326 3431 3430 
2261 2262 3367 3366 2326 2327 3432 3431 
2262 2263 3368 3367 2327 2328 3433 3432 
2263 2264 3369 3368 2328 2329 3434 3433 
2264 2265 3370 3369 2329 2330 3435 3434 
2265 2266 3371 3370 2330 2331 3436 3435 
2266 2267 3372 3371 2331 2332 3437 3436 
2267 2268 3373 3372 2332 2333 3438 3437 
2268 2269 3374 3373 2333 2334 3439 3438 
2269 2270 3375 3374 2334 2335 3440 3439 
2270 2271 3376 3375 2335 2336 3441 3440 
2271 2272 3377 3376 2336 2337 3442 3441 
2272 2273 3378 3377 2337 2338 3443 3442 
2273 2274 3379 3378 2338 2339 3444 3443 
2275 2276 3381 3380 2340 2341 3446 3445 
2276 2277 3382 3381 2341 2342 3447 3446 
2277 2278 3383 3382 2342 2343 3448 3447 
2278 2279 3384 3383 2343 2344 3449 3448 
2279 2280 3385 3384 2344 2345 3450 3449 
2280 2281 3386 3385 2345 2346 3451 3450 
2281 2282 3387 3386 2346 2347 3452 3451 
2282 2283 3388 3387 2347 2348 3453 3452 
2283 2284 3389 3388 2348 2349 3454 3453 
2284 2285 3390 3389 2349 2350 3455 3454 
2285 2286 3391 3390 2350 2351 3456 3455 
2286 2287 3392 3391 2351 2352 3457 3456 
2287 2288 3393 3392 2352 2353 3458 3457 
2288 2289 3394 3393 2353 2354 3459 3458 
2289 2290 3395 3394 2354 2355 3460 3459 
2290 2291 3396 3395 2355 2356 3461 3460 
2291 2292 3397 3396 2356 2357 3462 3461 
2292 2293 3398 3397 2357 2358 3463 3462 
2293 2294 3399 3398 2358 2359 3464 3463 
2294 2295 3400 3399 2359 2360 3465 3464 
2295 2296 3401 3400 2360 2361 3466 3465 
2296 2297 3402 3401 2361 2362 3467 3466 
2297 2298 3403 3402 2362 2363 3468 3467 
2298 2299 3404 3403 2363 2364 3469 3468 
2299 2300 3405 3404 2364 2365 3470 3469 
2300 2301 3406 3405 2365 2366 3471 3470 
2301 2302 3407 3406 2366 2367 3472 3471 
2302 2303 3408 3407 2367 2368 3473 3472 
2303 2304 3409 3408 2368 2369 3474 3473 
2304 2305 3410 3409 2369 2370 3475 3474 
2305 2306 3411 3410 2370 2371 3476 3475 
2306 2307 3412 3411 2371 2372 3477 3476 
2307 2308 3413 3412 2372 2373 3478 3477 
2308 2309 3414 3413 2373 2374 3479 3478 
2309 2310 3415 3414 2374 2375 3480 3479 
2310 2311 3416 3415 2375 2376 3481 3480 
2311 2312 3417 3416 2376 2377 3482 3481 
2312 2313 3418 3417 2377 2378 3483 3482 
2313 2314 3419 3418 2378 2379 3484 3483 
2314 2315 3420 3419 2379 2380 3485 3484 
2315 2316 3421 3420 2380 2381 3486 3485 
2316 2317 3422 3421 2381 2382 3487 3486 
2317 2318 3423 3422 2382 2383 3488 3487 
2318 2319 3424 3423 2383 2384 3489 3488 
2319 2320 3425 3424 2384 2385 3490 3489 
2320 2321 3426 3425 2385 2386 3491 3490 
2321 2322 3427 3426 2386 2387 3492 3491 
2322 2323 3428 3427 2387 2388 3493 3492 
2323 2324 3429 3428 2388 2389 3494 3493 
2324 2325 3430 3429 2389 2390 3495 3494 
2325 2326 3431 3430 2390 2391 3496 3495 
2326 2327 3432 3431 2391 2392 3497 3496 
2327 2328 3433 3432 2392 2393 3498 3497 
2328 2329 3434 3433 2393 2394 3499 3498 
2329 2330 3435 3434 2394 2395 3500 3499 
2330 2331 3436 3435 2395 2396 3501 3500 
2331 2332 3437 3436 2396 2397 3502 3501 
2332 2333 3438 3437 2397 2398 3503 3502 
2333 2334 3439 3438 2398 2399 3504 3503 
2334 2335 3440 3439 2399 2400 3505 3504 
2335 2336 3441 3440 2400 2401 3506 3505 
2336 2337 3442 3441 2401 2402 3507 3506 
2337 2338 3443 3442 2402 2403 3508 3507 
2338 2339 3444 3443 2403 2404 3509 3508 
2340 2341 3446 3445 2405 2406 3511 3510 
2341 2342 3447 3446 2406 2407 3512 3511 
2342 2343 3448 3447 2407 2408 3513 3512 
2343 2344 3449 3448 2408 2409 3514 3513 
2344 2345 3450 3449 2409 2410 3515 3514 
2345 2346 3451 3450 2410 2411 3516 3515 
2346 2347 3452 3451 2411 2412 3517 3516 
2347 2348 3453 3452 2412 2413 3518 3517 
2348 2349 3454 3453 2413 2414 3519 3518 
2349 2350 3455 3454 2414 2415 3520 3519 
2350 2351 3456 3455 2415 2416 3521 3520 
2351 2352 3457 3456 2416 2417 3522 3521 
2352 2353 3458 3457 2417 2418 3523 3522 
2353 2354 3459 3458 2418 2419 3524 3523 
2354 2355 3460 3459 2419 2420 3525 3524 
2355 2356 3461 3460 2420 2421 3526 3525 
2356 2357 3462 3461 2421 2422 3527 3526 
2357 2358 3463 3462 2422 2423 3528 3527 
2358 2359 3464 3463 2423 2424 3529 3528 
2359 2360 3465 3464 2424 2425 3530 3529 
2360 2361 3466 3465 2425 2426 3531 3530 
2361 2362 3467 3466 2426 2427 3532 3531 
2362 2363 3468 3467 2427 2428 3533 3532 
2363 2364 3469 3468 2428 2429 3534 3533 
2364 2365 3470 3469 2429 2430 3535 3534 
2365 2366 3471 3470 2430 2431 3536 3535 
2366 2367 3472 3471 2431 2432 3537 3536 
2367 2368 3473 3472 2432 2433 3538 3537 
2368 2369 3474 3473 2433 2434 3539 3538 
2369 2370 3475 3474 2434 2435 3540 3539 
2370 2371 3476 3475 2435 2436 3541 3540 
2371 2372 3477 3476 2436 2437 3542 3541 
2372 2373 3478 3477 2437 2438 3543 3542 
2373 2374 3479 3478 2438 2439 3544 3543 
2374 2375 3480 3479 2439 2440 3545 3544 
2375 2376 3481 3480 2440 2441 3546 3545 
2376 2377 3482 3481 2441 2442 3547 3546 
2377 2378 3483 3482 2442 2443 3548 3547 
2378 2379 3484 3483 2443 2444 3549 3548 
2379 2380 3485 3484 2444 2445 3550 3549 
2380 2381 3486 3485 2445 2446 3551 3550 
2381 2382 3487 3486 2446 2447 3552 3551 
2382 2383 3488 3487 2447 2448 3553 3552 
2383 2384 3489 3488 2448 2449 3554 3553 
2384 2385 3490 3489 2449 2450 3555 3554 
2385 2386 3491 3490 2450 2451 3556 3555 
2386 2387 3492 3491 2451 2452 3557 3556 
2387 2388 3493 3492 2452 2453 3558 3557 
2388 2389 3494 3493 2453 2454 3559 3558 
2389 2390 3495 3494 2454 2455 3560 3559 
2390 2391 3496 3495 2455 2456 3561 3560 
2391 2392 3497 3496 2456 2457 3562 3561 
2392 2393 3498 3497 2457 2458 3563 3562 
2393 2394 3499 3498 2458 2459 3564 3563 
2394 2395 3500 3499 2459 2460 3565 3564 
2395 2396 3501 3500 2460 2461 3566 3565 
2396 2397 3502 3501 2461 2462 3567 3566 
2397 2398 3503 3502 2462 2463 3568 3567 
2398 2399 3504 3503 2463 2464 3569 3568 
2399 2400 3505 3504 2464 2465 3570 3569 
2400 2401 3506 3505 2465 2466 3571 3570 
2401 2402 3507 3506 2466 2467 3572 3571 
2402 2403 3508 3507 2467 2468 3573 3572 
2403 2404 3509 3508 2468 2469 3574 3573 
2405 2406 3511 3510 2470 2471 3576 3575 
2406 2407 3512 3511 2471 2472 3577 3576 
2407 2408 3513 3512 2472 2473 3578 3577 
2408 2409 3514 3513 2473 2474 3579 3578 
2409 2410 3515 3514 2474 2475 3580 3579 
2410 2411 3516 3515 2475 2476 3581 3580 
2411 2412 3517 3516 2476 2477 3582 3581 
2412 2413 3518 3517 2477 2478 3583 3582 
2413 2414 3519 3518 2478 2479 3584 3583 
2414 2415 3520 3519 2479 2480 3585 3584 
2415 2416 3521 3520 2480 2481 3586 3585 
2416 2417 3522 3521 2481 2482 3587 3586 
2417 2418 3523 3522 2482 2483 3588 3587 
2418 2419 3524 3523 2483 2484 3589 3588 
2419 2420 3525 3524 2484 2485 3590 3589 
2420 2421 3526 3525 2485 2486 3591 3590 
2421 2422 3527 3526 2486 2487 3592 3591 
2422 2423 3528 3527 2487 2488 3593 3592 
2423 2424 3529 3528 2488 2489 3594 3593 
2424 2425 3530 3529 2489 2490 3595 3594 
2425 2426 3531 3530 2490 2491 3596 3595 
2426 2427 3532 3531 2491 2492 3597 3596 
2427 2428 3533 3532 2492 2493 3598 3597 
2428 2429 3534 3533 2493 2494 3599 3598 
2429 2430 3535 3534 2494 2495 3600 3599 
2430 2431 3536 3535 2495 2496 3601 3600 
2431 2432 3537 3536 2496 2497 3602 3601 
2432 2433 3538 3537 2497 2498 3603 3602 
2433 2434 3539 3538 2498 2499 3604 3603 
2434 2435 3540 3539 2499 2500 3605 3604 
2435 2436 3541 3540 2500 2501 3606 3605 
2436 2437 3542 3541 2501 2502 3607 3606 
2437 2438 3543 3542 2502 2503 3608 3607 
2438 2439 3544 3543 2503 2504 3609 3608 
2439 2440 3545 3544 2504 2505 3610 3609 
2440 2441 3546 3545 2505 2506 3611 3610 
2441 2442 3547 3546 2506 2507 3612 3611 
2442 2443 3548 3547 2507 2508 3613 3612 
2443 2444 3549 3548 2508 2509 3614 3613 
2444 2445 3550 3549 2509 2510 3615 3614 
2445 2446 3551 3550 2510 2511 3616 3615 
2446 2447 3552 3551 2511 2512 3617 3616 
2447 2448 3553 3552 2512 2513 3618 3617 
2448 2449 3554 3553 2513 2514 3619 3618 
2449 2450 3555 3554 2514 2515 3620 3619 
2450 2451 3556 3555 2515 2516 3621 3620 
2451 2452 3557 3556 2516 2517 3622 3621 
2452 2453 3558 3557 2517 2518 3623 3622 
2453 2454 3559 3558 2518 2519 3624 3623 
2454 2455 3560 3559 2519 2520 3625 3624 
2455 2456 3561 3560 2520 2521 3626 3625 
2456 2457 3562 3561 2521 2522 3627 3626 
2457 2458 3563 3562 2522 2523 3628 3627 
2458 2459 3564 3563 2523 2524 3629 3628 
2459 2460 3565 3564 2524 2525 3630 3629 
2460 2461 3566 3565 2525 2526 3631 3630 
2461 2462 3567 3566 2526 2527 3632 3631 
2462 2463 3568 3567 2527 2528 3633 3632 
2463 2464 3569 3568 2528 2529 3634 3633 
2464 2465 3570 3569 2529 2530 3635 3634 
2465 2466 3571 3570 2530 2531 3636 3635 
2466 2467 3572 3571 2531 2532 3637 3636 
2467 2468 3573 3572 2532 2533 3638 3637 
2468 2469 3574 3573 2533 2534 3639 3638 
2470 2471 3576 3575 2535 2536 3641 3640 
2471 2472 3577 3576 2536 2537 3642 3641 
2472 2473 3578 3577 2537 2538 3643 3642 
2473 2474 3579 3578 2538 2539 3644 3643 
2474 2475 3580 3579 2539 2540 3645 3644 
2475 2476 3581 3580 2540 2541 3646 3645 
2476 2477 3582 3581 2541 2542 3647 3646 
2477 2478 3583 3582 2542 2543 3648 3647 
2478 2479 3584 3583 2543 2544 3649 3648 
2479 2480 3585 3584 2544 2545 3650 3649 
2480 2481 3586 3585 2545 2546 3651 3650 
2481 2482 3587 3586 2546 2547 3652 3651 
2482 2483 3588 3587 2547 2548 3653 3652 
2483 2484 3589 3588 2548 2549 3654 3653 
2484 2485 3590 3589 2549 2550 3655 3654 
2485 2486 3591 3590 2550 2551 3656 3655 
2486 2487 3592 3591 2551 2552 3657 3656 
2487 2488 3593 3592 2552 2553 3658 3657 
2488 2489 3594 3593 2553 2554 3659 3658 
2489 2490 3595 3594 2554 2555 3660 3659 
2490 2491 3596 3595 2555 2556 3661 3660 
2491 2492 3597 3596 2556 2557 3662 3661 
2492 2493 3598 3597 2557 2558 3663 3662 
2493 2494 3599 3598 2558 2559 3664 3663 
2494 2495 3600 3599 2559 2560 3665 3664 
2495 2496 3601 3600 2560 2561 3666 3665 
2496 2497 3602 3601 2561 2562 3667 3666 
2497 2498 3603 3602 2562 2563 3668 3667 
2498 2499 3604 3603 2563 2564 3669 3668 
2499 2500 3605 3604 2564 2565 3670 3669 
2500 2501 3606 3605 2565 2566 3671 3670 
2501 2502 3607 3606 2566 2567 3672 3671 
2502 2503 3608 3607 2567 2568 3673 3672 
2503 2504 3609 3608 2568 2569 3674 3673 
2504 2505 3610 3609 2569 2570 3675 3674 
2505 2506 3611 3610 2570 2571 3676 3675 
2506 2507 3612 3611 2571 2572 3677 3676 
2507 2508 3613 3612 2572 2573 3678 3677 
2508 2509 3614 3613 2573 2574 3679 3678 
2509 2510 3615 3614 2574 2575 3680 3679 
2510 2511 3616 3615 2575 2576 3681 3680 
2511 2512 3617 3616 2576 2577 3682 3681 
2512 2513 3618 3617 2577 2578 3683 3682 
2513 2514 3619 3618 2578 2579 3684 3683 
2514 2515 3620 3619 2579 2580 3685 3684 
2515 2516 3621 3620 2580 2581 3686 3685 
2516 2517 3622 3621 2581 2582 3687 3686 
2517 2518 3623 3622 2582 2583 3688 3687 
2518 2519 3624 3623 2583 2584 3689 3688 
2519 2520 3625 3624 2584 2585 3690 3689 
2520 2521 3626 3625 2585 2586 3691 3690 
2521 2522 3627 3626 2586 2587 3692 3691 
2522 2523 3628 3627 2587 2588 3693 3692 
2523 2524 3629 3628 2588 2589 3694 3693 
2524 2525 3630 3629 2589 2590 3695 3694 
2525 2526 3631 3630 2590 2591 3696 3695 
2526 2527 3632 3631 2591 2592 3697 3696 
2527 2528 3633 3632 2592 2593 3698 3697 
2528 2529 3634 3633 2593 2594 3699 3698 
2529 2530 3635 3634 2594 2595 3700 3699 
2530 2531 3636 3635 2595 2596 3701 3700 
2531 2532 3637 3636 2596 2597 3702 3701 
2532 2533 3638 3637 2597 2598 3703 3702 
2533 2534 3639 3638 2598 2599 3704 3703 
2535 2536 3641 3640 2600 2601 3706 3705 
2536 2537 3642 3641 2601 2602 3707 3706 
2537 2538 3643 3642 2602 2603 3708 3707 
2538 2539 3644 3643 2603 2604 3709 3708 
2539 2540 3645 3644 2604 2605 3710 3709 
2540 2541 3646 3645 2605 2606 3711 3710 
2541 2542 3647 3646 2606 2607 3712 3711 
2542 2543 3648 3647 2607 2608 3713 3712 
2543 2544 3649 3648 2608 2609 3714 3713 
2544 2545 3650 3649 2609 2610 3715 3714 
2545 2546 3651 3650 2610 2611 3716 3715 
2546 2547 3652 3651 2611 2612 3717 3716 
2547 2548 3653 3652 2612 2613 3718 3717 
2548 2549 3654 3653 2613 2614 3719 3718 
2549 2550 3655 3654 2614 2615 3720 3719 
2550 2551 3656 3655 2615 2616 3721 3720 
2551 2552 3657 3656 2616 2617 3722 3721 
2552 2553 3658 3657 2617 2618 3723 3722 
2553 2554 3659 3658 2618 2619 3724 3723 
2554 2555 3660 3659 2619 2620 3725 3724 
2555 2556 3661 3660 2620 2621 3726 3725 
2556 2557 3662 3661 2621 2622 3727 3726 
2557 2558 3663 3662 2622 2623 3728 3727 
2558 2559 3664 3663 2623 2624 3729 3728 
2559 2560 3665 3664 2624 2625 3730 3729 
2560 2561 3666 3665 2625 2626 3731 3730 
2561 2562 3667 3666 2626 2627 3732 3731 
2562 2563 3668 3667 2627 2628 3733 3732 
2563 2564 3669 3668 2628 2629 3734 3733 
2564 2565 3670 3669 2629 2630 3735 3734 
2565 2566 3671 3670 2630 2631 3736 3735 
2566 2567 3672 3671 2631 2632 3737 3736 
2567 2568 3673 3672 2632 2633 3738 3737 
2568 2569 3674 3673 2633 2634 3739 3738 
2569 2570 3675 3674 2634 2635 3740 3739 
2570 2571 3676 3675 2635 2636 3741 3740 
2571 2572 3677 3676 2636 2637 3742 3741 
2572 2573 3678 3677 2637 2638 3743 3742 
2573 2574 3679 3678 2638 2639 3744 3743 
2574 2575 3680 3679 2639 2640 3745 3744 
2575 2576 3681 3680 2640 2641 3746 3745 
2576 2577 3682 3681 2641 2642 3747 3746 
2577 2578 3683 3682 2642 2643 3748 3747 
2578 2579 3684 3683 2643 2644 3749 3748 
2579 2580 3685 3684 2644 2645 3750 3749 
2580 2581 3686 3685 2645 2646 3751 3750 
2581 2582 3687 3686 2646 2647 3752 3751 
2582 2583 3688 3687 2647 2648 3753 3752 
2583 2584 3689 3688 2648 2649 3754 3753 
2584 2585 3690 3689 2649 2650 3755 3754 
2585 2586 3691 3690 2650 2651 3756 3755 
2586 2587 3692 3691 2651 2652 3757 3756 
2587 2588 3693 3692 2652 2653 3758 3757 
2588 2589 3694 3693 2653 2654 3759 3758 
2589 2590 3695 3694 2654 2655 3760 3759 
2590 2591 3696 3695 2655 2656 3761 3760 
2591 2592 3697 3696 2656 2657 3762 3761 
2592 2593 3698 3697 2657 2658 3763 3762 
2593 2594 3699 3698 2658 2659 3764 3763 
2594 2595 3700 3699 2659 2660 3765 3764 
2595 2596 3701 3700 2660 2661 3766 3765 
2596 2597 3702 3701 2661 2662 3767 3766 
2597 2598 3703 3702 2662 2663 3768 3767 
2598 2599 3704 3703 2663 2664 3769 3768 
2600 2601 3706 3705 2665 2666 3771 3770 
2601 2602 3707 3706 2666 2667 3772 3771 
2602 2603 3708 3707 2667 2668 3773 3772 
2603 2604 3709 3708 2668 2669 3774 3773 
2604 2605 3710 3709 2669 2670 3775 3774 
2605 2606 3711 3710 2670 2671 3776 3775 
2606 2607 3712 3711 2671 2672 3777 3776 
2607 2608 3713 3712 2672 2673 3778 3777 
2608 2609 3714 3713 2673 2674 3779 3778 
2609 2610 3715 3714 2674 2675 3780 3779 
2610 2611 3716 3715 2675 2676 3781 3780 
2611 2612 3717 3716 2676 2677 3782 3781 
2612 2613 3718 3717 2677 2678 3783 3782 
2613 2614 3719 3718 2678 2679 3784 3783 
2614 2615 3720 3719 2679 2680 3785 3784 
2615 2616 3721 3720 2680 2681 3786 3785 
2616 2617 3722 3721 2681 2682 3787 3786 
2617 2618 3723 3722 2682 2683 3788 3787 
2618 2619 3724 3723 2683 2684 3789 3788 
2619 2620 3725 3724 2684 2685 3790 3789 
2620 2621 3726 3725 2685 2686 3791 3790 
2621 2622 3727 3726 2686 2687 3792 3791 
2622 2623 3728 3727 2687 2688 3793 3792 
2623 2624 3729 3728 2688 2689 3794 3793 
2624 2625 3730 3729 2689 2690 3795 3794 
2625 2626 3731 3730 2690 2691 3796 3795 
2626 2627 3732 3731 2691 2692 3797 3796 
2627 2628 3733 3732 2692 2693 3798 3797 
2628 2629 3734 3733 2693 2694 3799 3798 
2629 2630 3735 3734 2694 2695 3800 3799 
2630 2631 3736 3735 2695 2696 3801 3800 
2631 2632 3737 3736 2696 2697 3802 3801 
2632 2633 3738 3737 2697 2698 3803 3802 
2633 2634 3739 3738 2698 2699 3804 3803 
2634 2635 3740 3739 2699 2700 3805 3804 
2635 2636 3741 3740 2700 2701 3806 3805 
2636 2637 3742 3741 2701 2702 3807 3806 
2637 2638 3743 3742 2702 2703 3808 3807 
2638 2639 3744 3743 2703 2704 3809 3808 
2639 2640 3745 3744 2704 2705 3810 3809 
2640 2641 3746 3745 2705 2706 3811 3810 
2641 2642 3747 3746 2706 2707 3812 3811 
2642 2643 3748 3747 2707 2708 3813 3812 
2643 2644 3749 3748 2708 2709 3814 3813 
2644 2645 3750 3749 2709 2710 3815 3814 
2645 2646 3751 3750 2710 2711 3816 3815 
2646 2647 3752 3751 2711 2712 3817 3816 
2647 2648 3753 3752 2712 2713 3818 3817 
2648 2649 3754 3753 2713 2714 3819 3818 
2649 2650 3755 3754 2714 2715 3820 3819 
2650 2651 3756 3755 2715 2716 3821 3820 
2651 2652 3757 3756 2716 2717 3822 3821 
2652 2653 3758 3757 2717 2718 3823 3822 
2653 2654 3759 3758 2718 2719 3824 3823 
2654 2655 3760 3759 2719 2720 3825 3824 
2655 2656 3761 3760 2720 2721 3826 3825 
2656 2657 3762 3761 2721 2722 3827 3826 
2657 2658 3763 3762 2722 2723 3828 3827 
2658 2659 3764 3763 2723 2724 3829 3828 
2659 2660 3765 3764 2724 2725 3830 3829 
2660 2661 3766 3765 2725 2726 3831 3830 
2661 2662 3767 3766 2726 2727 3832 3831 
2662 2663 3768 3767 2727 2728 3833 3832 
2663 2664 3769 3768 2728 2729 3834 3833 
2665 2666 3771 3770 2730 2731 3836 3835 
2666 2667 3772 3771 2731 2732 3837 3836 
2667 2668 3773 3772 2732 2733 3838 3837 
2668 2669 3774 3773 2733 2734 3839 3838 
2669 2670 3775 3774 2734 2735 3840 3839 
2670 2671 3776 3775 2735 2736 3841 3840 
2671 2672 3777 3776 2736 2737 3842 3841 
2672 2673 3778 3777 2737 2738 3843 3842 
2673 2674 3779 3778 2738 2739 3844 3843 
2674 2675 3780 3779 2739 2740 3845 3844 
2675 2676 3781 3780 2740 2741 3846 3845 
2676 2677 3782 3781 2741 2742 3847 3846 
2677 2678 3783 3782 2742 2743 3848 3847 
2678 2679 3784 3783 2743 2744 3849 3848 
2679 2680 3785 3784 2744 2745 3850 3849 
2680 2681 3786 3785 2745 2746 3851 3850 
2681 2682 3787 3786 2746 2747 3852 3851 
2682 2683 3788 3787 2747 2748 3853 3852 
2683 2684 3789 3788 2748 2749 3854 3853 
2684 2685 3790 3789 2749 2750 3855 3854 
2685 2686 3791 3790 2750 2751 3856 3855 
2686 2687 3792 3791 2751 2752 3857 3856 
2687 2688 3793 3792 2752 2753 3858 3857 
2688 2689 3794 3793 2753 2754 3859 3858 
2689 2690 3795 3794 2754 2755 3860 3859 
2690 2691 3796 3795 2755 2756 3861 3860 
2691 2692 3797 3796 2756 2757 3862 3861 
2692 2693 3798 3797 2757 2758 3863 3862 
2693 2694 3799 3798 2758 2759 3864 3863 
2694 2695 3800 3799 2759 2760 3865 3864 
2695 2696 3801 3800 2760 2761 3866 3865 
2696 2697 3802 3801 2761 2762 3867 3866 
2697 2698 3803 3802 2762 2763 3868 3867 
2698 2699 3804 3803 2763 2764 3869 3868 
2699 2700 3805 3804 2764 2765 3870 3869 
2700 2701 3806 3805 2765 2766 3871 3870 
2701 2702 3807 3806 2766 2767 3872 3871 
2702 2703 3808 3807 2767 2768 3873 3872 
2703 2704 3809 3808 2768 2769 3874 3873 
2704 2705 3810 3809 2769 2770 3875 3874 
2705 2706 3811 3810 2770 2771 3876 3875 
2706 2707 3812 3811 2771 2772 3877 3876 
2707 2708 3813 3812 2772 2773 3878 3877 
2708 2709 3814 3813 2773 2774 3879 3878 
2709 2710 3815 3814 2774 2775 3880 3879 
2710 2711 3816 3815 2775 2776 3881 3880 
2711 2712 3817 3816 2776 2777 3882 3881 
2712 2713 3818 3817 2777 2778 3883 3882 
2713 2714 3819 3818 2778 2779 3884 3883 
2714 2715 3820 3819 2779 2780 3885 3884 
2715 2716 3821 3820 2780 2781 3886 3885 
2716 2717 3822 3821 2781 2782 3887 3886 
2717 2718 3823 3822 2782 2783 3888 3887 
2718 2719 3824 3823 2783 2784 3889 3888 
2719 2720 3825 3824 2784 2785 3890 3889 
2720 2721 3826 3825 2785 2786 3891 3890 
2721 2722 3827 3826 2786 2787 3892 3891 
2722 2723 3828 3827 2787 2788 3893 3892 
2723 2724 3829 3828 2788 2789 3894 3893 
2724 2725 3830 3829 2789 2790 3895 3894 
2725 2726 3831 3830 2790 2791 3896 3895 
2726 2727 3832 3831 2791 2792 3897 3896 
2727 2728 3833 3832 2792 2793 3898 3897 
2728 2729 3834 3833 2793 2794 3899 3898 
2730 2731 3836 3835 2795 2796 3901 3900 
2731 2732 3837 3836 2796 2797 3902 3901 
2732 2733 3838 3837 2797 2798 3903 3902 
2733 2734 3839 3838 2798 2799 3904 3903 
2734 2735 3840 3839 2799 2800 3905 3904 
2735 2736 3841 3840 2800 2801 3906 3905 
2736 2737 3842 3841 2801 2802 3907 3906 
2737 2738 3843 3842 2802 2803 3908 3907 
2738 2739 3844 3843 2803 2804 3909 3908 
2739 2740 3845 3844 2804 2805 3910 3909 
2740 2741 3846 3845 2805 2806 3911 3910 
2741 2742 3847 3846 2806 2807 3912 3911 
2742 2743 3848 3847 2807 2808 3913 3912 
2743 2744 3849 3848 2808 2809 3914 3913 
2744 2745 3850 3849 2809 2810 3915 3914 
2745 2746 3851 3850 2810 2811 3916 3915 
2746 2747 3852 3851 2811 2812 3917 3916 
2747 2748 3853 3852 2812 2813 3918 3917 
2748 2749 3854 3853 2813 2814 3919 3918 
2749 2750 3855 3854 2814 2815 3920 3919 
2750 2751 3856 3855 2815 2816 3921 3920 
2751 2752 3857 3856 2816 2817 3922 3921 
2752 2753 3858 3857 2817 2818 3923 3922 
2753 2754 3859 3858 2818 2819 3924 3923 
2754 2755 3860 3859 2819 2820 3925 3924 
2755 2756 3861 3860 2820 2821 3926 3925 
2756 2757 3862 3861 2821 2822 3927 3926 
2757 2758 3863 3862 2822 2823 3928 3927 
2758 2759 3864 3863 2823 2824 3929 3928 
2759 2760 3865 3864 2824 2825 3930 3929 
2760 2761 3866 3865 2825 2826 3931 3930 
2761 2762 3867 3866 2826 2827 3932 3931 
2762 2763 3868 3867 2827 2828 3933 3932 
2763 2764 3869 3868 2828 2829 3934 3933 
2764 2765 3870 3869 2829 2830 3935 3934 
2765 2766 3871 3870 2830 2831 3936 3935 
2766 2767 3872 3871 2831 2832 3937 3936 
2767 2768 3873 3872 2832 2833 3938 3937 
2768 2769 3874 3873 2833 2834 3939 3938 
2769 2770 3875 3874 2834 2835 3940 3939 
2770 2771 3876 3875 2835 2836 3941 3940 
2771 2772 3877 3876 2836 2837 3942 3941 
2772 2773 3878 3877 2837 2838 3943 3942 
2773 2774 3879 3878 2838 2839 3944 3943 
2774 2775 3880 3879 2839 2840 3945 3944 
2775 2776 3881 3880 2840 2841 3946 3945 
2776 2777 3882 3881 2841 2842 3947 3946 
2777 2778 3883 3882 2842 2843 3948 3947 
2778 2779 3884 3883 2843 2844 3949 3948 
2779 2780 3885 3884 2844 2845 3950 3949 
2780 2781 3886 3885 2845 2846 3951 3950 
2781 2782 3887 3886 2846 2847 3952 3951 
2782 2783 3888 3887 2847 2848 3953 3952 
2783 2784 3889 3888 2848 2849 3954 3953 
2784 2785 3890 3889 2849 2850 3955 3954 
2785 2786 3891 3890 2850 2851 3956 3955 
2786 2787 3892 3891 2851 2852 3957 3956 
2787 2788 3893 3892 2852 2853 3958 3957 
2788 2789 3894 3893 2853 2854 3959 3958 
2789 2790 3895 3894 2854 2855 3960 3959 
2790 2791 3896 3895 2855 2856 3961 3960 
2791 2792 3897 3896 2856 2857 3962 3961 
2792 2793 3898 3897 2857 2858 3963 3962 
2793 2794 3899 3898 2858 2859 3964 3963 
2795 2796 3901 3900 2860 2861 3966 3965 
2796 2797 3902 3901 2861 2862 3967 3966 
2797 2798 3903 3902 2862 2863 3968 3967 
2798 2799 3904 3903 2863 2864 3969 3968 
2799 2800 3905 3904 2864 2865 3970 3969 
2800 2801 3906 3905 2865 2866 3971 3970 
2801 2802 3907 3906 2866 2867 3972 3971 
2802 2803 3908 3907 2867 2868 3973 3972 
2803 2804 3909 3908 2868 2869 3974 3973 
2804 2805 3910 3909 2869 2870 3975 3974 
2805 2806 3911 3910 2870 2871 3976 3975 
2806 2807 3912 3911 2871 2872 3977 3976 
2807 2808 3913 3912 2872 2873 3978 3977 
2808 2809 3914 3913 2873 2874 3979 3978 
2809 2810 3915 3914 2874 2875 3980 3979 
2810 2811 3916 3915 2875 2876 3981 3980 
2811 2812 3917 3916 2876 2877 3982 3981 
2812 2813 3918 3917 2877 2878 3983 3982 
2813 2814 3919 3918 2878 2879 3984 3983 
2814 2815 3920 3919 2879 2880 3985 3984 
2815 2816 3921 3920 2880 2881 3986 3985 
2816 2817 3922 3921 2881 2882 3987 3986 
2817 2818 3923 3922 2882 2883 3988 3987 
2818 2819 3924 3923 2883 2884 3989 3988 
2819 2820 3925 3924 2884 2885 3990 3989 
2820 2821 3926 3925 2885 2886 3991 3990 
2821 2822 3927 3926 2886 2887 3992 3991 
2822 2823 3928 3927 2887 2888 3993 3992 
2823 2824 3929 3928 2888 2889 3994 3993 
2824 2825 3930 3929 2889 2890 3995 3994 
2825 2826 3931 3930 2890 2891 3996 3995 
2826 2827 3932 3931 2891 2892 3997 3996 
2827 2828 3933 3932 2892 2893 3998 3997 
2828 2829 3934 3933 2893 2894 3999 3998 
2829 2830 3935 3934 2894 2895 4000 3999 
2830 2831 3936 3935 2895 2896 4001 4000 
2831 2832 3937 3936 2896 2897 4002 4001 
2832 2833 3938 3937 2897 2898 4003 4002 
2833 2834 3939 3938 2898 2899 4004 4003 
2834 2835 3940 3939 2899 2900 4005 4004 
2835 2836 3941 3940 2900 2901 4006 4005 
2836 2837 3942 3941 2901 2902 4007 4006 
2837 2838 3943 3942 2902 2903 4008 4007 
2838 2839 3944 3943 2903 2904 4009 4008 
2839 2840 3945 3944 2904 2905 4010 4009 
2840 2841 3946 3945 2905 2906 4011 4010 
2841 2842 3947 3946 2906 2907 4012 4011 
2842 2843 3948 3947 2907 2908 4013 4012 
2843 2844 3949 3948 2908 2909 4014 4013 
2844 2845 3950 3949 2909 2910 4015 4014 
2845 2846 3951 3950 2910 2911 4016 4015 
2846 2847 3952 3951 2911 2912 4017 4016 
2847 2848 3953 3952 2912 2913 4018 4017 
2848 2849 3954 3953 2913 2914 4019 4018 
2849 2850 3955 3954 2914 2915 4020 4019 
2850 2851 3956 3955 2915 2916 4021 4020 
2851 2852 3957 3956 2916 2917 4022 4021 
2852 2853 3958 3957 2917 2918 4023 4022 
2853 2854 3959 3958 2918 2919 4024 4023 
2854 2855 3960 3959 2919 2920 4025 4024 
2855 2856 3961 3960 2920 2921 4026 4025 
2856 2857 3962 3961 2921 2922 4027 4026 
2857 2858 3963 3962 2922 2923 4028 4027 
2858 2859 3964 3963 2923 2924 4029 4028 
2860 2861 3966 3965 2925 2926 4031 4030 
2861 2862 3967 3966 2926 2927 4032 4031 
2862 2863 3968 3967 2927 2928 4033 4032 
2863 2864 3969 3968 2928 2929 4034 4033 
2864 2865 3970 3969 2929 2930 4035 4034 
2865 2866 3971 3970 2930 2931 4036 4035 
2866 2867 3972 3971 2931 2932 4037 4036 
2867 2868 3973 3972 2932 2933 4038 4037 
2868 2869 3974 3973 2933 2934 4039 4038 
2869 2870 3975 3974 2934 2935 4040 4039 
2870 2871 3976 3975 2935 2936 4041 4040 
2871 2872 3977 3976 2936 2937 4042 4041 
2872 2873 3978 3977 2937 2938 4043 4042 
2873 2874 3979 3978 2938 2939 4044 4043 
2874 2875 3980 3979 2939 2940 4045 4044 
2875 2876 3981 3980 2940 2941 4046 4045 
2876 2877 3982 3981 2941 2942 4047 4046 
2877 2878 3983 3982 2942 2943 4048 4047 
2878 2879 3984 3983 2943 2944 4049 4048 
2879 2880 3985 3984 2944 2945 4050 4049 
2880 2881 3986 3985 2945 2946 4051 4050 
2881 2882 3987 3986 2946 2947 4052 4051 
2882 2883 3988 3987 2947 2948 4053 4052 
2883 2884 3989 3988 2948 2949 4054 4053 
2884 2885 3990 3989 2949 2950 4055 4054 
2885 2886 3991 3990 2950 2951 4056 4055 
2886 2887 3992 3991 2951 2952 4057 4056 
2887 2888 3993 3992 2952 2953 4058 4057 
2888 2889 3994 3993 2953 2954 4059 4058 
2889 2890 3995 3994 2954 2955 4060 4059 
2890 2891 3996 3995 2955 2956 4061 4060 
2891 2892 3997 3996 2956 2957 4062 4061 
2892 2893 3998 3997 2957 2958 4063 4062 
2893 2894 3999 3998 2958 2959 4064 4063 
2894 2895 4000 3999 2959 2960 4065 4064 
2895 2896 4001 4000 2960 2961 4066 4065 
2896 2897 4002 4001 2961 2962 4067 4066 
2897 2898 4003 4002 2962 2963 4068 4067 
2898 2899 4004 4003 2963 2964 4069 4068 
2899 2900 4005 4004 2964 2965 4070 4069 
2900 2901 4006 4005 2965 2966 4071 4070 
2901 2902 4007 4006 2966 2967 4072 4071 
2902 2903 4008 4007 2967 2968 4073 4072 
2903 2904 4009 4008 2968 2969 4074 4073 
2904 2905 4010 4009 2969 2970 4075 4074 
2905 2906 4011 4010 2970 2971 4076 4075 
2906 2907 4012 4011 2971 2972 4077 4076 
2907 2908 4013 4012 2972 2973 4078 4077 
2908 2909 4014 4013 2973 2974 4079 4078 
2909 2910 4015 4014 2974 2975 4080 4079 
2910 2911 4016 4015 2975 2976 4081 4080 
2911 2912 4017 4016 2976 2977 4082 4081 
2912 2913 4018 4017 2977 2978 4083 4082 
2913 2914 4019 4018 2978 2979 4084 4083 
2914 2915 4020 4019 2979 2980 4085 4084 
2915 2916 4021 4020 2980 2981 4086 4085 
2916 2917 4022 4021 2981 2982 4087 4086 
2917 2918 4023 4022 2982 2983 4088 4087 
2918 2919 4024 4023 2983 2984 4089 4088 
2919 2920 4025 4024 2984 2985 4090 4089 
2920 2921 4026 4025 2985 2986 4091 4090 
2921 2922 4027 4026 2986 2987 4092 4091 
2922 2923 4028 4027 2987 2988 4093 4092 
2923 2924 4029 4028 2988 2989 4094 4093 
2925 2926 4031 4030 2990 2991 4096 4095 
2926 2927 4032 4031 2991 2992 4097 4096 
2927 2928 4033 4032 2992 2993 4098 4097 
2928 2929 4034 4033 2993 2994 4099 4098 
2929 2930 4035 4034 2994 2995 4100 4099 
2930 2931 4036 4035 2995 2996 4101 4100 
2931 2932 4037 4036 2996 2997 4102 4101 
2932 2933 4038 4037 2997 2998 4103 4102 
2933 2934 4039 4038 2998 2999 4104 4103 
2934 2935 4040 4039 2999 3000 4105 4104 
2935 2936 4041 4040 3000 3001 4106 4105 
2936 2937 4042 4041 3001 3002 4107 4106 
2937 2938 4043 4042 3002 3003 4108 4107 
2938 2939 4044 4043 3003 3004 4109 4108 
2939 2940 4045 4044 3004 3005 4110 4109 
2940 2941 4046 4045 3005 3006 4111 4110 
2941 2942 4047 4046 3006 3007 4112 4111 
2942 2943 4048 4047 3007 3008 4113 4112 
2943 2944 4049 4048 3008 3009 4114 4113 
2944 2945 4050 4049 3009 3010 4115 4114 
2945 2946 4051 4050 3010 3011 4116 4115 
2946 2947 4052 4051 3011 3012 4117 4116 
2947 2948 4053 4052 3012 3013 4118 4117 
2948 2949 4054 4053 3013 3014 4119 4118 
2949 2950 4055 4054 3014 3015 4120 4119 
2950 2951 4056 4055 3015 3016 4121 4120 
2951 2952 4057 4056 3016 3017 4122 4121 
2952 2953 4058 4057 3017 3018 4123 4122 
2953 2954 4059 4058 3018 3019 4124 4123 
2954 2955 4060 4059 3019 3020 4125 4124 
2955 2956 4061 4060 3020 3021 4126 4125 
2956 2957 4062 4061 3021 3022 4127 4126 
2957 2958 4063 4062 3022 3023 4128 4127 
2958 2959 4064 4063 3023 3024 4129 4128 
2959 2960 4065 4064 3024 3025 4130 4129 
2960 2961 4066 4065 3025 3026 4131 4130 
2961 2962 4067 4066 3026 3027 4132 4131 
2962 2963 4068 4067 3027 3028 4133 4132 
2963 2964 4069 4068 3028 3029 4134 4133 
2964 2965 4070 4069 3029 3030 4135 4134 
2965 2966 4071 4070 3030 3031 4136 4135 
2966 2967 4072 4071 3031 3032 4137 4136 
2967 2968 4073 4072 3032 3033 4138 4137 
2968 2969 4074 4073 3033 3034 4139 4138 
2969 2970 4075 4074 3034 3035 4140 4139 
2970 2971 4076 4075 3035 3036 4141 4140 
2971 2972 4077 4076 3036 3037 4142 4141 
2972 2973 4078 4077 3037 3038 4143 4142 
2973 2974 4079 4078 3038 3039 4144 4143 
2974 2975 4080 4079 3039 3040 4145 4144 
2975 2976 4081 4080 3040 3041 4146 4145 
2976 2977 4082 4081 3041 3042 4147 4146 
2977 2978 4083 4082 3042 3043 4148 4147 
2978 2979 4084 4083 3043 3044 4149 4148 
2979 2980 4085 4084 3044 3045 4150 4149 
2980 2981 4086 4085 3045 3046 4151 4150 
2981 2982 4087 4086 3046 3047 4152 4151 
2982 2983 4088 4087 3047 3048 4153 4152 
2983 2984 4089 4088 3048 3049 4154 4153 
2984 2985 4090 4089 3049 3050 4155 4154 
2985 2986 4091 4090 3050 3051 4156 4155 
2986 2987 4092 4091 3051 3052 4157 4156 
2987 2988 4093 4092 3052 3053 4158 4157 
2988 2989 4094 4093 3053 3054 4159 4158 
2990 2991 4096 4095 3055 3056 4161 4160 
2991 2992 4097 4096 3056 3057 4162 4161 
2992 2993 4098 4097 3057 3058 4163 4162 
2993 2994 4099 4098 3058 3059 4164 4163 
2994 2995 4100 4099 3059 3060 4165 4164 
2995 2996 4101 4100 3060 3061 4166 4165 
2996 2997 4102 4101 3061 3062 4167 4166 
2997 2998 4103 4102 3062 3063 4168 4167 
2998 2999 4104 4103 3063 3064 4169 4168 
2999 3000 4105 4104 3064 3065 4170 4169 
3000 3001 4106 4105 3065 3066 4171 4170 
3001 3002 4107 4106 3066 3067 4172 4171 
3002 3003 4108 4107 3067 3068 4173 4172 
3003 3004 4109 4108 3068 3069 4174 4173 
3004 3005 4110 4109 3069 3070 4175 4174 
3005 3006 4111 4110 3070 3071 4176 4175 
3006 3007 4112 4111 3071 3072 4177 4176 
3007 3008 4113 4112 3072 3073 4178 4177 
3008 3009 4114 4113 3073 3074 4179 4178 
3009 3010 4115 4114 3074 3075 4180 4179 
3010 3011 4116 4115 3075 3076 4181 4180 
3011 3012 4117 4116 3076 3077 4182 4181 
3012 3013 4118 4117 3077 3078 4183 4182 
3013 3014 4119 4118 3078 3079 4184 4183 
3014 3015 4120 4119 3079 3080 4185 4184 
3015 3016 4121 4120 3080 3081 4186 4185 
3016 3017 4122 4121 3081 3082 4187 4186 
3017 3018 4123 4122 3082 3083 4188 4187 
3018 3019 4124 4123 3083 3084 4189 4188 
3019 3020 4125 4124 3084 3085 4190 4189 
3020 3021 4126 4125 3085 3086 4191 4190 
3021 3022 4127 4126 3086 3087 4192 4191 
3022 3023 4128 4127 3087 3088 4193 4192 
3023 3024 4129 4128 3088 3089 4194 4193 
3024 3025 4130 4129 3089 3090 4195 4194 
3025 3026 4131 4130 3090 3091 4196 4195 
3026 3027 4132 4131 3091 3092 4197 4196 
3027 3028 4133 4132 3092 3093 4198 4197 
3028 3029 4134 4133 3093 3094 4199 4198 
3029 3030 4135 4134 3094 3095 4200 4199 
3030 3031 4136 4135 3095 3096 4201 4200 
3031 3032 4137 4136 3096 3097 4202 4201 
3032 3033 4138 4137 3097 3098 4203 4202 
3033 3034 4139 4138 3098 3099 4204 4203 
3034 3035 4140 4139 3099 3100 4205 4204 
3035 3036 4141 4140 3100 3101 4206 4205 
3036 3037 4142 4141 3101 3102 4207 4206 
3037 3038 4143 4142 3102 3103 4208 4207 
3038 3039 4144 4143 3103 3104 4209 4208 
3039 3040 4145 4144 3104 3105 4210 4209 
3040 3041 4146 4145 3105 3106 4211 4210 
3041 3042 4147 4146 3106 3107 4212 4211 
3042 3043 4148 4147 3107 3108 4213 4212 
3043 3044 4149 4148 3108 3109 4214 4213 
3044 3045 4150 4149 3109 3110 4215 4214 
3045 3046 4151 4150 3110 3111 4216 4215 
3046 3047 4152 4151 3111 3112 4217 4216 
3047 3048 4153 4152 3112 3113 4218 4217 
3048 3049 4154 4153 3113 3114 4219 4218 
3049 3050 4155 4154 3114 3115 4220 4219 
3050 3051 4156 4155 3115 3116 4221 4220 
3051 3052 4157 4156 3116 3117 4222 4221 
3052 3053 4158 4157 3117 3118 4223 4222 
3053 3054 4159 4158 3118 3119 4224 4223 
3055 3056 4161 4160 3120 3121 4226 4225 
3056 3057 4162 4161 3121 3122 4227 4226 
3057 3058 4163 4162 3122 3123 4228 4227 
3058 3059 4164 4163 3123 3124 4229 4228 
3059 3060 4165 4164 3124 3125 4230 4229 
3060 3061 4166 4165 3125 3126 4231 4230 
3061 3062 4167 4166 3126 3127 4232 4231 
3062 3063 4168 4167 3127 3128 4233 4232 
3063 3064 4169 4168 3128 3129 4234 4233 
3064 3065 4170 4169 3129 3130 4235 4234 
3065 3066 4171 4170 3130 3131 4236 4235 
3066 3067 4172 4171 3131 3132 4237 4236 
3067 3068 4173 4172 3132 3133 4238 4237 
3068 3069 4174 4173 3133 3134 4239 4238 
3069 3070 4175 4174 3134 3135 4240 4239 
3070 3071 4176 4175 3135 3136 4241 4240 
3071 3072 4177 4176 3136 3137 4242 4241 
3072 3073 4178 4177 3137 3138 4243 4242 
3073 3074 4179 4178 3138 3139 4244 4243 
3074 3075 4180 4179 3139 3140 4245 4244 
3075 3076 4181 4180 3140 3141 4246 4245 
3076 3077 4182 4181 3141 3142 4247 4246 
3077 3078 4183 4182 3142 3143 4248 4247 
3078 3079 4184 4183 3143 3144 4249 4248 
3079 3080 4185 4184 3144 3145 4250 4249 
3080 3081 4186 4185 3145 3146 4251 4250 
3081 3082 4187 4186 3146 3147 4252 4251 
3082 3083 4188 4187 3147 3148 4253 4252 
3083 3084 4189 4188 3148 3149 4254 4253 
3084 3085 4190 4189 3149 3150 4255 4254 
3085 3086 4191 4190 3150 3151 4256 4255 
3086 3087 4192 4191 3151 3152 4257 4256 
3087 3088 4193 4192 3152 3153 4258 4257 
3088 3089 4194 4193 3153 3154 4259 4258 
3089 3090 4195 4194 3154 3155 4260 4259 
3090 3091 4196 4195 3155 3156 4261 4260 
3091 3092 4197 4196 3156 3157 4262 4261 
3092 3093 4198 4197 3157 3158 4263 4262 
3093 3094 4199 4198 3158 3159 4264 4263 
3094 3095 4200 4199 3159 3160 4265 4264 
3095 3096 4201 4200 3160 3161 4266 4265 
3096 3097 4202 4201 3161 3162 4267 4266 
3097 3098 4203 4202 3162 3163 4268 4267 
3098 3099 4204 4203 3163 3164 4269 4268 
3099 3100 4205 4204 3164 3165 4270 4269 
3100 3101 4206 4205 3165 3166 4271 4270 
3101 3102 4207 4206 3166 3167 4272 4271 
3102 3103 4208 4207 3167 3168 4273 4272 
3103 3104 4209 4208 3168 3169 4274 4273 
3104 3105 4210 4209 3169 3170 4275 4274 
3105 3106 4211 4210 3170 3171 4276 4275 
3106 3107 4212 4211 3171 3172 4277 4276 
3107 3108 4213 4212 3172 3173 4278 4277 
3108 3109 4214 4213 3173 3174 4279 4278 
3109 3110 4215 4214 3174 3175 4280 4279 
3110 3111 4216 4215 3175 3176 4281 4280 
3111 3112 4217 4216 3176 3177 4282 4281 
3112 3113 4218 4217 3177 3178 4283 4282 
3113 3114 4219 4218 3178 3179 4284 4283 
3114 3115 4220 4219 3179 3180 4285 4284 
3115 3116 4221 4220 3180 3181 4286 4285 
3116 3117 4222 4221 3181 3182 4287 4286 
3117 3118 4223 4222 3182 3183 4288 4287 
3118 3119 4224 4223 3183 3184 4289 4288 
3120 3121 4226 4225 3185 3186 4291 4290 
3121 3122 4227 4226 3186 3187 4292 4291 
3122 3123 4228 4227 3187 3188 4293 4292 
3123 3124 4229 4228 3188 3189 4294 4293 
3124 3125 4230 4229 3189 3190 4295 4294 
3125 3126 4231 4230 3190 3191 4296 4295 
3126 3127 4232 4231 3191 3192 4297 4296 
3127 3128 4233 4232 3192 3193 4298 4297 
3128 3129 4234 4233 3193 3194 4299 4298 
3129 3130 4235 4234 3194 3195 4300 4299 
3130 3131 4236 4235 3195 3196 4301 4300 
3131 3132 4237 4236 3196 3197 4302 4301 
3132 3133 4238 4237 3197 3198 4303 4302 
3133 3134 4239 4238 3198 3199 4304 4303 
3134 3135 4240 4239 3199 3200 4305 4304 
3135 3136 4241 4240 3200 3201 4306 4305 
3136 3137 4242 4241 3201 3202 4307 4306 
3137 3138 4243 4242 3202 3203 4308 4307 
3138 3139 4244 4243 3203 3204 4309 4308 
3139 3140 4245 4244 3204 3205 4310 4309 
3140 3141 4246 4245 3205 3206 4311 4310 
3141 3142 4247 4246 3206 3207 4312 4311 
3142 3143 4248 4247 3207 3208 4313 4312 
3143 3144 4249 4248 3208 3209 4314 4313 
3144 3145 4250 4249 3209 3210 4315 4314 
3145 3146 4251 4250 3210 3211 4316 4315 
3146 3147 4252 4251 3211 3212 4317 4316 
3147 3148 4253 4252 3212 3213 4318 4317 
3148 3149 4254 4253 3213 3214 4319 4318 
3149 3150 4255 4254 3214 3215 4320 4319 
3150 3151 4256 4255 3215 3216 4321 4320 
3151 3152 4257 4256 3216 3217 4322 4321 
3152 3153 4258 4257 3217 3218 4323 4322 
3153 3154 4259 4258 3218 3219 4324 4323 
3154 3155 4260 4259 3219 3220 4325 4324 
3155 3156 4261 4260 3220 3221 4326 4325 
3156 3157 4262 4261 3221 3222 4327 4326 
3157 3158 4263 4262 3222 3223 4328 4327 
3158 3159 4264 4263 3223 3224 4329 4328 
3159 3160 4265 4264 3224 3225 4330 4329 
3160 3161 4266 4265 3225 3226 4331 4330 
3161 3162 4267 4266 3226 3227 4332 4331 
3162 3163 4268 4267 3227 3228 4333 4332 
3163 3164 4269 4268 3228 3229 4334 4333 
3164 3165 4270 4269 3229 3230 4335 4334 
3165 3166 4271 4270 3230 3231 4336 4335 
3166 3167 4272 4271 3231 3232 4337 4336 
3167 3168 4273 4272 3232 3233 4338 4337 
3168 3169 4274 4273 3233 3234 4339 4338 
3169 3170 4275 4274 3234 3235 4340 4339 
3170 3171 4276 4275 3235 3236 4341 4340 
3171 3172 4277 4276 3236 3237 4342 4341 
3172 3173 4278 4277 3237 3238 4343 4342 
3173 3174 4279 4278 3238 3239 4344 4343 
3174 3175 4280 4279 3239 3240 4345 4344 
3175 3176 4281 4280 3240 3241 4346 4345 
3176 3177 4282 4281 3241 3242 4347 4346 
3177 3178 4283 4282 3242 3243 4348 4347 
3178 3179 4284 4283 3243 3244 4349 4348 
3179 3180 4285 4284 3244 3245 4350 4349 
3180 3181 4286 4285 3245 3246 4351 4350 
3181 3182 4287 4286 3246 3247 4352 4351 
3182 3183 4288 4287 3247 3248 4353 4352 
3183 3184 4289 4288 3248 3249 4354 4353 
3185 3186 4291 4290 3250 3251 4356 4355 
3186 3187 4292 4291 3251 3252 4357 4356 
3187 3188 4293 4292 3252 3253 4358 4357 
3188 3189 4294 4293 3253 3254 4359 4358 
3189 3190 4295 4294 3254 3255 4360 4359 
3190 3191 4296 4295 3255 3256 4361 4360 
3191 3192 4297 4296 3256 3257 4362 4361 
3192 3193 4298 4297 3257 3258 4363 4362 
3193 3194 4299 4298 3258 3259 4364 4363 
3194 3195 4300 4299 3259 3260 4365 4364 
3195 3196 4301 4300 3260 3261 4366 4365 
3196 3197 4302 4301 3261 3262 4367 4366 
3197 3198 4303 4302 3262 3263 4368 4367 
3198 3199 4304 4303 3263 3264 4369 4368 
3199 3200 4305 4304 3264 3265 4370 4369 
3200 3201 4306 4305 3265 3266 4371 4370 
3201 3202 4307 4306 3266 3267 4372 4371 
3202 3203 4308 4307 3267 3268 4373 4372 
3203 3204 4309 4308 3268 3269 4374 4373 
3204 3205 4310 4309 3269 3270 4375 4374 
3205 3206 4311 4310 3270 3271 4376 4375 
3206 3207 4312 4311 3271 3272 4377 4376 
3207 3208 4313 4312 3272 3273 4378 4377 
3208 3209 4314 4313 3273 3274 4379 4378 
3209 3210 4315 4314 3274 3275 4380 4379 
3210 3211 4316 4315 3275 3276 4381 4380 
3211 3212 4317 4316 3276 3277 4382 4381 
3212 3213 4318 4317 3277 3278 4383 4382 
3213 3214 4319 4318 3278 3279 4384 4383 
3214 3215 4320 4319 3279 3280 4385 4384 
3215 3216 4321 4320 3280 3281 4386 4385 
3216 3217 4322 4321 3281 3282 4387 4386 
3217 3218 4323 4322 3282 3283 4388 4387 
3218 3219 4324 4323 3283 3284 4389 4388 
3219 3220 4325 4324 3284 3285 4390 4389 
3220 3221 4326 4325 3285 3286 4391 4390 
3221 3222 4327 4326 3286 3287 4392 4391 
3222 3223 4328 4327 3287 3288 4393 4392 
3223 3224 4329 4328 3288 3289 4394 4393 
3224 3225 4330 4329 3289 3290 4395 4394 
3225 3226 4331 4330 3290 3291 4396 4395 
3226 3227 4332 4331 3291 3292 4397 4396 
3227 3228 4333 4332 3292 3293 4398 4397 
3228 3229 4334 4333 3293 3294 4399 4398 
3229 3230 4335 4334 3294 3295 4400 4399 
3230 3231 4336 4335 3295 3296 4401 4400 
3231 3232 4337 4336 3296 3297 4402 4401 
3232 3233 4338 4337 3297 3298 4403 4402 
3233 3234 4339 4338 3298 3299 4404 4403 
3234 3235 4340 4339 3299 3300 4405 4404 
3235 3236 4341 4340 3300 3301 4406 4405 
3236 3237 4342 4341 3301 3302 4407 4406 
3237 3238 4343 4342 3302 3303 4408 4407 
3238 3239 4344 4343 3303 3304 4409 4408 
3239 3240 4345 4344 3304 3305 4410 4409 
3240 3241 4346 4345 3305 3306 4411 4410 
3241 3242 4347 4346 3306 3307 4412 4411 
3242 3243 4348 4347 3307 3308 4413 4412 
3243 3244 4349 4348 3308 3309 4414 4413 
3244 3245 4350 4349 3309 3310 4415 4414 
3245 3246 4351 4350 3310 3311 4416 4415 
3246 3247 4352 4351 3311 3312 4417 4416 
3247 3248 4353 4352 3312 3313 4418 4417 
3248 3249 4354 4353 3313 3314 4419 4418 
3315 3316 4421 4420 3380 3381 4486 4485 
3316 3317 4422 4421 3381 3382 4487 4486 
3317 3318 4423 4422 3382 3383 4488 4487 
3318 3319 4424 4423 3383 3384 4489 4488 
3319 3320 4425 4424 3384 3385 4490 4489 
3320 3321 4426 4425 3385 3386 4491 4490 
3321 3322 4427 4426 3386 3387 4492 4491 
3322 3323 4428 4427 3387 3388 4493 4492 
3323 3324 4429 4428 3388 3389 4494 4493 
3324 3325 4430 4429 3389 3390 4495 4494 
3325 3326 4431 4430 3390 3391 4496 4495 
3326 3327 4432 4431 3391 3392 4497 4496 
3327 3328 4433 4432 3392 3393 4498 4497 
3328 3329 4434 4433 3393 3394 4499 4498 
3329 3330 4435 4434 3394 3395 4500 4499 
3330 3331 4436 4435 3395 3396 4501 4500 
3331 3332 4437 4436 3396 3397 4502 4501 
3332 3333 4438 4437 3397 3398 4503 4502 
3333 3334 4439 4438 3398 3399 4504 4503 
3334 3335 4440 4439 3399 3400 4505 4504 
3335 3336 4441 4440 3400 3401 4506 4505 
3336 3337 4442 4441 3401 3402 4507 4506 
3337 3338 4443 4442 3402 3403 4508 4507 
3338 3339 4444 4443 3403 3404 4509 4508 
3339 3340 4445 4444 3404 3405 4510 4509 
3340 3341 4446 4445 3405 3406 4511 4510 
3341 3342 4447 4446 3406 3407 4512 4511 
3342 3343 4448 4447 3407 3408 4513 4512 
3343 3344 4449 4448 3408 3409 4514 4513 
3344 3345 4450 4449 3409 3410 4515 4514 
3345 3346 4451 4450 3410 3411 4516 4515 
3346 3347 4452 4451 3411 3412 4517 4516 
3347 3348 4453 4452 3412 3413 4518 4517 
3348 3349 4454 4453 3413 3414 4519 4518 
3349 3350 4455 4454 3414 3415 4520 4519 
3350 3351 4456 4455 3415 3416 4521 4520 
3351 3352 4457 4456 3416 3417 4522 4521 
3352 3353 4458 4457 3417 3418 4523 4522 
3353 3354 4459 4458 3418 3419 4524 4523 
3354 3355 4460 4459 3419 3420 4525 4524 
3355 3356 4461 4460 3420 3421 4526 4525 
3356 3357 4462 4461 3421 3422 4527 4526 
3357 3358 4463 4462 3422 3423 4528 4527 
3358 3359 4464 4463 3423 3424 4529 4528 
3359 3360 4465 4464 3424 3425 4530 4529 
3360 3361 4466 4465 3425 3426 4531 4530 
3361 3362 4467 4466 3426 3427 4532 4531 
3362 3363 4468 4467 3427 3428 4533 4532 
3363 3364 4469 4468 3428 3429 4534 4533 
3364 3365 4470 4469 3429 3430 4535 4534 
3365 3366 4471 4470 3430 3431 4536 4535 
3366 3367 4472 4471 3431 3432 4537 4536 
3367 3368 4473 4472 3432 3433 4538 4537 
3368 3369 4474 4473 3433 3434 4539 4538 
3369 3370 4475 4474 3434 3435 4540 4539 
3370 3371 4476 4475 3435 3436 4541 4540 
3371 3372 4477 4476 3436 3437 4542 4541 
3372 3373 4478 4477 3437 3438 4543 4542 
3373 3374 4479 4478 3438 3439 4544 4543 
3374 3375 4480 4479 3439 3440 4545 4544 
3375 3376 4481 4480 3440 3441 4546 4545 
3376 3377 4482 4481 3441 3442 4547 4546 
3377 3378 4483 4482 3442 3443 4548 4547 
3378 3379 4484 4483 3443 3444 4549 4548 
3380 3381 4486 4485 3445 3446 4551 4550 
3381 3382 4487 4486 3446 3447 4552 4551 
3382 3383 4488 4487 3447 3448 4553 4552 
3383 3384 4489 4488 3448 3449 4554 4553 
3384 3385 4490 4489 3449 3450 4555 4554 
3385 3386 4491 4490 3450 3451 4556 4555 
3386 3387 4492 4491 3451 3452 4557 4556 
3387 3388 4493 4492 3452 3453 4558 4557 
3388 3389 4494 4493 3453 3454 4559 4558 
3389 3390 4495 4494 3454 3455 4560 4559 
3390 3391 4496 4495 3455 3456 4561 4560 
3391 3392 4497 4496 3456 3457 4562 4561 
3392 3393 4498 4497 3457 3458 4563 4562 
3393 3394 4499 4498 3458 3459 4564 4563 
3394 3395 4500 4499 3459 3460 4565 4564 
3395 3396 4501 4500 3460 3461 4566 4565 
3396 3397 4502 4501 3461 3462 4567 4566 
3397 3398 4503 4502 3462 3463 4568 4567 
3398 3399 4504 4503 3463 3464 4569 4568 
3399 3400 4505 4504 3464 3465 4570 4569 
3400 3401 4506 4505 3465 3466 4571 4570 
3401 3402 4507 4506 3466 3467 4572 4571 
3402 3403 4508 4507 3467 3468 4573 4572 
3403 3404 4509 4508 3468 3469 4574 4573 
3404 3405 4510 4509 3469 3470 4575 4574 
3405 3406 4511 4510 3470 3471 4576 4575 
3406 3407 4512 4511 3471 3472 4577 4576 
3407 3408 4513 4512 3472 3473 4578 4577 
3408 3409 4514 4513 3473 3474 4579 4578 
3409 3410 4515 4514 3474 3475 4580 4579 
3410 3411 4516 4515 3475 3476 4581 4580 
3411 3412 4517 4516 3476 3477 4582 4581 
3412 3413 4518 4517 3477 3478 4583 4582 
3413 3414 4519 4518 3478 3479 4584 4583 
3414 3415 4520 4519 3479 3480 4585 4584 
3415 3416 4521 4520 3480 3481 4586 4585 
3416 3417 4522 4521 3481 3482 4587 4586 
3417 3418 4523 4522 3482 3483 4588 4587 
3418 3419 4524 4523 3483 3484 4589 4588 
3419 3420 4525 4524 3484 3485 4590 4589 
3420 3421 4526 4525 3485 3486 4591 4590 
3421 3422 4527 4526 3486 3487 4592 4591 
3422 3423 4528 4527 3487 3488 4593 4592 
3423 3424 4529 4528 3488 3489 4594 4593 
3424 3425 4530 4529 3489 3490 4595 4594 
3425 3426 4531 4530 3490 3491 4596 4595 
3426 3427 4532 4531 3491 3492 4597 4596 
3427 3428 4533 4532 3492 3493 4598 4597 
3428 3429 4534 4533 3493 3494 4599 4598 
3429 3430 4535 4534 3494 3495 4600 4599 
3430 3431 4536 4535 3495 3496 4601 4600 
3431 3432 4537 4536 3496 3497 4602 4601 
3432 3433 4538 4537 3497 3498 4603 4602 
3433 3434 4539 4538 3498 3499 4604 4603 
3434 3435 4540 4539 3499 3500 4605 4604 
3435 3436 4541 4540 3500 3501 4606 4605 
3436 3437 4542 4541 3501 3502 4607 4606 
3437 3438 4543 4542 3502 3503 4608 4607 
3438 3439 4544 4543 3503 3504 4609 4608 
3439 3440 4545 4544 3504 3505 4610 4609 
3440 3441 4546 4545 3505 3506 4611 4610 
3441 3442 4547 4546 3506 3507 4612 4611 
3442 3443 4548 4547 3507 3508 4613 4612 
3443 3444 4549 4548 3508 3509 4614 4613 
3445 3446 4551 4550 3510 3511 4616 4615 
3446 3447 4552 4551 3511 3512 4617 4616 
3447 3448 4553 4552 3512 3513 4618 4617 
3448 3449 4554 4553 3513 3514 4619 4618 
3449 3450 4555 4554 3514 3515 4620 4619 
3450 3451 4556 4555 3515 3516 4621 4620 
3451 3452 4557 4556 3516 3517 4622 4621 
3452 3453 4558 4557 3517 3518 4623 4622 
3453 3454 4559 4558 3518 3519 4624 4623 
3454 3455 4560 4559 3519 3520 4625 4624 
3455 3456 4561 4560 3520 3521 4626 4625 
3456 3457 4562 4561 3521 3522 4627 4626 
3457 3458 4563 4562 3522 3523 4628 4627 
3458 3459 4564 4563 3523 3524 4629 4628 
3459 3460 4565 4564 3524 3525 4630 4629 
3460 3461 4566 4565 3525 3526 4631 4630 
3461 3462 4567 4566 3526 3527 4632 4631 
3462 3463 4568 4567 3527 3528 4633 4632 
3463 3464 4569 4568 3528 3529 4634 4633 
3464 3465 4570 4569 3529 3530 4635 4634 
3465 3466 4571 4570 3530 3531 4636 4635 
3466 3467 4572 4571 3531 3532 4637 4636 
3467 3468 4573 4572 3532 3533 4638 4637 
3468 3469 4574 4573 3533 3534 4639 4638 
3469 3470 4575 4574 3534 3535 4640 4639 
3470 3471 4576 4575 3535 3536 4641 4640 
3471 3472 4577 4576 3536 3537 4642 4641 
3472 3473 4578 4577 3537 3538 4643 4642 
3473 3474 4579 4578 3538 3539 4644 4643 
3474 3475 4580 4579 3539 3540 4645 4644 
3475 3476 4581 4580 3540 3541 4646 4645 
3476 3477 4582 4581 3541 3542 4647 4646 
3477 3478 4583 4582 3542 3543 4648 4647 
3478 3479 4584 4583 3543 3544 4649 4648 
3479 3480 4585 4584 3544 3545 4650 4649 
3480 3481 4586 4585 3545 3546 4651 4650 
3481 3482 4587 4586 3546 3547 4652 4651 
3482 3483 4588 4587 3547 3548 4653 4652 
3483 3484 4589 4588 3548 3549 4654 4653 
3484 3485 4590 4589 3549 3550 4655 4654 
3485 3486 4591 4590 3550 3551 4656 4655 
3486 3487 4592 4591 3551 3552 4657 4656 
3487 3488 4593 4592 3552 3553 4658 4657 
3488 3489 4594 4593 3553 3554 4659 4658 
3489 3490 4595 4594 3554 3555 4660 4659 
3490 3491 4596 4595 3555 3556 4661 4660 
3491 3492 4597 4596 3556 3557 4662 4661 
3492 3493 4598 4597 3557 3558 4663 4662 
3493 3494 4599 4598 3558 3559 4664 4663 
3494 3495 4600 4599 3559 3560 4665 4664 
3495 3496 4601 4600 3560 3561 4666 4665 
3496 3497 4602 4601 3561 3562 4667 4666 
3497 3498 4603 4602 3562 3563 4668 4667 
3498 3499 4604 4603 3563 3564 4669 4668 
3499 3500 4605 4604 3564 3565 4670 4669 
3500 3501 4606 4605 3565 3566 4671 4670 
3501 3502 4607 4606 3566 3567 4672 4671 
3502 3503 4608 4607 3567 3568 4673 4672 
3503 3504 4609 4608 3568 3569 4674 4673 
3504 3505 4610 4609 3569 3570 4675 4674 
3505 3506 4611 4610 3570 3571 4676 4675 
3506 3507 4612 4611 3571 3572 4677 4676 
3507 3508 4613 4612 3572 3573 4678 4677 
3508 3509 4614 4613 3573 3574 4679 4678 
3510 3511 4616 4615 3575 3576 4681 4680 
3511 3512 4617 4616 3576 3577 4682 4681 
3512 3513 4618 4617 3577 3578 4683 4682 
3513 3514 4619 4618 3578 3579 4684 4683 
3514 3515 4620 4619 3579 3580 4685 4684 
3515 3516 4621 4620 3580 3581 4686 4685 
3516 3517 4622 4621 3581 3582 4687 4686 
3517 3518 4623 4622 3582 3583 4688 4687 
3518 3519 4624 4623 3583 3584 4689 4688 
3519 3520 4625 4624 3584 3585 4690 4689 
3520 3521 4626 4625 3585 3586 4691 4690 
3521 3522 4627 4626 3586 3587 4692 4691 
3522 3523 4628 4627 3587 3588 4693 4692 
3523 3524 4629 4628 3588 3589 4694 4693 
3524 3525 4630 4629 3589 3590 4695 4694 
3525 3526 4631 4630 3590 3591 4696 4695 
3526 3527 4632 4631 3591 3592 4697 4696 
3527 3528 4633 4632 3592 3593 4698 4697 
3528 3529 4634 4633 3593 3594 4699 4698 
3529 3530 4635 4634 3594 3595 4700 4699 
3530 3531 4636 4635 3595 3596 4701 4700 
3531 3532 4637 4636 3596 3597 4702 4701 
3532 3533 4638 4637 3597 3598 4703 4702 
3533 3534 4639 4638 3598 3599 4704 4703 
3534 3535 4640 4639 3599 3600 4705 4704 
3535 3536 4641 4640 3600 3601 4706 4705 
3536 3537 4642 4641 3601 3602 4707 4706 
3537 3538 4643 4642 3602 3603 4708 4707 
3538 3539 4644 4643 3603 3604 4709 4708 
3539 3540 4645 4644 3604 3605 4710 4709 
3540 3541 4646 4645 3605 3606 4711 4710 
3541 3542 4647 4646 3606 3607 4712 4711 
3542 3543 4648 4647 3607 3608 4713 4712 
3543 3544 4649 4648 3608 3609 4714 4713 
3544 3545 4650 4649 3609 3610 4715 4714 
3545 3546 4651 4650 3610 3611 4716 4715 
3546 3547 4652 4651 3611 3612 4717 4716 
3547 3548 4653 4652 3612 3613 4718 4717 
3548 3549 4654 4653 3613 3614 4719 4718 
3549 3550 4655 4654 3614 3615 4720 4719 
3550 3551 4656 4655 3615 3616 4721 4720 
3551 3552 4657 4656 3616 3617 4722 4721 
3552 3553 4658 4657 3617 3618 4723 4722 
3553 3554 4659 4658 3618 3619 4724 4723 
3554 3555 4660 4659 3619 3620 4725 4724 
3555 3556 4661 4660 3620 3621 4726 4725 
3556 3557 4662 4661 3621 3622 4727 4726 
3557 3558 4663 4662 3622 3623 4728 4727 
3558 3559 4664 4663 3623 3624 4729 4728 
3559 3560 4665 4664 3624 3625 4730 4729 
3560 3561 4666 4665 3625 3626 4731 4730 
3561 3562 4667 4666 3626 3627 4732 4731 
3562 3563 4668 4667 3627 3628 4733 4732 
3563 3564 4669 4668 3628 3629 4734 4733 
3564 3565 4670 4669 3629 3630 4735 4734 
3565 3566 4671 4670 3630 3631 4736 4735 
3566 3567 4672 4671 3631 3632 4737 4736 
3567 3568 4673 4672 3632 3633 4738 4737 
3568 3569 4674 4673 3633 3634 4739 4738 
3569 3570 4675 4674 3634 3635 4740 4739 
3570 3571 4676 4675 3635 3636 4741 4740 
3571 3572 4677 4676 3636 3637 4742 4741 
3572 3573 4678 4677 3637 3638 4743 4742 
3573 3574 4679 4678 3638 3639 4744 4743 
3575 3576 4681 4680 3640 3641 4746 4745 
3576 3577 4682 4681 3641 3642 4747 4746 
3577 3578 4683 4682 3642 3643 4748 4747 
3578 3579 4684 4683 3643 3644 4749 4748 
3579 3580 4685 4684 3644 3645 4750 4749 
3580 3581 4686 4685 3645 3646 4751 4750 
3581 3582 4687 4686 3646 3647 4752 4751 
3582 3583 4688 4687 3647 3648 4753 4752 
3583 3584 4689 4688 3648 3649 4754 4753 
3584 3585 4690 4689 3649 3650 4755 4754 
3585 3586 4691 4690 3650 3651 4756 4755 
3586 3587 4692 4691 3651 3652 4757 4756 
3587 3588 4693 4692 3652 3653 4758 4757 
3588 3589 4694 4693 3653 3654 4759 4758 
3589 3590 4695 4694 3654 3655 4760 4759 
3590 3591 4696 4695 3655 3656 4761 4760 
3591 3592 4697 4696 3656 3657 4762 4761 
3592 3593 4698 4697 3657 3658 4763 4762 
3593 3594 4699 4698 3658 3659 4764 4763 
3594 3595 4700 4699 3659 3660 4765 4764 
3595 3596 4701 4700 3660 3661 4766 4765 
3596 3597 4702 4701 3661 3662 4767 4766 
3597 3598 4703 4702 3662 3663 4768 4767 
3598 3599 4704 4703 3663 3664 4769 4768 
3599 3600 4705 4704 3664 3665 4770 4769 
3600 3601 4706 4705 3665 3666 4771 4770 
3601 3602 4707 4706 3666 3667 4772 4771 
3602 3603 4708 4707 3667 3668 4773 4772 
3603 3604 4709 4708 3668 3669 4774 4773 
3604 3605 4710 4709 3669 3670 4775 4774 
3605 3606 4711 4710 3670 3671 4776 4775 
3606 3607 4712 4711 3671 3672 4777 4776 
3607 3608 4713 4712 3672 3673 4778 4777 
3608 3609 4714 4713 3673 3674 4779 4778 
3609 3610 4715 4714 3674 3675 4780 4779 
3610 3611 4716 4715 3675 3676 4781 4780 
3611 3612 4717 4716 3676 3677 4782 4781 
3612 3613 4718 4717 3677 3678 4783 4782 
3613 3614 4719 4718 3678 3679 4784 4783 
3614 3615 4720 4719 3679 3680 4785 4784 
3615 3616 4721 4720 3680 3681 4786 4785 
3616 3617 4722 4721 3681 3682 4787 4786 
3617 3618 4723 4722 3682 3683 4788 4787 
3618 3619 4724 4723 3683 3684 4789 4788 
3619 3620 4725 4724 3684 3685 4790 4789 
3620 3621 4726 4725 3685 3686 4791 4790 
3621 3622 4727 4726 3686 3687 4792 4791 
3622 3623 4728 4727 3687 3688 4793 4792 
3623 3624 4729 4728 3688 3689 4794 4793 
3624 3625 4730 4729 3689 3690 4795 4794 
3625 3626 4731 4730 3690 3691 4796 4795 
3626 3627 4732 4731 3691 3692 4797 4796 
3627 3628 4733 4732 3692 3693 4798 4797 
3628 3629 4734 4733 3693 3694 4799 4798 
3629 3630 4735 4734 3694 3695 4800 4799 
3630 3631 4736 4735 3695 3696 4801 4800 
3631 3632 4737 4736 3696 3697 4802 4801 
3632 3633 4738 4737 3697 3698 4803 4802 
3633 3634 4739 4738 3698 3699 4804 4803 
3634 3635 4740 4739 3699 3700 4805 4804 
3635 3636 4741 4740 3700 3701 4806 4805 
3636 3637 4742 4741 3701 3702 4807 4806 
3637 3638 4743 4742 3702 3703 4808 4807 
3638 3639 4744 4743 3703 3704 4809 4808 
3640 3641 4746 4745 3705 3706 4811 4810 
3641 3642 4747 4746 3706 3707 4812 4811 
3642 3643 4748 4747 3707 3708 4813 4812 
3643 3644 4749 4748 3708 3709 4814 4813 
3644 3645 4750 4749 3709 3710 4815 4814 
3645 3646 4751 4750 3710 3711 4816 4815 
3646 3647 4752 4751 3711 3712 4817 4816 
3647 3648 4753 4752 3712 3713 4818 4817 
3648 3649 4754 4753 3713 3714 4819 4818 
3649 3650 4755 4754 3714 3715 4820 4819 
3650 3651 4756 4755 3715 3716 4821 4820 
3651 3652 4757 4756 3716 3717 4822 4821 
3652 3653 4758 4757 3717 3718 4823 4822 
3653 3654 4759 4758 3718 3719 4824 4823 
3654 3655 4760 4759 3719 3720 4825 4824 
3655 3656 4761 4760 3720 3721 4826 4825 
3656 3657 4762 4761 3721 3722 4827 4826 
3657 3658 4763 4762 3722 3723 4828 4827 
3658 3659 4764 4763 3723 3724 4829 4828 
3659 3660 4765 4764 3724 3725 4830 4829 
3660 3661 4766 4765 3725 3726 4831 4830 
3661 3662 4767 4766 3726 3727 4832 4831 
3662 3663 4768 4767 3727 3728 4833 4832 
3663 3664 4769 4768 3728 3729 4834 4833 
3664 3665 4770 4769 3729 3730 4835 4834 
3665 3666 4771 4770 3730 3731 4836 4835 
3666 3667 4772 4771 3731 3732 4837 4836 
3667 3668 4773 4772 3732 3733 4838 4837 
3668 3669 4774 4773 3733 3734 4839 4838 
3669 3670 4775 4774 3734 3735 4840 4839 
3670 3671 4776 4775 3735 3736 4841 4840 
3671 3672 4777 4776 3736 3737 4842 4841 
3672 3673 4778 4777 3737 3738 4843 4842 
3673 3674 4779 4778 3738 3739 4844 4843 
3674 3675 4780 4779 3739 3740 4845 4844 
3675 3676 4781 4780 3740 3741 4846 4845 
3676 3677 4782 4781 3741 3742 4847 4846 
3677 3678 4783 4782 3742 3743 4848 4847 
3678 3679 4784 4783 3743 3744 4849 4848 
3679 3680 4785 4784 3744 3745 4850 4849 
3680 3681 4786 4785 3745 3746 4851 4850 
3681 3682 4787 4786 3746 3747 4852 4851 
3682 3683 4788 4787 3747 3748 4853 4852 
3683 3684 4789 4788 3748 3749 4854 4853 
3684 3685 4790 4789 3749 3750 4855 4854 
3685 3686 4791 4790 3750 3751 4856 4855 
3686 3687 4792 4791 3751 3752 4857 4856 
3687 3688 4793 4792 3752 3753 4858 4857 
3688 3689 4794 4793 3753 3754 4859 4858 
3689 3690 4795 4794 3754 3755 4860 4859 
3690 3691 4796 4795 3755 3756 4861 4860 
3691 3692 4797 4796 3756 3757 4862 4861 
3692 3693 4798 4797 3757 3758 4863 4862 
3693 3694 4799 4798 3758 3759 4864 4863 
3694 3695 4800 4799 3759 3760 4865 4864 
3695 3696 4801 4800 3760 3761 4866 4865 
3696 3697 4802 4801 3761 3762 4867 4866 
3697 3698 4803 4802 3762 3763 4868 4867 
3698 3699 4804 4803 3763 3764 4869 4868 
3699 3700 4805 4804 3764 3765 4870 4869 
3700 3701 4806 4805 3765 3766 4871 4870 
3701 3702 4807 4806 3766 3767 4872 4871 
3702 3703 4808 4807 3767 3768 4873 4872 
3703 3704 4809 4808 3768 3769 4874 4873 
3705 3706 4811 4810 3770 3771 4876 4875 
3706 3707 4812 4811 3771 3772 4877 4876 
3707 3708 4813 4812 3772 3773 4878 4877 
3708 3709 4814 4813 3773 3774 4879 4878 
3709 3710 4815 4814 3774 3775 4880 4879 
3710 3711 4816 4815 3775 3776 4881 4880 
3711 3712 4817 4816 3776 3777 4882 4881 
3712 3713 4818 4817 3777 3778 4883 4882 
3713 3714 4819 4818 3778 3779 4884 4883 
3714 3715 4820 4819 3779 3780 4885 4884 
3715 3716 4821 4820 3780 3781 4886 4885 
3716 3717 4822 4821 3781 3782 4887 4886 
3717 3718 4823 4822 3782 3783 4888 4887 
3718 3719 4824 4823 3783 3784 4889 4888 
3719 3720 4825 4824 3784 3785 4890 4889 
3720 3721 4826 4825 3785 3786 4891 4890 
3721 3722 4827 4826 3786 3787 4892 4891 
3722 3723 4828 4827 3787 3788 4893 4892 
3723 3724 4829 4828 3788 3789 4894 4893 
3724 3725 4830 4829 3789 3790 4895 4894 
3725 3726 4831 4830 3790 3791 4896 4895 
3726 3727 4832 4831 3791 3792 4897 4896 
3727 3728 4833 4832 3792 3793 4898 4897 
3728 3729 4834 4833 3793 3794 4899 4898 
3729 3730 4835 4834 3794 3795 4900 4899 
3730 3731 4836 4835 3795 3796 4901 4900 
3731 3732 4837 4836 3796 3797 4902 4901 
3732 3733 4838 4837 3797 3798 4903 4902 
3733 3734 4839 4838 3798 3799 4904 4903 
3734 3735 4840 4839 3799 3800 4905 4904 
3735 3736 4841 4840 3800 3801 4906 4905 
3736 3737 4842 4841 3801 3802 4907 4906 
3737 3738 4843 4842 3802 3803 4908 4907 
3738 3739 4844 4843 3803 3804 4909 4908 
3739 3740 4845 4844 3804 3805 4910 4909 
3740 3741 4846 4845 3805 3806 4911 4910 
3741 3742 4847 4846 3806 3807 4912 4911 
3742 3743 4848 4847 3807 3808 4913 4912 
3743 3744 4849 4848 3808 3809 4914 4913 
3744 3745 4850 4849 3809 3810 4915 4914 
3745 3746 4851 4850 3810 3811 4916 4915 
3746 3747 4852 4851 3811 3812 4917 4916 
3747 3748 4853 4852 3812 3813 4918 4917 
3748 3749 4854 4853 3813 3814 4919 4918 
3749 3750 4855 4854 3814 3815 4920 4919 
3750 3751 4856 4855 3815 3816 4921 4920 
3751 3752 4857 4856 3816 3817 4922 4921 
3752 3753 4858 4857 3817 3818 4923 4922 
3753 3754 4859 4858 3818 3819 4924 4923 
3754 3755 4860 4859 3819 3820 4925 4924 
3755 3756 4861 4860 3820 3821 4926 4925 
3756 3757 4862 4861 3821 3822 4927 4926 
3757 3758 4863 4862 3822 3823 4928 4927 
3758 3759 4864 4863 3823 3824 4929 4928 
3759 3760 4865 4864 3824 3825 4930 4929 
3760 3761 4866 4865 3825 3826 4931 4930 
3761 3762 4867 4866 3826 3827 4932 4931 
3762 3763 4868 4867 3827 3828 4933 4932 
3763 3764 4869 4868 3828 3829 4934 4933 
3764 3765 4870 4869 3829 3830 4935 4934 
3765 3766 4871 4870 3830 3831 4936 4935 
3766 3767 4872 4871 3831 3832 4937 4936 
3767 3768 4873 4872 3832 3833 4938 4937 
3768 3769 4874 4873 3833 3834 4939 4938 
3770 3771 4876 4875 3835 3836 4941 4940 
3771 3772 4877 4876 3836 3837 4942 4941 
3772 3773 4878 4877 3837 3838 4943 4942 
3773 3774 4879 4878 3838 3839 4944 4943 
3774 3775 4880 4879 3839 3840 4945 4944 
3775 3776 4881 4880 3840 3841 4946 4945 
3776 3777 4882 4881 3841 3842 4947 4946 
3777 3778 4883 4882 3842 3843 4948 4947 
3778 3779 4884 4883 3843 3844 4949 4948 
3779 3780 4885 4884 3844 3845 4950 4949 
3780 3781 4886 4885 3845 3846 4951 4950 
3781 3782 4887 4886 3846 3847 4952 4951 
3782 3783 4888 4887 3847 3848 4953 4952 
3783 3784 4889 4888 3848 3849 4954 4953 
3784 3785 4890 4889 3849 3850 4955 4954 
3785 3786 4891 4890 3850 3851 4956 4955 
3786 3787 4892 4891 3851 3852 4957 4956 
3787 3788 4893 4892 3852 3853 4958 4957 
3788 3789 4894 4893 3853 3854 4959 4958 
3789 3790 4895 4894 3854 3855 4960 4959 
3790 3791 4896 4895 3855 3856 4961 4960 
3791 3792 4897 4896 3856 3857 4962 4961 
3792 3793 4898 4897 3857 3858 4963 4962 
3793 3794 4899 4898 3858 3859 4964 4963 
3794 3795 4900 4899 3859 3860 4965 4964 
3795 3796 4901 4900 3860 3861 4966 4965 
3796 3797 4902 4901 3861 3862 4967 4966 
3797 3798 4903 4902 3862 3863 4968 4967 
3798 3799 4904 4903 3863 3864 4969 4968 
3799 3800 4905 4904 3864 3865 4970 4969 
3800 3801 4906 4905 3865 3866 4971 4970 
3801 3802 4907 4906 3866 3867 4972 4971 
3802 3803 4908 4907 3867 3868 4973 4972 
3803 3804 4909 4908 3868 3869 4974 4973 
3804 3805 4910 4909 3869 3870 4975 4974 
3805 3806 4911 4910 3870 3871 4976 4975 
3806 3807 4912 4911 3871 3872 4977 4976 
3807 3808 4913 4912 3872 3873 4978 4977 
3808 3809 4914 4913 3873 3874 4979 4978 
3809 3810 4915 4914 3874 3875 4980 4979 
3810 3811 4916 4915 3875 3876 4981 4980 
3811 3812 4917 4916 3876 3877 4982 4981 
3812 3813 4918 4917 3877 3878 4983 4982 
3813 3814 4919 4918 3878 3879 4984 4983 
3814 3815 4920 4919 3879 3880 4985 4984 
3815 3816 4921 4920 3880 3881 4986 4985 
3816 3817 4922 4921 3881 3882 4987 4986 
3817 3818 4923 4922 3882 3883 4988 4987 
3818 3819 4924 4923 3883 3884 4989 4988 
3819 3820 4925 4924 3884 3885 4990 4989 
3820 3821 4926 4925 3885 3886 4991 4990 
3821 3822 4927 4926 3886 3887 4992 4991 
3822 3823 4928 4927 3887 3888 4993 4992 
3823 3824 4929 4928 3888 3889 4994 4993 
3824 3825 4930 4929 3889 3890 4995 4994 
3825 3826 4931 4930 3890 3891 4996 4995 
3826 3827 4932 4931 3891 3892 4997 4996 
3827 3828 4933 4932 3892 3893 4998 4997 
3828 3829 4934 4933 3893 3894 4999 4998 
3829 3830 4935 4934 3894 3895 5000 4999 
3830 3831 4936 4935 3895 3896 5001 5000 
3831 3832 4937 4936 3896 3897 5002 5001 
3832 3833 4938 4937 3897 3898 5003 5002 
3833 3834 4939 4938 3898 3899 5004 5003 
3835 3836 4941 4940 3900 3901 5006 5005 
3836 3837 4942 4941 3901 3902 5007 5006 
3837 3838 4943 4942 3902 3903 5008 5007 
3838 3839 4944 4943 3903 3904 5009 5008 
3839 3840 4945 4944 3904 3905 5010 5009 
3840 3841 4946 4945 3905 3906 5011 5010 
3841 3842 4947 4946 3906 3907 5012 5011 
3842 3843 4948 4947 3907 3908 5013 5012 
3843 3844 4949 4948 3908 3909 5014 5013 
3844 3845 4950 4949 3909 3910 5015 5014 
3845 3846 4951 4950 3910 3911 5016 5015 
3846 3847 4952 4951 3911 3912 5017 5016 
3847 3848 4953 4952 3912 3913 5018 5017 
3848 3849 4954 4953 3913 3914 5019 5018 
3849 3850 4955 4954 3914 3915 5020 5019 
3850 3851 4956 4955 3915 3916 5021 5020 
3851 3852 4957 4956 3916 3917 5022 5021 
3852 3853 4958 4957 3917 3918 5023 5022 
3853 3854 4959 4958 3918 3919 5024 5023 
3854 3855 4960 4959 3919 3920 5025 5024 
3855 3856 4961 4960 3920 3921 5026 5025 
3856 3857 4962 4961 3921 3922 5027 5026 
3857 3858 4963 4962 3922 3923 5028 5027 
3858 3859 4964 4963 3923 3924 5029 5028 
3859 3860 4965 4964 3924 3925 5030 5029 
3860 3861 4966 4965 3925 3926 5031 5030 
3861 3862 4967 4966 3926 3927 5032 5031 
3862 3863 4968 4967 3927 3928 5033 5032 
3863 3864 4969 4968 3928 3929 5034 5033 
3864 3865 4970 4969 3929 3930 5035 5034 
3865 3866 4971 4970 3930 3931 5036 5035 
3866 3867 4972 4971 3931 3932 5037 5036 
3867 3868 4973 4972 3932 3933 5038 5037 
3868 3869 4974 4973 3933 3934 5039 5038 
3869 3870 4975 4974 3934 3935 5040 5039 
3870 3871 4976 4975 3935 3936 5041 5040 
3871 3872 4977 4976 3936 3937 5042 5041 
3872 3873 4978 4977 3937 3938 5043 5042 
3873 3874 4979 4978 3938 3939 5044 5043 
3874 3875 4980 4979 3939 3940 5045 5044 
3875 3876 4981 4980 3940 3941 5046 5045 
3876 3877 4982 4981 3941 3942 5047 5046 
3877 3878 4983 4982 3942 3943 5048 5047 
3878 3879 4984 4983 3943 3944 5049 5048 
3879 3880 4985 4984 3944 3945 5050 5049 
3880 3881 4986 4985 3945 3946 5051 5050 
3881 3882 4987 4986 3946 3947 5052 5051 
3882 3883 4988 4987 3947 3948 5053 5052 
3883 3884 4989 4988 3948 3949 5054 5053 
3884 3885 4990 4989 3949 3950 5055 5054 
3885 3886 4991 4990 3950 3951 5056 5055 
3886 3887 4992 4991 3951 3952 5057 5056 
3887 3888 4993 4992 3952 3953 5058 5057 
3888 3889 4994 4993 3953 3954 5059 5058 
3889 3890 4995 4994 3954 3955 5060 5059 
3890 3891 4996 4995 3955 3956 5061 5060 
3891 3892 4997 4996 3956 3957 5062 5061 
3892 3893 4998 4997 3957 3958 5063 5062 
3893 3894 4999 4998 3958 3959 5064 5063 
3894 3895 5000 4999 3959 3960 5065 5064 
3895 3896 5001 5000 3960 3961 5066 5065 
3896 3897 5002 5001 3961 3962 5067 5066 
3897 3898 5003 5002 3962 3963 5068 5067 
3898 3899 5004 5003 3963 3964 5069 5068 
3900 3901 5006 5005 3965 3966 5071 5070 
3901 3902 5007 5006 3966 3967 5072 5071 
3902 3903 5008 5007 3967 3968 5073 5072 
3903 3904 5009 5008 3968 3969 5074 5073 
3904 3905 5010 5009 3969 3970 5075 5074 
3905 3906 5011 5010 3970 3971 5076 5075 
3906 3907 5012 5011 3971 3972 5077 5076 
3907 3908 5013 5012 3972 3973 5078 5077 
3908 3909 5014 5013 3973 3974 5079 5078 
3909 3910 5015 5014 3974 3975 5080 5079 
3910 3911 5016 5015 3975 3976 5081 5080 
3911 3912 5017 5016 3976 3977 5082 5081 
3912 3913 5018 5017 3977 3978 5083 5082 
3913 3914 5019 5018 3978 3979 5084 5083 
3914 3915 5020 5019 3979 3980 5085 5084 
3915 3916 5021 5020 3980 3981 5086 5085 
3916 3917 5022 5021 3981 3982 5087 5086 
3917 3918 5023 5022 3982 3983 5088 5087 
3918 3919 5024 5023 3983 3984 5089 5088 
3919 3920 5025 5024 3984 3985 5090 5089 
3920 3921 5026 5025 3985 3986 5091 5090 
3921 3922 5027 5026 3986 3987 5092 5091 
3922 3923 5028 5027 3987 3988 5093 5092 
3923 3924 5029 5028 3988 3989 5094 5093 
3924 3925 5030 5029 3989 3990 5095 5094 
3925 3926 5031 5030 3990 3991 5096 5095 
3926 3927 5032 5031 3991 3992 5097 5096 
3927 3928 5033 5032 3992 3993 5098 5097 
3928 3929 5034 5033 3993 3994 5099 5098 
3929 3930 5035 5034 3994 3995 5100 5099 
3930 3931 5036 5035 3995 3996 5101 5100 
3931 3932 5037 5036 3996 3997 5102 5101 
3932 3933 5038 5037 3997 3998 5103 5102 
3933 3934 5039 5038 3998 3999 5104 5103 
3934 3935 5040 5039 3999 4000 5105 5104 
3935 3936 5041 5040 4000 4001 5106 5105 
3936 3937 5042 5041 4001 4002 5107 5106 
3937 3938 5043 5042 4002 4003 5108 5107 
3938 3939 5044 5043 4003 4004 5109 5108 
3939 3940 5045 5044 4004 4005 5110 5109 
3940 3941 5046 5045 4005 4006 5111 5110 
3941 3942 5047 5046 4006 4007 5112 5111 
3942 3943 5048 5047 4007 4008 5113 5112 
3943 3944 5049 5048 4008 4009 5114 5113 
3944 3945 5050 5049 4009 4010 5115 5114 
3945 3946 5051 5050 4010 4011 5116 5115 
3946 3947 5052 5051 4011 4012 5117 5116 
3947 3948 5053 5052 4012 4013 5118 5117 
3948 3949 5054 5053 4013 4014 5119 5118 
3949 3950 5055 5054 4014 4015 5120 5119 
3950 3951 5056 5055 4015 4016 5121 5120 
3951 3952 5057 5056 4016 4017 5122 5121 
3952 3953 5058 5057 4017 4018 5123 5122 
3953 3954 5059 5058 4018 4019 5124 5123 
3954 3955 5060 5059 4019 4020 5125 5124 
3955 3956 5061 5060 4020 4021 5126 5125 
3956 3957 5062 5061 4021 4022 5127 5126 
3957 3958 5063 5062 4022 4023 5128 5127 
3958 3959 5064 5063 4023 4024 5129 5128 
3959 3960 5065 5064 4024 4025 5130 5129 
3960 3961 5066 5065 4025 4026 5131 5130 
3961 3962 5067 5066 4026 4027 5132 5131 
3962 3963 5068 5067 4027 4028 5133 5132 
3963 3964 5069 5068 4028 4029 5134 5133 
3965 3966 5071 5070 4030 4031 5136 5135 
3966 3967 5072 5071 4031 4032 5137 5136 
3967 3968 5073 5072 4032 4033 5138 5137 
3968 3969 5074 5073 4033 4034 5139 5138 
3969 3970 5075 5074 4034 4035 5140 5139 
3970 3971 5076 5075 4035 4036 5141 5140 
3971 3972 5077 5076 4036 4037 5142 5141 
3972 3973 5078 5077 4037 4038 5143 5142 
3973 3974 5079 5078 4038 4039 5144 5143 
3974 3975 5080 5079 4039 4040 5145 5144 
3975 3976 5081 5080 4040 4041 5146 5145 
3976 3977 5082 5081 4041 4042 5147 5146 
3977 3978 5083 5082 4042 4043 5148 5147 
3978 3979 5084 5083 4043 4044 5149 5148 
3979 3980 5085 5084 4044 4045 5150 5149 
3980 3981 5086 5085 4045 4046 5151 5150 
3981 3982 5087 5086 4046 4047 5152 5151 
3982 3983 5088 5087 4047 4048 5153 5152 
3983 3984 5089 5088 4048 4049 5154 5153 
3984 3985 5090 5089 4049 4050 5155 5154 
3985 3986 5091 5090 4050 4051 5156 5155 
3986 3987 5092 5091 4051 4052 5157 5156 
3987 3988 5093 5092 4052 4053 5158 5157 
3988 3989 5094 5093 4053 4054 5159 5158 
3989 3990 5095 5094 4054 4055 5160 5159 
3990 3991 5096 5095 4055 4056 5161 5160 
3991 3992 5097 5096 4056 4057 5162 5161 
3992 3993 5098 5097 4057 4058 5163 5162 
3993 3994 5099 5098 4058 4059 5164 5163 
3994 3995 5100 5099 4059 4060 5165 5164 
3995 3996 5101 5100 4060 4061 5166 5165 
3996 3997 5102 5101 4061 4062 5167 5166 
3997 3998 5103 5102 4062 4063 5168 5167 
3998 3999 5104 5103 4063 4064 5169 5168 
3999 4000 5105 5104 4064 4065 5170 5169 
4000 4001 5106 5105 4065 4066 5171 5170 
4001 4002 5107 5106 4066 4067 5172 5171 
4002 4003 5108 5107 4067 4068 5173 5172 
4003 4004 5109 5108 4068 4069 5174 5173 
4004 4005 5110 5109 4069 4070 5175 5174 
4005 4006 5111 5110 4070 4071 5176 5175 
4006 4007 5112 5111 4071 4072 5177 5176 
4007 4008 5113 5112 4072 4073 5178 5177 
4008 4009 5114 5113 4073 4074 5179 5178 
4009 4010 5115 5114 4074 4075 5180 5179 
4010 4011 5116 5115 4075 4076 5181 5180 
4011 4012 5117 5116 4076 4077 5182 5181 
4012 4013 5118 5117 4077 4078 5183 5182 
4013 4014 5119 5118 4078 4079 5184 5183 
4014 4015 5120 5119 4079 4080 5185 5184 
4015 4016 5121 5120 4080 4081 5186 5185 
4016 4017 5122 5121 4081 4082 5187 5186 
4017 4018 5123 5122 4082 4083 5188 5187 
4018 4019 5124 5123 4083 4084 5189 5188 
4019 4020 5125 5124 4084 4085 5190 5189 
4020 4021 5126 5125 4085 4086 5191 5190 
4021 4022 5127 5126 4086 4087 5192 5191 
4022 4023 5128 5127 4087 4088 5193 5192 
4023 4024 5129 5128 4088 4089 5194 5193 
4024 4025 5130 5129 4089 4090 5195 5194 
4025 4026 5131 5130 4090 4091 5196 5195 
4026 4027 5132 5131 4091 4092 5197 5196 
4027 4028 5133 5132 4092 4093 5198 5197 
4028 4029 5134 5133 4093 4094 5199 5198 
4030 4031 5136 5135 4095 4096 5201 5200 
4031 4032 5137 5136 4096 4097 5202 5201 
4032 4033 5138 5137 4097 4098 5203 5202 
4033 4034 5139 5138 4098 4099 5204 5203 
4034 4035 5140 5139 4099 4100 5205 5204 
4035 4036 5141 5140 4100 4101 5206 5205 
4036 4037 5142 5141 4101 4102 5207 5206 
4037 4038 5143 5142 4102 4103 5208 5207 
4038 4039 5144 5143 4103 4104 5209 5208 
4039 4040 5145 5144 4104 4105 5210 5209 
4040 4041 5146 5145 4105 4106 5211 5210 
4041 4042 5147 5146 4106 4107 5212 5211 
4042 4043 5148 5147 4107 4108 5213 5212 
4043 4044 5149 5148 4108 4109 5214 5213 
4044 4045 5150 5149 4109 4110 5215 5214 
4045 4046 5151 5150 4110 4111 5216 5215 
4046 4047 5152 5151 4111 4112 5217 5216 
4047 4048 5153 5152 4112 4113 5218 5217 
4048 4049 5154 5153 4113 4114 5219 5218 
4049 4050 5155 5154 4114 4115 5220 5219 
4050 4051 5156 5155 4115 4116 5221 5220 
4051 4052 5157 5156 4116 4117 5222 5221 
4052 4053 5158 5157 4117 4118 5223 5222 
4053 4054 5159 5158 4118 4119 5224 5223 
4054 4055 5160 5159 4119 4120 5225 5224 
4055 4056 5161 5160 4120 4121 5226 5225 
4056 4057 5162 5161 4121 4122 5227 5226 
4057 4058 5163 5162 4122 4123 5228 5227 
4058 4059 5164 5163 4123 4124 5229 5228 
4059 4060 5165 5164 4124 4125 5230 5229 
4060 4061 5166 5165 4125 4126 5231 5230 
4061 4062 5167 5166 4126 4127 5232 5231 
4062 4063 5168 5167 4127 4128 5233 5232 
4063 4064 5169 5168 4128 4129 5234 5233 
4064 4065 5170 5169 4129 4130 5235 5234 
4065 4066 5171 5170 4130 4131 5236 5235 
4066 4067 5172 5171 4131 4132 5237 5236 
4067 4068 5173 5172 4132 4133 5238 5237 
4068 4069 5174 5173 4133 4134 5239 5238 
4069 4070 5175 5174 4134 4135 5240 5239 
4070 4071 5176 5175 4135 4136 5241 5240 
4071 4072 5177 5176 4136 4137 5242 5241 
4072 4073 5178 5177 4137 4138 5243 5242 
4073 4074 5179 5178 4138 4139 5244 5243 
4074 4075 5180 5179 4139 4140 5245 5244 
4075 4076 5181 5180 4140 4141 5246 5245 
4076 4077 5182 5181 4141 4142 5247 5246 
4077 4078 5183 5182 4142 4143 5248 5247 
4078 4079 5184 5183 4143 4144 5249 5248 
4079 4080 5185 5184 4144 4145 5250 5249 
4080 4081 5186 5185 4145 4146 5251 5250 
4081 4082 5187 5186 4146 4147 5252 5251 
4082 4083 5188 5187 4147 4148 5253 5252 
4083 4084 5189 5188 4148 4149 5254 5253 
4084 4085 5190 5189 4149 4150 5255 5254 
4085 4086 5191 5190 4150 4151 5256 5255 
4086 4087 5192 5191 4151 4152 5257 5256 
4087 4088 5193 5192 4152 4153 5258 5257 
4088 4089 5194 5193 4153 4154 5259 5258 
4089 4090 5195 5194 4154 4155 5260 5259 
4090 4091 5196 5195 4155 4156 5261 5260 
4091 4092 5197 5196 4156 4157 5262 5261 
4092 4093 5198 5197 4157 4158 5263 5262 
4093 4094 5199 5198 4158 4159 5264 5263 
4095 4096 5201 5200 4160 4161 5266 5265 
4096 4097 5202 5201 4161 4162 5267 5266 
4097 4098 5203 5202 4162 4163 5268 5267 
4098 4099 5204 5203 4163 4164 5269 5268 
4099 4100 5205 5204 4164 4165 5270 5269 
4100 4101 5206 5205 4165 4166 5271 5270 
4101 4102 5207 5206 4166 4167 5272 5271 
4102 4103 5208 5207 4167 4168 5273 5272 
4103 4104 5209 5208 4168 4169 5274 5273 
4104 4105 5210 5209 4169 4170 5275 5274 
4105 4106 5211 5210 4170 4171 5276 5275 
4106 4107 5212 5211 4171 4172 5277 5276 
4107 4108 5213 5212 4172 4173 5278 5277 
4108 4109 5214 5213 4173 4174 5279 5278 
4109 4110 5215 5214 4174 4175 5280 5279 
4110 4111 5216 5215 4175 4176 5281 5280 
4111 4112 5217 5216 4176 4177 5282 5281 
4112 4113 5218 5217 4177 4178 5283 5282 
4113 4114 5219 5218 4178 4179 5284 5283 
4114 4115 5220 5219 4179 4180 5285 5284 
4115 4116 5221 5220 4180 4181 5286 5285 
4116 4117 5222 5221 4181 4182 5287 5286 
4117 4118 5223 5222 4182 4183 5288 5287 
4118 4119 5224 5223 4183 4184 5289 5288 
4119 4120 5225 5224 4184 4185 5290 5289 
4120 4121 5226 5225 4185 4186 5291 5290 
4121 4122 5227 5226 4186 4187 5292 5291 
4122 4123 5228 5227 4187 4188 5293 5292 
4123 4124 5229 5228 4188 4189 5294 5293 
4124 4125 5230 5229 4189 4190 5295 5294 
4125 4126 5231 5230 4190 4191 5296 5295 
4126 4127 5232 5231 4191 4192 5297 5296 
4127 4128 5233 5232 4192 4193 5298 5297 
4128 4129 5234 5233 4193 4194 5299 5298 
4129 4130 5235 5234 4194 4195 5300 5299 
4130 4131 5236 5235 4195 4196 5301 5300 
4131 4132 5237 5236 4196 4197 5302 5301 
4132 4133 5238 5237 4197 4198 5303 5302 
4133 4134 5239 5238 4198 4199 5304 5303 
4134 4135 5240 5239 4199 4200 5305 5304 
4135 4136 5241 5240 4200 4201 5306 5305 
4136 4137 5242 5241 4201 4202 5307 5306 
4137 4138 5243 5242 4202 4203 5308 5307 
4138 4139 5244 5243 4203 4204 5309 5308 
4139 4140 5245 5244 4204 4205 5310 5309 
4140 4141 5246 5245 4205 4206 5311 5310 
4141 4142 5247 5246 4206 4207 5312 5311 
4142 4143 5248 5247 4207 4208 5313 5312 
4143 4144 5249 5248 4208 4209 5314 5313 
4144 4145 5250 5249 4209 4210 5315 5314 
4145 4146 5251 5250 4210 4211 5316 5315 
4146 4147 5252 5251 4211 4212 5317 5316 
4147 4148 5253 5252 4212 4213 5318 5317 
4148 4149 5254 5253 4213 4214 5319 5318 
4149 4150 5255 5254 4214 4215 5320 5319 
4150 4151 5256 5255 4215 4216 5321 5320 
4151 4152 5257 5256 4216 4217 5322 5321 
4152 4153 5258 5257 4217 4218 5323 5322 
4153 4154 5259 5258 4218 4219 5324 5323 
4154 4155 5260 5259 4219 4220 5325 5324 
4155 4156 5261 5260 4220 4221 5326 5325 
4156 4157 5262 5261 4221 4222 5327 5326 
4157 4158 5263 5262 4222 4223 5328 5327 
4158 4159 5264 5263 4223 4224 5329 5328 
4160 4161 5266 5265 4225 4226 5331 5330 
4161 4162 5267 5266 4226 4227 5332 5331 
4162 4163 5268 5267 4227 4228 5333 5332 
4163 4164 5269 5268 4228 4229 5334 5333 
4164 4165 5270 5269 4229 4230 5335 5334 
4165 4166 5271 5270 4230 4231 5336 5335 
4166 4167 5272 5271 4231 4232 5337 5336 
4167 4168 5273 5272 4232 4233 5338 5337 
4168 4169 5274 5273 4233 4234 5339 5338 
4169 4170 5275 5274 4234 4235 5340 5339 
4170 4171 5276 5275 4235 4236 5341 5340 
4171 4172 5277 5276 4236 4237 5342 5341 
4172 4173 5278 5277 4237 4238 5343 5342 
4173 4174 5279 5278 4238 4239 5344 5343 
4174 4175 5280 5279 4239 4240 5345 5344 
4175 4176 5281 5280 4240 4241 5346 5345 
4176 4177 5282 5281 4241 4242 5347 5346 
4177 4178 5283 5282 4242 4243 5348 5347 
4178 4179 5284 5283 4243 4244 5349 5348 
4179 4180 5285 5284 4244 4245 5350 5349 
4180 4181 5286 5285 4245 4246 5351 5350 
4181 4182 5287 5286 4246 4247 5352 5351 
4182 4183 5288 5287 4247 4248 5353 5352 
4183 4184 5289 5288 4248 4249 5354 5353 
4184 4185 5290 5289 4249 4250 5355 5354 
4185 4186 5291 5290 4250 4251 5356 5355 
4186 4187 5292 5291 4251 4252 5357 5356 
4187 4188 5293 5292 4252 4253 5358 5357 
4188 4189 5294 5293 4253 4254 5359 5358 
4189 4190 5295 5294 4254 4255 5360 5359 
4190 4191 5296 5295 4255 4256 5361 5360 
4191 4192 5297 5296 4256 4257 5362 5361 
4192 4193 5298 5297 4257 4258 5363 5362 
4193 4194 5299 5298 4258 4259 5364 5363 
4194 4195 5300 5299 4259 4260 5365 5364 
4195 4196 5301 5300 4260 4261 5366 5365 
4196 4197 5302 5301 4261 4262 5367 5366 
4197 4198 5303 5302 4262 4263 5368 5367 
4198 4199 5304 5303 4263 4264 5369 5368 
4199 4200 5305 5304 4264 4265 5370 5369 
4200 4201 5306 5305 4265 4266 5371 5370 
4201 4202 5307 5306 4266 4267 5372 5371 
4202 4203 5308 5307 4267 4268 5373 5372 
4203 4204 5309 5308 4268 4269 5374 5373 
4204 4205 5310 5309 4269 4270 5375 5374 
4205 4206 5311 5310 4270 4271 5376 5375 
4206 4207 5312 5311 4271 4272 5377 5376 
4207 4208 5313 5312 4272 4273 5378 5377 
4208 4209 5314 5313 4273 4274 5379 5378 
4209 4210 5315 5314 4274 4275 5380 5379 
4210 4211 5316 5315 4275 4276 5381 5380 
4211 4212 5317 5316 4276 4277 5382 5381 
4212 4213 5318 5317 4277 4278 5383 5382 
4213 4214 5319 5318 4278 4279 5384 5383 
4214 4215 5320 5319 4279 4280 5385 5384 
4215 4216 5321 5320 4280 4281 5386 5385 
4216 4217 5322 5321 4281 4282 5387 5386 
4217 4218 5323 5322 4282 4283 5388 5387 
4218 4219 5324 5323 4283 4284 5389 5388 
4219 4220 5325 5324 4284 4285 5390 5389 
4220 4221 5326 5325 4285 4286 5391 5390 
4221 4222 5327 5326 4286 4287 5392 5391 
4222 4223 5328 5327 4287 4288 5393 5392 
4223 4224 5329 5328 4288 4289 5394 5393 
4225 4226 5331 5330 4290 4291 5396 5395 
4226 4227 5332 5331 4291 4292 5397 5396 
4227 4228 5333 5332 4292 4293 5398 5397 
4228 4229 5334 5333 4293 4294 5399 5398 
4229 4230 5335 5334 4294 4295 5400 5399 
4230 4231 5336 5335 4295 4296 5401 5400 
4231 4232 5337 5336 4296 4297 5402 5401 
4232 4233 5338 5337 4297 4298 5403 5402 
4233 4234 5339 5338 4298 4299 5404 5403 
4234 4235 5340 5339 4299 4300 5405 5404 
4235 4236 5341 5340 4300 4301 5406 5405 
4236 4237 5342 5341 4301 4302 5407 5406 
4237 4238 5343 5342 4302 4303 5408 5407 
4238 4239 5344 5343 4303 4304 5409 5408 
4239 4240 5345 5344 4304 4305 5410 5409 
4240 4241 5346 5345 4305 4306 5411 5410 
4241 4242 5347 5346 4306 4307 5412 5411 
4242 4243 5348 5347 4307 4308 5413 5412 
4243 4244 5349 5348 4308 4309 5414 5413 
4244 4245 5350 5349 4309 4310 5415 5414 
4245 4246 5351 5350 4310 4311 5416 5415 
4246 4247 5352 5351 4311 4312 5417 5416 
4247 4248 5353 5352 4312 4313 5418 5417 
4248 4249 5354 5353 4313 4314 5419 5418 
4249 4250 5355 5354 4314 4315 5420 5419 
4250 4251 5356 5355 4315 4316 5421 5420 
4251 4252 5357 5356 4316 4317 5422 5421 
4252 4253 5358 5357 4317 4318 5423 5422 
4253 4254 5359 5358 4318 4319 5424 5423 
4254 4255 5360 5359 4319 4320 5425 5424 
4255 4256 5361 5360 4320 4321 5426 5425 
4256 4257 5362 5361 4321 4322 5427 5426 
4257 4258 5363 5362 4322 4323 5428 5427 
4258 4259 5364 5363 4323 4324 5429 5428 
4259 4260 5365 5364 4324 4325 5430 5429 
4260 4261 5366 5365 4325 4326 5431 5430 
4261 4262 5367 5366 4326 4327 5432 5431 
4262 4263 5368 5367 4327 4328 5433 5432 
4263 4264 5369 5368 4328 4329 5434 5433 
4264 4265 5370 5369 4329 4330 5435 5434 
4265 4266 5371 5370 4330 4331 5436 5435 
4266 4267 5372 5371 4331 4332 5437 5436 
4267 4268 5373 5372 4332 4333 5438 5437 
4268 4269 5374 5373 4333 4334 5439 5438 
4269 4270 5375 5374 4334 4335 5440 5439 
4270 4271 5376 5375 4335 4336 5441 5440 
4271 4272 5377 5376 4336 4337 5442 5441 
4272 4273 5378 5377 4337 4338 5443 5442 
4273 4274 5379 5378 4338 4339 5444 5443 
4274 4275 5380 5379 4339 4340 5445 5444 
4275 4276 5381 5380 4340 4341 5446 5445 
4276 4277 5382 5381 4341 4342 5447 5446 
4277 4278 5383 5382 4342 4343 5448 5447 
4278 4279 5384 5383 4343 4344 5449 5448 
4279 4280 5385 5384 4344 4345 5450 5449 
4280 4281 5386 5385 4345 4346 5451 5450 
4281 4282 5387 5386 4346 4347 5452 5451 
4282 4283 5388 5387 4347 4348 5453 5452 
4283 4284 5389 5388 4348 4349 5454 5453 
4284 4285 5390 5389 4349 4350 5455 5454 
4285 4286 5391 5390 4350 4351 5456 5455 
4286 4287 5392 5391 4351 4352 5457 5456 
4287 4288 5393 5392 4352 4353 5458 5457 
4288 4289 5394 5393 4353 4354 5459 5458 
4290 4291 5396 5395 4355 4356 5461 5460 
4291 4292 5397 5396 4356 4357 5462 5461 
4292 4293 5398 5397 4357 4358 5463 5462 
4293 4294 5399 5398 4358 4359 5464 5463 
4294 4295 5400 5399 4359 4360 5465 5464 
4295 4296 5401 5400 4360 4361 5466 5465 
4296 4297 5402 5401 4361 4362 5467 5466 
4297 4298 5403 5402 4362 4363 5468 5467 
4298 4299 5404 5403 4363 4364 5469 5468 
4299 4300 5405 5404 4364 4365 5470 5469 
4300 4301 5406 5405 4365 4366 5471 5470 
4301 4302 5407 5406 4366 4367 5472 5471 
4302 4303 5408 5407 4367 4368 5473 5472 
4303 4304 5409 5408 4368 4369 5474 5473 
4304 4305 5410 5409 4369 4370 5475 5474 
4305 4306 5411 5410 4370 4371 5476 5475 
4306 4307 5412 5411 4371 4372 5477 5476 
4307 4308 5413 5412 4372 4373 5478 5477 
4308 4309 5414 5413 4373 4374 5479 5478 
4309 4310 5415 5414 4374 4375 5480 5479 
4310 4311 5416 5415 4375 4376 5481 5480 
4311 4312 5417 5416 4376 4377 5482 5481 
4312 4313 5418 5417 4377 4378 5483 5482 
4313 4314 5419 5418 4378 4379 5484 5483 
4314 4315 5420 5419 4379 4380 5485 5484 
4315 4316 5421 5420 4380 4381 5486 5485 
4316 4317 5422 5421 4381 4382 5487 5486 
4317 4318 5423 5422 4382 4383 5488 5487 
4318 4319 5424 5423 4383 4384 5489 5488 
4319 4320 5425 5424 4384 4385 5490 5489 
4320 4321 5426 5425 4385 4386 5491 5490 
4321 4322 5427 5426 4386 4387 5492 5491 
4322 4323 5428 5427 4387 4388 5493 5492 
4323 4324 5429 5428 4388 4389 5494 5493 
4324 4325 5430 5429 4389 4390 5495 5494 
4325 4326 5431 5430 4390 4391 5496 5495 
4326 4327 5432 5431 4391 4392 5497 5496 
4327 4328 5433 5432 4392 4393 5498 5497 
4328 4329 5434 5433 4393 4394 5499 5498 
4329 4330 5435 5434 4394 4395 5500 5499 
4330 4331 5436 5435 4395 4396 5501 5500 
4331 4332 5437 5436 4396 4397 5502 5501 
4332 4333 5438 5437 4397 4398 5503 5502 
4333 4334 5439 5438 4398 4399 5504 5503 
4334 4335 5440 5439 4399 4400 5505 5504 
4335 4336 5441 5440 4400 4401 5506 5505 
4336 4337 5442 5441 4401 4402 5507 5506 
4337 4338 5443 5442 4402 4403 5508 5507 
4338 4339 5444 5443 4403 4404 5509 5508 
4339 4340 5445 5444 4404 4405 5510 5509 
4340 4341 5446 5445 4405 4406 5511 5510 
4341 4342 5447 5446 4406 4407 5512 5511 
4342 4343 5448 5447 4407 4408 5513 5512 
4343 4344 5449 5448 4408 4409 5514 5513 
4344 4345 5450 5449 4409 4410 5515 5514 
4345 4346 5451 5450 4410 4411 5516 5515 
4346 4347 5452 5451 4411 4412 5517 5516 
4347 4348 5453 5452 4412 4413 5518 5517 
4348 4349 5454 5453 4413 4414 5519 5518 
4349 4350 5455 5454 4414 4415 5520 5519 
4350 4351 5456 5455 4415 4416 5521 5520 
4351 4352 5457 5456 4416 4417 5522 5521 
4352 4353 5458 5457 4417 4418 5523 5522 
4353 4354 5459 5458 4418 4419 5524 5523 
4420 4421 5526 5525 4485 4486 5591 5590 
4421 4422 5527 5526 4486 4487 5592 5591 
4422 4423 5528 5527 4487 4488 5593 5592 
4423 4424 5529 5528 4488 4489 5594 5593 
4424 4425 5530 5529 4489 4490 5595 5594 
4425 4426 5531 5530 4490 4491 5596 5595 
4426 4427 5532 5531 4491 4492 5597 5596 
4427 4428 5533 5532 4492 4493 5598 5597 
4428 4429 5534 5533 4493 4494 5599 5598 
4429 4430 5535 5534 4494 4495 5600 5599 
4430 4431 5536 5535 4495 4496 5601 5600 
4431 4432 5537 5536 4496 4497 5602 5601 
4432 4433 5538 5537 4497 4498 5603 5602 
4433 4434 5539 5538 4498 4499 5604 5603 
4434 4435 5540 5539 4499 4500 5605 5604 
4435 4436 5541 5540 4500 4501 5606 5605 
4436 4437 5542 5541 4501 4502 5607 5606 
4437 4438 5543 5542 4502 4503 5608 5607 
4438 4439 5544 5543 4503 4504 5609 5608 
4439 4440 5545 5544 4504 4505 5610 5609 
4440 4441 5546 5545 4505 4506 5611 5610 
4441 4442 5547 5546 4506 4507 5612 5611 
4442 4443 5548 5547 4507 4508 5613 5612 
4443 4444 5549 5548 4508 4509 5614 5613 
4444 4445 5550 5549 4509 4510 5615 5614 
4445 4446 5551 5550 4510 4511 5616 5615 
4446 4447 5552 5551 4511 4512 5617 5616 
4447 4448 5553 5552 4512 4513 5618 5617 
4448 4449 5554 5553 4513 4514 5619 5618 
4449 4450 5555 5554 4514 4515 5620 5619 
4450 4451 5556 5555 4515 4516 5621 5620 
4451 4452 5557 5556 4516 4517 5622 5621 
4452 4453 5558 5557 4517 4518 5623 5622 
4453 4454 5559 5558 4518 4519 5624 5623 
4454 4455 5560 5559 4519 4520 5625 5624 
4455 4456 5561 5560 4520 4521 5626 5625 
4456 4457 5562 5561 4521 4522 5627 5626 
4457 4458 5563 5562 4522 4523 5628 5627 
4458 4459 5564 5563 4523 4524 5629 5628 
4459 4460 5565 5564 4524 4525 5630 5629 
4460 4461 5566 5565 4525 4526 5631 5630 
4461 4462 5567 5566 4526 4527 5632 5631 
4462 4463 5568 5567 4527 4528 5633 5632 
4463 4464 5569 5568 4528 4529 5634 5633 
4464 4465 5570 5569 4529 4530 5635 5634 
4465 4466 5571 5570 4530 4531 5636 5635 
4466 4467 5572 5571 4531 4532 5637 5636 
4467 4468 5573 5572 4532 4533 5638 5637 
4468 4469 5574 5573 4533 4534 5639 5638 
4469 4470 5575 5574 4534 4535 5640 5639 
4470 4471 5576 5575 4535 4536 5641 5640 
4471 4472 5577 5576 4536 4537 5642 5641 
4472 4473 5578 5577 4537 4538 5643 5642 
4473 4474 5579 5578 4538 4539 5644 5643 
4474 4475 5580 5579 4539 4540 5645 5644 
4475 4476 5581 5580 4540 4541 5646 5645 
4476 4477 5582 5581 4541 4542 5647 5646 
4477 4478 5583 5582 4542 4543 5648 5647 
4478 4479 5584 5583 4543 4544 5649 5648 
4479 4480 5585 5584 4544 4545 5650 5649 
4480 4481 5586 5585 4545 4546 5651 5650 
4481 4482 5587 5586 4546 4547 5652 5651 
4482 4483 5588 5587 4547 4548 5653 5652 
4483 4484 5589 5588 4548 4549 5654 5653 
4485 4486 5591 5590 4550 4551 5656 5655 
4486 4487 5592 5591 4551 4552 5657 5656 
4487 4488 5593 5592 4552 4553 5658 5657 
4488 4489 5594 5593 4553 4554 5659 5658 
4489 4490 5595 5594 4554 4555 5660 5659 
4490 4491 5596 5595 4555 4556 5661 5660 
4491 4492 5597 5596 4556 4557 5662 5661 
4492 4493 5598 5597 4557 4558 5663 5662 
4493 4494 5599 5598 4558 4559 5664 5663 
4494 4495 5600 5599 4559 4560 5665 5664 
4495 4496 5601 5600 4560 4561 5666 5665 
4496 4497 5602 5601 4561 4562 5667 5666 
4497 4498 5603 5602 4562 4563 5668 5667 
4498 4499 5604 5603 4563 4564 5669 5668 
4499 4500 5605 5604 4564 4565 5670 5669 
4500 4501 5606 5605 4565 4566 5671 5670 
4501 4502 5607 5606 4566 4567 5672 5671 
4502 4503 5608 5607 4567 4568 5673 5672 
4503 4504 5609 5608 4568 4569 5674 5673 
4504 4505 5610 5609 4569 4570 5675 5674 
4505 4506 5611 5610 4570 4571 5676 5675 
4506 4507 5612 5611 4571 4572 5677 5676 
4507 4508 5613 5612 4572 4573 5678 5677 
4508 4509 5614 5613 4573 4574 5679 5678 
4509 4510 5615 5614 4574 4575 5680 5679 
4510 4511 5616 5615 4575 4576 5681 5680 
4511 4512 5617 5616 4576 4577 5682 5681 
4512 4513 5618 5617 4577 4578 5683 5682 
4513 4514 5619 5618 4578 4579 5684 5683 
4514 4515 5620 5619 4579 4580 5685 5684 
4515 4516 5621 5620 4580 4581 5686 5685 
4516 4517 5622 5621 4581 4582 5687 5686 
4517 4518 5623 5622 4582 4583 5688 5687 
4518 4519 5624 5623 4583 4584 5689 5688 
4519 4520 5625 5624 4584 4585 5690 5689 
4520 4521 5626 5625 4585 4586 5691 5690 
4521 4522 5627 5626 4586 4587 5692 5691 
4522 4523 5628 5627 4587 4588 5693 5692 
4523 4524 5629 5628 4588 4589 5694 5693 
4524 4525 5630 5629 4589 4590 5695 5694 
4525 4526 5631 5630 4590 4591 5696 5695 
4526 4527 5632 5631 4591 4592 5697 5696 
4527 4528 5633 5632 4592 4593 5698 5697 
4528 4529 5634 5633 4593 4594 5699 5698 
4529 4530 5635 5634 4594 4595 5700 5699 
4530 4531 5636 5635 4595 4596 5701 5700 
4531 4532 5637 5636 4596 4597 5702 5701 
4532 4533 5638 5637 4597 4598 5703 5702 
4533 4534 5639 5638 4598 4599 5704 5703 
4534 4535 5640 5639 4599 4600 5705 5704 
4535 4536 5641 5640 4600 4601 5706 5705 
4536 4537 5642 5641 4601 4602 5707 5706 
4537 4538 5643 5642 4602 4603 5708 5707 
4538 4539 5644 5643 4603 4604 5709 5708 
4539 4540 5645 5644 4604 4605 5710 5709 
4540 4541 5646 5645 4605 4606 5711 5710 
4541 4542 5647 5646 4606 4607 5712 5711 
4542 4543 5648 5647 4607 4608 5713 5712 
4543 4544 5649 5648 4608 4609 5714 5713 
4544 4545 5650 5649 4609 4610 5715 5714 
4545 4546 5651 5650 4610 4611 5716 5715 
4546 4547 5652 5651 4611 4612 5717 5716 
4547 4548 5653 5652 4612 4613 5718 5717 
4548 4549 5654 5653 4613 4614 5719 5718 
4550 4551 5656 5655 4615 4616 5721 5720 
4551 4552 5657 5656 4616 4617 5722 5721 
4552 4553 5658 5657 4617 4618 5723 5722 
4553 4554 5659 5658 4618 4619 5724 5723 
4554 4555 5660 5659 4619 4620 5725 5724 
4555 4556 5661 5660 4620 4621 5726 5725 
4556 4557 5662 5661 4621 4622 5727 5726 
4557 4558 5663 5662 4622 4623 5728 5727 
4558 4559 5664 5663 4623 4624 5729 5728 
4559 4560 5665 5664 4624 4625 5730 5729 
4560 4561 5666 5665 4625 4626 5731 5730 
4561 4562 5667 5666 4626 4627 5732 5731 
4562 4563 5668 5667 4627 4628 5733 5732 
4563 4564 5669 5668 4628 4629 5734 5733 
4564 4565 5670 5669 4629 4630 5735 5734 
4565 4566 5671 5670 4630 4631 5736 5735 
4566 4567 5672 5671 4631 4632 5737 5736 
4567 4568 5673 5672 4632 4633 5738 5737 
4568 4569 5674 5673 4633 4634 5739 5738 
4569 4570 5675 5674 4634 4635 5740 5739 
4570 4571 5676 5675 4635 4636 5741 5740 
4571 4572 5677 5676 4636 4637 5742 5741 
4572 4573 5678 5677 4637 4638 5743 5742 
4573 4574 5679 5678 4638 4639 5744 5743 
4574 4575 5680 5679 4639 4640 5745 5744 
4575 4576 5681 5680 4640 4641 5746 5745 
4576 4577 5682 5681 4641 4642 5747 5746 
4577 4578 5683 5682 4642 4643 5748 5747 
4578 4579 5684 5683 4643 4644 5749 5748 
4579 4580 5685 5684 4644 4645 5750 5749 
4580 4581 5686 5685 4645 4646 5751 5750 
4581 4582 5687 5686 4646 4647 5752 5751 
4582 4583 5688 5687 4647 4648 5753 5752 
4583 4584 5689 5688 4648 4649 5754 5753 
4584 4585 5690 5689 4649 4650 5755 5754 
4585 4586 5691 5690 4650 4651 5756 5755 
4586 4587 5692 5691 4651 4652 5757 5756 
4587 4588 5693 5692 4652 4653 5758 5757 
4588 4589 5694 5693 4653 4654 5759 5758 
4589 4590 5695 5694 4654 4655 5760 5759 
4590 4591 5696 5695 4655 4656 5761 5760 
4591 4592 5697 5696 4656 4657 5762 5761 
4592 4593 5698 5697 4657 4658 5763 5762 
4593 4594 5699 5698 4658 4659 5764 5763 
4594 4595 5700 5699 4659 4660 5765 5764 
4595 4596 5701 5700 4660 4661 5766 5765 
4596 4597 5702 5701 4661 4662 5767 5766 
4597 4598 5703 5702 4662 4663 5768 5767 
4598 4599 5704 5703 4663 4664 5769 5768 
4599 4600 5705 5704 4664 4665 5770 5769 
4600 4601 5706 5705 4665 4666 5771 5770 
4601 4602 5707 5706 4666 4667 5772 5771 
4602 4603 5708 5707 4667 4668 5773 5772 
4603 4604 5709 5708 4668 4669 5774 5773 
4604 4605 5710 5709 4669 4670 5775 5774 
4605 4606 5711 5710 4670 4671 5776 5775 
4606 4607 5712 5711 4671 4672 5777 5776 
4607 4608 5713 5712 4672 4673 5778 5777 
4608 4609 5714 5713 4673 4674 5779 5778 
4609 4610 5715 5714 4674 4675 5780 5779 
4610 4611 5716 5715 4675 4676 5781 5780 
4611 4612 5717 5716 4676 4677 5782 5781 
4612 4613 5718 5717 4677 4678 5783 5782 
4613 4614 5719 5718 4678 4679 5784 5783 
4615 4616 5721 5720 4680 4681 5786 5785 
4616 4617 5722 5721 4681 4682 5787 5786 
4617 4618 5723 5722 4682 4683 5788 5787 
4618 4619 5724 5723 4683 4684 5789 5788 
4619 4620 5725 5724 4684 4685 5790 5789 
4620 4621 5726 5725 4685 4686 5791 5790 
4621 4622 5727 5726 4686 4687 5792 5791 
4622 4623 5728 5727 4687 4688 5793 5792 
4623 4624 5729 5728 4688 4689 5794 5793 
4624 4625 5730 5729 4689 4690 5795 5794 
4625 4626 5731 5730 4690 4691 5796 5795 
4626 4627 5732 5731 4691 4692 5797 5796 
4627 4628 5733 5732 4692 4693 5798 5797 
4628 4629 5734 5733 4693 4694 5799 5798 
4629 4630 5735 5734 4694 4695 5800 5799 
4630 4631 5736 5735 4695 4696 5801 5800 
4631 4632 5737 5736 4696 4697 5802 5801 
4632 4633 5738 5737 4697 4698 5803 5802 
4633 4634 5739 5738 4698 4699 5804 5803 
4634 4635 5740 5739 4699 4700 5805 5804 
4635 4636 5741 5740 4700 4701 5806 5805 
4636 4637 5742 5741 4701 4702 5807 5806 
4637 4638 5743 5742 4702 4703 5808 5807 
4638 4639 5744 5743 4703 4704 5809 5808 
4639 4640 5745 5744 4704 4705 5810 5809 
4640 4641 5746 5745 4705 4706 5811 5810 
4641 4642 5747 5746 4706 4707 5812 5811 
4642 4643 5748 5747 4707 4708 5813 5812 
4643 4644 5749 5748 4708 4709 5814 5813 
4644 4645 5750 5749 4709 4710 5815 5814 
4645 4646 5751 5750 4710 4711 5816 5815 
4646 4647 5752 5751 4711 4712 5817 5816 
4647 4648 5753 5752 4712 4713 5818 5817 
4648 4649 5754 5753 4713 4714 5819 5818 
4649 4650 5755 5754 4714 4715 5820 5819 
4650 4651 5756 5755 4715 4716 5821 5820 
4651 4652 5757 5756 4716 4717 5822 5821 
4652 4653 5758 5757 4717 4718 5823 5822 
4653 4654 5759 5758 4718 4719 5824 5823 
4654 4655 5760 5759 4719 4720 5825 5824 
4655 4656 5761 5760 4720 4721 5826 5825 
4656 4657 5762 5761 4721 4722 5827 5826 
4657 4658 5763 5762 4722 4723 5828 5827 
4658 4659 5764 5763 4723 4724 5829 5828 
4659 4660 5765 5764 4724 4725 5830 5829 
4660 4661 5766 5765 4725 4726 5831 5830 
4661 4662 5767 5766 4726 4727 5832 5831 
4662 4663 5768 5767 4727 4728 5833 5832 
4663 4664 5769 5768 4728 4729 5834 5833 
4664 4665 5770 5769 4729 4730 5835 5834 
4665 4666 5771 5770 4730 4731 5836 5835 
4666 4667 5772 5771 4731 4732 5837 5836 
4667 4668 5773 5772 4732 4733 5838 5837 
4668 4669 5774 5773 4733 4734 5839 5838 
4669 4670 5775 5774 4734 4735 5840 5839 
4670 4671 5776 5775 4735 4736 5841 5840 
4671 4672 5777 5776 4736 4737 5842 5841 
4672 4673 5778 5777 4737 4738 5843 5842 
4673 4674 5779 5778 4738 4739 5844 5843 
4674 4675 5780 5779 4739 4740 5845 5844 
4675 4676 5781 5780 4740 4741 5846 5845 
4676 4677 5782 5781 4741 4742 5847 5846 
4677 4678 5783 5782 4742 4743 5848 5847 
4678 4679 5784 5783 4743 4744 5849 5848 
4680 4681 5786 5785 4745 4746 5851 5850 
4681 4682 5787 5786 4746 4747 5852 5851 
4682 4683 5788 5787 4747 4748 5853 5852 
4683 4684 5789 5788 4748 4749 5854 5853 
4684 4685 5790 5789 4749 4750 5855 5854 
4685 4686 5791 5790 4750 4751 5856 5855 
4686 4687 5792 5791 4751 4752 5857 5856 
4687 4688 5793 5792 4752 4753 5858 5857 
4688 4689 5794 5793 4753 4754 5859 5858 
4689 4690 5795 5794 4754 4755 5860 5859 
4690 4691 5796 5795 4755 4756 5861 5860 
4691 4692 5797 5796 4756 4757 5862 5861 
4692 4693 5798 5797 4757 4758 5863 5862 
4693 4694 5799 5798 4758 4759 5864 5863 
4694 4695 5800 5799 4759 4760 5865 5864 
4695 4696 5801 5800 4760 4761 5866 5865 
4696 4697 5802 5801 4761 4762 5867 5866 
4697 4698 5803 5802 4762 4763 5868 5867 
4698 4699 5804 5803 4763 4764 5869 5868 
4699 4700 5805 5804 4764 4765 5870 5869 
4700 4701 5806 5805 4765 4766 5871 5870 
4701 4702 5807 5806 4766 4767 5872 5871 
4702 4703 5808 5807 4767 4768 5873 5872 
4703 4704 5809 5808 4768 4769 5874 5873 
4704 4705 5810 5809 4769 4770 5875 5874 
4705 4706 5811 5810 4770 4771 5876 5875 
4706 4707 5812 5811 4771 4772 5877 5876 
4707 4708 5813 5812 4772 4773 5878 5877 
4708 4709 5814 5813 4773 4774 5879 5878 
4709 4710 5815 5814 4774 4775 5880 5879 
4710 4711 5816 5815 4775 4776 5881 5880 
4711 4712 5817 5816 4776 4777 5882 5881 
4712 4713 5818 5817 4777 4778 5883 5882 
4713 4714 5819 5818 4778 4779 5884 5883 
4714 4715 5820 5819 4779 4780 5885 5884 
4715 4716 5821 5820 4780 4781 5886 5885 
4716 4717 5822 5821 4781 4782 5887 5886 
4717 4718 5823 5822 4782 4783 5888 5887 
4718 4719 5824 5823 4783 4784 5889 5888 
4719 4720 5825 5824 4784 4785 5890 5889 
4720 4721 5826 5825 4785 4786 5891 5890 
4721 4722 5827 5826 4786 4787 5892 5891 
4722 4723 5828 5827 4787 4788 5893 5892 
4723 4724 5829 5828 4788 4789 5894 5893 
4724 4725 5830 5829 4789 4790 5895 5894 
4725 4726 5831 5830 4790 4791 5896 5895 
4726 4727 5832 5831 4791 4792 5897 5896 
4727 4728 5833 5832 4792 4793 5898 5897 
4728 4729 5834 5833 4793 4794 5899 5898 
4729 4730 5835 5834 4794 4795 5900 5899 
4730 4731 5836 5835 4795 4796 5901 5900 
4731 4732 5837 5836 4796 4797 5902 5901 
4732 4733 5838 5837 4797 4798 5903 5902 
4733 4734 5839 5838 4798 4799 5904 5903 
4734 4735 5840 5839 4799 4800 5905 5904 
4735 4736 5841 5840 4800 4801 5906 5905 
4736 4737 5842 5841 4801 4802 5907 5906 
4737 4738 5843 5842 4802 4803 5908 5907 
4738 4739 5844 5843 4803 4804 5909 5908 
4739 4740 5845 5844 4804 4805 5910 5909 
4740 4741 5846 5845 4805 4806 5911 5910 
4741 4742 5847 5846 4806 4807 5912 5911 
4742 4743 5848 5847 4807 4808 5913 5912 
4743 4744 5849 5848 4808 4809 5914 5913 
4745 4746 5851 5850 4810 4811 5916 5915 
4746 4747 5852 5851 4811 4812 5917 5916 
4747 4748 5853 5852 4812 4813 5918 5917 
4748 4749 5854 5853 4813 4814 5919 5918 
4749 4750 5855 5854 4814 4815 5920 5919 
4750 4751 5856 5855 4815 4816 5921 5920 
4751 4752 5857 5856 4816 4817 5922 5921 
4752 4753 5858 5857 4817 4818 5923 5922 
4753 4754 5859 5858 4818 4819 5924 5923 
4754 4755 5860 5859 4819 4820 5925 5924 
4755 4756 5861 5860 4820 4821 5926 5925 
4756 4757 5862 5861 4821 4822 5927 5926 
4757 4758 5863 5862 4822 4823 5928 5927 
4758 4759 5864 5863 4823 4824 5929 5928 
4759 4760 5865 5864 4824 4825 5930 5929 
4760 4761 5866 5865 4825 4826 5931 5930 
4761 4762 5867 5866 4826 4827 5932 5931 
4762 4763 5868 5867 4827 4828 5933 5932 
4763 4764 5869 5868 4828 4829 5934 5933 
4764 4765 5870 5869 4829 4830 5935 5934 
4765 4766 5871 5870 4830 4831 5936 5935 
4766 4767 5872 5871 4831 4832 5937 5936 
4767 4768 5873 5872 4832 4833 5938 5937 
4768 4769 5874 5873 4833 4834 5939 5938 
4769 4770 5875 5874 4834 4835 5940 5939 
4770 4771 5876 5875 4835 4836 5941 5940 
4771 4772 5877 5876 4836 4837 5942 5941 
4772 4773 5878 5877 4837 4838 5943 5942 
4773 4774 5879 5878 4838 4839 5944 5943 
4774 4775 5880 5879 4839 4840 5945 5944 
4775 4776 5881 5880 4840 4841 5946 5945 
4776 4777 5882 5881 4841 4842 5947 5946 
4777 4778 5883 5882 4842 4843 5948 5947 
4778 4779 5884 5883 4843 4844 5949 5948 
4779 4780 5885 5884 4844 4845 5950 5949 
4780 4781 5886 5885 4845 4846 5951 5950 
4781 4782 5887 5886 4846 4847 5952 5951 
4782 4783 5888 5887 4847 4848 5953 5952 
4783 4784 5889 5888 4848 4849 5954 5953 
4784 4785 5890 5889 4849 4850 5955 5954 
4785 4786 5891 5890 4850 4851 5956 5955 
4786 4787 5892 5891 4851 4852 5957 5956 
4787 4788 5893 5892 4852 4853 5958 5957 
4788 4789 5894 5893 4853 4854 5959 5958 
4789 4790 5895 5894 4854 4855 5960 5959 
4790 4791 5896 5895 4855 4856 5961 5960 
4791 4792 5897 5896 4856 4857 5962 5961 
4792 4793 5898 5897 4857 4858 5963 5962 
4793 4794 5899 5898 4858 4859 5964 5963 
4794 4795 5900 5899 4859 4860 5965 5964 
4795 4796 5901 5900 4860 4861 5966 5965 
4796 4797 5902 5901 4861 4862 5967 5966 
4797 4798 5903 5902 4862 4863 5968 5967 
4798 4799 5904 5903 4863 4864 5969 5968 
4799 4800 5905 5904 4864 4865 5970 5969 
4800 4801 5906 5905 4865 4866 5971 5970 
4801 4802 5907 5906 4866 4867 5972 5971 
4802 4803 5908 5907 4867 4868 5973 5972 
4803 4804 5909 5908 4868 4869 5974 5973 
4804 4805 5910 5909 4869 4870 5975 5974 
4805 4806 5911 5910 4870 4871 5976 5975 
4806 4807 5912 5911 4871 4872 5977 5976 
4807 4808 5913 5912 4872 4873 5978 5977 
4808 4809 5914 5913 4873 4874 5979 5978 
4810 4811 5916 5915 4875 4876 5981 5980 
4811 4812 5917 5916 4876 4877 5982 5981 
4812 4813 5918 5917 4877 4878 5983 5982 
4813 4814 5919 5918 4878 4879 5984 5983 
4814 4815 5920 5919 4879 4880 5985 5984 
4815 4816 5921 5920 4880 4881 5986 5985 
4816 4817 5922 5921 4881 4882 5987 5986 
4817 4818 5923 5922 4882 4883 5988 5987 
4818 4819 5924 5923 4883 4884 5989 5988 
4819 4820 5925 5924 4884 4885 5990 5989 
4820 4821 5926 5925 4885 4886 5991 5990 
4821 4822 5927 5926 4886 4887 5992 5991 
4822 4823 5928 5927 4887 4888 5993 5992 
4823 4824 5929 5928 4888 4889 5994 5993 
4824 4825 5930 5929 4889 4890 5995 5994 
4825 4826 5931 5930 4890 4891 5996 5995 
4826 4827 5932 5931 4891 4892 5997 5996 
4827 4828 5933 5932 4892 4893 5998 5997 
4828 4829 5934 5933 4893 4894 5999 5998 
4829 4830 5935 5934 4894 4895 6000 5999 
4830 4831 5936 5935 4895 4896 6001 6000 
4831 4832 5937 5936 4896 4897 6002 6001 
4832 4833 5938 5937 4897 4898 6003 6002 
4833 4834 5939 5938 4898 4899 6004 6003 
4834 4835 5940 5939 4899 4900 6005 6004 
4835 4836 5941 5940 4900 4901 6006 6005 
4836 4837 5942 5941 4901 4902 6007 6006 
4837 4838 5943 5942 4902 4903 6008 6007 
4838 4839 5944 5943 4903 4904 6009 6008 
4839 4840 5945 5944 4904 4905 6010 6009 
4840 4841 5946 5945 4905 4906 6011 6010 
4841 4842 5947 5946 4906 4907 6012 6011 
4842 4843 5948 5947 4907 4908 6013 6012 
4843 4844 5949 5948 4908 4909 6014 6013 
4844 4845 5950 5949 4909 4910 6015 6014 
4845 4846 5951 5950 4910 4911 6016 6015 
4846 4847 5952 5951 4911 4912 6017 6016 
4847 4848 5953 5952 4912 4913 6018 6017 
4848 4849 5954 5953 4913 4914 6019 6018 
4849 4850 5955 5954 4914 4915 6020 6019 
4850 4851 5956 5955 4915 4916 6021 6020 
4851 4852 5957 5956 4916 4917 6022 6021 
4852 4853 5958 5957 4917 4918 6023 6022 
4853 4854 5959 5958 4918 4919 6024 6023 
4854 4855 5960 5959 4919 4920 6025 6024 
4855 4856 5961 5960 4920 4921 6026 6025 
4856 4857 5962 5961 4921 4922 6027 6026 
4857 4858 5963 5962 4922 4923 6028 6027 
4858 4859 5964 5963 4923 4924 6029 6028 
4859 4860 5965 5964 4924 4925 6030 6029 
4860 4861 5966 5965 4925 4926 6031 6030 
4861 4862 5967 5966 4926 4927 6032 6031 
4862 4863 5968 5967 4927 4928 6033 6032 
4863 4864 5969 5968 4928 4929 6034 6033 
4864 4865 5970 5969 4929 4930 6035 6034 
4865 4866 5971 5970 4930 4931 6036 6035 
4866 4867 5972 5971 4931 4932 6037 6036 
4867 4868 5973 5972 4932 4933 6038 6037 
4868 4869 5974 5973 4933 4934 6039 6038 
4869 4870 5975 5974 4934 4935 6040 6039 
4870 4871 5976 5975 4935 4936 6041 6040 
4871 4872 5977 5976 4936 4937 6042 6041 
4872 4873 5978 5977 4937 4938 6043 6042 
4873 4874 5979 5978 4938 4939 6044 6043 
4875 4876 5981 5980 4940 4941 6046 6045 
4876 4877 5982 5981 4941 4942 6047 6046 
4877 4878 5983 5982 4942 4943 6048 6047 
4878 4879 5984 5983 4943 4944 6049 6048 
4879 4880 5985 5984 4944 4945 6050 6049 
4880 4881 5986 5985 4945 4946 6051 6050 
4881 4882 5987 5986 4946 4947 6052 6051 
4882 4883 5988 5987 4947 4948 6053 6052 
4883 4884 5989 5988 4948 4949 6054 6053 
4884 4885 5990 5989 4949 4950 6055 6054 
4885 4886 5991 5990 4950 4951 6056 6055 
4886 4887 5992 5991 4951 4952 6057 6056 
4887 4888 5993 5992 4952 4953 6058 6057 
4888 4889 5994 5993 4953 4954 6059 6058 
4889 4890 5995 5994 4954 4955 6060 6059 
4890 4891 5996 5995 4955 4956 6061 6060 
4891 4892 5997 5996 4956 4957 6062 6061 
4892 4893 5998 5997 4957 4958 6063 6062 
4893 4894 5999 5998 4958 4959 6064 6063 
4894 4895 6000 5999 4959 4960 6065 6064 
4895 4896 6001 6000 4960 4961 6066 6065 
4896 4897 6002 6001 4961 4962 6067 6066 
4897 4898 6003 6002 4962 4963 6068 6067 
4898 4899 6004 6003 4963 4964 6069 6068 
4899 4900 6005 6004 4964 4965 6070 6069 
4900 4901 6006 6005 4965 4966 6071 6070 
4901 4902 6007 6006 4966 4967 6072 6071 
4902 4903 6008 6007 4967 4968 6073 6072 
4903 4904 6009 6008 4968 4969 6074 6073 
4904 4905 6010 6009 4969 4970 6075 6074 
4905 4906 6011 6010 4970 4971 6076 6075 
4906 4907 6012 6011 4971 4972 6077 6076 
4907 4908 6013 6012 4972 4973 6078 6077 
4908 4909 6014 6013 4973 4974 6079 6078 
4909 4910 6015 6014 4974 4975 6080 6079 
4910 4911 6016 6015 4975 4976 6081 6080 
4911 4912 6017 6016 4976 4977 6082 6081 
4912 4913 6018 6017 4977 4978 6083 6082 
4913 4914 6019 6018 4978 4979 6084 6083 
4914 4915 6020 6019 4979 4980 6085 6084 
4915 4916 6021 6020 4980 4981 6086 6085 
4916 4917 6022 6021 4981 4982 6087 6086 
4917 4918 6023 6022 4982 4983 6088 6087 
4918 4919 6024 6023 4983 4984 6089 6088 
4919 4920 6025 6024 4984 4985 6090 6089 
4920 4921 6026 6025 4985 4986 6091 6090 
4921 4922 6027 6026 4986 4987 6092 6091 
4922 4923 6028 6027 4987 4988 6093 6092 
4923 4924 6029 6028 4988 4989 6094 6093 
4924 4925 6030 6029 4989 4990 6095 6094 
4925 4926 6031 6030 4990 4991 6096 6095 
4926 4927 6032 6031 4991 4992 6097 6096 
4927 4928 6033 6032 4992 4993 6098 6097 
4928 4929 6034 6033 4993 4994 6099 6098 
4929 4930 6035 6034 4994 4995 6100 6099 
4930 4931 6036 6035 4995 4996 6101 6100 
4931 4932 6037 6036 4996 4997 6102 6101 
4932 4933 6038 6037 4997 4998 6103 6102 
4933 4934 6039 6038 4998 4999 6104 6103 
4934 4935 6040 6039 4999 5000 6105 6104 
4935 4936 6041 6040 5000 5001 6106 6105 
4936 4937 6042 6041 5001 5002 6107 6106 
4937 4938 6043 6042 5002 5003 6108 6107 
4938 4939 6044 6043 5003 5004 6109 6108 
4940 4941 6046 6045 5005 5006 6111 6110 
4941 4942 6047 6046 5006 5007 6112 6111 
4942 4943 6048 6047 5007 5008 6113 6112 
4943 4944 6049 6048 5008 5009 6114 6113 
4944 4945 6050 6049 5009 5010 6115 6114 
4945 4946 6051 6050 5010 5011 6116 6115 
4946 4947 6052 6051 5011 5012 6117 6116 
4947 4948 6053 6052 5012 5013 6118 6117 
4948 4949 6054 6053 5013 5014 6119 6118 
4949 4950 6055 6054 5014 5015 6120 6119 
4950 4951 6056 6055 5015 5016 6121 6120 
4951 4952 6057 6056 5016 5017 6122 6121 
4952 4953 6058 6057 5017 5018 6123 6122 
4953 4954 6059 6058 5018 5019 6124 6123 
4954 4955 6060 6059 5019 5020 6125 6124 
4955 4956 6061 6060 5020 5021 6126 6125 
4956 4957 6062 6061 5021 5022 6127 6126 
4957 4958 6063 6062 5022 5023 6128 6127 
4958 4959 6064 6063 5023 5024 6129 6128 
4959 4960 6065 6064 5024 5025 6130 6129 
4960 4961 6066 6065 5025 5026 6131 6130 
4961 4962 6067 6066 5026 5027 6132 6131 
4962 4963 6068 6067 5027 5028 6133 6132 
4963 4964 6069 6068 5028 5029 6134 6133 
4964 4965 6070 6069 5029 5030 6135 6134 
4965 4966 6071 6070 5030 5031 6136 6135 
4966 4967 6072 6071 5031 5032 6137 6136 
4967 4968 6073 6072 5032 5033 6138 6137 
4968 4969 6074 6073 5033 5034 6139 6138 
4969 4970 6075 6074 5034 5035 6140 6139 
4970 4971 6076 6075 5035 5036 6141 6140 
4971 4972 6077 6076 5036 5037 6142 6141 
4972 4973 6078 6077 5037 5038 6143 6142 
4973 4974 6079 6078 5038 5039 6144 6143 
4974 4975 6080 6079 5039 5040 6145 6144 
4975 4976 6081 6080 5040 5041 6146 6145 
4976 4977 6082 6081 5041 5042 6147 6146 
4977 4978 6083 6082 5042 5043 6148 6147 
4978 4979 6084 6083 5043 5044 6149 6148 
4979 4980 6085 6084 5044 5045 6150 6149 
4980 4981 6086 6085 5045 5046 6151 6150 
4981 4982 6087 6086 5046 5047 6152 6151 
4982 4983 6088 6087 5047 5048 6153 6152 
4983 4984 6089 6088 5048 5049 6154 6153 
4984 4985 6090 6089 5049 5050 6155 6154 
4985 4986 6091 6090 5050 5051 6156 6155 
4986 4987 6092 6091 5051 5052 6157 6156 
4987 4988 6093 6092 5052 5053 6158 6157 
4988 4989 6094 6093 5053 5054 6159 6158 
4989 4990 6095 6094 5054 5055 6160 6159 
4990 4991 6096 6095 5055 5056 6161 6160 
4991 4992 6097 6096 5056 5057 6162 6161 
4992 4993 6098 6097 5057 5058 6163 6162 
4993 4994 6099 6098 5058 5059 6164 6163 
4994 4995 6100 6099 5059 5060 6165 6164 
4995 4996 6101 6100 5060 5061 6166 6165 
4996 4997 6102 6101 5061 5062 6167 6166 
4997 4998 6103 6102 5062 5063 6168 6167 
4998 4999 6104 6103 5063 5064 6169 6168 
4999 5000 6105 6104 5064 5065 6170 6169 
5000 5001 6106 6105 5065 5066 6171 6170 
5001 5002 6107 6106 5066 5067 6172 6171 
5002 5003 6108 6107 5067 5068 6173 6172 
5003 5004 6109 6108 5068 5069 6174 6173 
5005 5006 6111 6110 5070 5071 6176 6175 
5006 5007 6112 6111 5071 5072 6177 6176 
5007 5008 6113 6112 5072 5073 6178 6177 
5008 5009 6114 6113 5073 5074 6179 6178 
5009 5010 6115 6114 5074 5075 6180 6179 
5010 5011 6116 6115 5075 5076 6181 6180 
5011 5012 6117 6116 5076 5077 6182 6181 
5012 5013 6118 6117 5077 5078 6183 6182 
5013 5014 6119 6118 5078 5079 6184 6183 
5014 5015 6120 6119 5079 5080 6185 6184 
5015 5016 6121 6120 5080 5081 6186 6185 
5016 5017 6122 6121 5081 5082 6187 6186 
5017 5018 6123 6122 5082 5083 6188 6187 
5018 5019 6124 6123 5083 5084 6189 6188 
5019 5020 6125 6124 5084 5085 6190 6189 
5020 5021 6126 6125 5085 5086 6191 6190 
5021 5022 6127 6126 5086 5087 6192 6191 
5022 5023 6128 6127 5087 5088 6193 6192 
5023 5024 6129 6128 5088 5089 6194 6193 
5024 5025 6130 6129 5089 5090 6195 6194 
5025 5026 6131 6130 5090 5091 6196 6195 
5026 5027 6132 6131 5091 5092 6197 6196 
5027 5028 6133 6132 5092 5093 6198 6197 
5028 5029 6134 6133 5093 5094 6199 6198 
5029 5030 6135 6134 5094 5095 6200 6199 
5030 5031 6136 6135 5095 5096 6201 6200 
5031 5032 6137 6136 5096 5097 6202 6201 
5032 5033 6138 6137 5097 5098 6203 6202 
5033 5034 6139 6138 5098 5099 6204 6203 
5034 5035 6140 6139 5099 5100 6205 6204 
5035 5036 6141 6140 5100 5101 6206 6205 
5036 5037 6142 6141 5101 5102 6207 6206 
5037 5038 6143 6142 5102 5103 6208 6207 
5038 5039 6144 6143 5103 5104 6209 6208 
5039 5040 6145 6144 5104 5105 6210 6209 
5040 5041 6146 6145 5105 5106 6211 6210 
5041 5042 6147 6146 5106 5107 6212 6211 
5042 5043 6148 6147 5107 5108 6213 6212 
5043 5044 6149 6148 5108 5109 6214 6213 
5044 5045 6150 6149 5109 5110 6215 6214 
5045 5046 6151 6150 5110 5111 6216 6215 
5046 5047 6152 6151 5111 5112 6217 6216 
5047 5048 6153 6152 5112 5113 6218 6217 
5048 5049 6154 6153 5113 5114 6219 6218 
5049 5050 6155 6154 5114 5115 6220 6219 
5050 5051 6156 6155 5115 5116 6221 6220 
5051 5052 6157 6156 5116 5117 6222 6221 
5052 5053 6158 6157 5117 5118 6223 6222 
5053 5054 6159 6158 5118 5119 6224 6223 
5054 5055 6160 6159 5119 5120 6225 6224 
5055 5056 6161 6160 5120 5121 6226 6225 
5056 5057 6162 6161 5121 5122 6227 6226 
5057 5058 6163 6162 5122 5123 6228 6227 
5058 5059 6164 6163 5123 5124 6229 6228 
5059 5060 6165 6164 5124 5125 6230 6229 
5060 5061 6166 6165 5125 5126 6231 6230 
5061 5062 6167 6166 5126 5127 6232 6231 
5062 5063 6168 6167 5127 5128 6233 6232 
5063 5064 6169 6168 5128 5129 6234 6233 
5064 5065 6170 6169 5129 5130 6235 6234 
5065 5066 6171 6170 5130 5131 6236 6235 
5066 5067 6172 6171 5131 5132 6237 6236 
5067 5068 6173 6172 5132 5133 6238 6237 
5068 5069 6174 6173 5133 5134 6239 6238 
5070 5071 6176 6175 5135 5136 6241 6240 
5071 5072 6177 6176 5136 5137 6242 6241 
5072 5073 6178 6177 5137 5138 6243 6242 
5073 5074 6179 6178 5138 5139 6244 6243 
5074 5075 6180 6179 5139 5140 6245 6244 
5075 5076 6181 6180 5140 5141 6246 6245 
5076 5077 6182 6181 5141 5142 6247 6246 
5077 5078 6183 6182 5142 5143 6248 6247 
5078 5079 6184 6183 5143 5144 6249 6248 
5079 5080 6185 6184 5144 5145 6250 6249 
5080 5081 6186 6185 5145 5146 6251 6250 
5081 5082 6187 6186 5146 5147 6252 6251 
5082 5083 6188 6187 5147 5148 6253 6252 
5083 5084 6189 6188 5148 5149 6254 6253 
5084 5085 6190 6189 5149 5150 6255 6254 
5085 5086 6191 6190 5150 5151 6256 6255 
5086 5087 6192 6191 5151 5152 6257 6256 
5087 5088 6193 6192 5152 5153 6258 6257 
5088 5089 6194 6193 5153 5154 6259 6258 
5089 5090 6195 6194 5154 5155 6260 6259 
5090 5091 6196 6195 5155 5156 6261 6260 
5091 5092 6197 6196 5156 5157 6262 6261 
5092 5093 6198 6197 5157 5158 6263 6262 
5093 5094 6199 6198 5158 5159 6264 6263 
5094 5095 6200 6199 5159 5160 6265 6264 
5095 5096 6201 6200 5160 5161 6266 6265 
5096 5097 6202 6201 5161 5162 6267 6266 
5097 5098 6203 6202 5162 5163 6268 6267 
5098 5099 6204 6203 5163 5164 6269 6268 
5099 5100 6205 6204 5164 5165 6270 6269 
5100 5101 6206 6205 5165 5166 6271 6270 
5101 5102 6207 6206 5166 5167 6272 6271 
5102 5103 6208 6207 5167 5168 6273 6272 
5103 5104 6209 6208 5168 5169 6274 6273 
5104 5105 6210 6209 5169 5170 6275 6274 
5105 5106 6211 6210 5170 5171 6276 6275 
5106 5107 6212 6211 5171 5172 6277 6276 
5107 5108 6213 6212 5172 5173 6278 6277 
5108 5109 6214 6213 5173 5174 6279 6278 
5109 5110 6215 6214 5174 5175 6280 6279 
5110 5111 6216 6215 5175 5176 6281 6280 
5111 5112 6217 6216 5176 5177 6282 6281 
5112 5113 6218 6217 5177 5178 6283 6282 
5113 5114 6219 6218 5178 5179 6284 6283 
5114 5115 6220 6219 5179 5180 6285 6284 
5115 5116 6221 6220 5180 5181 6286 6285 
5116 5117 6222 6221 5181 5182 6287 6286 
5117 5118 6223 6222 5182 5183 6288 6287 
5118 5119 6224 6223 5183 5184 6289 6288 
5119 5120 6225 6224 5184 5185 6290 6289 
5120 5121 6226 6225 5185 5186 6291 6290 
5121 5122 6227 6226 5186 5187 6292 6291 
5122 5123 6228 6227 5187 5188 6293 6292 
5123 5124 6229 6228 5188 5189 6294 6293 
5124 5125 6230 6229 5189 5190 6295 6294 
5125 5126 6231 6230 5190 5191 6296 6295 
5126 5127 6232 6231 5191 5192 6297 6296 
5127 5128 6233 6232 5192 5193 6298 6297 
5128 5129 6234 6233 5193 5194 6299 6298 
5129 5130 6235 6234 5194 5195 6300 6299 
5130 5131 6236 6235 5195 5196 6301 6300 
5131 5132 6237 6236 5196 5197 6302 6301 
5132 5133 6238 6237 5197 5198 6303 6302 
5133 5134 6239 6238 5198 5199 6304 6303 
5135 5136 6241 6240 5200 5201 6306 6305 
5136 5137 6242 6241 5201 5202 6307 6306 
5137 5138 6243 6242 5202 5203 6308 6307 
5138 5139 6244 6243 5203 5204 6309 6308 
5139 5140 6245 6244 5204 5205 6310 6309 
5140 5141 6246 6245 5205 5206 6311 6310 
5141 5142 6247 6246 5206 5207 6312 6311 
5142 5143 6248 6247 5207 5208 6313 6312 
5143 5144 6249 6248 5208 5209 6314 6313 
5144 5145 6250 6249 5209 5210 6315 6314 
5145 5146 6251 6250 5210 5211 6316 6315 
5146 5147 6252 6251 5211 5212 6317 6316 
5147 5148 6253 6252 5212 5213 6318 6317 
5148 5149 6254 6253 5213 5214 6319 6318 
5149 5150 6255 6254 5214 5215 6320 6319 
5150 5151 6256 6255 5215 5216 6321 6320 
5151 5152 6257 6256 5216 5217 6322 6321 
5152 5153 6258 6257 5217 5218 6323 6322 
5153 5154 6259 6258 5218 5219 6324 6323 
5154 5155 6260 6259 5219 5220 6325 6324 
5155 5156 6261 6260 5220 5221 6326 6325 
5156 5157 6262 6261 5221 5222 6327 6326 
5157 5158 6263 6262 5222 5223 6328 6327 
5158 5159 6264 6263 5223 5224 6329 6328 
5159 5160 6265 6264 5224 5225 6330 6329 
5160 5161 6266 6265 5225 5226 6331 6330 
5161 5162 6267 6266 5226 5227 6332 6331 
5162 5163 6268 6267 5227 5228 6333 6332 
5163 5164 6269 6268 5228 5229 6334 6333 
5164 5165 6270 6269 5229 5230 6335 6334 
5165 5166 6271 6270 5230 5231 6336 6335 
5166 5167 6272 6271 5231 5232 6337 6336 
5167 5168 6273 6272 5232 5233 6338 6337 
5168 5169 6274 6273 5233 5234 6339 6338 
5169 5170 6275 6274 5234 5235 6340 6339 
5170 5171 6276 6275 5235 5236 6341 6340 
5171 5172 6277 6276 5236 5237 6342 6341 
5172 5173 6278 6277 5237 5238 6343 6342 
5173 5174 6279 6278 5238 5239 6344 6343 
5174 5175 6280 6279 5239 5240 6345 6344 
5175 5176 6281 6280 5240 5241 6346 6345 
5176 5177 6282 6281 5241 5242 6347 6346 
5177 5178 6283 6282 5242 5243 6348 6347 
5178 5179 6284 6283 5243 5244 6349 6348 
5179 5180 6285 6284 5244 5245 6350 6349 
5180 5181 6286 6285 5245 5246 6351 6350 
5181 5182 6287 6286 5246 5247 6352 6351 
5182 5183 6288 6287 5247 5248 6353 6352 
5183 5184 6289 6288 5248 5249 6354 6353 
5184 5185 6290 6289 5249 5250 6355 6354 
5185 5186 6291 6290 5250 5251 6356 6355 
5186 5187 6292 6291 5251 5252 6357 6356 
5187 5188 6293 6292 5252 5253 6358 6357 
5188 5189 6294 6293 5253 5254 6359 6358 
5189 5190 6295 6294 5254 5255 6360 6359 
5190 5191 6296 6295 5255 5256 6361 6360 
5191 5192 6297 6296 5256 5257 6362 6361 
5192 5193 6298 6297 5257 5258 6363 6362 
5193 5194 6299 6298 5258 5259 6364 6363 
5194 5195 6300 6299 5259 5260 6365 6364 
5195 5196 6301 6300 5260 5261 6366 6365 
5196 5197 6302 6301 5261 5262 6367 6366 
5197 5198 6303 6302 5262 5263 6368 6367 
5198 5199 6304 6303 5263 5264 6369 6368 
5200 5201 6306 6305 5265 5266 6371 6370 
5201 5202 6307 6306 5266 5267 6372 6371 
5202 5203 6308 6307 5267 5268 6373 6372 
5203 5204 6309 6308 5268 5269 6374 6373 
5204 5205 6310 6309 5269 5270 6375 6374 
5205 5206 6311 6310 5270 5271 6376 6375 
5206 5207 6312 6311 5271 5272 6377 6376 
5207 5208 6313 6312 5272 5273 6378 6377 
5208 5209 6314 6313 5273 5274 6379 6378 
5209 5210 6315 6314 5274 5275 6380 6379 
5210 5211 6316 6315 5275 5276 6381 6380 
5211 5212 6317 6316 5276 5277 6382 6381 
5212 5213 6318 6317 5277 5278 6383 6382 
5213 5214 6319 6318 5278 5279 6384 6383 
5214 5215 6320 6319 5279 5280 6385 6384 
5215 5216 6321 6320 5280 5281 6386 6385 
5216 5217 6322 6321 5281 5282 6387 6386 
5217 5218 6323 6322 5282 5283 6388 6387 
5218 5219 6324 6323 5283 5284 6389 6388 
5219 5220 6325 6324 5284 5285 6390 6389 
5220 5221 6326 6325 5285 5286 6391 6390 
5221 5222 6327 6326 5286 5287 6392 6391 
5222 5223 6328 6327 5287 5288 6393 6392 
5223 5224 6329 6328 5288 5289 6394 6393 
5224 5225 6330 6329 5289 5290 6395 6394 
5225 5226 6331 6330 5290 5291 6396 6395 
5226 5227 6332 6331 5291 5292 6397 6396 
5227 5228 6333 6332 5292 5293 6398 6397 
5228 5229 6334 6333 5293 5294 6399 6398 
5229 5230 6335 6334 5294 5295 6400 6399 
5230 5231 6336 6335 5295 5296 6401 6400 
5231 5232 6337 6336 5296 5297 6402 6401 
5232 5233 6338 6337 5297 5298 6403 6402 
5233 5234 6339 6338 5298 5299 6404 6403 
5234 5235 6340 6339 5299 5300 6405 6404 
5235 5236 6341 6340 5300 5301 6406 6405 
5236 5237 6342 6341 5301 5302 6407 6406 
5237 5238 6343 6342 5302 5303 6408 6407 
5238 5239 6344 6343 5303 5304 6409 6408 
5239 5240 6345 6344 5304 5305 6410 6409 
5240 5241 6346 6345 5305 5306 6411 6410 
5241 5242 6347 6346 5306 5307 6412 6411 
5242 5243 6348 6347 5307 5308 6413 6412 
5243 5244 6349 6348 5308 5309 6414 6413 
5244 5245 6350 6349 5309 5310 6415 6414 
5245 5246 6351 6350 5310 5311 6416 6415 
5246 5247 6352 6351 5311 5312 6417 6416 
5247 5248 6353 6352 5312 5313 6418 6417 
5248 5249 6354 6353 5313 5314 6419 6418 
5249 5250 6355 6354 5314 5315 6420 6419 
5250 5251 6356 6355 5315 5316 6421 6420 
5251 5252 6357 6356 5316 5317 6422 6421 
5252 5253 6358 6357 5317 5318 6423 6422 
5253 5254 6359 6358 5318 5319 6424 6423 
5254 5255 6360 6359 5319 5320 6425 6424 
5255 5256 6361 6360 5320 5321 6426 6425 
5256 5257 6362 6361 5321 5322 6427 6426 
5257 5258 6363 6362 5322 5323 6428 6427 
5258 5259 6364 6363 5323 5324 6429 6428 
5259 5260 6365 6364 5324 5325 6430 6429 
5260 5261 6366 6365 5325 5326 6431 6430 
5261 5262 6367 6366 5326 5327 6432 6431 
5262 5263 6368 6367 5327 5328 6433 6432 
5263 5264 6369 6368 5328 5329 6434 6433 
5265 5266 6371 6370 5330 5331 6436 6435 
5266 5267 6372 6371 5331 5332 6437 6436 
5267 5268 6373 6372 5332 5333 6438 6437 
5268 5269 6374 6373 5333 5334 6439 6438 
5269 5270 6375 6374 5334 5335 6440 6439 
5270 5271 6376 6375 5335 5336 6441 6440 
5271 5272 6377 6376 5336 5337 6442 6441 
5272 5273 6378 6377 5337 5338 6443 6442 
5273 5274 6379 6378 5338 5339 6444 6443 
5274 5275 6380 6379 5339 5340 6445 6444 
5275 5276 6381 6380 5340 5341 6446 6445 
5276 5277 6382 6381 5341 5342 6447 6446 
5277 5278 6383 6382 5342 5343 6448 6447 
5278 5279 6384 6383 5343 5344 6449 6448 
5279 5280 6385 6384 5344 5345 6450 6449 
5280 5281 6386 6385 5345 5346 6451 6450 
5281 5282 6387 6386 5346 5347 6452 6451 
5282 5283 6388 6387 5347 5348 6453 6452 
5283 5284 6389 6388 5348 5349 6454 6453 
5284 5285 6390 6389 5349 5350 6455 6454 
5285 5286 6391 6390 5350 5351 6456 6455 
5286 5287 6392 6391 5351 5352 6457 6456 
5287 5288 6393 6392 5352 5353 6458 6457 
5288 5289 6394 6393 5353 5354 6459 6458 
5289 5290 6395 6394 5354 5355 6460 6459 
5290 5291 6396 6395 5355 5356 6461 6460 
5291 5292 6397 6396 5356 5357 6462 6461 
5292 5293 6398 6397 5357 5358 6463 6462 
5293 5294 6399 6398 5358 5359 6464 6463 
5294 5295 6400 6399 5359 5360 6465 6464 
5295 5296 6401 6400 5360 5361 6466 6465 
5296 5297 6402 6401 5361 5362 6467 6466 
5297 5298 6403 6402 5362 5363 6468 6467 
5298 5299 6404 6403 5363 5364 6469 6468 
5299 5300 6405 6404 5364 5365 6470 6469 
5300 5301 6406 6405 5365 5366 6471 6470 
5301 5302 6407 6406 5366 5367 6472 6471 
5302 5303 6408 6407 5367 5368 6473 6472 
5303 5304 6409 6408 5368 5369 6474 6473 
5304 5305 6410 6409 5369 5370 6475 6474 
5305 5306 6411 6410 5370 5371 6476 6475 
5306 5307 6412 6411 5371 5372 6477 6476 
5307 5308 6413 6412 5372 5373 6478 6477 
5308 5309 6414 6413 5373 5374 6479 6478 
5309 5310 6415 6414 5374 5375 6480 6479 
5310 5311 6416 6415 5375 5376 6481 6480 
5311 5312 6417 6416 5376 5377 6482 6481 
5312 5313 6418 6417 5377 5378 6483 6482 
5313 5314 6419 6418 5378 5379 6484 6483 
5314 5315 6420 6419 5379 5380 6485 6484 
5315 5316 6421 6420 5380 5381 6486 6485 
5316 5317 6422 6421 5381 5382 6487 6486 
5317 5318 6423 6422 5382 5383 6488 6487 
5318 5319 6424 6423 5383 5384 6489 6488 
5319 5320 6425 6424 5384 5385 6490 6489 
5320 5321 6426 6425 5385 5386 6491 6490 
5321 5322 6427 6426 5386 5387 6492 6491 
5322 5323 6428 6427 5387 5388 6493 6492 
5323 5324 6429 6428 5388 5389 6494 6493 
5324 5325 6430 6429 5389 5390 6495 6494 
5325 5326 6431 6430 5390 5391 6496 6495 
5326 5327 6432 6431 5391 5392 6497 6496 
5327 5328 6433 6432 5392 5393 6498 6497 
5328 5329 6434 6433 5393 5394 6499 6498 
5330 5331 6436 6435 5395 5396 6501 6500 
5331 5332 6437 6436 5396 5397 6502 6501 
5332 5333 6438 6437 5397 5398 6503 6502 
5333 5334 6439 6438 5398 5399 6504 6503 
5334 5335 6440 6439 5399 5400 6505 6504 
5335 5336 6441 6440 5400 5401 6506 6505 
5336 5337 6442 6441 5401 5402 6507 6506 
5337 5338 6443 6442 5402 5403 6508 6507 
5338 5339 6444 6443 5403 5404 6509 6508 
5339 5340 6445 6444 5404 5405 6510 6509 
5340 5341 6446 6445 5405 5406 6511 6510 
5341 5342 6447 6446 5406 5407 6512 6511 
5342 5343 6448 6447 5407 5408 6513 6512 
5343 5344 6449 6448 5408 5409 6514 6513 
5344 5345 6450 6449 5409 5410 6515 6514 
5345 5346 6451 6450 5410 5411 6516 6515 
5346 5347 6452 6451 5411 5412 6517 6516 
5347 5348 6453 6452 5412 5413 6518 6517 
5348 5349 6454 6453 5413 5414 6519 6518 
5349 5350 6455 6454 5414 5415 6520 6519 
5350 5351 6456 6455 5415 5416 6521 6520 
5351 5352 6457 6456 5416 5417 6522 6521 
5352 5353 6458 6457 5417 5418 6523 6522 
5353 5354 6459 6458 5418 5419 6524 6523 
5354 5355 6460 6459 5419 5420 6525 6524 
5355 5356 6461 6460 5420 5421 6526 6525 
5356 5357 6462 6461 5421 5422 6527 6526 
5357 5358 6463 6462 5422 5423 6528 6527 
5358 5359 6464 6463 5423 5424 6529 6528 
5359 5360 6465 6464 5424 5425 6530 6529 
5360 5361 6466 6465 5425 5426 6531 6530 
5361 5362 6467 6466 5426 5427 6532 6531 
5362 5363 6468 6467 5427 5428 6533 6532 
5363 5364 6469 6468 5428 5429 6534 6533 
5364 5365 6470 6469 5429 5430 6535 6534 
5365 5366 6471 6470 5430 5431 6536 6535 
5366 5367 6472 6471 5431 5432 6537 6536 
5367 5368 6473 6472 5432 5433 6538 6537 
5368 5369 6474 6473 5433 5434 6539 6538 
5369 5370 6475 6474 5434 5435 6540 6539 
5370 5371 6476 6475 5435 5436 6541 6540 
5371 5372 6477 6476 5436 5437 6542 6541 
5372 5373 6478 6477 5437 5438 6543 6542 
5373 5374 6479 6478 5438 5439 6544 6543 
5374 5375 6480 6479 5439 5440 6545 6544 
5375 5376 6481 6480 5440 5441 6546 6545 
5376 5377 6482 6481 5441 5442 6547 6546 
5377 5378 6483 6482 5442 5443 6548 6547 
5378 5379 6484 6483 5443 5444 6549 6548 
5379 5380 6485 6484 5444 5445 6550 6549 
5380 5381 6486 6485 5445 5446 6551 6550 
5381 5382 6487 6486 5446 5447 6552 6551 
5382 5383 6488 6487 5447 5448 6553 6552 
5383 5384 6489 6488 5448 5449 6554 6553 
5384 5385 6490 6489 5449 5450 6555 6554 
5385 5386 6491 6490 5450 5451 6556 6555 
5386 5387 6492 6491 5451 5452 6557 6556 
5387 5388 6493 6492 5452 5453 6558 6557 
5388 5389 6494 6493 5453 5454 6559 6558 
5389 5390 6495 6494 5454 5455 6560 6559 
5390 5391 6496 6495 5455 5456 6561 6560 
5391 5392 6497 6496 5456 5457 6562 6561 
5392 5393 6498 6497 5457 5458 6563 6562 
5393 5394 6499 6498 5458 5459 6564 6563 
5395 5396 6501 6500 5460 5461 6566 6565 
5396 5397 6502 6501 5461 5462 6567 6566 
5397 5398 6503 6502 5462 5463 6568 6567 
5398 5399 6504 6503 5463 5464 6569 6568 
5399 5400 6505 6504 5464 5465 6570 6569 
5400 5401 6506 6505 5465 5466 6571 6570 
5401 5402 6507 6506 5466 5467 6572 6571 
5402 5403 6508 6507 5467 5468 6573 6572 
5403 5404 6509 6508 5468 5469 6574 6573 
5404 5405 6510 6509 5469 5470 6575 6574 
5405 5406 6511 6510 5470 5471 6576 6575 
5406 5407 6512 6511 5471 5472 6577 6576 
5407 5408 6513 6512 5472 5473 6578 6577 
5408 5409 6514 6513 5473 5474 6579 6578 
5409 5410 6515 6514 5474 5475 6580 6579 
5410 5411 6516 6515 5475 5476 6581 6580 
5411 5412 6517 6516 5476 5477 6582 6581 
5412 5413 6518 6517 5477 5478 6583 6582 
5413 5414 6519 6518 5478 5479 6584 6583 
5414 5415 6520 6519 5479 5480 6585 6584 
5415 5416 6521 6520 5480 5481 6586 6585 
5416 5417 6522 6521 5481 5482 6587 6586 
5417 5418 6523 6522 5482 5483 6588 6587 
5418 5419 6524 6523 5483 5484 6589 6588 
5419 5420 6525 6524 5484 5485 6590 6589 
5420 5421 6526 6525 5485 5486 6591 6590 
5421 5422 6527 6526 5486 5487 6592 6591 
5422 5423 6528 6527 5487 5488 6593 6592 
5423 5424 6529 6528 5488 5489 6594 6593 
5424 5425 6530 6529 5489 5490 6595 6594 
5425 5426 6531 6530 5490 5491 6596 6595 
5426 5427 6532 6531 5491 5492 6597 6596 
5427 5428 6533 6532 5492 5493 6598 6597 
5428 5429 6534 6533 5493 5494 6599 6598 
5429 5430 6535 6534 5494 5495 6600 6599 
5430 5431 6536 6535 5495 5496 6601 6600 
5431 5432 6537 6536 5496 5497 6602 6601 
5432 5433 6538 6537 5497 5498 6603 6602 
5433 5434 6539 6538 5498 5499 6604 6603 
5434 5435 6540 6539 5499 5500 6605 6604 
5435 5436 6541 6540 5500 5501 6606 6605 
5436 5437 6542 6541 5501 5502 6607 6606 
5437 5438 6543 6542 5502 5503 6608 6607 
5438 5439 6544 6543 5503 5504 6609 6608 
5439 5440 6545 6544 5504 5505 6610 6609 
5440 5441 6546 6545 5505 5506 6611 6610 
5441 5442 6547 6546 5506 5507 6612 6611 
5442 5443 6548 6547 5507 5508 6613 6612 
5443 5444 6549 6548 5508 5509 6614 6613 
5444 5445 6550 6549 5509 5510 6615 6614 
5445 5446 6551 6550 5510 5511 6616 6615 
5446 5447 6552 6551 5511 5512 6617 6616 
5447 5448 6553 6552 5512 5513 6618 6617 
5448 5449 6554 6553 5513 5514 6619 6618 
5449 5450 6555 6554 5514 5515 6620 6619 
5450 5451 6556 6555 5515 5516 6621 6620 
5451 5452 6557 6556 5516 5517 6622 6621 
5452 5453 6558 6557 5517 5518 6623 6622 
5453 5454 6559 6558 5518 5519 6624 6623 
5454 5455 6560 6559 5519 5520 6625 6624 
5455 5456 6561 6560 5520 5521 6626 6625 
5456 5457 6562 6561 5521 5522 6627 6626 
5457 5458 6563 6562 5522 5523 6628 6627 
5458 5459 6564 6563 5523 5524 6629 6628 
5525 5526 6631 6630 5590 5591 6696 6695 
5526 5527 6632 6631 5591 5592 6697 6696 
5527 5528 6633 6632 5592 5593 6698 6697 
5528 5529 6634 6633 5593 5594 6699 6698 
5529 5530 6635 6634 5594 5595 6700 6699 
5530 5531 6636 6635 5595 5596 6701 6700 
5531 5532 6637 6636 5596 5597 6702 6701 
5532 5533 6638 6637 5597 5598 6703 6702 
5533 5534 6639 6638 5598 5599 6704 6703 
5534 5535 6640 6639 5599 5600 6705 6704 
5535 5536 6641 6640 5600 5601 6706 6705 
5536 5537 6642 6641 5601 5602 6707 6706 
5537 5538 6643 6642 5602 5603 6708 6707 
5538 5539 6644 6643 5603 5604 6709 6708 
5539 5540 6645 6644 5604 5605 6710 6709 
5540 5541 6646 6645 5605 5606 6711 6710 
5541 5542 6647 6646 5606 5607 6712 6711 
5542 5543 6648 6647 5607 5608 6713 6712 
5543 5544 6649 6648 5608 5609 6714 6713 
5544 5545 6650 6649 5609 5610 6715 6714 
5545 5546 6651 6650 5610 5611 6716 6715 
5546 5547 6652 6651 5611 5612 6717 6716 
5547 5548 6653 6652 5612 5613 6718 6717 
5548 5549 6654 6653 5613 5614 6719 6718 
5549 5550 6655 6654 5614 5615 6720 6719 
5550 5551 6656 6655 5615 5616 6721 6720 
5551 5552 6657 6656 5616 5617 6722 6721 
5552 5553 6658 6657 5617 5618 6723 6722 
5553 5554 6659 6658 5618 5619 6724 6723 
5554 5555 6660 6659 5619 5620 6725 6724 
5555 5556 6661 6660 5620 5621 6726 6725 
5556 5557 6662 6661 5621 5622 6727 6726 
5557 5558 6663 6662 5622 5623 6728 6727 
5558 5559 6664 6663 5623 5624 6729 6728 
5559 5560 6665 6664 5624 5625 6730 6729 
5560 5561 6666 6665 5625 5626 6731 6730 
5561 5562 6667 6666 5626 5627 6732 6731 
5562 5563 6668 6667 5627 5628 6733 6732 
5563 5564 6669 6668 5628 5629 6734 6733 
5564 5565 6670 6669 5629 5630 6735 6734 
5565 5566 6671 6670 5630 5631 6736 6735 
5566 5567 6672 6671 5631 5632 6737 6736 
5567 5568 6673 6672 5632 5633 6738 6737 
5568 5569 6674 6673 5633 5634 6739 6738 
5569 5570 6675 6674 5634 5635 6740 6739 
5570 5571 6676 6675 5635 5636 6741 6740 
5571 5572 6677 6676 5636 5637 6742 6741 
5572 5573 6678 6677 5637 5638 6743 6742 
5573 5574 6679 6678 5638 5639 6744 6743 
5574 5575 6680 6679 5639 5640 6745 6744 
5575 5576 6681 6680 5640 5641 6746 6745 
5576 5577 6682 6681 5641 5642 6747 6746 
5577 5578 6683 6682 5642 5643 6748 6747 
5578 5579 6684 6683 5643 5644 6749 6748 
5579 5580 6685 6684 5644 5645 6750 6749 
5580 5581 6686 6685 5645 5646 6751 6750 
5581 5582 6687 6686 5646 5647 6752 6751 
5582 5583 6688 6687 5647 5648 6753 6752 
5583 5584 6689 6688 5648 5649 6754 6753 
5584 5585 6690 6689 5649 5650 6755 6754 
5585 5586 6691 6690 5650 5651 6756 6755 
5586 5587 6692 6691 5651 5652 6757 6756 
5587 5588 6693 6692 5652 5653 6758 6757 
5588 5589 6694 6693 5653 5654 6759 6758 
5590 5591 6696 6695 5655 5656 6761 6760 
5591 5592 6697 6696 5656 5657 6762 6761 
5592 5593 6698 6697 5657 5658 6763 6762 
5593 5594 6699 6698 5658 5659 6764 6763 
5594 5595 6700 6699 5659 5660 6765 6764 
5595 5596 6701 6700 5660 5661 6766 6765 
5596 5597 6702 6701 5661 5662 6767 6766 
5597 5598 6703 6702 5662 5663 6768 6767 
5598 5599 6704 6703 5663 5664 6769 6768 
5599 5600 6705 6704 5664 5665 6770 6769 
5600 5601 6706 6705 5665 5666 6771 6770 
5601 5602 6707 6706 5666 5667 6772 6771 
5602 5603 6708 6707 5667 5668 6773 6772 
5603 5604 6709 6708 5668 5669 6774 6773 
5604 5605 6710 6709 5669 5670 6775 6774 
5605 5606 6711 6710 5670 5671 6776 6775 
5606 5607 6712 6711 5671 5672 6777 6776 
5607 5608 6713 6712 5672 5673 6778 6777 
5608 5609 6714 6713 5673 5674 6779 6778 
5609 5610 6715 6714 5674 5675 6780 6779 
5610 5611 6716 6715 5675 5676 6781 6780 
5611 5612 6717 6716 5676 5677 6782 6781 
5612 5613 6718 6717 5677 5678 6783 6782 
5613 5614 6719 6718 5678 5679 6784 6783 
5614 5615 6720 6719 5679 5680 6785 6784 
5615 5616 6721 6720 5680 5681 6786 6785 
5616 5617 6722 6721 5681 5682 6787 6786 
5617 5618 6723 6722 5682 5683 6788 6787 
5618 5619 6724 6723 5683 5684 6789 6788 
5619 5620 6725 6724 5684 5685 6790 6789 
5620 5621 6726 6725 5685 5686 6791 6790 
5621 5622 6727 6726 5686 5687 6792 6791 
5622 5623 6728 6727 5687 5688 6793 6792 
5623 5624 6729 6728 5688 5689 6794 6793 
5624 5625 6730 6729 5689 5690 6795 6794 
5625 5626 6731 6730 5690 5691 6796 6795 
5626 5627 6732 6731 5691 5692 6797 6796 
5627 5628 6733 6732 5692 5693 6798 6797 
5628 5629 6734 6733 5693 5694 6799 6798 
5629 5630 6735 6734 5694 5695 6800 6799 
5630 5631 6736 6735 5695 5696 6801 6800 
5631 5632 6737 6736 5696 5697 6802 6801 
5632 5633 6738 6737 5697 5698 6803 6802 
5633 5634 6739 6738 5698 5699 6804 6803 
5634 5635 6740 6739 5699 5700 6805 6804 
5635 5636 6741 6740 5700 5701 6806 6805 
5636 5637 6742 6741 5701 5702 6807 6806 
5637 5638 6743 6742 5702 5703 6808 6807 
5638 5639 6744 6743 5703 5704 6809 6808 
5639 5640 6745 6744 5704 5705 6810 6809 
5640 5641 6746 6745 5705 5706 6811 6810 
5641 5642 6747 6746 5706 5707 6812 6811 
5642 5643 6748 6747 5707 5708 6813 6812 
5643 5644 6749 6748 5708 5709 6814 6813 
5644 5645 6750 6749 5709 5710 6815 6814 
5645 5646 6751 6750 5710 5711 6816 6815 
5646 5647 6752 6751 5711 5712 6817 6816 
5647 5648 6753 6752 5712 5713 6818 6817 
5648 5649 6754 6753 5713 5714 6819 6818 
5649 5650 6755 6754 5714 5715 6820 6819 
5650 5651 6756 6755 5715 5716 6821 6820 
5651 5652 6757 6756 5716 5717 6822 6821 
5652 5653 6758 6757 5717 5718 6823 6822 
5653 5654 6759 6758 5718 5719 6824 6823 
5655 5656 6761 6760 5720 5721 6826 6825 
5656 5657 6762 6761 5721 5722 6827 6826 
5657 5658 6763 6762 5722 5723 6828 6827 
5658 5659 6764 6763 5723 5724 6829 6828 
5659 5660 6765 6764 5724 5725 6830 6829 
5660 5661 6766 6765 5725 5726 6831 6830 
5661 5662 6767 6766 5726 5727 6832 6831 
5662 5663 6768 6767 5727 5728 6833 6832 
5663 5664 6769 6768 5728 5729 6834 6833 
5664 5665 6770 6769 5729 5730 6835 6834 
5665 5666 6771 6770 5730 5731 6836 6835 
5666 5667 6772 6771 5731 5732 6837 6836 
5667 5668 6773 6772 5732 5733 6838 6837 
5668 5669 6774 6773 5733 5734 6839 6838 
5669 5670 6775 6774 5734 5735 6840 6839 
5670 5671 6776 6775 5735 5736 6841 6840 
5671 5672 6777 6776 5736 5737 6842 6841 
5672 5673 6778 6777 5737 5738 6843 6842 
5673 5674 6779 6778 5738 5739 6844 6843 
5674 5675 6780 6779 5739 5740 6845 6844 
5675 5676 6781 6780 5740 5741 6846 6845 
5676 5677 6782 6781 5741 5742 6847 6846 
5677 5678 6783 6782 5742 5743 6848 6847 
5678 5679 6784 6783 5743 5744 6849 6848 
5679 5680 6785 6784 5744 5745 6850 6849 
5680 5681 6786 6785 5745 5746 6851 6850 
5681 5682 6787 6786 5746 5747 6852 6851 
5682 5683 6788 6787 5747 5748 6853 6852 
5683 5684 6789 6788 5748 5749 6854 6853 
5684 5685 6790 6789 5749 5750 6855 6854 
5685 5686 6791 6790 5750 5751 6856 6855 
5686 5687 6792 6791 5751 5752 6857 6856 
5687 5688 6793 6792 5752 5753 6858 6857 
5688 5689 6794 6793 5753 5754 6859 6858 
5689 5690 6795 6794 5754 5755 6860 6859 
5690 5691 6796 6795 5755 5756 6861 6860 
5691 5692 6797 6796 5756 5757 6862 6861 
5692 5693 6798 6797 5757 5758 6863 6862 
5693 5694 6799 6798 5758 5759 6864 6863 
5694 5695 6800 6799 5759 5760 6865 6864 
5695 5696 6801 6800 5760 5761 6866 6865 
5696 5697 6802 6801 5761 5762 6867 6866 
5697 5698 6803 6802 5762 5763 6868 6867 
5698 5699 6804 6803 5763 5764 6869 6868 
5699 5700 6805 6804 5764 5765 6870 6869 
5700 5701 6806 6805 5765 5766 6871 6870 
5701 5702 6807 6806 5766 5767 6872 6871 
5702 5703 6808 6807 5767 5768 6873 6872 
5703 5704 6809 6808 5768 5769 6874 6873 
5704 5705 6810 6809 5769 5770 6875 6874 
5705 5706 6811 6810 5770 5771 6876 6875 
5706 5707 6812 6811 5771 5772 6877 6876 
5707 5708 6813 6812 5772 5773 6878 6877 
5708 5709 6814 6813 5773 5774 6879 6878 
5709 5710 6815 6814 5774 5775 6880 6879 
5710 5711 6816 6815 5775 5776 6881 6880 
5711 5712 6817 6816 5776 5777 6882 6881 
5712 5713 6818 6817 5777 5778 6883 6882 
5713 5714 6819 6818 5778 5779 6884 6883 
5714 5715 6820 6819 5779 5780 6885 6884 
5715 5716 6821 6820 5780 5781 6886 6885 
5716 5717 6822 6821 5781 5782 6887 6886 
5717 5718 6823 6822 5782 5783 6888 6887 
5718 5719 6824 6823 5783 5784 6889 6888 
5720 5721 6826 6825 5785 5786 6891 6890 
5721 5722 6827 6826 5786 5787 6892 6891 
5722 5723 6828 6827 5787 5788 6893 6892 
5723 5724 6829 6828 5788 5789 6894 6893 
5724 5725 6830 6829 5789 5790 6895 6894 
5725 5726 6831 6830 5790 5791 6896 6895 
5726 5727 6832 6831 5791 5792 6897 6896 
5727 5728 6833 6832 5792 5793 6898 6897 
5728 5729 6834 6833 5793 5794 6899 6898 
5729 5730 6835 6834 5794 5795 6900 6899 
5730 5731 6836 6835 5795 5796 6901 6900 
5731 5732 6837 6836 5796 5797 6902 6901 
5732 5733 6838 6837 5797 5798 6903 6902 
5733 5734 6839 6838 5798 5799 6904 6903 
5734 5735 6840 6839 5799 5800 6905 6904 
5735 5736 6841 6840 5800 5801 6906 6905 
5736 5737 6842 6841 5801 5802 6907 6906 
5737 5738 6843 6842 5802 5803 6908 6907 
5738 5739 6844 6843 5803 5804 6909 6908 
5739 5740 6845 6844 5804 5805 6910 6909 
5740 5741 6846 6845 5805 5806 6911 6910 
5741 5742 6847 6846 5806 5807 6912 6911 
5742 5743 6848 6847 5807 5808 6913 6912 
5743 5744 6849 6848 5808 5809 6914 6913 
5744 5745 6850 6849 5809 5810 6915 6914 
5745 5746 6851 6850 5810 5811 6916 6915 
5746 5747 6852 6851 5811 5812 6917 6916 
5747 5748 6853 6852 5812 5813 6918 6917 
5748 5749 6854 6853 5813 5814 6919 6918 
5749 5750 6855 6854 5814 5815 6920 6919 
5750 5751 6856 6855 5815 5816 6921 6920 
5751 5752 6857 6856 5816 5817 6922 6921 
5752 5753 6858 6857 5817 5818 6923 6922 
5753 5754 6859 6858 5818 5819 6924 6923 
5754 5755 6860 6859 5819 5820 6925 6924 
5755 5756 6861 6860 5820 5821 6926 6925 
5756 5757 6862 6861 5821 5822 6927 6926 
5757 5758 6863 6862 5822 5823 6928 6927 
5758 5759 6864 6863 5823 5824 6929 6928 
5759 5760 6865 6864 5824 5825 6930 6929 
5760 5761 6866 6865 5825 5826 6931 6930 
5761 5762 6867 6866 5826 5827 6932 6931 
5762 5763 6868 6867 5827 5828 6933 6932 
5763 5764 6869 6868 5828 5829 6934 6933 
5764 5765 6870 6869 5829 5830 6935 6934 
5765 5766 6871 6870 5830 5831 6936 6935 
5766 5767 6872 6871 5831 5832 6937 6936 
5767 5768 6873 6872 5832 5833 6938 6937 
5768 5769 6874 6873 5833 5834 6939 6938 
5769 5770 6875 6874 5834 5835 6940 6939 
5770 5771 6876 6875 5835 5836 6941 6940 
5771 5772 6877 6876 5836 5837 6942 6941 
5772 5773 6878 6877 5837 5838 6943 6942 
5773 5774 6879 6878 5838 5839 6944 6943 
5774 5775 6880 6879 5839 5840 6945 6944 
5775 5776 6881 6880 5840 5841 6946 6945 
5776 5777 6882 6881 5841 5842 6947 6946 
5777 5778 6883 6882 5842 5843 6948 6947 
5778 5779 6884 6883 5843 5844 6949 6948 
5779 5780 6885 6884 5844 5845 6950 6949 
5780 5781 6886 6885 5845 5846 6951 6950 
5781 5782 6887 6886 5846 5847 6952 6951 
5782 5783 6888 6887 5847 5848 6953 6952 
5783 5784 6889 6888 5848 5849 6954 6953 
5785 5786 6891 6890 5850 5851 6956 6955 
5786 5787 6892 6891 5851 5852 6957 6956 
5787 5788 6893 6892 5852 5853 6958 6957 
5788 5789 6894 6893 5853 5854 6959 6958 
5789 5790 6895 6894 5854 5855 6960 6959 
5790 5791 6896 6895 5855 5856 6961 6960 
5791 5792 6897 6896 5856 5857 6962 6961 
5792 5793 6898 6897 5857 5858 6963 6962 
5793 5794 6899 6898 5858 5859 6964 6963 
5794 5795 6900 6899 5859 5860 6965 6964 
5795 5796 6901 6900 5860 5861 6966 6965 
5796 5797 6902 6901 5861 5862 6967 6966 
5797 5798 6903 6902 5862 5863 6968 6967 
5798 5799 6904 6903 5863 5864 6969 6968 
5799 5800 6905 6904 5864 5865 6970 6969 
5800 5801 6906 6905 5865 5866 6971 6970 
5801 5802 6907 6906 5866 5867 6972 6971 
5802 5803 6908 6907 5867 5868 6973 6972 
5803 5804 6909 6908 5868 5869 6974 6973 
5804 5805 6910 6909 5869 5870 6975 6974 
5805 5806 6911 6910 5870 5871 6976 6975 
5806 5807 6912 6911 5871 5872 6977 6976 
5807 5808 6913 6912 5872 5873 6978 6977 
5808 5809 6914 6913 5873 5874 6979 6978 
5809 5810 6915 6914 5874 5875 6980 6979 
5810 5811 6916 6915 5875 5876 6981 6980 
5811 5812 6917 6916 5876 5877 6982 6981 
5812 5813 6918 6917 5877 5878 6983 6982 
5813 5814 6919 6918 5878 5879 6984 6983 
5814 5815 6920 6919 5879 5880 6985 6984 
5815 5816 6921 6920 5880 5881 6986 6985 
5816 5817 6922 6921 5881 5882 6987 6986 
5817 5818 6923 6922 5882 5883 6988 6987 
5818 5819 6924 6923 5883 5884 6989 6988 
5819 5820 6925 6924 5884 5885 6990 6989 
5820 5821 6926 6925 5885 5886 6991 6990 
5821 5822 6927 6926 5886 5887 6992 6991 
5822 5823 6928 6927 5887 5888 6993 6992 
5823 5824 6929 6928 5888 5889 6994 6993 
5824 5825 6930 6929 5889 5890 6995 6994 
5825 5826 6931 6930 5890 5891 6996 6995 
5826 5827 6932 6931 5891 5892 6997 6996 
5827 5828 6933 6932 5892 5893 6998 6997 
5828 5829 6934 6933 5893 5894 6999 6998 
5829 5830 6935 6934 5894 5895 7000 6999 
5830 5831 6936 6935 5895 5896 7001 7000 
5831 5832 6937 6936 5896 5897 7002 7001 
5832 5833 6938 6937 5897 5898 7003 7002 
5833 5834 6939 6938 5898 5899 7004 7003 
5834 5835 6940 6939 5899 5900 7005 7004 
5835 5836 6941 6940 5900 5901 7006 7005 
5836 5837 6942 6941 5901 5902 7007 7006 
5837 5838 6943 6942 5902 5903 7008 7007 
5838 5839 6944 6943 5903 5904 7009 7008 
5839 5840 6945 6944 5904 5905 7010 7009 
5840 5841 6946 6945 5905 5906 7011 7010 
5841 5842 6947 6946 5906 5907 7012 7011 
5842 5843 6948 6947 5907 5908 7013 7012 
5843 5844 6949 6948 5908 5909 7014 7013 
5844 5845 6950 6949 5909 5910 7015 7014 
5845 5846 6951 6950 5910 5911 7016 7015 
5846 5847 6952 6951 5911 5912 7017 7016 
5847 5848 6953 6952 5912 5913 7018 7017 
5848 5849 6954 6953 5913 5914 7019 7018 
5850 5851 6956 6955 5915 5916 7021 7020 
5851 5852 6957 6956 5916 5917 7022 7021 
5852 5853 6958 6957 5917 5918 7023 7022 
5853 5854 6959 6958 5918 5919 7024 7023 
5854 5855 6960 6959 5919 5920 7025 7024 
5855 5856 6961 6960 5920 5921 7026 7025 
5856 5857 6962 6961 5921 5922 7027 7026 
5857 5858 6963 6962 5922 5923 7028 7027 
5858 5859 6964 6963 5923 5924 7029 7028 
5859 5860 6965 6964 5924 5925 7030 7029 
5860 5861 6966 6965 5925 5926 7031 7030 
5861 5862 6967 6966 5926 5927 7032 7031 
5862 5863 6968 6967 5927 5928 7033 7032 
5863 5864 6969 6968 5928 5929 7034 7033 
5864 5865 6970 6969 5929 5930 7035 7034 
5865 5866 6971 6970 5930 5931 7036 7035 
5866 5867 6972 6971 5931 5932 7037 7036 
5867 5868 6973 6972 5932 5933 7038 7037 
5868 5869 6974 6973 5933 5934 7039 7038 
5869 5870 6975 6974 5934 5935 7040 7039 
5870 5871 6976 6975 5935 5936 7041 7040 
5871 5872 6977 6976 5936 5937 7042 7041 
5872 5873 6978 6977 5937 5938 7043 7042 
5873 5874 6979 6978 5938 5939 7044 7043 
5874 5875 6980 6979 5939 5940 7045 7044 
5875 5876 6981 6980 5940 5941 7046 7045 
5876 5877 6982 6981 5941 5942 7047 7046 
5877 5878 6983 6982 5942 5943 7048 7047 
5878 5879 6984 6983 5943 5944 7049 7048 
5879 5880 6985 6984 5944 5945 7050 7049 
5880 5881 6986 6985 5945 5946 7051 7050 
5881 5882 6987 6986 5946 5947 7052 7051 
5882 5883 6988 6987 5947 5948 7053 7052 
5883 5884 6989 6988 5948 5949 7054 7053 
5884 5885 6990 6989 5949 5950 7055 7054 
5885 5886 6991 6990 5950 5951 7056 7055 
5886 5887 6992 6991 5951 5952 7057 7056 
5887 5888 6993 6992 5952 5953 7058 7057 
5888 5889 6994 6993 5953 5954 7059 7058 
5889 5890 6995 6994 5954 5955 7060 7059 
5890 5891 6996 6995 5955 5956 7061 7060 
5891 5892 6997 6996 5956 5957 7062 7061 
5892 5893 6998 6997 5957 5958 7063 7062 
5893 5894 6999 6998 5958 5959 7064 7063 
5894 5895 7000 6999 5959 5960 7065 7064 
5895 5896 7001 7000 5960 5961 7066 7065 
5896 5897 7002 7001 5961 5962 7067 7066 
5897 5898 7003 7002 5962 5963 7068 7067 
5898 5899 7004 7003 5963 5964 7069 7068 
5899 5900 7005 7004 5964 5965 7070 7069 
5900 5901 7006 7005 5965 5966 7071 7070 
5901 5902 7007 7006 5966 5967 7072 7071 
5902 5903 7008 7007 5967 5968 7073 7072 
5903 5904 7009 7008 5968 5969 7074 7073 
5904 5905 7010 7009 5969 5970 7075 7074 
5905 5906 7011 7010 5970 5971 7076 7075 
5906 5907 7012 7011 5971 5972 7077 7076 
5907 5908 7013 7012 5972 5973 7078 7077 
5908 5909 7014 7013 5973 5974 7079 7078 
5909 5910 7015 7014 5974 5975 7080 7079 
5910 5911 7016 7015 5975 5976 7081 7080 
5911 5912 7017 7016 5976 5977 7082 7081 
5912 5913 7018 7017 5977 5978 7083 7082 
5913 5914 7019 7018 5978 5979 7084 7083 
5915 5916 7021 7020 5980 5981 7086 7085 
5916 5917 7022 7021 5981 5982 7087 7086 
5917 5918 7023 7022 5982 5983 7088 7087 
5918 5919 7024 7023 5983 5984 7089 7088 
5919 5920 7025 7024 5984 5985 7090 7089 
5920 5921 7026 7025 5985 5986 7091 7090 
5921 5922 7027 7026 5986 5987 7092 7091 
5922 5923 7028 7027 5987 5988 7093 7092 
5923 5924 7029 7028 5988 5989 7094 7093 
5924 5925 7030 7029 5989 5990 7095 7094 
5925 5926 7031 7030 5990 5991 7096 7095 
5926 5927 7032 7031 5991 5992 7097 7096 
5927 5928 7033 7032 5992 5993 7098 7097 
5928 5929 7034 7033 5993 5994 7099 7098 
5929 5930 7035 7034 5994 5995 7100 7099 
5930 5931 7036 7035 5995 5996 7101 7100 
5931 5932 7037 7036 5996 5997 7102 7101 
5932 5933 7038 7037 5997 5998 7103 7102 
5933 5934 7039 7038 5998 5999 7104 7103 
5934 5935 7040 7039 5999 6000 7105 7104 
5935 5936 7041 7040 6000 6001 7106 7105 
5936 5937 7042 7041 6001 6002 7107 7106 
5937 5938 7043 7042 6002 6003 7108 7107 
5938 5939 7044 7043 6003 6004 7109 7108 
5939 5940 7045 7044 6004 6005 7110 7109 
5940 5941 7046 7045 6005 6006 7111 7110 
5941 5942 7047 7046 6006 6007 7112 7111 
5942 5943 7048 7047 6007 6008 7113 7112 
5943 5944 7049 7048 6008 6009 7114 7113 
5944 5945 7050 7049 6009 6010 7115 7114 
5945 5946 7051 7050 6010 6011 7116 7115 
5946 5947 7052 7051 6011 6012 7117 7116 
5947 5948 7053 7052 6012 6013 7118 7117 
5948 5949 7054 7053 6013 6014 7119 7118 
5949 5950 7055 7054 6014 6015 7120 7119 
5950 5951 7056 7055 6015 6016 7121 7120 
5951 5952 7057 7056 6016 6017 7122 7121 
5952 5953 7058 7057 6017 6018 7123 7122 
5953 5954 7059 7058 6018 6019 7124 7123 
5954 5955 7060 7059 6019 6020 7125 7124 
5955 5956 7061 7060 6020 6021 7126 7125 
5956 5957 7062 7061 6021 6022 7127 7126 
5957 5958 7063 7062 6022 6023 7128 7127 
5958 5959 7064 7063 6023 6024 7129 7128 
5959 5960 7065 7064 6024 6025 7130 7129 
5960 5961 7066 7065 6025 6026 7131 7130 
5961 5962 7067 7066 6026 6027 7132 7131 
5962 5963 7068 7067 6027 6028 7133 7132 
5963 5964 7069 7068 6028 6029 7134 7133 
5964 5965 7070 7069 6029 6030 7135 7134 
5965 5966 7071 7070 6030 6031 7136 7135 
5966 5967 7072 7071 6031 6032 7137 7136 
5967 5968 7073 7072 6032 6033 7138 7137 
5968 5969 7074 7073 6033 6034 7139 7138 
5969 5970 7075 7074 6034 6035 7140 7139 
5970 5971 7076 7075 6035 6036 7141 7140 
5971 5972 7077 7076 6036 6037 7142 7141 
5972 5973 7078 7077 6037 6038 7143 7142 
5973 5974 7079 7078 6038 6039 7144 7143 
5974 5975 7080 7079 6039 6040 7145 7144 
5975 5976 7081 7080 6040 6041 7146 7145 
5976 5977 7082 7081 6041 6042 7147 7146 
5977 5978 7083 7082 6042 6043 7148 7147 
5978 5979 7084 7083 6043 6044 7149 7148 
5980 5981 7086 7085 6045 6046 7151 7150 
5981 5982 7087 7086 6046 6047 7152 7151 
5982 5983 7088 7087 6047 6048 7153 7152 
5983 5984 7089 7088 6048 6049 7154 7153 
5984 5985 7090 7089 6049 6050 7155 7154 
5985 5986 7091 7090 6050 6051 7156 7155 
5986 5987 7092 7091 6051 6052 7157 7156 
5987 5988 7093 7092 6052 6053 7158 7157 
5988 5989 7094 7093 6053 6054 7159 7158 
5989 5990 7095 7094 6054 6055 7160 7159 
5990 5991 7096 7095 6055 6056 7161 7160 
5991 5992 7097 7096 6056 6057 7162 7161 
5992 5993 7098 7097 6057 6058 7163 7162 
5993 5994 7099 7098 6058 6059 7164 7163 
5994 5995 7100 7099 6059 6060 7165 7164 
5995 5996 7101 7100 6060 6061 7166 7165 
5996 5997 7102 7101 6061 6062 7167 7166 
5997 5998 7103 7102 6062 6063 7168 7167 
5998 5999 7104 7103 6063 6064 7169 7168 
5999 6000 7105 7104 6064 6065 7170 7169 
6000 6001 7106 7105 6065 6066 7171 7170 
6001 6002 7107 7106 6066 6067 7172 7171 
6002 6003 7108 7107 6067 6068 7173 7172 
6003 6004 7109 7108 6068 6069 7174 7173 
6004 6005 7110 7109 6069 6070 7175 7174 
6005 6006 7111 7110 6070 6071 7176 7175 
6006 6007 7112 7111 6071 6072 7177 7176 
6007 6008 7113 7112 6072 6073 7178 7177 
6008 6009 7114 7113 6073 6074 7179 7178 
6009 6010 7115 7114 6074 6075 7180 7179 
6010 6011 7116 7115 6075 6076 7181 7180 
6011 6012 7117 7116 6076 6077 7182 7181 
6012 6013 7118 7117 6077 6078 7183 7182 
6013 6014 7119 7118 6078 6079 7184 7183 
6014 6015 7120 7119 6079 6080 7185 7184 
6015 6016 7121 7120 6080 6081 7186 7185 
6016 6017 7122 7121 6081 6082 7187 7186 
6017 6018 7123 7122 6082 6083 7188 7187 
6018 6019 7124 7123 6083 6084 7189 7188 
6019 6020 7125 7124 6084 6085 7190 7189 
6020 6021 7126 7125 6085 6086 7191 7190 
6021 6022 7127 7126 6086 6087 7192 7191 
6022 6023 7128 7127 6087 6088 7193 7192 
6023 6024 7129 7128 6088 6089 7194 7193 
6024 6025 7130 7129 6089 6090 7195 7194 
6025 6026 7131 7130 6090 6091 7196 7195 
6026 6027 7132 7131 6091 6092 7197 7196 
6027 6028 7133 7132 6092 6093 7198 7197 
6028 6029 7134 7133 6093 6094 7199 7198 
6029 6030 7135 7134 6094 6095 7200 7199 
6030 6031 7136 7135 6095 6096 7201 7200 
6031 6032 7137 7136 6096 6097 7202 7201 
6032 6033 7138 7137 6097 6098 7203 7202 
6033 6034 7139 7138 6098 6099 7204 7203 
6034 6035 7140 7139 6099 6100 7205 7204 
6035 6036 7141 7140 6100 6101 7206 7205 
6036 6037 7142 7141 6101 6102 7207 7206 
6037 6038 7143 7142 6102 6103 7208 7207 
6038 6039 7144 7143 6103 6104 7209 7208 
6039 6040 7145 7144 6104 6105 7210 7209 
6040 6041 7146 7145 6105 6106 7211 7210 
6041 6042 7147 7146 6106 6107 7212 7211 
6042 6043 7148 7147 6107 6108 7213 7212 
6043 6044 7149 7148 6108 6109 7214 7213 
6045 6046 7151 7150 6110 6111 7216 7215 
6046 6047 7152 7151 6111 6112 7217 7216 
6047 6048 7153 7152 6112 6113 7218 7217 
6048 6049 7154 7153 6113 6114 7219 7218 
6049 6050 7155 7154 6114 6115 7220 7219 
6050 6051 7156 7155 6115 6116 7221 7220 
6051 6052 7157 7156 6116 6117 7222 7221 
6052 6053 7158 7157 6117 6118 7223 7222 
6053 6054 7159 7158 6118 6119 7224 7223 
6054 6055 7160 7159 6119 6120 7225 7224 
6055 6056 7161 7160 6120 6121 7226 7225 
6056 6057 7162 7161 6121 6122 7227 7226 
6057 6058 7163 7162 6122 6123 7228 7227 
6058 6059 7164 7163 6123 6124 7229 7228 
6059 6060 7165 7164 6124 6125 7230 7229 
6060 6061 7166 7165 6125 6126 7231 7230 
6061 6062 7167 7166 6126 6127 7232 7231 
6062 6063 7168 7167 6127 6128 7233 7232 
6063 6064 7169 7168 6128 6129 7234 7233 
6064 6065 7170 7169 6129 6130 7235 7234 
6065 6066 7171 7170 6130 6131 7236 7235 
6066 6067 7172 7171 6131 6132 7237 7236 
6067 6068 7173 7172 6132 6133 7238 7237 
6068 6069 7174 7173 6133 6134 7239 7238 
6069 6070 7175 7174 6134 6135 7240 7239 
6070 6071 7176 7175 6135 6136 7241 7240 
6071 6072 7177 7176 6136 6137 7242 7241 
6072 6073 7178 7177 6137 6138 7243 7242 
6073 6074 7179 7178 6138 6139 7244 7243 
6074 6075 7180 7179 6139 6140 7245 7244 
6075 6076 7181 7180 6140 6141 7246 7245 
6076 6077 7182 7181 6141 6142 7247 7246 
6077 6078 7183 7182 6142 6143 7248 7247 
6078 6079 7184 7183 6143 6144 7249 7248 
6079 6080 7185 7184 6144 6145 7250 7249 
6080 6081 7186 7185 6145 6146 7251 7250 
6081 6082 7187 7186 6146 6147 7252 7251 
6082 6083 7188 7187 6147 6148 7253 7252 
6083 6084 7189 7188 6148 6149 7254 7253 
6084 6085 7190 7189 6149 6150 7255 7254 
6085 6086 7191 7190 6150 6151 7256 7255 
6086 6087 7192 7191 6151 6152 7257 7256 
6087 6088 7193 7192 6152 6153 7258 7257 
6088 6089 7194 7193 6153 6154 7259 7258 
6089 6090 7195 7194 6154 6155 7260 7259 
6090 6091 7196 7195 6155 6156 7261 7260 
6091 6092 7197 7196 6156 6157 7262 7261 
6092 6093 7198 7197 6157 6158 7263 7262 
6093 6094 7199 7198 6158 6159 7264 7263 
6094 6095 7200 7199 6159 6160 7265 7264 
6095 6096 7201 7200 6160 6161 7266 7265 
6096 6097 7202 7201 6161 6162 7267 7266 
6097 6098 7203 7202 6162 6163 7268 7267 
6098 6099 7204 7203 6163 6164 7269 7268 
6099 6100 7205 7204 6164 6165 7270 7269 
6100 6101 7206 7205 6165 6166 7271 7270 
6101 6102 7207 7206 6166 6167 7272 7271 
6102 6103 7208 7207 6167 6168 7273 7272 
6103 6104 7209 7208 6168 6169 7274 7273 
6104 6105 7210 7209 6169 6170 7275 7274 
6105 6106 7211 7210 6170 6171 7276 7275 
6106 6107 7212 7211 6171 6172 7277 7276 
6107 6108 7213 7212 6172 6173 7278 7277 
6108 6109 7214 7213 6173 6174 7279 7278 
6110 6111 7216 7215 6175 6176 7281 7280 
6111 6112 7217 7216 6176 6177 7282 7281 
6112 6113 7218 7217 6177 6178 7283 7282 
6113 6114 7219 7218 6178 6179 7284 7283 
6114 6115 7220 7219 6179 6180 7285 7284 
6115 6116 7221 7220 6180 6181 7286 7285 
6116 6117 7222 7221 6181 6182 7287 7286 
6117 6118 7223 7222 6182 6183 7288 7287 
6118 6119 7224 7223 6183 6184 7289 7288 
6119 6120 7225 7224 6184 6185 7290 7289 
6120 6121 7226 7225 6185 6186 7291 7290 
6121 6122 7227 7226 6186 6187 7292 7291 
6122 6123 7228 7227 6187 6188 7293 7292 
6123 6124 7229 7228 6188 6189 7294 7293 
6124 6125 7230 7229 6189 6190 7295 7294 
6125 6126 7231 7230 6190 6191 7296 7295 
6126 6127 7232 7231 6191 6192 7297 7296 
6127 6128 7233 7232 6192 6193 7298 7297 
6128 6129 7234 7233 6193 6194 7299 7298 
6129 6130 7235 7234 6194 6195 7300 7299 
6130 6131 7236 7235 6195 6196 7301 7300 
6131 6132 7237 7236 6196 6197 7302 7301 
6132 6133 7238 7237 6197 6198 7303 7302 
6133 6134 7239 7238 6198 6199 7304 7303 
6134 6135 7240 7239 6199 6200 7305 7304 
6135 6136 7241 7240 6200 6201 7306 7305 
6136 6137 7242 7241 6201 6202 7307 7306 
6137 6138 7243 7242 6202 6203 7308 7307 
6138 6139 7244 7243 6203 6204 7309 7308 
6139 6140 7245 7244 6204 6205 7310 7309 
6140 6141 7246 7245 6205 6206 7311 7310 
6141 6142 7247 7246 6206 6207 7312 7311 
6142 6143 7248 7247 6207 6208 7313 7312 
6143 6144 7249 7248 6208 6209 7314 7313 
6144 6145 7250 7249 6209 6210 7315 7314 
6145 6146 7251 7250 6210 6211 7316 7315 
6146 6147 7252 7251 6211 6212 7317 7316 
6147 6148 7253 7252 6212 6213 7318 7317 
6148 6149 7254 7253 6213 6214 7319 7318 
6149 6150 7255 7254 6214 6215 7320 7319 
6150 6151 7256 7255 6215 6216 7321 7320 
6151 6152 7257 7256 6216 6217 7322 7321 
6152 6153 7258 7257 6217 6218 7323 7322 
6153 6154 7259 7258 6218 6219 7324 7323 
6154 6155 7260 7259 6219 6220 7325 7324 
6155 6156 7261 7260 6220 6221 7326 7325 
6156 6157 7262 7261 6221 6222 7327 7326 
6157 6158 7263 7262 6222 6223 7328 7327 
6158 6159 7264 7263 6223 6224 7329 7328 
6159 6160 7265 7264 6224 6225 7330 7329 
6160 6161 7266 7265 6225 6226 7331 7330 
6161 6162 7267 7266 6226 6227 7332 7331 
6162 6163 7268 7267 6227 6228 7333 7332 
6163 6164 7269 7268 6228 6229 7334 7333 
6164 6165 7270 7269 6229 6230 7335 7334 
6165 6166 7271 7270 6230 6231 7336 7335 
6166 6167 7272 7271 6231 6232 7337 7336 
6167 6168 7273 7272 6232 6233 7338 7337 
6168 6169 7274 7273 6233 6234 7339 7338 
6169 6170 7275 7274 6234 6235 7340 7339 
6170 6171 7276 7275 6235 6236 7341 7340 
6171 6172 7277 7276 6236 6237 7342 7341 
6172 6173 7278 7277 6237 6238 7343 7342 
6173 6174 7279 7278 6238 6239 7344 7343 
6175 6176 7281 7280 6240 6241 7346 7345 
6176 6177 7282 7281 6241 6242 7347 7346 
6177 6178 7283 7282 6242 6243 7348 7347 
6178 6179 7284 7283 6243 6244 7349 7348 
6179 6180 7285 7284 6244 6245 7350 7349 
6180 6181 7286 7285 6245 6246 7351 7350 
6181 6182 7287 7286 6246 6247 7352 7351 
6182 6183 7288 7287 6247 6248 7353 7352 
6183 6184 7289 7288 6248 6249 7354 7353 
6184 6185 7290 7289 6249 6250 7355 7354 
6185 6186 7291 7290 6250 6251 7356 7355 
6186 6187 7292 7291 6251 6252 7357 7356 
6187 6188 7293 7292 6252 6253 7358 7357 
6188 6189 7294 7293 6253 6254 7359 7358 
6189 6190 7295 7294 6254 6255 7360 7359 
6190 6191 7296 7295 6255 6256 7361 7360 
6191 6192 7297 7296 6256 6257 7362 7361 
6192 6193 7298 7297 6257 6258 7363 7362 
6193 6194 7299 7298 6258 6259 7364 7363 
6194 6195 7300 7299 6259 6260 7365 7364 
6195 6196 7301 7300 6260 6261 7366 7365 
6196 6197 7302 7301 6261 6262 7367 7366 
6197 6198 7303 7302 6262 6263 7368 7367 
6198 6199 7304 7303 6263 6264 7369 7368 
6199 6200 7305 7304 6264 6265 7370 7369 
6200 6201 7306 7305 6265 6266 7371 7370 
6201 6202 7307 7306 6266 6267 7372 7371 
6202 6203 7308 7307 6267 6268 7373 7372 
6203 6204 7309 7308 6268 6269 7374 7373 
6204 6205 7310 7309 6269 6270 7375 7374 
6205 6206 7311 7310 6270 6271 7376 7375 
6206 6207 7312 7311 6271 6272 7377 7376 
6207 6208 7313 7312 6272 6273 7378 7377 
6208 6209 7314 7313 6273 6274 7379 7378 
6209 6210 7315 7314 6274 6275 7380 7379 
6210 6211 7316 7315 6275 6276 7381 7380 
6211 6212 7317 7316 6276 6277 7382 7381 
6212 6213 7318 7317 6277 6278 7383 7382 
6213 6214 7319 7318 6278 6279 7384 7383 
6214 6215 7320 7319 6279 6280 7385 7384 
6215 6216 7321 7320 6280 6281 7386 7385 
6216 6217 7322 7321 6281 6282 7387 7386 
6217 6218 7323 7322 6282 6283 7388 7387 
6218 6219 7324 7323 6283 6284 7389 7388 
6219 6220 7325 7324 6284 6285 7390 7389 
6220 6221 7326 7325 6285 6286 7391 7390 
6221 6222 7327 7326 6286 6287 7392 7391 
6222 6223 7328 7327 6287 6288 7393 7392 
6223 6224 7329 7328 6288 6289 7394 7393 
6224 6225 7330 7329 6289 6290 7395 7394 
6225 6226 7331 7330 6290 6291 7396 7395 
6226 6227 7332 7331 6291 6292 7397 7396 
6227 6228 7333 7332 6292 6293 7398 7397 
6228 6229 7334 7333 6293 6294 7399 7398 
6229 6230 7335 7334 6294 6295 7400 7399 
6230 6231 7336 7335 6295 6296 7401 7400 
6231 6232 7337 7336 6296 6297 7402 7401 
6232 6233 7338 7337 6297 6298 7403 7402 
6233 6234 7339 7338 6298 6299 7404 7403 
6234 6235 7340 7339 6299 6300 7405 7404 
6235 6236 7341 7340 6300 6301 7406 7405 
6236 6237 7342 7341 6301 6302 7407 7406 
6237 6238 7343 7342 6302 6303 7408 7407 
6238 6239 7344 7343 6303 6304 7409 7408 
6240 6241 7346 7345 6305 6306 7411 7410 
6241 6242 7347 7346 6306 6307 7412 7411 
6242 6243 7348 7347 6307 6308 7413 7412 
6243 6244 7349 7348 6308 6309 7414 7413 
6244 6245 7350 7349 6309 6310 7415 7414 
6245 6246 7351 7350 6310 6311 7416 7415 
6246 6247 7352 7351 6311 6312 7417 7416 
6247 6248 7353 7352 6312 6313 7418 7417 
6248 6249 7354 7353 6313 6314 7419 7418 
6249 6250 7355 7354 6314 6315 7420 7419 
6250 6251 7356 7355 6315 6316 7421 7420 
6251 6252 7357 7356 6316 6317 7422 7421 
6252 6253 7358 7357 6317 6318 7423 7422 
6253 6254 7359 7358 6318 6319 7424 7423 
6254 6255 7360 7359 6319 6320 7425 7424 
6255 6256 7361 7360 6320 6321 7426 7425 
6256 6257 7362 7361 6321 6322 7427 7426 
6257 6258 7363 7362 6322 6323 7428 7427 
6258 6259 7364 7363 6323 6324 7429 7428 
6259 6260 7365 7364 6324 6325 7430 7429 
6260 6261 7366 7365 6325 6326 7431 7430 
6261 6262 7367 7366 6326 6327 7432 7431 
6262 6263 7368 7367 6327 6328 7433 7432 
6263 6264 7369 7368 6328 6329 7434 7433 
6264 6265 7370 7369 6329 6330 7435 7434 
6265 6266 7371 7370 6330 6331 7436 7435 
6266 6267 7372 7371 6331 6332 7437 7436 
6267 6268 7373 7372 6332 6333 7438 7437 
6268 6269 7374 7373 6333 6334 7439 7438 
6269 6270 7375 7374 6334 6335 7440 7439 
6270 6271 7376 7375 6335 6336 7441 7440 
6271 6272 7377 7376 6336 6337 7442 7441 
6272 6273 7378 7377 6337 6338 7443 7442 
6273 6274 7379 7378 6338 6339 7444 7443 
6274 6275 7380 7379 6339 6340 7445 7444 
6275 6276 7381 7380 6340 6341 7446 7445 
6276 6277 7382 7381 6341 6342 7447 7446 
6277 6278 7383 7382 6342 6343 7448 7447 
6278 6279 7384 7383 6343 6344 7449 7448 
6279 6280 7385 7384 6344 6345 7450 7449 
6280 6281 7386 7385 6345 6346 7451 7450 
6281 6282 7387 7386 6346 6347 7452 7451 
6282 6283 7388 7387 6347 6348 7453 7452 
6283 6284 7389 7388 6348 6349 7454 7453 
6284 6285 7390 7389 6349 6350 7455 7454 
6285 6286 7391 7390 6350 6351 7456 7455 
6286 6287 7392 7391 6351 6352 7457 7456 
6287 6288 7393 7392 6352 6353 7458 7457 
6288 6289 7394 7393 6353 6354 7459 7458 
6289 6290 7395 7394 6354 6355 7460 7459 
6290 6291 7396 7395 6355 6356 7461 7460 
6291 6292 7397 7396 6356 6357 7462 7461 
6292 6293 7398 7397 6357 6358 7463 7462 
6293 6294 7399 7398 6358 6359 7464 7463 
6294 6295 7400 7399 6359 6360 7465 7464 
6295 6296 7401 7400 6360 6361 7466 7465 
6296 6297 7402 7401 6361 6362 7467 7466 
6297 6298 7403 7402 6362 6363 7468 7467 
6298 6299 7404 7403 6363 6364 7469 7468 
6299 6300 7405 7404 6364 6365 7470 7469 
6300 6301 7406 7405 6365 6366 7471 7470 
6301 6302 7407 7406 6366 6367 7472 7471 
6302 6303 7408 7407 6367 6368 7473 7472 
6303 6304 7409 7408 6368 6369 7474 7473 
6305 6306 7411 7410 6370 6371 7476 7475 
6306 6307 7412 7411 6371 6372 7477 7476 
6307 6308 7413 7412 6372 6373 7478 7477 
6308 6309 7414 7413 6373 6374 7479 7478 
6309 6310 7415 7414 6374 6375 7480 7479 
6310 6311 7416 7415 6375 6376 7481 7480 
6311 6312 7417 7416 6376 6377 7482 7481 
6312 6313 7418 7417 6377 6378 7483 7482 
6313 6314 7419 7418 6378 6379 7484 7483 
6314 6315 7420 7419 6379 6380 7485 7484 
6315 6316 7421 7420 6380 6381 7486 7485 
6316 6317 7422 7421 6381 6382 7487 7486 
6317 6318 7423 7422 6382 6383 7488 7487 
6318 6319 7424 7423 6383 6384 7489 7488 
6319 6320 7425 7424 6384 6385 7490 7489 
6320 6321 7426 7425 6385 6386 7491 7490 
6321 6322 7427 7426 6386 6387 7492 7491 
6322 6323 7428 7427 6387 6388 7493 7492 
6323 6324 7429 7428 6388 6389 7494 7493 
6324 6325 7430 7429 6389 6390 7495 7494 
6325 6326 7431 7430 6390 6391 7496 7495 
6326 6327 7432 7431 6391 6392 7497 7496 
6327 6328 7433 7432 6392 6393 7498 7497 
6328 6329 7434 7433 6393 6394 7499 7498 
6329 6330 7435 7434 6394 6395 7500 7499 
6330 6331 7436 7435 6395 6396 7501 7500 
6331 6332 7437 7436 6396 6397 7502 7501 
6332 6333 7438 7437 6397 6398 7503 7502 
6333 6334 7439 7438 6398 6399 7504 7503 
6334 6335 7440 7439 6399 6400 7505 7504 
6335 6336 7441 7440 6400 6401 7506 7505 
6336 6337 7442 7441 6401 6402 7507 7506 
6337 6338 7443 7442 6402 6403 7508 7507 
6338 6339 7444 7443 6403 6404 7509 7508 
6339 6340 7445 7444 6404 6405 7510 7509 
6340 6341 7446 7445 6405 6406 7511 7510 
6341 6342 7447 7446 6406 6407 7512 7511 
6342 6343 7448 7447 6407 6408 7513 7512 
6343 6344 7449 7448 6408 6409 7514 7513 
6344 6345 7450 7449 6409 6410 7515 7514 
6345 6346 7451 7450 6410 6411 7516 7515 
6346 6347 7452 7451 6411 6412 7517 7516 
6347 6348 7453 7452 6412 6413 7518 7517 
6348 6349 7454 7453 6413 6414 7519 7518 
6349 6350 7455 7454 6414 6415 7520 7519 
6350 6351 7456 7455 6415 6416 7521 7520 
6351 6352 7457 7456 6416 6417 7522 7521 
6352 6353 7458 7457 6417 6418 7523 7522 
6353 6354 7459 7458 6418 6419 7524 7523 
6354 6355 7460 7459 6419 6420 7525 7524 
6355 6356 7461 7460 6420 6421 7526 7525 
6356 6357 7462 7461 6421 6422 7527 7526 
6357 6358 7463 7462 6422 6423 7528 7527 
6358 6359 7464 7463 6423 6424 7529 7528 
6359 6360 7465 7464 6424 6425 7530 7529 
6360 6361 7466 7465 6425 6426 7531 7530 
6361 6362 7467 7466 6426 6427 7532 7531 
6362 6363 7468 7467 6427 6428 7533 7532 
6363 6364 7469 7468 6428 6429 7534 7533 
6364 6365 7470 7469 6429 6430 7535 7534 
6365 6366 7471 7470 6430 6431 7536 7535 
6366 6367 7472 7471 6431 6432 7537 7536 
6367 6368 7473 7472 6432 6433 7538 7537 
6368 6369 7474 7473 6433 6434 7539 7538 
6370 6371 7476 7475 6435 6436 7541 7540 
6371 6372 7477 7476 6436 6437 7542 7541 
6372 6373 7478 7477 6437 6438 7543 7542 
6373 6374 7479 7478 6438 6439 7544 7543 
6374 6375 7480 7479 6439 6440 7545 7544 
6375 6376 7481 7480 6440 6441 7546 7545 
6376 6377 7482 7481 6441 6442 7547 7546 
6377 6378 7483 7482 6442 6443 7548 7547 
6378 6379 7484 7483 6443 6444 7549 7548 
6379 6380 7485 7484 6444 6445 7550 7549 
6380 6381 7486 7485 6445 6446 7551 7550 
6381 6382 7487 7486 6446 6447 7552 7551 
6382 6383 7488 7487 6447 6448 7553 7552 
6383 6384 7489 7488 6448 6449 7554 7553 
6384 6385 7490 7489 6449 6450 7555 7554 
6385 6386 7491 7490 6450 6451 7556 7555 
6386 6387 7492 7491 6451 6452 7557 7556 
6387 6388 7493 7492 6452 6453 7558 7557 
6388 6389 7494 7493 6453 6454 7559 7558 
6389 6390 7495 7494 6454 6455 7560 7559 
6390 6391 7496 7495 6455 6456 7561 7560 
6391 6392 7497 7496 6456 6457 7562 7561 
6392 6393 7498 7497 6457 6458 7563 7562 
6393 6394 7499 7498 6458 6459 7564 7563 
6394 6395 7500 7499 6459 6460 7565 7564 
6395 6396 7501 7500 6460 6461 7566 7565 
6396 6397 7502 7501 6461 6462 7567 7566 
6397 6398 7503 7502 6462 6463 7568 7567 
6398 6399 7504 7503 6463 6464 7569 7568 
6399 6400 7505 7504 6464 6465 7570 7569 
6400 6401 7506 7505 6465 6466 7571 7570 
6401 6402 7507 7506 6466 6467 7572 7571 
6402 6403 7508 7507 6467 6468 7573 7572 
6403 6404 7509 7508 6468 6469 7574 7573 
6404 6405 7510 7509 6469 6470 7575 7574 
6405 6406 7511 7510 6470 6471 7576 7575 
6406 6407 7512 7511 6471 6472 7577 7576 
6407 6408 7513 7512 6472 6473 7578 7577 
6408 6409 7514 7513 6473 6474 7579 7578 
6409 6410 7515 7514 6474 6475 7580 7579 
6410 6411 7516 7515 6475 6476 7581 7580 
6411 6412 7517 7516 6476 6477 7582 7581 
6412 6413 7518 7517 6477 6478 7583 7582 
6413 6414 7519 7518 6478 6479 7584 7583 
6414 6415 7520 7519 6479 6480 7585 7584 
6415 6416 7521 7520 6480 6481 7586 7585 
6416 6417 7522 7521 6481 6482 7587 7586 
6417 6418 7523 7522 6482 6483 7588 7587 
6418 6419 7524 7523 6483 6484 7589 7588 
6419 6420 7525 7524 6484 6485 7590 7589 
6420 6421 7526 7525 6485 6486 7591 7590 
6421 6422 7527 7526 6486 6487 7592 7591 
6422 6423 7528 7527 6487 6488 7593 7592 
6423 6424 7529 7528 6488 6489 7594 7593 
6424 6425 7530 7529 6489 6490 7595 7594 
6425 6426 7531 7530 6490 6491 7596 7595 
6426 6427 7532 7531 6491 6492 7597 7596 
6427 6428 7533 7532 6492 6493 7598 7597 
6428 6429 7534 7533 6493 6494 7599 7598 
6429 6430 7535 7534 6494 6495 7600 7599 
6430 6431 7536 7535 6495 6496 7601 7600 
6431 6432 7537 7536 6496 6497 7602 7601 
6432 6433 7538 7537 6497 6498 7603 7602 
6433 6434 7539 7538 6498 6499 7604 7603 
6435 6436 7541 7540 6500 6501 7606 7605 
6436 6437 7542 7541 6501 6502 7607 7606 
6437 6438 7543 7542 6502 6503 7608 7607 
6438 6439 7544 7543 6503 6504 7609 7608 
6439 6440 7545 7544 6504 6505 7610 7609 
6440 6441 7546 7545 6505 6506 7611 7610 
6441 6442 7547 7546 6506 6507 7612 7611 
6442 6443 7548 7547 6507 6508 7613 7612 
6443 6444 7549 7548 6508 6509 7614 7613 
6444 6445 7550 7549 6509 6510 7615 7614 
6445 6446 7551 7550 6510 6511 7616 7615 
6446 6447 7552 7551 6511 6512 7617 7616 
6447 6448 7553 7552 6512 6513 7618 7617 
6448 6449 7554 7553 6513 6514 7619 7618 
6449 6450 7555 7554 6514 6515 7620 7619 
6450 6451 7556 7555 6515 6516 7621 7620 
6451 6452 7557 7556 6516 6517 7622 7621 
6452 6453 7558 7557 6517 6518 7623 7622 
6453 6454 7559 7558 6518 6519 7624 7623 
6454 6455 7560 7559 6519 6520 7625 7624 
6455 6456 7561 7560 6520 6521 7626 7625 
6456 6457 7562 7561 6521 6522 7627 7626 
6457 6458 7563 7562 6522 6523 7628 7627 
6458 6459 7564 7563 6523 6524 7629 7628 
6459 6460 7565 7564 6524 6525 7630 7629 
6460 6461 7566 7565 6525 6526 7631 7630 
6461 6462 7567 7566 6526 6527 7632 7631 
6462 6463 7568 7567 6527 6528 7633 7632 
6463 6464 7569 7568 6528 6529 7634 7633 
6464 6465 7570 7569 6529 6530 7635 7634 
6465 6466 7571 7570 6530 6531 7636 7635 
6466 6467 7572 7571 6531 6532 7637 7636 
6467 6468 7573 7572 6532 6533 7638 7637 
6468 6469 7574 7573 6533 6534 7639 7638 
6469 6470 7575 7574 6534 6535 7640 7639 
6470 6471 7576 7575 6535 6536 7641 7640 
6471 6472 7577 7576 6536 6537 7642 7641 
6472 6473 7578 7577 6537 6538 7643 7642 
6473 6474 7579 7578 6538 6539 7644 7643 
6474 6475 7580 7579 6539 6540 7645 7644 
6475 6476 7581 7580 6540 6541 7646 7645 
6476 6477 7582 7581 6541 6542 7647 7646 
6477 6478 7583 7582 6542 6543 7648 7647 
6478 6479 7584 7583 6543 6544 7649 7648 
6479 6480 7585 7584 6544 6545 7650 7649 
6480 6481 7586 7585 6545 6546 7651 7650 
6481 6482 7587 7586 6546 6547 7652 7651 
6482 6483 7588 7587 6547 6548 7653 7652 
6483 6484 7589 7588 6548 6549 7654 7653 
6484 6485 7590 7589 6549 6550 7655 7654 
6485 6486 7591 7590 6550 6551 7656 7655 
6486 6487 7592 7591 6551 6552 7657 7656 
6487 6488 7593 7592 6552 6553 7658 7657 
6488 6489 7594 7593 6553 6554 7659 7658 
6489 6490 7595 7594 6554 6555 7660 7659 
6490 6491 7596 7595 6555 6556 7661 7660 
6491 6492 7597 7596 6556 6557 7662 7661 
6492 6493 7598 7597 6557 6558 7663 7662 
6493 6494 7599 7598 6558 6559 7664 7663 
6494 6495 7600 7599 6559 6560 7665 7664 
6495 6496 7601 7600 6560 6561 7666 7665 
6496 6497 7602 7601 6561 6562 7667 7666 
6497 6498 7603 7602 6562 6563 7668 7667 
6498 6499 7604 7603 6563 6564 7669 7668 
6500 6501 7606 7605 6565 6566 7671 7670 
6501 6502 7607 7606 6566 6567 7672 7671 
6502 6503 7608 7607 6567 6568 7673 7672 
6503 6504 7609 7608 6568 6569 7674 7673 
6504 6505 7610 7609 6569 6570 7675 7674 
6505 6506 7611 7610 6570 6571 7676 7675 
6506 6507 7612 7611 6571 6572 7677 7676 
6507 6508 7613 7612 6572 6573 7678 7677 
6508 6509 7614 7613 6573 6574 7679 7678 
6509 6510 7615 7614 6574 6575 7680 7679 
6510 6511 7616 7615 6575 6576 7681 7680 
6511 6512 7617 7616 6576 6577 7682 7681 
6512 6513 7618 7617 6577 6578 7683 7682 
6513 6514 7619 7618 6578 6579 7684 7683 
6514 6515 7620 7619 6579 6580 7685 7684 
6515 6516 7621 7620 6580 6581 7686 7685 
6516 6517 7622 7621 6581 6582 7687 7686 
6517 6518 7623 7622 6582 6583 7688 7687 
6518 6519 7624 7623 6583 6584 7689 7688 
6519 6520 7625 7624 6584 6585 7690 7689 
6520 6521 7626 7625 6585 6586 7691 7690 
6521 6522 7627 7626 6586 6587 7692 7691 
6522 6523 7628 7627 6587 6588 7693 7692 
6523 6524 7629 7628 6588 6589 7694 7693 
6524 6525 7630 7629 6589 6590 7695 7694 
6525 6526 7631 7630 6590 6591 7696 7695 
6526 6527 7632 7631 6591 6592 7697 7696 
6527 6528 7633 7632 6592 6593 7698 7697 
6528 6529 7634 7633 6593 6594 7699 7698 
6529 6530 7635 7634 6594 6595 7700 7699 
6530 6531 7636 7635 6595 6596 7701 7700 
6531 6532 7637 7636 6596 6597 7702 7701 
6532 6533 7638 7637 6597 6598 7703 7702 
6533 6534 7639 7638 6598 6599 7704 7703 
6534 6535 7640 7639 6599 6600 7705 7704 
6535 6536 7641 7640 6600 6601 7706 7705 
6536 6537 7642 7641 6601 6602 7707 7706 
6537 6538 7643 7642 6602 6603 7708 7707 
6538 6539 7644 7643 6603 6604 7709 7708 
6539 6540 7645 7644 6604 6605 7710 7709 
6540 6541 7646 7645 6605 6606 7711 7710 
6541 6542 7647 7646 6606 6607 7712 7711 
6542 6543 7648 7647 6607 6608 7713 7712 
6543 6544 7649 7648 6608 6609 7714 7713 
6544 6545 7650 7649 6609 6610 7715 7714 
6545 6546 7651 7650 6610 6611 7716 7715 
6546 6547 7652 7651 6611 6612 7717 7716 
6547 6548 7653 7652 6612 6613 7718 7717 
6548 6549 7654 7653 6613 6614 7719 7718 
6549 6550 7655 7654 6614 6615 7720 7719 
6550 6551 7656 7655 6615 6616 7721 7720 
6551 6552 7657 7656 6616 6617 7722 7721 
6552 6553 7658 7657 6617 6618 7723 7722 
6553 6554 7659 7658 6618 6619 7724 7723 
6554 6555 7660 7659 6619 6620 7725 7724 
6555 6556 7661 7660 6620 6621 7726 7725 
6556 6557 7662 7661 6621 6622 7727 7726 
6557 6558 7663 7662 6622 6623 7728 7727 
6558 6559 7664 7663 6623 6624 7729 7728 
6559 6560 7665 7664 6624 6625 7730 7729 
6560 6561 7666 7665 6625 6626 7731 7730 
6561 6562 7667 7666 6626 6627 7732 7731 
6562 6563 7668 7667 6627 6628 7733 7732 
6563 6564 7669 7668 6628 6629 7734 7733 
6630 6631 7736 7735 6695 6696 7801 7800 
6631 6632 7737 7736 6696 6697 7802 7801 
6632 6633 7738 7737 6697 6698 7803 7802 
6633 6634 7739 7738 6698 6699 7804 7803 
6634 6635 7740 7739 6699 6700 7805 7804 
6635 6636 7741 7740 6700 6701 7806 7805 
6636 6637 7742 7741 6701 6702 7807 7806 
6637 6638 7743 7742 6702 6703 7808 7807 
6638 6639 7744 7743 6703 6704 7809 7808 
6639 6640 7745 7744 6704 6705 7810 7809 
6640 6641 7746 7745 6705 6706 7811 7810 
6641 6642 7747 7746 6706 6707 7812 7811 
6642 6643 7748 7747 6707 6708 7813 7812 
6643 6644 7749 7748 6708 6709 7814 7813 
6644 6645 7750 7749 6709 6710 7815 7814 
6645 6646 7751 7750 6710 6711 7816 7815 
6646 6647 7752 7751 6711 6712 7817 7816 
6647 6648 7753 7752 6712 6713 7818 7817 
6648 6649 7754 7753 6713 6714 7819 7818 
6649 6650 7755 7754 6714 6715 7820 7819 
6650 6651 7756 7755 6715 6716 7821 7820 
6651 6652 7757 7756 6716 6717 7822 7821 
6652 6653 7758 7757 6717 6718 7823 7822 
6653 6654 7759 7758 6718 6719 7824 7823 
6654 6655 7760 7759 6719 6720 7825 7824 
6655 6656 7761 7760 6720 6721 7826 7825 
6656 6657 7762 7761 6721 6722 7827 7826 
6657 6658 7763 7762 6722 6723 7828 7827 
6658 6659 7764 7763 6723 6724 7829 7828 
6659 6660 7765 7764 6724 6725 7830 7829 
6660 6661 7766 7765 6725 6726 7831 7830 
6661 6662 7767 7766 6726 6727 7832 7831 
6662 6663 7768 7767 6727 6728 7833 7832 
6663 6664 7769 7768 6728 6729 7834 7833 
6664 6665 7770 7769 6729 6730 7835 7834 
6665 6666 7771 7770 6730 6731 7836 7835 
6666 6667 7772 7771 6731 6732 7837 7836 
6667 6668 7773 7772 6732 6733 7838 7837 
6668 6669 7774 7773 6733 6734 7839 7838 
6669 6670 7775 7774 6734 6735 7840 7839 
6670 6671 7776 7775 6735 6736 7841 7840 
6671 6672 7777 7776 6736 6737 7842 7841 
6672 6673 7778 7777 6737 6738 7843 7842 
6673 6674 7779 7778 6738 6739 7844 7843 
6674 6675 7780 7779 6739 6740 7845 7844 
6675 6676 7781 7780 6740 6741 7846 7845 
6676 6677 7782 7781 6741 6742 7847 7846 
6677 6678 7783 7782 6742 6743 7848 7847 
6678 6679 7784 7783 6743 6744 7849 7848 
6679 6680 7785 7784 6744 6745 7850 7849 
6680 6681 7786 7785 6745 6746 7851 7850 
6681 6682 7787 7786 6746 6747 7852 7851 
6682 6683 7788 7787 6747 6748 7853 7852 
6683 6684 7789 7788 6748 6749 7854 7853 
6684 6685 7790 7789 6749 6750 7855 7854 
6685 6686 7791 7790 6750 6751 7856 7855 
6686 6687 7792 7791 6751 6752 7857 7856 
6687 6688 7793 7792 6752 6753 7858 7857 
6688 6689 7794 7793 6753 6754 7859 7858 
6689 6690 7795 7794 6754 6755 7860 7859 
6690 6691 7796 7795 6755 6756 7861 7860 
6691 6692 7797 7796 6756 6757 7862 7861 
6692 6693 7798 7797 6757 6758 7863 7862 
6693 6694 7799 7798 6758 6759 7864 7863 
6695 6696 7801 7800 6760 6761 7866 7865 
6696 6697 7802 7801 6761 6762 7867 7866 
6697 6698 7803 7802 6762 6763 7868 7867 
6698 6699 7804 7803 6763 6764 7869 7868 
6699 6700 7805 7804 6764 6765 7870 7869 
6700 6701 7806 7805 6765 6766 7871 7870 
6701 6702 7807 7806 6766 6767 7872 7871 
6702 6703 7808 7807 6767 6768 7873 7872 
6703 6704 7809 7808 6768 6769 7874 7873 
6704 6705 7810 7809 6769 6770 7875 7874 
6705 6706 7811 7810 6770 6771 7876 7875 
6706 6707 7812 7811 6771 6772 7877 7876 
6707 6708 7813 7812 6772 6773 7878 7877 
6708 6709 7814 7813 6773 6774 7879 7878 
6709 6710 7815 7814 6774 6775 7880 7879 
6710 6711 7816 7815 6775 6776 7881 7880 
6711 6712 7817 7816 6776 6777 7882 7881 
6712 6713 7818 7817 6777 6778 7883 7882 
6713 6714 7819 7818 6778 6779 7884 7883 
6714 6715 7820 7819 6779 6780 7885 7884 
6715 6716 7821 7820 6780 6781 7886 7885 
6716 6717 7822 7821 6781 6782 7887 7886 
6717 6718 7823 7822 6782 6783 7888 7887 
6718 6719 7824 7823 6783 6784 7889 7888 
6719 6720 7825 7824 6784 6785 7890 7889 
6720 6721 7826 7825 6785 6786 7891 7890 
6721 6722 7827 7826 6786 6787 7892 7891 
6722 6723 7828 7827 6787 6788 7893 7892 
6723 6724 7829 7828 6788 6789 7894 7893 
6724 6725 7830 7829 6789 6790 7895 7894 
6725 6726 7831 7830 6790 6791 7896 7895 
6726 6727 7832 7831 6791 6792 7897 7896 
6727 6728 7833 7832 6792 6793 7898 7897 
6728 6729 7834 7833 6793 6794 7899 7898 
6729 6730 7835 7834 6794 6795 7900 7899 
6730 6731 7836 7835 6795 6796 7901 7900 
6731 6732 7837 7836 6796 6797 7902 7901 
6732 6733 7838 7837 6797 6798 7903 7902 
6733 6734 7839 7838 6798 6799 7904 7903 
6734 6735 7840 7839 6799 6800 7905 7904 
6735 6736 7841 7840 6800 6801 7906 7905 
6736 6737 7842 7841 6801 6802 7907 7906 
6737 6738 7843 7842 6802 6803 7908 7907 
6738 6739 7844 7843 6803 6804 7909 7908 
6739 6740 7845 7844 6804 6805 7910 7909 
6740 6741 7846 7845 6805 6806 7911 7910 
6741 6742 7847 7846 6806 6807 7912 7911 
6742 6743 7848 7847 6807 6808 7913 7912 
6743 6744 7849 7848 6808 6809 7914 7913 
6744 6745 7850 7849 6809 6810 7915 7914 
6745 6746 7851 7850 6810 6811 7916 7915 
6746 6747 7852 7851 6811 6812 7917 7916 
6747 6748 7853 7852 6812 6813 7918 7917 
6748 6749 7854 7853 6813 6814 7919 7918 
6749 6750 7855 7854 6814 6815 7920 7919 
6750 6751 7856 7855 6815 6816 7921 7920 
6751 6752 7857 7856 6816 6817 7922 7921 
6752 6753 7858 7857 6817 6818 7923 7922 
6753 6754 7859 7858 6818 6819 7924 7923 
6754 6755 7860 7859 6819 6820 7925 7924 
6755 6756 7861 7860 6820 6821 7926 7925 
6756 6757 7862 7861 6821 6822 7927 7926 
6757 6758 7863 7862 6822 6823 7928 7927 
6758 6759 7864 7863 6823 6824 7929 7928 
6760 6761 7866 7865 6825 6826 7931 7930 
6761 6762 7867 7866 6826 6827 7932 7931 
6762 6763 7868 7867 6827 6828 7933 7932 
6763 6764 7869 7868 6828 6829 7934 7933 
6764 6765 7870 7869 6829 6830 7935 7934 
6765 6766 7871 7870 6830 6831 7936 7935 
6766 6767 7872 7871 6831 6832 7937 7936 
6767 6768 7873 7872 6832 6833 7938 7937 
6768 6769 7874 7873 6833 6834 7939 7938 
6769 6770 7875 7874 6834 6835 7940 7939 
6770 6771 7876 7875 6835 6836 7941 7940 
6771 6772 7877 7876 6836 6837 7942 7941 
6772 6773 7878 7877 6837 6838 7943 7942 
6773 6774 7879 7878 6838 6839 7944 7943 
6774 6775 7880 7879 6839 6840 7945 7944 
6775 6776 7881 7880 6840 6841 7946 7945 
6776 6777 7882 7881 6841 6842 7947 7946 
6777 6778 7883 7882 6842 6843 7948 7947 
6778 6779 7884 7883 6843 6844 7949 7948 
6779 6780 7885 7884 6844 6845 7950 7949 
6780 6781 7886 7885 6845 6846 7951 7950 
6781 6782 7887 7886 6846 6847 7952 7951 
6782 6783 7888 7887 6847 6848 7953 7952 
6783 6784 7889 7888 6848 6849 7954 7953 
6784 6785 7890 7889 6849 6850 7955 7954 
6785 6786 7891 7890 6850 6851 7956 7955 
6786 6787 7892 7891 6851 6852 7957 7956 
6787 6788 7893 7892 6852 6853 7958 7957 
6788 6789 7894 7893 6853 6854 7959 7958 
6789 6790 7895 7894 6854 6855 7960 7959 
6790 6791 7896 7895 6855 6856 7961 7960 
6791 6792 7897 7896 6856 6857 7962 7961 
6792 6793 7898 7897 6857 6858 7963 7962 
6793 6794 7899 7898 6858 6859 7964 7963 
6794 6795 7900 7899 6859 6860 7965 7964 
6795 6796 7901 7900 6860 6861 7966 7965 
6796 6797 7902 7901 6861 6862 7967 7966 
6797 6798 7903 7902 6862 6863 7968 7967 
6798 6799 7904 7903 6863 6864 7969 7968 
6799 6800 7905 7904 6864 6865 7970 7969 
6800 6801 7906 7905 6865 6866 7971 7970 
6801 6802 7907 7906 6866 6867 7972 7971 
6802 6803 7908 7907 6867 6868 7973 7972 
6803 6804 7909 7908 6868 6869 7974 7973 
6804 6805 7910 7909 6869 6870 7975 7974 
6805 6806 7911 7910 6870 6871 7976 7975 
6806 6807 7912 7911 6871 6872 7977 7976 
6807 6808 7913 7912 6872 6873 7978 7977 
6808 6809 7914 7913 6873 6874 7979 7978 
6809 6810 7915 7914 6874 6875 7980 7979 
6810 6811 7916 7915 6875 6876 7981 7980 
6811 6812 7917 7916 6876 6877 7982 7981 
6812 6813 7918 7917 6877 6878 7983 7982 
6813 6814 7919 7918 6878 6879 7984 7983 
6814 6815 7920 7919 6879 6880 7985 7984 
6815 6816 7921 7920 6880 6881 7986 7985 
6816 6817 7922 7921 6881 6882 7987 7986 
6817 6818 7923 7922 6882 6883 7988 7987 
6818 6819 7924 7923 6883 6884 7989 7988 
6819 6820 7925 7924 6884 6885 7990 7989 
6820 6821 7926 7925 6885 6886 7991 7990 
6821 6822 7927 7926 6886 6887 7992 7991 
6822 6823 7928 7927 6887 6888 7993 7992 
6823 6824 7929 7928 6888 6889 7994 7993 
6825 6826 7931 7930 6890 6891 7996 7995 
6826 6827 7932 7931 6891 6892 7997 7996 
6827 6828 7933 7932 6892 6893 7998 7997 
6828 6829 7934 7933 6893 6894 7999 7998 
6829 6830 7935 7934 6894 6895 8000 7999 
6830 6831 7936 7935 6895 6896 8001 8000 
6831 6832 7937 7936 6896 6897 8002 8001 
6832 6833 7938 7937 6897 6898 8003 8002 
6833 6834 7939 7938 6898 6899 8004 8003 
6834 6835 7940 7939 6899 6900 8005 8004 
6835 6836 7941 7940 6900 6901 8006 8005 
6836 6837 7942 7941 6901 6902 8007 8006 
6837 6838 7943 7942 6902 6903 8008 8007 
6838 6839 7944 7943 6903 6904 8009 8008 
6839 6840 7945 7944 6904 6905 8010 8009 
6840 6841 7946 7945 6905 6906 8011 8010 
6841 6842 7947 7946 6906 6907 8012 8011 
6842 6843 7948 7947 6907 6908 8013 8012 
6843 6844 7949 7948 6908 6909 8014 8013 
6844 6845 7950 7949 6909 6910 8015 8014 
6845 6846 7951 7950 6910 6911 8016 8015 
6846 6847 7952 7951 6911 6912 8017 8016 
6847 6848 7953 7952 6912 6913 8018 8017 
6848 6849 7954 7953 6913 6914 8019 8018 
6849 6850 7955 7954 6914 6915 8020 8019 
6850 6851 7956 7955 6915 6916 8021 8020 
6851 6852 7957 7956 6916 6917 8022 8021 
6852 6853 7958 7957 6917 6918 8023 8022 
6853 6854 7959 7958 6918 6919 8024 8023 
6854 6855 7960 7959 6919 6920 8025 8024 
6855 6856 7961 7960 6920 6921 8026 8025 
6856 6857 7962 7961 6921 6922 8027 8026 
6857 6858 7963 7962 6922 6923 8028 8027 
6858 6859 7964 7963 6923 6924 8029 8028 
6859 6860 7965 7964 6924 6925 8030 8029 
6860 6861 7966 7965 6925 6926 8031 8030 
6861 6862 7967 7966 6926 6927 8032 8031 
6862 6863 7968 7967 6927 6928 8033 8032 
6863 6864 7969 7968 6928 6929 8034 8033 
6864 6865 7970 7969 6929 6930 8035 8034 
6865 6866 7971 7970 6930 6931 8036 8035 
6866 6867 7972 7971 6931 6932 8037 8036 
6867 6868 7973 7972 6932 6933 8038 8037 
6868 6869 7974 7973 6933 6934 8039 8038 
6869 6870 7975 7974 6934 6935 8040 8039 
6870 6871 7976 7975 6935 6936 8041 8040 
6871 6872 7977 7976 6936 6937 8042 8041 
6872 6873 7978 7977 6937 6938 8043 8042 
6873 6874 7979 7978 6938 6939 8044 8043 
6874 6875 7980 7979 6939 6940 8045 8044 
6875 6876 7981 7980 6940 6941 8046 8045 
6876 6877 7982 7981 6941 6942 8047 8046 
6877 6878 7983 7982 6942 6943 8048 8047 
6878 6879 7984 7983 6943 6944 8049 8048 
6879 6880 7985 7984 6944 6945 8050 8049 
6880 6881 7986 7985 6945 6946 8051 8050 
6881 6882 7987 7986 6946 6947 8052 8051 
6882 6883 7988 7987 6947 6948 8053 8052 
6883 6884 7989 7988 6948 6949 8054 8053 
6884 6885 7990 7989 6949 6950 8055 8054 
6885 6886 7991 7990 6950 6951 8056 8055 
6886 6887 7992 7991 6951 6952 8057 8056 
6887 6888 7993 7992 6952 6953 8058 8057 
6888 6889 7994 7993 6953 6954 8059 8058 
6890 6891 7996 7995 6955 6956 8061 8060 
6891 6892 7997 7996 6956 6957 8062 8061 
6892 6893 7998 7997 6957 6958 8063 8062 
6893 6894 7999 7998 6958 6959 8064 8063 
6894 6895 8000 7999 6959 6960 8065 8064 
6895 6896 8001 8000 6960 6961 8066 8065 
6896 6897 8002 8001 6961 6962 8067 8066 
6897 6898 8003 8002 6962 6963 8068 8067 
6898 6899 8004 8003 6963 6964 8069 8068 
6899 6900 8005 8004 6964 6965 8070 8069 
6900 6901 8006 8005 6965 6966 8071 8070 
6901 6902 8007 8006 6966 6967 8072 8071 
6902 6903 8008 8007 6967 6968 8073 8072 
6903 6904 8009 8008 6968 6969 8074 8073 
6904 6905 8010 8009 6969 6970 8075 8074 
6905 6906 8011 8010 6970 6971 8076 8075 
6906 6907 8012 8011 6971 6972 8077 8076 
6907 6908 8013 8012 6972 6973 8078 8077 
6908 6909 8014 8013 6973 6974 8079 8078 
6909 6910 8015 8014 6974 6975 8080 8079 
6910 6911 8016 8015 6975 6976 8081 8080 
6911 6912 8017 8016 6976 6977 8082 8081 
6912 6913 8018 8017 6977 6978 8083 8082 
6913 6914 8019 8018 6978 6979 8084 8083 
6914 6915 8020 8019 6979 6980 8085 8084 
6915 6916 8021 8020 6980 6981 8086 8085 
6916 6917 8022 8021 6981 6982 8087 8086 
6917 6918 8023 8022 6982 6983 8088 8087 
6918 6919 8024 8023 6983 6984 8089 8088 
6919 6920 8025 8024 6984 6985 8090 8089 
6920 6921 8026 8025 6985 6986 8091 8090 
6921 6922 8027 8026 6986 6987 8092 8091 
6922 6923 8028 8027 6987 6988 8093 8092 
6923 6924 8029 8028 6988 6989 8094 8093 
6924 6925 8030 8029 6989 6990 8095 8094 
6925 6926 8031 8030 6990 6991 8096 8095 
6926 6927 8032 8031 6991 6992 8097 8096 
6927 6928 8033 8032 6992 6993 8098 8097 
6928 6929 8034 8033 6993 6994 8099 8098 
6929 6930 8035 8034 6994 6995 8100 8099 
6930 6931 8036 8035 6995 6996 8101 8100 
6931 6932 8037 8036 6996 6997 8102 8101 
6932 6933 8038 8037 6997 6998 8103 8102 
6933 6934 8039 8038 6998 6999 8104 8103 
6934 6935 8040 8039 6999 7000 8105 8104 
6935 6936 8041 8040 7000 7001 8106 8105 
6936 6937 8042 8041 7001 7002 8107 8106 
6937 6938 8043 8042 7002 7003 8108 8107 
6938 6939 8044 8043 7003 7004 8109 8108 
6939 6940 8045 8044 7004 7005 8110 8109 
6940 6941 8046 8045 7005 7006 8111 8110 
6941 6942 8047 8046 7006 7007 8112 8111 
6942 6943 8048 8047 7007 7008 8113 8112 
6943 6944 8049 8048 7008 7009 8114 8113 
6944 6945 8050 8049 7009 7010 8115 8114 
6945 6946 8051 8050 7010 7011 8116 8115 
6946 6947 8052 8051 7011 7012 8117 8116 
6947 6948 8053 8052 7012 7013 8118 8117 
6948 6949 8054 8053 7013 7014 8119 8118 
6949 6950 8055 8054 7014 7015 8120 8119 
6950 6951 8056 8055 7015 7016 8121 8120 
6951 6952 8057 8056 7016 7017 8122 8121 
6952 6953 8058 8057 7017 7018 8123 8122 
6953 6954 8059 8058 7018 7019 8124 8123 
6955 6956 8061 8060 7020 7021 8126 8125 
6956 6957 8062 8061 7021 7022 8127 8126 
6957 6958 8063 8062 7022 7023 8128 8127 
6958 6959 8064 8063 7023 7024 8129 8128 
6959 6960 8065 8064 7024 7025 8130 8129 
6960 6961 8066 8065 7025 7026 8131 8130 
6961 6962 8067 8066 7026 7027 8132 8131 
6962 6963 8068 8067 7027 7028 8133 8132 
6963 6964 8069 8068 7028 7029 8134 8133 
6964 6965 8070 8069 7029 7030 8135 8134 
6965 6966 8071 8070 7030 7031 8136 8135 
6966 6967 8072 8071 7031 7032 8137 8136 
6967 6968 8073 8072 7032 7033 8138 8137 
6968 6969 8074 8073 7033 7034 8139 8138 
6969 6970 8075 8074 7034 7035 8140 8139 
6970 6971 8076 8075 7035 7036 8141 8140 
6971 6972 8077 8076 7036 7037 8142 8141 
6972 6973 8078 8077 7037 7038 8143 8142 
6973 6974 8079 8078 7038 7039 8144 8143 
6974 6975 8080 8079 7039 7040 8145 8144 
6975 6976 8081 8080 7040 7041 8146 8145 
6976 6977 8082 8081 7041 7042 8147 8146 
6977 6978 8083 8082 7042 7043 8148 8147 
6978 6979 8084 8083 7043 7044 8149 8148 
6979 6980 8085 8084 7044 7045 8150 8149 
6980 6981 8086 8085 7045 7046 8151 8150 
6981 6982 8087 8086 7046 7047 8152 8151 
6982 6983 8088 8087 7047 7048 8153 8152 
6983 6984 8089 8088 7048 7049 8154 8153 
6984 6985 8090 8089 7049 7050 8155 8154 
6985 6986 8091 8090 7050 7051 8156 8155 
6986 6987 8092 8091 7051 7052 8157 8156 
6987 6988 8093 8092 7052 7053 8158 8157 
6988 6989 8094 8093 7053 7054 8159 8158 
6989 6990 8095 8094 7054 7055 8160 8159 
6990 6991 8096 8095 7055 7056 8161 8160 
6991 6992 8097 8096 7056 7057 8162 8161 
6992 6993 8098 8097 7057 7058 8163 8162 
6993 6994 8099 8098 7058 7059 8164 8163 
6994 6995 8100 8099 7059 7060 8165 8164 
6995 6996 8101 8100 7060 7061 8166 8165 
6996 6997 8102 8101 7061 7062 8167 8166 
6997 6998 8103 8102 7062 7063 8168 8167 
6998 6999 8104 8103 7063 7064 8169 8168 
6999 7000 8105 8104 7064 7065 8170 8169 
7000 7001 8106 8105 7065 7066 8171 8170 
7001 7002 8107 8106 7066 7067 8172 8171 
7002 7003 8108 8107 7067 7068 8173 8172 
7003 7004 8109 8108 7068 7069 8174 8173 
7004 7005 8110 8109 7069 7070 8175 8174 
7005 7006 8111 8110 7070 7071 8176 8175 
7006 7007 8112 8111 7071 7072 8177 8176 
7007 7008 8113 8112 7072 7073 8178 8177 
7008 7009 8114 8113 7073 7074 8179 8178 
7009 7010 8115 8114 7074 7075 8180 8179 
7010 7011 8116 8115 7075 7076 8181 8180 
7011 7012 8117 8116 7076 7077 8182 8181 
7012 7013 8118 8117 7077 7078 8183 8182 
7013 7014 8119 8118 7078 7079 8184 8183 
7014 7015 8120 8119 7079 7080 8185 8184 
7015 7016 8121 8120 7080 7081 8186 8185 
7016 7017 8122 8121 7081 7082 8187 8186 
7017 7018 8123 8122 7082 7083 8188 8187 
7018 7019 8124 8123 7083 7084 8189 8188 
7020 7021 8126 8125 7085 7086 8191 8190 
7021 7022 8127 8126 7086 7087 8192 8191 
7022 7023 8128 8127 7087 7088 8193 8192 
7023 7024 8129 8128 7088 7089 8194 8193 
7024 7025 8130 8129 7089 7090 8195 8194 
7025 7026 8131 8130 7090 7091 8196 8195 
7026 7027 8132 8131 7091 7092 8197 8196 
7027 7028 8133 8132 7092 7093 8198 8197 
7028 7029 8134 8133 7093 7094 8199 8198 
7029 7030 8135 8134 7094 7095 8200 8199 
7030 7031 8136 8135 7095 7096 8201 8200 
7031 7032 8137 8136 7096 7097 8202 8201 
7032 7033 8138 8137 7097 7098 8203 8202 
7033 7034 8139 8138 7098 7099 8204 8203 
7034 7035 8140 8139 7099 7100 8205 8204 
7035 7036 8141 8140 7100 7101 8206 8205 
7036 7037 8142 8141 7101 7102 8207 8206 
7037 7038 8143 8142 7102 7103 8208 8207 
7038 7039 8144 8143 7103 7104 8209 8208 
7039 7040 8145 8144 7104 7105 8210 8209 
7040 7041 8146 8145 7105 7106 8211 8210 
7041 7042 8147 8146 7106 7107 8212 8211 
7042 7043 8148 8147 7107 7108 8213 8212 
7043 7044 8149 8148 7108 7109 8214 8213 
7044 7045 8150 8149 7109 7110 8215 8214 
7045 7046 8151 8150 7110 7111 8216 8215 
7046 7047 8152 8151 7111 7112 8217 8216 
7047 7048 8153 8152 7112 7113 8218 8217 
7048 7049 8154 8153 7113 7114 8219 8218 
7049 7050 8155 8154 7114 7115 8220 8219 
7050 7051 8156 8155 7115 7116 8221 8220 
7051 7052 8157 8156 7116 7117 8222 8221 
7052 7053 8158 8157 7117 7118 8223 8222 
7053 7054 8159 8158 7118 7119 8224 8223 
7054 7055 8160 8159 7119 7120 8225 8224 
7055 7056 8161 8160 7120 7121 8226 8225 
7056 7057 8162 8161 7121 7122 8227 8226 
7057 7058 8163 8162 7122 7123 8228 8227 
7058 7059 8164 8163 7123 7124 8229 8228 
7059 7060 8165 8164 7124 7125 8230 8229 
7060 7061 8166 8165 7125 7126 8231 8230 
7061 7062 8167 8166 7126 7127 8232 8231 
7062 7063 8168 8167 7127 7128 8233 8232 
7063 7064 8169 8168 7128 7129 8234 8233 
7064 7065 8170 8169 7129 7130 8235 8234 
7065 7066 8171 8170 7130 7131 8236 8235 
7066 7067 8172 8171 7131 7132 8237 8236 
7067 7068 8173 8172 7132 7133 8238 8237 
7068 7069 8174 8173 7133 7134 8239 8238 
7069 7070 8175 8174 7134 7135 8240 8239 
7070 7071 8176 8175 7135 7136 8241 8240 
7071 7072 8177 8176 7136 7137 8242 8241 
7072 7073 8178 8177 7137 7138 8243 8242 
7073 7074 8179 8178 7138 7139 8244 8243 
7074 7075 8180 8179 7139 7140 8245 8244 
7075 7076 8181 8180 7140 7141 8246 8245 
7076 7077 8182 8181 7141 7142 8247 8246 
7077 7078 8183 8182 7142 7143 8248 8247 
7078 7079 8184 8183 7143 7144 8249 8248 
7079 7080 8185 8184 7144 7145 8250 8249 
7080 7081 8186 8185 7145 7146 8251 8250 
7081 7082 8187 8186 7146 7147 8252 8251 
7082 7083 8188 8187 7147 7148 8253 8252 
7083 7084 8189 8188 7148 7149 8254 8253 
7085 7086 8191 8190 7150 7151 8256 8255 
7086 7087 8192 8191 7151 7152 8257 8256 
7087 7088 8193 8192 7152 7153 8258 8257 
7088 7089 8194 8193 7153 7154 8259 8258 
7089 7090 8195 8194 7154 7155 8260 8259 
7090 7091 8196 8195 7155 7156 8261 8260 
7091 7092 8197 8196 7156 7157 8262 8261 
7092 7093 8198 8197 7157 7158 8263 8262 
7093 7094 8199 8198 7158 7159 8264 8263 
7094 7095 8200 8199 7159 7160 8265 8264 
7095 7096 8201 8200 7160 7161 8266 8265 
7096 7097 8202 8201 7161 7162 8267 8266 
7097 7098 8203 8202 7162 7163 8268 8267 
7098 7099 8204 8203 7163 7164 8269 8268 
7099 7100 8205 8204 7164 7165 8270 8269 
7100 7101 8206 8205 7165 7166 8271 8270 
7101 7102 8207 8206 7166 7167 8272 8271 
7102 7103 8208 8207 7167 7168 8273 8272 
7103 7104 8209 8208 7168 7169 8274 8273 
7104 7105 8210 8209 7169 7170 8275 8274 
7105 7106 8211 8210 7170 7171 8276 8275 
7106 7107 8212 8211 7171 7172 8277 8276 
7107 7108 8213 8212 7172 7173 8278 8277 
7108 7109 8214 8213 7173 7174 8279 8278 
7109 7110 8215 8214 7174 7175 8280 8279 
7110 7111 8216 8215 7175 7176 8281 8280 
7111 7112 8217 8216 7176 7177 8282 8281 
7112 7113 8218 8217 7177 7178 8283 8282 
7113 7114 8219 8218 7178 7179 8284 8283 
7114 7115 8220 8219 7179 7180 8285 8284 
7115 7116 8221 8220 7180 7181 8286 8285 
7116 7117 8222 8221 7181 7182 8287 8286 
7117 7118 8223 8222 7182 7183 8288 8287 
7118 7119 8224 8223 7183 7184 8289 8288 
7119 7120 8225 8224 7184 7185 8290 8289 
7120 7121 8226 8225 7185 7186 8291 8290 
7121 7122 8227 8226 7186 7187 8292 8291 
7122 7123 8228 8227 7187 7188 8293 8292 
7123 7124 8229 8228 7188 7189 8294 8293 
7124 7125 8230 8229 7189 7190 8295 8294 
7125 7126 8231 8230 7190 7191 8296 8295 
7126 7127 8232 8231 7191 7192 8297 8296 
7127 7128 8233 8232 7192 7193 8298 8297 
7128 7129 8234 8233 7193 7194 8299 8298 
7129 7130 8235 8234 7194 7195 8300 8299 
7130 7131 8236 8235 7195 7196 8301 8300 
7131 7132 8237 8236 7196 7197 8302 8301 
7132 7133 8238 8237 7197 7198 8303 8302 
7133 7134 8239 8238 7198 7199 8304 8303 
7134 7135 8240 8239 7199 7200 8305 8304 
7135 7136 8241 8240 7200 7201 8306 8305 
7136 7137 8242 8241 7201 7202 8307 8306 
7137 7138 8243 8242 7202 7203 8308 8307 
7138 7139 8244 8243 7203 7204 8309 8308 
7139 7140 8245 8244 7204 7205 8310 8309 
7140 7141 8246 8245 7205 7206 8311 8310 
7141 7142 8247 8246 7206 7207 8312 8311 
7142 7143 8248 8247 7207 7208 8313 8312 
7143 7144 8249 8248 7208 7209 8314 8313 
7144 7145 8250 8249 7209 7210 8315 8314 
7145 7146 8251 8250 7210 7211 8316 8315 
7146 7147 8252 8251 7211 7212 8317 8316 
7147 7148 8253 8252 7212 7213 8318 8317 
7148 7149 8254 8253 7213 7214 8319 8318 
7150 7151 8256 8255 7215 7216 8321 8320 
7151 7152 8257 8256 7216 7217 8322 8321 
7152 7153 8258 8257 7217 7218 8323 8322 
7153 7154 8259 8258 7218 7219 8324 8323 
7154 7155 8260 8259 7219 7220 8325 8324 
7155 7156 8261 8260 7220 7221 8326 8325 
7156 7157 8262 8261 7221 7222 8327 8326 
7157 7158 8263 8262 7222 7223 8328 8327 
7158 7159 8264 8263 7223 7224 8329 8328 
7159 7160 8265 8264 7224 7225 8330 8329 
7160 7161 8266 8265 7225 7226 8331 8330 
7161 7162 8267 8266 7226 7227 8332 8331 
7162 7163 8268 8267 7227 7228 8333 8332 
7163 7164 8269 8268 7228 7229 8334 8333 
7164 7165 8270 8269 7229 7230 8335 8334 
7165 7166 8271 8270 7230 7231 8336 8335 
7166 7167 8272 8271 7231 7232 8337 8336 
7167 7168 8273 8272 7232 7233 8338 8337 
7168 7169 8274 8273 7233 7234 8339 8338 
7169 7170 8275 8274 7234 7235 8340 8339 
7170 7171 8276 8275 7235 7236 8341 8340 
7171 7172 8277 8276 7236 7237 8342 8341 
7172 7173 8278 8277 7237 7238 8343 8342 
7173 7174 8279 8278 7238 7239 8344 8343 
7174 7175 8280 8279 7239 7240 8345 8344 
7175 7176 8281 8280 7240 7241 8346 8345 
7176 7177 8282 8281 7241 7242 8347 8346 
7177 7178 8283 8282 7242 7243 8348 8347 
7178 7179 8284 8283 7243 7244 8349 8348 
7179 7180 8285 8284 7244 7245 8350 8349 
7180 7181 8286 8285 7245 7246 8351 8350 
7181 7182 8287 8286 7246 7247 8352 8351 
7182 7183 8288 8287 7247 7248 8353 8352 
7183 7184 8289 8288 7248 7249 8354 8353 
7184 7185 8290 8289 7249 7250 8355 8354 
7185 7186 8291 8290 7250 7251 8356 8355 
7186 7187 8292 8291 7251 7252 8357 8356 
7187 7188 8293 8292 7252 7253 8358 8357 
7188 7189 8294 8293 7253 7254 8359 8358 
7189 7190 8295 8294 7254 7255 8360 8359 
7190 7191 8296 8295 7255 7256 8361 8360 
7191 7192 8297 8296 7256 7257 8362 8361 
7192 7193 8298 8297 7257 7258 8363 8362 
7193 7194 8299 8298 7258 7259 8364 8363 
7194 7195 8300 8299 7259 7260 8365 8364 
7195 7196 8301 8300 7260 7261 8366 8365 
7196 7197 8302 8301 7261 7262 8367 8366 
7197 7198 8303 8302 7262 7263 8368 8367 
7198 7199 8304 8303 7263 7264 8369 8368 
7199 7200 8305 8304 7264 7265 8370 8369 
7200 7201 8306 8305 7265 7266 8371 8370 
7201 7202 8307 8306 7266 7267 8372 8371 
7202 7203 8308 8307 7267 7268 8373 8372 
7203 7204 8309 8308 7268 7269 8374 8373 
7204 7205 8310 8309 7269 7270 8375 8374 
7205 7206 8311 8310 7270 7271 8376 8375 
7206 7207 8312 8311 7271 7272 8377 8376 
7207 7208 8313 8312 7272 7273 8378 8377 
7208 7209 8314 8313 7273 7274 8379 8378 
7209 7210 8315 8314 7274 7275 8380 8379 
7210 7211 8316 8315 7275 7276 8381 8380 
7211 7212 8317 8316 7276 7277 8382 8381 
7212 7213 8318 8317 7277 7278 8383 8382 
7213 7214 8319 8318 7278 7279 8384 8383 
7215 7216 8321 8320 7280 7281 8386 8385 
7216 7217 8322 8321 7281 7282 8387 8386 
7217 7218 8323 8322 7282 7283 8388 8387 
7218 7219 8324 8323 7283 7284 8389 8388 
7219 7220 8325 8324 7284 7285 8390 8389 
7220 7221 8326 8325 7285 7286 8391 8390 
7221 7222 8327 8326 7286 7287 8392 8391 
7222 7223 8328 8327 7287 7288 8393 8392 
7223 7224 8329 8328 7288 7289 8394 8393 
7224 7225 8330 8329 7289 7290 8395 8394 
7225 7226 8331 8330 7290 7291 8396 8395 
7226 7227 8332 8331 7291 7292 8397 8396 
7227 7228 8333 8332 7292 7293 8398 8397 
7228 7229 8334 8333 7293 7294 8399 8398 
7229 7230 8335 8334 7294 7295 8400 8399 
7230 7231 8336 8335 7295 7296 8401 8400 
7231 7232 8337 8336 7296 7297 8402 8401 
7232 7233 8338 8337 7297 7298 8403 8402 
7233 7234 8339 8338 7298 7299 8404 8403 
7234 7235 8340 8339 7299 7300 8405 8404 
7235 7236 8341 8340 7300 7301 8406 8405 
7236 7237 8342 8341 7301 7302 8407 8406 
7237 7238 8343 8342 7302 7303 8408 8407 
7238 7239 8344 8343 7303 7304 8409 8408 
7239 7240 8345 8344 7304 7305 8410 8409 
7240 7241 8346 8345 7305 7306 8411 8410 
7241 7242 8347 8346 7306 7307 8412 8411 
7242 7243 8348 8347 7307 7308 8413 8412 
7243 7244 8349 8348 7308 7309 8414 8413 
7244 7245 8350 8349 7309 7310 8415 8414 
7245 7246 8351 8350 7310 7311 8416 8415 
7246 7247 8352 8351 7311 7312 8417 8416 
7247 7248 8353 8352 7312 7313 8418 8417 
7248 7249 8354 8353 7313 7314 8419 8418 
7249 7250 8355 8354 7314 7315 8420 8419 
7250 7251 8356 8355 7315 7316 8421 8420 
7251 7252 8357 8356 7316 7317 8422 8421 
7252 7253 8358 8357 7317 7318 8423 8422 
7253 7254 8359 8358 7318 7319 8424 8423 
7254 7255 8360 8359 7319 7320 8425 8424 
7255 7256 8361 8360 7320 7321 8426 8425 
7256 7257 8362 8361 7321 7322 8427 8426 
7257 7258 8363 8362 7322 7323 8428 8427 
7258 7259 8364 8363 7323 7324 8429 8428 
7259 7260 8365 8364 7324 7325 8430 8429 
7260 7261 8366 8365 7325 7326 8431 8430 
7261 7262 8367 8366 7326 7327 8432 8431 
7262 7263 8368 8367 7327 7328 8433 8432 
7263 7264 8369 8368 7328 7329 8434 8433 
7264 7265 8370 8369 7329 7330 8435 8434 
7265 7266 8371 8370 7330 7331 8436 8435 
7266 7267 8372 8371 7331 7332 8437 8436 
7267 7268 8373 8372 7332 7333 8438 8437 
7268 7269 8374 8373 7333 7334 8439 8438 
7269 7270 8375 8374 7334 7335 8440 8439 
7270 7271 8376 8375 7335 7336 8441 8440 
7271 7272 8377 8376 7336 7337 8442 8441 
7272 7273 8378 8377 7337 7338 8443 8442 
7273 7274 8379 8378 7338 7339 8444 8443 
7274 7275 8380 8379 7339 7340 8445 8444 
7275 7276 8381 8380 7340 7341 8446 8445 
7276 7277 8382 8381 7341 7342 8447 8446 
7277 7278 8383 8382 7342 7343 8448 8447 
7278 7279 8384 8383 7343 7344 8449 8448 
7280 7281 8386 8385 7345 7346 8451 8450 
7281 7282 8387 8386 7346 7347 8452 8451 
7282 7283 8388 8387 7347 7348 8453 8452 
7283 7284 8389 8388 7348 7349 8454 8453 
7284 7285 8390 8389 7349 7350 8455 8454 
7285 7286 8391 8390 7350 7351 8456 8455 
7286 7287 8392 8391 7351 7352 8457 8456 
7287 7288 8393 8392 7352 7353 8458 8457 
7288 7289 8394 8393 7353 7354 8459 8458 
7289 7290 8395 8394 7354 7355 8460 8459 
7290 7291 8396 8395 7355 7356 8461 8460 
7291 7292 8397 8396 7356 7357 8462 8461 
7292 7293 8398 8397 7357 7358 8463 8462 
7293 7294 8399 8398 7358 7359 8464 8463 
7294 7295 8400 8399 7359 7360 8465 8464 
7295 7296 8401 8400 7360 7361 8466 8465 
7296 7297 8402 8401 7361 7362 8467 8466 
7297 7298 8403 8402 7362 7363 8468 8467 
7298 7299 8404 8403 7363 7364 8469 8468 
7299 7300 8405 8404 7364 7365 8470 8469 
7300 7301 8406 8405 7365 7366 8471 8470 
7301 7302 8407 8406 7366 7367 8472 8471 
7302 7303 8408 8407 7367 7368 8473 8472 
7303 7304 8409 8408 7368 7369 8474 8473 
7304 7305 8410 8409 7369 7370 8475 8474 
7305 7306 8411 8410 7370 7371 8476 8475 
7306 7307 8412 8411 7371 7372 8477 8476 
7307 7308 8413 8412 7372 7373 8478 8477 
7308 7309 8414 8413 7373 7374 8479 8478 
7309 7310 8415 8414 7374 7375 8480 8479 
7310 7311 8416 8415 7375 7376 8481 8480 
7311 7312 8417 8416 7376 7377 8482 8481 
7312 7313 8418 8417 7377 7378 8483 8482 
7313 7314 8419 8418 7378 7379 8484 8483 
7314 7315 8420 8419 7379 7380 8485 8484 
7315 7316 8421 8420 7380 7381 8486 8485 
7316 7317 8422 8421 7381 7382 8487 8486 
7317 7318 8423 8422 7382 7383 8488 8487 
7318 7319 8424 8423 7383 7384 8489 8488 
7319 7320 8425 8424 7384 7385 8490 8489 
7320 7321 8426 8425 7385 7386 8491 8490 
7321 7322 8427 8426 7386 7387 8492 8491 
7322 7323 8428 8427 7387 7388 8493 8492 
7323 7324 8429 8428 7388 7389 8494 8493 
7324 7325 8430 8429 7389 7390 8495 8494 
7325 7326 8431 8430 7390 7391 8496 8495 
7326 7327 8432 8431 7391 7392 8497 8496 
7327 7328 8433 8432 7392 7393 8498 8497 
7328 7329 8434 8433 7393 7394 8499 8498 
7329 7330 8435 8434 7394 7395 8500 8499 
7330 7331 8436 8435 7395 7396 8501 8500 
7331 7332 8437 8436 7396 7397 8502 8501 
7332 7333 8438 8437 7397 7398 8503 8502 
7333 7334 8439 8438 7398 7399 8504 8503 
7334 7335 8440 8439 7399 7400 8505 8504 
7335 7336 8441 8440 7400 7401 8506 8505 
7336 7337 8442 8441 7401 7402 8507 8506 
7337 7338 8443 8442 7402 7403 8508 8507 
7338 7339 8444 8443 7403 7404 8509 8508 
7339 7340 8445 8444 7404 7405 8510 8509 
7340 7341 8446 8445 7405 7406 8511 8510 
7341 7342 8447 8446 7406 7407 8512 8511 
7342 7343 8448 8447 7407 7408 8513 8512 
7343 7344 8449 8448 7408 7409 8514 8513 
7345 7346 8451 8450 7410 7411 8516 8515 
7346 7347 8452 8451 7411 7412 8517 8516 
7347 7348 8453 8452 7412 7413 8518 8517 
7348 7349 8454 8453 7413 7414 8519 8518 
7349 7350 8455 8454 7414 7415 8520 8519 
7350 7351 8456 8455 7415 7416 8521 8520 
7351 7352 8457 8456 7416 7417 8522 8521 
7352 7353 8458 8457 7417 7418 8523 8522 
7353 7354 8459 8458 7418 7419 8524 8523 
7354 7355 8460 8459 7419 7420 8525 8524 
7355 7356 8461 8460 7420 7421 8526 8525 
7356 7357 8462 8461 7421 7422 8527 8526 
7357 7358 8463 8462 7422 7423 8528 8527 
7358 7359 8464 8463 7423 7424 8529 8528 
7359 7360 8465 8464 7424 7425 8530 8529 
7360 7361 8466 8465 7425 7426 8531 8530 
7361 7362 8467 8466 7426 7427 8532 8531 
7362 7363 8468 8467 7427 7428 8533 8532 
7363 7364 8469 8468 7428 7429 8534 8533 
7364 7365 8470 8469 7429 7430 8535 8534 
7365 7366 8471 8470 7430 7431 8536 8535 
7366 7367 8472 8471 7431 7432 8537 8536 
7367 7368 8473 8472 7432 7433 8538 8537 
7368 7369 8474 8473 7433 7434 8539 8538 
7369 7370 8475 8474 7434 7435 8540 8539 
7370 7371 8476 8475 7435 7436 8541 8540 
7371 7372 8477 8476 7436 7437 8542 8541 
7372 7373 8478 8477 7437 7438 8543 8542 
7373 7374 8479 8478 7438 7439 8544 8543 
7374 7375 8480 8479 7439 7440 8545 8544 
7375 7376 8481 8480 7440 7441 8546 8545 
7376 7377 8482 8481 7441 7442 8547 8546 
7377 7378 8483 8482 7442 7443 8548 8547 
7378 7379 8484 8483 7443 7444 8549 8548 
7379 7380 8485 8484 7444 7445 8550 8549 
7380 7381 8486 8485 7445 7446 8551 8550 
7381 7382 8487 8486 7446 7447 8552 8551 
7382 7383 8488 8487 7447 7448 8553 8552 
7383 7384 8489 8488 7448 7449 8554 8553 
7384 7385 8490 8489 7449 7450 8555 8554 
7385 7386 8491 8490 7450 7451 8556 8555 
7386 7387 8492 8491 7451 7452 8557 8556 
7387 7388 8493 8492 7452 7453 8558 8557 
7388 7389 8494 8493 7453 7454 8559 8558 
7389 7390 8495 8494 7454 7455 8560 8559 
7390 7391 8496 8495 7455 7456 8561 8560 
7391 7392 8497 8496 7456 7457 8562 8561 
7392 7393 8498 8497 7457 7458 8563 8562 
7393 7394 8499 8498 7458 7459 8564 8563 
7394 7395 8500 8499 7459 7460 8565 8564 
7395 7396 8501 8500 7460 7461 8566 8565 
7396 7397 8502 8501 7461 7462 8567 8566 
7397 7398 8503 8502 7462 7463 8568 8567 
7398 7399 8504 8503 7463 7464 8569 8568 
7399 7400 8505 8504 7464 7465 8570 8569 
7400 7401 8506 8505 7465 7466 8571 8570 
7401 7402 8507 8506 7466 7467 8572 8571 
7402 7403 8508 8507 7467 7468 8573 8572 
7403 7404 8509 8508 7468 7469 8574 8573 
7404 7405 8510 8509 7469 7470 8575 8574 
7405 7406 8511 8510 7470 7471 8576 8575 
7406 7407 8512 8511 7471 7472 8577 8576 
7407 7408 8513 8512 7472 7473 8578 8577 
7408 7409 8514 8513 7473 7474 8579 8578 
7410 7411 8516 8515 7475 7476 8581 8580 
7411 7412 8517 8516 7476 7477 8582 8581 
7412 7413 8518 8517 7477 7478 8583 8582 
7413 7414 8519 8518 7478 7479 8584 8583 
7414 7415 8520 8519 7479 7480 8585 8584 
7415 7416 8521 8520 7480 7481 8586 8585 
7416 7417 8522 8521 7481 7482 8587 8586 
7417 7418 8523 8522 7482 7483 8588 8587 
7418 7419 8524 8523 7483 7484 8589 8588 
7419 7420 8525 8524 7484 7485 8590 8589 
7420 7421 8526 8525 7485 7486 8591 8590 
7421 7422 8527 8526 7486 7487 8592 8591 
7422 7423 8528 8527 7487 7488 8593 8592 
7423 7424 8529 8528 7488 7489 8594 8593 
7424 7425 8530 8529 7489 7490 8595 8594 
7425 7426 8531 8530 7490 7491 8596 8595 
7426 7427 8532 8531 7491 7492 8597 8596 
7427 7428 8533 8532 7492 7493 8598 8597 
7428 7429 8534 8533 7493 7494 8599 8598 
7429 7430 8535 8534 7494 7495 8600 8599 
7430 7431 8536 8535 7495 7496 8601 8600 
7431 7432 8537 8536 7496 7497 8602 8601 
7432 7433 8538 8537 7497 7498 8603 8602 
7433 7434 8539 8538 7498 7499 8604 8603 
7434 7435 8540 8539 7499 7500 8605 8604 
7435 7436 8541 8540 7500 7501 8606 8605 
7436 7437 8542 8541 7501 7502 8607 8606 
7437 7438 8543 8542 7502 7503 8608 8607 
7438 7439 8544 8543 7503 7504 8609 8608 
7439 7440 8545 8544 7504 7505 8610 8609 
7440 7441 8546 8545 7505 7506 8611 8610 
7441 7442 8547 8546 7506 7507 8612 8611 
7442 7443 8548 8547 7507 7508 8613 8612 
7443 7444 8549 8548 7508 7509 8614 8613 
7444 7445 8550 8549 7509 7510 8615 8614 
7445 7446 8551 8550 7510 7511 8616 8615 
7446 7447 8552 8551 7511 7512 8617 8616 
7447 7448 8553 8552 7512 7513 8618 8617 
7448 7449 8554 8553 7513 7514 8619 8618 
7449 7450 8555 8554 7514 7515 8620 8619 
7450 7451 8556 8555 7515 7516 8621 8620 
7451 7452 8557 8556 7516 7517 8622 8621 
7452 7453 8558 8557 7517 7518 8623 8622 
7453 7454 8559 8558 7518 7519 8624 8623 
7454 7455 8560 8559 7519 7520 8625 8624 
7455 7456 8561 8560 7520 7521 8626 8625 
7456 7457 8562 8561 7521 7522 8627 8626 
7457 7458 8563 8562 7522 7523 8628 8627 
7458 7459 8564 8563 7523 7524 8629 8628 
7459 7460 8565 8564 7524 7525 8630 8629 
7460 7461 8566 8565 7525 7526 8631 8630 
7461 7462 8567 8566 7526 7527 8632 8631 
7462 7463 8568 8567 7527 7528 8633 8632 
7463 7464 8569 8568 7528 7529 8634 8633 
7464 7465 8570 8569 7529 7530 8635 8634 
7465 7466 8571 8570 7530 7531 8636 8635 
7466 7467 8572 8571 7531 7532 8637 8636 
7467 7468 8573 8572 7532 7533 8638 8637 
7468 7469 8574 8573 7533 7534 8639 8638 
7469 7470 8575 8574 7534 7535 8640 8639 
7470 7471 8576 8575 7535 7536 8641 8640 
7471 7472 8577 8576 7536 7537 8642 8641 
7472 7473 8578 8577 7537 7538 8643 8642 
7473 7474 8579 8578 7538 7539 8644 8643 
7475 7476 8581 8580 7540 7541 8646 8645 
7476 7477 8582 8581 7541 7542 8647 8646 
7477 7478 8583 8582 7542 7543 8648 8647 
7478 7479 8584 8583 7543 7544 8649 8648 
7479 7480 8585 8584 7544 7545 8650 8649 
7480 7481 8586 8585 7545 7546 8651 8650 
7481 7482 8587 8586 7546 7547 8652 8651 
7482 7483 8588 8587 7547 7548 8653 8652 
7483 7484 8589 8588 7548 7549 8654 8653 
7484 7485 8590 8589 7549 7550 8655 8654 
7485 7486 8591 8590 7550 7551 8656 8655 
7486 7487 8592 8591 7551 7552 8657 8656 
7487 7488 8593 8592 7552 7553 8658 8657 
7488 7489 8594 8593 7553 7554 8659 8658 
7489 7490 8595 8594 7554 7555 8660 8659 
7490 7491 8596 8595 7555 7556 8661 8660 
7491 7492 8597 8596 7556 7557 8662 8661 
7492 7493 8598 8597 7557 7558 8663 8662 
7493 7494 8599 8598 7558 7559 8664 8663 
7494 7495 8600 8599 7559 7560 8665 8664 
7495 7496 8601 8600 7560 7561 8666 8665 
7496 7497 8602 8601 7561 7562 8667 8666 
7497 7498 8603 8602 7562 7563 8668 8667 
7498 7499 8604 8603 7563 7564 8669 8668 
7499 7500 8605 8604 7564 7565 8670 8669 
7500 7501 8606 8605 7565 7566 8671 8670 
7501 7502 8607 8606 7566 7567 8672 8671 
7502 7503 8608 8607 7567 7568 8673 8672 
7503 7504 8609 8608 7568 7569 8674 8673 
7504 7505 8610 8609 7569 7570 8675 8674 
7505 7506 8611 8610 7570 7571 8676 8675 
7506 7507 8612 8611 7571 7572 8677 8676 
7507 7508 8613 8612 7572 7573 8678 8677 
7508 7509 8614 8613 7573 7574 8679 8678 
7509 7510 8615 8614 7574 7575 8680 8679 
7510 7511 8616 8615 7575 7576 8681 8680 
7511 7512 8617 8616 7576 7577 8682 8681 
7512 7513 8618 8617 7577 7578 8683 8682 
7513 7514 8619 8618 7578 7579 8684 8683 
7514 7515 8620 8619 7579 7580 8685 8684 
7515 7516 8621 8620 7580 7581 8686 8685 
7516 7517 8622 8621 7581 7582 8687 8686 
7517 7518 8623 8622 7582 7583 8688 8687 
7518 7519 8624 8623 7583 7584 8689 8688 
7519 7520 8625 8624 7584 7585 8690 8689 
7520 7521 8626 8625 7585 7586 8691 8690 
7521 7522 8627 8626 7586 7587 8692 8691 
7522 7523 8628 8627 7587 7588 8693 8692 
7523 7524 8629 8628 7588 7589 8694 8693 
7524 7525 8630 8629 7589 7590 8695 8694 
7525 7526 8631 8630 7590 7591 8696 8695 
7526 7527 8632 8631 7591 7592 8697 8696 
7527 7528 8633 8632 7592 7593 8698 8697 
7528 7529 8634 8633 7593 7594 8699 8698 
7529 7530 8635 8634 7594 7595 8700 8699 
7530 7531 8636 8635 7595 7596 8701 8700 
7531 7532 8637 8636 7596 7597 8702 8701 
7532 7533 8638 8637 7597 7598 8703 8702 
7533 7534 8639 8638 7598 7599 8704 8703 
7534 7535 8640 8639 7599 7600 8705 8704 
7535 7536 8641 8640 7600 7601 8706 8705 
7536 7537 8642 8641 7601 7602 8707 8706 
7537 7538 8643 8642 7602 7603 8708 8707 
7538 7539 8644 8643 7603 7604 8709 8708 
7540 7541 8646 8645 7605 7606 8711 8710 
7541 7542 8647 8646 7606 7607 8712 8711 
7542 7543 8648 8647 7607 7608 8713 8712 
7543 7544 8649 8648 7608 7609 8714 8713 
7544 7545 8650 8649 7609 7610 8715 8714 
7545 7546 8651 8650 7610 7611 8716 8715 
7546 7547 8652 8651 7611 7612 8717 8716 
7547 7548 8653 8652 7612 7613 8718 8717 
7548 7549 8654 8653 7613 7614 8719 8718 
7549 7550 8655 8654 7614 7615 8720 8719 
7550 7551 8656 8655 7615 7616 8721 8720 
7551 7552 8657 8656 7616 7617 8722 8721 
7552 7553 8658 8657 7617 7618 8723 8722 
7553 7554 8659 8658 7618 7619 8724 8723 
7554 7555 8660 8659 7619 7620 8725 8724 
7555 7556 8661 8660 7620 7621 8726 8725 
7556 7557 8662 8661 7621 7622 8727 8726 
7557 7558 8663 8662 7622 7623 8728 8727 
7558 7559 8664 8663 7623 7624 8729 8728 
7559 7560 8665 8664 7624 7625 8730 8729 
7560 7561 8666 8665 7625 7626 8731 8730 
7561 7562 8667 8666 7626 7627 8732 8731 
7562 7563 8668 8667 7627 7628 8733 8732 
7563 7564 8669 8668 7628 7629 8734 8733 
7564 7565 8670 8669 7629 7630 8735 8734 
7565 7566 8671 8670 7630 7631 8736 8735 
7566 7567 8672 8671 7631 7632 8737 8736 
7567 7568 8673 8672 7632 7633 8738 8737 
7568 7569 8674 8673 7633 7634 8739 8738 
7569 7570 8675 8674 7634 7635 8740 8739 
7570 7571 8676 8675 7635 7636 8741 8740 
7571 7572 8677 8676 7636 7637 8742 8741 
7572 7573 8678 8677 7637 7638 8743 8742 
7573 7574 8679 8678 7638 7639 8744 8743 
7574 7575 8680 8679 7639 7640 8745 8744 
7575 7576 8681 8680 7640 7641 8746 8745 
7576 7577 8682 8681 7641 7642 8747 8746 
7577 7578 8683 8682 7642 7643 8748 8747 
7578 7579 8684 8683 7643 7644 8749 8748 
7579 7580 8685 8684 7644 7645 8750 8749 
7580 7581 8686 8685 7645 7646 8751 8750 
7581 7582 8687 8686 7646 7647 8752 8751 
7582 7583 8688 8687 7647 7648 8753 8752 
7583 7584 8689 8688 7648 7649 8754 8753 
7584 7585 8690 8689 7649 7650 8755 8754 
7585 7586 8691 8690 7650 7651 8756 8755 
7586 7587 8692 8691 7651 7652 8757 8756 
7587 7588 8693 8692 7652 7653 8758 8757 
7588 7589 8694 8693 7653 7654 8759 8758 
7589 7590 8695 8694 7654 7655 8760 8759 
7590 7591 8696 8695 7655 7656 8761 8760 
7591 7592 8697 8696 7656 7657 8762 8761 
7592 7593 8698 8697 7657 7658 8763 8762 
7593 7594 8699 8698 7658 7659 8764 8763 
7594 7595 8700 8699 7659 7660 8765 8764 
7595 7596 8701 8700 7660 7661 8766 8765 
7596 7597 8702 8701 7661 7662 8767 8766 
7597 7598 8703 8702 7662 7663 8768 8767 
7598 7599 8704 8703 7663 7664 8769 8768 
7599 7600 8705 8704 7664 7665 8770 8769 
7600 7601 8706 8705 7665 7666 8771 8770 
7601 7602 8707 8706 7666 7667 8772 8771 
7602 7603 8708 8707 7667 7668 8773 8772 
7603 7604 8709 8708 7668 7669 8774 8773 
7605 7606 8711 8710 7670 7671 8776 8775 
7606 7607 8712 8711 7671 7672 8777 8776 
7607 7608 8713 8712 7672 7673 8778 8777 
7608 7609 8714 8713 7673 7674 8779 8778 
7609 7610 8715 8714 7674 7675 8780 8779 
7610 7611 8716 8715 7675 7676 8781 8780 
7611 7612 8717 8716 7676 7677 8782 8781 
7612 7613 8718 8717 7677 7678 8783 8782 
7613 7614 8719 8718 7678 7679 8784 8783 
7614 7615 8720 8719 7679 7680 8785 8784 
7615 7616 8721 8720 7680 7681 8786 8785 
7616 7617 8722 8721 7681 7682 8787 8786 
7617 7618 8723 8722 7682 7683 8788 8787 
7618 7619 8724 8723 7683 7684 8789 8788 
7619 7620 8725 8724 7684 7685 8790 8789 
7620 7621 8726 8725 7685 7686 8791 8790 
7621 7622 8727 8726 7686 7687 8792 8791 
7622 7623 8728 8727 7687 7688 8793 8792 
7623 7624 8729 8728 7688 7689 8794 8793 
7624 7625 8730 8729 7689 7690 8795 8794 
7625 7626 8731 8730 7690 7691 8796 8795 
7626 7627 8732 8731 7691 7692 8797 8796 
7627 7628 8733 8732 7692 7693 8798 8797 
7628 7629 8734 8733 7693 7694 8799 8798 
7629 7630 8735 8734 7694 7695 8800 8799 
7630 7631 8736 8735 7695 7696 8801 8800 
7631 7632 8737 8736 7696 7697 8802 8801 
7632 7633 8738 8737 7697 7698 8803 8802 
7633 7634 8739 8738 7698 7699 8804 8803 
7634 7635 8740 8739 7699 7700 8805 8804 
7635 7636 8741 8740 7700 7701 8806 8805 
7636 7637 8742 8741 7701 7702 8807 8806 
7637 7638 8743 8742 7702 7703 8808 8807 
7638 7639 8744 8743 7703 7704 8809 8808 
7639 7640 8745 8744 7704 7705 8810 8809 
7640 7641 8746 8745 7705 7706 8811 8810 
7641 7642 8747 8746 7706 7707 8812 8811 
7642 7643 8748 8747 7707 7708 8813 8812 
7643 7644 8749 8748 7708 7709 8814 8813 
7644 7645 8750 8749 7709 7710 8815 8814 
7645 7646 8751 8750 7710 7711 8816 8815 
7646 7647 8752 8751 7711 7712 8817 8816 
7647 7648 8753 8752 7712 7713 8818 8817 
7648 7649 8754 8753 7713 7714 8819 8818 
7649 7650 8755 8754 7714 7715 8820 8819 
7650 7651 8756 8755 7715 7716 8821 8820 
7651 7652 8757 8756 7716 7717 8822 8821 
7652 7653 8758 8757 7717 7718 8823 8822 
7653 7654 8759 8758 7718 7719 8824 8823 
7654 7655 8760 8759 7719 7720 8825 8824 
7655 7656 8761 8760 7720 7721 8826 8825 
7656 7657 8762 8761 7721 7722 8827 8826 
7657 7658 8763 8762 7722 7723 8828 8827 
7658 7659 8764 8763 7723 7724 8829 8828 
7659 7660 8765 8764 7724 7725 8830 8829 
7660 7661 8766 8765 7725 7726 8831 8830 
7661 7662 8767 8766 7726 7727 8832 8831 
7662 7663 8768 8767 7727 7728 8833 8832 
7663 7664 8769 8768 7728 7729 8834 8833 
7664 7665 8770 8769 7729 7730 8835 8834 
7665 7666 8771 8770 7730 7731 8836 8835 
7666 7667 8772 8771 7731 7732 8837 8836 
7667 7668 8773 8772 7732 7733 8838 8837 
7668 7669 8774 8773 7733 7734 8839 8838 
7735 7736 8841 8840 7800 7801 8906 8905 
7736 7737 8842 8841 7801 7802 8907 8906 
7737 7738 8843 8842 7802 7803 8908 8907 
7738 7739 8844 8843 7803 7804 8909 8908 
7739 7740 8845 8844 7804 7805 8910 8909 
7740 7741 8846 8845 7805 7806 8911 8910 
7741 7742 8847 8846 7806 7807 8912 8911 
7742 7743 8848 8847 7807 7808 8913 8912 
7743 7744 8849 8848 7808 7809 8914 8913 
7744 7745 8850 8849 7809 7810 8915 8914 
7745 7746 8851 8850 7810 7811 8916 8915 
7746 7747 8852 8851 7811 7812 8917 8916 
7747 7748 8853 8852 7812 7813 8918 8917 
7748 7749 8854 8853 7813 7814 8919 8918 
7749 7750 8855 8854 7814 7815 8920 8919 
7750 7751 8856 8855 7815 7816 8921 8920 
7751 7752 8857 8856 7816 7817 8922 8921 
7752 7753 8858 8857 7817 7818 8923 8922 
7753 7754 8859 8858 7818 7819 8924 8923 
7754 7755 8860 8859 7819 7820 8925 8924 
7755 7756 8861 8860 7820 7821 8926 8925 
7756 7757 8862 8861 7821 7822 8927 8926 
7757 7758 8863 8862 7822 7823 8928 8927 
7758 7759 8864 8863 7823 7824 8929 8928 
7759 7760 8865 8864 7824 7825 8930 8929 
7760 7761 8866 8865 7825 7826 8931 8930 
7761 7762 8867 8866 7826 7827 8932 8931 
7762 7763 8868 8867 7827 7828 8933 8932 
7763 7764 8869 8868 7828 7829 8934 8933 
7764 7765 8870 8869 7829 7830 8935 8934 
7765 7766 8871 8870 7830 7831 8936 8935 
7766 7767 8872 8871 7831 7832 8937 8936 
7767 7768 8873 8872 7832 7833 8938 8937 
7768 7769 8874 8873 7833 7834 8939 8938 
7769 7770 8875 8874 7834 7835 8940 8939 
7770 7771 8876 8875 7835 7836 8941 8940 
7771 7772 8877 8876 7836 7837 8942 8941 
7772 7773 8878 8877 7837 7838 8943 8942 
7773 7774 8879 8878 7838 7839 8944 8943 
7774 7775 8880 8879 7839 7840 8945 8944 
7775 7776 8881 8880 7840 7841 8946 8945 
7776 7777 8882 8881 7841 7842 8947 8946 
7777 7778 8883 8882 7842 7843 8948 8947 
7778 7779 8884 8883 7843 7844 8949 8948 
7779 7780 8885 8884 7844 7845 8950 8949 
7780 7781 8886 8885 7845 7846 8951 8950 
7781 7782 8887 8886 7846 7847 8952 8951 
7782 7783 8888 8887 7847 7848 8953 8952 
7783 7784 8889 8888 7848 7849 8954 8953 
7784 7785 8890 8889 7849 7850 8955 8954 
7785 7786 8891 8890 7850 7851 8956 8955 
7786 7787 8892 8891 7851 7852 8957 8956 
7787 7788 8893 8892 7852 7853 8958 8957 
7788 7789 8894 8893 7853 7854 8959 8958 
7789 7790 8895 8894 7854 7855 8960 8959 
7790 7791 8896 8895 7855 7856 8961 8960 
7791 7792 8897 8896 7856 7857 8962 8961 
7792 7793 8898 8897 7857 7858 8963 8962 
7793 7794 8899 8898 7858 7859 8964 8963 
7794 7795 8900 8899 7859 7860 8965 8964 
7795 7796 8901 8900 7860 7861 8966 8965 
7796 7797 8902 8901 7861 7862 8967 8966 
7797 7798 8903 8902 7862 7863 8968 8967 
7798 7799 8904 8903 7863 7864 8969 8968 
7800 7801 8906 8905 7865 7866 8971 8970 
7801 7802 8907 8906 7866 7867 8972 8971 
7802 7803 8908 8907 7867 7868 8973 8972 
7803 7804 8909 8908 7868 7869 8974 8973 
7804 7805 8910 8909 7869 7870 8975 8974 
7805 7806 8911 8910 7870 7871 8976 8975 
7806 7807 8912 8911 7871 7872 8977 8976 
7807 7808 8913 8912 7872 7873 8978 8977 
7808 7809 8914 8913 7873 7874 8979 8978 
7809 7810 8915 8914 7874 7875 8980 8979 
7810 7811 8916 8915 7875 7876 8981 8980 
7811 7812 8917 8916 7876 7877 8982 8981 
7812 7813 8918 8917 7877 7878 8983 8982 
7813 7814 8919 8918 7878 7879 8984 8983 
7814 7815 8920 8919 7879 7880 8985 8984 
7815 7816 8921 8920 7880 7881 8986 8985 
7816 7817 8922 8921 7881 7882 8987 8986 
7817 7818 8923 8922 7882 7883 8988 8987 
7818 7819 8924 8923 7883 7884 8989 8988 
7819 7820 8925 8924 7884 7885 8990 8989 
7820 7821 8926 8925 7885 7886 8991 8990 
7821 7822 8927 8926 7886 7887 8992 8991 
7822 7823 8928 8927 7887 7888 8993 8992 
7823 7824 8929 8928 7888 7889 8994 8993 
7824 7825 8930 8929 7889 7890 8995 8994 
7825 7826 8931 8930 7890 7891 8996 8995 
7826 7827 8932 8931 7891 7892 8997 8996 
7827 7828 8933 8932 7892 7893 8998 8997 
7828 7829 8934 8933 7893 7894 8999 8998 
7829 7830 8935 8934 7894 7895 9000 8999 
7830 7831 8936 8935 7895 7896 9001 9000 
7831 7832 8937 8936 7896 7897 9002 9001 
7832 7833 8938 8937 7897 7898 9003 9002 
7833 7834 8939 8938 7898 7899 9004 9003 
7834 7835 8940 8939 7899 7900 9005 9004 
7835 7836 8941 8940 7900 7901 9006 9005 
7836 7837 8942 8941 7901 7902 9007 9006 
7837 7838 8943 8942 7902 7903 9008 9007 
7838 7839 8944 8943 7903 7904 9009 9008 
7839 7840 8945 8944 7904 7905 9010 9009 
7840 7841 8946 8945 7905 7906 9011 9010 
7841 7842 8947 8946 7906 7907 9012 9011 
7842 7843 8948 8947 7907 7908 9013 9012 
7843 7844 8949 8948 7908 7909 9014 9013 
7844 7845 8950 8949 7909 7910 9015 9014 
7845 7846 8951 8950 7910 7911 9016 9015 
7846 7847 8952 8951 7911 7912 9017 9016 
7847 7848 8953 8952 7912 7913 9018 9017 
7848 7849 8954 8953 7913 7914 9019 9018 
7849 7850 8955 8954 7914 7915 9020 9019 
7850 7851 8956 8955 7915 7916 9021 9020 
7851 7852 8957 8956 7916 7917 9022 9021 
7852 7853 8958 8957 7917 7918 9023 9022 
7853 7854 8959 8958 7918 7919 9024 9023 
7854 7855 8960 8959 7919 7920 9025 9024 
7855 7856 8961 8960 7920 7921 9026 9025 
7856 7857 8962 8961 7921 7922 9027 9026 
7857 7858 8963 8962 7922 7923 9028 9027 
7858 7859 8964 8963 7923 7924 9029 9028 
7859 7860 8965 8964 7924 7925 9030 9029 
7860 7861 8966 8965 7925 7926 9031 9030 
7861 7862 8967 8966 7926 7927 9032 9031 
7862 7863 8968 8967 7927 7928 9033 9032 
7863 7864 8969 8968 7928 7929 9034 9033 
7865 7866 8971 8970 7930 7931 9036 9035 
7866 7867 8972 8971 7931 7932 9037 9036 
7867 7868 8973 8972 7932 7933 9038 9037 
7868 7869 8974 8973 7933 7934 9039 9038 
7869 7870 8975 8974 7934 7935 9040 9039 
7870 7871 8976 8975 7935 7936 9041 9040 
7871 7872 8977 8976 7936 7937 9042 9041 
7872 7873 8978 8977 7937 7938 9043 9042 
7873 7874 8979 8978 7938 7939 9044 9043 
7874 7875 8980 8979 7939 7940 9045 9044 
7875 7876 8981 8980 7940 7941 9046 9045 
7876 7877 8982 8981 7941 7942 9047 9046 
7877 7878 8983 8982 7942 7943 9048 9047 
7878 7879 8984 8983 7943 7944 9049 9048 
7879 7880 8985 8984 7944 7945 9050 9049 
7880 7881 8986 8985 7945 7946 9051 9050 
7881 7882 8987 8986 7946 7947 9052 9051 
7882 7883 8988 8987 7947 7948 9053 9052 
7883 7884 8989 8988 7948 7949 9054 9053 
7884 7885 8990 8989 7949 7950 9055 9054 
7885 7886 8991 8990 7950 7951 9056 9055 
7886 7887 8992 8991 7951 7952 9057 9056 
7887 7888 8993 8992 7952 7953 9058 9057 
7888 7889 8994 8993 7953 7954 9059 9058 
7889 7890 8995 8994 7954 7955 9060 9059 
7890 7891 8996 8995 7955 7956 9061 9060 
7891 7892 8997 8996 7956 7957 9062 9061 
7892 7893 8998 8997 7957 7958 9063 9062 
7893 7894 8999 8998 7958 7959 9064 9063 
7894 7895 9000 8999 7959 7960 9065 9064 
7895 7896 9001 9000 7960 7961 9066 9065 
7896 7897 9002 9001 7961 7962 9067 9066 
7897 7898 9003 9002 7962 7963 9068 9067 
7898 7899 9004 9003 7963 7964 9069 9068 
7899 7900 9005 9004 7964 7965 9070 9069 
7900 7901 9006 9005 7965 7966 9071 9070 
7901 7902 9007 9006 7966 7967 9072 9071 
7902 7903 9008 9007 7967 7968 9073 9072 
7903 7904 9009 9008 7968 7969 9074 9073 
7904 7905 9010 9009 7969 7970 9075 9074 
7905 7906 9011 9010 7970 7971 9076 9075 
7906 7907 9012 9011 7971 7972 9077 9076 
7907 7908 9013 9012 7972 7973 9078 9077 
7908 7909 9014 9013 7973 7974 9079 9078 
7909 7910 9015 9014 7974 7975 9080 9079 
7910 7911 9016 9015 7975 7976 9081 9080 
7911 7912 9017 9016 7976 7977 9082 9081 
7912 7913 9018 9017 7977 7978 9083 9082 
7913 7914 9019 9018 7978 7979 9084 9083 
7914 7915 9020 9019 7979 7980 9085 9084 
7915 7916 9021 9020 7980 7981 9086 9085 
7916 7917 9022 9021 7981 7982 9087 9086 
7917 7918 9023 9022 7982 7983 9088 9087 
7918 7919 9024 9023 7983 7984 9089 9088 
7919 7920 9025 9024 7984 7985 9090 9089 
7920 7921 9026 9025 7985 7986 9091 9090 
7921 7922 9027 9026 7986 7987 9092 9091 
7922 7923 9028 9027 7987 7988 9093 9092 
7923 7924 9029 9028 7988 7989 9094 9093 
7924 7925 9030 9029 7989 7990 9095 9094 
7925 7926 9031 9030 7990 7991 9096 9095 
7926 7927 9032 9031 7991 7992 9097 9096 
7927 7928 9033 9032 7992 7993 9098 9097 
7928 7929 9034 9033 7993 7994 9099 9098 
7930 7931 9036 9035 7995 7996 9101 9100 
7931 7932 9037 9036 7996 7997 9102 9101 
7932 7933 9038 9037 7997 7998 9103 9102 
7933 7934 9039 9038 7998 7999 9104 9103 
7934 7935 9040 9039 7999 8000 9105 9104 
7935 7936 9041 9040 8000 8001 9106 9105 
7936 7937 9042 9041 8001 8002 9107 9106 
7937 7938 9043 9042 8002 8003 9108 9107 
7938 7939 9044 9043 8003 8004 9109 9108 
7939 7940 9045 9044 8004 8005 9110 9109 
7940 7941 9046 9045 8005 8006 9111 9110 
7941 7942 9047 9046 8006 8007 9112 9111 
7942 7943 9048 9047 8007 8008 9113 9112 
7943 7944 9049 9048 8008 8009 9114 9113 
7944 7945 9050 9049 8009 8010 9115 9114 
7945 7946 9051 9050 8010 8011 9116 9115 
7946 7947 9052 9051 8011 8012 9117 9116 
7947 7948 9053 9052 8012 8013 9118 9117 
7948 7949 9054 9053 8013 8014 9119 9118 
7949 7950 9055 9054 8014 8015 9120 9119 
7950 7951 9056 9055 8015 8016 9121 9120 
7951 7952 9057 9056 8016 8017 9122 9121 
7952 7953 9058 9057 8017 8018 9123 9122 
7953 7954 9059 9058 8018 8019 9124 9123 
7954 7955 9060 9059 8019 8020 9125 9124 
7955 7956 9061 9060 8020 8021 9126 9125 
7956 7957 9062 9061 8021 8022 9127 9126 
7957 7958 9063 9062 8022 8023 9128 9127 
7958 7959 9064 9063 8023 8024 9129 9128 
7959 7960 9065 9064 8024 8025 9130 9129 
7960 7961 9066 9065 8025 8026 9131 9130 
7961 7962 9067 9066 8026 8027 9132 9131 
7962 7963 9068 9067 8027 8028 9133 9132 
7963 7964 9069 9068 8028 8029 9134 9133 
7964 7965 9070 9069 8029 8030 9135 9134 
7965 7966 9071 9070 8030 8031 9136 9135 
7966 7967 9072 9071 8031 8032 9137 9136 
7967 7968 9073 9072 8032 8033 9138 9137 
7968 7969 9074 9073 8033 8034 9139 9138 
7969 7970 9075 9074 8034 8035 9140 9139 
7970 7971 9076 9075 8035 8036 9141 9140 
7971 7972 9077 9076 8036 8037 9142 9141 
7972 7973 9078 9077 8037 8038 9143 9142 
7973 7974 9079 9078 8038 8039 9144 9143 
7974 7975 9080 9079 8039 8040 9145 9144 
7975 7976 9081 9080 8040 8041 9146 9145 
7976 7977 9082 9081 8041 8042 9147 9146 
7977 7978 9083 9082 8042 8043 9148 9147 
7978 7979 9084 9083 8043 8044 9149 9148 
7979 7980 9085 9084 8044 8045 9150 9149 
7980 7981 9086 9085 8045 8046 9151 9150 
7981 7982 9087 9086 8046 8047 9152 9151 
7982 7983 9088 9087 8047 8048 9153 9152 
7983 7984 9089 9088 8048 8049 9154 9153 
7984 7985 9090 9089 8049 8050 9155 9154 
7985 7986 9091 9090 8050 8051 9156 9155 
7986 7987 9092 9091 8051 8052 9157 9156 
7987 7988 9093 9092 8052 8053 9158 9157 
7988 7989 9094 9093 8053 8054 9159 9158 
7989 7990 9095 9094 8054 8055 9160 9159 
7990 7991 9096 9095 8055 8056 9161 9160 
7991 7992 9097 9096 8056 8057 9162 9161 
7992 7993 9098 9097 8057 8058 9163 9162 
7993 7994 9099 9098 8058 8059 9164 9163 
7995 7996 9101 9100 8060 8061 9166 9165 
7996 7997 9102 9101 8061 8062 9167 9166 
7997 7998 9103 9102 8062 8063 9168 9167 
7998 7999 9104 9103 8063 8064 9169 9168 
7999 8000 9105 9104 8064 8065 9170 9169 
8000 8001 9106 9105 8065 8066 9171 9170 
8001 8002 9107 9106 8066 8067 9172 9171 
8002 8003 9108 9107 8067 8068 9173 9172 
8003 8004 9109 9108 8068 8069 9174 9173 
8004 8005 9110 9109 8069 8070 9175 9174 
8005 8006 9111 9110 8070 8071 9176 9175 
8006 8007 9112 9111 8071 8072 9177 9176 
8007 8008 9113 9112 8072 8073 9178 9177 
8008 8009 9114 9113 8073 8074 9179 9178 
8009 8010 9115 9114 8074 8075 9180 9179 
8010 8011 9116 9115 8075 8076 9181 9180 
8011 8012 9117 9116 8076 8077 9182 9181 
8012 8013 9118 9117 8077 8078 9183 9182 
8013 8014 9119 9118 8078 8079 9184 9183 
8014 8015 9120 9119 8079 8080 9185 9184 
8015 8016 9121 9120 8080 8081 9186 9185 
8016 8017 9122 9121 8081 8082 9187 9186 
8017 8018 9123 9122 8082 8083 9188 9187 
8018 8019 9124 9123 8083 8084 9189 9188 
8019 8020 9125 9124 8084 8085 9190 9189 
8020 8021 9126 9125 8085 8086 9191 9190 
8021 8022 9127 9126 8086 8087 9192 9191 
8022 8023 9128 9127 8087 8088 9193 9192 
8023 8024 9129 9128 8088 8089 9194 9193 
8024 8025 9130 9129 8089 8090 9195 9194 
8025 8026 9131 9130 8090 8091 9196 9195 
8026 8027 9132 9131 8091 8092 9197 9196 
8027 8028 9133 9132 8092 8093 9198 9197 
8028 8029 9134 9133 8093 8094 9199 9198 
8029 8030 9135 9134 8094 8095 9200 9199 
8030 8031 9136 9135 8095 8096 9201 9200 
8031 8032 9137 9136 8096 8097 9202 9201 
8032 8033 9138 9137 8097 8098 9203 9202 
8033 8034 9139 9138 8098 8099 9204 9203 
8034 8035 9140 9139 8099 8100 9205 9204 
8035 8036 9141 9140 8100 8101 9206 9205 
8036 8037 9142 9141 8101 8102 9207 9206 
8037 8038 9143 9142 8102 8103 9208 9207 
8038 8039 9144 9143 8103 8104 9209 9208 
8039 8040 9145 9144 8104 8105 9210 9209 
8040 8041 9146 9145 8105 8106 9211 9210 
8041 8042 9147 9146 8106 8107 9212 9211 
8042 8043 9148 9147 8107 8108 9213 9212 
8043 8044 9149 9148 8108 8109 9214 9213 
8044 8045 9150 9149 8109 8110 9215 9214 
8045 8046 9151 9150 8110 8111 9216 9215 
8046 8047 9152 9151 8111 8112 9217 9216 
8047 8048 9153 9152 8112 8113 9218 9217 
8048 8049 9154 9153 8113 8114 9219 9218 
8049 8050 9155 9154 8114 8115 9220 9219 
8050 8051 9156 9155 8115 8116 9221 9220 
8051 8052 9157 9156 8116 8117 9222 9221 
8052 8053 9158 9157 8117 8118 9223 9222 
8053 8054 9159 9158 8118 8119 9224 9223 
8054 8055 9160 9159 8119 8120 9225 9224 
8055 8056 9161 9160 8120 8121 9226 9225 
8056 8057 9162 9161 8121 8122 9227 9226 
8057 8058 9163 9162 8122 8123 9228 9227 
8058 8059 9164 9163 8123 8124 9229 9228 
8060 8061 9166 9165 8125 8126 9231 9230 
8061 8062 9167 9166 8126 8127 9232 9231 
8062 8063 9168 9167 8127 8128 9233 9232 
8063 8064 9169 9168 8128 8129 9234 9233 
8064 8065 9170 9169 8129 8130 9235 9234 
8065 8066 9171 9170 8130 8131 9236 9235 
8066 8067 9172 9171 8131 8132 9237 9236 
8067 8068 9173 9172 8132 8133 9238 9237 
8068 8069 9174 9173 8133 8134 9239 9238 
8069 8070 9175 9174 8134 8135 9240 9239 
8070 8071 9176 9175 8135 8136 9241 9240 
8071 8072 9177 9176 8136 8137 9242 9241 
8072 8073 9178 9177 8137 8138 9243 9242 
8073 8074 9179 9178 8138 8139 9244 9243 
8074 8075 9180 9179 8139 8140 9245 9244 
8075 8076 9181 9180 8140 8141 9246 9245 
8076 8077 9182 9181 8141 8142 9247 9246 
8077 8078 9183 9182 8142 8143 9248 9247 
8078 8079 9184 9183 8143 8144 9249 9248 
8079 8080 9185 9184 8144 8145 9250 9249 
8080 8081 9186 9185 8145 8146 9251 9250 
8081 8082 9187 9186 8146 8147 9252 9251 
8082 8083 9188 9187 8147 8148 9253 9252 
8083 8084 9189 9188 8148 8149 9254 9253 
8084 8085 9190 9189 8149 8150 9255 9254 
8085 8086 9191 9190 8150 8151 9256 9255 
8086 8087 9192 9191 8151 8152 9257 9256 
8087 8088 9193 9192 8152 8153 9258 9257 
8088 8089 9194 9193 8153 8154 9259 9258 
8089 8090 9195 9194 8154 8155 9260 9259 
8090 8091 9196 9195 8155 8156 9261 9260 
8091 8092 9197 9196 8156 8157 9262 9261 
8092 8093 9198 9197 8157 8158 9263 9262 
8093 8094 9199 9198 8158 8159 9264 9263 
8094 8095 9200 9199 8159 8160 9265 9264 
8095 8096 9201 9200 8160 8161 9266 9265 
8096 8097 9202 9201 8161 8162 9267 9266 
8097 8098 9203 9202 8162 8163 9268 9267 
8098 8099 9204 9203 8163 8164 9269 9268 
8099 8100 9205 9204 8164 8165 9270 9269 
8100 8101 9206 9205 8165 8166 9271 9270 
8101 8102 9207 9206 8166 8167 9272 9271 
8102 8103 9208 9207 8167 8168 9273 9272 
8103 8104 9209 9208 8168 8169 9274 9273 
8104 8105 9210 9209 8169 8170 9275 9274 
8105 8106 9211 9210 8170 8171 9276 9275 
8106 8107 9212 9211 8171 8172 9277 9276 
8107 8108 9213 9212 8172 8173 9278 9277 
8108 8109 9214 9213 8173 8174 9279 9278 
8109 8110 9215 9214 8174 8175 9280 9279 
8110 8111 9216 9215 8175 8176 9281 9280 
8111 8112 9217 9216 8176 8177 9282 9281 
8112 8113 9218 9217 8177 8178 9283 9282 
8113 8114 9219 9218 8178 8179 9284 9283 
8114 8115 9220 9219 8179 8180 9285 9284 
8115 8116 9221 9220 8180 8181 9286 9285 
8116 8117 9222 9221 8181 8182 9287 9286 
8117 8118 9223 9222 8182 8183 9288 9287 
8118 8119 9224 9223 8183 8184 9289 9288 
8119 8120 9225 9224 8184 8185 9290 9289 
8120 8121 9226 9225 8185 8186 9291 9290 
8121 8122 9227 9226 8186 8187 9292 9291 
8122 8123 9228 9227 8187 8188 9293 9292 
8123 8124 9229 9228 8188 8189 9294 9293 
8125 8126 9231 9230 8190 8191 9296 9295 
8126 8127 9232 9231 8191 8192 9297 9296 
8127 8128 9233 9232 8192 8193 9298 9297 
8128 8129 9234 9233 8193 8194 9299 9298 
8129 8130 9235 9234 8194 8195 9300 9299 
8130 8131 9236 9235 8195 8196 9301 9300 
8131 8132 9237 9236 8196 8197 9302 9301 
8132 8133 9238 9237 8197 8198 9303 9302 
8133 8134 9239 9238 8198 8199 9304 9303 
8134 8135 9240 9239 8199 8200 9305 9304 
8135 8136 9241 9240 8200 8201 9306 9305 
8136 8137 9242 9241 8201 8202 9307 9306 
8137 8138 9243 9242 8202 8203 9308 9307 
8138 8139 9244 9243 8203 8204 9309 9308 
8139 8140 9245 9244 8204 8205 9310 9309 
8140 8141 9246 9245 8205 8206 9311 9310 
8141 8142 9247 9246 8206 8207 9312 9311 
8142 8143 9248 9247 8207 8208 9313 9312 
8143 8144 9249 9248 8208 8209 9314 9313 
8144 8145 9250 9249 8209 8210 9315 9314 
8145 8146 9251 9250 8210 8211 9316 9315 
8146 8147 9252 9251 8211 8212 9317 9316 
8147 8148 9253 9252 8212 8213 9318 9317 
8148 8149 9254 9253 8213 8214 9319 9318 
8149 8150 9255 9254 8214 8215 9320 9319 
8150 8151 9256 9255 8215 8216 9321 9320 
8151 8152 9257 9256 8216 8217 9322 9321 
8152 8153 9258 9257 8217 8218 9323 9322 
8153 8154 9259 9258 8218 8219 9324 9323 
8154 8155 9260 9259 8219 8220 9325 9324 
8155 8156 9261 9260 8220 8221 9326 9325 
8156 8157 9262 9261 8221 8222 9327 9326 
8157 8158 9263 9262 8222 8223 9328 9327 
8158 8159 9264 9263 8223 8224 9329 9328 
8159 8160 9265 9264 8224 8225 9330 9329 
8160 8161 9266 9265 8225 8226 9331 9330 
8161 8162 9267 9266 8226 8227 9332 9331 
8162 8163 9268 9267 8227 8228 9333 9332 
8163 8164 9269 9268 8228 8229 9334 9333 
8164 8165 9270 9269 8229 8230 9335 9334 
8165 8166 9271 9270 8230 8231 9336 9335 
8166 8167 9272 9271 8231 8232 9337 9336 
8167 8168 9273 9272 8232 8233 9338 9337 
8168 8169 9274 9273 8233 8234 9339 9338 
8169 8170 9275 9274 8234 8235 9340 9339 
8170 8171 9276 9275 8235 8236 9341 9340 
8171 8172 9277 9276 8236 8237 9342 9341 
8172 8173 9278 9277 8237 8238 9343 9342 
8173 8174 9279 9278 8238 8239 9344 9343 
8174 8175 9280 9279 8239 8240 9345 9344 
8175 8176 9281 9280 8240 8241 9346 9345 
8176 8177 9282 9281 8241 8242 9347 9346 
8177 8178 9283 9282 8242 8243 9348 9347 
8178 8179 9284 9283 8243 8244 9349 9348 
8179 8180 9285 9284 8244 8245 9350 9349 
8180 8181 9286 9285 8245 8246 9351 9350 
8181 8182 9287 9286 8246 8247 9352 9351 
8182 8183 9288 9287 8247 8248 9353 9352 
8183 8184 9289 9288 8248 8249 9354 9353 
8184 8185 9290 9289 8249 8250 9355 9354 
8185 8186 9291 9290 8250 8251 9356 9355 
8186 8187 9292 9291 8251 8252 9357 9356 
8187 8188 9293 9292 8252 8253 9358 9357 
8188 8189 9294 9293 8253 8254 9359 9358 
8190 8191 9296 9295 8255 8256 9361 9360 
8191 8192 9297 9296 8256 8257 9362 9361 
8192 8193 9298 9297 8257 8258 9363 9362 
8193 8194 9299 9298 8258 8259 9364 9363 
8194 8195 9300 9299 8259 8260 9365 9364 
8195 8196 9301 9300 8260 8261 9366 9365 
8196 8197 9302 9301 8261 8262 9367 9366 
8197 8198 9303 9302 8262 8263 9368 9367 
8198 8199 9304 9303 8263 8264 9369 9368 
8199 8200 9305 9304 8264 8265 9370 9369 
8200 8201 9306 9305 8265 8266 9371 9370 
8201 8202 9307 9306 8266 8267 9372 9371 
8202 8203 9308 9307 8267 8268 9373 9372 
8203 8204 9309 9308 8268 8269 9374 9373 
8204 8205 9310 9309 8269 8270 9375 9374 
8205 8206 9311 9310 8270 8271 9376 9375 
8206 8207 9312 9311 8271 8272 9377 9376 
8207 8208 9313 9312 8272 8273 9378 9377 
8208 8209 9314 9313 8273 8274 9379 9378 
8209 8210 9315 9314 8274 8275 9380 9379 
8210 8211 9316 9315 8275 8276 9381 9380 
8211 8212 9317 9316 8276 8277 9382 9381 
8212 8213 9318 9317 8277 8278 9383 9382 
8213 8214 9319 9318 8278 8279 9384 9383 
8214 8215 9320 9319 8279 8280 9385 9384 
8215 8216 9321 9320 8280 8281 9386 9385 
8216 8217 9322 9321 8281 8282 9387 9386 
8217 8218 9323 9322 8282 8283 9388 9387 
8218 8219 9324 9323 8283 8284 9389 9388 
8219 8220 9325 9324 8284 8285 9390 9389 
8220 8221 9326 9325 8285 8286 9391 9390 
8221 8222 9327 9326 8286 8287 9392 9391 
8222 8223 9328 9327 8287 8288 9393 9392 
8223 8224 9329 9328 8288 8289 9394 9393 
8224 8225 9330 9329 8289 8290 9395 9394 
8225 8226 9331 9330 8290 8291 9396 9395 
8226 8227 9332 9331 8291 8292 9397 9396 
8227 8228 9333 9332 8292 8293 9398 9397 
8228 8229 9334 9333 8293 8294 9399 9398 
8229 8230 9335 9334 8294 8295 9400 9399 
8230 8231 9336 9335 8295 8296 9401 9400 
8231 8232 9337 9336 8296 8297 9402 9401 
8232 8233 9338 9337 8297 8298 9403 9402 
8233 8234 9339 9338 8298 8299 9404 9403 
8234 8235 9340 9339 8299 8300 9405 9404 
8235 8236 9341 9340 8300 8301 9406 9405 
8236 8237 9342 9341 8301 8302 9407 9406 
8237 8238 9343 9342 8302 8303 9408 9407 
8238 8239 9344 9343 8303 8304 9409 9408 
8239 8240 9345 9344 8304 8305 9410 9409 
8240 8241 9346 9345 8305 8306 9411 9410 
8241 8242 9347 9346 8306 8307 9412 9411 
8242 8243 9348 9347 8307 8308 9413 9412 
8243 8244 9349 9348 8308 8309 9414 9413 
8244 8245 9350 9349 8309 8310 9415 9414 
8245 8246 9351 9350 8310 8311 9416 9415 
8246 8247 9352 9351 8311 8312 9417 9416 
8247 8248 9353 9352 8312 8313 9418 9417 
8248 8249 9354 9353 8313 8314 9419 9418 
8249 8250 9355 9354 8314 8315 9420 9419 
8250 8251 9356 9355 8315 8316 9421 9420 
8251 8252 9357 9356 8316 8317 9422 9421 
8252 8253 9358 9357 8317 8318 9423 9422 
8253 8254 9359 9358 8318 8319 9424 9423 
8255 8256 9361 9360 8320 8321 9426 9425 
8256 8257 9362 9361 8321 8322 9427 9426 
8257 8258 9363 9362 8322 8323 9428 9427 
8258 8259 9364 9363 8323 8324 9429 9428 
8259 8260 9365 9364 8324 8325 9430 9429 
8260 8261 9366 9365 8325 8326 9431 9430 
8261 8262 9367 9366 8326 8327 9432 9431 
8262 8263 9368 9367 8327 8328 9433 9432 
8263 8264 9369 9368 8328 8329 9434 9433 
8264 8265 9370 9369 8329 8330 9435 9434 
8265 8266 9371 9370 8330 8331 9436 9435 
8266 8267 9372 9371 8331 8332 9437 9436 
8267 8268 9373 9372 8332 8333 9438 9437 
8268 8269 9374 9373 8333 8334 9439 9438 
8269 8270 9375 9374 8334 8335 9440 9439 
8270 8271 9376 9375 8335 8336 9441 9440 
8271 8272 9377 9376 8336 8337 9442 9441 
8272 8273 9378 9377 8337 8338 9443 9442 
8273 8274 9379 9378 8338 8339 9444 9443 
8274 8275 9380 9379 8339 8340 9445 9444 
8275 8276 9381 9380 8340 8341 9446 9445 
8276 8277 9382 9381 8341 8342 9447 9446 
8277 8278 9383 9382 8342 8343 9448 9447 
8278 8279 9384 9383 8343 8344 9449 9448 
8279 8280 9385 9384 8344 8345 9450 9449 
8280 8281 9386 9385 8345 8346 9451 9450 
8281 8282 9387 9386 8346 8347 9452 9451 
8282 8283 9388 9387 8347 8348 9453 9452 
8283 8284 9389 9388 8348 8349 9454 9453 
8284 8285 9390 9389 8349 8350 9455 9454 
8285 8286 9391 9390 8350 8351 9456 9455 
8286 8287 9392 9391 8351 8352 9457 9456 
8287 8288 9393 9392 8352 8353 9458 9457 
8288 8289 9394 9393 8353 8354 9459 9458 
8289 8290 9395 9394 8354 8355 9460 9459 
8290 8291 9396 9395 8355 8356 9461 9460 
8291 8292 9397 9396 8356 8357 9462 9461 
8292 8293 9398 9397 8357 8358 9463 9462 
8293 8294 9399 9398 8358 8359 9464 9463 
8294 8295 9400 9399 8359 8360 9465 9464 
8295 8296 9401 9400 8360 8361 9466 9465 
8296 8297 9402 9401 8361 8362 9467 9466 
8297 8298 9403 9402 8362 8363 9468 9467 
8298 8299 9404 9403 8363 8364 9469 9468 
8299 8300 9405 9404 8364 8365 9470 9469 
8300 8301 9406 9405 8365 8366 9471 9470 
8301 8302 9407 9406 8366 8367 9472 9471 
8302 8303 9408 9407 8367 8368 9473 9472 
8303 8304 9409 9408 8368 8369 9474 9473 
8304 8305 9410 9409 8369 8370 9475 9474 
8305 8306 9411 9410 8370 8371 9476 9475 
8306 8307 9412 9411 8371 8372 9477 9476 
8307 8308 9413 9412 8372 8373 9478 9477 
8308 8309 9414 9413 8373 8374 9479 9478 
8309 8310 9415 9414 8374 8375 9480 9479 
8310 8311 9416 9415 8375 8376 9481 9480 
8311 8312 9417 9416 8376 8377 9482 9481 
8312 8313 9418 9417 8377 8378 9483 9482 
8313 8314 9419 9418 8378 8379 9484 9483 
8314 8315 9420 9419 8379 8380 9485 9484 
8315 8316 9421 9420 8380 8381 9486 9485 
8316 8317 9422 9421 8381 8382 9487 9486 
8317 8318 9423 9422 8382 8383 9488 9487 
8318 8319 9424 9423 8383 8384 9489 9488 
8320 8321 9426 9425 8385 8386 9491 9490 
8321 8322 9427 9426 8386 8387 9492 9491 
8322 8323 9428 9427 8387 8388 9493 9492 
8323 8324 9429 9428 8388 8389 9494 9493 
8324 8325 9430 9429 8389 8390 9495 9494 
8325 8326 9431 9430 8390 8391 9496 9495 
8326 8327 9432 9431 8391 8392 9497 9496 
8327 8328 9433 9432 8392 8393 9498 9497 
8328 8329 9434 9433 8393 8394 9499 9498 
8329 8330 9435 9434 8394 8395 9500 9499 
8330 8331 9436 9435 8395 8396 9501 9500 
8331 8332 9437 9436 8396 8397 9502 9501 
8332 8333 9438 9437 8397 8398 9503 9502 
8333 8334 9439 9438 8398 8399 9504 9503 
8334 8335 9440 9439 8399 8400 9505 9504 
8335 8336 9441 9440 8400 8401 9506 9505 
8336 8337 9442 9441 8401 8402 9507 9506 
8337 8338 9443 9442 8402 8403 9508 9507 
8338 8339 9444 9443 8403 8404 9509 9508 
8339 8340 9445 9444 8404 8405 9510 9509 
8340 8341 9446 9445 8405 8406 9511 9510 
8341 8342 9447 9446 8406 8407 9512 9511 
8342 8343 9448 9447 8407 8408 9513 9512 
8343 8344 9449 9448 8408 8409 9514 9513 
8344 8345 9450 9449 8409 8410 9515 9514 
8345 8346 9451 9450 8410 8411 9516 9515 
8346 8347 9452 9451 8411 8412 9517 9516 
8347 8348 9453 9452 8412 8413 9518 9517 
8348 8349 9454 9453 8413 8414 9519 9518 
8349 8350 9455 9454 8414 8415 9520 9519 
8350 8351 9456 9455 8415 8416 9521 9520 
8351 8352 9457 9456 8416 8417 9522 9521 
8352 8353 9458 9457 8417 8418 9523 9522 
8353 8354 9459 9458 8418 8419 9524 9523 
8354 8355 9460 9459 8419 8420 9525 9524 
8355 8356 9461 9460 8420 8421 9526 9525 
8356 8357 9462 9461 8421 8422 9527 9526 
8357 8358 9463 9462 8422 8423 9528 9527 
8358 8359 9464 9463 8423 8424 9529 9528 
8359 8360 9465 9464 8424 8425 9530 9529 
8360 8361 9466 9465 8425 8426 9531 9530 
8361 8362 9467 9466 8426 8427 9532 9531 
8362 8363 9468 9467 8427 8428 9533 9532 
8363 8364 9469 9468 8428 8429 9534 9533 
8364 8365 9470 9469 8429 8430 9535 9534 
8365 8366 9471 9470 8430 8431 9536 9535 
8366 8367 9472 9471 8431 8432 9537 9536 
8367 8368 9473 9472 8432 8433 9538 9537 
8368 8369 9474 9473 8433 8434 9539 9538 
8369 8370 9475 9474 8434 8435 9540 9539 
8370 8371 9476 9475 8435 8436 9541 9540 
8371 8372 9477 9476 8436 8437 9542 9541 
8372 8373 9478 9477 8437 8438 9543 9542 
8373 8374 9479 9478 8438 8439 9544 9543 
8374 8375 9480 9479 8439 8440 9545 9544 
8375 8376 9481 9480 8440 8441 9546 9545 
8376 8377 9482 9481 8441 8442 9547 9546 
8377 8378 9483 9482 8442 8443 9548 9547 
8378 8379 9484 9483 8443 8444 9549 9548 
8379 8380 9485 9484 8444 8445 9550 9549 
8380 8381 9486 9485 8445 8446 9551 9550 
8381 8382 9487 9486 8446 8447 9552 9551 
8382 8383 9488 9487 8447 8448 9553 9552 
8383 8384 9489 9488 8448 8449 9554 9553 
8385 8386 9491 9490 8450 8451 9556 9555 
8386 8387 9492 9491 8451 8452 9557 9556 
8387 8388 9493 9492 8452 8453 9558 9557 
8388 8389 9494 9493 8453 8454 9559 9558 
8389 8390 9495 9494 8454 8455 9560 9559 
8390 8391 9496 9495 8455 8456 9561 9560 
8391 8392 9497 9496 8456 8457 9562 9561 
8392 8393 9498 9497 8457 8458 9563 9562 
8393 8394 9499 9498 8458 8459 9564 9563 
8394 8395 9500 9499 8459 8460 9565 9564 
8395 8396 9501 9500 8460 8461 9566 9565 
8396 8397 9502 9501 8461 8462 9567 9566 
8397 8398 9503 9502 8462 8463 9568 9567 
8398 8399 9504 9503 8463 8464 9569 9568 
8399 8400 9505 9504 8464 8465 9570 9569 
8400 8401 9506 9505 8465 8466 9571 9570 
8401 8402 9507 9506 8466 8467 9572 9571 
8402 8403 9508 9507 8467 8468 9573 9572 
8403 8404 9509 9508 8468 8469 9574 9573 
8404 8405 9510 9509 8469 8470 9575 9574 
8405 8406 9511 9510 8470 8471 9576 9575 
8406 8407 9512 9511 8471 8472 9577 9576 
8407 8408 9513 9512 8472 8473 9578 9577 
8408 8409 9514 9513 8473 8474 9579 9578 
8409 8410 9515 9514 8474 8475 9580 9579 
8410 8411 9516 9515 8475 8476 9581 9580 
8411 8412 9517 9516 8476 8477 9582 9581 
8412 8413 9518 9517 8477 8478 9583 9582 
8413 8414 9519 9518 8478 8479 9584 9583 
8414 8415 9520 9519 8479 8480 9585 9584 
8415 8416 9521 9520 8480 8481 9586 9585 
8416 8417 9522 9521 8481 8482 9587 9586 
8417 8418 9523 9522 8482 8483 9588 9587 
8418 8419 9524 9523 8483 8484 9589 9588 
8419 8420 9525 9524 8484 8485 9590 9589 
8420 8421 9526 9525 8485 8486 9591 9590 
8421 8422 9527 9526 8486 8487 9592 9591 
8422 8423 9528 9527 8487 8488 9593 9592 
8423 8424 9529 9528 8488 8489 9594 9593 
8424 8425 9530 9529 8489 8490 9595 9594 
8425 8426 9531 9530 8490 8491 9596 9595 
8426 8427 9532 9531 8491 8492 9597 9596 
8427 8428 9533 9532 8492 8493 9598 9597 
8428 8429 9534 9533 8493 8494 9599 9598 
8429 8430 9535 9534 8494 8495 9600 9599 
8430 8431 9536 9535 8495 8496 9601 9600 
8431 8432 9537 9536 8496 8497 9602 9601 
8432 8433 9538 9537 8497 8498 9603 9602 
8433 8434 9539 9538 8498 8499 9604 9603 
8434 8435 9540 9539 8499 8500 9605 9604 
8435 8436 9541 9540 8500 8501 9606 9605 
8436 8437 9542 9541 8501 8502 9607 9606 
8437 8438 9543 9542 8502 8503 9608 9607 
8438 8439 9544 9543 8503 8504 9609 9608 
8439 8440 9545 9544 8504 8505 9610 9609 
8440 8441 9546 9545 8505 8506 9611 9610 
8441 8442 9547 9546 8506 8507 9612 9611 
8442 8443 9548 9547 8507 8508 9613 9612 
8443 8444 9549 9548 8508 8509 9614 9613 
8444 8445 9550 9549 8509 8510 9615 9614 
8445 8446 9551 9550 8510 8511 9616 9615 
8446 8447 9552 9551 8511 8512 9617 9616 
8447 8448 9553 9552 8512 8513 9618 9617 
8448 8449 9554 9553 8513 8514 9619 9618 
8450 8451 9556 9555 8515 8516 9621 9620 
8451 8452 9557 9556 8516 8517 9622 9621 
8452 8453 9558 9557 8517 8518 9623 9622 
8453 8454 9559 9558 8518 8519 9624 9623 
8454 8455 9560 9559 8519 8520 9625 9624 
8455 8456 9561 9560 8520 8521 9626 9625 
8456 8457 9562 9561 8521 8522 9627 9626 
8457 8458 9563 9562 8522 8523 9628 9627 
8458 8459 9564 9563 8523 8524 9629 9628 
8459 8460 9565 9564 8524 8525 9630 9629 
8460 8461 9566 9565 8525 8526 9631 9630 
8461 8462 9567 9566 8526 8527 9632 9631 
8462 8463 9568 9567 8527 8528 9633 9632 
8463 8464 9569 9568 8528 8529 9634 9633 
8464 8465 9570 9569 8529 8530 9635 9634 
8465 8466 9571 9570 8530 8531 9636 9635 
8466 8467 9572 9571 8531 8532 9637 9636 
8467 8468 9573 9572 8532 8533 9638 9637 
8468 8469 9574 9573 8533 8534 9639 9638 
8469 8470 9575 9574 8534 8535 9640 9639 
8470 8471 9576 9575 8535 8536 9641 9640 
8471 8472 9577 9576 8536 8537 9642 9641 
8472 8473 9578 9577 8537 8538 9643 9642 
8473 8474 9579 9578 8538 8539 9644 9643 
8474 8475 9580 9579 8539 8540 9645 9644 
8475 8476 9581 9580 8540 8541 9646 9645 
8476 8477 9582 9581 8541 8542 9647 9646 
8477 8478 9583 9582 8542 8543 9648 9647 
8478 8479 9584 9583 8543 8544 9649 9648 
8479 8480 9585 9584 8544 8545 9650 9649 
8480 8481 9586 9585 8545 8546 9651 9650 
8481 8482 9587 9586 8546 8547 9652 9651 
8482 8483 9588 9587 8547 8548 9653 9652 
8483 8484 9589 9588 8548 8549 9654 9653 
8484 8485 9590 9589 8549 8550 9655 9654 
8485 8486 9591 9590 8550 8551 9656 9655 
8486 8487 9592 9591 8551 8552 9657 9656 
8487 8488 9593 9592 8552 8553 9658 9657 
8488 8489 9594 9593 8553 8554 9659 9658 
8489 8490 9595 9594 8554 8555 9660 9659 
8490 8491 9596 9595 8555 8556 9661 9660 
8491 8492 9597 9596 8556 8557 9662 9661 
8492 8493 9598 9597 8557 8558 9663 9662 
8493 8494 9599 9598 8558 8559 9664 9663 
8494 8495 9600 9599 8559 8560 9665 9664 
8495 8496 9601 9600 8560 8561 9666 9665 
8496 8497 9602 9601 8561 8562 9667 9666 
8497 8498 9603 9602 8562 8563 9668 9667 
8498 8499 9604 9603 8563 8564 9669 9668 
8499 8500 9605 9604 8564 8565 9670 9669 
8500 8501 9606 9605 8565 8566 9671 9670 
8501 8502 9607 9606 8566 8567 9672 9671 
8502 8503 9608 9607 8567 8568 9673 9672 
8503 8504 9609 9608 8568 8569 9674 9673 
8504 8505 9610 9609 8569 8570 9675 9674 
8505 8506 9611 9610 8570 8571 9676 9675 
8506 8507 9612 9611 8571 8572 9677 9676 
8507 8508 9613 9612 8572 8573 9678 9677 
8508 8509 9614 9613 8573 8574 9679 9678 
8509 8510 9615 9614 8574 8575 9680 9679 
8510 8511 9616 9615 8575 8576 9681 9680 
8511 8512 9617 9616 8576 8577 9682 9681 
8512 8513 9618 9617 8577 8578 9683 9682 
8513 8514 9619 9618 8578 8579 9684 9683 
8515 8516 9621 9620 8580 8581 9686 9685 
8516 8517 9622 9621 8581 8582 9687 9686 
8517 8518 9623 9622 8582 8583 9688 9687 
8518 8519 9624 9623 8583 8584 9689 9688 
8519 8520 9625 9624 8584 8585 9690 9689 
8520 8521 9626 9625 8585 8586 9691 9690 
8521 8522 9627 9626 8586 8587 9692 9691 
8522 8523 9628 9627 8587 8588 9693 9692 
8523 8524 9629 9628 8588 8589 9694 9693 
8524 8525 9630 9629 8589 8590 9695 9694 
8525 8526 9631 9630 8590 8591 9696 9695 
8526 8527 9632 9631 8591 8592 9697 9696 
8527 8528 9633 9632 8592 8593 9698 9697 
8528 8529 9634 9633 8593 8594 9699 9698 
8529 8530 9635 9634 8594 8595 9700 9699 
8530 8531 9636 9635 8595 8596 9701 9700 
8531 8532 9637 9636 8596 8597 9702 9701 
8532 8533 9638 9637 8597 8598 9703 9702 
8533 8534 9639 9638 8598 8599 9704 9703 
8534 8535 9640 9639 8599 8600 9705 9704 
8535 8536 9641 9640 8600 8601 9706 9705 
8536 8537 9642 9641 8601 8602 9707 9706 
8537 8538 9643 9642 8602 8603 9708 9707 
8538 8539 9644 9643 8603 8604 9709 9708 
8539 8540 9645 9644 8604 8605 9710 9709 
8540 8541 9646 9645 8605 8606 9711 9710 
8541 8542 9647 9646 8606 8607 9712 9711 
8542 8543 9648 9647 8607 8608 9713 9712 
8543 8544 9649 9648 8608 8609 9714 9713 
8544 8545 9650 9649 8609 8610 9715 9714 
8545 8546 9651 9650 8610 8611 9716 9715 
8546 8547 9652 9651 8611 8612 9717 9716 
8547 8548 9653 9652 8612 8613 9718 9717 
8548 8549 9654 9653 8613 8614 9719 9718 
8549 8550 9655 9654 8614 8615 9720 9719 
8550 8551 9656 9655 8615 8616 9721 9720 
8551 8552 9657 9656 8616 8617 9722 9721 
8552 8553 9658 9657 8617 8618 9723 9722 
8553 8554 9659 9658 8618 8619 9724 9723 
8554 8555 9660 9659 8619 8620 9725 9724 
8555 8556 9661 9660 8620 8621 9726 9725 
8556 8557 9662 9661 8621 8622 9727 9726 
8557 8558 9663 9662 8622 8623 9728 9727 
8558 8559 9664 9663 8623 8624 9729 9728 
8559 8560 9665 9664 8624 8625 9730 9729 
8560 8561 9666 9665 8625 8626 9731 9730 
8561 8562 9667 9666 8626 8627 9732 9731 
8562 8563 9668 9667 8627 8628 9733 9732 
8563 8564 9669 9668 8628 8629 9734 9733 
8564 8565 9670 9669 8629 8630 9735 9734 
8565 8566 9671 9670 8630 8631 9736 9735 
8566 8567 9672 9671 8631 8632 9737 9736 
8567 8568 9673 9672 8632 8633 9738 9737 
8568 8569 9674 9673 8633 8634 9739 9738 
8569 8570 9675 9674 8634 8635 9740 9739 
8570 8571 9676 9675 8635 8636 9741 9740 
8571 8572 9677 9676 8636 8637 9742 9741 
8572 8573 9678 9677 8637 8638 9743 9742 
8573 8574 9679 9678 8638 8639 9744 9743 
8574 8575 9680 9679 8639 8640 9745 9744 
8575 8576 9681 9680 8640 8641 9746 9745 
8576 8577 9682 9681 8641 8642 9747 9746 
8577 8578 9683 9682 8642 8643 9748 9747 
8578 8579 9684 9683 8643 8644 9749 9748 
8580 8581 9686 9685 8645 8646 9751 9750 
8581 8582 9687 9686 8646 8647 9752 9751 
8582 8583 9688 9687 8647 8648 9753 9752 
8583 8584 9689 9688 8648 8649 9754 9753 
8584 8585 9690 9689 8649 8650 9755 9754 
8585 8586 9691 9690 8650 8651 9756 9755 
8586 8587 9692 9691 8651 8652 9757 9756 
8587 8588 9693 9692 8652 8653 9758 9757 
8588 8589 9694 9693 8653 8654 9759 9758 
8589 8590 9695 9694 8654 8655 9760 9759 
8590 8591 9696 9695 8655 8656 9761 9760 
8591 8592 9697 9696 8656 8657 9762 9761 
8592 8593 9698 9697 8657 8658 9763 9762 
8593 8594 9699 9698 8658 8659 9764 9763 
8594 8595 9700 9699 8659 8660 9765 9764 
8595 8596 9701 9700 8660 8661 9766 9765 
8596 8597 9702 9701 8661 8662 9767 9766 
8597 8598 9703 9702 8662 8663 9768 9767 
8598 8599 9704 9703 8663 8664 9769 9768 
8599 8600 9705 9704 8664 8665 9770 9769 
8600 8601 9706 9705 8665 8666 9771 9770 
8601 8602 9707 9706 8666 8667 9772 9771 
8602 8603 9708 9707 8667 8668 9773 9772 
8603 8604 9709 9708 8668 8669 9774 9773 
8604 8605 9710 9709 8669 8670 9775 9774 
8605 8606 9711 9710 8670 8671 9776 9775 
8606 8607 9712 9711 8671 8672 9777 9776 
8607 8608 9713 9712 8672 8673 9778 9777 
8608 8609 9714 9713 8673 8674 9779 9778 
8609 8610 9715 9714 8674 8675 9780 9779 
8610 8611 9716 9715 8675 8676 9781 9780 
8611 8612 9717 9716 8676 8677 9782 9781 
8612 8613 9718 9717 8677 8678 9783 9782 
8613 8614 9719 9718 8678 8679 9784 9783 
8614 8615 9720 9719 8679 8680 9785 9784 
8615 8616 9721 9720 8680 8681 9786 9785 
8616 8617 9722 9721 8681 8682 9787 9786 
8617 8618 9723 9722 8682 8683 9788 9787 
8618 8619 9724 9723 8683 8684 9789 9788 
8619 8620 9725 9724 8684 8685 9790 9789 
8620 8621 9726 9725 8685 8686 9791 9790 
8621 8622 9727 9726 8686 8687 9792 9791 
8622 8623 9728 9727 8687 8688 9793 9792 
8623 8624 9729 9728 8688 8689 9794 9793 
8624 8625 9730 9729 8689 8690 9795 9794 
8625 8626 9731 9730 8690 8691 9796 9795 
8626 8627 9732 9731 8691 8692 9797 9796 
8627 8628 9733 9732 8692 8693 9798 9797 
8628 8629 9734 9733 8693 8694 9799 9798 
8629 8630 9735 9734 8694 8695 9800 9799 
8630 8631 9736 9735 8695 8696 9801 9800 
8631 8632 9737 9736 8696 8697 9802 9801 
8632 8633 9738 9737 8697 8698 9803 9802 
8633 8634 9739 9738 8698 8699 9804 9803 
8634 8635 9740 9739 8699 8700 9805 9804 
8635 8636 9741 9740 8700 8701 9806 9805 
8636 8637 9742 9741 8701 8702 9807 9806 
8637 8638 9743 9742 8702 8703 9808 9807 
8638 8639 9744 9743 8703 8704 9809 9808 
8639 8640 9745 9744 8704 8705 9810 9809 
8640 8641 9746 9745 8705 8706 9811 9810 
8641 8642 9747 9746 8706 8707 9812 9811 
8642 8643 9748 9747 8707 8708 9813 9812 
8643 8644 9749 9748 8708 8709 9814 9813 
8645 8646 9751 9750 8710 8711 9816 9815 
8646 8647 9752 9751 8711 8712 9817 9816 
8647 8648 9753 9752 8712 8713 9818 9817 
8648 8649 9754 9753 8713 8714 9819 9818 
8649 8650 9755 9754 8714 8715 9820 9819 
8650 8651 9756 9755 8715 8716 9821 9820 
8651 8652 9757 9756 8716 8717 9822 9821 
8652 8653 9758 9757 8717 8718 9823 9822 
8653 8654 9759 9758 8718 8719 9824 9823 
8654 8655 9760 9759 8719 8720 9825 9824 
8655 8656 9761 9760 8720 8721 9826 9825 
8656 8657 9762 9761 8721 8722 9827 9826 
8657 8658 9763 9762 8722 8723 9828 9827 
8658 8659 9764 9763 8723 8724 9829 9828 
8659 8660 9765 9764 8724 8725 9830 9829 
8660 8661 9766 9765 8725 8726 9831 9830 
8661 8662 9767 9766 8726 8727 9832 9831 
8662 8663 9768 9767 8727 8728 9833 9832 
8663 8664 9769 9768 8728 8729 9834 9833 
8664 8665 9770 9769 8729 8730 9835 9834 
8665 8666 9771 9770 8730 8731 9836 9835 
8666 8667 9772 9771 8731 8732 9837 9836 
8667 8668 9773 9772 8732 8733 9838 9837 
8668 8669 9774 9773 8733 8734 9839 9838 
8669 8670 9775 9774 8734 8735 9840 9839 
8670 8671 9776 9775 8735 8736 9841 9840 
8671 8672 9777 9776 8736 8737 9842 9841 
8672 8673 9778 9777 8737 8738 9843 9842 
8673 8674 9779 9778 8738 8739 9844 9843 
8674 8675 9780 9779 8739 8740 9845 9844 
8675 8676 9781 9780 8740 8741 9846 9845 
8676 8677 9782 9781 8741 8742 9847 9846 
8677 8678 9783 9782 8742 8743 9848 9847 
8678 8679 9784 9783 8743 8744 9849 9848 
8679 8680 9785 9784 8744 8745 9850 9849 
8680 8681 9786 9785 8745 8746 9851 9850 
8681 8682 9787 9786 8746 8747 9852 9851 
8682 8683 9788 9787 8747 8748 9853 9852 
8683 8684 9789 9788 8748 8749 9854 9853 
8684 8685 9790 9789 8749 8750 9855 9854 
8685 8686 9791 9790 8750 8751 9856 9855 
8686 8687 9792 9791 8751 8752 9857 9856 
8687 8688 9793 9792 8752 8753 9858 9857 
8688 8689 9794 9793 8753 8754 9859 9858 
8689 8690 9795 9794 8754 8755 9860 9859 
8690 8691 9796 9795 8755 8756 9861 9860 
8691 8692 9797 9796 8756 8757 9862 9861 
8692 8693 9798 9797 8757 8758 9863 9862 
8693 8694 9799 9798 8758 8759 9864 9863 
8694 8695 9800 9799 8759 8760 9865 9864 
8695 8696 9801 9800 8760 8761 9866 9865 
8696 8697 9802 9801 8761 8762 9867 9866 
8697 8698 9803 9802 8762 8763 9868 9867 
8698 8699 9804 9803 8763 8764 9869 9868 
8699 8700 9805 9804 8764 8765 9870 9869 
8700 8701 9806 9805 8765 8766 9871 9870 
8701 8702 9807 9806 8766 8767 9872 9871 
8702 8703 9808 9807 8767 8768 9873 9872 
8703 8704 9809 9808 8768 8769 9874 9873 
8704 8705 9810 9809 8769 8770 9875 9874 
8705 8706 9811 9810 8770 8771 9876 9875 
8706 8707 9812 9811 8771 8772 9877 9876 
8707 8708 9813 9812 8772 8773 9878 9877 
8708 8709 9814 9813 8773 8774 9879 9878 
8710 8711 9816 9815 8775 8776 9881 9880 
8711 8712 9817 9816 8776 8777 9882 9881 
8712 8713 9818 9817 8777 8778 9883 9882 
8713 8714 9819 9818 8778 8779 9884 9883 
8714 8715 9820 9819 8779 8780 9885 9884 
8715 8716 9821 9820 8780 8781 9886 9885 
8716 8717 9822 9821 8781 8782 9887 9886 
8717 8718 9823 9822 8782 8783 9888 9887 
8718 8719 9824 9823 8783 8784 9889 9888 
8719 8720 9825 9824 8784 8785 9890 9889 
8720 8721 9826 9825 8785 8786 9891 9890 
8721 8722 9827 9826 8786 8787 9892 9891 
8722 8723 9828 9827 8787 8788 9893 9892 
8723 8724 9829 9828 8788 8789 9894 9893 
8724 8725 9830 9829 8789 8790 9895 9894 
8725 8726 9831 9830 8790 8791 9896 9895 
8726 8727 9832 9831 8791 8792 9897 9896 
8727 8728 9833 9832 8792 8793 9898 9897 
8728 8729 9834 9833 8793 8794 9899 9898 
8729 8730 9835 9834 8794 8795 9900 9899 
8730 8731 9836 9835 8795 8796 9901 9900 
8731 8732 9837 9836 8796 8797 9902 9901 
8732 8733 9838 9837 8797 8798 9903 9902 
8733 8734 9839 9838 8798 8799 9904 9903 
8734 8735 9840 9839 8799 8800 9905 9904 
8735 8736 9841 9840 8800 8801 9906 9905 
8736 8737 9842 9841 8801 8802 9907 9906 
8737 8738 9843 9842 8802 8803 9908 9907 
8738 8739 9844 9843 8803 8804 9909 9908 
8739 8740 9845 9844 8804 8805 9910 9909 
8740 8741 9846 9845 8805 8806 9911 9910 
8741 8742 9847 9846 8806 8807 9912 9911 
8742 8743 9848 9847 8807 8808 9913 9912 
8743 8744 9849 9848 8808 8809 9914 9913 
8744 8745 9850 9849 8809 8810 9915 9914 
8745 8746 9851 9850 8810 8811 9916 9915 
8746 8747 9852 9851 8811 8812 9917 9916 
8747 8748 9853 9852 8812 8813 9918 9917 
8748 8749 9854 9853 8813 8814 9919 9918 
8749 8750 9855 9854 8814 8815 9920 9919 
8750 8751 9856 9855 8815 8816 9921 9920 
8751 8752 9857 9856 8816 8817 9922 9921 
8752 8753 9858 9857 8817 8818 9923 9922 
8753 8754 9859 9858 8818 8819 9924 9923 
8754 8755 9860 9859 8819 8820 9925 9924 
8755 8756 9861 9860 8820 8821 9926 9925 
8756 8757 9862 9861 8821 8822 9927 9926 
8757 8758 9863 9862 8822 8823 9928 9927 
8758 8759 9864 9863 8823 8824 9929 9928 
8759 8760 9865 9864 8824 8825 9930 9929 
8760 8761 9866 9865 8825 8826 9931 9930 
8761 8762 9867 9866 8826 8827 9932 9931 
8762 8763 9868 9867 8827 8828 9933 9932 
8763 8764 9869 9868 8828 8829 9934 9933 
8764 8765 9870 9869 8829 8830 9935 9934 
8765 8766 9871 9870 8830 8831 9936 9935 
8766 8767 9872 9871 8831 8832 9937 9936 
8767 8768 9873 9872 8832 8833 9938 9937 
8768 8769 9874 9873 8833 8834 9939 9938 
8769 8770 9875 9874 8834 8835 9940 9939 
8770 8771 9876 9875 8835 8836 9941 9940 
8771 8772 9877 9876 8836 8837 9942 9941 
8772 8773 9878 9877 8837 8838 9943 9942 
8773 8774 9879 9878 8838 8839 9944 9943 
8840 8841 9946 9945 8905 8906 10011 10010 
8841 8842 9947 9946 8906 8907 10012 10011 
8842 8843 9948 9947 8907 8908 10013 10012 
8843 8844 9949 9948 8908 8909 10014 10013 
8844 8845 9950 9949 8909 8910 10015 10014 
8845 8846 9951 9950 8910 8911 10016 10015 
8846 8847 9952 9951 8911 8912 10017 10016 
8847 8848 9953 9952 8912 8913 10018 10017 
8848 8849 9954 9953 8913 8914 10019 10018 
8849 8850 9955 9954 8914 8915 10020 10019 
8850 8851 9956 9955 8915 8916 10021 10020 
8851 8852 9957 9956 8916 8917 10022 10021 
8852 8853 9958 9957 8917 8918 10023 10022 
8853 8854 9959 9958 8918 8919 10024 10023 
8854 8855 9960 9959 8919 8920 10025 10024 
8855 8856 9961 9960 8920 8921 10026 10025 
8856 8857 9962 9961 8921 8922 10027 10026 
8857 8858 9963 9962 8922 8923 10028 10027 
8858 8859 9964 9963 8923 8924 10029 10028 
8859 8860 9965 9964 8924 8925 10030 10029 
8860 8861 9966 9965 8925 8926 10031 10030 
8861 8862 9967 9966 8926 8927 10032 10031 
8862 8863 9968 9967 8927 8928 10033 10032 
8863 8864 9969 9968 8928 8929 10034 10033 
8864 8865 9970 9969 8929 8930 10035 10034 
8865 8866 9971 9970 8930 8931 10036 10035 
8866 8867 9972 9971 8931 8932 10037 10036 
8867 8868 9973 9972 8932 8933 10038 10037 
8868 8869 9974 9973 8933 8934 10039 10038 
8869 8870 9975 9974 8934 8935 10040 10039 
8870 8871 9976 9975 8935 8936 10041 10040 
8871 8872 9977 9976 8936 8937 10042 10041 
8872 8873 9978 9977 8937 8938 10043 10042 
8873 8874 9979 9978 8938 8939 10044 10043 
8874 8875 9980 9979 8939 8940 10045 10044 
8875 8876 9981 9980 8940 8941 10046 10045 
8876 8877 9982 9981 8941 8942 10047 10046 
8877 8878 9983 9982 8942 8943 10048 10047 
8878 8879 9984 9983 8943 8944 10049 10048 
8879 8880 9985 9984 8944 8945 10050 10049 
8880 8881 9986 9985 8945 8946 10051 10050 
8881 8882 9987 9986 8946 8947 10052 10051 
8882 8883 9988 9987 8947 8948 10053 10052 
8883 8884 9989 9988 8948 8949 10054 10053 
8884 8885 9990 9989 8949 8950 10055 10054 
8885 8886 9991 9990 8950 8951 10056 10055 
8886 8887 9992 9991 8951 8952 10057 10056 
8887 8888 9993 9992 8952 8953 10058 10057 
8888 8889 9994 9993 8953 8954 10059 10058 
8889 8890 9995 9994 8954 8955 10060 10059 
8890 8891 9996 9995 8955 8956 10061 10060 
8891 8892 9997 9996 8956 8957 10062 10061 
8892 8893 9998 9997 8957 8958 10063 10062 
8893 8894 9999 9998 8958 8959 10064 10063 
8894 8895 10000 9999 8959 8960 10065 10064 
8895 8896 10001 10000 8960 8961 10066 10065 
8896 8897 10002 10001 8961 8962 10067 10066 
8897 8898 10003 10002 8962 8963 10068 10067 
8898 8899 10004 10003 8963 8964 10069 10068 
8899 8900 10005 10004 8964 8965 10070 10069 
8900 8901 10006 10005 8965 8966 10071 10070 
8901 8902 10007 10006 8966 8967 10072 10071 
8902 8903 10008 10007 8967 8968 10073 10072 
8903 8904 10009 10008 8968 8969 10074 10073 
8905 8906 10011 10010 8970 8971 10076 10075 
8906 8907 10012 10011 8971 8972 10077 10076 
8907 8908 10013 10012 8972 8973 10078 10077 
8908 8909 10014 10013 8973 8974 10079 10078 
8909 8910 10015 10014 8974 8975 10080 10079 
8910 8911 10016 10015 8975 8976 10081 10080 
8911 8912 10017 10016 8976 8977 10082 10081 
8912 8913 10018 10017 8977 8978 10083 10082 
8913 8914 10019 10018 8978 8979 10084 10083 
8914 8915 10020 10019 8979 8980 10085 10084 
8915 8916 10021 10020 8980 8981 10086 10085 
8916 8917 10022 10021 8981 8982 10087 10086 
8917 8918 10023 10022 8982 8983 10088 10087 
8918 8919 10024 10023 8983 8984 10089 10088 
8919 8920 10025 10024 8984 8985 10090 10089 
8920 8921 10026 10025 8985 8986 10091 10090 
8921 8922 10027 10026 8986 8987 10092 10091 
8922 8923 10028 10027 8987 8988 10093 10092 
8923 8924 10029 10028 8988 8989 10094 10093 
8924 8925 10030 10029 8989 8990 10095 10094 
8925 8926 10031 10030 8990 8991 10096 10095 
8926 8927 10032 10031 8991 8992 10097 10096 
8927 8928 10033 10032 8992 8993 10098 10097 
8928 8929 10034 10033 8993 8994 10099 10098 
8929 8930 10035 10034 8994 8995 10100 10099 
8930 8931 10036 10035 8995 8996 10101 10100 
8931 8932 10037 10036 8996 8997 10102 10101 
8932 8933 10038 10037 8997 8998 10103 10102 
8933 8934 10039 10038 8998 8999 10104 10103 
8934 8935 10040 10039 8999 9000 10105 10104 
8935 8936 10041 10040 9000 9001 10106 10105 
8936 8937 10042 10041 9001 9002 10107 10106 
8937 8938 10043 10042 9002 9003 10108 10107 
8938 8939 10044 10043 9003 9004 10109 10108 
8939 8940 10045 10044 9004 9005 10110 10109 
8940 8941 10046 10045 9005 9006 10111 10110 
8941 8942 10047 10046 9006 9007 10112 10111 
8942 8943 10048 10047 9007 9008 10113 10112 
8943 8944 10049 10048 9008 9009 10114 10113 
8944 8945 10050 10049 9009 9010 10115 10114 
8945 8946 10051 10050 9010 9011 10116 10115 
8946 8947 10052 10051 9011 9012 10117 10116 
8947 8948 10053 10052 9012 9013 10118 10117 
8948 8949 10054 10053 9013 9014 10119 10118 
8949 8950 10055 10054 9014 9015 10120 10119 
8950 8951 10056 10055 9015 9016 10121 10120 
8951 8952 10057 10056 9016 9017 10122 10121 
8952 8953 10058 10057 9017 9018 10123 10122 
8953 8954 10059 10058 9018 9019 10124 10123 
8954 8955 10060 10059 9019 9020 10125 10124 
8955 8956 10061 10060 9020 9021 10126 10125 
8956 8957 10062 10061 9021 9022 10127 10126 
8957 8958 10063 10062 9022 9023 10128 10127 
8958 8959 10064 10063 9023 9024 10129 10128 
8959 8960 10065 10064 9024 9025 10130 10129 
8960 8961 10066 10065 9025 9026 10131 10130 
8961 8962 10067 10066 9026 9027 10132 10131 
8962 8963 10068 10067 9027 9028 10133 10132 
8963 8964 10069 10068 9028 9029 10134 10133 
8964 8965 10070 10069 9029 9030 10135 10134 
8965 8966 10071 10070 9030 9031 10136 10135 
8966 8967 10072 10071 9031 9032 10137 10136 
8967 8968 10073 10072 9032 9033 10138 10137 
8968 8969 10074 10073 9033 9034 10139 10138 
8970 8971 10076 10075 9035 9036 10141 10140 
8971 8972 10077 10076 9036 9037 10142 10141 
8972 8973 10078 10077 9037 9038 10143 10142 
8973 8974 10079 10078 9038 9039 10144 10143 
8974 8975 10080 10079 9039 9040 10145 10144 
8975 8976 10081 10080 9040 9041 10146 10145 
8976 8977 10082 10081 9041 9042 10147 10146 
8977 8978 10083 10082 9042 9043 10148 10147 
8978 8979 10084 10083 9043 9044 10149 10148 
8979 8980 10085 10084 9044 9045 10150 10149 
8980 8981 10086 10085 9045 9046 10151 10150 
8981 8982 10087 10086 9046 9047 10152 10151 
8982 8983 10088 10087 9047 9048 10153 10152 
8983 8984 10089 10088 9048 9049 10154 10153 
8984 8985 10090 10089 9049 9050 10155 10154 
8985 8986 10091 10090 9050 9051 10156 10155 
8986 8987 10092 10091 9051 9052 10157 10156 
8987 8988 10093 10092 9052 9053 10158 10157 
8988 8989 10094 10093 9053 9054 10159 10158 
8989 8990 10095 10094 9054 9055 10160 10159 
8990 8991 10096 10095 9055 9056 10161 10160 
8991 8992 10097 10096 9056 9057 10162 10161 
8992 8993 10098 10097 9057 9058 10163 10162 
8993 8994 10099 10098 9058 9059 10164 10163 
8994 8995 10100 10099 9059 9060 10165 10164 
8995 8996 10101 10100 9060 9061 10166 10165 
8996 8997 10102 10101 9061 9062 10167 10166 
8997 8998 10103 10102 9062 9063 10168 10167 
8998 8999 10104 10103 9063 9064 10169 10168 
8999 9000 10105 10104 9064 9065 10170 10169 
9000 9001 10106 10105 9065 9066 10171 10170 
9001 9002 10107 10106 9066 9067 10172 10171 
9002 9003 10108 10107 9067 9068 10173 10172 
9003 9004 10109 10108 9068 9069 10174 10173 
9004 9005 10110 10109 9069 9070 10175 10174 
9005 9006 10111 10110 9070 9071 10176 10175 
9006 9007 10112 10111 9071 9072 10177 10176 
9007 9008 10113 10112 9072 9073 10178 10177 
9008 9009 10114 10113 9073 9074 10179 10178 
9009 9010 10115 10114 9074 9075 10180 10179 
9010 9011 10116 10115 9075 9076 10181 10180 
9011 9012 10117 10116 9076 9077 10182 10181 
9012 9013 10118 10117 9077 9078 10183 10182 
9013 9014 10119 10118 9078 9079 10184 10183 
9014 9015 10120 10119 9079 9080 10185 10184 
9015 9016 10121 10120 9080 9081 10186 10185 
9016 9017 10122 10121 9081 9082 10187 10186 
9017 9018 10123 10122 9082 9083 10188 10187 
9018 9019 10124 10123 9083 9084 10189 10188 
9019 9020 10125 10124 9084 9085 10190 10189 
9020 9021 10126 10125 9085 9086 10191 10190 
9021 9022 10127 10126 9086 9087 10192 10191 
9022 9023 10128 10127 9087 9088 10193 10192 
9023 9024 10129 10128 9088 9089 10194 10193 
9024 9025 10130 10129 9089 9090 10195 10194 
9025 9026 10131 10130 9090 9091 10196 10195 
9026 9027 10132 10131 9091 9092 10197 10196 
9027 9028 10133 10132 9092 9093 10198 10197 
9028 9029 10134 10133 9093 9094 10199 10198 
9029 9030 10135 10134 9094 9095 10200 10199 
9030 9031 10136 10135 9095 9096 10201 10200 
9031 9032 10137 10136 9096 9097 10202 10201 
9032 9033 10138 10137 9097 9098 10203 10202 
9033 9034 10139 10138 9098 9099 10204 10203 
9035 9036 10141 10140 9100 9101 10206 10205 
9036 9037 10142 10141 9101 9102 10207 10206 
9037 9038 10143 10142 9102 9103 10208 10207 
9038 9039 10144 10143 9103 9104 10209 10208 
9039 9040 10145 10144 9104 9105 10210 10209 
9040 9041 10146 10145 9105 9106 10211 10210 
9041 9042 10147 10146 9106 9107 10212 10211 
9042 9043 10148 10147 9107 9108 10213 10212 
9043 9044 10149 10148 9108 9109 10214 10213 
9044 9045 10150 10149 9109 9110 10215 10214 
9045 9046 10151 10150 9110 9111 10216 10215 
9046 9047 10152 10151 9111 9112 10217 10216 
9047 9048 10153 10152 9112 9113 10218 10217 
9048 9049 10154 10153 9113 9114 10219 10218 
9049 9050 10155 10154 9114 9115 10220 10219 
9050 9051 10156 10155 9115 9116 10221 10220 
9051 9052 10157 10156 9116 9117 10222 10221 
9052 9053 10158 10157 9117 9118 10223 10222 
9053 9054 10159 10158 9118 9119 10224 10223 
9054 9055 10160 10159 9119 9120 10225 10224 
9055 9056 10161 10160 9120 9121 10226 10225 
9056 9057 10162 10161 9121 9122 10227 10226 
9057 9058 10163 10162 9122 9123 10228 10227 
9058 9059 10164 10163 9123 9124 10229 10228 
9059 9060 10165 10164 9124 9125 10230 10229 
9060 9061 10166 10165 9125 9126 10231 10230 
9061 9062 10167 10166 9126 9127 10232 10231 
9062 9063 10168 10167 9127 9128 10233 10232 
9063 9064 10169 10168 9128 9129 10234 10233 
9064 9065 10170 10169 9129 9130 10235 10234 
9065 9066 10171 10170 9130 9131 10236 10235 
9066 9067 10172 10171 9131 9132 10237 10236 
9067 9068 10173 10172 9132 9133 10238 10237 
9068 9069 10174 10173 9133 9134 10239 10238 
9069 9070 10175 10174 9134 9135 10240 10239 
9070 9071 10176 10175 9135 9136 10241 10240 
9071 9072 10177 10176 9136 9137 10242 10241 
9072 9073 10178 10177 9137 9138 10243 10242 
9073 9074 10179 10178 9138 9139 10244 10243 
9074 9075 10180 10179 9139 9140 10245 10244 
9075 9076 10181 10180 9140 9141 10246 10245 
9076 9077 10182 10181 9141 9142 10247 10246 
9077 9078 10183 10182 9142 9143 10248 10247 
9078 9079 10184 10183 9143 9144 10249 10248 
9079 9080 10185 10184 9144 9145 10250 10249 
9080 9081 10186 10185 9145 9146 10251 10250 
9081 9082 10187 10186 9146 9147 10252 10251 
9082 9083 10188 10187 9147 9148 10253 10252 
9083 9084 10189 10188 9148 9149 10254 10253 
9084 9085 10190 10189 9149 9150 10255 10254 
9085 9086 10191 10190 9150 9151 10256 10255 
9086 9087 10192 10191 9151 9152 10257 10256 
9087 9088 10193 10192 9152 9153 10258 10257 
9088 9089 10194 10193 9153 9154 10259 10258 
9089 9090 10195 10194 9154 9155 10260 10259 
9090 9091 10196 10195 9155 9156 10261 10260 
9091 9092 10197 10196 9156 9157 10262 10261 
9092 9093 10198 10197 9157 9158 10263 10262 
9093 9094 10199 10198 9158 9159 10264 10263 
9094 9095 10200 10199 9159 9160 10265 10264 
9095 9096 10201 10200 9160 9161 10266 10265 
9096 9097 10202 10201 9161 9162 10267 10266 
9097 9098 10203 10202 9162 9163 10268 10267 
9098 9099 10204 10203 9163 9164 10269 10268 
9100 9101 10206 10205 9165 9166 10271 10270 
9101 9102 10207 10206 9166 9167 10272 10271 
9102 9103 10208 10207 9167 9168 10273 10272 
9103 9104 10209 10208 9168 9169 10274 10273 
9104 9105 10210 10209 9169 9170 10275 10274 
9105 9106 10211 10210 9170 9171 10276 10275 
9106 9107 10212 10211 9171 9172 10277 10276 
9107 9108 10213 10212 9172 9173 10278 10277 
9108 9109 10214 10213 9173 9174 10279 10278 
9109 9110 10215 10214 9174 9175 10280 10279 
9110 9111 10216 10215 9175 9176 10281 10280 
9111 9112 10217 10216 9176 9177 10282 10281 
9112 9113 10218 10217 9177 9178 10283 10282 
9113 9114 10219 10218 9178 9179 10284 10283 
9114 9115 10220 10219 9179 9180 10285 10284 
9115 9116 10221 10220 9180 9181 10286 10285 
9116 9117 10222 10221 9181 9182 10287 10286 
9117 9118 10223 10222 9182 9183 10288 10287 
9118 9119 10224 10223 9183 9184 10289 10288 
9119 9120 10225 10224 9184 9185 10290 10289 
9120 9121 10226 10225 9185 9186 10291 10290 
9121 9122 10227 10226 9186 9187 10292 10291 
9122 9123 10228 10227 9187 9188 10293 10292 
9123 9124 10229 10228 9188 9189 10294 10293 
9124 9125 10230 10229 9189 9190 10295 10294 
9125 9126 10231 10230 9190 9191 10296 10295 
9126 9127 10232 10231 9191 9192 10297 10296 
9127 9128 10233 10232 9192 9193 10298 10297 
9128 9129 10234 10233 9193 9194 10299 10298 
9129 9130 10235 10234 9194 9195 10300 10299 
9130 9131 10236 10235 9195 9196 10301 10300 
9131 9132 10237 10236 9196 9197 10302 10301 
9132 9133 10238 10237 9197 9198 10303 10302 
9133 9134 10239 10238 9198 9199 10304 10303 
9134 9135 10240 10239 9199 9200 10305 10304 
9135 9136 10241 10240 9200 9201 10306 10305 
9136 9137 10242 10241 9201 9202 10307 10306 
9137 9138 10243 10242 9202 9203 10308 10307 
9138 9139 10244 10243 9203 9204 10309 10308 
9139 9140 10245 10244 9204 9205 10310 10309 
9140 9141 10246 10245 9205 9206 10311 10310 
9141 9142 10247 10246 9206 9207 10312 10311 
9142 9143 10248 10247 9207 9208 10313 10312 
9143 9144 10249 10248 9208 9209 10314 10313 
9144 9145 10250 10249 9209 9210 10315 10314 
9145 9146 10251 10250 9210 9211 10316 10315 
9146 9147 10252 10251 9211 9212 10317 10316 
9147 9148 10253 10252 9212 9213 10318 10317 
9148 9149 10254 10253 9213 9214 10319 10318 
9149 9150 10255 10254 9214 9215 10320 10319 
9150 9151 10256 10255 9215 9216 10321 10320 
9151 9152 10257 10256 9216 9217 10322 10321 
9152 9153 10258 10257 9217 9218 10323 10322 
9153 9154 10259 10258 9218 9219 10324 10323 
9154 9155 10260 10259 9219 9220 10325 10324 
9155 9156 10261 10260 9220 9221 10326 10325 
9156 9157 10262 10261 9221 9222 10327 10326 
9157 9158 10263 10262 9222 9223 10328 10327 
9158 9159 10264 10263 9223 9224 10329 10328 
9159 9160 10265 10264 9224 9225 10330 10329 
9160 9161 10266 10265 9225 9226 10331 10330 
9161 9162 10267 10266 9226 9227 10332 10331 
9162 9163 10268 10267 9227 9228 10333 10332 
9163 9164 10269 10268 9228 9229 10334 10333 
9165 9166 10271 10270 9230 9231 10336 10335 
9166 9167 10272 10271 9231 9232 10337 10336 
9167 9168 10273 10272 9232 9233 10338 10337 
9168 9169 10274 10273 9233 9234 10339 10338 
9169 9170 10275 10274 9234 9235 10340 10339 
9170 9171 10276 10275 9235 9236 10341 10340 
9171 9172 10277 10276 9236 9237 10342 10341 
9172 9173 10278 10277 9237 9238 10343 10342 
9173 9174 10279 10278 9238 9239 10344 10343 
9174 9175 10280 10279 9239 9240 10345 10344 
9175 9176 10281 10280 9240 9241 10346 10345 
9176 9177 10282 10281 9241 9242 10347 10346 
9177 9178 10283 10282 9242 9243 10348 10347 
9178 9179 10284 10283 9243 9244 10349 10348 
9179 9180 10285 10284 9244 9245 10350 10349 
9180 9181 10286 10285 9245 9246 10351 10350 
9181 9182 10287 10286 9246 9247 10352 10351 
9182 9183 10288 10287 9247 9248 10353 10352 
9183 9184 10289 10288 9248 9249 10354 10353 
9184 9185 10290 10289 9249 9250 10355 10354 
9185 9186 10291 10290 9250 9251 10356 10355 
9186 9187 10292 10291 9251 9252 10357 10356 
9187 9188 10293 10292 9252 9253 10358 10357 
9188 9189 10294 10293 9253 9254 10359 10358 
9189 9190 10295 10294 9254 9255 10360 10359 
9190 9191 10296 10295 9255 9256 10361 10360 
9191 9192 10297 10296 9256 9257 10362 10361 
9192 9193 10298 10297 9257 9258 10363 10362 
9193 9194 10299 10298 9258 9259 10364 10363 
9194 9195 10300 10299 9259 9260 10365 10364 
9195 9196 10301 10300 9260 9261 10366 10365 
9196 9197 10302 10301 9261 9262 10367 10366 
9197 9198 10303 10302 9262 9263 10368 10367 
9198 9199 10304 10303 9263 9264 10369 10368 
9199 9200 10305 10304 9264 9265 10370 10369 
9200 9201 10306 10305 9265 9266 10371 10370 
9201 9202 10307 10306 9266 9267 10372 10371 
9202 9203 10308 10307 9267 9268 10373 10372 
9203 9204 10309 10308 9268 9269 10374 10373 
9204 9205 10310 10309 9269 9270 10375 10374 
9205 9206 10311 10310 9270 9271 10376 10375 
9206 9207 10312 10311 9271 9272 10377 10376 
9207 9208 10313 10312 9272 9273 10378 10377 
9208 9209 10314 10313 9273 9274 10379 10378 
9209 9210 10315 10314 9274 9275 10380 10379 
9210 9211 10316 10315 9275 9276 10381 10380 
9211 9212 10317 10316 9276 9277 10382 10381 
9212 9213 10318 10317 9277 9278 10383 10382 
9213 9214 10319 10318 9278 9279 10384 10383 
9214 9215 10320 10319 9279 9280 10385 10384 
9215 9216 10321 10320 9280 9281 10386 10385 
9216 9217 10322 10321 9281 9282 10387 10386 
9217 9218 10323 10322 9282 9283 10388 10387 
9218 9219 10324 10323 9283 9284 10389 10388 
9219 9220 10325 10324 9284 9285 10390 10389 
9220 9221 10326 10325 9285 9286 10391 10390 
9221 9222 10327 10326 9286 9287 10392 10391 
9222 9223 10328 10327 9287 9288 10393 10392 
9223 9224 10329 10328 9288 9289 10394 10393 
9224 9225 10330 10329 9289 9290 10395 10394 
9225 9226 10331 10330 9290 9291 10396 10395 
9226 9227 10332 10331 9291 9292 10397 10396 
9227 9228 10333 10332 9292 9293 10398 10397 
9228 9229 10334 10333 9293 9294 10399 10398 
9230 9231 10336 10335 9295 9296 10401 10400 
9231 9232 10337 10336 9296 9297 10402 10401 
9232 9233 10338 10337 9297 9298 10403 10402 
9233 9234 10339 10338 9298 9299 10404 10403 
9234 9235 10340 10339 9299 9300 10405 10404 
9235 9236 10341 10340 9300 9301 10406 10405 
9236 9237 10342 10341 9301 9302 10407 10406 
9237 9238 10343 10342 9302 9303 10408 10407 
9238 9239 10344 10343 9303 9304 10409 10408 
9239 9240 10345 10344 9304 9305 10410 10409 
9240 9241 10346 10345 9305 9306 10411 10410 
9241 9242 10347 10346 9306 9307 10412 10411 
9242 9243 10348 10347 9307 9308 10413 10412 
9243 9244 10349 10348 9308 9309 10414 10413 
9244 9245 10350 10349 9309 9310 10415 10414 
9245 9246 10351 10350 9310 9311 10416 10415 
9246 9247 10352 10351 9311 9312 10417 10416 
9247 9248 10353 10352 9312 9313 10418 10417 
9248 9249 10354 10353 9313 9314 10419 10418 
9249 9250 10355 10354 9314 9315 10420 10419 
9250 9251 10356 10355 9315 9316 10421 10420 
9251 9252 10357 10356 9316 9317 10422 10421 
9252 9253 10358 10357 9317 9318 10423 10422 
9253 9254 10359 10358 9318 9319 10424 10423 
9254 9255 10360 10359 9319 9320 10425 10424 
9255 9256 10361 10360 9320 9321 10426 10425 
9256 9257 10362 10361 9321 9322 10427 10426 
9257 9258 10363 10362 9322 9323 10428 10427 
9258 9259 10364 10363 9323 9324 10429 10428 
9259 9260 10365 10364 9324 9325 10430 10429 
9260 9261 10366 10365 9325 9326 10431 10430 
9261 9262 10367 10366 9326 9327 10432 10431 
9262 9263 10368 10367 9327 9328 10433 10432 
9263 9264 10369 10368 9328 9329 10434 10433 
9264 9265 10370 10369 9329 9330 10435 10434 
9265 9266 10371 10370 9330 9331 10436 10435 
9266 9267 10372 10371 9331 9332 10437 10436 
9267 9268 10373 10372 9332 9333 10438 10437 
9268 9269 10374 10373 9333 9334 10439 10438 
9269 9270 10375 10374 9334 9335 10440 10439 
9270 9271 10376 10375 9335 9336 10441 10440 
9271 9272 10377 10376 9336 9337 10442 10441 
9272 9273 10378 10377 9337 9338 10443 10442 
9273 9274 10379 10378 9338 9339 10444 10443 
9274 9275 10380 10379 9339 9340 10445 10444 
9275 9276 10381 10380 9340 9341 10446 10445 
9276 9277 10382 10381 9341 9342 10447 10446 
9277 9278 10383 10382 9342 9343 10448 10447 
9278 9279 10384 10383 9343 9344 10449 10448 
9279 9280 10385 10384 9344 9345 10450 10449 
9280 9281 10386 10385 9345 9346 10451 10450 
9281 9282 10387 10386 9346 9347 10452 10451 
9282 9283 10388 10387 9347 9348 10453 10452 
9283 9284 10389 10388 9348 9349 10454 10453 
9284 9285 10390 10389 9349 9350 10455 10454 
9285 9286 10391 10390 9350 9351 10456 10455 
9286 9287 10392 10391 9351 9352 10457 10456 
9287 9288 10393 10392 9352 9353 10458 10457 
9288 9289 10394 10393 9353 9354 10459 10458 
9289 9290 10395 10394 9354 9355 10460 10459 
9290 9291 10396 10395 9355 9356 10461 10460 
9291 9292 10397 10396 9356 9357 10462 10461 
9292 9293 10398 10397 9357 9358 10463 10462 
9293 9294 10399 10398 9358 9359 10464 10463 
9295 9296 10401 10400 9360 9361 10466 10465 
9296 9297 10402 10401 9361 9362 10467 10466 
9297 9298 10403 10402 9362 9363 10468 10467 
9298 9299 10404 10403 9363 9364 10469 10468 
9299 9300 10405 10404 9364 9365 10470 10469 
9300 9301 10406 10405 9365 9366 10471 10470 
9301 9302 10407 10406 9366 9367 10472 10471 
9302 9303 10408 10407 9367 9368 10473 10472 
9303 9304 10409 10408 9368 9369 10474 10473 
9304 9305 10410 10409 9369 9370 10475 10474 
9305 9306 10411 10410 9370 9371 10476 10475 
9306 9307 10412 10411 9371 9372 10477 10476 
9307 9308 10413 10412 9372 9373 10478 10477 
9308 9309 10414 10413 9373 9374 10479 10478 
9309 9310 10415 10414 9374 9375 10480 10479 
9310 9311 10416 10415 9375 9376 10481 10480 
9311 9312 10417 10416 9376 9377 10482 10481 
9312 9313 10418 10417 9377 9378 10483 10482 
9313 9314 10419 10418 9378 9379 10484 10483 
9314 9315 10420 10419 9379 9380 10485 10484 
9315 9316 10421 10420 9380 9381 10486 10485 
9316 9317 10422 10421 9381 9382 10487 10486 
9317 9318 10423 10422 9382 9383 10488 10487 
9318 9319 10424 10423 9383 9384 10489 10488 
9319 9320 10425 10424 9384 9385 10490 10489 
9320 9321 10426 10425 9385 9386 10491 10490 
9321 9322 10427 10426 9386 9387 10492 10491 
9322 9323 10428 10427 9387 9388 10493 10492 
9323 9324 10429 10428 9388 9389 10494 10493 
9324 9325 10430 10429 9389 9390 10495 10494 
9325 9326 10431 10430 9390 9391 10496 10495 
9326 9327 10432 10431 9391 9392 10497 10496 
9327 9328 10433 10432 9392 9393 10498 10497 
9328 9329 10434 10433 9393 9394 10499 10498 
9329 9330 10435 10434 9394 9395 10500 10499 
9330 9331 10436 10435 9395 9396 10501 10500 
9331 9332 10437 10436 9396 9397 10502 10501 
9332 9333 10438 10437 9397 9398 10503 10502 
9333 9334 10439 10438 9398 9399 10504 10503 
9334 9335 10440 10439 9399 9400 10505 10504 
9335 9336 10441 10440 9400 9401 10506 10505 
9336 9337 10442 10441 9401 9402 10507 10506 
9337 9338 10443 10442 9402 9403 10508 10507 
9338 9339 10444 10443 9403 9404 10509 10508 
9339 9340 10445 10444 9404 9405 10510 10509 
9340 9341 10446 10445 9405 9406 10511 10510 
9341 9342 10447 10446 9406 9407 10512 10511 
9342 9343 10448 10447 9407 9408 10513 10512 
9343 9344 10449 10448 9408 9409 10514 10513 
9344 9345 10450 10449 9409 9410 10515 10514 
9345 9346 10451 10450 9410 9411 10516 10515 
9346 9347 10452 10451 9411 9412 10517 10516 
9347 9348 10453 10452 9412 9413 10518 10517 
9348 9349 10454 10453 9413 9414 10519 10518 
9349 9350 10455 10454 9414 9415 10520 10519 
9350 9351 10456 10455 9415 9416 10521 10520 
9351 9352 10457 10456 9416 9417 10522 10521 
9352 9353 10458 10457 9417 9418 10523 10522 
9353 9354 10459 10458 9418 9419 10524 10523 
9354 9355 10460 10459 9419 9420 10525 10524 
9355 9356 10461 10460 9420 9421 10526 10525 
9356 9357 10462 10461 9421 9422 10527 10526 
9357 9358 10463 10462 9422 9423 10528 10527 
9358 9359 10464 10463 9423 9424 10529 10528 
9360 9361 10466 10465 9425 9426 10531 10530 
9361 9362 10467 10466 9426 9427 10532 10531 
9362 9363 10468 10467 9427 9428 10533 10532 
9363 9364 10469 10468 9428 9429 10534 10533 
9364 9365 10470 10469 9429 9430 10535 10534 
9365 9366 10471 10470 9430 9431 10536 10535 
9366 9367 10472 10471 9431 9432 10537 10536 
9367 9368 10473 10472 9432 9433 10538 10537 
9368 9369 10474 10473 9433 9434 10539 10538 
9369 9370 10475 10474 9434 9435 10540 10539 
9370 9371 10476 10475 9435 9436 10541 10540 
9371 9372 10477 10476 9436 9437 10542 10541 
9372 9373 10478 10477 9437 9438 10543 10542 
9373 9374 10479 10478 9438 9439 10544 10543 
9374 9375 10480 10479 9439 9440 10545 10544 
9375 9376 10481 10480 9440 9441 10546 10545 
9376 9377 10482 10481 9441 9442 10547 10546 
9377 9378 10483 10482 9442 9443 10548 10547 
9378 9379 10484 10483 9443 9444 10549 10548 
9379 9380 10485 10484 9444 9445 10550 10549 
9380 9381 10486 10485 9445 9446 10551 10550 
9381 9382 10487 10486 9446 9447 10552 10551 
9382 9383 10488 10487 9447 9448 10553 10552 
9383 9384 10489 10488 9448 9449 10554 10553 
9384 9385 10490 10489 9449 9450 10555 10554 
9385 9386 10491 10490 9450 9451 10556 10555 
9386 9387 10492 10491 9451 9452 10557 10556 
9387 9388 10493 10492 9452 9453 10558 10557 
9388 9389 10494 10493 9453 9454 10559 10558 
9389 9390 10495 10494 9454 9455 10560 10559 
9390 9391 10496 10495 9455 9456 10561 10560 
9391 9392 10497 10496 9456 9457 10562 10561 
9392 9393 10498 10497 9457 9458 10563 10562 
9393 9394 10499 10498 9458 9459 10564 10563 
9394 9395 10500 10499 9459 9460 10565 10564 
9395 9396 10501 10500 9460 9461 10566 10565 
9396 9397 10502 10501 9461 9462 10567 10566 
9397 9398 10503 10502 9462 9463 10568 10567 
9398 9399 10504 10503 9463 9464 10569 10568 
9399 9400 10505 10504 9464 9465 10570 10569 
9400 9401 10506 10505 9465 9466 10571 10570 
9401 9402 10507 10506 9466 9467 10572 10571 
9402 9403 10508 10507 9467 9468 10573 10572 
9403 9404 10509 10508 9468 9469 10574 10573 
9404 9405 10510 10509 9469 9470 10575 10574 
9405 9406 10511 10510 9470 9471 10576 10575 
9406 9407 10512 10511 9471 9472 10577 10576 
9407 9408 10513 10512 9472 9473 10578 10577 
9408 9409 10514 10513 9473 9474 10579 10578 
9409 9410 10515 10514 9474 9475 10580 10579 
9410 9411 10516 10515 9475 9476 10581 10580 
9411 9412 10517 10516 9476 9477 10582 10581 
9412 9413 10518 10517 9477 9478 10583 10582 
9413 9414 10519 10518 9478 9479 10584 10583 
9414 9415 10520 10519 9479 9480 10585 10584 
9415 9416 10521 10520 9480 9481 10586 10585 
9416 9417 10522 10521 9481 9482 10587 10586 
9417 9418 10523 10522 9482 9483 10588 10587 
9418 9419 10524 10523 9483 9484 10589 10588 
9419 9420 10525 10524 9484 9485 10590 10589 
9420 9421 10526 10525 9485 9486 10591 10590 
9421 9422 10527 10526 9486 9487 10592 10591 
9422 9423 10528 10527 9487 9488 10593 10592 
9423 9424 10529 10528 9488 9489 10594 10593 
9425 9426 10531 10530 9490 9491 10596 10595 
9426 9427 10532 10531 9491 9492 10597 10596 
9427 9428 10533 10532 9492 9493 10598 10597 
9428 9429 10534 10533 9493 9494 10599 10598 
9429 9430 10535 10534 9494 9495 10600 10599 
9430 9431 10536 10535 9495 9496 10601 10600 
9431 9432 10537 10536 9496 9497 10602 10601 
9432 9433 10538 10537 9497 9498 10603 10602 
9433 9434 10539 10538 9498 9499 10604 10603 
9434 9435 10540 10539 9499 9500 10605 10604 
9435 9436 10541 10540 9500 9501 10606 10605 
9436 9437 10542 10541 9501 9502 10607 10606 
9437 9438 10543 10542 9502 9503 10608 10607 
9438 9439 10544 10543 9503 9504 10609 10608 
9439 9440 10545 10544 9504 9505 10610 10609 
9440 9441 10546 10545 9505 9506 10611 10610 
9441 9442 10547 10546 9506 9507 10612 10611 
9442 9443 10548 10547 9507 9508 10613 10612 
9443 9444 10549 10548 9508 9509 10614 10613 
9444 9445 10550 10549 9509 9510 10615 10614 
9445 9446 10551 10550 9510 9511 10616 10615 
9446 9447 10552 10551 9511 9512 10617 10616 
9447 9448 10553 10552 9512 9513 10618 10617 
9448 9449 10554 10553 9513 9514 10619 10618 
9449 9450 10555 10554 9514 9515 10620 10619 
9450 9451 10556 10555 9515 9516 10621 10620 
9451 9452 10557 10556 9516 9517 10622 10621 
9452 9453 10558 10557 9517 9518 10623 10622 
9453 9454 10559 10558 9518 9519 10624 10623 
9454 9455 10560 10559 9519 9520 10625 10624 
9455 9456 10561 10560 9520 9521 10626 10625 
9456 9457 10562 10561 9521 9522 10627 10626 
9457 9458 10563 10562 9522 9523 10628 10627 
9458 9459 10564 10563 9523 9524 10629 10628 
9459 9460 10565 10564 9524 9525 10630 10629 
9460 9461 10566 10565 9525 9526 10631 10630 
9461 9462 10567 10566 9526 9527 10632 10631 
9462 9463 10568 10567 9527 9528 10633 10632 
9463 9464 10569 10568 9528 9529 10634 10633 
9464 9465 10570 10569 9529 9530 10635 10634 
9465 9466 10571 10570 9530 9531 10636 10635 
9466 9467 10572 10571 9531 9532 10637 10636 
9467 9468 10573 10572 9532 9533 10638 10637 
9468 9469 10574 10573 9533 9534 10639 10638 
9469 9470 10575 10574 9534 9535 10640 10639 
9470 9471 10576 10575 9535 9536 10641 10640 
9471 9472 10577 10576 9536 9537 10642 10641 
9472 9473 10578 10577 9537 9538 10643 10642 
9473 9474 10579 10578 9538 9539 10644 10643 
9474 9475 10580 10579 9539 9540 10645 10644 
9475 9476 10581 10580 9540 9541 10646 10645 
9476 9477 10582 10581 9541 9542 10647 10646 
9477 9478 10583 10582 9542 9543 10648 10647 
9478 9479 10584 10583 9543 9544 10649 10648 
9479 9480 10585 10584 9544 9545 10650 10649 
9480 9481 10586 10585 9545 9546 10651 10650 
9481 9482 10587 10586 9546 9547 10652 10651 
9482 9483 10588 10587 9547 9548 10653 10652 
9483 9484 10589 10588 9548 9549 10654 10653 
9484 9485 10590 10589 9549 9550 10655 10654 
9485 9486 10591 10590 9550 9551 10656 10655 
9486 9487 10592 10591 9551 9552 10657 10656 
9487 9488 10593 10592 9552 9553 10658 10657 
9488 9489 10594 10593 9553 9554 10659 10658 
9490 9491 10596 10595 9555 9556 10661 10660 
9491 9492 10597 10596 9556 9557 10662 10661 
9492 9493 10598 10597 9557 9558 10663 10662 
9493 9494 10599 10598 9558 9559 10664 10663 
9494 9495 10600 10599 9559 9560 10665 10664 
9495 9496 10601 10600 9560 9561 10666 10665 
9496 9497 10602 10601 9561 9562 10667 10666 
9497 9498 10603 10602 9562 9563 10668 10667 
9498 9499 10604 10603 9563 9564 10669 10668 
9499 9500 10605 10604 9564 9565 10670 10669 
9500 9501 10606 10605 9565 9566 10671 10670 
9501 9502 10607 10606 9566 9567 10672 10671 
9502 9503 10608 10607 9567 9568 10673 10672 
9503 9504 10609 10608 9568 9569 10674 10673 
9504 9505 10610 10609 9569 9570 10675 10674 
9505 9506 10611 10610 9570 9571 10676 10675 
9506 9507 10612 10611 9571 9572 10677 10676 
9507 9508 10613 10612 9572 9573 10678 10677 
9508 9509 10614 10613 9573 9574 10679 10678 
9509 9510 10615 10614 9574 9575 10680 10679 
9510 9511 10616 10615 9575 9576 10681 10680 
9511 9512 10617 10616 9576 9577 10682 10681 
9512 9513 10618 10617 9577 9578 10683 10682 
9513 9514 10619 10618 9578 9579 10684 10683 
9514 9515 10620 10619 9579 9580 10685 10684 
9515 9516 10621 10620 9580 9581 10686 10685 
9516 9517 10622 10621 9581 9582 10687 10686 
9517 9518 10623 10622 9582 9583 10688 10687 
9518 9519 10624 10623 9583 9584 10689 10688 
9519 9520 10625 10624 9584 9585 10690 10689 
9520 9521 10626 10625 9585 9586 10691 10690 
9521 9522 10627 10626 9586 9587 10692 10691 
9522 9523 10628 10627 9587 9588 10693 10692 
9523 9524 10629 10628 9588 9589 10694 10693 
9524 9525 10630 10629 9589 9590 10695 10694 
9525 9526 10631 10630 9590 9591 10696 10695 
9526 9527 10632 10631 9591 9592 10697 10696 
9527 9528 10633 10632 9592 9593 10698 10697 
9528 9529 10634 10633 9593 9594 10699 10698 
9529 9530 10635 10634 9594 9595 10700 10699 
9530 9531 10636 10635 9595 9596 10701 10700 
9531 9532 10637 10636 9596 9597 10702 10701 
9532 9533 10638 10637 9597 9598 10703 10702 
9533 9534 10639 10638 9598 9599 10704 10703 
9534 9535 10640 10639 9599 9600 10705 10704 
9535 9536 10641 10640 9600 9601 10706 10705 
9536 9537 10642 10641 9601 9602 10707 10706 
9537 9538 10643 10642 9602 9603 10708 10707 
9538 9539 10644 10643 9603 9604 10709 10708 
9539 9540 10645 10644 9604 9605 10710 10709 
9540 9541 10646 10645 9605 9606 10711 10710 
9541 9542 10647 10646 9606 9607 10712 10711 
9542 9543 10648 10647 9607 9608 10713 10712 
9543 9544 10649 10648 9608 9609 10714 10713 
9544 9545 10650 10649 9609 9610 10715 10714 
9545 9546 10651 10650 9610 9611 10716 10715 
9546 9547 10652 10651 9611 9612 10717 10716 
9547 9548 10653 10652 9612 9613 10718 10717 
9548 9549 10654 10653 9613 9614 10719 10718 
9549 9550 10655 10654 9614 9615 10720 10719 
9550 9551 10656 10655 9615 9616 10721 10720 
9551 9552 10657 10656 9616 9617 10722 10721 
9552 9553 10658 10657 9617 9618 10723 10722 
9553 9554 10659 10658 9618 9619 10724 10723 
9555 9556 10661 10660 9620 9621 10726 10725 
9556 9557 10662 10661 9621 9622 10727 10726 
9557 9558 10663 10662 9622 9623 10728 10727 
9558 9559 10664 10663 9623 9624 10729 10728 
9559 9560 10665 10664 9624 9625 10730 10729 
9560 9561 10666 10665 9625 9626 10731 10730 
9561 9562 10667 10666 9626 9627 10732 10731 
9562 9563 10668 10667 9627 9628 10733 10732 
9563 9564 10669 10668 9628 9629 10734 10733 
9564 9565 10670 10669 9629 9630 10735 10734 
9565 9566 10671 10670 9630 9631 10736 10735 
9566 9567 10672 10671 9631 9632 10737 10736 
9567 9568 10673 10672 9632 9633 10738 10737 
9568 9569 10674 10673 9633 9634 10739 10738 
9569 9570 10675 10674 9634 9635 10740 10739 
9570 9571 10676 10675 9635 9636 10741 10740 
9571 9572 10677 10676 9636 9637 10742 10741 
9572 9573 10678 10677 9637 9638 10743 10742 
9573 9574 10679 10678 9638 9639 10744 10743 
9574 9575 10680 10679 9639 9640 10745 10744 
9575 9576 10681 10680 9640 9641 10746 10745 
9576 9577 10682 10681 9641 9642 10747 10746 
9577 9578 10683 10682 9642 9643 10748 10747 
9578 9579 10684 10683 9643 9644 10749 10748 
9579 9580 10685 10684 9644 9645 10750 10749 
9580 9581 10686 10685 9645 9646 10751 10750 
9581 9582 10687 10686 9646 9647 10752 10751 
9582 9583 10688 10687 9647 9648 10753 10752 
9583 9584 10689 10688 9648 9649 10754 10753 
9584 9585 10690 10689 9649 9650 10755 10754 
9585 9586 10691 10690 9650 9651 10756 10755 
9586 9587 10692 10691 9651 9652 10757 10756 
9587 9588 10693 10692 9652 9653 10758 10757 
9588 9589 10694 10693 9653 9654 10759 10758 
9589 9590 10695 10694 9654 9655 10760 10759 
9590 9591 10696 10695 9655 9656 10761 10760 
9591 9592 10697 10696 9656 9657 10762 10761 
9592 9593 10698 10697 9657 9658 10763 10762 
9593 9594 10699 10698 9658 9659 10764 10763 
9594 9595 10700 10699 9659 9660 10765 10764 
9595 9596 10701 10700 9660 9661 10766 10765 
9596 9597 10702 10701 9661 9662 10767 10766 
9597 9598 10703 10702 9662 9663 10768 10767 
9598 9599 10704 10703 9663 9664 10769 10768 
9599 9600 10705 10704 9664 9665 10770 10769 
9600 9601 10706 10705 9665 9666 10771 10770 
9601 9602 10707 10706 9666 9667 10772 10771 
9602 9603 10708 10707 9667 9668 10773 10772 
9603 9604 10709 10708 9668 9669 10774 10773 
9604 9605 10710 10709 9669 9670 10775 10774 
9605 9606 10711 10710 9670 9671 10776 10775 
9606 9607 10712 10711 9671 9672 10777 10776 
9607 9608 10713 10712 9672 9673 10778 10777 
9608 9609 10714 10713 9673 9674 10779 10778 
9609 9610 10715 10714 9674 9675 10780 10779 
9610 9611 10716 10715 9675 9676 10781 10780 
9611 9612 10717 10716 9676 9677 10782 10781 
9612 9613 10718 10717 9677 9678 10783 10782 
9613 9614 10719 10718 9678 9679 10784 10783 
9614 9615 10720 10719 9679 9680 10785 10784 
9615 9616 10721 10720 9680 9681 10786 10785 
9616 9617 10722 10721 9681 9682 10787 10786 
9617 9618 10723 10722 9682 9683 10788 10787 
9618 9619 10724 10723 9683 9684 10789 10788 
9620 9621 10726 10725 9685 9686 10791 10790 
9621 9622 10727 10726 9686 9687 10792 10791 
9622 9623 10728 10727 9687 9688 10793 10792 
9623 9624 10729 10728 9688 9689 10794 10793 
9624 9625 10730 10729 9689 9690 10795 10794 
9625 9626 10731 10730 9690 9691 10796 10795 
9626 9627 10732 10731 9691 9692 10797 10796 
9627 9628 10733 10732 9692 9693 10798 10797 
9628 9629 10734 10733 9693 9694 10799 10798 
9629 9630 10735 10734 9694 9695 10800 10799 
9630 9631 10736 10735 9695 9696 10801 10800 
9631 9632 10737 10736 9696 9697 10802 10801 
9632 9633 10738 10737 9697 9698 10803 10802 
9633 9634 10739 10738 9698 9699 10804 10803 
9634 9635 10740 10739 9699 9700 10805 10804 
9635 9636 10741 10740 9700 9701 10806 10805 
9636 9637 10742 10741 9701 9702 10807 10806 
9637 9638 10743 10742 9702 9703 10808 10807 
9638 9639 10744 10743 9703 9704 10809 10808 
9639 9640 10745 10744 9704 9705 10810 10809 
9640 9641 10746 10745 9705 9706 10811 10810 
9641 9642 10747 10746 9706 9707 10812 10811 
9642 9643 10748 10747 9707 9708 10813 10812 
9643 9644 10749 10748 9708 9709 10814 10813 
9644 9645 10750 10749 9709 9710 10815 10814 
9645 9646 10751 10750 9710 9711 10816 10815 
9646 9647 10752 10751 9711 9712 10817 10816 
9647 9648 10753 10752 9712 9713 10818 10817 
9648 9649 10754 10753 9713 9714 10819 10818 
9649 9650 10755 10754 9714 9715 10820 10819 
9650 9651 10756 10755 9715 9716 10821 10820 
9651 9652 10757 10756 9716 9717 10822 10821 
9652 9653 10758 10757 9717 9718 10823 10822 
9653 9654 10759 10758 9718 9719 10824 10823 
9654 9655 10760 10759 9719 9720 10825 10824 
9655 9656 10761 10760 9720 9721 10826 10825 
9656 9657 10762 10761 9721 9722 10827 10826 
9657 9658 10763 10762 9722 9723 10828 10827 
9658 9659 10764 10763 9723 9724 10829 10828 
9659 9660 10765 10764 9724 9725 10830 10829 
9660 9661 10766 10765 9725 9726 10831 10830 
9661 9662 10767 10766 9726 9727 10832 10831 
9662 9663 10768 10767 9727 9728 10833 10832 
9663 9664 10769 10768 9728 9729 10834 10833 
9664 9665 10770 10769 9729 9730 10835 10834 
9665 9666 10771 10770 9730 9731 10836 10835 
9666 9667 10772 10771 9731 9732 10837 10836 
9667 9668 10773 10772 9732 9733 10838 10837 
9668 9669 10774 10773 9733 9734 10839 10838 
9669 9670 10775 10774 9734 9735 10840 10839 
9670 9671 10776 10775 9735 9736 10841 10840 
9671 9672 10777 10776 9736 9737 10842 10841 
9672 9673 10778 10777 9737 9738 10843 10842 
9673 9674 10779 10778 9738 9739 10844 10843 
9674 9675 10780 10779 9739 9740 10845 10844 
9675 9676 10781 10780 9740 9741 10846 10845 
9676 9677 10782 10781 9741 9742 10847 10846 
9677 9678 10783 10782 9742 9743 10848 10847 
9678 9679 10784 10783 9743 9744 10849 10848 
9679 9680 10785 10784 9744 9745 10850 10849 
9680 9681 10786 10785 9745 9746 10851 10850 
9681 9682 10787 10786 9746 9747 10852 10851 
9682 9683 10788 10787 9747 9748 10853 10852 
9683 9684 10789 10788 9748 9749 10854 10853 
9685 9686 10791 10790 9750 9751 10856 10855 
9686 9687 10792 10791 9751 9752 10857 10856 
9687 9688 10793 10792 9752 9753 10858 10857 
9688 9689 10794 10793 9753 9754 10859 10858 
9689 9690 10795 10794 9754 9755 10860 10859 
9690 9691 10796 10795 9755 9756 10861 10860 
9691 9692 10797 10796 9756 9757 10862 10861 
9692 9693 10798 10797 9757 9758 10863 10862 
9693 9694 10799 10798 9758 9759 10864 10863 
9694 9695 10800 10799 9759 9760 10865 10864 
9695 9696 10801 10800 9760 9761 10866 10865 
9696 9697 10802 10801 9761 9762 10867 10866 
9697 9698 10803 10802 9762 9763 10868 10867 
9698 9699 10804 10803 9763 9764 10869 10868 
9699 9700 10805 10804 9764 9765 10870 10869 
9700 9701 10806 10805 9765 9766 10871 10870 
9701 9702 10807 10806 9766 9767 10872 10871 
9702 9703 10808 10807 9767 9768 10873 10872 
9703 9704 10809 10808 9768 9769 10874 10873 
9704 9705 10810 10809 9769 9770 10875 10874 
9705 9706 10811 10810 9770 9771 10876 10875 
9706 9707 10812 10811 9771 9772 10877 10876 
9707 9708 10813 10812 9772 9773 10878 10877 
9708 9709 10814 10813 9773 9774 10879 10878 
9709 9710 10815 10814 9774 9775 10880 10879 
9710 9711 10816 10815 9775 9776 10881 10880 
9711 9712 10817 10816 9776 9777 10882 10881 
9712 9713 10818 10817 9777 9778 10883 10882 
9713 9714 10819 10818 9778 9779 10884 10883 
9714 9715 10820 10819 9779 9780 10885 10884 
9715 9716 10821 10820 9780 9781 10886 10885 
9716 9717 10822 10821 9781 9782 10887 10886 
9717 9718 10823 10822 9782 9783 10888 10887 
9718 9719 10824 10823 9783 9784 10889 10888 
9719 9720 10825 10824 9784 9785 10890 10889 
9720 9721 10826 10825 9785 9786 10891 10890 
9721 9722 10827 10826 9786 9787 10892 10891 
9722 9723 10828 10827 9787 9788 10893 10892 
9723 9724 10829 10828 9788 9789 10894 10893 
9724 9725 10830 10829 9789 9790 10895 10894 
9725 9726 10831 10830 9790 9791 10896 10895 
9726 9727 10832 10831 9791 9792 10897 10896 
9727 9728 10833 10832 9792 9793 10898 10897 
9728 9729 10834 10833 9793 9794 10899 10898 
9729 9730 10835 10834 9794 9795 10900 10899 
9730 9731 10836 10835 9795 9796 10901 10900 
9731 9732 10837 10836 9796 9797 10902 10901 
9732 9733 10838 10837 9797 9798 10903 10902 
9733 9734 10839 10838 9798 9799 10904 10903 
9734 9735 10840 10839 9799 9800 10905 10904 
9735 9736 10841 10840 9800 9801 10906 10905 
9736 9737 10842 10841 9801 9802 10907 10906 
9737 9738 10843 10842 9802 9803 10908 10907 
9738 9739 10844 10843 9803 9804 10909 10908 
9739 9740 10845 10844 9804 9805 10910 10909 
9740 9741 10846 10845 9805 9806 10911 10910 
9741 9742 10847 10846 9806 9807 10912 10911 
9742 9743 10848 10847 9807 9808 10913 10912 
9743 9744 10849 10848 9808 9809 10914 10913 
9744 9745 10850 10849 9809 9810 10915 10914 
9745 9746 10851 10850 9810 9811 10916 10915 
9746 9747 10852 10851 9811 9812 10917 10916 
9747 9748 10853 10852 9812 9813 10918 10917 
9748 9749 10854 10853 9813 9814 10919 10918 
9750 9751 10856 10855 9815 9816 10921 10920 
9751 9752 10857 10856 9816 9817 10922 10921 
9752 9753 10858 10857 9817 9818 10923 10922 
9753 9754 10859 10858 9818 9819 10924 10923 
9754 9755 10860 10859 9819 9820 10925 10924 
9755 9756 10861 10860 9820 9821 10926 10925 
9756 9757 10862 10861 9821 9822 10927 10926 
9757 9758 10863 10862 9822 9823 10928 10927 
9758 9759 10864 10863 9823 9824 10929 10928 
9759 9760 10865 10864 9824 9825 10930 10929 
9760 9761 10866 10865 9825 9826 10931 10930 
9761 9762 10867 10866 9826 9827 10932 10931 
9762 9763 10868 10867 9827 9828 10933 10932 
9763 9764 10869 10868 9828 9829 10934 10933 
9764 9765 10870 10869 9829 9830 10935 10934 
9765 9766 10871 10870 9830 9831 10936 10935 
9766 9767 10872 10871 9831 9832 10937 10936 
9767 9768 10873 10872 9832 9833 10938 10937 
9768 9769 10874 10873 9833 9834 10939 10938 
9769 9770 10875 10874 9834 9835 10940 10939 
9770 9771 10876 10875 9835 9836 10941 10940 
9771 9772 10877 10876 9836 9837 10942 10941 
9772 9773 10878 10877 9837 9838 10943 10942 
9773 9774 10879 10878 9838 9839 10944 10943 
9774 9775 10880 10879 9839 9840 10945 10944 
9775 9776 10881 10880 9840 9841 10946 10945 
9776 9777 10882 10881 9841 9842 10947 10946 
9777 9778 10883 10882 9842 9843 10948 10947 
9778 9779 10884 10883 9843 9844 10949 10948 
9779 9780 10885 10884 9844 9845 10950 10949 
9780 9781 10886 10885 9845 9846 10951 10950 
9781 9782 10887 10886 9846 9847 10952 10951 
9782 9783 10888 10887 9847 9848 10953 10952 
9783 9784 10889 10888 9848 9849 10954 10953 
9784 9785 10890 10889 9849 9850 10955 10954 
9785 9786 10891 10890 9850 9851 10956 10955 
9786 9787 10892 10891 9851 9852 10957 10956 
9787 9788 10893 10892 9852 9853 10958 10957 
9788 9789 10894 10893 9853 9854 10959 10958 
9789 9790 10895 10894 9854 9855 10960 10959 
9790 9791 10896 10895 9855 9856 10961 10960 
9791 9792 10897 10896 9856 9857 10962 10961 
9792 9793 10898 10897 9857 9858 10963 10962 
9793 9794 10899 10898 9858 9859 10964 10963 
9794 9795 10900 10899 9859 9860 10965 10964 
9795 9796 10901 10900 9860 9861 10966 10965 
9796 9797 10902 10901 9861 9862 10967 10966 
9797 9798 10903 10902 9862 9863 10968 10967 
9798 9799 10904 10903 9863 9864 10969 10968 
9799 9800 10905 10904 9864 9865 10970 10969 
9800 9801 10906 10905 9865 9866 10971 10970 
9801 9802 10907 10906 9866 9867 10972 10971 
9802 9803 10908 10907 9867 9868 10973 10972 
9803 9804 10909 10908 9868 9869 10974 10973 
9804 9805 10910 10909 9869 9870 10975 10974 
9805 9806 10911 10910 9870 9871 10976 10975 
9806 9807 10912 10911 9871 9872 10977 10976 
9807 9808 10913 10912 9872 9873 10978 10977 
9808 9809 10914 10913 9873 9874 10979 10978 
9809 9810 10915 10914 9874 9875 10980 10979 
9810 9811 10916 10915 9875 9876 10981 10980 
9811 9812 10917 10916 9876 9877 10982 10981 
9812 9813 10918 10917 9877 9878 10983 10982 
9813 9814 10919 10918 9878 9879 10984 10983 
9815 9816 10921 10920 9880 9881 10986 10985 
9816 9817 10922 10921 9881 9882 10987 10986 
9817 9818 10923 10922 9882 9883 10988 10987 
9818 9819 10924 10923 9883 9884 10989 10988 
9819 9820 10925 10924 9884 9885 10990 10989 
9820 9821 10926 10925 9885 9886 10991 10990 
9821 9822 10927 10926 9886 9887 10992 10991 
9822 9823 10928 10927 9887 9888 10993 10992 
9823 9824 10929 10928 9888 9889 10994 10993 
9824 9825 10930 10929 9889 9890 10995 10994 
9825 9826 10931 10930 9890 9891 10996 10995 
9826 9827 10932 10931 9891 9892 10997 10996 
9827 9828 10933 10932 9892 9893 10998 10997 
9828 9829 10934 10933 9893 9894 10999 10998 
9829 9830 10935 10934 9894 9895 11000 10999 
9830 9831 10936 10935 9895 9896 11001 11000 
9831 9832 10937 10936 9896 9897 11002 11001 
9832 9833 10938 10937 9897 9898 11003 11002 
9833 9834 10939 10938 9898 9899 11004 11003 
9834 9835 10940 10939 9899 9900 11005 11004 
9835 9836 10941 10940 9900 9901 11006 11005 
9836 9837 10942 10941 9901 9902 11007 11006 
9837 9838 10943 10942 9902 9903 11008 11007 
9838 9839 10944 10943 9903 9904 11009 11008 
9839 9840 10945 10944 9904 9905 11010 11009 
9840 9841 10946 10945 9905 9906 11011 11010 
9841 9842 10947 10946 9906 9907 11012 11011 
9842 9843 10948 10947 9907 9908 11013 11012 
9843 9844 10949 10948 9908 9909 11014 11013 
9844 9845 10950 10949 9909 9910 11015 11014 
9845 9846 10951 10950 9910 9911 11016 11015 
9846 9847 10952 10951 9911 9912 11017 11016 
9847 9848 10953 10952 9912 9913 11018 11017 
9848 9849 10954 10953 9913 9914 11019 11018 
9849 9850 10955 10954 9914 9915 11020 11019 
9850 9851 10956 10955 9915 9916 11021 11020 
9851 9852 10957 10956 9916 9917 11022 11021 
9852 9853 10958 10957 9917 9918 11023 11022 
9853 9854 10959 10958 9918 9919 11024 11023 
9854 9855 10960 10959 9919 9920 11025 11024 
9855 9856 10961 10960 9920 9921 11026 11025 
9856 9857 10962 10961 9921 9922 11027 11026 
9857 9858 10963 10962 9922 9923 11028 11027 
9858 9859 10964 10963 9923 9924 11029 11028 
9859 9860 10965 10964 9924 9925 11030 11029 
9860 9861 10966 10965 9925 9926 11031 11030 
9861 9862 10967 10966 9926 9927 11032 11031 
9862 9863 10968 10967 9927 9928 11033 11032 
9863 9864 10969 10968 9928 9929 11034 11033 
9864 9865 10970 10969 9929 9930 11035 11034 
9865 9866 10971 10970 9930 9931 11036 11035 
9866 9867 10972 10971 9931 9932 11037 11036 
9867 9868 10973 10972 9932 9933 11038 11037 
9868 9869 10974 10973 9933 9934 11039 11038 
9869 9870 10975 10974 9934 9935 11040 11039 
9870 9871 10976 10975 9935 9936 11041 11040 
9871 9872 10977 10976 9936 9937 11042 11041 
9872 9873 10978 10977 9937 9938 11043 11042 
9873 9874 10979 10978 9938 9939 11044 11043 
9874 9875 10980 10979 9939 9940 11045 11044 
9875 9876 10981 10980 9940 9941 11046 11045 
9876 9877 10982 10981 9941 9942 11047 11046 
9877 9878 10983 10982 9942 9943 11048 11047 
9878 9879 10984 10983 9943 9944 11049 11048 
9945 9946 11051 11050 10010 10011 11116 11115 
9946 9947 11052 11051 10011 10012 11117 11116 
9947 9948 11053 11052 10012 10013 11118 11117 
9948 9949 11054 11053 10013 10014 11119 11118 
9949 9950 11055 11054 10014 10015 11120 11119 
9950 9951 11056 11055 10015 10016 11121 11120 
9951 9952 11057 11056 10016 10017 11122 11121 
9952 9953 11058 11057 10017 10018 11123 11122 
9953 9954 11059 11058 10018 10019 11124 11123 
9954 9955 11060 11059 10019 10020 11125 11124 
9955 9956 11061 11060 10020 10021 11126 11125 
9956 9957 11062 11061 10021 10022 11127 11126 
9957 9958 11063 11062 10022 10023 11128 11127 
9958 9959 11064 11063 10023 10024 11129 11128 
9959 9960 11065 11064 10024 10025 11130 11129 
9960 9961 11066 11065 10025 10026 11131 11130 
9961 9962 11067 11066 10026 10027 11132 11131 
9962 9963 11068 11067 10027 10028 11133 11132 
9963 9964 11069 11068 10028 10029 11134 11133 
9964 9965 11070 11069 10029 10030 11135 11134 
9965 9966 11071 11070 10030 10031 11136 11135 
9966 9967 11072 11071 10031 10032 11137 11136 
9967 9968 11073 11072 10032 10033 11138 11137 
9968 9969 11074 11073 10033 10034 11139 11138 
9969 9970 11075 11074 10034 10035 11140 11139 
9970 9971 11076 11075 10035 10036 11141 11140 
9971 9972 11077 11076 10036 10037 11142 11141 
9972 9973 11078 11077 10037 10038 11143 11142 
9973 9974 11079 11078 10038 10039 11144 11143 
9974 9975 11080 11079 10039 10040 11145 11144 
9975 9976 11081 11080 10040 10041 11146 11145 
9976 9977 11082 11081 10041 10042 11147 11146 
9977 9978 11083 11082 10042 10043 11148 11147 
9978 9979 11084 11083 10043 10044 11149 11148 
9979 9980 11085 11084 10044 10045 11150 11149 
9980 9981 11086 11085 10045 10046 11151 11150 
9981 9982 11087 11086 10046 10047 11152 11151 
9982 9983 11088 11087 10047 10048 11153 11152 
9983 9984 11089 11088 10048 10049 11154 11153 
9984 9985 11090 11089 10049 10050 11155 11154 
9985 9986 11091 11090 10050 10051 11156 11155 
9986 9987 11092 11091 10051 10052 11157 11156 
9987 9988 11093 11092 10052 10053 11158 11157 
9988 9989 11094 11093 10053 10054 11159 11158 
9989 9990 11095 11094 10054 10055 11160 11159 
9990 9991 11096 11095 10055 10056 11161 11160 
9991 9992 11097 11096 10056 10057 11162 11161 
9992 9993 11098 11097 10057 10058 11163 11162 
9993 9994 11099 11098 10058 10059 11164 11163 
9994 9995 11100 11099 10059 10060 11165 11164 
9995 9996 11101 11100 10060 10061 11166 11165 
9996 9997 11102 11101 10061 10062 11167 11166 
9997 9998 11103 11102 10062 10063 11168 11167 
9998 9999 11104 11103 10063 10064 11169 11168 
9999 10000 11105 11104 10064 10065 11170 11169 
10000 10001 11106 11105 10065 10066 11171 11170 
10001 10002 11107 11106 10066 10067 11172 11171 
10002 10003 11108 11107 10067 10068 11173 11172 
10003 10004 11109 11108 10068 10069 11174 11173 
10004 10005 11110 11109 10069 10070 11175 11174 
10005 10006 11111 11110 10070 10071 11176 11175 
10006 10007 11112 11111 10071 10072 11177 11176 
10007 10008 11113 11112 10072 10073 11178 11177 
10008 10009 11114 11113 10073 10074 11179 11178 
10010 10011 11116 11115 10075 10076 11181 11180 
10011 10012 11117 11116 10076 10077 11182 11181 
10012 10013 11118 11117 10077 10078 11183 11182 
10013 10014 11119 11118 10078 10079 11184 11183 
10014 10015 11120 11119 10079 10080 11185 11184 
10015 10016 11121 11120 10080 10081 11186 11185 
10016 10017 11122 11121 10081 10082 11187 11186 
10017 10018 11123 11122 10082 10083 11188 11187 
10018 10019 11124 11123 10083 10084 11189 11188 
10019 10020 11125 11124 10084 10085 11190 11189 
10020 10021 11126 11125 10085 10086 11191 11190 
10021 10022 11127 11126 10086 10087 11192 11191 
10022 10023 11128 11127 10087 10088 11193 11192 
10023 10024 11129 11128 10088 10089 11194 11193 
10024 10025 11130 11129 10089 10090 11195 11194 
10025 10026 11131 11130 10090 10091 11196 11195 
10026 10027 11132 11131 10091 10092 11197 11196 
10027 10028 11133 11132 10092 10093 11198 11197 
10028 10029 11134 11133 10093 10094 11199 11198 
10029 10030 11135 11134 10094 10095 11200 11199 
10030 10031 11136 11135 10095 10096 11201 11200 
10031 10032 11137 11136 10096 10097 11202 11201 
10032 10033 11138 11137 10097 10098 11203 11202 
10033 10034 11139 11138 10098 10099 11204 11203 
10034 10035 11140 11139 10099 10100 11205 11204 
10035 10036 11141 11140 10100 10101 11206 11205 
10036 10037 11142 11141 10101 10102 11207 11206 
10037 10038 11143 11142 10102 10103 11208 11207 
10038 10039 11144 11143 10103 10104 11209 11208 
10039 10040 11145 11144 10104 10105 11210 11209 
10040 10041 11146 11145 10105 10106 11211 11210 
10041 10042 11147 11146 10106 10107 11212 11211 
10042 10043 11148 11147 10107 10108 11213 11212 
10043 10044 11149 11148 10108 10109 11214 11213 
10044 10045 11150 11149 10109 10110 11215 11214 
10045 10046 11151 11150 10110 10111 11216 11215 
10046 10047 11152 11151 10111 10112 11217 11216 
10047 10048 11153 11152 10112 10113 11218 11217 
10048 10049 11154 11153 10113 10114 11219 11218 
10049 10050 11155 11154 10114 10115 11220 11219 
10050 10051 11156 11155 10115 10116 11221 11220 
10051 10052 11157 11156 10116 10117 11222 11221 
10052 10053 11158 11157 10117 10118 11223 11222 
10053 10054 11159 11158 10118 10119 11224 11223 
10054 10055 11160 11159 10119 10120 11225 11224 
10055 10056 11161 11160 10120 10121 11226 11225 
10056 10057 11162 11161 10121 10122 11227 11226 
10057 10058 11163 11162 10122 10123 11228 11227 
10058 10059 11164 11163 10123 10124 11229 11228 
10059 10060 11165 11164 10124 10125 11230 11229 
10060 10061 11166 11165 10125 10126 11231 11230 
10061 10062 11167 11166 10126 10127 11232 11231 
10062 10063 11168 11167 10127 10128 11233 11232 
10063 10064 11169 11168 10128 10129 11234 11233 
10064 10065 11170 11169 10129 10130 11235 11234 
10065 10066 11171 11170 10130 10131 11236 11235 
10066 10067 11172 11171 10131 10132 11237 11236 
10067 10068 11173 11172 10132 10133 11238 11237 
10068 10069 11174 11173 10133 10134 11239 11238 
10069 10070 11175 11174 10134 10135 11240 11239 
10070 10071 11176 11175 10135 10136 11241 11240 
10071 10072 11177 11176 10136 10137 11242 11241 
10072 10073 11178 11177 10137 10138 11243 11242 
10073 10074 11179 11178 10138 10139 11244 11243 
10075 10076 11181 11180 10140 10141 11246 11245 
10076 10077 11182 11181 10141 10142 11247 11246 
10077 10078 11183 11182 10142 10143 11248 11247 
10078 10079 11184 11183 10143 10144 11249 11248 
10079 10080 11185 11184 10144 10145 11250 11249 
10080 10081 11186 11185 10145 10146 11251 11250 
10081 10082 11187 11186 10146 10147 11252 11251 
10082 10083 11188 11187 10147 10148 11253 11252 
10083 10084 11189 11188 10148 10149 11254 11253 
10084 10085 11190 11189 10149 10150 11255 11254 
10085 10086 11191 11190 10150 10151 11256 11255 
10086 10087 11192 11191 10151 10152 11257 11256 
10087 10088 11193 11192 10152 10153 11258 11257 
10088 10089 11194 11193 10153 10154 11259 11258 
10089 10090 11195 11194 10154 10155 11260 11259 
10090 10091 11196 11195 10155 10156 11261 11260 
10091 10092 11197 11196 10156 10157 11262 11261 
10092 10093 11198 11197 10157 10158 11263 11262 
10093 10094 11199 11198 10158 10159 11264 11263 
10094 10095 11200 11199 10159 10160 11265 11264 
10095 10096 11201 11200 10160 10161 11266 11265 
10096 10097 11202 11201 10161 10162 11267 11266 
10097 10098 11203 11202 10162 10163 11268 11267 
10098 10099 11204 11203 10163 10164 11269 11268 
10099 10100 11205 11204 10164 10165 11270 11269 
10100 10101 11206 11205 10165 10166 11271 11270 
10101 10102 11207 11206 10166 10167 11272 11271 
10102 10103 11208 11207 10167 10168 11273 11272 
10103 10104 11209 11208 10168 10169 11274 11273 
10104 10105 11210 11209 10169 10170 11275 11274 
10105 10106 11211 11210 10170 10171 11276 11275 
10106 10107 11212 11211 10171 10172 11277 11276 
10107 10108 11213 11212 10172 10173 11278 11277 
10108 10109 11214 11213 10173 10174 11279 11278 
10109 10110 11215 11214 10174 10175 11280 11279 
10110 10111 11216 11215 10175 10176 11281 11280 
10111 10112 11217 11216 10176 10177 11282 11281 
10112 10113 11218 11217 10177 10178 11283 11282 
10113 10114 11219 11218 10178 10179 11284 11283 
10114 10115 11220 11219 10179 10180 11285 11284 
10115 10116 11221 11220 10180 10181 11286 11285 
10116 10117 11222 11221 10181 10182 11287 11286 
10117 10118 11223 11222 10182 10183 11288 11287 
10118 10119 11224 11223 10183 10184 11289 11288 
10119 10120 11225 11224 10184 10185 11290 11289 
10120 10121 11226 11225 10185 10186 11291 11290 
10121 10122 11227 11226 10186 10187 11292 11291 
10122 10123 11228 11227 10187 10188 11293 11292 
10123 10124 11229 11228 10188 10189 11294 11293 
10124 10125 11230 11229 10189 10190 11295 11294 
10125 10126 11231 11230 10190 10191 11296 11295 
10126 10127 11232 11231 10191 10192 11297 11296 
10127 10128 11233 11232 10192 10193 11298 11297 
10128 10129 11234 11233 10193 10194 11299 11298 
10129 10130 11235 11234 10194 10195 11300 11299 
10130 10131 11236 11235 10195 10196 11301 11300 
10131 10132 11237 11236 10196 10197 11302 11301 
10132 10133 11238 11237 10197 10198 11303 11302 
10133 10134 11239 11238 10198 10199 11304 11303 
10134 10135 11240 11239 10199 10200 11305 11304 
10135 10136 11241 11240 10200 10201 11306 11305 
10136 10137 11242 11241 10201 10202 11307 11306 
10137 10138 11243 11242 10202 10203 11308 11307 
10138 10139 11244 11243 10203 10204 11309 11308 
10140 10141 11246 11245 10205 10206 11311 11310 
10141 10142 11247 11246 10206 10207 11312 11311 
10142 10143 11248 11247 10207 10208 11313 11312 
10143 10144 11249 11248 10208 10209 11314 11313 
10144 10145 11250 11249 10209 10210 11315 11314 
10145 10146 11251 11250 10210 10211 11316 11315 
10146 10147 11252 11251 10211 10212 11317 11316 
10147 10148 11253 11252 10212 10213 11318 11317 
10148 10149 11254 11253 10213 10214 11319 11318 
10149 10150 11255 11254 10214 10215 11320 11319 
10150 10151 11256 11255 10215 10216 11321 11320 
10151 10152 11257 11256 10216 10217 11322 11321 
10152 10153 11258 11257 10217 10218 11323 11322 
10153 10154 11259 11258 10218 10219 11324 11323 
10154 10155 11260 11259 10219 10220 11325 11324 
10155 10156 11261 11260 10220 10221 11326 11325 
10156 10157 11262 11261 10221 10222 11327 11326 
10157 10158 11263 11262 10222 10223 11328 11327 
10158 10159 11264 11263 10223 10224 11329 11328 
10159 10160 11265 11264 10224 10225 11330 11329 
10160 10161 11266 11265 10225 10226 11331 11330 
10161 10162 11267 11266 10226 10227 11332 11331 
10162 10163 11268 11267 10227 10228 11333 11332 
10163 10164 11269 11268 10228 10229 11334 11333 
10164 10165 11270 11269 10229 10230 11335 11334 
10165 10166 11271 11270 10230 10231 11336 11335 
10166 10167 11272 11271 10231 10232 11337 11336 
10167 10168 11273 11272 10232 10233 11338 11337 
10168 10169 11274 11273 10233 10234 11339 11338 
10169 10170 11275 11274 10234 10235 11340 11339 
10170 10171 11276 11275 10235 10236 11341 11340 
10171 10172 11277 11276 10236 10237 11342 11341 
10172 10173 11278 11277 10237 10238 11343 11342 
10173 10174 11279 11278 10238 10239 11344 11343 
10174 10175 11280 11279 10239 10240 11345 11344 
10175 10176 11281 11280 10240 10241 11346 11345 
10176 10177 11282 11281 10241 10242 11347 11346 
10177 10178 11283 11282 10242 10243 11348 11347 
10178 10179 11284 11283 10243 10244 11349 11348 
10179 10180 11285 11284 10244 10245 11350 11349 
10180 10181 11286 11285 10245 10246 11351 11350 
10181 10182 11287 11286 10246 10247 11352 11351 
10182 10183 11288 11287 10247 10248 11353 11352 
10183 10184 11289 11288 10248 10249 11354 11353 
10184 10185 11290 11289 10249 10250 11355 11354 
10185 10186 11291 11290 10250 10251 11356 11355 
10186 10187 11292 11291 10251 10252 11357 11356 
10187 10188 11293 11292 10252 10253 11358 11357 
10188 10189 11294 11293 10253 10254 11359 11358 
10189 10190 11295 11294 10254 10255 11360 11359 
10190 10191 11296 11295 10255 10256 11361 11360 
10191 10192 11297 11296 10256 10257 11362 11361 
10192 10193 11298 11297 10257 10258 11363 11362 
10193 10194 11299 11298 10258 10259 11364 11363 
10194 10195 11300 11299 10259 10260 11365 11364 
10195 10196 11301 11300 10260 10261 11366 11365 
10196 10197 11302 11301 10261 10262 11367 11366 
10197 10198 11303 11302 10262 10263 11368 11367 
10198 10199 11304 11303 10263 10264 11369 11368 
10199 10200 11305 11304 10264 10265 11370 11369 
10200 10201 11306 11305 10265 10266 11371 11370 
10201 10202 11307 11306 10266 10267 11372 11371 
10202 10203 11308 11307 10267 10268 11373 11372 
10203 10204 11309 11308 10268 10269 11374 11373 
10205 10206 11311 11310 10270 10271 11376 11375 
10206 10207 11312 11311 10271 10272 11377 11376 
10207 10208 11313 11312 10272 10273 11378 11377 
10208 10209 11314 11313 10273 10274 11379 11378 
10209 10210 11315 11314 10274 10275 11380 11379 
10210 10211 11316 11315 10275 10276 11381 11380 
10211 10212 11317 11316 10276 10277 11382 11381 
10212 10213 11318 11317 10277 10278 11383 11382 
10213 10214 11319 11318 10278 10279 11384 11383 
10214 10215 11320 11319 10279 10280 11385 11384 
10215 10216 11321 11320 10280 10281 11386 11385 
10216 10217 11322 11321 10281 10282 11387 11386 
10217 10218 11323 11322 10282 10283 11388 11387 
10218 10219 11324 11323 10283 10284 11389 11388 
10219 10220 11325 11324 10284 10285 11390 11389 
10220 10221 11326 11325 10285 10286 11391 11390 
10221 10222 11327 11326 10286 10287 11392 11391 
10222 10223 11328 11327 10287 10288 11393 11392 
10223 10224 11329 11328 10288 10289 11394 11393 
10224 10225 11330 11329 10289 10290 11395 11394 
10225 10226 11331 11330 10290 10291 11396 11395 
10226 10227 11332 11331 10291 10292 11397 11396 
10227 10228 11333 11332 10292 10293 11398 11397 
10228 10229 11334 11333 10293 10294 11399 11398 
10229 10230 11335 11334 10294 10295 11400 11399 
10230 10231 11336 11335 10295 10296 11401 11400 
10231 10232 11337 11336 10296 10297 11402 11401 
10232 10233 11338 11337 10297 10298 11403 11402 
10233 10234 11339 11338 10298 10299 11404 11403 
10234 10235 11340 11339 10299 10300 11405 11404 
10235 10236 11341 11340 10300 10301 11406 11405 
10236 10237 11342 11341 10301 10302 11407 11406 
10237 10238 11343 11342 10302 10303 11408 11407 
10238 10239 11344 11343 10303 10304 11409 11408 
10239 10240 11345 11344 10304 10305 11410 11409 
10240 10241 11346 11345 10305 10306 11411 11410 
10241 10242 11347 11346 10306 10307 11412 11411 
10242 10243 11348 11347 10307 10308 11413 11412 
10243 10244 11349 11348 10308 10309 11414 11413 
10244 10245 11350 11349 10309 10310 11415 11414 
10245 10246 11351 11350 10310 10311 11416 11415 
10246 10247 11352 11351 10311 10312 11417 11416 
10247 10248 11353 11352 10312 10313 11418 11417 
10248 10249 11354 11353 10313 10314 11419 11418 
10249 10250 11355 11354 10314 10315 11420 11419 
10250 10251 11356 11355 10315 10316 11421 11420 
10251 10252 11357 11356 10316 10317 11422 11421 
10252 10253 11358 11357 10317 10318 11423 11422 
10253 10254 11359 11358 10318 10319 11424 11423 
10254 10255 11360 11359 10319 10320 11425 11424 
10255 10256 11361 11360 10320 10321 11426 11425 
10256 10257 11362 11361 10321 10322 11427 11426 
10257 10258 11363 11362 10322 10323 11428 11427 
10258 10259 11364 11363 10323 10324 11429 11428 
10259 10260 11365 11364 10324 10325 11430 11429 
10260 10261 11366 11365 10325 10326 11431 11430 
10261 10262 11367 11366 10326 10327 11432 11431 
10262 10263 11368 11367 10327 10328 11433 11432 
10263 10264 11369 11368 10328 10329 11434 11433 
10264 10265 11370 11369 10329 10330 11435 11434 
10265 10266 11371 11370 10330 10331 11436 11435 
10266 10267 11372 11371 10331 10332 11437 11436 
10267 10268 11373 11372 10332 10333 11438 11437 
10268 10269 11374 11373 10333 10334 11439 11438 
10270 10271 11376 11375 10335 10336 11441 11440 
10271 10272 11377 11376 10336 10337 11442 11441 
10272 10273 11378 11377 10337 10338 11443 11442 
10273 10274 11379 11378 10338 10339 11444 11443 
10274 10275 11380 11379 10339 10340 11445 11444 
10275 10276 11381 11380 10340 10341 11446 11445 
10276 10277 11382 11381 10341 10342 11447 11446 
10277 10278 11383 11382 10342 10343 11448 11447 
10278 10279 11384 11383 10343 10344 11449 11448 
10279 10280 11385 11384 10344 10345 11450 11449 
10280 10281 11386 11385 10345 10346 11451 11450 
10281 10282 11387 11386 10346 10347 11452 11451 
10282 10283 11388 11387 10347 10348 11453 11452 
10283 10284 11389 11388 10348 10349 11454 11453 
10284 10285 11390 11389 10349 10350 11455 11454 
10285 10286 11391 11390 10350 10351 11456 11455 
10286 10287 11392 11391 10351 10352 11457 11456 
10287 10288 11393 11392 10352 10353 11458 11457 
10288 10289 11394 11393 10353 10354 11459 11458 
10289 10290 11395 11394 10354 10355 11460 11459 
10290 10291 11396 11395 10355 10356 11461 11460 
10291 10292 11397 11396 10356 10357 11462 11461 
10292 10293 11398 11397 10357 10358 11463 11462 
10293 10294 11399 11398 10358 10359 11464 11463 
10294 10295 11400 11399 10359 10360 11465 11464 
10295 10296 11401 11400 10360 10361 11466 11465 
10296 10297 11402 11401 10361 10362 11467 11466 
10297 10298 11403 11402 10362 10363 11468 11467 
10298 10299 11404 11403 10363 10364 11469 11468 
10299 10300 11405 11404 10364 10365 11470 11469 
10300 10301 11406 11405 10365 10366 11471 11470 
10301 10302 11407 11406 10366 10367 11472 11471 
10302 10303 11408 11407 10367 10368 11473 11472 
10303 10304 11409 11408 10368 10369 11474 11473 
10304 10305 11410 11409 10369 10370 11475 11474 
10305 10306 11411 11410 10370 10371 11476 11475 
10306 10307 11412 11411 10371 10372 11477 11476 
10307 10308 11413 11412 10372 10373 11478 11477 
10308 10309 11414 11413 10373 10374 11479 11478 
10309 10310 11415 11414 10374 10375 11480 11479 
10310 10311 11416 11415 10375 10376 11481 11480 
10311 10312 11417 11416 10376 10377 11482 11481 
10312 10313 11418 11417 10377 10378 11483 11482 
10313 10314 11419 11418 10378 10379 11484 11483 
10314 10315 11420 11419 10379 10380 11485 11484 
10315 10316 11421 11420 10380 10381 11486 11485 
10316 10317 11422 11421 10381 10382 11487 11486 
10317 10318 11423 11422 10382 10383 11488 11487 
10318 10319 11424 11423 10383 10384 11489 11488 
10319 10320 11425 11424 10384 10385 11490 11489 
10320 10321 11426 11425 10385 10386 11491 11490 
10321 10322 11427 11426 10386 10387 11492 11491 
10322 10323 11428 11427 10387 10388 11493 11492 
10323 10324 11429 11428 10388 10389 11494 11493 
10324 10325 11430 11429 10389 10390 11495 11494 
10325 10326 11431 11430 10390 10391 11496 11495 
10326 10327 11432 11431 10391 10392 11497 11496 
10327 10328 11433 11432 10392 10393 11498 11497 
10328 10329 11434 11433 10393 10394 11499 11498 
10329 10330 11435 11434 10394 10395 11500 11499 
10330 10331 11436 11435 10395 10396 11501 11500 
10331 10332 11437 11436 10396 10397 11502 11501 
10332 10333 11438 11437 10397 10398 11503 11502 
10333 10334 11439 11438 10398 10399 11504 11503 
10335 10336 11441 11440 10400 10401 11506 11505 
10336 10337 11442 11441 10401 10402 11507 11506 
10337 10338 11443 11442 10402 10403 11508 11507 
10338 10339 11444 11443 10403 10404 11509 11508 
10339 10340 11445 11444 10404 10405 11510 11509 
10340 10341 11446 11445 10405 10406 11511 11510 
10341 10342 11447 11446 10406 10407 11512 11511 
10342 10343 11448 11447 10407 10408 11513 11512 
10343 10344 11449 11448 10408 10409 11514 11513 
10344 10345 11450 11449 10409 10410 11515 11514 
10345 10346 11451 11450 10410 10411 11516 11515 
10346 10347 11452 11451 10411 10412 11517 11516 
10347 10348 11453 11452 10412 10413 11518 11517 
10348 10349 11454 11453 10413 10414 11519 11518 
10349 10350 11455 11454 10414 10415 11520 11519 
10350 10351 11456 11455 10415 10416 11521 11520 
10351 10352 11457 11456 10416 10417 11522 11521 
10352 10353 11458 11457 10417 10418 11523 11522 
10353 10354 11459 11458 10418 10419 11524 11523 
10354 10355 11460 11459 10419 10420 11525 11524 
10355 10356 11461 11460 10420 10421 11526 11525 
10356 10357 11462 11461 10421 10422 11527 11526 
10357 10358 11463 11462 10422 10423 11528 11527 
10358 10359 11464 11463 10423 10424 11529 11528 
10359 10360 11465 11464 10424 10425 11530 11529 
10360 10361 11466 11465 10425 10426 11531 11530 
10361 10362 11467 11466 10426 10427 11532 11531 
10362 10363 11468 11467 10427 10428 11533 11532 
10363 10364 11469 11468 10428 10429 11534 11533 
10364 10365 11470 11469 10429 10430 11535 11534 
10365 10366 11471 11470 10430 10431 11536 11535 
10366 10367 11472 11471 10431 10432 11537 11536 
10367 10368 11473 11472 10432 10433 11538 11537 
10368 10369 11474 11473 10433 10434 11539 11538 
10369 10370 11475 11474 10434 10435 11540 11539 
10370 10371 11476 11475 10435 10436 11541 11540 
10371 10372 11477 11476 10436 10437 11542 11541 
10372 10373 11478 11477 10437 10438 11543 11542 
10373 10374 11479 11478 10438 10439 11544 11543 
10374 10375 11480 11479 10439 10440 11545 11544 
10375 10376 11481 11480 10440 10441 11546 11545 
10376 10377 11482 11481 10441 10442 11547 11546 
10377 10378 11483 11482 10442 10443 11548 11547 
10378 10379 11484 11483 10443 10444 11549 11548 
10379 10380 11485 11484 10444 10445 11550 11549 
10380 10381 11486 11485 10445 10446 11551 11550 
10381 10382 11487 11486 10446 10447 11552 11551 
10382 10383 11488 11487 10447 10448 11553 11552 
10383 10384 11489 11488 10448 10449 11554 11553 
10384 10385 11490 11489 10449 10450 11555 11554 
10385 10386 11491 11490 10450 10451 11556 11555 
10386 10387 11492 11491 10451 10452 11557 11556 
10387 10388 11493 11492 10452 10453 11558 11557 
10388 10389 11494 11493 10453 10454 11559 11558 
10389 10390 11495 11494 10454 10455 11560 11559 
10390 10391 11496 11495 10455 10456 11561 11560 
10391 10392 11497 11496 10456 10457 11562 11561 
10392 10393 11498 11497 10457 10458 11563 11562 
10393 10394 11499 11498 10458 10459 11564 11563 
10394 10395 11500 11499 10459 10460 11565 11564 
10395 10396 11501 11500 10460 10461 11566 11565 
10396 10397 11502 11501 10461 10462 11567 11566 
10397 10398 11503 11502 10462 10463 11568 11567 
10398 10399 11504 11503 10463 10464 11569 11568 
10400 10401 11506 11505 10465 10466 11571 11570 
10401 10402 11507 11506 10466 10467 11572 11571 
10402 10403 11508 11507 10467 10468 11573 11572 
10403 10404 11509 11508 10468 10469 11574 11573 
10404 10405 11510 11509 10469 10470 11575 11574 
10405 10406 11511 11510 10470 10471 11576 11575 
10406 10407 11512 11511 10471 10472 11577 11576 
10407 10408 11513 11512 10472 10473 11578 11577 
10408 10409 11514 11513 10473 10474 11579 11578 
10409 10410 11515 11514 10474 10475 11580 11579 
10410 10411 11516 11515 10475 10476 11581 11580 
10411 10412 11517 11516 10476 10477 11582 11581 
10412 10413 11518 11517 10477 10478 11583 11582 
10413 10414 11519 11518 10478 10479 11584 11583 
10414 10415 11520 11519 10479 10480 11585 11584 
10415 10416 11521 11520 10480 10481 11586 11585 
10416 10417 11522 11521 10481 10482 11587 11586 
10417 10418 11523 11522 10482 10483 11588 11587 
10418 10419 11524 11523 10483 10484 11589 11588 
10419 10420 11525 11524 10484 10485 11590 11589 
10420 10421 11526 11525 10485 10486 11591 11590 
10421 10422 11527 11526 10486 10487 11592 11591 
10422 10423 11528 11527 10487 10488 11593 11592 
10423 10424 11529 11528 10488 10489 11594 11593 
10424 10425 11530 11529 10489 10490 11595 11594 
10425 10426 11531 11530 10490 10491 11596 11595 
10426 10427 11532 11531 10491 10492 11597 11596 
10427 10428 11533 11532 10492 10493 11598 11597 
10428 10429 11534 11533 10493 10494 11599 11598 
10429 10430 11535 11534 10494 10495 11600 11599 
10430 10431 11536 11535 10495 10496 11601 11600 
10431 10432 11537 11536 10496 10497 11602 11601 
10432 10433 11538 11537 10497 10498 11603 11602 
10433 10434 11539 11538 10498 10499 11604 11603 
10434 10435 11540 11539 10499 10500 11605 11604 
10435 10436 11541 11540 10500 10501 11606 11605 
10436 10437 11542 11541 10501 10502 11607 11606 
10437 10438 11543 11542 10502 10503 11608 11607 
10438 10439 11544 11543 10503 10504 11609 11608 
10439 10440 11545 11544 10504 10505 11610 11609 
10440 10441 11546 11545 10505 10506 11611 11610 
10441 10442 11547 11546 10506 10507 11612 11611 
10442 10443 11548 11547 10507 10508 11613 11612 
10443 10444 11549 11548 10508 10509 11614 11613 
10444 10445 11550 11549 10509 10510 11615 11614 
10445 10446 11551 11550 10510 10511 11616 11615 
10446 10447 11552 11551 10511 10512 11617 11616 
10447 10448 11553 11552 10512 10513 11618 11617 
10448 10449 11554 11553 10513 10514 11619 11618 
10449 10450 11555 11554 10514 10515 11620 11619 
10450 10451 11556 11555 10515 10516 11621 11620 
10451 10452 11557 11556 10516 10517 11622 11621 
10452 10453 11558 11557 10517 10518 11623 11622 
10453 10454 11559 11558 10518 10519 11624 11623 
10454 10455 11560 11559 10519 10520 11625 11624 
10455 10456 11561 11560 10520 10521 11626 11625 
10456 10457 11562 11561 10521 10522 11627 11626 
10457 10458 11563 11562 10522 10523 11628 11627 
10458 10459 11564 11563 10523 10524 11629 11628 
10459 10460 11565 11564 10524 10525 11630 11629 
10460 10461 11566 11565 10525 10526 11631 11630 
10461 10462 11567 11566 10526 10527 11632 11631 
10462 10463 11568 11567 10527 10528 11633 11632 
10463 10464 11569 11568 10528 10529 11634 11633 
10465 10466 11571 11570 10530 10531 11636 11635 
10466 10467 11572 11571 10531 10532 11637 11636 
10467 10468 11573 11572 10532 10533 11638 11637 
10468 10469 11574 11573 10533 10534 11639 11638 
10469 10470 11575 11574 10534 10535 11640 11639 
10470 10471 11576 11575 10535 10536 11641 11640 
10471 10472 11577 11576 10536 10537 11642 11641 
10472 10473 11578 11577 10537 10538 11643 11642 
10473 10474 11579 11578 10538 10539 11644 11643 
10474 10475 11580 11579 10539 10540 11645 11644 
10475 10476 11581 11580 10540 10541 11646 11645 
10476 10477 11582 11581 10541 10542 11647 11646 
10477 10478 11583 11582 10542 10543 11648 11647 
10478 10479 11584 11583 10543 10544 11649 11648 
10479 10480 11585 11584 10544 10545 11650 11649 
10480 10481 11586 11585 10545 10546 11651 11650 
10481 10482 11587 11586 10546 10547 11652 11651 
10482 10483 11588 11587 10547 10548 11653 11652 
10483 10484 11589 11588 10548 10549 11654 11653 
10484 10485 11590 11589 10549 10550 11655 11654 
10485 10486 11591 11590 10550 10551 11656 11655 
10486 10487 11592 11591 10551 10552 11657 11656 
10487 10488 11593 11592 10552 10553 11658 11657 
10488 10489 11594 11593 10553 10554 11659 11658 
10489 10490 11595 11594 10554 10555 11660 11659 
10490 10491 11596 11595 10555 10556 11661 11660 
10491 10492 11597 11596 10556 10557 11662 11661 
10492 10493 11598 11597 10557 10558 11663 11662 
10493 10494 11599 11598 10558 10559 11664 11663 
10494 10495 11600 11599 10559 10560 11665 11664 
10495 10496 11601 11600 10560 10561 11666 11665 
10496 10497 11602 11601 10561 10562 11667 11666 
10497 10498 11603 11602 10562 10563 11668 11667 
10498 10499 11604 11603 10563 10564 11669 11668 
10499 10500 11605 11604 10564 10565 11670 11669 
10500 10501 11606 11605 10565 10566 11671 11670 
10501 10502 11607 11606 10566 10567 11672 11671 
10502 10503 11608 11607 10567 10568 11673 11672 
10503 10504 11609 11608 10568 10569 11674 11673 
10504 10505 11610 11609 10569 10570 11675 11674 
10505 10506 11611 11610 10570 10571 11676 11675 
10506 10507 11612 11611 10571 10572 11677 11676 
10507 10508 11613 11612 10572 10573 11678 11677 
10508 10509 11614 11613 10573 10574 11679 11678 
10509 10510 11615 11614 10574 10575 11680 11679 
10510 10511 11616 11615 10575 10576 11681 11680 
10511 10512 11617 11616 10576 10577 11682 11681 
10512 10513 11618 11617 10577 10578 11683 11682 
10513 10514 11619 11618 10578 10579 11684 11683 
10514 10515 11620 11619 10579 10580 11685 11684 
10515 10516 11621 11620 10580 10581 11686 11685 
10516 10517 11622 11621 10581 10582 11687 11686 
10517 10518 11623 11622 10582 10583 11688 11687 
10518 10519 11624 11623 10583 10584 11689 11688 
10519 10520 11625 11624 10584 10585 11690 11689 
10520 10521 11626 11625 10585 10586 11691 11690 
10521 10522 11627 11626 10586 10587 11692 11691 
10522 10523 11628 11627 10587 10588 11693 11692 
10523 10524 11629 11628 10588 10589 11694 11693 
10524 10525 11630 11629 10589 10590 11695 11694 
10525 10526 11631 11630 10590 10591 11696 11695 
10526 10527 11632 11631 10591 10592 11697 11696 
10527 10528 11633 11632 10592 10593 11698 11697 
10528 10529 11634 11633 10593 10594 11699 11698 
10530 10531 11636 11635 10595 10596 11701 11700 
10531 10532 11637 11636 10596 10597 11702 11701 
10532 10533 11638 11637 10597 10598 11703 11702 
10533 10534 11639 11638 10598 10599 11704 11703 
10534 10535 11640 11639 10599 10600 11705 11704 
10535 10536 11641 11640 10600 10601 11706 11705 
10536 10537 11642 11641 10601 10602 11707 11706 
10537 10538 11643 11642 10602 10603 11708 11707 
10538 10539 11644 11643 10603 10604 11709 11708 
10539 10540 11645 11644 10604 10605 11710 11709 
10540 10541 11646 11645 10605 10606 11711 11710 
10541 10542 11647 11646 10606 10607 11712 11711 
10542 10543 11648 11647 10607 10608 11713 11712 
10543 10544 11649 11648 10608 10609 11714 11713 
10544 10545 11650 11649 10609 10610 11715 11714 
10545 10546 11651 11650 10610 10611 11716 11715 
10546 10547 11652 11651 10611 10612 11717 11716 
10547 10548 11653 11652 10612 10613 11718 11717 
10548 10549 11654 11653 10613 10614 11719 11718 
10549 10550 11655 11654 10614 10615 11720 11719 
10550 10551 11656 11655 10615 10616 11721 11720 
10551 10552 11657 11656 10616 10617 11722 11721 
10552 10553 11658 11657 10617 10618 11723 11722 
10553 10554 11659 11658 10618 10619 11724 11723 
10554 10555 11660 11659 10619 10620 11725 11724 
10555 10556 11661 11660 10620 10621 11726 11725 
10556 10557 11662 11661 10621 10622 11727 11726 
10557 10558 11663 11662 10622 10623 11728 11727 
10558 10559 11664 11663 10623 10624 11729 11728 
10559 10560 11665 11664 10624 10625 11730 11729 
10560 10561 11666 11665 10625 10626 11731 11730 
10561 10562 11667 11666 10626 10627 11732 11731 
10562 10563 11668 11667 10627 10628 11733 11732 
10563 10564 11669 11668 10628 10629 11734 11733 
10564 10565 11670 11669 10629 10630 11735 11734 
10565 10566 11671 11670 10630 10631 11736 11735 
10566 10567 11672 11671 10631 10632 11737 11736 
10567 10568 11673 11672 10632 10633 11738 11737 
10568 10569 11674 11673 10633 10634 11739 11738 
10569 10570 11675 11674 10634 10635 11740 11739 
10570 10571 11676 11675 10635 10636 11741 11740 
10571 10572 11677 11676 10636 10637 11742 11741 
10572 10573 11678 11677 10637 10638 11743 11742 
10573 10574 11679 11678 10638 10639 11744 11743 
10574 10575 11680 11679 10639 10640 11745 11744 
10575 10576 11681 11680 10640 10641 11746 11745 
10576 10577 11682 11681 10641 10642 11747 11746 
10577 10578 11683 11682 10642 10643 11748 11747 
10578 10579 11684 11683 10643 10644 11749 11748 
10579 10580 11685 11684 10644 10645 11750 11749 
10580 10581 11686 11685 10645 10646 11751 11750 
10581 10582 11687 11686 10646 10647 11752 11751 
10582 10583 11688 11687 10647 10648 11753 11752 
10583 10584 11689 11688 10648 10649 11754 11753 
10584 10585 11690 11689 10649 10650 11755 11754 
10585 10586 11691 11690 10650 10651 11756 11755 
10586 10587 11692 11691 10651 10652 11757 11756 
10587 10588 11693 11692 10652 10653 11758 11757 
10588 10589 11694 11693 10653 10654 11759 11758 
10589 10590 11695 11694 10654 10655 11760 11759 
10590 10591 11696 11695 10655 10656 11761 11760 
10591 10592 11697 11696 10656 10657 11762 11761 
10592 10593 11698 11697 10657 10658 11763 11762 
10593 10594 11699 11698 10658 10659 11764 11763 
10595 10596 11701 11700 10660 10661 11766 11765 
10596 10597 11702 11701 10661 10662 11767 11766 
10597 10598 11703 11702 10662 10663 11768 11767 
10598 10599 11704 11703 10663 10664 11769 11768 
10599 10600 11705 11704 10664 10665 11770 11769 
10600 10601 11706 11705 10665 10666 11771 11770 
10601 10602 11707 11706 10666 10667 11772 11771 
10602 10603 11708 11707 10667 10668 11773 11772 
10603 10604 11709 11708 10668 10669 11774 11773 
10604 10605 11710 11709 10669 10670 11775 11774 
10605 10606 11711 11710 10670 10671 11776 11775 
10606 10607 11712 11711 10671 10672 11777 11776 
10607 10608 11713 11712 10672 10673 11778 11777 
10608 10609 11714 11713 10673 10674 11779 11778 
10609 10610 11715 11714 10674 10675 11780 11779 
10610 10611 11716 11715 10675 10676 11781 11780 
10611 10612 11717 11716 10676 10677 11782 11781 
10612 10613 11718 11717 10677 10678 11783 11782 
10613 10614 11719 11718 10678 10679 11784 11783 
10614 10615 11720 11719 10679 10680 11785 11784 
10615 10616 11721 11720 10680 10681 11786 11785 
10616 10617 11722 11721 10681 10682 11787 11786 
10617 10618 11723 11722 10682 10683 11788 11787 
10618 10619 11724 11723 10683 10684 11789 11788 
10619 10620 11725 11724 10684 10685 11790 11789 
10620 10621 11726 11725 10685 10686 11791 11790 
10621 10622 11727 11726 10686 10687 11792 11791 
10622 10623 11728 11727 10687 10688 11793 11792 
10623 10624 11729 11728 10688 10689 11794 11793 
10624 10625 11730 11729 10689 10690 11795 11794 
10625 10626 11731 11730 10690 10691 11796 11795 
10626 10627 11732 11731 10691 10692 11797 11796 
10627 10628 11733 11732 10692 10693 11798 11797 
10628 10629 11734 11733 10693 10694 11799 11798 
10629 10630 11735 11734 10694 10695 11800 11799 
10630 10631 11736 11735 10695 10696 11801 11800 
10631 10632 11737 11736 10696 10697 11802 11801 
10632 10633 11738 11737 10697 10698 11803 11802 
10633 10634 11739 11738 10698 10699 11804 11803 
10634 10635 11740 11739 10699 10700 11805 11804 
10635 10636 11741 11740 10700 10701 11806 11805 
10636 10637 11742 11741 10701 10702 11807 11806 
10637 10638 11743 11742 10702 10703 11808 11807 
10638 10639 11744 11743 10703 10704 11809 11808 
10639 10640 11745 11744 10704 10705 11810 11809 
10640 10641 11746 11745 10705 10706 11811 11810 
10641 10642 11747 11746 10706 10707 11812 11811 
10642 10643 11748 11747 10707 10708 11813 11812 
10643 10644 11749 11748 10708 10709 11814 11813 
10644 10645 11750 11749 10709 10710 11815 11814 
10645 10646 11751 11750 10710 10711 11816 11815 
10646 10647 11752 11751 10711 10712 11817 11816 
10647 10648 11753 11752 10712 10713 11818 11817 
10648 10649 11754 11753 10713 10714 11819 11818 
10649 10650 11755 11754 10714 10715 11820 11819 
10650 10651 11756 11755 10715 10716 11821 11820 
10651 10652 11757 11756 10716 10717 11822 11821 
10652 10653 11758 11757 10717 10718 11823 11822 
10653 10654 11759 11758 10718 10719 11824 11823 
10654 10655 11760 11759 10719 10720 11825 11824 
10655 10656 11761 11760 10720 10721 11826 11825 
10656 10657 11762 11761 10721 10722 11827 11826 
10657 10658 11763 11762 10722 10723 11828 11827 
10658 10659 11764 11763 10723 10724 11829 11828 
10660 10661 11766 11765 10725 10726 11831 11830 
10661 10662 11767 11766 10726 10727 11832 11831 
10662 10663 11768 11767 10727 10728 11833 11832 
10663 10664 11769 11768 10728 10729 11834 11833 
10664 10665 11770 11769 10729 10730 11835 11834 
10665 10666 11771 11770 10730 10731 11836 11835 
10666 10667 11772 11771 10731 10732 11837 11836 
10667 10668 11773 11772 10732 10733 11838 11837 
10668 10669 11774 11773 10733 10734 11839 11838 
10669 10670 11775 11774 10734 10735 11840 11839 
10670 10671 11776 11775 10735 10736 11841 11840 
10671 10672 11777 11776 10736 10737 11842 11841 
10672 10673 11778 11777 10737 10738 11843 11842 
10673 10674 11779 11778 10738 10739 11844 11843 
10674 10675 11780 11779 10739 10740 11845 11844 
10675 10676 11781 11780 10740 10741 11846 11845 
10676 10677 11782 11781 10741 10742 11847 11846 
10677 10678 11783 11782 10742 10743 11848 11847 
10678 10679 11784 11783 10743 10744 11849 11848 
10679 10680 11785 11784 10744 10745 11850 11849 
10680 10681 11786 11785 10745 10746 11851 11850 
10681 10682 11787 11786 10746 10747 11852 11851 
10682 10683 11788 11787 10747 10748 11853 11852 
10683 10684 11789 11788 10748 10749 11854 11853 
10684 10685 11790 11789 10749 10750 11855 11854 
10685 10686 11791 11790 10750 10751 11856 11855 
10686 10687 11792 11791 10751 10752 11857 11856 
10687 10688 11793 11792 10752 10753 11858 11857 
10688 10689 11794 11793 10753 10754 11859 11858 
10689 10690 11795 11794 10754 10755 11860 11859 
10690 10691 11796 11795 10755 10756 11861 11860 
10691 10692 11797 11796 10756 10757 11862 11861 
10692 10693 11798 11797 10757 10758 11863 11862 
10693 10694 11799 11798 10758 10759 11864 11863 
10694 10695 11800 11799 10759 10760 11865 11864 
10695 10696 11801 11800 10760 10761 11866 11865 
10696 10697 11802 11801 10761 10762 11867 11866 
10697 10698 11803 11802 10762 10763 11868 11867 
10698 10699 11804 11803 10763 10764 11869 11868 
10699 10700 11805 11804 10764 10765 11870 11869 
10700 10701 11806 11805 10765 10766 11871 11870 
10701 10702 11807 11806 10766 10767 11872 11871 
10702 10703 11808 11807 10767 10768 11873 11872 
10703 10704 11809 11808 10768 10769 11874 11873 
10704 10705 11810 11809 10769 10770 11875 11874 
10705 10706 11811 11810 10770 10771 11876 11875 
10706 10707 11812 11811 10771 10772 11877 11876 
10707 10708 11813 11812 10772 10773 11878 11877 
10708 10709 11814 11813 10773 10774 11879 11878 
10709 10710 11815 11814 10774 10775 11880 11879 
10710 10711 11816 11815 10775 10776 11881 11880 
10711 10712 11817 11816 10776 10777 11882 11881 
10712 10713 11818 11817 10777 10778 11883 11882 
10713 10714 11819 11818 10778 10779 11884 11883 
10714 10715 11820 11819 10779 10780 11885 11884 
10715 10716 11821 11820 10780 10781 11886 11885 
10716 10717 11822 11821 10781 10782 11887 11886 
10717 10718 11823 11822 10782 10783 11888 11887 
10718 10719 11824 11823 10783 10784 11889 11888 
10719 10720 11825 11824 10784 10785 11890 11889 
10720 10721 11826 11825 10785 10786 11891 11890 
10721 10722 11827 11826 10786 10787 11892 11891 
10722 10723 11828 11827 10787 10788 11893 11892 
10723 10724 11829 11828 10788 10789 11894 11893 
10725 10726 11831 11830 10790 10791 11896 11895 
10726 10727 11832 11831 10791 10792 11897 11896 
10727 10728 11833 11832 10792 10793 11898 11897 
10728 10729 11834 11833 10793 10794 11899 11898 
10729 10730 11835 11834 10794 10795 11900 11899 
10730 10731 11836 11835 10795 10796 11901 11900 
10731 10732 11837 11836 10796 10797 11902 11901 
10732 10733 11838 11837 10797 10798 11903 11902 
10733 10734 11839 11838 10798 10799 11904 11903 
10734 10735 11840 11839 10799 10800 11905 11904 
10735 10736 11841 11840 10800 10801 11906 11905 
10736 10737 11842 11841 10801 10802 11907 11906 
10737 10738 11843 11842 10802 10803 11908 11907 
10738 10739 11844 11843 10803 10804 11909 11908 
10739 10740 11845 11844 10804 10805 11910 11909 
10740 10741 11846 11845 10805 10806 11911 11910 
10741 10742 11847 11846 10806 10807 11912 11911 
10742 10743 11848 11847 10807 10808 11913 11912 
10743 10744 11849 11848 10808 10809 11914 11913 
10744 10745 11850 11849 10809 10810 11915 11914 
10745 10746 11851 11850 10810 10811 11916 11915 
10746 10747 11852 11851 10811 10812 11917 11916 
10747 10748 11853 11852 10812 10813 11918 11917 
10748 10749 11854 11853 10813 10814 11919 11918 
10749 10750 11855 11854 10814 10815 11920 11919 
10750 10751 11856 11855 10815 10816 11921 11920 
10751 10752 11857 11856 10816 10817 11922 11921 
10752 10753 11858 11857 10817 10818 11923 11922 
10753 10754 11859 11858 10818 10819 11924 11923 
10754 10755 11860 11859 10819 10820 11925 11924 
10755 10756 11861 11860 10820 10821 11926 11925 
10756 10757 11862 11861 10821 10822 11927 11926 
10757 10758 11863 11862 10822 10823 11928 11927 
10758 10759 11864 11863 10823 10824 11929 11928 
10759 10760 11865 11864 10824 10825 11930 11929 
10760 10761 11866 11865 10825 10826 11931 11930 
10761 10762 11867 11866 10826 10827 11932 11931 
10762 10763 11868 11867 10827 10828 11933 11932 
10763 10764 11869 11868 10828 10829 11934 11933 
10764 10765 11870 11869 10829 10830 11935 11934 
10765 10766 11871 11870 10830 10831 11936 11935 
10766 10767 11872 11871 10831 10832 11937 11936 
10767 10768 11873 11872 10832 10833 11938 11937 
10768 10769 11874 11873 10833 10834 11939 11938 
10769 10770 11875 11874 10834 10835 11940 11939 
10770 10771 11876 11875 10835 10836 11941 11940 
10771 10772 11877 11876 10836 10837 11942 11941 
10772 10773 11878 11877 10837 10838 11943 11942 
10773 10774 11879 11878 10838 10839 11944 11943 
10774 10775 11880 11879 10839 10840 11945 11944 
10775 10776 11881 11880 10840 10841 11946 11945 
10776 10777 11882 11881 10841 10842 11947 11946 
10777 10778 11883 11882 10842 10843 11948 11947 
10778 10779 11884 11883 10843 10844 11949 11948 
10779 10780 11885 11884 10844 10845 11950 11949 
10780 10781 11886 11885 10845 10846 11951 11950 
10781 10782 11887 11886 10846 10847 11952 11951 
10782 10783 11888 11887 10847 10848 11953 11952 
10783 10784 11889 11888 10848 10849 11954 11953 
10784 10785 11890 11889 10849 10850 11955 11954 
10785 10786 11891 11890 10850 10851 11956 11955 
10786 10787 11892 11891 10851 10852 11957 11956 
10787 10788 11893 11892 10852 10853 11958 11957 
10788 10789 11894 11893 10853 10854 11959 11958 
10790 10791 11896 11895 10855 10856 11961 11960 
10791 10792 11897 11896 10856 10857 11962 11961 
10792 10793 11898 11897 10857 10858 11963 11962 
10793 10794 11899 11898 10858 10859 11964 11963 
10794 10795 11900 11899 10859 10860 11965 11964 
10795 10796 11901 11900 10860 10861 11966 11965 
10796 10797 11902 11901 10861 10862 11967 11966 
10797 10798 11903 11902 10862 10863 11968 11967 
10798 10799 11904 11903 10863 10864 11969 11968 
10799 10800 11905 11904 10864 10865 11970 11969 
10800 10801 11906 11905 10865 10866 11971 11970 
10801 10802 11907 11906 10866 10867 11972 11971 
10802 10803 11908 11907 10867 10868 11973 11972 
10803 10804 11909 11908 10868 10869 11974 11973 
10804 10805 11910 11909 10869 10870 11975 11974 
10805 10806 11911 11910 10870 10871 11976 11975 
10806 10807 11912 11911 10871 10872 11977 11976 
10807 10808 11913 11912 10872 10873 11978 11977 
10808 10809 11914 11913 10873 10874 11979 11978 
10809 10810 11915 11914 10874 10875 11980 11979 
10810 10811 11916 11915 10875 10876 11981 11980 
10811 10812 11917 11916 10876 10877 11982 11981 
10812 10813 11918 11917 10877 10878 11983 11982 
10813 10814 11919 11918 10878 10879 11984 11983 
10814 10815 11920 11919 10879 10880 11985 11984 
10815 10816 11921 11920 10880 10881 11986 11985 
10816 10817 11922 11921 10881 10882 11987 11986 
10817 10818 11923 11922 10882 10883 11988 11987 
10818 10819 11924 11923 10883 10884 11989 11988 
10819 10820 11925 11924 10884 10885 11990 11989 
10820 10821 11926 11925 10885 10886 11991 11990 
10821 10822 11927 11926 10886 10887 11992 11991 
10822 10823 11928 11927 10887 10888 11993 11992 
10823 10824 11929 11928 10888 10889 11994 11993 
10824 10825 11930 11929 10889 10890 11995 11994 
10825 10826 11931 11930 10890 10891 11996 11995 
10826 10827 11932 11931 10891 10892 11997 11996 
10827 10828 11933 11932 10892 10893 11998 11997 
10828 10829 11934 11933 10893 10894 11999 11998 
10829 10830 11935 11934 10894 10895 12000 11999 
10830 10831 11936 11935 10895 10896 12001 12000 
10831 10832 11937 11936 10896 10897 12002 12001 
10832 10833 11938 11937 10897 10898 12003 12002 
10833 10834 11939 11938 10898 10899 12004 12003 
10834 10835 11940 11939 10899 10900 12005 12004 
10835 10836 11941 11940 10900 10901 12006 12005 
10836 10837 11942 11941 10901 10902 12007 12006 
10837 10838 11943 11942 10902 10903 12008 12007 
10838 10839 11944 11943 10903 10904 12009 12008 
10839 10840 11945 11944 10904 10905 12010 12009 
10840 10841 11946 11945 10905 10906 12011 12010 
10841 10842 11947 11946 10906 10907 12012 12011 
10842 10843 11948 11947 10907 10908 12013 12012 
10843 10844 11949 11948 10908 10909 12014 12013 
10844 10845 11950 11949 10909 10910 12015 12014 
10845 10846 11951 11950 10910 10911 12016 12015 
10846 10847 11952 11951 10911 10912 12017 12016 
10847 10848 11953 11952 10912 10913 12018 12017 
10848 10849 11954 11953 10913 10914 12019 12018 
10849 10850 11955 11954 10914 10915 12020 12019 
10850 10851 11956 11955 10915 10916 12021 12020 
10851 10852 11957 11956 10916 10917 12022 12021 
10852 10853 11958 11957 10917 10918 12023 12022 
10853 10854 11959 11958 10918 10919 12024 12023 
10855 10856 11961 11960 10920 10921 12026 12025 
10856 10857 11962 11961 10921 10922 12027 12026 
10857 10858 11963 11962 10922 10923 12028 12027 
10858 10859 11964 11963 10923 10924 12029 12028 
10859 10860 11965 11964 10924 10925 12030 12029 
10860 10861 11966 11965 10925 10926 12031 12030 
10861 10862 11967 11966 10926 10927 12032 12031 
10862 10863 11968 11967 10927 10928 12033 12032 
10863 10864 11969 11968 10928 10929 12034 12033 
10864 10865 11970 11969 10929 10930 12035 12034 
10865 10866 11971 11970 10930 10931 12036 12035 
10866 10867 11972 11971 10931 10932 12037 12036 
10867 10868 11973 11972 10932 10933 12038 12037 
10868 10869 11974 11973 10933 10934 12039 12038 
10869 10870 11975 11974 10934 10935 12040 12039 
10870 10871 11976 11975 10935 10936 12041 12040 
10871 10872 11977 11976 10936 10937 12042 12041 
10872 10873 11978 11977 10937 10938 12043 12042 
10873 10874 11979 11978 10938 10939 12044 12043 
10874 10875 11980 11979 10939 10940 12045 12044 
10875 10876 11981 11980 10940 10941 12046 12045 
10876 10877 11982 11981 10941 10942 12047 12046 
10877 10878 11983 11982 10942 10943 12048 12047 
10878 10879 11984 11983 10943 10944 12049 12048 
10879 10880 11985 11984 10944 10945 12050 12049 
10880 10881 11986 11985 10945 10946 12051 12050 
10881 10882 11987 11986 10946 10947 12052 12051 
10882 10883 11988 11987 10947 10948 12053 12052 
10883 10884 11989 11988 10948 10949 12054 12053 
10884 10885 11990 11989 10949 10950 12055 12054 
10885 10886 11991 11990 10950 10951 12056 12055 
10886 10887 11992 11991 10951 10952 12057 12056 
10887 10888 11993 11992 10952 10953 12058 12057 
10888 10889 11994 11993 10953 10954 12059 12058 
10889 10890 11995 11994 10954 10955 12060 12059 
10890 10891 11996 11995 10955 10956 12061 12060 
10891 10892 11997 11996 10956 10957 12062 12061 
10892 10893 11998 11997 10957 10958 12063 12062 
10893 10894 11999 11998 10958 10959 12064 12063 
10894 10895 12000 11999 10959 10960 12065 12064 
10895 10896 12001 12000 10960 10961 12066 12065 
10896 10897 12002 12001 10961 10962 12067 12066 
10897 10898 12003 12002 10962 10963 12068 12067 
10898 10899 12004 12003 10963 10964 12069 12068 
10899 10900 12005 12004 10964 10965 12070 12069 
10900 10901 12006 12005 10965 10966 12071 12070 
10901 10902 12007 12006 10966 10967 12072 12071 
10902 10903 12008 12007 10967 10968 12073 12072 
10903 10904 12009 12008 10968 10969 12074 12073 
10904 10905 12010 12009 10969 10970 12075 12074 
10905 10906 12011 12010 10970 10971 12076 12075 
10906 10907 12012 12011 10971 10972 12077 12076 
10907 10908 12013 12012 10972 10973 12078 12077 
10908 10909 12014 12013 10973 10974 12079 12078 
10909 10910 12015 12014 10974 10975 12080 12079 
10910 10911 12016 12015 10975 10976 12081 12080 
10911 10912 12017 12016 10976 10977 12082 12081 
10912 10913 12018 12017 10977 10978 12083 12082 
10913 10914 12019 12018 10978 10979 12084 12083 
10914 10915 12020 12019 10979 10980 12085 12084 
10915 10916 12021 12020 10980 10981 12086 12085 
10916 10917 12022 12021 10981 10982 12087 12086 
10917 10918 12023 12022 10982 10983 12088 12087 
10918 10919 12024 12023 10983 10984 12089 12088 
10920 10921 12026 12025 10985 10986 12091 12090 
10921 10922 12027 12026 10986 10987 12092 12091 
10922 10923 12028 12027 10987 10988 12093 12092 
10923 10924 12029 12028 10988 10989 12094 12093 
10924 10925 12030 12029 10989 10990 12095 12094 
10925 10926 12031 12030 10990 10991 12096 12095 
10926 10927 12032 12031 10991 10992 12097 12096 
10927 10928 12033 12032 10992 10993 12098 12097 
10928 10929 12034 12033 10993 10994 12099 12098 
10929 10930 12035 12034 10994 10995 12100 12099 
10930 10931 12036 12035 10995 10996 12101 12100 
10931 10932 12037 12036 10996 10997 12102 12101 
10932 10933 12038 12037 10997 10998 12103 12102 
10933 10934 12039 12038 10998 10999 12104 12103 
10934 10935 12040 12039 10999 11000 12105 12104 
10935 10936 12041 12040 11000 11001 12106 12105 
10936 10937 12042 12041 11001 11002 12107 12106 
10937 10938 12043 12042 11002 11003 12108 12107 
10938 10939 12044 12043 11003 11004 12109 12108 
10939 10940 12045 12044 11004 11005 12110 12109 
10940 10941 12046 12045 11005 11006 12111 12110 
10941 10942 12047 12046 11006 11007 12112 12111 
10942 10943 12048 12047 11007 11008 12113 12112 
10943 10944 12049 12048 11008 11009 12114 12113 
10944 10945 12050 12049 11009 11010 12115 12114 
10945 10946 12051 12050 11010 11011 12116 12115 
10946 10947 12052 12051 11011 11012 12117 12116 
10947 10948 12053 12052 11012 11013 12118 12117 
10948 10949 12054 12053 11013 11014 12119 12118 
10949 10950 12055 12054 11014 11015 12120 12119 
10950 10951 12056 12055 11015 11016 12121 12120 
10951 10952 12057 12056 11016 11017 12122 12121 
10952 10953 12058 12057 11017 11018 12123 12122 
10953 10954 12059 12058 11018 11019 12124 12123 
10954 10955 12060 12059 11019 11020 12125 12124 
10955 10956 12061 12060 11020 11021 12126 12125 
10956 10957 12062 12061 11021 11022 12127 12126 
10957 10958 12063 12062 11022 11023 12128 12127 
10958 10959 12064 12063 11023 11024 12129 12128 
10959 10960 12065 12064 11024 11025 12130 12129 
10960 10961 12066 12065 11025 11026 12131 12130 
10961 10962 12067 12066 11026 11027 12132 12131 
10962 10963 12068 12067 11027 11028 12133 12132 
10963 10964 12069 12068 11028 11029 12134 12133 
10964 10965 12070 12069 11029 11030 12135 12134 
10965 10966 12071 12070 11030 11031 12136 12135 
10966 10967 12072 12071 11031 11032 12137 12136 
10967 10968 12073 12072 11032 11033 12138 12137 
10968 10969 12074 12073 11033 11034 12139 12138 
10969 10970 12075 12074 11034 11035 12140 12139 
10970 10971 12076 12075 11035 11036 12141 12140 
10971 10972 12077 12076 11036 11037 12142 12141 
10972 10973 12078 12077 11037 11038 12143 12142 
10973 10974 12079 12078 11038 11039 12144 12143 
10974 10975 12080 12079 11039 11040 12145 12144 
10975 10976 12081 12080 11040 11041 12146 12145 
10976 10977 12082 12081 11041 11042 12147 12146 
10977 10978 12083 12082 11042 11043 12148 12147 
10978 10979 12084 12083 11043 11044 12149 12148 
10979 10980 12085 12084 11044 11045 12150 12149 
10980 10981 12086 12085 11045 11046 12151 12150 
10981 10982 12087 12086 11046 11047 12152 12151 
10982 10983 12088 12087 11047 11048 12153 12152 
10983 10984 12089 12088 11048 11049 12154 12153 
11050 11051 12156 12155 11115 11116 12221 12220 
11051 11052 12157 12156 11116 11117 12222 12221 
11052 11053 12158 12157 11117 11118 12223 12222 
11053 11054 12159 12158 11118 11119 12224 12223 
11054 11055 12160 12159 11119 11120 12225 12224 
11055 11056 12161 12160 11120 11121 12226 12225 
11056 11057 12162 12161 11121 11122 12227 12226 
11057 11058 12163 12162 11122 11123 12228 12227 
11058 11059 12164 12163 11123 11124 12229 12228 
11059 11060 12165 12164 11124 11125 12230 12229 
11060 11061 12166 12165 11125 11126 12231 12230 
11061 11062 12167 12166 11126 11127 12232 12231 
11062 11063 12168 12167 11127 11128 12233 12232 
11063 11064 12169 12168 11128 11129 12234 12233 
11064 11065 12170 12169 11129 11130 12235 12234 
11065 11066 12171 12170 11130 11131 12236 12235 
11066 11067 12172 12171 11131 11132 12237 12236 
11067 11068 12173 12172 11132 11133 12238 12237 
11068 11069 12174 12173 11133 11134 12239 12238 
11069 11070 12175 12174 11134 11135 12240 12239 
11070 11071 12176 12175 11135 11136 12241 12240 
11071 11072 12177 12176 11136 11137 12242 12241 
11072 11073 12178 12177 11137 11138 12243 12242 
11073 11074 12179 12178 11138 11139 12244 12243 
11074 11075 12180 12179 11139 11140 12245 12244 
11075 11076 12181 12180 11140 11141 12246 12245 
11076 11077 12182 12181 11141 11142 12247 12246 
11077 11078 12183 12182 11142 11143 12248 12247 
11078 11079 12184 12183 11143 11144 12249 12248 
11079 11080 12185 12184 11144 11145 12250 12249 
11080 11081 12186 12185 11145 11146 12251 12250 
11081 11082 12187 12186 11146 11147 12252 12251 
11082 11083 12188 12187 11147 11148 12253 12252 
11083 11084 12189 12188 11148 11149 12254 12253 
11084 11085 12190 12189 11149 11150 12255 12254 
11085 11086 12191 12190 11150 11151 12256 12255 
11086 11087 12192 12191 11151 11152 12257 12256 
11087 11088 12193 12192 11152 11153 12258 12257 
11088 11089 12194 12193 11153 11154 12259 12258 
11089 11090 12195 12194 11154 11155 12260 12259 
11090 11091 12196 12195 11155 11156 12261 12260 
11091 11092 12197 12196 11156 11157 12262 12261 
11092 11093 12198 12197 11157 11158 12263 12262 
11093 11094 12199 12198 11158 11159 12264 12263 
11094 11095 12200 12199 11159 11160 12265 12264 
11095 11096 12201 12200 11160 11161 12266 12265 
11096 11097 12202 12201 11161 11162 12267 12266 
11097 11098 12203 12202 11162 11163 12268 12267 
11098 11099 12204 12203 11163 11164 12269 12268 
11099 11100 12205 12204 11164 11165 12270 12269 
11100 11101 12206 12205 11165 11166 12271 12270 
11101 11102 12207 12206 11166 11167 12272 12271 
11102 11103 12208 12207 11167 11168 12273 12272 
11103 11104 12209 12208 11168 11169 12274 12273 
11104 11105 12210 12209 11169 11170 12275 12274 
11105 11106 12211 12210 11170 11171 12276 12275 
11106 11107 12212 12211 11171 11172 12277 12276 
11107 11108 12213 12212 11172 11173 12278 12277 
11108 11109 12214 12213 11173 11174 12279 12278 
11109 11110 12215 12214 11174 11175 12280 12279 
11110 11111 12216 12215 11175 11176 12281 12280 
11111 11112 12217 12216 11176 11177 12282 12281 
11112 11113 12218 12217 11177 11178 12283 12282 
11113 11114 12219 12218 11178 11179 12284 12283 
11115 11116 12221 12220 11180 11181 12286 12285 
11116 11117 12222 12221 11181 11182 12287 12286 
11117 11118 12223 12222 11182 11183 12288 12287 
11118 11119 12224 12223 11183 11184 12289 12288 
11119 11120 12225 12224 11184 11185 12290 12289 
11120 11121 12226 12225 11185 11186 12291 12290 
11121 11122 12227 12226 11186 11187 12292 12291 
11122 11123 12228 12227 11187 11188 12293 12292 
11123 11124 12229 12228 11188 11189 12294 12293 
11124 11125 12230 12229 11189 11190 12295 12294 
11125 11126 12231 12230 11190 11191 12296 12295 
11126 11127 12232 12231 11191 11192 12297 12296 
11127 11128 12233 12232 11192 11193 12298 12297 
11128 11129 12234 12233 11193 11194 12299 12298 
11129 11130 12235 12234 11194 11195 12300 12299 
11130 11131 12236 12235 11195 11196 12301 12300 
11131 11132 12237 12236 11196 11197 12302 12301 
11132 11133 12238 12237 11197 11198 12303 12302 
11133 11134 12239 12238 11198 11199 12304 12303 
11134 11135 12240 12239 11199 11200 12305 12304 
11135 11136 12241 12240 11200 11201 12306 12305 
11136 11137 12242 12241 11201 11202 12307 12306 
11137 11138 12243 12242 11202 11203 12308 12307 
11138 11139 12244 12243 11203 11204 12309 12308 
11139 11140 12245 12244 11204 11205 12310 12309 
11140 11141 12246 12245 11205 11206 12311 12310 
11141 11142 12247 12246 11206 11207 12312 12311 
11142 11143 12248 12247 11207 11208 12313 12312 
11143 11144 12249 12248 11208 11209 12314 12313 
11144 11145 12250 12249 11209 11210 12315 12314 
11145 11146 12251 12250 11210 11211 12316 12315 
11146 11147 12252 12251 11211 11212 12317 12316 
11147 11148 12253 12252 11212 11213 12318 12317 
11148 11149 12254 12253 11213 11214 12319 12318 
11149 11150 12255 12254 11214 11215 12320 12319 
11150 11151 12256 12255 11215 11216 12321 12320 
11151 11152 12257 12256 11216 11217 12322 12321 
11152 11153 12258 12257 11217 11218 12323 12322 
11153 11154 12259 12258 11218 11219 12324 12323 
11154 11155 12260 12259 11219 11220 12325 12324 
11155 11156 12261 12260 11220 11221 12326 12325 
11156 11157 12262 12261 11221 11222 12327 12326 
11157 11158 12263 12262 11222 11223 12328 12327 
11158 11159 12264 12263 11223 11224 12329 12328 
11159 11160 12265 12264 11224 11225 12330 12329 
11160 11161 12266 12265 11225 11226 12331 12330 
11161 11162 12267 12266 11226 11227 12332 12331 
11162 11163 12268 12267 11227 11228 12333 12332 
11163 11164 12269 12268 11228 11229 12334 12333 
11164 11165 12270 12269 11229 11230 12335 12334 
11165 11166 12271 12270 11230 11231 12336 12335 
11166 11167 12272 12271 11231 11232 12337 12336 
11167 11168 12273 12272 11232 11233 12338 12337 
11168 11169 12274 12273 11233 11234 12339 12338 
11169 11170 12275 12274 11234 11235 12340 12339 
11170 11171 12276 12275 11235 11236 12341 12340 
11171 11172 12277 12276 11236 11237 12342 12341 
11172 11173 12278 12277 11237 11238 12343 12342 
11173 11174 12279 12278 11238 11239 12344 12343 
11174 11175 12280 12279 11239 11240 12345 12344 
11175 11176 12281 12280 11240 11241 12346 12345 
11176 11177 12282 12281 11241 11242 12347 12346 
11177 11178 12283 12282 11242 11243 12348 12347 
11178 11179 12284 12283 11243 11244 12349 12348 
11180 11181 12286 12285 11245 11246 12351 12350 
11181 11182 12287 12286 11246 11247 12352 12351 
11182 11183 12288 12287 11247 11248 12353 12352 
11183 11184 12289 12288 11248 11249 12354 12353 
11184 11185 12290 12289 11249 11250 12355 12354 
11185 11186 12291 12290 11250 11251 12356 12355 
11186 11187 12292 12291 11251 11252 12357 12356 
11187 11188 12293 12292 11252 11253 12358 12357 
11188 11189 12294 12293 11253 11254 12359 12358 
11189 11190 12295 12294 11254 11255 12360 12359 
11190 11191 12296 12295 11255 11256 12361 12360 
11191 11192 12297 12296 11256 11257 12362 12361 
11192 11193 12298 12297 11257 11258 12363 12362 
11193 11194 12299 12298 11258 11259 12364 12363 
11194 11195 12300 12299 11259 11260 12365 12364 
11195 11196 12301 12300 11260 11261 12366 12365 
11196 11197 12302 12301 11261 11262 12367 12366 
11197 11198 12303 12302 11262 11263 12368 12367 
11198 11199 12304 12303 11263 11264 12369 12368 
11199 11200 12305 12304 11264 11265 12370 12369 
11200 11201 12306 12305 11265 11266 12371 12370 
11201 11202 12307 12306 11266 11267 12372 12371 
11202 11203 12308 12307 11267 11268 12373 12372 
11203 11204 12309 12308 11268 11269 12374 12373 
11204 11205 12310 12309 11269 11270 12375 12374 
11205 11206 12311 12310 11270 11271 12376 12375 
11206 11207 12312 12311 11271 11272 12377 12376 
11207 11208 12313 12312 11272 11273 12378 12377 
11208 11209 12314 12313 11273 11274 12379 12378 
11209 11210 12315 12314 11274 11275 12380 12379 
11210 11211 12316 12315 11275 11276 12381 12380 
11211 11212 12317 12316 11276 11277 12382 12381 
11212 11213 12318 12317 11277 11278 12383 12382 
11213 11214 12319 12318 11278 11279 12384 12383 
11214 11215 12320 12319 11279 11280 12385 12384 
11215 11216 12321 12320 11280 11281 12386 12385 
11216 11217 12322 12321 11281 11282 12387 12386 
11217 11218 12323 12322 11282 11283 12388 12387 
11218 11219 12324 12323 11283 11284 12389 12388 
11219 11220 12325 12324 11284 11285 12390 12389 
11220 11221 12326 12325 11285 11286 12391 12390 
11221 11222 12327 12326 11286 11287 12392 12391 
11222 11223 12328 12327 11287 11288 12393 12392 
11223 11224 12329 12328 11288 11289 12394 12393 
11224 11225 12330 12329 11289 11290 12395 12394 
11225 11226 12331 12330 11290 11291 12396 12395 
11226 11227 12332 12331 11291 11292 12397 12396 
11227 11228 12333 12332 11292 11293 12398 12397 
11228 11229 12334 12333 11293 11294 12399 12398 
11229 11230 12335 12334 11294 11295 12400 12399 
11230 11231 12336 12335 11295 11296 12401 12400 
11231 11232 12337 12336 11296 11297 12402 12401 
11232 11233 12338 12337 11297 11298 12403 12402 
11233 11234 12339 12338 11298 11299 12404 12403 
11234 11235 12340 12339 11299 11300 12405 12404 
11235 11236 12341 12340 11300 11301 12406 12405 
11236 11237 12342 12341 11301 11302 12407 12406 
11237 11238 12343 12342 11302 11303 12408 12407 
11238 11239 12344 12343 11303 11304 12409 12408 
11239 11240 12345 12344 11304 11305 12410 12409 
11240 11241 12346 12345 11305 11306 12411 12410 
11241 11242 12347 12346 11306 11307 12412 12411 
11242 11243 12348 12347 11307 11308 12413 12412 
11243 11244 12349 12348 11308 11309 12414 12413 
11245 11246 12351 12350 11310 11311 12416 12415 
11246 11247 12352 12351 11311 11312 12417 12416 
11247 11248 12353 12352 11312 11313 12418 12417 
11248 11249 12354 12353 11313 11314 12419 12418 
11249 11250 12355 12354 11314 11315 12420 12419 
11250 11251 12356 12355 11315 11316 12421 12420 
11251 11252 12357 12356 11316 11317 12422 12421 
11252 11253 12358 12357 11317 11318 12423 12422 
11253 11254 12359 12358 11318 11319 12424 12423 
11254 11255 12360 12359 11319 11320 12425 12424 
11255 11256 12361 12360 11320 11321 12426 12425 
11256 11257 12362 12361 11321 11322 12427 12426 
11257 11258 12363 12362 11322 11323 12428 12427 
11258 11259 12364 12363 11323 11324 12429 12428 
11259 11260 12365 12364 11324 11325 12430 12429 
11260 11261 12366 12365 11325 11326 12431 12430 
11261 11262 12367 12366 11326 11327 12432 12431 
11262 11263 12368 12367 11327 11328 12433 12432 
11263 11264 12369 12368 11328 11329 12434 12433 
11264 11265 12370 12369 11329 11330 12435 12434 
11265 11266 12371 12370 11330 11331 12436 12435 
11266 11267 12372 12371 11331 11332 12437 12436 
11267 11268 12373 12372 11332 11333 12438 12437 
11268 11269 12374 12373 11333 11334 12439 12438 
11269 11270 12375 12374 11334 11335 12440 12439 
11270 11271 12376 12375 11335 11336 12441 12440 
11271 11272 12377 12376 11336 11337 12442 12441 
11272 11273 12378 12377 11337 11338 12443 12442 
11273 11274 12379 12378 11338 11339 12444 12443 
11274 11275 12380 12379 11339 11340 12445 12444 
11275 11276 12381 12380 11340 11341 12446 12445 
11276 11277 12382 12381 11341 11342 12447 12446 
11277 11278 12383 12382 11342 11343 12448 12447 
11278 11279 12384 12383 11343 11344 12449 12448 
11279 11280 12385 12384 11344 11345 12450 12449 
11280 11281 12386 12385 11345 11346 12451 12450 
11281 11282 12387 12386 11346 11347 12452 12451 
11282 11283 12388 12387 11347 11348 12453 12452 
11283 11284 12389 12388 11348 11349 12454 12453 
11284 11285 12390 12389 11349 11350 12455 12454 
11285 11286 12391 12390 11350 11351 12456 12455 
11286 11287 12392 12391 11351 11352 12457 12456 
11287 11288 12393 12392 11352 11353 12458 12457 
11288 11289 12394 12393 11353 11354 12459 12458 
11289 11290 12395 12394 11354 11355 12460 12459 
11290 11291 12396 12395 11355 11356 12461 12460 
11291 11292 12397 12396 11356 11357 12462 12461 
11292 11293 12398 12397 11357 11358 12463 12462 
11293 11294 12399 12398 11358 11359 12464 12463 
11294 11295 12400 12399 11359 11360 12465 12464 
11295 11296 12401 12400 11360 11361 12466 12465 
11296 11297 12402 12401 11361 11362 12467 12466 
11297 11298 12403 12402 11362 11363 12468 12467 
11298 11299 12404 12403 11363 11364 12469 12468 
11299 11300 12405 12404 11364 11365 12470 12469 
11300 11301 12406 12405 11365 11366 12471 12470 
11301 11302 12407 12406 11366 11367 12472 12471 
11302 11303 12408 12407 11367 11368 12473 12472 
11303 11304 12409 12408 11368 11369 12474 12473 
11304 11305 12410 12409 11369 11370 12475 12474 
11305 11306 12411 12410 11370 11371 12476 12475 
11306 11307 12412 12411 11371 11372 12477 12476 
11307 11308 12413 12412 11372 11373 12478 12477 
11308 11309 12414 12413 11373 11374 12479 12478 
11310 11311 12416 12415 11375 11376 12481 12480 
11311 11312 12417 12416 11376 11377 12482 12481 
11312 11313 12418 12417 11377 11378 12483 12482 
11313 11314 12419 12418 11378 11379 12484 12483 
11314 11315 12420 12419 11379 11380 12485 12484 
11315 11316 12421 12420 11380 11381 12486 12485 
11316 11317 12422 12421 11381 11382 12487 12486 
11317 11318 12423 12422 11382 11383 12488 12487 
11318 11319 12424 12423 11383 11384 12489 12488 
11319 11320 12425 12424 11384 11385 12490 12489 
11320 11321 12426 12425 11385 11386 12491 12490 
11321 11322 12427 12426 11386 11387 12492 12491 
11322 11323 12428 12427 11387 11388 12493 12492 
11323 11324 12429 12428 11388 11389 12494 12493 
11324 11325 12430 12429 11389 11390 12495 12494 
11325 11326 12431 12430 11390 11391 12496 12495 
11326 11327 12432 12431 11391 11392 12497 12496 
11327 11328 12433 12432 11392 11393 12498 12497 
11328 11329 12434 12433 11393 11394 12499 12498 
11329 11330 12435 12434 11394 11395 12500 12499 
11330 11331 12436 12435 11395 11396 12501 12500 
11331 11332 12437 12436 11396 11397 12502 12501 
11332 11333 12438 12437 11397 11398 12503 12502 
11333 11334 12439 12438 11398 11399 12504 12503 
11334 11335 12440 12439 11399 11400 12505 12504 
11335 11336 12441 12440 11400 11401 12506 12505 
11336 11337 12442 12441 11401 11402 12507 12506 
11337 11338 12443 12442 11402 11403 12508 12507 
11338 11339 12444 12443 11403 11404 12509 12508 
11339 11340 12445 12444 11404 11405 12510 12509 
11340 11341 12446 12445 11405 11406 12511 12510 
11341 11342 12447 12446 11406 11407 12512 12511 
11342 11343 12448 12447 11407 11408 12513 12512 
11343 11344 12449 12448 11408 11409 12514 12513 
11344 11345 12450 12449 11409 11410 12515 12514 
11345 11346 12451 12450 11410 11411 12516 12515 
11346 11347 12452 12451 11411 11412 12517 12516 
11347 11348 12453 12452 11412 11413 12518 12517 
11348 11349 12454 12453 11413 11414 12519 12518 
11349 11350 12455 12454 11414 11415 12520 12519 
11350 11351 12456 12455 11415 11416 12521 12520 
11351 11352 12457 12456 11416 11417 12522 12521 
11352 11353 12458 12457 11417 11418 12523 12522 
11353 11354 12459 12458 11418 11419 12524 12523 
11354 11355 12460 12459 11419 11420 12525 12524 
11355 11356 12461 12460 11420 11421 12526 12525 
11356 11357 12462 12461 11421 11422 12527 12526 
11357 11358 12463 12462 11422 11423 12528 12527 
11358 11359 12464 12463 11423 11424 12529 12528 
11359 11360 12465 12464 11424 11425 12530 12529 
11360 11361 12466 12465 11425 11426 12531 12530 
11361 11362 12467 12466 11426 11427 12532 12531 
11362 11363 12468 12467 11427 11428 12533 12532 
11363 11364 12469 12468 11428 11429 12534 12533 
11364 11365 12470 12469 11429 11430 12535 12534 
11365 11366 12471 12470 11430 11431 12536 12535 
11366 11367 12472 12471 11431 11432 12537 12536 
11367 11368 12473 12472 11432 11433 12538 12537 
11368 11369 12474 12473 11433 11434 12539 12538 
11369 11370 12475 12474 11434 11435 12540 12539 
11370 11371 12476 12475 11435 11436 12541 12540 
11371 11372 12477 12476 11436 11437 12542 12541 
11372 11373 12478 12477 11437 11438 12543 12542 
11373 11374 12479 12478 11438 11439 12544 12543 
11375 11376 12481 12480 11440 11441 12546 12545 
11376 11377 12482 12481 11441 11442 12547 12546 
11377 11378 12483 12482 11442 11443 12548 12547 
11378 11379 12484 12483 11443 11444 12549 12548 
11379 11380 12485 12484 11444 11445 12550 12549 
11380 11381 12486 12485 11445 11446 12551 12550 
11381 11382 12487 12486 11446 11447 12552 12551 
11382 11383 12488 12487 11447 11448 12553 12552 
11383 11384 12489 12488 11448 11449 12554 12553 
11384 11385 12490 12489 11449 11450 12555 12554 
11385 11386 12491 12490 11450 11451 12556 12555 
11386 11387 12492 12491 11451 11452 12557 12556 
11387 11388 12493 12492 11452 11453 12558 12557 
11388 11389 12494 12493 11453 11454 12559 12558 
11389 11390 12495 12494 11454 11455 12560 12559 
11390 11391 12496 12495 11455 11456 12561 12560 
11391 11392 12497 12496 11456 11457 12562 12561 
11392 11393 12498 12497 11457 11458 12563 12562 
11393 11394 12499 12498 11458 11459 12564 12563 
11394 11395 12500 12499 11459 11460 12565 12564 
11395 11396 12501 12500 11460 11461 12566 12565 
11396 11397 12502 12501 11461 11462 12567 12566 
11397 11398 12503 12502 11462 11463 12568 12567 
11398 11399 12504 12503 11463 11464 12569 12568 
11399 11400 12505 12504 11464 11465 12570 12569 
11400 11401 12506 12505 11465 11466 12571 12570 
11401 11402 12507 12506 11466 11467 12572 12571 
11402 11403 12508 12507 11467 11468 12573 12572 
11403 11404 12509 12508 11468 11469 12574 12573 
11404 11405 12510 12509 11469 11470 12575 12574 
11405 11406 12511 12510 11470 11471 12576 12575 
11406 11407 12512 12511 11471 11472 12577 12576 
11407 11408 12513 12512 11472 11473 12578 12577 
11408 11409 12514 12513 11473 11474 12579 12578 
11409 11410 12515 12514 11474 11475 12580 12579 
11410 11411 12516 12515 11475 11476 12581 12580 
11411 11412 12517 12516 11476 11477 12582 12581 
11412 11413 12518 12517 11477 11478 12583 12582 
11413 11414 12519 12518 11478 11479 12584 12583 
11414 11415 12520 12519 11479 11480 12585 12584 
11415 11416 12521 12520 11480 11481 12586 12585 
11416 11417 12522 12521 11481 11482 12587 12586 
11417 11418 12523 12522 11482 11483 12588 12587 
11418 11419 12524 12523 11483 11484 12589 12588 
11419 11420 12525 12524 11484 11485 12590 12589 
11420 11421 12526 12525 11485 11486 12591 12590 
11421 11422 12527 12526 11486 11487 12592 12591 
11422 11423 12528 12527 11487 11488 12593 12592 
11423 11424 12529 12528 11488 11489 12594 12593 
11424 11425 12530 12529 11489 11490 12595 12594 
11425 11426 12531 12530 11490 11491 12596 12595 
11426 11427 12532 12531 11491 11492 12597 12596 
11427 11428 12533 12532 11492 11493 12598 12597 
11428 11429 12534 12533 11493 11494 12599 12598 
11429 11430 12535 12534 11494 11495 12600 12599 
11430 11431 12536 12535 11495 11496 12601 12600 
11431 11432 12537 12536 11496 11497 12602 12601 
11432 11433 12538 12537 11497 11498 12603 12602 
11433 11434 12539 12538 11498 11499 12604 12603 
11434 11435 12540 12539 11499 11500 12605 12604 
11435 11436 12541 12540 11500 11501 12606 12605 
11436 11437 12542 12541 11501 11502 12607 12606 
11437 11438 12543 12542 11502 11503 12608 12607 
11438 11439 12544 12543 11503 11504 12609 12608 
11440 11441 12546 12545 11505 11506 12611 12610 
11441 11442 12547 12546 11506 11507 12612 12611 
11442 11443 12548 12547 11507 11508 12613 12612 
11443 11444 12549 12548 11508 11509 12614 12613 
11444 11445 12550 12549 11509 11510 12615 12614 
11445 11446 12551 12550 11510 11511 12616 12615 
11446 11447 12552 12551 11511 11512 12617 12616 
11447 11448 12553 12552 11512 11513 12618 12617 
11448 11449 12554 12553 11513 11514 12619 12618 
11449 11450 12555 12554 11514 11515 12620 12619 
11450 11451 12556 12555 11515 11516 12621 12620 
11451 11452 12557 12556 11516 11517 12622 12621 
11452 11453 12558 12557 11517 11518 12623 12622 
11453 11454 12559 12558 11518 11519 12624 12623 
11454 11455 12560 12559 11519 11520 12625 12624 
11455 11456 12561 12560 11520 11521 12626 12625 
11456 11457 12562 12561 11521 11522 12627 12626 
11457 11458 12563 12562 11522 11523 12628 12627 
11458 11459 12564 12563 11523 11524 12629 12628 
11459 11460 12565 12564 11524 11525 12630 12629 
11460 11461 12566 12565 11525 11526 12631 12630 
11461 11462 12567 12566 11526 11527 12632 12631 
11462 11463 12568 12567 11527 11528 12633 12632 
11463 11464 12569 12568 11528 11529 12634 12633 
11464 11465 12570 12569 11529 11530 12635 12634 
11465 11466 12571 12570 11530 11531 12636 12635 
11466 11467 12572 12571 11531 11532 12637 12636 
11467 11468 12573 12572 11532 11533 12638 12637 
11468 11469 12574 12573 11533 11534 12639 12638 
11469 11470 12575 12574 11534 11535 12640 12639 
11470 11471 12576 12575 11535 11536 12641 12640 
11471 11472 12577 12576 11536 11537 12642 12641 
11472 11473 12578 12577 11537 11538 12643 12642 
11473 11474 12579 12578 11538 11539 12644 12643 
11474 11475 12580 12579 11539 11540 12645 12644 
11475 11476 12581 12580 11540 11541 12646 12645 
11476 11477 12582 12581 11541 11542 12647 12646 
11477 11478 12583 12582 11542 11543 12648 12647 
11478 11479 12584 12583 11543 11544 12649 12648 
11479 11480 12585 12584 11544 11545 12650 12649 
11480 11481 12586 12585 11545 11546 12651 12650 
11481 11482 12587 12586 11546 11547 12652 12651 
11482 11483 12588 12587 11547 11548 12653 12652 
11483 11484 12589 12588 11548 11549 12654 12653 
11484 11485 12590 12589 11549 11550 12655 12654 
11485 11486 12591 12590 11550 11551 12656 12655 
11486 11487 12592 12591 11551 11552 12657 12656 
11487 11488 12593 12592 11552 11553 12658 12657 
11488 11489 12594 12593 11553 11554 12659 12658 
11489 11490 12595 12594 11554 11555 12660 12659 
11490 11491 12596 12595 11555 11556 12661 12660 
11491 11492 12597 12596 11556 11557 12662 12661 
11492 11493 12598 12597 11557 11558 12663 12662 
11493 11494 12599 12598 11558 11559 12664 12663 
11494 11495 12600 12599 11559 11560 12665 12664 
11495 11496 12601 12600 11560 11561 12666 12665 
11496 11497 12602 12601 11561 11562 12667 12666 
11497 11498 12603 12602 11562 11563 12668 12667 
11498 11499 12604 12603 11563 11564 12669 12668 
11499 11500 12605 12604 11564 11565 12670 12669 
11500 11501 12606 12605 11565 11566 12671 12670 
11501 11502 12607 12606 11566 11567 12672 12671 
11502 11503 12608 12607 11567 11568 12673 12672 
11503 11504 12609 12608 11568 11569 12674 12673 
11505 11506 12611 12610 11570 11571 12676 12675 
11506 11507 12612 12611 11571 11572 12677 12676 
11507 11508 12613 12612 11572 11573 12678 12677 
11508 11509 12614 12613 11573 11574 12679 12678 
11509 11510 12615 12614 11574 11575 12680 12679 
11510 11511 12616 12615 11575 11576 12681 12680 
11511 11512 12617 12616 11576 11577 12682 12681 
11512 11513 12618 12617 11577 11578 12683 12682 
11513 11514 12619 12618 11578 11579 12684 12683 
11514 11515 12620 12619 11579 11580 12685 12684 
11515 11516 12621 12620 11580 11581 12686 12685 
11516 11517 12622 12621 11581 11582 12687 12686 
11517 11518 12623 12622 11582 11583 12688 12687 
11518 11519 12624 12623 11583 11584 12689 12688 
11519 11520 12625 12624 11584 11585 12690 12689 
11520 11521 12626 12625 11585 11586 12691 12690 
11521 11522 12627 12626 11586 11587 12692 12691 
11522 11523 12628 12627 11587 11588 12693 12692 
11523 11524 12629 12628 11588 11589 12694 12693 
11524 11525 12630 12629 11589 11590 12695 12694 
11525 11526 12631 12630 11590 11591 12696 12695 
11526 11527 12632 12631 11591 11592 12697 12696 
11527 11528 12633 12632 11592 11593 12698 12697 
11528 11529 12634 12633 11593 11594 12699 12698 
11529 11530 12635 12634 11594 11595 12700 12699 
11530 11531 12636 12635 11595 11596 12701 12700 
11531 11532 12637 12636 11596 11597 12702 12701 
11532 11533 12638 12637 11597 11598 12703 12702 
11533 11534 12639 12638 11598 11599 12704 12703 
11534 11535 12640 12639 11599 11600 12705 12704 
11535 11536 12641 12640 11600 11601 12706 12705 
11536 11537 12642 12641 11601 11602 12707 12706 
11537 11538 12643 12642 11602 11603 12708 12707 
11538 11539 12644 12643 11603 11604 12709 12708 
11539 11540 12645 12644 11604 11605 12710 12709 
11540 11541 12646 12645 11605 11606 12711 12710 
11541 11542 12647 12646 11606 11607 12712 12711 
11542 11543 12648 12647 11607 11608 12713 12712 
11543 11544 12649 12648 11608 11609 12714 12713 
11544 11545 12650 12649 11609 11610 12715 12714 
11545 11546 12651 12650 11610 11611 12716 12715 
11546 11547 12652 12651 11611 11612 12717 12716 
11547 11548 12653 12652 11612 11613 12718 12717 
11548 11549 12654 12653 11613 11614 12719 12718 
11549 11550 12655 12654 11614 11615 12720 12719 
11550 11551 12656 12655 11615 11616 12721 12720 
11551 11552 12657 12656 11616 11617 12722 12721 
11552 11553 12658 12657 11617 11618 12723 12722 
11553 11554 12659 12658 11618 11619 12724 12723 
11554 11555 12660 12659 11619 11620 12725 12724 
11555 11556 12661 12660 11620 11621 12726 12725 
11556 11557 12662 12661 11621 11622 12727 12726 
11557 11558 12663 12662 11622 11623 12728 12727 
11558 11559 12664 12663 11623 11624 12729 12728 
11559 11560 12665 12664 11624 11625 12730 12729 
11560 11561 12666 12665 11625 11626 12731 12730 
11561 11562 12667 12666 11626 11627 12732 12731 
11562 11563 12668 12667 11627 11628 12733 12732 
11563 11564 12669 12668 11628 11629 12734 12733 
11564 11565 12670 12669 11629 11630 12735 12734 
11565 11566 12671 12670 11630 11631 12736 12735 
11566 11567 12672 12671 11631 11632 12737 12736 
11567 11568 12673 12672 11632 11633 12738 12737 
11568 11569 12674 12673 11633 11634 12739 12738 
11570 11571 12676 12675 11635 11636 12741 12740 
11571 11572 12677 12676 11636 11637 12742 12741 
11572 11573 12678 12677 11637 11638 12743 12742 
11573 11574 12679 12678 11638 11639 12744 12743 
11574 11575 12680 12679 11639 11640 12745 12744 
11575 11576 12681 12680 11640 11641 12746 12745 
11576 11577 12682 12681 11641 11642 12747 12746 
11577 11578 12683 12682 11642 11643 12748 12747 
11578 11579 12684 12683 11643 11644 12749 12748 
11579 11580 12685 12684 11644 11645 12750 12749 
11580 11581 12686 12685 11645 11646 12751 12750 
11581 11582 12687 12686 11646 11647 12752 12751 
11582 11583 12688 12687 11647 11648 12753 12752 
11583 11584 12689 12688 11648 11649 12754 12753 
11584 11585 12690 12689 11649 11650 12755 12754 
11585 11586 12691 12690 11650 11651 12756 12755 
11586 11587 12692 12691 11651 11652 12757 12756 
11587 11588 12693 12692 11652 11653 12758 12757 
11588 11589 12694 12693 11653 11654 12759 12758 
11589 11590 12695 12694 11654 11655 12760 12759 
11590 11591 12696 12695 11655 11656 12761 12760 
11591 11592 12697 12696 11656 11657 12762 12761 
11592 11593 12698 12697 11657 11658 12763 12762 
11593 11594 12699 12698 11658 11659 12764 12763 
11594 11595 12700 12699 11659 11660 12765 12764 
11595 11596 12701 12700 11660 11661 12766 12765 
11596 11597 12702 12701 11661 11662 12767 12766 
11597 11598 12703 12702 11662 11663 12768 12767 
11598 11599 12704 12703 11663 11664 12769 12768 
11599 11600 12705 12704 11664 11665 12770 12769 
11600 11601 12706 12705 11665 11666 12771 12770 
11601 11602 12707 12706 11666 11667 12772 12771 
11602 11603 12708 12707 11667 11668 12773 12772 
11603 11604 12709 12708 11668 11669 12774 12773 
11604 11605 12710 12709 11669 11670 12775 12774 
11605 11606 12711 12710 11670 11671 12776 12775 
11606 11607 12712 12711 11671 11672 12777 12776 
11607 11608 12713 12712 11672 11673 12778 12777 
11608 11609 12714 12713 11673 11674 12779 12778 
11609 11610 12715 12714 11674 11675 12780 12779 
11610 11611 12716 12715 11675 11676 12781 12780 
11611 11612 12717 12716 11676 11677 12782 12781 
11612 11613 12718 12717 11677 11678 12783 12782 
11613 11614 12719 12718 11678 11679 12784 12783 
11614 11615 12720 12719 11679 11680 12785 12784 
11615 11616 12721 12720 11680 11681 12786 12785 
11616 11617 12722 12721 11681 11682 12787 12786 
11617 11618 12723 12722 11682 11683 12788 12787 
11618 11619 12724 12723 11683 11684 12789 12788 
11619 11620 12725 12724 11684 11685 12790 12789 
11620 11621 12726 12725 11685 11686 12791 12790 
11621 11622 12727 12726 11686 11687 12792 12791 
11622 11623 12728 12727 11687 11688 12793 12792 
11623 11624 12729 12728 11688 11689 12794 12793 
11624 11625 12730 12729 11689 11690 12795 12794 
11625 11626 12731 12730 11690 11691 12796 12795 
11626 11627 12732 12731 11691 11692 12797 12796 
11627 11628 12733 12732 11692 11693 12798 12797 
11628 11629 12734 12733 11693 11694 12799 12798 
11629 11630 12735 12734 11694 11695 12800 12799 
11630 11631 12736 12735 11695 11696 12801 12800 
11631 11632 12737 12736 11696 11697 12802 12801 
11632 11633 12738 12737 11697 11698 12803 12802 
11633 11634 12739 12738 11698 11699 12804 12803 
11635 11636 12741 12740 11700 11701 12806 12805 
11636 11637 12742 12741 11701 11702 12807 12806 
11637 11638 12743 12742 11702 11703 12808 12807 
11638 11639 12744 12743 11703 11704 12809 12808 
11639 11640 12745 12744 11704 11705 12810 12809 
11640 11641 12746 12745 11705 11706 12811 12810 
11641 11642 12747 12746 11706 11707 12812 12811 
11642 11643 12748 12747 11707 11708 12813 12812 
11643 11644 12749 12748 11708 11709 12814 12813 
11644 11645 12750 12749 11709 11710 12815 12814 
11645 11646 12751 12750 11710 11711 12816 12815 
11646 11647 12752 12751 11711 11712 12817 12816 
11647 11648 12753 12752 11712 11713 12818 12817 
11648 11649 12754 12753 11713 11714 12819 12818 
11649 11650 12755 12754 11714 11715 12820 12819 
11650 11651 12756 12755 11715 11716 12821 12820 
11651 11652 12757 12756 11716 11717 12822 12821 
11652 11653 12758 12757 11717 11718 12823 12822 
11653 11654 12759 12758 11718 11719 12824 12823 
11654 11655 12760 12759 11719 11720 12825 12824 
11655 11656 12761 12760 11720 11721 12826 12825 
11656 11657 12762 12761 11721 11722 12827 12826 
11657 11658 12763 12762 11722 11723 12828 12827 
11658 11659 12764 12763 11723 11724 12829 12828 
11659 11660 12765 12764 11724 11725 12830 12829 
11660 11661 12766 12765 11725 11726 12831 12830 
11661 11662 12767 12766 11726 11727 12832 12831 
11662 11663 12768 12767 11727 11728 12833 12832 
11663 11664 12769 12768 11728 11729 12834 12833 
11664 11665 12770 12769 11729 11730 12835 12834 
11665 11666 12771 12770 11730 11731 12836 12835 
11666 11667 12772 12771 11731 11732 12837 12836 
11667 11668 12773 12772 11732 11733 12838 12837 
11668 11669 12774 12773 11733 11734 12839 12838 
11669 11670 12775 12774 11734 11735 12840 12839 
11670 11671 12776 12775 11735 11736 12841 12840 
11671 11672 12777 12776 11736 11737 12842 12841 
11672 11673 12778 12777 11737 11738 12843 12842 
11673 11674 12779 12778 11738 11739 12844 12843 
11674 11675 12780 12779 11739 11740 12845 12844 
11675 11676 12781 12780 11740 11741 12846 12845 
11676 11677 12782 12781 11741 11742 12847 12846 
11677 11678 12783 12782 11742 11743 12848 12847 
11678 11679 12784 12783 11743 11744 12849 12848 
11679 11680 12785 12784 11744 11745 12850 12849 
11680 11681 12786 12785 11745 11746 12851 12850 
11681 11682 12787 12786 11746 11747 12852 12851 
11682 11683 12788 12787 11747 11748 12853 12852 
11683 11684 12789 12788 11748 11749 12854 12853 
11684 11685 12790 12789 11749 11750 12855 12854 
11685 11686 12791 12790 11750 11751 12856 12855 
11686 11687 12792 12791 11751 11752 12857 12856 
11687 11688 12793 12792 11752 11753 12858 12857 
11688 11689 12794 12793 11753 11754 12859 12858 
11689 11690 12795 12794 11754 11755 12860 12859 
11690 11691 12796 12795 11755 11756 12861 12860 
11691 11692 12797 12796 11756 11757 12862 12861 
11692 11693 12798 12797 11757 11758 12863 12862 
11693 11694 12799 12798 11758 11759 12864 12863 
11694 11695 12800 12799 11759 11760 12865 12864 
11695 11696 12801 12800 11760 11761 12866 12865 
11696 11697 12802 12801 11761 11762 12867 12866 
11697 11698 12803 12802 11762 11763 12868 12867 
11698 11699 12804 12803 11763 11764 12869 12868 
11700 11701 12806 12805 11765 11766 12871 12870 
11701 11702 12807 12806 11766 11767 12872 12871 
11702 11703 12808 12807 11767 11768 12873 12872 
11703 11704 12809 12808 11768 11769 12874 12873 
11704 11705 12810 12809 11769 11770 12875 12874 
11705 11706 12811 12810 11770 11771 12876 12875 
11706 11707 12812 12811 11771 11772 12877 12876 
11707 11708 12813 12812 11772 11773 12878 12877 
11708 11709 12814 12813 11773 11774 12879 12878 
11709 11710 12815 12814 11774 11775 12880 12879 
11710 11711 12816 12815 11775 11776 12881 12880 
11711 11712 12817 12816 11776 11777 12882 12881 
11712 11713 12818 12817 11777 11778 12883 12882 
11713 11714 12819 12818 11778 11779 12884 12883 
11714 11715 12820 12819 11779 11780 12885 12884 
11715 11716 12821 12820 11780 11781 12886 12885 
11716 11717 12822 12821 11781 11782 12887 12886 
11717 11718 12823 12822 11782 11783 12888 12887 
11718 11719 12824 12823 11783 11784 12889 12888 
11719 11720 12825 12824 11784 11785 12890 12889 
11720 11721 12826 12825 11785 11786 12891 12890 
11721 11722 12827 12826 11786 11787 12892 12891 
11722 11723 12828 12827 11787 11788 12893 12892 
11723 11724 12829 12828 11788 11789 12894 12893 
11724 11725 12830 12829 11789 11790 12895 12894 
11725 11726 12831 12830 11790 11791 12896 12895 
11726 11727 12832 12831 11791 11792 12897 12896 
11727 11728 12833 12832 11792 11793 12898 12897 
11728 11729 12834 12833 11793 11794 12899 12898 
11729 11730 12835 12834 11794 11795 12900 12899 
11730 11731 12836 12835 11795 11796 12901 12900 
11731 11732 12837 12836 11796 11797 12902 12901 
11732 11733 12838 12837 11797 11798 12903 12902 
11733 11734 12839 12838 11798 11799 12904 12903 
11734 11735 12840 12839 11799 11800 12905 12904 
11735 11736 12841 12840 11800 11801 12906 12905 
11736 11737 12842 12841 11801 11802 12907 12906 
11737 11738 12843 12842 11802 11803 12908 12907 
11738 11739 12844 12843 11803 11804 12909 12908 
11739 11740 12845 12844 11804 11805 12910 12909 
11740 11741 12846 12845 11805 11806 12911 12910 
11741 11742 12847 12846 11806 11807 12912 12911 
11742 11743 12848 12847 11807 11808 12913 12912 
11743 11744 12849 12848 11808 11809 12914 12913 
11744 11745 12850 12849 11809 11810 12915 12914 
11745 11746 12851 12850 11810 11811 12916 12915 
11746 11747 12852 12851 11811 11812 12917 12916 
11747 11748 12853 12852 11812 11813 12918 12917 
11748 11749 12854 12853 11813 11814 12919 12918 
11749 11750 12855 12854 11814 11815 12920 12919 
11750 11751 12856 12855 11815 11816 12921 12920 
11751 11752 12857 12856 11816 11817 12922 12921 
11752 11753 12858 12857 11817 11818 12923 12922 
11753 11754 12859 12858 11818 11819 12924 12923 
11754 11755 12860 12859 11819 11820 12925 12924 
11755 11756 12861 12860 11820 11821 12926 12925 
11756 11757 12862 12861 11821 11822 12927 12926 
11757 11758 12863 12862 11822 11823 12928 12927 
11758 11759 12864 12863 11823 11824 12929 12928 
11759 11760 12865 12864 11824 11825 12930 12929 
11760 11761 12866 12865 11825 11826 12931 12930 
11761 11762 12867 12866 11826 11827 12932 12931 
11762 11763 12868 12867 11827 11828 12933 12932 
11763 11764 12869 12868 11828 11829 12934 12933 
11765 11766 12871 12870 11830 11831 12936 12935 
11766 11767 12872 12871 11831 11832 12937 12936 
11767 11768 12873 12872 11832 11833 12938 12937 
11768 11769 12874 12873 11833 11834 12939 12938 
11769 11770 12875 12874 11834 11835 12940 12939 
11770 11771 12876 12875 11835 11836 12941 12940 
11771 11772 12877 12876 11836 11837 12942 12941 
11772 11773 12878 12877 11837 11838 12943 12942 
11773 11774 12879 12878 11838 11839 12944 12943 
11774 11775 12880 12879 11839 11840 12945 12944 
11775 11776 12881 12880 11840 11841 12946 12945 
11776 11777 12882 12881 11841 11842 12947 12946 
11777 11778 12883 12882 11842 11843 12948 12947 
11778 11779 12884 12883 11843 11844 12949 12948 
11779 11780 12885 12884 11844 11845 12950 12949 
11780 11781 12886 12885 11845 11846 12951 12950 
11781 11782 12887 12886 11846 11847 12952 12951 
11782 11783 12888 12887 11847 11848 12953 12952 
11783 11784 12889 12888 11848 11849 12954 12953 
11784 11785 12890 12889 11849 11850 12955 12954 
11785 11786 12891 12890 11850 11851 12956 12955 
11786 11787 12892 12891 11851 11852 12957 12956 
11787 11788 12893 12892 11852 11853 12958 12957 
11788 11789 12894 12893 11853 11854 12959 12958 
11789 11790 12895 12894 11854 11855 12960 12959 
11790 11791 12896 12895 11855 11856 12961 12960 
11791 11792 12897 12896 11856 11857 12962 12961 
11792 11793 12898 12897 11857 11858 12963 12962 
11793 11794 12899 12898 11858 11859 12964 12963 
11794 11795 12900 12899 11859 11860 12965 12964 
11795 11796 12901 12900 11860 11861 12966 12965 
11796 11797 12902 12901 11861 11862 12967 12966 
11797 11798 12903 12902 11862 11863 12968 12967 
11798 11799 12904 12903 11863 11864 12969 12968 
11799 11800 12905 12904 11864 11865 12970 12969 
11800 11801 12906 12905 11865 11866 12971 12970 
11801 11802 12907 12906 11866 11867 12972 12971 
11802 11803 12908 12907 11867 11868 12973 12972 
11803 11804 12909 12908 11868 11869 12974 12973 
11804 11805 12910 12909 11869 11870 12975 12974 
11805 11806 12911 12910 11870 11871 12976 12975 
11806 11807 12912 12911 11871 11872 12977 12976 
11807 11808 12913 12912 11872 11873 12978 12977 
11808 11809 12914 12913 11873 11874 12979 12978 
11809 11810 12915 12914 11874 11875 12980 12979 
11810 11811 12916 12915 11875 11876 12981 12980 
11811 11812 12917 12916 11876 11877 12982 12981 
11812 11813 12918 12917 11877 11878 12983 12982 
11813 11814 12919 12918 11878 11879 12984 12983 
11814 11815 12920 12919 11879 11880 12985 12984 
11815 11816 12921 12920 11880 11881 12986 12985 
11816 11817 12922 12921 11881 11882 12987 12986 
11817 11818 12923 12922 11882 11883 12988 12987 
11818 11819 12924 12923 11883 11884 12989 12988 
11819 11820 12925 12924 11884 11885 12990 12989 
11820 11821 12926 12925 11885 11886 12991 12990 
11821 11822 12927 12926 11886 11887 12992 12991 
11822 11823 12928 12927 11887 11888 12993 12992 
11823 11824 12929 12928 11888 11889 12994 12993 
11824 11825 12930 12929 11889 11890 12995 12994 
11825 11826 12931 12930 11890 11891 12996 12995 
11826 11827 12932 12931 11891 11892 12997 12996 
11827 11828 12933 12932 11892 11893 12998 12997 
11828 11829 12934 12933 11893 11894 12999 12998 
11830 11831 12936 12935 11895 11896 13001 13000 
11831 11832 12937 12936 11896 11897 13002 13001 
11832 11833 12938 12937 11897 11898 13003 13002 
11833 11834 12939 12938 11898 11899 13004 13003 
11834 11835 12940 12939 11899 11900 13005 13004 
11835 11836 12941 12940 11900 11901 13006 13005 
11836 11837 12942 12941 11901 11902 13007 13006 
11837 11838 12943 12942 11902 11903 13008 13007 
11838 11839 12944 12943 11903 11904 13009 13008 
11839 11840 12945 12944 11904 11905 13010 13009 
11840 11841 12946 12945 11905 11906 13011 13010 
11841 11842 12947 12946 11906 11907 13012 13011 
11842 11843 12948 12947 11907 11908 13013 13012 
11843 11844 12949 12948 11908 11909 13014 13013 
11844 11845 12950 12949 11909 11910 13015 13014 
11845 11846 12951 12950 11910 11911 13016 13015 
11846 11847 12952 12951 11911 11912 13017 13016 
11847 11848 12953 12952 11912 11913 13018 13017 
11848 11849 12954 12953 11913 11914 13019 13018 
11849 11850 12955 12954 11914 11915 13020 13019 
11850 11851 12956 12955 11915 11916 13021 13020 
11851 11852 12957 12956 11916 11917 13022 13021 
11852 11853 12958 12957 11917 11918 13023 13022 
11853 11854 12959 12958 11918 11919 13024 13023 
11854 11855 12960 12959 11919 11920 13025 13024 
11855 11856 12961 12960 11920 11921 13026 13025 
11856 11857 12962 12961 11921 11922 13027 13026 
11857 11858 12963 12962 11922 11923 13028 13027 
11858 11859 12964 12963 11923 11924 13029 13028 
11859 11860 12965 12964 11924 11925 13030 13029 
11860 11861 12966 12965 11925 11926 13031 13030 
11861 11862 12967 12966 11926 11927 13032 13031 
11862 11863 12968 12967 11927 11928 13033 13032 
11863 11864 12969 12968 11928 11929 13034 13033 
11864 11865 12970 12969 11929 11930 13035 13034 
11865 11866 12971 12970 11930 11931 13036 13035 
11866 11867 12972 12971 11931 11932 13037 13036 
11867 11868 12973 12972 11932 11933 13038 13037 
11868 11869 12974 12973 11933 11934 13039 13038 
11869 11870 12975 12974 11934 11935 13040 13039 
11870 11871 12976 12975 11935 11936 13041 13040 
11871 11872 12977 12976 11936 11937 13042 13041 
11872 11873 12978 12977 11937 11938 13043 13042 
11873 11874 12979 12978 11938 11939 13044 13043 
11874 11875 12980 12979 11939 11940 13045 13044 
11875 11876 12981 12980 11940 11941 13046 13045 
11876 11877 12982 12981 11941 11942 13047 13046 
11877 11878 12983 12982 11942 11943 13048 13047 
11878 11879 12984 12983 11943 11944 13049 13048 
11879 11880 12985 12984 11944 11945 13050 13049 
11880 11881 12986 12985 11945 11946 13051 13050 
11881 11882 12987 12986 11946 11947 13052 13051 
11882 11883 12988 12987 11947 11948 13053 13052 
11883 11884 12989 12988 11948 11949 13054 13053 
11884 11885 12990 12989 11949 11950 13055 13054 
11885 11886 12991 12990 11950 11951 13056 13055 
11886 11887 12992 12991 11951 11952 13057 13056 
11887 11888 12993 12992 11952 11953 13058 13057 
11888 11889 12994 12993 11953 11954 13059 13058 
11889 11890 12995 12994 11954 11955 13060 13059 
11890 11891 12996 12995 11955 11956 13061 13060 
11891 11892 12997 12996 11956 11957 13062 13061 
11892 11893 12998 12997 11957 11958 13063 13062 
11893 11894 12999 12998 11958 11959 13064 13063 
11895 11896 13001 13000 11960 11961 13066 13065 
11896 11897 13002 13001 11961 11962 13067 13066 
11897 11898 13003 13002 11962 11963 13068 13067 
11898 11899 13004 13003 11963 11964 13069 13068 
11899 11900 13005 13004 11964 11965 13070 13069 
11900 11901 13006 13005 11965 11966 13071 13070 
11901 11902 13007 13006 11966 11967 13072 13071 
11902 11903 13008 13007 11967 11968 13073 13072 
11903 11904 13009 13008 11968 11969 13074 13073 
11904 11905 13010 13009 11969 11970 13075 13074 
11905 11906 13011 13010 11970 11971 13076 13075 
11906 11907 13012 13011 11971 11972 13077 13076 
11907 11908 13013 13012 11972 11973 13078 13077 
11908 11909 13014 13013 11973 11974 13079 13078 
11909 11910 13015 13014 11974 11975 13080 13079 
11910 11911 13016 13015 11975 11976 13081 13080 
11911 11912 13017 13016 11976 11977 13082 13081 
11912 11913 13018 13017 11977 11978 13083 13082 
11913 11914 13019 13018 11978 11979 13084 13083 
11914 11915 13020 13019 11979 11980 13085 13084 
11915 11916 13021 13020 11980 11981 13086 13085 
11916 11917 13022 13021 11981 11982 13087 13086 
11917 11918 13023 13022 11982 11983 13088 13087 
11918 11919 13024 13023 11983 11984 13089 13088 
11919 11920 13025 13024 11984 11985 13090 13089 
11920 11921 13026 13025 11985 11986 13091 13090 
11921 11922 13027 13026 11986 11987 13092 13091 
11922 11923 13028 13027 11987 11988 13093 13092 
11923 11924 13029 13028 11988 11989 13094 13093 
11924 11925 13030 13029 11989 11990 13095 13094 
11925 11926 13031 13030 11990 11991 13096 13095 
11926 11927 13032 13031 11991 11992 13097 13096 
11927 11928 13033 13032 11992 11993 13098 13097 
11928 11929 13034 13033 11993 11994 13099 13098 
11929 11930 13035 13034 11994 11995 13100 13099 
11930 11931 13036 13035 11995 11996 13101 13100 
11931 11932 13037 13036 11996 11997 13102 13101 
11932 11933 13038 13037 11997 11998 13103 13102 
11933 11934 13039 13038 11998 11999 13104 13103 
11934 11935 13040 13039 11999 12000 13105 13104 
11935 11936 13041 13040 12000 12001 13106 13105 
11936 11937 13042 13041 12001 12002 13107 13106 
11937 11938 13043 13042 12002 12003 13108 13107 
11938 11939 13044 13043 12003 12004 13109 13108 
11939 11940 13045 13044 12004 12005 13110 13109 
11940 11941 13046 13045 12005 12006 13111 13110 
11941 11942 13047 13046 12006 12007 13112 13111 
11942 11943 13048 13047 12007 12008 13113 13112 
11943 11944 13049 13048 12008 12009 13114 13113 
11944 11945 13050 13049 12009 12010 13115 13114 
11945 11946 13051 13050 12010 12011 13116 13115 
11946 11947 13052 13051 12011 12012 13117 13116 
11947 11948 13053 13052 12012 12013 13118 13117 
11948 11949 13054 13053 12013 12014 13119 13118 
11949 11950 13055 13054 12014 12015 13120 13119 
11950 11951 13056 13055 12015 12016 13121 13120 
11951 11952 13057 13056 12016 12017 13122 13121 
11952 11953 13058 13057 12017 12018 13123 13122 
11953 11954 13059 13058 12018 12019 13124 13123 
11954 11955 13060 13059 12019 12020 13125 13124 
11955 11956 13061 13060 12020 12021 13126 13125 
11956 11957 13062 13061 12021 12022 13127 13126 
11957 11958 13063 13062 12022 12023 13128 13127 
11958 11959 13064 13063 12023 12024 13129 13128 
11960 11961 13066 13065 12025 12026 13131 13130 
11961 11962 13067 13066 12026 12027 13132 13131 
11962 11963 13068 13067 12027 12028 13133 13132 
11963 11964 13069 13068 12028 12029 13134 13133 
11964 11965 13070 13069 12029 12030 13135 13134 
11965 11966 13071 13070 12030 12031 13136 13135 
11966 11967 13072 13071 12031 12032 13137 13136 
11967 11968 13073 13072 12032 12033 13138 13137 
11968 11969 13074 13073 12033 12034 13139 13138 
11969 11970 13075 13074 12034 12035 13140 13139 
11970 11971 13076 13075 12035 12036 13141 13140 
11971 11972 13077 13076 12036 12037 13142 13141 
11972 11973 13078 13077 12037 12038 13143 13142 
11973 11974 13079 13078 12038 12039 13144 13143 
11974 11975 13080 13079 12039 12040 13145 13144 
11975 11976 13081 13080 12040 12041 13146 13145 
11976 11977 13082 13081 12041 12042 13147 13146 
11977 11978 13083 13082 12042 12043 13148 13147 
11978 11979 13084 13083 12043 12044 13149 13148 
11979 11980 13085 13084 12044 12045 13150 13149 
11980 11981 13086 13085 12045 12046 13151 13150 
11981 11982 13087 13086 12046 12047 13152 13151 
11982 11983 13088 13087 12047 12048 13153 13152 
11983 11984 13089 13088 12048 12049 13154 13153 
11984 11985 13090 13089 12049 12050 13155 13154 
11985 11986 13091 13090 12050 12051 13156 13155 
11986 11987 13092 13091 12051 12052 13157 13156 
11987 11988 13093 13092 12052 12053 13158 13157 
11988 11989 13094 13093 12053 12054 13159 13158 
11989 11990 13095 13094 12054 12055 13160 13159 
11990 11991 13096 13095 12055 12056 13161 13160 
11991 11992 13097 13096 12056 12057 13162 13161 
11992 11993 13098 13097 12057 12058 13163 13162 
11993 11994 13099 13098 12058 12059 13164 13163 
11994 11995 13100 13099 12059 12060 13165 13164 
11995 11996 13101 13100 12060 12061 13166 13165 
11996 11997 13102 13101 12061 12062 13167 13166 
11997 11998 13103 13102 12062 12063 13168 13167 
11998 11999 13104 13103 12063 12064 13169 13168 
11999 12000 13105 13104 12064 12065 13170 13169 
12000 12001 13106 13105 12065 12066 13171 13170 
12001 12002 13107 13106 12066 12067 13172 13171 
12002 12003 13108 13107 12067 12068 13173 13172 
12003 12004 13109 13108 12068 12069 13174 13173 
12004 12005 13110 13109 12069 12070 13175 13174 
12005 12006 13111 13110 12070 12071 13176 13175 
12006 12007 13112 13111 12071 12072 13177 13176 
12007 12008 13113 13112 12072 12073 13178 13177 
12008 12009 13114 13113 12073 12074 13179 13178 
12009 12010 13115 13114 12074 12075 13180 13179 
12010 12011 13116 13115 12075 12076 13181 13180 
12011 12012 13117 13116 12076 12077 13182 13181 
12012 12013 13118 13117 12077 12078 13183 13182 
12013 12014 13119 13118 12078 12079 13184 13183 
12014 12015 13120 13119 12079 12080 13185 13184 
12015 12016 13121 13120 12080 12081 13186 13185 
12016 12017 13122 13121 12081 12082 13187 13186 
12017 12018 13123 13122 12082 12083 13188 13187 
12018 12019 13124 13123 12083 12084 13189 13188 
12019 12020 13125 13124 12084 12085 13190 13189 
12020 12021 13126 13125 12085 12086 13191 13190 
12021 12022 13127 13126 12086 12087 13192 13191 
12022 12023 13128 13127 12087 12088 13193 13192 
12023 12024 13129 13128 12088 12089 13194 13193 
12025 12026 13131 13130 12090 12091 13196 13195 
12026 12027 13132 13131 12091 12092 13197 13196 
12027 12028 13133 13132 12092 12093 13198 13197 
12028 12029 13134 13133 12093 12094 13199 13198 
12029 12030 13135 13134 12094 12095 13200 13199 
12030 12031 13136 13135 12095 12096 13201 13200 
12031 12032 13137 13136 12096 12097 13202 13201 
12032 12033 13138 13137 12097 12098 13203 13202 
12033 12034 13139 13138 12098 12099 13204 13203 
12034 12035 13140 13139 12099 12100 13205 13204 
12035 12036 13141 13140 12100 12101 13206 13205 
12036 12037 13142 13141 12101 12102 13207 13206 
12037 12038 13143 13142 12102 12103 13208 13207 
12038 12039 13144 13143 12103 12104 13209 13208 
12039 12040 13145 13144 12104 12105 13210 13209 
12040 12041 13146 13145 12105 12106 13211 13210 
12041 12042 13147 13146 12106 12107 13212 13211 
12042 12043 13148 13147 12107 12108 13213 13212 
12043 12044 13149 13148 12108 12109 13214 13213 
12044 12045 13150 13149 12109 12110 13215 13214 
12045 12046 13151 13150 12110 12111 13216 13215 
12046 12047 13152 13151 12111 12112 13217 13216 
12047 12048 13153 13152 12112 12113 13218 13217 
12048 12049 13154 13153 12113 12114 13219 13218 
12049 12050 13155 13154 12114 12115 13220 13219 
12050 12051 13156 13155 12115 12116 13221 13220 
12051 12052 13157 13156 12116 12117 13222 13221 
12052 12053 13158 13157 12117 12118 13223 13222 
12053 12054 13159 13158 12118 12119 13224 13223 
12054 12055 13160 13159 12119 12120 13225 13224 
12055 12056 13161 13160 12120 12121 13226 13225 
12056 12057 13162 13161 12121 12122 13227 13226 
12057 12058 13163 13162 12122 12123 13228 13227 
12058 12059 13164 13163 12123 12124 13229 13228 
12059 12060 13165 13164 12124 12125 13230 13229 
12060 12061 13166 13165 12125 12126 13231 13230 
12061 12062 13167 13166 12126 12127 13232 13231 
12062 12063 13168 13167 12127 12128 13233 13232 
12063 12064 13169 13168 12128 12129 13234 13233 
12064 12065 13170 13169 12129 12130 13235 13234 
12065 12066 13171 13170 12130 12131 13236 13235 
12066 12067 13172 13171 12131 12132 13237 13236 
12067 12068 13173 13172 12132 12133 13238 13237 
12068 12069 13174 13173 12133 12134 13239 13238 
12069 12070 13175 13174 12134 12135 13240 13239 
12070 12071 13176 13175 12135 12136 13241 13240 
12071 12072 13177 13176 12136 12137 13242 13241 
12072 12073 13178 13177 12137 12138 13243 13242 
12073 12074 13179 13178 12138 12139 13244 13243 
12074 12075 13180 13179 12139 12140 13245 13244 
12075 12076 13181 13180 12140 12141 13246 13245 
12076 12077 13182 13181 12141 12142 13247 13246 
12077 12078 13183 13182 12142 12143 13248 13247 
12078 12079 13184 13183 12143 12144 13249 13248 
12079 12080 13185 13184 12144 12145 13250 13249 
12080 12081 13186 13185 12145 12146 13251 13250 
12081 12082 13187 13186 12146 12147 13252 13251 
12082 12083 13188 13187 12147 12148 13253 13252 
12083 12084 13189 13188 12148 12149 13254 13253 
12084 12085 13190 13189 12149 12150 13255 13254 
12085 12086 13191 13190 12150 12151 13256 13255 
12086 12087 13192 13191 12151 12152 13257 13256 
12087 12088 13193 13192 12152 12153 13258 13257 
12088 12089 13194 13193 12153 12154 13259 13258 
12155 12156 13261 13260 12220 12221 13326 13325 
12156 12157 13262 13261 12221 12222 13327 13326 
12157 12158 13263 13262 12222 12223 13328 13327 
12158 12159 13264 13263 12223 12224 13329 13328 
12159 12160 13265 13264 12224 12225 13330 13329 
12160 12161 13266 13265 12225 12226 13331 13330 
12161 12162 13267 13266 12226 12227 13332 13331 
12162 12163 13268 13267 12227 12228 13333 13332 
12163 12164 13269 13268 12228 12229 13334 13333 
12164 12165 13270 13269 12229 12230 13335 13334 
12165 12166 13271 13270 12230 12231 13336 13335 
12166 12167 13272 13271 12231 12232 13337 13336 
12167 12168 13273 13272 12232 12233 13338 13337 
12168 12169 13274 13273 12233 12234 13339 13338 
12169 12170 13275 13274 12234 12235 13340 13339 
12170 12171 13276 13275 12235 12236 13341 13340 
12171 12172 13277 13276 12236 12237 13342 13341 
12172 12173 13278 13277 12237 12238 13343 13342 
12173 12174 13279 13278 12238 12239 13344 13343 
12174 12175 13280 13279 12239 12240 13345 13344 
12175 12176 13281 13280 12240 12241 13346 13345 
12176 12177 13282 13281 12241 12242 13347 13346 
12177 12178 13283 13282 12242 12243 13348 13347 
12178 12179 13284 13283 12243 12244 13349 13348 
12179 12180 13285 13284 12244 12245 13350 13349 
12180 12181 13286 13285 12245 12246 13351 13350 
12181 12182 13287 13286 12246 12247 13352 13351 
12182 12183 13288 13287 12247 12248 13353 13352 
12183 12184 13289 13288 12248 12249 13354 13353 
12184 12185 13290 13289 12249 12250 13355 13354 
12185 12186 13291 13290 12250 12251 13356 13355 
12186 12187 13292 13291 12251 12252 13357 13356 
12187 12188 13293 13292 12252 12253 13358 13357 
12188 12189 13294 13293 12253 12254 13359 13358 
12189 12190 13295 13294 12254 12255 13360 13359 
12190 12191 13296 13295 12255 12256 13361 13360 
12191 12192 13297 13296 12256 12257 13362 13361 
12192 12193 13298 13297 12257 12258 13363 13362 
12193 12194 13299 13298 12258 12259 13364 13363 
12194 12195 13300 13299 12259 12260 13365 13364 
12195 12196 13301 13300 12260 12261 13366 13365 
12196 12197 13302 13301 12261 12262 13367 13366 
12197 12198 13303 13302 12262 12263 13368 13367 
12198 12199 13304 13303 12263 12264 13369 13368 
12199 12200 13305 13304 12264 12265 13370 13369 
12200 12201 13306 13305 12265 12266 13371 13370 
12201 12202 13307 13306 12266 12267 13372 13371 
12202 12203 13308 13307 12267 12268 13373 13372 
12203 12204 13309 13308 12268 12269 13374 13373 
12204 12205 13310 13309 12269 12270 13375 13374 
12205 12206 13311 13310 12270 12271 13376 13375 
12206 12207 13312 13311 12271 12272 13377 13376 
12207 12208 13313 13312 12272 12273 13378 13377 
12208 12209 13314 13313 12273 12274 13379 13378 
12209 12210 13315 13314 12274 12275 13380 13379 
12210 12211 13316 13315 12275 12276 13381 13380 
12211 12212 13317 13316 12276 12277 13382 13381 
12212 12213 13318 13317 12277 12278 13383 13382 
12213 12214 13319 13318 12278 12279 13384 13383 
12214 12215 13320 13319 12279 12280 13385 13384 
12215 12216 13321 13320 12280 12281 13386 13385 
12216 12217 13322 13321 12281 12282 13387 13386 
12217 12218 13323 13322 12282 12283 13388 13387 
12218 12219 13324 13323 12283 12284 13389 13388 
12220 12221 13326 13325 12285 12286 13391 13390 
12221 12222 13327 13326 12286 12287 13392 13391 
12222 12223 13328 13327 12287 12288 13393 13392 
12223 12224 13329 13328 12288 12289 13394 13393 
12224 12225 13330 13329 12289 12290 13395 13394 
12225 12226 13331 13330 12290 12291 13396 13395 
12226 12227 13332 13331 12291 12292 13397 13396 
12227 12228 13333 13332 12292 12293 13398 13397 
12228 12229 13334 13333 12293 12294 13399 13398 
12229 12230 13335 13334 12294 12295 13400 13399 
12230 12231 13336 13335 12295 12296 13401 13400 
12231 12232 13337 13336 12296 12297 13402 13401 
12232 12233 13338 13337 12297 12298 13403 13402 
12233 12234 13339 13338 12298 12299 13404 13403 
12234 12235 13340 13339 12299 12300 13405 13404 
12235 12236 13341 13340 12300 12301 13406 13405 
12236 12237 13342 13341 12301 12302 13407 13406 
12237 12238 13343 13342 12302 12303 13408 13407 
12238 12239 13344 13343 12303 12304 13409 13408 
12239 12240 13345 13344 12304 12305 13410 13409 
12240 12241 13346 13345 12305 12306 13411 13410 
12241 12242 13347 13346 12306 12307 13412 13411 
12242 12243 13348 13347 12307 12308 13413 13412 
12243 12244 13349 13348 12308 12309 13414 13413 
12244 12245 13350 13349 12309 12310 13415 13414 
12245 12246 13351 13350 12310 12311 13416 13415 
12246 12247 13352 13351 12311 12312 13417 13416 
12247 12248 13353 13352 12312 12313 13418 13417 
12248 12249 13354 13353 12313 12314 13419 13418 
12249 12250 13355 13354 12314 12315 13420 13419 
12250 12251 13356 13355 12315 12316 13421 13420 
12251 12252 13357 13356 12316 12317 13422 13421 
12252 12253 13358 13357 12317 12318 13423 13422 
12253 12254 13359 13358 12318 12319 13424 13423 
12254 12255 13360 13359 12319 12320 13425 13424 
12255 12256 13361 13360 12320 12321 13426 13425 
12256 12257 13362 13361 12321 12322 13427 13426 
12257 12258 13363 13362 12322 12323 13428 13427 
12258 12259 13364 13363 12323 12324 13429 13428 
12259 12260 13365 13364 12324 12325 13430 13429 
12260 12261 13366 13365 12325 12326 13431 13430 
12261 12262 13367 13366 12326 12327 13432 13431 
12262 12263 13368 13367 12327 12328 13433 13432 
12263 12264 13369 13368 12328 12329 13434 13433 
12264 12265 13370 13369 12329 12330 13435 13434 
12265 12266 13371 13370 12330 12331 13436 13435 
12266 12267 13372 13371 12331 12332 13437 13436 
12267 12268 13373 13372 12332 12333 13438 13437 
12268 12269 13374 13373 12333 12334 13439 13438 
12269 12270 13375 13374 12334 12335 13440 13439 
12270 12271 13376 13375 12335 12336 13441 13440 
12271 12272 13377 13376 12336 12337 13442 13441 
12272 12273 13378 13377 12337 12338 13443 13442 
12273 12274 13379 13378 12338 12339 13444 13443 
12274 12275 13380 13379 12339 12340 13445 13444 
12275 12276 13381 13380 12340 12341 13446 13445 
12276 12277 13382 13381 12341 12342 13447 13446 
12277 12278 13383 13382 12342 12343 13448 13447 
12278 12279 13384 13383 12343 12344 13449 13448 
12279 12280 13385 13384 12344 12345 13450 13449 
12280 12281 13386 13385 12345 12346 13451 13450 
12281 12282 13387 13386 12346 12347 13452 13451 
12282 12283 13388 13387 12347 12348 13453 13452 
12283 12284 13389 13388 12348 12349 13454 13453 
12285 12286 13391 13390 12350 12351 13456 13455 
12286 12287 13392 13391 12351 12352 13457 13456 
12287 12288 13393 13392 12352 12353 13458 13457 
12288 12289 13394 13393 12353 12354 13459 13458 
12289 12290 13395 13394 12354 12355 13460 13459 
12290 12291 13396 13395 12355 12356 13461 13460 
12291 12292 13397 13396 12356 12357 13462 13461 
12292 12293 13398 13397 12357 12358 13463 13462 
12293 12294 13399 13398 12358 12359 13464 13463 
12294 12295 13400 13399 12359 12360 13465 13464 
12295 12296 13401 13400 12360 12361 13466 13465 
12296 12297 13402 13401 12361 12362 13467 13466 
12297 12298 13403 13402 12362 12363 13468 13467 
12298 12299 13404 13403 12363 12364 13469 13468 
12299 12300 13405 13404 12364 12365 13470 13469 
12300 12301 13406 13405 12365 12366 13471 13470 
12301 12302 13407 13406 12366 12367 13472 13471 
12302 12303 13408 13407 12367 12368 13473 13472 
12303 12304 13409 13408 12368 12369 13474 13473 
12304 12305 13410 13409 12369 12370 13475 13474 
12305 12306 13411 13410 12370 12371 13476 13475 
12306 12307 13412 13411 12371 12372 13477 13476 
12307 12308 13413 13412 12372 12373 13478 13477 
12308 12309 13414 13413 12373 12374 13479 13478 
12309 12310 13415 13414 12374 12375 13480 13479 
12310 12311 13416 13415 12375 12376 13481 13480 
12311 12312 13417 13416 12376 12377 13482 13481 
12312 12313 13418 13417 12377 12378 13483 13482 
12313 12314 13419 13418 12378 12379 13484 13483 
12314 12315 13420 13419 12379 12380 13485 13484 
12315 12316 13421 13420 12380 12381 13486 13485 
12316 12317 13422 13421 12381 12382 13487 13486 
12317 12318 13423 13422 12382 12383 13488 13487 
12318 12319 13424 13423 12383 12384 13489 13488 
12319 12320 13425 13424 12384 12385 13490 13489 
12320 12321 13426 13425 12385 12386 13491 13490 
12321 12322 13427 13426 12386 12387 13492 13491 
12322 12323 13428 13427 12387 12388 13493 13492 
12323 12324 13429 13428 12388 12389 13494 13493 
12324 12325 13430 13429 12389 12390 13495 13494 
12325 12326 13431 13430 12390 12391 13496 13495 
12326 12327 13432 13431 12391 12392 13497 13496 
12327 12328 13433 13432 12392 12393 13498 13497 
12328 12329 13434 13433 12393 12394 13499 13498 
12329 12330 13435 13434 12394 12395 13500 13499 
12330 12331 13436 13435 12395 12396 13501 13500 
12331 12332 13437 13436 12396 12397 13502 13501 
12332 12333 13438 13437 12397 12398 13503 13502 
12333 12334 13439 13438 12398 12399 13504 13503 
12334 12335 13440 13439 12399 12400 13505 13504 
12335 12336 13441 13440 12400 12401 13506 13505 
12336 12337 13442 13441 12401 12402 13507 13506 
12337 12338 13443 13442 12402 12403 13508 13507 
12338 12339 13444 13443 12403 12404 13509 13508 
12339 12340 13445 13444 12404 12405 13510 13509 
12340 12341 13446 13445 12405 12406 13511 13510 
12341 12342 13447 13446 12406 12407 13512 13511 
12342 12343 13448 13447 12407 12408 13513 13512 
12343 12344 13449 13448 12408 12409 13514 13513 
12344 12345 13450 13449 12409 12410 13515 13514 
12345 12346 13451 13450 12410 12411 13516 13515 
12346 12347 13452 13451 12411 12412 13517 13516 
12347 12348 13453 13452 12412 12413 13518 13517 
12348 12349 13454 13453 12413 12414 13519 13518 
12350 12351 13456 13455 12415 12416 13521 13520 
12351 12352 13457 13456 12416 12417 13522 13521 
12352 12353 13458 13457 12417 12418 13523 13522 
12353 12354 13459 13458 12418 12419 13524 13523 
12354 12355 13460 13459 12419 12420 13525 13524 
12355 12356 13461 13460 12420 12421 13526 13525 
12356 12357 13462 13461 12421 12422 13527 13526 
12357 12358 13463 13462 12422 12423 13528 13527 
12358 12359 13464 13463 12423 12424 13529 13528 
12359 12360 13465 13464 12424 12425 13530 13529 
12360 12361 13466 13465 12425 12426 13531 13530 
12361 12362 13467 13466 12426 12427 13532 13531 
12362 12363 13468 13467 12427 12428 13533 13532 
12363 12364 13469 13468 12428 12429 13534 13533 
12364 12365 13470 13469 12429 12430 13535 13534 
12365 12366 13471 13470 12430 12431 13536 13535 
12366 12367 13472 13471 12431 12432 13537 13536 
12367 12368 13473 13472 12432 12433 13538 13537 
12368 12369 13474 13473 12433 12434 13539 13538 
12369 12370 13475 13474 12434 12435 13540 13539 
12370 12371 13476 13475 12435 12436 13541 13540 
12371 12372 13477 13476 12436 12437 13542 13541 
12372 12373 13478 13477 12437 12438 13543 13542 
12373 12374 13479 13478 12438 12439 13544 13543 
12374 12375 13480 13479 12439 12440 13545 13544 
12375 12376 13481 13480 12440 12441 13546 13545 
12376 12377 13482 13481 12441 12442 13547 13546 
12377 12378 13483 13482 12442 12443 13548 13547 
12378 12379 13484 13483 12443 12444 13549 13548 
12379 12380 13485 13484 12444 12445 13550 13549 
12380 12381 13486 13485 12445 12446 13551 13550 
12381 12382 13487 13486 12446 12447 13552 13551 
12382 12383 13488 13487 12447 12448 13553 13552 
12383 12384 13489 13488 12448 12449 13554 13553 
12384 12385 13490 13489 12449 12450 13555 13554 
12385 12386 13491 13490 12450 12451 13556 13555 
12386 12387 13492 13491 12451 12452 13557 13556 
12387 12388 13493 13492 12452 12453 13558 13557 
12388 12389 13494 13493 12453 12454 13559 13558 
12389 12390 13495 13494 12454 12455 13560 13559 
12390 12391 13496 13495 12455 12456 13561 13560 
12391 12392 13497 13496 12456 12457 13562 13561 
12392 12393 13498 13497 12457 12458 13563 13562 
12393 12394 13499 13498 12458 12459 13564 13563 
12394 12395 13500 13499 12459 12460 13565 13564 
12395 12396 13501 13500 12460 12461 13566 13565 
12396 12397 13502 13501 12461 12462 13567 13566 
12397 12398 13503 13502 12462 12463 13568 13567 
12398 12399 13504 13503 12463 12464 13569 13568 
12399 12400 13505 13504 12464 12465 13570 13569 
12400 12401 13506 13505 12465 12466 13571 13570 
12401 12402 13507 13506 12466 12467 13572 13571 
12402 12403 13508 13507 12467 12468 13573 13572 
12403 12404 13509 13508 12468 12469 13574 13573 
12404 12405 13510 13509 12469 12470 13575 13574 
12405 12406 13511 13510 12470 12471 13576 13575 
12406 12407 13512 13511 12471 12472 13577 13576 
12407 12408 13513 13512 12472 12473 13578 13577 
12408 12409 13514 13513 12473 12474 13579 13578 
12409 12410 13515 13514 12474 12475 13580 13579 
12410 12411 13516 13515 12475 12476 13581 13580 
12411 12412 13517 13516 12476 12477 13582 13581 
12412 12413 13518 13517 12477 12478 13583 13582 
12413 12414 13519 13518 12478 12479 13584 13583 
12415 12416 13521 13520 12480 12481 13586 13585 
12416 12417 13522 13521 12481 12482 13587 13586 
12417 12418 13523 13522 12482 12483 13588 13587 
12418 12419 13524 13523 12483 12484 13589 13588 
12419 12420 13525 13524 12484 12485 13590 13589 
12420 12421 13526 13525 12485 12486 13591 13590 
12421 12422 13527 13526 12486 12487 13592 13591 
12422 12423 13528 13527 12487 12488 13593 13592 
12423 12424 13529 13528 12488 12489 13594 13593 
12424 12425 13530 13529 12489 12490 13595 13594 
12425 12426 13531 13530 12490 12491 13596 13595 
12426 12427 13532 13531 12491 12492 13597 13596 
12427 12428 13533 13532 12492 12493 13598 13597 
12428 12429 13534 13533 12493 12494 13599 13598 
12429 12430 13535 13534 12494 12495 13600 13599 
12430 12431 13536 13535 12495 12496 13601 13600 
12431 12432 13537 13536 12496 12497 13602 13601 
12432 12433 13538 13537 12497 12498 13603 13602 
12433 12434 13539 13538 12498 12499 13604 13603 
12434 12435 13540 13539 12499 12500 13605 13604 
12435 12436 13541 13540 12500 12501 13606 13605 
12436 12437 13542 13541 12501 12502 13607 13606 
12437 12438 13543 13542 12502 12503 13608 13607 
12438 12439 13544 13543 12503 12504 13609 13608 
12439 12440 13545 13544 12504 12505 13610 13609 
12440 12441 13546 13545 12505 12506 13611 13610 
12441 12442 13547 13546 12506 12507 13612 13611 
12442 12443 13548 13547 12507 12508 13613 13612 
12443 12444 13549 13548 12508 12509 13614 13613 
12444 12445 13550 13549 12509 12510 13615 13614 
12445 12446 13551 13550 12510 12511 13616 13615 
12446 12447 13552 13551 12511 12512 13617 13616 
12447 12448 13553 13552 12512 12513 13618 13617 
12448 12449 13554 13553 12513 12514 13619 13618 
12449 12450 13555 13554 12514 12515 13620 13619 
12450 12451 13556 13555 12515 12516 13621 13620 
12451 12452 13557 13556 12516 12517 13622 13621 
12452 12453 13558 13557 12517 12518 13623 13622 
12453 12454 13559 13558 12518 12519 13624 13623 
12454 12455 13560 13559 12519 12520 13625 13624 
12455 12456 13561 13560 12520 12521 13626 13625 
12456 12457 13562 13561 12521 12522 13627 13626 
12457 12458 13563 13562 12522 12523 13628 13627 
12458 12459 13564 13563 12523 12524 13629 13628 
12459 12460 13565 13564 12524 12525 13630 13629 
12460 12461 13566 13565 12525 12526 13631 13630 
12461 12462 13567 13566 12526 12527 13632 13631 
12462 12463 13568 13567 12527 12528 13633 13632 
12463 12464 13569 13568 12528 12529 13634 13633 
12464 12465 13570 13569 12529 12530 13635 13634 
12465 12466 13571 13570 12530 12531 13636 13635 
12466 12467 13572 13571 12531 12532 13637 13636 
12467 12468 13573 13572 12532 12533 13638 13637 
12468 12469 13574 13573 12533 12534 13639 13638 
12469 12470 13575 13574 12534 12535 13640 13639 
12470 12471 13576 13575 12535 12536 13641 13640 
12471 12472 13577 13576 12536 12537 13642 13641 
12472 12473 13578 13577 12537 12538 13643 13642 
12473 12474 13579 13578 12538 12539 13644 13643 
12474 12475 13580 13579 12539 12540 13645 13644 
12475 12476 13581 13580 12540 12541 13646 13645 
12476 12477 13582 13581 12541 12542 13647 13646 
12477 12478 13583 13582 12542 12543 13648 13647 
12478 12479 13584 13583 12543 12544 13649 13648 
12480 12481 13586 13585 12545 12546 13651 13650 
12481 12482 13587 13586 12546 12547 13652 13651 
12482 12483 13588 13587 12547 12548 13653 13652 
12483 12484 13589 13588 12548 12549 13654 13653 
12484 12485 13590 13589 12549 12550 13655 13654 
12485 12486 13591 13590 12550 12551 13656 13655 
12486 12487 13592 13591 12551 12552 13657 13656 
12487 12488 13593 13592 12552 12553 13658 13657 
12488 12489 13594 13593 12553 12554 13659 13658 
12489 12490 13595 13594 12554 12555 13660 13659 
12490 12491 13596 13595 12555 12556 13661 13660 
12491 12492 13597 13596 12556 12557 13662 13661 
12492 12493 13598 13597 12557 12558 13663 13662 
12493 12494 13599 13598 12558 12559 13664 13663 
12494 12495 13600 13599 12559 12560 13665 13664 
12495 12496 13601 13600 12560 12561 13666 13665 
12496 12497 13602 13601 12561 12562 13667 13666 
12497 12498 13603 13602 12562 12563 13668 13667 
12498 12499 13604 13603 12563 12564 13669 13668 
12499 12500 13605 13604 12564 12565 13670 13669 
12500 12501 13606 13605 12565 12566 13671 13670 
12501 12502 13607 13606 12566 12567 13672 13671 
12502 12503 13608 13607 12567 12568 13673 13672 
12503 12504 13609 13608 12568 12569 13674 13673 
12504 12505 13610 13609 12569 12570 13675 13674 
12505 12506 13611 13610 12570 12571 13676 13675 
12506 12507 13612 13611 12571 12572 13677 13676 
12507 12508 13613 13612 12572 12573 13678 13677 
12508 12509 13614 13613 12573 12574 13679 13678 
12509 12510 13615 13614 12574 12575 13680 13679 
12510 12511 13616 13615 12575 12576 13681 13680 
12511 12512 13617 13616 12576 12577 13682 13681 
12512 12513 13618 13617 12577 12578 13683 13682 
12513 12514 13619 13618 12578 12579 13684 13683 
12514 12515 13620 13619 12579 12580 13685 13684 
12515 12516 13621 13620 12580 12581 13686 13685 
12516 12517 13622 13621 12581 12582 13687 13686 
12517 12518 13623 13622 12582 12583 13688 13687 
12518 12519 13624 13623 12583 12584 13689 13688 
12519 12520 13625 13624 12584 12585 13690 13689 
12520 12521 13626 13625 12585 12586 13691 13690 
12521 12522 13627 13626 12586 12587 13692 13691 
12522 12523 13628 13627 12587 12588 13693 13692 
12523 12524 13629 13628 12588 12589 13694 13693 
12524 12525 13630 13629 12589 12590 13695 13694 
12525 12526 13631 13630 12590 12591 13696 13695 
12526 12527 13632 13631 12591 12592 13697 13696 
12527 12528 13633 13632 12592 12593 13698 13697 
12528 12529 13634 13633 12593 12594 13699 13698 
12529 12530 13635 13634 12594 12595 13700 13699 
12530 12531 13636 13635 12595 12596 13701 13700 
12531 12532 13637 13636 12596 12597 13702 13701 
12532 12533 13638 13637 12597 12598 13703 13702 
12533 12534 13639 13638 12598 12599 13704 13703 
12534 12535 13640 13639 12599 12600 13705 13704 
12535 12536 13641 13640 12600 12601 13706 13705 
12536 12537 13642 13641 12601 12602 13707 13706 
12537 12538 13643 13642 12602 12603 13708 13707 
12538 12539 13644 13643 12603 12604 13709 13708 
12539 12540 13645 13644 12604 12605 13710 13709 
12540 12541 13646 13645 12605 12606 13711 13710 
12541 12542 13647 13646 12606 12607 13712 13711 
12542 12543 13648 13647 12607 12608 13713 13712 
12543 12544 13649 13648 12608 12609 13714 13713 
12545 12546 13651 13650 12610 12611 13716 13715 
12546 12547 13652 13651 12611 12612 13717 13716 
12547 12548 13653 13652 12612 12613 13718 13717 
12548 12549 13654 13653 12613 12614 13719 13718 
12549 12550 13655 13654 12614 12615 13720 13719 
12550 12551 13656 13655 12615 12616 13721 13720 
12551 12552 13657 13656 12616 12617 13722 13721 
12552 12553 13658 13657 12617 12618 13723 13722 
12553 12554 13659 13658 12618 12619 13724 13723 
12554 12555 13660 13659 12619 12620 13725 13724 
12555 12556 13661 13660 12620 12621 13726 13725 
12556 12557 13662 13661 12621 12622 13727 13726 
12557 12558 13663 13662 12622 12623 13728 13727 
12558 12559 13664 13663 12623 12624 13729 13728 
12559 12560 13665 13664 12624 12625 13730 13729 
12560 12561 13666 13665 12625 12626 13731 13730 
12561 12562 13667 13666 12626 12627 13732 13731 
12562 12563 13668 13667 12627 12628 13733 13732 
12563 12564 13669 13668 12628 12629 13734 13733 
12564 12565 13670 13669 12629 12630 13735 13734 
12565 12566 13671 13670 12630 12631 13736 13735 
12566 12567 13672 13671 12631 12632 13737 13736 
12567 12568 13673 13672 12632 12633 13738 13737 
12568 12569 13674 13673 12633 12634 13739 13738 
12569 12570 13675 13674 12634 12635 13740 13739 
12570 12571 13676 13675 12635 12636 13741 13740 
12571 12572 13677 13676 12636 12637 13742 13741 
12572 12573 13678 13677 12637 12638 13743 13742 
12573 12574 13679 13678 12638 12639 13744 13743 
12574 12575 13680 13679 12639 12640 13745 13744 
12575 12576 13681 13680 12640 12641 13746 13745 
12576 12577 13682 13681 12641 12642 13747 13746 
12577 12578 13683 13682 12642 12643 13748 13747 
12578 12579 13684 13683 12643 12644 13749 13748 
12579 12580 13685 13684 12644 12645 13750 13749 
12580 12581 13686 13685 12645 12646 13751 13750 
12581 12582 13687 13686 12646 12647 13752 13751 
12582 12583 13688 13687 12647 12648 13753 13752 
12583 12584 13689 13688 12648 12649 13754 13753 
12584 12585 13690 13689 12649 12650 13755 13754 
12585 12586 13691 13690 12650 12651 13756 13755 
12586 12587 13692 13691 12651 12652 13757 13756 
12587 12588 13693 13692 12652 12653 13758 13757 
12588 12589 13694 13693 12653 12654 13759 13758 
12589 12590 13695 13694 12654 12655 13760 13759 
12590 12591 13696 13695 12655 12656 13761 13760 
12591 12592 13697 13696 12656 12657 13762 13761 
12592 12593 13698 13697 12657 12658 13763 13762 
12593 12594 13699 13698 12658 12659 13764 13763 
12594 12595 13700 13699 12659 12660 13765 13764 
12595 12596 13701 13700 12660 12661 13766 13765 
12596 12597 13702 13701 12661 12662 13767 13766 
12597 12598 13703 13702 12662 12663 13768 13767 
12598 12599 13704 13703 12663 12664 13769 13768 
12599 12600 13705 13704 12664 12665 13770 13769 
12600 12601 13706 13705 12665 12666 13771 13770 
12601 12602 13707 13706 12666 12667 13772 13771 
12602 12603 13708 13707 12667 12668 13773 13772 
12603 12604 13709 13708 12668 12669 13774 13773 
12604 12605 13710 13709 12669 12670 13775 13774 
12605 12606 13711 13710 12670 12671 13776 13775 
12606 12607 13712 13711 12671 12672 13777 13776 
12607 12608 13713 13712 12672 12673 13778 13777 
12608 12609 13714 13713 12673 12674 13779 13778 
12610 12611 13716 13715 12675 12676 13781 13780 
12611 12612 13717 13716 12676 12677 13782 13781 
12612 12613 13718 13717 12677 12678 13783 13782 
12613 12614 13719 13718 12678 12679 13784 13783 
12614 12615 13720 13719 12679 12680 13785 13784 
12615 12616 13721 13720 12680 12681 13786 13785 
12616 12617 13722 13721 12681 12682 13787 13786 
12617 12618 13723 13722 12682 12683 13788 13787 
12618 12619 13724 13723 12683 12684 13789 13788 
12619 12620 13725 13724 12684 12685 13790 13789 
12620 12621 13726 13725 12685 12686 13791 13790 
12621 12622 13727 13726 12686 12687 13792 13791 
12622 12623 13728 13727 12687 12688 13793 13792 
12623 12624 13729 13728 12688 12689 13794 13793 
12624 12625 13730 13729 12689 12690 13795 13794 
12625 12626 13731 13730 12690 12691 13796 13795 
12626 12627 13732 13731 12691 12692 13797 13796 
12627 12628 13733 13732 12692 12693 13798 13797 
12628 12629 13734 13733 12693 12694 13799 13798 
12629 12630 13735 13734 12694 12695 13800 13799 
12630 12631 13736 13735 12695 12696 13801 13800 
12631 12632 13737 13736 12696 12697 13802 13801 
12632 12633 13738 13737 12697 12698 13803 13802 
12633 12634 13739 13738 12698 12699 13804 13803 
12634 12635 13740 13739 12699 12700 13805 13804 
12635 12636 13741 13740 12700 12701 13806 13805 
12636 12637 13742 13741 12701 12702 13807 13806 
12637 12638 13743 13742 12702 12703 13808 13807 
12638 12639 13744 13743 12703 12704 13809 13808 
12639 12640 13745 13744 12704 12705 13810 13809 
12640 12641 13746 13745 12705 12706 13811 13810 
12641 12642 13747 13746 12706 12707 13812 13811 
12642 12643 13748 13747 12707 12708 13813 13812 
12643 12644 13749 13748 12708 12709 13814 13813 
12644 12645 13750 13749 12709 12710 13815 13814 
12645 12646 13751 13750 12710 12711 13816 13815 
12646 12647 13752 13751 12711 12712 13817 13816 
12647 12648 13753 13752 12712 12713 13818 13817 
12648 12649 13754 13753 12713 12714 13819 13818 
12649 12650 13755 13754 12714 12715 13820 13819 
12650 12651 13756 13755 12715 12716 13821 13820 
12651 12652 13757 13756 12716 12717 13822 13821 
12652 12653 13758 13757 12717 12718 13823 13822 
12653 12654 13759 13758 12718 12719 13824 13823 
12654 12655 13760 13759 12719 12720 13825 13824 
12655 12656 13761 13760 12720 12721 13826 13825 
12656 12657 13762 13761 12721 12722 13827 13826 
12657 12658 13763 13762 12722 12723 13828 13827 
12658 12659 13764 13763 12723 12724 13829 13828 
12659 12660 13765 13764 12724 12725 13830 13829 
12660 12661 13766 13765 12725 12726 13831 13830 
12661 12662 13767 13766 12726 12727 13832 13831 
12662 12663 13768 13767 12727 12728 13833 13832 
12663 12664 13769 13768 12728 12729 13834 13833 
12664 12665 13770 13769 12729 12730 13835 13834 
12665 12666 13771 13770 12730 12731 13836 13835 
12666 12667 13772 13771 12731 12732 13837 13836 
12667 12668 13773 13772 12732 12733 13838 13837 
12668 12669 13774 13773 12733 12734 13839 13838 
12669 12670 13775 13774 12734 12735 13840 13839 
12670 12671 13776 13775 12735 12736 13841 13840 
12671 12672 13777 13776 12736 12737 13842 13841 
12672 12673 13778 13777 12737 12738 13843 13842 
12673 12674 13779 13778 12738 12739 13844 13843 
12675 12676 13781 13780 12740 12741 13846 13845 
12676 12677 13782 13781 12741 12742 13847 13846 
12677 12678 13783 13782 12742 12743 13848 13847 
12678 12679 13784 13783 12743 12744 13849 13848 
12679 12680 13785 13784 12744 12745 13850 13849 
12680 12681 13786 13785 12745 12746 13851 13850 
12681 12682 13787 13786 12746 12747 13852 13851 
12682 12683 13788 13787 12747 12748 13853 13852 
12683 12684 13789 13788 12748 12749 13854 13853 
12684 12685 13790 13789 12749 12750 13855 13854 
12685 12686 13791 13790 12750 12751 13856 13855 
12686 12687 13792 13791 12751 12752 13857 13856 
12687 12688 13793 13792 12752 12753 13858 13857 
12688 12689 13794 13793 12753 12754 13859 13858 
12689 12690 13795 13794 12754 12755 13860 13859 
12690 12691 13796 13795 12755 12756 13861 13860 
12691 12692 13797 13796 12756 12757 13862 13861 
12692 12693 13798 13797 12757 12758 13863 13862 
12693 12694 13799 13798 12758 12759 13864 13863 
12694 12695 13800 13799 12759 12760 13865 13864 
12695 12696 13801 13800 12760 12761 13866 13865 
12696 12697 13802 13801 12761 12762 13867 13866 
12697 12698 13803 13802 12762 12763 13868 13867 
12698 12699 13804 13803 12763 12764 13869 13868 
12699 12700 13805 13804 12764 12765 13870 13869 
12700 12701 13806 13805 12765 12766 13871 13870 
12701 12702 13807 13806 12766 12767 13872 13871 
12702 12703 13808 13807 12767 12768 13873 13872 
12703 12704 13809 13808 12768 12769 13874 13873 
12704 12705 13810 13809 12769 12770 13875 13874 
12705 12706 13811 13810 12770 12771 13876 13875 
12706 12707 13812 13811 12771 12772 13877 13876 
12707 12708 13813 13812 12772 12773 13878 13877 
12708 12709 13814 13813 12773 12774 13879 13878 
12709 12710 13815 13814 12774 12775 13880 13879 
12710 12711 13816 13815 12775 12776 13881 13880 
12711 12712 13817 13816 12776 12777 13882 13881 
12712 12713 13818 13817 12777 12778 13883 13882 
12713 12714 13819 13818 12778 12779 13884 13883 
12714 12715 13820 13819 12779 12780 13885 13884 
12715 12716 13821 13820 12780 12781 13886 13885 
12716 12717 13822 13821 12781 12782 13887 13886 
12717 12718 13823 13822 12782 12783 13888 13887 
12718 12719 13824 13823 12783 12784 13889 13888 
12719 12720 13825 13824 12784 12785 13890 13889 
12720 12721 13826 13825 12785 12786 13891 13890 
12721 12722 13827 13826 12786 12787 13892 13891 
12722 12723 13828 13827 12787 12788 13893 13892 
12723 12724 13829 13828 12788 12789 13894 13893 
12724 12725 13830 13829 12789 12790 13895 13894 
12725 12726 13831 13830 12790 12791 13896 13895 
12726 12727 13832 13831 12791 12792 13897 13896 
12727 12728 13833 13832 12792 12793 13898 13897 
12728 12729 13834 13833 12793 12794 13899 13898 
12729 12730 13835 13834 12794 12795 13900 13899 
12730 12731 13836 13835 12795 12796 13901 13900 
12731 12732 13837 13836 12796 12797 13902 13901 
12732 12733 13838 13837 12797 12798 13903 13902 
12733 12734 13839 13838 12798 12799 13904 13903 
12734 12735 13840 13839 12799 12800 13905 13904 
12735 12736 13841 13840 12800 12801 13906 13905 
12736 12737 13842 13841 12801 12802 13907 13906 
12737 12738 13843 13842 12802 12803 13908 13907 
12738 12739 13844 13843 12803 12804 13909 13908 
12740 12741 13846 13845 12805 12806 13911 13910 
12741 12742 13847 13846 12806 12807 13912 13911 
12742 12743 13848 13847 12807 12808 13913 13912 
12743 12744 13849 13848 12808 12809 13914 13913 
12744 12745 13850 13849 12809 12810 13915 13914 
12745 12746 13851 13850 12810 12811 13916 13915 
12746 12747 13852 13851 12811 12812 13917 13916 
12747 12748 13853 13852 12812 12813 13918 13917 
12748 12749 13854 13853 12813 12814 13919 13918 
12749 12750 13855 13854 12814 12815 13920 13919 
12750 12751 13856 13855 12815 12816 13921 13920 
12751 12752 13857 13856 12816 12817 13922 13921 
12752 12753 13858 13857 12817 12818 13923 13922 
12753 12754 13859 13858 12818 12819 13924 13923 
12754 12755 13860 13859 12819 12820 13925 13924 
12755 12756 13861 13860 12820 12821 13926 13925 
12756 12757 13862 13861 12821 12822 13927 13926 
12757 12758 13863 13862 12822 12823 13928 13927 
12758 12759 13864 13863 12823 12824 13929 13928 
12759 12760 13865 13864 12824 12825 13930 13929 
12760 12761 13866 13865 12825 12826 13931 13930 
12761 12762 13867 13866 12826 12827 13932 13931 
12762 12763 13868 13867 12827 12828 13933 13932 
12763 12764 13869 13868 12828 12829 13934 13933 
12764 12765 13870 13869 12829 12830 13935 13934 
12765 12766 13871 13870 12830 12831 13936 13935 
12766 12767 13872 13871 12831 12832 13937 13936 
12767 12768 13873 13872 12832 12833 13938 13937 
12768 12769 13874 13873 12833 12834 13939 13938 
12769 12770 13875 13874 12834 12835 13940 13939 
12770 12771 13876 13875 12835 12836 13941 13940 
12771 12772 13877 13876 12836 12837 13942 13941 
12772 12773 13878 13877 12837 12838 13943 13942 
12773 12774 13879 13878 12838 12839 13944 13943 
12774 12775 13880 13879 12839 12840 13945 13944 
12775 12776 13881 13880 12840 12841 13946 13945 
12776 12777 13882 13881 12841 12842 13947 13946 
12777 12778 13883 13882 12842 12843 13948 13947 
12778 12779 13884 13883 12843 12844 13949 13948 
12779 12780 13885 13884 12844 12845 13950 13949 
12780 12781 13886 13885 12845 12846 13951 13950 
12781 12782 13887 13886 12846 12847 13952 13951 
12782 12783 13888 13887 12847 12848 13953 13952 
12783 12784 13889 13888 12848 12849 13954 13953 
12784 12785 13890 13889 12849 12850 13955 13954 
12785 12786 13891 13890 12850 12851 13956 13955 
12786 12787 13892 13891 12851 12852 13957 13956 
12787 12788 13893 13892 12852 12853 13958 13957 
12788 12789 13894 13893 12853 12854 13959 13958 
12789 12790 13895 13894 12854 12855 13960 13959 
12790 12791 13896 13895 12855 12856 13961 13960 
12791 12792 13897 13896 12856 12857 13962 13961 
12792 12793 13898 13897 12857 12858 13963 13962 
12793 12794 13899 13898 12858 12859 13964 13963 
12794 12795 13900 13899 12859 12860 13965 13964 
12795 12796 13901 13900 12860 12861 13966 13965 
12796 12797 13902 13901 12861 12862 13967 13966 
12797 12798 13903 13902 12862 12863 13968 13967 
12798 12799 13904 13903 12863 12864 13969 13968 
12799 12800 13905 13904 12864 12865 13970 13969 
12800 12801 13906 13905 12865 12866 13971 13970 
12801 12802 13907 13906 12866 12867 13972 13971 
12802 12803 13908 13907 12867 12868 13973 13972 
12803 12804 13909 13908 12868 12869 13974 13973 
12805 12806 13911 13910 12870 12871 13976 13975 
12806 12807 13912 13911 12871 12872 13977 13976 
12807 12808 13913 13912 12872 12873 13978 13977 
12808 12809 13914 13913 12873 12874 13979 13978 
12809 12810 13915 13914 12874 12875 13980 13979 
12810 12811 13916 13915 12875 12876 13981 13980 
12811 12812 13917 13916 12876 12877 13982 13981 
12812 12813 13918 13917 12877 12878 13983 13982 
12813 12814 13919 13918 12878 12879 13984 13983 
12814 12815 13920 13919 12879 12880 13985 13984 
12815 12816 13921 13920 12880 12881 13986 13985 
12816 12817 13922 13921 12881 12882 13987 13986 
12817 12818 13923 13922 12882 12883 13988 13987 
12818 12819 13924 13923 12883 12884 13989 13988 
12819 12820 13925 13924 12884 12885 13990 13989 
12820 12821 13926 13925 12885 12886 13991 13990 
12821 12822 13927 13926 12886 12887 13992 13991 
12822 12823 13928 13927 12887 12888 13993 13992 
12823 12824 13929 13928 12888 12889 13994 13993 
12824 12825 13930 13929 12889 12890 13995 13994 
12825 12826 13931 13930 12890 12891 13996 13995 
12826 12827 13932 13931 12891 12892 13997 13996 
12827 12828 13933 13932 12892 12893 13998 13997 
12828 12829 13934 13933 12893 12894 13999 13998 
12829 12830 13935 13934 12894 12895 14000 13999 
12830 12831 13936 13935 12895 12896 14001 14000 
12831 12832 13937 13936 12896 12897 14002 14001 
12832 12833 13938 13937 12897 12898 14003 14002 
12833 12834 13939 13938 12898 12899 14004 14003 
12834 12835 13940 13939 12899 12900 14005 14004 
12835 12836 13941 13940 12900 12901 14006 14005 
12836 12837 13942 13941 12901 12902 14007 14006 
12837 12838 13943 13942 12902 12903 14008 14007 
12838 12839 13944 13943 12903 12904 14009 14008 
12839 12840 13945 13944 12904 12905 14010 14009 
12840 12841 13946 13945 12905 12906 14011 14010 
12841 12842 13947 13946 12906 12907 14012 14011 
12842 12843 13948 13947 12907 12908 14013 14012 
12843 12844 13949 13948 12908 12909 14014 14013 
12844 12845 13950 13949 12909 12910 14015 14014 
12845 12846 13951 13950 12910 12911 14016 14015 
12846 12847 13952 13951 12911 12912 14017 14016 
12847 12848 13953 13952 12912 12913 14018 14017 
12848 12849 13954 13953 12913 12914 14019 14018 
12849 12850 13955 13954 12914 12915 14020 14019 
12850 12851 13956 13955 12915 12916 14021 14020 
12851 12852 13957 13956 12916 12917 14022 14021 
12852 12853 13958 13957 12917 12918 14023 14022 
12853 12854 13959 13958 12918 12919 14024 14023 
12854 12855 13960 13959 12919 12920 14025 14024 
12855 12856 13961 13960 12920 12921 14026 14025 
12856 12857 13962 13961 12921 12922 14027 14026 
12857 12858 13963 13962 12922 12923 14028 14027 
12858 12859 13964 13963 12923 12924 14029 14028 
12859 12860 13965 13964 12924 12925 14030 14029 
12860 12861 13966 13965 12925 12926 14031 14030 
12861 12862 13967 13966 12926 12927 14032 14031 
12862 12863 13968 13967 12927 12928 14033 14032 
12863 12864 13969 13968 12928 12929 14034 14033 
12864 12865 13970 13969 12929 12930 14035 14034 
12865 12866 13971 13970 12930 12931 14036 14035 
12866 12867 13972 13971 12931 12932 14037 14036 
12867 12868 13973 13972 12932 12933 14038 14037 
12868 12869 13974 13973 12933 12934 14039 14038 
12870 12871 13976 13975 12935 12936 14041 14040 
12871 12872 13977 13976 12936 12937 14042 14041 
12872 12873 13978 13977 12937 12938 14043 14042 
12873 12874 13979 13978 12938 12939 14044 14043 
12874 12875 13980 13979 12939 12940 14045 14044 
12875 12876 13981 13980 12940 12941 14046 14045 
12876 12877 13982 13981 12941 12942 14047 14046 
12877 12878 13983 13982 12942 12943 14048 14047 
12878 12879 13984 13983 12943 12944 14049 14048 
12879 12880 13985 13984 12944 12945 14050 14049 
12880 12881 13986 13985 12945 12946 14051 14050 
12881 12882 13987 13986 12946 12947 14052 14051 
12882 12883 13988 13987 12947 12948 14053 14052 
12883 12884 13989 13988 12948 12949 14054 14053 
12884 12885 13990 13989 12949 12950 14055 14054 
12885 12886 13991 13990 12950 12951 14056 14055 
12886 12887 13992 13991 12951 12952 14057 14056 
12887 12888 13993 13992 12952 12953 14058 14057 
12888 12889 13994 13993 12953 12954 14059 14058 
12889 12890 13995 13994 12954 12955 14060 14059 
12890 12891 13996 13995 12955 12956 14061 14060 
12891 12892 13997 13996 12956 12957 14062 14061 
12892 12893 13998 13997 12957 12958 14063 14062 
12893 12894 13999 13998 12958 12959 14064 14063 
12894 12895 14000 13999 12959 12960 14065 14064 
12895 12896 14001 14000 12960 12961 14066 14065 
12896 12897 14002 14001 12961 12962 14067 14066 
12897 12898 14003 14002 12962 12963 14068 14067 
12898 12899 14004 14003 12963 12964 14069 14068 
12899 12900 14005 14004 12964 12965 14070 14069 
12900 12901 14006 14005 12965 12966 14071 14070 
12901 12902 14007 14006 12966 12967 14072 14071 
12902 12903 14008 14007 12967 12968 14073 14072 
12903 12904 14009 14008 12968 12969 14074 14073 
12904 12905 14010 14009 12969 12970 14075 14074 
12905 12906 14011 14010 12970 12971 14076 14075 
12906 12907 14012 14011 12971 12972 14077 14076 
12907 12908 14013 14012 12972 12973 14078 14077 
12908 12909 14014 14013 12973 12974 14079 14078 
12909 12910 14015 14014 12974 12975 14080 14079 
12910 12911 14016 14015 12975 12976 14081 14080 
12911 12912 14017 14016 12976 12977 14082 14081 
12912 12913 14018 14017 12977 12978 14083 14082 
12913 12914 14019 14018 12978 12979 14084 14083 
12914 12915 14020 14019 12979 12980 14085 14084 
12915 12916 14021 14020 12980 12981 14086 14085 
12916 12917 14022 14021 12981 12982 14087 14086 
12917 12918 14023 14022 12982 12983 14088 14087 
12918 12919 14024 14023 12983 12984 14089 14088 
12919 12920 14025 14024 12984 12985 14090 14089 
12920 12921 14026 14025 12985 12986 14091 14090 
12921 12922 14027 14026 12986 12987 14092 14091 
12922 12923 14028 14027 12987 12988 14093 14092 
12923 12924 14029 14028 12988 12989 14094 14093 
12924 12925 14030 14029 12989 12990 14095 14094 
12925 12926 14031 14030 12990 12991 14096 14095 
12926 12927 14032 14031 12991 12992 14097 14096 
12927 12928 14033 14032 12992 12993 14098 14097 
12928 12929 14034 14033 12993 12994 14099 14098 
12929 12930 14035 14034 12994 12995 14100 14099 
12930 12931 14036 14035 12995 12996 14101 14100 
12931 12932 14037 14036 12996 12997 14102 14101 
12932 12933 14038 14037 12997 12998 14103 14102 
12933 12934 14039 14038 12998 12999 14104 14103 
12935 12936 14041 14040 13000 13001 14106 14105 
12936 12937 14042 14041 13001 13002 14107 14106 
12937 12938 14043 14042 13002 13003 14108 14107 
12938 12939 14044 14043 13003 13004 14109 14108 
12939 12940 14045 14044 13004 13005 14110 14109 
12940 12941 14046 14045 13005 13006 14111 14110 
12941 12942 14047 14046 13006 13007 14112 14111 
12942 12943 14048 14047 13007 13008 14113 14112 
12943 12944 14049 14048 13008 13009 14114 14113 
12944 12945 14050 14049 13009 13010 14115 14114 
12945 12946 14051 14050 13010 13011 14116 14115 
12946 12947 14052 14051 13011 13012 14117 14116 
12947 12948 14053 14052 13012 13013 14118 14117 
12948 12949 14054 14053 13013 13014 14119 14118 
12949 12950 14055 14054 13014 13015 14120 14119 
12950 12951 14056 14055 13015 13016 14121 14120 
12951 12952 14057 14056 13016 13017 14122 14121 
12952 12953 14058 14057 13017 13018 14123 14122 
12953 12954 14059 14058 13018 13019 14124 14123 
12954 12955 14060 14059 13019 13020 14125 14124 
12955 12956 14061 14060 13020 13021 14126 14125 
12956 12957 14062 14061 13021 13022 14127 14126 
12957 12958 14063 14062 13022 13023 14128 14127 
12958 12959 14064 14063 13023 13024 14129 14128 
12959 12960 14065 14064 13024 13025 14130 14129 
12960 12961 14066 14065 13025 13026 14131 14130 
12961 12962 14067 14066 13026 13027 14132 14131 
12962 12963 14068 14067 13027 13028 14133 14132 
12963 12964 14069 14068 13028 13029 14134 14133 
12964 12965 14070 14069 13029 13030 14135 14134 
12965 12966 14071 14070 13030 13031 14136 14135 
12966 12967 14072 14071 13031 13032 14137 14136 
12967 12968 14073 14072 13032 13033 14138 14137 
12968 12969 14074 14073 13033 13034 14139 14138 
12969 12970 14075 14074 13034 13035 14140 14139 
12970 12971 14076 14075 13035 13036 14141 14140 
12971 12972 14077 14076 13036 13037 14142 14141 
12972 12973 14078 14077 13037 13038 14143 14142 
12973 12974 14079 14078 13038 13039 14144 14143 
12974 12975 14080 14079 13039 13040 14145 14144 
12975 12976 14081 14080 13040 13041 14146 14145 
12976 12977 14082 14081 13041 13042 14147 14146 
12977 12978 14083 14082 13042 13043 14148 14147 
12978 12979 14084 14083 13043 13044 14149 14148 
12979 12980 14085 14084 13044 13045 14150 14149 
12980 12981 14086 14085 13045 13046 14151 14150 
12981 12982 14087 14086 13046 13047 14152 14151 
12982 12983 14088 14087 13047 13048 14153 14152 
12983 12984 14089 14088 13048 13049 14154 14153 
12984 12985 14090 14089 13049 13050 14155 14154 
12985 12986 14091 14090 13050 13051 14156 14155 
12986 12987 14092 14091 13051 13052 14157 14156 
12987 12988 14093 14092 13052 13053 14158 14157 
12988 12989 14094 14093 13053 13054 14159 14158 
12989 12990 14095 14094 13054 13055 14160 14159 
12990 12991 14096 14095 13055 13056 14161 14160 
12991 12992 14097 14096 13056 13057 14162 14161 
12992 12993 14098 14097 13057 13058 14163 14162 
12993 12994 14099 14098 13058 13059 14164 14163 
12994 12995 14100 14099 13059 13060 14165 14164 
12995 12996 14101 14100 13060 13061 14166 14165 
12996 12997 14102 14101 13061 13062 14167 14166 
12997 12998 14103 14102 13062 13063 14168 14167 
12998 12999 14104 14103 13063 13064 14169 14168 
13000 13001 14106 14105 13065 13066 14171 14170 
13001 13002 14107 14106 13066 13067 14172 14171 
13002 13003 14108 14107 13067 13068 14173 14172 
13003 13004 14109 14108 13068 13069 14174 14173 
13004 13005 14110 14109 13069 13070 14175 14174 
13005 13006 14111 14110 13070 13071 14176 14175 
13006 13007 14112 14111 13071 13072 14177 14176 
13007 13008 14113 14112 13072 13073 14178 14177 
13008 13009 14114 14113 13073 13074 14179 14178 
13009 13010 14115 14114 13074 13075 14180 14179 
13010 13011 14116 14115 13075 13076 14181 14180 
13011 13012 14117 14116 13076 13077 14182 14181 
13012 13013 14118 14117 13077 13078 14183 14182 
13013 13014 14119 14118 13078 13079 14184 14183 
13014 13015 14120 14119 13079 13080 14185 14184 
13015 13016 14121 14120 13080 13081 14186 14185 
13016 13017 14122 14121 13081 13082 14187 14186 
13017 13018 14123 14122 13082 13083 14188 14187 
13018 13019 14124 14123 13083 13084 14189 14188 
13019 13020 14125 14124 13084 13085 14190 14189 
13020 13021 14126 14125 13085 13086 14191 14190 
13021 13022 14127 14126 13086 13087 14192 14191 
13022 13023 14128 14127 13087 13088 14193 14192 
13023 13024 14129 14128 13088 13089 14194 14193 
13024 13025 14130 14129 13089 13090 14195 14194 
13025 13026 14131 14130 13090 13091 14196 14195 
13026 13027 14132 14131 13091 13092 14197 14196 
13027 13028 14133 14132 13092 13093 14198 14197 
13028 13029 14134 14133 13093 13094 14199 14198 
13029 13030 14135 14134 13094 13095 14200 14199 
13030 13031 14136 14135 13095 13096 14201 14200 
13031 13032 14137 14136 13096 13097 14202 14201 
13032 13033 14138 14137 13097 13098 14203 14202 
13033 13034 14139 14138 13098 13099 14204 14203 
13034 13035 14140 14139 13099 13100 14205 14204 
13035 13036 14141 14140 13100 13101 14206 14205 
13036 13037 14142 14141 13101 13102 14207 14206 
13037 13038 14143 14142 13102 13103 14208 14207 
13038 13039 14144 14143 13103 13104 14209 14208 
13039 13040 14145 14144 13104 13105 14210 14209 
13040 13041 14146 14145 13105 13106 14211 14210 
13041 13042 14147 14146 13106 13107 14212 14211 
13042 13043 14148 14147 13107 13108 14213 14212 
13043 13044 14149 14148 13108 13109 14214 14213 
13044 13045 14150 14149 13109 13110 14215 14214 
13045 13046 14151 14150 13110 13111 14216 14215 
13046 13047 14152 14151 13111 13112 14217 14216 
13047 13048 14153 14152 13112 13113 14218 14217 
13048 13049 14154 14153 13113 13114 14219 14218 
13049 13050 14155 14154 13114 13115 14220 14219 
13050 13051 14156 14155 13115 13116 14221 14220 
13051 13052 14157 14156 13116 13117 14222 14221 
13052 13053 14158 14157 13117 13118 14223 14222 
13053 13054 14159 14158 13118 13119 14224 14223 
13054 13055 14160 14159 13119 13120 14225 14224 
13055 13056 14161 14160 13120 13121 14226 14225 
13056 13057 14162 14161 13121 13122 14227 14226 
13057 13058 14163 14162 13122 13123 14228 14227 
13058 13059 14164 14163 13123 13124 14229 14228 
13059 13060 14165 14164 13124 13125 14230 14229 
13060 13061 14166 14165 13125 13126 14231 14230 
13061 13062 14167 14166 13126 13127 14232 14231 
13062 13063 14168 14167 13127 13128 14233 14232 
13063 13064 14169 14168 13128 13129 14234 14233 
13065 13066 14171 14170 13130 13131 14236 14235 
13066 13067 14172 14171 13131 13132 14237 14236 
13067 13068 14173 14172 13132 13133 14238 14237 
13068 13069 14174 14173 13133 13134 14239 14238 
13069 13070 14175 14174 13134 13135 14240 14239 
13070 13071 14176 14175 13135 13136 14241 14240 
13071 13072 14177 14176 13136 13137 14242 14241 
13072 13073 14178 14177 13137 13138 14243 14242 
13073 13074 14179 14178 13138 13139 14244 14243 
13074 13075 14180 14179 13139 13140 14245 14244 
13075 13076 14181 14180 13140 13141 14246 14245 
13076 13077 14182 14181 13141 13142 14247 14246 
13077 13078 14183 14182 13142 13143 14248 14247 
13078 13079 14184 14183 13143 13144 14249 14248 
13079 13080 14185 14184 13144 13145 14250 14249 
13080 13081 14186 14185 13145 13146 14251 14250 
13081 13082 14187 14186 13146 13147 14252 14251 
13082 13083 14188 14187 13147 13148 14253 14252 
13083 13084 14189 14188 13148 13149 14254 14253 
13084 13085 14190 14189 13149 13150 14255 14254 
13085 13086 14191 14190 13150 13151 14256 14255 
13086 13087 14192 14191 13151 13152 14257 14256 
13087 13088 14193 14192 13152 13153 14258 14257 
13088 13089 14194 14193 13153 13154 14259 14258 
13089 13090 14195 14194 13154 13155 14260 14259 
13090 13091 14196 14195 13155 13156 14261 14260 
13091 13092 14197 14196 13156 13157 14262 14261 
13092 13093 14198 14197 13157 13158 14263 14262 
13093 13094 14199 14198 13158 13159 14264 14263 
13094 13095 14200 14199 13159 13160 14265 14264 
13095 13096 14201 14200 13160 13161 14266 14265 
13096 13097 14202 14201 13161 13162 14267 14266 
13097 13098 14203 14202 13162 13163 14268 14267 
13098 13099 14204 14203 13163 13164 14269 14268 
13099 13100 14205 14204 13164 13165 14270 14269 
13100 13101 14206 14205 13165 13166 14271 14270 
13101 13102 14207 14206 13166 13167 14272 14271 
13102 13103 14208 14207 13167 13168 14273 14272 
13103 13104 14209 14208 13168 13169 14274 14273 
13104 13105 14210 14209 13169 13170 14275 14274 
13105 13106 14211 14210 13170 13171 14276 14275 
13106 13107 14212 14211 13171 13172 14277 14276 
13107 13108 14213 14212 13172 13173 14278 14277 
13108 13109 14214 14213 13173 13174 14279 14278 
13109 13110 14215 14214 13174 13175 14280 14279 
13110 13111 14216 14215 13175 13176 14281 14280 
13111 13112 14217 14216 13176 13177 14282 14281 
13112 13113 14218 14217 13177 13178 14283 14282 
13113 13114 14219 14218 13178 13179 14284 14283 
13114 13115 14220 14219 13179 13180 14285 14284 
13115 13116 14221 14220 13180 13181 14286 14285 
13116 13117 14222 14221 13181 13182 14287 14286 
13117 13118 14223 14222 13182 13183 14288 14287 
13118 13119 14224 14223 13183 13184 14289 14288 
13119 13120 14225 14224 13184 13185 14290 14289 
13120 13121 14226 14225 13185 13186 14291 14290 
13121 13122 14227 14226 13186 13187 14292 14291 
13122 13123 14228 14227 13187 13188 14293 14292 
13123 13124 14229 14228 13188 13189 14294 14293 
13124 13125 14230 14229 13189 13190 14295 14294 
13125 13126 14231 14230 13190 13191 14296 14295 
13126 13127 14232 14231 13191 13192 14297 14296 
13127 13128 14233 14232 13192 13193 14298 14297 
13128 13129 14234 14233 13193 13194 14299 14298 
13130 13131 14236 14235 13195 13196 14301 14300 
13131 13132 14237 14236 13196 13197 14302 14301 
13132 13133 14238 14237 13197 13198 14303 14302 
13133 13134 14239 14238 13198 13199 14304 14303 
13134 13135 14240 14239 13199 13200 14305 14304 
13135 13136 14241 14240 13200 13201 14306 14305 
13136 13137 14242 14241 13201 13202 14307 14306 
13137 13138 14243 14242 13202 13203 14308 14307 
13138 13139 14244 14243 13203 13204 14309 14308 
13139 13140 14245 14244 13204 13205 14310 14309 
13140 13141 14246 14245 13205 13206 14311 14310 
13141 13142 14247 14246 13206 13207 14312 14311 
13142 13143 14248 14247 13207 13208 14313 14312 
13143 13144 14249 14248 13208 13209 14314 14313 
13144 13145 14250 14249 13209 13210 14315 14314 
13145 13146 14251 14250 13210 13211 14316 14315 
13146 13147 14252 14251 13211 13212 14317 14316 
13147 13148 14253 14252 13212 13213 14318 14317 
13148 13149 14254 14253 13213 13214 14319 14318 
13149 13150 14255 14254 13214 13215 14320 14319 
13150 13151 14256 14255 13215 13216 14321 14320 
13151 13152 14257 14256 13216 13217 14322 14321 
13152 13153 14258 14257 13217 13218 14323 14322 
13153 13154 14259 14258 13218 13219 14324 14323 
13154 13155 14260 14259 13219 13220 14325 14324 
13155 13156 14261 14260 13220 13221 14326 14325 
13156 13157 14262 14261 13221 13222 14327 14326 
13157 13158 14263 14262 13222 13223 14328 14327 
13158 13159 14264 14263 13223 13224 14329 14328 
13159 13160 14265 14264 13224 13225 14330 14329 
13160 13161 14266 14265 13225 13226 14331 14330 
13161 13162 14267 14266 13226 13227 14332 14331 
13162 13163 14268 14267 13227 13228 14333 14332 
13163 13164 14269 14268 13228 13229 14334 14333 
13164 13165 14270 14269 13229 13230 14335 14334 
13165 13166 14271 14270 13230 13231 14336 14335 
13166 13167 14272 14271 13231 13232 14337 14336 
13167 13168 14273 14272 13232 13233 14338 14337 
13168 13169 14274 14273 13233 13234 14339 14338 
13169 13170 14275 14274 13234 13235 14340 14339 
13170 13171 14276 14275 13235 13236 14341 14340 
13171 13172 14277 14276 13236 13237 14342 14341 
13172 13173 14278 14277 13237 13238 14343 14342 
13173 13174 14279 14278 13238 13239 14344 14343 
13174 13175 14280 14279 13239 13240 14345 14344 
13175 13176 14281 14280 13240 13241 14346 14345 
13176 13177 14282 14281 13241 13242 14347 14346 
13177 13178 14283 14282 13242 13243 14348 14347 
13178 13179 14284 14283 13243 13244 14349 14348 
13179 13180 14285 14284 13244 13245 14350 14349 
13180 13181 14286 14285 13245 13246 14351 14350 
13181 13182 14287 14286 13246 13247 14352 14351 
13182 13183 14288 14287 13247 13248 14353 14352 
13183 13184 14289 14288 13248 13249 14354 14353 
13184 13185 14290 14289 13249 13250 14355 14354 
13185 13186 14291 14290 13250 13251 14356 14355 
13186 13187 14292 14291 13251 13252 14357 14356 
13187 13188 14293 14292 13252 13253 14358 14357 
13188 13189 14294 14293 13253 13254 14359 14358 
13189 13190 14295 14294 13254 13255 14360 14359 
13190 13191 14296 14295 13255 13256 14361 14360 
13191 13192 14297 14296 13256 13257 14362 14361 
13192 13193 14298 14297 13257 13258 14363 14362 
13193 13194 14299 14298 13258 13259 14364 14363 
13260 13261 14366 14365 13325 13326 14431 14430 
13261 13262 14367 14366 13326 13327 14432 14431 
13262 13263 14368 14367 13327 13328 14433 14432 
13263 13264 14369 14368 13328 13329 14434 14433 
13264 13265 14370 14369 13329 13330 14435 14434 
13265 13266 14371 14370 13330 13331 14436 14435 
13266 13267 14372 14371 13331 13332 14437 14436 
13267 13268 14373 14372 13332 13333 14438 14437 
13268 13269 14374 14373 13333 13334 14439 14438 
13269 13270 14375 14374 13334 13335 14440 14439 
13270 13271 14376 14375 13335 13336 14441 14440 
13271 13272 14377 14376 13336 13337 14442 14441 
13272 13273 14378 14377 13337 13338 14443 14442 
13273 13274 14379 14378 13338 13339 14444 14443 
13274 13275 14380 14379 13339 13340 14445 14444 
13275 13276 14381 14380 13340 13341 14446 14445 
13276 13277 14382 14381 13341 13342 14447 14446 
13277 13278 14383 14382 13342 13343 14448 14447 
13278 13279 14384 14383 13343 13344 14449 14448 
13279 13280 14385 14384 13344 13345 14450 14449 
13280 13281 14386 14385 13345 13346 14451 14450 
13281 13282 14387 14386 13346 13347 14452 14451 
13282 13283 14388 14387 13347 13348 14453 14452 
13283 13284 14389 14388 13348 13349 14454 14453 
13284 13285 14390 14389 13349 13350 14455 14454 
13285 13286 14391 14390 13350 13351 14456 14455 
13286 13287 14392 14391 13351 13352 14457 14456 
13287 13288 14393 14392 13352 13353 14458 14457 
13288 13289 14394 14393 13353 13354 14459 14458 
13289 13290 14395 14394 13354 13355 14460 14459 
13290 13291 14396 14395 13355 13356 14461 14460 
13291 13292 14397 14396 13356 13357 14462 14461 
13292 13293 14398 14397 13357 13358 14463 14462 
13293 13294 14399 14398 13358 13359 14464 14463 
13294 13295 14400 14399 13359 13360 14465 14464 
13295 13296 14401 14400 13360 13361 14466 14465 
13296 13297 14402 14401 13361 13362 14467 14466 
13297 13298 14403 14402 13362 13363 14468 14467 
13298 13299 14404 14403 13363 13364 14469 14468 
13299 13300 14405 14404 13364 13365 14470 14469 
13300 13301 14406 14405 13365 13366 14471 14470 
13301 13302 14407 14406 13366 13367 14472 14471 
13302 13303 14408 14407 13367 13368 14473 14472 
13303 13304 14409 14408 13368 13369 14474 14473 
13304 13305 14410 14409 13369 13370 14475 14474 
13305 13306 14411 14410 13370 13371 14476 14475 
13306 13307 14412 14411 13371 13372 14477 14476 
13307 13308 14413 14412 13372 13373 14478 14477 
13308 13309 14414 14413 13373 13374 14479 14478 
13309 13310 14415 14414 13374 13375 14480 14479 
13310 13311 14416 14415 13375 13376 14481 14480 
13311 13312 14417 14416 13376 13377 14482 14481 
13312 13313 14418 14417 13377 13378 14483 14482 
13313 13314 14419 14418 13378 13379 14484 14483 
13314 13315 14420 14419 13379 13380 14485 14484 
13315 13316 14421 14420 13380 13381 14486 14485 
13316 13317 14422 14421 13381 13382 14487 14486 
13317 13318 14423 14422 13382 13383 14488 14487 
13318 13319 14424 14423 13383 13384 14489 14488 
13319 13320 14425 14424 13384 13385 14490 14489 
13320 13321 14426 14425 13385 13386 14491 14490 
13321 13322 14427 14426 13386 13387 14492 14491 
13322 13323 14428 14427 13387 13388 14493 14492 
13323 13324 14429 14428 13388 13389 14494 14493 
13325 13326 14431 14430 13390 13391 14496 14495 
13326 13327 14432 14431 13391 13392 14497 14496 
13327 13328 14433 14432 13392 13393 14498 14497 
13328 13329 14434 14433 13393 13394 14499 14498 
13329 13330 14435 14434 13394 13395 14500 14499 
13330 13331 14436 14435 13395 13396 14501 14500 
13331 13332 14437 14436 13396 13397 14502 14501 
13332 13333 14438 14437 13397 13398 14503 14502 
13333 13334 14439 14438 13398 13399 14504 14503 
13334 13335 14440 14439 13399 13400 14505 14504 
13335 13336 14441 14440 13400 13401 14506 14505 
13336 13337 14442 14441 13401 13402 14507 14506 
13337 13338 14443 14442 13402 13403 14508 14507 
13338 13339 14444 14443 13403 13404 14509 14508 
13339 13340 14445 14444 13404 13405 14510 14509 
13340 13341 14446 14445 13405 13406 14511 14510 
13341 13342 14447 14446 13406 13407 14512 14511 
13342 13343 14448 14447 13407 13408 14513 14512 
13343 13344 14449 14448 13408 13409 14514 14513 
13344 13345 14450 14449 13409 13410 14515 14514 
13345 13346 14451 14450 13410 13411 14516 14515 
13346 13347 14452 14451 13411 13412 14517 14516 
13347 13348 14453 14452 13412 13413 14518 14517 
13348 13349 14454 14453 13413 13414 14519 14518 
13349 13350 14455 14454 13414 13415 14520 14519 
13350 13351 14456 14455 13415 13416 14521 14520 
13351 13352 14457 14456 13416 13417 14522 14521 
13352 13353 14458 14457 13417 13418 14523 14522 
13353 13354 14459 14458 13418 13419 14524 14523 
13354 13355 14460 14459 13419 13420 14525 14524 
13355 13356 14461 14460 13420 13421 14526 14525 
13356 13357 14462 14461 13421 13422 14527 14526 
13357 13358 14463 14462 13422 13423 14528 14527 
13358 13359 14464 14463 13423 13424 14529 14528 
13359 13360 14465 14464 13424 13425 14530 14529 
13360 13361 14466 14465 13425 13426 14531 14530 
13361 13362 14467 14466 13426 13427 14532 14531 
13362 13363 14468 14467 13427 13428 14533 14532 
13363 13364 14469 14468 13428 13429 14534 14533 
13364 13365 14470 14469 13429 13430 14535 14534 
13365 13366 14471 14470 13430 13431 14536 14535 
13366 13367 14472 14471 13431 13432 14537 14536 
13367 13368 14473 14472 13432 13433 14538 14537 
13368 13369 14474 14473 13433 13434 14539 14538 
13369 13370 14475 14474 13434 13435 14540 14539 
13370 13371 14476 14475 13435 13436 14541 14540 
13371 13372 14477 14476 13436 13437 14542 14541 
13372 13373 14478 14477 13437 13438 14543 14542 
13373 13374 14479 14478 13438 13439 14544 14543 
13374 13375 14480 14479 13439 13440 14545 14544 
13375 13376 14481 14480 13440 13441 14546 14545 
13376 13377 14482 14481 13441 13442 14547 14546 
13377 13378 14483 14482 13442 13443 14548 14547 
13378 13379 14484 14483 13443 13444 14549 14548 
13379 13380 14485 14484 13444 13445 14550 14549 
13380 13381 14486 14485 13445 13446 14551 14550 
13381 13382 14487 14486 13446 13447 14552 14551 
13382 13383 14488 14487 13447 13448 14553 14552 
13383 13384 14489 14488 13448 13449 14554 14553 
13384 13385 14490 14489 13449 13450 14555 14554 
13385 13386 14491 14490 13450 13451 14556 14555 
13386 13387 14492 14491 13451 13452 14557 14556 
13387 13388 14493 14492 13452 13453 14558 14557 
13388 13389 14494 14493 13453 13454 14559 14558 
13390 13391 14496 14495 13455 13456 14561 14560 
13391 13392 14497 14496 13456 13457 14562 14561 
13392 13393 14498 14497 13457 13458 14563 14562 
13393 13394 14499 14498 13458 13459 14564 14563 
13394 13395 14500 14499 13459 13460 14565 14564 
13395 13396 14501 14500 13460 13461 14566 14565 
13396 13397 14502 14501 13461 13462 14567 14566 
13397 13398 14503 14502 13462 13463 14568 14567 
13398 13399 14504 14503 13463 13464 14569 14568 
13399 13400 14505 14504 13464 13465 14570 14569 
13400 13401 14506 14505 13465 13466 14571 14570 
13401 13402 14507 14506 13466 13467 14572 14571 
13402 13403 14508 14507 13467 13468 14573 14572 
13403 13404 14509 14508 13468 13469 14574 14573 
13404 13405 14510 14509 13469 13470 14575 14574 
13405 13406 14511 14510 13470 13471 14576 14575 
13406 13407 14512 14511 13471 13472 14577 14576 
13407 13408 14513 14512 13472 13473 14578 14577 
13408 13409 14514 14513 13473 13474 14579 14578 
13409 13410 14515 14514 13474 13475 14580 14579 
13410 13411 14516 14515 13475 13476 14581 14580 
13411 13412 14517 14516 13476 13477 14582 14581 
13412 13413 14518 14517 13477 13478 14583 14582 
13413 13414 14519 14518 13478 13479 14584 14583 
13414 13415 14520 14519 13479 13480 14585 14584 
13415 13416 14521 14520 13480 13481 14586 14585 
13416 13417 14522 14521 13481 13482 14587 14586 
13417 13418 14523 14522 13482 13483 14588 14587 
13418 13419 14524 14523 13483 13484 14589 14588 
13419 13420 14525 14524 13484 13485 14590 14589 
13420 13421 14526 14525 13485 13486 14591 14590 
13421 13422 14527 14526 13486 13487 14592 14591 
13422 13423 14528 14527 13487 13488 14593 14592 
13423 13424 14529 14528 13488 13489 14594 14593 
13424 13425 14530 14529 13489 13490 14595 14594 
13425 13426 14531 14530 13490 13491 14596 14595 
13426 13427 14532 14531 13491 13492 14597 14596 
13427 13428 14533 14532 13492 13493 14598 14597 
13428 13429 14534 14533 13493 13494 14599 14598 
13429 13430 14535 14534 13494 13495 14600 14599 
13430 13431 14536 14535 13495 13496 14601 14600 
13431 13432 14537 14536 13496 13497 14602 14601 
13432 13433 14538 14537 13497 13498 14603 14602 
13433 13434 14539 14538 13498 13499 14604 14603 
13434 13435 14540 14539 13499 13500 14605 14604 
13435 13436 14541 14540 13500 13501 14606 14605 
13436 13437 14542 14541 13501 13502 14607 14606 
13437 13438 14543 14542 13502 13503 14608 14607 
13438 13439 14544 14543 13503 13504 14609 14608 
13439 13440 14545 14544 13504 13505 14610 14609 
13440 13441 14546 14545 13505 13506 14611 14610 
13441 13442 14547 14546 13506 13507 14612 14611 
13442 13443 14548 14547 13507 13508 14613 14612 
13443 13444 14549 14548 13508 13509 14614 14613 
13444 13445 14550 14549 13509 13510 14615 14614 
13445 13446 14551 14550 13510 13511 14616 14615 
13446 13447 14552 14551 13511 13512 14617 14616 
13447 13448 14553 14552 13512 13513 14618 14617 
13448 13449 14554 14553 13513 13514 14619 14618 
13449 13450 14555 14554 13514 13515 14620 14619 
13450 13451 14556 14555 13515 13516 14621 14620 
13451 13452 14557 14556 13516 13517 14622 14621 
13452 13453 14558 14557 13517 13518 14623 14622 
13453 13454 14559 14558 13518 13519 14624 14623 
13455 13456 14561 14560 13520 13521 14626 14625 
13456 13457 14562 14561 13521 13522 14627 14626 
13457 13458 14563 14562 13522 13523 14628 14627 
13458 13459 14564 14563 13523 13524 14629 14628 
13459 13460 14565 14564 13524 13525 14630 14629 
13460 13461 14566 14565 13525 13526 14631 14630 
13461 13462 14567 14566 13526 13527 14632 14631 
13462 13463 14568 14567 13527 13528 14633 14632 
13463 13464 14569 14568 13528 13529 14634 14633 
13464 13465 14570 14569 13529 13530 14635 14634 
13465 13466 14571 14570 13530 13531 14636 14635 
13466 13467 14572 14571 13531 13532 14637 14636 
13467 13468 14573 14572 13532 13533 14638 14637 
13468 13469 14574 14573 13533 13534 14639 14638 
13469 13470 14575 14574 13534 13535 14640 14639 
13470 13471 14576 14575 13535 13536 14641 14640 
13471 13472 14577 14576 13536 13537 14642 14641 
13472 13473 14578 14577 13537 13538 14643 14642 
13473 13474 14579 14578 13538 13539 14644 14643 
13474 13475 14580 14579 13539 13540 14645 14644 
13475 13476 14581 14580 13540 13541 14646 14645 
13476 13477 14582 14581 13541 13542 14647 14646 
13477 13478 14583 14582 13542 13543 14648 14647 
13478 13479 14584 14583 13543 13544 14649 14648 
13479 13480 14585 14584 13544 13545 14650 14649 
13480 13481 14586 14585 13545 13546 14651 14650 
13481 13482 14587 14586 13546 13547 14652 14651 
13482 13483 14588 14587 13547 13548 14653 14652 
13483 13484 14589 14588 13548 13549 14654 14653 
13484 13485 14590 14589 13549 13550 14655 14654 
13485 13486 14591 14590 13550 13551 14656 14655 
13486 13487 14592 14591 13551 13552 14657 14656 
13487 13488 14593 14592 13552 13553 14658 14657 
13488 13489 14594 14593 13553 13554 14659 14658 
13489 13490 14595 14594 13554 13555 14660 14659 
13490 13491 14596 14595 13555 13556 14661 14660 
13491 13492 14597 14596 13556 13557 14662 14661 
13492 13493 14598 14597 13557 13558 14663 14662 
13493 13494 14599 14598 13558 13559 14664 14663 
13494 13495 14600 14599 13559 13560 14665 14664 
13495 13496 14601 14600 13560 13561 14666 14665 
13496 13497 14602 14601 13561 13562 14667 14666 
13497 13498 14603 14602 13562 13563 14668 14667 
13498 13499 14604 14603 13563 13564 14669 14668 
13499 13500 14605 14604 13564 13565 14670 14669 
13500 13501 14606 14605 13565 13566 14671 14670 
13501 13502 14607 14606 13566 13567 14672 14671 
13502 13503 14608 14607 13567 13568 14673 14672 
13503 13504 14609 14608 13568 13569 14674 14673 
13504 13505 14610 14609 13569 13570 14675 14674 
13505 13506 14611 14610 13570 13571 14676 14675 
13506 13507 14612 14611 13571 13572 14677 14676 
13507 13508 14613 14612 13572 13573 14678 14677 
13508 13509 14614 14613 13573 13574 14679 14678 
13509 13510 14615 14614 13574 13575 14680 14679 
13510 13511 14616 14615 13575 13576 14681 14680 
13511 13512 14617 14616 13576 13577 14682 14681 
13512 13513 14618 14617 13577 13578 14683 14682 
13513 13514 14619 14618 13578 13579 14684 14683 
13514 13515 14620 14619 13579 13580 14685 14684 
13515 13516 14621 14620 13580 13581 14686 14685 
13516 13517 14622 14621 13581 13582 14687 14686 
13517 13518 14623 14622 13582 13583 14688 14687 
13518 13519 14624 14623 13583 13584 14689 14688 
13520 13521 14626 14625 13585 13586 14691 14690 
13521 13522 14627 14626 13586 13587 14692 14691 
13522 13523 14628 14627 13587 13588 14693 14692 
13523 13524 14629 14628 13588 13589 14694 14693 
13524 13525 14630 14629 13589 13590 14695 14694 
13525 13526 14631 14630 13590 13591 14696 14695 
13526 13527 14632 14631 13591 13592 14697 14696 
13527 13528 14633 14632 13592 13593 14698 14697 
13528 13529 14634 14633 13593 13594 14699 14698 
13529 13530 14635 14634 13594 13595 14700 14699 
13530 13531 14636 14635 13595 13596 14701 14700 
13531 13532 14637 14636 13596 13597 14702 14701 
13532 13533 14638 14637 13597 13598 14703 14702 
13533 13534 14639 14638 13598 13599 14704 14703 
13534 13535 14640 14639 13599 13600 14705 14704 
13535 13536 14641 14640 13600 13601 14706 14705 
13536 13537 14642 14641 13601 13602 14707 14706 
13537 13538 14643 14642 13602 13603 14708 14707 
13538 13539 14644 14643 13603 13604 14709 14708 
13539 13540 14645 14644 13604 13605 14710 14709 
13540 13541 14646 14645 13605 13606 14711 14710 
13541 13542 14647 14646 13606 13607 14712 14711 
13542 13543 14648 14647 13607 13608 14713 14712 
13543 13544 14649 14648 13608 13609 14714 14713 
13544 13545 14650 14649 13609 13610 14715 14714 
13545 13546 14651 14650 13610 13611 14716 14715 
13546 13547 14652 14651 13611 13612 14717 14716 
13547 13548 14653 14652 13612 13613 14718 14717 
13548 13549 14654 14653 13613 13614 14719 14718 
13549 13550 14655 14654 13614 13615 14720 14719 
13550 13551 14656 14655 13615 13616 14721 14720 
13551 13552 14657 14656 13616 13617 14722 14721 
13552 13553 14658 14657 13617 13618 14723 14722 
13553 13554 14659 14658 13618 13619 14724 14723 
13554 13555 14660 14659 13619 13620 14725 14724 
13555 13556 14661 14660 13620 13621 14726 14725 
13556 13557 14662 14661 13621 13622 14727 14726 
13557 13558 14663 14662 13622 13623 14728 14727 
13558 13559 14664 14663 13623 13624 14729 14728 
13559 13560 14665 14664 13624 13625 14730 14729 
13560 13561 14666 14665 13625 13626 14731 14730 
13561 13562 14667 14666 13626 13627 14732 14731 
13562 13563 14668 14667 13627 13628 14733 14732 
13563 13564 14669 14668 13628 13629 14734 14733 
13564 13565 14670 14669 13629 13630 14735 14734 
13565 13566 14671 14670 13630 13631 14736 14735 
13566 13567 14672 14671 13631 13632 14737 14736 
13567 13568 14673 14672 13632 13633 14738 14737 
13568 13569 14674 14673 13633 13634 14739 14738 
13569 13570 14675 14674 13634 13635 14740 14739 
13570 13571 14676 14675 13635 13636 14741 14740 
13571 13572 14677 14676 13636 13637 14742 14741 
13572 13573 14678 14677 13637 13638 14743 14742 
13573 13574 14679 14678 13638 13639 14744 14743 
13574 13575 14680 14679 13639 13640 14745 14744 
13575 13576 14681 14680 13640 13641 14746 14745 
13576 13577 14682 14681 13641 13642 14747 14746 
13577 13578 14683 14682 13642 13643 14748 14747 
13578 13579 14684 14683 13643 13644 14749 14748 
13579 13580 14685 14684 13644 13645 14750 14749 
13580 13581 14686 14685 13645 13646 14751 14750 
13581 13582 14687 14686 13646 13647 14752 14751 
13582 13583 14688 14687 13647 13648 14753 14752 
13583 13584 14689 14688 13648 13649 14754 14753 
13585 13586 14691 14690 13650 13651 14756 14755 
13586 13587 14692 14691 13651 13652 14757 14756 
13587 13588 14693 14692 13652 13653 14758 14757 
13588 13589 14694 14693 13653 13654 14759 14758 
13589 13590 14695 14694 13654 13655 14760 14759 
13590 13591 14696 14695 13655 13656 14761 14760 
13591 13592 14697 14696 13656 13657 14762 14761 
13592 13593 14698 14697 13657 13658 14763 14762 
13593 13594 14699 14698 13658 13659 14764 14763 
13594 13595 14700 14699 13659 13660 14765 14764 
13595 13596 14701 14700 13660 13661 14766 14765 
13596 13597 14702 14701 13661 13662 14767 14766 
13597 13598 14703 14702 13662 13663 14768 14767 
13598 13599 14704 14703 13663 13664 14769 14768 
13599 13600 14705 14704 13664 13665 14770 14769 
13600 13601 14706 14705 13665 13666 14771 14770 
13601 13602 14707 14706 13666 13667 14772 14771 
13602 13603 14708 14707 13667 13668 14773 14772 
13603 13604 14709 14708 13668 13669 14774 14773 
13604 13605 14710 14709 13669 13670 14775 14774 
13605 13606 14711 14710 13670 13671 14776 14775 
13606 13607 14712 14711 13671 13672 14777 14776 
13607 13608 14713 14712 13672 13673 14778 14777 
13608 13609 14714 14713 13673 13674 14779 14778 
13609 13610 14715 14714 13674 13675 14780 14779 
13610 13611 14716 14715 13675 13676 14781 14780 
13611 13612 14717 14716 13676 13677 14782 14781 
13612 13613 14718 14717 13677 13678 14783 14782 
13613 13614 14719 14718 13678 13679 14784 14783 
13614 13615 14720 14719 13679 13680 14785 14784 
13615 13616 14721 14720 13680 13681 14786 14785 
13616 13617 14722 14721 13681 13682 14787 14786 
13617 13618 14723 14722 13682 13683 14788 14787 
13618 13619 14724 14723 13683 13684 14789 14788 
13619 13620 14725 14724 13684 13685 14790 14789 
13620 13621 14726 14725 13685 13686 14791 14790 
13621 13622 14727 14726 13686 13687 14792 14791 
13622 13623 14728 14727 13687 13688 14793 14792 
13623 13624 14729 14728 13688 13689 14794 14793 
13624 13625 14730 14729 13689 13690 14795 14794 
13625 13626 14731 14730 13690 13691 14796 14795 
13626 13627 14732 14731 13691 13692 14797 14796 
13627 13628 14733 14732 13692 13693 14798 14797 
13628 13629 14734 14733 13693 13694 14799 14798 
13629 13630 14735 14734 13694 13695 14800 14799 
13630 13631 14736 14735 13695 13696 14801 14800 
13631 13632 14737 14736 13696 13697 14802 14801 
13632 13633 14738 14737 13697 13698 14803 14802 
13633 13634 14739 14738 13698 13699 14804 14803 
13634 13635 14740 14739 13699 13700 14805 14804 
13635 13636 14741 14740 13700 13701 14806 14805 
13636 13637 14742 14741 13701 13702 14807 14806 
13637 13638 14743 14742 13702 13703 14808 14807 
13638 13639 14744 14743 13703 13704 14809 14808 
13639 13640 14745 14744 13704 13705 14810 14809 
13640 13641 14746 14745 13705 13706 14811 14810 
13641 13642 14747 14746 13706 13707 14812 14811 
13642 13643 14748 14747 13707 13708 14813 14812 
13643 13644 14749 14748 13708 13709 14814 14813 
13644 13645 14750 14749 13709 13710 14815 14814 
13645 13646 14751 14750 13710 13711 14816 14815 
13646 13647 14752 14751 13711 13712 14817 14816 
13647 13648 14753 14752 13712 13713 14818 14817 
13648 13649 14754 14753 13713 13714 14819 14818 
13650 13651 14756 14755 13715 13716 14821 14820 
13651 13652 14757 14756 13716 13717 14822 14821 
13652 13653 14758 14757 13717 13718 14823 14822 
13653 13654 14759 14758 13718 13719 14824 14823 
13654 13655 14760 14759 13719 13720 14825 14824 
13655 13656 14761 14760 13720 13721 14826 14825 
13656 13657 14762 14761 13721 13722 14827 14826 
13657 13658 14763 14762 13722 13723 14828 14827 
13658 13659 14764 14763 13723 13724 14829 14828 
13659 13660 14765 14764 13724 13725 14830 14829 
13660 13661 14766 14765 13725 13726 14831 14830 
13661 13662 14767 14766 13726 13727 14832 14831 
13662 13663 14768 14767 13727 13728 14833 14832 
13663 13664 14769 14768 13728 13729 14834 14833 
13664 13665 14770 14769 13729 13730 14835 14834 
13665 13666 14771 14770 13730 13731 14836 14835 
13666 13667 14772 14771 13731 13732 14837 14836 
13667 13668 14773 14772 13732 13733 14838 14837 
13668 13669 14774 14773 13733 13734 14839 14838 
13669 13670 14775 14774 13734 13735 14840 14839 
13670 13671 14776 14775 13735 13736 14841 14840 
13671 13672 14777 14776 13736 13737 14842 14841 
13672 13673 14778 14777 13737 13738 14843 14842 
13673 13674 14779 14778 13738 13739 14844 14843 
13674 13675 14780 14779 13739 13740 14845 14844 
13675 13676 14781 14780 13740 13741 14846 14845 
13676 13677 14782 14781 13741 13742 14847 14846 
13677 13678 14783 14782 13742 13743 14848 14847 
13678 13679 14784 14783 13743 13744 14849 14848 
13679 13680 14785 14784 13744 13745 14850 14849 
13680 13681 14786 14785 13745 13746 14851 14850 
13681 13682 14787 14786 13746 13747 14852 14851 
13682 13683 14788 14787 13747 13748 14853 14852 
13683 13684 14789 14788 13748 13749 14854 14853 
13684 13685 14790 14789 13749 13750 14855 14854 
13685 13686 14791 14790 13750 13751 14856 14855 
13686 13687 14792 14791 13751 13752 14857 14856 
13687 13688 14793 14792 13752 13753 14858 14857 
13688 13689 14794 14793 13753 13754 14859 14858 
13689 13690 14795 14794 13754 13755 14860 14859 
13690 13691 14796 14795 13755 13756 14861 14860 
13691 13692 14797 14796 13756 13757 14862 14861 
13692 13693 14798 14797 13757 13758 14863 14862 
13693 13694 14799 14798 13758 13759 14864 14863 
13694 13695 14800 14799 13759 13760 14865 14864 
13695 13696 14801 14800 13760 13761 14866 14865 
13696 13697 14802 14801 13761 13762 14867 14866 
13697 13698 14803 14802 13762 13763 14868 14867 
13698 13699 14804 14803 13763 13764 14869 14868 
13699 13700 14805 14804 13764 13765 14870 14869 
13700 13701 14806 14805 13765 13766 14871 14870 
13701 13702 14807 14806 13766 13767 14872 14871 
13702 13703 14808 14807 13767 13768 14873 14872 
13703 13704 14809 14808 13768 13769 14874 14873 
13704 13705 14810 14809 13769 13770 14875 14874 
13705 13706 14811 14810 13770 13771 14876 14875 
13706 13707 14812 14811 13771 13772 14877 14876 
13707 13708 14813 14812 13772 13773 14878 14877 
13708 13709 14814 14813 13773 13774 14879 14878 
13709 13710 14815 14814 13774 13775 14880 14879 
13710 13711 14816 14815 13775 13776 14881 14880 
13711 13712 14817 14816 13776 13777 14882 14881 
13712 13713 14818 14817 13777 13778 14883 14882 
13713 13714 14819 14818 13778 13779 14884 14883 
13715 13716 14821 14820 13780 13781 14886 14885 
13716 13717 14822 14821 13781 13782 14887 14886 
13717 13718 14823 14822 13782 13783 14888 14887 
13718 13719 14824 14823 13783 13784 14889 14888 
13719 13720 14825 14824 13784 13785 14890 14889 
13720 13721 14826 14825 13785 13786 14891 14890 
13721 13722 14827 14826 13786 13787 14892 14891 
13722 13723 14828 14827 13787 13788 14893 14892 
13723 13724 14829 14828 13788 13789 14894 14893 
13724 13725 14830 14829 13789 13790 14895 14894 
13725 13726 14831 14830 13790 13791 14896 14895 
13726 13727 14832 14831 13791 13792 14897 14896 
13727 13728 14833 14832 13792 13793 14898 14897 
13728 13729 14834 14833 13793 13794 14899 14898 
13729 13730 14835 14834 13794 13795 14900 14899 
13730 13731 14836 14835 13795 13796 14901 14900 
13731 13732 14837 14836 13796 13797 14902 14901 
13732 13733 14838 14837 13797 13798 14903 14902 
13733 13734 14839 14838 13798 13799 14904 14903 
13734 13735 14840 14839 13799 13800 14905 14904 
13735 13736 14841 14840 13800 13801 14906 14905 
13736 13737 14842 14841 13801 13802 14907 14906 
13737 13738 14843 14842 13802 13803 14908 14907 
13738 13739 14844 14843 13803 13804 14909 14908 
13739 13740 14845 14844 13804 13805 14910 14909 
13740 13741 14846 14845 13805 13806 14911 14910 
13741 13742 14847 14846 13806 13807 14912 14911 
13742 13743 14848 14847 13807 13808 14913 14912 
13743 13744 14849 14848 13808 13809 14914 14913 
13744 13745 14850 14849 13809 13810 14915 14914 
13745 13746 14851 14850 13810 13811 14916 14915 
13746 13747 14852 14851 13811 13812 14917 14916 
13747 13748 14853 14852 13812 13813 14918 14917 
13748 13749 14854 14853 13813 13814 14919 14918 
13749 13750 14855 14854 13814 13815 14920 14919 
13750 13751 14856 14855 13815 13816 14921 14920 
13751 13752 14857 14856 13816 13817 14922 14921 
13752 13753 14858 14857 13817 13818 14923 14922 
13753 13754 14859 14858 13818 13819 14924 14923 
13754 13755 14860 14859 13819 13820 14925 14924 
13755 13756 14861 14860 13820 13821 14926 14925 
13756 13757 14862 14861 13821 13822 14927 14926 
13757 13758 14863 14862 13822 13823 14928 14927 
13758 13759 14864 14863 13823 13824 14929 14928 
13759 13760 14865 14864 13824 13825 14930 14929 
13760 13761 14866 14865 13825 13826 14931 14930 
13761 13762 14867 14866 13826 13827 14932 14931 
13762 13763 14868 14867 13827 13828 14933 14932 
13763 13764 14869 14868 13828 13829 14934 14933 
13764 13765 14870 14869 13829 13830 14935 14934 
13765 13766 14871 14870 13830 13831 14936 14935 
13766 13767 14872 14871 13831 13832 14937 14936 
13767 13768 14873 14872 13832 13833 14938 14937 
13768 13769 14874 14873 13833 13834 14939 14938 
13769 13770 14875 14874 13834 13835 14940 14939 
13770 13771 14876 14875 13835 13836 14941 14940 
13771 13772 14877 14876 13836 13837 14942 14941 
13772 13773 14878 14877 13837 13838 14943 14942 
13773 13774 14879 14878 13838 13839 14944 14943 
13774 13775 14880 14879 13839 13840 14945 14944 
13775 13776 14881 14880 13840 13841 14946 14945 
13776 13777 14882 14881 13841 13842 14947 14946 
13777 13778 14883 14882 13842 13843 14948 14947 
13778 13779 14884 14883 13843 13844 14949 14948 
13780 13781 14886 14885 13845 13846 14951 14950 
13781 13782 14887 14886 13846 13847 14952 14951 
13782 13783 14888 14887 13847 13848 14953 14952 
13783 13784 14889 14888 13848 13849 14954 14953 
13784 13785 14890 14889 13849 13850 14955 14954 
13785 13786 14891 14890 13850 13851 14956 14955 
13786 13787 14892 14891 13851 13852 14957 14956 
13787 13788 14893 14892 13852 13853 14958 14957 
13788 13789 14894 14893 13853 13854 14959 14958 
13789 13790 14895 14894 13854 13855 14960 14959 
13790 13791 14896 14895 13855 13856 14961 14960 
13791 13792 14897 14896 13856 13857 14962 14961 
13792 13793 14898 14897 13857 13858 14963 14962 
13793 13794 14899 14898 13858 13859 14964 14963 
13794 13795 14900 14899 13859 13860 14965 14964 
13795 13796 14901 14900 13860 13861 14966 14965 
13796 13797 14902 14901 13861 13862 14967 14966 
13797 13798 14903 14902 13862 13863 14968 14967 
13798 13799 14904 14903 13863 13864 14969 14968 
13799 13800 14905 14904 13864 13865 14970 14969 
13800 13801 14906 14905 13865 13866 14971 14970 
13801 13802 14907 14906 13866 13867 14972 14971 
13802 13803 14908 14907 13867 13868 14973 14972 
13803 13804 14909 14908 13868 13869 14974 14973 
13804 13805 14910 14909 13869 13870 14975 14974 
13805 13806 14911 14910 13870 13871 14976 14975 
13806 13807 14912 14911 13871 13872 14977 14976 
13807 13808 14913 14912 13872 13873 14978 14977 
13808 13809 14914 14913 13873 13874 14979 14978 
13809 13810 14915 14914 13874 13875 14980 14979 
13810 13811 14916 14915 13875 13876 14981 14980 
13811 13812 14917 14916 13876 13877 14982 14981 
13812 13813 14918 14917 13877 13878 14983 14982 
13813 13814 14919 14918 13878 13879 14984 14983 
13814 13815 14920 14919 13879 13880 14985 14984 
13815 13816 14921 14920 13880 13881 14986 14985 
13816 13817 14922 14921 13881 13882 14987 14986 
13817 13818 14923 14922 13882 13883 14988 14987 
13818 13819 14924 14923 13883 13884 14989 14988 
13819 13820 14925 14924 13884 13885 14990 14989 
13820 13821 14926 14925 13885 13886 14991 14990 
13821 13822 14927 14926 13886 13887 14992 14991 
13822 13823 14928 14927 13887 13888 14993 14992 
13823 13824 14929 14928 13888 13889 14994 14993 
13824 13825 14930 14929 13889 13890 14995 14994 
13825 13826 14931 14930 13890 13891 14996 14995 
13826 13827 14932 14931 13891 13892 14997 14996 
13827 13828 14933 14932 13892 13893 14998 14997 
13828 13829 14934 14933 13893 13894 14999 14998 
13829 13830 14935 14934 13894 13895 15000 14999 
13830 13831 14936 14935 13895 13896 15001 15000 
13831 13832 14937 14936 13896 13897 15002 15001 
13832 13833 14938 14937 13897 13898 15003 15002 
13833 13834 14939 14938 13898 13899 15004 15003 
13834 13835 14940 14939 13899 13900 15005 15004 
13835 13836 14941 14940 13900 13901 15006 15005 
13836 13837 14942 14941 13901 13902 15007 15006 
13837 13838 14943 14942 13902 13903 15008 15007 
13838 13839 14944 14943 13903 13904 15009 15008 
13839 13840 14945 14944 13904 13905 15010 15009 
13840 13841 14946 14945 13905 13906 15011 15010 
13841 13842 14947 14946 13906 13907 15012 15011 
13842 13843 14948 14947 13907 13908 15013 15012 
13843 13844 14949 14948 13908 13909 15014 15013 
13845 13846 14951 14950 13910 13911 15016 15015 
13846 13847 14952 14951 13911 13912 15017 15016 
13847 13848 14953 14952 13912 13913 15018 15017 
13848 13849 14954 14953 13913 13914 15019 15018 
13849 13850 14955 14954 13914 13915 15020 15019 
13850 13851 14956 14955 13915 13916 15021 15020 
13851 13852 14957 14956 13916 13917 15022 15021 
13852 13853 14958 14957 13917 13918 15023 15022 
13853 13854 14959 14958 13918 13919 15024 15023 
13854 13855 14960 14959 13919 13920 15025 15024 
13855 13856 14961 14960 13920 13921 15026 15025 
13856 13857 14962 14961 13921 13922 15027 15026 
13857 13858 14963 14962 13922 13923 15028 15027 
13858 13859 14964 14963 13923 13924 15029 15028 
13859 13860 14965 14964 13924 13925 15030 15029 
13860 13861 14966 14965 13925 13926 15031 15030 
13861 13862 14967 14966 13926 13927 15032 15031 
13862 13863 14968 14967 13927 13928 15033 15032 
13863 13864 14969 14968 13928 13929 15034 15033 
13864 13865 14970 14969 13929 13930 15035 15034 
13865 13866 14971 14970 13930 13931 15036 15035 
13866 13867 14972 14971 13931 13932 15037 15036 
13867 13868 14973 14972 13932 13933 15038 15037 
13868 13869 14974 14973 13933 13934 15039 15038 
13869 13870 14975 14974 13934 13935 15040 15039 
13870 13871 14976 14975 13935 13936 15041 15040 
13871 13872 14977 14976 13936 13937 15042 15041 
13872 13873 14978 14977 13937 13938 15043 15042 
13873 13874 14979 14978 13938 13939 15044 15043 
13874 13875 14980 14979 13939 13940 15045 15044 
13875 13876 14981 14980 13940 13941 15046 15045 
13876 13877 14982 14981 13941 13942 15047 15046 
13877 13878 14983 14982 13942 13943 15048 15047 
13878 13879 14984 14983 13943 13944 15049 15048 
13879 13880 14985 14984 13944 13945 15050 15049 
13880 13881 14986 14985 13945 13946 15051 15050 
13881 13882 14987 14986 13946 13947 15052 15051 
13882 13883 14988 14987 13947 13948 15053 15052 
13883 13884 14989 14988 13948 13949 15054 15053 
13884 13885 14990 14989 13949 13950 15055 15054 
13885 13886 14991 14990 13950 13951 15056 15055 
13886 13887 14992 14991 13951 13952 15057 15056 
13887 13888 14993 14992 13952 13953 15058 15057 
13888 13889 14994 14993 13953 13954 15059 15058 
13889 13890 14995 14994 13954 13955 15060 15059 
13890 13891 14996 14995 13955 13956 15061 15060 
13891 13892 14997 14996 13956 13957 15062 15061 
13892 13893 14998 14997 13957 13958 15063 15062 
13893 13894 14999 14998 13958 13959 15064 15063 
13894 13895 15000 14999 13959 13960 15065 15064 
13895 13896 15001 15000 13960 13961 15066 15065 
13896 13897 15002 15001 13961 13962 15067 15066 
13897 13898 15003 15002 13962 13963 15068 15067 
13898 13899 15004 15003 13963 13964 15069 15068 
13899 13900 15005 15004 13964 13965 15070 15069 
13900 13901 15006 15005 13965 13966 15071 15070 
13901 13902 15007 15006 13966 13967 15072 15071 
13902 13903 15008 15007 13967 13968 15073 15072 
13903 13904 15009 15008 13968 13969 15074 15073 
13904 13905 15010 15009 13969 13970 15075 15074 
13905 13906 15011 15010 13970 13971 15076 15075 
13906 13907 15012 15011 13971 13972 15077 15076 
13907 13908 15013 15012 13972 13973 15078 15077 
13908 13909 15014 15013 13973 13974 15079 15078 
13910 13911 15016 15015 13975 13976 15081 15080 
13911 13912 15017 15016 13976 13977 15082 15081 
13912 13913 15018 15017 13977 13978 15083 15082 
13913 13914 15019 15018 13978 13979 15084 15083 
13914 13915 15020 15019 13979 13980 15085 15084 
13915 13916 15021 15020 13980 13981 15086 15085 
13916 13917 15022 15021 13981 13982 15087 15086 
13917 13918 15023 15022 13982 13983 15088 15087 
13918 13919 15024 15023 13983 13984 15089 15088 
13919 13920 15025 15024 13984 13985 15090 15089 
13920 13921 15026 15025 13985 13986 15091 15090 
13921 13922 15027 15026 13986 13987 15092 15091 
13922 13923 15028 15027 13987 13988 15093 15092 
13923 13924 15029 15028 13988 13989 15094 15093 
13924 13925 15030 15029 13989 13990 15095 15094 
13925 13926 15031 15030 13990 13991 15096 15095 
13926 13927 15032 15031 13991 13992 15097 15096 
13927 13928 15033 15032 13992 13993 15098 15097 
13928 13929 15034 15033 13993 13994 15099 15098 
13929 13930 15035 15034 13994 13995 15100 15099 
13930 13931 15036 15035 13995 13996 15101 15100 
13931 13932 15037 15036 13996 13997 15102 15101 
13932 13933 15038 15037 13997 13998 15103 15102 
13933 13934 15039 15038 13998 13999 15104 15103 
13934 13935 15040 15039 13999 14000 15105 15104 
13935 13936 15041 15040 14000 14001 15106 15105 
13936 13937 15042 15041 14001 14002 15107 15106 
13937 13938 15043 15042 14002 14003 15108 15107 
13938 13939 15044 15043 14003 14004 15109 15108 
13939 13940 15045 15044 14004 14005 15110 15109 
13940 13941 15046 15045 14005 14006 15111 15110 
13941 13942 15047 15046 14006 14007 15112 15111 
13942 13943 15048 15047 14007 14008 15113 15112 
13943 13944 15049 15048 14008 14009 15114 15113 
13944 13945 15050 15049 14009 14010 15115 15114 
13945 13946 15051 15050 14010 14011 15116 15115 
13946 13947 15052 15051 14011 14012 15117 15116 
13947 13948 15053 15052 14012 14013 15118 15117 
13948 13949 15054 15053 14013 14014 15119 15118 
13949 13950 15055 15054 14014 14015 15120 15119 
13950 13951 15056 15055 14015 14016 15121 15120 
13951 13952 15057 15056 14016 14017 15122 15121 
13952 13953 15058 15057 14017 14018 15123 15122 
13953 13954 15059 15058 14018 14019 15124 15123 
13954 13955 15060 15059 14019 14020 15125 15124 
13955 13956 15061 15060 14020 14021 15126 15125 
13956 13957 15062 15061 14021 14022 15127 15126 
13957 13958 15063 15062 14022 14023 15128 15127 
13958 13959 15064 15063 14023 14024 15129 15128 
13959 13960 15065 15064 14024 14025 15130 15129 
13960 13961 15066 15065 14025 14026 15131 15130 
13961 13962 15067 15066 14026 14027 15132 15131 
13962 13963 15068 15067 14027 14028 15133 15132 
13963 13964 15069 15068 14028 14029 15134 15133 
13964 13965 15070 15069 14029 14030 15135 15134 
13965 13966 15071 15070 14030 14031 15136 15135 
13966 13967 15072 15071 14031 14032 15137 15136 
13967 13968 15073 15072 14032 14033 15138 15137 
13968 13969 15074 15073 14033 14034 15139 15138 
13969 13970 15075 15074 14034 14035 15140 15139 
13970 13971 15076 15075 14035 14036 15141 15140 
13971 13972 15077 15076 14036 14037 15142 15141 
13972 13973 15078 15077 14037 14038 15143 15142 
13973 13974 15079 15078 14038 14039 15144 15143 
13975 13976 15081 15080 14040 14041 15146 15145 
13976 13977 15082 15081 14041 14042 15147 15146 
13977 13978 15083 15082 14042 14043 15148 15147 
13978 13979 15084 15083 14043 14044 15149 15148 
13979 13980 15085 15084 14044 14045 15150 15149 
13980 13981 15086 15085 14045 14046 15151 15150 
13981 13982 15087 15086 14046 14047 15152 15151 
13982 13983 15088 15087 14047 14048 15153 15152 
13983 13984 15089 15088 14048 14049 15154 15153 
13984 13985 15090 15089 14049 14050 15155 15154 
13985 13986 15091 15090 14050 14051 15156 15155 
13986 13987 15092 15091 14051 14052 15157 15156 
13987 13988 15093 15092 14052 14053 15158 15157 
13988 13989 15094 15093 14053 14054 15159 15158 
13989 13990 15095 15094 14054 14055 15160 15159 
13990 13991 15096 15095 14055 14056 15161 15160 
13991 13992 15097 15096 14056 14057 15162 15161 
13992 13993 15098 15097 14057 14058 15163 15162 
13993 13994 15099 15098 14058 14059 15164 15163 
13994 13995 15100 15099 14059 14060 15165 15164 
13995 13996 15101 15100 14060 14061 15166 15165 
13996 13997 15102 15101 14061 14062 15167 15166 
13997 13998 15103 15102 14062 14063 15168 15167 
13998 13999 15104 15103 14063 14064 15169 15168 
13999 14000 15105 15104 14064 14065 15170 15169 
14000 14001 15106 15105 14065 14066 15171 15170 
14001 14002 15107 15106 14066 14067 15172 15171 
14002 14003 15108 15107 14067 14068 15173 15172 
14003 14004 15109 15108 14068 14069 15174 15173 
14004 14005 15110 15109 14069 14070 15175 15174 
14005 14006 15111 15110 14070 14071 15176 15175 
14006 14007 15112 15111 14071 14072 15177 15176 
14007 14008 15113 15112 14072 14073 15178 15177 
14008 14009 15114 15113 14073 14074 15179 15178 
14009 14010 15115 15114 14074 14075 15180 15179 
14010 14011 15116 15115 14075 14076 15181 15180 
14011 14012 15117 15116 14076 14077 15182 15181 
14012 14013 15118 15117 14077 14078 15183 15182 
14013 14014 15119 15118 14078 14079 15184 15183 
14014 14015 15120 15119 14079 14080 15185 15184 
14015 14016 15121 15120 14080 14081 15186 15185 
14016 14017 15122 15121 14081 14082 15187 15186 
14017 14018 15123 15122 14082 14083 15188 15187 
14018 14019 15124 15123 14083 14084 15189 15188 
14019 14020 15125 15124 14084 14085 15190 15189 
14020 14021 15126 15125 14085 14086 15191 15190 
14021 14022 15127 15126 14086 14087 15192 15191 
14022 14023 15128 15127 14087 14088 15193 15192 
14023 14024 15129 15128 14088 14089 15194 15193 
14024 14025 15130 15129 14089 14090 15195 15194 
14025 14026 15131 15130 14090 14091 15196 15195 
14026 14027 15132 15131 14091 14092 15197 15196 
14027 14028 15133 15132 14092 14093 15198 15197 
14028 14029 15134 15133 14093 14094 15199 15198 
14029 14030 15135 15134 14094 14095 15200 15199 
14030 14031 15136 15135 14095 14096 15201 15200 
14031 14032 15137 15136 14096 14097 15202 15201 
14032 14033 15138 15137 14097 14098 15203 15202 
14033 14034 15139 15138 14098 14099 15204 15203 
14034 14035 15140 15139 14099 14100 15205 15204 
14035 14036 15141 15140 14100 14101 15206 15205 
14036 14037 15142 15141 14101 14102 15207 15206 
14037 14038 15143 15142 14102 14103 15208 15207 
14038 14039 15144 15143 14103 14104 15209 15208 
14040 14041 15146 15145 14105 14106 15211 15210 
14041 14042 15147 15146 14106 14107 15212 15211 
14042 14043 15148 15147 14107 14108 15213 15212 
14043 14044 15149 15148 14108 14109 15214 15213 
14044 14045 15150 15149 14109 14110 15215 15214 
14045 14046 15151 15150 14110 14111 15216 15215 
14046 14047 15152 15151 14111 14112 15217 15216 
14047 14048 15153 15152 14112 14113 15218 15217 
14048 14049 15154 15153 14113 14114 15219 15218 
14049 14050 15155 15154 14114 14115 15220 15219 
14050 14051 15156 15155 14115 14116 15221 15220 
14051 14052 15157 15156 14116 14117 15222 15221 
14052 14053 15158 15157 14117 14118 15223 15222 
14053 14054 15159 15158 14118 14119 15224 15223 
14054 14055 15160 15159 14119 14120 15225 15224 
14055 14056 15161 15160 14120 14121 15226 15225 
14056 14057 15162 15161 14121 14122 15227 15226 
14057 14058 15163 15162 14122 14123 15228 15227 
14058 14059 15164 15163 14123 14124 15229 15228 
14059 14060 15165 15164 14124 14125 15230 15229 
14060 14061 15166 15165 14125 14126 15231 15230 
14061 14062 15167 15166 14126 14127 15232 15231 
14062 14063 15168 15167 14127 14128 15233 15232 
14063 14064 15169 15168 14128 14129 15234 15233 
14064 14065 15170 15169 14129 14130 15235 15234 
14065 14066 15171 15170 14130 14131 15236 15235 
14066 14067 15172 15171 14131 14132 15237 15236 
14067 14068 15173 15172 14132 14133 15238 15237 
14068 14069 15174 15173 14133 14134 15239 15238 
14069 14070 15175 15174 14134 14135 15240 15239 
14070 14071 15176 15175 14135 14136 15241 15240 
14071 14072 15177 15176 14136 14137 15242 15241 
14072 14073 15178 15177 14137 14138 15243 15242 
14073 14074 15179 15178 14138 14139 15244 15243 
14074 14075 15180 15179 14139 14140 15245 15244 
14075 14076 15181 15180 14140 14141 15246 15245 
14076 14077 15182 15181 14141 14142 15247 15246 
14077 14078 15183 15182 14142 14143 15248 15247 
14078 14079 15184 15183 14143 14144 15249 15248 
14079 14080 15185 15184 14144 14145 15250 15249 
14080 14081 15186 15185 14145 14146 15251 15250 
14081 14082 15187 15186 14146 14147 15252 15251 
14082 14083 15188 15187 14147 14148 15253 15252 
14083 14084 15189 15188 14148 14149 15254 15253 
14084 14085 15190 15189 14149 14150 15255 15254 
14085 14086 15191 15190 14150 14151 15256 15255 
14086 14087 15192 15191 14151 14152 15257 15256 
14087 14088 15193 15192 14152 14153 15258 15257 
14088 14089 15194 15193 14153 14154 15259 15258 
14089 14090 15195 15194 14154 14155 15260 15259 
14090 14091 15196 15195 14155 14156 15261 15260 
14091 14092 15197 15196 14156 14157 15262 15261 
14092 14093 15198 15197 14157 14158 15263 15262 
14093 14094 15199 15198 14158 14159 15264 15263 
14094 14095 15200 15199 14159 14160 15265 15264 
14095 14096 15201 15200 14160 14161 15266 15265 
14096 14097 15202 15201 14161 14162 15267 15266 
14097 14098 15203 15202 14162 14163 15268 15267 
14098 14099 15204 15203 14163 14164 15269 15268 
14099 14100 15205 15204 14164 14165 15270 15269 
14100 14101 15206 15205 14165 14166 15271 15270 
14101 14102 15207 15206 14166 14167 15272 15271 
14102 14103 15208 15207 14167 14168 15273 15272 
14103 14104 15209 15208 14168 14169 15274 15273 
14105 14106 15211 15210 14170 14171 15276 15275 
14106 14107 15212 15211 14171 14172 15277 15276 
14107 14108 15213 15212 14172 14173 15278 15277 
14108 14109 15214 15213 14173 14174 15279 15278 
14109 14110 15215 15214 14174 14175 15280 15279 
14110 14111 15216 15215 14175 14176 15281 15280 
14111 14112 15217 15216 14176 14177 15282 15281 
14112 14113 15218 15217 14177 14178 15283 15282 
14113 14114 15219 15218 14178 14179 15284 15283 
14114 14115 15220 15219 14179 14180 15285 15284 
14115 14116 15221 15220 14180 14181 15286 15285 
14116 14117 15222 15221 14181 14182 15287 15286 
14117 14118 15223 15222 14182 14183 15288 15287 
14118 14119 15224 15223 14183 14184 15289 15288 
14119 14120 15225 15224 14184 14185 15290 15289 
14120 14121 15226 15225 14185 14186 15291 15290 
14121 14122 15227 15226 14186 14187 15292 15291 
14122 14123 15228 15227 14187 14188 15293 15292 
14123 14124 15229 15228 14188 14189 15294 15293 
14124 14125 15230 15229 14189 14190 15295 15294 
14125 14126 15231 15230 14190 14191 15296 15295 
14126 14127 15232 15231 14191 14192 15297 15296 
14127 14128 15233 15232 14192 14193 15298 15297 
14128 14129 15234 15233 14193 14194 15299 15298 
14129 14130 15235 15234 14194 14195 15300 15299 
14130 14131 15236 15235 14195 14196 15301 15300 
14131 14132 15237 15236 14196 14197 15302 15301 
14132 14133 15238 15237 14197 14198 15303 15302 
14133 14134 15239 15238 14198 14199 15304 15303 
14134 14135 15240 15239 14199 14200 15305 15304 
14135 14136 15241 15240 14200 14201 15306 15305 
14136 14137 15242 15241 14201 14202 15307 15306 
14137 14138 15243 15242 14202 14203 15308 15307 
14138 14139 15244 15243 14203 14204 15309 15308 
14139 14140 15245 15244 14204 14205 15310 15309 
14140 14141 15246 15245 14205 14206 15311 15310 
14141 14142 15247 15246 14206 14207 15312 15311 
14142 14143 15248 15247 14207 14208 15313 15312 
14143 14144 15249 15248 14208 14209 15314 15313 
14144 14145 15250 15249 14209 14210 15315 15314 
14145 14146 15251 15250 14210 14211 15316 15315 
14146 14147 15252 15251 14211 14212 15317 15316 
14147 14148 15253 15252 14212 14213 15318 15317 
14148 14149 15254 15253 14213 14214 15319 15318 
14149 14150 15255 15254 14214 14215 15320 15319 
14150 14151 15256 15255 14215 14216 15321 15320 
14151 14152 15257 15256 14216 14217 15322 15321 
14152 14153 15258 15257 14217 14218 15323 15322 
14153 14154 15259 15258 14218 14219 15324 15323 
14154 14155 15260 15259 14219 14220 15325 15324 
14155 14156 15261 15260 14220 14221 15326 15325 
14156 14157 15262 15261 14221 14222 15327 15326 
14157 14158 15263 15262 14222 14223 15328 15327 
14158 14159 15264 15263 14223 14224 15329 15328 
14159 14160 15265 15264 14224 14225 15330 15329 
14160 14161 15266 15265 14225 14226 15331 15330 
14161 14162 15267 15266 14226 14227 15332 15331 
14162 14163 15268 15267 14227 14228 15333 15332 
14163 14164 15269 15268 14228 14229 15334 15333 
14164 14165 15270 15269 14229 14230 15335 15334 
14165 14166 15271 15270 14230 14231 15336 15335 
14166 14167 15272 15271 14231 14232 15337 15336 
14167 14168 15273 15272 14232 14233 15338 15337 
14168 14169 15274 15273 14233 14234 15339 15338 
14170 14171 15276 15275 14235 14236 15341 15340 
14171 14172 15277 15276 14236 14237 15342 15341 
14172 14173 15278 15277 14237 14238 15343 15342 
14173 14174 15279 15278 14238 14239 15344 15343 
14174 14175 15280 15279 14239 14240 15345 15344 
14175 14176 15281 15280 14240 14241 15346 15345 
14176 14177 15282 15281 14241 14242 15347 15346 
14177 14178 15283 15282 14242 14243 15348 15347 
14178 14179 15284 15283 14243 14244 15349 15348 
14179 14180 15285 15284 14244 14245 15350 15349 
14180 14181 15286 15285 14245 14246 15351 15350 
14181 14182 15287 15286 14246 14247 15352 15351 
14182 14183 15288 15287 14247 14248 15353 15352 
14183 14184 15289 15288 14248 14249 15354 15353 
14184 14185 15290 15289 14249 14250 15355 15354 
14185 14186 15291 15290 14250 14251 15356 15355 
14186 14187 15292 15291 14251 14252 15357 15356 
14187 14188 15293 15292 14252 14253 15358 15357 
14188 14189 15294 15293 14253 14254 15359 15358 
14189 14190 15295 15294 14254 14255 15360 15359 
14190 14191 15296 15295 14255 14256 15361 15360 
14191 14192 15297 15296 14256 14257 15362 15361 
14192 14193 15298 15297 14257 14258 15363 15362 
14193 14194 15299 15298 14258 14259 15364 15363 
14194 14195 15300 15299 14259 14260 15365 15364 
14195 14196 15301 15300 14260 14261 15366 15365 
14196 14197 15302 15301 14261 14262 15367 15366 
14197 14198 15303 15302 14262 14263 15368 15367 
14198 14199 15304 15303 14263 14264 15369 15368 
14199 14200 15305 15304 14264 14265 15370 15369 
14200 14201 15306 15305 14265 14266 15371 15370 
14201 14202 15307 15306 14266 14267 15372 15371 
14202 14203 15308 15307 14267 14268 15373 15372 
14203 14204 15309 15308 14268 14269 15374 15373 
14204 14205 15310 15309 14269 14270 15375 15374 
14205 14206 15311 15310 14270 14271 15376 15375 
14206 14207 15312 15311 14271 14272 15377 15376 
14207 14208 15313 15312 14272 14273 15378 15377 
14208 14209 15314 15313 14273 14274 15379 15378 
14209 14210 15315 15314 14274 14275 15380 15379 
14210 14211 15316 15315 14275 14276 15381 15380 
14211 14212 15317 15316 14276 14277 15382 15381 
14212 14213 15318 15317 14277 14278 15383 15382 
14213 14214 15319 15318 14278 14279 15384 15383 
14214 14215 15320 15319 14279 14280 15385 15384 
14215 14216 15321 15320 14280 14281 15386 15385 
14216 14217 15322 15321 14281 14282 15387 15386 
14217 14218 15323 15322 14282 14283 15388 15387 
14218 14219 15324 15323 14283 14284 15389 15388 
14219 14220 15325 15324 14284 14285 15390 15389 
14220 14221 15326 15325 14285 14286 15391 15390 
14221 14222 15327 15326 14286 14287 15392 15391 
14222 14223 15328 15327 14287 14288 15393 15392 
14223 14224 15329 15328 14288 14289 15394 15393 
14224 14225 15330 15329 14289 14290 15395 15394 
14225 14226 15331 15330 14290 14291 15396 15395 
14226 14227 15332 15331 14291 14292 15397 15396 
14227 14228 15333 15332 14292 14293 15398 15397 
14228 14229 15334 15333 14293 14294 15399 15398 
14229 14230 15335 15334 14294 14295 15400 15399 
14230 14231 15336 15335 14295 14296 15401 15400 
14231 14232 15337 15336 14296 14297 15402 15401 
14232 14233 15338 15337 14297 14298 15403 15402 
14233 14234 15339 15338 14298 14299 15404 15403 
14235 14236 15341 15340 14300 14301 15406 15405 
14236 14237 15342 15341 14301 14302 15407 15406 
14237 14238 15343 15342 14302 14303 15408 15407 
14238 14239 15344 15343 14303 14304 15409 15408 
14239 14240 15345 15344 14304 14305 15410 15409 
14240 14241 15346 15345 14305 14306 15411 15410 
14241 14242 15347 15346 14306 14307 15412 15411 
14242 14243 15348 15347 14307 14308 15413 15412 
14243 14244 15349 15348 14308 14309 15414 15413 
14244 14245 15350 15349 14309 14310 15415 15414 
14245 14246 15351 15350 14310 14311 15416 15415 
14246 14247 15352 15351 14311 14312 15417 15416 
14247 14248 15353 15352 14312 14313 15418 15417 
14248 14249 15354 15353 14313 14314 15419 15418 
14249 14250 15355 15354 14314 14315 15420 15419 
14250 14251 15356 15355 14315 14316 15421 15420 
14251 14252 15357 15356 14316 14317 15422 15421 
14252 14253 15358 15357 14317 14318 15423 15422 
14253 14254 15359 15358 14318 14319 15424 15423 
14254 14255 15360 15359 14319 14320 15425 15424 
14255 14256 15361 15360 14320 14321 15426 15425 
14256 14257 15362 15361 14321 14322 15427 15426 
14257 14258 15363 15362 14322 14323 15428 15427 
14258 14259 15364 15363 14323 14324 15429 15428 
14259 14260 15365 15364 14324 14325 15430 15429 
14260 14261 15366 15365 14325 14326 15431 15430 
14261 14262 15367 15366 14326 14327 15432 15431 
14262 14263 15368 15367 14327 14328 15433 15432 
14263 14264 15369 15368 14328 14329 15434 15433 
14264 14265 15370 15369 14329 14330 15435 15434 
14265 14266 15371 15370 14330 14331 15436 15435 
14266 14267 15372 15371 14331 14332 15437 15436 
14267 14268 15373 15372 14332 14333 15438 15437 
14268 14269 15374 15373 14333 14334 15439 15438 
14269 14270 15375 15374 14334 14335 15440 15439 
14270 14271 15376 15375 14335 14336 15441 15440 
14271 14272 15377 15376 14336 14337 15442 15441 
14272 14273 15378 15377 14337 14338 15443 15442 
14273 14274 15379 15378 14338 14339 15444 15443 
14274 14275 15380 15379 14339 14340 15445 15444 
14275 14276 15381 15380 14340 14341 15446 15445 
14276 14277 15382 15381 14341 14342 15447 15446 
14277 14278 15383 15382 14342 14343 15448 15447 
14278 14279 15384 15383 14343 14344 15449 15448 
14279 14280 15385 15384 14344 14345 15450 15449 
14280 14281 15386 15385 14345 14346 15451 15450 
14281 14282 15387 15386 14346 14347 15452 15451 
14282 14283 15388 15387 14347 14348 15453 15452 
14283 14284 15389 15388 14348 14349 15454 15453 
14284 14285 15390 15389 14349 14350 15455 15454 
14285 14286 15391 15390 14350 14351 15456 15455 
14286 14287 15392 15391 14351 14352 15457 15456 
14287 14288 15393 15392 14352 14353 15458 15457 
14288 14289 15394 15393 14353 14354 15459 15458 
14289 14290 15395 15394 14354 14355 15460 15459 
14290 14291 15396 15395 14355 14356 15461 15460 
14291 14292 15397 15396 14356 14357 15462 15461 
14292 14293 15398 15397 14357 14358 15463 15462 
14293 14294 15399 15398 14358 14359 15464 15463 
14294 14295 15400 15399 14359 14360 15465 15464 
14295 14296 15401 15400 14360 14361 15466 15465 
14296 14297 15402 15401 14361 14362 15467 15466 
14297 14298 15403 15402 14362 14363 15468 15467 
14298 14299 15404 15403 14363 14364 15469 15468 
14365 14366 15471 15470 14430 14431 15536 15535 
14366 14367 15472 15471 14431 14432 15537 15536 
14367 14368 15473 15472 14432 14433 15538 15537 
14368 14369 15474 15473 14433 14434 15539 15538 
14369 14370 15475 15474 14434 14435 15540 15539 
14370 14371 15476 15475 14435 14436 15541 15540 
14371 14372 15477 15476 14436 14437 15542 15541 
14372 14373 15478 15477 14437 14438 15543 15542 
14373 14374 15479 15478 14438 14439 15544 15543 
14374 14375 15480 15479 14439 14440 15545 15544 
14375 14376 15481 15480 14440 14441 15546 15545 
14376 14377 15482 15481 14441 14442 15547 15546 
14377 14378 15483 15482 14442 14443 15548 15547 
14378 14379 15484 15483 14443 14444 15549 15548 
14379 14380 15485 15484 14444 14445 15550 15549 
14380 14381 15486 15485 14445 14446 15551 15550 
14381 14382 15487 15486 14446 14447 15552 15551 
14382 14383 15488 15487 14447 14448 15553 15552 
14383 14384 15489 15488 14448 14449 15554 15553 
14384 14385 15490 15489 14449 14450 15555 15554 
14385 14386 15491 15490 14450 14451 15556 15555 
14386 14387 15492 15491 14451 14452 15557 15556 
14387 14388 15493 15492 14452 14453 15558 15557 
14388 14389 15494 15493 14453 14454 15559 15558 
14389 14390 15495 15494 14454 14455 15560 15559 
14390 14391 15496 15495 14455 14456 15561 15560 
14391 14392 15497 15496 14456 14457 15562 15561 
14392 14393 15498 15497 14457 14458 15563 15562 
14393 14394 15499 15498 14458 14459 15564 15563 
14394 14395 15500 15499 14459 14460 15565 15564 
14395 14396 15501 15500 14460 14461 15566 15565 
14396 14397 15502 15501 14461 14462 15567 15566 
14397 14398 15503 15502 14462 14463 15568 15567 
14398 14399 15504 15503 14463 14464 15569 15568 
14399 14400 15505 15504 14464 14465 15570 15569 
14400 14401 15506 15505 14465 14466 15571 15570 
14401 14402 15507 15506 14466 14467 15572 15571 
14402 14403 15508 15507 14467 14468 15573 15572 
14403 14404 15509 15508 14468 14469 15574 15573 
14404 14405 15510 15509 14469 14470 15575 15574 
14405 14406 15511 15510 14470 14471 15576 15575 
14406 14407 15512 15511 14471 14472 15577 15576 
14407 14408 15513 15512 14472 14473 15578 15577 
14408 14409 15514 15513 14473 14474 15579 15578 
14409 14410 15515 15514 14474 14475 15580 15579 
14410 14411 15516 15515 14475 14476 15581 15580 
14411 14412 15517 15516 14476 14477 15582 15581 
14412 14413 15518 15517 14477 14478 15583 15582 
14413 14414 15519 15518 14478 14479 15584 15583 
14414 14415 15520 15519 14479 14480 15585 15584 
14415 14416 15521 15520 14480 14481 15586 15585 
14416 14417 15522 15521 14481 14482 15587 15586 
14417 14418 15523 15522 14482 14483 15588 15587 
14418 14419 15524 15523 14483 14484 15589 15588 
14419 14420 15525 15524 14484 14485 15590 15589 
14420 14421 15526 15525 14485 14486 15591 15590 
14421 14422 15527 15526 14486 14487 15592 15591 
14422 14423 15528 15527 14487 14488 15593 15592 
14423 14424 15529 15528 14488 14489 15594 15593 
14424 14425 15530 15529 14489 14490 15595 15594 
14425 14426 15531 15530 14490 14491 15596 15595 
14426 14427 15532 15531 14491 14492 15597 15596 
14427 14428 15533 15532 14492 14493 15598 15597 
14428 14429 15534 15533 14493 14494 15599 15598 
14430 14431 15536 15535 14495 14496 15601 15600 
14431 14432 15537 15536 14496 14497 15602 15601 
14432 14433 15538 15537 14497 14498 15603 15602 
14433 14434 15539 15538 14498 14499 15604 15603 
14434 14435 15540 15539 14499 14500 15605 15604 
14435 14436 15541 15540 14500 14501 15606 15605 
14436 14437 15542 15541 14501 14502 15607 15606 
14437 14438 15543 15542 14502 14503 15608 15607 
14438 14439 15544 15543 14503 14504 15609 15608 
14439 14440 15545 15544 14504 14505 15610 15609 
14440 14441 15546 15545 14505 14506 15611 15610 
14441 14442 15547 15546 14506 14507 15612 15611 
14442 14443 15548 15547 14507 14508 15613 15612 
14443 14444 15549 15548 14508 14509 15614 15613 
14444 14445 15550 15549 14509 14510 15615 15614 
14445 14446 15551 15550 14510 14511 15616 15615 
14446 14447 15552 15551 14511 14512 15617 15616 
14447 14448 15553 15552 14512 14513 15618 15617 
14448 14449 15554 15553 14513 14514 15619 15618 
14449 14450 15555 15554 14514 14515 15620 15619 
14450 14451 15556 15555 14515 14516 15621 15620 
14451 14452 15557 15556 14516 14517 15622 15621 
14452 14453 15558 15557 14517 14518 15623 15622 
14453 14454 15559 15558 14518 14519 15624 15623 
14454 14455 15560 15559 14519 14520 15625 15624 
14455 14456 15561 15560 14520 14521 15626 15625 
14456 14457 15562 15561 14521 14522 15627 15626 
14457 14458 15563 15562 14522 14523 15628 15627 
14458 14459 15564 15563 14523 14524 15629 15628 
14459 14460 15565 15564 14524 14525 15630 15629 
14460 14461 15566 15565 14525 14526 15631 15630 
14461 14462 15567 15566 14526 14527 15632 15631 
14462 14463 15568 15567 14527 14528 15633 15632 
14463 14464 15569 15568 14528 14529 15634 15633 
14464 14465 15570 15569 14529 14530 15635 15634 
14465 14466 15571 15570 14530 14531 15636 15635 
14466 14467 15572 15571 14531 14532 15637 15636 
14467 14468 15573 15572 14532 14533 15638 15637 
14468 14469 15574 15573 14533 14534 15639 15638 
14469 14470 15575 15574 14534 14535 15640 15639 
14470 14471 15576 15575 14535 14536 15641 15640 
14471 14472 15577 15576 14536 14537 15642 15641 
14472 14473 15578 15577 14537 14538 15643 15642 
14473 14474 15579 15578 14538 14539 15644 15643 
14474 14475 15580 15579 14539 14540 15645 15644 
14475 14476 15581 15580 14540 14541 15646 15645 
14476 14477 15582 15581 14541 14542 15647 15646 
14477 14478 15583 15582 14542 14543 15648 15647 
14478 14479 15584 15583 14543 14544 15649 15648 
14479 14480 15585 15584 14544 14545 15650 15649 
14480 14481 15586 15585 14545 14546 15651 15650 
14481 14482 15587 15586 14546 14547 15652 15651 
14482 14483 15588 15587 14547 14548 15653 15652 
14483 14484 15589 15588 14548 14549 15654 15653 
14484 14485 15590 15589 14549 14550 15655 15654 
14485 14486 15591 15590 14550 14551 15656 15655 
14486 14487 15592 15591 14551 14552 15657 15656 
14487 14488 15593 15592 14552 14553 15658 15657 
14488 14489 15594 15593 14553 14554 15659 15658 
14489 14490 15595 15594 14554 14555 15660 15659 
14490 14491 15596 15595 14555 14556 15661 15660 
14491 14492 15597 15596 14556 14557 15662 15661 
14492 14493 15598 15597 14557 14558 15663 15662 
14493 14494 15599 15598 14558 14559 15664 15663 
14495 14496 15601 15600 14560 14561 15666 15665 
14496 14497 15602 15601 14561 14562 15667 15666 
14497 14498 15603 15602 14562 14563 15668 15667 
14498 14499 15604 15603 14563 14564 15669 15668 
14499 14500 15605 15604 14564 14565 15670 15669 
14500 14501 15606 15605 14565 14566 15671 15670 
14501 14502 15607 15606 14566 14567 15672 15671 
14502 14503 15608 15607 14567 14568 15673 15672 
14503 14504 15609 15608 14568 14569 15674 15673 
14504 14505 15610 15609 14569 14570 15675 15674 
14505 14506 15611 15610 14570 14571 15676 15675 
14506 14507 15612 15611 14571 14572 15677 15676 
14507 14508 15613 15612 14572 14573 15678 15677 
14508 14509 15614 15613 14573 14574 15679 15678 
14509 14510 15615 15614 14574 14575 15680 15679 
14510 14511 15616 15615 14575 14576 15681 15680 
14511 14512 15617 15616 14576 14577 15682 15681 
14512 14513 15618 15617 14577 14578 15683 15682 
14513 14514 15619 15618 14578 14579 15684 15683 
14514 14515 15620 15619 14579 14580 15685 15684 
14515 14516 15621 15620 14580 14581 15686 15685 
14516 14517 15622 15621 14581 14582 15687 15686 
14517 14518 15623 15622 14582 14583 15688 15687 
14518 14519 15624 15623 14583 14584 15689 15688 
14519 14520 15625 15624 14584 14585 15690 15689 
14520 14521 15626 15625 14585 14586 15691 15690 
14521 14522 15627 15626 14586 14587 15692 15691 
14522 14523 15628 15627 14587 14588 15693 15692 
14523 14524 15629 15628 14588 14589 15694 15693 
14524 14525 15630 15629 14589 14590 15695 15694 
14525 14526 15631 15630 14590 14591 15696 15695 
14526 14527 15632 15631 14591 14592 15697 15696 
14527 14528 15633 15632 14592 14593 15698 15697 
14528 14529 15634 15633 14593 14594 15699 15698 
14529 14530 15635 15634 14594 14595 15700 15699 
14530 14531 15636 15635 14595 14596 15701 15700 
14531 14532 15637 15636 14596 14597 15702 15701 
14532 14533 15638 15637 14597 14598 15703 15702 
14533 14534 15639 15638 14598 14599 15704 15703 
14534 14535 15640 15639 14599 14600 15705 15704 
14535 14536 15641 15640 14600 14601 15706 15705 
14536 14537 15642 15641 14601 14602 15707 15706 
14537 14538 15643 15642 14602 14603 15708 15707 
14538 14539 15644 15643 14603 14604 15709 15708 
14539 14540 15645 15644 14604 14605 15710 15709 
14540 14541 15646 15645 14605 14606 15711 15710 
14541 14542 15647 15646 14606 14607 15712 15711 
14542 14543 15648 15647 14607 14608 15713 15712 
14543 14544 15649 15648 14608 14609 15714 15713 
14544 14545 15650 15649 14609 14610 15715 15714 
14545 14546 15651 15650 14610 14611 15716 15715 
14546 14547 15652 15651 14611 14612 15717 15716 
14547 14548 15653 15652 14612 14613 15718 15717 
14548 14549 15654 15653 14613 14614 15719 15718 
14549 14550 15655 15654 14614 14615 15720 15719 
14550 14551 15656 15655 14615 14616 15721 15720 
14551 14552 15657 15656 14616 14617 15722 15721 
14552 14553 15658 15657 14617 14618 15723 15722 
14553 14554 15659 15658 14618 14619 15724 15723 
14554 14555 15660 15659 14619 14620 15725 15724 
14555 14556 15661 15660 14620 14621 15726 15725 
14556 14557 15662 15661 14621 14622 15727 15726 
14557 14558 15663 15662 14622 14623 15728 15727 
14558 14559 15664 15663 14623 14624 15729 15728 
14560 14561 15666 15665 14625 14626 15731 15730 
14561 14562 15667 15666 14626 14627 15732 15731 
14562 14563 15668 15667 14627 14628 15733 15732 
14563 14564 15669 15668 14628 14629 15734 15733 
14564 14565 15670 15669 14629 14630 15735 15734 
14565 14566 15671 15670 14630 14631 15736 15735 
14566 14567 15672 15671 14631 14632 15737 15736 
14567 14568 15673 15672 14632 14633 15738 15737 
14568 14569 15674 15673 14633 14634 15739 15738 
14569 14570 15675 15674 14634 14635 15740 15739 
14570 14571 15676 15675 14635 14636 15741 15740 
14571 14572 15677 15676 14636 14637 15742 15741 
14572 14573 15678 15677 14637 14638 15743 15742 
14573 14574 15679 15678 14638 14639 15744 15743 
14574 14575 15680 15679 14639 14640 15745 15744 
14575 14576 15681 15680 14640 14641 15746 15745 
14576 14577 15682 15681 14641 14642 15747 15746 
14577 14578 15683 15682 14642 14643 15748 15747 
14578 14579 15684 15683 14643 14644 15749 15748 
14579 14580 15685 15684 14644 14645 15750 15749 
14580 14581 15686 15685 14645 14646 15751 15750 
14581 14582 15687 15686 14646 14647 15752 15751 
14582 14583 15688 15687 14647 14648 15753 15752 
14583 14584 15689 15688 14648 14649 15754 15753 
14584 14585 15690 15689 14649 14650 15755 15754 
14585 14586 15691 15690 14650 14651 15756 15755 
14586 14587 15692 15691 14651 14652 15757 15756 
14587 14588 15693 15692 14652 14653 15758 15757 
14588 14589 15694 15693 14653 14654 15759 15758 
14589 14590 15695 15694 14654 14655 15760 15759 
14590 14591 15696 15695 14655 14656 15761 15760 
14591 14592 15697 15696 14656 14657 15762 15761 
14592 14593 15698 15697 14657 14658 15763 15762 
14593 14594 15699 15698 14658 14659 15764 15763 
14594 14595 15700 15699 14659 14660 15765 15764 
14595 14596 15701 15700 14660 14661 15766 15765 
14596 14597 15702 15701 14661 14662 15767 15766 
14597 14598 15703 15702 14662 14663 15768 15767 
14598 14599 15704 15703 14663 14664 15769 15768 
14599 14600 15705 15704 14664 14665 15770 15769 
14600 14601 15706 15705 14665 14666 15771 15770 
14601 14602 15707 15706 14666 14667 15772 15771 
14602 14603 15708 15707 14667 14668 15773 15772 
14603 14604 15709 15708 14668 14669 15774 15773 
14604 14605 15710 15709 14669 14670 15775 15774 
14605 14606 15711 15710 14670 14671 15776 15775 
14606 14607 15712 15711 14671 14672 15777 15776 
14607 14608 15713 15712 14672 14673 15778 15777 
14608 14609 15714 15713 14673 14674 15779 15778 
14609 14610 15715 15714 14674 14675 15780 15779 
14610 14611 15716 15715 14675 14676 15781 15780 
14611 14612 15717 15716 14676 14677 15782 15781 
14612 14613 15718 15717 14677 14678 15783 15782 
14613 14614 15719 15718 14678 14679 15784 15783 
14614 14615 15720 15719 14679 14680 15785 15784 
14615 14616 15721 15720 14680 14681 15786 15785 
14616 14617 15722 15721 14681 14682 15787 15786 
14617 14618 15723 15722 14682 14683 15788 15787 
14618 14619 15724 15723 14683 14684 15789 15788 
14619 14620 15725 15724 14684 14685 15790 15789 
14620 14621 15726 15725 14685 14686 15791 15790 
14621 14622 15727 15726 14686 14687 15792 15791 
14622 14623 15728 15727 14687 14688 15793 15792 
14623 14624 15729 15728 14688 14689 15794 15793 
14625 14626 15731 15730 14690 14691 15796 15795 
14626 14627 15732 15731 14691 14692 15797 15796 
14627 14628 15733 15732 14692 14693 15798 15797 
14628 14629 15734 15733 14693 14694 15799 15798 
14629 14630 15735 15734 14694 14695 15800 15799 
14630 14631 15736 15735 14695 14696 15801 15800 
14631 14632 15737 15736 14696 14697 15802 15801 
14632 14633 15738 15737 14697 14698 15803 15802 
14633 14634 15739 15738 14698 14699 15804 15803 
14634 14635 15740 15739 14699 14700 15805 15804 
14635 14636 15741 15740 14700 14701 15806 15805 
14636 14637 15742 15741 14701 14702 15807 15806 
14637 14638 15743 15742 14702 14703 15808 15807 
14638 14639 15744 15743 14703 14704 15809 15808 
14639 14640 15745 15744 14704 14705 15810 15809 
14640 14641 15746 15745 14705 14706 15811 15810 
14641 14642 15747 15746 14706 14707 15812 15811 
14642 14643 15748 15747 14707 14708 15813 15812 
14643 14644 15749 15748 14708 14709 15814 15813 
14644 14645 15750 15749 14709 14710 15815 15814 
14645 14646 15751 15750 14710 14711 15816 15815 
14646 14647 15752 15751 14711 14712 15817 15816 
14647 14648 15753 15752 14712 14713 15818 15817 
14648 14649 15754 15753 14713 14714 15819 15818 
14649 14650 15755 15754 14714 14715 15820 15819 
14650 14651 15756 15755 14715 14716 15821 15820 
14651 14652 15757 15756 14716 14717 15822 15821 
14652 14653 15758 15757 14717 14718 15823 15822 
14653 14654 15759 15758 14718 14719 15824 15823 
14654 14655 15760 15759 14719 14720 15825 15824 
14655 14656 15761 15760 14720 14721 15826 15825 
14656 14657 15762 15761 14721 14722 15827 15826 
14657 14658 15763 15762 14722 14723 15828 15827 
14658 14659 15764 15763 14723 14724 15829 15828 
14659 14660 15765 15764 14724 14725 15830 15829 
14660 14661 15766 15765 14725 14726 15831 15830 
14661 14662 15767 15766 14726 14727 15832 15831 
14662 14663 15768 15767 14727 14728 15833 15832 
14663 14664 15769 15768 14728 14729 15834 15833 
14664 14665 15770 15769 14729 14730 15835 15834 
14665 14666 15771 15770 14730 14731 15836 15835 
14666 14667 15772 15771 14731 14732 15837 15836 
14667 14668 15773 15772 14732 14733 15838 15837 
14668 14669 15774 15773 14733 14734 15839 15838 
14669 14670 15775 15774 14734 14735 15840 15839 
14670 14671 15776 15775 14735 14736 15841 15840 
14671 14672 15777 15776 14736 14737 15842 15841 
14672 14673 15778 15777 14737 14738 15843 15842 
14673 14674 15779 15778 14738 14739 15844 15843 
14674 14675 15780 15779 14739 14740 15845 15844 
14675 14676 15781 15780 14740 14741 15846 15845 
14676 14677 15782 15781 14741 14742 15847 15846 
14677 14678 15783 15782 14742 14743 15848 15847 
14678 14679 15784 15783 14743 14744 15849 15848 
14679 14680 15785 15784 14744 14745 15850 15849 
14680 14681 15786 15785 14745 14746 15851 15850 
14681 14682 15787 15786 14746 14747 15852 15851 
14682 14683 15788 15787 14747 14748 15853 15852 
14683 14684 15789 15788 14748 14749 15854 15853 
14684 14685 15790 15789 14749 14750 15855 15854 
14685 14686 15791 15790 14750 14751 15856 15855 
14686 14687 15792 15791 14751 14752 15857 15856 
14687 14688 15793 15792 14752 14753 15858 15857 
14688 14689 15794 15793 14753 14754 15859 15858 
14690 14691 15796 15795 14755 14756 15861 15860 
14691 14692 15797 15796 14756 14757 15862 15861 
14692 14693 15798 15797 14757 14758 15863 15862 
14693 14694 15799 15798 14758 14759 15864 15863 
14694 14695 15800 15799 14759 14760 15865 15864 
14695 14696 15801 15800 14760 14761 15866 15865 
14696 14697 15802 15801 14761 14762 15867 15866 
14697 14698 15803 15802 14762 14763 15868 15867 
14698 14699 15804 15803 14763 14764 15869 15868 
14699 14700 15805 15804 14764 14765 15870 15869 
14700 14701 15806 15805 14765 14766 15871 15870 
14701 14702 15807 15806 14766 14767 15872 15871 
14702 14703 15808 15807 14767 14768 15873 15872 
14703 14704 15809 15808 14768 14769 15874 15873 
14704 14705 15810 15809 14769 14770 15875 15874 
14705 14706 15811 15810 14770 14771 15876 15875 
14706 14707 15812 15811 14771 14772 15877 15876 
14707 14708 15813 15812 14772 14773 15878 15877 
14708 14709 15814 15813 14773 14774 15879 15878 
14709 14710 15815 15814 14774 14775 15880 15879 
14710 14711 15816 15815 14775 14776 15881 15880 
14711 14712 15817 15816 14776 14777 15882 15881 
14712 14713 15818 15817 14777 14778 15883 15882 
14713 14714 15819 15818 14778 14779 15884 15883 
14714 14715 15820 15819 14779 14780 15885 15884 
14715 14716 15821 15820 14780 14781 15886 15885 
14716 14717 15822 15821 14781 14782 15887 15886 
14717 14718 15823 15822 14782 14783 15888 15887 
14718 14719 15824 15823 14783 14784 15889 15888 
14719 14720 15825 15824 14784 14785 15890 15889 
14720 14721 15826 15825 14785 14786 15891 15890 
14721 14722 15827 15826 14786 14787 15892 15891 
14722 14723 15828 15827 14787 14788 15893 15892 
14723 14724 15829 15828 14788 14789 15894 15893 
14724 14725 15830 15829 14789 14790 15895 15894 
14725 14726 15831 15830 14790 14791 15896 15895 
14726 14727 15832 15831 14791 14792 15897 15896 
14727 14728 15833 15832 14792 14793 15898 15897 
14728 14729 15834 15833 14793 14794 15899 15898 
14729 14730 15835 15834 14794 14795 15900 15899 
14730 14731 15836 15835 14795 14796 15901 15900 
14731 14732 15837 15836 14796 14797 15902 15901 
14732 14733 15838 15837 14797 14798 15903 15902 
14733 14734 15839 15838 14798 14799 15904 15903 
14734 14735 15840 15839 14799 14800 15905 15904 
14735 14736 15841 15840 14800 14801 15906 15905 
14736 14737 15842 15841 14801 14802 15907 15906 
14737 14738 15843 15842 14802 14803 15908 15907 
14738 14739 15844 15843 14803 14804 15909 15908 
14739 14740 15845 15844 14804 14805 15910 15909 
14740 14741 15846 15845 14805 14806 15911 15910 
14741 14742 15847 15846 14806 14807 15912 15911 
14742 14743 15848 15847 14807 14808 15913 15912 
14743 14744 15849 15848 14808 14809 15914 15913 
14744 14745 15850 15849 14809 14810 15915 15914 
14745 14746 15851 15850 14810 14811 15916 15915 
14746 14747 15852 15851 14811 14812 15917 15916 
14747 14748 15853 15852 14812 14813 15918 15917 
14748 14749 15854 15853 14813 14814 15919 15918 
14749 14750 15855 15854 14814 14815 15920 15919 
14750 14751 15856 15855 14815 14816 15921 15920 
14751 14752 15857 15856 14816 14817 15922 15921 
14752 14753 15858 15857 14817 14818 15923 15922 
14753 14754 15859 15858 14818 14819 15924 15923 
14755 14756 15861 15860 14820 14821 15926 15925 
14756 14757 15862 15861 14821 14822 15927 15926 
14757 14758 15863 15862 14822 14823 15928 15927 
14758 14759 15864 15863 14823 14824 15929 15928 
14759 14760 15865 15864 14824 14825 15930 15929 
14760 14761 15866 15865 14825 14826 15931 15930 
14761 14762 15867 15866 14826 14827 15932 15931 
14762 14763 15868 15867 14827 14828 15933 15932 
14763 14764 15869 15868 14828 14829 15934 15933 
14764 14765 15870 15869 14829 14830 15935 15934 
14765 14766 15871 15870 14830 14831 15936 15935 
14766 14767 15872 15871 14831 14832 15937 15936 
14767 14768 15873 15872 14832 14833 15938 15937 
14768 14769 15874 15873 14833 14834 15939 15938 
14769 14770 15875 15874 14834 14835 15940 15939 
14770 14771 15876 15875 14835 14836 15941 15940 
14771 14772 15877 15876 14836 14837 15942 15941 
14772 14773 15878 15877 14837 14838 15943 15942 
14773 14774 15879 15878 14838 14839 15944 15943 
14774 14775 15880 15879 14839 14840 15945 15944 
14775 14776 15881 15880 14840 14841 15946 15945 
14776 14777 15882 15881 14841 14842 15947 15946 
14777 14778 15883 15882 14842 14843 15948 15947 
14778 14779 15884 15883 14843 14844 15949 15948 
14779 14780 15885 15884 14844 14845 15950 15949 
14780 14781 15886 15885 14845 14846 15951 15950 
14781 14782 15887 15886 14846 14847 15952 15951 
14782 14783 15888 15887 14847 14848 15953 15952 
14783 14784 15889 15888 14848 14849 15954 15953 
14784 14785 15890 15889 14849 14850 15955 15954 
14785 14786 15891 15890 14850 14851 15956 15955 
14786 14787 15892 15891 14851 14852 15957 15956 
14787 14788 15893 15892 14852 14853 15958 15957 
14788 14789 15894 15893 14853 14854 15959 15958 
14789 14790 15895 15894 14854 14855 15960 15959 
14790 14791 15896 15895 14855 14856 15961 15960 
14791 14792 15897 15896 14856 14857 15962 15961 
14792 14793 15898 15897 14857 14858 15963 15962 
14793 14794 15899 15898 14858 14859 15964 15963 
14794 14795 15900 15899 14859 14860 15965 15964 
14795 14796 15901 15900 14860 14861 15966 15965 
14796 14797 15902 15901 14861 14862 15967 15966 
14797 14798 15903 15902 14862 14863 15968 15967 
14798 14799 15904 15903 14863 14864 15969 15968 
14799 14800 15905 15904 14864 14865 15970 15969 
14800 14801 15906 15905 14865 14866 15971 15970 
14801 14802 15907 15906 14866 14867 15972 15971 
14802 14803 15908 15907 14867 14868 15973 15972 
14803 14804 15909 15908 14868 14869 15974 15973 
14804 14805 15910 15909 14869 14870 15975 15974 
14805 14806 15911 15910 14870 14871 15976 15975 
14806 14807 15912 15911 14871 14872 15977 15976 
14807 14808 15913 15912 14872 14873 15978 15977 
14808 14809 15914 15913 14873 14874 15979 15978 
14809 14810 15915 15914 14874 14875 15980 15979 
14810 14811 15916 15915 14875 14876 15981 15980 
14811 14812 15917 15916 14876 14877 15982 15981 
14812 14813 15918 15917 14877 14878 15983 15982 
14813 14814 15919 15918 14878 14879 15984 15983 
14814 14815 15920 15919 14879 14880 15985 15984 
14815 14816 15921 15920 14880 14881 15986 15985 
14816 14817 15922 15921 14881 14882 15987 15986 
14817 14818 15923 15922 14882 14883 15988 15987 
14818 14819 15924 15923 14883 14884 15989 15988 
14820 14821 15926 15925 14885 14886 15991 15990 
14821 14822 15927 15926 14886 14887 15992 15991 
14822 14823 15928 15927 14887 14888 15993 15992 
14823 14824 15929 15928 14888 14889 15994 15993 
14824 14825 15930 15929 14889 14890 15995 15994 
14825 14826 15931 15930 14890 14891 15996 15995 
14826 14827 15932 15931 14891 14892 15997 15996 
14827 14828 15933 15932 14892 14893 15998 15997 
14828 14829 15934 15933 14893 14894 15999 15998 
14829 14830 15935 15934 14894 14895 16000 15999 
14830 14831 15936 15935 14895 14896 16001 16000 
14831 14832 15937 15936 14896 14897 16002 16001 
14832 14833 15938 15937 14897 14898 16003 16002 
14833 14834 15939 15938 14898 14899 16004 16003 
14834 14835 15940 15939 14899 14900 16005 16004 
14835 14836 15941 15940 14900 14901 16006 16005 
14836 14837 15942 15941 14901 14902 16007 16006 
14837 14838 15943 15942 14902 14903 16008 16007 
14838 14839 15944 15943 14903 14904 16009 16008 
14839 14840 15945 15944 14904 14905 16010 16009 
14840 14841 15946 15945 14905 14906 16011 16010 
14841 14842 15947 15946 14906 14907 16012 16011 
14842 14843 15948 15947 14907 14908 16013 16012 
14843 14844 15949 15948 14908 14909 16014 16013 
14844 14845 15950 15949 14909 14910 16015 16014 
14845 14846 15951 15950 14910 14911 16016 16015 
14846 14847 15952 15951 14911 14912 16017 16016 
14847 14848 15953 15952 14912 14913 16018 16017 
14848 14849 15954 15953 14913 14914 16019 16018 
14849 14850 15955 15954 14914 14915 16020 16019 
14850 14851 15956 15955 14915 14916 16021 16020 
14851 14852 15957 15956 14916 14917 16022 16021 
14852 14853 15958 15957 14917 14918 16023 16022 
14853 14854 15959 15958 14918 14919 16024 16023 
14854 14855 15960 15959 14919 14920 16025 16024 
14855 14856 15961 15960 14920 14921 16026 16025 
14856 14857 15962 15961 14921 14922 16027 16026 
14857 14858 15963 15962 14922 14923 16028 16027 
14858 14859 15964 15963 14923 14924 16029 16028 
14859 14860 15965 15964 14924 14925 16030 16029 
14860 14861 15966 15965 14925 14926 16031 16030 
14861 14862 15967 15966 14926 14927 16032 16031 
14862 14863 15968 15967 14927 14928 16033 16032 
14863 14864 15969 15968 14928 14929 16034 16033 
14864 14865 15970 15969 14929 14930 16035 16034 
14865 14866 15971 15970 14930 14931 16036 16035 
14866 14867 15972 15971 14931 14932 16037 16036 
14867 14868 15973 15972 14932 14933 16038 16037 
14868 14869 15974 15973 14933 14934 16039 16038 
14869 14870 15975 15974 14934 14935 16040 16039 
14870 14871 15976 15975 14935 14936 16041 16040 
14871 14872 15977 15976 14936 14937 16042 16041 
14872 14873 15978 15977 14937 14938 16043 16042 
14873 14874 15979 15978 14938 14939 16044 16043 
14874 14875 15980 15979 14939 14940 16045 16044 
14875 14876 15981 15980 14940 14941 16046 16045 
14876 14877 15982 15981 14941 14942 16047 16046 
14877 14878 15983 15982 14942 14943 16048 16047 
14878 14879 15984 15983 14943 14944 16049 16048 
14879 14880 15985 15984 14944 14945 16050 16049 
14880 14881 15986 15985 14945 14946 16051 16050 
14881 14882 15987 15986 14946 14947 16052 16051 
14882 14883 15988 15987 14947 14948 16053 16052 
14883 14884 15989 15988 14948 14949 16054 16053 
14885 14886 15991 15990 14950 14951 16056 16055 
14886 14887 15992 15991 14951 14952 16057 16056 
14887 14888 15993 15992 14952 14953 16058 16057 
14888 14889 15994 15993 14953 14954 16059 16058 
14889 14890 15995 15994 14954 14955 16060 16059 
14890 14891 15996 15995 14955 14956 16061 16060 
14891 14892 15997 15996 14956 14957 16062 16061 
14892 14893 15998 15997 14957 14958 16063 16062 
14893 14894 15999 15998 14958 14959 16064 16063 
14894 14895 16000 15999 14959 14960 16065 16064 
14895 14896 16001 16000 14960 14961 16066 16065 
14896 14897 16002 16001 14961 14962 16067 16066 
14897 14898 16003 16002 14962 14963 16068 16067 
14898 14899 16004 16003 14963 14964 16069 16068 
14899 14900 16005 16004 14964 14965 16070 16069 
14900 14901 16006 16005 14965 14966 16071 16070 
14901 14902 16007 16006 14966 14967 16072 16071 
14902 14903 16008 16007 14967 14968 16073 16072 
14903 14904 16009 16008 14968 14969 16074 16073 
14904 14905 16010 16009 14969 14970 16075 16074 
14905 14906 16011 16010 14970 14971 16076 16075 
14906 14907 16012 16011 14971 14972 16077 16076 
14907 14908 16013 16012 14972 14973 16078 16077 
14908 14909 16014 16013 14973 14974 16079 16078 
14909 14910 16015 16014 14974 14975 16080 16079 
14910 14911 16016 16015 14975 14976 16081 16080 
14911 14912 16017 16016 14976 14977 16082 16081 
14912 14913 16018 16017 14977 14978 16083 16082 
14913 14914 16019 16018 14978 14979 16084 16083 
14914 14915 16020 16019 14979 14980 16085 16084 
14915 14916 16021 16020 14980 14981 16086 16085 
14916 14917 16022 16021 14981 14982 16087 16086 
14917 14918 16023 16022 14982 14983 16088 16087 
14918 14919 16024 16023 14983 14984 16089 16088 
14919 14920 16025 16024 14984 14985 16090 16089 
14920 14921 16026 16025 14985 14986 16091 16090 
14921 14922 16027 16026 14986 14987 16092 16091 
14922 14923 16028 16027 14987 14988 16093 16092 
14923 14924 16029 16028 14988 14989 16094 16093 
14924 14925 16030 16029 14989 14990 16095 16094 
14925 14926 16031 16030 14990 14991 16096 16095 
14926 14927 16032 16031 14991 14992 16097 16096 
14927 14928 16033 16032 14992 14993 16098 16097 
14928 14929 16034 16033 14993 14994 16099 16098 
14929 14930 16035 16034 14994 14995 16100 16099 
14930 14931 16036 16035 14995 14996 16101 16100 
14931 14932 16037 16036 14996 14997 16102 16101 
14932 14933 16038 16037 14997 14998 16103 16102 
14933 14934 16039 16038 14998 14999 16104 16103 
14934 14935 16040 16039 14999 15000 16105 16104 
14935 14936 16041 16040 15000 15001 16106 16105 
14936 14937 16042 16041 15001 15002 16107 16106 
14937 14938 16043 16042 15002 15003 16108 16107 
14938 14939 16044 16043 15003 15004 16109 16108 
14939 14940 16045 16044 15004 15005 16110 16109 
14940 14941 16046 16045 15005 15006 16111 16110 
14941 14942 16047 16046 15006 15007 16112 16111 
14942 14943 16048 16047 15007 15008 16113 16112 
14943 14944 16049 16048 15008 15009 16114 16113 
14944 14945 16050 16049 15009 15010 16115 16114 
14945 14946 16051 16050 15010 15011 16116 16115 
14946 14947 16052 16051 15011 15012 16117 16116 
14947 14948 16053 16052 15012 15013 16118 16117 
14948 14949 16054 16053 15013 15014 16119 16118 
14950 14951 16056 16055 15015 15016 16121 16120 
14951 14952 16057 16056 15016 15017 16122 16121 
14952 14953 16058 16057 15017 15018 16123 16122 
14953 14954 16059 16058 15018 15019 16124 16123 
14954 14955 16060 16059 15019 15020 16125 16124 
14955 14956 16061 16060 15020 15021 16126 16125 
14956 14957 16062 16061 15021 15022 16127 16126 
14957 14958 16063 16062 15022 15023 16128 16127 
14958 14959 16064 16063 15023 15024 16129 16128 
14959 14960 16065 16064 15024 15025 16130 16129 
14960 14961 16066 16065 15025 15026 16131 16130 
14961 14962 16067 16066 15026 15027 16132 16131 
14962 14963 16068 16067 15027 15028 16133 16132 
14963 14964 16069 16068 15028 15029 16134 16133 
14964 14965 16070 16069 15029 15030 16135 16134 
14965 14966 16071 16070 15030 15031 16136 16135 
14966 14967 16072 16071 15031 15032 16137 16136 
14967 14968 16073 16072 15032 15033 16138 16137 
14968 14969 16074 16073 15033 15034 16139 16138 
14969 14970 16075 16074 15034 15035 16140 16139 
14970 14971 16076 16075 15035 15036 16141 16140 
14971 14972 16077 16076 15036 15037 16142 16141 
14972 14973 16078 16077 15037 15038 16143 16142 
14973 14974 16079 16078 15038 15039 16144 16143 
14974 14975 16080 16079 15039 15040 16145 16144 
14975 14976 16081 16080 15040 15041 16146 16145 
14976 14977 16082 16081 15041 15042 16147 16146 
14977 14978 16083 16082 15042 15043 16148 16147 
14978 14979 16084 16083 15043 15044 16149 16148 
14979 14980 16085 16084 15044 15045 16150 16149 
14980 14981 16086 16085 15045 15046 16151 16150 
14981 14982 16087 16086 15046 15047 16152 16151 
14982 14983 16088 16087 15047 15048 16153 16152 
14983 14984 16089 16088 15048 15049 16154 16153 
14984 14985 16090 16089 15049 15050 16155 16154 
14985 14986 16091 16090 15050 15051 16156 16155 
14986 14987 16092 16091 15051 15052 16157 16156 
14987 14988 16093 16092 15052 15053 16158 16157 
14988 14989 16094 16093 15053 15054 16159 16158 
14989 14990 16095 16094 15054 15055 16160 16159 
14990 14991 16096 16095 15055 15056 16161 16160 
14991 14992 16097 16096 15056 15057 16162 16161 
14992 14993 16098 16097 15057 15058 16163 16162 
14993 14994 16099 16098 15058 15059 16164 16163 
14994 14995 16100 16099 15059 15060 16165 16164 
14995 14996 16101 16100 15060 15061 16166 16165 
14996 14997 16102 16101 15061 15062 16167 16166 
14997 14998 16103 16102 15062 15063 16168 16167 
14998 14999 16104 16103 15063 15064 16169 16168 
14999 15000 16105 16104 15064 15065 16170 16169 
15000 15001 16106 16105 15065 15066 16171 16170 
15001 15002 16107 16106 15066 15067 16172 16171 
15002 15003 16108 16107 15067 15068 16173 16172 
15003 15004 16109 16108 15068 15069 16174 16173 
15004 15005 16110 16109 15069 15070 16175 16174 
15005 15006 16111 16110 15070 15071 16176 16175 
15006 15007 16112 16111 15071 15072 16177 16176 
15007 15008 16113 16112 15072 15073 16178 16177 
15008 15009 16114 16113 15073 15074 16179 16178 
15009 15010 16115 16114 15074 15075 16180 16179 
15010 15011 16116 16115 15075 15076 16181 16180 
15011 15012 16117 16116 15076 15077 16182 16181 
15012 15013 16118 16117 15077 15078 16183 16182 
15013 15014 16119 16118 15078 15079 16184 16183 
15015 15016 16121 16120 15080 15081 16186 16185 
15016 15017 16122 16121 15081 15082 16187 16186 
15017 15018 16123 16122 15082 15083 16188 16187 
15018 15019 16124 16123 15083 15084 16189 16188 
15019 15020 16125 16124 15084 15085 16190 16189 
15020 15021 16126 16125 15085 15086 16191 16190 
15021 15022 16127 16126 15086 15087 16192 16191 
15022 15023 16128 16127 15087 15088 16193 16192 
15023 15024 16129 16128 15088 15089 16194 16193 
15024 15025 16130 16129 15089 15090 16195 16194 
15025 15026 16131 16130 15090 15091 16196 16195 
15026 15027 16132 16131 15091 15092 16197 16196 
15027 15028 16133 16132 15092 15093 16198 16197 
15028 15029 16134 16133 15093 15094 16199 16198 
15029 15030 16135 16134 15094 15095 16200 16199 
15030 15031 16136 16135 15095 15096 16201 16200 
15031 15032 16137 16136 15096 15097 16202 16201 
15032 15033 16138 16137 15097 15098 16203 16202 
15033 15034 16139 16138 15098 15099 16204 16203 
15034 15035 16140 16139 15099 15100 16205 16204 
15035 15036 16141 16140 15100 15101 16206 16205 
15036 15037 16142 16141 15101 15102 16207 16206 
15037 15038 16143 16142 15102 15103 16208 16207 
15038 15039 16144 16143 15103 15104 16209 16208 
15039 15040 16145 16144 15104 15105 16210 16209 
15040 15041 16146 16145 15105 15106 16211 16210 
15041 15042 16147 16146 15106 15107 16212 16211 
15042 15043 16148 16147 15107 15108 16213 16212 
15043 15044 16149 16148 15108 15109 16214 16213 
15044 15045 16150 16149 15109 15110 16215 16214 
15045 15046 16151 16150 15110 15111 16216 16215 
15046 15047 16152 16151 15111 15112 16217 16216 
15047 15048 16153 16152 15112 15113 16218 16217 
15048 15049 16154 16153 15113 15114 16219 16218 
15049 15050 16155 16154 15114 15115 16220 16219 
15050 15051 16156 16155 15115 15116 16221 16220 
15051 15052 16157 16156 15116 15117 16222 16221 
15052 15053 16158 16157 15117 15118 16223 16222 
15053 15054 16159 16158 15118 15119 16224 16223 
15054 15055 16160 16159 15119 15120 16225 16224 
15055 15056 16161 16160 15120 15121 16226 16225 
15056 15057 16162 16161 15121 15122 16227 16226 
15057 15058 16163 16162 15122 15123 16228 16227 
15058 15059 16164 16163 15123 15124 16229 16228 
15059 15060 16165 16164 15124 15125 16230 16229 
15060 15061 16166 16165 15125 15126 16231 16230 
15061 15062 16167 16166 15126 15127 16232 16231 
15062 15063 16168 16167 15127 15128 16233 16232 
15063 15064 16169 16168 15128 15129 16234 16233 
15064 15065 16170 16169 15129 15130 16235 16234 
15065 15066 16171 16170 15130 15131 16236 16235 
15066 15067 16172 16171 15131 15132 16237 16236 
15067 15068 16173 16172 15132 15133 16238 16237 
15068 15069 16174 16173 15133 15134 16239 16238 
15069 15070 16175 16174 15134 15135 16240 16239 
15070 15071 16176 16175 15135 15136 16241 16240 
15071 15072 16177 16176 15136 15137 16242 16241 
15072 15073 16178 16177 15137 15138 16243 16242 
15073 15074 16179 16178 15138 15139 16244 16243 
15074 15075 16180 16179 15139 15140 16245 16244 
15075 15076 16181 16180 15140 15141 16246 16245 
15076 15077 16182 16181 15141 15142 16247 16246 
15077 15078 16183 16182 15142 15143 16248 16247 
15078 15079 16184 16183 15143 15144 16249 16248 
15080 15081 16186 16185 15145 15146 16251 16250 
15081 15082 16187 16186 15146 15147 16252 16251 
15082 15083 16188 16187 15147 15148 16253 16252 
15083 15084 16189 16188 15148 15149 16254 16253 
15084 15085 16190 16189 15149 15150 16255 16254 
15085 15086 16191 16190 15150 15151 16256 16255 
15086 15087 16192 16191 15151 15152 16257 16256 
15087 15088 16193 16192 15152 15153 16258 16257 
15088 15089 16194 16193 15153 15154 16259 16258 
15089 15090 16195 16194 15154 15155 16260 16259 
15090 15091 16196 16195 15155 15156 16261 16260 
15091 15092 16197 16196 15156 15157 16262 16261 
15092 15093 16198 16197 15157 15158 16263 16262 
15093 15094 16199 16198 15158 15159 16264 16263 
15094 15095 16200 16199 15159 15160 16265 16264 
15095 15096 16201 16200 15160 15161 16266 16265 
15096 15097 16202 16201 15161 15162 16267 16266 
15097 15098 16203 16202 15162 15163 16268 16267 
15098 15099 16204 16203 15163 15164 16269 16268 
15099 15100 16205 16204 15164 15165 16270 16269 
15100 15101 16206 16205 15165 15166 16271 16270 
15101 15102 16207 16206 15166 15167 16272 16271 
15102 15103 16208 16207 15167 15168 16273 16272 
15103 15104 16209 16208 15168 15169 16274 16273 
15104 15105 16210 16209 15169 15170 16275 16274 
15105 15106 16211 16210 15170 15171 16276 16275 
15106 15107 16212 16211 15171 15172 16277 16276 
15107 15108 16213 16212 15172 15173 16278 16277 
15108 15109 16214 16213 15173 15174 16279 16278 
15109 15110 16215 16214 15174 15175 16280 16279 
15110 15111 16216 16215 15175 15176 16281 16280 
15111 15112 16217 16216 15176 15177 16282 16281 
15112 15113 16218 16217 15177 15178 16283 16282 
15113 15114 16219 16218 15178 15179 16284 16283 
15114 15115 16220 16219 15179 15180 16285 16284 
15115 15116 16221 16220 15180 15181 16286 16285 
15116 15117 16222 16221 15181 15182 16287 16286 
15117 15118 16223 16222 15182 15183 16288 16287 
15118 15119 16224 16223 15183 15184 16289 16288 
15119 15120 16225 16224 15184 15185 16290 16289 
15120 15121 16226 16225 15185 15186 16291 16290 
15121 15122 16227 16226 15186 15187 16292 16291 
15122 15123 16228 16227 15187 15188 16293 16292 
15123 15124 16229 16228 15188 15189 16294 16293 
15124 15125 16230 16229 15189 15190 16295 16294 
15125 15126 16231 16230 15190 15191 16296 16295 
15126 15127 16232 16231 15191 15192 16297 16296 
15127 15128 16233 16232 15192 15193 16298 16297 
15128 15129 16234 16233 15193 15194 16299 16298 
15129 15130 16235 16234 15194 15195 16300 16299 
15130 15131 16236 16235 15195 15196 16301 16300 
15131 15132 16237 16236 15196 15197 16302 16301 
15132 15133 16238 16237 15197 15198 16303 16302 
15133 15134 16239 16238 15198 15199 16304 16303 
15134 15135 16240 16239 15199 15200 16305 16304 
15135 15136 16241 16240 15200 15201 16306 16305 
15136 15137 16242 16241 15201 15202 16307 16306 
15137 15138 16243 16242 15202 15203 16308 16307 
15138 15139 16244 16243 15203 15204 16309 16308 
15139 15140 16245 16244 15204 15205 16310 16309 
15140 15141 16246 16245 15205 15206 16311 16310 
15141 15142 16247 16246 15206 15207 16312 16311 
15142 15143 16248 16247 15207 15208 16313 16312 
15143 15144 16249 16248 15208 15209 16314 16313 
15145 15146 16251 16250 15210 15211 16316 16315 
15146 15147 16252 16251 15211 15212 16317 16316 
15147 15148 16253 16252 15212 15213 16318 16317 
15148 15149 16254 16253 15213 15214 16319 16318 
15149 15150 16255 16254 15214 15215 16320 16319 
15150 15151 16256 16255 15215 15216 16321 16320 
15151 15152 16257 16256 15216 15217 16322 16321 
15152 15153 16258 16257 15217 15218 16323 16322 
15153 15154 16259 16258 15218 15219 16324 16323 
15154 15155 16260 16259 15219 15220 16325 16324 
15155 15156 16261 16260 15220 15221 16326 16325 
15156 15157 16262 16261 15221 15222 16327 16326 
15157 15158 16263 16262 15222 15223 16328 16327 
15158 15159 16264 16263 15223 15224 16329 16328 
15159 15160 16265 16264 15224 15225 16330 16329 
15160 15161 16266 16265 15225 15226 16331 16330 
15161 15162 16267 16266 15226 15227 16332 16331 
15162 15163 16268 16267 15227 15228 16333 16332 
15163 15164 16269 16268 15228 15229 16334 16333 
15164 15165 16270 16269 15229 15230 16335 16334 
15165 15166 16271 16270 15230 15231 16336 16335 
15166 15167 16272 16271 15231 15232 16337 16336 
15167 15168 16273 16272 15232 15233 16338 16337 
15168 15169 16274 16273 15233 15234 16339 16338 
15169 15170 16275 16274 15234 15235 16340 16339 
15170 15171 16276 16275 15235 15236 16341 16340 
15171 15172 16277 16276 15236 15237 16342 16341 
15172 15173 16278 16277 15237 15238 16343 16342 
15173 15174 16279 16278 15238 15239 16344 16343 
15174 15175 16280 16279 15239 15240 16345 16344 
15175 15176 16281 16280 15240 15241 16346 16345 
15176 15177 16282 16281 15241 15242 16347 16346 
15177 15178 16283 16282 15242 15243 16348 16347 
15178 15179 16284 16283 15243 15244 16349 16348 
15179 15180 16285 16284 15244 15245 16350 16349 
15180 15181 16286 16285 15245 15246 16351 16350 
15181 15182 16287 16286 15246 15247 16352 16351 
15182 15183 16288 16287 15247 15248 16353 16352 
15183 15184 16289 16288 15248 15249 16354 16353 
15184 15185 16290 16289 15249 15250 16355 16354 
15185 15186 16291 16290 15250 15251 16356 16355 
15186 15187 16292 16291 15251 15252 16357 16356 
15187 15188 16293 16292 15252 15253 16358 16357 
15188 15189 16294 16293 15253 15254 16359 16358 
15189 15190 16295 16294 15254 15255 16360 16359 
15190 15191 16296 16295 15255 15256 16361 16360 
15191 15192 16297 16296 15256 15257 16362 16361 
15192 15193 16298 16297 15257 15258 16363 16362 
15193 15194 16299 16298 15258 15259 16364 16363 
15194 15195 16300 16299 15259 15260 16365 16364 
15195 15196 16301 16300 15260 15261 16366 16365 
15196 15197 16302 16301 15261 15262 16367 16366 
15197 15198 16303 16302 15262 15263 16368 16367 
15198 15199 16304 16303 15263 15264 16369 16368 
15199 15200 16305 16304 15264 15265 16370 16369 
15200 15201 16306 16305 15265 15266 16371 16370 
15201 15202 16307 16306 15266 15267 16372 16371 
15202 15203 16308 16307 15267 15268 16373 16372 
15203 15204 16309 16308 15268 15269 16374 16373 
15204 15205 16310 16309 15269 15270 16375 16374 
15205 15206 16311 16310 15270 15271 16376 16375 
15206 15207 16312 16311 15271 15272 16377 16376 
15207 15208 16313 16312 15272 15273 16378 16377 
15208 15209 16314 16313 15273 15274 16379 16378 
15210 15211 16316 16315 15275 15276 16381 16380 
15211 15212 16317 16316 15276 15277 16382 16381 
15212 15213 16318 16317 15277 15278 16383 16382 
15213 15214 16319 16318 15278 15279 16384 16383 
15214 15215 16320 16319 15279 15280 16385 16384 
15215 15216 16321 16320 15280 15281 16386 16385 
15216 15217 16322 16321 15281 15282 16387 16386 
15217 15218 16323 16322 15282 15283 16388 16387 
15218 15219 16324 16323 15283 15284 16389 16388 
15219 15220 16325 16324 15284 15285 16390 16389 
15220 15221 16326 16325 15285 15286 16391 16390 
15221 15222 16327 16326 15286 15287 16392 16391 
15222 15223 16328 16327 15287 15288 16393 16392 
15223 15224 16329 16328 15288 15289 16394 16393 
15224 15225 16330 16329 15289 15290 16395 16394 
15225 15226 16331 16330 15290 15291 16396 16395 
15226 15227 16332 16331 15291 15292 16397 16396 
15227 15228 16333 16332 15292 15293 16398 16397 
15228 15229 16334 16333 15293 15294 16399 16398 
15229 15230 16335 16334 15294 15295 16400 16399 
15230 15231 16336 16335 15295 15296 16401 16400 
15231 15232 16337 16336 15296 15297 16402 16401 
15232 15233 16338 16337 15297 15298 16403 16402 
15233 15234 16339 16338 15298 15299 16404 16403 
15234 15235 16340 16339 15299 15300 16405 16404 
15235 15236 16341 16340 15300 15301 16406 16405 
15236 15237 16342 16341 15301 15302 16407 16406 
15237 15238 16343 16342 15302 15303 16408 16407 
15238 15239 16344 16343 15303 15304 16409 16408 
15239 15240 16345 16344 15304 15305 16410 16409 
15240 15241 16346 16345 15305 15306 16411 16410 
15241 15242 16347 16346 15306 15307 16412 16411 
15242 15243 16348 16347 15307 15308 16413 16412 
15243 15244 16349 16348 15308 15309 16414 16413 
15244 15245 16350 16349 15309 15310 16415 16414 
15245 15246 16351 16350 15310 15311 16416 16415 
15246 15247 16352 16351 15311 15312 16417 16416 
15247 15248 16353 16352 15312 15313 16418 16417 
15248 15249 16354 16353 15313 15314 16419 16418 
15249 15250 16355 16354 15314 15315 16420 16419 
15250 15251 16356 16355 15315 15316 16421 16420 
15251 15252 16357 16356 15316 15317 16422 16421 
15252 15253 16358 16357 15317 15318 16423 16422 
15253 15254 16359 16358 15318 15319 16424 16423 
15254 15255 16360 16359 15319 15320 16425 16424 
15255 15256 16361 16360 15320 15321 16426 16425 
15256 15257 16362 16361 15321 15322 16427 16426 
15257 15258 16363 16362 15322 15323 16428 16427 
15258 15259 16364 16363 15323 15324 16429 16428 
15259 15260 16365 16364 15324 15325 16430 16429 
15260 15261 16366 16365 15325 15326 16431 16430 
15261 15262 16367 16366 15326 15327 16432 16431 
15262 15263 16368 16367 15327 15328 16433 16432 
15263 15264 16369 16368 15328 15329 16434 16433 
15264 15265 16370 16369 15329 15330 16435 16434 
15265 15266 16371 16370 15330 15331 16436 16435 
15266 15267 16372 16371 15331 15332 16437 16436 
15267 15268 16373 16372 15332 15333 16438 16437 
15268 15269 16374 16373 15333 15334 16439 16438 
15269 15270 16375 16374 15334 15335 16440 16439 
15270 15271 16376 16375 15335 15336 16441 16440 
15271 15272 16377 16376 15336 15337 16442 16441 
15272 15273 16378 16377 15337 15338 16443 16442 
15273 15274 16379 16378 15338 15339 16444 16443 
15275 15276 16381 16380 15340 15341 16446 16445 
15276 15277 16382 16381 15341 15342 16447 16446 
15277 15278 16383 16382 15342 15343 16448 16447 
15278 15279 16384 16383 15343 15344 16449 16448 
15279 15280 16385 16384 15344 15345 16450 16449 
15280 15281 16386 16385 15345 15346 16451 16450 
15281 15282 16387 16386 15346 15347 16452 16451 
15282 15283 16388 16387 15347 15348 16453 16452 
15283 15284 16389 16388 15348 15349 16454 16453 
15284 15285 16390 16389 15349 15350 16455 16454 
15285 15286 16391 16390 15350 15351 16456 16455 
15286 15287 16392 16391 15351 15352 16457 16456 
15287 15288 16393 16392 15352 15353 16458 16457 
15288 15289 16394 16393 15353 15354 16459 16458 
15289 15290 16395 16394 15354 15355 16460 16459 
15290 15291 16396 16395 15355 15356 16461 16460 
15291 15292 16397 16396 15356 15357 16462 16461 
15292 15293 16398 16397 15357 15358 16463 16462 
15293 15294 16399 16398 15358 15359 16464 16463 
15294 15295 16400 16399 15359 15360 16465 16464 
15295 15296 16401 16400 15360 15361 16466 16465 
15296 15297 16402 16401 15361 15362 16467 16466 
15297 15298 16403 16402 15362 15363 16468 16467 
15298 15299 16404 16403 15363 15364 16469 16468 
15299 15300 16405 16404 15364 15365 16470 16469 
15300 15301 16406 16405 15365 15366 16471 16470 
15301 15302 16407 16406 15366 15367 16472 16471 
15302 15303 16408 16407 15367 15368 16473 16472 
15303 15304 16409 16408 15368 15369 16474 16473 
15304 15305 16410 16409 15369 15370 16475 16474 
15305 15306 16411 16410 15370 15371 16476 16475 
15306 15307 16412 16411 15371 15372 16477 16476 
15307 15308 16413 16412 15372 15373 16478 16477 
15308 15309 16414 16413 15373 15374 16479 16478 
15309 15310 16415 16414 15374 15375 16480 16479 
15310 15311 16416 16415 15375 15376 16481 16480 
15311 15312 16417 16416 15376 15377 16482 16481 
15312 15313 16418 16417 15377 15378 16483 16482 
15313 15314 16419 16418 15378 15379 16484 16483 
15314 15315 16420 16419 15379 15380 16485 16484 
15315 15316 16421 16420 15380 15381 16486 16485 
15316 15317 16422 16421 15381 15382 16487 16486 
15317 15318 16423 16422 15382 15383 16488 16487 
15318 15319 16424 16423 15383 15384 16489 16488 
15319 15320 16425 16424 15384 15385 16490 16489 
15320 15321 16426 16425 15385 15386 16491 16490 
15321 15322 16427 16426 15386 15387 16492 16491 
15322 15323 16428 16427 15387 15388 16493 16492 
15323 15324 16429 16428 15388 15389 16494 16493 
15324 15325 16430 16429 15389 15390 16495 16494 
15325 15326 16431 16430 15390 15391 16496 16495 
15326 15327 16432 16431 15391 15392 16497 16496 
15327 15328 16433 16432 15392 15393 16498 16497 
15328 15329 16434 16433 15393 15394 16499 16498 
15329 15330 16435 16434 15394 15395 16500 16499 
15330 15331 16436 16435 15395 15396 16501 16500 
15331 15332 16437 16436 15396 15397 16502 16501 
15332 15333 16438 16437 15397 15398 16503 16502 
15333 15334 16439 16438 15398 15399 16504 16503 
15334 15335 16440 16439 15399 15400 16505 16504 
15335 15336 16441 16440 15400 15401 16506 16505 
15336 15337 16442 16441 15401 15402 16507 16506 
15337 15338 16443 16442 15402 15403 16508 16507 
15338 15339 16444 16443 15403 15404 16509 16508 
15340 15341 16446 16445 15405 15406 16511 16510 
15341 15342 16447 16446 15406 15407 16512 16511 
15342 15343 16448 16447 15407 15408 16513 16512 
15343 15344 16449 16448 15408 15409 16514 16513 
15344 15345 16450 16449 15409 15410 16515 16514 
15345 15346 16451 16450 15410 15411 16516 16515 
15346 15347 16452 16451 15411 15412 16517 16516 
15347 15348 16453 16452 15412 15413 16518 16517 
15348 15349 16454 16453 15413 15414 16519 16518 
15349 15350 16455 16454 15414 15415 16520 16519 
15350 15351 16456 16455 15415 15416 16521 16520 
15351 15352 16457 16456 15416 15417 16522 16521 
15352 15353 16458 16457 15417 15418 16523 16522 
15353 15354 16459 16458 15418 15419 16524 16523 
15354 15355 16460 16459 15419 15420 16525 16524 
15355 15356 16461 16460 15420 15421 16526 16525 
15356 15357 16462 16461 15421 15422 16527 16526 
15357 15358 16463 16462 15422 15423 16528 16527 
15358 15359 16464 16463 15423 15424 16529 16528 
15359 15360 16465 16464 15424 15425 16530 16529 
15360 15361 16466 16465 15425 15426 16531 16530 
15361 15362 16467 16466 15426 15427 16532 16531 
15362 15363 16468 16467 15427 15428 16533 16532 
15363 15364 16469 16468 15428 15429 16534 16533 
15364 15365 16470 16469 15429 15430 16535 16534 
15365 15366 16471 16470 15430 15431 16536 16535 
15366 15367 16472 16471 15431 15432 16537 16536 
15367 15368 16473 16472 15432 15433 16538 16537 
15368 15369 16474 16473 15433 15434 16539 16538 
15369 15370 16475 16474 15434 15435 16540 16539 
15370 15371 16476 16475 15435 15436 16541 16540 
15371 15372 16477 16476 15436 15437 16542 16541 
15372 15373 16478 16477 15437 15438 16543 16542 
15373 15374 16479 16478 15438 15439 16544 16543 
15374 15375 16480 16479 15439 15440 16545 16544 
15375 15376 16481 16480 15440 15441 16546 16545 
15376 15377 16482 16481 15441 15442 16547 16546 
15377 15378 16483 16482 15442 15443 16548 16547 
15378 15379 16484 16483 15443 15444 16549 16548 
15379 15380 16485 16484 15444 15445 16550 16549 
15380 15381 16486 16485 15445 15446 16551 16550 
15381 15382 16487 16486 15446 15447 16552 16551 
15382 15383 16488 16487 15447 15448 16553 16552 
15383 15384 16489 16488 15448 15449 16554 16553 
15384 15385 16490 16489 15449 15450 16555 16554 
15385 15386 16491 16490 15450 15451 16556 16555 
15386 15387 16492 16491 15451 15452 16557 16556 
15387 15388 16493 16492 15452 15453 16558 16557 
15388 15389 16494 16493 15453 15454 16559 16558 
15389 15390 16495 16494 15454 15455 16560 16559 
15390 15391 16496 16495 15455 15456 16561 16560 
15391 15392 16497 16496 15456 15457 16562 16561 
15392 15393 16498 16497 15457 15458 16563 16562 
15393 15394 16499 16498 15458 15459 16564 16563 
15394 15395 16500 16499 15459 15460 16565 16564 
15395 15396 16501 16500 15460 15461 16566 16565 
15396 15397 16502 16501 15461 15462 16567 16566 
15397 15398 16503 16502 15462 15463 16568 16567 
15398 15399 16504 16503 15463 15464 16569 16568 
15399 15400 16505 16504 15464 15465 16570 16569 
15400 15401 16506 16505 15465 15466 16571 16570 
15401 15402 16507 16506 15466 15467 16572 16571 
15402 15403 16508 16507 15467 15468 16573 16572 
15403 15404 16509 16508 15468 15469 16574 16573 
15470 15471 16576 16575 15535 15536 16641 16640 
15471 15472 16577 16576 15536 15537 16642 16641 
15472 15473 16578 16577 15537 15538 16643 16642 
15473 15474 16579 16578 15538 15539 16644 16643 
15474 15475 16580 16579 15539 15540 16645 16644 
15475 15476 16581 16580 15540 15541 16646 16645 
15476 15477 16582 16581 15541 15542 16647 16646 
15477 15478 16583 16582 15542 15543 16648 16647 
15478 15479 16584 16583 15543 15544 16649 16648 
15479 15480 16585 16584 15544 15545 16650 16649 
15480 15481 16586 16585 15545 15546 16651 16650 
15481 15482 16587 16586 15546 15547 16652 16651 
15482 15483 16588 16587 15547 15548 16653 16652 
15483 15484 16589 16588 15548 15549 16654 16653 
15484 15485 16590 16589 15549 15550 16655 16654 
15485 15486 16591 16590 15550 15551 16656 16655 
15486 15487 16592 16591 15551 15552 16657 16656 
15487 15488 16593 16592 15552 15553 16658 16657 
15488 15489 16594 16593 15553 15554 16659 16658 
15489 15490 16595 16594 15554 15555 16660 16659 
15490 15491 16596 16595 15555 15556 16661 16660 
15491 15492 16597 16596 15556 15557 16662 16661 
15492 15493 16598 16597 15557 15558 16663 16662 
15493 15494 16599 16598 15558 15559 16664 16663 
15494 15495 16600 16599 15559 15560 16665 16664 
15495 15496 16601 16600 15560 15561 16666 16665 
15496 15497 16602 16601 15561 15562 16667 16666 
15497 15498 16603 16602 15562 15563 16668 16667 
15498 15499 16604 16603 15563 15564 16669 16668 
15499 15500 16605 16604 15564 15565 16670 16669 
15500 15501 16606 16605 15565 15566 16671 16670 
15501 15502 16607 16606 15566 15567 16672 16671 
15502 15503 16608 16607 15567 15568 16673 16672 
15503 15504 16609 16608 15568 15569 16674 16673 
15504 15505 16610 16609 15569 15570 16675 16674 
15505 15506 16611 16610 15570 15571 16676 16675 
15506 15507 16612 16611 15571 15572 16677 16676 
15507 15508 16613 16612 15572 15573 16678 16677 
15508 15509 16614 16613 15573 15574 16679 16678 
15509 15510 16615 16614 15574 15575 16680 16679 
15510 15511 16616 16615 15575 15576 16681 16680 
15511 15512 16617 16616 15576 15577 16682 16681 
15512 15513 16618 16617 15577 15578 16683 16682 
15513 15514 16619 16618 15578 15579 16684 16683 
15514 15515 16620 16619 15579 15580 16685 16684 
15515 15516 16621 16620 15580 15581 16686 16685 
15516 15517 16622 16621 15581 15582 16687 16686 
15517 15518 16623 16622 15582 15583 16688 16687 
15518 15519 16624 16623 15583 15584 16689 16688 
15519 15520 16625 16624 15584 15585 16690 16689 
15520 15521 16626 16625 15585 15586 16691 16690 
15521 15522 16627 16626 15586 15587 16692 16691 
15522 15523 16628 16627 15587 15588 16693 16692 
15523 15524 16629 16628 15588 15589 16694 16693 
15524 15525 16630 16629 15589 15590 16695 16694 
15525 15526 16631 16630 15590 15591 16696 16695 
15526 15527 16632 16631 15591 15592 16697 16696 
15527 15528 16633 16632 15592 15593 16698 16697 
15528 15529 16634 16633 15593 15594 16699 16698 
15529 15530 16635 16634 15594 15595 16700 16699 
15530 15531 16636 16635 15595 15596 16701 16700 
15531 15532 16637 16636 15596 15597 16702 16701 
15532 15533 16638 16637 15597 15598 16703 16702 
15533 15534 16639 16638 15598 15599 16704 16703 
15535 15536 16641 16640 15600 15601 16706 16705 
15536 15537 16642 16641 15601 15602 16707 16706 
15537 15538 16643 16642 15602 15603 16708 16707 
15538 15539 16644 16643 15603 15604 16709 16708 
15539 15540 16645 16644 15604 15605 16710 16709 
15540 15541 16646 16645 15605 15606 16711 16710 
15541 15542 16647 16646 15606 15607 16712 16711 
15542 15543 16648 16647 15607 15608 16713 16712 
15543 15544 16649 16648 15608 15609 16714 16713 
15544 15545 16650 16649 15609 15610 16715 16714 
15545 15546 16651 16650 15610 15611 16716 16715 
15546 15547 16652 16651 15611 15612 16717 16716 
15547 15548 16653 16652 15612 15613 16718 16717 
15548 15549 16654 16653 15613 15614 16719 16718 
15549 15550 16655 16654 15614 15615 16720 16719 
15550 15551 16656 16655 15615 15616 16721 16720 
15551 15552 16657 16656 15616 15617 16722 16721 
15552 15553 16658 16657 15617 15618 16723 16722 
15553 15554 16659 16658 15618 15619 16724 16723 
15554 15555 16660 16659 15619 15620 16725 16724 
15555 15556 16661 16660 15620 15621 16726 16725 
15556 15557 16662 16661 15621 15622 16727 16726 
15557 15558 16663 16662 15622 15623 16728 16727 
15558 15559 16664 16663 15623 15624 16729 16728 
15559 15560 16665 16664 15624 15625 16730 16729 
15560 15561 16666 16665 15625 15626 16731 16730 
15561 15562 16667 16666 15626 15627 16732 16731 
15562 15563 16668 16667 15627 15628 16733 16732 
15563 15564 16669 16668 15628 15629 16734 16733 
15564 15565 16670 16669 15629 15630 16735 16734 
15565 15566 16671 16670 15630 15631 16736 16735 
15566 15567 16672 16671 15631 15632 16737 16736 
15567 15568 16673 16672 15632 15633 16738 16737 
15568 15569 16674 16673 15633 15634 16739 16738 
15569 15570 16675 16674 15634 15635 16740 16739 
15570 15571 16676 16675 15635 15636 16741 16740 
15571 15572 16677 16676 15636 15637 16742 16741 
15572 15573 16678 16677 15637 15638 16743 16742 
15573 15574 16679 16678 15638 15639 16744 16743 
15574 15575 16680 16679 15639 15640 16745 16744 
15575 15576 16681 16680 15640 15641 16746 16745 
15576 15577 16682 16681 15641 15642 16747 16746 
15577 15578 16683 16682 15642 15643 16748 16747 
15578 15579 16684 16683 15643 15644 16749 16748 
15579 15580 16685 16684 15644 15645 16750 16749 
15580 15581 16686 16685 15645 15646 16751 16750 
15581 15582 16687 16686 15646 15647 16752 16751 
15582 15583 16688 16687 15647 15648 16753 16752 
15583 15584 16689 16688 15648 15649 16754 16753 
15584 15585 16690 16689 15649 15650 16755 16754 
15585 15586 16691 16690 15650 15651 16756 16755 
15586 15587 16692 16691 15651 15652 16757 16756 
15587 15588 16693 16692 15652 15653 16758 16757 
15588 15589 16694 16693 15653 15654 16759 16758 
15589 15590 16695 16694 15654 15655 16760 16759 
15590 15591 16696 16695 15655 15656 16761 16760 
15591 15592 16697 16696 15656 15657 16762 16761 
15592 15593 16698 16697 15657 15658 16763 16762 
15593 15594 16699 16698 15658 15659 16764 16763 
15594 15595 16700 16699 15659 15660 16765 16764 
15595 15596 16701 16700 15660 15661 16766 16765 
15596 15597 16702 16701 15661 15662 16767 16766 
15597 15598 16703 16702 15662 15663 16768 16767 
15598 15599 16704 16703 15663 15664 16769 16768 
15600 15601 16706 16705 15665 15666 16771 16770 
15601 15602 16707 16706 15666 15667 16772 16771 
15602 15603 16708 16707 15667 15668 16773 16772 
15603 15604 16709 16708 15668 15669 16774 16773 
15604 15605 16710 16709 15669 15670 16775 16774 
15605 15606 16711 16710 15670 15671 16776 16775 
15606 15607 16712 16711 15671 15672 16777 16776 
15607 15608 16713 16712 15672 15673 16778 16777 
15608 15609 16714 16713 15673 15674 16779 16778 
15609 15610 16715 16714 15674 15675 16780 16779 
15610 15611 16716 16715 15675 15676 16781 16780 
15611 15612 16717 16716 15676 15677 16782 16781 
15612 15613 16718 16717 15677 15678 16783 16782 
15613 15614 16719 16718 15678 15679 16784 16783 
15614 15615 16720 16719 15679 15680 16785 16784 
15615 15616 16721 16720 15680 15681 16786 16785 
15616 15617 16722 16721 15681 15682 16787 16786 
15617 15618 16723 16722 15682 15683 16788 16787 
15618 15619 16724 16723 15683 15684 16789 16788 
15619 15620 16725 16724 15684 15685 16790 16789 
15620 15621 16726 16725 15685 15686 16791 16790 
15621 15622 16727 16726 15686 15687 16792 16791 
15622 15623 16728 16727 15687 15688 16793 16792 
15623 15624 16729 16728 15688 15689 16794 16793 
15624 15625 16730 16729 15689 15690 16795 16794 
15625 15626 16731 16730 15690 15691 16796 16795 
15626 15627 16732 16731 15691 15692 16797 16796 
15627 15628 16733 16732 15692 15693 16798 16797 
15628 15629 16734 16733 15693 15694 16799 16798 
15629 15630 16735 16734 15694 15695 16800 16799 
15630 15631 16736 16735 15695 15696 16801 16800 
15631 15632 16737 16736 15696 15697 16802 16801 
15632 15633 16738 16737 15697 15698 16803 16802 
15633 15634 16739 16738 15698 15699 16804 16803 
15634 15635 16740 16739 15699 15700 16805 16804 
15635 15636 16741 16740 15700 15701 16806 16805 
15636 15637 16742 16741 15701 15702 16807 16806 
15637 15638 16743 16742 15702 15703 16808 16807 
15638 15639 16744 16743 15703 15704 16809 16808 
15639 15640 16745 16744 15704 15705 16810 16809 
15640 15641 16746 16745 15705 15706 16811 16810 
15641 15642 16747 16746 15706 15707 16812 16811 
15642 15643 16748 16747 15707 15708 16813 16812 
15643 15644 16749 16748 15708 15709 16814 16813 
15644 15645 16750 16749 15709 15710 16815 16814 
15645 15646 16751 16750 15710 15711 16816 16815 
15646 15647 16752 16751 15711 15712 16817 16816 
15647 15648 16753 16752 15712 15713 16818 16817 
15648 15649 16754 16753 15713 15714 16819 16818 
15649 15650 16755 16754 15714 15715 16820 16819 
15650 15651 16756 16755 15715 15716 16821 16820 
15651 15652 16757 16756 15716 15717 16822 16821 
15652 15653 16758 16757 15717 15718 16823 16822 
15653 15654 16759 16758 15718 15719 16824 16823 
15654 15655 16760 16759 15719 15720 16825 16824 
15655 15656 16761 16760 15720 15721 16826 16825 
15656 15657 16762 16761 15721 15722 16827 16826 
15657 15658 16763 16762 15722 15723 16828 16827 
15658 15659 16764 16763 15723 15724 16829 16828 
15659 15660 16765 16764 15724 15725 16830 16829 
15660 15661 16766 16765 15725 15726 16831 16830 
15661 15662 16767 16766 15726 15727 16832 16831 
15662 15663 16768 16767 15727 15728 16833 16832 
15663 15664 16769 16768 15728 15729 16834 16833 
15665 15666 16771 16770 15730 15731 16836 16835 
15666 15667 16772 16771 15731 15732 16837 16836 
15667 15668 16773 16772 15732 15733 16838 16837 
15668 15669 16774 16773 15733 15734 16839 16838 
15669 15670 16775 16774 15734 15735 16840 16839 
15670 15671 16776 16775 15735 15736 16841 16840 
15671 15672 16777 16776 15736 15737 16842 16841 
15672 15673 16778 16777 15737 15738 16843 16842 
15673 15674 16779 16778 15738 15739 16844 16843 
15674 15675 16780 16779 15739 15740 16845 16844 
15675 15676 16781 16780 15740 15741 16846 16845 
15676 15677 16782 16781 15741 15742 16847 16846 
15677 15678 16783 16782 15742 15743 16848 16847 
15678 15679 16784 16783 15743 15744 16849 16848 
15679 15680 16785 16784 15744 15745 16850 16849 
15680 15681 16786 16785 15745 15746 16851 16850 
15681 15682 16787 16786 15746 15747 16852 16851 
15682 15683 16788 16787 15747 15748 16853 16852 
15683 15684 16789 16788 15748 15749 16854 16853 
15684 15685 16790 16789 15749 15750 16855 16854 
15685 15686 16791 16790 15750 15751 16856 16855 
15686 15687 16792 16791 15751 15752 16857 16856 
15687 15688 16793 16792 15752 15753 16858 16857 
15688 15689 16794 16793 15753 15754 16859 16858 
15689 15690 16795 16794 15754 15755 16860 16859 
15690 15691 16796 16795 15755 15756 16861 16860 
15691 15692 16797 16796 15756 15757 16862 16861 
15692 15693 16798 16797 15757 15758 16863 16862 
15693 15694 16799 16798 15758 15759 16864 16863 
15694 15695 16800 16799 15759 15760 16865 16864 
15695 15696 16801 16800 15760 15761 16866 16865 
15696 15697 16802 16801 15761 15762 16867 16866 
15697 15698 16803 16802 15762 15763 16868 16867 
15698 15699 16804 16803 15763 15764 16869 16868 
15699 15700 16805 16804 15764 15765 16870 16869 
15700 15701 16806 16805 15765 15766 16871 16870 
15701 15702 16807 16806 15766 15767 16872 16871 
15702 15703 16808 16807 15767 15768 16873 16872 
15703 15704 16809 16808 15768 15769 16874 16873 
15704 15705 16810 16809 15769 15770 16875 16874 
15705 15706 16811 16810 15770 15771 16876 16875 
15706 15707 16812 16811 15771 15772 16877 16876 
15707 15708 16813 16812 15772 15773 16878 16877 
15708 15709 16814 16813 15773 15774 16879 16878 
15709 15710 16815 16814 15774 15775 16880 16879 
15710 15711 16816 16815 15775 15776 16881 16880 
15711 15712 16817 16816 15776 15777 16882 16881 
15712 15713 16818 16817 15777 15778 16883 16882 
15713 15714 16819 16818 15778 15779 16884 16883 
15714 15715 16820 16819 15779 15780 16885 16884 
15715 15716 16821 16820 15780 15781 16886 16885 
15716 15717 16822 16821 15781 15782 16887 16886 
15717 15718 16823 16822 15782 15783 16888 16887 
15718 15719 16824 16823 15783 15784 16889 16888 
15719 15720 16825 16824 15784 15785 16890 16889 
15720 15721 16826 16825 15785 15786 16891 16890 
15721 15722 16827 16826 15786 15787 16892 16891 
15722 15723 16828 16827 15787 15788 16893 16892 
15723 15724 16829 16828 15788 15789 16894 16893 
15724 15725 16830 16829 15789 15790 16895 16894 
15725 15726 16831 16830 15790 15791 16896 16895 
15726 15727 16832 16831 15791 15792 16897 16896 
15727 15728 16833 16832 15792 15793 16898 16897 
15728 15729 16834 16833 15793 15794 16899 16898 
15730 15731 16836 16835 15795 15796 16901 16900 
15731 15732 16837 16836 15796 15797 16902 16901 
15732 15733 16838 16837 15797 15798 16903 16902 
15733 15734 16839 16838 15798 15799 16904 16903 
15734 15735 16840 16839 15799 15800 16905 16904 
15735 15736 16841 16840 15800 15801 16906 16905 
15736 15737 16842 16841 15801 15802 16907 16906 
15737 15738 16843 16842 15802 15803 16908 16907 
15738 15739 16844 16843 15803 15804 16909 16908 
15739 15740 16845 16844 15804 15805 16910 16909 
15740 15741 16846 16845 15805 15806 16911 16910 
15741 15742 16847 16846 15806 15807 16912 16911 
15742 15743 16848 16847 15807 15808 16913 16912 
15743 15744 16849 16848 15808 15809 16914 16913 
15744 15745 16850 16849 15809 15810 16915 16914 
15745 15746 16851 16850 15810 15811 16916 16915 
15746 15747 16852 16851 15811 15812 16917 16916 
15747 15748 16853 16852 15812 15813 16918 16917 
15748 15749 16854 16853 15813 15814 16919 16918 
15749 15750 16855 16854 15814 15815 16920 16919 
15750 15751 16856 16855 15815 15816 16921 16920 
15751 15752 16857 16856 15816 15817 16922 16921 
15752 15753 16858 16857 15817 15818 16923 16922 
15753 15754 16859 16858 15818 15819 16924 16923 
15754 15755 16860 16859 15819 15820 16925 16924 
15755 15756 16861 16860 15820 15821 16926 16925 
15756 15757 16862 16861 15821 15822 16927 16926 
15757 15758 16863 16862 15822 15823 16928 16927 
15758 15759 16864 16863 15823 15824 16929 16928 
15759 15760 16865 16864 15824 15825 16930 16929 
15760 15761 16866 16865 15825 15826 16931 16930 
15761 15762 16867 16866 15826 15827 16932 16931 
15762 15763 16868 16867 15827 15828 16933 16932 
15763 15764 16869 16868 15828 15829 16934 16933 
15764 15765 16870 16869 15829 15830 16935 16934 
15765 15766 16871 16870 15830 15831 16936 16935 
15766 15767 16872 16871 15831 15832 16937 16936 
15767 15768 16873 16872 15832 15833 16938 16937 
15768 15769 16874 16873 15833 15834 16939 16938 
15769 15770 16875 16874 15834 15835 16940 16939 
15770 15771 16876 16875 15835 15836 16941 16940 
15771 15772 16877 16876 15836 15837 16942 16941 
15772 15773 16878 16877 15837 15838 16943 16942 
15773 15774 16879 16878 15838 15839 16944 16943 
15774 15775 16880 16879 15839 15840 16945 16944 
15775 15776 16881 16880 15840 15841 16946 16945 
15776 15777 16882 16881 15841 15842 16947 16946 
15777 15778 16883 16882 15842 15843 16948 16947 
15778 15779 16884 16883 15843 15844 16949 16948 
15779 15780 16885 16884 15844 15845 16950 16949 
15780 15781 16886 16885 15845 15846 16951 16950 
15781 15782 16887 16886 15846 15847 16952 16951 
15782 15783 16888 16887 15847 15848 16953 16952 
15783 15784 16889 16888 15848 15849 16954 16953 
15784 15785 16890 16889 15849 15850 16955 16954 
15785 15786 16891 16890 15850 15851 16956 16955 
15786 15787 16892 16891 15851 15852 16957 16956 
15787 15788 16893 16892 15852 15853 16958 16957 
15788 15789 16894 16893 15853 15854 16959 16958 
15789 15790 16895 16894 15854 15855 16960 16959 
15790 15791 16896 16895 15855 15856 16961 16960 
15791 15792 16897 16896 15856 15857 16962 16961 
15792 15793 16898 16897 15857 15858 16963 16962 
15793 15794 16899 16898 15858 15859 16964 16963 
15795 15796 16901 16900 15860 15861 16966 16965 
15796 15797 16902 16901 15861 15862 16967 16966 
15797 15798 16903 16902 15862 15863 16968 16967 
15798 15799 16904 16903 15863 15864 16969 16968 
15799 15800 16905 16904 15864 15865 16970 16969 
15800 15801 16906 16905 15865 15866 16971 16970 
15801 15802 16907 16906 15866 15867 16972 16971 
15802 15803 16908 16907 15867 15868 16973 16972 
15803 15804 16909 16908 15868 15869 16974 16973 
15804 15805 16910 16909 15869 15870 16975 16974 
15805 15806 16911 16910 15870 15871 16976 16975 
15806 15807 16912 16911 15871 15872 16977 16976 
15807 15808 16913 16912 15872 15873 16978 16977 
15808 15809 16914 16913 15873 15874 16979 16978 
15809 15810 16915 16914 15874 15875 16980 16979 
15810 15811 16916 16915 15875 15876 16981 16980 
15811 15812 16917 16916 15876 15877 16982 16981 
15812 15813 16918 16917 15877 15878 16983 16982 
15813 15814 16919 16918 15878 15879 16984 16983 
15814 15815 16920 16919 15879 15880 16985 16984 
15815 15816 16921 16920 15880 15881 16986 16985 
15816 15817 16922 16921 15881 15882 16987 16986 
15817 15818 16923 16922 15882 15883 16988 16987 
15818 15819 16924 16923 15883 15884 16989 16988 
15819 15820 16925 16924 15884 15885 16990 16989 
15820 15821 16926 16925 15885 15886 16991 16990 
15821 15822 16927 16926 15886 15887 16992 16991 
15822 15823 16928 16927 15887 15888 16993 16992 
15823 15824 16929 16928 15888 15889 16994 16993 
15824 15825 16930 16929 15889 15890 16995 16994 
15825 15826 16931 16930 15890 15891 16996 16995 
15826 15827 16932 16931 15891 15892 16997 16996 
15827 15828 16933 16932 15892 15893 16998 16997 
15828 15829 16934 16933 15893 15894 16999 16998 
15829 15830 16935 16934 15894 15895 17000 16999 
15830 15831 16936 16935 15895 15896 17001 17000 
15831 15832 16937 16936 15896 15897 17002 17001 
15832 15833 16938 16937 15897 15898 17003 17002 
15833 15834 16939 16938 15898 15899 17004 17003 
15834 15835 16940 16939 15899 15900 17005 17004 
15835 15836 16941 16940 15900 15901 17006 17005 
15836 15837 16942 16941 15901 15902 17007 17006 
15837 15838 16943 16942 15902 15903 17008 17007 
15838 15839 16944 16943 15903 15904 17009 17008 
15839 15840 16945 16944 15904 15905 17010 17009 
15840 15841 16946 16945 15905 15906 17011 17010 
15841 15842 16947 16946 15906 15907 17012 17011 
15842 15843 16948 16947 15907 15908 17013 17012 
15843 15844 16949 16948 15908 15909 17014 17013 
15844 15845 16950 16949 15909 15910 17015 17014 
15845 15846 16951 16950 15910 15911 17016 17015 
15846 15847 16952 16951 15911 15912 17017 17016 
15847 15848 16953 16952 15912 15913 17018 17017 
15848 15849 16954 16953 15913 15914 17019 17018 
15849 15850 16955 16954 15914 15915 17020 17019 
15850 15851 16956 16955 15915 15916 17021 17020 
15851 15852 16957 16956 15916 15917 17022 17021 
15852 15853 16958 16957 15917 15918 17023 17022 
15853 15854 16959 16958 15918 15919 17024 17023 
15854 15855 16960 16959 15919 15920 17025 17024 
15855 15856 16961 16960 15920 15921 17026 17025 
15856 15857 16962 16961 15921 15922 17027 17026 
15857 15858 16963 16962 15922 15923 17028 17027 
15858 15859 16964 16963 15923 15924 17029 17028 
15860 15861 16966 16965 15925 15926 17031 17030 
15861 15862 16967 16966 15926 15927 17032 17031 
15862 15863 16968 16967 15927 15928 17033 17032 
15863 15864 16969 16968 15928 15929 17034 17033 
15864 15865 16970 16969 15929 15930 17035 17034 
15865 15866 16971 16970 15930 15931 17036 17035 
15866 15867 16972 16971 15931 15932 17037 17036 
15867 15868 16973 16972 15932 15933 17038 17037 
15868 15869 16974 16973 15933 15934 17039 17038 
15869 15870 16975 16974 15934 15935 17040 17039 
15870 15871 16976 16975 15935 15936 17041 17040 
15871 15872 16977 16976 15936 15937 17042 17041 
15872 15873 16978 16977 15937 15938 17043 17042 
15873 15874 16979 16978 15938 15939 17044 17043 
15874 15875 16980 16979 15939 15940 17045 17044 
15875 15876 16981 16980 15940 15941 17046 17045 
15876 15877 16982 16981 15941 15942 17047 17046 
15877 15878 16983 16982 15942 15943 17048 17047 
15878 15879 16984 16983 15943 15944 17049 17048 
15879 15880 16985 16984 15944 15945 17050 17049 
15880 15881 16986 16985 15945 15946 17051 17050 
15881 15882 16987 16986 15946 15947 17052 17051 
15882 15883 16988 16987 15947 15948 17053 17052 
15883 15884 16989 16988 15948 15949 17054 17053 
15884 15885 16990 16989 15949 15950 17055 17054 
15885 15886 16991 16990 15950 15951 17056 17055 
15886 15887 16992 16991 15951 15952 17057 17056 
15887 15888 16993 16992 15952 15953 17058 17057 
15888 15889 16994 16993 15953 15954 17059 17058 
15889 15890 16995 16994 15954 15955 17060 17059 
15890 15891 16996 16995 15955 15956 17061 17060 
15891 15892 16997 16996 15956 15957 17062 17061 
15892 15893 16998 16997 15957 15958 17063 17062 
15893 15894 16999 16998 15958 15959 17064 17063 
15894 15895 17000 16999 15959 15960 17065 17064 
15895 15896 17001 17000 15960 15961 17066 17065 
15896 15897 17002 17001 15961 15962 17067 17066 
15897 15898 17003 17002 15962 15963 17068 17067 
15898 15899 17004 17003 15963 15964 17069 17068 
15899 15900 17005 17004 15964 15965 17070 17069 
15900 15901 17006 17005 15965 15966 17071 17070 
15901 15902 17007 17006 15966 15967 17072 17071 
15902 15903 17008 17007 15967 15968 17073 17072 
15903 15904 17009 17008 15968 15969 17074 17073 
15904 15905 17010 17009 15969 15970 17075 17074 
15905 15906 17011 17010 15970 15971 17076 17075 
15906 15907 17012 17011 15971 15972 17077 17076 
15907 15908 17013 17012 15972 15973 17078 17077 
15908 15909 17014 17013 15973 15974 17079 17078 
15909 15910 17015 17014 15974 15975 17080 17079 
15910 15911 17016 17015 15975 15976 17081 17080 
15911 15912 17017 17016 15976 15977 17082 17081 
15912 15913 17018 17017 15977 15978 17083 17082 
15913 15914 17019 17018 15978 15979 17084 17083 
15914 15915 17020 17019 15979 15980 17085 17084 
15915 15916 17021 17020 15980 15981 17086 17085 
15916 15917 17022 17021 15981 15982 17087 17086 
15917 15918 17023 17022 15982 15983 17088 17087 
15918 15919 17024 17023 15983 15984 17089 17088 
15919 15920 17025 17024 15984 15985 17090 17089 
15920 15921 17026 17025 15985 15986 17091 17090 
15921 15922 17027 17026 15986 15987 17092 17091 
15922 15923 17028 17027 15987 15988 17093 17092 
15923 15924 17029 17028 15988 15989 17094 17093 
15925 15926 17031 17030 15990 15991 17096 17095 
15926 15927 17032 17031 15991 15992 17097 17096 
15927 15928 17033 17032 15992 15993 17098 17097 
15928 15929 17034 17033 15993 15994 17099 17098 
15929 15930 17035 17034 15994 15995 17100 17099 
15930 15931 17036 17035 15995 15996 17101 17100 
15931 15932 17037 17036 15996 15997 17102 17101 
15932 15933 17038 17037 15997 15998 17103 17102 
15933 15934 17039 17038 15998 15999 17104 17103 
15934 15935 17040 17039 15999 16000 17105 17104 
15935 15936 17041 17040 16000 16001 17106 17105 
15936 15937 17042 17041 16001 16002 17107 17106 
15937 15938 17043 17042 16002 16003 17108 17107 
15938 15939 17044 17043 16003 16004 17109 17108 
15939 15940 17045 17044 16004 16005 17110 17109 
15940 15941 17046 17045 16005 16006 17111 17110 
15941 15942 17047 17046 16006 16007 17112 17111 
15942 15943 17048 17047 16007 16008 17113 17112 
15943 15944 17049 17048 16008 16009 17114 17113 
15944 15945 17050 17049 16009 16010 17115 17114 
15945 15946 17051 17050 16010 16011 17116 17115 
15946 15947 17052 17051 16011 16012 17117 17116 
15947 15948 17053 17052 16012 16013 17118 17117 
15948 15949 17054 17053 16013 16014 17119 17118 
15949 15950 17055 17054 16014 16015 17120 17119 
15950 15951 17056 17055 16015 16016 17121 17120 
15951 15952 17057 17056 16016 16017 17122 17121 
15952 15953 17058 17057 16017 16018 17123 17122 
15953 15954 17059 17058 16018 16019 17124 17123 
15954 15955 17060 17059 16019 16020 17125 17124 
15955 15956 17061 17060 16020 16021 17126 17125 
15956 15957 17062 17061 16021 16022 17127 17126 
15957 15958 17063 17062 16022 16023 17128 17127 
15958 15959 17064 17063 16023 16024 17129 17128 
15959 15960 17065 17064 16024 16025 17130 17129 
15960 15961 17066 17065 16025 16026 17131 17130 
15961 15962 17067 17066 16026 16027 17132 17131 
15962 15963 17068 17067 16027 16028 17133 17132 
15963 15964 17069 17068 16028 16029 17134 17133 
15964 15965 17070 17069 16029 16030 17135 17134 
15965 15966 17071 17070 16030 16031 17136 17135 
15966 15967 17072 17071 16031 16032 17137 17136 
15967 15968 17073 17072 16032 16033 17138 17137 
15968 15969 17074 17073 16033 16034 17139 17138 
15969 15970 17075 17074 16034 16035 17140 17139 
15970 15971 17076 17075 16035 16036 17141 17140 
15971 15972 17077 17076 16036 16037 17142 17141 
15972 15973 17078 17077 16037 16038 17143 17142 
15973 15974 17079 17078 16038 16039 17144 17143 
15974 15975 17080 17079 16039 16040 17145 17144 
15975 15976 17081 17080 16040 16041 17146 17145 
15976 15977 17082 17081 16041 16042 17147 17146 
15977 15978 17083 17082 16042 16043 17148 17147 
15978 15979 17084 17083 16043 16044 17149 17148 
15979 15980 17085 17084 16044 16045 17150 17149 
15980 15981 17086 17085 16045 16046 17151 17150 
15981 15982 17087 17086 16046 16047 17152 17151 
15982 15983 17088 17087 16047 16048 17153 17152 
15983 15984 17089 17088 16048 16049 17154 17153 
15984 15985 17090 17089 16049 16050 17155 17154 
15985 15986 17091 17090 16050 16051 17156 17155 
15986 15987 17092 17091 16051 16052 17157 17156 
15987 15988 17093 17092 16052 16053 17158 17157 
15988 15989 17094 17093 16053 16054 17159 17158 
15990 15991 17096 17095 16055 16056 17161 17160 
15991 15992 17097 17096 16056 16057 17162 17161 
15992 15993 17098 17097 16057 16058 17163 17162 
15993 15994 17099 17098 16058 16059 17164 17163 
15994 15995 17100 17099 16059 16060 17165 17164 
15995 15996 17101 17100 16060 16061 17166 17165 
15996 15997 17102 17101 16061 16062 17167 17166 
15997 15998 17103 17102 16062 16063 17168 17167 
15998 15999 17104 17103 16063 16064 17169 17168 
15999 16000 17105 17104 16064 16065 17170 17169 
16000 16001 17106 17105 16065 16066 17171 17170 
16001 16002 17107 17106 16066 16067 17172 17171 
16002 16003 17108 17107 16067 16068 17173 17172 
16003 16004 17109 17108 16068 16069 17174 17173 
16004 16005 17110 17109 16069 16070 17175 17174 
16005 16006 17111 17110 16070 16071 17176 17175 
16006 16007 17112 17111 16071 16072 17177 17176 
16007 16008 17113 17112 16072 16073 17178 17177 
16008 16009 17114 17113 16073 16074 17179 17178 
16009 16010 17115 17114 16074 16075 17180 17179 
16010 16011 17116 17115 16075 16076 17181 17180 
16011 16012 17117 17116 16076 16077 17182 17181 
16012 16013 17118 17117 16077 16078 17183 17182 
16013 16014 17119 17118 16078 16079 17184 17183 
16014 16015 17120 17119 16079 16080 17185 17184 
16015 16016 17121 17120 16080 16081 17186 17185 
16016 16017 17122 17121 16081 16082 17187 17186 
16017 16018 17123 17122 16082 16083 17188 17187 
16018 16019 17124 17123 16083 16084 17189 17188 
16019 16020 17125 17124 16084 16085 17190 17189 
16020 16021 17126 17125 16085 16086 17191 17190 
16021 16022 17127 17126 16086 16087 17192 17191 
16022 16023 17128 17127 16087 16088 17193 17192 
16023 16024 17129 17128 16088 16089 17194 17193 
16024 16025 17130 17129 16089 16090 17195 17194 
16025 16026 17131 17130 16090 16091 17196 17195 
16026 16027 17132 17131 16091 16092 17197 17196 
16027 16028 17133 17132 16092 16093 17198 17197 
16028 16029 17134 17133 16093 16094 17199 17198 
16029 16030 17135 17134 16094 16095 17200 17199 
16030 16031 17136 17135 16095 16096 17201 17200 
16031 16032 17137 17136 16096 16097 17202 17201 
16032 16033 17138 17137 16097 16098 17203 17202 
16033 16034 17139 17138 16098 16099 17204 17203 
16034 16035 17140 17139 16099 16100 17205 17204 
16035 16036 17141 17140 16100 16101 17206 17205 
16036 16037 17142 17141 16101 16102 17207 17206 
16037 16038 17143 17142 16102 16103 17208 17207 
16038 16039 17144 17143 16103 16104 17209 17208 
16039 16040 17145 17144 16104 16105 17210 17209 
16040 16041 17146 17145 16105 16106 17211 17210 
16041 16042 17147 17146 16106 16107 17212 17211 
16042 16043 17148 17147 16107 16108 17213 17212 
16043 16044 17149 17148 16108 16109 17214 17213 
16044 16045 17150 17149 16109 16110 17215 17214 
16045 16046 17151 17150 16110 16111 17216 17215 
16046 16047 17152 17151 16111 16112 17217 17216 
16047 16048 17153 17152 16112 16113 17218 17217 
16048 16049 17154 17153 16113 16114 17219 17218 
16049 16050 17155 17154 16114 16115 17220 17219 
16050 16051 17156 17155 16115 16116 17221 17220 
16051 16052 17157 17156 16116 16117 17222 17221 
16052 16053 17158 17157 16117 16118 17223 17222 
16053 16054 17159 17158 16118 16119 17224 17223 
16055 16056 17161 17160 16120 16121 17226 17225 
16056 16057 17162 17161 16121 16122 17227 17226 
16057 16058 17163 17162 16122 16123 17228 17227 
16058 16059 17164 17163 16123 16124 17229 17228 
16059 16060 17165 17164 16124 16125 17230 17229 
16060 16061 17166 17165 16125 16126 17231 17230 
16061 16062 17167 17166 16126 16127 17232 17231 
16062 16063 17168 17167 16127 16128 17233 17232 
16063 16064 17169 17168 16128 16129 17234 17233 
16064 16065 17170 17169 16129 16130 17235 17234 
16065 16066 17171 17170 16130 16131 17236 17235 
16066 16067 17172 17171 16131 16132 17237 17236 
16067 16068 17173 17172 16132 16133 17238 17237 
16068 16069 17174 17173 16133 16134 17239 17238 
16069 16070 17175 17174 16134 16135 17240 17239 
16070 16071 17176 17175 16135 16136 17241 17240 
16071 16072 17177 17176 16136 16137 17242 17241 
16072 16073 17178 17177 16137 16138 17243 17242 
16073 16074 17179 17178 16138 16139 17244 17243 
16074 16075 17180 17179 16139 16140 17245 17244 
16075 16076 17181 17180 16140 16141 17246 17245 
16076 16077 17182 17181 16141 16142 17247 17246 
16077 16078 17183 17182 16142 16143 17248 17247 
16078 16079 17184 17183 16143 16144 17249 17248 
16079 16080 17185 17184 16144 16145 17250 17249 
16080 16081 17186 17185 16145 16146 17251 17250 
16081 16082 17187 17186 16146 16147 17252 17251 
16082 16083 17188 17187 16147 16148 17253 17252 
16083 16084 17189 17188 16148 16149 17254 17253 
16084 16085 17190 17189 16149 16150 17255 17254 
16085 16086 17191 17190 16150 16151 17256 17255 
16086 16087 17192 17191 16151 16152 17257 17256 
16087 16088 17193 17192 16152 16153 17258 17257 
16088 16089 17194 17193 16153 16154 17259 17258 
16089 16090 17195 17194 16154 16155 17260 17259 
16090 16091 17196 17195 16155 16156 17261 17260 
16091 16092 17197 17196 16156 16157 17262 17261 
16092 16093 17198 17197 16157 16158 17263 17262 
16093 16094 17199 17198 16158 16159 17264 17263 
16094 16095 17200 17199 16159 16160 17265 17264 
16095 16096 17201 17200 16160 16161 17266 17265 
16096 16097 17202 17201 16161 16162 17267 17266 
16097 16098 17203 17202 16162 16163 17268 17267 
16098 16099 17204 17203 16163 16164 17269 17268 
16099 16100 17205 17204 16164 16165 17270 17269 
16100 16101 17206 17205 16165 16166 17271 17270 
16101 16102 17207 17206 16166 16167 17272 17271 
16102 16103 17208 17207 16167 16168 17273 17272 
16103 16104 17209 17208 16168 16169 17274 17273 
16104 16105 17210 17209 16169 16170 17275 17274 
16105 16106 17211 17210 16170 16171 17276 17275 
16106 16107 17212 17211 16171 16172 17277 17276 
16107 16108 17213 17212 16172 16173 17278 17277 
16108 16109 17214 17213 16173 16174 17279 17278 
16109 16110 17215 17214 16174 16175 17280 17279 
16110 16111 17216 17215 16175 16176 17281 17280 
16111 16112 17217 17216 16176 16177 17282 17281 
16112 16113 17218 17217 16177 16178 17283 17282 
16113 16114 17219 17218 16178 16179 17284 17283 
16114 16115 17220 17219 16179 16180 17285 17284 
16115 16116 17221 17220 16180 16181 17286 17285 
16116 16117 17222 17221 16181 16182 17287 17286 
16117 16118 17223 17222 16182 16183 17288 17287 
16118 16119 17224 17223 16183 16184 17289 17288 
16120 16121 17226 17225 16185 16186 17291 17290 
16121 16122 17227 17226 16186 16187 17292 17291 
16122 16123 17228 17227 16187 16188 17293 17292 
16123 16124 17229 17228 16188 16189 17294 17293 
16124 16125 17230 17229 16189 16190 17295 17294 
16125 16126 17231 17230 16190 16191 17296 17295 
16126 16127 17232 17231 16191 16192 17297 17296 
16127 16128 17233 17232 16192 16193 17298 17297 
16128 16129 17234 17233 16193 16194 17299 17298 
16129 16130 17235 17234 16194 16195 17300 17299 
16130 16131 17236 17235 16195 16196 17301 17300 
16131 16132 17237 17236 16196 16197 17302 17301 
16132 16133 17238 17237 16197 16198 17303 17302 
16133 16134 17239 17238 16198 16199 17304 17303 
16134 16135 17240 17239 16199 16200 17305 17304 
16135 16136 17241 17240 16200 16201 17306 17305 
16136 16137 17242 17241 16201 16202 17307 17306 
16137 16138 17243 17242 16202 16203 17308 17307 
16138 16139 17244 17243 16203 16204 17309 17308 
16139 16140 17245 17244 16204 16205 17310 17309 
16140 16141 17246 17245 16205 16206 17311 17310 
16141 16142 17247 17246 16206 16207 17312 17311 
16142 16143 17248 17247 16207 16208 17313 17312 
16143 16144 17249 17248 16208 16209 17314 17313 
16144 16145 17250 17249 16209 16210 17315 17314 
16145 16146 17251 17250 16210 16211 17316 17315 
16146 16147 17252 17251 16211 16212 17317 17316 
16147 16148 17253 17252 16212 16213 17318 17317 
16148 16149 17254 17253 16213 16214 17319 17318 
16149 16150 17255 17254 16214 16215 17320 17319 
16150 16151 17256 17255 16215 16216 17321 17320 
16151 16152 17257 17256 16216 16217 17322 17321 
16152 16153 17258 17257 16217 16218 17323 17322 
16153 16154 17259 17258 16218 16219 17324 17323 
16154 16155 17260 17259 16219 16220 17325 17324 
16155 16156 17261 17260 16220 16221 17326 17325 
16156 16157 17262 17261 16221 16222 17327 17326 
16157 16158 17263 17262 16222 16223 17328 17327 
16158 16159 17264 17263 16223 16224 17329 17328 
16159 16160 17265 17264 16224 16225 17330 17329 
16160 16161 17266 17265 16225 16226 17331 17330 
16161 16162 17267 17266 16226 16227 17332 17331 
16162 16163 17268 17267 16227 16228 17333 17332 
16163 16164 17269 17268 16228 16229 17334 17333 
16164 16165 17270 17269 16229 16230 17335 17334 
16165 16166 17271 17270 16230 16231 17336 17335 
16166 16167 17272 17271 16231 16232 17337 17336 
16167 16168 17273 17272 16232 16233 17338 17337 
16168 16169 17274 17273 16233 16234 17339 17338 
16169 16170 17275 17274 16234 16235 17340 17339 
16170 16171 17276 17275 16235 16236 17341 17340 
16171 16172 17277 17276 16236 16237 17342 17341 
16172 16173 17278 17277 16237 16238 17343 17342 
16173 16174 17279 17278 16238 16239 17344 17343 
16174 16175 17280 17279 16239 16240 17345 17344 
16175 16176 17281 17280 16240 16241 17346 17345 
16176 16177 17282 17281 16241 16242 17347 17346 
16177 16178 17283 17282 16242 16243 17348 17347 
16178 16179 17284 17283 16243 16244 17349 17348 
16179 16180 17285 17284 16244 16245 17350 17349 
16180 16181 17286 17285 16245 16246 17351 17350 
16181 16182 17287 17286 16246 16247 17352 17351 
16182 16183 17288 17287 16247 16248 17353 17352 
16183 16184 17289 17288 16248 16249 17354 17353 
16185 16186 17291 17290 16250 16251 17356 17355 
16186 16187 17292 17291 16251 16252 17357 17356 
16187 16188 17293 17292 16252 16253 17358 17357 
16188 16189 17294 17293 16253 16254 17359 17358 
16189 16190 17295 17294 16254 16255 17360 17359 
16190 16191 17296 17295 16255 16256 17361 17360 
16191 16192 17297 17296 16256 16257 17362 17361 
16192 16193 17298 17297 16257 16258 17363 17362 
16193 16194 17299 17298 16258 16259 17364 17363 
16194 16195 17300 17299 16259 16260 17365 17364 
16195 16196 17301 17300 16260 16261 17366 17365 
16196 16197 17302 17301 16261 16262 17367 17366 
16197 16198 17303 17302 16262 16263 17368 17367 
16198 16199 17304 17303 16263 16264 17369 17368 
16199 16200 17305 17304 16264 16265 17370 17369 
16200 16201 17306 17305 16265 16266 17371 17370 
16201 16202 17307 17306 16266 16267 17372 17371 
16202 16203 17308 17307 16267 16268 17373 17372 
16203 16204 17309 17308 16268 16269 17374 17373 
16204 16205 17310 17309 16269 16270 17375 17374 
16205 16206 17311 17310 16270 16271 17376 17375 
16206 16207 17312 17311 16271 16272 17377 17376 
16207 16208 17313 17312 16272 16273 17378 17377 
16208 16209 17314 17313 16273 16274 17379 17378 
16209 16210 17315 17314 16274 16275 17380 17379 
16210 16211 17316 17315 16275 16276 17381 17380 
16211 16212 17317 17316 16276 16277 17382 17381 
16212 16213 17318 17317 16277 16278 17383 17382 
16213 16214 17319 17318 16278 16279 17384 17383 
16214 16215 17320 17319 16279 16280 17385 17384 
16215 16216 17321 17320 16280 16281 17386 17385 
16216 16217 17322 17321 16281 16282 17387 17386 
16217 16218 17323 17322 16282 16283 17388 17387 
16218 16219 17324 17323 16283 16284 17389 17388 
16219 16220 17325 17324 16284 16285 17390 17389 
16220 16221 17326 17325 16285 16286 17391 17390 
16221 16222 17327 17326 16286 16287 17392 17391 
16222 16223 17328 17327 16287 16288 17393 17392 
16223 16224 17329 17328 16288 16289 17394 17393 
16224 16225 17330 17329 16289 16290 17395 17394 
16225 16226 17331 17330 16290 16291 17396 17395 
16226 16227 17332 17331 16291 16292 17397 17396 
16227 16228 17333 17332 16292 16293 17398 17397 
16228 16229 17334 17333 16293 16294 17399 17398 
16229 16230 17335 17334 16294 16295 17400 17399 
16230 16231 17336 17335 16295 16296 17401 17400 
16231 16232 17337 17336 16296 16297 17402 17401 
16232 16233 17338 17337 16297 16298 17403 17402 
16233 16234 17339 17338 16298 16299 17404 17403 
16234 16235 17340 17339 16299 16300 17405 17404 
16235 16236 17341 17340 16300 16301 17406 17405 
16236 16237 17342 17341 16301 16302 17407 17406 
16237 16238 17343 17342 16302 16303 17408 17407 
16238 16239 17344 17343 16303 16304 17409 17408 
16239 16240 17345 17344 16304 16305 17410 17409 
16240 16241 17346 17345 16305 16306 17411 17410 
16241 16242 17347 17346 16306 16307 17412 17411 
16242 16243 17348 17347 16307 16308 17413 17412 
16243 16244 17349 17348 16308 16309 17414 17413 
16244 16245 17350 17349 16309 16310 17415 17414 
16245 16246 17351 17350 16310 16311 17416 17415 
16246 16247 17352 17351 16311 16312 17417 17416 
16247 16248 17353 17352 16312 16313 17418 17417 
16248 16249 17354 17353 16313 16314 17419 17418 
16250 16251 17356 17355 16315 16316 17421 17420 
16251 16252 17357 17356 16316 16317 17422 17421 
16252 16253 17358 17357 16317 16318 17423 17422 
16253 16254 17359 17358 16318 16319 17424 17423 
16254 16255 17360 17359 16319 16320 17425 17424 
16255 16256 17361 17360 16320 16321 17426 17425 
16256 16257 17362 17361 16321 16322 17427 17426 
16257 16258 17363 17362 16322 16323 17428 17427 
16258 16259 17364 17363 16323 16324 17429 17428 
16259 16260 17365 17364 16324 16325 17430 17429 
16260 16261 17366 17365 16325 16326 17431 17430 
16261 16262 17367 17366 16326 16327 17432 17431 
16262 16263 17368 17367 16327 16328 17433 17432 
16263 16264 17369 17368 16328 16329 17434 17433 
16264 16265 17370 17369 16329 16330 17435 17434 
16265 16266 17371 17370 16330 16331 17436 17435 
16266 16267 17372 17371 16331 16332 17437 17436 
16267 16268 17373 17372 16332 16333 17438 17437 
16268 16269 17374 17373 16333 16334 17439 17438 
16269 16270 17375 17374 16334 16335 17440 17439 
16270 16271 17376 17375 16335 16336 17441 17440 
16271 16272 17377 17376 16336 16337 17442 17441 
16272 16273 17378 17377 16337 16338 17443 17442 
16273 16274 17379 17378 16338 16339 17444 17443 
16274 16275 17380 17379 16339 16340 17445 17444 
16275 16276 17381 17380 16340 16341 17446 17445 
16276 16277 17382 17381 16341 16342 17447 17446 
16277 16278 17383 17382 16342 16343 17448 17447 
16278 16279 17384 17383 16343 16344 17449 17448 
16279 16280 17385 17384 16344 16345 17450 17449 
16280 16281 17386 17385 16345 16346 17451 17450 
16281 16282 17387 17386 16346 16347 17452 17451 
16282 16283 17388 17387 16347 16348 17453 17452 
16283 16284 17389 17388 16348 16349 17454 17453 
16284 16285 17390 17389 16349 16350 17455 17454 
16285 16286 17391 17390 16350 16351 17456 17455 
16286 16287 17392 17391 16351 16352 17457 17456 
16287 16288 17393 17392 16352 16353 17458 17457 
16288 16289 17394 17393 16353 16354 17459 17458 
16289 16290 17395 17394 16354 16355 17460 17459 
16290 16291 17396 17395 16355 16356 17461 17460 
16291 16292 17397 17396 16356 16357 17462 17461 
16292 16293 17398 17397 16357 16358 17463 17462 
16293 16294 17399 17398 16358 16359 17464 17463 
16294 16295 17400 17399 16359 16360 17465 17464 
16295 16296 17401 17400 16360 16361 17466 17465 
16296 16297 17402 17401 16361 16362 17467 17466 
16297 16298 17403 17402 16362 16363 17468 17467 
16298 16299 17404 17403 16363 16364 17469 17468 
16299 16300 17405 17404 16364 16365 17470 17469 
16300 16301 17406 17405 16365 16366 17471 17470 
16301 16302 17407 17406 16366 16367 17472 17471 
16302 16303 17408 17407 16367 16368 17473 17472 
16303 16304 17409 17408 16368 16369 17474 17473 
16304 16305 17410 17409 16369 16370 17475 17474 
16305 16306 17411 17410 16370 16371 17476 17475 
16306 16307 17412 17411 16371 16372 17477 17476 
16307 16308 17413 17412 16372 16373 17478 17477 
16308 16309 17414 17413 16373 16374 17479 17478 
16309 16310 17415 17414 16374 16375 17480 17479 
16310 16311 17416 17415 16375 16376 17481 17480 
16311 16312 17417 17416 16376 16377 17482 17481 
16312 16313 17418 17417 16377 16378 17483 17482 
16313 16314 17419 17418 16378 16379 17484 17483 
16315 16316 17421 17420 16380 16381 17486 17485 
16316 16317 17422 17421 16381 16382 17487 17486 
16317 16318 17423 17422 16382 16383 17488 17487 
16318 16319 17424 17423 16383 16384 17489 17488 
16319 16320 17425 17424 16384 16385 17490 17489 
16320 16321 17426 17425 16385 16386 17491 17490 
16321 16322 17427 17426 16386 16387 17492 17491 
16322 16323 17428 17427 16387 16388 17493 17492 
16323 16324 17429 17428 16388 16389 17494 17493 
16324 16325 17430 17429 16389 16390 17495 17494 
16325 16326 17431 17430 16390 16391 17496 17495 
16326 16327 17432 17431 16391 16392 17497 17496 
16327 16328 17433 17432 16392 16393 17498 17497 
16328 16329 17434 17433 16393 16394 17499 17498 
16329 16330 17435 17434 16394 16395 17500 17499 
16330 16331 17436 17435 16395 16396 17501 17500 
16331 16332 17437 17436 16396 16397 17502 17501 
16332 16333 17438 17437 16397 16398 17503 17502 
16333 16334 17439 17438 16398 16399 17504 17503 
16334 16335 17440 17439 16399 16400 17505 17504 
16335 16336 17441 17440 16400 16401 17506 17505 
16336 16337 17442 17441 16401 16402 17507 17506 
16337 16338 17443 17442 16402 16403 17508 17507 
16338 16339 17444 17443 16403 16404 17509 17508 
16339 16340 17445 17444 16404 16405 17510 17509 
16340 16341 17446 17445 16405 16406 17511 17510 
16341 16342 17447 17446 16406 16407 17512 17511 
16342 16343 17448 17447 16407 16408 17513 17512 
16343 16344 17449 17448 16408 16409 17514 17513 
16344 16345 17450 17449 16409 16410 17515 17514 
16345 16346 17451 17450 16410 16411 17516 17515 
16346 16347 17452 17451 16411 16412 17517 17516 
16347 16348 17453 17452 16412 16413 17518 17517 
16348 16349 17454 17453 16413 16414 17519 17518 
16349 16350 17455 17454 16414 16415 17520 17519 
16350 16351 17456 17455 16415 16416 17521 17520 
16351 16352 17457 17456 16416 16417 17522 17521 
16352 16353 17458 17457 16417 16418 17523 17522 
16353 16354 17459 17458 16418 16419 17524 17523 
16354 16355 17460 17459 16419 16420 17525 17524 
16355 16356 17461 17460 16420 16421 17526 17525 
16356 16357 17462 17461 16421 16422 17527 17526 
16357 16358 17463 17462 16422 16423 17528 17527 
16358 16359 17464 17463 16423 16424 17529 17528 
16359 16360 17465 17464 16424 16425 17530 17529 
16360 16361 17466 17465 16425 16426 17531 17530 
16361 16362 17467 17466 16426 16427 17532 17531 
16362 16363 17468 17467 16427 16428 17533 17532 
16363 16364 17469 17468 16428 16429 17534 17533 
16364 16365 17470 17469 16429 16430 17535 17534 
16365 16366 17471 17470 16430 16431 17536 17535 
16366 16367 17472 17471 16431 16432 17537 17536 
16367 16368 17473 17472 16432 16433 17538 17537 
16368 16369 17474 17473 16433 16434 17539 17538 
16369 16370 17475 17474 16434 16435 17540 17539 
16370 16371 17476 17475 16435 16436 17541 17540 
16371 16372 17477 17476 16436 16437 17542 17541 
16372 16373 17478 17477 16437 16438 17543 17542 
16373 16374 17479 17478 16438 16439 17544 17543 
16374 16375 17480 17479 16439 16440 17545 17544 
16375 16376 17481 17480 16440 16441 17546 17545 
16376 16377 17482 17481 16441 16442 17547 17546 
16377 16378 17483 17482 16442 16443 17548 17547 
16378 16379 17484 17483 16443 16444 17549 17548 
16380 16381 17486 17485 16445 16446 17551 17550 
16381 16382 17487 17486 16446 16447 17552 17551 
16382 16383 17488 17487 16447 16448 17553 17552 
16383 16384 17489 17488 16448 16449 17554 17553 
16384 16385 17490 17489 16449 16450 17555 17554 
16385 16386 17491 17490 16450 16451 17556 17555 
16386 16387 17492 17491 16451 16452 17557 17556 
16387 16388 17493 17492 16452 16453 17558 17557 
16388 16389 17494 17493 16453 16454 17559 17558 
16389 16390 17495 17494 16454 16455 17560 17559 
16390 16391 17496 17495 16455 16456 17561 17560 
16391 16392 17497 17496 16456 16457 17562 17561 
16392 16393 17498 17497 16457 16458 17563 17562 
16393 16394 17499 17498 16458 16459 17564 17563 
16394 16395 17500 17499 16459 16460 17565 17564 
16395 16396 17501 17500 16460 16461 17566 17565 
16396 16397 17502 17501 16461 16462 17567 17566 
16397 16398 17503 17502 16462 16463 17568 17567 
16398 16399 17504 17503 16463 16464 17569 17568 
16399 16400 17505 17504 16464 16465 17570 17569 
16400 16401 17506 17505 16465 16466 17571 17570 
16401 16402 17507 17506 16466 16467 17572 17571 
16402 16403 17508 17507 16467 16468 17573 17572 
16403 16404 17509 17508 16468 16469 17574 17573 
16404 16405 17510 17509 16469 16470 17575 17574 
16405 16406 17511 17510 16470 16471 17576 17575 
16406 16407 17512 17511 16471 16472 17577 17576 
16407 16408 17513 17512 16472 16473 17578 17577 
16408 16409 17514 17513 16473 16474 17579 17578 
16409 16410 17515 17514 16474 16475 17580 17579 
16410 16411 17516 17515 16475 16476 17581 17580 
16411 16412 17517 17516 16476 16477 17582 17581 
16412 16413 17518 17517 16477 16478 17583 17582 
16413 16414 17519 17518 16478 16479 17584 17583 
16414 16415 17520 17519 16479 16480 17585 17584 
16415 16416 17521 17520 16480 16481 17586 17585 
16416 16417 17522 17521 16481 16482 17587 17586 
16417 16418 17523 17522 16482 16483 17588 17587 
16418 16419 17524 17523 16483 16484 17589 17588 
16419 16420 17525 17524 16484 16485 17590 17589 
16420 16421 17526 17525 16485 16486 17591 17590 
16421 16422 17527 17526 16486 16487 17592 17591 
16422 16423 17528 17527 16487 16488 17593 17592 
16423 16424 17529 17528 16488 16489 17594 17593 
16424 16425 17530 17529 16489 16490 17595 17594 
16425 16426 17531 17530 16490 16491 17596 17595 
16426 16427 17532 17531 16491 16492 17597 17596 
16427 16428 17533 17532 16492 16493 17598 17597 
16428 16429 17534 17533 16493 16494 17599 17598 
16429 16430 17535 17534 16494 16495 17600 17599 
16430 16431 17536 17535 16495 16496 17601 17600 
16431 16432 17537 17536 16496 16497 17602 17601 
16432 16433 17538 17537 16497 16498 17603 17602 
16433 16434 17539 17538 16498 16499 17604 17603 
16434 16435 17540 17539 16499 16500 17605 17604 
16435 16436 17541 17540 16500 16501 17606 17605 
16436 16437 17542 17541 16501 16502 17607 17606 
16437 16438 17543 17542 16502 16503 17608 17607 
16438 16439 17544 17543 16503 16504 17609 17608 
16439 16440 17545 17544 16504 16505 17610 17609 
16440 16441 17546 17545 16505 16506 17611 17610 
16441 16442 17547 17546 16506 16507 17612 17611 
16442 16443 17548 17547 16507 16508 17613 17612 
16443 16444 17549 17548 16508 16509 17614 17613 
16445 16446 17551 17550 16510 16511 17616 17615 
16446 16447 17552 17551 16511 16512 17617 17616 
16447 16448 17553 17552 16512 16513 17618 17617 
16448 16449 17554 17553 16513 16514 17619 17618 
16449 16450 17555 17554 16514 16515 17620 17619 
16450 16451 17556 17555 16515 16516 17621 17620 
16451 16452 17557 17556 16516 16517 17622 17621 
16452 16453 17558 17557 16517 16518 17623 17622 
16453 16454 17559 17558 16518 16519 17624 17623 
16454 16455 17560 17559 16519 16520 17625 17624 
16455 16456 17561 17560 16520 16521 17626 17625 
16456 16457 17562 17561 16521 16522 17627 17626 
16457 16458 17563 17562 16522 16523 17628 17627 
16458 16459 17564 17563 16523 16524 17629 17628 
16459 16460 17565 17564 16524 16525 17630 17629 
16460 16461 17566 17565 16525 16526 17631 17630 
16461 16462 17567 17566 16526 16527 17632 17631 
16462 16463 17568 17567 16527 16528 17633 17632 
16463 16464 17569 17568 16528 16529 17634 17633 
16464 16465 17570 17569 16529 16530 17635 17634 
16465 16466 17571 17570 16530 16531 17636 17635 
16466 16467 17572 17571 16531 16532 17637 17636 
16467 16468 17573 17572 16532 16533 17638 17637 
16468 16469 17574 17573 16533 16534 17639 17638 
16469 16470 17575 17574 16534 16535 17640 17639 
16470 16471 17576 17575 16535 16536 17641 17640 
16471 16472 17577 17576 16536 16537 17642 17641 
16472 16473 17578 17577 16537 16538 17643 17642 
16473 16474 17579 17578 16538 16539 17644 17643 
16474 16475 17580 17579 16539 16540 17645 17644 
16475 16476 17581 17580 16540 16541 17646 17645 
16476 16477 17582 17581 16541 16542 17647 17646 
16477 16478 17583 17582 16542 16543 17648 17647 
16478 16479 17584 17583 16543 16544 17649 17648 
16479 16480 17585 17584 16544 16545 17650 17649 
16480 16481 17586 17585 16545 16546 17651 17650 
16481 16482 17587 17586 16546 16547 17652 17651 
16482 16483 17588 17587 16547 16548 17653 17652 
16483 16484 17589 17588 16548 16549 17654 17653 
16484 16485 17590 17589 16549 16550 17655 17654 
16485 16486 17591 17590 16550 16551 17656 17655 
16486 16487 17592 17591 16551 16552 17657 17656 
16487 16488 17593 17592 16552 16553 17658 17657 
16488 16489 17594 17593 16553 16554 17659 17658 
16489 16490 17595 17594 16554 16555 17660 17659 
16490 16491 17596 17595 16555 16556 17661 17660 
16491 16492 17597 17596 16556 16557 17662 17661 
16492 16493 17598 17597 16557 16558 17663 17662 
16493 16494 17599 17598 16558 16559 17664 17663 
16494 16495 17600 17599 16559 16560 17665 17664 
16495 16496 17601 17600 16560 16561 17666 17665 
16496 16497 17602 17601 16561 16562 17667 17666 
16497 16498 17603 17602 16562 16563 17668 17667 
16498 16499 17604 17603 16563 16564 17669 17668 
16499 16500 17605 17604 16564 16565 17670 17669 
16500 16501 17606 17605 16565 16566 17671 17670 
16501 16502 17607 17606 16566 16567 17672 17671 
16502 16503 17608 17607 16567 16568 17673 17672 
16503 16504 17609 17608 16568 16569 17674 17673 
16504 16505 17610 17609 16569 16570 17675 17674 
16505 16506 17611 17610 16570 16571 17676 17675 
16506 16507 17612 17611 16571 16572 17677 17676 
16507 16508 17613 17612 16572 16573 17678 17677 
16508 16509 17614 17613 16573 16574 17679 17678 
16575 16576 17681 17680 16640 16641 17746 17745 
16576 16577 17682 17681 16641 16642 17747 17746 
16577 16578 17683 17682 16642 16643 17748 17747 
16578 16579 17684 17683 16643 16644 17749 17748 
16579 16580 17685 17684 16644 16645 17750 17749 
16580 16581 17686 17685 16645 16646 17751 17750 
16581 16582 17687 17686 16646 16647 17752 17751 
16582 16583 17688 17687 16647 16648 17753 17752 
16583 16584 17689 17688 16648 16649 17754 17753 
16584 16585 17690 17689 16649 16650 17755 17754 
16585 16586 17691 17690 16650 16651 17756 17755 
16586 16587 17692 17691 16651 16652 17757 17756 
16587 16588 17693 17692 16652 16653 17758 17757 
16588 16589 17694 17693 16653 16654 17759 17758 
16589 16590 17695 17694 16654 16655 17760 17759 
16590 16591 17696 17695 16655 16656 17761 17760 
16591 16592 17697 17696 16656 16657 17762 17761 
16592 16593 17698 17697 16657 16658 17763 17762 
16593 16594 17699 17698 16658 16659 17764 17763 
16594 16595 17700 17699 16659 16660 17765 17764 
16595 16596 17701 17700 16660 16661 17766 17765 
16596 16597 17702 17701 16661 16662 17767 17766 
16597 16598 17703 17702 16662 16663 17768 17767 
16598 16599 17704 17703 16663 16664 17769 17768 
16599 16600 17705 17704 16664 16665 17770 17769 
16600 16601 17706 17705 16665 16666 17771 17770 
16601 16602 17707 17706 16666 16667 17772 17771 
16602 16603 17708 17707 16667 16668 17773 17772 
16603 16604 17709 17708 16668 16669 17774 17773 
16604 16605 17710 17709 16669 16670 17775 17774 
16605 16606 17711 17710 16670 16671 17776 17775 
16606 16607 17712 17711 16671 16672 17777 17776 
16607 16608 17713 17712 16672 16673 17778 17777 
16608 16609 17714 17713 16673 16674 17779 17778 
16609 16610 17715 17714 16674 16675 17780 17779 
16610 16611 17716 17715 16675 16676 17781 17780 
16611 16612 17717 17716 16676 16677 17782 17781 
16612 16613 17718 17717 16677 16678 17783 17782 
16613 16614 17719 17718 16678 16679 17784 17783 
16614 16615 17720 17719 16679 16680 17785 17784 
16615 16616 17721 17720 16680 16681 17786 17785 
16616 16617 17722 17721 16681 16682 17787 17786 
16617 16618 17723 17722 16682 16683 17788 17787 
16618 16619 17724 17723 16683 16684 17789 17788 
16619 16620 17725 17724 16684 16685 17790 17789 
16620 16621 17726 17725 16685 16686 17791 17790 
16621 16622 17727 17726 16686 16687 17792 17791 
16622 16623 17728 17727 16687 16688 17793 17792 
16623 16624 17729 17728 16688 16689 17794 17793 
16624 16625 17730 17729 16689 16690 17795 17794 
16625 16626 17731 17730 16690 16691 17796 17795 
16626 16627 17732 17731 16691 16692 17797 17796 
16627 16628 17733 17732 16692 16693 17798 17797 
16628 16629 17734 17733 16693 16694 17799 17798 
16629 16630 17735 17734 16694 16695 17800 17799 
16630 16631 17736 17735 16695 16696 17801 17800 
16631 16632 17737 17736 16696 16697 17802 17801 
16632 16633 17738 17737 16697 16698 17803 17802 
16633 16634 17739 17738 16698 16699 17804 17803 
16634 16635 17740 17739 16699 16700 17805 17804 
16635 16636 17741 17740 16700 16701 17806 17805 
16636 16637 17742 17741 16701 16702 17807 17806 
16637 16638 17743 17742 16702 16703 17808 17807 
16638 16639 17744 17743 16703 16704 17809 17808 
16640 16641 17746 17745 16705 16706 17811 17810 
16641 16642 17747 17746 16706 16707 17812 17811 
16642 16643 17748 17747 16707 16708 17813 17812 
16643 16644 17749 17748 16708 16709 17814 17813 
16644 16645 17750 17749 16709 16710 17815 17814 
16645 16646 17751 17750 16710 16711 17816 17815 
16646 16647 17752 17751 16711 16712 17817 17816 
16647 16648 17753 17752 16712 16713 17818 17817 
16648 16649 17754 17753 16713 16714 17819 17818 
16649 16650 17755 17754 16714 16715 17820 17819 
16650 16651 17756 17755 16715 16716 17821 17820 
16651 16652 17757 17756 16716 16717 17822 17821 
16652 16653 17758 17757 16717 16718 17823 17822 
16653 16654 17759 17758 16718 16719 17824 17823 
16654 16655 17760 17759 16719 16720 17825 17824 
16655 16656 17761 17760 16720 16721 17826 17825 
16656 16657 17762 17761 16721 16722 17827 17826 
16657 16658 17763 17762 16722 16723 17828 17827 
16658 16659 17764 17763 16723 16724 17829 17828 
16659 16660 17765 17764 16724 16725 17830 17829 
16660 16661 17766 17765 16725 16726 17831 17830 
16661 16662 17767 17766 16726 16727 17832 17831 
16662 16663 17768 17767 16727 16728 17833 17832 
16663 16664 17769 17768 16728 16729 17834 17833 
16664 16665 17770 17769 16729 16730 17835 17834 
16665 16666 17771 17770 16730 16731 17836 17835 
16666 16667 17772 17771 16731 16732 17837 17836 
16667 16668 17773 17772 16732 16733 17838 17837 
16668 16669 17774 17773 16733 16734 17839 17838 
16669 16670 17775 17774 16734 16735 17840 17839 
16670 16671 17776 17775 16735 16736 17841 17840 
16671 16672 17777 17776 16736 16737 17842 17841 
16672 16673 17778 17777 16737 16738 17843 17842 
16673 16674 17779 17778 16738 16739 17844 17843 
16674 16675 17780 17779 16739 16740 17845 17844 
16675 16676 17781 17780 16740 16741 17846 17845 
16676 16677 17782 17781 16741 16742 17847 17846 
16677 16678 17783 17782 16742 16743 17848 17847 
16678 16679 17784 17783 16743 16744 17849 17848 
16679 16680 17785 17784 16744 16745 17850 17849 
16680 16681 17786 17785 16745 16746 17851 17850 
16681 16682 17787 17786 16746 16747 17852 17851 
16682 16683 17788 17787 16747 16748 17853 17852 
16683 16684 17789 17788 16748 16749 17854 17853 
16684 16685 17790 17789 16749 16750 17855 17854 
16685 16686 17791 17790 16750 16751 17856 17855 
16686 16687 17792 17791 16751 16752 17857 17856 
16687 16688 17793 17792 16752 16753 17858 17857 
16688 16689 17794 17793 16753 16754 17859 17858 
16689 16690 17795 17794 16754 16755 17860 17859 
16690 16691 17796 17795 16755 16756 17861 17860 
16691 16692 17797 17796 16756 16757 17862 17861 
16692 16693 17798 17797 16757 16758 17863 17862 
16693 16694 17799 17798 16758 16759 17864 17863 
16694 16695 17800 17799 16759 16760 17865 17864 
16695 16696 17801 17800 16760 16761 17866 17865 
16696 16697 17802 17801 16761 16762 17867 17866 
16697 16698 17803 17802 16762 16763 17868 17867 
16698 16699 17804 17803 16763 16764 17869 17868 
16699 16700 17805 17804 16764 16765 17870 17869 
16700 16701 17806 17805 16765 16766 17871 17870 
16701 16702 17807 17806 16766 16767 17872 17871 
16702 16703 17808 17807 16767 16768 17873 17872 
16703 16704 17809 17808 16768 16769 17874 17873 
16705 16706 17811 17810 16770 16771 17876 17875 
16706 16707 17812 17811 16771 16772 17877 17876 
16707 16708 17813 17812 16772 16773 17878 17877 
16708 16709 17814 17813 16773 16774 17879 17878 
16709 16710 17815 17814 16774 16775 17880 17879 
16710 16711 17816 17815 16775 16776 17881 17880 
16711 16712 17817 17816 16776 16777 17882 17881 
16712 16713 17818 17817 16777 16778 17883 17882 
16713 16714 17819 17818 16778 16779 17884 17883 
16714 16715 17820 17819 16779 16780 17885 17884 
16715 16716 17821 17820 16780 16781 17886 17885 
16716 16717 17822 17821 16781 16782 17887 17886 
16717 16718 17823 17822 16782 16783 17888 17887 
16718 16719 17824 17823 16783 16784 17889 17888 
16719 16720 17825 17824 16784 16785 17890 17889 
16720 16721 17826 17825 16785 16786 17891 17890 
16721 16722 17827 17826 16786 16787 17892 17891 
16722 16723 17828 17827 16787 16788 17893 17892 
16723 16724 17829 17828 16788 16789 17894 17893 
16724 16725 17830 17829 16789 16790 17895 17894 
16725 16726 17831 17830 16790 16791 17896 17895 
16726 16727 17832 17831 16791 16792 17897 17896 
16727 16728 17833 17832 16792 16793 17898 17897 
16728 16729 17834 17833 16793 16794 17899 17898 
16729 16730 17835 17834 16794 16795 17900 17899 
16730 16731 17836 17835 16795 16796 17901 17900 
16731 16732 17837 17836 16796 16797 17902 17901 
16732 16733 17838 17837 16797 16798 17903 17902 
16733 16734 17839 17838 16798 16799 17904 17903 
16734 16735 17840 17839 16799 16800 17905 17904 
16735 16736 17841 17840 16800 16801 17906 17905 
16736 16737 17842 17841 16801 16802 17907 17906 
16737 16738 17843 17842 16802 16803 17908 17907 
16738 16739 17844 17843 16803 16804 17909 17908 
16739 16740 17845 17844 16804 16805 17910 17909 
16740 16741 17846 17845 16805 16806 17911 17910 
16741 16742 17847 17846 16806 16807 17912 17911 
16742 16743 17848 17847 16807 16808 17913 17912 
16743 16744 17849 17848 16808 16809 17914 17913 
16744 16745 17850 17849 16809 16810 17915 17914 
16745 16746 17851 17850 16810 16811 17916 17915 
16746 16747 17852 17851 16811 16812 17917 17916 
16747 16748 17853 17852 16812 16813 17918 17917 
16748 16749 17854 17853 16813 16814 17919 17918 
16749 16750 17855 17854 16814 16815 17920 17919 
16750 16751 17856 17855 16815 16816 17921 17920 
16751 16752 17857 17856 16816 16817 17922 17921 
16752 16753 17858 17857 16817 16818 17923 17922 
16753 16754 17859 17858 16818 16819 17924 17923 
16754 16755 17860 17859 16819 16820 17925 17924 
16755 16756 17861 17860 16820 16821 17926 17925 
16756 16757 17862 17861 16821 16822 17927 17926 
16757 16758 17863 17862 16822 16823 17928 17927 
16758 16759 17864 17863 16823 16824 17929 17928 
16759 16760 17865 17864 16824 16825 17930 17929 
16760 16761 17866 17865 16825 16826 17931 17930 
16761 16762 17867 17866 16826 16827 17932 17931 
16762 16763 17868 17867 16827 16828 17933 17932 
16763 16764 17869 17868 16828 16829 17934 17933 
16764 16765 17870 17869 16829 16830 17935 17934 
16765 16766 17871 17870 16830 16831 17936 17935 
16766 16767 17872 17871 16831 16832 17937 17936 
16767 16768 17873 17872 16832 16833 17938 17937 
16768 16769 17874 17873 16833 16834 17939 17938 
16770 16771 17876 17875 16835 16836 17941 17940 
16771 16772 17877 17876 16836 16837 17942 17941 
16772 16773 17878 17877 16837 16838 17943 17942 
16773 16774 17879 17878 16838 16839 17944 17943 
16774 16775 17880 17879 16839 16840 17945 17944 
16775 16776 17881 17880 16840 16841 17946 17945 
16776 16777 17882 17881 16841 16842 17947 17946 
16777 16778 17883 17882 16842 16843 17948 17947 
16778 16779 17884 17883 16843 16844 17949 17948 
16779 16780 17885 17884 16844 16845 17950 17949 
16780 16781 17886 17885 16845 16846 17951 17950 
16781 16782 17887 17886 16846 16847 17952 17951 
16782 16783 17888 17887 16847 16848 17953 17952 
16783 16784 17889 17888 16848 16849 17954 17953 
16784 16785 17890 17889 16849 16850 17955 17954 
16785 16786 17891 17890 16850 16851 17956 17955 
16786 16787 17892 17891 16851 16852 17957 17956 
16787 16788 17893 17892 16852 16853 17958 17957 
16788 16789 17894 17893 16853 16854 17959 17958 
16789 16790 17895 17894 16854 16855 17960 17959 
16790 16791 17896 17895 16855 16856 17961 17960 
16791 16792 17897 17896 16856 16857 17962 17961 
16792 16793 17898 17897 16857 16858 17963 17962 
16793 16794 17899 17898 16858 16859 17964 17963 
16794 16795 17900 17899 16859 16860 17965 17964 
16795 16796 17901 17900 16860 16861 17966 17965 
16796 16797 17902 17901 16861 16862 17967 17966 
16797 16798 17903 17902 16862 16863 17968 17967 
16798 16799 17904 17903 16863 16864 17969 17968 
16799 16800 17905 17904 16864 16865 17970 17969 
16800 16801 17906 17905 16865 16866 17971 17970 
16801 16802 17907 17906 16866 16867 17972 17971 
16802 16803 17908 17907 16867 16868 17973 17972 
16803 16804 17909 17908 16868 16869 17974 17973 
16804 16805 17910 17909 16869 16870 17975 17974 
16805 16806 17911 17910 16870 16871 17976 17975 
16806 16807 17912 17911 16871 16872 17977 17976 
16807 16808 17913 17912 16872 16873 17978 17977 
16808 16809 17914 17913 16873 16874 17979 17978 
16809 16810 17915 17914 16874 16875 17980 17979 
16810 16811 17916 17915 16875 16876 17981 17980 
16811 16812 17917 17916 16876 16877 17982 17981 
16812 16813 17918 17917 16877 16878 17983 17982 
16813 16814 17919 17918 16878 16879 17984 17983 
16814 16815 17920 17919 16879 16880 17985 17984 
16815 16816 17921 17920 16880 16881 17986 17985 
16816 16817 17922 17921 16881 16882 17987 17986 
16817 16818 17923 17922 16882 16883 17988 17987 
16818 16819 17924 17923 16883 16884 17989 17988 
16819 16820 17925 17924 16884 16885 17990 17989 
16820 16821 17926 17925 16885 16886 17991 17990 
16821 16822 17927 17926 16886 16887 17992 17991 
16822 16823 17928 17927 16887 16888 17993 17992 
16823 16824 17929 17928 16888 16889 17994 17993 
16824 16825 17930 17929 16889 16890 17995 17994 
16825 16826 17931 17930 16890 16891 17996 17995 
16826 16827 17932 17931 16891 16892 17997 17996 
16827 16828 17933 17932 16892 16893 17998 17997 
16828 16829 17934 17933 16893 16894 17999 17998 
16829 16830 17935 17934 16894 16895 18000 17999 
16830 16831 17936 17935 16895 16896 18001 18000 
16831 16832 17937 17936 16896 16897 18002 18001 
16832 16833 17938 17937 16897 16898 18003 18002 
16833 16834 17939 17938 16898 16899 18004 18003 
16835 16836 17941 17940 16900 16901 18006 18005 
16836 16837 17942 17941 16901 16902 18007 18006 
16837 16838 17943 17942 16902 16903 18008 18007 
16838 16839 17944 17943 16903 16904 18009 18008 
16839 16840 17945 17944 16904 16905 18010 18009 
16840 16841 17946 17945 16905 16906 18011 18010 
16841 16842 17947 17946 16906 16907 18012 18011 
16842 16843 17948 17947 16907 16908 18013 18012 
16843 16844 17949 17948 16908 16909 18014 18013 
16844 16845 17950 17949 16909 16910 18015 18014 
16845 16846 17951 17950 16910 16911 18016 18015 
16846 16847 17952 17951 16911 16912 18017 18016 
16847 16848 17953 17952 16912 16913 18018 18017 
16848 16849 17954 17953 16913 16914 18019 18018 
16849 16850 17955 17954 16914 16915 18020 18019 
16850 16851 17956 17955 16915 16916 18021 18020 
16851 16852 17957 17956 16916 16917 18022 18021 
16852 16853 17958 17957 16917 16918 18023 18022 
16853 16854 17959 17958 16918 16919 18024 18023 
16854 16855 17960 17959 16919 16920 18025 18024 
16855 16856 17961 17960 16920 16921 18026 18025 
16856 16857 17962 17961 16921 16922 18027 18026 
16857 16858 17963 17962 16922 16923 18028 18027 
16858 16859 17964 17963 16923 16924 18029 18028 
16859 16860 17965 17964 16924 16925 18030 18029 
16860 16861 17966 17965 16925 16926 18031 18030 
16861 16862 17967 17966 16926 16927 18032 18031 
16862 16863 17968 17967 16927 16928 18033 18032 
16863 16864 17969 17968 16928 16929 18034 18033 
16864 16865 17970 17969 16929 16930 18035 18034 
16865 16866 17971 17970 16930 16931 18036 18035 
16866 16867 17972 17971 16931 16932 18037 18036 
16867 16868 17973 17972 16932 16933 18038 18037 
16868 16869 17974 17973 16933 16934 18039 18038 
16869 16870 17975 17974 16934 16935 18040 18039 
16870 16871 17976 17975 16935 16936 18041 18040 
16871 16872 17977 17976 16936 16937 18042 18041 
16872 16873 17978 17977 16937 16938 18043 18042 
16873 16874 17979 17978 16938 16939 18044 18043 
16874 16875 17980 17979 16939 16940 18045 18044 
16875 16876 17981 17980 16940 16941 18046 18045 
16876 16877 17982 17981 16941 16942 18047 18046 
16877 16878 17983 17982 16942 16943 18048 18047 
16878 16879 17984 17983 16943 16944 18049 18048 
16879 16880 17985 17984 16944 16945 18050 18049 
16880 16881 17986 17985 16945 16946 18051 18050 
16881 16882 17987 17986 16946 16947 18052 18051 
16882 16883 17988 17987 16947 16948 18053 18052 
16883 16884 17989 17988 16948 16949 18054 18053 
16884 16885 17990 17989 16949 16950 18055 18054 
16885 16886 17991 17990 16950 16951 18056 18055 
16886 16887 17992 17991 16951 16952 18057 18056 
16887 16888 17993 17992 16952 16953 18058 18057 
16888 16889 17994 17993 16953 16954 18059 18058 
16889 16890 17995 17994 16954 16955 18060 18059 
16890 16891 17996 17995 16955 16956 18061 18060 
16891 16892 17997 17996 16956 16957 18062 18061 
16892 16893 17998 17997 16957 16958 18063 18062 
16893 16894 17999 17998 16958 16959 18064 18063 
16894 16895 18000 17999 16959 16960 18065 18064 
16895 16896 18001 18000 16960 16961 18066 18065 
16896 16897 18002 18001 16961 16962 18067 18066 
16897 16898 18003 18002 16962 16963 18068 18067 
16898 16899 18004 18003 16963 16964 18069 18068 
16900 16901 18006 18005 16965 16966 18071 18070 
16901 16902 18007 18006 16966 16967 18072 18071 
16902 16903 18008 18007 16967 16968 18073 18072 
16903 16904 18009 18008 16968 16969 18074 18073 
16904 16905 18010 18009 16969 16970 18075 18074 
16905 16906 18011 18010 16970 16971 18076 18075 
16906 16907 18012 18011 16971 16972 18077 18076 
16907 16908 18013 18012 16972 16973 18078 18077 
16908 16909 18014 18013 16973 16974 18079 18078 
16909 16910 18015 18014 16974 16975 18080 18079 
16910 16911 18016 18015 16975 16976 18081 18080 
16911 16912 18017 18016 16976 16977 18082 18081 
16912 16913 18018 18017 16977 16978 18083 18082 
16913 16914 18019 18018 16978 16979 18084 18083 
16914 16915 18020 18019 16979 16980 18085 18084 
16915 16916 18021 18020 16980 16981 18086 18085 
16916 16917 18022 18021 16981 16982 18087 18086 
16917 16918 18023 18022 16982 16983 18088 18087 
16918 16919 18024 18023 16983 16984 18089 18088 
16919 16920 18025 18024 16984 16985 18090 18089 
16920 16921 18026 18025 16985 16986 18091 18090 
16921 16922 18027 18026 16986 16987 18092 18091 
16922 16923 18028 18027 16987 16988 18093 18092 
16923 16924 18029 18028 16988 16989 18094 18093 
16924 16925 18030 18029 16989 16990 18095 18094 
16925 16926 18031 18030 16990 16991 18096 18095 
16926 16927 18032 18031 16991 16992 18097 18096 
16927 16928 18033 18032 16992 16993 18098 18097 
16928 16929 18034 18033 16993 16994 18099 18098 
16929 16930 18035 18034 16994 16995 18100 18099 
16930 16931 18036 18035 16995 16996 18101 18100 
16931 16932 18037 18036 16996 16997 18102 18101 
16932 16933 18038 18037 16997 16998 18103 18102 
16933 16934 18039 18038 16998 16999 18104 18103 
16934 16935 18040 18039 16999 17000 18105 18104 
16935 16936 18041 18040 17000 17001 18106 18105 
16936 16937 18042 18041 17001 17002 18107 18106 
16937 16938 18043 18042 17002 17003 18108 18107 
16938 16939 18044 18043 17003 17004 18109 18108 
16939 16940 18045 18044 17004 17005 18110 18109 
16940 16941 18046 18045 17005 17006 18111 18110 
16941 16942 18047 18046 17006 17007 18112 18111 
16942 16943 18048 18047 17007 17008 18113 18112 
16943 16944 18049 18048 17008 17009 18114 18113 
16944 16945 18050 18049 17009 17010 18115 18114 
16945 16946 18051 18050 17010 17011 18116 18115 
16946 16947 18052 18051 17011 17012 18117 18116 
16947 16948 18053 18052 17012 17013 18118 18117 
16948 16949 18054 18053 17013 17014 18119 18118 
16949 16950 18055 18054 17014 17015 18120 18119 
16950 16951 18056 18055 17015 17016 18121 18120 
16951 16952 18057 18056 17016 17017 18122 18121 
16952 16953 18058 18057 17017 17018 18123 18122 
16953 16954 18059 18058 17018 17019 18124 18123 
16954 16955 18060 18059 17019 17020 18125 18124 
16955 16956 18061 18060 17020 17021 18126 18125 
16956 16957 18062 18061 17021 17022 18127 18126 
16957 16958 18063 18062 17022 17023 18128 18127 
16958 16959 18064 18063 17023 17024 18129 18128 
16959 16960 18065 18064 17024 17025 18130 18129 
16960 16961 18066 18065 17025 17026 18131 18130 
16961 16962 18067 18066 17026 17027 18132 18131 
16962 16963 18068 18067 17027 17028 18133 18132 
16963 16964 18069 18068 17028 17029 18134 18133 
16965 16966 18071 18070 17030 17031 18136 18135 
16966 16967 18072 18071 17031 17032 18137 18136 
16967 16968 18073 18072 17032 17033 18138 18137 
16968 16969 18074 18073 17033 17034 18139 18138 
16969 16970 18075 18074 17034 17035 18140 18139 
16970 16971 18076 18075 17035 17036 18141 18140 
16971 16972 18077 18076 17036 17037 18142 18141 
16972 16973 18078 18077 17037 17038 18143 18142 
16973 16974 18079 18078 17038 17039 18144 18143 
16974 16975 18080 18079 17039 17040 18145 18144 
16975 16976 18081 18080 17040 17041 18146 18145 
16976 16977 18082 18081 17041 17042 18147 18146 
16977 16978 18083 18082 17042 17043 18148 18147 
16978 16979 18084 18083 17043 17044 18149 18148 
16979 16980 18085 18084 17044 17045 18150 18149 
16980 16981 18086 18085 17045 17046 18151 18150 
16981 16982 18087 18086 17046 17047 18152 18151 
16982 16983 18088 18087 17047 17048 18153 18152 
16983 16984 18089 18088 17048 17049 18154 18153 
16984 16985 18090 18089 17049 17050 18155 18154 
16985 16986 18091 18090 17050 17051 18156 18155 
16986 16987 18092 18091 17051 17052 18157 18156 
16987 16988 18093 18092 17052 17053 18158 18157 
16988 16989 18094 18093 17053 17054 18159 18158 
16989 16990 18095 18094 17054 17055 18160 18159 
16990 16991 18096 18095 17055 17056 18161 18160 
16991 16992 18097 18096 17056 17057 18162 18161 
16992 16993 18098 18097 17057 17058 18163 18162 
16993 16994 18099 18098 17058 17059 18164 18163 
16994 16995 18100 18099 17059 17060 18165 18164 
16995 16996 18101 18100 17060 17061 18166 18165 
16996 16997 18102 18101 17061 17062 18167 18166 
16997 16998 18103 18102 17062 17063 18168 18167 
16998 16999 18104 18103 17063 17064 18169 18168 
16999 17000 18105 18104 17064 17065 18170 18169 
17000 17001 18106 18105 17065 17066 18171 18170 
17001 17002 18107 18106 17066 17067 18172 18171 
17002 17003 18108 18107 17067 17068 18173 18172 
17003 17004 18109 18108 17068 17069 18174 18173 
17004 17005 18110 18109 17069 17070 18175 18174 
17005 17006 18111 18110 17070 17071 18176 18175 
17006 17007 18112 18111 17071 17072 18177 18176 
17007 17008 18113 18112 17072 17073 18178 18177 
17008 17009 18114 18113 17073 17074 18179 18178 
17009 17010 18115 18114 17074 17075 18180 18179 
17010 17011 18116 18115 17075 17076 18181 18180 
17011 17012 18117 18116 17076 17077 18182 18181 
17012 17013 18118 18117 17077 17078 18183 18182 
17013 17014 18119 18118 17078 17079 18184 18183 
17014 17015 18120 18119 17079 17080 18185 18184 
17015 17016 18121 18120 17080 17081 18186 18185 
17016 17017 18122 18121 17081 17082 18187 18186 
17017 17018 18123 18122 17082 17083 18188 18187 
17018 17019 18124 18123 17083 17084 18189 18188 
17019 17020 18125 18124 17084 17085 18190 18189 
17020 17021 18126 18125 17085 17086 18191 18190 
17021 17022 18127 18126 17086 17087 18192 18191 
17022 17023 18128 18127 17087 17088 18193 18192 
17023 17024 18129 18128 17088 17089 18194 18193 
17024 17025 18130 18129 17089 17090 18195 18194 
17025 17026 18131 18130 17090 17091 18196 18195 
17026 17027 18132 18131 17091 17092 18197 18196 
17027 17028 18133 18132 17092 17093 18198 18197 
17028 17029 18134 18133 17093 17094 18199 18198 
17030 17031 18136 18135 17095 17096 18201 18200 
17031 17032 18137 18136 17096 17097 18202 18201 
17032 17033 18138 18137 17097 17098 18203 18202 
17033 17034 18139 18138 17098 17099 18204 18203 
17034 17035 18140 18139 17099 17100 18205 18204 
17035 17036 18141 18140 17100 17101 18206 18205 
17036 17037 18142 18141 17101 17102 18207 18206 
17037 17038 18143 18142 17102 17103 18208 18207 
17038 17039 18144 18143 17103 17104 18209 18208 
17039 17040 18145 18144 17104 17105 18210 18209 
17040 17041 18146 18145 17105 17106 18211 18210 
17041 17042 18147 18146 17106 17107 18212 18211 
17042 17043 18148 18147 17107 17108 18213 18212 
17043 17044 18149 18148 17108 17109 18214 18213 
17044 17045 18150 18149 17109 17110 18215 18214 
17045 17046 18151 18150 17110 17111 18216 18215 
17046 17047 18152 18151 17111 17112 18217 18216 
17047 17048 18153 18152 17112 17113 18218 18217 
17048 17049 18154 18153 17113 17114 18219 18218 
17049 17050 18155 18154 17114 17115 18220 18219 
17050 17051 18156 18155 17115 17116 18221 18220 
17051 17052 18157 18156 17116 17117 18222 18221 
17052 17053 18158 18157 17117 17118 18223 18222 
17053 17054 18159 18158 17118 17119 18224 18223 
17054 17055 18160 18159 17119 17120 18225 18224 
17055 17056 18161 18160 17120 17121 18226 18225 
17056 17057 18162 18161 17121 17122 18227 18226 
17057 17058 18163 18162 17122 17123 18228 18227 
17058 17059 18164 18163 17123 17124 18229 18228 
17059 17060 18165 18164 17124 17125 18230 18229 
17060 17061 18166 18165 17125 17126 18231 18230 
17061 17062 18167 18166 17126 17127 18232 18231 
17062 17063 18168 18167 17127 17128 18233 18232 
17063 17064 18169 18168 17128 17129 18234 18233 
17064 17065 18170 18169 17129 17130 18235 18234 
17065 17066 18171 18170 17130 17131 18236 18235 
17066 17067 18172 18171 17131 17132 18237 18236 
17067 17068 18173 18172 17132 17133 18238 18237 
17068 17069 18174 18173 17133 17134 18239 18238 
17069 17070 18175 18174 17134 17135 18240 18239 
17070 17071 18176 18175 17135 17136 18241 18240 
17071 17072 18177 18176 17136 17137 18242 18241 
17072 17073 18178 18177 17137 17138 18243 18242 
17073 17074 18179 18178 17138 17139 18244 18243 
17074 17075 18180 18179 17139 17140 18245 18244 
17075 17076 18181 18180 17140 17141 18246 18245 
17076 17077 18182 18181 17141 17142 18247 18246 
17077 17078 18183 18182 17142 17143 18248 18247 
17078 17079 18184 18183 17143 17144 18249 18248 
17079 17080 18185 18184 17144 17145 18250 18249 
17080 17081 18186 18185 17145 17146 18251 18250 
17081 17082 18187 18186 17146 17147 18252 18251 
17082 17083 18188 18187 17147 17148 18253 18252 
17083 17084 18189 18188 17148 17149 18254 18253 
17084 17085 18190 18189 17149 17150 18255 18254 
17085 17086 18191 18190 17150 17151 18256 18255 
17086 17087 18192 18191 17151 17152 18257 18256 
17087 17088 18193 18192 17152 17153 18258 18257 
17088 17089 18194 18193 17153 17154 18259 18258 
17089 17090 18195 18194 17154 17155 18260 18259 
17090 17091 18196 18195 17155 17156 18261 18260 
17091 17092 18197 18196 17156 17157 18262 18261 
17092 17093 18198 18197 17157 17158 18263 18262 
17093 17094 18199 18198 17158 17159 18264 18263 
17095 17096 18201 18200 17160 17161 18266 18265 
17096 17097 18202 18201 17161 17162 18267 18266 
17097 17098 18203 18202 17162 17163 18268 18267 
17098 17099 18204 18203 17163 17164 18269 18268 
17099 17100 18205 18204 17164 17165 18270 18269 
17100 17101 18206 18205 17165 17166 18271 18270 
17101 17102 18207 18206 17166 17167 18272 18271 
17102 17103 18208 18207 17167 17168 18273 18272 
17103 17104 18209 18208 17168 17169 18274 18273 
17104 17105 18210 18209 17169 17170 18275 18274 
17105 17106 18211 18210 17170 17171 18276 18275 
17106 17107 18212 18211 17171 17172 18277 18276 
17107 17108 18213 18212 17172 17173 18278 18277 
17108 17109 18214 18213 17173 17174 18279 18278 
17109 17110 18215 18214 17174 17175 18280 18279 
17110 17111 18216 18215 17175 17176 18281 18280 
17111 17112 18217 18216 17176 17177 18282 18281 
17112 17113 18218 18217 17177 17178 18283 18282 
17113 17114 18219 18218 17178 17179 18284 18283 
17114 17115 18220 18219 17179 17180 18285 18284 
17115 17116 18221 18220 17180 17181 18286 18285 
17116 17117 18222 18221 17181 17182 18287 18286 
17117 17118 18223 18222 17182 17183 18288 18287 
17118 17119 18224 18223 17183 17184 18289 18288 
17119 17120 18225 18224 17184 17185 18290 18289 
17120 17121 18226 18225 17185 17186 18291 18290 
17121 17122 18227 18226 17186 17187 18292 18291 
17122 17123 18228 18227 17187 17188 18293 18292 
17123 17124 18229 18228 17188 17189 18294 18293 
17124 17125 18230 18229 17189 17190 18295 18294 
17125 17126 18231 18230 17190 17191 18296 18295 
17126 17127 18232 18231 17191 17192 18297 18296 
17127 17128 18233 18232 17192 17193 18298 18297 
17128 17129 18234 18233 17193 17194 18299 18298 
17129 17130 18235 18234 17194 17195 18300 18299 
17130 17131 18236 18235 17195 17196 18301 18300 
17131 17132 18237 18236 17196 17197 18302 18301 
17132 17133 18238 18237 17197 17198 18303 18302 
17133 17134 18239 18238 17198 17199 18304 18303 
17134 17135 18240 18239 17199 17200 18305 18304 
17135 17136 18241 18240 17200 17201 18306 18305 
17136 17137 18242 18241 17201 17202 18307 18306 
17137 17138 18243 18242 17202 17203 18308 18307 
17138 17139 18244 18243 17203 17204 18309 18308 
17139 17140 18245 18244 17204 17205 18310 18309 
17140 17141 18246 18245 17205 17206 18311 18310 
17141 17142 18247 18246 17206 17207 18312 18311 
17142 17143 18248 18247 17207 17208 18313 18312 
17143 17144 18249 18248 17208 17209 18314 18313 
17144 17145 18250 18249 17209 17210 18315 18314 
17145 17146 18251 18250 17210 17211 18316 18315 
17146 17147 18252 18251 17211 17212 18317 18316 
17147 17148 18253 18252 17212 17213 18318 18317 
17148 17149 18254 18253 17213 17214 18319 18318 
17149 17150 18255 18254 17214 17215 18320 18319 
17150 17151 18256 18255 17215 17216 18321 18320 
17151 17152 18257 18256 17216 17217 18322 18321 
17152 17153 18258 18257 17217 17218 18323 18322 
17153 17154 18259 18258 17218 17219 18324 18323 
17154 17155 18260 18259 17219 17220 18325 18324 
17155 17156 18261 18260 17220 17221 18326 18325 
17156 17157 18262 18261 17221 17222 18327 18326 
17157 17158 18263 18262 17222 17223 18328 18327 
17158 17159 18264 18263 17223 17224 18329 18328 
17160 17161 18266 18265 17225 17226 18331 18330 
17161 17162 18267 18266 17226 17227 18332 18331 
17162 17163 18268 18267 17227 17228 18333 18332 
17163 17164 18269 18268 17228 17229 18334 18333 
17164 17165 18270 18269 17229 17230 18335 18334 
17165 17166 18271 18270 17230 17231 18336 18335 
17166 17167 18272 18271 17231 17232 18337 18336 
17167 17168 18273 18272 17232 17233 18338 18337 
17168 17169 18274 18273 17233 17234 18339 18338 
17169 17170 18275 18274 17234 17235 18340 18339 
17170 17171 18276 18275 17235 17236 18341 18340 
17171 17172 18277 18276 17236 17237 18342 18341 
17172 17173 18278 18277 17237 17238 18343 18342 
17173 17174 18279 18278 17238 17239 18344 18343 
17174 17175 18280 18279 17239 17240 18345 18344 
17175 17176 18281 18280 17240 17241 18346 18345 
17176 17177 18282 18281 17241 17242 18347 18346 
17177 17178 18283 18282 17242 17243 18348 18347 
17178 17179 18284 18283 17243 17244 18349 18348 
17179 17180 18285 18284 17244 17245 18350 18349 
17180 17181 18286 18285 17245 17246 18351 18350 
17181 17182 18287 18286 17246 17247 18352 18351 
17182 17183 18288 18287 17247 17248 18353 18352 
17183 17184 18289 18288 17248 17249 18354 18353 
17184 17185 18290 18289 17249 17250 18355 18354 
17185 17186 18291 18290 17250 17251 18356 18355 
17186 17187 18292 18291 17251 17252 18357 18356 
17187 17188 18293 18292 17252 17253 18358 18357 
17188 17189 18294 18293 17253 17254 18359 18358 
17189 17190 18295 18294 17254 17255 18360 18359 
17190 17191 18296 18295 17255 17256 18361 18360 
17191 17192 18297 18296 17256 17257 18362 18361 
17192 17193 18298 18297 17257 17258 18363 18362 
17193 17194 18299 18298 17258 17259 18364 18363 
17194 17195 18300 18299 17259 17260 18365 18364 
17195 17196 18301 18300 17260 17261 18366 18365 
17196 17197 18302 18301 17261 17262 18367 18366 
17197 17198 18303 18302 17262 17263 18368 18367 
17198 17199 18304 18303 17263 17264 18369 18368 
17199 17200 18305 18304 17264 17265 18370 18369 
17200 17201 18306 18305 17265 17266 18371 18370 
17201 17202 18307 18306 17266 17267 18372 18371 
17202 17203 18308 18307 17267 17268 18373 18372 
17203 17204 18309 18308 17268 17269 18374 18373 
17204 17205 18310 18309 17269 17270 18375 18374 
17205 17206 18311 18310 17270 17271 18376 18375 
17206 17207 18312 18311 17271 17272 18377 18376 
17207 17208 18313 18312 17272 17273 18378 18377 
17208 17209 18314 18313 17273 17274 18379 18378 
17209 17210 18315 18314 17274 17275 18380 18379 
17210 17211 18316 18315 17275 17276 18381 18380 
17211 17212 18317 18316 17276 17277 18382 18381 
17212 17213 18318 18317 17277 17278 18383 18382 
17213 17214 18319 18318 17278 17279 18384 18383 
17214 17215 18320 18319 17279 17280 18385 18384 
17215 17216 18321 18320 17280 17281 18386 18385 
17216 17217 18322 18321 17281 17282 18387 18386 
17217 17218 18323 18322 17282 17283 18388 18387 
17218 17219 18324 18323 17283 17284 18389 18388 
17219 17220 18325 18324 17284 17285 18390 18389 
17220 17221 18326 18325 17285 17286 18391 18390 
17221 17222 18327 18326 17286 17287 18392 18391 
17222 17223 18328 18327 17287 17288 18393 18392 
17223 17224 18329 18328 17288 17289 18394 18393 
17225 17226 18331 18330 17290 17291 18396 18395 
17226 17227 18332 18331 17291 17292 18397 18396 
17227 17228 18333 18332 17292 17293 18398 18397 
17228 17229 18334 18333 17293 17294 18399 18398 
17229 17230 18335 18334 17294 17295 18400 18399 
17230 17231 18336 18335 17295 17296 18401 18400 
17231 17232 18337 18336 17296 17297 18402 18401 
17232 17233 18338 18337 17297 17298 18403 18402 
17233 17234 18339 18338 17298 17299 18404 18403 
17234 17235 18340 18339 17299 17300 18405 18404 
17235 17236 18341 18340 17300 17301 18406 18405 
17236 17237 18342 18341 17301 17302 18407 18406 
17237 17238 18343 18342 17302 17303 18408 18407 
17238 17239 18344 18343 17303 17304 18409 18408 
17239 17240 18345 18344 17304 17305 18410 18409 
17240 17241 18346 18345 17305 17306 18411 18410 
17241 17242 18347 18346 17306 17307 18412 18411 
17242 17243 18348 18347 17307 17308 18413 18412 
17243 17244 18349 18348 17308 17309 18414 18413 
17244 17245 18350 18349 17309 17310 18415 18414 
17245 17246 18351 18350 17310 17311 18416 18415 
17246 17247 18352 18351 17311 17312 18417 18416 
17247 17248 18353 18352 17312 17313 18418 18417 
17248 17249 18354 18353 17313 17314 18419 18418 
17249 17250 18355 18354 17314 17315 18420 18419 
17250 17251 18356 18355 17315 17316 18421 18420 
17251 17252 18357 18356 17316 17317 18422 18421 
17252 17253 18358 18357 17317 17318 18423 18422 
17253 17254 18359 18358 17318 17319 18424 18423 
17254 17255 18360 18359 17319 17320 18425 18424 
17255 17256 18361 18360 17320 17321 18426 18425 
17256 17257 18362 18361 17321 17322 18427 18426 
17257 17258 18363 18362 17322 17323 18428 18427 
17258 17259 18364 18363 17323 17324 18429 18428 
17259 17260 18365 18364 17324 17325 18430 18429 
17260 17261 18366 18365 17325 17326 18431 18430 
17261 17262 18367 18366 17326 17327 18432 18431 
17262 17263 18368 18367 17327 17328 18433 18432 
17263 17264 18369 18368 17328 17329 18434 18433 
17264 17265 18370 18369 17329 17330 18435 18434 
17265 17266 18371 18370 17330 17331 18436 18435 
17266 17267 18372 18371 17331 17332 18437 18436 
17267 17268 18373 18372 17332 17333 18438 18437 
17268 17269 18374 18373 17333 17334 18439 18438 
17269 17270 18375 18374 17334 17335 18440 18439 
17270 17271 18376 18375 17335 17336 18441 18440 
17271 17272 18377 18376 17336 17337 18442 18441 
17272 17273 18378 18377 17337 17338 18443 18442 
17273 17274 18379 18378 17338 17339 18444 18443 
17274 17275 18380 18379 17339 17340 18445 18444 
17275 17276 18381 18380 17340 17341 18446 18445 
17276 17277 18382 18381 17341 17342 18447 18446 
17277 17278 18383 18382 17342 17343 18448 18447 
17278 17279 18384 18383 17343 17344 18449 18448 
17279 17280 18385 18384 17344 17345 18450 18449 
17280 17281 18386 18385 17345 17346 18451 18450 
17281 17282 18387 18386 17346 17347 18452 18451 
17282 17283 18388 18387 17347 17348 18453 18452 
17283 17284 18389 18388 17348 17349 18454 18453 
17284 17285 18390 18389 17349 17350 18455 18454 
17285 17286 18391 18390 17350 17351 18456 18455 
17286 17287 18392 18391 17351 17352 18457 18456 
17287 17288 18393 18392 17352 17353 18458 18457 
17288 17289 18394 18393 17353 17354 18459 18458 
17290 17291 18396 18395 17355 17356 18461 18460 
17291 17292 18397 18396 17356 17357 18462 18461 
17292 17293 18398 18397 17357 17358 18463 18462 
17293 17294 18399 18398 17358 17359 18464 18463 
17294 17295 18400 18399 17359 17360 18465 18464 
17295 17296 18401 18400 17360 17361 18466 18465 
17296 17297 18402 18401 17361 17362 18467 18466 
17297 17298 18403 18402 17362 17363 18468 18467 
17298 17299 18404 18403 17363 17364 18469 18468 
17299 17300 18405 18404 17364 17365 18470 18469 
17300 17301 18406 18405 17365 17366 18471 18470 
17301 17302 18407 18406 17366 17367 18472 18471 
17302 17303 18408 18407 17367 17368 18473 18472 
17303 17304 18409 18408 17368 17369 18474 18473 
17304 17305 18410 18409 17369 17370 18475 18474 
17305 17306 18411 18410 17370 17371 18476 18475 
17306 17307 18412 18411 17371 17372 18477 18476 
17307 17308 18413 18412 17372 17373 18478 18477 
17308 17309 18414 18413 17373 17374 18479 18478 
17309 17310 18415 18414 17374 17375 18480 18479 
17310 17311 18416 18415 17375 17376 18481 18480 
17311 17312 18417 18416 17376 17377 18482 18481 
17312 17313 18418 18417 17377 17378 18483 18482 
17313 17314 18419 18418 17378 17379 18484 18483 
17314 17315 18420 18419 17379 17380 18485 18484 
17315 17316 18421 18420 17380 17381 18486 18485 
17316 17317 18422 18421 17381 17382 18487 18486 
17317 17318 18423 18422 17382 17383 18488 18487 
17318 17319 18424 18423 17383 17384 18489 18488 
17319 17320 18425 18424 17384 17385 18490 18489 
17320 17321 18426 18425 17385 17386 18491 18490 
17321 17322 18427 18426 17386 17387 18492 18491 
17322 17323 18428 18427 17387 17388 18493 18492 
17323 17324 18429 18428 17388 17389 18494 18493 
17324 17325 18430 18429 17389 17390 18495 18494 
17325 17326 18431 18430 17390 17391 18496 18495 
17326 17327 18432 18431 17391 17392 18497 18496 
17327 17328 18433 18432 17392 17393 18498 18497 
17328 17329 18434 18433 17393 17394 18499 18498 
17329 17330 18435 18434 17394 17395 18500 18499 
17330 17331 18436 18435 17395 17396 18501 18500 
17331 17332 18437 18436 17396 17397 18502 18501 
17332 17333 18438 18437 17397 17398 18503 18502 
17333 17334 18439 18438 17398 17399 18504 18503 
17334 17335 18440 18439 17399 17400 18505 18504 
17335 17336 18441 18440 17400 17401 18506 18505 
17336 17337 18442 18441 17401 17402 18507 18506 
17337 17338 18443 18442 17402 17403 18508 18507 
17338 17339 18444 18443 17403 17404 18509 18508 
17339 17340 18445 18444 17404 17405 18510 18509 
17340 17341 18446 18445 17405 17406 18511 18510 
17341 17342 18447 18446 17406 17407 18512 18511 
17342 17343 18448 18447 17407 17408 18513 18512 
17343 17344 18449 18448 17408 17409 18514 18513 
17344 17345 18450 18449 17409 17410 18515 18514 
17345 17346 18451 18450 17410 17411 18516 18515 
17346 17347 18452 18451 17411 17412 18517 18516 
17347 17348 18453 18452 17412 17413 18518 18517 
17348 17349 18454 18453 17413 17414 18519 18518 
17349 17350 18455 18454 17414 17415 18520 18519 
17350 17351 18456 18455 17415 17416 18521 18520 
17351 17352 18457 18456 17416 17417 18522 18521 
17352 17353 18458 18457 17417 17418 18523 18522 
17353 17354 18459 18458 17418 17419 18524 18523 
17355 17356 18461 18460 17420 17421 18526 18525 
17356 17357 18462 18461 17421 17422 18527 18526 
17357 17358 18463 18462 17422 17423 18528 18527 
17358 17359 18464 18463 17423 17424 18529 18528 
17359 17360 18465 18464 17424 17425 18530 18529 
17360 17361 18466 18465 17425 17426 18531 18530 
17361 17362 18467 18466 17426 17427 18532 18531 
17362 17363 18468 18467 17427 17428 18533 18532 
17363 17364 18469 18468 17428 17429 18534 18533 
17364 17365 18470 18469 17429 17430 18535 18534 
17365 17366 18471 18470 17430 17431 18536 18535 
17366 17367 18472 18471 17431 17432 18537 18536 
17367 17368 18473 18472 17432 17433 18538 18537 
17368 17369 18474 18473 17433 17434 18539 18538 
17369 17370 18475 18474 17434 17435 18540 18539 
17370 17371 18476 18475 17435 17436 18541 18540 
17371 17372 18477 18476 17436 17437 18542 18541 
17372 17373 18478 18477 17437 17438 18543 18542 
17373 17374 18479 18478 17438 17439 18544 18543 
17374 17375 18480 18479 17439 17440 18545 18544 
17375 17376 18481 18480 17440 17441 18546 18545 
17376 17377 18482 18481 17441 17442 18547 18546 
17377 17378 18483 18482 17442 17443 18548 18547 
17378 17379 18484 18483 17443 17444 18549 18548 
17379 17380 18485 18484 17444 17445 18550 18549 
17380 17381 18486 18485 17445 17446 18551 18550 
17381 17382 18487 18486 17446 17447 18552 18551 
17382 17383 18488 18487 17447 17448 18553 18552 
17383 17384 18489 18488 17448 17449 18554 18553 
17384 17385 18490 18489 17449 17450 18555 18554 
17385 17386 18491 18490 17450 17451 18556 18555 
17386 17387 18492 18491 17451 17452 18557 18556 
17387 17388 18493 18492 17452 17453 18558 18557 
17388 17389 18494 18493 17453 17454 18559 18558 
17389 17390 18495 18494 17454 17455 18560 18559 
17390 17391 18496 18495 17455 17456 18561 18560 
17391 17392 18497 18496 17456 17457 18562 18561 
17392 17393 18498 18497 17457 17458 18563 18562 
17393 17394 18499 18498 17458 17459 18564 18563 
17394 17395 18500 18499 17459 17460 18565 18564 
17395 17396 18501 18500 17460 17461 18566 18565 
17396 17397 18502 18501 17461 17462 18567 18566 
17397 17398 18503 18502 17462 17463 18568 18567 
17398 17399 18504 18503 17463 17464 18569 18568 
17399 17400 18505 18504 17464 17465 18570 18569 
17400 17401 18506 18505 17465 17466 18571 18570 
17401 17402 18507 18506 17466 17467 18572 18571 
17402 17403 18508 18507 17467 17468 18573 18572 
17403 17404 18509 18508 17468 17469 18574 18573 
17404 17405 18510 18509 17469 17470 18575 18574 
17405 17406 18511 18510 17470 17471 18576 18575 
17406 17407 18512 18511 17471 17472 18577 18576 
17407 17408 18513 18512 17472 17473 18578 18577 
17408 17409 18514 18513 17473 17474 18579 18578 
17409 17410 18515 18514 17474 17475 18580 18579 
17410 17411 18516 18515 17475 17476 18581 18580 
17411 17412 18517 18516 17476 17477 18582 18581 
17412 17413 18518 18517 17477 17478 18583 18582 
17413 17414 18519 18518 17478 17479 18584 18583 
17414 17415 18520 18519 17479 17480 18585 18584 
17415 17416 18521 18520 17480 17481 18586 18585 
17416 17417 18522 18521 17481 17482 18587 18586 
17417 17418 18523 18522 17482 17483 18588 18587 
17418 17419 18524 18523 17483 17484 18589 18588 
17420 17421 18526 18525 17485 17486 18591 18590 
17421 17422 18527 18526 17486 17487 18592 18591 
17422 17423 18528 18527 17487 17488 18593 18592 
17423 17424 18529 18528 17488 17489 18594 18593 
17424 17425 18530 18529 17489 17490 18595 18594 
17425 17426 18531 18530 17490 17491 18596 18595 
17426 17427 18532 18531 17491 17492 18597 18596 
17427 17428 18533 18532 17492 17493 18598 18597 
17428 17429 18534 18533 17493 17494 18599 18598 
17429 17430 18535 18534 17494 17495 18600 18599 
17430 17431 18536 18535 17495 17496 18601 18600 
17431 17432 18537 18536 17496 17497 18602 18601 
17432 17433 18538 18537 17497 17498 18603 18602 
17433 17434 18539 18538 17498 17499 18604 18603 
17434 17435 18540 18539 17499 17500 18605 18604 
17435 17436 18541 18540 17500 17501 18606 18605 
17436 17437 18542 18541 17501 17502 18607 18606 
17437 17438 18543 18542 17502 17503 18608 18607 
17438 17439 18544 18543 17503 17504 18609 18608 
17439 17440 18545 18544 17504 17505 18610 18609 
17440 17441 18546 18545 17505 17506 18611 18610 
17441 17442 18547 18546 17506 17507 18612 18611 
17442 17443 18548 18547 17507 17508 18613 18612 
17443 17444 18549 18548 17508 17509 18614 18613 
17444 17445 18550 18549 17509 17510 18615 18614 
17445 17446 18551 18550 17510 17511 18616 18615 
17446 17447 18552 18551 17511 17512 18617 18616 
17447 17448 18553 18552 17512 17513 18618 18617 
17448 17449 18554 18553 17513 17514 18619 18618 
17449 17450 18555 18554 17514 17515 18620 18619 
17450 17451 18556 18555 17515 17516 18621 18620 
17451 17452 18557 18556 17516 17517 18622 18621 
17452 17453 18558 18557 17517 17518 18623 18622 
17453 17454 18559 18558 17518 17519 18624 18623 
17454 17455 18560 18559 17519 17520 18625 18624 
17455 17456 18561 18560 17520 17521 18626 18625 
17456 17457 18562 18561 17521 17522 18627 18626 
17457 17458 18563 18562 17522 17523 18628 18627 
17458 17459 18564 18563 17523 17524 18629 18628 
17459 17460 18565 18564 17524 17525 18630 18629 
17460 17461 18566 18565 17525 17526 18631 18630 
17461 17462 18567 18566 17526 17527 18632 18631 
17462 17463 18568 18567 17527 17528 18633 18632 
17463 17464 18569 18568 17528 17529 18634 18633 
17464 17465 18570 18569 17529 17530 18635 18634 
17465 17466 18571 18570 17530 17531 18636 18635 
17466 17467 18572 18571 17531 17532 18637 18636 
17467 17468 18573 18572 17532 17533 18638 18637 
17468 17469 18574 18573 17533 17534 18639 18638 
17469 17470 18575 18574 17534 17535 18640 18639 
17470 17471 18576 18575 17535 17536 18641 18640 
17471 17472 18577 18576 17536 17537 18642 18641 
17472 17473 18578 18577 17537 17538 18643 18642 
17473 17474 18579 18578 17538 17539 18644 18643 
17474 17475 18580 18579 17539 17540 18645 18644 
17475 17476 18581 18580 17540 17541 18646 18645 
17476 17477 18582 18581 17541 17542 18647 18646 
17477 17478 18583 18582 17542 17543 18648 18647 
17478 17479 18584 18583 17543 17544 18649 18648 
17479 17480 18585 18584 17544 17545 18650 18649 
17480 17481 18586 18585 17545 17546 18651 18650 
17481 17482 18587 18586 17546 17547 18652 18651 
17482 17483 18588 18587 17547 17548 18653 18652 
17483 17484 18589 18588 17548 17549 18654 18653 
17485 17486 18591 18590 17550 17551 18656 18655 
17486 17487 18592 18591 17551 17552 18657 18656 
17487 17488 18593 18592 17552 17553 18658 18657 
17488 17489 18594 18593 17553 17554 18659 18658 
17489 17490 18595 18594 17554 17555 18660 18659 
17490 17491 18596 18595 17555 17556 18661 18660 
17491 17492 18597 18596 17556 17557 18662 18661 
17492 17493 18598 18597 17557 17558 18663 18662 
17493 17494 18599 18598 17558 17559 18664 18663 
17494 17495 18600 18599 17559 17560 18665 18664 
17495 17496 18601 18600 17560 17561 18666 18665 
17496 17497 18602 18601 17561 17562 18667 18666 
17497 17498 18603 18602 17562 17563 18668 18667 
17498 17499 18604 18603 17563 17564 18669 18668 
17499 17500 18605 18604 17564 17565 18670 18669 
17500 17501 18606 18605 17565 17566 18671 18670 
17501 17502 18607 18606 17566 17567 18672 18671 
17502 17503 18608 18607 17567 17568 18673 18672 
17503 17504 18609 18608 17568 17569 18674 18673 
17504 17505 18610 18609 17569 17570 18675 18674 
17505 17506 18611 18610 17570 17571 18676 18675 
17506 17507 18612 18611 17571 17572 18677 18676 
17507 17508 18613 18612 17572 17573 18678 18677 
17508 17509 18614 18613 17573 17574 18679 18678 
17509 17510 18615 18614 17574 17575 18680 18679 
17510 17511 18616 18615 17575 17576 18681 18680 
17511 17512 18617 18616 17576 17577 18682 18681 
17512 17513 18618 18617 17577 17578 18683 18682 
17513 17514 18619 18618 17578 17579 18684 18683 
17514 17515 18620 18619 17579 17580 18685 18684 
17515 17516 18621 18620 17580 17581 18686 18685 
17516 17517 18622 18621 17581 17582 18687 18686 
17517 17518 18623 18622 17582 17583 18688 18687 
17518 17519 18624 18623 17583 17584 18689 18688 
17519 17520 18625 18624 17584 17585 18690 18689 
17520 17521 18626 18625 17585 17586 18691 18690 
17521 17522 18627 18626 17586 17587 18692 18691 
17522 17523 18628 18627 17587 17588 18693 18692 
17523 17524 18629 18628 17588 17589 18694 18693 
17524 17525 18630 18629 17589 17590 18695 18694 
17525 17526 18631 18630 17590 17591 18696 18695 
17526 17527 18632 18631 17591 17592 18697 18696 
17527 17528 18633 18632 17592 17593 18698 18697 
17528 17529 18634 18633 17593 17594 18699 18698 
17529 17530 18635 18634 17594 17595 18700 18699 
17530 17531 18636 18635 17595 17596 18701 18700 
17531 17532 18637 18636 17596 17597 18702 18701 
17532 17533 18638 18637 17597 17598 18703 18702 
17533 17534 18639 18638 17598 17599 18704 18703 
17534 17535 18640 18639 17599 17600 18705 18704 
17535 17536 18641 18640 17600 17601 18706 18705 
17536 17537 18642 18641 17601 17602 18707 18706 
17537 17538 18643 18642 17602 17603 18708 18707 
17538 17539 18644 18643 17603 17604 18709 18708 
17539 17540 18645 18644 17604 17605 18710 18709 
17540 17541 18646 18645 17605 17606 18711 18710 
17541 17542 18647 18646 17606 17607 18712 18711 
17542 17543 18648 18647 17607 17608 18713 18712 
17543 17544 18649 18648 17608 17609 18714 18713 
17544 17545 18650 18649 17609 17610 18715 18714 
17545 17546 18651 18650 17610 17611 18716 18715 
17546 17547 18652 18651 17611 17612 18717 18716 
17547 17548 18653 18652 17612 17613 18718 18717 
17548 17549 18654 18653 17613 17614 18719 18718 
17550 17551 18656 18655 17615 17616 18721 18720 
17551 17552 18657 18656 17616 17617 18722 18721 
17552 17553 18658 18657 17617 17618 18723 18722 
17553 17554 18659 18658 17618 17619 18724 18723 
17554 17555 18660 18659 17619 17620 18725 18724 
17555 17556 18661 18660 17620 17621 18726 18725 
17556 17557 18662 18661 17621 17622 18727 18726 
17557 17558 18663 18662 17622 17623 18728 18727 
17558 17559 18664 18663 17623 17624 18729 18728 
17559 17560 18665 18664 17624 17625 18730 18729 
17560 17561 18666 18665 17625 17626 18731 18730 
17561 17562 18667 18666 17626 17627 18732 18731 
17562 17563 18668 18667 17627 17628 18733 18732 
17563 17564 18669 18668 17628 17629 18734 18733 
17564 17565 18670 18669 17629 17630 18735 18734 
17565 17566 18671 18670 17630 17631 18736 18735 
17566 17567 18672 18671 17631 17632 18737 18736 
17567 17568 18673 18672 17632 17633 18738 18737 
17568 17569 18674 18673 17633 17634 18739 18738 
17569 17570 18675 18674 17634 17635 18740 18739 
17570 17571 18676 18675 17635 17636 18741 18740 
17571 17572 18677 18676 17636 17637 18742 18741 
17572 17573 18678 18677 17637 17638 18743 18742 
17573 17574 18679 18678 17638 17639 18744 18743 
17574 17575 18680 18679 17639 17640 18745 18744 
17575 17576 18681 18680 17640 17641 18746 18745 
17576 17577 18682 18681 17641 17642 18747 18746 
17577 17578 18683 18682 17642 17643 18748 18747 
17578 17579 18684 18683 17643 17644 18749 18748 
17579 17580 18685 18684 17644 17645 18750 18749 
17580 17581 18686 18685 17645 17646 18751 18750 
17581 17582 18687 18686 17646 17647 18752 18751 
17582 17583 18688 18687 17647 17648 18753 18752 
17583 17584 18689 18688 17648 17649 18754 18753 
17584 17585 18690 18689 17649 17650 18755 18754 
17585 17586 18691 18690 17650 17651 18756 18755 
17586 17587 18692 18691 17651 17652 18757 18756 
17587 17588 18693 18692 17652 17653 18758 18757 
17588 17589 18694 18693 17653 17654 18759 18758 
17589 17590 18695 18694 17654 17655 18760 18759 
17590 17591 18696 18695 17655 17656 18761 18760 
17591 17592 18697 18696 17656 17657 18762 18761 
17592 17593 18698 18697 17657 17658 18763 18762 
17593 17594 18699 18698 17658 17659 18764 18763 
17594 17595 18700 18699 17659 17660 18765 18764 
17595 17596 18701 18700 17660 17661 18766 18765 
17596 17597 18702 18701 17661 17662 18767 18766 
17597 17598 18703 18702 17662 17663 18768 18767 
17598 17599 18704 18703 17663 17664 18769 18768 
17599 17600 18705 18704 17664 17665 18770 18769 
17600 17601 18706 18705 17665 17666 18771 18770 
17601 17602 18707 18706 17666 17667 18772 18771 
17602 17603 18708 18707 17667 17668 18773 18772 
17603 17604 18709 18708 17668 17669 18774 18773 
17604 17605 18710 18709 17669 17670 18775 18774 
17605 17606 18711 18710 17670 17671 18776 18775 
17606 17607 18712 18711 17671 17672 18777 18776 
17607 17608 18713 18712 17672 17673 18778 18777 
17608 17609 18714 18713 17673 17674 18779 18778 
17609 17610 18715 18714 17674 17675 18780 18779 
17610 17611 18716 18715 17675 17676 18781 18780 
17611 17612 18717 18716 17676 17677 18782 18781 
17612 17613 18718 18717 17677 17678 18783 18782 
17613 17614 18719 18718 17678 17679 18784 18783 
CELL_TYPES 16384
12 12 12 12 12 12 12 12 12 12 12 12 12 12 12 12 12 12 12 12 12 12 12 12 12 12 12 12 12 12 12 12 12 12 12 12 12 12 12 12 12 12 12 12 12 12 12 12 12 12 12 12 12 12 12 12 12 12 12 12 12 12 12 12 12 12 12 12 12 12 12 12 12 12 12 12 12 12 12 12 12 12 12 12 12 12 12 12 12 12 12 12 12 12 12 12 12 12 12 12 12 12 12 12 12 12 12 12 12 12 12 12 12 12 12 12 12 12 12 12 12 12 12 12 12 12 12 12 12 12 12 12 12 12 12 12 12 12 12 12 12 12 12 12 12 12 12 12 12 12 12 12 12 12 12 12 12 12 12 12 12 12 12 12 12 12 12 12 12 12 12 12 12 12 12 12 12 12 12 12 12 12 12 12 12 12 12 12 12 12 12 12 12 12 12 12 12 12 12 12 12 12 12 12 12 12 12 12 12 12 12 12 12 12 12 12 12 12 12 12 12 12 12 12 12 12 12 12 12 12 12 12 12 12 12 12 12 12 12 12 12 12 12 12 12 12 12 12 12 12 12 12 12 12 12 12 12 12 12 12 12 12 12 12 12 12 12 12 12 12 12 12 12 12 12 12 12 12 12 12 12 12 12 12 12 12 12 12 12 12 12 12 12 12 12 12 12 12 12 12 12 12 12 12 12 12 12 12 12 12 12 12 12 12 12 12 12 12 12 12 12 12 12 12 12 12 12 12 12 12 12 12 12 12 12 12 12 12 12 12 12 12 12 12 12 12 12 12 12 12 12 12 12 12 12 12 12 12 12 12 12 12 12 12 12 12 12 12 12 12 12 12 12 12 12 12 12 12 12 12 12 12 12 12 12 12 12 12 12 12 12 12 12 12 12 12 12 12 12 12 12 12 12 12 12 12 12 12 12 12 12 12 12 12 12 12 12 12 12 12 12 12 12 12 12 12 12 12 12 12 12 12 12 12 12 12 12 12 12 12 12 12 12 12 12 12 12 12 12 12 12 12 12 12 12 12 12 12 12 12 12 12 12 12 12 12 12 12 12 12 12 12 12 12 12 12 12 12 12 12 12 12 12 12 12 12 12 12 12 12 12 12 12 12 12 12 12 12 12 12 12 12 12 12 12 12 12 12 12 12 12 12 12 12 12 12 12 12 12 12 12 12 12 12 12 12 12 12 12 12 12 12 12 12 12 12 12 12 12 12 12 12 12 12 12 12 12 12 12 12 12 12 12 12 12 12 12 12 12 12 12 12 12 12 12 12 12 12 12 12 12 12 12 12 12 12 12 12 12 12 12 12 12 12 12 12 12 12 12 12 12 12 12 12 12 12 12 12 12 12 12 12 12 12 12 12 12 12 12 12 12 12 12 12 12 12 12 12 12 12 12 12 12 12 12 12 12 12 12 12 12 12 12 12 12 12 12 12 12 12 12 12 12 12 12 12 12 12 12 12 12 12 12 12 12 12 12 12 12 12 12 12 12 12 12 12 12 12 12 12 12 12 12 12 12 12 12 12 12 12 12 12 12 12 12 12 12 12 12 12 12 12 12 12 12 12 12 12 12 12 12 12 12 12 12 12 12 12 12 12 12 12 12 12 12 12 12 12 12 12 12 12 12 12 12 12 12 12 12 12 12 12 12 12 12 12 12 12 12 12 12 12 12 12 12 12 12 12 12 12 12 12 12 12 12 12 12 12 12 12 12 12 12 12 12 12 12 12 12 12 12 12 12 12 12 12 12 12 12 12 12 12 12 12 12 12 12 12 12 12 12 12 12 12 12 12 12 12 12 12 12 12 12 12 12 12 12 12 12 12 12 12 12 12 12 12 12 12 12 12 12 12 12 12 12 12 12 12 12 12 12 12 12 12 12 12 12 12 12 12 12 12 12 12 12 12 12 12 12 12 12 12 12 12 12 12 12 12 12 12 12 12 12 12 12 12 12 12 12 12 12 12 12 12 12 12 12 12 12 12 12 12 12 12 12 12 12 12 12 12 12 12 12 12 12 12 12 12 12 12 12 12 12 12 12 12 12 12 12 12 12 12 12 12 12 12 12 12 12 12 12 12 12 12 12 12 12 12 12 12 12 12 12 12 12 12 12 12 12 12 12 12 12 12 12 12 12 12 12 12 12 12 12 12 12 12 12 12 12 12 12 12 12 12 12 12 12 12 12 12 12 12 12 12 12 12 12 12 12 12 12 12 12 12 12 12 12 12 12 12 12 12 12 12 12 12 12 12 12 12 12 12 12 12 12 12 12 12 12 12 12 12 12 12 12 12 12 12 12 12 12 12 12 12 12 12 12 12 12 12 12 12 12 12 12 12 12 12 12 12 12 12 12 12 12 12 12 12 12 12 12 12 12 12 12 12 12 12 12 12 12 12 12 12 12 12 12 12 12 12 12 12 12 12 12 12 12 12 12 12 12 12 12 12 12 12 12 12 12 12 12 12 12 12 12 12 12 12 12 12 12 12 12 12 12 12 12 12 12 12 12 12 12 12 12 12 12 12 12 12 12 12 12 12 12 12 12 12 12 12 12 12 12 12 12 12 12 12 12 12 12 12 12 12 12 12 12 12 12 12 12 12 12 12 12 12 12 12 12 12 12 12 12 12 12 12 12 12 12 12 12 12 12 12 12 12 12 12 12 12 12 12 12 12 12 12 12 12 12 12 12 12 12 12 12 12 12 12 12 12 12 12 12 12 12 12 12 12 12 12 12 12 12 12 12 12 12 12 12 12 12 12 12 12 12 12 12 12 12 12 12 12 12 12 12 12 12 12 12 12 12 12 12 12 12 12 12 12 12 12 12 12 12 12 12 12 12 12 12 12 12 12 12 12 12 12 12 12 12 12 12 12 12 12 12 12 12 12 12 12 12 12 12 12 12 12 12 12 12 12 12 12 12 12 12 12 12 12 12 12 12 12 12 12 12 12 12 12 12 12 12 12 12 12 12 12 12 12 12 12 12 12 12 12 12 12 12 12 12 12 12 12 12 12 12 12 12 12 12 12 12 12 12 12 12 12 12 12 12 12 12 12 12 12 12 12 12 12 12 12 12 12 12 12 12 12 12 12 12 12 12 12 12 12 12 12 12 12 12 12 12 12 12 12 12 12 12 12 12 12 12 12 12 12 12 12 12 12 12 12 12 12 12 12 12 12 12 12 12 12 12 12 12 12 12 12 12 12 12 12 12 12 12 12 12 12 12 12 12 12 12 12 12 12 12 12 12 12 12 12 12 12 12 12 12 12 12 12 12 12 12 12 12 12 12 12 12 12 12 12 12 12 12 12 12 12 12 12 12 12 12 12 12 12 12 12 12 12 12 12 12 12 12 12 12 12 12 12 12 12 12 12 12 12 12 12 12 12 12 12 12 12 12 12 12 12 12 12 12 12 12 12 12 12 12 12 12 12 12 12 12 12 12 12 12 12 12 12 12 12 12 12 12 12 12 12 12 12 12 12 12 12 12 12 12 12 12 12 12 12 12 12 12 12 12 12 12 12 12 12 12 12 12 12 12 12 12 12 12 12 12 12 12 12 12 12 12 12 12 12 12 12 12 12 12 12 12 12 12 12 12 12 12 12 12 12 12 12 12 12 12 12 12 12 12 12 12 12 12 12 12 12 12 12 12 12 12 12 12 12 12 12 12 12 12 12 12 12 12 12 12 12 12 12 12 12 12 12 12 12 12 12 12 12 12 12 12 12 12 12 12 12 12 12 12 12 12 12 12 12 12 12 12 12 12 12 12 12 12 12 12 12 12 12 12 12 12 12 12 12 12 12 12 12 12 12 12 12 12 12 12 12 12 12 12 12 12 12 12 12 12 12 12 12 12 12 12 12 12 12 12 12 12 12 12 12 12 12 12 12 12 12 12 12 12 12 12 12 12 12 12 12 12 12 12 12 12 12 12 12 12 12 12 12 12 12 12 12 12 12 12 12 12 12 12 12 12 12 12 12 12 12 12 12 12 12 12 12 12 12 12 12 12 12 12 12 12 12 12 12 12 12 12 12 12 12 12 12 12 12 12 12 12 12 12 12 12 12 12 12 12 12 12 12 12 12 12 12 12 12 12 12 12 12 12 12 12 12 12 12 12 12 12 12 12 12 12 12 12 12 12 12 12 12 12 12 12 12 12 12 12 12 12 12 12 12 12 12 12 12 12 12 12 12 12 12 12 12 12 12 12 12 12 12 12 12 12 12 12 12 12 12 12 12 12 12 12 12 12 12 12 12 12 12 12 12 12 12 12 12 12 12 12 12 12 12 12 12 12 12 12 12 12 12 12 12 12 12 12 12 12 12 12 12 12 12 12 12 12 12 12 12 12 12 12 12 12 12 12 12 12 12 12 12 12 12 12 12 12 12 12 12 12 12 12 12 12 12 12 12 12 12 12 12 12 12 12 12 12 12 12 12 12 12 12 12 12 12 12 12 12 12 12 12 12 12 12 12 12 12 12 12 12 12 12 12 12 12 12 12 12 12 12 12 12 12 12 12 12 12 12 12 12 12 12 12 12 12 12 12 12 12 12 12 12 12 12 12 12 12 12 12 12 12 12 12 12 12 12 12 12 12 12 12 12 12 12 12 12 12 12 12 12 12 12 12 12 12 12 12 12 12 12 12 12 12 12 12 12 12 12 12 12 12 12 12 12 12 12 12 12 12 12 12 12 12 12 12 12 12 12 12 12 12 12 12 12 12 12 12 12 12 12 12 12 12 12 12 12 12 12 12 12 12 12 12 12 12 12 12 12 12 12 12 12 12 12 12 12 12 12 12 12 12 12 12 12 12 12 12 12 12 12 12 12 12 12 12 12 12 12 12 12 12 12 12 12 12 12 12 12 12 12 12 12 12 12 12 12 12 12 12 12 12 12 12 12 12 12 12 12 12 12 12 12 12 12 12 12 12 12 12 12 12 12 12 12 12 12 12 12 12 12 12 12 12 12 12 12 12 12 12 12 12 12 12 12 12 12 12 12 12 12 12 12 12 12 12 12 12 12 12 12 12 12 12 12 12 12 12 12 12 12 12 12 12 12 12 12 12 12 12 12 12 12 12 12 12 12 12 12 12 12 12 12 12 12 12 12 12 12 12 12 12 12 12 12 12 12 12 12 12 12 12 12 12 12 12 12 12 12 12 12 12 12 12 12 12 12 12 12 12 12 12 12 12 12 12 12 12 12 12 12 12 12 12 12 12 12 12 12 12 12 12 12 12 12 12 12 12 12 12 12 12 12 12 12 12 12 12 12 12 12 12 12 12 12 12 12 12 12 12 12 12 12 12 12 12 12 12 12 12 12 12 12 12 12 12 12 12 12 12 12 12 12 12 12 12 12 12 12 12 12 12 12 12 12 12 12 12 12 12 12 12 12 12 12 12 12 12 12 12 12 12 12 12 12 12 12 12 12 12 12 12 12 12 12 12 12 12 12 12 12 12 12 12 12 12 12 12 12 12 12 12 12 12 12 12 12 12 12 12 12 12 12 12 12 12 12 12 12 12 12 12 12 12 12 12 12 12 12 12 12 12 12 12 12 12 12 12 12 12 12 12 12 12 12 12 12 12 12 12 12 12 12 12 12 12 12 12 12 12 12 12 12 12 12 12 12 12 12 12 12 12 12 12 12 12 12 12 12 12 12 12 12 12 12 12 12 12 12 12 12 12 12 12 12 12 12 12 12 12 12 12 12 12 12 12 12 12 12 12 12 12 12 12 12 12 12 12 12 12 12 12 12 12 12 12 12 12 12 12 12 12 12 12 12 12 12 12 12 12 12 12 12 12 12 12 12 12 12 12 12 12 12 12 12 12 12 12 12 12 12 12 12 12 12 12 12 12 12 12 12 12 12 12 12 12 12 12 12 12 12 12 12 12 12 12 12 12 12 12 12 12 12 12 12 12 12 12 12 12 12 12 12 12 12 12 12 12 12 12 12 12 12 12 12 12 12 12 12 12 12 12 12 12 12 12 12 12 12 12 12 12 12 12 12 12 12 12 12 12 12 12 12 12 12 12 12 12 12 12 12 12 12 12 12 12 12 12 12 12 12 12 12 12 12 12 12 12 12 12 12 12 12 12 12 12 12 12 12 12 12 12 12 12 12 12 12 12 12 12 12 12 12 12 12 12 12 12 12 12 12 12 12 12 12 12 12 12 12 12 12 12 12 12 12 12 12 12 12 12 12 12 12 12 12 12 12 12 12 12 12 12 12 12 12 12 12 12 12 12 12 12 12 12 12 12 12 12 12 12 12 12 12 12 12 12 12 12 12 12 12 12 12 12 12 12 12 12 12 12 12 12 12 12 12 12 12 12 12 12 12 12 12 12 12 12 12 12 12 12 12 12 12 12 12 12 12 12 12 12 12 12 12 12 12 12 12 12 12 12 12 12 12 12 12 12 12 12 12 12 12 12 12 12 12 12 12 12 12 12 12 12 12 12 12 12 12 12 12 12 12 12 12 12 12 12 12 12 12 12 12 12 12 12 12 12 12 12 12 12 12 12 12 12 12 12 12 12 12 12 12 12 12 12 12 12 12 12 12 12 12 12 12 12 12 12 12 12 12 12 12 12 12 12 12 12 12 12 12 12 12 12 12 12 12 12 12 12 12 12 12 12 12 12 12 12 12 12 12 12 12 12 12 12 12 12 12 12 12 12 12 12 12 12 12 12 12 12 12 12 12 12 12 12 12 12 12 12 12 12 12 12 12 12 12 12 12 12 12 12 12 12 12 12 12 12 12 12 12 12 12 12 12 12 12 12 12 12 12 12 12 12 12 12 12 12 12 12 12 12 12 12 12 12 12 12 12 12 12 12 12 12 12 12 12 12 12 12 12 12 12 12 12 12 12 12 12 12 12 12 12 12 12 12 12 12 12 12 12 12 12 12 12 12 12 12 12 12 12 12 12 12 12 12 12 12 12 12 12 12 12 12 12 12 12 12 12 12 12 12 12 12 12 12 12 12 12 12 12 12 12 12 12 12 12 12 12 12 12 12 12 12 12 12 12 12 12 12 12 12 12 12 12 12 12 12 12 12 12 12 12 12 12 12 12 12 12 12 12 12 12 12 12 12 12 12 12 12 12 12 12 12 12 12 12 12 12 12 12 12 12 12 12 12 12 12 12 12 12 12 12 12 12 12 12 12 12 12 12 12 12 12 12 12 12 12 12 12 12 12 12 12 12 12 12 12 12 12 12 12 12 12 12 12 12 12 12 12 12 12 12 12 12 12 12 12 12 12 12 12 12 12 12 12 12 12 12 12 12 12 12 12 12 12 12 12 12 12 12 12 12 12 12 12 12 12 12 12 12 12 12 12 12 12 12 12 12 12 12 12 12 12 12 12 12 12 12 12 12 12 12 12 12 12 12 12 12 12 12 12 12 12 12 12 12 12 12 12 12 12 12 12 12 12 12 12 12 12 12 12 12 12 12 12 12 12 12 12 12 12 12 12 12 12 12 12 12 12 12 12 12 12 12 12 12 12 12 12 12 12 12 12 12 12 12 12 12 12 12 12 12 12 12 12 12 12 12 12 12 12 12 12 12 12 12 12 12 12 12 12 12 12 12 12 12 12 12 12 12 12 12 12 12 12 12 12 12 12 12 12 12 12 12 12 12 12 12 12 12 12 12 12 12 12 12 12 12 12 12 12 12 12 12 12 12 12 12 12 12 12 12 12 12 12 12 12 12 12 12 12 12 12 12 12 12 12 12 12 12 12 12 12 12 12 12 12 12 12 12 12 12 12 12 12 12 12 12 12 12 12 12 12 12 12 12 12 12 12 12 12 12 12 12 12 12 12 12 12 12 12 12 12 12 12 12 12 12 12 12 12 12 12 12 12 12 12 12 12 12 12 12 12 12 12 12 12 12 12 12 12 12 12 12 12 12 12 12 12 12 12 12 12 12 12 12 12 12 12 12 12 12 12 12 12 12 12 12 12 12 12 12 12 12 12 12 12 12 12 12 12 12 12 12 12 12 12 12 12 12 12 12 12 12 12 12 12 12 12 12 12 12 12 12 12 12 12 12 12 12 12 12 12 12 12 12 12 12 12 12 12 12 12 12 12 12 12 12 12 12 12 12 12 12 12 12 12 12 12 12 12 12 12 12 12 12 12 12 12 12 12 12 12 12 12 12 12 12 12 12 12 12 12 12 12 12 12 12 12 12 12 12 12 12 12 12 12 12 12 12 12 12 12 12 12 12 12 12 12 12 12 12 12 12 12 12 12 12 12 12 12 12 12 12 12 12 12 12 12 12 12 12 12 12 12 12 12 12 12 12 12 12 12 12 12 12 12 12 12 12 12 12 12 12 12 12 12 12 12 12 12 12 12 12 12 12 12 12 12 12 12 12 12 12 12 12 12 12 12 12 12 12 12 12 12 12 12 12 12 12 12 12 12 12 12 12 12 12 12 12 12 12 12 12 12 12 12 12 12 12 12 12 12 12 12 12 12 12 12 12 12 12 12 12 12 12 12 12 12 12 12 12 12 12 12 12 12 12 12 12 12 12 12 12 12 12 12 12 12 12 12 12 12 12 12 12 12 12 12 12 12 12 12 12 12 12 12 12 12 12 12 12 12 12 12 12 12 12 12 12 12 12 12 12 12 12 12 12 12 12 12 12 12 12 12 12 12 12 12 12 12 12 12 12 12 12 12 12 12 12 12 12 12 12 12 12 12 12 12 12 12 12 12 12 12 12 12 12 12 12 12 12 12 12 12 12 12 12 12 12 12 12 12 12 12 12 12 12 12 12 12 12 12 12 12 12 12 12 12 12 12 12 12 12 12 12 12 12 12 12 12 12 12 12 12 12 12 12 12 12 12 12 12 12 12 12 12 12 12 12 12 12 12 12 12 12 12 12 12 12 12 12 12 12 12 12 12 12 12 12 12 12 12 12 12 12 12 12 12 12 12 12 12 12 12 12 12 12 12 12 12 12 12 12 12 12 12 12 12 12 12 12 12 12 12 12 12 12 12 12 12 12 12 12 12 12 12 12 12 12 12 12 12 12 12 12 12 12 12 12 12 12 12 12 12 12 12 12 12 12 12 12 12 12 12 12 12 12 12 12 12 12 12 12 12 12 12 12 12 12 12 12 12 12 12 12 12 12 12 12 12 12 12 12 12 12 12 12 12 12 12 12 12 12 12 12 12 12 12 12 12 12 12 12 12 12 12 12 12 12 12 12 12 12 12 12 12 12 12 12 12 12 12 12 12 12 12 12 12 12 12 12 12 12 12 12 12 12 12 12 12 12 12 12 12 12 12 12 12 12 12 12 12 12 12 12 12 12 12 12 12 12 12 12 12 12 12 12 12 12 12 12 12 12 12 12 12 12 12 12 12 12 12 12 12 12 12 12 12 12 12 12 12 12 12 12 12 12 12 12 12 12 12 12 12 12 12 12 12 12 12 12 12 12 12 12 12 12 12 12 12 12 12 12 12 12 12 12 12 12 12 12 12 12 12 12 12 12 12 12 12 12 12 12 12 12 12 12 12 12 12 12 12 12 12 12 12 12 12 12 12 12 12 12 12 12 12 12 12 12 12 12 12 12 12 12 12 12 12 12 12 12 12 12 12 12 12 12 12 12 12 12 12 12 12 12 12 12 12 12 12 12 12 12 12 12 12 12 12 12 12 12 12 12 12 12 12 12 12 12 12 12 12 12 12 12 12 12 12 12 12 12 12 12 12 12 12 12 12 12 12 12 12 12 12 12 12 12 12 12 12 12 12 12 12 12 12 12 12 12 12 12 12 12 12 12 12 12 12 12 12 12 12 12 12 12 12 12 12 12 12 12 12 12 12 12 12 12 12 12 12 12 12 12 12 12 12 12 12 12 12 12 12 12 12 12 12 12 12 12 12 12 12 12 12 12 12 12 12 12 12 12 12 12 12 12 12 12 12 12 12 12 12 12 12 12 12 12 12 12 12 12 12 12 12 12 12 12 12 12 12 12 12 12 12 12 12 12 12 12 12 12 12 12 12 12 12 12 12 12 12 12 12 12 12 12 12 12 12 12 12 12 12 12 12 12 12 12 12 12 12 12 12 12 12 12 12 12 12 12 12 12 12 12 12 12 12 12 12 12 12 12 12 12 12 12 12 12 12 12 12 12 12 12 12 12 12 12 12 12 12 12 12 12 12 12 12 12 12 12 12 12 12 12 12 12 12 12 12 12 12 12 12 12 12 12 12 12 12 12 12 12 12 12 12 12 12 12 12 12 12 12 12 12 12 12 12 12 12 12 12 12 12 12 12 12 12 12 12 12 12 12 12 12 12 12 12 12 12 12 12 12 12 12 12 12 12 12 12 12 12 12 12 12 12 12 12 12 12 12 12 12 12 12 12 12 12 12 12 12 12 12 12 12 12 12 12 12 12 12 12 12 12 12 12 12 12 12 12 12 12 12 12 12 12 12 12 12 12 12 12 12 12 12 12 12 12 12 12 12 12 12 12 12 12 12 12 12 12 12 12 12 12 12 12 12 12 12 12 12 12 12 12 12 12 12 12 12 12 12 12 12 12 12 12 12 12 12 12 12 12 12 12 12 12 12 12 12 12 12 12 12 12 12 12 12 12 12 12 12 12 12 12 12 12 12 12 12 12 12 12 12 12 12 12 12 12 12 12 12 12 12 12 12 12 12 12 12 12 12 12 12 12 12 12 12 12 12 12 12 12 12 12 12 12 12 12 12 12 12 12 12 12 12 12 12 12 12 12 12 12 12 12 12 12 12 12 12 12 12 12 12 12 12 12 12 12 12 12 12 12 12 12 12 12 12 12 12 12 12 12 12 12 12 12 12 12 12 12 12 12 12 12 12 12 12 12 12 12 12 12 12 12 12 12 12 12 12 12 12 12 12 12 12 12 12 12 12 12 12 12 12 12 12 12 12 12 12 12 12 12 12 12 12 12 12 12 12 12 12 12 12 12 12 12 12 12 12 12 12 12 12 12 12 12 12 12 12 12 12 12 12 12 12 12 12 12 12 12 12 12 12 12 12 12 12 12 12 12 12 12 12 12 12 12 12 12 12 12 12 12 12 12 12 12 12 12 12 12 12 12 12 12 12 12 12 12 12 12 12 12 12 12 12 12 12 12 12 12 12 12 12 12 12 12 12 12 12 12 12 12 12 12 12 12 12 12 12 12 12 12 12 12 12 12 12 12 12 12 12 12 12 12 12 12 12 12 12 12 12 12 12 12 12 12 12 12 12 12 12 12 12 12 12 12 12 12 12 12 12 12 12 12 12 12 12 12 12 12 12 12 12 12 12 12 12 12 12 12 12 12 12 12 12 12 12 12 12 12 12 12 12 12 12 12 12 12 12 12 12 12 12 12 12 12 12 12 12 12 12 12 12 12 12 12 12 12 12 12 12 12 12 12 12 12 12 12 12 12 12 12 12 12 12 12 12 12 12 12 12 12 12 12 12 12 12 12 12 12 12 12 12 12 12 12 12 12 12 12 12 12 12 12 12 12 12 12 12 12 12 12 12 12 12 12 12 12 12 12 12 12 12 12 12 12 12 12 12 12 12 12 12 12 12 12 12 12 12 12 12 12 12 12 12 12 12 12 12 12 12 12 12 12 12 12 12 12 12 12 12 12 12 12 12 12 12 12 12 12 12 12 12 12 12 12 12 12 12 12 12 12 12 12 12 12 12 12 12 12 12 12 12 12 12 12 12 12 12 12 12 12 12 12 12 12 12 12 12 12 12 12 12 12 12 12 12 12 12 12 12 12 12 12 12 12 12 12 12 12 12 12 12 12 12 12 12 12 12 12 12 12 12 12 12 12 12 12 12 12 12 12 12 12 12 12 12 12 12 12 12 12 12 12 12 12 12 12 12 12 12 12 12 12 12 12 12 12 12 12 12 12 12 12 12 12 12 12 12 12 12 12 12 12 12 12 12 12 12 12 12 12 12 12 12 12 12 12 12 12 12 12 12 12 12 12 12 12 12 12 12 12 12 12 12 12 12 12 12 12 12 12 12 12 12 12 12 12 12 12 12 12 12 12 12 12 12 12 12 12 12 12 12 12 12 12 12 12 12 12 12 12 12 12 12 12 12 12 12 12 12 12 12 12 12 12 12 12 12 12 12 12 12 12 12 12 12 12 12 12 12 12 12 12 12 12 12 12 12 12 12 12 12 12 12 12 12 12 12 12 12 12 12 12 12 12 12 12 12 12 12 12 12 12 12 12 12 12 12 12 12 12 12 12 12 12 12 12 12 12 12 12 12 12 12 12 12 12 12 12 12 12 12 12 12 12 12 12 12 12 12 12 12 12 12 12 12 12 12 12 12 12 12 12 12 12 12 12 12 12 12 12 12 12 12 12 12 12 12 12 12 12 12 12 12 12 12 12 12 12 12 12 12 12 12 12 12 12 12 12 12 12 12 12 12 12 12 12 12 12 12 12 12 12 12 12 12 12 12 12 12 12 12 12 12 12 12 12 12 12 12 12 12 12 12 12 12 12 12 12 12 12 12 12 12 12 12 12 12 12 12 12 12 12 12 12 12 12 12 12 12 12 12 12 12 12 12 12 12 12 12 12 12 12 12 12 12 12 12 12 12 12 12 12 12 12 12 12 12 12 12 12 12 12 12 12 12 12 12 12 12 12 12 12 12 12 12 12 12 12 12 12 12 12 12 12 12 12 12 12 12 12 12 12 12 12 12 12 12 12 12 12 12 12 12 12 12 12 12 12 12 12 12 12 12 12 12 12 12 12 12 12 12 12 12 12 12 12 12 12 12 12 12 12 12 12 12 12 12 12 12 12 12 12 12 12 12 12 12 12 12 12 12 12 12 12 12 12 12 12 12 12 12 12 12 12 12 12 12 12 12 12 12 12 12 12 12 12 12 12 12 12 12 12 12 12 12 12 12 12 12 12 12 12 12 12 12 12 12 12 12 12 12 12 12 12 12 12 12 12 12 12 12 12 12 12 12 12 12 12 12 12 12 12 12 12 12 12 12 12 12 12 12 12 12 12 12 12 12 12 12 12 12 12 12 12 12 12 12 12 12 12 12 12 12 12 12 12 12 12 12 12 12 12 12 12 12 12 12 12 12 12 12 12 12 12 12 12 12 12 12 12 12 12 12 12 12 12 12 12 12 12 12 12 12 12 12 12 12 12 12 12 12 12 12 12 12 12 12 12 12 12 12 12 12 12 12 12 12 12 12 12 12 12 12 12 12 12 12 12 12 12 12 12 12 12 12 12 12 12 12 12 12 12 12 12 12 12 12 12 12 12 12 12 12 12 12 12 12 12 12 12 12 12 12 12 12 12 12 12 12 12 12 12 12 12 12 12 12 12 12 12 12 12 12 12 12 12 12 12 12 12 12 12 12 12 12 12 12 12 12 12 12 12 12 12 12 12 12 12 12 12 12 12 12 12 12 12 12 12 12 12 12 12 12 12 12 12 12 12 12 12 12 12 12 12 12 12 12 12 12 12 12 12 12 12 12 12 12 12 12 12 12 12 12 12 12 12 12 12 12 12 12 12 12 12 12 12 12 12 12 12 12 12 12 12 12 12 12 12 12 12 12 12 12 12 12 12 12 12 12 12 12 12 12 12 12 12 12 12 12 12 12 12 12 12 12 12 12 12 12 12 12 12 12 12 12 12 12 12 12 12 12 12 12 12 12 12 12 12 12 12 12 12 12 12 12 12 12 12 12 12 12 12 12 12 12 12 12 12 12 12 12 12 12 12 12 12 12 12 12 12 12 12 12 12 12 12 12 12 12 12 12 12 12 12 12 12 12 12 12 12 12 12 12 12 12 12 12 12 12 12 12 12 12 12 12 12 12 12 12 12 12 12 12 12 12 12 12 12 12 12 12 12 12 12 12 12 12 12 12 12 12 12 12 12 12 12 12 12 12 12 12 12 12 12 12 12 12 12 12 12 12 12 12 12 12 12 12 12 12 12 12 12 12 12 12 12 12 12 12 12 12 12 12 12 12 12 12 12 12 12 12 12 12 12 12 12 12 12 12 12 12 12 12 12 12 12 12 12 12 12 12 12 12 12 12 12 12 12 12 12 12 12 12 12 12 12 12 12 12 12 12 12 12 12 12 12 12 12 12 12 12 12 12 12 12 12 12 12 12 12 12 12 12 12 12 12 12 12 12 12 12 12 12 12 12 12 12 12 12 12 12 12 12 12 12 12 12 12 12 12 12 12 12 12 12 12 12 12 12 12 12 12 12 12 12 12 12 12 12 12 12 12 12 12 12 12 12 12 12 12 12 12 12 12 12 12 12 12 12 12 12 12 12 12 12 12 12 12 12 12 12 12 12 12 12 12 12 12 12 12 12 12 12 12 12 12 12 12 12 12 12 12 12 12 12 12 12 12 12 12 12 12 12 12 12 12 12 12 12 12 12 12 12 12 12 12 12 12 12 12 12 12 12 12 12 12 12 12 12 12 12 12 12 12 12 12 12 12 12 12 12 12 12 12 12 12 12 12 12 12 12 12 12 12 12 12 12 12 12 12 12 12 12 12 12 12 12 12 12 12 12 12 12 12 12 12 12 12 12 12 12 12 12 12 12 12 12 12 12 12 12 12 12 12 12 12 12 12 12 12 12 12 12 12 12 12 12 12 12 12 12 12 12 12 12 12 12 12 12 12 12 12 12 12 12 12 12 12 12 12 12 12 12 12 12 12 12 12 12 12 12 12 12 12 12 12 12 12 12 12 12 12 12 12 12 12 12 12 12 12 12 12 12 12 12 12 12 12 12 12 12 12 12 12 12 12 12 12 12 12 12 12 12 12 12 12 12 12 12 12 12 12 12 12 12 12 12 12 12 12 12 12 12 12 12 12 12 12 12 12 12 12 12 12 12 12 12 12 12 12 12 12 12 12 12 12 12 12 12 12 12 12 12 12 12 12 12 12 12 12 12 12 12 12 12 12 12 12 12 12 12 12 12 12 12 12 12 12 12 12 12 12 12 12 12 12 12 12 12 12 12 12 12 12 12 12 12 12 12 12 12 12 12 12 12 12 12 12 12 12 12 12 12 12 12 12 12 12 12 12 12 12 12 12 12 12 12 12 12 12 12 12 12 12 12 12 12 12 12 12 12 12 12 12 12 12 12 12 12 12 12 12 12 12 12 12 12 12 12 12 12 12 12 12 12 12 12 12 12 12 12 12 12 12 12 12 12 12 12 12 12 12 12 12 12 12 12 12 12 12 12 12 12 12 12 12 12 12 12 12 12 12 12 12 12 12 12 12 12 12 12 12 12 12 12 12 12 12 12 12 12 12 12 12 12 12 12 12 12 12 12 12 12 12 12 12 12 12 12 12 12 12 12 12 12 12 12 12 12 12 12 12 12 12 12 12 12 12 12 12 12 12 12 12 12 12 12 12 12 12 12 12 12 12 12 12 12 12 12 12 12 12 12 12 12 12 12 12 12 12 12 12 12 12 12 12 12 12 12 12 12 12 12 12 12 12 12 12 12 12 12 12 12 12 12 12 12 12 12 12 12 12 12 12 12 12 12 12 12 12 12 12 12 12 12 12 12 12 12 12 12 12 12 12 12 12 12 12 12 12 12 12 12 12 12 12 12 12 12 12 12 12 12 12 12 12 12 12 12 12 12 12 12 12 12 12 12 12 12 12 12 12 12 12 12 12 12 12 12 12 12 12 12 12 12 12 12 12 12 12 12 12 12 12 12 12 12 12 12 12 12 12 12 12 12 12 12 12 12 12 12 12 12 12 12 12 12 12 12 12 12 12 12 12 12 12 12 12 12 12 12 12 12 12 12 12 12 12 12 12 12 12 12 12 12 12 12 12 12 12 12 12 12 12 12 12 12 12 12 12 12 12 12 12 12 12 12 12 12 12 12 12 12 12 12 12 12 12 12 12 12 12 12 12 12 12 12 12 12 12 12 12 12 12 12 12 12 12 12 12 12 12 12 12 12 12 12 12 12 12 12 12 12 12 12 12 12 12 12 12 12 12 12 12 12 12 12 12 12 12 12 12 12 12 12 12 12 12 12 12 12 12 12 12 12 12 12 12 12 12 12 12 12 12 12 12 12 12 12 12 12 12 12 12 12 12 12 12 12 12 12 12 12 12 12 12 12 12 12 12 12 12 12 12 12 12 12 12 12 12 12 12 12 12 12 12 12 12 12 12 12 12 12 12 12 12 12 12 12 12 12 12 12 12 12 12 12 12 12 12 12 12 12 12 12 12 12 12 12 12 12 12 12 12 12 12 12 12 12 12 12 12 12 12 12 12 12 12 12 12 12 12 12 12 12 12 12 12 12 12 12 12 12 12 12 12 12 12 12 12 12 12 12 12 12 12 12 12 12 12 12 12 12 12 12 12 12 12 12 12 12 12 12 12 12 12 12 12 12 12 12 12 12 12 12 12 12 12 12 12 12 12 12 12 12 12 12 12 12 12 12 12 12 12 12 12 12 12 12 12 12 12 12 12 12 12 12 12 12 12 12 12 12 12 12 12 12 12 12 12 12 12 12 12 12 12 12 12 12 12 12 12 12 12 12 12 12 12 12 12 12 12 12 12 12 12 12 12 12 12 12 12 12 12 12 12 12 12 12 12 12 12 12 12 12 12 12 12 12 12 12 12 12 12 12 12 12 12 12 12 12 12 12 12 12 12 12 12 12 12 12 12 12 12 12 12 12 12 12 12 12 12 12 12 12 12 12 12 12 12 12 12 12 12 12 12 12 12 12 12 12 12 12 12 12 12 12 12 12 12 12 12 12 12 12 12 12 12 12 12 12 12 12 12 12 12 12 12 12 12 12 12 12 12 12 12 12 12 12 12 12 12 12 12 12 12 12 12 12 12 12 12 12 12 12 12 12 12 12 12 12 12 12 12 12 12 12 12 12 12 12 12 12 12 12 12 12 12 12 12 12 12 12 12 12 12 12 12 12 12 12 12 12 12 12 12 12 12 12 12 12 12 12 12 12 12 12 12 12 12 12 12 12 12 12 12 12 12 12 12 12 12 12 12 12 12 12 12 12 12 12 12 12 12 12 12 12 12 12 12 12 12 12 12 12 12 12 12 12 12 12 12 12 12 12 12 12 12 12 12 12 12 12 12 12 12 12 12 12 12 12 12 12 12 12 12 12 12 12 12 12 12 12 12 12 12 12 12 12 12 12 12 12 12 12 12 12 12 12 12 12 12 12 12 12 12 12 12 12 12 12 12 12 12 12 12 12 12 12 12 12 12 12 12 12 12 12 12 12 12 12 12 12 12 12 12 12 12 12 12 12 12 12 12 12 12 12 12 12 12 12 12 12 12 12 12 12 12 12 12 12 12 12 12 12 12 12 12 12 12 12 12 12 12 12 12 12 12 12 12 12 12 12 12 12 12 12 12 12 12 12 12 12 12 12 12 12 12 12 12 12 12 12 12 12 12 12 12 12 12 12 12 12 12 12 12 12 12 12 12 12 12 12 12 12 12 12 12 12 12 12 12 12 12 12 12 12 12 12 12 12 12 12 12 12 12 12 12 12 12 12 12 12 12 12 12 12 12 12 12 12 12 12 12 12 12 12 12 12 12 12 12 12 12 12 12 12 12 12 12 12 12 12 12 12 12 12 12 12 12 12 12 12 12 12 12 12 12 12 12 12 12 12 12 12 12 12 12 12 12 12 12 12 12 12 12 12 12 12 12 12 12 12 12 12 12 12 12 12 12 12 12 12 12 12 12 12 12 12 12 12 12 12 12 12 12 12 12 12 12 12 12 12 12 12 12 12 12 12 12 12 12 12 12 12 12 12 12 12 12 12 12 12 12 12 12 12 12 12 12 12 12 12 12 12 12 12 12 12 12 12 12 12 12 12 12 12 12 12 12 12 12 12 12 12 12 12 12 12 12 12 12 12 12 12 12 12 12 12 12 12 12 12 12 12 12 12 12 12 12 12 12 12 12 12 12 12 12 12 12 12 12 12 12 12 12 12 12 12 12 12 12 12 12 12 12 12 12 12 12 12 12 12 12 12 12 12 12 12 12 12 12 12 12 12 12 12 12 12 12 12 12 12 12 12 12 12 12 12 12 12 12 12 12 12 12 12 12 12 12 12 12 12 12 12 12 12 12 12 12 12 12 12 12 12 12 12 12 12 12 12 12 12 12 12 12 12 12 12 12 12 12 12 12 12 12 12 12 12 12 12 12 12 12 12 12 12 12 12 12 12 12 12 12 12 12 12 12 12 12 12 12 12 12 12 12 12 12 12 12 12 12 12 12 12 12 12 12 12 12 12 12 12 12 12 12 12 12 12 12 12 12 12 12 12 12 12 12 12 12 12 12 12 12 12 12 12 12 12 12 12 12 12 12 12 12 12 12 12 12 12 12 12 12 12 12 12 12 12 12 12 12 12 12 12 12 12 12 12 12 12 12 12 12 12 12 12 12 12 12 12 12 12 12 12 12 12 12 12 12 12 12 12 12 12 12 12 12 12 12 12 12 12 12 12 12 12 12 12 12 12 12 12 12 12 12 12 12 12 12 12 12 12 12 12 12 12 12 12 12 12 12 12 12 12 12 12 12 12 12 12 12 12 12 12 12 12 12 12 12 12 12 12 12 12 12 12 12 12 12 12 12 12 12 12 12 12 12 12 12 12 12 12 12 12 12 12 12 12 12 12 12 12 12 12 12 12 12 12 12 12 12 12 12 12 12 12 12 12 12 12 12 12 12 12 12 12 12 12 12 12 12 12 12 12 12 12 12 12 12 12 12 12 12 12 12 12 12 12 12 12 12 12 12 12 12 12 12 12 12 12 12 12 12 12 12 12 12 12 12 12 12 12 12 12 12 12 12 12 12 12 12 12 12 12 12 12 12 12 12 12 12 12 12 12 12 12 12 12 12 12 12 12 12 12 12 12 12 12 12 12 12 12 12 12 12 12 12 12 12 12 12 12 12 12 12 12 12 12 12 12 12 12 12 12 12 12 12 12 12 12 12 12 12 12 12 12 12 12 12 12 12 12 12 12 12 12 12 12 12 12 12 12 12 12 12 12 12 12 12 12 12 12 12 12 12 12 12 12 12 12 12 12 12 12 12 12 12 12 12 12 12 12 12 12 12 12 12 12 12 12 12 12 12 12 12 12 12 12 12 12 12 12 12 12 12 12 12 12 12 12 12 12 12 12 12 12 12 12 12 12 12 12 12 12 12 12 12 12 12 12 12 12 12 12 12 12 12 12 12 12 12 12 12 12 12 12 12 12 12 12 12 12 12 12 12 12 12 12 12 12 12 12 12 12 12 12 12 12 12 12 12 12 12 12 12 12 12 12 12 12 12 12 12 12 12 12 12 12 12 12 12 12 12 12 12 12 12 12 12 12 12 12 12 12 12 12 12 12 12 12 12 12 12 12 12 12 12 12 12 12 12 12 12 12 12 12 12 12 12 12 12 12 12 12 12 12 12 12 12 12 12 12 12 12 12 12 12 12 12 12 12 12 12 12 12 12 12 12 12 12 12 12 12 12 12 12 12 12 12 12 12 12 12 12 12 12 12 12 12 12 12 12 12 12 12 12 12 12 12 12 12 12 12 12 12 12 12 12 12 12 12 12 12 12 12 12 12 12 12 12 12 12 12 12 12 12 12 12 12 12 12 12 12 12 12 12 12 12 12 12 12 12 12 12 12 12 12 12 12 12 12 12 12 12 12 12 12 12 12 12 12 12 12 12 12 12 12 12 12 12 12 12 12 12 12 12 12 12 12 12 12 12 12 12 12 12 12 12 12 12 12 12 12 12 12 12 12 12 12 12 12 12 12 12 12 12 12 12 12 12 12 12 12 12 12 12 12 12 12 12 12 12 12 12 12 12 12 12 12 12 12 12 12 12 12 12 12 12 12 12 12 12 12 12 12 12 12 12 12 12 12 12 12 12 12 12 12 12 12 12 12 12 12 12 12 12 12 12 12 12 12 12 12 12 12 12 12 12 12 12 12 12 12 12 12 12 12 12 12 12 12 12 12 12 12 12 12 12 12 12 12 12 12 12 12 12 12 12 12 12 12 12 12 12 12 12 12 12 12 12 12 12 12 12 12 12 12 12 12 12 12 12 12 12 12 12 12 12 12 12 12 12 12 12 12 12 12 12 12 12 12 12 12 12 12 12 12 12 12 12 12 12 12 12 12 12 12 12 12 12 12 12 12 12 12 12 12 12 12 12 12 12 12 12 12 12 12 12 12 12 12 12 12 12 12 12 12 12 12 12 12 12 12 12 12 12 12 12 12 12 12 12 12 12 12 12 12 12 12 12 12 12 12 12 12 12 12 12 12 12 12 12 12 12 12 12 12 12 12 12 12 12 12 12 12 12 12 12 12 12 12 12 12 12 12 12 12 12 12 12 12 12 12 12 12 12 12 12 12 12 12 12 12 12 12 12 12 12 12 12 12 12 12 12 12 12 12 12 12 12 12 12 12 12 12 12 12 12 12 12 12 12 12 12 12 12 12 12 12 12 12 12 12 12 12 12 12 12 12 12 12 12 12 12 12 12 12 12 12 12 12 12 12 12 12 12 12 12 12 12 12 12 12 12 12 12 12 12 12 12 12 12 12 12 12 12 12 12 12 12 12 12 12 12 12 12 12 12 12 12 12 12 12 12 12 12 12 12 12 12 12 12 12 12 12 12 12 12 12 12 12 12 12 12 12 12 12 12 12 12 12 12 12 12 12 12 12 12 12 12 12 12 12 12 12 12 12 12 12 12 12 12 12 12 12 12 12 12 12 12 12 12 12 12 12 12 12 12 12 12 12 12 12 12 12 12 12 12 12 12 12 12 12 12 12 12 12 12 12 12 12 12 12 12 12 12 12 12 12 12 12 12 12 12 12 12 12 12 12 12 12 12 12 12 12 12 12 12 12 12 12 12 12 12 12 12 12 12 12 12 12 12 12 12 12 12 12 12 12 12 12 12 12 12 12 12 12 12 12 12 12 12 12 12 12 12 12 12 12 12 12 12 12 12 12 12 12 12 12 12 12 12 12 12 12 12 12 12 12 12 12 12 12 12 12 12 12 12 12 12 12 12 12 12 12 12 12 12 12 12 12 12 12 12 12 12 12 12 12 12 12 12 12 12 12 12 12 12 12 12 12 12 12 12 12 12 12 12 12 12 12 12 12 12 12 12 12 12 12 12 12 12 12 12 12 12 12 12 12 12 12 12 12 12 12 12 12 12 12 12 12 12 12 12 12 12 12 12 12 12 12 12 12 12 12 12 12 12 12 12 12 12 12 12 12 12 12 12 12 12 12 12 12 12 12 12 12 12 12 12 12 12 12 12 12 12 12 12 12 12 12 12 12 12 12 12 12 12 12 12 12 12 12 12 12 12 12 12 12 12 12 12 12 12 12 12 12 12 12 12 12 12 12 12 12 12 12 12 12 12 12 12 12 12 12 12 12 12 12 12 12 12 12 12 12 12 12 12 12 12 12 12 12 12 12 12 12 12 12 12 12 12 12 12 12 12 12 12 12 12 12 12 12 12 12 12 12 12 12 12 12 12 12 12 12 12 12 12 12 12 12 12 12 12 12 12 12 12 12 12 12 12 12 12 12 12 12 12 12 12 12 12 12 12 12 12 12 12 12 12 12 12 12 12 12 12 12 12 12 12 12 12 12 12 12 12 12 12 12 12 12 12 12 12 12 12 12 12 12 12 12 12 12 12 12 12 12 12 12 12 12 12 12 12 12 12 12 12 12 12 12 12 12 12 12 12 12 12 12 12 12 12 12 12 12 12 12 12 12 12 12 12 12 12 12 12 12 12 12 12 12 12 12 12 12 12 12 12 12 12 12 12 12 12 12 12 12 12 12 12 12 12 12 12 12 12 12 12 12 12 12 12 12 12 12 12 12 12 12 12 12 12 12 12 12 12 12 12 12 12 12 12 12 12 12 12 12 12 12 12 12 12 12 12 12 12 12 12 12 12 12 12 12 12 12 12 12 12 12 12 12 12 12 12 12 12 12 12 12 12 12 12 12 12 12 12 12 12 12 12 12 12 12 12 12 12 12 12 12 12 12 12 12 12 12 12 12 12 12 12 12 12 12 12 12 12 12 12 12 12 12 12 12 12 12 12 12 12 12 12 12 12 12 12 12 12 12 12 12 12 12 12 12 12 12 12 12 12 12 12 12 12 12 12 12 12 12 12 12 12 12 12 12 12 12 12 12 12 12 12 12 12 12 12 12 12 12 12 12 12 12 12 12 12 12 12 12 12 12 12 12 12 12 12 12 12 12 12 12 12 12 12 12 12 12 12 12 12 12 12 12 12 12 12 12 12 12 12 12 12 12 12 12 12 12 12 12 12 12 12 12 12 12 12 12 12 12 12 12 12 12 12 12 12 12 12 12 12 12 12 12 12 12 12 12 12 12 12 12 12 12 12 12 12 12 12 12 12 12 12 12 12 12 12 12 12 12 12 12 12 12 12 12 12 12 12 12 12 12 12 12 12 12 12 12 12 12 12 12 12 12 12 12 12 12 12 12 12 12 12 12 12 12 12 12 12 12 12 12 12 12 12 12 12 12 12 12 12 12 12 12 12 12 12 12 12 12 12 12 12 12 12 12 12 12 12 12 12 12 12 12 12 12 12 12 12 12 12 12 12 12 12 12 12 12 12 12 12 12 12 12 12 12 12 12 12 12 12 12 12 12 12 12 12 12 12 12 12 12 12 12 12 12 12 12 12 12 12 12 12 12 12 12 12 12 12 12 12 12 12 12 12 12 12 12 12 12 12 12 12 12 12 12 12 12 12 12 12 12 12 12 12 12 12 12 12 12 12 12 12 12 12 12 12 12 12 12 12 12 12 12 12 12 12 12 12 12 12 12 12 12 12 12 12 12 12 12 12 12 12 12 12 12 12 12 12 12 12 12 12 12 12 12 12 12 12 12 12 12 12 12 12 12 12 12 12 12 12 12 12 12 12 12 12 12 12 12 12 12 12 12 12 12 12 12 12 12 12 12 12 12 12 12 12 12 12 12 12 12 12 12 12 12 12 12 12 12 12 12 12 12 12 12 12 12 12 12 12 12 12 12 12 12 12 12 12 12 12 12 12 12 12 12 12 12 12 12 12 12 12 12 12 12 12 12 12 12 12 12 12 12 12 12 12 12 12 12 12 12 12 12 12 12 12 12 12 12 12 12 12 12 12 12 12 12 12 12 12 12 12 12 12 12 12 12 12 12 12 12 12 12 12 12 12 12 12 12 12 12 12 12 12 12 12 12 12 12 12 12 12 12 12 12 12 12 12 12 12 12 12 12 12 12 12 12 12 12 12 12 12 12 12 12 12 12 12 12 12 12 12 12 12 12 12 12 12 12 12 12 12 12 12 12 12 12 12 12 12 12 12 12 12 12 12 12 12 12 12 12 12 12 12 12 12 12 12 12 12 12 12 12 12 12 12 12 12 12 12 12 12 12 12 12 12 12 12 12 12 12 12 12 12 12 12 12 12 12 12 12 12 12 12 12 12 12 12 12 12 12 12 12 12 12 12 12 12 12 12 12 12 12 12 12 12 12 12 12 12 12 12 12 12 12 12 12 12 12 12 12 12 12 12 12 12 12 12 12 12 12 12 12 12 12 12 12 12 12 12 12 12 12 12 12 12 12 12 12 12 12 12 12 12 12 12 12 12 12 12 12 12 12 12 12 12 12 12 12 12 12 12 12 12 12 12 12 12 12 12 12 12 12 12 12 12 12 12 12 12 12 12 12 12 12 12 12 12 12 12 12 12 12 12 12 12 12 12 12 12 12 12 12 12 12 12 12 12 12 12 12 12 12 12 12 12 12 12 12 12 12 12 12 12 12 12 12 12 12 12 12 12 12 12 12 12 12 12 12 12 12 12 12 12 12 12 12 12 12 12 12 12 12 12 12 12 12 12 12 12 12 12 12 12 12 12 12 12 12 12 12 12 12 12 12 12 12 12 12 12 12 12 12 12 12 12 12 12 12 12 12 12 12 12 12 12 12 12 12 12 12 12 12 12 12 12 12 12 12 12 12 12 12 12 12 12 12 12 12 12 12 12 12 12 12 12 12 12 12 12 12 12 12 12 12 12 12 12 12 12 12 12 12 12 12 12 12 12 12 12 12 12 12 12 12 12 12 12 12 12 12 12 12 12 12 12 12 12 12 12 12 12 12 12 12 12 12 12 12 12 12 12 12 12 12 12 12 12 12 12 12 12 12 12 12 12 12 12 12 12 12 12 12 12 12 12 12 12 12 12 12 12 12 12 12 12 12 12 12 12 12 12 12 12 12 12 12 12 12 12 12 12 12 12 12 12 12 12 12 12 12 12 12 12 12 12 12 12 12 12 12 12 12 12 12 12 12 12 12 12 12 12 12 12 12 12 12 12 12 12 12 12 12 12 12 12 12 12 12 12 12 12 12 12 12 12 12 12 12 12 12 12 12 12 12 12 12 12 12 12 12 12 12 12 12 12 12 12 12 12 12 12 12 12 12 12 12 12 12 12 12 12 12 12 12 12 12 12 12 12 12 12 12 12 12 12 12 12 12 12 12 12 12 12 12 12 12 12 12 12 12 12 12 12 12 12 12 12 12 12 12 12 12 12 12 12 12 12 12 12 12 12 12 12 12 12 12 12 12 12 12 12 12 12 12 12 12 12 12 12 12 12 12 12 12 12 12 12 12 12 12 12 12 12 12 12 12 12 12 12 12 12 12 12 12 12 12 12 12 12 12 12 12 12 12 12 12 12 12 12 12 12 12 12 12 12 12 12 12 12 12 12 12 12 12 12 12 12 12 12 12 12 12 12 12 12 12 12 12 12 12 12 12 12 12 12 12 12 12 12 12 12 12 12 12 12 12 12 12 12 12 12 12 12 12 12 12 12 12 12 12 12 12 12 12 12 12 12 12 12 12 12 12 12 12 12 12 12 12 12 12 12 12 12 12 12 12 12 12 12 12 12 12 12 12 12 12 12 12 12 12 12 12 12 12 12 12 12 12 12 12 12 12 12 12 12 12 12 12 12 12 12 12 12 12 12 12 12 12 12 12 12 12 12 12 12 12 12 12 12 12 12 12 12 12 12 12 12 12 12 12 12 12 12 12 12 12 12 12 12 12 12 12 12 12 12 12 12 12 12 12 12 12 12 12 12 12 12 12 12 12 12 12 12 12 12 12 12 12 12 12 12 12 12 12 12 12 12 12 12 12 12 12 12 12 12 12 12 12 12 12 12 12 12 12 12 12 12 12 12 12 12 12 12 12 12 12 12 12 12 12 12 12 12 12 12 12 12 12 12 12 12 12 12 12 12 12 12 12 12 12 12 12 12 12 12 12 12 12 12 12 12 12 12 12 12 12 12 12 12 12 12 12 12 12 12 12 12 12 12 12 12 12 12 12 12 12 12 12 12 12 12 12 12 12 12 12 12 12 12 12 12 12 12 12 12 12 12 12 12 12 12 12 12 12 12 12 12 12 12 12 12 12 12 12 12 12 12 12 12 12 12 12 12 12 12 12 12 12 12 12 12 12 12 12 12 12 12 12 12 12 12 12 12 12 12 12 12 12 12 12 12 12 12 12 12 12 12 12 12 12 12 12 12 12 12 12 12 12 12 12 12 12 12 12 12 12 12 12 12 12 12 12 12 12 12 12 12 12 12 12 12 12 12 12 12 12 12 12 12 12 12 12 12 12 12 12 12 12 12 12 12 12 12 12 12 12 12 12 12 12 12 12 12 12 12 12 12 12 12 12 12 12 12 12 12 12 12 12 12 12 12 12 12 12 12 12 12 12 12 12 12 12 12 12 12 12 12 12 12 12 12 12 12 12 12 12 12 12 12 12 12 12 12 12 12 12 12 12 12 12 12 12 12 12 12 12 12 12 12 12 12 12 12 12 12 12 12 12 12 12 12 12 12 12 12 12 12 12 12 12 12 12 12 12 12 12 12 12 12 12 12 12 12 12 12 12 12 12 12 12 12 12 12 12 12 12 12 12 12 12 12 12 12 12 12 12 12 12 12 12 12 12 12 12 12 12 12 12 12 12 12 12 12 12 12 12 12 12 12 12 12 12 12 12 12 12 12 12 12 12 12 12 12 12 12 12 12 12 12 12 12 12 12 12 12 12 12 12 12 12 12 12 12 12 12 12 12 12 12 12 12 12 12 12 12 12 12 12 12 12 12 12 12 12 12 12 12 12 12 12 12 12 12 12 12 12 12 12 12 12 12 12 12 12 12 12 12 12 12 12 12 12 12 12 12 12 12 12 12 12 12 12 12 12 12 12 12 12 12 12 12 12 12 12 12 12 12 12 12 12 12 12 12 12 12 12 12 12 12 12 12 12 12 12 12 12 12 12 12 12 12 12 12 12 12 12 12 12 12 12 12 12 12 12 12 12 12 12 12 12 12 12 12 12 12 12 12 12 12 12 12 12 12 12 12 12 12 12 12 12 12 12 12 12 12 12 12 12 12 12 12 12 12 12 12 12 12 12 12 12 12 12 12 12 12 12 12 12 12 12 12 12 12 12 12 12 12 12 12 12 12 12 12 12 12 12 12 12 12 12 12 12 12 12 12 12 12 12 12 12 12 12 12 12 12 12 12 12 12 12 12 12 12 12 12 12 12 12 12 12 12 12 12 12 12 12 12 12 12 12 12 12 12 12 12 12 12 12 12 12 12 12 12 12 12 12 12 12 12 12 12 12 12 12 12 12 12 12 12 12 12 12 12 12 12 12 12 12 12 12 12 12 12 12 12 12 12 12 12 12 12 12 12 12 12 12 12 12 12 12 12 12 12 12 12 12 12 12 12 12 12 12 12 12 12 12 12 12 12 12 12 12 12 12 12 12 12 12 12 12 12 12 12 12 12 12 12 12 12 12 12 12 12 12 12 12 12 12 12 12 12 12 12 12 12 12 12 12 12 12 12 12 12 12 12 12 12 12 12 12 12 12 12 12 12 12 12 12 12 12 12 12 12 12 12 12 12 12 12 12 12 12 12 12 12 12 12 12 12 12 12 12 12 12 12 12 12 12 12 12 12 12 12 12 12 12 12 12 12 12 12 12 12 12 12 12 12 12 12 12 12 12 12 12 12 12 12 12 12 12 12 12 12 12 12 12 12 12 12 12 12 12 12 12 12 12 12 12 12 12 12 12 12 12 12 12 12 12 12 12 12 12 12 12 12 12 12 12 12 12 12 12 12 12 12 12 12 12 12 12 12 12 12 12 12 12 12 12 12 12 12 12 12 12 12 12 12 12 12 12 12 12 12 12 12 12 12 12 12 12 12 12 12 12 12 12 12 12 12 12 12 12 12 12 12 12 12 12 12 12 12 12 12 12 12 12 12 12 12 12 12 12 12 12 12 12 12 12 12 12 12 12 12 12 12 12 12 12 12 12 12 12 12 12 12 12 12 12 12 12 12 12 12 12 12 12 12 12 12 12 12 12 12 12 12 12 12 12 12 12 12 12 12 12 12 12 12 12 12 12 12 12 12 12 12 12 12 12 12 12 12 12 12 12 12 12 12 12 12 12 12 12 12 12 12 12 12 12 12 12 12 12 12 12 12 12 12 12 12 12 12 12 12 12 12 12 12 12 12 12 12 12 12 12 12 12 12 12 12 12 12 12 12 12 12 12 12 12 12 12 12 12 12 12 12 12 12 12 12 12 12 12 12 12 12 12 12 12 12 12 12 12 12 12 12 12 12 12 12 12 12 12 12 12 12 12 12 12 12 12 12 12 12 12 12 12 12 12 12 12 12 12 12 12 12 12 12 12 12 12 12 12 12 12 12 12 12 12 12 12 12 12 12 12 12 12 12 12 12 12 12 12 12 12 12 12 12 12 12 12 12 12 12 12 12 12 12 12 12 12 12 12 12 12 12 12 12 12 12 12 12 12 12 12 12 12 12 12 12 12 12 12 12 12 12 12 12 12 12 12 12 12 12 12 12 12 12 12 12 12 12 12 12 12 12 12 12 12 12 12 12 12 12 12 12 12 12 12 12 12 12 12 12 12 12 12 12 12 12 12 12 12 12 12 12 12 12 12 12 12 12 12 12 12 12 12 12 12 12 12 12 12 12 12 12 12 12 12 12 12 12 12 12 12 12 12 12 12 12 12 12 12 12 12 12 12 12 12 12 12 12 12 12 12 12 12 12 12 12 12 12 12 12 12 12 12 12 12 12 12 12 12 12 12 12 12 12 12 12 12 12 12 12 12 12 12 12 12 12 12 12 12 12 12 12 12 12 12 12 12 12 12 12 12 12 12 12 12 12 12 12 12 12 12 12 12 12 12 12 12 12 12 12 12 12 12 12 12 12 12 12 12 12 12 12 12 12 12 12 12 12 12 12 12 12 12 12 12 12 12 12 12 12 12 12 12 12 12 12 12 12 12 12 12 12 12 12 12 12 12 12 12 12 12 12 12 12 12 12 12 12 12 12 12 12 12 12 12 12 12 12 12 12 12 12 12 12 12 12 12 12 12 12 12 12 12 12 12 12 12 12 12 12 12 12 12 12 12 12 12 12 12 12 12 12 12 12 12 12 12 12 12 12 12 12 12 12 12 12 12 12 12 12 12 12 12 12 12 12 12 12 12 12 12 12 12 12 12 12 12 12 12 12 12 12 12 12 12 12 12 12 12 12 12 12 12 12 12 12 12 12 12 12 12 12 12 12 12 12 12 12 12 12 12 12 12 12 12 12 12 12 12 12 12 12 12 12 12 12 12 12 12 12 12 12 12 12 12 12 12 12 12 12 12 12 12 12 12 12 12 12 12 12 12 12 12 12 12 12 12 12 12 12 12 12 12 12 12 12 12 12 12 12 12 12 12 12 12 12 12 12 12 12 12 12 12 12 12 12 12 12 12 12 12 12 12 12 12 12 12 12 12 12 12 12 12 12 12 12 12 12 12 12 12 12 12 12 12 12 12 12 12 12 12 12 12 12 12 12 12 12 12 12 12 12 12 12 12 12 12 12 12 12 12 12 12 12 12 12 12 12 12 12 12 12 12 12 12 12 12 12 12 12 12 12 12 12 12 12 12 12 12 12 12 12 12 12 12 12 12 12 12 12 12 12 12 12 12 12 12 12 12 12 12 12 12 12 12 12 12 12 12 12 12 12 12 12 12 12 12 12 12 12 12 12 12 12 12 12 12 12 12 12 12 12 12 12 12 12 12 12 12 12 12 12 12 12 12 12 12 12 12 12 12 12 12 12 12 12 12 12 12 12 12 12 12 12 12 12 12 12 12 12 12 12 12 12 12 12 12 12 12 12 12 12 12 12 12 12 12 12 12 12 12 12 12 12 12 12 12 12 12 12 12 12 12 12 12 12 12 12 12 12 12 12 12 12 12 12 12 12 12 12 12 12 12 12 12 12 12 12 12 12 12 12 12 12 12 12 12 12 12 12 12 12 12 12 12 12 12 12 12 12 12 12 12 12 12 12 12 12 12 12 12 12 12 12 12 12 12 12 12 12 12 12 12 12 12 12 12 12 12 12 12 12 12 12 12 12 12 12 12 12 12 12 12 12 12 12 12 12 12 12 12 12 12 12 12 12 12 12 12 12 12 12 12 12 12 12 12 12 12 12 12 12 12 12 12 12 12 12 12 12 12 12 12 12 12 12 12 12 12 12 12 12 12 12 12 12 12 12 12 12 12 12 12 12 12 12 12 12 12 12 12 12 12 12 12 12 12 12 12 12 12 12 12 12 12 12 12 12 12 12 12 12 12 12 12 12 12 12 12 12 12 12 12 12 12 12 12 12 12 12 12 12 12 12 12 12 12 12 12 12 12 12 12 12 12 12 12 12 12 12 12 12 12 12 12 12 12 12 12 12 12 12 12 12 12 12 12 12 12 12 12 12 12 12 12 12 12 12 12 12 12 12 12 12 12 12 12 12 12 12 12 12 12 12 12 12 12 12 12 12 12 12 12 12 12 12 12 12 12 12 12 12 12 12 12 12 12 12 12 12 12 12 12 12 12 12 12 12 12 12 12 12 12 12 12 12 12 12 12 12 12 12 12 12 12 12 12 12 12 12 12 12 12 12 12 12 12 12 12 12 12 12 12 12 12 12 12 12 12 12 12 12 12 12 12 12 12 12 12 12 12 12 12 12 12 12 12 12 12 12 12 12 12 12 12 12 12 12 12 12 12 12 12 12 12 12 12 12 12 12 12 12 12 12 12 12 12 12 12 12 12 12 12 12 12 12 12 12 12 12 12 12 12 12 12 12 12 12 12 12 12 12 12 12 12 12 12 12 12 12 12 12 12 12 12 12 12 12 12 12 12 12 12 12 12 12 12 12 12 12 12 12 12 12 12 12 12 12 12 12 12 12 12 12 12 12 12 12 12 12 12 12 12 12 12 12 12 12 12 12 12 12 12 12 12 12 12 12 12 12 12 12 12 12 12 12 12 12 12 12 12 12 12 12 12 12 12 12 12 12 12 12 12 12 12 12 12 12 12 12 12 12 12 12 12 12 12 12 12 12 12 12 12 12 12 12 12 12 12 12 12 12 12 12 12 12 12 12 12 12 12 12 12 12 12 12 12 12 12 12 12 12 12 12 12 12 12 12 12 12 12 12 12 12 12 12 12 12 12 12 12 12 12 12 12 12 12 12 12 12 12 12 12 12 12 12 12 12 12 12 12 12 12 12 12 12 12 12 12 12 12 12 12 12 12 12 12 12 12 12 12 12 12 12 12 12 12 12 12 12 12 12 12 12 12 12 12 12 12 12 12 12 12 12 12 12 12 12 12 12 12 12 12 12 12 12 12 12 12 12 12 12 12 12 12 12 12 12 12 12 12 12 12 12 12 12 12 12 12 12 12 12 12 12 12 12 12 12 12 12 12 12 12 12 12 12 12 12 12 12 12 12 12 12 12 12 12 12 12 12 12 12 12 12 12 12 12 12 12 12 12 12 12 12 12 12 12 12 12 12 12 12 12 12 12 12 12 12 12 12 12 12 12 12 12 12 12 12 12 12 12 12 12 12 12 12 12 12 12 12 12 12 12 12 12 12 12 12 12 12 12 12 12 12 12 12 12 12 12 12 12 12 12 12 12 12 12 12 12 12 12 12 12 12 12 12 12 12 12 12 12 12 12 12 12 12 12 12 12 12 12 12 12 12 12 12 12 12 12 12 12 12 12 12 12 12 12 12 12 12 12 12 12 12 12 12 12 12 12 12 12 12 12 12 12 12 12 12 12 12 12 12 12 12 12 12 12 12 12 12 12 12 12 12 12 12 12 12 12 12 12 12 12 12 12 12 12 12 12 12 12 12 12 12 12 12 12 12 12 12 12 12 12 12 12 12 12 12 12 12 12 12 12 12 12 12 12 12 12 12 12 12 12 12 12 12 12 12 12 12 12 12 12 12 12 12 12 12 12 12 12 12 12 12 12 12 12 12 12 12 12 12 12 12 12 12 12 12 12 12 12 12 12 12 12 12 12 12 12 12 12 12 12 12 12 12 12 12 12 12 12 12 12 12 12 12 12 12 12 12 12 12 12 12 12 12 12 12 12 12 12 12 12 12 12 12 12 12 12 12 12 12 12 12 12 12 12 12 12 12 12 12 12 12 12 12 12 12 12 12 12 12 12 12 12 12 12 12 12 12 12 12 12 12 12 12 12 12 12 12 12 12 12 12 12 12 12 12 12 12 12 12 12 12 12 12 12 12 12 12 12 12 12 12 12 12 12 12 12 12 12 12 12 12 12 12 12 12 12 12 12 12 12 12 12 12 12 12 12 12 12 12 12 12 12 12 12 12 12 12 12 12 12 12 12 12 12 12 12 12 12 12 12 12 12 12 12 12 12 12 12 12 12 12 12 12 12 12 12 12 12 12 12 12 12 12 12 12 12 12 12 12 12 12 12 12 12 12 12 12 12 12 12 12 12 12 12 12 12 12 12 12 12 12 12 12 12 12 12 12 12 12 12 12 12 12 12 12 12 12 12 12 12 12 12 12 12 12 12 12 12 12 12 12 12 12 12 12 12 12 12 12 12 12 12 12 12 12 12 12 12 12 12 12 12 12 12 12 12 12 12 12 12 12 12 12 12 12 12 12 12 12 12 12 12 12 12 12 12 12 12 12 12 12 12 12 12 12 12 12 12 12 12 12 12 12 12 12 12 12 12 12 12 12 12 12 12 12 12 12 12 12 12 12 12 12 12 12 12 12 12 12 12 12 12 12 12 12 12 12 12 12 12 12 12 12 12 12 12 12 12 12 12 12 12 12 12 12 12 12 12 12 12 12 12 12 12 12 12 12 12 12 12 12 12 12 12 12 12 12 12 12 12 12 12 12 12 12 12 12 12 12 12 12 12 12 12 12 12 12 12 12 12 12 12 12 12 12 12 12 12 12 12 12 12 12 12 12 12 12 12 12 12 12 12 12 12 12 12 12 12 12 12 12 12 12 12 12 12 12 12 12 12 12 12 12 12 12 12 12 12 12 12 12 12 12 12 12 12 12 12 12 12 12 12 12 12 12 12 12 12 12 12 12 12 12 12 12 12 12 12 12 12 12 12 12 12 12 12 12 12 12 12 12 12 12 12 12 12 12 12 12 12 12 12 12 12 12 12 12 12 12 12 12 12 12 12 12 12 12 12 12 12 12 12 12 12 12 12 12 12 12 12 12 12 12 12 12 12 12 12 12 12 12 12 12 12 12 12 12 12 12 12 12 12 12 12 12 12 12 12 12 12 12 12 12 12 12 12 12 12 12 12 12 12 12 12 12 12 12 12 12 12 12 12 12 12 12 12 12 12 12 12 12 12 12 12 12 12 12 12 12 12 12 12 12 12 12 12 12 12 12 12 12 12 12 12 12 12 12 12 12 12 12 12 12 12 12 12 12 12 12 12 12 12 12 12 12 12 12 12 12 12 12 12 12 12 12 12 12 12 12 12 12 12 12 12 12 12 12 12 12 12 12 12 12 12 12 12 12 12 12 12 12 12 12 12 12 12 12 12 12 12 12 12 12 12 12 12 12 12 12 12 12 12 12 12 12 12 12 12 12 12 12 12 12 12 12 12 12 12 12 12 12 12 12 12 12 12 12 12 12 12 12 12 12 12 12 12 12 12 12 12 12 12 12 12 12 12 12 12 12 12 12 12 12 12 12 12 12 12 12 12 12 12 12 12 12 12 12 12 12 12 12 12 12 12 12 12 12 12 12 12 12 12 12 12 12 12 12 12 12 12 12 12 12 12 12 12 12 12 12 12 12 12 12 12 12 12 12 12 12 12 12 12 12 12 12 12 12 12 12 12 12 12 12 12 12 12 12 12 12 12 12 12 12 12 12 12 12 12 12 12 12 12 12 12 12 12 12 12 12 12 12 12 12 12 12 12 12 12 12 12 12 12 12 12 12 12 12 12 12 12 12 12 12 12 12 12 12 12 12 12 12 12 12 12 12 12 12 12 12 12 12 12 12 12 12 12 12 12 12 12 12 12 12 12 12 12 12 12 12 12 12 12 12 12 12 12 12 12 12 12 12 12 12 12 12 12 12 12 12 12 12 12 12 12 12 12 12 12 12 12 12 12 12 12 12 12 12 12 12 12 12 12 12 12 12 12 12 12 12 12 12 12 12 12 12 12 12 12 12 12 12 12 12 12 12 12 12 12 12 12 12 12 12 12 12 12 12 12 12 12 12 12 12 12 12 12 12 12 12 12 12 12 12 12 12 12 12 12 12 12 12 12 12 12 12 12 12 12 12 12 12 12 12 12 12 12 12 12 12 12 12 12 12 12 12 12 12 12 12 12 12 12 12 12 12 12 12 12 12 12 12 12 12 12 12 12 12 12 12 12 12 12 12 12 12 12 12 12 12 12 12 12 12 12 12 12 12 12 12 12 12 12 12 12 12 12 12 12 12 12 12 12 12 12 12 12 12 12 12 12 12 12 12 12 12 12 12 12 12 12 12 12 12 12 12 12 12 12 12 12 12 12 12 12 12 12 12 12 12 12 12 12 12 12 12 12 12 12 12 12 12 12 12 12 12 12 12 12 12 12 12 12 12 12 12 12 12 12 12 12 12 12 12 12 12 12 12 12 12 12 12 12 12 12 12 12 12 12 12 12 12 12 12 12 12 12 12 12 12 12 12 12 12 12 12 12 12 12 12 12 12 12 12 12 12 12 12 12 12 12 12 12 12 12 12 12 12 12 12 12 12 12 12 12 12 12 12 12 12 12 12 12 12 12 12 12 12 12 12 12 12 12 12 12 12 12 12 12 12 12 12 12 12 12 12 12 12 12 12 12 12 12 12 12 12 12 12 12 12 12 12 12 12 12 12 12 12 12 12 12 12 12 12 12 12 12 12 12 12 12 12 12 12 12 12 12 12 12 12 12 12 12 12 12 12 12 12 12 12 12 12 12 12 12 12 12 12 12 12 12 12 12 12 12 12 12 12 12 12 12 12 12 12 12 12 12 12 12 12 12 12 12 12 12 12 12 12 12 12 12 12 12 12 12 12 12 12 12 12 12 12 12 12 12 12 12 12 12 12 12 12 12 12 12 12 12 12 12 12 12 12 12 12 12 12 12 12 12 12 12 12 12 12 12 12 12 12 12 12 12 12 12 12 12 12 12 12 12 12 12 12 12 12 12 12 12 12 12 12 12 12 12 12 12 12 12 12 12 12 12 12 12 12 12 12 12 12 12 12 12 12 12 12 12 12 12 12 12 12 12 12 12 12 12 12 12 12 12 12 12 12 12 12 12 12 12 12 12 12 12 12 12 12 12 12 12 12 12 12 12 12 12 12 12 12 12 12 12 12 12 12 12 12 12 12 12 12 12 12 12 12 12 12 12 12 12 12 12 12 12 12 12 12 12 12 12 12 12 12 12 12 12 12 12 12 12 12 12 12 12 12 12 12 12 12 12 12 12 12 12 12 12 12 12 12 12 12 12 12 12 12 12 12 12 12 12 12 12 12 12 12 12 12 12 12 12 12 12 12 12 12 12 12 12 12 12 12 12 12 12 12 12 12 12 12 12 12 12 12 12 12 12 12 12 12 12 12 12 12 12 12 12 12 12 12 12 12 12 12 12 12 12 12 12 12 12 12 12 12 12 12 12 12 12 12 12 12 12 12 12 12 12 12 12 12 12 12 12 12 12 12 12 12 12 12 12 12 12 12 12 12 12 12 12 12 12 12 12 12 12 12 12 12 12 12 12 12 12 12 12 12 12 12 12 12 12 12 12 12 12 12 12 12 12 12 12 12 12 12 12 12 12 12 12 12 12 12 12 12 12 12 12 12 12 12 12 12 12 12 12 12 12 12 12 12 12 12 12 12 12 12 12 12 12 12 12 12 12 12 12 12 12 12 12 12 12 12 12 12 12 12 12 12 12 12 12 12 12 12 12 12 12 12 12 12 12 12 12 12 12 12 12 12 12 12 12 12 12 12 12 12 12 12 12 12 12 12 12 12 12 12 12 12 12 12 12 12 12 12 12 12 12 12 12 12 12 12 12 12 12 12 12 12 12 12 12 12 12 12 12 12 12 12 12 12 12 12 12 12 12 12 12 12 12 12 12 12 12 12 12 12 12 12 12 12 12 12 12 12 12 12 12 12 12 12 12 12 12 12 12 12 12 12 12 12 12 12 12 12 12 12 12 12 12 12 12 12 12 12 12 12 12 12 12 12 12 12 12 12 12 12 12 12 12 12 12 12 12 12 12 12 12 12 12 12 12 12 12 12 12 12 12 12 12 12 12 12 12 12 12 12 12 12 12 12 12 12 12 12 12 12 12 12 12 12 12 12 12 12 12 12 12 12 12 12 12 12 12 12 12 12 12 12 12 12 12 12 12 12 12 12 12 12 12 12 12 12 12 12 12 12 12 12 12 12 12 12 12 12 12 12 12 12 12 12 12 12 12 12 12 12 12 12 12 12 12 12 12 12 12 12 12 12 12 12 12 12 12 12 12 12 12 12 12 12 12 12 12 12 12 12 12 12 12 12 12 12 12 12 12 12 12 12 12 12 12 12 12 12 12 12 12 12 12 12 12 12 12 12 12 12 12 12 12 12 12 12 12 12 12 12 12 12 12 12 12 12 12 12 12 12 12 12 12 12 12 12 12 12 12 12 12 12 12 12 12 12 12 12 12 12 12 12 12 12 12 12 12 12 12 12 12 12 12 12 12 12 12 12 12 12 12 12 12 12 12 12 12 12 12 12 12 12 12 12 12 12 12 12 12 12 12 12 12 12 12 12 12 12 12 12 12 12 12 12 12 12 12 12 12 12 12 12 12 12 12 12 12 12 12 12 12 12 12 12 12 12 12 12 12 12 12 12 12 12 12 12 12 12 12 12 12 12 12 12 12 12 12 12 12 12 12 12 12 12 12 12 12 12 12 12 12 12 12 12 12 12 12 12 12 12 12 12 12 12 12 12 12 12 12 12 12 12 12 12 12 12 12 12 12 12 12 12 12 12 12 12 12 12 12 12 12 12 12 12 12 12 12 12 12 12 12 12 12 12 12 12 12 12 12 12 12 12 12 12 12 12 12 12 12 12 12 12 12 12 12 12 12 12 12 12 12 12 12 12 12 12 12 12 12 12 12 12 12 12 12 12 12 12 12 12 12 12 12 12 12 12 12 12 12 12 12 12 12 12 12 12 12 12 12 12 12 12 12 12 12 12 12 12 12 12 12 12 12 12 12 12 12 12 12 12 12 12 12 12 12 12 12 12 12 12 12 12 12 12 12 12 12 12 12 12 12 12 12 12 12 12 12 12 12 12 12 12 12 12 12 12 12 12 12 12 12 12 12 12 12 12 12 12 12 12 12 12 12 12 12 12 12 12 12 12 12 12 12 12 12 12 12 12 12 12 12 12 12 12 12 12 12 12 12 12 12 12 12 12 12 12 12 12 12 12 12 12 12 12 12 12 12 12 12 12 12 12 12 12 12 12 12 12 12 12 12 12 12 12 12 12 12 12 12 12 12 12 12 12 12 12 12 12 12 12 12 12 12 12 12 12 12 12 12 12 12 12 12 12 12 

POINT_DATA 18785
SCALARS weights float 1
LOOKUP_TABLE default
0.0305176 0.0610351 0.0610351 0.0610351 0.0610351 0.0610351 0.0610352 0.0610351 0.0610351 0.0610351 0.0610352 0.0610351 0.0610352 0.0610352 0.0610351 0.0610351 0.0610351 0.0610351 0.0610351 0.0610351 0.0610352 0.0610352 0.0610351 0.0610351 0.0610352 0.0610352 0.0610351 0.0610351 0.0610351 0.0610351 0.0610351 0.0610351 0.0610352 0.0610351 0.0610351 0.0610351 0.0610351 0.0610351 0.0610351 0.0610351 0.0610351 0.0610352 0.0610351 0.0610351 0.0610351 0.0610351 0.0610352 0.0610351 0.0610352 0.0610352 0.0610351 0.0610352 0.0610351 0.0610351 0.0610352 0.0610352 0.0610352 0.0610351 0.0610352 0.0610352 0.0610352 0.0610351 0.0610351 0.0610352 0.0305176 0.0610351 0.12207 0.12207 0.12207 0.12207 0.12207 0.12207 0.12207 0.12207 0.12207 0.12207 0.12207 0.12207 0.12207 0.12207 0.12207 0.12207 0.12207 0.12207 0.12207 0.12207 0.12207 0.12207 0.12207 0.12207 0.12207 0.12207 0.12207 0.12207 0.12207 0.12207 0.12207 0.12207 0.12207 0.12207 0.12207 0.12207 0.12207 0.12207 0.12207 0.12207 0.12207 0.12207 0.12207 0.12207 0.12207 0.12207 0.12207 0.12207 0.12207 0.12207 0.12207 0.12207 0.12207 0.12207 0.12207 0.12207 0.12207 0.12207 0.12207 0.12207 0.12207 0.12207 0.12207 0.0610352 0.0610351 0.12207 0.12207 0.12207 0.12207 0.12207 0.12207 0.12207 0.12207 0.12207 0.12207 0.12207 0.12207 0.12207 0.12207 0.12207 0.12207 0.12207 0.12207 0.12207 0.12207 0.12207 0.12207 0.12207 0.12207 0.12207 0.12207 0.12207 0.12207 0.12207 0.12207 0.12207 0.12207 0.12207 0.12207 0.12207 0.12207 0.12207 0.12207 0.12207 0.12207 0.12207 0.12207 0.12207 0.12207 0.12207 0.12207 0.12207 0.12207 0.12207 0.12207 0.12207 0.12207 0.12207 0.12207 0.12207 0.12207 0.12207 0.12207 0.12207 0.12207 0.12207 0.12207 0.12207 0.0610352 0.0610351 0.12207 0.12207 0.12207 0.12207 0.12207 0.12207 0.12207 0.12207 0.12207 0.12207 0.12207 0.12207 0.12207 0.12207 0.12207 0.12207 0.12207 0.12207 0.12207 0.12207 0.12207 0.12207 0.12207 0.12207 0.12207 0.12207 0.12207 0.12207 0.12207 0.12207 0.12207 0.12207 0.12207 0.12207 0.12207 0.12207 0.12207 0.12207 0.12207 0.12207 0.12207 0.12207 0.12207 0.12207 0.12207 0.12207 0.12207 0.12207 0.12207 0.12207 0.12207 0.12207 0.12207 0.12207 0.12207 0.12207 0.12207 0.12207 0.12207 0.12207 0.12207 0.12207 0.12207 0.0610352 0.0610351 0.12207 0.12207 0.12207 0.12207 0.12207 0.12207 0.12207 0.12207 0.12207 0.12207 0.12207 0.12207 0.12207 0.12207 0.12207 0.12207 0.12207 0.12207 0.12207 0.12207 0.12207 0.12207 0.12207 0.12207 0.12207 0.12207 0.12207 0.12207 0.12207 0.12207 0.12207 0.12207 0.12207 0.12207 0.12207 0.12207 0.12207 0.12207 0.12207 0.12207 0.12207 0.12207 0.12207 0.12207 0.12207 0.12207 0.12207 0.12207 0.12207 0.12207 0.12207 0.12207 0.12207 0.12207 0.12207 0.12207 0.12207 0.12207 0.12207 0.12207 0.12207 0.12207 0.12207 0.0610352 0.0610351 0.12207 0.12207 0.12207 0.12207 0.12207 0.12207 0.12207 0.12207 0.12207 0.12207 0.12207 0.12207 0.12207 0.12207 0.12207 0.12207 0.12207 0.12207 0.12207 0.12207 0.12207 0.12207 0.12207 0.12207 0.12207 0.12207 0.12207 0.12207 0.12207 0.12207 0.12207 0.12207 0.12207 0.12207 0.12207 0.12207 0.12207 0.12207 0.12207 0.12207 0.12207 0.12207 0.12207 0.12207 0.12207 0.12207 0.12207 0.12207 0.12207 0.12207 0.12207 0.12207 0.12207 0.12207 0.12207 0.12207 0.12207 0.12207 0.12207 0.12207 0.12207 0.12207 0.12207 0.0610352 0.0610351 0.12207 0.12207 0.12207 0.12207 0.12207 0.12207 0.12207 0.12207 0.12207 0.12207 0.12207 0.12207 0.12207 0.12207 0.12207 0.12207 0.12207 0.12207 0.12207 0.12207 0.12207 0.12207 0.12207 0.12207 0.12207 0.12207 0.12207 0.12207 0.12207 0.12207 0.12207 0.12207 0.12207 0.12207 0.12207 0.12207 0.12207 0.12207 0.12207 0.12207 0.12207 0.12207 0.12207 0.12207 0.12207 0.12207 0.12207 0.12207 0.12207 0.12207 0.12207 0.12207 0.12207 0.12207 0.12207 0.12207 0.12207 0.12207 0.12207 0.12207 0.12207 0.12207 0.12207 0.0610352 0.0610351 0.12207 0.12207 0.12207 0.12207 0.12207 0.12207 0.12207 0.12207 0.12207 0.12207 0.12207 0.12207 0.12207 0.12207 0.12207 0.12207 0.12207 0.12207 0.12207 0.12207 0.12207 0.12207 0.12207 0.12207 0.12207 0.12207 0.12207 0.12207 0.12207 0.12207 0.12207 0.12207 0.12207 0.12207 0.12207 0.12207 0.12207 0.12207 0.12207 0.12207 0.12207 0.12207 0.12207 0.12207 0.12207 0.12207 0.12207 0.12207 0.12207 0.12207 0.12207 0.12207 0.12207 0.12207 0.12207 0.12207 0.12207 0.12207 0.12207 0.12207 0.12207 0.12207 0.12207 0.0610352 0.0610351 0.12207 0.12207 0.12207 0.12207 0.12207 0.12207 0.12207 0.12207 0.12207 0.12207 0.12207 0.12207 0.12207 0.12207 0.12207 0.12207 0.12207 0.12207 0.12207 0.12207 0.12207 0.12207 0.12207 0.12207 0.12207 0.12207 0.12207 0.12207 0.12207 0.12207 0.12207 0.12207 0.12207 0.12207 0.12207 0.12207 0.12207 0.12207 0.12207 0.12207 0.12207 0.12207 0.12207 0.12207 0.12207 0.12207 0.12207 0.12207 0.12207 0.12207 0.12207 0.12207 0.12207 0.12207 0.12207 0.12207 0.12207 0.12207 0.12207 0.12207 0.12207 0.12207 0.12207 0.0610352 0.0610351 0.12207 0.12207 0.12207 0.12207 0.12207 0.12207 0.12207 0.12207 0.12207 0.12207 0.12207 0.12207 0.12207 0.12207 0.12207 0.12207 0.12207 0.12207 0.12207 0.12207 0.12207 0.12207 0.12207 0.12207 0.12207 0.12207 0.12207 0.12207 0.12207 0.12207 0.12207 0.12207 0.12207 0.12207 0.12207 0.12207 0.12207 0.12207 0.12207 0.12207 0.12207 0.12207 0.12207 0.12207 0.12207 0.12207 0.12207 0.12207 0.12207 0.12207 0.12207 0.12207 0.12207 0.12207 0.12207 0.12207 0.12207 0.12207 0.12207 0.12207 0.12207 0.12207 0.12207 0.0610352 0.0610351 0.12207 0.12207 0.12207 0.12207 0.12207 0.12207 0.12207 0.12207 0.12207 0.12207 0.12207 0.12207 0.12207 0.12207 0.12207 0.12207 0.12207 0.12207 0.12207 0.12207 0.12207 0.12207 0.12207 0.12207 0.12207 0.12207 0.12207 0.12207 0.12207 0.12207 0.12207 0.12207 0.12207 0.12207 0.12207 0.12207 0.12207 0.12207 0.12207 0.12207 0.12207 0.12207 0.12207 0.12207 0.12207 0.12207 0.12207 0.12207 0.12207 0.12207 0.12207 0.12207 0.12207 0.12207 0.12207 0.12207 0.12207 0.12207 0.12207 0.12207 0.12207 0.12207 0.12207 0.0610352 0.0610351 0.12207 0.12207 0.12207 0.12207 0.12207 0.12207 0.12207 0.12207 0.12207 0.12207 0.12207 0.12207 0.12207 0.12207 0.12207 0.12207 0.12207 0.12207 0.12207 0.12207 0.12207 0.12207 0.12207 0.12207 0.12207 0.12207 0.12207 0.12207 0.12207 0.12207 0.12207 0.12207 0.12207 0.12207 0.12207 0.12207 0.12207 0.12207 0.12207 0.12207 0.12207 0.12207 0.12207 0.12207 0.12207 0.12207 0.12207 0.12207 0.12207 0.12207 0.12207 0.12207 0.12207 0.12207 0.12207 0.12207 0.12207 0.12207 0.12207 0.12207 0.12207 0.12207 0.12207 0.0610352 0.0610352 0.12207 0.12207 0.12207 0.12207 0.12207 0.12207 0.12207 0.12207 0.12207 0.12207 0.12207 0.12207 0.12207 0.12207 0.12207 0.12207 0.12207 0.12207 0.12207 0.12207 0.12207 0.12207 0.12207 0.12207 0.12207 0.12207 0.12207 0.12207 0.12207 0.12207 0.12207 0.12207 0.12207 0.12207 0.12207 0.12207 0.12207 0.12207 0.12207 0.12207 0.12207 0.12207 0.12207 0.12207 0.12207 0.12207 0.12207 0.12207 0.12207 0.12207 0.12207 0.12207 0.12207 0.12207 0.122071 0.12207 0.12207 0.12207 0.12207 0.12207 0.12207 0.12207 0.12207 0.0610353 0.0610351 0.12207 0.12207 0.12207 0.12207 0.12207 0.12207 0.12207 0.12207 0.12207 0.12207 0.12207 0.12207 0.12207 0.12207 0.12207 0.12207 0.12207 0.12207 0.12207 0.12207 0.12207 0.12207 0.12207 0.12207 0.12207 0.12207 0.12207 0.12207 0.12207 0.12207 0.12207 0.12207 0.12207 0.12207 0.12207 0.12207 0.12207 0.12207 0.12207 0.12207 0.12207 0.12207 0.12207 0.12207 0.12207 0.12207 0.12207 0.12207 0.12207 0.12207 0.12207 0.12207 0.12207 0.12207 0.12207 0.12207 0.12207 0.12207 0.12207 0.12207 0.12207 0.12207 0.12207 0.0610352 0.0610351 0.12207 0.12207 0.12207 0.12207 0.12207 0.12207 0.12207 0.12207 0.12207 0.12207 0.12207 0.12207 0.12207 0.12207 0.12207 0.12207 0.12207 0.12207 0.12207 0.12207 0.12207 0.12207 0.12207 0.12207 0.12207 0.12207 0.12207 0.12207 0.12207 0.12207 0.12207 0.12207 0.12207 0.12207 0.12207 0.12207 0.12207 0.12207 0.12207 0.12207 0.12207 0.12207 0.12207 0.12207 0.12207 0.12207 0.12207 0.12207 0.12207 0.12207 0.12207 0.12207 0.12207 0.12207 0.12207 0.12207 0.12207 0.12207 0.12207 0.12207 0.12207 0.12207 0.12207 0.0610352 0.0610351 0.12207 0.12207 0.12207 0.12207 0.12207 0.12207 0.12207 0.12207 0.12207 0.12207 0.12207 0.12207 0.12207 0.12207 0.12207 0.12207 0.12207 0.12207 0.12207 0.12207 0.12207 0.12207 0.12207 0.12207 0.12207 0.12207 0.12207 0.12207 0.12207 0.12207 0.12207 0.12207 0.12207 0.12207 0.12207 0.12207 0.12207 0.12207 0.12207 0.12207 0.12207 0.12207 0.12207 0.12207 0.12207 0.12207 0.12207 0.12207 0.12207 0.12207 0.12207 0.12207 0.12207 0.12207 0.12207 0.12207 0.12207 0.12207 0.12207 0.12207 0.12207 0.12207 0.12207 0.0610352 0.0305176 0.0610351 0.0610351 0.0610351 0.0610351 0.0610351 0.0610352 0.0610351 0.0610351 0.0610351 0.0610351 0.0610351 0.0610351 0.0610352 0.0610351 0.0610351 0.0610351 0.0610351 0.0610351 0.0610351 0.0610351 0.0610352 0.0610351 0.0610351 0.0610352 0.0610352 0.0610351 0.0610351 0.0610351 0.0610351 0.0610351 0.0610351 0.0610351 0.0610351 0.0610351 0.0610351 0.0610351 0.0610351 0.0610351 0.0610351 0.0610351 0.0610352 0.0610351 0.0610351 0.0610351 0.0610351 0.0610351 0.0610351 0.0610352 0.0610352 0.0610351 0.0610352 0.0610351 0.061035 0.0610352 0.0610352 0.0610352 0.0610351 0.0610352 0.0610352 0.0610352 0.0610351 0.061035 0.0610352 0.0305176 0.0610351 0.12207 0.12207 0.12207 0.12207 0.12207 0.12207 0.12207 0.12207 0.12207 0.12207 0.12207 0.12207 0.12207 0.12207 0.12207 0.12207 0.12207 0.12207 0.12207 0.12207 0.12207 0.12207 0.12207 0.12207 0.12207 0.12207 0.12207 0.12207 0.12207 0.12207 0.12207 0.12207 0.12207 0.12207 0.12207 0.12207 0.12207 0.12207 0.12207 0.12207 0.12207 0.12207 0.12207 0.12207 0.12207 0.12207 0.12207 0.12207 0.12207 0.12207 0.12207 0.12207 0.12207 0.12207 0.12207 0.12207 0.12207 0.12207 0.12207 0.12207 0.12207 0.12207 0.12207 0.0610352 0.12207 0.244141 0.244141 0.244141 0.244141 0.244141 0.244141 0.244141 0.244141 0.244141 0.244141 0.244141 0.244141 0.244141 0.244141 0.244141 0.244141 0.24414 0.24414 0.244141 0.244141 0.244141 0.244141 0.244141 0.244141 0.244141 0.24414 0.244141 0.244141 0.24414 0.244141 0.244141 0.244141 0.244141 0.244141 0.24414 0.244141 0.244141 0.24414 0.244141 0.244141 0.244141 0.244141 0.244141 0.24414 0.244141 0.244141 0.24414 0.244141 0.244141 0.244141 0.244141 0.24414 0.24414 0.244141 0.244141 0.244141 0.24414 0.244141 0.244141 0.244141 0.24414 0.24414 0.244141 0.12207 0.12207 0.244141 0.244141 0.244141 0.244141 0.244141 0.244141 0.244141 0.24414 0.244141 0.244141 0.244141 0.244141 0.244141 0.24414 0.244141 0.244141 0.24414 0.24414 0.244141 0.244141 0.244141 0.244141 0.24414 0.244141 0.244141 0.24414 0.244141 0.244141 0.24414 0.244141 0.244141 0.244141 0.24414 0.24414 0.24414 0.244141 0.244141 0.24414 0.244141 0.244141 0.244141 0.24414 0.24414 0.24414 0.244141 0.244141 0.24414 0.244141 0.244141 0.244141 0.244141 0.24414 0.24414 0.244141 0.244141 0.244141 0.24414 0.244141 0.244141 0.244141 0.24414 0.24414 0.244141 0.12207 0.12207 0.244141 0.244141 0.244141 0.244141 0.244141 0.244141 0.244141 0.244141 0.244141 0.244141 0.244141 0.244141 0.244141 0.244141 0.24414 0.244141 0.24414 0.24414 0.244141 0.244141 0.244141 0.244141 0.244141 0.244141 0.244141 0.24414 0.244141 0.244141 0.24414 0.244141 0.244141 0.244141 0.24414 0.24414 0.24414 0.244141 0.244141 0.24414 0.244141 0.244141 0.244141 0.24414 0.244141 0.24414 0.244141 0.244141 0.24414 0.244141 0.244141 0.244141 0.244141 0.24414 0.24414 0.244141 0.244141 0.244141 0.24414 0.244141 0.244141 0.244141 0.24414 0.24414 0.244141 0.12207 0.12207 0.244141 0.244141 0.244141 0.244141 0.244141 0.244141 0.244141 0.24414 0.244141 0.244141 0.244141 0.244141 0.244141 0.244141 0.244141 0.244141 0.24414 0.24414 0.244141 0.244141 0.244141 0.244141 0.244141 0.244141 0.244141 0.24414 0.244141 0.244141 0.24414 0.244141 0.244141 0.244141 0.24414 0.24414 0.24414 0.244141 0.244141 0.24414 0.244141 0.244141 0.244141 0.244141 0.244141 0.24414 0.244141 0.244141 0.24414 0.244141 0.244141 0.244141 0.244141 0.24414 0.24414 0.244141 0.244141 0.244141 0.24414 0.244141 0.244141 0.244141 0.24414 0.24414 0.244141 0.12207 0.12207 0.244141 0.244141 0.244141 0.244141 0.244141 0.244141 0.244141 0.24414 0.244141 0.244141 0.244141 0.244141 0.244141 0.24414 0.244141 0.244141 0.24414 0.24414 0.244141 0.244141 0.244141 0.244141 0.24414 0.244141 0.244141 0.24414 0.244141 0.244141 0.24414 0.244141 0.244141 0.244141 0.24414 0.24414 0.24414 0.244141 0.244141 0.24414 0.244141 0.244141 0.244141 0.24414 0.24414 0.24414 0.244141 0.244141 0.24414 0.244141 0.244141 0.244141 0.244141 0.24414 0.24414 0.244141 0.244141 0.244141 0.24414 0.244141 0.244141 0.244141 0.24414 0.24414 0.244141 0.12207 0.12207 0.244141 0.244141 0.244141 0.244141 0.244141 0.244141 0.244141 0.244141 0.244141 0.244141 0.244141 0.244141 0.244141 0.244141 0.244141 0.244141 0.24414 0.24414 0.244141 0.244141 0.244141 0.244141 0.244141 0.244141 0.244141 0.24414 0.244141 0.244141 0.24414 0.244141 0.244141 0.244141 0.24414 0.24414 0.24414 0.244141 0.244141 0.24414 0.244141 0.244141 0.244141 0.24414 0.244141 0.24414 0.244141 0.244141 0.24414 0.244141 0.244141 0.244141 0.244141 0.24414 0.24414 0.244141 0.244141 0.244141 0.24414 0.244141 0.244141 0.244141 0.24414 0.24414 0.244141 0.12207 0.12207 0.244141 0.244141 0.244141 0.244141 0.244141 0.244141 0.244141 0.24414 0.244141 0.244141 0.244141 0.244141 0.244141 0.244141 0.244141 0.244141 0.24414 0.24414 0.244141 0.244141 0.244141 0.244141 0.244141 0.244141 0.244141 0.24414 0.244141 0.244141 0.24414 0.244141 0.244141 0.244141 0.24414 0.24414 0.24414 0.244141 0.244141 0.24414 0.244141 0.244141 0.244141 0.24414 0.244141 0.24414 0.244141 0.244141 0.24414 0.244141 0.244141 0.244141 0.244141 0.24414 0.24414 0.244141 0.244141 0.244141 0.24414 0.244141 0.244141 0.244141 0.244141 0.24414 0.244141 0.12207 0.12207 0.24414 0.24414 0.24414 0.24414 0.24414 0.244141 0.24414 0.24414 0.24414 0.244141 0.24414 0.244141 0.244141 0.24414 0.24414 0.24414 0.24414 0.24414 0.24414 0.244141 0.244141 0.24414 0.24414 0.244141 0.244141 0.24414 0.24414 0.24414 0.24414 0.24414 0.24414 0.244141 0.24414 0.24414 0.24414 0.24414 0.24414 0.24414 0.24414 0.24414 0.244141 0.24414 0.24414 0.24414 0.24414 0.244141 0.24414 0.244141 0.244141 0.24414 0.244141 0.24414 0.24414 0.244141 0.244141 0.244141 0.24414 0.244141 0.244141 0.244141 0.24414 0.24414 0.244141 0.12207 0.12207 0.24414 0.24414 0.24414 0.24414 0.24414 0.244141 0.24414 0.24414 0.24414 0.244141 0.24414 0.244141 0.244141 0.24414 0.24414 0.24414 0.24414 0.24414 0.24414 0.244141 0.244141 0.24414 0.24414 0.244141 0.244141 0.24414 0.24414 0.24414 0.24414 0.24414 0.24414 0.244141 0.24414 0.24414 0.24414 0.24414 0.24414 0.24414 0.24414 0.24414 0.244141 0.24414 0.24414 0.24414 0.244141 0.244141 0.24414 0.244141 0.244141 0.24414 0.244141 0.24414 0.24414 0.244141 0.244141 0.244141 0.24414 0.244141 0.244141 0.244141 0.24414 0.24414 0.244141 0.12207 0.12207 0.244141 0.244141 0.244141 0.244141 0.244141 0.244141 0.244141 0.24414 0.24414 0.244141 0.24414 0.244141 0.244141 0.24414 0.24414 0.244141 0.24414 0.24414 0.244141 0.244141 0.244141 0.244141 0.24414 0.244141 0.244141 0.24414 0.244141 0.244141 0.24414 0.244141 0.244141 0.244141 0.24414 0.24414 0.24414 0.244141 0.244141 0.24414 0.244141 0.244141 0.244141 0.24414 0.24414 0.24414 0.244141 0.244141 0.24414 0.244141 0.244141 0.24414 0.244141 0.24414 0.24414 0.244141 0.244141 0.244141 0.24414 0.244141 0.244141 0.244141 0.24414 0.24414 0.244141 0.12207 0.12207 0.244141 0.244141 0.244141 0.244141 0.244141 0.244141 0.244141 0.24414 0.24414 0.244141 0.24414 0.244141 0.244141 0.24414 0.24414 0.244141 0.24414 0.24414 0.244141 0.244141 0.244141 0.244141 0.24414 0.244141 0.244141 0.24414 0.244141 0.244141 0.24414 0.244141 0.244141 0.244141 0.24414 0.24414 0.24414 0.244141 0.244141 0.24414 0.244141 0.244141 0.244141 0.24414 0.24414 0.24414 0.244141 0.244141 0.24414 0.244141 0.244141 0.244141 0.244141 0.24414 0.24414 0.244141 0.244141 0.244141 0.24414 0.244141 0.244141 0.244141 0.24414 0.24414 0.244141 0.12207 0.12207 0.244141 0.244141 0.244141 0.244141 0.244141 0.244141 0.244141 0.244141 0.244141 0.244141 0.244141 0.244141 0.244141 0.244141 0.244141 0.244141 0.244141 0.244141 0.244141 0.244141 0.244141 0.244141 0.244141 0.244141 0.244141 0.24414 0.244141 0.244141 0.24414 0.244141 0.244141 0.244141 0.244141 0.244141 0.24414 0.244141 0.244141 0.24414 0.244141 0.244141 0.244141 0.244141 0.244141 0.24414 0.244141 0.244141 0.244141 0.244141 0.244141 0.244141 0.244141 0.244141 0.24414 0.244141 0.244141 0.244141 0.24414 0.244141 0.244141 0.244141 0.244141 0.24414 0.244141 0.12207 0.12207 0.244141 0.244141 0.244141 0.244141 0.244141 0.244141 0.244141 0.244141 0.244141 0.244141 0.244141 0.244141 0.244141 0.244141 0.244141 0.244141 0.24414 0.24414 0.244141 0.244141 0.244141 0.244141 0.244141 0.244141 0.244141 0.24414 0.244141 0.244141 0.24414 0.244141 0.244141 0.244141 0.244141 0.244141 0.24414 0.244141 0.244141 0.24414 0.244141 0.244141 0.244141 0.244141 0.244141 0.24414 0.244141 0.244141 0.24414 0.244141 0.244141 0.244141 0.244141 0.24414 0.24414 0.244141 0.244141 0.244141 0.24414 0.244141 0.244141 0.244141 0.244141 0.24414 0.244141 0.12207 0.12207 0.24414 0.24414 0.24414 0.24414 0.24414 0.24414 0.24414 0.24414 0.24414 0.24414 0.24414 0.24414 0.244141 0.24414 0.24414 0.24414 0.24414 0.24414 0.24414 0.24414 0.244141 0.24414 0.24414 0.244141 0.244141 0.24414 0.24414 0.24414 0.24414 0.24414 0.24414 0.244141 0.24414 0.24414 0.24414 0.24414 0.24414 0.24414 0.24414 0.24414 0.244141 0.24414 0.24414 0.24414 0.24414 0.24414 0.24414 0.244141 0.244141 0.24414 0.244141 0.24414 0.24414 0.244141 0.244141 0.244141 0.24414 0.244141 0.244141 0.244141 0.24414 0.24414 0.244141 0.12207 0.12207 0.24414 0.24414 0.24414 0.24414 0.244141 0.244141 0.244141 0.24414 0.24414 0.244141 0.24414 0.244141 0.244141 0.24414 0.24414 0.24414 0.24414 0.24414 0.244141 0.244141 0.244141 0.244141 0.24414 0.244141 0.244141 0.24414 0.244141 0.244141 0.24414 0.24414 0.24414 0.244141 0.24414 0.24414 0.24414 0.244141 0.244141 0.24414 0.244141 0.244141 0.244141 0.24414 0.24414 0.24414 0.244141 0.244141 0.24414 0.244141 0.244141 0.24414 0.244141 0.24414 0.24414 0.244141 0.244141 0.244141 0.24414 0.244141 0.244141 0.244141 0.24414 0.24414 0.244141 0.12207 0.0610351 0.12207 0.12207 0.12207 0.12207 0.12207 0.12207 0.12207 0.12207 0.12207 0.12207 0.12207 0.12207 0.12207 0.12207 0.12207 0.12207 0.12207 0.12207 0.12207 0.12207 0.12207 0.12207 0.12207 0.12207 0.12207 0.12207 0.12207 0.12207 0.12207 0.12207 0.12207 0.12207 0.12207 0.12207 0.12207 0.12207 0.12207 0.12207 0.12207 0.12207 0.12207 0.12207 0.12207 0.12207 0.12207 0.12207 0.12207 0.12207 0.12207 0.12207 0.12207 0.12207 0.12207 0.12207 0.12207 0.12207 0.12207 0.12207 0.12207 0.12207 0.12207 0.12207 0.12207 0.0610352 0.0610351 0.12207 0.12207 0.12207 0.12207 0.12207 0.12207 0.12207 0.12207 0.12207 0.12207 0.12207 0.12207 0.12207 0.12207 0.12207 0.12207 0.12207 0.12207 0.12207 0.12207 0.12207 0.12207 0.12207 0.12207 0.12207 0.12207 0.12207 0.12207 0.12207 0.12207 0.12207 0.12207 0.12207 0.12207 0.12207 0.12207 0.12207 0.12207 0.12207 0.12207 0.12207 0.12207 0.12207 0.12207 0.12207 0.12207 0.12207 0.12207 0.12207 0.12207 0.12207 0.12207 0.12207 0.12207 0.12207 0.12207 0.12207 0.12207 0.12207 0.12207 0.12207 0.12207 0.12207 0.0610352 0.12207 0.244141 0.244141 0.244141 0.244141 0.244141 0.244141 0.244141 0.244141 0.244141 0.244141 0.244141 0.244141 0.244141 0.244141 0.244141 0.244141 0.24414 0.24414 0.244141 0.244141 0.244141 0.244141 0.244141 0.244141 0.244141 0.24414 0.244141 0.244141 0.24414 0.244141 0.244141 0.244141 0.244141 0.244141 0.24414 0.244141 0.244141 0.24414 0.244141 0.244141 0.244141 0.244141 0.244141 0.24414 0.244141 0.244141 0.244141 0.244141 0.244141 0.244141 0.244141 0.24414 0.24414 0.244141 0.244141 0.244141 0.24414 0.244141 0.244141 0.244141 0.244141 0.24414 0.244141 0.12207 0.12207 0.244141 0.244141 0.244141 0.244141 0.244141 0.244141 0.244141 0.244141 0.244141 0.244141 0.244141 0.244141 0.244141 0.244141 0.244141 0.244141 0.24414 0.24414 0.244141 0.244141 0.244141 0.244141 0.244141 0.244141 0.244141 0.24414 0.244141 0.244141 0.24414 0.244141 0.244141 0.244141 0.244141 0.244141 0.24414 0.244141 0.244141 0.24414 0.244141 0.244141 0.244141 0.244141 0.244141 0.24414 0.244141 0.244141 0.244141 0.244141 0.244141 0.244141 0.244141 0.24414 0.24414 0.244141 0.244141 0.244141 0.24414 0.244141 0.244141 0.244141 0.244141 0.24414 0.244141 0.12207 0.12207 0.244141 0.244141 0.244141 0.244141 0.244141 0.244141 0.244141 0.244141 0.244141 0.244141 0.244141 0.244141 0.244141 0.244141 0.244141 0.244141 0.24414 0.24414 0.244141 0.244141 0.244141 0.244141 0.244141 0.244141 0.244141 0.24414 0.244141 0.244141 0.24414 0.244141 0.244141 0.244141 0.24414 0.244141 0.24414 0.244141 0.244141 0.24414 0.244141 0.244141 0.244141 0.244141 0.244141 0.24414 0.244141 0.244141 0.24414 0.244141 0.244141 0.244141 0.244141 0.24414 0.24414 0.244141 0.244141 0.244141 0.24414 0.244141 0.244141 0.244141 0.244141 0.24414 0.244141 0.12207 0.12207 0.244141 0.244141 0.244141 0.244141 0.244141 0.244141 0.244141 0.244141 0.244141 0.244141 0.244141 0.244141 0.244141 0.244141 0.244141 0.244141 0.24414 0.24414 0.244141 0.244141 0.244141 0.244141 0.244141 0.244141 0.244141 0.24414 0.244141 0.244141 0.24414 0.244141 0.244141 0.244141 0.244141 0.244141 0.24414 0.244141 0.244141 0.24414 0.244141 0.244141 0.244141 0.244141 0.244141 0.24414 0.244141 0.244141 0.244141 0.244141 0.244141 0.244141 0.244141 0.24414 0.24414 0.244141 0.244141 0.244141 0.24414 0.244141 0.244141 0.244141 0.244141 0.24414 0.244141 0.12207 0.12207 0.244141 0.244141 0.244141 0.244141 0.244141 0.244141 0.244141 0.244141 0.244141 0.244141 0.244141 0.244141 0.244141 0.244141 0.244141 0.244141 0.24414 0.24414 0.244141 0.244141 0.244141 0.244141 0.244141 0.244141 0.244141 0.24414 0.244141 0.244141 0.24414 0.244141 0.244141 0.244141 0.244141 0.24414 0.24414 0.244141 0.244141 0.24414 0.244141 0.244141 0.244141 0.244141 0.244141 0.24414 0.244141 0.244141 0.244141 0.244141 0.244141 0.244141 0.244141 0.24414 0.24414 0.244141 0.244141 0.244141 0.24414 0.244141 0.244141 0.244141 0.244141 0.24414 0.244141 0.12207 0.12207 0.244141 0.244141 0.244141 0.244141 0.244141 0.244141 0.244141 0.244141 0.244141 0.244141 0.244141 0.244141 0.244141 0.244141 0.244141 0.244141 0.24414 0.24414 0.244141 0.244141 0.244141 0.244141 0.244141 0.244141 0.244141 0.24414 0.244141 0.244141 0.24414 0.244141 0.244141 0.244141 0.244141 0.244141 0.24414 0.244141 0.244141 0.24414 0.244141 0.244141 0.244141 0.244141 0.244141 0.24414 0.244141 0.244141 0.244141 0.244141 0.244141 0.244141 0.244141 0.24414 0.24414 0.244141 0.244141 0.244141 0.24414 0.244141 0.244141 0.244141 0.244141 0.24414 0.244141 0.12207 0.12207 0.244141 0.244141 0.244141 0.244141 0.244141 0.244141 0.244141 0.244141 0.244141 0.244141 0.244141 0.244141 0.244141 0.244141 0.244141 0.244141 0.24414 0.24414 0.244141 0.244141 0.244141 0.244141 0.244141 0.244141 0.244141 0.24414 0.244141 0.244141 0.24414 0.244141 0.244141 0.244141 0.244141 0.244141 0.24414 0.244141 0.244141 0.24414 0.244141 0.244141 0.244141 0.244141 0.244141 0.24414 0.244141 0.244141 0.244141 0.244141 0.244141 0.244141 0.244141 0.24414 0.24414 0.244141 0.244141 0.244141 0.24414 0.244141 0.244141 0.244141 0.244141 0.24414 0.244141 0.12207 0.12207 0.244141 0.24414 0.244141 0.244141 0.244141 0.244141 0.244141 0.24414 0.24414 0.244141 0.244141 0.244141 0.244141 0.24414 0.24414 0.24414 0.24414 0.24414 0.244141 0.244141 0.244141 0.244141 0.24414 0.244141 0.244141 0.24414 0.244141 0.244141 0.24414 0.244141 0.24414 0.244141 0.24414 0.24414 0.24414 0.244141 0.244141 0.24414 0.244141 0.244141 0.244141 0.24414 0.24414 0.24414 0.244141 0.244141 0.24414 0.244141 0.244141 0.24414 0.244141 0.24414 0.24414 0.244141 0.244141 0.244141 0.24414 0.244141 0.244141 0.244141 0.24414 0.24414 0.244141 0.12207 0.12207 0.244141 0.244141 0.244141 0.244141 0.244141 0.244141 0.244141 0.24414 0.244141 0.244141 0.24414 0.244141 0.244141 0.24414 0.24414 0.244141 0.24414 0.24414 0.244141 0.244141 0.244141 0.244141 0.24414 0.244141 0.244141 0.24414 0.244141 0.244141 0.24414 0.24414 0.24414 0.244141 0.24414 0.24414 0.24414 0.244141 0.244141 0.24414 0.244141 0.244141 0.244141 0.24414 0.24414 0.24414 0.244141 0.244141 0.24414 0.244141 0.244141 0.24414 0.244141 0.24414 0.24414 0.244141 0.244141 0.244141 0.24414 0.244141 0.244141 0.244141 0.24414 0.24414 0.244141 0.12207 0.12207 0.244141 0.244141 0.244141 0.244141 0.244141 0.244141 0.244141 0.244141 0.244141 0.244141 0.244141 0.244141 0.244141 0.244141 0.244141 0.244141 0.24414 0.24414 0.244141 0.244141 0.244141 0.244141 0.244141 0.244141 0.244141 0.24414 0.244141 0.244141 0.24414 0.244141 0.244141 0.244141 0.24414 0.24414 0.24414 0.244141 0.244141 0.24414 0.244141 0.244141 0.244141 0.24414 0.244141 0.24414 0.244141 0.244141 0.24414 0.244141 0.244141 0.244141 0.244141 0.24414 0.24414 0.244141 0.244141 0.244141 0.24414 0.244141 0.244141 0.244141 0.24414 0.24414 0.244141 0.12207 0.12207 0.244141 0.244141 0.244141 0.244141 0.244141 0.244141 0.244141 0.244141 0.244141 0.244141 0.244141 0.244141 0.244141 0.244141 0.244141 0.244141 0.24414 0.24414 0.244141 0.244141 0.244141 0.244141 0.244141 0.244141 0.244141 0.24414 0.244141 0.244141 0.24414 0.244141 0.244141 0.244141 0.24414 0.24414 0.24414 0.244141 0.244141 0.24414 0.244141 0.244141 0.244141 0.244141 0.244141 0.24414 0.244141 0.244141 0.24414 0.244141 0.244141 0.244141 0.244141 0.24414 0.24414 0.244141 0.244141 0.244141 0.24414 0.244141 0.244141 0.244141 0.24414 0.24414 0.244141 0.12207 0.12207 0.244141 0.244141 0.244141 0.244141 0.244141 0.244141 0.244141 0.244141 0.244141 0.244141 0.244141 0.244141 0.244141 0.244141 0.244141 0.244141 0.244141 0.244141 0.244141 0.244141 0.244141 0.244141 0.244141 0.244141 0.244141 0.24414 0.244141 0.244141 0.24414 0.244141 0.244141 0.244141 0.244141 0.244141 0.24414 0.244141 0.244141 0.24414 0.244141 0.244141 0.244141 0.244141 0.244141 0.244141 0.244141 0.244141 0.244141 0.244141 0.244141 0.244141 0.244141 0.244141 0.24414 0.244141 0.244141 0.244141 0.24414 0.244141 0.244141 0.244141 0.244141 0.24414 0.244141 0.122071 0.12207 0.244141 0.244141 0.244141 0.244141 0.244141 0.244141 0.244141 0.244141 0.244141 0.244141 0.244141 0.244141 0.244141 0.244141 0.244141 0.244141 0.244141 0.244141 0.244141 0.244141 0.244141 0.244141 0.244141 0.244141 0.244141 0.24414 0.244141 0.244141 0.24414 0.244141 0.244141 0.244141 0.244141 0.244141 0.24414 0.244141 0.244141 0.24414 0.244141 0.244141 0.244141 0.244141 0.244141 0.24414 0.244141 0.244141 0.244141 0.244141 0.244141 0.244141 0.244141 0.24414 0.24414 0.244141 0.244141 0.244141 0.24414 0.244141 0.244141 0.244141 0.244141 0.24414 0.244141 0.12207 0.12207 0.24414 0.24414 0.24414 0.24414 0.24414 0.244141 0.244141 0.24414 0.24414 0.244141 0.24414 0.244141 0.244141 0.24414 0.24414 0.24414 0.24414 0.24414 0.24414 0.244141 0.244141 0.244141 0.24414 0.244141 0.244141 0.24414 0.24414 0.24414 0.24414 0.24414 0.24414 0.244141 0.24414 0.24414 0.24414 0.24414 0.24414 0.24414 0.24414 0.24414 0.244141 0.24414 0.24414 0.24414 0.24414 0.244141 0.24414 0.244141 0.244141 0.24414 0.244141 0.24414 0.24414 0.244141 0.244141 0.244141 0.24414 0.244141 0.244141 0.244141 0.24414 0.24414 0.244141 0.12207 0.12207 0.244141 0.244141 0.244141 0.244141 0.244141 0.244141 0.244141 0.24414 0.244141 0.244141 0.244141 0.244141 0.244141 0.244141 0.244141 0.244141 0.24414 0.24414 0.244141 0.244141 0.244141 0.244141 0.244141 0.244141 0.244141 0.24414 0.244141 0.244141 0.24414 0.244141 0.244141 0.244141 0.24414 0.24414 0.24414 0.244141 0.244141 0.24414 0.244141 0.244141 0.244141 0.24414 0.24414 0.24414 0.244141 0.244141 0.24414 0.244141 0.244141 0.24414 0.244141 0.24414 0.24414 0.244141 0.244141 0.244141 0.24414 0.244141 0.244141 0.244141 0.24414 0.24414 0.244141 0.12207 0.0610351 0.12207 0.12207 0.12207 0.12207 0.12207 0.12207 0.12207 0.12207 0.12207 0.12207 0.12207 0.12207 0.12207 0.12207 0.12207 0.12207 0.12207 0.12207 0.12207 0.12207 0.12207 0.12207 0.12207 0.12207 0.12207 0.12207 0.12207 0.12207 0.12207 0.12207 0.12207 0.12207 0.12207 0.12207 0.12207 0.12207 0.12207 0.12207 0.12207 0.12207 0.12207 0.12207 0.12207 0.12207 0.12207 0.12207 0.12207 0.12207 0.12207 0.12207 0.12207 0.12207 0.12207 0.12207 0.12207 0.12207 0.12207 0.12207 0.12207 0.12207 0.12207 0.12207 0.12207 0.0610352 0.0610351 0.12207 0.12207 0.12207 0.12207 0.12207 0.12207 0.12207 0.12207 0.12207 0.12207 0.12207 0.12207 0.12207 0.12207 0.12207 0.12207 0.12207 0.12207 0.12207 0.12207 0.12207 0.12207 0.12207 0.12207 0.12207 0.12207 0.12207 0.12207 0.12207 0.12207 0.12207 0.12207 0.12207 0.12207 0.12207 0.12207 0.12207 0.12207 0.12207 0.12207 0.12207 0.12207 0.12207 0.12207 0.12207 0.12207 0.12207 0.12207 0.12207 0.12207 0.12207 0.12207 0.12207 0.12207 0.12207 0.12207 0.12207 0.12207 0.12207 0.12207 0.12207 0.12207 0.12207 0.0610352 0.12207 0.244141 0.244141 0.244141 0.244141 0.244141 0.244141 0.244141 0.244141 0.244141 0.244141 0.244141 0.244141 0.244141 0.244141 0.244141 0.244141 0.24414 0.24414 0.244141 0.244141 0.244141 0.244141 0.244141 0.244141 0.244141 0.24414 0.244141 0.244141 0.24414 0.244141 0.244141 0.244141 0.24414 0.24414 0.24414 0.244141 0.244141 0.24414 0.244141 0.244141 0.244141 0.244141 0.244141 0.24414 0.244141 0.244141 0.24414 0.244141 0.244141 0.244141 0.244141 0.24414 0.24414 0.244141 0.244141 0.244141 0.24414 0.244141 0.244141 0.244141 0.24414 0.24414 0.244141 0.12207 0.12207 0.244141 0.244141 0.244141 0.244141 0.244141 0.244141 0.244141 0.24414 0.244141 0.244141 0.244141 0.244141 0.244141 0.244141 0.244141 0.244141 0.24414 0.24414 0.244141 0.244141 0.244141 0.244141 0.244141 0.244141 0.244141 0.24414 0.244141 0.244141 0.24414 0.244141 0.244141 0.244141 0.24414 0.24414 0.24414 0.244141 0.244141 0.24414 0.244141 0.244141 0.244141 0.24414 0.24414 0.24414 0.244141 0.244141 0.24414 0.244141 0.244141 0.244141 0.244141 0.24414 0.24414 0.244141 0.244141 0.244141 0.24414 0.244141 0.244141 0.244141 0.24414 0.24414 0.244141 0.12207 0.12207 0.244141 0.244141 0.244141 0.244141 0.244141 0.244141 0.244141 0.24414 0.24414 0.244141 0.244141 0.244141 0.244141 0.244141 0.24414 0.244141 0.24414 0.24414 0.244141 0.244141 0.244141 0.244141 0.244141 0.244141 0.244141 0.24414 0.244141 0.244141 0.24414 0.244141 0.244141 0.244141 0.24414 0.24414 0.24414 0.244141 0.244141 0.24414 0.244141 0.244141 0.244141 0.24414 0.24414 0.24414 0.244141 0.244141 0.24414 0.244141 0.244141 0.244141 0.244141 0.24414 0.24414 0.244141 0.244141 0.244141 0.24414 0.244141 0.244141 0.244141 0.24414 0.24414 0.244141 0.12207 0.12207 0.244141 0.244141 0.244141 0.244141 0.244141 0.244141 0.244141 0.24414 0.244141 0.244141 0.244141 0.244141 0.244141 0.244141 0.24414 0.244141 0.24414 0.24414 0.244141 0.244141 0.244141 0.244141 0.244141 0.244141 0.244141 0.24414 0.244141 0.244141 0.24414 0.244141 0.244141 0.244141 0.24414 0.24414 0.24414 0.244141 0.244141 0.24414 0.244141 0.244141 0.244141 0.24414 0.244141 0.24414 0.244141 0.244141 0.24414 0.244141 0.244141 0.244141 0.244141 0.24414 0.24414 0.244141 0.244141 0.244141 0.24414 0.244141 0.244141 0.244141 0.24414 0.24414 0.244141 0.12207 0.12207 0.244141 0.244141 0.244141 0.244141 0.244141 0.244141 0.244141 0.24414 0.24414 0.244141 0.244141 0.244141 0.244141 0.244141 0.24414 0.244141 0.24414 0.24414 0.244141 0.244141 0.244141 0.244141 0.244141 0.244141 0.244141 0.24414 0.244141 0.244141 0.24414 0.244141 0.244141 0.244141 0.24414 0.24414 0.24414 0.244141 0.244141 0.24414 0.244141 0.244141 0.244141 0.24414 0.24414 0.24414 0.244141 0.244141 0.24414 0.244141 0.244141 0.244141 0.244141 0.24414 0.24414 0.244141 0.244141 0.244141 0.24414 0.244141 0.244141 0.244141 0.24414 0.24414 0.244141 0.12207 0.12207 0.244141 0.244141 0.244141 0.244141 0.244141 0.244141 0.244141 0.24414 0.244141 0.244141 0.244141 0.244141 0.244141 0.244141 0.244141 0.244141 0.24414 0.24414 0.244141 0.244141 0.244141 0.244141 0.244141 0.244141 0.244141 0.24414 0.244141 0.244141 0.24414 0.244141 0.244141 0.244141 0.24414 0.24414 0.24414 0.244141 0.244141 0.24414 0.244141 0.244141 0.244141 0.24414 0.244141 0.24414 0.244141 0.244141 0.24414 0.244141 0.244141 0.244141 0.244141 0.24414 0.24414 0.244141 0.244141 0.244141 0.24414 0.244141 0.244141 0.244141 0.24414 0.24414 0.244141 0.12207 0.12207 0.244141 0.244141 0.244141 0.244141 0.244141 0.244141 0.244141 0.24414 0.244141 0.244141 0.244141 0.244141 0.244141 0.244141 0.244141 0.244141 0.24414 0.24414 0.244141 0.244141 0.244141 0.244141 0.244141 0.244141 0.244141 0.24414 0.244141 0.244141 0.24414 0.244141 0.244141 0.244141 0.24414 0.24414 0.24414 0.244141 0.244141 0.24414 0.244141 0.244141 0.244141 0.24414 0.244141 0.24414 0.244141 0.244141 0.24414 0.244141 0.244141 0.244141 0.244141 0.24414 0.24414 0.244141 0.244141 0.244141 0.24414 0.244141 0.244141 0.244141 0.244141 0.24414 0.244141 0.12207 0.12207 0.24414 0.24414 0.24414 0.24414 0.24414 0.244141 0.24414 0.24414 0.24414 0.244141 0.24414 0.244141 0.244141 0.24414 0.24414 0.24414 0.24414 0.24414 0.24414 0.244141 0.244141 0.24414 0.24414 0.244141 0.244141 0.24414 0.24414 0.24414 0.24414 0.24414 0.24414 0.244141 0.24414 0.24414 0.24414 0.24414 0.24414 0.24414 0.24414 0.24414 0.244141 0.24414 0.24414 0.24414 0.24414 0.24414 0.24414 0.244141 0.244141 0.24414 0.244141 0.24414 0.24414 0.244141 0.244141 0.244141 0.24414 0.244141 0.244141 0.244141 0.24414 0.24414 0.244141 0.12207 0.12207 0.24414 0.24414 0.24414 0.24414 0.24414 0.244141 0.244141 0.24414 0.24414 0.244141 0.24414 0.244141 0.244141 0.24414 0.24414 0.24414 0.24414 0.24414 0.24414 0.244141 0.244141 0.24414 0.24414 0.244141 0.244141 0.24414 0.24414 0.24414 0.24414 0.24414 0.24414 0.244141 0.24414 0.24414 0.24414 0.24414 0.24414 0.24414 0.24414 0.24414 0.244141 0.24414 0.24414 0.24414 0.24414 0.24414 0.24414 0.244141 0.244141 0.24414 0.244141 0.24414 0.24414 0.244141 0.244141 0.244141 0.24414 0.244141 0.244141 0.244141 0.24414 0.24414 0.244141 0.12207 0.12207 0.244141 0.244141 0.244141 0.244141 0.244141 0.244141 0.244141 0.24414 0.24414 0.244141 0.24414 0.244141 0.244141 0.24414 0.24414 0.244141 0.24414 0.24414 0.244141 0.244141 0.244141 0.244141 0.24414 0.244141 0.244141 0.24414 0.244141 0.244141 0.24414 0.244141 0.244141 0.244141 0.24414 0.24414 0.24414 0.244141 0.244141 0.24414 0.244141 0.244141 0.244141 0.24414 0.24414 0.24414 0.244141 0.244141 0.24414 0.244141 0.244141 0.24414 0.244141 0.24414 0.24414 0.244141 0.244141 0.244141 0.24414 0.244141 0.244141 0.244141 0.24414 0.24414 0.244141 0.12207 0.12207 0.244141 0.244141 0.244141 0.244141 0.244141 0.244141 0.244141 0.24414 0.24414 0.244141 0.244141 0.244141 0.244141 0.24414 0.24414 0.244141 0.24414 0.24414 0.244141 0.244141 0.244141 0.244141 0.24414 0.244141 0.244141 0.24414 0.244141 0.244141 0.24414 0.244141 0.244141 0.244141 0.24414 0.24414 0.24414 0.244141 0.244141 0.24414 0.244141 0.244141 0.244141 0.24414 0.24414 0.24414 0.244141 0.244141 0.24414 0.244141 0.244141 0.24414 0.244141 0.24414 0.24414 0.244141 0.244141 0.244141 0.24414 0.244141 0.244141 0.244141 0.24414 0.24414 0.244141 0.12207 0.12207 0.244141 0.244141 0.244141 0.244141 0.244141 0.244141 0.244141 0.244141 0.244141 0.244141 0.244141 0.244141 0.244141 0.244141 0.244141 0.244141 0.244141 0.244141 0.244141 0.244141 0.244141 0.244141 0.244141 0.244141 0.244141 0.24414 0.244141 0.244141 0.24414 0.244141 0.244141 0.244141 0.244141 0.244141 0.24414 0.244141 0.244141 0.24414 0.244141 0.244141 0.244141 0.244141 0.244141 0.24414 0.244141 0.244141 0.244141 0.244141 0.244141 0.244141 0.244141 0.244141 0.24414 0.244141 0.244141 0.244141 0.24414 0.244141 0.244141 0.244141 0.244141 0.24414 0.244141 0.12207 0.12207 0.244141 0.244141 0.244141 0.244141 0.244141 0.244141 0.244141 0.244141 0.244141 0.244141 0.244141 0.244141 0.244141 0.244141 0.244141 0.244141 0.24414 0.24414 0.244141 0.244141 0.244141 0.244141 0.244141 0.244141 0.244141 0.24414 0.244141 0.244141 0.24414 0.244141 0.244141 0.244141 0.244141 0.244141 0.24414 0.244141 0.244141 0.24414 0.244141 0.244141 0.244141 0.244141 0.244141 0.24414 0.244141 0.244141 0.24414 0.244141 0.244141 0.244141 0.244141 0.24414 0.24414 0.244141 0.244141 0.244141 0.24414 0.244141 0.244141 0.244141 0.24414 0.24414 0.244141 0.12207 0.12207 0.24414 0.24414 0.24414 0.24414 0.24414 0.24414 0.24414 0.24414 0.24414 0.24414 0.24414 0.24414 0.244141 0.24414 0.24414 0.24414 0.24414 0.24414 0.24414 0.24414 0.24414 0.24414 0.24414 0.244141 0.244141 0.24414 0.24414 0.24414 0.24414 0.24414 0.24414 0.24414 0.24414 0.24414 0.24414 0.24414 0.24414 0.24414 0.24414 0.24414 0.244141 0.24414 0.24414 0.24414 0.24414 0.24414 0.24414 0.244141 0.244141 0.24414 0.244141 0.24414 0.24414 0.244141 0.244141 0.244141 0.24414 0.244141 0.244141 0.244141 0.24414 0.24414 0.244141 0.12207 0.12207 0.24414 0.24414 0.24414 0.24414 0.24414 0.244141 0.24414 0.24414 0.24414 0.244141 0.24414 0.244141 0.244141 0.24414 0.24414 0.24414 0.24414 0.24414 0.24414 0.244141 0.244141 0.244141 0.24414 0.244141 0.244141 0.24414 0.244141 0.24414 0.24414 0.24414 0.24414 0.244141 0.24414 0.24414 0.24414 0.244141 0.24414 0.24414 0.24414 0.24414 0.244141 0.24414 0.24414 0.24414 0.244141 0.24414 0.24414 0.244141 0.244141 0.24414 0.244141 0.24414 0.24414 0.244141 0.244141 0.244141 0.24414 0.244141 0.244141 0.244141 0.24414 0.24414 0.244141 0.12207 0.0610351 0.12207 0.12207 0.12207 0.12207 0.12207 0.12207 0.12207 0.12207 0.12207 0.12207 0.12207 0.12207 0.12207 0.12207 0.12207 0.12207 0.12207 0.12207 0.12207 0.12207 0.12207 0.12207 0.12207 0.12207 0.12207 0.12207 0.12207 0.12207 0.12207 0.12207 0.12207 0.12207 0.12207 0.12207 0.12207 0.12207 0.12207 0.12207 0.12207 0.12207 0.12207 0.12207 0.12207 0.12207 0.12207 0.12207 0.12207 0.12207 0.12207 0.12207 0.12207 0.12207 0.12207 0.12207 0.12207 0.12207 0.12207 0.12207 0.12207 0.12207 0.12207 0.12207 0.12207 0.0610352 0.0610352 0.12207 0.12207 0.12207 0.12207 0.12207 0.12207 0.12207 0.12207 0.12207 0.12207 0.12207 0.12207 0.12207 0.12207 0.12207 0.12207 0.12207 0.12207 0.12207 0.12207 0.12207 0.12207 0.12207 0.12207 0.12207 0.12207 0.12207 0.12207 0.12207 0.12207 0.12207 0.12207 0.12207 0.12207 0.12207 0.12207 0.12207 0.12207 0.12207 0.12207 0.12207 0.12207 0.12207 0.12207 0.12207 0.12207 0.12207 0.12207 0.12207 0.12207 0.12207 0.12207 0.12207 0.12207 0.122071 0.12207 0.12207 0.12207 0.12207 0.12207 0.12207 0.12207 0.12207 0.0610353 0.12207 0.244141 0.244141 0.244141 0.244141 0.244141 0.244141 0.244141 0.244141 0.244141 0.244141 0.244141 0.244141 0.244141 0.244141 0.244141 0.244141 0.244141 0.244141 0.244141 0.244141 0.244141 0.244141 0.244141 0.244141 0.244141 0.24414 0.244141 0.244141 0.24414 0.244141 0.244141 0.244141 0.244141 0.244141 0.24414 0.244141 0.244141 0.24414 0.244141 0.244141 0.244141 0.244141 0.244141 0.24414 0.244141 0.244141 0.244141 0.244141 0.244141 0.244141 0.244141 0.244141 0.24414 0.244141 0.244141 0.244141 0.24414 0.244141 0.244141 0.244141 0.244141 0.24414 0.244141 0.122071 0.12207 0.244141 0.244141 0.244141 0.244141 0.244141 0.244141 0.244141 0.244141 0.244141 0.244141 0.244141 0.244141 0.244141 0.244141 0.244141 0.244141 0.244141 0.244141 0.244141 0.244141 0.244141 0.244141 0.244141 0.244141 0.244141 0.24414 0.244141 0.244141 0.24414 0.244141 0.244141 0.244141 0.244141 0.244141 0.24414 0.244141 0.244141 0.24414 0.244141 0.244141 0.244141 0.244141 0.244141 0.24414 0.244141 0.244141 0.244141 0.244141 0.244141 0.244141 0.244141 0.24414 0.24414 0.244141 0.244141 0.244141 0.24414 0.244141 0.244141 0.244141 0.244141 0.24414 0.244141 0.12207 0.12207 0.244141 0.244141 0.244141 0.244141 0.244141 0.244141 0.244141 0.244141 0.244141 0.244141 0.244141 0.244141 0.244141 0.244141 0.244141 0.244141 0.244141 0.244141 0.244141 0.244141 0.244141 0.244141 0.244141 0.244141 0.244141 0.24414 0.244141 0.244141 0.24414 0.244141 0.244141 0.244141 0.244141 0.244141 0.24414 0.244141 0.244141 0.24414 0.244141 0.244141 0.244141 0.244141 0.244141 0.24414 0.244141 0.244141 0.244141 0.244141 0.244141 0.244141 0.244141 0.24414 0.24414 0.244141 0.244141 0.244141 0.24414 0.244141 0.244141 0.244141 0.244141 0.24414 0.244141 0.12207 0.12207 0.244141 0.244141 0.244141 0.244141 0.244141 0.244141 0.244141 0.244141 0.244141 0.244141 0.244141 0.244141 0.244141 0.244141 0.244141 0.244141 0.244141 0.244141 0.244141 0.244141 0.244141 0.244141 0.244141 0.244141 0.244141 0.24414 0.244141 0.244141 0.24414 0.244141 0.244141 0.244141 0.244141 0.244141 0.24414 0.244141 0.244141 0.24414 0.244141 0.244141 0.244141 0.244141 0.244141 0.24414 0.244141 0.244141 0.244141 0.244141 0.244141 0.244141 0.244141 0.24414 0.24414 0.244141 0.244141 0.244141 0.24414 0.244141 0.244141 0.244141 0.244141 0.24414 0.244141 0.12207 0.12207 0.244141 0.244141 0.244141 0.244141 0.244141 0.244141 0.244141 0.244141 0.244141 0.244141 0.244141 0.244141 0.244141 0.244141 0.244141 0.244141 0.244141 0.24414 0.244141 0.244141 0.244141 0.244141 0.244141 0.244141 0.244141 0.24414 0.244141 0.244141 0.24414 0.244141 0.244141 0.244141 0.244141 0.244141 0.24414 0.244141 0.244141 0.24414 0.244141 0.244141 0.244141 0.244141 0.244141 0.24414 0.244141 0.244141 0.244141 0.244141 0.244141 0.244141 0.244141 0.24414 0.24414 0.244141 0.244141 0.244141 0.24414 0.244141 0.244141 0.244141 0.244141 0.24414 0.244141 0.12207 0.12207 0.244141 0.244141 0.244141 0.244141 0.244141 0.244141 0.244141 0.244141 0.244141 0.244141 0.244141 0.244141 0.244141 0.244141 0.244141 0.244141 0.244141 0.244141 0.244141 0.244141 0.244141 0.244141 0.244141 0.244141 0.244141 0.24414 0.244141 0.244141 0.24414 0.244141 0.244141 0.244141 0.244141 0.244141 0.24414 0.244141 0.244141 0.24414 0.244141 0.244141 0.244141 0.244141 0.244141 0.24414 0.244141 0.244141 0.244141 0.244141 0.244141 0.244141 0.244141 0.244141 0.24414 0.244141 0.244141 0.244141 0.24414 0.244141 0.244141 0.244141 0.244141 0.24414 0.244141 0.12207 0.12207 0.244141 0.244141 0.244141 0.244141 0.244141 0.244141 0.244141 0.244141 0.244141 0.244141 0.244141 0.244141 0.244141 0.244141 0.244141 0.244141 0.244141 0.244141 0.244141 0.244141 0.244141 0.244141 0.244141 0.244141 0.244141 0.24414 0.244141 0.244141 0.24414 0.244141 0.244141 0.244141 0.244141 0.244141 0.24414 0.244141 0.244141 0.24414 0.244141 0.244141 0.244141 0.244141 0.244141 0.24414 0.244141 0.244141 0.244141 0.244141 0.244141 0.244141 0.244141 0.244141 0.24414 0.244141 0.244141 0.244141 0.24414 0.244141 0.244141 0.244141 0.244141 0.24414 0.244141 0.12207 0.12207 0.244141 0.244141 0.244141 0.244141 0.244141 0.244141 0.244141 0.24414 0.244141 0.244141 0.244141 0.244141 0.244141 0.244141 0.244141 0.244141 0.24414 0.24414 0.244141 0.244141 0.244141 0.244141 0.244141 0.244141 0.244141 0.24414 0.244141 0.244141 0.24414 0.244141 0.244141 0.244141 0.24414 0.24414 0.24414 0.244141 0.244141 0.24414 0.244141 0.244141 0.244141 0.244141 0.244141 0.24414 0.244141 0.244141 0.244141 0.244141 0.244141 0.244141 0.244141 0.24414 0.24414 0.244141 0.244141 0.244141 0.24414 0.244141 0.244141 0.244141 0.244141 0.24414 0.244141 0.12207 0.12207 0.244141 0.244141 0.244141 0.244141 0.244141 0.244141 0.244141 0.244141 0.244141 0.244141 0.244141 0.244141 0.244141 0.244141 0.244141 0.244141 0.24414 0.24414 0.244141 0.244141 0.244141 0.244141 0.244141 0.244141 0.244141 0.24414 0.244141 0.244141 0.24414 0.244141 0.244141 0.244141 0.24414 0.24414 0.24414 0.244141 0.244141 0.24414 0.244141 0.244141 0.244141 0.244141 0.244141 0.24414 0.244141 0.244141 0.24414 0.244141 0.244141 0.244141 0.244141 0.24414 0.24414 0.244141 0.244141 0.244141 0.24414 0.244141 0.244141 0.244141 0.24414 0.24414 0.244141 0.12207 0.12207 0.244141 0.244141 0.244141 0.244141 0.244141 0.244141 0.244141 0.244141 0.244141 0.244141 0.244141 0.244141 0.244141 0.244141 0.244141 0.244141 0.244141 0.244141 0.244141 0.244141 0.244141 0.244141 0.244141 0.244141 0.244141 0.24414 0.244141 0.244141 0.24414 0.244141 0.244141 0.244141 0.244141 0.244141 0.24414 0.244141 0.244141 0.24414 0.244141 0.244141 0.244141 0.244141 0.244141 0.24414 0.244141 0.244141 0.244141 0.244141 0.244141 0.244141 0.244141 0.24414 0.24414 0.244141 0.244141 0.244141 0.24414 0.244141 0.244141 0.244141 0.244141 0.24414 0.244141 0.12207 0.12207 0.244141 0.244141 0.244141 0.244141 0.244141 0.244141 0.244141 0.244141 0.244141 0.244141 0.244141 0.244141 0.244141 0.244141 0.244141 0.244141 0.244141 0.244141 0.244141 0.244141 0.244141 0.244141 0.244141 0.244141 0.244141 0.24414 0.244141 0.244141 0.24414 0.244141 0.244141 0.244141 0.244141 0.244141 0.24414 0.244141 0.244141 0.24414 0.244141 0.244141 0.244141 0.244141 0.244141 0.24414 0.244141 0.244141 0.244141 0.244141 0.244141 0.244141 0.244141 0.24414 0.24414 0.244141 0.244141 0.244141 0.24414 0.244141 0.244141 0.244141 0.244141 0.24414 0.244141 0.12207 0.12207 0.244141 0.244141 0.244141 0.244141 0.244141 0.244141 0.244141 0.244141 0.244141 0.244141 0.244141 0.244141 0.244141 0.244141 0.244141 0.244141 0.244141 0.244141 0.244141 0.244141 0.244141 0.244141 0.244141 0.244141 0.244141 0.244141 0.244141 0.244141 0.244141 0.244141 0.244141 0.244141 0.244141 0.244141 0.244141 0.244141 0.244141 0.244141 0.244141 0.244141 0.244141 0.244141 0.244141 0.244141 0.244141 0.244141 0.244141 0.244141 0.244141 0.244141 0.244141 0.244141 0.24414 0.244141 0.244141 0.244141 0.24414 0.244141 0.244141 0.244141 0.244141 0.24414 0.244141 0.122071 0.12207 0.244141 0.244141 0.244141 0.244141 0.244141 0.244141 0.244141 0.244141 0.244141 0.244141 0.244141 0.244141 0.244141 0.244141 0.244141 0.244141 0.244141 0.244141 0.244141 0.244141 0.244141 0.244141 0.244141 0.244141 0.244141 0.24414 0.244141 0.244141 0.24414 0.244141 0.244141 0.244141 0.244141 0.244141 0.24414 0.244141 0.244141 0.24414 0.244141 0.244141 0.244141 0.244141 0.244141 0.24414 0.244141 0.244141 0.244141 0.244141 0.244141 0.244141 0.244141 0.244141 0.24414 0.244141 0.244141 0.244141 0.24414 0.244141 0.244141 0.244141 0.244141 0.24414 0.244141 0.12207 0.12207 0.24414 0.24414 0.24414 0.244141 0.244141 0.244141 0.244141 0.24414 0.24414 0.244141 0.244141 0.244141 0.244141 0.244141 0.24414 0.24414 0.24414 0.24414 0.24414 0.244141 0.244141 0.244141 0.244141 0.244141 0.244141 0.24414 0.244141 0.244141 0.24414 0.244141 0.244141 0.244141 0.24414 0.24414 0.24414 0.244141 0.244141 0.24414 0.244141 0.244141 0.244141 0.24414 0.24414 0.24414 0.244141 0.244141 0.24414 0.244141 0.244141 0.24414 0.244141 0.24414 0.24414 0.244141 0.244141 0.244141 0.24414 0.244141 0.244141 0.244141 0.24414 0.24414 0.244141 0.12207 0.12207 0.244141 0.244141 0.244141 0.244141 0.244141 0.244141 0.244141 0.244141 0.244141 0.244141 0.244141 0.244141 0.244141 0.244141 0.244141 0.244141 0.24414 0.24414 0.244141 0.244141 0.244141 0.244141 0.244141 0.244141 0.244141 0.24414 0.244141 0.244141 0.24414 0.244141 0.244141 0.244141 0.244141 0.244141 0.24414 0.244141 0.244141 0.24414 0.244141 0.244141 0.244141 0.244141 0.244141 0.24414 0.244141 0.244141 0.24414 0.244141 0.244141 0.244141 0.244141 0.24414 0.24414 0.244141 0.244141 0.244141 0.24414 0.244141 0.244141 0.244141 0.24414 0.24414 0.244141 0.12207 0.0610351 0.12207 0.12207 0.12207 0.12207 0.12207 0.12207 0.12207 0.12207 0.12207 0.12207 0.12207 0.12207 0.12207 0.12207 0.12207 0.12207 0.12207 0.12207 0.12207 0.12207 0.12207 0.12207 0.12207 0.12207 0.12207 0.12207 0.12207 0.12207 0.12207 0.12207 0.12207 0.12207 0.12207 0.12207 0.12207 0.12207 0.12207 0.12207 0.12207 0.12207 0.12207 0.12207 0.12207 0.12207 0.12207 0.12207 0.12207 0.12207 0.12207 0.12207 0.12207 0.12207 0.12207 0.12207 0.122071 0.12207 0.12207 0.12207 0.12207 0.12207 0.12207 0.12207 0.12207 0.0610352 0.0610352 0.12207 0.12207 0.12207 0.12207 0.12207 0.12207 0.12207 0.12207 0.12207 0.12207 0.12207 0.12207 0.12207 0.12207 0.12207 0.12207 0.12207 0.12207 0.12207 0.12207 0.12207 0.12207 0.12207 0.12207 0.12207 0.12207 0.12207 0.12207 0.12207 0.12207 0.12207 0.12207 0.12207 0.12207 0.12207 0.12207 0.12207 0.12207 0.12207 0.12207 0.12207 0.12207 0.12207 0.12207 0.12207 0.12207 0.12207 0.12207 0.12207 0.12207 0.12207 0.12207 0.12207 0.12207 0.122071 0.12207 0.12207 0.12207 0.122071 0.12207 0.12207 0.12207 0.12207 0.0610353 0.12207 0.244141 0.244141 0.244141 0.244141 0.244141 0.244141 0.244141 0.244141 0.244141 0.244141 0.244141 0.244141 0.244141 0.244141 0.244141 0.244141 0.244141 0.244141 0.244141 0.244141 0.244141 0.244141 0.244141 0.244141 0.244141 0.244141 0.244141 0.244141 0.244141 0.244141 0.244141 0.244141 0.244141 0.244141 0.244141 0.244141 0.244141 0.244141 0.244141 0.244141 0.244141 0.244141 0.244141 0.244141 0.244141 0.244141 0.244141 0.244141 0.244141 0.244141 0.244141 0.244141 0.24414 0.244141 0.244141 0.244141 0.24414 0.244141 0.244141 0.244141 0.244141 0.24414 0.244141 0.122071 0.12207 0.244141 0.244141 0.244141 0.244141 0.244141 0.244141 0.244141 0.244141 0.244141 0.244141 0.244141 0.244141 0.244141 0.244141 0.244141 0.244141 0.244141 0.244141 0.244141 0.244141 0.244141 0.244141 0.244141 0.244141 0.244141 0.244141 0.244141 0.244141 0.244141 0.244141 0.244141 0.244141 0.244141 0.244141 0.244141 0.244141 0.244141 0.244141 0.244141 0.244141 0.244141 0.244141 0.244141 0.244141 0.244141 0.244141 0.244141 0.244141 0.244141 0.244141 0.244141 0.244141 0.24414 0.244141 0.244141 0.244141 0.24414 0.244141 0.244141 0.244141 0.244141 0.24414 0.244141 0.122071 0.12207 0.244141 0.244141 0.244141 0.244141 0.244141 0.244141 0.244141 0.244141 0.244141 0.244141 0.244141 0.244141 0.244141 0.244141 0.244141 0.244141 0.244141 0.244141 0.244141 0.244141 0.244141 0.244141 0.244141 0.244141 0.244141 0.244141 0.244141 0.244141 0.244141 0.244141 0.244141 0.244141 0.244141 0.244141 0.244141 0.244141 0.244141 0.244141 0.244141 0.244141 0.244141 0.244141 0.244141 0.244141 0.244141 0.244141 0.244141 0.244141 0.244141 0.244141 0.244141 0.244141 0.24414 0.244141 0.244141 0.244141 0.24414 0.244141 0.244141 0.244141 0.244141 0.24414 0.244141 0.122071 0.12207 0.244141 0.244141 0.244141 0.244141 0.244141 0.244141 0.244141 0.244141 0.244141 0.244141 0.244141 0.244141 0.244141 0.244141 0.244141 0.244141 0.244141 0.244141 0.244141 0.244141 0.244141 0.244141 0.244141 0.244141 0.244141 0.244141 0.244141 0.244141 0.244141 0.244141 0.244141 0.244141 0.244141 0.244141 0.244141 0.244141 0.244141 0.244141 0.244141 0.244141 0.244141 0.244141 0.244141 0.244141 0.244141 0.244141 0.244141 0.244141 0.244141 0.244141 0.244141 0.244141 0.24414 0.244141 0.244141 0.244141 0.24414 0.244141 0.244141 0.244141 0.244141 0.24414 0.244141 0.122071 0.12207 0.244141 0.244141 0.244141 0.244141 0.244141 0.244141 0.244141 0.244141 0.244141 0.244141 0.244141 0.244141 0.244141 0.244141 0.244141 0.244141 0.244141 0.244141 0.244141 0.244141 0.244141 0.244141 0.244141 0.244141 0.244141 0.244141 0.244141 0.244141 0.244141 0.244141 0.244141 0.244141 0.244141 0.244141 0.244141 0.244141 0.244141 0.244141 0.244141 0.244141 0.244141 0.244141 0.244141 0.244141 0.244141 0.244141 0.244141 0.244141 0.244141 0.244141 0.244141 0.244141 0.24414 0.244141 0.244141 0.244141 0.24414 0.244141 0.244141 0.244141 0.244141 0.24414 0.244141 0.122071 0.12207 0.244141 0.244141 0.244141 0.244141 0.244141 0.244141 0.244141 0.244141 0.244141 0.244141 0.244141 0.244141 0.244141 0.244141 0.244141 0.244141 0.244141 0.244141 0.244141 0.244141 0.244141 0.244141 0.244141 0.244141 0.244141 0.244141 0.244141 0.244141 0.244141 0.244141 0.244141 0.244141 0.244141 0.244141 0.244141 0.244141 0.244141 0.244141 0.244141 0.244141 0.244141 0.244141 0.244141 0.244141 0.244141 0.244141 0.244141 0.244141 0.244141 0.244141 0.244141 0.244141 0.24414 0.244141 0.244141 0.244141 0.24414 0.244141 0.244141 0.244141 0.244141 0.24414 0.244141 0.122071 0.12207 0.244141 0.244141 0.244141 0.244141 0.244141 0.244141 0.244141 0.244141 0.244141 0.244141 0.244141 0.244141 0.244141 0.244141 0.244141 0.244141 0.244141 0.244141 0.244141 0.244141 0.244141 0.244141 0.244141 0.244141 0.244141 0.244141 0.244141 0.244141 0.244141 0.244141 0.244141 0.244141 0.244141 0.244141 0.244141 0.244141 0.244141 0.244141 0.244141 0.244141 0.244141 0.244141 0.244141 0.244141 0.244141 0.244141 0.244141 0.244141 0.244141 0.244141 0.244141 0.244141 0.24414 0.244141 0.244141 0.244141 0.24414 0.244141 0.244141 0.244141 0.244141 0.24414 0.244141 0.122071 0.12207 0.244141 0.244141 0.244141 0.244141 0.244141 0.244141 0.244141 0.244141 0.244141 0.244141 0.244141 0.244141 0.244141 0.244141 0.244141 0.244141 0.244141 0.244141 0.244141 0.244141 0.244141 0.244141 0.244141 0.244141 0.244141 0.24414 0.244141 0.244141 0.24414 0.244141 0.244141 0.244141 0.244141 0.244141 0.24414 0.244141 0.244141 0.24414 0.244141 0.244141 0.244141 0.244141 0.244141 0.244141 0.244141 0.244141 0.244141 0.244141 0.244141 0.244141 0.244141 0.244141 0.24414 0.244141 0.244141 0.244141 0.24414 0.244141 0.244141 0.244141 0.244141 0.24414 0.244141 0.122071 0.12207 0.244141 0.244141 0.244141 0.244141 0.244141 0.244141 0.244141 0.244141 0.244141 0.244141 0.244141 0.244141 0.244141 0.244141 0.244141 0.244141 0.244141 0.244141 0.244141 0.244141 0.244141 0.244141 0.244141 0.244141 0.244141 0.24414 0.244141 0.244141 0.24414 0.244141 0.244141 0.244141 0.244141 0.244141 0.24414 0.244141 0.244141 0.24414 0.244141 0.244141 0.244141 0.244141 0.244141 0.244141 0.244141 0.244141 0.244141 0.244141 0.244141 0.244141 0.244141 0.244141 0.24414 0.244141 0.244141 0.244141 0.24414 0.244141 0.244141 0.244141 0.244141 0.24414 0.244141 0.122071 0.12207 0.244141 0.244141 0.244141 0.244141 0.244141 0.244141 0.244141 0.244141 0.244141 0.244141 0.244141 0.244141 0.244141 0.244141 0.244141 0.244141 0.244141 0.244141 0.244141 0.244141 0.244141 0.244141 0.244141 0.244141 0.244141 0.244141 0.244141 0.244141 0.244141 0.244141 0.244141 0.244141 0.244141 0.244141 0.244141 0.244141 0.244141 0.244141 0.244141 0.244141 0.244141 0.244141 0.244141 0.244141 0.244141 0.244141 0.244141 0.244141 0.244141 0.244141 0.244141 0.244141 0.24414 0.244141 0.244141 0.244141 0.24414 0.244141 0.244141 0.244141 0.244141 0.24414 0.244141 0.122071 0.12207 0.244141 0.244141 0.244141 0.244141 0.244141 0.244141 0.244141 0.244141 0.244141 0.244141 0.244141 0.244141 0.244141 0.244141 0.244141 0.244141 0.244141 0.244141 0.244141 0.244141 0.244141 0.244141 0.244141 0.244141 0.244141 0.244141 0.244141 0.244141 0.244141 0.244141 0.244141 0.244141 0.244141 0.244141 0.244141 0.244141 0.244141 0.244141 0.244141 0.244141 0.244141 0.244141 0.244141 0.244141 0.244141 0.244141 0.244141 0.244141 0.244141 0.244141 0.244141 0.244141 0.24414 0.244141 0.244141 0.244141 0.24414 0.244141 0.244141 0.244141 0.244141 0.24414 0.244141 0.122071 0.12207 0.244141 0.244141 0.244141 0.244141 0.244141 0.244141 0.244141 0.244141 0.244141 0.244141 0.244141 0.244141 0.244141 0.244141 0.244141 0.244141 0.244141 0.244141 0.244141 0.244141 0.244141 0.244141 0.244141 0.244141 0.244141 0.244141 0.244141 0.244141 0.244141 0.244141 0.244141 0.244141 0.244141 0.244141 0.244141 0.244141 0.244141 0.244141 0.244141 0.244141 0.244141 0.244141 0.244141 0.244141 0.244141 0.244141 0.244141 0.244141 0.244141 0.244141 0.244141 0.244141 0.24414 0.244141 0.244141 0.244141 0.244141 0.244141 0.244141 0.244141 0.244141 0.24414 0.244141 0.122071 0.12207 0.244141 0.244141 0.244141 0.244141 0.244141 0.244141 0.244141 0.244141 0.244141 0.244141 0.244141 0.244141 0.244141 0.244141 0.244141 0.244141 0.244141 0.244141 0.244141 0.244141 0.244141 0.244141 0.244141 0.244141 0.244141 0.244141 0.244141 0.244141 0.244141 0.244141 0.244141 0.244141 0.244141 0.244141 0.244141 0.244141 0.244141 0.244141 0.244141 0.244141 0.244141 0.244141 0.244141 0.244141 0.244141 0.244141 0.244141 0.244141 0.244141 0.244141 0.244141 0.244141 0.24414 0.244141 0.244141 0.244141 0.24414 0.244141 0.244141 0.244141 0.244141 0.24414 0.244141 0.122071 0.12207 0.244141 0.244141 0.244141 0.244141 0.244141 0.244141 0.244141 0.244141 0.244141 0.244141 0.244141 0.244141 0.244141 0.244141 0.244141 0.244141 0.244141 0.244141 0.244141 0.244141 0.244141 0.244141 0.244141 0.244141 0.244141 0.24414 0.244141 0.244141 0.24414 0.244141 0.244141 0.244141 0.244141 0.244141 0.24414 0.244141 0.244141 0.24414 0.244141 0.244141 0.244141 0.244141 0.244141 0.24414 0.244141 0.244141 0.244141 0.244141 0.244141 0.244141 0.244141 0.244141 0.24414 0.244141 0.244141 0.244141 0.24414 0.244141 0.244141 0.244141 0.244141 0.24414 0.244141 0.12207 0.12207 0.244141 0.244141 0.244141 0.244141 0.244141 0.244141 0.244141 0.244141 0.244141 0.244141 0.244141 0.244141 0.244141 0.244141 0.244141 0.244141 0.244141 0.244141 0.244141 0.244141 0.244141 0.244141 0.244141 0.244141 0.244141 0.244141 0.244141 0.244141 0.244141 0.244141 0.244141 0.244141 0.244141 0.244141 0.244141 0.244141 0.244141 0.244141 0.244141 0.244141 0.244141 0.244141 0.244141 0.244141 0.244141 0.244141 0.244141 0.244141 0.244141 0.244141 0.244141 0.244141 0.24414 0.244141 0.244141 0.244141 0.24414 0.244141 0.244141 0.244141 0.244141 0.24414 0.244141 0.122071 0.0610352 0.12207 0.12207 0.12207 0.12207 0.12207 0.12207 0.12207 0.12207 0.12207 0.12207 0.12207 0.12207 0.12207 0.12207 0.12207 0.12207 0.12207 0.12207 0.12207 0.12207 0.12207 0.12207 0.12207 0.12207 0.12207 0.12207 0.12207 0.12207 0.12207 0.12207 0.12207 0.12207 0.12207 0.12207 0.12207 0.12207 0.12207 0.12207 0.12207 0.12207 0.12207 0.12207 0.12207 0.12207 0.12207 0.12207 0.12207 0.12207 0.12207 0.12207 0.12207 0.12207 0.12207 0.12207 0.122071 0.12207 0.12207 0.12207 0.122071 0.12207 0.12207 0.12207 0.12207 0.0610353 0.0610352 0.12207 0.12207 0.12207 0.12207 0.12207 0.12207 0.12207 0.12207 0.12207 0.12207 0.12207 0.12207 0.12207 0.12207 0.12207 0.12207 0.12207 0.12207 0.12207 0.12207 0.12207 0.12207 0.12207 0.12207 0.12207 0.12207 0.12207 0.12207 0.12207 0.12207 0.12207 0.12207 0.12207 0.12207 0.12207 0.12207 0.12207 0.12207 0.12207 0.12207 0.12207 0.12207 0.12207 0.12207 0.12207 0.12207 0.12207 0.12207 0.12207 0.12207 0.12207 0.12207 0.12207 0.12207 0.122071 0.12207 0.12207 0.12207 0.12207 0.12207 0.12207 0.12207 0.12207 0.0610353 0.12207 0.244141 0.244141 0.244141 0.244141 0.244141 0.244141 0.244141 0.244141 0.244141 0.244141 0.244141 0.244141 0.244141 0.244141 0.244141 0.244141 0.244141 0.244141 0.244141 0.244141 0.244141 0.244141 0.244141 0.244141 0.244141 0.24414 0.244141 0.244141 0.24414 0.244141 0.244141 0.244141 0.244141 0.244141 0.24414 0.244141 0.244141 0.24414 0.244141 0.244141 0.244141 0.244141 0.244141 0.244141 0.244141 0.244141 0.244141 0.244141 0.244141 0.244141 0.244141 0.244141 0.24414 0.244141 0.244141 0.244141 0.24414 0.244141 0.244141 0.244141 0.244141 0.24414 0.244141 0.122071 0.12207 0.244141 0.244141 0.244141 0.244141 0.244141 0.244141 0.244141 0.244141 0.244141 0.244141 0.244141 0.244141 0.244141 0.244141 0.244141 0.244141 0.244141 0.244141 0.244141 0.244141 0.244141 0.244141 0.244141 0.244141 0.244141 0.24414 0.244141 0.244141 0.24414 0.244141 0.244141 0.244141 0.244141 0.244141 0.24414 0.244141 0.244141 0.24414 0.244141 0.244141 0.244141 0.244141 0.244141 0.244141 0.244141 0.244141 0.244141 0.244141 0.244141 0.244141 0.244141 0.244141 0.24414 0.244141 0.244141 0.244141 0.24414 0.244141 0.244141 0.244141 0.244141 0.24414 0.244141 0.122071 0.12207 0.244141 0.244141 0.244141 0.244141 0.244141 0.244141 0.244141 0.244141 0.244141 0.244141 0.244141 0.244141 0.244141 0.244141 0.244141 0.244141 0.244141 0.244141 0.244141 0.244141 0.244141 0.244141 0.244141 0.244141 0.244141 0.24414 0.244141 0.244141 0.24414 0.244141 0.244141 0.244141 0.244141 0.244141 0.24414 0.244141 0.244141 0.24414 0.244141 0.244141 0.244141 0.244141 0.244141 0.244141 0.244141 0.244141 0.244141 0.244141 0.244141 0.244141 0.244141 0.244141 0.24414 0.244141 0.244141 0.244141 0.24414 0.244141 0.244141 0.244141 0.244141 0.24414 0.244141 0.122071 0.12207 0.244141 0.244141 0.244141 0.244141 0.244141 0.244141 0.244141 0.244141 0.244141 0.244141 0.244141 0.244141 0.244141 0.244141 0.244141 0.244141 0.244141 0.244141 0.244141 0.244141 0.244141 0.244141 0.244141 0.244141 0.244141 0.24414 0.244141 0.244141 0.24414 0.244141 0.244141 0.244141 0.244141 0.244141 0.24414 0.244141 0.244141 0.24414 0.244141 0.244141 0.244141 0.244141 0.244141 0.244141 0.244141 0.244141 0.244141 0.244141 0.244141 0.244141 0.244141 0.244141 0.24414 0.244141 0.244141 0.244141 0.24414 0.244141 0.244141 0.244141 0.244141 0.24414 0.244141 0.122071 0.12207 0.244141 0.244141 0.244141 0.244141 0.244141 0.244141 0.244141 0.244141 0.244141 0.244141 0.244141 0.244141 0.244141 0.244141 0.244141 0.244141 0.244141 0.244141 0.244141 0.244141 0.244141 0.244141 0.244141 0.244141 0.244141 0.24414 0.244141 0.244141 0.24414 0.244141 0.244141 0.244141 0.244141 0.244141 0.24414 0.244141 0.244141 0.24414 0.244141 0.244141 0.244141 0.244141 0.244141 0.244141 0.244141 0.244141 0.244141 0.244141 0.244141 0.244141 0.244141 0.244141 0.24414 0.244141 0.244141 0.244141 0.24414 0.244141 0.244141 0.244141 0.244141 0.24414 0.244141 0.12207 0.12207 0.244141 0.244141 0.244141 0.244141 0.244141 0.244141 0.244141 0.244141 0.244141 0.244141 0.244141 0.244141 0.244141 0.244141 0.244141 0.244141 0.244141 0.244141 0.244141 0.244141 0.244141 0.244141 0.244141 0.244141 0.244141 0.24414 0.244141 0.244141 0.24414 0.244141 0.244141 0.244141 0.244141 0.244141 0.24414 0.244141 0.244141 0.24414 0.244141 0.244141 0.244141 0.244141 0.244141 0.244141 0.244141 0.244141 0.244141 0.244141 0.244141 0.244141 0.244141 0.244141 0.24414 0.244141 0.244141 0.244141 0.24414 0.244141 0.244141 0.244141 0.244141 0.24414 0.244141 0.122071 0.12207 0.244141 0.244141 0.244141 0.244141 0.244141 0.244141 0.244141 0.244141 0.244141 0.244141 0.244141 0.244141 0.244141 0.244141 0.244141 0.244141 0.244141 0.244141 0.244141 0.244141 0.244141 0.244141 0.244141 0.244141 0.244141 0.24414 0.244141 0.244141 0.24414 0.244141 0.244141 0.244141 0.244141 0.244141 0.24414 0.244141 0.244141 0.24414 0.244141 0.244141 0.244141 0.244141 0.244141 0.244141 0.244141 0.244141 0.244141 0.244141 0.244141 0.244141 0.244141 0.244141 0.24414 0.244141 0.244141 0.244141 0.24414 0.244141 0.244141 0.244141 0.244141 0.24414 0.244141 0.122071 0.12207 0.244141 0.244141 0.244141 0.244141 0.244141 0.244141 0.244141 0.244141 0.244141 0.244141 0.244141 0.244141 0.244141 0.244141 0.244141 0.244141 0.244141 0.24414 0.244141 0.244141 0.244141 0.244141 0.244141 0.244141 0.244141 0.24414 0.244141 0.244141 0.24414 0.244141 0.244141 0.244141 0.244141 0.244141 0.24414 0.244141 0.244141 0.24414 0.244141 0.244141 0.244141 0.244141 0.244141 0.24414 0.244141 0.244141 0.244141 0.244141 0.244141 0.244141 0.244141 0.24414 0.24414 0.244141 0.244141 0.244141 0.24414 0.244141 0.244141 0.244141 0.244141 0.24414 0.244141 0.12207 0.12207 0.244141 0.244141 0.244141 0.244141 0.244141 0.244141 0.244141 0.244141 0.244141 0.244141 0.244141 0.244141 0.244141 0.244141 0.244141 0.244141 0.244141 0.24414 0.244141 0.244141 0.244141 0.244141 0.244141 0.244141 0.244141 0.24414 0.244141 0.244141 0.24414 0.244141 0.244141 0.244141 0.244141 0.244141 0.24414 0.244141 0.244141 0.24414 0.244141 0.244141 0.244141 0.244141 0.244141 0.24414 0.244141 0.244141 0.244141 0.244141 0.244141 0.244141 0.244141 0.24414 0.24414 0.244141 0.244141 0.244141 0.24414 0.244141 0.244141 0.244141 0.244141 0.24414 0.244141 0.12207 0.12207 0.244141 0.244141 0.244141 0.244141 0.244141 0.244141 0.244141 0.244141 0.244141 0.244141 0.244141 0.244141 0.244141 0.244141 0.244141 0.244141 0.244141 0.244141 0.244141 0.244141 0.244141 0.244141 0.244141 0.244141 0.244141 0.24414 0.244141 0.244141 0.24414 0.244141 0.244141 0.244141 0.244141 0.244141 0.24414 0.244141 0.244141 0.24414 0.244141 0.244141 0.244141 0.244141 0.244141 0.24414 0.244141 0.244141 0.244141 0.244141 0.244141 0.244141 0.244141 0.244141 0.24414 0.244141 0.244141 0.244141 0.24414 0.244141 0.244141 0.244141 0.244141 0.24414 0.244141 0.12207 0.12207 0.244141 0.244141 0.244141 0.244141 0.244141 0.244141 0.244141 0.244141 0.244141 0.244141 0.244141 0.244141 0.244141 0.244141 0.244141 0.244141 0.244141 0.244141 0.244141 0.244141 0.244141 0.244141 0.244141 0.244141 0.244141 0.24414 0.244141 0.244141 0.24414 0.244141 0.244141 0.244141 0.244141 0.244141 0.24414 0.244141 0.244141 0.24414 0.244141 0.244141 0.244141 0.244141 0.244141 0.24414 0.244141 0.244141 0.244141 0.244141 0.244141 0.244141 0.244141 0.244141 0.24414 0.244141 0.244141 0.244141 0.24414 0.244141 0.244141 0.244141 0.244141 0.24414 0.244141 0.12207 0.12207 0.244141 0.244141 0.244141 0.244141 0.244141 0.244141 0.244141 0.244141 0.244141 0.244141 0.244141 0.244141 0.244141 0.244141 0.244141 0.244141 0.244141 0.244141 0.244141 0.244141 0.244141 0.244141 0.244141 0.244141 0.244141 0.244141 0.244141 0.244141 0.244141 0.244141 0.244141 0.244141 0.244141 0.244141 0.244141 0.244141 0.244141 0.244141 0.244141 0.244141 0.244141 0.244141 0.244141 0.244141 0.244141 0.244141 0.244141 0.244141 0.244141 0.244141 0.244141 0.244141 0.24414 0.244141 0.244141 0.244141 0.24414 0.244141 0.244141 0.244141 0.244141 0.24414 0.244141 0.122071 0.12207 0.244141 0.244141 0.244141 0.244141 0.244141 0.244141 0.244141 0.244141 0.244141 0.244141 0.244141 0.244141 0.244141 0.244141 0.244141 0.244141 0.244141 0.244141 0.244141 0.244141 0.244141 0.244141 0.244141 0.244141 0.244141 0.244141 0.244141 0.244141 0.244141 0.244141 0.244141 0.244141 0.244141 0.244141 0.244141 0.244141 0.244141 0.244141 0.244141 0.244141 0.244141 0.244141 0.244141 0.244141 0.244141 0.244141 0.244141 0.244141 0.244141 0.244141 0.244141 0.244141 0.24414 0.244141 0.244141 0.244141 0.24414 0.244141 0.244141 0.244141 0.244141 0.24414 0.244141 0.122071 0.12207 0.244141 0.244141 0.244141 0.244141 0.244141 0.244141 0.244141 0.244141 0.244141 0.244141 0.244141 0.244141 0.244141 0.244141 0.244141 0.244141 0.24414 0.24414 0.244141 0.244141 0.244141 0.244141 0.244141 0.244141 0.244141 0.24414 0.244141 0.244141 0.24414 0.244141 0.244141 0.244141 0.24414 0.24414 0.24414 0.244141 0.244141 0.24414 0.244141 0.244141 0.244141 0.244141 0.244141 0.24414 0.244141 0.244141 0.24414 0.244141 0.244141 0.244141 0.244141 0.24414 0.24414 0.244141 0.244141 0.244141 0.24414 0.244141 0.244141 0.244141 0.24414 0.24414 0.244141 0.12207 0.12207 0.244141 0.244141 0.244141 0.244141 0.244141 0.244141 0.244141 0.244141 0.244141 0.244141 0.244141 0.244141 0.244141 0.244141 0.244141 0.244141 0.244141 0.244141 0.244141 0.244141 0.244141 0.244141 0.244141 0.244141 0.244141 0.24414 0.244141 0.244141 0.24414 0.244141 0.244141 0.244141 0.244141 0.244141 0.24414 0.244141 0.244141 0.24414 0.244141 0.244141 0.244141 0.244141 0.244141 0.24414 0.244141 0.244141 0.244141 0.244141 0.244141 0.244141 0.244141 0.24414 0.24414 0.244141 0.244141 0.244141 0.24414 0.244141 0.244141 0.244141 0.244141 0.24414 0.244141 0.12207 0.0610352 0.12207 0.12207 0.12207 0.12207 0.12207 0.12207 0.12207 0.12207 0.12207 0.12207 0.12207 0.12207 0.12207 0.12207 0.12207 0.12207 0.12207 0.12207 0.12207 0.12207 0.12207 0.12207 0.12207 0.12207 0.12207 0.12207 0.12207 0.12207 0.12207 0.12207 0.12207 0.12207 0.12207 0.12207 0.12207 0.12207 0.12207 0.12207 0.12207 0.12207 0.12207 0.12207 0.12207 0.12207 0.12207 0.12207 0.12207 0.12207 0.12207 0.12207 0.12207 0.12207 0.12207 0.12207 0.122071 0.12207 0.12207 0.12207 0.12207 0.12207 0.12207 0.12207 0.12207 0.0610353 0.0610352 0.12207 0.12207 0.12207 0.12207 0.12207 0.12207 0.12207 0.12207 0.12207 0.12207 0.12207 0.12207 0.12207 0.12207 0.12207 0.12207 0.12207 0.12207 0.12207 0.12207 0.12207 0.12207 0.12207 0.12207 0.12207 0.12207 0.12207 0.12207 0.12207 0.12207 0.12207 0.12207 0.12207 0.12207 0.12207 0.12207 0.12207 0.12207 0.12207 0.12207 0.12207 0.12207 0.12207 0.12207 0.12207 0.12207 0.12207 0.12207 0.12207 0.12207 0.12207 0.12207 0.12207 0.12207 0.122071 0.12207 0.12207 0.12207 0.12207 0.12207 0.12207 0.12207 0.12207 0.0610353 0.12207 0.244141 0.244141 0.244141 0.244141 0.244141 0.244141 0.244141 0.244141 0.244141 0.244141 0.244141 0.244141 0.244141 0.244141 0.244141 0.244141 0.244141 0.244141 0.244141 0.244141 0.244141 0.244141 0.244141 0.244141 0.244141 0.24414 0.244141 0.244141 0.24414 0.244141 0.244141 0.244141 0.244141 0.244141 0.24414 0.244141 0.244141 0.24414 0.244141 0.244141 0.244141 0.244141 0.244141 0.244141 0.244141 0.244141 0.244141 0.244141 0.244141 0.244141 0.244141 0.244141 0.24414 0.244141 0.244141 0.244141 0.24414 0.244141 0.244141 0.244141 0.244141 0.24414 0.244141 0.122071 0.12207 0.244141 0.244141 0.244141 0.244141 0.244141 0.244141 0.244141 0.244141 0.244141 0.244141 0.244141 0.244141 0.244141 0.244141 0.244141 0.244141 0.244141 0.244141 0.244141 0.244141 0.244141 0.244141 0.244141 0.244141 0.244141 0.24414 0.244141 0.244141 0.24414 0.244141 0.244141 0.244141 0.244141 0.244141 0.24414 0.244141 0.244141 0.24414 0.244141 0.244141 0.244141 0.244141 0.244141 0.244141 0.244141 0.244141 0.244141 0.244141 0.244141 0.244141 0.244141 0.244141 0.24414 0.244141 0.244141 0.244141 0.24414 0.244141 0.244141 0.244141 0.244141 0.24414 0.244141 0.122071 0.12207 0.244141 0.244141 0.244141 0.244141 0.244141 0.244141 0.244141 0.244141 0.244141 0.244141 0.244141 0.244141 0.244141 0.244141 0.244141 0.244141 0.244141 0.244141 0.244141 0.244141 0.244141 0.244141 0.244141 0.244141 0.244141 0.24414 0.244141 0.244141 0.24414 0.244141 0.244141 0.244141 0.244141 0.244141 0.24414 0.244141 0.244141 0.24414 0.244141 0.244141 0.244141 0.244141 0.244141 0.244141 0.244141 0.244141 0.244141 0.244141 0.244141 0.244141 0.244141 0.244141 0.24414 0.244141 0.244141 0.244141 0.24414 0.244141 0.244141 0.244141 0.244141 0.24414 0.244141 0.122071 0.12207 0.244141 0.244141 0.244141 0.244141 0.244141 0.244141 0.244141 0.244141 0.244141 0.244141 0.244141 0.244141 0.244141 0.244141 0.244141 0.244141 0.244141 0.244141 0.244141 0.244141 0.244141 0.244141 0.244141 0.244141 0.244141 0.24414 0.244141 0.244141 0.24414 0.244141 0.244141 0.244141 0.244141 0.244141 0.24414 0.244141 0.244141 0.24414 0.244141 0.244141 0.244141 0.244141 0.244141 0.244141 0.244141 0.244141 0.244141 0.244141 0.244141 0.244141 0.244141 0.244141 0.24414 0.244141 0.244141 0.244141 0.24414 0.244141 0.244141 0.244141 0.244141 0.24414 0.244141 0.122071 0.12207 0.244141 0.244141 0.244141 0.244141 0.244141 0.244141 0.244141 0.244141 0.244141 0.244141 0.244141 0.244141 0.244141 0.244141 0.244141 0.244141 0.244141 0.244141 0.244141 0.244141 0.244141 0.244141 0.244141 0.244141 0.244141 0.24414 0.244141 0.244141 0.24414 0.244141 0.244141 0.244141 0.244141 0.244141 0.24414 0.244141 0.244141 0.24414 0.244141 0.244141 0.244141 0.244141 0.244141 0.244141 0.244141 0.244141 0.244141 0.244141 0.244141 0.244141 0.244141 0.244141 0.24414 0.244141 0.244141 0.244141 0.24414 0.244141 0.244141 0.244141 0.244141 0.24414 0.244141 0.122071 0.12207 0.244141 0.244141 0.244141 0.244141 0.244141 0.244141 0.244141 0.244141 0.244141 0.244141 0.244141 0.244141 0.244141 0.244141 0.244141 0.244141 0.244141 0.244141 0.244141 0.244141 0.244141 0.244141 0.244141 0.244141 0.244141 0.24414 0.244141 0.244141 0.24414 0.244141 0.244141 0.244141 0.244141 0.244141 0.24414 0.244141 0.244141 0.24414 0.244141 0.244141 0.244141 0.244141 0.244141 0.244141 0.244141 0.244141 0.244141 0.244141 0.244141 0.244141 0.244141 0.244141 0.24414 0.244141 0.244141 0.244141 0.24414 0.244141 0.244141 0.244141 0.244141 0.24414 0.244141 0.122071 0.12207 0.244141 0.244141 0.244141 0.244141 0.244141 0.244141 0.244141 0.244141 0.244141 0.244141 0.244141 0.244141 0.244141 0.244141 0.244141 0.244141 0.244141 0.244141 0.244141 0.244141 0.244141 0.244141 0.244141 0.244141 0.244141 0.24414 0.244141 0.244141 0.24414 0.244141 0.244141 0.244141 0.244141 0.244141 0.244141 0.244141 0.244141 0.24414 0.244141 0.244141 0.244141 0.244141 0.244141 0.244141 0.244141 0.244141 0.244141 0.244141 0.244141 0.244141 0.244141 0.244141 0.24414 0.244141 0.244141 0.244141 0.24414 0.244141 0.244141 0.244141 0.244141 0.24414 0.244141 0.122071 0.12207 0.244141 0.244141 0.244141 0.244141 0.244141 0.244141 0.244141 0.244141 0.244141 0.244141 0.244141 0.244141 0.244141 0.244141 0.244141 0.244141 0.244141 0.24414 0.244141 0.244141 0.244141 0.244141 0.244141 0.244141 0.244141 0.24414 0.244141 0.244141 0.24414 0.244141 0.244141 0.244141 0.244141 0.244141 0.24414 0.244141 0.244141 0.24414 0.244141 0.244141 0.244141 0.244141 0.244141 0.24414 0.244141 0.244141 0.244141 0.244141 0.244141 0.244141 0.244141 0.244141 0.24414 0.244141 0.244141 0.244141 0.24414 0.244141 0.244141 0.244141 0.244141 0.24414 0.244141 0.12207 0.12207 0.244141 0.244141 0.244141 0.244141 0.244141 0.244141 0.244141 0.244141 0.244141 0.244141 0.244141 0.244141 0.244141 0.244141 0.244141 0.244141 0.244141 0.244141 0.244141 0.244141 0.244141 0.244141 0.244141 0.244141 0.244141 0.24414 0.244141 0.244141 0.24414 0.244141 0.244141 0.244141 0.244141 0.244141 0.24414 0.244141 0.244141 0.24414 0.244141 0.244141 0.244141 0.244141 0.244141 0.24414 0.244141 0.244141 0.244141 0.244141 0.244141 0.244141 0.244141 0.24414 0.24414 0.244141 0.244141 0.244141 0.24414 0.244141 0.244141 0.244141 0.244141 0.24414 0.244141 0.12207 0.12207 0.244141 0.244141 0.244141 0.244141 0.244141 0.244141 0.244141 0.244141 0.244141 0.244141 0.244141 0.244141 0.244141 0.244141 0.244141 0.244141 0.244141 0.244141 0.244141 0.244141 0.244141 0.244141 0.244141 0.244141 0.244141 0.24414 0.244141 0.244141 0.24414 0.244141 0.244141 0.244141 0.244141 0.244141 0.24414 0.244141 0.244141 0.24414 0.244141 0.244141 0.244141 0.244141 0.244141 0.24414 0.244141 0.244141 0.244141 0.244141 0.244141 0.244141 0.244141 0.244141 0.24414 0.244141 0.244141 0.244141 0.24414 0.244141 0.244141 0.244141 0.244141 0.24414 0.244141 0.122071 0.12207 0.244141 0.244141 0.244141 0.244141 0.244141 0.244141 0.244141 0.244141 0.244141 0.244141 0.244141 0.244141 0.244141 0.244141 0.244141 0.244141 0.244141 0.244141 0.244141 0.244141 0.244141 0.244141 0.244141 0.244141 0.244141 0.24414 0.244141 0.244141 0.24414 0.244141 0.244141 0.244141 0.244141 0.244141 0.24414 0.244141 0.244141 0.24414 0.244141 0.244141 0.244141 0.244141 0.244141 0.244141 0.244141 0.244141 0.244141 0.244141 0.244141 0.244141 0.244141 0.244141 0.24414 0.244141 0.244141 0.244141 0.24414 0.244141 0.244141 0.244141 0.244141 0.24414 0.244141 0.122071 0.12207 0.244141 0.244141 0.244141 0.244141 0.244141 0.244141 0.244141 0.244141 0.244141 0.244141 0.244141 0.244141 0.244141 0.244141 0.244141 0.244141 0.244141 0.244141 0.244141 0.244141 0.244141 0.244141 0.244141 0.244141 0.244141 0.244141 0.244141 0.244141 0.244141 0.244141 0.244141 0.244141 0.244141 0.244141 0.244141 0.244141 0.244141 0.244141 0.244141 0.244141 0.244141 0.244141 0.244141 0.244141 0.244141 0.244141 0.244141 0.244141 0.244141 0.244141 0.244141 0.244141 0.24414 0.244141 0.244141 0.244141 0.24414 0.244141 0.244141 0.244141 0.244141 0.24414 0.244141 0.122071 0.12207 0.244141 0.244141 0.244141 0.244141 0.244141 0.244141 0.244141 0.244141 0.244141 0.244141 0.244141 0.244141 0.244141 0.244141 0.244141 0.244141 0.244141 0.244141 0.244141 0.244141 0.244141 0.244141 0.244141 0.244141 0.244141 0.244141 0.244141 0.244141 0.244141 0.244141 0.244141 0.244141 0.244141 0.244141 0.244141 0.244141 0.244141 0.244141 0.244141 0.244141 0.244141 0.244141 0.244141 0.244141 0.244141 0.244141 0.244141 0.244141 0.244141 0.244141 0.244141 0.244141 0.24414 0.244141 0.244141 0.244141 0.24414 0.244141 0.244141 0.244141 0.244141 0.24414 0.244141 0.122071 0.12207 0.244141 0.244141 0.244141 0.244141 0.244141 0.244141 0.244141 0.244141 0.244141 0.244141 0.244141 0.244141 0.244141 0.244141 0.244141 0.244141 0.24414 0.24414 0.244141 0.244141 0.244141 0.244141 0.244141 0.244141 0.244141 0.24414 0.244141 0.244141 0.24414 0.244141 0.244141 0.244141 0.24414 0.24414 0.24414 0.244141 0.244141 0.24414 0.244141 0.244141 0.244141 0.244141 0.244141 0.24414 0.244141 0.244141 0.244141 0.244141 0.244141 0.244141 0.244141 0.24414 0.24414 0.244141 0.244141 0.244141 0.24414 0.244141 0.244141 0.244141 0.244141 0.24414 0.244141 0.12207 0.12207 0.244141 0.244141 0.244141 0.244141 0.244141 0.244141 0.244141 0.244141 0.244141 0.244141 0.244141 0.244141 0.244141 0.244141 0.244141 0.244141 0.244141 0.244141 0.244141 0.244141 0.244141 0.244141 0.244141 0.244141 0.244141 0.24414 0.244141 0.244141 0.24414 0.244141 0.244141 0.244141 0.244141 0.244141 0.24414 0.244141 0.244141 0.24414 0.244141 0.244141 0.244141 0.244141 0.244141 0.24414 0.244141 0.244141 0.244141 0.244141 0.244141 0.244141 0.244141 0.244141 0.24414 0.244141 0.244141 0.244141 0.24414 0.244141 0.244141 0.244141 0.244141 0.24414 0.244141 0.12207 0.0610352 0.12207 0.12207 0.12207 0.12207 0.12207 0.12207 0.12207 0.12207 0.12207 0.12207 0.12207 0.12207 0.12207 0.12207 0.12207 0.12207 0.12207 0.12207 0.12207 0.12207 0.12207 0.12207 0.12207 0.12207 0.12207 0.12207 0.12207 0.12207 0.12207 0.12207 0.12207 0.12207 0.12207 0.12207 0.12207 0.12207 0.12207 0.12207 0.12207 0.12207 0.12207 0.12207 0.12207 0.12207 0.12207 0.12207 0.12207 0.12207 0.12207 0.12207 0.12207 0.12207 0.12207 0.12207 0.122071 0.12207 0.12207 0.12207 0.12207 0.12207 0.12207 0.12207 0.12207 0.0610353 0.0610352 0.12207 0.12207 0.12207 0.12207 0.12207 0.12207 0.12207 0.12207 0.12207 0.12207 0.12207 0.12207 0.12207 0.12207 0.12207 0.12207 0.12207 0.12207 0.12207 0.12207 0.12207 0.12207 0.12207 0.12207 0.12207 0.12207 0.12207 0.12207 0.12207 0.12207 0.12207 0.12207 0.12207 0.12207 0.12207 0.12207 0.12207 0.12207 0.12207 0.12207 0.12207 0.12207 0.12207 0.12207 0.12207 0.12207 0.12207 0.12207 0.12207 0.12207 0.12207 0.12207 0.12207 0.12207 0.122071 0.12207 0.12207 0.12207 0.12207 0.12207 0.12207 0.12207 0.12207 0.0610353 0.12207 0.244141 0.244141 0.244141 0.244141 0.244141 0.244141 0.244141 0.244141 0.244141 0.244141 0.244141 0.244141 0.244141 0.244141 0.244141 0.244141 0.244141 0.244141 0.244141 0.244141 0.244141 0.244141 0.244141 0.244141 0.244141 0.244141 0.244141 0.244141 0.244141 0.244141 0.244141 0.244141 0.244141 0.244141 0.244141 0.244141 0.244141 0.244141 0.244141 0.244141 0.244141 0.244141 0.244141 0.244141 0.244141 0.244141 0.244141 0.244141 0.244141 0.244141 0.244141 0.244141 0.24414 0.244141 0.244141 0.244141 0.24414 0.244141 0.244141 0.244141 0.244141 0.24414 0.244141 0.122071 0.12207 0.244141 0.244141 0.244141 0.244141 0.244141 0.244141 0.244141 0.244141 0.244141 0.244141 0.244141 0.244141 0.244141 0.244141 0.244141 0.244141 0.244141 0.244141 0.244141 0.244141 0.244141 0.244141 0.244141 0.244141 0.244141 0.24414 0.244141 0.244141 0.24414 0.244141 0.244141 0.244141 0.244141 0.244141 0.24414 0.244141 0.244141 0.244141 0.244141 0.244141 0.244141 0.244141 0.244141 0.244141 0.244141 0.244141 0.244141 0.244141 0.244141 0.244141 0.244141 0.244141 0.24414 0.244141 0.244141 0.244141 0.24414 0.244141 0.244141 0.244141 0.244141 0.24414 0.244141 0.122071 0.12207 0.244141 0.244141 0.244141 0.244141 0.244141 0.244141 0.244141 0.244141 0.244141 0.244141 0.244141 0.244141 0.244141 0.244141 0.244141 0.244141 0.244141 0.244141 0.244141 0.244141 0.244141 0.244141 0.244141 0.244141 0.244141 0.24414 0.244141 0.244141 0.24414 0.244141 0.244141 0.244141 0.244141 0.244141 0.24414 0.244141 0.244141 0.24414 0.244141 0.244141 0.244141 0.244141 0.244141 0.244141 0.244141 0.244141 0.244141 0.244141 0.244141 0.244141 0.244141 0.244141 0.24414 0.244141 0.244141 0.244141 0.24414 0.244141 0.244141 0.244141 0.244141 0.24414 0.244141 0.122071 0.12207 0.244141 0.244141 0.244141 0.244141 0.244141 0.244141 0.244141 0.244141 0.244141 0.244141 0.244141 0.244141 0.244141 0.244141 0.244141 0.244141 0.244141 0.244141 0.244141 0.244141 0.244141 0.244141 0.244141 0.244141 0.244141 0.24414 0.244141 0.244141 0.24414 0.244141 0.244141 0.244141 0.244141 0.244141 0.24414 0.244141 0.244141 0.24414 0.244141 0.244141 0.244141 0.244141 0.244141 0.244141 0.244141 0.244141 0.244141 0.244141 0.244141 0.244141 0.244141 0.244141 0.24414 0.244141 0.244141 0.244141 0.24414 0.244141 0.244141 0.244141 0.244141 0.24414 0.244141 0.122071 0.12207 0.244141 0.244141 0.244141 0.244141 0.244141 0.244141 0.244141 0.244141 0.244141 0.244141 0.244141 0.244141 0.244141 0.244141 0.244141 0.244141 0.244141 0.244141 0.244141 0.244141 0.244141 0.244141 0.244141 0.244141 0.244141 0.24414 0.244141 0.244141 0.24414 0.244141 0.244141 0.244141 0.244141 0.244141 0.24414 0.244141 0.244141 0.24414 0.244141 0.244141 0.244141 0.244141 0.244141 0.244141 0.244141 0.244141 0.244141 0.244141 0.244141 0.244141 0.244141 0.244141 0.24414 0.244141 0.244141 0.244141 0.24414 0.244141 0.244141 0.244141 0.244141 0.24414 0.244141 0.122071 0.12207 0.244141 0.244141 0.244141 0.244141 0.244141 0.244141 0.244141 0.244141 0.244141 0.244141 0.244141 0.244141 0.244141 0.244141 0.244141 0.244141 0.244141 0.244141 0.244141 0.244141 0.244141 0.244141 0.244141 0.244141 0.244141 0.244141 0.244141 0.244141 0.244141 0.244141 0.244141 0.244141 0.244141 0.244141 0.244141 0.244141 0.244141 0.244141 0.244141 0.244141 0.244141 0.244141 0.244141 0.244141 0.244141 0.244141 0.244141 0.244141 0.244141 0.244141 0.244141 0.244141 0.24414 0.244141 0.244141 0.244141 0.24414 0.244141 0.244141 0.244141 0.244141 0.24414 0.244141 0.122071 0.12207 0.244141 0.244141 0.244141 0.244141 0.244141 0.244141 0.244141 0.244141 0.244141 0.244141 0.244141 0.244141 0.244141 0.244141 0.244141 0.244141 0.244141 0.244141 0.244141 0.244141 0.244141 0.244141 0.244141 0.244141 0.244141 0.24414 0.244141 0.244141 0.24414 0.244141 0.244141 0.244141 0.244141 0.244141 0.24414 0.244141 0.244141 0.24414 0.244141 0.244141 0.244141 0.244141 0.244141 0.244141 0.244141 0.244141 0.244141 0.244141 0.244141 0.244141 0.244141 0.244141 0.24414 0.244141 0.244141 0.244141 0.24414 0.244141 0.244141 0.244141 0.244141 0.24414 0.244141 0.122071 0.12207 0.244141 0.244141 0.244141 0.244141 0.244141 0.244141 0.244141 0.244141 0.244141 0.244141 0.244141 0.244141 0.244141 0.244141 0.244141 0.244141 0.24414 0.24414 0.244141 0.244141 0.244141 0.244141 0.244141 0.244141 0.244141 0.24414 0.244141 0.244141 0.24414 0.244141 0.244141 0.244141 0.244141 0.244141 0.24414 0.244141 0.244141 0.24414 0.244141 0.244141 0.244141 0.244141 0.244141 0.24414 0.244141 0.244141 0.244141 0.244141 0.244141 0.244141 0.244141 0.24414 0.24414 0.244141 0.244141 0.244141 0.24414 0.244141 0.244141 0.244141 0.244141 0.24414 0.244141 0.12207 0.12207 0.244141 0.244141 0.244141 0.244141 0.244141 0.244141 0.244141 0.244141 0.244141 0.244141 0.244141 0.244141 0.244141 0.244141 0.244141 0.244141 0.244141 0.244141 0.244141 0.244141 0.244141 0.244141 0.244141 0.244141 0.244141 0.24414 0.244141 0.244141 0.24414 0.244141 0.244141 0.244141 0.244141 0.244141 0.24414 0.244141 0.244141 0.24414 0.244141 0.244141 0.244141 0.244141 0.244141 0.24414 0.244141 0.244141 0.244141 0.244141 0.244141 0.244141 0.244141 0.24414 0.24414 0.244141 0.244141 0.244141 0.24414 0.244141 0.244141 0.244141 0.244141 0.24414 0.244141 0.12207 0.12207 0.244141 0.244141 0.244141 0.244141 0.244141 0.244141 0.244141 0.244141 0.244141 0.244141 0.244141 0.244141 0.244141 0.244141 0.244141 0.244141 0.244141 0.244141 0.244141 0.244141 0.244141 0.244141 0.244141 0.244141 0.244141 0.24414 0.244141 0.244141 0.24414 0.244141 0.244141 0.244141 0.244141 0.244141 0.24414 0.244141 0.244141 0.24414 0.244141 0.244141 0.244141 0.244141 0.244141 0.244141 0.244141 0.244141 0.244141 0.244141 0.244141 0.244141 0.244141 0.244141 0.24414 0.244141 0.244141 0.244141 0.24414 0.244141 0.244141 0.244141 0.244141 0.24414 0.244141 0.12207 0.12207 0.244141 0.244141 0.244141 0.244141 0.244141 0.244141 0.244141 0.244141 0.244141 0.244141 0.244141 0.244141 0.244141 0.244141 0.244141 0.244141 0.244141 0.244141 0.244141 0.244141 0.244141 0.244141 0.244141 0.244141 0.244141 0.24414 0.244141 0.244141 0.24414 0.244141 0.244141 0.244141 0.244141 0.244141 0.24414 0.244141 0.244141 0.24414 0.244141 0.244141 0.244141 0.244141 0.244141 0.244141 0.244141 0.244141 0.244141 0.244141 0.244141 0.244141 0.244141 0.244141 0.24414 0.244141 0.244141 0.244141 0.24414 0.244141 0.244141 0.244141 0.244141 0.24414 0.244141 0.12207 0.12207 0.244141 0.244141 0.244141 0.244141 0.244141 0.244141 0.244141 0.244141 0.244141 0.244141 0.244141 0.244141 0.244141 0.244141 0.244141 0.244141 0.244141 0.244141 0.244141 0.244141 0.244141 0.244141 0.244141 0.244141 0.244141 0.244141 0.244141 0.244141 0.244141 0.244141 0.244141 0.244141 0.244141 0.244141 0.244141 0.244141 0.244141 0.244141 0.244141 0.244141 0.244141 0.244141 0.244141 0.244141 0.244141 0.244141 0.244141 0.244141 0.244141 0.244141 0.244141 0.244141 0.24414 0.244141 0.244141 0.244141 0.24414 0.244141 0.244141 0.244141 0.244141 0.24414 0.244141 0.122071 0.12207 0.244141 0.244141 0.244141 0.244141 0.244141 0.244141 0.244141 0.244141 0.244141 0.244141 0.244141 0.244141 0.244141 0.244141 0.244141 0.244141 0.244141 0.244141 0.244141 0.244141 0.244141 0.244141 0.244141 0.244141 0.244141 0.244141 0.244141 0.244141 0.244141 0.244141 0.244141 0.244141 0.244141 0.244141 0.244141 0.244141 0.244141 0.244141 0.244141 0.244141 0.244141 0.244141 0.244141 0.244141 0.244141 0.244141 0.244141 0.244141 0.244141 0.244141 0.244141 0.244141 0.24414 0.244141 0.244141 0.244141 0.24414 0.244141 0.244141 0.244141 0.244141 0.24414 0.244141 0.122071 0.12207 0.244141 0.244141 0.244141 0.244141 0.244141 0.244141 0.244141 0.244141 0.244141 0.244141 0.244141 0.244141 0.244141 0.244141 0.244141 0.244141 0.24414 0.24414 0.244141 0.244141 0.244141 0.244141 0.244141 0.244141 0.244141 0.24414 0.244141 0.244141 0.24414 0.244141 0.244141 0.244141 0.244141 0.244141 0.24414 0.244141 0.244141 0.24414 0.244141 0.244141 0.244141 0.244141 0.244141 0.24414 0.244141 0.244141 0.244141 0.244141 0.244141 0.244141 0.244141 0.24414 0.24414 0.244141 0.244141 0.244141 0.24414 0.244141 0.244141 0.244141 0.244141 0.24414 0.244141 0.12207 0.12207 0.244141 0.244141 0.244141 0.244141 0.244141 0.244141 0.244141 0.244141 0.244141 0.244141 0.244141 0.244141 0.244141 0.244141 0.244141 0.244141 0.244141 0.244141 0.244141 0.244141 0.244141 0.244141 0.244141 0.244141 0.244141 0.24414 0.244141 0.244141 0.24414 0.244141 0.244141 0.244141 0.244141 0.244141 0.24414 0.244141 0.244141 0.24414 0.244141 0.244141 0.244141 0.244141 0.244141 0.24414 0.244141 0.244141 0.244141 0.244141 0.244141 0.244141 0.244141 0.24414 0.24414 0.244141 0.244141 0.244141 0.24414 0.244141 0.244141 0.244141 0.244141 0.24414 0.244141 0.12207 0.0610352 0.12207 0.12207 0.12207 0.12207 0.12207 0.12207 0.12207 0.12207 0.12207 0.12207 0.12207 0.12207 0.12207 0.12207 0.12207 0.12207 0.12207 0.12207 0.12207 0.12207 0.12207 0.12207 0.12207 0.12207 0.12207 0.12207 0.12207 0.12207 0.12207 0.12207 0.12207 0.12207 0.12207 0.12207 0.12207 0.12207 0.12207 0.12207 0.12207 0.12207 0.12207 0.12207 0.12207 0.12207 0.12207 0.12207 0.12207 0.12207 0.12207 0.12207 0.12207 0.12207 0.12207 0.12207 0.122071 0.12207 0.12207 0.12207 0.12207 0.12207 0.12207 0.12207 0.12207 0.0610353 0.0610351 0.12207 0.12207 0.12207 0.12207 0.12207 0.12207 0.12207 0.12207 0.12207 0.12207 0.12207 0.12207 0.12207 0.12207 0.12207 0.12207 0.12207 0.12207 0.12207 0.12207 0.12207 0.12207 0.12207 0.12207 0.12207 0.12207 0.12207 0.12207 0.12207 0.12207 0.12207 0.12207 0.12207 0.12207 0.12207 0.12207 0.12207 0.12207 0.12207 0.12207 0.12207 0.12207 0.12207 0.12207 0.12207 0.12207 0.12207 0.12207 0.12207 0.12207 0.12207 0.12207 0.12207 0.12207 0.122071 0.12207 0.12207 0.12207 0.12207 0.12207 0.12207 0.12207 0.12207 0.0610352 0.12207 0.244141 0.244141 0.244141 0.244141 0.244141 0.244141 0.244141 0.244141 0.244141 0.244141 0.244141 0.244141 0.244141 0.244141 0.244141 0.244141 0.244141 0.244141 0.244141 0.244141 0.244141 0.244141 0.244141 0.244141 0.244141 0.24414 0.244141 0.244141 0.24414 0.244141 0.244141 0.244141 0.244141 0.244141 0.24414 0.244141 0.244141 0.24414 0.244141 0.244141 0.244141 0.244141 0.244141 0.24414 0.244141 0.244141 0.244141 0.244141 0.244141 0.244141 0.244141 0.24414 0.24414 0.244141 0.244141 0.244141 0.24414 0.244141 0.244141 0.244141 0.244141 0.24414 0.244141 0.12207 0.12207 0.244141 0.244141 0.244141 0.244141 0.244141 0.244141 0.244141 0.244141 0.244141 0.244141 0.244141 0.244141 0.244141 0.244141 0.244141 0.244141 0.244141 0.24414 0.244141 0.244141 0.244141 0.244141 0.244141 0.244141 0.244141 0.24414 0.244141 0.244141 0.24414 0.244141 0.244141 0.244141 0.244141 0.244141 0.24414 0.244141 0.244141 0.24414 0.244141 0.244141 0.244141 0.244141 0.244141 0.24414 0.244141 0.244141 0.244141 0.244141 0.244141 0.244141 0.244141 0.24414 0.24414 0.244141 0.244141 0.244141 0.24414 0.244141 0.244141 0.244141 0.244141 0.24414 0.244141 0.12207 0.12207 0.244141 0.244141 0.244141 0.244141 0.244141 0.244141 0.244141 0.244141 0.244141 0.244141 0.244141 0.244141 0.244141 0.244141 0.244141 0.244141 0.24414 0.24414 0.244141 0.244141 0.244141 0.244141 0.244141 0.244141 0.244141 0.24414 0.244141 0.244141 0.24414 0.244141 0.244141 0.244141 0.244141 0.244141 0.24414 0.244141 0.244141 0.24414 0.244141 0.244141 0.244141 0.244141 0.244141 0.24414 0.244141 0.244141 0.244141 0.244141 0.244141 0.244141 0.244141 0.24414 0.24414 0.244141 0.244141 0.244141 0.24414 0.244141 0.244141 0.244141 0.244141 0.24414 0.244141 0.12207 0.12207 0.244141 0.244141 0.244141 0.244141 0.244141 0.244141 0.244141 0.244141 0.244141 0.244141 0.244141 0.244141 0.244141 0.244141 0.244141 0.244141 0.24414 0.24414 0.244141 0.244141 0.244141 0.244141 0.244141 0.244141 0.244141 0.24414 0.244141 0.244141 0.24414 0.244141 0.244141 0.244141 0.244141 0.244141 0.24414 0.244141 0.244141 0.24414 0.244141 0.244141 0.244141 0.244141 0.244141 0.24414 0.244141 0.244141 0.244141 0.244141 0.244141 0.244141 0.244141 0.24414 0.24414 0.244141 0.244141 0.244141 0.24414 0.244141 0.244141 0.244141 0.244141 0.24414 0.244141 0.12207 0.12207 0.244141 0.244141 0.244141 0.244141 0.244141 0.244141 0.244141 0.244141 0.244141 0.244141 0.244141 0.244141 0.244141 0.244141 0.244141 0.244141 0.24414 0.24414 0.244141 0.244141 0.244141 0.244141 0.244141 0.244141 0.244141 0.24414 0.244141 0.244141 0.24414 0.244141 0.244141 0.244141 0.244141 0.244141 0.24414 0.244141 0.244141 0.24414 0.244141 0.244141 0.244141 0.244141 0.244141 0.24414 0.244141 0.244141 0.244141 0.244141 0.244141 0.244141 0.244141 0.24414 0.24414 0.244141 0.244141 0.244141 0.24414 0.244141 0.244141 0.244141 0.244141 0.24414 0.244141 0.12207 0.12207 0.244141 0.244141 0.244141 0.244141 0.244141 0.244141 0.244141 0.244141 0.244141 0.244141 0.244141 0.244141 0.244141 0.244141 0.244141 0.244141 0.244141 0.24414 0.244141 0.244141 0.244141 0.244141 0.244141 0.244141 0.244141 0.24414 0.244141 0.244141 0.24414 0.244141 0.244141 0.244141 0.244141 0.244141 0.24414 0.244141 0.244141 0.24414 0.244141 0.244141 0.244141 0.244141 0.244141 0.24414 0.244141 0.244141 0.244141 0.244141 0.244141 0.244141 0.244141 0.24414 0.24414 0.244141 0.244141 0.244141 0.24414 0.244141 0.244141 0.244141 0.244141 0.24414 0.244141 0.12207 0.12207 0.244141 0.244141 0.244141 0.244141 0.244141 0.244141 0.244141 0.244141 0.244141 0.244141 0.244141 0.244141 0.244141 0.244141 0.244141 0.244141 0.24414 0.24414 0.244141 0.244141 0.244141 0.244141 0.244141 0.244141 0.244141 0.24414 0.244141 0.244141 0.24414 0.244141 0.244141 0.244141 0.244141 0.244141 0.24414 0.244141 0.244141 0.24414 0.244141 0.244141 0.244141 0.244141 0.244141 0.24414 0.244141 0.244141 0.244141 0.244141 0.244141 0.244141 0.244141 0.24414 0.24414 0.244141 0.244141 0.244141 0.24414 0.244141 0.244141 0.244141 0.244141 0.24414 0.244141 0.12207 0.12207 0.244141 0.244141 0.244141 0.244141 0.244141 0.244141 0.244141 0.24414 0.24414 0.244141 0.244141 0.244141 0.244141 0.24414 0.24414 0.244141 0.24414 0.24414 0.244141 0.244141 0.244141 0.244141 0.24414 0.244141 0.244141 0.24414 0.244141 0.244141 0.24414 0.244141 0.244141 0.244141 0.24414 0.24414 0.24414 0.244141 0.244141 0.24414 0.244141 0.244141 0.244141 0.24414 0.24414 0.24414 0.244141 0.244141 0.24414 0.244141 0.244141 0.24414 0.244141 0.24414 0.24414 0.244141 0.244141 0.244141 0.24414 0.244141 0.244141 0.244141 0.24414 0.24414 0.244141 0.12207 0.12207 0.244141 0.244141 0.244141 0.244141 0.244141 0.244141 0.244141 0.244141 0.24414 0.244141 0.244141 0.244141 0.244141 0.24414 0.24414 0.244141 0.24414 0.24414 0.244141 0.244141 0.244141 0.244141 0.24414 0.244141 0.244141 0.24414 0.244141 0.244141 0.24414 0.244141 0.244141 0.244141 0.24414 0.24414 0.24414 0.244141 0.244141 0.24414 0.244141 0.244141 0.244141 0.24414 0.24414 0.24414 0.244141 0.244141 0.24414 0.244141 0.244141 0.24414 0.244141 0.24414 0.24414 0.244141 0.244141 0.244141 0.24414 0.244141 0.244141 0.244141 0.24414 0.24414 0.244141 0.12207 0.12207 0.244141 0.244141 0.244141 0.244141 0.244141 0.244141 0.244141 0.244141 0.244141 0.244141 0.244141 0.244141 0.244141 0.244141 0.244141 0.244141 0.24414 0.24414 0.244141 0.244141 0.244141 0.244141 0.244141 0.244141 0.244141 0.24414 0.244141 0.244141 0.24414 0.244141 0.244141 0.244141 0.244141 0.244141 0.24414 0.244141 0.244141 0.24414 0.244141 0.244141 0.244141 0.244141 0.244141 0.24414 0.244141 0.244141 0.24414 0.244141 0.244141 0.244141 0.244141 0.24414 0.24414 0.244141 0.244141 0.244141 0.24414 0.244141 0.244141 0.244141 0.244141 0.24414 0.244141 0.12207 0.12207 0.244141 0.244141 0.244141 0.244141 0.244141 0.244141 0.244141 0.244141 0.244141 0.244141 0.244141 0.244141 0.244141 0.244141 0.244141 0.244141 0.24414 0.24414 0.244141 0.244141 0.244141 0.244141 0.244141 0.244141 0.244141 0.24414 0.244141 0.244141 0.24414 0.244141 0.244141 0.244141 0.24414 0.244141 0.24414 0.244141 0.244141 0.24414 0.244141 0.244141 0.244141 0.244141 0.244141 0.24414 0.244141 0.244141 0.24414 0.244141 0.244141 0.244141 0.244141 0.24414 0.24414 0.244141 0.244141 0.244141 0.24414 0.244141 0.244141 0.244141 0.244141 0.24414 0.244141 0.12207 0.12207 0.244141 0.244141 0.244141 0.244141 0.244141 0.244141 0.244141 0.244141 0.244141 0.244141 0.244141 0.244141 0.244141 0.244141 0.244141 0.244141 0.244141 0.244141 0.244141 0.244141 0.244141 0.244141 0.244141 0.244141 0.244141 0.24414 0.244141 0.244141 0.24414 0.244141 0.244141 0.244141 0.244141 0.244141 0.24414 0.244141 0.244141 0.24414 0.244141 0.244141 0.244141 0.244141 0.244141 0.244141 0.244141 0.244141 0.244141 0.244141 0.244141 0.244141 0.244141 0.244141 0.24414 0.244141 0.244141 0.244141 0.24414 0.244141 0.244141 0.244141 0.244141 0.24414 0.244141 0.122071 0.12207 0.244141 0.244141 0.244141 0.244141 0.244141 0.244141 0.244141 0.244141 0.244141 0.244141 0.244141 0.244141 0.244141 0.244141 0.244141 0.244141 0.244141 0.244141 0.244141 0.244141 0.244141 0.244141 0.244141 0.244141 0.244141 0.24414 0.244141 0.244141 0.24414 0.244141 0.244141 0.244141 0.244141 0.244141 0.24414 0.244141 0.244141 0.24414 0.244141 0.244141 0.244141 0.244141 0.244141 0.24414 0.244141 0.244141 0.244141 0.244141 0.244141 0.244141 0.244141 0.24414 0.24414 0.244141 0.244141 0.244141 0.24414 0.244141 0.244141 0.244141 0.244141 0.24414 0.244141 0.12207 0.12207 0.24414 0.24414 0.24414 0.24414 0.24414 0.244141 0.244141 0.24414 0.24414 0.244141 0.24414 0.244141 0.244141 0.24414 0.24414 0.24414 0.24414 0.24414 0.24414 0.244141 0.244141 0.244141 0.24414 0.244141 0.244141 0.24414 0.244141 0.244141 0.24414 0.24414 0.24414 0.244141 0.24414 0.24414 0.24414 0.244141 0.244141 0.24414 0.24414 0.24414 0.244141 0.24414 0.24414 0.24414 0.24414 0.244141 0.24414 0.244141 0.244141 0.24414 0.244141 0.24414 0.24414 0.244141 0.244141 0.244141 0.24414 0.244141 0.244141 0.244141 0.24414 0.24414 0.244141 0.12207 0.12207 0.244141 0.244141 0.244141 0.244141 0.244141 0.244141 0.244141 0.244141 0.24414 0.244141 0.244141 0.244141 0.244141 0.244141 0.24414 0.244141 0.24414 0.24414 0.244141 0.244141 0.244141 0.244141 0.244141 0.244141 0.244141 0.24414 0.244141 0.244141 0.24414 0.244141 0.244141 0.244141 0.24414 0.24414 0.24414 0.244141 0.244141 0.24414 0.244141 0.244141 0.244141 0.24414 0.244141 0.24414 0.244141 0.244141 0.24414 0.244141 0.244141 0.244141 0.244141 0.24414 0.24414 0.244141 0.244141 0.244141 0.24414 0.244141 0.244141 0.244141 0.24414 0.24414 0.244141 0.12207 0.0610351 0.12207 0.12207 0.12207 0.12207 0.12207 0.12207 0.12207 0.12207 0.12207 0.12207 0.12207 0.12207 0.12207 0.12207 0.12207 0.12207 0.12207 0.12207 0.12207 0.12207 0.12207 0.12207 0.12207 0.12207 0.12207 0.12207 0.12207 0.12207 0.12207 0.12207 0.12207 0.12207 0.12207 0.12207 0.12207 0.12207 0.12207 0.12207 0.12207 0.12207 0.12207 0.12207 0.12207 0.12207 0.12207 0.12207 0.12207 0.12207 0.12207 0.12207 0.12207 0.12207 0.12207 0.12207 0.12207 0.12207 0.12207 0.12207 0.12207 0.12207 0.12207 0.12207 0.12207 0.0610352 0.0610351 0.12207 0.12207 0.12207 0.12207 0.12207 0.12207 0.12207 0.12207 0.12207 0.12207 0.12207 0.12207 0.12207 0.12207 0.12207 0.12207 0.12207 0.12207 0.12207 0.12207 0.12207 0.12207 0.12207 0.12207 0.12207 0.12207 0.12207 0.12207 0.12207 0.12207 0.12207 0.12207 0.12207 0.12207 0.12207 0.12207 0.12207 0.12207 0.12207 0.12207 0.12207 0.12207 0.12207 0.12207 0.12207 0.12207 0.12207 0.12207 0.12207 0.12207 0.12207 0.12207 0.12207 0.12207 0.12207 0.12207 0.12207 0.12207 0.12207 0.12207 0.12207 0.12207 0.12207 0.0610352 0.12207 0.244141 0.244141 0.244141 0.244141 0.244141 0.244141 0.244141 0.244141 0.244141 0.244141 0.244141 0.244141 0.244141 0.244141 0.244141 0.244141 0.24414 0.24414 0.244141 0.244141 0.244141 0.244141 0.244141 0.244141 0.244141 0.24414 0.244141 0.244141 0.24414 0.244141 0.244141 0.244141 0.244141 0.244141 0.24414 0.244141 0.244141 0.24414 0.244141 0.244141 0.244141 0.244141 0.244141 0.24414 0.244141 0.244141 0.244141 0.244141 0.244141 0.244141 0.244141 0.24414 0.24414 0.244141 0.244141 0.244141 0.24414 0.244141 0.244141 0.244141 0.244141 0.24414 0.244141 0.12207 0.12207 0.244141 0.244141 0.244141 0.244141 0.244141 0.244141 0.244141 0.244141 0.244141 0.244141 0.244141 0.244141 0.244141 0.244141 0.244141 0.244141 0.24414 0.24414 0.244141 0.244141 0.244141 0.244141 0.244141 0.244141 0.244141 0.24414 0.244141 0.244141 0.24414 0.244141 0.244141 0.244141 0.244141 0.244141 0.24414 0.244141 0.244141 0.24414 0.244141 0.244141 0.244141 0.244141 0.244141 0.24414 0.244141 0.244141 0.244141 0.244141 0.244141 0.244141 0.244141 0.24414 0.24414 0.244141 0.244141 0.244141 0.24414 0.244141 0.244141 0.244141 0.244141 0.24414 0.244141 0.12207 0.12207 0.244141 0.244141 0.244141 0.244141 0.244141 0.244141 0.244141 0.24414 0.244141 0.244141 0.244141 0.244141 0.244141 0.244141 0.244141 0.244141 0.24414 0.24414 0.244141 0.244141 0.244141 0.244141 0.244141 0.244141 0.244141 0.24414 0.244141 0.244141 0.24414 0.244141 0.244141 0.244141 0.24414 0.24414 0.24414 0.244141 0.244141 0.24414 0.244141 0.244141 0.244141 0.244141 0.244141 0.24414 0.244141 0.244141 0.24414 0.244141 0.244141 0.244141 0.244141 0.24414 0.24414 0.244141 0.244141 0.244141 0.24414 0.244141 0.244141 0.244141 0.244141 0.24414 0.244141 0.12207 0.12207 0.244141 0.244141 0.244141 0.244141 0.244141 0.244141 0.244141 0.24414 0.244141 0.244141 0.244141 0.244141 0.244141 0.244141 0.244141 0.244141 0.24414 0.24414 0.244141 0.244141 0.244141 0.244141 0.244141 0.244141 0.244141 0.24414 0.244141 0.244141 0.24414 0.244141 0.244141 0.244141 0.244141 0.244141 0.24414 0.244141 0.244141 0.24414 0.244141 0.244141 0.244141 0.244141 0.244141 0.24414 0.244141 0.244141 0.244141 0.244141 0.244141 0.244141 0.244141 0.24414 0.24414 0.244141 0.244141 0.244141 0.24414 0.244141 0.244141 0.244141 0.244141 0.24414 0.244141 0.12207 0.12207 0.244141 0.244141 0.244141 0.244141 0.244141 0.244141 0.244141 0.24414 0.244141 0.244141 0.244141 0.244141 0.244141 0.244141 0.244141 0.244141 0.24414 0.24414 0.244141 0.244141 0.244141 0.244141 0.244141 0.244141 0.244141 0.24414 0.244141 0.244141 0.24414 0.244141 0.244141 0.244141 0.24414 0.24414 0.24414 0.244141 0.244141 0.24414 0.244141 0.244141 0.244141 0.24414 0.244141 0.24414 0.244141 0.244141 0.24414 0.244141 0.244141 0.244141 0.244141 0.24414 0.24414 0.244141 0.244141 0.244141 0.24414 0.244141 0.244141 0.244141 0.244141 0.24414 0.244141 0.12207 0.12207 0.244141 0.244141 0.244141 0.244141 0.244141 0.244141 0.244141 0.244141 0.244141 0.244141 0.244141 0.244141 0.244141 0.244141 0.244141 0.244141 0.24414 0.24414 0.244141 0.244141 0.244141 0.244141 0.244141 0.244141 0.244141 0.24414 0.244141 0.244141 0.24414 0.244141 0.244141 0.244141 0.244141 0.244141 0.24414 0.244141 0.244141 0.24414 0.244141 0.244141 0.244141 0.244141 0.244141 0.24414 0.244141 0.244141 0.244141 0.244141 0.244141 0.244141 0.244141 0.24414 0.24414 0.244141 0.244141 0.244141 0.24414 0.244141 0.244141 0.244141 0.244141 0.24414 0.244141 0.12207 0.12207 0.244141 0.244141 0.244141 0.244141 0.244141 0.244141 0.244141 0.244141 0.244141 0.244141 0.244141 0.244141 0.244141 0.244141 0.244141 0.244141 0.24414 0.24414 0.244141 0.244141 0.244141 0.244141 0.244141 0.244141 0.244141 0.24414 0.244141 0.244141 0.24414 0.244141 0.244141 0.244141 0.244141 0.244141 0.24414 0.244141 0.244141 0.24414 0.244141 0.244141 0.244141 0.244141 0.244141 0.24414 0.244141 0.244141 0.244141 0.244141 0.244141 0.244141 0.244141 0.24414 0.24414 0.244141 0.244141 0.244141 0.24414 0.244141 0.244141 0.244141 0.244141 0.24414 0.244141 0.12207 0.12207 0.244141 0.24414 0.244141 0.24414 0.244141 0.244141 0.244141 0.24414 0.24414 0.244141 0.244141 0.244141 0.244141 0.24414 0.24414 0.244141 0.24414 0.24414 0.244141 0.244141 0.244141 0.244141 0.24414 0.244141 0.244141 0.24414 0.244141 0.244141 0.24414 0.244141 0.244141 0.244141 0.24414 0.24414 0.24414 0.244141 0.244141 0.24414 0.244141 0.244141 0.244141 0.24414 0.24414 0.24414 0.244141 0.244141 0.24414 0.244141 0.244141 0.24414 0.244141 0.24414 0.24414 0.244141 0.244141 0.244141 0.24414 0.244141 0.244141 0.244141 0.24414 0.24414 0.244141 0.12207 0.12207 0.244141 0.24414 0.244141 0.244141 0.244141 0.244141 0.244141 0.24414 0.24414 0.244141 0.24414 0.244141 0.244141 0.24414 0.24414 0.244141 0.24414 0.24414 0.244141 0.244141 0.244141 0.244141 0.24414 0.244141 0.244141 0.24414 0.24414 0.244141 0.24414 0.244141 0.244141 0.244141 0.24414 0.24414 0.24414 0.244141 0.244141 0.24414 0.244141 0.244141 0.244141 0.24414 0.24414 0.24414 0.244141 0.244141 0.24414 0.244141 0.244141 0.24414 0.244141 0.24414 0.24414 0.244141 0.244141 0.244141 0.24414 0.244141 0.244141 0.244141 0.24414 0.24414 0.244141 0.12207 0.12207 0.244141 0.244141 0.244141 0.244141 0.244141 0.244141 0.244141 0.24414 0.244141 0.244141 0.244141 0.244141 0.244141 0.244141 0.244141 0.244141 0.24414 0.24414 0.244141 0.244141 0.244141 0.244141 0.244141 0.244141 0.244141 0.24414 0.244141 0.244141 0.24414 0.244141 0.244141 0.244141 0.24414 0.24414 0.24414 0.244141 0.244141 0.24414 0.244141 0.244141 0.244141 0.24414 0.244141 0.24414 0.244141 0.244141 0.24414 0.244141 0.244141 0.244141 0.244141 0.24414 0.24414 0.244141 0.244141 0.244141 0.24414 0.244141 0.244141 0.244141 0.24414 0.24414 0.244141 0.12207 0.12207 0.244141 0.244141 0.244141 0.244141 0.244141 0.244141 0.244141 0.24414 0.244141 0.244141 0.244141 0.244141 0.244141 0.244141 0.244141 0.244141 0.24414 0.24414 0.244141 0.244141 0.244141 0.244141 0.244141 0.244141 0.244141 0.24414 0.244141 0.244141 0.24414 0.244141 0.244141 0.244141 0.24414 0.24414 0.24414 0.244141 0.244141 0.24414 0.244141 0.244141 0.244141 0.24414 0.244141 0.24414 0.244141 0.244141 0.24414 0.244141 0.244141 0.244141 0.244141 0.24414 0.24414 0.244141 0.244141 0.244141 0.24414 0.244141 0.244141 0.244141 0.244141 0.24414 0.244141 0.12207 0.12207 0.244141 0.244141 0.244141 0.244141 0.244141 0.244141 0.244141 0.244141 0.244141 0.244141 0.244141 0.244141 0.244141 0.244141 0.244141 0.244141 0.244141 0.244141 0.244141 0.244141 0.244141 0.244141 0.244141 0.244141 0.244141 0.24414 0.244141 0.244141 0.24414 0.244141 0.244141 0.244141 0.244141 0.244141 0.24414 0.244141 0.244141 0.24414 0.244141 0.244141 0.244141 0.244141 0.244141 0.244141 0.244141 0.244141 0.244141 0.244141 0.244141 0.244141 0.244141 0.244141 0.24414 0.244141 0.244141 0.244141 0.24414 0.244141 0.244141 0.244141 0.244141 0.24414 0.244141 0.122071 0.12207 0.244141 0.244141 0.244141 0.244141 0.244141 0.244141 0.244141 0.244141 0.244141 0.244141 0.244141 0.244141 0.244141 0.244141 0.244141 0.244141 0.244141 0.24414 0.244141 0.244141 0.244141 0.244141 0.244141 0.244141 0.244141 0.24414 0.244141 0.244141 0.24414 0.244141 0.244141 0.244141 0.244141 0.244141 0.24414 0.244141 0.244141 0.24414 0.244141 0.244141 0.244141 0.244141 0.244141 0.24414 0.244141 0.244141 0.244141 0.244141 0.244141 0.244141 0.244141 0.24414 0.24414 0.244141 0.244141 0.244141 0.24414 0.244141 0.244141 0.244141 0.244141 0.24414 0.244141 0.12207 0.12207 0.24414 0.24414 0.24414 0.24414 0.24414 0.244141 0.24414 0.24414 0.24414 0.24414 0.24414 0.244141 0.244141 0.24414 0.24414 0.24414 0.24414 0.24414 0.24414 0.24414 0.244141 0.24414 0.24414 0.244141 0.244141 0.24414 0.24414 0.24414 0.24414 0.24414 0.24414 0.244141 0.24414 0.24414 0.24414 0.24414 0.24414 0.24414 0.24414 0.24414 0.244141 0.24414 0.24414 0.24414 0.24414 0.244141 0.24414 0.244141 0.244141 0.24414 0.244141 0.24414 0.24414 0.244141 0.244141 0.244141 0.24414 0.244141 0.244141 0.244141 0.24414 0.24414 0.244141 0.12207 0.12207 0.244141 0.244141 0.244141 0.244141 0.244141 0.244141 0.244141 0.24414 0.24414 0.244141 0.24414 0.244141 0.244141 0.24414 0.24414 0.244141 0.24414 0.24414 0.244141 0.244141 0.244141 0.244141 0.24414 0.244141 0.244141 0.24414 0.244141 0.244141 0.24414 0.244141 0.244141 0.244141 0.24414 0.24414 0.24414 0.244141 0.244141 0.24414 0.244141 0.244141 0.244141 0.24414 0.24414 0.24414 0.244141 0.244141 0.24414 0.244141 0.244141 0.24414 0.244141 0.24414 0.24414 0.244141 0.244141 0.244141 0.24414 0.244141 0.244141 0.244141 0.24414 0.24414 0.244141 0.12207 0.0610351 0.12207 0.12207 0.12207 0.12207 0.12207 0.12207 0.12207 0.12207 0.12207 0.12207 0.12207 0.12207 0.12207 0.12207 0.12207 0.12207 0.12207 0.12207 0.12207 0.12207 0.12207 0.12207 0.12207 0.12207 0.12207 0.12207 0.12207 0.12207 0.12207 0.12207 0.12207 0.12207 0.12207 0.12207 0.12207 0.12207 0.12207 0.12207 0.12207 0.12207 0.12207 0.12207 0.12207 0.12207 0.12207 0.12207 0.12207 0.12207 0.12207 0.12207 0.12207 0.12207 0.12207 0.12207 0.12207 0.12207 0.12207 0.12207 0.12207 0.12207 0.12207 0.12207 0.12207 0.0610352 0.0610352 0.12207 0.12207 0.12207 0.12207 0.12207 0.12207 0.12207 0.12207 0.12207 0.12207 0.12207 0.12207 0.12207 0.12207 0.12207 0.12207 0.12207 0.12207 0.12207 0.12207 0.12207 0.12207 0.12207 0.12207 0.12207 0.12207 0.12207 0.12207 0.12207 0.12207 0.12207 0.12207 0.12207 0.12207 0.12207 0.12207 0.12207 0.12207 0.12207 0.12207 0.12207 0.12207 0.12207 0.12207 0.12207 0.12207 0.12207 0.12207 0.12207 0.12207 0.12207 0.12207 0.12207 0.12207 0.122071 0.12207 0.12207 0.12207 0.12207 0.12207 0.12207 0.12207 0.12207 0.0610353 0.12207 0.244141 0.244141 0.244141 0.244141 0.244141 0.244141 0.244141 0.244141 0.244141 0.244141 0.244141 0.244141 0.244141 0.244141 0.244141 0.244141 0.244141 0.244141 0.244141 0.244141 0.244141 0.244141 0.244141 0.244141 0.244141 0.24414 0.244141 0.244141 0.24414 0.244141 0.244141 0.244141 0.244141 0.244141 0.24414 0.244141 0.244141 0.24414 0.244141 0.244141 0.244141 0.244141 0.244141 0.244141 0.244141 0.244141 0.244141 0.244141 0.244141 0.244141 0.244141 0.244141 0.24414 0.244141 0.244141 0.244141 0.24414 0.244141 0.244141 0.244141 0.244141 0.24414 0.244141 0.122071 0.12207 0.244141 0.244141 0.244141 0.244141 0.244141 0.244141 0.244141 0.244141 0.244141 0.244141 0.244141 0.244141 0.244141 0.244141 0.244141 0.244141 0.244141 0.244141 0.244141 0.244141 0.244141 0.244141 0.244141 0.244141 0.244141 0.24414 0.244141 0.244141 0.24414 0.244141 0.244141 0.244141 0.244141 0.244141 0.24414 0.244141 0.244141 0.24414 0.244141 0.244141 0.244141 0.244141 0.244141 0.244141 0.244141 0.244141 0.244141 0.244141 0.244141 0.244141 0.244141 0.244141 0.24414 0.244141 0.244141 0.244141 0.24414 0.244141 0.244141 0.244141 0.244141 0.24414 0.244141 0.122071 0.12207 0.244141 0.244141 0.244141 0.244141 0.244141 0.244141 0.244141 0.244141 0.244141 0.244141 0.244141 0.244141 0.244141 0.244141 0.244141 0.244141 0.244141 0.244141 0.244141 0.244141 0.244141 0.244141 0.244141 0.244141 0.244141 0.24414 0.244141 0.244141 0.24414 0.244141 0.244141 0.244141 0.244141 0.244141 0.24414 0.244141 0.244141 0.24414 0.244141 0.244141 0.244141 0.244141 0.244141 0.24414 0.244141 0.244141 0.244141 0.244141 0.244141 0.244141 0.244141 0.244141 0.24414 0.244141 0.244141 0.244141 0.24414 0.244141 0.244141 0.244141 0.244141 0.24414 0.244141 0.122071 0.12207 0.244141 0.244141 0.244141 0.244141 0.244141 0.244141 0.244141 0.244141 0.244141 0.244141 0.244141 0.244141 0.244141 0.244141 0.244141 0.244141 0.244141 0.244141 0.244141 0.244141 0.244141 0.244141 0.244141 0.244141 0.244141 0.24414 0.244141 0.244141 0.24414 0.244141 0.244141 0.244141 0.244141 0.244141 0.24414 0.244141 0.244141 0.24414 0.244141 0.244141 0.244141 0.244141 0.244141 0.24414 0.244141 0.244141 0.244141 0.244141 0.244141 0.244141 0.244141 0.244141 0.24414 0.244141 0.244141 0.244141 0.24414 0.244141 0.244141 0.244141 0.244141 0.24414 0.244141 0.122071 0.12207 0.244141 0.244141 0.244141 0.244141 0.244141 0.244141 0.244141 0.244141 0.244141 0.244141 0.244141 0.244141 0.244141 0.244141 0.244141 0.244141 0.244141 0.244141 0.244141 0.244141 0.244141 0.244141 0.244141 0.244141 0.244141 0.24414 0.244141 0.244141 0.24414 0.244141 0.244141 0.244141 0.244141 0.244141 0.24414 0.244141 0.244141 0.24414 0.244141 0.244141 0.244141 0.244141 0.244141 0.24414 0.244141 0.244141 0.244141 0.244141 0.244141 0.244141 0.244141 0.244141 0.24414 0.244141 0.244141 0.244141 0.24414 0.244141 0.244141 0.244141 0.244141 0.24414 0.244141 0.12207 0.12207 0.244141 0.244141 0.244141 0.244141 0.244141 0.244141 0.244141 0.244141 0.244141 0.244141 0.244141 0.244141 0.244141 0.244141 0.244141 0.244141 0.244141 0.244141 0.244141 0.244141 0.244141 0.244141 0.244141 0.244141 0.244141 0.24414 0.244141 0.244141 0.24414 0.244141 0.244141 0.244141 0.244141 0.244141 0.24414 0.244141 0.244141 0.24414 0.244141 0.244141 0.244141 0.244141 0.244141 0.244141 0.244141 0.244141 0.244141 0.244141 0.244141 0.244141 0.244141 0.244141 0.24414 0.244141 0.244141 0.244141 0.24414 0.244141 0.244141 0.244141 0.244141 0.24414 0.244141 0.122071 0.12207 0.244141 0.244141 0.244141 0.244141 0.244141 0.244141 0.244141 0.244141 0.244141 0.244141 0.244141 0.244141 0.244141 0.244141 0.244141 0.244141 0.244141 0.244141 0.244141 0.244141 0.244141 0.244141 0.244141 0.244141 0.244141 0.244141 0.244141 0.244141 0.244141 0.244141 0.244141 0.244141 0.244141 0.244141 0.244141 0.244141 0.244141 0.244141 0.244141 0.244141 0.244141 0.244141 0.244141 0.244141 0.244141 0.244141 0.244141 0.244141 0.244141 0.244141 0.244141 0.244141 0.24414 0.244141 0.244141 0.244141 0.24414 0.244141 0.244141 0.244141 0.244141 0.24414 0.244141 0.122071 0.12207 0.244141 0.244141 0.244141 0.244141 0.244141 0.244141 0.244141 0.244141 0.244141 0.244141 0.244141 0.244141 0.244141 0.244141 0.244141 0.244141 0.244141 0.244141 0.244141 0.244141 0.244141 0.244141 0.244141 0.244141 0.244141 0.24414 0.244141 0.244141 0.24414 0.244141 0.244141 0.244141 0.244141 0.244141 0.24414 0.244141 0.244141 0.24414 0.244141 0.244141 0.244141 0.244141 0.244141 0.24414 0.244141 0.244141 0.244141 0.244141 0.244141 0.244141 0.244141 0.24414 0.24414 0.244141 0.244141 0.244141 0.24414 0.244141 0.244141 0.244141 0.244141 0.24414 0.244141 0.12207 0.12207 0.244141 0.244141 0.244141 0.244141 0.244141 0.244141 0.244141 0.244141 0.244141 0.244141 0.244141 0.244141 0.244141 0.244141 0.244141 0.244141 0.24414 0.24414 0.244141 0.244141 0.244141 0.244141 0.244141 0.244141 0.244141 0.24414 0.244141 0.244141 0.24414 0.244141 0.244141 0.244141 0.244141 0.244141 0.24414 0.244141 0.244141 0.24414 0.244141 0.244141 0.244141 0.244141 0.244141 0.24414 0.244141 0.244141 0.244141 0.244141 0.244141 0.244141 0.244141 0.24414 0.24414 0.244141 0.244141 0.244141 0.24414 0.244141 0.244141 0.244141 0.244141 0.24414 0.244141 0.12207 0.12207 0.244141 0.244141 0.244141 0.244141 0.244141 0.244141 0.244141 0.244141 0.244141 0.244141 0.244141 0.244141 0.244141 0.244141 0.244141 0.244141 0.244141 0.244141 0.244141 0.244141 0.244141 0.244141 0.244141 0.244141 0.244141 0.24414 0.244141 0.244141 0.24414 0.244141 0.244141 0.244141 0.244141 0.244141 0.24414 0.244141 0.244141 0.24414 0.244141 0.244141 0.244141 0.244141 0.244141 0.24414 0.244141 0.244141 0.244141 0.244141 0.244141 0.244141 0.244141 0.244141 0.24414 0.244141 0.244141 0.244141 0.24414 0.244141 0.244141 0.244141 0.244141 0.24414 0.244141 0.12207 0.12207 0.244141 0.244141 0.244141 0.244141 0.244141 0.244141 0.244141 0.244141 0.244141 0.244141 0.244141 0.244141 0.244141 0.244141 0.244141 0.244141 0.244141 0.244141 0.244141 0.244141 0.244141 0.244141 0.244141 0.244141 0.244141 0.24414 0.244141 0.244141 0.24414 0.244141 0.244141 0.244141 0.244141 0.244141 0.24414 0.244141 0.244141 0.24414 0.244141 0.244141 0.244141 0.244141 0.244141 0.24414 0.244141 0.244141 0.244141 0.244141 0.244141 0.244141 0.244141 0.244141 0.24414 0.244141 0.244141 0.244141 0.24414 0.244141 0.244141 0.244141 0.244141 0.24414 0.244141 0.122071 0.12207 0.244141 0.244141 0.244141 0.244141 0.244141 0.244141 0.244141 0.244141 0.244141 0.244141 0.244141 0.244141 0.244141 0.244141 0.244141 0.244141 0.244141 0.244141 0.244141 0.244141 0.244141 0.244141 0.244141 0.244141 0.244141 0.244141 0.244141 0.244141 0.244141 0.244141 0.244141 0.244141 0.244141 0.244141 0.244141 0.244141 0.244141 0.244141 0.244141 0.244141 0.244141 0.244141 0.244141 0.244141 0.244141 0.244141 0.244141 0.244141 0.244141 0.244141 0.244141 0.244141 0.24414 0.244141 0.244141 0.244141 0.24414 0.244141 0.244141 0.244141 0.244141 0.24414 0.244141 0.122071 0.12207 0.244141 0.244141 0.244141 0.244141 0.244141 0.244141 0.244141 0.244141 0.244141 0.244141 0.244141 0.244141 0.244141 0.244141 0.244141 0.244141 0.244141 0.244141 0.244141 0.244141 0.244141 0.244141 0.244141 0.244141 0.244141 0.244141 0.244141 0.244141 0.24414 0.244141 0.244141 0.244141 0.244141 0.244141 0.244141 0.244141 0.244141 0.244141 0.244141 0.244141 0.244141 0.244141 0.244141 0.244141 0.244141 0.244141 0.244141 0.244141 0.244141 0.244141 0.244141 0.244141 0.24414 0.244141 0.244141 0.244141 0.24414 0.244141 0.244141 0.244141 0.244141 0.24414 0.244141 0.122071 0.12207 0.244141 0.244141 0.244141 0.244141 0.244141 0.244141 0.244141 0.244141 0.244141 0.244141 0.244141 0.244141 0.244141 0.244141 0.244141 0.244141 0.24414 0.24414 0.244141 0.244141 0.244141 0.244141 0.244141 0.244141 0.244141 0.24414 0.244141 0.244141 0.24414 0.244141 0.244141 0.244141 0.24414 0.24414 0.24414 0.244141 0.244141 0.24414 0.244141 0.244141 0.244141 0.244141 0.244141 0.24414 0.244141 0.244141 0.24414 0.244141 0.244141 0.244141 0.244141 0.24414 0.24414 0.244141 0.244141 0.244141 0.24414 0.244141 0.244141 0.244141 0.244141 0.24414 0.244141 0.12207 0.12207 0.244141 0.244141 0.244141 0.244141 0.244141 0.244141 0.244141 0.244141 0.244141 0.244141 0.244141 0.244141 0.244141 0.244141 0.244141 0.244141 0.24414 0.244141 0.244141 0.244141 0.244141 0.244141 0.244141 0.244141 0.244141 0.24414 0.244141 0.244141 0.24414 0.244141 0.244141 0.244141 0.244141 0.244141 0.24414 0.244141 0.244141 0.24414 0.244141 0.244141 0.244141 0.244141 0.244141 0.24414 0.244141 0.244141 0.244141 0.244141 0.244141 0.244141 0.244141 0.24414 0.24414 0.244141 0.244141 0.244141 0.24414 0.244141 0.244141 0.244141 0.244141 0.24414 0.244141 0.12207 0.0610352 0.12207 0.12207 0.12207 0.12207 0.12207 0.12207 0.12207 0.12207 0.12207 0.12207 0.12207 0.12207 0.12207 0.12207 0.12207 0.12207 0.12207 0.12207 0.12207 0.12207 0.12207 0.12207 0.12207 0.12207 0.12207 0.12207 0.12207 0.12207 0.12207 0.12207 0.12207 0.12207 0.12207 0.12207 0.12207 0.12207 0.12207 0.12207 0.12207 0.12207 0.12207 0.12207 0.12207 0.12207 0.12207 0.12207 0.12207 0.12207 0.12207 0.12207 0.12207 0.12207 0.12207 0.12207 0.122071 0.12207 0.12207 0.12207 0.12207 0.12207 0.12207 0.12207 0.12207 0.0610353 0.0610352 0.12207 0.12207 0.12207 0.12207 0.12207 0.12207 0.12207 0.12207 0.12207 0.12207 0.12207 0.12207 0.12207 0.12207 0.12207 0.12207 0.12207 0.12207 0.12207 0.12207 0.12207 0.12207 0.12207 0.12207 0.12207 0.12207 0.12207 0.12207 0.12207 0.12207 0.12207 0.12207 0.12207 0.12207 0.12207 0.12207 0.12207 0.12207 0.12207 0.12207 0.12207 0.12207 0.12207 0.12207 0.12207 0.12207 0.12207 0.12207 0.12207 0.12207 0.12207 0.12207 0.12207 0.12207 0.122071 0.12207 0.12207 0.12207 0.12207 0.12207 0.12207 0.12207 0.12207 0.0610353 0.12207 0.244141 0.244141 0.244141 0.244141 0.244141 0.244141 0.244141 0.244141 0.244141 0.244141 0.244141 0.244141 0.244141 0.244141 0.244141 0.244141 0.244141 0.244141 0.244141 0.244141 0.244141 0.244141 0.244141 0.244141 0.244141 0.244141 0.244141 0.244141 0.244141 0.244141 0.244141 0.244141 0.244141 0.244141 0.244141 0.244141 0.244141 0.244141 0.244141 0.244141 0.244141 0.244141 0.244141 0.244141 0.244141 0.244141 0.244141 0.244141 0.244141 0.244141 0.244141 0.244141 0.24414 0.244141 0.244141 0.244141 0.24414 0.244141 0.244141 0.244141 0.244141 0.24414 0.244141 0.122071 0.12207 0.244141 0.244141 0.244141 0.244141 0.244141 0.244141 0.244141 0.244141 0.244141 0.244141 0.244141 0.244141 0.244141 0.244141 0.244141 0.244141 0.244141 0.244141 0.244141 0.244141 0.244141 0.244141 0.244141 0.244141 0.244141 0.24414 0.244141 0.244141 0.244141 0.244141 0.244141 0.244141 0.244141 0.244141 0.24414 0.244141 0.244141 0.244141 0.244141 0.244141 0.244141 0.244141 0.244141 0.244141 0.244141 0.244141 0.244141 0.244141 0.244141 0.244141 0.244141 0.244141 0.24414 0.244141 0.244141 0.244141 0.24414 0.244141 0.244141 0.244141 0.244141 0.24414 0.244141 0.122071 0.12207 0.244141 0.244141 0.244141 0.244141 0.244141 0.244141 0.244141 0.244141 0.244141 0.244141 0.244141 0.244141 0.244141 0.244141 0.244141 0.244141 0.244141 0.244141 0.244141 0.244141 0.244141 0.244141 0.244141 0.244141 0.244141 0.24414 0.244141 0.244141 0.244141 0.244141 0.244141 0.244141 0.244141 0.244141 0.24414 0.244141 0.244141 0.244141 0.244141 0.244141 0.244141 0.244141 0.244141 0.244141 0.244141 0.244141 0.244141 0.244141 0.244141 0.244141 0.244141 0.244141 0.24414 0.244141 0.244141 0.244141 0.24414 0.244141 0.244141 0.244141 0.244141 0.24414 0.244141 0.122071 0.12207 0.244141 0.244141 0.244141 0.244141 0.244141 0.244141 0.244141 0.244141 0.244141 0.244141 0.244141 0.244141 0.244141 0.244141 0.244141 0.244141 0.244141 0.244141 0.244141 0.244141 0.244141 0.244141 0.244141 0.244141 0.244141 0.24414 0.244141 0.244141 0.244141 0.244141 0.244141 0.244141 0.244141 0.244141 0.24414 0.244141 0.244141 0.244141 0.244141 0.244141 0.244141 0.244141 0.244141 0.244141 0.244141 0.244141 0.244141 0.244141 0.244141 0.244141 0.244141 0.244141 0.24414 0.244141 0.244141 0.244141 0.24414 0.244141 0.244141 0.244141 0.244141 0.24414 0.244141 0.122071 0.12207 0.244141 0.244141 0.244141 0.244141 0.244141 0.244141 0.244141 0.244141 0.244141 0.244141 0.244141 0.244141 0.244141 0.244141 0.244141 0.244141 0.244141 0.244141 0.244141 0.244141 0.244141 0.244141 0.244141 0.244141 0.244141 0.24414 0.244141 0.244141 0.244141 0.244141 0.244141 0.244141 0.244141 0.244141 0.24414 0.244141 0.244141 0.244141 0.244141 0.244141 0.244141 0.244141 0.244141 0.244141 0.244141 0.244141 0.244141 0.244141 0.244141 0.244141 0.244141 0.244141 0.24414 0.244141 0.244141 0.244141 0.24414 0.244141 0.244141 0.244141 0.244141 0.24414 0.244141 0.122071 0.12207 0.244141 0.244141 0.244141 0.244141 0.244141 0.244141 0.244141 0.244141 0.244141 0.244141 0.244141 0.244141 0.244141 0.244141 0.244141 0.244141 0.244141 0.244141 0.244141 0.244141 0.244141 0.244141 0.244141 0.244141 0.244141 0.244141 0.244141 0.244141 0.244141 0.244141 0.244141 0.244141 0.244141 0.244141 0.244141 0.244141 0.244141 0.244141 0.244141 0.244141 0.244141 0.244141 0.244141 0.244141 0.244141 0.244141 0.244141 0.244141 0.244141 0.244141 0.244141 0.244141 0.24414 0.244141 0.244141 0.244141 0.24414 0.244141 0.244141 0.244141 0.244141 0.24414 0.244141 0.122071 0.12207 0.244141 0.244141 0.244141 0.244141 0.244141 0.244141 0.244141 0.244141 0.244141 0.244141 0.244141 0.244141 0.244141 0.244141 0.244141 0.244141 0.244141 0.244141 0.244141 0.244141 0.244141 0.244141 0.244141 0.244141 0.244141 0.244141 0.244141 0.244141 0.244141 0.244141 0.244141 0.244141 0.244141 0.244141 0.244141 0.244141 0.244141 0.244141 0.244141 0.244141 0.244141 0.244141 0.244141 0.244141 0.244141 0.244141 0.244141 0.244141 0.244141 0.244141 0.244141 0.244141 0.24414 0.244141 0.244141 0.244141 0.24414 0.244141 0.244141 0.244141 0.244141 0.24414 0.244141 0.122071 0.12207 0.244141 0.244141 0.244141 0.244141 0.244141 0.244141 0.244141 0.244141 0.244141 0.244141 0.244141 0.244141 0.244141 0.244141 0.244141 0.244141 0.244141 0.244141 0.244141 0.244141 0.244141 0.244141 0.244141 0.244141 0.244141 0.24414 0.244141 0.244141 0.24414 0.244141 0.244141 0.244141 0.244141 0.244141 0.24414 0.244141 0.244141 0.24414 0.244141 0.244141 0.244141 0.244141 0.244141 0.24414 0.244141 0.244141 0.244141 0.244141 0.244141 0.244141 0.244141 0.24414 0.24414 0.244141 0.244141 0.244141 0.24414 0.244141 0.244141 0.244141 0.244141 0.24414 0.244141 0.12207 0.12207 0.244141 0.244141 0.244141 0.244141 0.244141 0.244141 0.244141 0.244141 0.244141 0.244141 0.244141 0.244141 0.244141 0.244141 0.244141 0.244141 0.244141 0.244141 0.244141 0.244141 0.244141 0.244141 0.244141 0.244141 0.244141 0.24414 0.244141 0.244141 0.24414 0.244141 0.244141 0.244141 0.244141 0.244141 0.24414 0.244141 0.244141 0.24414 0.244141 0.244141 0.244141 0.244141 0.244141 0.24414 0.244141 0.244141 0.244141 0.244141 0.244141 0.244141 0.244141 0.24414 0.24414 0.244141 0.244141 0.244141 0.24414 0.244141 0.244141 0.244141 0.244141 0.24414 0.244141 0.12207 0.12207 0.244141 0.244141 0.244141 0.244141 0.244141 0.244141 0.244141 0.244141 0.244141 0.244141 0.244141 0.244141 0.244141 0.244141 0.244141 0.244141 0.244141 0.244141 0.244141 0.244141 0.244141 0.244141 0.244141 0.244141 0.244141 0.24414 0.244141 0.244141 0.24414 0.244141 0.244141 0.244141 0.244141 0.244141 0.24414 0.244141 0.244141 0.24414 0.244141 0.244141 0.244141 0.244141 0.244141 0.244141 0.244141 0.244141 0.244141 0.244141 0.244141 0.244141 0.244141 0.244141 0.24414 0.244141 0.244141 0.244141 0.24414 0.244141 0.244141 0.244141 0.244141 0.24414 0.244141 0.122071 0.12207 0.244141 0.244141 0.244141 0.244141 0.244141 0.244141 0.244141 0.244141 0.244141 0.244141 0.244141 0.244141 0.244141 0.244141 0.244141 0.244141 0.244141 0.244141 0.244141 0.244141 0.244141 0.244141 0.244141 0.244141 0.244141 0.24414 0.244141 0.244141 0.24414 0.244141 0.244141 0.244141 0.244141 0.244141 0.24414 0.244141 0.244141 0.24414 0.244141 0.244141 0.244141 0.244141 0.244141 0.244141 0.244141 0.244141 0.244141 0.244141 0.244141 0.244141 0.244141 0.244141 0.24414 0.244141 0.244141 0.244141 0.24414 0.244141 0.244141 0.244141 0.244141 0.24414 0.244141 0.122071 0.12207 0.244141 0.244141 0.244141 0.244141 0.244141 0.244141 0.244141 0.244141 0.244141 0.244141 0.244141 0.244141 0.244141 0.244141 0.244141 0.244141 0.244141 0.244141 0.244141 0.244141 0.244141 0.244141 0.244141 0.244141 0.244141 0.244141 0.244141 0.244141 0.244141 0.244141 0.244141 0.244141 0.244141 0.244141 0.244141 0.244141 0.244141 0.244141 0.244141 0.244141 0.244141 0.244141 0.244141 0.244141 0.244141 0.244141 0.244141 0.244141 0.244141 0.244141 0.244141 0.244141 0.24414 0.244141 0.244141 0.244141 0.24414 0.244141 0.244141 0.244141 0.244141 0.24414 0.244141 0.122071 0.12207 0.244141 0.244141 0.244141 0.244141 0.244141 0.244141 0.244141 0.244141 0.244141 0.244141 0.244141 0.244141 0.244141 0.244141 0.244141 0.244141 0.244141 0.244141 0.244141 0.244141 0.244141 0.244141 0.244141 0.244141 0.244141 0.244141 0.244141 0.244141 0.244141 0.244141 0.244141 0.244141 0.244141 0.244141 0.244141 0.244141 0.244141 0.244141 0.244141 0.244141 0.244141 0.244141 0.244141 0.244141 0.244141 0.244141 0.244141 0.244141 0.244141 0.244141 0.244141 0.244141 0.24414 0.244141 0.244141 0.244141 0.24414 0.244141 0.244141 0.244141 0.244141 0.24414 0.244141 0.122071 0.12207 0.244141 0.244141 0.244141 0.244141 0.244141 0.244141 0.244141 0.244141 0.244141 0.244141 0.244141 0.244141 0.244141 0.244141 0.244141 0.244141 0.24414 0.24414 0.244141 0.244141 0.244141 0.244141 0.244141 0.244141 0.244141 0.24414 0.244141 0.244141 0.24414 0.244141 0.244141 0.244141 0.244141 0.244141 0.24414 0.244141 0.244141 0.24414 0.244141 0.244141 0.244141 0.244141 0.244141 0.24414 0.244141 0.244141 0.244141 0.244141 0.244141 0.244141 0.244141 0.24414 0.24414 0.244141 0.244141 0.244141 0.24414 0.244141 0.244141 0.244141 0.244141 0.24414 0.244141 0.12207 0.12207 0.244141 0.244141 0.244141 0.244141 0.244141 0.244141 0.244141 0.244141 0.244141 0.244141 0.244141 0.244141 0.244141 0.244141 0.244141 0.244141 0.244141 0.244141 0.244141 0.244141 0.244141 0.244141 0.244141 0.244141 0.244141 0.24414 0.244141 0.244141 0.24414 0.244141 0.244141 0.244141 0.244141 0.244141 0.24414 0.244141 0.244141 0.24414 0.244141 0.244141 0.244141 0.244141 0.244141 0.244141 0.244141 0.244141 0.244141 0.244141 0.244141 0.244141 0.244141 0.244141 0.24414 0.244141 0.244141 0.244141 0.24414 0.244141 0.244141 0.244141 0.244141 0.24414 0.244141 0.12207 0.0610352 0.12207 0.12207 0.12207 0.12207 0.12207 0.12207 0.12207 0.12207 0.12207 0.12207 0.12207 0.12207 0.12207 0.12207 0.12207 0.12207 0.12207 0.12207 0.12207 0.12207 0.12207 0.12207 0.12207 0.12207 0.12207 0.12207 0.12207 0.12207 0.12207 0.12207 0.12207 0.12207 0.12207 0.12207 0.12207 0.12207 0.12207 0.12207 0.12207 0.12207 0.12207 0.12207 0.12207 0.12207 0.12207 0.12207 0.12207 0.12207 0.12207 0.12207 0.12207 0.12207 0.12207 0.12207 0.122071 0.12207 0.12207 0.12207 0.12207 0.12207 0.12207 0.12207 0.12207 0.0610353 0.0610352 0.12207 0.12207 0.12207 0.12207 0.12207 0.12207 0.12207 0.12207 0.12207 0.12207 0.12207 0.12207 0.12207 0.12207 0.12207 0.12207 0.12207 0.12207 0.12207 0.12207 0.12207 0.12207 0.12207 0.12207 0.12207 0.12207 0.12207 0.12207 0.12207 0.12207 0.12207 0.12207 0.12207 0.12207 0.12207 0.12207 0.12207 0.12207 0.12207 0.12207 0.12207 0.12207 0.12207 0.12207 0.12207 0.12207 0.12207 0.12207 0.12207 0.12207 0.12207 0.12207 0.12207 0.12207 0.122071 0.12207 0.12207 0.12207 0.12207 0.12207 0.12207 0.12207 0.12207 0.0610352 0.12207 0.244141 0.244141 0.244141 0.244141 0.244141 0.244141 0.244141 0.244141 0.244141 0.244141 0.244141 0.244141 0.244141 0.244141 0.244141 0.244141 0.244141 0.244141 0.244141 0.244141 0.244141 0.244141 0.244141 0.244141 0.244141 0.24414 0.244141 0.244141 0.24414 0.244141 0.244141 0.244141 0.244141 0.244141 0.24414 0.244141 0.244141 0.24414 0.244141 0.244141 0.244141 0.244141 0.244141 0.244141 0.244141 0.244141 0.244141 0.244141 0.244141 0.244141 0.244141 0.244141 0.24414 0.244141 0.244141 0.244141 0.24414 0.244141 0.244141 0.244141 0.244141 0.24414 0.244141 0.12207 0.12207 0.244141 0.244141 0.244141 0.244141 0.244141 0.244141 0.244141 0.244141 0.244141 0.244141 0.244141 0.244141 0.244141 0.244141 0.244141 0.244141 0.244141 0.24414 0.244141 0.244141 0.244141 0.244141 0.244141 0.244141 0.244141 0.24414 0.244141 0.244141 0.24414 0.244141 0.244141 0.244141 0.244141 0.244141 0.24414 0.244141 0.244141 0.24414 0.244141 0.244141 0.244141 0.244141 0.244141 0.24414 0.244141 0.244141 0.244141 0.244141 0.244141 0.244141 0.244141 0.24414 0.24414 0.244141 0.244141 0.244141 0.24414 0.244141 0.244141 0.244141 0.244141 0.24414 0.244141 0.12207 0.12207 0.244141 0.244141 0.244141 0.244141 0.244141 0.244141 0.244141 0.244141 0.244141 0.244141 0.244141 0.244141 0.244141 0.244141 0.244141 0.244141 0.244141 0.244141 0.244141 0.244141 0.244141 0.244141 0.244141 0.244141 0.244141 0.24414 0.244141 0.244141 0.24414 0.244141 0.244141 0.244141 0.244141 0.244141 0.24414 0.244141 0.244141 0.24414 0.244141 0.244141 0.244141 0.244141 0.244141 0.24414 0.244141 0.244141 0.244141 0.244141 0.244141 0.244141 0.244141 0.24414 0.24414 0.244141 0.244141 0.244141 0.24414 0.244141 0.244141 0.244141 0.244141 0.24414 0.244141 0.12207 0.12207 0.244141 0.244141 0.244141 0.244141 0.244141 0.244141 0.244141 0.244141 0.244141 0.244141 0.244141 0.244141 0.244141 0.244141 0.244141 0.244141 0.244141 0.244141 0.244141 0.244141 0.244141 0.244141 0.244141 0.244141 0.244141 0.24414 0.244141 0.244141 0.24414 0.244141 0.244141 0.244141 0.244141 0.244141 0.24414 0.244141 0.244141 0.24414 0.244141 0.244141 0.244141 0.244141 0.244141 0.24414 0.244141 0.244141 0.244141 0.244141 0.244141 0.244141 0.244141 0.24414 0.24414 0.244141 0.244141 0.244141 0.24414 0.244141 0.244141 0.244141 0.244141 0.24414 0.244141 0.12207 0.12207 0.244141 0.244141 0.244141 0.244141 0.244141 0.244141 0.244141 0.244141 0.244141 0.244141 0.244141 0.244141 0.244141 0.244141 0.244141 0.244141 0.24414 0.24414 0.244141 0.244141 0.244141 0.244141 0.244141 0.244141 0.244141 0.24414 0.244141 0.244141 0.24414 0.244141 0.244141 0.244141 0.244141 0.244141 0.24414 0.244141 0.244141 0.24414 0.244141 0.244141 0.244141 0.244141 0.244141 0.24414 0.244141 0.244141 0.244141 0.244141 0.244141 0.244141 0.244141 0.24414 0.24414 0.244141 0.244141 0.244141 0.24414 0.244141 0.244141 0.244141 0.244141 0.24414 0.244141 0.12207 0.12207 0.244141 0.244141 0.244141 0.244141 0.244141 0.244141 0.244141 0.244141 0.244141 0.244141 0.244141 0.244141 0.244141 0.244141 0.244141 0.244141 0.244141 0.244141 0.244141 0.244141 0.244141 0.244141 0.244141 0.244141 0.244141 0.24414 0.244141 0.244141 0.24414 0.244141 0.244141 0.244141 0.244141 0.244141 0.24414 0.244141 0.244141 0.24414 0.244141 0.244141 0.244141 0.244141 0.244141 0.24414 0.244141 0.244141 0.244141 0.244141 0.244141 0.244141 0.244141 0.24414 0.24414 0.244141 0.244141 0.244141 0.24414 0.244141 0.244141 0.244141 0.244141 0.24414 0.244141 0.12207 0.12207 0.244141 0.244141 0.244141 0.244141 0.244141 0.244141 0.244141 0.244141 0.244141 0.244141 0.244141 0.244141 0.244141 0.244141 0.244141 0.244141 0.244141 0.244141 0.244141 0.244141 0.244141 0.244141 0.244141 0.244141 0.244141 0.24414 0.244141 0.244141 0.24414 0.244141 0.244141 0.244141 0.244141 0.244141 0.24414 0.244141 0.244141 0.24414 0.244141 0.244141 0.244141 0.244141 0.244141 0.24414 0.244141 0.244141 0.244141 0.244141 0.244141 0.244141 0.244141 0.24414 0.24414 0.244141 0.244141 0.244141 0.24414 0.244141 0.244141 0.244141 0.244141 0.24414 0.244141 0.12207 0.12207 0.244141 0.244141 0.244141 0.244141 0.244141 0.244141 0.244141 0.244141 0.244141 0.244141 0.244141 0.244141 0.244141 0.244141 0.244141 0.244141 0.24414 0.24414 0.244141 0.244141 0.244141 0.244141 0.244141 0.244141 0.244141 0.24414 0.244141 0.244141 0.24414 0.244141 0.244141 0.244141 0.244141 0.244141 0.24414 0.244141 0.244141 0.24414 0.244141 0.244141 0.244141 0.244141 0.244141 0.24414 0.244141 0.244141 0.24414 0.244141 0.244141 0.244141 0.244141 0.24414 0.24414 0.244141 0.244141 0.244141 0.24414 0.244141 0.244141 0.244141 0.24414 0.24414 0.244141 0.12207 0.12207 0.244141 0.244141 0.244141 0.244141 0.244141 0.244141 0.244141 0.244141 0.244141 0.244141 0.244141 0.244141 0.244141 0.244141 0.244141 0.244141 0.24414 0.24414 0.244141 0.244141 0.244141 0.244141 0.244141 0.244141 0.244141 0.24414 0.244141 0.244141 0.24414 0.244141 0.244141 0.244141 0.244141 0.244141 0.24414 0.244141 0.244141 0.24414 0.244141 0.244141 0.244141 0.244141 0.244141 0.24414 0.244141 0.244141 0.24414 0.244141 0.244141 0.244141 0.244141 0.24414 0.24414 0.244141 0.244141 0.244141 0.24414 0.244141 0.244141 0.244141 0.24414 0.24414 0.244141 0.12207 0.12207 0.244141 0.244141 0.244141 0.244141 0.244141 0.244141 0.244141 0.244141 0.244141 0.244141 0.244141 0.244141 0.244141 0.244141 0.244141 0.244141 0.24414 0.24414 0.244141 0.244141 0.244141 0.244141 0.244141 0.244141 0.244141 0.24414 0.244141 0.244141 0.24414 0.244141 0.244141 0.244141 0.244141 0.244141 0.24414 0.244141 0.244141 0.24414 0.244141 0.244141 0.244141 0.244141 0.244141 0.24414 0.244141 0.244141 0.244141 0.244141 0.244141 0.244141 0.244141 0.24414 0.24414 0.244141 0.244141 0.244141 0.24414 0.244141 0.244141 0.244141 0.244141 0.24414 0.244141 0.12207 0.12207 0.244141 0.244141 0.244141 0.244141 0.244141 0.244141 0.244141 0.244141 0.244141 0.244141 0.244141 0.244141 0.244141 0.244141 0.244141 0.244141 0.244141 0.24414 0.244141 0.244141 0.244141 0.244141 0.244141 0.244141 0.244141 0.24414 0.244141 0.244141 0.24414 0.244141 0.244141 0.244141 0.244141 0.244141 0.24414 0.244141 0.244141 0.24414 0.244141 0.244141 0.244141 0.244141 0.244141 0.24414 0.244141 0.244141 0.244141 0.244141 0.244141 0.244141 0.244141 0.24414 0.24414 0.244141 0.244141 0.244141 0.24414 0.244141 0.244141 0.244141 0.244141 0.24414 0.244141 0.12207 0.12207 0.244141 0.244141 0.244141 0.244141 0.244141 0.244141 0.244141 0.244141 0.244141 0.244141 0.244141 0.244141 0.244141 0.244141 0.244141 0.244141 0.244141 0.244141 0.244141 0.244141 0.244141 0.244141 0.244141 0.244141 0.244141 0.24414 0.244141 0.244141 0.24414 0.244141 0.244141 0.244141 0.244141 0.244141 0.244141 0.244141 0.244141 0.24414 0.244141 0.244141 0.244141 0.244141 0.244141 0.244141 0.244141 0.244141 0.244141 0.244141 0.244141 0.244141 0.244141 0.244141 0.24414 0.244141 0.244141 0.244141 0.24414 0.244141 0.244141 0.244141 0.244141 0.24414 0.244141 0.122071 0.12207 0.244141 0.244141 0.244141 0.244141 0.244141 0.244141 0.244141 0.244141 0.244141 0.244141 0.244141 0.244141 0.244141 0.244141 0.244141 0.244141 0.244141 0.244141 0.244141 0.244141 0.244141 0.244141 0.244141 0.244141 0.244141 0.24414 0.244141 0.244141 0.24414 0.244141 0.244141 0.244141 0.244141 0.244141 0.24414 0.244141 0.244141 0.24414 0.244141 0.244141 0.244141 0.244141 0.244141 0.244141 0.244141 0.244141 0.244141 0.244141 0.244141 0.244141 0.244141 0.244141 0.24414 0.244141 0.244141 0.244141 0.24414 0.244141 0.244141 0.244141 0.244141 0.24414 0.244141 0.122071 0.12207 0.244141 0.244141 0.244141 0.244141 0.244141 0.244141 0.244141 0.24414 0.24414 0.244141 0.244141 0.244141 0.244141 0.24414 0.24414 0.244141 0.24414 0.24414 0.244141 0.244141 0.244141 0.244141 0.24414 0.244141 0.244141 0.24414 0.244141 0.244141 0.24414 0.244141 0.244141 0.244141 0.24414 0.24414 0.24414 0.244141 0.244141 0.24414 0.244141 0.244141 0.244141 0.24414 0.24414 0.24414 0.244141 0.244141 0.24414 0.244141 0.244141 0.24414 0.244141 0.24414 0.24414 0.244141 0.244141 0.244141 0.24414 0.244141 0.244141 0.244141 0.24414 0.24414 0.244141 0.12207 0.12207 0.244141 0.244141 0.244141 0.244141 0.244141 0.244141 0.244141 0.244141 0.244141 0.244141 0.244141 0.244141 0.244141 0.244141 0.244141 0.244141 0.24414 0.24414 0.244141 0.244141 0.244141 0.244141 0.244141 0.244141 0.244141 0.24414 0.244141 0.244141 0.24414 0.244141 0.244141 0.244141 0.244141 0.244141 0.24414 0.244141 0.244141 0.24414 0.244141 0.244141 0.244141 0.244141 0.244141 0.24414 0.244141 0.244141 0.244141 0.244141 0.244141 0.244141 0.244141 0.24414 0.24414 0.244141 0.244141 0.244141 0.24414 0.244141 0.244141 0.244141 0.24414 0.24414 0.244141 0.12207 0.0610351 0.12207 0.12207 0.12207 0.12207 0.12207 0.12207 0.12207 0.12207 0.12207 0.12207 0.12207 0.12207 0.12207 0.12207 0.12207 0.12207 0.12207 0.12207 0.12207 0.12207 0.12207 0.12207 0.12207 0.12207 0.12207 0.12207 0.12207 0.12207 0.12207 0.12207 0.12207 0.12207 0.12207 0.12207 0.12207 0.12207 0.12207 0.12207 0.12207 0.12207 0.12207 0.12207 0.12207 0.12207 0.12207 0.12207 0.12207 0.12207 0.12207 0.12207 0.12207 0.12207 0.12207 0.12207 0.12207 0.12207 0.12207 0.12207 0.12207 0.12207 0.12207 0.12207 0.12207 0.0610352 0.0610352 0.12207 0.12207 0.12207 0.12207 0.12207 0.12207 0.12207 0.12207 0.12207 0.12207 0.12207 0.12207 0.12207 0.12207 0.12207 0.12207 0.12207 0.12207 0.12207 0.12207 0.12207 0.12207 0.12207 0.12207 0.12207 0.12207 0.12207 0.12207 0.12207 0.12207 0.12207 0.12207 0.12207 0.12207 0.12207 0.12207 0.12207 0.12207 0.12207 0.12207 0.12207 0.12207 0.12207 0.12207 0.12207 0.12207 0.12207 0.12207 0.12207 0.12207 0.12207 0.12207 0.12207 0.12207 0.122071 0.12207 0.12207 0.12207 0.12207 0.12207 0.12207 0.12207 0.12207 0.0610352 0.12207 0.244141 0.244141 0.244141 0.244141 0.244141 0.244141 0.244141 0.244141 0.244141 0.244141 0.244141 0.244141 0.244141 0.244141 0.244141 0.244141 0.244141 0.244141 0.244141 0.244141 0.244141 0.244141 0.244141 0.244141 0.244141 0.24414 0.244141 0.244141 0.24414 0.244141 0.244141 0.244141 0.244141 0.244141 0.24414 0.244141 0.244141 0.24414 0.244141 0.244141 0.244141 0.244141 0.244141 0.24414 0.244141 0.244141 0.244141 0.244141 0.244141 0.244141 0.244141 0.24414 0.24414 0.244141 0.244141 0.244141 0.24414 0.244141 0.244141 0.244141 0.244141 0.24414 0.244141 0.12207 0.12207 0.244141 0.244141 0.244141 0.244141 0.244141 0.244141 0.244141 0.244141 0.244141 0.244141 0.244141 0.244141 0.244141 0.244141 0.244141 0.244141 0.244141 0.244141 0.244141 0.244141 0.244141 0.244141 0.244141 0.244141 0.244141 0.24414 0.244141 0.244141 0.24414 0.244141 0.244141 0.244141 0.244141 0.244141 0.24414 0.244141 0.244141 0.24414 0.244141 0.244141 0.244141 0.244141 0.244141 0.24414 0.244141 0.244141 0.244141 0.244141 0.244141 0.244141 0.244141 0.24414 0.24414 0.244141 0.244141 0.244141 0.24414 0.244141 0.244141 0.244141 0.244141 0.24414 0.244141 0.12207 0.12207 0.244141 0.244141 0.244141 0.244141 0.244141 0.244141 0.244141 0.244141 0.244141 0.244141 0.244141 0.244141 0.244141 0.244141 0.244141 0.244141 0.244141 0.244141 0.244141 0.244141 0.244141 0.244141 0.244141 0.244141 0.244141 0.24414 0.244141 0.244141 0.24414 0.244141 0.244141 0.244141 0.244141 0.244141 0.24414 0.244141 0.244141 0.24414 0.244141 0.244141 0.244141 0.244141 0.244141 0.24414 0.244141 0.244141 0.244141 0.244141 0.244141 0.244141 0.244141 0.24414 0.24414 0.244141 0.244141 0.244141 0.24414 0.244141 0.244141 0.244141 0.244141 0.24414 0.244141 0.12207 0.12207 0.244141 0.244141 0.244141 0.244141 0.244141 0.244141 0.244141 0.244141 0.244141 0.244141 0.244141 0.244141 0.244141 0.244141 0.244141 0.244141 0.244141 0.244141 0.244141 0.244141 0.244141 0.244141 0.244141 0.244141 0.244141 0.24414 0.244141 0.244141 0.24414 0.244141 0.244141 0.244141 0.244141 0.244141 0.24414 0.244141 0.244141 0.24414 0.244141 0.244141 0.244141 0.244141 0.244141 0.24414 0.244141 0.244141 0.244141 0.244141 0.244141 0.244141 0.244141 0.24414 0.24414 0.244141 0.244141 0.244141 0.24414 0.244141 0.244141 0.244141 0.244141 0.24414 0.244141 0.12207 0.12207 0.244141 0.244141 0.244141 0.244141 0.244141 0.244141 0.244141 0.244141 0.244141 0.244141 0.244141 0.244141 0.244141 0.244141 0.244141 0.244141 0.244141 0.24414 0.244141 0.244141 0.244141 0.244141 0.244141 0.244141 0.244141 0.24414 0.244141 0.244141 0.24414 0.244141 0.244141 0.244141 0.244141 0.244141 0.24414 0.244141 0.244141 0.24414 0.244141 0.244141 0.244141 0.244141 0.244141 0.24414 0.244141 0.244141 0.244141 0.244141 0.244141 0.244141 0.244141 0.24414 0.24414 0.244141 0.244141 0.244141 0.24414 0.244141 0.244141 0.244141 0.244141 0.24414 0.244141 0.12207 0.12207 0.244141 0.244141 0.244141 0.244141 0.244141 0.244141 0.244141 0.244141 0.244141 0.244141 0.244141 0.244141 0.244141 0.244141 0.244141 0.244141 0.244141 0.244141 0.244141 0.244141 0.244141 0.244141 0.244141 0.244141 0.244141 0.24414 0.244141 0.244141 0.24414 0.244141 0.244141 0.244141 0.244141 0.244141 0.24414 0.244141 0.244141 0.24414 0.244141 0.244141 0.244141 0.244141 0.244141 0.24414 0.244141 0.244141 0.244141 0.244141 0.244141 0.244141 0.244141 0.24414 0.24414 0.244141 0.244141 0.244141 0.24414 0.244141 0.244141 0.244141 0.244141 0.24414 0.244141 0.12207 0.12207 0.244141 0.244141 0.244141 0.244141 0.244141 0.244141 0.244141 0.244141 0.244141 0.244141 0.244141 0.244141 0.244141 0.244141 0.244141 0.244141 0.244141 0.244141 0.244141 0.244141 0.244141 0.244141 0.244141 0.244141 0.244141 0.24414 0.244141 0.244141 0.24414 0.244141 0.244141 0.244141 0.244141 0.244141 0.24414 0.244141 0.244141 0.24414 0.244141 0.244141 0.244141 0.244141 0.244141 0.24414 0.244141 0.244141 0.244141 0.244141 0.244141 0.244141 0.244141 0.24414 0.24414 0.244141 0.244141 0.244141 0.24414 0.244141 0.244141 0.244141 0.244141 0.24414 0.244141 0.12207 0.12207 0.244141 0.244141 0.244141 0.244141 0.244141 0.244141 0.244141 0.24414 0.244141 0.244141 0.244141 0.244141 0.244141 0.244141 0.244141 0.244141 0.24414 0.24414 0.244141 0.244141 0.244141 0.244141 0.244141 0.244141 0.244141 0.24414 0.244141 0.244141 0.24414 0.244141 0.244141 0.244141 0.24414 0.24414 0.24414 0.244141 0.244141 0.24414 0.244141 0.244141 0.244141 0.24414 0.244141 0.24414 0.244141 0.244141 0.24414 0.244141 0.244141 0.244141 0.244141 0.24414 0.24414 0.244141 0.244141 0.244141 0.24414 0.244141 0.244141 0.244141 0.24414 0.24414 0.244141 0.12207 0.12207 0.244141 0.244141 0.244141 0.244141 0.244141 0.244141 0.244141 0.24414 0.244141 0.244141 0.244141 0.244141 0.244141 0.244141 0.244141 0.244141 0.24414 0.24414 0.244141 0.244141 0.244141 0.244141 0.244141 0.244141 0.244141 0.24414 0.244141 0.244141 0.24414 0.244141 0.244141 0.244141 0.24414 0.24414 0.24414 0.244141 0.244141 0.24414 0.244141 0.244141 0.244141 0.244141 0.244141 0.24414 0.244141 0.244141 0.24414 0.244141 0.244141 0.244141 0.244141 0.24414 0.24414 0.244141 0.244141 0.244141 0.24414 0.244141 0.244141 0.244141 0.24414 0.24414 0.244141 0.12207 0.12207 0.244141 0.244141 0.244141 0.244141 0.244141 0.244141 0.244141 0.244141 0.244141 0.244141 0.244141 0.244141 0.244141 0.244141 0.244141 0.244141 0.24414 0.24414 0.244141 0.244141 0.244141 0.244141 0.244141 0.244141 0.244141 0.24414 0.244141 0.244141 0.24414 0.244141 0.244141 0.244141 0.244141 0.244141 0.24414 0.244141 0.244141 0.24414 0.244141 0.244141 0.244141 0.244141 0.244141 0.24414 0.244141 0.244141 0.244141 0.244141 0.244141 0.244141 0.244141 0.24414 0.24414 0.244141 0.244141 0.244141 0.24414 0.244141 0.244141 0.244141 0.244141 0.24414 0.244141 0.12207 0.12207 0.244141 0.244141 0.244141 0.244141 0.244141 0.244141 0.244141 0.244141 0.244141 0.244141 0.244141 0.244141 0.244141 0.244141 0.244141 0.244141 0.244141 0.24414 0.244141 0.244141 0.244141 0.244141 0.244141 0.244141 0.244141 0.24414 0.244141 0.244141 0.24414 0.244141 0.244141 0.244141 0.244141 0.244141 0.24414 0.244141 0.244141 0.24414 0.244141 0.244141 0.244141 0.244141 0.244141 0.24414 0.244141 0.244141 0.244141 0.244141 0.244141 0.244141 0.244141 0.24414 0.24414 0.244141 0.244141 0.244141 0.24414 0.244141 0.244141 0.244141 0.244141 0.24414 0.244141 0.12207 0.12207 0.244141 0.244141 0.244141 0.244141 0.244141 0.244141 0.244141 0.244141 0.244141 0.244141 0.244141 0.244141 0.244141 0.244141 0.244141 0.244141 0.244141 0.244141 0.244141 0.244141 0.244141 0.244141 0.244141 0.244141 0.244141 0.244141 0.244141 0.244141 0.24414 0.244141 0.244141 0.244141 0.244141 0.244141 0.244141 0.244141 0.244141 0.24414 0.244141 0.244141 0.244141 0.244141 0.244141 0.244141 0.244141 0.244141 0.244141 0.244141 0.244141 0.244141 0.244141 0.244141 0.24414 0.244141 0.244141 0.244141 0.24414 0.244141 0.244141 0.244141 0.244141 0.24414 0.244141 0.122071 0.12207 0.244141 0.244141 0.244141 0.244141 0.244141 0.244141 0.244141 0.244141 0.244141 0.244141 0.244141 0.244141 0.244141 0.244141 0.244141 0.244141 0.244141 0.244141 0.244141 0.244141 0.244141 0.244141 0.244141 0.244141 0.244141 0.24414 0.244141 0.244141 0.24414 0.244141 0.244141 0.244141 0.244141 0.244141 0.24414 0.244141 0.244141 0.24414 0.244141 0.244141 0.244141 0.244141 0.244141 0.24414 0.244141 0.244141 0.244141 0.244141 0.244141 0.244141 0.244141 0.244141 0.24414 0.244141 0.244141 0.244141 0.24414 0.244141 0.244141 0.244141 0.244141 0.24414 0.244141 0.122071 0.12207 0.24414 0.24414 0.244141 0.24414 0.244141 0.244141 0.244141 0.24414 0.24414 0.244141 0.244141 0.244141 0.244141 0.24414 0.24414 0.244141 0.24414 0.24414 0.24414 0.244141 0.244141 0.244141 0.24414 0.244141 0.244141 0.24414 0.244141 0.244141 0.24414 0.244141 0.244141 0.244141 0.24414 0.24414 0.24414 0.244141 0.244141 0.24414 0.244141 0.244141 0.244141 0.24414 0.24414 0.24414 0.244141 0.244141 0.24414 0.244141 0.244141 0.24414 0.244141 0.24414 0.24414 0.244141 0.244141 0.244141 0.24414 0.244141 0.244141 0.244141 0.24414 0.24414 0.244141 0.12207 0.12207 0.244141 0.244141 0.244141 0.244141 0.244141 0.244141 0.244141 0.244141 0.244141 0.244141 0.244141 0.244141 0.244141 0.244141 0.244141 0.244141 0.24414 0.24414 0.244141 0.244141 0.244141 0.244141 0.244141 0.244141 0.244141 0.24414 0.244141 0.244141 0.24414 0.244141 0.244141 0.244141 0.244141 0.244141 0.24414 0.244141 0.244141 0.24414 0.244141 0.244141 0.244141 0.244141 0.244141 0.24414 0.244141 0.244141 0.24414 0.244141 0.244141 0.244141 0.244141 0.24414 0.24414 0.244141 0.244141 0.244141 0.24414 0.244141 0.244141 0.244141 0.244141 0.24414 0.244141 0.12207 0.0610351 0.12207 0.12207 0.12207 0.12207 0.12207 0.12207 0.12207 0.12207 0.12207 0.12207 0.12207 0.12207 0.12207 0.12207 0.12207 0.12207 0.12207 0.12207 0.12207 0.12207 0.12207 0.12207 0.12207 0.12207 0.12207 0.12207 0.12207 0.12207 0.12207 0.12207 0.12207 0.12207 0.12207 0.12207 0.12207 0.12207 0.12207 0.12207 0.12207 0.12207 0.12207 0.12207 0.12207 0.12207 0.12207 0.12207 0.12207 0.12207 0.12207 0.12207 0.12207 0.12207 0.12207 0.12207 0.12207 0.12207 0.12207 0.12207 0.12207 0.12207 0.12207 0.12207 0.12207 0.0610352 0.0610352 0.12207 0.12207 0.12207 0.12207 0.12207 0.12207 0.12207 0.12207 0.12207 0.12207 0.12207 0.12207 0.12207 0.12207 0.12207 0.12207 0.12207 0.12207 0.12207 0.12207 0.12207 0.12207 0.12207 0.12207 0.12207 0.12207 0.12207 0.12207 0.12207 0.12207 0.12207 0.12207 0.12207 0.12207 0.12207 0.12207 0.12207 0.12207 0.12207 0.12207 0.12207 0.12207 0.12207 0.12207 0.12207 0.12207 0.12207 0.12207 0.12207 0.12207 0.12207 0.12207 0.12207 0.12207 0.122071 0.12207 0.12207 0.12207 0.12207 0.12207 0.12207 0.12207 0.12207 0.0610352 0.12207 0.244141 0.244141 0.244141 0.244141 0.244141 0.244141 0.244141 0.244141 0.244141 0.244141 0.244141 0.244141 0.244141 0.244141 0.244141 0.244141 0.244141 0.244141 0.244141 0.244141 0.244141 0.244141 0.244141 0.244141 0.244141 0.24414 0.244141 0.244141 0.24414 0.244141 0.244141 0.244141 0.244141 0.244141 0.24414 0.244141 0.244141 0.24414 0.244141 0.244141 0.244141 0.244141 0.244141 0.244141 0.244141 0.244141 0.244141 0.244141 0.244141 0.244141 0.244141 0.244141 0.24414 0.244141 0.244141 0.244141 0.24414 0.244141 0.244141 0.244141 0.244141 0.24414 0.244141 0.12207 0.12207 0.244141 0.244141 0.244141 0.244141 0.244141 0.244141 0.244141 0.244141 0.244141 0.244141 0.244141 0.244141 0.244141 0.244141 0.244141 0.244141 0.244141 0.244141 0.244141 0.244141 0.244141 0.244141 0.244141 0.244141 0.244141 0.24414 0.244141 0.244141 0.24414 0.244141 0.244141 0.244141 0.244141 0.244141 0.24414 0.244141 0.244141 0.24414 0.244141 0.244141 0.244141 0.244141 0.244141 0.244141 0.244141 0.244141 0.244141 0.244141 0.244141 0.244141 0.244141 0.244141 0.24414 0.244141 0.244141 0.244141 0.24414 0.244141 0.244141 0.244141 0.244141 0.24414 0.244141 0.12207 0.12207 0.244141 0.244141 0.244141 0.244141 0.244141 0.244141 0.244141 0.244141 0.244141 0.244141 0.244141 0.244141 0.244141 0.244141 0.244141 0.244141 0.244141 0.244141 0.244141 0.244141 0.244141 0.244141 0.244141 0.244141 0.244141 0.24414 0.244141 0.244141 0.24414 0.244141 0.244141 0.244141 0.244141 0.244141 0.24414 0.244141 0.244141 0.24414 0.244141 0.244141 0.244141 0.244141 0.244141 0.24414 0.244141 0.244141 0.244141 0.244141 0.244141 0.244141 0.244141 0.244141 0.24414 0.244141 0.244141 0.244141 0.24414 0.244141 0.244141 0.244141 0.244141 0.24414 0.244141 0.12207 0.12207 0.244141 0.244141 0.244141 0.244141 0.244141 0.244141 0.244141 0.244141 0.244141 0.244141 0.244141 0.244141 0.244141 0.244141 0.244141 0.244141 0.244141 0.244141 0.244141 0.244141 0.244141 0.244141 0.244141 0.244141 0.244141 0.24414 0.244141 0.244141 0.24414 0.244141 0.244141 0.244141 0.244141 0.244141 0.24414 0.244141 0.244141 0.24414 0.244141 0.244141 0.244141 0.244141 0.244141 0.24414 0.244141 0.244141 0.244141 0.244141 0.244141 0.244141 0.244141 0.244141 0.24414 0.244141 0.244141 0.244141 0.24414 0.244141 0.244141 0.244141 0.244141 0.24414 0.244141 0.12207 0.12207 0.244141 0.244141 0.244141 0.244141 0.244141 0.244141 0.244141 0.244141 0.244141 0.244141 0.244141 0.244141 0.244141 0.244141 0.244141 0.244141 0.244141 0.244141 0.244141 0.244141 0.244141 0.244141 0.244141 0.244141 0.244141 0.24414 0.244141 0.244141 0.24414 0.244141 0.244141 0.244141 0.244141 0.244141 0.24414 0.244141 0.244141 0.24414 0.244141 0.244141 0.244141 0.244141 0.244141 0.24414 0.244141 0.244141 0.244141 0.244141 0.244141 0.244141 0.244141 0.244141 0.24414 0.244141 0.244141 0.244141 0.24414 0.244141 0.244141 0.244141 0.244141 0.24414 0.244141 0.12207 0.12207 0.244141 0.244141 0.244141 0.244141 0.244141 0.244141 0.244141 0.244141 0.244141 0.244141 0.244141 0.244141 0.244141 0.244141 0.244141 0.244141 0.244141 0.244141 0.244141 0.244141 0.244141 0.244141 0.244141 0.244141 0.244141 0.24414 0.244141 0.244141 0.24414 0.244141 0.244141 0.244141 0.244141 0.244141 0.24414 0.244141 0.244141 0.24414 0.244141 0.244141 0.244141 0.244141 0.244141 0.24414 0.244141 0.244141 0.244141 0.244141 0.244141 0.244141 0.244141 0.244141 0.24414 0.244141 0.244141 0.244141 0.24414 0.244141 0.244141 0.244141 0.244141 0.24414 0.244141 0.122071 0.12207 0.244141 0.244141 0.244141 0.244141 0.244141 0.244141 0.244141 0.244141 0.244141 0.244141 0.244141 0.244141 0.244141 0.244141 0.244141 0.244141 0.244141 0.244141 0.244141 0.244141 0.244141 0.244141 0.244141 0.244141 0.244141 0.24414 0.244141 0.244141 0.24414 0.244141 0.244141 0.244141 0.244141 0.244141 0.24414 0.244141 0.244141 0.24414 0.244141 0.244141 0.244141 0.244141 0.244141 0.24414 0.244141 0.244141 0.244141 0.244141 0.244141 0.244141 0.244141 0.244141 0.24414 0.244141 0.244141 0.244141 0.24414 0.244141 0.244141 0.244141 0.244141 0.24414 0.244141 0.12207 0.12207 0.244141 0.244141 0.244141 0.244141 0.244141 0.244141 0.244141 0.244141 0.244141 0.244141 0.244141 0.244141 0.244141 0.244141 0.244141 0.244141 0.24414 0.24414 0.244141 0.244141 0.244141 0.244141 0.244141 0.244141 0.244141 0.24414 0.244141 0.244141 0.24414 0.244141 0.244141 0.244141 0.244141 0.244141 0.24414 0.244141 0.244141 0.24414 0.244141 0.244141 0.244141 0.244141 0.244141 0.24414 0.244141 0.244141 0.24414 0.244141 0.244141 0.244141 0.244141 0.24414 0.24414 0.244141 0.244141 0.244141 0.24414 0.244141 0.244141 0.244141 0.24414 0.24414 0.244141 0.12207 0.12207 0.244141 0.244141 0.244141 0.244141 0.244141 0.244141 0.244141 0.244141 0.244141 0.244141 0.244141 0.244141 0.244141 0.244141 0.244141 0.244141 0.24414 0.24414 0.244141 0.244141 0.244141 0.244141 0.244141 0.244141 0.244141 0.24414 0.244141 0.244141 0.24414 0.244141 0.244141 0.244141 0.244141 0.244141 0.24414 0.244141 0.244141 0.24414 0.244141 0.244141 0.244141 0.244141 0.244141 0.24414 0.244141 0.244141 0.24414 0.244141 0.244141 0.244141 0.244141 0.24414 0.24414 0.244141 0.244141 0.244141 0.24414 0.244141 0.244141 0.244141 0.244141 0.24414 0.244141 0.12207 0.12207 0.244141 0.244141 0.244141 0.244141 0.244141 0.244141 0.244141 0.244141 0.244141 0.244141 0.244141 0.244141 0.244141 0.244141 0.244141 0.244141 0.244141 0.244141 0.244141 0.244141 0.244141 0.244141 0.244141 0.244141 0.244141 0.24414 0.244141 0.244141 0.24414 0.244141 0.244141 0.244141 0.244141 0.244141 0.24414 0.244141 0.244141 0.24414 0.244141 0.244141 0.244141 0.244141 0.244141 0.24414 0.244141 0.244141 0.244141 0.244141 0.244141 0.244141 0.244141 0.244141 0.24414 0.244141 0.244141 0.244141 0.24414 0.244141 0.244141 0.244141 0.244141 0.24414 0.244141 0.12207 0.12207 0.244141 0.244141 0.244141 0.244141 0.244141 0.244141 0.244141 0.244141 0.244141 0.244141 0.244141 0.244141 0.244141 0.244141 0.244141 0.244141 0.244141 0.244141 0.244141 0.244141 0.244141 0.244141 0.244141 0.244141 0.244141 0.24414 0.244141 0.244141 0.24414 0.244141 0.244141 0.244141 0.244141 0.244141 0.24414 0.244141 0.244141 0.24414 0.244141 0.244141 0.244141 0.244141 0.244141 0.24414 0.244141 0.244141 0.244141 0.244141 0.244141 0.244141 0.244141 0.244141 0.24414 0.244141 0.244141 0.244141 0.24414 0.244141 0.244141 0.244141 0.244141 0.24414 0.244141 0.12207 0.12207 0.244141 0.244141 0.244141 0.244141 0.244141 0.244141 0.244141 0.244141 0.244141 0.244141 0.244141 0.244141 0.244141 0.244141 0.244141 0.244141 0.244141 0.244141 0.244141 0.244141 0.244141 0.244141 0.244141 0.244141 0.244141 0.244141 0.244141 0.244141 0.244141 0.244141 0.244141 0.244141 0.244141 0.244141 0.244141 0.244141 0.244141 0.244141 0.244141 0.244141 0.244141 0.244141 0.244141 0.244141 0.244141 0.244141 0.244141 0.244141 0.244141 0.244141 0.244141 0.244141 0.24414 0.244141 0.244141 0.244141 0.24414 0.244141 0.244141 0.244141 0.244141 0.24414 0.244141 0.122071 0.12207 0.244141 0.244141 0.244141 0.244141 0.244141 0.244141 0.244141 0.244141 0.244141 0.244141 0.244141 0.244141 0.244141 0.244141 0.244141 0.244141 0.244141 0.244141 0.244141 0.244141 0.244141 0.244141 0.244141 0.244141 0.244141 0.24414 0.244141 0.244141 0.24414 0.244141 0.244141 0.244141 0.244141 0.244141 0.24414 0.244141 0.244141 0.24414 0.244141 0.244141 0.244141 0.244141 0.244141 0.244141 0.244141 0.244141 0.244141 0.244141 0.244141 0.244141 0.244141 0.244141 0.24414 0.244141 0.244141 0.244141 0.24414 0.244141 0.244141 0.244141 0.244141 0.24414 0.244141 0.122071 0.12207 0.244141 0.244141 0.244141 0.244141 0.244141 0.244141 0.244141 0.24414 0.244141 0.244141 0.244141 0.244141 0.244141 0.244141 0.244141 0.244141 0.24414 0.24414 0.244141 0.244141 0.244141 0.244141 0.244141 0.244141 0.244141 0.24414 0.244141 0.244141 0.24414 0.244141 0.244141 0.244141 0.24414 0.24414 0.24414 0.244141 0.244141 0.24414 0.244141 0.244141 0.244141 0.244141 0.244141 0.24414 0.244141 0.244141 0.24414 0.244141 0.244141 0.244141 0.244141 0.24414 0.24414 0.244141 0.244141 0.244141 0.24414 0.244141 0.244141 0.244141 0.24414 0.24414 0.244141 0.12207 0.12207 0.244141 0.244141 0.244141 0.244141 0.244141 0.244141 0.244141 0.244141 0.244141 0.244141 0.244141 0.244141 0.244141 0.244141 0.244141 0.244141 0.24414 0.24414 0.244141 0.244141 0.244141 0.244141 0.244141 0.244141 0.244141 0.24414 0.244141 0.244141 0.24414 0.244141 0.244141 0.244141 0.244141 0.244141 0.24414 0.244141 0.244141 0.24414 0.244141 0.244141 0.244141 0.244141 0.244141 0.24414 0.244141 0.244141 0.244141 0.244141 0.244141 0.244141 0.244141 0.24414 0.24414 0.244141 0.244141 0.244141 0.24414 0.244141 0.244141 0.244141 0.244141 0.24414 0.244141 0.12207 0.0610351 0.12207 0.12207 0.12207 0.12207 0.12207 0.12207 0.12207 0.12207 0.12207 0.12207 0.12207 0.12207 0.12207 0.12207 0.12207 0.12207 0.12207 0.12207 0.12207 0.12207 0.12207 0.12207 0.12207 0.12207 0.12207 0.12207 0.12207 0.12207 0.12207 0.12207 0.12207 0.12207 0.12207 0.12207 0.12207 0.12207 0.12207 0.12207 0.12207 0.12207 0.12207 0.12207 0.12207 0.12207 0.12207 0.12207 0.12207 0.12207 0.12207 0.12207 0.12207 0.12207 0.12207 0.12207 0.122071 0.12207 0.12207 0.12207 0.12207 0.12207 0.12207 0.12207 0.12207 0.0610352 0.0305176 0.0610352 0.0610352 0.0610352 0.0610352 0.0610352 0.0610352 0.0610352 0.0610351 0.0610351 0.0610352 0.0610352 0.0610352 0.0610352 0.0610351 0.0610351 0.0610352 0.0610351 0.0610351 0.0610352 0.0610352 0.0610352 0.0610352 0.0610351 0.0610352 0.0610352 0.0610351 0.0610352 0.0610352 0.0610351 0.0610352 0.0610352 0.0610352 0.0610351 0.0610351 0.0610351 0.0610352 0.0610352 0.0610351 0.0610352 0.0610352 0.0610352 0.0610351 0.0610351 0.0610351 0.0610352 0.0610352 0.0610351 0.0610352 0.0610352 0.0610352 0.0610352 0.0610351 0.0610351 0.0610352 0.0610353 0.0610352 0.0610351 0.0610352 0.0610352 0.0610352 0.0610351 0.0610351 0.0610352 0.0305176 0.0610352 0.12207 0.12207 0.12207 0.12207 0.12207 0.12207 0.12207 0.12207 0.12207 0.12207 0.12207 0.12207 0.12207 0.12207 0.12207 0.12207 0.12207 0.12207 0.12207 0.12207 0.12207 0.12207 0.12207 0.12207 0.12207 0.12207 0.12207 0.12207 0.12207 0.12207 0.12207 0.12207 0.12207 0.12207 0.12207 0.12207 0.12207 0.12207 0.12207 0.12207 0.12207 0.12207 0.12207 0.12207 0.12207 0.12207 0.12207 0.12207 0.12207 0.12207 0.12207 0.12207 0.12207 0.12207 0.122071 0.12207 0.12207 0.12207 0.12207 0.12207 0.12207 0.12207 0.12207 0.0610352 0.0610352 0.12207 0.12207 0.12207 0.12207 0.12207 0.12207 0.12207 0.12207 0.12207 0.12207 0.12207 0.12207 0.12207 0.12207 0.12207 0.12207 0.12207 0.12207 0.12207 0.12207 0.12207 0.12207 0.12207 0.12207 0.12207 0.12207 0.12207 0.12207 0.12207 0.12207 0.12207 0.12207 0.12207 0.12207 0.12207 0.12207 0.12207 0.12207 0.12207 0.12207 0.12207 0.12207 0.12207 0.12207 0.12207 0.12207 0.12207 0.12207 0.12207 0.12207 0.12207 0.12207 0.12207 0.12207 0.122071 0.12207 0.12207 0.12207 0.12207 0.12207 0.12207 0.12207 0.12207 0.0610352 0.0610352 0.12207 0.12207 0.12207 0.12207 0.12207 0.12207 0.12207 0.12207 0.12207 0.12207 0.12207 0.12207 0.12207 0.12207 0.12207 0.12207 0.12207 0.12207 0.12207 0.12207 0.12207 0.12207 0.12207 0.12207 0.12207 0.12207 0.12207 0.12207 0.12207 0.12207 0.12207 0.12207 0.12207 0.12207 0.12207 0.12207 0.12207 0.12207 0.12207 0.12207 0.12207 0.12207 0.12207 0.12207 0.12207 0.12207 0.12207 0.12207 0.12207 0.12207 0.12207 0.12207 0.12207 0.12207 0.122071 0.12207 0.12207 0.12207 0.12207 0.12207 0.12207 0.12207 0.12207 0.0610352 0.0610352 0.12207 0.12207 0.12207 0.12207 0.12207 0.12207 0.12207 0.12207 0.12207 0.12207 0.12207 0.12207 0.12207 0.12207 0.12207 0.12207 0.12207 0.12207 0.12207 0.12207 0.12207 0.12207 0.12207 0.12207 0.12207 0.12207 0.12207 0.12207 0.12207 0.12207 0.12207 0.12207 0.12207 0.12207 0.12207 0.12207 0.12207 0.12207 0.12207 0.12207 0.12207 0.12207 0.12207 0.12207 0.12207 0.12207 0.12207 0.12207 0.12207 0.12207 0.12207 0.12207 0.12207 0.12207 0.122071 0.12207 0.12207 0.12207 0.12207 0.12207 0.12207 0.12207 0.12207 0.0610352 0.0610352 0.12207 0.12207 0.12207 0.12207 0.12207 0.12207 0.12207 0.12207 0.12207 0.12207 0.12207 0.12207 0.12207 0.12207 0.12207 0.12207 0.12207 0.12207 0.12207 0.12207 0.12207 0.12207 0.12207 0.12207 0.12207 0.12207 0.12207 0.12207 0.12207 0.12207 0.12207 0.12207 0.12207 0.12207 0.12207 0.12207 0.12207 0.12207 0.12207 0.12207 0.12207 0.12207 0.12207 0.12207 0.12207 0.12207 0.12207 0.12207 0.12207 0.12207 0.12207 0.12207 0.12207 0.12207 0.122071 0.12207 0.12207 0.12207 0.12207 0.12207 0.12207 0.12207 0.12207 0.0610352 0.0610352 0.12207 0.12207 0.12207 0.12207 0.12207 0.12207 0.12207 0.12207 0.12207 0.12207 0.12207 0.12207 0.12207 0.12207 0.12207 0.12207 0.12207 0.12207 0.12207 0.12207 0.12207 0.12207 0.12207 0.12207 0.12207 0.12207 0.12207 0.12207 0.12207 0.12207 0.12207 0.12207 0.12207 0.12207 0.12207 0.12207 0.12207 0.12207 0.12207 0.12207 0.12207 0.12207 0.12207 0.12207 0.12207 0.12207 0.12207 0.12207 0.12207 0.12207 0.12207 0.12207 0.12207 0.12207 0.122071 0.12207 0.12207 0.12207 0.12207 0.12207 0.12207 0.12207 0.12207 0.0610352 0.0610352 0.12207 0.12207 0.12207 0.12207 0.12207 0.12207 0.12207 0.12207 0.12207 0.12207 0.12207 0.12207 0.12207 0.12207 0.12207 0.12207 0.12207 0.12207 0.12207 0.12207 0.12207 0.12207 0.12207 0.12207 0.12207 0.12207 0.12207 0.12207 0.12207 0.12207 0.12207 0.12207 0.12207 0.12207 0.12207 0.12207 0.12207 0.12207 0.12207 0.12207 0.12207 0.12207 0.12207 0.12207 0.12207 0.12207 0.12207 0.12207 0.12207 0.12207 0.12207 0.12207 0.12207 0.12207 0.122071 0.12207 0.12207 0.12207 0.12207 0.12207 0.12207 0.12207 0.12207 0.0610352 0.0610351 0.12207 0.12207 0.12207 0.12207 0.12207 0.12207 0.12207 0.12207 0.12207 0.12207 0.12207 0.12207 0.12207 0.12207 0.12207 0.12207 0.12207 0.12207 0.12207 0.12207 0.12207 0.12207 0.12207 0.12207 0.12207 0.12207 0.12207 0.12207 0.12207 0.12207 0.12207 0.12207 0.12207 0.12207 0.12207 0.12207 0.12207 0.12207 0.12207 0.12207 0.12207 0.12207 0.12207 0.12207 0.12207 0.12207 0.12207 0.12207 0.12207 0.12207 0.12207 0.12207 0.12207 0.12207 0.12207 0.12207 0.12207 0.12207 0.12207 0.12207 0.12207 0.12207 0.12207 0.0610352 0.0610351 0.12207 0.12207 0.12207 0.12207 0.12207 0.12207 0.12207 0.12207 0.12207 0.12207 0.12207 0.12207 0.12207 0.12207 0.12207 0.12207 0.12207 0.12207 0.12207 0.12207 0.12207 0.12207 0.12207 0.12207 0.12207 0.12207 0.12207 0.12207 0.12207 0.12207 0.12207 0.12207 0.12207 0.12207 0.12207 0.12207 0.12207 0.12207 0.12207 0.12207 0.12207 0.12207 0.12207 0.12207 0.12207 0.12207 0.12207 0.12207 0.12207 0.12207 0.12207 0.12207 0.12207 0.12207 0.12207 0.12207 0.12207 0.12207 0.12207 0.12207 0.12207 0.12207 0.12207 0.0610352 0.0610351 0.12207 0.12207 0.12207 0.12207 0.12207 0.12207 0.12207 0.12207 0.12207 0.12207 0.12207 0.12207 0.12207 0.12207 0.12207 0.12207 0.12207 0.12207 0.12207 0.12207 0.12207 0.12207 0.12207 0.12207 0.12207 0.12207 0.12207 0.12207 0.12207 0.12207 0.12207 0.12207 0.12207 0.12207 0.12207 0.12207 0.12207 0.12207 0.12207 0.12207 0.12207 0.12207 0.12207 0.12207 0.12207 0.12207 0.12207 0.12207 0.12207 0.12207 0.12207 0.12207 0.12207 0.12207 0.12207 0.12207 0.12207 0.12207 0.12207 0.12207 0.12207 0.12207 0.12207 0.0610352 0.0610351 0.12207 0.12207 0.12207 0.12207 0.12207 0.12207 0.12207 0.12207 0.12207 0.12207 0.12207 0.12207 0.12207 0.12207 0.12207 0.12207 0.12207 0.12207 0.12207 0.12207 0.12207 0.12207 0.12207 0.12207 0.12207 0.12207 0.12207 0.12207 0.12207 0.12207 0.12207 0.12207 0.12207 0.12207 0.12207 0.12207 0.12207 0.12207 0.12207 0.12207 0.12207 0.12207 0.12207 0.12207 0.12207 0.12207 0.12207 0.12207 0.12207 0.12207 0.12207 0.12207 0.12207 0.12207 0.12207 0.12207 0.12207 0.12207 0.12207 0.12207 0.12207 0.12207 0.12207 0.0610352 0.0610352 0.12207 0.12207 0.12207 0.12207 0.12207 0.12207 0.12207 0.12207 0.12207 0.12207 0.12207 0.12207 0.12207 0.12207 0.12207 0.12207 0.12207 0.12207 0.12207 0.12207 0.12207 0.12207 0.12207 0.12207 0.12207 0.12207 0.12207 0.12207 0.12207 0.12207 0.12207 0.12207 0.12207 0.12207 0.12207 0.12207 0.12207 0.12207 0.12207 0.12207 0.12207 0.12207 0.12207 0.12207 0.12207 0.12207 0.12207 0.12207 0.12207 0.12207 0.12207 0.12207 0.12207 0.12207 0.122071 0.12207 0.12207 0.12207 0.122071 0.12207 0.12207 0.12207 0.12207 0.0610353 0.0610352 0.12207 0.12207 0.12207 0.12207 0.12207 0.12207 0.12207 0.12207 0.12207 0.12207 0.12207 0.12207 0.12207 0.12207 0.12207 0.12207 0.12207 0.12207 0.12207 0.12207 0.12207 0.12207 0.12207 0.12207 0.12207 0.12207 0.12207 0.12207 0.12207 0.12207 0.12207 0.12207 0.12207 0.12207 0.12207 0.12207 0.12207 0.12207 0.12207 0.12207 0.12207 0.12207 0.12207 0.12207 0.12207 0.12207 0.12207 0.12207 0.12207 0.12207 0.12207 0.12207 0.12207 0.12207 0.122071 0.12207 0.12207 0.12207 0.12207 0.12207 0.12207 0.12207 0.12207 0.0610353 0.0610351 0.12207 0.12207 0.12207 0.12207 0.12207 0.12207 0.12207 0.12207 0.12207 0.12207 0.12207 0.12207 0.12207 0.12207 0.12207 0.12207 0.12207 0.12207 0.12207 0.12207 0.12207 0.12207 0.12207 0.12207 0.12207 0.12207 0.12207 0.12207 0.12207 0.12207 0.12207 0.12207 0.12207 0.12207 0.12207 0.12207 0.12207 0.12207 0.12207 0.12207 0.12207 0.12207 0.12207 0.12207 0.12207 0.12207 0.12207 0.12207 0.12207 0.12207 0.12207 0.12207 0.12207 0.12207 0.12207 0.12207 0.12207 0.12207 0.12207 0.12207 0.12207 0.12207 0.12207 0.0610352 0.0610351 0.12207 0.12207 0.12207 0.12207 0.12207 0.12207 0.12207 0.12207 0.12207 0.12207 0.12207 0.12207 0.12207 0.12207 0.12207 0.12207 0.12207 0.12207 0.12207 0.12207 0.12207 0.12207 0.12207 0.12207 0.12207 0.12207 0.12207 0.12207 0.12207 0.12207 0.12207 0.12207 0.12207 0.12207 0.12207 0.12207 0.12207 0.12207 0.12207 0.12207 0.12207 0.12207 0.12207 0.12207 0.12207 0.12207 0.12207 0.12207 0.12207 0.12207 0.12207 0.12207 0.12207 0.12207 0.12207 0.12207 0.12207 0.12207 0.12207 0.12207 0.12207 0.12207 0.12207 0.0610352 0.0305176 0.0610351 0.0610351 0.0610351 0.0610351 0.0610351 0.0610352 0.0610352 0.0610351 0.0610351 0.0610352 0.0610351 0.0610352 0.0610352 0.0610351 0.0610351 0.0610351 0.0610351 0.0610351 0.0610351 0.0610352 0.0610352 0.0610351 0.0610351 0.0610352 0.0610352 0.0610351 0.0610351 0.0610351 0.0610351 0.0610351 0.0610351 0.0610352 0.0610351 0.0610351 0.0610351 0.0610351 0.0610351 0.0610351 0.0610351 0.0610351 0.0610352 0.0610351 0.0610351 0.0610351 0.0610351 0.0610352 0.0610351 0.0610352 0.0610352 0.0610351 0.0610352 0.0610351 0.0610351 0.0610352 0.0610352 0.0610352 0.0610351 0.0610352 0.0610352 0.0610352 0.0610351 0.0610351 0.0610352 0.0305176 
VECTORS u float
0 0 0  -0.0014596 -0.00204371 -0.00385225  -0.00371566 -0.0027292 -0.00597012  -0.00594278 -0.00344476 -0.00733101  -0.00809996 -0.00448038 -0.00819075  -0.0102146 -0.00588604 -0.00869167  -0.0123035 -0.00765727 -0.00893664  -0.014373 -0.00976474 -0.00899887  -0.0164159 -0.0121873 -0.00893545  -0.018436 -0.0148987 -0.00878334  -0.0204257 -0.0178838 -0.00857186  -0.0223832 -0.0211237 -0.0083189  -0.024304 -0.0246034 -0.00804424  -0.0261841 -0.0283098 -0.00775385  -0.0280247 -0.0322325 -0.00745702  -0.0298173 -0.0363616 -0.00715864  -0.0315654 -0.0406864 -0.00686169  -0.0332679 -0.0451989 -0.006567  -0.0349239 -0.0498917 -0.00627971  -0.0365355 -0.0547538 -0.0059973  -0.0380971 -0.0597813 -0.00572228  -0.039614 -0.0649651 -0.00545478  -0.0410882 -0.070297 -0.00519502  -0.0425154 -0.0757714 -0.00494158  -0.0438974 -0.0813812 -0.0046947  -0.04524 -0.0871203 -0.00445545  -0.0465385 -0.0929803 -0.00422168  -0.0477952 -0.0989564 -0.00399625  -0.0490121 -0.105042 -0.00377846  -0.0501896 -0.11123 -0.00356519  -0.0513288 -0.117515 -0.00335801  -0.0524278 -0.123892 -0.00315702  -0.0534929 -0.130352 -0.00296378  -0.0545187 -0.136895 -0.0027771  -0.0555108 -0.143512 -0.00259507  -0.056468 -0.150196 -0.00242066  -0.0573959 -0.156945 -0.00225294  -0.0582867 -0.163754 -0.00209045  -0.05915 -0.170616 -0.00193298  -0.059978 -0.177529 -0.00178206  -0.0607793 -0.184486 -0.00163913  -0.0615499 -0.191484 -0.00150168  -0.0622952 -0.19852 -0.00136864  -0.0630121 -0.205585 -0.00124228  -0.0637031 -0.212682 -0.00112426  -0.0643687 -0.219803 -0.00100875  -0.0650132 -0.226945 -0.000899911  -0.0656309 -0.234105 -0.000800133  -0.0662317 -0.241282 -0.00070262  -0.0668063 -0.248472 -0.000614882  -0.0673652 -0.255667 -0.000528812  -0.0679038 -0.262874 -0.000452638  -0.0684266 -0.270081 -0.000382066  -0.0689292 -0.277288 -0.000315309  -0.0694199 -0.284499 -0.000257015  -0.0698962 -0.291705 -0.000205636  -0.0703609 -0.298907 -0.000158191  -0.0708094 -0.306103 -0.000116587  -0.0712531 -0.313291 -8.39233e-05  -0.0716808 -0.32047 -5.67436e-05  -0.0721073 -0.327639 -3.55244e-05  -0.0725238 -0.3348 -1.64509e-05  -0.0729361 -0.34195 -4.05312e-06  -0.0733459 -0.349093 7.51019e-06  -0.0737569 -0.356235 2.3365e-05  0 0 0  -0.0010932 -0.00103137 -0.00295997  -0.00296178 -0.00172269 -0.00494564  -0.00488394 -0.00253579 -0.00615263  -0.00674759 -0.00364386 -0.00688541  -0.00856057 -0.00509251 -0.00731337  -0.0103465 -0.00688913 -0.00752985  -0.0121175 -0.0090168 -0.00760007  -0.0138758 -0.0114568 -0.00756168  -0.0156197 -0.0141903 -0.00744784  -0.0173485 -0.0171986 -0.00728178  -0.0190535 -0.020465 -0.00708008  -0.020736 -0.0239729 -0.00685406  -0.0223883 -0.0277118 -0.00661445  -0.024008 -0.0316677 -0.00636625  -0.0255962 -0.0358295 -0.00611532  -0.0271487 -0.0401911 -0.00586486  -0.0286629 -0.0447413 -0.00561738  -0.0301379 -0.0494697 -0.00537252  -0.0315773 -0.0543691 -0.00513339  -0.0329809 -0.0594327 -0.00490046  -0.034343 -0.0646529 -0.00467169  -0.0356669 -0.0700218 -0.00444853  -0.0369558 -0.0755316 -0.004233  -0.0382087 -0.0811754 -0.00402319  -0.0394237 -0.0869481 -0.0038178  -0.0406038 -0.0928418 -0.00361955  -0.041749 -0.0988495 -0.00342691  -0.0428605 -0.104966 -0.00323999  -0.0439399 -0.111185 -0.0030576  -0.0449872 -0.117498 -0.00288081  -0.0459996 -0.123903 -0.00271165  -0.0469829 -0.130392 -0.00254583  -0.0479338 -0.13696 -0.00238645  -0.0488575 -0.143601 -0.00223184  -0.0497506 -0.15031 -0.00208235  -0.0506177 -0.157082 -0.00193799  -0.0514548 -0.163913 -0.00180006  -0.0522656 -0.170795 -0.00166702  -0.0530505 -0.177726 -0.0015384  -0.0538087 -0.184704 -0.00141537  -0.0545444 -0.19172 -0.00129712  -0.0552559 -0.19877 -0.00118458  -0.0559433 -0.205854 -0.00107777  -0.0566096 -0.212964 -0.000975251  -0.0572548 -0.220099 -0.000877976  -0.0578775 -0.227255 -0.000785708  -0.0584819 -0.234428 -0.000698209  -0.059067 -0.241615 -0.000617743  -0.0596321 -0.248812 -0.000540376  -0.0601845 -0.256019 -0.000469446  -0.0607166 -0.263232 -0.000404119  -0.0612366 -0.270447 -0.000342727  -0.0617406 -0.277664 -0.000286222  -0.0622311 -0.284879 -0.000236392  -0.0627079 -0.29209 -0.000191808  -0.0631773 -0.299297 -0.000150561  -0.0636322 -0.306497 -0.000116229  -0.064079 -0.313688 -8.78572e-05  -0.0645158 -0.32087 -6.2108e-05  -0.0649469 -0.328043 -4.05312e-05  -0.0653677 -0.335205 -2.3365e-05  -0.0657859 -0.342356 -7.51019e-06  -0.0662003 -0.349499 6.91414e-06  -0.0666144 -0.356637 2.40803e-05  0 0 0  -0.00087351 -0.000342168 -0.00257695  -0.00234333 -0.00090301 -0.00409508  -0.00391263 -0.00173982 -0.00510979  -0.00547516 -0.00288786 -0.00574589  -0.00701392 -0.00437016 -0.00612104  -0.00853437 -0.00619002 -0.00631487  -0.0100387 -0.00833998 -0.0063802  -0.0115348 -0.0108 -0.00635517  -0.0130225 -0.0135543 -0.00626624  -0.0144984 -0.0165843 -0.00613058  -0.0159588 -0.0198743 -0.00596595  -0.0174036 -0.0234096 -0.0057795  -0.0188283 -0.0271767 -0.0055809  -0.0202292 -0.0311626 -0.00537407  -0.0216054 -0.0353576 -0.00516355  -0.0229561 -0.0397499 -0.0049535  -0.024278 -0.0443331 -0.00474679  -0.0255704 -0.0490957 -0.00454104  -0.0268319 -0.0540293 -0.00433934  -0.0280657 -0.0591276 -0.00414193  -0.0292697 -0.0643803 -0.00395048  -0.0304422 -0.0697811 -0.0037626  -0.0315868 -0.0753248 -0.00358081  -0.0327005 -0.0810007 -0.00340247  -0.0337875 -0.0868042 -0.00323069  -0.0348443 -0.0927285 -0.00306284  -0.0358729 -0.0987668 -0.00289989  -0.0368761 -0.104912 -0.00274158  -0.0378487 -0.111158 -0.0025897  -0.0387985 -0.117499 -0.00243938  -0.0397227 -0.123931 -0.00229633  -0.040619 -0.130445 -0.00215626  -0.0414913 -0.137037 -0.00202143  -0.0423391 -0.143701 -0.00189161  -0.0431621 -0.150433 -0.00176489  -0.0439656 -0.157226 -0.0016439  -0.0447435 -0.164076 -0.00152767  -0.0455 -0.17098 -0.00141394  -0.0462353 -0.177931 -0.00130498  -0.0469487 -0.184924 -0.0012027  -0.0476408 -0.191955 -0.00110292  -0.0483148 -0.199024 -0.00100791  -0.04897 -0.206122 -0.000916958  -0.0496049 -0.213246 -0.000829697  -0.0502231 -0.220393 -0.000748515  -0.0508206 -0.227562 -0.000671625  -0.0514047 -0.234746 -0.000598431  -0.0519724 -0.241942 -0.00052917  -0.0525246 -0.249151 -0.000464678  -0.0530639 -0.256366 -0.000405788  -0.0535867 -0.263586 -0.000349045  -0.0540974 -0.270809 -0.000297546  -0.0545976 -0.278032 -0.00025177  -0.0550835 -0.285254 -0.000208616  -0.0555599 -0.29247 -0.000170112  -0.0560253 -0.299681 -0.00013566  -0.0564818 -0.306885 -0.00010705  -0.0569293 -0.314081 -7.99894e-05  -0.057368 -0.321268 -5.78165e-05  -0.0577989 -0.328442 -3.8147e-05  -0.0582249 -0.335605 -2.22921e-05  -0.0586448 -0.342758 -7.27177e-06  -0.0590615 -0.349901 8.82149e-06  -0.059474 -0.357038 2.80142e-05  0 0 0  -0.000677738 9.52631e-05 -0.00218332  -0.00182625 -0.000302166 -0.00340676  -0.00307219 -0.00109804 -0.00419545  -0.00433902 -0.00224957 -0.00470901  -0.00560203 -0.00375122 -0.0050211  -0.00685623 -0.00559257 -0.00518537  -0.0081026 -0.00776364 -0.00524461  -0.00934339 -0.0102438 -0.00522733  -0.0105794 -0.013018 -0.00515687  -0.0118065 -0.0160693 -0.00504851  -0.0130275 -0.0193812 -0.00491369  -0.0142388 -0.0229395 -0.00476205  -0.0154349 -0.0267316 -0.00459886  -0.0166166 -0.0307452 -0.00442946  -0.0177804 -0.0349675 -0.00425851  -0.0189275 -0.0393893 -0.00408626  -0.0200531 -0.0439998 -0.00391483  -0.021158 -0.0487932 -0.00374603  -0.0222424 -0.0537574 -0.00357926  -0.0233041 -0.0588841 -0.00341642  -0.0243434 -0.064167 -0.00326002  -0.0253615 -0.0695988 -0.00310469  -0.0263568 -0.0751706 -0.00295329  -0.0273312 -0.0808749 -0.00280702  -0.028284 -0.0867073 -0.00266445  -0.0292133 -0.0926606 -0.00252724  -0.0301218 -0.0987229 -0.00239265  -0.0310117 -0.104895 -0.00226235  -0.0318787 -0.111166 -0.00213575  -0.0327262 -0.117533 -0.00201273  -0.0335532 -0.123987 -0.00189459  -0.034362 -0.130524 -0.00178015  -0.0351512 -0.137138 -0.00166869  -0.0359204 -0.143823 -0.00156116  -0.0366721 -0.150576 -0.00145757  -0.0374069 -0.157389 -0.00135708  -0.0381207 -0.164259 -0.00126004  -0.0388205 -0.171179 -0.00116837  -0.039501 -0.178147 -0.00107896  -0.0401661 -0.185155 -0.000993252  -0.0408139 -0.192203 -0.000912309  -0.0414481 -0.199284 -0.000833154  -0.0420647 -0.206395 -0.00075841  -0.042665 -0.213534 -0.000688314  -0.0432537 -0.220693 -0.000621676  -0.0438254 -0.227871 -0.000555992  -0.0443852 -0.235066 -0.000495195  -0.0449324 -0.242273 -0.000438929  -0.0454652 -0.24949 -0.000387311  -0.045989 -0.256714 -0.000337362  -0.0465 -0.263941 -0.000292182  -0.0469973 -0.271171 -0.000249624  -0.0474885 -0.278399 -0.000210285  -0.0479672 -0.285626 -0.000175118  -0.0484371 -0.292849 -0.00014472  -0.0488992 -0.300065 -0.000116467  -0.0493515 -0.307272 -9.10759e-05  -0.049798 -0.314472 -7.09295e-05  -0.0502357 -0.321662 -5.1856e-05  -0.0506673 -0.328839 -3.3021e-05  -0.0510924 -0.336004 -1.71661e-05  -0.0515118 -0.343159 -3.8147e-06  -0.0519266 -0.350304 1.10865e-05  -0.052341 -0.357434 3.00407e-05  0 0 0  -0.000516601 0.000371248 -0.00176978  -0.00138373 0.000123203 -0.00273097  -0.00233433 -0.000609502 -0.00333643  -0.00331661 -0.00174528 -0.00372875  -0.00430495 -0.0032531 -0.00397301  -0.00529459 -0.00510995 -0.0041039  -0.00628293 -0.0072964 -0.00415325  -0.00727162 -0.00979574 -0.00414145  -0.00825876 -0.0125884 -0.00408721  -0.00924355 -0.0156583 -0.00400329  -0.0102257 -0.0189914 -0.00389743  -0.0112026 -0.0225704 -0.00377715  -0.0121725 -0.0263853 -0.00364733  -0.0131336 -0.0304211 -0.00351369  -0.0140858 -0.0346676 -0.0033778  -0.0150274 -0.0391147 -0.00324023  -0.0159553 -0.0437518 -0.00310457  -0.0168718 -0.0485679 -0.00297105  -0.0177735 -0.0535585 -0.00283933  -0.0186615 -0.0587126 -0.0027107  -0.0195351 -0.0640211 -0.00258458  -0.0203937 -0.0694792 -0.00246084  -0.0212386 -0.0750759 -0.0023421  -0.0220689 -0.0808068 -0.0022248  -0.022884 -0.0866636 -0.00211191  -0.023685 -0.0926394 -0.00200272  -0.024472 -0.0987275 -0.00189579  -0.0252432 -0.104922 -0.00179374  -0.0260012 -0.111215 -0.00169194  -0.0267456 -0.117605 -0.00159621  -0.0274768 -0.124079 -0.00150096  -0.0281918 -0.130636 -0.00140846  -0.0288937 -0.137271 -0.00132143  -0.0295825 -0.143975 -0.00123596  -0.0302603 -0.150745 -0.0011543  -0.0309219 -0.157576 -0.00107491  -0.0315721 -0.164462 -0.000998497  -0.0322094 -0.171397 -0.000924945  -0.0328336 -0.17838 -0.00085485  -0.0334458 -0.185404 -0.000786304  -0.0340464 -0.192465 -0.000721574  -0.0346346 -0.199559 -0.000660539  -0.035212 -0.206682 -0.000601411  -0.0357771 -0.21383 -0.00054431  -0.0363331 -0.221001 -0.000490665  -0.0368767 -0.22819 -0.000440836  -0.0374103 -0.235394 -0.000392795  -0.0379331 -0.242609 -0.00034833  -0.038444 -0.249833 -0.000307083  -0.0389495 -0.257064 -0.000267386  -0.0394449 -0.264299 -0.000231504  -0.0399311 -0.271534 -0.000199199  -0.0404096 -0.278768 -0.000168085  -0.0408762 -0.286 -0.000139713  -0.0413399 -0.293227 -0.000114202  -0.041796 -0.300446 -9.40561e-05  -0.0422437 -0.30766 -7.33137e-05  -0.0426831 -0.314862 -5.54323e-05  -0.043119 -0.322054 -3.96967e-05  -0.0435479 -0.329236 -2.74181e-05  -0.0439713 -0.336404 -1.49012e-05  -0.0443907 -0.34356 -1.54972e-06  -0.0448065 -0.350702 1.15633e-05  -0.045217 -0.357829 2.86102e-05  0 0 0  -0.00037007 0.000544995 -0.00133562  -0.000988983 0.000408053 -0.00205028  -0.00167087 -0.00026229 -0.00249279  -0.00237969 -0.00137585 -0.00277674  -0.00310063 -0.00288188 -0.00295448  -0.00382811 -0.0047476 -0.0030508  -0.00456211 -0.00694722 -0.00308812  -0.00529915 -0.00946182 -0.00308144  -0.00603771 -0.0122708 -0.00304091  -0.00677961 -0.0153581 -0.00297809  -0.00752252 -0.0187076 -0.00289965  -0.00826639 -0.0223058 -0.00281036  -0.00901014 -0.0261391 -0.0027138  -0.00975072 -0.0301946 -0.0026139  -0.0104908 -0.0344614 -0.00251257  -0.011224 -0.0389301 -0.00240982  -0.0119554 -0.0435882 -0.0023092  -0.0126798 -0.0484281 -0.00220776  -0.0133988 -0.0534396 -0.00210869  -0.014112 -0.0586159 -0.00201333  -0.0148183 -0.063947 -0.00191903  -0.0155172 -0.0694262 -0.00182724  -0.0162089 -0.0750467 -0.00173914  -0.0168931 -0.0807989 -0.001652  -0.0175704 -0.0866763 -0.00156713  -0.0182389 -0.0926728 -0.00148511  -0.0188991 -0.0987834 -0.00140548  -0.0195512 -0.104997 -0.00132811  -0.0201989 -0.111311 -0.00125396  -0.0208367 -0.117717 -0.00118148  -0.0214671 -0.124212 -0.00111067  -0.0220881 -0.130788 -0.00104284  -0.0227022 -0.137437 -0.000977397  -0.0233085 -0.144157 -0.000914335  -0.023906 -0.150944 -0.000852585  -0.0244973 -0.15779 -0.000793576  -0.0250797 -0.16469 -0.000737548  -0.0256529 -0.17164 -0.00068295  -0.0262182 -0.178635 -0.000631094  -0.0267766 -0.185671 -0.000579953  -0.0273268 -0.192743 -0.000531077  -0.0278704 -0.199849 -0.000486374  -0.0284026 -0.206982 -0.000442147  -0.0289316 -0.214141 -0.000400543  -0.0294521 -0.221321 -0.0003618  -0.0299637 -0.228519 -0.000324488  -0.0304689 -0.235728 -0.000288844  -0.0309672 -0.242952 -0.000256419  -0.0314548 -0.250184 -0.000224113  -0.0319383 -0.25742 -0.00019443  -0.0324171 -0.26466 -0.000169873  -0.0328851 -0.271902 -0.000146151  -0.0333529 -0.279141 -0.000123024  -0.0338085 -0.286377 -0.000102282  -0.0342617 -0.293608 -8.32081e-05  -0.0347042 -0.300832 -6.73532e-05  -0.0351465 -0.308048 -5.40018e-05  -0.0355821 -0.315253 -4.08888e-05  -0.0360157 -0.322448 -2.96831e-05  -0.0364418 -0.329631 -1.83582e-05  -0.0368619 -0.336803 -8.58307e-06  -0.0372791 -0.343959 1.78814e-06  -0.0376937 -0.351102 1.14441e-05  -0.0381041 -0.358223 2.58684e-05  0 0 0  -0.000235345 0.000645041 -0.000888705  -0.000624828 0.000583321 -0.00136185  -0.00105318 -4.27663e-05 -0.00165033  -0.00150344 -0.00113502 -0.00183451  -0.00196424 -0.00263742 -0.00195146  -0.00243625 -0.00450841 -0.00201523  -0.00291434 -0.00671959 -0.00203931  -0.00340006 -0.00924638 -0.00203574  -0.00389212 -0.0120685 -0.00200939  -0.0043903 -0.01517 -0.00196648  -0.00489557 -0.0185345 -0.00191498  -0.00540572 -0.0221473 -0.00185537  -0.00592285 -0.0259961 -0.00179124  -0.00644422 -0.0300678 -0.00172448  -0.0069688 -0.0343514 -0.00165653  -0.00749755 -0.0388372 -0.00158834  -0.00802886 -0.0435131 -0.00151992  -0.00856125 -0.048371 -0.00145292  -0.00909674 -0.0534018 -0.00138688  -0.00963187 -0.0585964 -0.00132298  -0.0101695 -0.063947 -0.00126028  -0.0107058 -0.0694452 -0.00119901  -0.0112425 -0.0750834 -0.00114071  -0.01178 -0.0808542 -0.0010823  -0.0123166 -0.0867503 -0.00102639  -0.0128515 -0.092765 -0.000970483  -0.0133864 -0.0988911 -0.000918269  -0.0139196 -0.105124 -0.00086689  -0.0144516 -0.111454 -0.000817657  -0.014981 -0.117876 -0.000769734  -0.0155095 -0.124385 -0.000724316  -0.0160348 -0.130976 -0.000678062  -0.0165586 -0.137641 -0.00063622  -0.0170798 -0.144376 -0.000593781  -0.0175998 -0.151175 -0.000552893  -0.0181155 -0.158033 -0.00051403  -0.0186276 -0.164947 -0.000477195  -0.0191376 -0.171907 -0.000440717  -0.0196419 -0.178914 -0.000405908  -0.0201449 -0.185961 -0.000373602  -0.0206428 -0.193044 -0.000342369  -0.0211382 -0.200158 -0.000313997  -0.0216305 -0.2073 -0.000284076  -0.0221164 -0.214467 -0.000255704  -0.0225999 -0.221655 -0.000230551  -0.023077 -0.228858 -0.000206351  -0.0235517 -0.236078 -0.000183463  -0.0240214 -0.243305 -0.000162959  -0.024488 -0.250544 -0.000141382  -0.0249505 -0.257786 -0.000123858  -0.0254071 -0.26503 -0.000106931  -0.0258601 -0.272276 -9.2268e-05  -0.0263095 -0.279519 -7.61747e-05  -0.0267544 -0.28676 -6.25849e-05  -0.0271943 -0.293994 -5.16176e-05  -0.0276332 -0.30122 -4.14848e-05  -0.0280659 -0.308439 -3.06368e-05  -0.0284953 -0.315647 -2.31266e-05  -0.0289211 -0.322844 -1.70469e-05  -0.0293405 -0.33003 -9.53674e-06  -0.0297604 -0.337203 -3.21865e-06  -0.0301762 -0.344361 2.6226e-06  -0.0305879 -0.351502 1.01328e-05  -0.030997 -0.358622 2.09808e-05  0 0 0  -0.000107255 0.00069046 -0.000433564  -0.000280805 0.000666648 -0.000666857  -0.000468358 6.47604e-05 -0.000807285  -0.000667483 -0.00101718 -0.000897884  -0.000874817 -0.00251904 -0.000955701  -0.0010919 -0.00439605 -0.000987411  -0.00131634 -0.00661373 -0.000999808  -0.00155082 -0.00915048 -0.000997782  -0.00179577 -0.0119835 -0.000985265  -0.00205129 -0.0150963 -0.000964642  -0.00231868 -0.0184717 -0.000937581  -0.00259763 -0.0220968 -0.000908136  -0.00288624 -0.0259576 -0.000875473  -0.00318688 -0.0300424 -0.00084126  -0.00349885 -0.0343397 -0.000806808  -0.0038206 -0.0388385 -0.000771284  -0.00415099 -0.0435296 -0.000737906  -0.00449073 -0.0484019 -0.000701785  -0.00484169 -0.0534476 -0.000668287  -0.00519979 -0.0586573 -0.00063777  -0.00556743 -0.0640229 -0.000605822  -0.00594115 -0.0695372 -0.000573993  -0.00632167 -0.0751897 -0.000543833  -0.00671124 -0.0809757 -0.000514627  -0.00710654 -0.0868863 -0.000487328  -0.00750577 -0.0929159 -0.000459313  -0.00791371 -0.0990568 -0.000433683  -0.00832593 -0.105302 -0.000408411  -0.00874162 -0.111647 -0.000384569  -0.00916314 -0.118083 -0.000359774  -0.00958979 -0.124605 -0.000337124  -0.010017 -0.131207 -0.000314474  -0.0104506 -0.137885 -0.000292778  -0.0108857 -0.144632 -0.000274181  -0.0113235 -0.151441 -0.000252843  -0.0117629 -0.158311 -0.0002352  -0.0122058 -0.165233 -0.000216722  -0.0126493 -0.172205 -0.000199795  -0.0130918 -0.17922 -0.000183702  -0.0135393 -0.186275 -0.00016737  -0.0139852 -0.193365 -0.000151634  -0.01443 -0.200488 -0.00013864  -0.0148754 -0.207639 -0.000124454  -0.0153217 -0.214811 -0.000110865  -0.0157678 -0.222003 -9.94205e-05  -0.0162096 -0.229215 -8.91685e-05  -0.0166545 -0.236438 -7.82013e-05  -0.017096 -0.243672 -6.8903e-05  -0.0175383 -0.250914 -5.84126e-05  -0.0179739 -0.258161 -5.16176e-05  -0.0184131 -0.26541 -4.31538e-05  -0.018847 -0.272658 -3.63588e-05  -0.0192795 -0.279905 -2.83718e-05  -0.0197139 -0.287147 -2.31266e-05  -0.0201416 -0.294384 -1.88351e-05  -0.0205665 -0.301614 -1.41859e-05  -0.0209906 -0.308835 -1.0848e-05  -0.0214131 -0.316044 -7.27177e-06  -0.0218332 -0.323244 -3.69549e-06  -0.0222499 -0.330429 -1.07288e-06  -0.0226653 -0.337604 1.07288e-06  -0.0230789 -0.344762 2.38419e-06  -0.0234873 -0.351904 5.72205e-06  -0.0238965 -0.35902 1.13249e-05  0 0 0  1.72481e-05 0.000690341 2.24113e-05  5.52684e-05 0.000667453 3.31402e-05  0.000101596 6.61016e-05 3.44515e-05  0.000148088 -0.0010182 3.50475e-05  0.000191838 -0.00252387 3.45707e-05  0.000227898 -0.00440669 3.21865e-05  0.000256151 -0.00663319 3.25441e-05  0.000272572 -0.00917605 3.24249e-05  0.000272512 -0.0120175 3.21865e-05  0.000259519 -0.0151372 3.3021e-05  0.000230968 -0.0185209 3.39746e-05  0.000185251 -0.0221553 3.48091e-05  0.000121951 -0.0260248 3.67165e-05  4.17829e-05 -0.0301194 3.8147e-05  -5.57303e-05 -0.0344259 4.04119e-05  -0.000169694 -0.038936 4.19617e-05  -0.000301719 -0.0436376 4.3273e-05  -0.000448823 -0.048521 4.45843e-05  -0.000616193 -0.0535773 4.6134e-05  -0.000794768 -0.0587989 4.73261e-05  -0.00099206 -0.0641761 4.8399e-05  -0.00120234 -0.0697018 4.87566e-05  -0.00142765 -0.075367 4.95911e-05  -0.00166714 -0.0811649 4.94719e-05  -0.00191987 -0.0870875 5.03063e-05  -0.00218475 -0.0931284 5.09024e-05  -0.00246394 -0.0992799 5.07832e-05  -0.00275421 -0.105537 4.98295e-05  -0.00305402 -0.111892 4.94719e-05  -0.00336647 -0.11834 4.97103e-05  -0.00368857 -0.124871 4.92334e-05  -0.00402021 -0.131484 4.94719e-05  -0.00435829 -0.13817 4.68493e-05  -0.00470805 -0.144926 4.55379e-05  -0.00506663 -0.151745 4.55379e-05  -0.00542951 -0.158621 4.45843e-05  -0.00580096 -0.165552 4.30346e-05  -0.00617766 -0.17253 4.12464e-05  -0.00656056 -0.179553 4.11272e-05  -0.00694847 -0.186615 3.92199e-05  -0.00733948 -0.193713 3.75509e-05  -0.00773692 -0.20084 3.70741e-05  -0.00813651 -0.207995 3.50475e-05  -0.00854063 -0.215175 3.37362e-05  -0.00894523 -0.222372 3.23057e-05  -0.00935459 -0.229586 3.02792e-05  -0.0097661 -0.236813 2.8491e-05  -0.0101793 -0.244052 2.61068e-05  -0.0105937 -0.251298 2.5034e-05  -0.0110095 -0.258547 2.38419e-05  -0.0114248 -0.265799 2.24113e-05  -0.0118418 -0.27305 2.13385e-05  -0.0122581 -0.280298 1.88351e-05  -0.0126755 -0.287543 1.65701e-05  -0.0130913 -0.294781 1.52588e-05  -0.0135074 -0.302012 1.35899e-05  -0.0139222 -0.309233 1.13249e-05  -0.014338 -0.316446 9.65595e-06  -0.0147493 -0.323644 8.58307e-06  -0.0151644 -0.330832 7.15256e-06  -0.0155737 -0.338007 3.93391e-06  -0.0159848 -0.345165 4.17233e-06  -0.0163922 -0.352306 3.8147e-06  -0.016798 -0.359421 1.66893e-06  0 0 0  0.000142165 0.000645399 0.000477672  0.000389487 0.000589371 0.000728607  0.000670031 -3.57032e-05 0.000875235  0.000960529 -0.0011363 0.000965595  0.00125521 -0.00265253 0.00102067  0.00154585 -0.00454295 0.00105107  0.00182426 -0.00677526 0.00106204  0.00209212 -0.00932431 0.0010587  0.00233942 -0.0121695 0.00104618  0.00256807 -0.0152948 0.00102675  0.00277603 -0.0186833 0.00100303  0.00296241 -0.0223219 0.000975132  0.00312525 -0.0261981 0.000946641  0.00326562 -0.0302986 0.000916004  0.00338173 -0.0346122 0.000884771  0.00347269 -0.0391291 0.000853181  0.00354195 -0.043837 0.000822425  0.00358605 -0.0487287 0.000791788  0.00360656 -0.0537943 0.000761151  0.00360322 -0.059024 0.00073123  0.00357902 -0.06441 0.000701427  0.00353014 -0.069943 0.000672579  0.003461 -0.0756169 0.000643611  0.00336945 -0.0814228 0.000614762  0.00325847 -0.0873542 0.000587583  0.00312936 -0.0934029 0.000561237  0.0029788 -0.0995644 0.00053525  0.00281394 -0.105828 0.000508904  0.00262547 -0.112191 0.000483751  0.00242484 -0.118647 0.000459194  0.00220776 -0.125186 0.000435829  0.00197196 -0.131806 0.000411153  0.00172687 -0.138499 0.000387669  0.00146246 -0.145262 0.000365496  0.00118804 -0.152086 0.000344276  0.000899076 -0.158968 0.000324249  0.000602484 -0.165905 0.000303388  0.000291348 -0.172889 0.000282288  -2.7895e-05 -0.179916 0.00026381  -0.000358105 -0.186984 0.00024724  -0.00069499 -0.194086 0.000226974  -0.00104284 -0.201218 0.000210881  -0.00139785 -0.208376 0.000193954  -0.00176001 -0.215557 0.000177145  -0.0021286 -0.222758 0.000164151  -0.00250244 -0.229975 0.000148654  -0.00287938 -0.237206 0.000135541  -0.00326586 -0.244447 0.00012207  -0.00365281 -0.251693 0.000109553  -0.00404501 -0.258946 9.83477e-05  -0.00443912 -0.266197 8.82149e-05  -0.00483537 -0.273451 7.689e-05  -0.00523758 -0.2807 6.62804e-05  -0.00563812 -0.287946 5.80549e-05  -0.00604105 -0.295186 5.06639e-05  -0.00644755 -0.302416 4.24385e-05  -0.00685358 -0.30964 3.34978e-05  -0.00725937 -0.31685 2.72989e-05  -0.00766754 -0.32405 2.14577e-05  -0.00807476 -0.331238 1.54972e-05  -0.00848198 -0.338411 9.89437e-06  -0.00889206 -0.34557 5.00679e-06  -0.00929785 -0.352711 0  -0.00970292 -0.359828 -7.51019e-06  0 0 0  0.000267297 0.000554264 0.000928402  0.000729531 0.000429451 0.00141704  0.00124806 -0.00024122 0.00170922  0.00179026 -0.00137097 0.00189221  0.00233901 -0.00290549 0.0020051  0.0028818 -0.00480378 0.00206745  0.00341442 -0.0070399 0.0020895  0.00392908 -0.00959218 0.00208485  0.00442404 -0.0124391 0.00205982  0.00489569 -0.0155672 0.00202048  0.00534034 -0.0189573 0.00197148  0.00575739 -0.0225982 0.00191617  0.00614655 -0.0264768 0.00185513  0.00650531 -0.0305797 0.00179279  0.00683576 -0.034898 0.0017308  0.00713384 -0.039417 0.001665  0.00740099 -0.0441301 0.00160158  0.00763667 -0.0490273 0.00153875  0.00784171 -0.0540969 0.00147593  0.00801539 -0.0593314 0.00141573  0.00816154 -0.0647219 0.00135434  0.00827539 -0.0702606 0.00129473  0.00836182 -0.0759395 0.00123847  0.00842047 -0.081751 0.00118101  0.00845146 -0.087688 0.00112534  0.00845611 -0.0937436 0.00107121  0.00843477 -0.0999086 0.00101852  0.00838912 -0.106178 0.000967264  0.00831854 -0.112546 0.000917435  0.00822687 -0.119005 0.000867605  0.008111 -0.125551 0.000820875  0.00797558 -0.132175 0.000774622  0.00781941 -0.138873 0.000730157  0.00764489 -0.145639 0.000685692  0.0074513 -0.152466 0.000643492  0.00723863 -0.159353 0.000602484  0.00701189 -0.166293 0.000563025  0.00676775 -0.17328 0.000524998  0.0065093 -0.180311 0.000488162  0.00623798 -0.18738 0.000451803  0.00595117 -0.194484 0.00041914  0.00565553 -0.201618 0.000386  0.00534582 -0.208778 0.000354648  0.00502706 -0.215961 0.000323653  0.00469398 -0.223166 0.000294805  0.00435877 -0.230384 0.000268102  0.00400949 -0.237615 0.000242114  0.00365591 -0.244855 0.000217438  0.00329471 -0.252104 0.00019455  0.00292492 -0.259355 0.0001719  0.00255036 -0.266609 0.00015223  0.00217175 -0.273862 0.00013113  0.00179029 -0.281112 0.000113726  0.00140142 -0.288359 9.98974e-05  0.0010097 -0.295597 8.29697e-05  0.000613689 -0.302828 6.79493e-05  0.000218391 -0.310048 5.65052e-05  -0.000181437 -0.317261 4.43459e-05  -0.000583172 -0.32446 3.52859e-05  -0.000986576 -0.331647 2.40803e-05  -0.0013895 -0.33882 1.44243e-05  -0.00179601 -0.345978 5.48363e-06  -0.00219989 -0.35312 -3.45707e-06  -0.00260329 -0.360237 -1.72853e-05  0 0 0  0.00039947 0.000409305 0.0013659  0.0010846 0.000180304 0.0020926  0.0018528 -0.000558317 0.00253594  0.00265273 -0.00172704 0.00281703  0.00346044 -0.00328034 0.00298965  0.00426102 -0.00518835 0.00308371  0.0050467 -0.00742674 0.00312006  0.00581175 -0.00997823 0.00311315  0.00655121 -0.0128262 0.00307333  0.00726438 -0.0159511 0.00301576  0.00794673 -0.019342 0.00294149  0.00859475 -0.0229821 0.00285745  0.00920862 -0.0268605 0.00276661  0.0097869 -0.0309644 0.00267291  0.0103286 -0.0352824 0.00257611  0.0108317 -0.0398027 0.00247943  0.0112964 -0.0445168 0.00238252  0.0117232 -0.0494143 0.00228679  0.0121124 -0.0544863 0.00219405  0.012463 -0.0597224 0.00210011  0.0127766 -0.0651146 0.00200868  0.013054 -0.0706555 0.00192058  0.0132957 -0.076337 0.0018338  0.0135009 -0.0821506 0.00174809  0.0136737 -0.0880902 0.00166523  0.0138117 -0.0941467 0.00158298  0.0139203 -0.100315 0.00150466  0.0139936 -0.106588 0.00142777  0.0140398 -0.112957 0.00135207  0.0140553 -0.119418 0.001279  0.0140427 -0.125964 0.00120819  0.0140045 -0.132592 0.00113833  0.0139387 -0.139291 0.00107133  0.013849 -0.146058 0.00100672  0.0137374 -0.152889 0.00094378  0.0135992 -0.159777 0.00088191  0.0134451 -0.166717 0.000823617  0.0132656 -0.173704 0.00076592  0.0130713 -0.180736 0.000712156  0.0128534 -0.187805 0.000659347  0.0126212 -0.19491 0.000608206  0.0123725 -0.202044 0.000558734  0.0121071 -0.209205 0.000512838  0.0118282 -0.216389 0.00046885  0.0115359 -0.223591 0.000425339  0.0112324 -0.23081 0.000386119  0.010915 -0.23804 0.000347495  0.0105884 -0.245281 0.000310659  0.0102525 -0.252527 0.0002774  0.00990534 -0.259779 0.000244498  0.00955296 -0.267032 0.000214338  0.00919032 -0.274284 0.000186563  0.00882316 -0.281533 0.000160456  0.00845003 -0.288779 0.000137806  0.00807071 -0.296017 0.00011611  0.00768518 -0.303246 9.48906e-05  0.00729918 -0.310466 7.7486e-05  0.00690413 -0.317675 6.17504e-05  0.00650835 -0.324873 4.68493e-05  0.00611067 -0.332057 3.1352e-05  0.00570869 -0.339232 1.95503e-05  0.00530744 -0.346389 8.70228e-06  0.00490284 -0.353531 -5.60284e-06  0.00450087 -0.360653 -2.3365e-05  0 0 0  0.000537492 0.000195026 0.00178802  0.0014668 -0.000175118 0.00275481  0.0025017 -0.000997901 0.0033567  0.00356996 -0.00220764 0.00374317  0.00464427 -0.00377935 0.00398099  0.00570351 -0.0056932 0.00410962  0.00674373 -0.00793213 0.00415707  0.00775981 -0.0104819 0.00414729  0.00874543 -0.013325 0.00409567  0.00969827 -0.0164484 0.00401628  0.010615 -0.0198343 0.00391698  0.011496 -0.023473 0.00380397  0.012333 -0.0273482 0.00368321  0.0131296 -0.0314486 0.00355601  0.0138819 -0.0357648 0.00342762  0.0145891 -0.0402839 0.00329792  0.0152535 -0.0449967 0.00316882  0.0158694 -0.0498913 0.00304067  0.0164405 -0.0549622 0.00291431  0.0169667 -0.0601959 0.00279117  0.0174482 -0.0655877 0.0026685  0.0178858 -0.0711284 0.00254941  0.0182809 -0.076808 0.00243247  0.0186346 -0.0826213 0.0023191  0.0189455 -0.0885591 0.00220811  0.0192165 -0.0946156 0.00209892  0.0194494 -0.100784 0.00199389  0.0196443 -0.107055 0.0018903  0.019804 -0.113425 0.00178945  0.0199275 -0.119885 0.00169158  0.0200151 -0.12643 0.00159657  0.0200722 -0.133054 0.00150526  0.0200982 -0.139755 0.00141513  0.0200922 -0.146521 0.00132835  0.0200584 -0.153351 0.00124419  0.0199978 -0.160237 0.00116324  0.0199101 -0.167176 0.00108504  0.0197964 -0.174163 0.00100839  0.0196593 -0.181192 0.000936151  0.0194986 -0.188261 0.000865102  0.0193181 -0.195363 0.000798702  0.0191174 -0.202496 0.000733733  0.0188956 -0.209657 0.000671625  0.0186565 -0.216837 0.00061202  0.0184002 -0.224037 0.000555992  0.0181289 -0.231255 0.000502229  0.0178423 -0.238484 0.000452757  0.0175431 -0.245722 0.000404  0.0172305 -0.252967 0.000358939  0.0169067 -0.260216 0.00031662  0.016571 -0.267466 0.000276804  0.0162265 -0.274718 0.00023973  0.0158706 -0.281963 0.00020647  0.0155113 -0.289206 0.000175357  0.0151405 -0.296442 0.000147104  0.0147669 -0.303669 0.000119925  0.0143869 -0.310889 9.78708e-05  0.0139992 -0.318095 7.66516e-05  0.0136082 -0.325291 5.79357e-05  0.0132148 -0.332475 4.00543e-05  0.0128136 -0.339644 2.43187e-05  0.0124147 -0.346801 9.89437e-06  0.012013 -0.353944 -6.19888e-06  0.0116115 -0.36107 -2.65837e-05  0 0 0  0.000687808 -0.000119269 0.00218511  0.00188936 -0.000662327 0.00340497  0.0032142 -0.00157148 0.00418401  0.00456583 -0.00281805 0.00468755  0.00590983 -0.00439978 0.0049907  0.00723311 -0.00631577 0.00515091  0.00852954 -0.00855225 0.0052098  0.00979507 -0.0110971 0.00519526  0.0110255 -0.0139353 0.00512993  0.0122193 -0.0170528 0.00502956  0.0133742 -0.0204346 0.00490463  0.0144816 -0.0240672 0.0047611  0.0155439 -0.0279383 0.00460982  0.0165569 -0.0320354 0.00445163  0.0175205 -0.0363451 0.00428987  0.0184321 -0.0408602 0.00412691  0.0192897 -0.045567 0.0039643  0.0200949 -0.0504581 0.00380313  0.0208474 -0.0555227 0.00364399  0.0215485 -0.0607548 0.00348818  0.0221947 -0.0661414 0.00333416  0.0227927 -0.0716779 0.0031848  0.023339 -0.0773535 0.00303805  0.0238376 -0.0831622 0.00289512  0.024286 -0.0890974 0.002756  0.0246892 -0.0951504 0.00261974  0.0250466 -0.101314 0.00248539  0.0253597 -0.107581 0.00235677  0.0256308 -0.113947 0.00223124  0.0258591 -0.120404 0.00210774  0.02605 -0.126946 0.00198913  0.0261986 -0.133569 0.00187325  0.0263119 -0.140264 0.00176084  0.0263896 -0.147028 0.00165319  0.0264347 -0.153853 0.00154781  0.0264449 -0.160735 0.00144458  0.0264251 -0.167672 0.00134766  0.0263751 -0.174655 0.00125229  0.0262988 -0.181681 0.00116122  0.0261905 -0.188746 0.0010736  0.0260589 -0.195845 0.000988245  0.025903 -0.202973 0.000907063  0.0257239 -0.210129 0.000829458  0.0255215 -0.217308 0.000755191  0.025301 -0.224505 0.000685573  0.0250604 -0.231717 0.000618815  0.0248022 -0.238943 0.000555634  0.0245278 -0.246177 0.000495434  0.0242345 -0.253419 0.000439525  0.0239322 -0.260665 0.000386596  0.0236125 -0.267912 0.000336885  0.0232854 -0.275159 0.000291586  0.0229425 -0.282403 0.000250101  0.022589 -0.289641 0.000211835  0.0222309 -0.296875 0.000176311  0.0218635 -0.304098 0.000144839  0.0214877 -0.311314 0.000115633  0.0211074 -0.318519 9.01222e-05  0.0207207 -0.325712 6.77109e-05  0.0203292 -0.332893 4.60148e-05  0.0199299 -0.34006 2.93255e-05  0.0195327 -0.347216 1.28746e-05  0.0191314 -0.354359 -4.64916e-06  0.0187292 -0.361488 -2.63453e-05  0 0 0  0.000865474 -0.000579476 0.00256145  0.00237891 -0.00131536 0.00406134  0.0040175 -0.00229186 0.00505531  0.00566247 -0.00355655 0.00567341  0.00728223 -0.00513917 0.00603688  0.00886935 -0.00704908 0.00622368  0.0104218 -0.00927973 0.00628996  0.0119402 -0.0118186 0.00627089  0.0134169 -0.0146514 0.00618899  0.0148516 -0.0177622 0.00606513  0.0162426 -0.0211391 0.00591397  0.0175804 -0.024765 0.00574112  0.0188673 -0.0286294 0.0055573  0.020098 -0.0327191 0.00536394  0.0212689 -0.037023 0.00516832  0.0223831 -0.0415295 0.00497186  0.0234344 -0.0462303 0.00477457  0.0244262 -0.0511135 0.00458014  0.0253581 -0.0561714 0.00438786  0.0262306 -0.0613944 0.0041995  0.0270447 -0.0667753 0.00401294  0.0277975 -0.0723036 0.00383222  0.0284928 -0.0779722 0.00365591  0.0291339 -0.0837755 0.00348377  0.0297197 -0.0897029 0.00331414  0.0302491 -0.0957485 0.0031482  0.0307289 -0.101906 0.0029875  0.0311574 -0.108168 0.0028317  0.0315384 -0.114527 0.00268078  0.0318708 -0.120977 0.00253212  0.0321587 -0.127515 0.00238776  0.0324011 -0.13413 0.00224853  0.0326009 -0.14082 0.00211215  0.0327575 -0.147576 0.00198138  0.0328779 -0.154396 0.00185394  0.0329595 -0.161274 0.00173128  0.0330052 -0.168204 0.00161278  0.0330141 -0.175181 0.00149751  0.0329924 -0.182201 0.00138831  0.0329368 -0.189259 0.0012815  0.0328524 -0.196353 0.00118017  0.0327399 -0.203477 0.00108242  0.0326004 -0.210627 0.000988722  0.0324349 -0.217798 0.000899673  0.0322464 -0.224991 0.000815749  0.0320339 -0.232198 0.000734329  0.0318017 -0.239418 0.000658035  0.0315478 -0.246648 0.000585437  0.0312786 -0.253885 0.000517607  0.0309894 -0.261125 0.000454068  0.0306873 -0.26837 0.000394344  0.0303702 -0.27561 0.000340939  0.0300395 -0.282849 0.000289083  0.0296943 -0.290085 0.000244617  0.0293431 -0.297313 0.000201344  0.028981 -0.304535 0.000164628  0.0286098 -0.311746 0.000131369  0.0282316 -0.318947 0.000100851  0.0278447 -0.326136 7.65324e-05  0.0274558 -0.333313 5.26905e-05  0.0270596 -0.340478 3.29018e-05  0.0266607 -0.347631 1.35899e-05  0.0262606 -0.354773 -3.45707e-06  0.0258594 -0.361909 -2.55108e-05  0 0 0  0.0010578 -0.00126851 0.00292242  0.00295331 -0.0021714 0.00486922  0.00494219 -0.00315839 0.00603771  0.00688857 -0.00440943 0.00673914  0.00878099 -0.0059796 0.00714934  0.0106318 -0.00787979 0.00735843  0.0124425 -0.0101041 0.00742841  0.014213 -0.0126382 0.00739944  0.0159428 -0.0154669 0.00730014  0.0176239 -0.0185727 0.00715184  0.019253 -0.0219417 0.00696838  0.0208229 -0.0255609 0.00676274  0.0223331 -0.0294173 0.0065434  0.0237805 -0.0334992 0.00631464  0.0251602 -0.0377926 0.00608242  0.0264738 -0.04229 0.00584805  0.0277182 -0.046981 0.00561523  0.0288953 -0.051854 0.00538528  0.0300044 -0.0569016 0.00515854  0.031046 -0.0621154 0.00493562  0.0320184 -0.0674842 0.00471628  0.0329266 -0.0730032 0.00450301  0.0337695 -0.0786636 0.00429428  0.0345502 -0.0844557 0.00409019  0.0352682 -0.0903735 0.0038904  0.0359259 -0.0964105 0.0036968  0.0365241 -0.102558 0.00350809  0.0370677 -0.10881 0.00332332  0.0375531 -0.115161 0.00314307  0.0379851 -0.121604 0.00296879  0.0383677 -0.128131 0.00279868  0.0386972 -0.134738 0.00263381  0.0389812 -0.141419 0.00247371  0.0392189 -0.148168 0.00232041  0.0394092 -0.154979 0.00217056  0.0395579 -0.161847 0.00202465  0.0396647 -0.168769 0.00188506  0.0397313 -0.175738 0.00174904  0.0397635 -0.182751 0.00162005  0.0397584 -0.189801 0.00149465  0.0397184 -0.196887 0.00137532  0.0396452 -0.204004 0.00125945  0.0395412 -0.211145 0.0011487  0.0394089 -0.21831 0.00104403  0.0392492 -0.225496 0.000943422  0.039063 -0.232696 0.00085032  0.0388534 -0.239909 0.00075984  0.0386186 -0.247132 0.000673532  0.0383668 -0.254361 0.000594139  0.0380926 -0.261597 0.000520706  0.037802 -0.268833 0.000449061  0.0374923 -0.27607 0.00038445  0.0371699 -0.283303 0.00032568  0.0368319 -0.290532 0.000273108  0.0364842 -0.297757 0.000222445  0.0361228 -0.304972 0.000179052  0.0357511 -0.312178 0.000141144  0.0353737 -0.319375 0.000107408  0.0349882 -0.326562 7.92742e-05  0.0345964 -0.333736 5.54323e-05  0.0341997 -0.340897 3.50475e-05  0.0337982 -0.348048 1.43051e-05  0.0333958 -0.35519 -3.45707e-06  0.0329914 -0.362327 -2.34842e-05  0 0 0  0.00141359 -0.00225514 0.00379336  0.00370851 -0.00320345 0.00582087  0.00599527 -0.00412804 0.00710464  0.00821546 -0.00533867 0.0079149  0.0103899 -0.00688928 0.00839007  0.0125233 -0.00878412 0.00862896  0.0146146 -0.0110059 0.00869882  0.0166599 -0.0135366 0.00865269  0.018654 -0.016362 0.00852501  0.0205872 -0.019463 0.00834107  0.0224587 -0.0228273 0.00811958  0.0242651 -0.0264401 0.00787365  0.0259992 -0.0302871 0.00761187  0.0276605 -0.034357 0.00734079  0.0292484 -0.038642 0.00706792  0.0307595 -0.0431271 0.00679457  0.0321933 -0.0478047 0.00652134  0.0335528 -0.0526667 0.00625193  0.0348324 -0.0577025 0.00598693  0.0360404 -0.0629036 0.00572824  0.0371718 -0.0682606 0.00547314  0.0382289 -0.0737678 0.00522351  0.0392156 -0.0794147 0.00498068  0.0401337 -0.0851957 0.00474262  0.0409769 -0.0911028 0.00451076  0.0417602 -0.0971274 0.00428402  0.0424734 -0.103263 0.00406384  0.043125 -0.109504 0.00384891  0.0437131 -0.115843 0.00363767  0.0442421 -0.122274 0.00343573  0.0447136 -0.128792 0.00323689  0.0451291 -0.135387 0.0030458  0.0454919 -0.142058 0.00285947  0.0458033 -0.148796 0.0026803  0.0460625 -0.155597 0.00250518  0.0462759 -0.162456 0.00233519  0.0464394 -0.169367 0.00217271  0.0465629 -0.176325 0.00201476  0.0466402 -0.183326 0.00186276  0.0466809 -0.19037 0.00171685  0.0466785 -0.197446 0.0015775  0.0466433 -0.204551 0.00144243  0.0465732 -0.211685 0.00131452  0.046468 -0.21884 0.00119126  0.0463324 -0.226016 0.00107527  0.0461705 -0.233208 0.000964522  0.0459783 -0.240412 0.000859618  0.045759 -0.247628 0.000761628  0.0455177 -0.254852 0.000667214  0.0452561 -0.262079 0.00058198  0.0449712 -0.269305 0.000499606  0.0446675 -0.276536 0.000424981  0.0443482 -0.283765 0.000354767  0.0440118 -0.290987 0.000293016  0.0436602 -0.298201 0.00023675  0.0432985 -0.305414 0.000185847  0.0429244 -0.312615 0.000141501  0.0425403 -0.319807 0.000104308  0.0421484 -0.326987 7.34329e-05  0.0417509 -0.334157 4.86374e-05  0.0413499 -0.341316 2.89679e-05  0.0409451 -0.348464 1.16825e-05  0.0405383 -0.355604 -1.43051e-06  0.040132 -0.362742 -1.93119e-05  0 0 0  -0.00103609 -0.00200431 -0.00291324  -0.003032 -0.00340882 -0.00483847  -0.00529742 -0.00454976 -0.00613058  -0.00761321 -0.00577275 -0.00696814  -0.00990349 -0.00723728 -0.00746977  -0.012146 -0.00900052 -0.00773013  -0.0143372 -0.0110701 -0.00781822  -0.0164789 -0.0134412 -0.00778258  -0.018569 -0.016097 -0.0076623  -0.0206108 -0.0190249 -0.00748408  -0.0226057 -0.022208 -0.00726795  -0.0245512 -0.0256332 -0.00702763  -0.0264482 -0.0292897 -0.00677347  -0.0282943 -0.0331643 -0.00651288  -0.0300933 -0.0372471 -0.00625038  -0.0318441 -0.0415291 -0.00598884  -0.0335438 -0.0460002 -0.00573087  -0.0351974 -0.0506528 -0.00547826  -0.0368023 -0.0554785 -0.00523078  -0.0383608 -0.0604701 -0.00499117  -0.0398718 -0.065619 -0.00475621  -0.0413381 -0.0709174 -0.00452685  -0.0427588 -0.0763605 -0.00430691  -0.0441364 -0.0819393 -0.00409138  -0.045469 -0.0876483 -0.00388181  -0.0467613 -0.0934793 -0.00367987  -0.0480101 -0.0994275 -0.00348246  -0.0492214 -0.105485 -0.00329077  -0.0503891 -0.111646 -0.00310671  -0.0515219 -0.117906 -0.00292683  -0.0526153 -0.124259 -0.00275183  -0.0536718 -0.130697 -0.00258338  -0.0546923 -0.137216 -0.00241947  -0.0556781 -0.143809 -0.00226247  -0.0566297 -0.150473 -0.00211012  -0.0575476 -0.157202 -0.00196326  -0.0584335 -0.16399 -0.00182199  -0.0592873 -0.170835 -0.00168645  -0.0601103 -0.177728 -0.00155473  -0.0609057 -0.184667 -0.00142884  -0.0616705 -0.191648 -0.00130928  -0.0624077 -0.198668 -0.00119543  -0.0631204 -0.205719 -0.00108635  -0.063803 -0.212801 -0.000979781  -0.0644643 -0.219908 -0.000881672  -0.0650997 -0.227039 -0.000788689  -0.0657156 -0.234187 -0.000698447  -0.0663071 -0.241352 -0.000615835  -0.0668797 -0.248529 -0.000537395  -0.0674319 -0.255716 -0.000465989  -0.0679624 -0.262911 -0.000397563  -0.0684805 -0.270111 -0.000334859  -0.0689795 -0.277314 -0.000277519  -0.0694649 -0.284515 -0.000227094  -0.0699329 -0.291716 -0.000181556  -0.0703926 -0.298914 -0.000141263  -0.0708392 -0.306105 -0.000106692  -0.0712759 -0.313289 -7.78437e-05  -0.0717027 -0.320467 -5.24521e-05  -0.0721226 -0.327636 -3.39746e-05  -0.0725384 -0.334797 -1.95503e-05  -0.072952 -0.341948 -5.60284e-06  -0.0733602 -0.349095 4.64916e-06  -0.0737705 -0.356236 1.89543e-05  0 0 0  -0.000689682 -0.00125355 -0.00225103  -0.00230367 -0.00239542 -0.0040195  -0.00425349 -0.00349654 -0.00517106  -0.00626396 -0.00476013 -0.00590241  -0.00824794 -0.00628104 -0.00634098  -0.010185 -0.0080962 -0.00657225  -0.0120796 -0.0102135 -0.0066551  -0.0139334 -0.0126263 -0.00663483  -0.015749 -0.0153223 -0.00654089  -0.0175286 -0.0182873 -0.00639629  -0.0192715 -0.0215086 -0.00621855  -0.0209782 -0.0249724 -0.00601852  -0.0226467 -0.0286663 -0.00580537  -0.0242774 -0.0325795 -0.00558507  -0.0258697 -0.036701 -0.00536275  -0.0274222 -0.041021 -0.00514054  -0.0289352 -0.0455315 -0.00492144  -0.0304092 -0.0502223 -0.00470555  -0.0318435 -0.0550865 -0.00449467  -0.0332384 -0.0601155 -0.00428796  -0.034596 -0.0653016 -0.00408804  -0.0359159 -0.0706371 -0.00389242  -0.0371972 -0.0761159 -0.00370264  -0.0384421 -0.0817303 -0.00351775  -0.039651 -0.0874728 -0.00333869  -0.0408245 -0.0933378 -0.00316501  -0.0419641 -0.0993183 -0.00299561  -0.0430679 -0.105408 -0.00283241  -0.0441402 -0.1116 -0.00267303  -0.045179 -0.117889 -0.00251949  -0.0461856 -0.124269 -0.00237  -0.0471609 -0.130736 -0.00222576  -0.0481071 -0.13728 -0.00208545  -0.0490224 -0.1439 -0.00195062  -0.0499108 -0.150588 -0.00181997  -0.0507677 -0.15734 -0.00169325  -0.0516005 -0.164151 -0.00157249  -0.0524046 -0.171014 -0.0014559  -0.0531826 -0.177928 -0.00134444  -0.0539358 -0.184887 -0.00123632  -0.0546649 -0.191887 -0.00113368  -0.0553687 -0.198921 -0.00103581  -0.0560505 -0.20599 -0.000941873  -0.0567093 -0.213087 -0.000852466  -0.0573487 -0.220208 -0.000766993  -0.0579658 -0.22735 -0.000686169  -0.0585656 -0.234512 -0.000609994  -0.059145 -0.241687 -0.000538707  -0.0597045 -0.248874 -0.000472188  -0.0602498 -0.256072 -0.000410795  -0.0607777 -0.263275 -0.000352383  -0.0612919 -0.270482 -0.000299692  -0.0617883 -0.277691 -0.000251293  -0.0622764 -0.284899 -0.000206232  -0.062747 -0.292105 -0.000167131  -0.0632098 -0.299306 -0.000133276  -0.0636592 -0.306503 -0.00010252  -0.0641036 -0.313691 -7.61747e-05  -0.0645368 -0.320871 -5.49555e-05  -0.0649643 -0.328042 -3.69549e-05  -0.0653849 -0.335204 -2.07424e-05  -0.0658016 -0.342355 -7.27177e-06  -0.0662158 -0.349499 5.48363e-06  -0.0666299 -0.356638 2.01464e-05  0 0 0  -0.000560969 -0.000714973 -0.00192714  -0.00183994 -0.00156684 -0.00332665  -0.00341566 -0.00259557 -0.00430489  -0.00507812 -0.00387129 -0.00493741  -0.00674415 -0.0054313 -0.00531995  -0.00838396 -0.00728847 -0.0055238  -0.00999409 -0.00944592 -0.00560117  -0.0115743 -0.0118958 -0.00558913  -0.0131249 -0.0146267 -0.00551379  -0.0146484 -0.0176269 -0.00539541  -0.0161447 -0.0208822 -0.00524795  -0.0176138 -0.0243804 -0.0050813  -0.0190549 -0.0281075 -0.0049032  -0.020466 -0.0320558 -0.0047183  -0.0218484 -0.0362121 -0.00453162  -0.0232003 -0.0405677 -0.00434554  -0.0245214 -0.045113 -0.00415969  -0.025812 -0.0498399 -0.00397789  -0.0270716 -0.0547391 -0.00380003  -0.0282991 -0.0598033 -0.00362647  -0.0294981 -0.0650231 -0.00345731  -0.0306649 -0.0703928 -0.00329256  -0.0318047 -0.0759047 -0.00313139  -0.0329125 -0.081552 -0.00297642  -0.0339919 -0.0873272 -0.00282514  -0.0350428 -0.0932226 -0.00267732  -0.0360663 -0.0992341 -0.00253522  -0.0370611 -0.105352 -0.0023967  -0.0380309 -0.111573 -0.00226188  -0.0389724 -0.117891 -0.00213206  -0.0398887 -0.124297 -0.00200617  -0.0407795 -0.130788 -0.00188494  -0.0416472 -0.137358 -0.0017668  -0.0424888 -0.144001 -0.00165236  -0.0433064 -0.150712 -0.00154221  -0.0441003 -0.157486 -0.00143588  -0.0448744 -0.164316 -0.00133419  -0.0456243 -0.171201 -0.00123513  -0.0463533 -0.178133 -0.00114131  -0.0470605 -0.185111 -0.00104988  -0.0477488 -0.192126 -0.00096333  -0.0484157 -0.199178 -0.000880003  -0.0490656 -0.206261 -0.000800133  -0.049695 -0.213371 -0.000726223  -0.0503075 -0.220505 -0.000653505  -0.0509012 -0.227661 -0.000585198  -0.0514796 -0.234833 -0.000521302  -0.0520425 -0.242019 -0.000461459  -0.0525885 -0.249217 -0.000405312  -0.0531223 -0.256423 -0.000352263  -0.0536408 -0.263634 -0.000304222  -0.0541472 -0.270849 -0.000259519  -0.0546422 -0.278064 -0.000218272  -0.0551226 -0.285279 -0.000181317  -0.0555942 -0.29249 -0.000147939  -0.056056 -0.299696 -0.000118375  -0.0565073 -0.306895 -9.29832e-05  -0.0569513 -0.314088 -6.96182e-05  -0.0573876 -0.321271 -5.01871e-05  -0.0578179 -0.328442 -3.46899e-05  -0.0582402 -0.335607 -2.00272e-05  -0.0586598 -0.34276 -5.60284e-06  -0.0590746 -0.349902 8.10623e-06  -0.0594893 -0.357037 2.20537e-05  0 0 0  -0.000434551 -0.000336245 -0.00162113  -0.00144371 -0.000949368 -0.00276053  -0.00269122 -0.00188929 -0.00353575  -0.00402503 -0.0031496 -0.004053  -0.00537968 -0.00472575 -0.00437009  -0.00672787 -0.00661144 -0.00454319  -0.008059 -0.00879996 -0.0046109  -0.00936964 -0.0112803 -0.00460339  -0.0106614 -0.0140418 -0.0045433  -0.0119326 -0.0170707 -0.00444555  -0.0131845 -0.0203553 -0.00432563  -0.0144171 -0.0238828 -0.00418842  -0.0156282 -0.0276412 -0.00404191  -0.0168208 -0.0316184 -0.00389063  -0.01799 -0.035806 -0.00373697  -0.0191386 -0.0401927 -0.0035826  -0.0202658 -0.0447701 -0.00343037  -0.0213699 -0.0495274 -0.00328052  -0.0224501 -0.0544579 -0.00313377  -0.0235081 -0.0595521 -0.00299037  -0.0245433 -0.0648042 -0.00285077  -0.0255569 -0.0702047 -0.00271511  -0.0265481 -0.0757466 -0.00258243  -0.0275168 -0.0814216 -0.00245416  -0.0284624 -0.0872257 -0.00232935  -0.0293875 -0.0931508 -0.00220811  -0.0302922 -0.0991875 -0.00209045  -0.0311737 -0.105334 -0.00197613  -0.0320371 -0.111581 -0.0018661  -0.0328791 -0.117923 -0.00175905  -0.0337021 -0.124353 -0.00165439  -0.0345038 -0.130868 -0.00155425  -0.0352869 -0.137459 -0.0014571  -0.0360522 -0.144125 -0.00136304  -0.036798 -0.150856 -0.0012722  -0.0375264 -0.157649 -0.00118458  -0.0382361 -0.1645 -0.00110042  -0.038929 -0.171402 -0.00101936  -0.0396049 -0.178351 -0.000941277  -0.0402658 -0.185344 -0.000866771  -0.0409074 -0.192376 -0.000795484  -0.0415347 -0.199441 -0.000726342  -0.0421462 -0.206539 -0.000662327  -0.0427446 -0.213661 -0.000599504  -0.0433264 -0.220808 -0.000539899  -0.0438952 -0.227975 -0.000485063  -0.0444493 -0.235157 -0.000432014  -0.0449917 -0.242353 -0.0003829  -0.0455205 -0.249559 -0.000336647  -0.0460386 -0.256774 -0.000293612  -0.0465457 -0.263992 -0.000253201  -0.0470397 -0.271214 -0.000217199  -0.0475266 -0.278436 -0.000183344  -0.048002 -0.285656 -0.000152349  -0.0484676 -0.292871 -0.00012517  -0.0489259 -0.300082 -0.000100851  -0.0493751 -0.307286 -7.96318e-05  -0.0498195 -0.314481 -6.11544e-05  -0.0502534 -0.321667 -4.31538e-05  -0.0506833 -0.328843 -2.93255e-05  -0.0511062 -0.336008 -1.66893e-05  -0.0515261 -0.343161 -3.69549e-06  -0.0519423 -0.350303 9.41753e-06  -0.0523567 -0.357435 2.53916e-05  0 0 0  -0.000330295 -7.84546e-05 -0.00131118  -0.00109484 -0.000508621 -0.00221157  -0.00204796 -0.00136156 -0.00281429  -0.00307825 -0.00259385 -0.00321317  -0.00413516 -0.00417052 -0.00346303  -0.00519651 -0.00607245 -0.00360107  -0.00625005 -0.00828342 -0.00365543  -0.00729561 -0.0107879 -0.00365055  -0.00832814 -0.0135741 -0.00360382  -0.00934792 -0.0166288 -0.00352776  -0.0103558 -0.0199388 -0.00343227  -0.0113508 -0.0234911 -0.00332296  -0.0123341 -0.0272751 -0.00320685  -0.0133045 -0.0312784 -0.00308573  -0.0142628 -0.0354925 -0.00296295  -0.0152064 -0.0399062 -0.00284147  -0.0161356 -0.0445102 -0.00272071  -0.0170496 -0.0492952 -0.00260079  -0.0179507 -0.054252 -0.00248468  -0.018836 -0.0593746 -0.00237155  -0.0197059 -0.0646524 -0.00225973  -0.0205622 -0.0700799 -0.00215209  -0.0214021 -0.0756479 -0.00204575  -0.0222273 -0.081349 -0.00194407  -0.0230385 -0.0871788 -0.00184524  -0.0238334 -0.0931279 -0.00174868  -0.0246165 -0.0991899 -0.00165582  -0.025383 -0.105359 -0.00156438  -0.0261366 -0.111629 -0.00147772  -0.0268759 -0.117993 -0.00139177  -0.0276009 -0.124445 -0.00130951  -0.0283135 -0.13098 -0.00123096  -0.0290108 -0.137593 -0.00115287  -0.0296955 -0.144275 -0.00107872  -0.0303664 -0.151025 -0.00100636  -0.031024 -0.157837 -0.000937223  -0.0316699 -0.164704 -0.000870824  -0.0323012 -0.171622 -0.000806332  -0.032923 -0.178587 -0.000744581  -0.0335298 -0.185594 -0.000685692  -0.0341263 -0.192638 -0.000628829  -0.0347114 -0.199719 -0.000574946  -0.0352826 -0.206827 -0.000524044  -0.0358427 -0.213961 -0.000474453  -0.0363946 -0.221118 -0.000427246  -0.0369344 -0.228295 -0.000383973  -0.0374637 -0.235487 -0.000342488  -0.0379822 -0.242692 -0.000303864  -0.0384924 -0.249906 -0.000266194  -0.0389924 -0.257127 -0.000232816  -0.0394838 -0.264353 -0.000201583  -0.0399649 -0.271581 -0.000172615  -0.0404396 -0.278807 -0.000145793  -0.0409069 -0.286032 -0.000120997  -0.041364 -0.293253 -9.98974e-05  -0.0418174 -0.300468 -7.96318e-05  -0.0422611 -0.307676 -6.33001e-05  -0.042701 -0.314874 -4.87566e-05  -0.0431328 -0.322063 -3.38554e-05  -0.0435624 -0.329241 -2.24113e-05  -0.0439849 -0.336407 -1.27554e-05  -0.0444028 -0.343561 -2.02656e-06  -0.0448184 -0.350703 9.89437e-06  -0.0452332 -0.357828 2.43187e-05  0 0 0  -0.000234757 9.06587e-05 -0.000990987  -0.000782132 -0.000209063 -0.00166214  -0.00146542 -0.000990301 -0.00210452  -0.00220911 -0.0021908 -0.00239658  -0.00298128 -0.00376302 -0.00257933  -0.0037623 -0.00567278 -0.00268066  -0.00454405 -0.00789863 -0.00272202  -0.00532308 -0.0104226 -0.00271893  -0.0060963 -0.0132293 -0.00268424  -0.00686634 -0.0163045 -0.00262761  -0.00763035 -0.0196353 -0.00255573  -0.00839013 -0.0232091 -0.00247443  -0.00914294 -0.0270135 -0.0023874  -0.00989175 -0.0310399 -0.00229657  -0.0106356 -0.0352762 -0.00220466  -0.011373 -0.0397129 -0.00211382  -0.0121036 -0.0443386 -0.00202227  -0.0128282 -0.0491465 -0.00193334  -0.0135458 -0.0541277 -0.00184631  -0.0142561 -0.059273 -0.00176096  -0.0149585 -0.0645743 -0.00167859  -0.0156552 -0.0700241 -0.00159693  -0.0163428 -0.0756138 -0.00151837  -0.0170236 -0.0813392 -0.00144172  -0.0176963 -0.0871898 -0.0013684  -0.0183607 -0.0931599 -0.00129712  -0.0190184 -0.0992433 -0.00122702  -0.0196699 -0.105433 -0.00115943  -0.020309 -0.111723 -0.00109434  -0.0209434 -0.118106 -0.00103116  -0.021569 -0.124577 -0.000969291  -0.0221888 -0.13113 -0.000909925  -0.0227973 -0.13776 -0.000852108  -0.0233996 -0.14446 -0.000796914  -0.0239944 -0.151225 -0.000743508  -0.0245798 -0.158051 -0.000691891  -0.0251586 -0.164933 -0.000642657  -0.0257289 -0.171865 -0.000594497  -0.0262916 -0.178844 -0.000549912  -0.0268459 -0.185863 -0.000505447  -0.0273917 -0.19292 -0.000463247  -0.0279305 -0.20001 -0.000423431  -0.028461 -0.207129 -0.000385284  -0.0289845 -0.214274 -0.000348687  -0.0295014 -0.221441 -0.000314593  -0.0300083 -0.228625 -0.000282407  -0.0305104 -0.235826 -0.000251412  -0.0310047 -0.243038 -0.000222564  -0.0314925 -0.250259 -0.000195742  -0.0319726 -0.257487 -0.000171065  -0.0324469 -0.264718 -0.000146627  -0.0329127 -0.271951 -0.000126362  -0.0333753 -0.279183 -0.000106215  -0.0338299 -0.286412 -8.84533e-05  -0.0342798 -0.293637 -7.35521e-05  -0.0347254 -0.300855 -5.88894e-05  -0.0351632 -0.308066 -4.6134e-05  -0.0355971 -0.315268 -3.50475e-05  -0.0360272 -0.322459 -2.44379e-05  -0.0364516 -0.329639 -1.64509e-05  -0.0368712 -0.336807 -8.34465e-06  -0.0372875 -0.343961 5.96046e-07  -0.0377028 -0.351101 1.0252e-05  -0.0381162 -0.358224 2.02656e-05  0 0 0  -0.000148505 0.000193179 -0.000660777  -0.000493765 -2.37525e-05 -0.00110507  -0.000925034 -0.000753462 -0.00139642  -0.00139832 -0.00193056 -0.00158715  -0.00189459 -0.00349563 -0.00170684  -0.00240165 -0.00541025 -0.00177383  -0.00291255 -0.00764722 -0.00180149  -0.00342688 -0.0101859 -0.00179946  -0.00394386 -0.0130083 -0.00177634  -0.00446188 -0.0160996 -0.00173903  -0.00498253 -0.0194466 -0.00169086  -0.00550389 -0.0230377 -0.00163615  -0.00602823 -0.0268614 -0.0015775  -0.00655544 -0.0309048 -0.00151682  -0.00708401 -0.0351586 -0.00145578  -0.00761497 -0.0396129 -0.00139427  -0.00814652 -0.0442586 -0.001333  -0.00867832 -0.0490862 -0.00127304  -0.00921154 -0.0540858 -0.00121462  -0.00974655 -0.0592503 -0.00115764  -0.0102808 -0.0645709 -0.00110257  -0.0108153 -0.0700397 -0.00104833  -0.0113493 -0.07565 -0.000996113  -0.0118836 -0.0813932 -0.00094521  -0.0124172 -0.0872621 -0.000895619  -0.0129496 -0.0932503 -0.000847459  -0.0134816 -0.0993518 -0.000801086  -0.0140107 -0.105558 -0.000757098  -0.0145389 -0.111865 -0.000712991  -0.0150658 -0.118264 -0.000671506  -0.0155904 -0.124752 -0.000630498  -0.0161138 -0.131319 -0.00059247  -0.0166345 -0.137964 -0.00055325  -0.0171521 -0.144678 -0.000516891  -0.017668 -0.151457 -0.00048244  -0.0181794 -0.158297 -0.000448465  -0.0186894 -0.16519 -0.000414968  -0.0191958 -0.172135 -0.000384212  -0.0196989 -0.179124 -0.000354171  -0.0201969 -0.186155 -0.000325441  -0.0206943 -0.193222 -0.000298381  -0.0211852 -0.200321 -0.00027144  -0.0216718 -0.207449 -0.000246286  -0.022156 -0.214603 -0.000223279  -0.0226374 -0.221777 -0.000200629  -0.0231137 -0.22897 -0.000179648  -0.0235841 -0.236176 -0.00015986  -0.0240512 -0.243394 -0.000140667  -0.0245147 -0.250621 -0.000123858  -0.0249739 -0.257854 -0.000108123  -0.0254292 -0.26509 -9.27448e-05  -0.0258803 -0.272327 -7.80821e-05  -0.0263281 -0.279564 -6.6638e-05  -0.0267696 -0.286797 -5.56707e-05  -0.0272105 -0.294023 -4.49419e-05  -0.0276453 -0.301245 -3.57628e-05  -0.0280764 -0.308459 -2.81334e-05  -0.0285048 -0.315663 -2.03848e-05  -0.0289288 -0.322857 -1.43051e-05  -0.0293496 -0.330038 -8.70228e-06  -0.0297678 -0.337207 -3.93391e-06  -0.0301821 -0.344362 1.90735e-06  -0.0305958 -0.3515 8.22544e-06  -0.0310056 -0.35862 1.66893e-05  0 0 0  -6.59004e-05 0.000241309 -0.000324011  -0.000219941 6.67572e-05 -0.000542998  -0.000411928 -0.000637263 -0.000687003  -0.000625774 -0.00180054 -0.000781894  -0.000851482 -0.00336328 -0.000840902  -0.00108886 -0.00528237 -0.000874996  -0.00133073 -0.00752836 -0.000888944  -0.00158307 -0.0100769 -0.00088799  -0.00184309 -0.0129112 -0.000876307  -0.00211066 -0.0160152 -0.000856876  -0.00238591 -0.0193755 -0.000832438  -0.00267184 -0.0229795 -0.000804543  -0.00296652 -0.0268159 -0.000774145  -0.00327045 -0.0308734 -0.000742912  -0.00358427 -0.035142 -0.000711441  -0.00390661 -0.0396113 -0.000680089  -0.00423884 -0.0442718 -0.000648499  -0.00457954 -0.0491143 -0.000617623  -0.00492787 -0.0541294 -0.000587344  -0.0052855 -0.0593098 -0.000558853  -0.00564992 -0.0646461 -0.000530005  -0.00602329 -0.0701306 -0.000502944  -0.00640178 -0.0757554 -0.00047636  -0.00678861 -0.0815141 -0.000449896  -0.00718069 -0.0873981 -0.000426054  -0.00757897 -0.0934018 -0.000401497  -0.00798309 -0.0995177 -0.000378132  -0.00839293 -0.105738 -0.000356793  -0.00880706 -0.112059 -0.00033474  -0.00922644 -0.118472 -0.000314832  -0.00964892 -0.124972 -0.000293612  -0.0100756 -0.131553 -0.000275016  -0.0105052 -0.138208 -0.000256181  -0.0109379 -0.144935 -0.000237584  -0.0113723 -0.151725 -0.000221491  -0.011811 -0.158575 -0.00020504  -0.0122495 -0.165479 -0.000188828  -0.0126908 -0.172433 -0.00017345  -0.0131321 -0.179432 -0.000158906  -0.0135767 -0.18647 -0.000146389  -0.0140195 -0.193546 -0.000132561  -0.0144629 -0.200652 -0.000119686  -0.0149066 -0.207788 -0.000108361  -0.0153503 -0.214948 -9.72748e-05  -0.0157921 -0.222129 -8.57115e-05  -0.0162342 -0.229326 -7.689e-05  -0.0166767 -0.236538 -6.74725e-05  -0.0171151 -0.243762 -5.85318e-05  -0.0175543 -0.250994 -5.13792e-05  -0.0179911 -0.258231 -4.41074e-05  -0.0184257 -0.26547 -3.70741e-05  -0.0188615 -0.272711 -3.016e-05  -0.0192916 -0.279949 -2.563e-05  -0.0197208 -0.287185 -2.0504e-05  -0.0201485 -0.294416 -1.51396e-05  -0.0205741 -0.30164 -1.20401e-05  -0.0209975 -0.308855 -8.70228e-06  -0.0214188 -0.316061 -5.84126e-06  -0.0218384 -0.323255 -3.93391e-06  -0.0222549 -0.330439 -1.3113e-06  -0.0226691 -0.337609 1.3113e-06  -0.0230808 -0.344764 2.74181e-06  -0.0234921 -0.351902 5.84126e-06  -0.0238996 -0.359018 9.77516e-06  0 0 0  1.394e-05 0.000243902 1.51396e-05  4.65512e-05 7.27773e-05 2.08616e-05  8.67844e-05 -0.000629902 2.34842e-05  0.00012958 -0.00179443 2.20537e-05  0.000168473 -0.00336194 2.0504e-05  0.000200331 -0.00528777 1.91927e-05  0.000223249 -0.00754002 1.88351e-05  0.000233054 -0.0100967 1.89543e-05  0.000230491 -0.012939 1.89543e-05  0.000213087 -0.0160512 2.07424e-05  0.000180721 -0.0194205 2.13385e-05  0.000132799 -0.0230337 2.31266e-05  6.75321e-05 -0.0268801 2.53916e-05  -1.40667e-05 -0.0309473 2.74181e-05  -0.000112653 -0.035227 2.99215e-05  -0.000227153 -0.0397071 3.09944e-05  -0.000360131 -0.0443783 3.34978e-05  -0.000507712 -0.0492325 3.54052e-05  -0.000671268 -0.05426 3.70741e-05  -0.000850797 -0.0594514 3.86238e-05  -0.00104642 -0.0648001 3.96967e-05  -0.00125468 -0.0702968 4.08888e-05  -0.00148046 -0.0759333 4.14848e-05  -0.00171876 -0.0817036 4.22001e-05  -0.00196981 -0.0876002 4.25577e-05  -0.00223315 -0.0936157 4.30346e-05  -0.00250995 -0.0997426 4.26769e-05  -0.00279808 -0.105975 4.30346e-05  -0.0030973 -0.112306 4.33922e-05  -0.003407 -0.118729 4.23193e-05  -0.0037266 -0.125239 4.27961e-05  -0.00405681 -0.131831 4.12464e-05  -0.00439477 -0.138496 4.1008e-05  -0.00474143 -0.145231 4.04119e-05  -0.00509596 -0.15203 3.91006e-05  -0.00545812 -0.158889 3.85046e-05  -0.00582671 -0.165801 3.80278e-05  -0.00620174 -0.172762 3.68357e-05  -0.00658202 -0.179766 3.52859e-05  -0.0069685 -0.186812 3.42131e-05  -0.00735855 -0.193894 3.32594e-05  -0.00775385 -0.201007 3.15905e-05  -0.00815105 -0.208148 3.11136e-05  -0.00855446 -0.215313 2.93255e-05  -0.00895929 -0.222498 2.81334e-05  -0.00936842 -0.2297 2.65837e-05  -0.00977707 -0.236916 2.52724e-05  -0.0101888 -0.244143 2.3365e-05  -0.0106008 -0.251378 2.30074e-05  -0.0110154 -0.258617 2.11e-05  -0.0114307 -0.265861 1.91927e-05  -0.0118458 -0.273103 1.80006e-05  -0.0122616 -0.280344 1.68085e-05  -0.0126774 -0.287582 1.60933e-05  -0.0130925 -0.294815 1.32322e-05  -0.0135074 -0.302039 1.15633e-05  -0.0139229 -0.309255 1.03712e-05  -0.0143371 -0.316462 9.05991e-06  -0.0147498 -0.323659 7.51019e-06  -0.0151634 -0.330842 4.88758e-06  -0.0155716 -0.338012 5.126e-06  -0.0159824 -0.345168 3.09944e-06  -0.016391 -0.352305 1.78814e-06  -0.0167956 -0.359421 1.90735e-06  0 0 0  9.32291e-05 0.000202537 0.000352621  0.000311136 -2.38419e-06 0.000582814  0.000585616 -0.000729322 0.00072968  0.00088191 -0.00191134 0.000823021  0.00118607 -0.00348938 0.000879407  0.00148544 -0.00542259 0.000910044  0.00177383 -0.00768173 0.000922918  0.00204593 -0.010244 0.000921845  0.00230092 -0.0130908 0.000911832  0.00253218 -0.0162083 0.000893593  0.00274402 -0.019582 0.00087297  0.00293201 -0.0232008 0.000849128  0.00309592 -0.0270533 0.000822783  0.00323588 -0.0311273 0.000795841  0.00335264 -0.0354133 0.000768542  0.00344467 -0.0399009 0.000741005  0.00351214 -0.0445797 0.00071466  0.00355685 -0.0494419 0.000687242  0.00357783 -0.054477 0.000661135  0.00357592 -0.059678 0.000634551  0.00355053 -0.0650339 0.000608683  0.0035032 -0.0705398 0.000584483  0.00343454 -0.0761856 0.000559449  0.00334537 -0.0819643 0.000534415  0.00323606 -0.0878692 0.000511646  0.00310683 -0.0938925 0.000487685  0.00295734 -0.100028 0.000464678  0.00279236 -0.106268 0.000442624  0.00260746 -0.112607 0.00042069  0.00240743 -0.119039 0.00039947  0.00218999 -0.125556 0.000378132  0.00195813 -0.132154 0.000358224  0.00171113 -0.138827 0.000337958  0.00145054 -0.145568 0.000319242  0.00117683 -0.152374 0.000300169  0.000890732 -0.159238 0.000281096  0.000592947 -0.166155 0.000263929  0.000283003 -0.173121 0.000247359  -3.40939e-05 -0.180132 0.000231028  -0.000364542 -0.187182 0.000213981  -0.000701427 -0.194268 0.000199199  -0.00104761 -0.201385 0.000183344  -0.00140071 -0.20853 0.000169635  -0.00176334 -0.215697 0.000155926  -0.00212932 -0.222886 0.000142932  -0.00250268 -0.230091 0.000130177  -0.00288057 -0.23731 0.00011754  -0.00326419 -0.244538 0.000106096  -0.0036509 -0.251775 9.62019e-05  -0.00404191 -0.259017 8.58307e-05  -0.00443649 -0.266261 7.56979e-05  -0.00483346 -0.273506 6.65188e-05  -0.00523329 -0.280748 5.79357e-05  -0.00563526 -0.287986 5.01871e-05  -0.00603962 -0.295219 4.33922e-05  -0.00644279 -0.302445 3.65973e-05  -0.00684881 -0.309661 2.95639e-05  -0.00725555 -0.316868 2.31266e-05  -0.00766349 -0.324064 1.93119e-05  -0.00807095 -0.331247 1.40667e-05  -0.00847816 -0.338418 8.82149e-06  -0.00888586 -0.345573 4.17233e-06  -0.00929189 -0.352711 -8.34465e-07  -0.00969362 -0.359828 -6.79493e-06  0 0 0  0.000174798 0.000115693 0.00068593  0.000582561 -0.000160873 0.00114012  0.00109439 -0.000936806 0.00143194  0.00165093 -0.0021497 0.00161958  0.00222203 -0.00374645 0.00173533  0.00279179 -0.00568956 0.0017997  0.00334615 -0.00795323 0.00182605  0.00387937 -0.0105177 0.00182331  0.0043897 -0.013366 0.00180268  0.00487244 -0.0164842 0.00176799  0.00532562 -0.0198596 0.00172281  0.00574869 -0.023481 0.00167322  0.00614202 -0.0273357 0.00162017  0.00650436 -0.0314124 0.00156426  0.00683343 -0.0357018 0.00150752  0.00713301 -0.040193 0.00145209  0.00740087 -0.044877 0.00139546  0.00763655 -0.0497426 0.00134015  0.0078423 -0.0547829 0.00128543  0.00801623 -0.059988 0.00123191  0.00816131 -0.0653503 0.0011791  0.00827718 -0.0708603 0.00112772  0.00836337 -0.0765123 0.00107646  0.0084213 -0.0822964 0.00102735  0.0084523 -0.0882063 0.000980735  0.00845778 -0.0942354 0.000932813  0.00843632 -0.100375 0.000886917  0.00839186 -0.106621 0.00084281  0.00832212 -0.112965 0.000798345  0.00822985 -0.119401 0.000756741  0.00811625 -0.125923 0.000715256  0.00798082 -0.132525 0.000674605  0.00782585 -0.139202 0.000635028  0.00765038 -0.145947 0.000597477  0.00745773 -0.152757 0.00056076  0.00724745 -0.159624 0.000525355  0.00702047 -0.166545 0.000491142  0.00677729 -0.173514 0.000457525  0.00651932 -0.180528 0.000424385  0.00624728 -0.187581 0.00039351  0.00596166 -0.194668 0.000364065  0.00566626 -0.201787 0.000335693  0.00535655 -0.208933 0.00030899  0.00503731 -0.216104 0.000282049  0.00470686 -0.223294 0.000257492  0.00436926 -0.230499 0.000233173  0.00402141 -0.237719 0.00021112  0.00366664 -0.244949 0.000189543  0.003304 -0.252185 0.000168681  0.00293756 -0.259428 0.000150084  0.00256395 -0.266673 0.000131845  0.0021832 -0.273918 0.000115156  0.00179958 -0.281159 0.000100255  0.00141168 -0.288397 8.52346e-05  0.00101995 -0.29563 7.21216e-05  0.000625849 -0.302856 5.97239e-05  0.000226974 -0.310072 4.88758e-05  -0.000171661 -0.317278 3.91006e-05  -0.00057292 -0.324473 2.95639e-05  -0.000977993 -0.331656 2.09808e-05  -0.00138116 -0.338827 1.26362e-05  -0.00178695 -0.345981 5.36442e-06  -0.00219059 -0.353121 -4.17233e-06  -0.00259399 -0.36024 -1.46627e-05  0 0 0  0.000259027 -2.3663e-05 0.00101089  0.000865921 -0.000411749 0.00168717  0.00162712 -0.0012604 0.00212741  0.0024524 -0.00251681 0.00241256  0.00329718 -0.00413465 0.00259054  0.00413892 -0.00608808 0.00268877  0.00496092 -0.00835341 0.00272799  0.00575751 -0.0109169 0.00272608  0.00652212 -0.0137627 0.00269437  0.00725311 -0.016879 0.0026412  0.00794816 -0.0202531 0.00257444  0.00860667 -0.0238717 0.00249934  0.00922745 -0.0277265 0.00241935  0.00980961 -0.0318028 0.00233483  0.0103538 -0.0360918 0.00224853  0.0108598 -0.040584 0.00216353  0.011325 -0.0452678 0.00207877  0.0117528 -0.0501356 0.00199521  0.012141 -0.0551769 0.00191212  0.0124907 -0.060384 0.00183105  0.0128043 -0.0657471 0.00175154  0.0130816 -0.0712602 0.00167394  0.0133222 -0.0769134 0.00159812  0.0135279 -0.0827 0.00152338  0.0136989 -0.0886125 0.00145078  0.0138382 -0.0946432 0.00138009  0.0139451 -0.100785 0.00131083  0.0140201 -0.107033 0.00124383  0.0140644 -0.113379 0.00117826  0.014081 -0.119817 0.00111496  0.0140681 -0.126341 0.00105286  0.014029 -0.132945 0.000992656  0.0139654 -0.139624 0.00093472  0.0138752 -0.14637 0.000877261  0.0137625 -0.153181 0.00082171  0.0136271 -0.160049 0.000768304  0.0134706 -0.16697 0.000717878  0.0132906 -0.173941 0.000669241  0.0130951 -0.180955 0.000620365  0.0128794 -0.188007 0.000573397  0.0126469 -0.195096 0.000530362  0.0123971 -0.202215 0.000488043  0.0121331 -0.209362 0.000446916  0.0118527 -0.216531 0.000407815  0.01156 -0.223721 0.000371456  0.011256 -0.230926 0.000336051  0.0109384 -0.238145 0.000302076  0.0106111 -0.245374 0.000270963  0.0102737 -0.25261 0.000240684  0.0099256 -0.259852 0.000212669  0.00957251 -0.267096 0.000188112  0.00920892 -0.274338 0.000162482  0.00884128 -0.28158 0.000140786  0.00846553 -0.288818 0.000119567  0.00808334 -0.296048 0.000100017  0.00769973 -0.303272 8.36849e-05  0.00731182 -0.310488 6.71148e-05  0.006917 -0.317692 5.31673e-05  0.00652099 -0.324886 3.98159e-05  0.00612092 -0.332069 2.86102e-05  0.00572062 -0.339237 1.70469e-05  0.00531745 -0.346392 6.07967e-06  0.00491619 -0.353532 -5.48363e-06  0.00451374 -0.360655 -1.90735e-05  0 0 0  0.000349402 -0.000228465 0.00132275  0.00117041 -0.000772119 0.0022217  0.00219785 -0.00171459 0.00281668  0.00330535 -0.00301856 0.00320721  0.00443372 -0.00465846 0.00344932  0.0055517 -0.00661737 0.00358307  0.0066441 -0.00888181 0.00363612  0.00770169 -0.0114403 0.00363302  0.00872231 -0.0142806 0.00359023  0.00970155 -0.017391 0.0035193  0.010637 -0.0207596 0.00343084  0.0115287 -0.0243748 0.00333011  0.0123761 -0.0282238 0.00322175  0.0131781 -0.0322974 0.00310957  0.0139346 -0.0365837 0.00299525  0.0146443 -0.0410723 0.0028801  0.0153073 -0.0457541 0.00276625  0.0159248 -0.0506198 0.00265443  0.0164952 -0.0556591 0.00254309  0.0170206 -0.0608637 0.00243449  0.0175011 -0.0662268 0.00232804  0.0179397 -0.0717379 0.00222325  0.0183328 -0.0773895 0.00212193  0.0186844 -0.0831751 0.00202179  0.0189958 -0.0890869 0.00192499  0.0192662 -0.0951174 0.00183082  0.0194986 -0.101259 0.00173807  0.019693 -0.107505 0.00164783  0.0198504 -0.11385 0.00156009  0.0199732 -0.120287 0.00147498  0.0200628 -0.126811 0.00139332  0.0201187 -0.133413 0.00131166  0.0201437 -0.140091 0.00123346  0.020138 -0.146836 0.0011586  0.0201032 -0.153645 0.00108588  0.020041 -0.160512 0.00101483  0.0199528 -0.167433 0.000945807  0.01984 -0.174401 0.000880003  0.0197005 -0.181413 0.000815511  0.0195405 -0.188465 0.000754595  0.0193594 -0.195551 0.00069654  0.0191567 -0.202668 0.000639558  0.0189347 -0.209812 0.000585556  0.0186951 -0.21698 0.000533938  0.0184381 -0.224167 0.000485063  0.0181649 -0.231371 0.000437975  0.0178769 -0.238588 0.000394225  0.0175753 -0.245815 0.000351548  0.0172622 -0.253049 0.000312805  0.0169339 -0.260288 0.000275612  0.0165977 -0.26753 0.000240445  0.0162523 -0.27477 0.000208855  0.0158963 -0.282009 0.000179291  0.0155332 -0.289244 0.000152588  0.0151637 -0.296474 0.000127316  0.0147872 -0.303695 0.000105381  0.0144033 -0.310908 8.4281e-05  0.0140152 -0.318111 6.6638e-05  0.0136247 -0.325303 5.10216e-05  0.0132289 -0.332483 3.54052e-05  0.0128305 -0.339651 2.19345e-05  0.0124292 -0.346805 8.46386e-06  0.0120275 -0.353946 -5.84126e-06  0.0116272 -0.361074 -2.15769e-05  0 0 0  0.000448577 -0.000516415 0.00161994  0.00150785 -0.00126731 0.00274968  0.00282462 -0.00231457 0.00351012  0.00423115 -0.00366598 0.00401354  0.00565338 -0.00532156 0.00432134  0.00705421 -0.00727969 0.00448906  0.0084177 -0.0095365 0.00455523  0.00973755 -0.0120854 0.00455022  0.0110118 -0.0149157 0.00449598  0.0122367 -0.0180178 0.00440753  0.0134129 -0.021378 0.00429654  0.014538 -0.024985 0.00417018  0.0156118 -0.0288283 0.00403488  0.0166325 -0.0328947 0.00389385  0.0176002 -0.0371746 0.00375021  0.0185128 -0.0416583 0.00360608  0.0193721 -0.0463344 0.00346386  0.0201774 -0.0511945 0.00332105  0.0209296 -0.0562297 0.00318217  0.021628 -0.0614301 0.00304449  0.022275 -0.0667875 0.00291085  0.0228707 -0.0722944 0.00277972  0.0234159 -0.0779421 0.00265133  0.0239121 -0.083723 0.00252676  0.0243593 -0.0896306 0.00240469  0.0247626 -0.0956566 0.00228524  0.0251173 -0.101794 0.00217009  0.0254289 -0.108037 0.00205624  0.0256985 -0.114378 0.00194633  0.0259266 -0.120812 0.0018394  0.0261146 -0.127331 0.00173628  0.0262635 -0.13393 0.00163412  0.0263762 -0.140604 0.00153661  0.026453 -0.147345 0.00144172  0.0264957 -0.15415 0.00135028  0.0265052 -0.161014 0.00126171  0.0264843 -0.167931 0.00117528  0.0264323 -0.174895 0.00109231  0.0263536 -0.181903 0.00101268  0.0262454 -0.18895 0.000935793  0.0261128 -0.196034 0.000862122  0.025955 -0.203146 0.000790834  0.0257759 -0.210287 0.00072372  0.0255728 -0.21745 0.000659943  0.0253491 -0.224634 0.000597358  0.0251062 -0.231833 0.000539541  0.0248456 -0.239047 0.000484824  0.0245693 -0.246269 0.000432253  0.024276 -0.253501 0.000382185  0.0239701 -0.260736 0.000336289  0.0236502 -0.267973 0.00029397  0.0233171 -0.27521 0.000254154  0.0229731 -0.282447 0.000217438  0.0226209 -0.289679 0.000184178  0.0222585 -0.296904 0.000152946  0.0218902 -0.304124 0.000125527  0.021512 -0.311333 0.000101566  0.0211279 -0.318534 7.78437e-05  0.0207393 -0.325723 5.87702e-05  0.0203454 -0.332901 4.17233e-05  0.0199492 -0.340067 2.65837e-05  0.0195489 -0.34722 1.03712e-05  0.0191491 -0.354362 -4.88758e-06  0.0187492 -0.361492 -2.21729e-05  0 0 0  0.000566326 -0.000919282 0.00190938  0.00188842 -0.00192714 0.00328577  0.00352736 -0.00308317 0.0042398  0.00525653 -0.00446719 0.00485325  0.00698215 -0.00612253 0.00522149  0.00866985 -0.00806934 0.00541878  0.0103048 -0.0103125 0.00549471  0.011887 -0.0128475 0.00548768  0.013415 -0.0156657 0.00542068  0.0148872 -0.0187554 0.00531435  0.0163022 -0.0221051 0.00518024  0.0176603 -0.0257019 0.00502813  0.0189587 -0.0295353 0.00486481  0.020197 -0.0335929 0.00469434  0.021373 -0.0378643 0.0045203  0.0224884 -0.0423382 0.00434661  0.0235418 -0.0470065 0.0041734  0.0245343 -0.0518585 0.00400162  0.0254655 -0.0568852 0.00383389  0.0263352 -0.0620781 0.00366807  0.0271456 -0.0674273 0.00350547  0.0278981 -0.0729272 0.00334752  0.0285925 -0.0785675 0.00319242  0.0292311 -0.0843415 0.00304055  0.0298142 -0.0902416 0.00289321  0.0303438 -0.0962601 0.0027492  0.0308218 -0.102392 0.0026089  0.031249 -0.108628 0.0024724  0.0316259 -0.114962 0.0023396  0.0319582 -0.121389 0.00221014  0.0322433 -0.127902 0.00208545  0.0324843 -0.134495 0.0019623  0.0326815 -0.141162 0.00184453  0.0328379 -0.147898 0.0017302  0.0329552 -0.154696 0.00161862  0.0330353 -0.161554 0.00151134  0.0330794 -0.168464 0.00140786  0.0330865 -0.175422 0.0013082  0.0330615 -0.182425 0.00121033  0.0330064 -0.189467 0.0011183  0.0329206 -0.196543 0.00102973  0.0328057 -0.203649 0.000944376  0.0326622 -0.210784 0.000862837  0.0324957 -0.217942 0.00078547  0.032305 -0.22512 0.000710607  0.0320914 -0.232314 0.000639796  0.0318575 -0.239521 0.00057435  0.0316007 -0.246739 0.000511289  0.0313282 -0.253964 0.000451922  0.0310371 -0.261194 0.000395894  0.0307319 -0.268427 0.000344753  0.0304112 -0.275661 0.000295997  0.030077 -0.282892 0.000252724  0.0297315 -0.290119 0.000212312  0.029377 -0.29734 0.000176072  0.0290115 -0.304555 0.000143051  0.0286355 -0.311762 0.000114679  0.0282557 -0.318958 8.91685e-05  0.0278678 -0.326145 6.59227e-05  0.0274746 -0.333319 4.63724e-05  0.0270789 -0.340483 2.90871e-05  0.0266783 -0.347635 1.39475e-05  0.0262764 -0.354778 -4.17233e-06  0.0258746 -0.361913 -2.06232e-05  0 0 0  0.000683241 -0.00147194 0.0022136  0.0023347 -0.00278544 0.00393629  0.00434308 -0.00403076 0.00504851  0.00641277 -0.00541937 0.00575089  0.00844553 -0.00705528 0.00616908  0.0104173 -0.00897795 0.0063926  0.0123263 -0.0112004 0.00647783  0.0141727 -0.0137172 0.00646555  0.0159568 -0.0165193 0.00638533  0.0176775 -0.0195953 0.00625777  0.0193331 -0.0229326 0.00609839  0.020924 -0.0265181 0.00591803  0.0224478 -0.0303393 0.00572419  0.0239018 -0.0343856 0.00552297  0.0252872 -0.0386447 0.00531793  0.0266038 -0.0431083 0.00511169  0.0278492 -0.047765 0.00490785  0.0290245 -0.0526068 0.00470531  0.0301317 -0.0576227 0.00450695  0.031171 -0.0628036 0.00431097  0.0321429 -0.0681428 0.00411928  0.0330478 -0.0736317 0.00393295  0.0338885 -0.0792626 0.00374997  0.0346674 -0.0850266 0.00357211  0.0353825 -0.0909173 0.00339746  0.0360388 -0.0969269 0.00322783  0.0366331 -0.103048 0.00306284  0.0371748 -0.109275 0.00290155  0.0376581 -0.1156 0.00274503  0.0380896 -0.122017 0.00259197  0.0384674 -0.128521 0.00244391  0.0387974 -0.135105 0.00230002  0.039078 -0.141763 0.00216091  0.0393121 -0.14849 0.00202596  0.0395031 -0.155281 0.00189507  0.0396481 -0.162129 0.00176847  0.0397546 -0.169031 0.00164557  0.0398192 -0.175981 0.00152826  0.0398486 -0.182975 0.00141466  0.0398381 -0.190008 0.00130594  0.0397966 -0.197077 0.0012002  0.0397222 -0.204176 0.00109959  0.0396175 -0.211302 0.00100267  0.0394843 -0.218454 0.000911593  0.0393188 -0.225624 0.000824451  0.0391316 -0.23281 0.000741124  0.0389168 -0.24001 0.000663161  0.038682 -0.24722 0.000589013  0.0384238 -0.25444 0.000519514  0.0381486 -0.261663 0.000453115  0.037853 -0.26889 0.00039351  0.0375421 -0.276116 0.000337124  0.0372133 -0.283342 0.000285268  0.0368726 -0.290564 0.000236988  0.0365193 -0.29778 0.000195622  0.0361567 -0.304991 0.000157595  0.0357828 -0.312192 0.000123382  0.0353994 -0.319384 9.50098e-05  0.0350115 -0.326567 7.03335e-05  0.0346158 -0.333739 4.87566e-05  0.0342185 -0.3409 3.0756e-05  0.0338159 -0.348052 1.50204e-05  0.0334134 -0.355194 -1.54972e-06  0.0330095 -0.362331 -1.72853e-05  0 0 0  0.00103246 -0.00223356 0.00285125  0.00306585 -0.00382048 0.00469542  0.00537835 -0.00511628 0.00592065  0.007734 -0.00648141 0.00671458  0.0100525 -0.00808287 0.00719333  0.0123088 -0.0099746 0.00744581  0.0144994 -0.0121723 0.00753796  0.016617 -0.0146693 0.00751841  0.018665 -0.0174556 0.00741851  0.0206403 -0.0205178 0.00726497  0.0225409 -0.0238402 0.00707412  0.0243663 -0.0274126 0.00686157  0.0261144 -0.0312203 0.0066328  0.0277837 -0.0352527 0.00639772  0.0293759 -0.0395009 0.00615883  0.0308895 -0.0439512 0.00591779  0.0323235 -0.0485942 0.00568056  0.0336823 -0.0534218 0.00544548  0.0349627 -0.0584257 0.00521493  0.036167 -0.0635947 0.00498688  0.0372972 -0.0689209 0.00476563  0.0383521 -0.074397 0.00454772  0.0393378 -0.0800155 0.00433505  0.0402501 -0.0857673 0.00412941  0.0410938 -0.0916456 0.00392699  0.0418707 -0.0976437 0.00372958  0.0425847 -0.103754 0.0035367  0.0432327 -0.109969 0.00335073  0.0438204 -0.116281 0.00316918  0.0443476 -0.122689 0.00299144  0.0448167 -0.129181 0.00282025  0.0452306 -0.135754 0.00265217  0.0455909 -0.142402 0.00249088  0.0458984 -0.149118 0.00233388  0.0461574 -0.155898 0.00218189  0.0463662 -0.162736 0.00203598  0.046531 -0.169627 0.00189388  0.0466487 -0.176566 0.00175714  0.0467265 -0.183551 0.00162494  0.0467622 -0.190574 0.00149798  0.0467615 -0.197633 0.00137544  0.0467219 -0.204723 0.00125945  0.046649 -0.21184 0.00114679  0.0465419 -0.218981 0.00104117  0.0464053 -0.226142 0.000939846  0.0462368 -0.233319 0.00084269  0.0460427 -0.240511 0.000751376  0.0458214 -0.247715 0.000665545  0.045578 -0.254923 0.000584602  0.0453105 -0.262141 0.000508666  0.045023 -0.269359 0.000439525  0.0447176 -0.276579 0.00037384  0.0443916 -0.283797 0.00031352  0.0440528 -0.291012 0.000259161  0.0436988 -0.298224 0.00020957  0.0433309 -0.305428 0.000166535  0.0429547 -0.312624 0.000128269  0.0425665 -0.319812 9.57251e-05  0.0421717 -0.32699 6.96182e-05  0.0417714 -0.334158 4.74453e-05  0.0413685 -0.341316 2.88486e-05  0.0409598 -0.348465 1.43051e-05  0.0405548 -0.355608 -2.38419e-07  0.0401478 -0.362746 -1.57356e-05  0 0 0  -0.001064 -0.00245685 -0.00223285  -0.00296873 -0.00393446 -0.00384372  -0.00514774 -0.00525503 -0.00499403  -0.00743192 -0.0066333 -0.00576854  -0.0097391 -0.00819499 -0.00625497  -0.012024 -0.0100021 -0.00652421  -0.0142654 -0.0120821 -0.00663376  -0.0164564 -0.0144394 -0.0066275  -0.0185921 -0.01707 -0.00654131  -0.0206732 -0.0199645 -0.00639915  -0.0226982 -0.0231099 -0.00621903  -0.024666 -0.026498 -0.00601631  -0.0265808 -0.0301158 -0.00580055  -0.028443 -0.0339523 -0.00557625  -0.0302509 -0.0379991 -0.00535071  -0.0320048 -0.042246 -0.0051266  -0.0337086 -0.0466847 -0.00490469  -0.0353631 -0.0513049 -0.00468576  -0.0369674 -0.0560988 -0.00447506  -0.0385244 -0.0610601 -0.00426763  -0.040033 -0.0661794 -0.00406617  -0.0414957 -0.0714505 -0.0038715  -0.0429133 -0.0768671 -0.00368029  -0.044286 -0.0824183 -0.00349706  -0.0456151 -0.0881015 -0.00331801  -0.0469038 -0.0939089 -0.0031448  -0.0481488 -0.0998319 -0.0029763  -0.0493532 -0.105869 -0.00281316  -0.0505183 -0.112009 -0.00265467  -0.0516464 -0.118246 -0.00250012  -0.0527352 -0.124578 -0.0023517  -0.0537865 -0.130996 -0.00220805  -0.0548024 -0.137494 -0.00206822  -0.0557833 -0.144069 -0.00193292  -0.0567298 -0.150715 -0.00180393  -0.0576453 -0.157426 -0.00167912  -0.0585258 -0.164198 -0.00155807  -0.0593758 -0.171026 -0.00144196  -0.0601966 -0.177904 -0.00133109  -0.0609851 -0.184829 -0.00122309  -0.0617449 -0.191795 -0.00112069  -0.0624788 -0.198801 -0.0010227  -0.0631866 -0.20584 -0.000928044  -0.0638673 -0.212909 -0.000839412  -0.0645239 -0.220006 -0.000754833  -0.0651567 -0.227124 -0.000674725  -0.0657675 -0.234262 -0.000600874  -0.0663557 -0.241418 -0.000527918  -0.0669239 -0.248585 -0.000461817  -0.0674727 -0.255765 -0.00039959  -0.0680015 -0.262951 -0.000342727  -0.0685143 -0.270144 -0.000290453  -0.0690117 -0.277341 -0.000241458  -0.0694938 -0.284536 -0.000198245  -0.0699613 -0.291731 -0.000159502  -0.0704138 -0.298924 -0.000124693  -0.0708613 -0.306112 -9.55462e-05  -0.0712931 -0.313295 -7.06315e-05  -0.0717196 -0.320469 -4.9293e-05  -0.0721393 -0.327638 -3.34382e-05  -0.0725543 -0.334798 -1.91927e-05  -0.0729649 -0.34195 -9.05991e-06  -0.073375 -0.349097 3.21865e-06  -0.0737853 -0.356237 1.33514e-05  0 0 0  -0.000666548 -0.0015645 -0.00173432  -0.00217524 -0.00287921 -0.00320119  -0.00403957 -0.00416884 -0.00423461  -0.00603251 -0.00557007 -0.00492311  -0.00805178 -0.00717601 -0.00535327  -0.0100482 -0.00903469 -0.00559121  -0.012007 -0.0111654 -0.00569004  -0.0139222 -0.0135716 -0.00568914  -0.01579 -0.0162487 -0.00561917  -0.0176097 -0.019189 -0.00550061  -0.0193853 -0.0223797 -0.00534922  -0.0211169 -0.0258099 -0.00517732  -0.0228034 -0.0294693 -0.00499284  -0.0244463 -0.0333491 -0.00480205  -0.026046 -0.0374374 -0.00460947  -0.0276035 -0.0417249 -0.00441712  -0.0291197 -0.0462026 -0.00422674  -0.0305941 -0.0508632 -0.00403935  -0.0320272 -0.0556972 -0.00385714  -0.0334201 -0.0606968 -0.00367963  -0.034775 -0.0658553 -0.00350612  -0.0360905 -0.071164 -0.00333846  -0.0373683 -0.076615 -0.00317472  -0.0386088 -0.0822042 -0.00301677  -0.0398134 -0.087922 -0.00286198  -0.0409815 -0.0937627 -0.00271249  -0.0421157 -0.0997204 -0.00256759  -0.0432158 -0.105787 -0.00242674  -0.044282 -0.111958 -0.00229144  -0.0453163 -0.118226 -0.00215852  -0.0463184 -0.124586 -0.00203127  -0.0472898 -0.131032 -0.00190651  -0.0482302 -0.137557 -0.00178659  -0.0491419 -0.144158 -0.00167084  -0.0500231 -0.150828 -0.00155938  -0.0508766 -0.157563 -0.00145203  -0.0517025 -0.164358 -0.00134653  -0.0525019 -0.171205 -0.00124747  -0.0532763 -0.178104 -0.0011515  -0.054024 -0.185048 -0.00105977  -0.0547478 -0.192034 -0.000970662  -0.0554485 -0.199055 -0.000886559  -0.0561268 -0.206111 -0.000806272  -0.0567803 -0.213196 -0.000729024  -0.057415 -0.220305 -0.000656784  -0.0580287 -0.227437 -0.000588059  -0.0586219 -0.234588 -0.000523627  -0.0591979 -0.241754 -0.000461578  -0.0597553 -0.248934 -0.000404119  -0.0602963 -0.256121 -0.000351131  -0.0608199 -0.263317 -0.000302672  -0.0613298 -0.270517 -0.000256717  -0.0618234 -0.27772 -0.000215352  -0.0623062 -0.284923 -0.000177801  -0.0627754 -0.292123 -0.000144064  -0.0632346 -0.29932 -0.000114441  -0.0636826 -0.306512 -8.86321e-05  -0.0641224 -0.313698 -6.6936e-05  -0.0645545 -0.320876 -4.75645e-05  -0.0649798 -0.328045 -3.11732e-05  -0.0653999 -0.335207 -1.84774e-05  -0.0658164 -0.342357 -6.79493e-06  -0.0662298 -0.349502 4.17233e-06  -0.0666411 -0.356641 1.66893e-05  0 0 0  -0.0005234 -0.000976488 -0.00148159  -0.00168583 -0.00203103 -0.00265652  -0.00319545 -0.00323597 -0.00353587  -0.00485587 -0.004632 -0.00413018  -0.0065597 -0.00626808 -0.0045042  -0.00825664 -0.00816967 -0.00471365  -0.00992784 -0.0103454 -0.00480276  -0.011564 -0.0127969 -0.00480616  -0.0131642 -0.0155188 -0.00474977  -0.0147285 -0.0184992 -0.00465131  -0.0162556 -0.0217293 -0.00452363  -0.017749 -0.0251993 -0.00437963  -0.0192074 -0.0288973 -0.00422472  -0.0206308 -0.0328147 -0.00406402  -0.0220202 -0.0369401 -0.00390124  -0.0233771 -0.0412648 -0.00373805  -0.0247004 -0.0457804 -0.00357753  -0.0259913 -0.0504772 -0.00341982  -0.027249 -0.0553471 -0.0032652  -0.0284752 -0.0603821 -0.00311488  -0.0296719 -0.0655759 -0.00296837  -0.030836 -0.0709183 -0.00282615  -0.0319694 -0.0764042 -0.00268853  -0.0330743 -0.0820259 -0.0025534  -0.0341492 -0.0877758 -0.00242329  -0.0351961 -0.0936482 -0.00229728  -0.0362144 -0.0996357 -0.00217444  -0.0372051 -0.105732 -0.00205582  -0.0381681 -0.111932 -0.00194079  -0.0391064 -0.118228 -0.00182867  -0.0400189 -0.124614 -0.00172019  -0.0409038 -0.131085 -0.00161475  -0.0417662 -0.137637 -0.00151438  -0.0426018 -0.144261 -0.00141585  -0.0434163 -0.150954 -0.00132155  -0.0442076 -0.157711 -0.00123161  -0.0449753 -0.164525 -0.00114238  -0.0457199 -0.171394 -0.00105846  -0.0464449 -0.178311 -0.000977457  -0.0471475 -0.185273 -0.000899494  -0.047832 -0.192275 -0.000824511  -0.0484936 -0.199313 -0.000754118  -0.0491381 -0.206384 -0.000685692  -0.0497646 -0.213483 -0.000620127  -0.0503709 -0.220606 -0.00055927  -0.0509622 -0.22775 -0.000501692  -0.0515358 -0.234913 -0.000445783  -0.0520952 -0.242089 -0.000395  -0.0526378 -0.249278 -0.00034678  -0.0531666 -0.256475 -0.000301361  -0.0536814 -0.263679 -0.000259876  -0.054184 -0.270886 -0.000222147  -0.0546744 -0.278095 -0.000186801  -0.0551524 -0.285305 -0.000154912  -0.0556197 -0.29251 -0.000126898  -0.0560796 -0.299712 -0.00010097  -0.0565279 -0.306908 -7.89165e-05  -0.0569696 -0.314096 -5.88894e-05  -0.0574045 -0.321277 -4.33922e-05  -0.057831 -0.328449 -2.93255e-05  -0.058254 -0.33561 -1.67489e-05  -0.0586712 -0.342762 -5.78165e-06  -0.0590878 -0.349905 5.126e-06  -0.0595009 -0.35704 1.72257e-05  0 0 0  -0.000399508 -0.000570416 -0.001243  -0.00130497 -0.00139937 -0.00219965  -0.00249875 -0.00249463 -0.00290483  -0.00383429 -0.00386272 -0.0033927  -0.00522244 -0.00550999 -0.00370502  -0.00661927 -0.00744069 -0.00388056  -0.00800216 -0.00965361 -0.00395703  -0.00936297 -0.0121429 -0.00396234  -0.0106968 -0.0148993 -0.00391692  -0.0120036 -0.0179156 -0.0038349  -0.0132839 -0.021181 -0.00373155  -0.0145379 -0.0246852 -0.0036127  -0.0157656 -0.0284172 -0.00348437  -0.016969 -0.0323677 -0.00335139  -0.0181466 -0.0365266 -0.00321788  -0.0192991 -0.0408845 -0.00308371  -0.0204281 -0.0454322 -0.00295061  -0.0215327 -0.0501616 -0.00282061  -0.0226133 -0.0550631 -0.00269276  -0.0236702 -0.0601311 -0.00256854  -0.0247034 -0.0653548 -0.00244749  -0.0257119 -0.0707288 -0.00233024  -0.0266995 -0.0762449 -0.0022158  -0.0276637 -0.0818954 -0.00210553  -0.028607 -0.087675 -0.0019989  -0.0295273 -0.0935759 -0.00189364  -0.0304264 -0.0995909 -0.00179261  -0.0313048 -0.105714 -0.00169516  -0.0321634 -0.11194 -0.00159979  -0.0330018 -0.118261 -0.00150698  -0.0338193 -0.124671 -0.00141788  -0.0346175 -0.131167 -0.00133216  -0.0353961 -0.137739 -0.00124872  -0.0361559 -0.144386 -0.00116748  -0.0368977 -0.1511 -0.00109053  -0.0376213 -0.157876 -0.00101507  -0.0383284 -0.16471 -0.000941813  -0.039017 -0.171596 -0.000873089  -0.0396893 -0.178531 -0.000806093  -0.0403433 -0.18551 -0.000742078  -0.0409818 -0.192527 -0.000680864  -0.0416048 -0.199581 -0.000622094  -0.042213 -0.206664 -0.000566483  -0.042805 -0.213774 -0.000513375  -0.0433853 -0.220911 -0.000462174  -0.0439498 -0.228066 -0.000414193  -0.0445013 -0.235239 -0.000370264  -0.0450408 -0.242425 -0.000327229  -0.0455651 -0.249622 -0.000287652  -0.0460784 -0.256829 -0.000250638  -0.0465825 -0.26404 -0.00021714  -0.047075 -0.271254 -0.000184655  -0.0475562 -0.278469 -0.000156283  -0.0480282 -0.285683 -0.000130773  -0.0484924 -0.292894 -0.000107467  -0.0489478 -0.3001 -8.56519e-05  -0.0493946 -0.3073 -6.70552e-05  -0.0498357 -0.314492 -5.07832e-05  -0.0502691 -0.321676 -3.80874e-05  -0.0506968 -0.328849 -2.51532e-05  -0.0511205 -0.336012 -1.40071e-05  -0.0515382 -0.343163 -2.5034e-06  -0.0519545 -0.350306 7.56979e-06  -0.0523686 -0.357436 1.9908e-05  0 0 0  -0.000299674 -0.000291958 -0.0010044  -0.000982776 -0.00094302 -0.00176007  -0.00189428 -0.00193866 -0.00231147  -0.00292675 -0.00326738 -0.00269139  -0.00401059 -0.00491241 -0.00293738  -0.00511032 -0.00686078 -0.00307733  -0.00620714 -0.00909914 -0.00313896  -0.0072923 -0.0116165 -0.00314432  -0.00836068 -0.0144035 -0.00310838  -0.00940907 -0.0174499 -0.00304431  -0.0104413 -0.0207448 -0.00296164  -0.0114559 -0.0242782 -0.00286686  -0.0124543 -0.028039 -0.002765  -0.0134338 -0.0320177 -0.00265896  -0.014398 -0.0362053 -0.00255191  -0.015346 -0.0405919 -0.0024451  -0.016278 -0.0451671 -0.0023396  -0.0171942 -0.049924 -0.00223625  -0.0180925 -0.0548557 -0.00213492  -0.0189763 -0.0599501 -0.00203532  -0.0198447 -0.0652019 -0.0019393  -0.0206971 -0.0706033 -0.00184667  -0.0215352 -0.0761457 -0.00175548  -0.0223567 -0.0818233 -0.00166798  -0.0231642 -0.0876277 -0.00158185  -0.023957 -0.0935537 -0.00149924  -0.0247355 -0.0995931 -0.00141883  -0.025499 -0.10574 -0.0013414  -0.0262479 -0.111989 -0.00126559  -0.0269825 -0.118332 -0.00119293  -0.0277045 -0.124765 -0.00112176  -0.0284115 -0.13128 -0.00105363  -0.0291054 -0.137873 -0.000988007  -0.0297852 -0.144539 -0.000923932  -0.0304527 -0.151271 -0.000862539  -0.0311077 -0.158064 -0.000802457  -0.0317485 -0.164915 -0.000745237  -0.0323782 -0.171818 -0.000690758  -0.0329943 -0.178769 -0.000637233  -0.0335989 -0.185761 -0.000586927  -0.0341914 -0.192793 -0.000537694  -0.0347726 -0.199858 -0.000491917  -0.0353389 -0.206954 -0.00044775  -0.0358982 -0.214077 -0.000405252  -0.0364451 -0.221224 -0.000365794  -0.0369811 -0.228389 -0.000327706  -0.0375073 -0.23557 -0.000292301  -0.038023 -0.242766 -0.000259101  -0.0385299 -0.249971 -0.000228226  -0.039027 -0.257185 -0.000198841  -0.0395138 -0.264402 -0.000171602  -0.0399942 -0.271623 -0.000146449  -0.0404656 -0.278843 -0.000124335  -0.0409298 -0.286062 -0.000104666  -0.0413852 -0.293277 -8.51154e-05  -0.0418348 -0.300487 -6.85453e-05  -0.0422785 -0.307692 -5.37634e-05  -0.042716 -0.314887 -4.07696e-05  -0.0431468 -0.322072 -2.98023e-05  -0.0435734 -0.329248 -1.96695e-05  -0.0439949 -0.336412 -1.055e-05  -0.0444129 -0.343565 -1.43051e-06  -0.0448289 -0.350706 8.58307e-06  -0.0452428 -0.357833 1.97887e-05  0 0 0  -0.000212532 -0.000107259 -0.000758827  -0.000699088 -0.00062868 -0.00132233  -0.00135352 -0.00154379 -0.00172949  -0.00210053 -0.0028367 -0.00200868  -0.00289145 -0.00447425 -0.0021891  -0.00370213 -0.00643 -0.00229293  -0.00451669 -0.00868478 -0.0023393  -0.00532573 -0.0112252 -0.00234318  -0.00612783 -0.0140361 -0.00231671  -0.00692034 -0.0171069 -0.00226843  -0.00770396 -0.0204262 -0.00220627  -0.00847757 -0.0239829 -0.00213575  -0.00924325 -0.0277679 -0.0020591  -0.0100006 -0.0317705 -0.00197941  -0.01075 -0.0359814 -0.0018996  -0.0114905 -0.0403917 -0.00181866  -0.0122226 -0.0449918 -0.0017401  -0.0129488 -0.0497733 -0.00166219  -0.013665 -0.0547273 -0.00158644  -0.0143739 -0.0598459 -0.00151205  -0.0150758 -0.0651219 -0.00143987  -0.0157691 -0.0705457 -0.00137037  -0.0164551 -0.0761118 -0.00130224  -0.017133 -0.081812 -0.00123709  -0.0178027 -0.0876388 -0.00117266  -0.0184653 -0.0935856 -0.00111109  -0.0191194 -0.0996472 -0.00105137  -0.0197654 -0.105814 -0.000993013  -0.0204035 -0.112083 -0.000937462  -0.0210329 -0.118446 -0.000882149  -0.0216562 -0.124897 -0.000829637  -0.0222704 -0.131431 -0.000779152  -0.0228777 -0.138041 -0.000730395  -0.0234766 -0.144724 -0.000682056  -0.0240679 -0.151472 -0.000636399  -0.0246503 -0.158281 -0.000592053  -0.0252235 -0.165147 -0.000549972  -0.0257924 -0.172064 -0.000508964  -0.02635 -0.179026 -0.000469506  -0.0269017 -0.186032 -0.000432312  -0.0274458 -0.193075 -0.00039649  -0.0279813 -0.200152 -0.000360966  -0.0285082 -0.207259 -0.000329316  -0.0290291 -0.214392 -0.000298381  -0.0295415 -0.221548 -0.000268579  -0.0300493 -0.228722 -0.000240207  -0.0305464 -0.235912 -0.000213981  -0.031038 -0.243115 -0.000190377  -0.0315237 -0.250326 -0.000166416  -0.0320015 -0.257546 -0.000145078  -0.0324724 -0.264769 -0.000125587  -0.0329373 -0.271995 -0.00010705  -0.0333953 -0.279221 -9.06587e-05  -0.0338507 -0.286444 -7.58171e-05  -0.0342975 -0.293663 -6.18696e-05  -0.0347388 -0.300877 -5.00083e-05  -0.0351758 -0.308084 -3.95775e-05  -0.0356088 -0.315281 -3.02196e-05  -0.0360367 -0.322469 -2.22921e-05  -0.0364602 -0.329646 -1.35899e-05  -0.0368803 -0.336812 -6.25849e-06  -0.0372963 -0.343965 7.7486e-07  -0.0377114 -0.351104 7.33137e-06  -0.0381238 -0.358228 1.67489e-05  0 0 0  -0.000134125 5.81145e-06 -0.000506699  -0.000439219 -0.000430822 -0.000879884  -0.000853673 -0.00129026 -0.00114924  -0.00133196 -0.00255507 -0.00133252  -0.00184137 -0.00418445 -0.00145096  -0.00236821 -0.00614509 -0.00152028  -0.00290218 -0.00841317 -0.00155032  -0.00343922 -0.0109689 -0.0015533  -0.00397497 -0.0137978 -0.00153613  -0.00450957 -0.0168872 -0.00150347  -0.00504398 -0.0202254 -0.00146157  -0.0055775 -0.0238022 -0.00141329  -0.00611079 -0.027606 -0.00136131  -0.00664377 -0.031628 -0.00130862  -0.0071767 -0.0358585 -0.0012545  -0.00770885 -0.0402883 -0.00120068  -0.00824153 -0.0449088 -0.00114757  -0.008775 -0.0497097 -0.00109535  -0.00930965 -0.0546828 -0.00104392  -0.00984323 -0.0598221 -0.000994384  -0.0103759 -0.0651167 -0.000946403  -0.0109078 -0.0705611 -0.000899673  -0.0114409 -0.0761465 -0.00085479  -0.011972 -0.0818655 -0.000810266  -0.0125026 -0.0877114 -0.000768065  -0.0130318 -0.0936772 -0.000726521  -0.0135615 -0.0997552 -0.00068748  -0.014088 -0.105941 -0.000648081  -0.0146142 -0.112226 -0.000611186  -0.0151378 -0.118605 -0.000575364  -0.015661 -0.125073 -0.000540555  -0.0161796 -0.131622 -0.00050658  -0.0166972 -0.138247 -0.000474095  -0.0172119 -0.144944 -0.000442386  -0.0177245 -0.151706 -0.000412107  -0.0182359 -0.158529 -0.00038296  -0.0187414 -0.165406 -0.000355482  -0.0192451 -0.172334 -0.000328422  -0.0197444 -0.179309 -0.000302792  -0.0202403 -0.186326 -0.000278473  -0.0207343 -0.193379 -0.000254691  -0.0212226 -0.200465 -0.0002321  -0.0217094 -0.207581 -0.000210762  -0.0221915 -0.214722 -0.000190198  -0.0226684 -0.221884 -0.000171244  -0.0231414 -0.229067 -0.000153363  -0.0236115 -0.236264 -0.000136018  -0.0240772 -0.243472 -0.000120282  -0.024539 -0.25069 -0.000105143  -0.0249953 -0.257914 -9.14335e-05  -0.0254478 -0.265144 -7.82609e-05  -0.0258977 -0.272373 -6.72936e-05  -0.0263424 -0.279603 -5.64456e-05  -0.0267832 -0.28683 -4.673e-05  -0.027221 -0.294051 -3.80874e-05  -0.0276551 -0.301269 -3.03984e-05  -0.0280855 -0.308477 -2.34842e-05  -0.028511 -0.315678 -1.75238e-05  -0.0289364 -0.322867 -1.19209e-05  -0.0293558 -0.330047 -6.67572e-06  -0.0297735 -0.337213 -2.32458e-06  -0.0301878 -0.344366 1.19209e-06  -0.0306001 -0.351504 6.19888e-06  -0.0310113 -0.358625 1.23978e-05  0 0 0  -6.00033e-05 6.181e-05 -0.000249445  -0.000195675 -0.0003317 -0.000434279  -0.000382453 -0.00116244 -0.000567496  -0.000598788 -0.00241214 -0.000659168  -0.000834763 -0.00403821 -0.000718474  -0.00108275 -0.0060032 -0.00075227  -0.00134051 -0.00828061 -0.000768423  -0.00160405 -0.0108478 -0.000769615  -0.001876 -0.0136898 -0.000760257  -0.00215352 -0.0167932 -0.000744164  -0.00243831 -0.0201457 -0.000722528  -0.00273013 -0.0237361 -0.000697911  -0.00303078 -0.0275554 -0.000670731  -0.00333744 -0.0315924 -0.000643611  -0.00365466 -0.0358377 -0.000614762  -0.0039798 -0.0402837 -0.000586569  -0.00431216 -0.0449189 -0.000559807  -0.00465298 -0.0497354 -0.000532866  -0.00500154 -0.0547259 -0.000506938  -0.00535786 -0.0598803 -0.00048089  -0.00572002 -0.0651915 -0.000456095  -0.00609231 -0.0706512 -0.000432432  -0.00646961 -0.0762521 -0.000409484  -0.00685441 -0.0819875 -0.000387192  -0.00724459 -0.0878481 -0.000365376  -0.00764263 -0.0938287 -0.000344872  -0.00804424 -0.0999224 -0.000325263  -0.0084511 -0.106121 -0.000305057  -0.00886309 -0.112421 -0.000287056  -0.00927973 -0.118814 -0.000269592  -0.00970006 -0.125294 -0.000252485  -0.0101243 -0.131856 -0.000236332  -0.010551 -0.138494 -0.000219047  -0.0109816 -0.145202 -0.000203907  -0.0114143 -0.151975 -0.000188947  -0.0118494 -0.158808 -0.000175178  -0.0122867 -0.165696 -0.000161767  -0.0127268 -0.172635 -0.000149071  -0.0131657 -0.179618 -0.000135362  -0.0136068 -0.186643 -0.00012362  -0.0140486 -0.193705 -0.000112951  -0.0144899 -0.200799 -0.00010246  -0.0149326 -0.207921 -9.2268e-05  -0.0153735 -0.215069 -8.33273e-05  -0.0158138 -0.222238 -7.38502e-05  -0.0162551 -0.229425 -6.50883e-05  -0.0166936 -0.236628 -5.75185e-05  -0.017132 -0.243842 -5.07236e-05  -0.0175691 -0.251063 -4.27365e-05  -0.0180042 -0.258292 -3.71933e-05  -0.0184386 -0.265524 -3.08156e-05  -0.0188706 -0.272758 -2.64645e-05  -0.0193002 -0.279991 -2.06828e-05  -0.0197306 -0.28722 -1.69277e-05  -0.0201559 -0.294445 -1.37687e-05  -0.0205793 -0.301663 -1.00136e-05  -0.0210035 -0.308874 -7.27177e-06  -0.0214238 -0.316076 -4.76837e-06  -0.0218406 -0.323268 -3.33786e-06  -0.0222585 -0.330447 -1.54972e-06  -0.0226717 -0.337615 2.38419e-07  -0.0230837 -0.344768 2.08616e-06  -0.0234947 -0.351906 4.88758e-06  -0.0239017 -0.359024 7.45058e-06  0 0 0  1.24052e-05 6.74725e-05 9.89437e-06  4.07398e-05 -0.000320852 1.36495e-05  7.73817e-05 -0.001149 1.41263e-05  0.000114113 -0.00239992 1.29938e-05  0.00014782 -0.00402981 1.13845e-05  0.000176251 -0.00600189 1.03712e-05  0.000195324 -0.00828514 9.77516e-06  0.000201106 -0.0108604 9.35793e-06  0.000195086 -0.0137118 1.00136e-05  0.000175536 -0.0168241 1.07288e-05  0.000139117 -0.0201856 1.3113e-05  8.81553e-05 -0.0237872 1.46031e-05  2.11e-05 -0.0276159 1.67489e-05  -6.20484e-05 -0.031664 1.90139e-05  -0.000161111 -0.0359213 2.13385e-05  -0.000277817 -0.0403775 2.37226e-05  -0.000408411 -0.045025 2.5332e-05  -0.000557542 -0.0498537 2.71797e-05  -0.000721335 -0.054856 2.91467e-05  -0.000900149 -0.0600222 3.02792e-05  -0.00109422 -0.0653463 3.20673e-05  -0.00130308 -0.070818 3.31402e-05  -0.00152659 -0.0764307 3.43919e-05  -0.00176227 -0.0821774 3.46899e-05  -0.00201285 -0.0880506 3.52263e-05  -0.00227427 -0.0940436 3.57032e-05  -0.00255024 -0.100149 3.60012e-05  -0.00283575 -0.106359 3.618e-05  -0.00313473 -0.112669 3.63588e-05  -0.00344288 -0.119073 3.68357e-05  -0.0037595 -0.125563 3.57032e-05  -0.00408804 -0.132135 3.52263e-05  -0.00442457 -0.138782 3.43919e-05  -0.00476885 -0.1455 3.40939e-05  -0.00512338 -0.152281 3.34978e-05  -0.00548339 -0.159122 3.31998e-05  -0.00585032 -0.166019 3.24845e-05  -0.00622416 -0.172964 3.11136e-05  -0.00660205 -0.179955 3.02792e-05  -0.00698733 -0.186986 2.88486e-05  -0.00737619 -0.194054 2.79546e-05  -0.00776982 -0.201154 2.71201e-05  -0.00816631 -0.208283 2.65241e-05  -0.00856829 -0.215435 2.47359e-05  -0.00897169 -0.222609 2.49147e-05  -0.00937891 -0.2298 2.36034e-05  -0.00978637 -0.237006 2.16961e-05  -0.0101974 -0.244223 2.07424e-05  -0.0106084 -0.251449 1.87755e-05  -0.0110223 -0.25868 1.78814e-05  -0.0114362 -0.265916 1.60933e-05  -0.0118499 -0.273152 1.49608e-05  -0.0122645 -0.280386 1.51992e-05  -0.0126801 -0.287618 1.31726e-05  -0.0130959 -0.294844 1.13845e-05  -0.01351 -0.302064 1.07884e-05  -0.0139244 -0.309275 9.35793e-06  -0.0143378 -0.316478 8.16584e-06  -0.014751 -0.323671 6.67572e-06  -0.0151627 -0.330851 4.58956e-06  -0.0155728 -0.338018 3.09944e-06  -0.0159836 -0.345172 3.45707e-06  -0.0163906 -0.352309 2.5034e-06  -0.0167964 -0.359427 3.57628e-07  0 0 0  8.43182e-05 2.64049e-05 0.000268877  0.000276297 -0.000394225 0.000460386  0.000533879 -0.00124705 0.000594437  0.000826716 -0.0025146 0.000682712  0.00113156 -0.00415713 0.000738442  0.00143299 -0.00613642 0.000770569  0.00172704 -0.00842655 0.000784695  0.00200361 -0.0110072 0.000785828  0.00226164 -0.0138623 0.000777602  0.00249833 -0.0169799 0.000763178  0.00271088 -0.0203477 0.000745773  0.00290161 -0.023954 0.000724673  0.00306588 -0.0277895 0.000703096  0.00320756 -0.0318437 0.000678599  0.00332469 -0.0361071 0.000656068  0.00341761 -0.0405716 0.000632405  0.00348604 -0.0452268 0.000609219  0.00353062 -0.0500638 0.000586212  0.00355113 -0.0550739 0.000563204  0.00355029 -0.0602496 0.000541747  0.00352597 -0.0655808 0.000519395  0.00347888 -0.071062 0.000497699  0.00341117 -0.0766842 0.000477135  0.00332296 -0.082439 0.000457048  0.00321341 -0.0883215 0.000436127  0.00308585 -0.0943226 0.000416458  0.00293779 -0.100435 0.000397384  0.00277233 -0.106654 0.000377536  0.00258899 -0.112973 0.000359535  0.00238907 -0.119383 0.000341058  0.00217438 -0.125882 0.0003227  0.00194335 -0.13246 0.00030607  0.00169897 -0.139114 0.000289261  0.00143838 -0.145838 0.000273108  0.00116611 -0.152626 0.000255406  0.000881433 -0.159474 0.000240922  0.000584364 -0.166375 0.000225425  0.000275612 -0.173326 0.000211537  -4.24385e-05 -0.180321 0.000196397  -0.000370264 -0.187357 0.000182986  -0.000705719 -0.194429 0.000170052  -0.00105214 -0.201533 0.000156462  -0.00140381 -0.208666 0.000145316  -0.00176358 -0.215821 0.000133038  -0.00212908 -0.222998 0.00012213  -0.0025034 -0.230192 0.000110805  -0.00287962 -0.2374 0.000101089  -0.00326347 -0.24462 9.2268e-05  -0.00364923 -0.251847 8.21352e-05  -0.00404096 -0.25908 7.28369e-05  -0.00443316 -0.266318 6.49691e-05  -0.00483084 -0.273554 5.72801e-05  -0.0052309 -0.28079 5.01275e-05  -0.00563192 -0.288022 4.28557e-05  -0.0060358 -0.295248 3.60608e-05  -0.0064404 -0.302469 3.09944e-05  -0.00684619 -0.309682 2.61664e-05  -0.00725198 -0.316885 2.03252e-05  -0.00765848 -0.324077 1.51396e-05  -0.00806785 -0.331257 1.20401e-05  -0.0084722 -0.338426 7.62939e-06  -0.00888133 -0.345578 4.29153e-06  -0.00928617 -0.352716 -2.38419e-07  -0.009691 -0.359835 -5.06639e-06  0 0 0  0.000156991 -6.34193e-05 0.000523567  0.000518441 -0.000555217 0.000901937  0.00100379 -0.00145751 0.00117004  0.00155398 -0.00275922 0.00134915  0.00213069 -0.00441974 0.00146347  0.00271159 -0.00640875 0.00152868  0.00327978 -0.00870335 0.00155807  0.00382751 -0.0112861 0.00156003  0.00434911 -0.0141422 0.00154328  0.00484097 -0.0172601 0.00151503  0.00530201 -0.0206278 0.001477  0.00573158 -0.0242361 0.00143415  0.00612861 -0.0280737 0.00138783  0.00649452 -0.0321317 0.00133973  0.006827 -0.0363983 0.00129145  0.0071274 -0.0408657 0.00124204  0.00739622 -0.0455248 0.0011937  0.00763273 -0.0503662 0.00114626  0.00783801 -0.0553818 0.00109893  0.00801325 -0.0605615 0.00105304  0.00815868 -0.0658988 0.00100815  0.00827372 -0.0713848 0.000963628  0.0083611 -0.0770122 0.000920892  0.00841951 -0.0827733 0.00087893  0.00845087 -0.0886596 0.000837445  0.00845575 -0.0946655 0.000797272  0.0084362 -0.100784 0.000757754  0.00839174 -0.107009 0.000720441  0.00832307 -0.113332 0.00068295  0.00823092 -0.119748 0.000646651  0.00811756 -0.12625 0.00061059  0.00798273 -0.132833 0.000577033  0.0078299 -0.139492 0.000542998  0.00765491 -0.146219 0.000510871  0.00746202 -0.153012 0.000479341  0.00725126 -0.159862 0.000449002  0.00702643 -0.166766 0.000419617  0.00678182 -0.17372 0.000391066  0.00652528 -0.180718 0.00036341  0.00625515 -0.187757 0.000336826  0.00597048 -0.194831 0.000311494  0.00567317 -0.201936 0.000286698  0.00536489 -0.20907 0.000263274  0.00504661 -0.216228 0.000241637  0.00471616 -0.223406 0.000220239  0.00437808 -0.230601 0.000199139  0.00403023 -0.237811 0.000180244  0.00367665 -0.24503 0.000161529  0.0033133 -0.252259 0.000144005  0.00294518 -0.259493 0.000126779  0.00257039 -0.266728 0.000111878  0.00219226 -0.273966 9.81092e-05  0.0018084 -0.281201 8.49962e-05  0.00141907 -0.288433 7.24196e-05  0.00102735 -0.295661 6.12736e-05  0.000631571 -0.30288 5.16176e-05  0.000235558 -0.310092 4.13656e-05  -0.000165462 -0.317296 3.27229e-05  -0.000566959 -0.324487 2.58088e-05  -0.000971079 -0.331667 1.8239e-05  -0.0013752 -0.338834 1.07288e-05  -0.00177908 -0.345987 3.75509e-06  -0.00218296 -0.353125 -2.38419e-06  -0.00258613 -0.360247 -1.16825e-05  0 0 0  0.000234567 -0.000210106 0.000771105  0.000773028 -0.000812352 0.00133538  0.00149633 -0.00179094 0.00173908  0.00231558 -0.00313699 0.00201213  0.00317204 -0.00482088 0.0021866  0.00403237 -0.00681943 0.00228596  0.00487795 -0.00911605 0.00233096  0.0056954 -0.0116966 0.00233561  0.00647932 -0.0145492 0.00231087  0.00722682 -0.0176631 0.0022673  0.00793439 -0.0210283 0.00221008  0.00860274 -0.0246335 0.00214463  0.00923163 -0.028469 0.00207472  0.00981873 -0.0325252 0.00200135  0.0103657 -0.0367923 0.00192839  0.0108734 -0.0412598 0.00185335  0.011342 -0.045919 0.00178039  0.0117687 -0.0507616 0.00170773  0.0121582 -0.0557781 0.00163645  0.0125097 -0.0609601 0.00156707  0.0128229 -0.0662987 0.00149918  0.0130994 -0.0717867 0.00143212  0.0133414 -0.077416 0.00136715  0.0135469 -0.0831781 0.00130337  0.0137184 -0.0890676 0.00124121  0.0138566 -0.0950761 0.00117975  0.013962 -0.101197 0.00112128  0.0140382 -0.107423 0.00106448  0.0140831 -0.113748 0.00100774  0.0140984 -0.120166 0.000953615  0.0140874 -0.126669 0.000900388  0.0140479 -0.133255 0.000848651  0.0139854 -0.139914 0.000798464  0.0138943 -0.146644 0.000750124  0.0137811 -0.153436 0.000703454  0.0136456 -0.160288 0.000657976  0.013489 -0.167194 0.00061357  0.0133109 -0.174148 0.000570953  0.0131133 -0.181147 0.000530601  0.0128977 -0.188185 0.000490963  0.0126648 -0.19526 0.000453293  0.0124168 -0.202365 0.000417173  0.0121496 -0.209498 0.000381827  0.0118718 -0.216656 0.000348389  0.0115786 -0.223833 0.000317156  0.0112736 -0.231028 0.000287414  0.0109558 -0.238237 0.000258625  0.0106297 -0.245457 0.000231743  0.010289 -0.252684 0.000205696  0.00994325 -0.259916 0.000182092  0.00958753 -0.267151 0.000159323  0.00922537 -0.274387 0.00013864  0.00885487 -0.281621 0.000118911  0.00847983 -0.288852 0.000101805  0.00809765 -0.296078 8.57115e-05  0.00771189 -0.303297 7.04527e-05  0.00732183 -0.310507 5.76377e-05  0.00692654 -0.317708 4.49419e-05  0.00653076 -0.3249 3.40343e-05  0.00612998 -0.332078 2.39611e-05  0.00573063 -0.339245 1.4782e-05  0.00532866 -0.346398 5.126e-06  0.00492501 -0.353538 -4.47035e-06  0.00452662 -0.360661 -1.54972e-05  0 0 0  0.00031922 -0.000425696 0.00101078  0.00105172 -0.0011813 0.00176209  0.00202928 -0.00225979 0.00230497  0.00312808 -0.00365841 0.00267541  0.00427392 -0.00536525 0.00291282  0.00542015 -0.00736976 0.00304782  0.00654355 -0.00966322 0.00310719  0.00763237 -0.0122368 0.00311339  0.00867814 -0.0150807 0.00308126  0.00967884 -0.0181871 0.00302202  0.0106332 -0.0215449 0.00294721  0.0115383 -0.0251434 0.00285977  0.0123954 -0.0289738 0.00276566  0.0132055 -0.033025 0.00266874  0.013966 -0.0372881 0.00256896  0.0146784 -0.0417526 0.00247014  0.0153434 -0.0464092 0.00237125  0.0159619 -0.0512486 0.00227404  0.0165335 -0.0562631 0.00217897  0.0170596 -0.0614429 0.00208545  0.01754 -0.0667812 0.00199276  0.0179763 -0.0722677 0.00190341  0.0183712 -0.0778948 0.00181574  0.0187225 -0.0836561 0.0017308  0.0190321 -0.0895448 0.00164819  0.019303 -0.0955524 0.00156653  0.0195345 -0.101672 0.00148773  0.0197294 -0.107897 0.0014109  0.0198846 -0.114221 0.00133556  0.0200083 -0.120638 0.00126249  0.0200975 -0.127141 0.00119185  0.0201526 -0.133724 0.00112271  0.0201776 -0.140383 0.00105602  0.02017 -0.147111 0.000991583  0.0201368 -0.153902 0.00092864  0.0200741 -0.160752 0.000868022  0.019984 -0.167657 0.00080955  0.0198715 -0.174609 0.000753582  0.0197322 -0.181606 0.000698447  0.0195711 -0.188643 0.000645638  0.0193875 -0.195715 0.000595152  0.019186 -0.202819 0.000546873  0.0189629 -0.20995 0.000500679  0.0187216 -0.217105 0.00045675  0.0184639 -0.224281 0.000415027  0.0181899 -0.231473 0.000374556  0.0179024 -0.238679 0.000335872  0.0175991 -0.245896 0.000300586  0.0172839 -0.253121 0.000267684  0.0169578 -0.260352 0.00023514  0.0166192 -0.267585 0.000206292  0.016274 -0.274818 0.000178039  0.0159173 -0.282051 0.000153065  0.0155513 -0.289279 0.00012958  0.0151801 -0.296502 0.000108302  0.0148036 -0.30372 8.96454e-05  0.0144186 -0.310927 7.20024e-05  0.0140305 -0.318126 5.67436e-05  0.0136371 -0.325315 4.26769e-05  0.0132406 -0.332492 2.98023e-05  0.0128417 -0.339659 1.85966e-05  0.0124416 -0.346813 7.09295e-06  0.0120394 -0.353952 -4.64916e-06  0.0116401 -0.36108 -1.60336e-05  0 0 0  0.000414021 -0.000730932 0.0012399  0.00136425 -0.00168616 0.00218445  0.00261919 -0.00288087 0.00287437  0.00401786 -0.00433326 0.00334841  0.00546286 -0.00605804 0.00364876  0.00689948 -0.00806105 0.00381839  0.00830388 -0.010344 0.00389284  0.00966257 -0.0129036 0.00389987  0.0109696 -0.0157365 0.00385988  0.0122216 -0.0188293 0.00378597  0.0134187 -0.0221751 0.00369149  0.0145598 -0.0257642 0.00358158  0.0156463 -0.0295856 0.0034644  0.0166751 -0.0336291 0.00334322  0.0176469 -0.0378836 0.00321847  0.0185647 -0.0423419 0.0030933  0.0194266 -0.0469936 0.00297022  0.0202326 -0.0518269 0.00284755  0.0209846 -0.0568357 0.00272745  0.0216852 -0.0620106 0.00260907  0.022331 -0.0673432 0.00249386  0.0229256 -0.072825 0.00238091  0.0234711 -0.0784482 0.00227112  0.0239655 -0.0842062 0.00216389  0.0244135 -0.09009 0.00205868  0.0248137 -0.0960938 0.00195771  0.0251687 -0.102209 0.001858  0.0254796 -0.10843 0.00176138  0.0257494 -0.11475 0.0016669  0.0259756 -0.121163 0.00157529  0.026163 -0.127663 0.00148654  0.0263116 -0.134242 0.00139976  0.0264249 -0.140897 0.00131607  0.0264976 -0.147621 0.00123483  0.0265412 -0.154408 0.00115633  0.0265496 -0.161255 0.00108027  0.0265276 -0.168155 0.00100648  0.0264752 -0.175104 0.000935376  0.0263941 -0.182097 0.000866354  0.0262866 -0.189129 0.000801146  0.0261531 -0.196197 0.000738263  0.0259933 -0.203297 0.000677228  0.0258126 -0.210425 0.000619769  0.0256107 -0.217576 0.000564337  0.0253839 -0.224747 0.000512302  0.025142 -0.231936 0.00046128  0.0248799 -0.239138 0.000413835  0.0246017 -0.246351 0.000369012  0.0243077 -0.253572 0.000327468  0.0239997 -0.260799 0.000287056  0.0236769 -0.268028 0.000250936  0.023345 -0.275258 0.000217021  0.0229971 -0.282486 0.000184953  0.022644 -0.289713 0.000156522  0.022279 -0.296932 0.000131249  0.0219085 -0.304146 0.000106454  0.0215294 -0.311351 8.54135e-05  0.0211449 -0.318548 6.70552e-05  0.020756 -0.325734 5.09024e-05  0.0203614 -0.332909 3.61204e-05  0.019963 -0.340073 2.28286e-05  0.0195625 -0.347226 9.41753e-06  0.0191619 -0.354369 -3.99351e-06  0.0187597 -0.361499 -1.78218e-05  0 0 0  0.000530981 -0.00115889 0.0014658  0.00173236 -0.00235522 0.00261629  0.00329752 -0.00367475 0.00347137  0.00501415 -0.00517029 0.00404537  0.00676575 -0.00689757 0.00440592  0.00849703 -0.00888878 0.00460631  0.0101808 -0.0111529 0.00469387  0.0118073 -0.0136941 0.00470096  0.0133741 -0.0165061 0.00465125  0.0148766 -0.0195835 0.00456291  0.0163165 -0.0229157 0.00444949  0.017692 -0.026491 0.004318  0.0190043 -0.0303002 0.00417709  0.0202514 -0.0343331 0.00402951  0.0214347 -0.0385778 0.00388002  0.0225544 -0.0430258 0.00372916  0.0236105 -0.0476679 0.00357962  0.0246038 -0.0524934 0.0034318  0.0255352 -0.0574935 0.003286  0.0264055 -0.06266 0.00314415  0.0272146 -0.0679849 0.00300467  0.0279664 -0.0734585 0.00286794  0.0286604 -0.0790754 0.0027349  0.0292984 -0.084825 0.00260562  0.0298795 -0.0907022 0.00247866  0.0304084 -0.0966982 0.00235587  0.030885 -0.102807 0.00223541  0.0313118 -0.109022 0.00211847  0.0316883 -0.115335 0.0020045  0.0320179 -0.121741 0.0018937  0.0323019 -0.128234 0.00178576  0.0325413 -0.134807 0.00168133  0.0327375 -0.141455 0.00158018  0.0328939 -0.148173 0.00148177  0.0330114 -0.154954 0.00138664  0.0330887 -0.161794 0.00129539  0.0331326 -0.168688 0.00120592  0.0331395 -0.175631 0.00111973  0.0331123 -0.182618 0.00103819  0.0330555 -0.189643 0.000958145  0.0329688 -0.196705 0.000882566  0.0328526 -0.2038 0.000808597  0.0327106 -0.210921 0.00073874  0.0325403 -0.218066 0.000672281  0.0323467 -0.225231 0.0006091  0.0321321 -0.232414 0.00054878  0.0318959 -0.239611 0.000491142  0.0316386 -0.246818 0.000436306  0.0313635 -0.254034 0.000386357  0.0310712 -0.261255 0.000339329  0.0307629 -0.26848 0.000293791  0.0304418 -0.275706 0.000253558  0.0301056 -0.28293 0.000216067  0.0297585 -0.290151 0.000181139  0.0294003 -0.297367 0.000150383  0.0290327 -0.304577 0.000122488  0.0286572 -0.311778 9.72152e-05  0.0282731 -0.318972 7.56979e-05  0.0278852 -0.326155 5.6684e-05  0.0274901 -0.333327 3.93987e-05  0.0270944 -0.34049 2.48551e-05  0.0266926 -0.347641 1.18017e-05  0.0262914 -0.354783 -2.32458e-06  0.0258889 -0.361919 -1.7643e-05  0 0 0  0.000663541 -0.00175542 0.00170213  0.00220433 -0.00322866 0.00312841  0.00411879 -0.00464571 0.00412357  0.00616074 -0.00616091 0.00478268  0.00821635 -0.00787538 0.00519305  0.0102344 -0.00983953 0.00542307  0.0121947 -0.0120772 0.00552106  0.0140885 -0.0145932 0.00552678  0.0159128 -0.0173844 0.00546753  0.0176663 -0.0204416 0.00536376  0.0193483 -0.0237562 0.00522923  0.020958 -0.0273162 0.00507474  0.0224951 -0.0311103 0.00490832  0.0239598 -0.0351294 0.00473499  0.0253515 -0.0393621 0.00455844  0.026672 -0.0437976 0.00438148  0.0279202 -0.0484266 0.00420535  0.0290987 -0.053241 0.00403112  0.030207 -0.0582305 0.00385976  0.0312455 -0.0633853 0.00369245  0.032216 -0.0686991 0.00352776  0.0331213 -0.0741635 0.0033673  0.0339615 -0.0797689 0.00321043  0.0347384 -0.0855092 0.00305766  0.0354519 -0.0913764 0.00290829  0.0361069 -0.0973634 0.00276339  0.0367008 -0.103463 0.00262254  0.0372394 -0.109667 0.00248355  0.0377239 -0.115971 0.00234973  0.0381533 -0.122369 0.00221932  0.0385315 -0.128852 0.0020926  0.0388598 -0.135417 0.0019694  0.0391393 -0.142056 0.00185025  0.0393715 -0.148764 0.00173378  0.0395608 -0.155537 0.00162238  0.039705 -0.162368 0.00151432  0.0398099 -0.169254 0.00140947  0.0398738 -0.176188 0.00130898  0.0399005 -0.183166 0.00121123  0.039891 -0.190185 0.00111717  0.0398486 -0.197239 0.001028  0.0397716 -0.204324 0.000941396  0.0396643 -0.211437 0.000859797  0.0395286 -0.218575 0.00078094  0.0393639 -0.225734 0.000706017  0.0391726 -0.232908 0.000635087  0.0389588 -0.240098 0.000567198  0.0387216 -0.247299 0.000503898  0.0384622 -0.254507 0.000445068  0.0381846 -0.261723 0.00038904  0.0378871 -0.268941 0.000336468  0.0375748 -0.27616 0.000288844  0.0372436 -0.283379 0.000245035  0.036901 -0.290594 0.000204861  0.036546 -0.297806 0.000168025  0.0361805 -0.30501 0.00013572  0.0358043 -0.312207 0.000106037  0.0354204 -0.319396 8.24928e-05  0.0350301 -0.326576 6.04391e-05  0.0346353 -0.333746 4.31538e-05  0.0342352 -0.340906 2.73585e-05  0.0338318 -0.348057 1.29938e-05  0.0334282 -0.355198 -5.36442e-07  0.0330253 -0.362337 -1.54972e-05  0 0 0  0.00105383 -0.00264889 0.00217623  0.00298791 -0.00429904 0.00372475  0.00520444 -0.00575906 0.00481939  0.00752169 -0.00726449 0.00555557  0.00984725 -0.0089497 0.00601757  0.0121359 -0.0108834 0.00627679  0.0143651 -0.0130916 0.00638771  0.0165247 -0.0155798 0.0063917  0.0186081 -0.0183486 0.00632042  0.0206124 -0.0213857 0.00619906  0.0225375 -0.0246804 0.00604224  0.0243796 -0.0282235 0.0058617  0.0261424 -0.0320029 0.00566792  0.0278232 -0.0360056 0.00546622  0.0294214 -0.0402227 0.00526124  0.0309402 -0.0446444 0.00505692  0.0323783 -0.04926 0.00485259  0.0337385 -0.0540605 0.00465029  0.03502 -0.0590367 0.00445217  0.0362253 -0.0641788 0.00425941  0.0373548 -0.0694779 0.00406957  0.0384091 -0.0749292 0.00388342  0.0393922 -0.0805228 0.00370228  0.0403062 -0.0862507 0.0035249  0.0411489 -0.092105 0.00335193  0.0419264 -0.09808 0.00318491  0.042637 -0.104167 0.00302041  0.043285 -0.110361 0.00286043  0.0438718 -0.116654 0.00270635  0.0443982 -0.12304 0.00255632  0.0448672 -0.129512 0.00240922  0.0452797 -0.136065 0.00226593  0.0456398 -0.142693 0.00212741  0.0459456 -0.14939 0.00199389  0.0462029 -0.156152 0.00186497  0.0464129 -0.162974 0.00173855  0.0465736 -0.169848 0.00161856  0.046695 -0.176772 0.00150162  0.0467699 -0.183741 0.00138903  0.0468063 -0.190749 0.00128043  0.0468032 -0.197793 0.00117743  0.0467639 -0.204869 0.00107735  0.046689 -0.211971 0.000981688  0.0465803 -0.2191 0.000891745  0.0464413 -0.22625 0.00080508  0.0462759 -0.233415 0.00072217  0.0460784 -0.240596 0.000644505  0.045857 -0.247789 0.000570476  0.0456102 -0.25499 0.000502467  0.0453434 -0.262198 0.000437796  0.0450528 -0.269408 0.000377059  0.0447452 -0.276619 0.00032264  0.0444176 -0.283831 0.000272334  0.0440776 -0.29104 0.000224829  0.0437231 -0.298244 0.000184119  0.0433531 -0.305444 0.000146508  0.0429747 -0.312636 0.00011462  0.0425875 -0.319821 8.67844e-05  0.0421906 -0.326996 6.24657e-05  0.0417912 -0.334164 4.37498e-05  0.0413857 -0.341322 2.8491e-05  0.0409796 -0.348471 1.46031e-05  0.0405705 -0.355613 1.3113e-06  0.0401654 -0.362751 -1.12057e-05  0 0 0  -0.00107307 -0.00276777 -0.00172114  -0.0029621 -0.00442457 -0.00301206  -0.00511047 -0.00583772 -0.0039717  -0.00736736 -0.00729875 -0.00464594  -0.00966051 -0.008924 -0.00508654  -0.0119499 -0.0107725 -0.00534487  -0.0142086 -0.0128716 -0.00546396  -0.0164206 -0.0152305 -0.0054813  -0.0185816 -0.0178516 -0.00542408  -0.0206878 -0.0207271 -0.0053159  -0.0227333 -0.0238497 -0.00517386  -0.0247201 -0.0272104 -0.00500882  -0.0266502 -0.0308001 -0.00483006  -0.0285237 -0.0346094 -0.00464559  -0.0303401 -0.038627 -0.00445664  -0.0321019 -0.0428458 -0.0042693  -0.0338104 -0.0472562 -0.00408387  -0.0354667 -0.05185 -0.00390238  -0.0370735 -0.0566196 -0.00372517  -0.0386314 -0.0615546 -0.00355196  -0.0401394 -0.0666503 -0.00338435  -0.0415998 -0.0718981 -0.0032208  -0.0430154 -0.0772918 -0.0030632  -0.0443869 -0.0828229 -0.00290948  -0.0457138 -0.0884847 -0.00275981  -0.0469995 -0.0942717 -0.00261545  -0.0482415 -0.100176 -0.00247633  -0.0494429 -0.106191 -0.00233984  -0.050606 -0.112313 -0.00220674  -0.0517297 -0.118533 -0.00207955  -0.0528156 -0.124847 -0.00195688  -0.0538644 -0.131248 -0.0018366  -0.0548761 -0.137731 -0.00172091  -0.0558548 -0.144291 -0.00160962  -0.0567987 -0.150922 -0.00150108  -0.0577097 -0.157618 -0.00139618  -0.0585871 -0.164375 -0.00129664  -0.0594349 -0.17119 -0.00120002  -0.06025 -0.178055 -0.00110823  -0.0610371 -0.184968 -0.00101817  -0.0617967 -0.191923 -0.000933528  -0.0625277 -0.198916 -0.000851095  -0.0632317 -0.205945 -0.000775158  -0.0639098 -0.213004 -0.000700593  -0.0645628 -0.22009 -0.000630617  -0.0651944 -0.2272 -0.000562668  -0.0658019 -0.234329 -0.000500619  -0.0663855 -0.241476 -0.00044179  -0.0669537 -0.248638 -0.000386178  -0.0674977 -0.255809 -0.000335097  -0.0680277 -0.262989 -0.000287652  -0.0685368 -0.270175 -0.000243425  -0.069031 -0.277366 -0.000204563  -0.0695093 -0.284557 -0.000168622  -0.069977 -0.291748 -0.000135958  -0.0704291 -0.298938 -0.000106931  -0.0708733 -0.306122 -8.26716e-05  -0.0713065 -0.313301 -6.15716e-05  -0.0717311 -0.320476 -4.44651e-05  -0.0721512 -0.327643 -3.09944e-05  -0.0725663 -0.3348 -1.93119e-05  -0.072979 -0.341953 -8.82149e-06  -0.0733879 -0.349098 -5.96046e-08  -0.0738001 -0.356241 1.14441e-05  0 0 0  -0.000643365 -0.0017923 -0.00134033  -0.00212125 -0.00327848 -0.00251323  -0.00395121 -0.00468428 -0.00338328  -0.0059232 -0.00618276 -0.0039885  -0.00794184 -0.00785887 -0.0043813  -0.00995722 -0.00976176 -0.00461006  -0.0119432 -0.0119149 -0.00471628  -0.0138891 -0.0143269 -0.00473279  -0.0157886 -0.0169979 -0.00468469  -0.017639 -0.0199231 -0.0045923  -0.019438 -0.0230938 -0.00447005  -0.0211911 -0.0265018 -0.00432724  -0.0228938 -0.0301366 -0.0041734  -0.0245489 -0.0339898 -0.00401372  -0.0261574 -0.0380517 -0.00385153  -0.0277218 -0.0423131 -0.00368953  -0.0292411 -0.0467657 -0.00352973  -0.030718 -0.0514001 -0.00337255  -0.0321531 -0.0562093 -0.00322008  -0.0335443 -0.0611854 -0.00307041  -0.0348985 -0.0663196 -0.00292528  -0.0362122 -0.071606 -0.00278425  -0.037487 -0.0770359 -0.00264794  -0.0387262 -0.0826029 -0.0025146  -0.0399264 -0.0883007 -0.00238591  -0.0410925 -0.0941218 -0.0022611  -0.0422233 -0.100059 -0.00214058  -0.043319 -0.106108 -0.00202334  -0.0443823 -0.11226 -0.0019092  -0.0454137 -0.11851 -0.00179952  -0.0464108 -0.124853 -0.00169188  -0.0473791 -0.131283 -0.00158948  -0.0483165 -0.137792 -0.00148922  -0.0492234 -0.144377 -0.00139254  -0.0501025 -0.151033 -0.00129914  -0.0509529 -0.157753 -0.00120932  -0.0517762 -0.164534 -0.00112343  -0.052573 -0.171368 -0.00103962  -0.0533416 -0.178255 -0.000959516  -0.0540874 -0.185186 -0.000882864  -0.0548072 -0.19216 -0.00080955  -0.0555041 -0.199172 -0.000738859  -0.0561786 -0.206216 -0.000671923  -0.0568309 -0.213291 -0.000608146  -0.057461 -0.220391 -0.000547349  -0.0580733 -0.227513 -0.000490487  -0.0586634 -0.234655 -0.000436664  -0.0592365 -0.241814 -0.000385344  -0.0597892 -0.248985 -0.000337064  -0.0603271 -0.256167 -0.000292718  -0.0608497 -0.263356 -0.000252187  -0.0613558 -0.27055 -0.000214219  -0.0618472 -0.277747 -0.000179648  -0.0623286 -0.284945 -0.000148714  -0.0627949 -0.292141 -0.00012058  -0.0632532 -0.299334 -9.54866e-05  -0.0636983 -0.306523 -7.51615e-05  -0.0641384 -0.313706 -5.6684e-05  -0.0645678 -0.320883 -4.05908e-05  -0.0649924 -0.32805 -2.71797e-05  -0.0654116 -0.33521 -1.72257e-05  -0.0658278 -0.342361 -6.91414e-06  -0.0662391 -0.349505 3.27826e-06  -0.0666523 -0.356644 1.28746e-05  0 0 0  -0.000497643 -0.00116092 -0.00113982  -0.00161796 -0.00237387 -0.00209033  -0.00309071 -0.003707 -0.00283372  -0.00473376 -0.00520508 -0.00335711  -0.00644198 -0.00691339 -0.00369859  -0.00816256 -0.00886066 -0.00389886  -0.00986436 -0.0110623 -0.00399339  -0.0115362 -0.0135233 -0.00400895  -0.013169 -0.0162424 -0.00397003  -0.0147623 -0.0192129 -0.00389206  -0.0163151 -0.0224272 -0.00378805  -0.017828 -0.0258776 -0.00366795  -0.0193019 -0.0295539 -0.00353825  -0.0207376 -0.0334469 -0.00340223  -0.0221363 -0.0375488 -0.00326467  -0.0235 -0.041849 -0.00312746  -0.0248264 -0.0463391 -0.00299239  -0.0261196 -0.0510117 -0.00285923  -0.0273787 -0.0558577 -0.002729  -0.0286036 -0.0608696 -0.00260192  -0.0297977 -0.0660405 -0.00247931  -0.0309613 -0.0713603 -0.00236034  -0.0320922 -0.0768248 -0.002244  -0.0331945 -0.0824247 -0.00213128  -0.034265 -0.0881553 -0.00202221  -0.0353086 -0.0940068 -0.00191641  -0.0363244 -0.0999755 -0.00181442  -0.0373112 -0.106053 -0.00171536  -0.0382729 -0.112234 -0.00161833  -0.039206 -0.118513 -0.00152528  -0.0401146 -0.124882 -0.00143403  -0.0409966 -0.131337 -0.00134754  -0.0418549 -0.137872 -0.00126272  -0.0426884 -0.144481 -0.00118148  -0.0434997 -0.151159 -0.00110239  -0.0442841 -0.157901 -0.00102562  -0.0450501 -0.164702 -0.000953138  -0.0457916 -0.171559 -0.000882566  -0.0465114 -0.178462 -0.000814915  -0.0472114 -0.185413 -0.000749588  -0.0478904 -0.192404 -0.000687122  -0.048553 -0.19943 -0.000627875  -0.049191 -0.206491 -0.000571549  -0.0498159 -0.213579 -0.000517309  -0.0504193 -0.220692 -0.00046593  -0.0510058 -0.227828 -0.00041759  -0.051578 -0.234981 -0.000371277  -0.0521338 -0.24215 -0.000328541  -0.0526743 -0.249331 -0.000288129  -0.0532002 -0.256522 -0.000251651  -0.0537124 -0.263719 -0.000216067  -0.0542116 -0.270921 -0.000184238  -0.0546989 -0.278124 -0.000155509  -0.0551777 -0.285328 -0.000129342  -0.0556414 -0.292529 -0.000104964  -0.0560985 -0.299727 -8.47578e-05  -0.0565438 -0.30692 -6.54459e-05  -0.0569849 -0.314106 -5.00083e-05  -0.0574176 -0.321283 -3.68357e-05  -0.0578444 -0.328453 -2.43187e-05  -0.0582647 -0.335615 -1.4782e-05  -0.0586832 -0.342766 -5.42402e-06  -0.0590978 -0.349908 4.23193e-06  -0.0595121 -0.357046 1.48416e-05  0 0 0  -0.000374489 -0.000727654 -0.000954211  -0.00123852 -0.00170761 -0.00173068  -0.00239591 -0.00293396 -0.00232965  -0.0037168 -0.00440249 -0.00276124  -0.00511432 -0.00612107 -0.0030458  -0.00653321 -0.00809921 -0.00321442  -0.00794652 -0.0103387 -0.00329405  -0.00933996 -0.0128415 -0.00330895  -0.0107034 -0.015601 -0.0032773  -0.0120382 -0.018611 -0.00321412  -0.013342 -0.0218645 -0.00312817  -0.0146144 -0.0253521 -0.00302809  -0.0158573 -0.0290651 -0.00292116  -0.0170715 -0.0329938 -0.00280809  -0.0182573 -0.0371303 -0.00269437  -0.0194166 -0.0414646 -0.00258136  -0.0205481 -0.0459892 -0.00246871  -0.021654 -0.0506953 -0.00235915  -0.0227352 -0.0555736 -0.00225127  -0.0237907 -0.060618 -0.00214678  -0.0248218 -0.0658198 -0.00204498  -0.0258315 -0.0711721 -0.00194663  -0.026816 -0.0766664 -0.00185072  -0.0277777 -0.0822969 -0.0017578  -0.0287173 -0.0880549 -0.00166744  -0.0296348 -0.0939365 -0.00158024  -0.0305312 -0.0999314 -0.0014962  -0.0314065 -0.106036 -0.0014137  -0.0322613 -0.112244 -0.00133437  -0.0330951 -0.118548 -0.00125796  -0.0339094 -0.124941 -0.00118268  -0.0347039 -0.13142 -0.00111091  -0.0354803 -0.137977 -0.00104135  -0.0362377 -0.144608 -0.000973701  -0.0369751 -0.151307 -0.000908375  -0.0376954 -0.158069 -0.00084585  -0.0383992 -0.16489 -0.000785351  -0.0390844 -0.171763 -0.000727117  -0.0397525 -0.178684 -0.000672519  -0.0404048 -0.185651 -0.000618339  -0.0410399 -0.192657 -0.000567257  -0.0416601 -0.199698 -0.000518203  -0.0422647 -0.206772 -0.000471532  -0.0428529 -0.213873 -0.000426471  -0.0434296 -0.220999 -0.000384927  -0.0439911 -0.228145 -0.000345409  -0.0445399 -0.235309 -0.000306904  -0.0450749 -0.242487 -0.000272393  -0.0455995 -0.249677 -0.000238895  -0.0461097 -0.256877 -0.000208795  -0.046612 -0.264081 -0.000180066  -0.0471017 -0.271289 -0.000153422  -0.0475802 -0.278499 -0.000128508  -0.0480504 -0.285707 -0.000107884  -0.0485108 -0.292915 -8.91685e-05  -0.0489645 -0.300117 -7.09891e-05  -0.0494103 -0.307314 -5.6386e-05  -0.0498483 -0.314503 -4.26173e-05  -0.050281 -0.321683 -3.06368e-05  -0.0507073 -0.328855 -2.12789e-05  -0.0511301 -0.336017 -1.13845e-05  -0.0515487 -0.343169 -2.32458e-06  -0.0519645 -0.35031 5.1856e-06  -0.0523815 -0.357442 1.4782e-05  0 0 0  -0.000279322 -0.000430673 -0.000768721  -0.000926562 -0.00122665 -0.00138336  -0.00180672 -0.00235218 -0.00185353  -0.00282654 -0.00377898 -0.00219095  -0.00392058 -0.00549421 -0.00241619  -0.00504085 -0.00748831 -0.0025503  -0.00616261 -0.00975712 -0.00261474  -0.00727528 -0.0122914 -0.00262725  -0.00836879 -0.0150842 -0.00260282  -0.00944334 -0.0181289 -0.00255167  -0.0104952 -0.0214148 -0.00248313  -0.0115264 -0.0249341 -0.0024035  -0.0125368 -0.0286781 -0.00231814  -0.013527 -0.0326381 -0.0022288  -0.0144982 -0.0368043 -0.0021376  -0.0154506 -0.0411688 -0.00204712  -0.0163848 -0.0457221 -0.00195795  -0.017303 -0.0504569 -0.0018701  -0.0182025 -0.0553648 -0.00178468  -0.0190859 -0.0604373 -0.00170141  -0.0199533 -0.0656672 -0.00162065  -0.0208044 -0.0710463 -0.00154221  -0.0216396 -0.0765684 -0.00146586  -0.0224597 -0.0822241 -0.00139272  -0.0232646 -0.088009 -0.00131994  -0.024053 -0.0939146 -0.00125128  -0.0248282 -0.0999359 -0.00118363  -0.0255892 -0.106065 -0.00111848  -0.0263342 -0.112294 -0.0010559  -0.0270677 -0.11862 -0.000995159  -0.0277859 -0.125036 -0.000936031  -0.0284907 -0.131535 -0.000878215  -0.029181 -0.138113 -0.000823379  -0.0298584 -0.144763 -0.000769734  -0.0305212 -0.15148 -0.000718355  -0.0311744 -0.15826 -0.000669241  -0.0318112 -0.165097 -0.000621498  -0.0324376 -0.171986 -0.000574231  -0.0330513 -0.178924 -0.000531197  -0.033653 -0.185904 -0.000489056  -0.034241 -0.192924 -0.000448585  -0.0348213 -0.19998 -0.000409603  -0.0353861 -0.207064 -0.000371873  -0.0359402 -0.214177 -0.000337303  -0.0364852 -0.221313 -0.000304103  -0.0370185 -0.22847 -0.000272989  -0.0375426 -0.235643 -0.000242531  -0.0380554 -0.242831 -0.000214815  -0.0385592 -0.250028 -0.000189424  -0.0390544 -0.257234 -0.000165343  -0.0395393 -0.264445 -0.000141978  -0.0400171 -0.27166 -0.00012219  -0.0404861 -0.278874 -0.000103116  -0.0409477 -0.28609 -8.52942e-05  -0.0414011 -0.2933 -7.06911e-05  -0.0418518 -0.300506 -5.67436e-05  -0.0422924 -0.307706 -4.44055e-05  -0.042727 -0.314899 -3.35574e-05  -0.0431583 -0.322081 -2.37226e-05  -0.0435829 -0.329254 -1.62721e-05  -0.0440044 -0.336418 -8.52346e-06  -0.0444219 -0.343569 -1.2517e-06  -0.0448377 -0.35071 6.02007e-06  -0.0452523 -0.357838 1.37091e-05  0 0 0  -0.000196766 -0.000233024 -0.000580668  -0.000655212 -0.000893831 -0.00103855  -0.00128727 -0.00193763 -0.00138599  -0.00202668 -0.00332493 -0.00163484  -0.0028249 -0.00502914 -0.00180161  -0.00365189 -0.00703311 -0.00190145  -0.00448647 -0.00932038 -0.00194949  -0.00531796 -0.0118792 -0.0019592  -0.00614154 -0.0146989 -0.00194061  -0.00695294 -0.0177703 -0.00190192  -0.00775194 -0.0210831 -0.00185138  -0.0085395 -0.0246294 -0.00179172  -0.00931585 -0.0283994 -0.00172675  -0.0100814 -0.0323846 -0.00165945  -0.0108359 -0.0365767 -0.00159127  -0.011581 -0.0409659 -0.0015229  -0.0123158 -0.0455448 -0.00145578  -0.013043 -0.0503038 -0.00139064  -0.0137607 -0.0552359 -0.00132614  -0.014469 -0.0603329 -0.00126326  -0.0151694 -0.0655869 -0.00120288  -0.0158619 -0.0709897 -0.00114423  -0.0165459 -0.0765339 -0.00108695  -0.0172217 -0.0822138 -0.00103182  -0.0178887 -0.0880213 -0.000978529  -0.0185475 -0.0939493 -0.000926614  -0.0191985 -0.0999907 -0.000877321  -0.0198436 -0.10614 -0.000828683  -0.0204787 -0.112391 -0.000781298  -0.0211076 -0.118736 -0.00073576  -0.0217261 -0.12517 -0.000691473  -0.022339 -0.131687 -0.000648797  -0.0229411 -0.138282 -0.000607729  -0.0235381 -0.144948 -0.000568092  -0.0241263 -0.151683 -0.000530183  -0.0247056 -0.158478 -0.000493586  -0.0252786 -0.165329 -0.000457346  -0.025842 -0.172233 -0.000423253  -0.0263989 -0.179184 -0.00039053  -0.026947 -0.186177 -0.000359535  -0.0274885 -0.193209 -0.000330031  -0.0280223 -0.200274 -0.000300944  -0.0285475 -0.207371 -0.000273883  -0.0290658 -0.214494 -0.000248373  -0.0295763 -0.221639 -0.000223398  -0.0300796 -0.228804 -0.000199735  -0.0305743 -0.235986 -0.000178099  -0.031065 -0.24318 -0.000157714  -0.031548 -0.250384 -0.000138462  -0.0320227 -0.257598 -0.00012058  -0.0324914 -0.264814 -0.000104249  -0.0329556 -0.272033 -8.80957e-05  -0.0334122 -0.279254 -7.55191e-05  -0.0338633 -0.286472 -6.23465e-05  -0.0343101 -0.293687 -5.0962e-05  -0.0347509 -0.300897 -4.1604e-05  -0.0351856 -0.308099 -3.22461e-05  -0.0356181 -0.315294 -2.49743e-05  -0.0360448 -0.322479 -1.7345e-05  -0.036468 -0.329654 -1.09673e-05  -0.0368865 -0.336819 -4.88758e-06  -0.037303 -0.343971 5.96046e-07  -0.0377185 -0.35111 5.54323e-06  -0.0381324 -0.358235 1.20401e-05  0 0 0  -0.000124179 -0.000110567 -0.000387907  -0.00041157 -0.000683427 -0.000691772  -0.000811324 -0.00166947 -0.000920832  -0.00128497 -0.00302532 -0.0010854  -0.00180155 -0.00472176 -0.00119501  -0.0023393 -0.00673041 -0.001261  -0.00288913 -0.00903133 -0.00129318  -0.00344181 -0.0116077 -0.00130016  -0.00399262 -0.0144471 -0.0012871  -0.00454211 -0.0175392 -0.00126159  -0.00508744 -0.020873 -0.00122684  -0.00563091 -0.02444 -0.00118661  -0.00617117 -0.0282319 -0.00114328  -0.00671023 -0.0322372 -0.00109798  -0.00724757 -0.0364492 -0.0010519  -0.00778341 -0.0408593 -0.00100636  -0.00831926 -0.0454589 -0.000960529  -0.00885296 -0.0502393 -0.000916362  -0.0093869 -0.055191 -0.000873566  -0.00991964 -0.060309 -0.000831008  -0.0104514 -0.0655826 -0.000790298  -0.0109833 -0.0710051 -0.000751436  -0.0115131 -0.0765695 -0.000712633  -0.0120437 -0.0822683 -0.00067693  -0.0125716 -0.0880951 -0.000641167  -0.0130996 -0.0940409 -0.000606596  -0.0136267 -0.1001 -0.000573099  -0.0141523 -0.106267 -0.000540972  -0.0146755 -0.112535 -0.000509322  -0.0151972 -0.118896 -0.0004794  -0.0157169 -0.125347 -0.000450432  -0.016235 -0.13188 -0.000421643  -0.0167499 -0.138489 -0.000394642  -0.0172625 -0.145172 -0.00036931  -0.0177724 -0.151918 -0.000343621  -0.018281 -0.158726 -0.000318646  -0.0187848 -0.165591 -0.000295818  -0.0192871 -0.172506 -0.000273943  -0.019783 -0.179467 -0.00025171  -0.0202785 -0.186471 -0.000231504  -0.0207689 -0.193513 -0.000212252  -0.021256 -0.200589 -0.000192523  -0.0217392 -0.207693 -0.000173867  -0.0222204 -0.214825 -0.00015837  -0.0226943 -0.221978 -0.000143051  -0.0231657 -0.229151 -0.000127137  -0.0236335 -0.23634 -0.000113308  -0.0240972 -0.24354 -9.95994e-05  -0.0245569 -0.25075 -8.73208e-05  -0.0250113 -0.257967 -7.56979e-05  -0.0254638 -0.265189 -6.49691e-05  -0.0259106 -0.272413 -5.50747e-05  -0.0263553 -0.279636 -4.66108e-05  -0.0267947 -0.286859 -3.85046e-05  -0.0272305 -0.294077 -3.12924e-05  -0.0276639 -0.301289 -2.563e-05  -0.0280936 -0.308494 -1.97887e-05  -0.0285187 -0.31569 -1.46031e-05  -0.0289409 -0.322878 -1.01328e-05  -0.0293612 -0.330054 -5.96046e-06  -0.029779 -0.337219 -2.68221e-06  -0.0301907 -0.344371 1.54972e-06  -0.0306046 -0.35151 5.30481e-06  -0.0310137 -0.358632 9.83477e-06  0 0 0  -5.50486e-05 -4.88758e-05 -0.000191331  -0.000183359 -0.000576228 -0.000342011  -0.000366032 -0.00153023 -0.000455856  -0.000582069 -0.00287098 -0.00053817  -0.000821859 -0.00456336 -0.000593543  -0.0010792 -0.0065766 -0.000626683  -0.00134423 -0.00888664 -0.000642896  -0.0016183 -0.0114757 -0.000645518  -0.00189942 -0.0143294 -0.000639856  -0.00218469 -0.017437 -0.00062573  -0.00247681 -0.0207865 -0.000608742  -0.00277531 -0.0243688 -0.000587821  -0.00308025 -0.028176 -0.000565171  -0.00339103 -0.0321979 -0.000541031  -0.00370979 -0.036426 -0.000516772  -0.00403684 -0.0408524 -0.00049305  -0.00437081 -0.0454677 -0.000469327  -0.00471199 -0.0502641 -0.000446737  -0.00506091 -0.0552336 -0.000424862  -0.00541675 -0.0603662 -0.000403404  -0.0057801 -0.0656571 -0.000381947  -0.00614965 -0.0710954 -0.000361621  -0.00652659 -0.0766758 -0.000341892  -0.00690901 -0.0823906 -0.000322819  -0.00729883 -0.0882314 -0.000305295  -0.00769186 -0.0941931 -0.000287473  -0.00809383 -0.100268 -0.00027132  -0.00849867 -0.106449 -0.000255585  -0.00890958 -0.11273 -0.00023973  -0.00932336 -0.119106 -0.000224054  -0.00974321 -0.12557 -0.00020963  -0.0101634 -0.132115 -0.000196636  -0.0105908 -0.138737 -0.000183046  -0.011019 -0.14543 -0.000170708  -0.011451 -0.152188 -0.000157535  -0.0118837 -0.159008 -0.000145853  -0.0123186 -0.165882 -0.000134528  -0.0127578 -0.172807 -0.000123084  -0.0131941 -0.179778 -0.000113249  -0.013634 -0.18679 -0.000103533  -0.0140736 -0.19384 -9.40561e-05  -0.0145137 -0.200923 -8.52942e-05  -0.0149541 -0.208035 -7.66516e-05  -0.015393 -0.215173 -6.89626e-05  -0.0158329 -0.222333 -6.07967e-05  -0.0162723 -0.229511 -5.41806e-05  -0.0167098 -0.236705 -4.73261e-05  -0.0171456 -0.24391 -4.1306e-05  -0.0175827 -0.251125 -3.61204e-05  -0.0180159 -0.258346 -3.05772e-05  -0.0184491 -0.265571 -2.57492e-05  -0.0188792 -0.272799 -2.15769e-05  -0.0193083 -0.280026 -1.71065e-05  -0.0197365 -0.28725 -1.37091e-05  -0.0201612 -0.294471 -1.07884e-05  -0.0205867 -0.301685 -8.34465e-06  -0.0210066 -0.308892 -5.96046e-06  -0.0214274 -0.316091 -4.41074e-06  -0.0218437 -0.323279 -2.98023e-06  -0.0222597 -0.330456 -8.9407e-07  -0.0226736 -0.337622 5.36442e-07  -0.0230851 -0.344774 2.20537e-06  -0.0234969 -0.351912 3.45707e-06  -0.023906 -0.359032 5.84126e-06  0 0 0  1.10269e-05 -4.04418e-05 7.09295e-06  3.61353e-05 -0.000559986 9.65595e-06  6.91712e-05 -0.00151148 8.82149e-06  0.000102103 -0.0028525 7.45058e-06  0.000133932 -0.00454873 6.31809e-06  0.000157803 -0.00656796 4.52995e-06  0.000171512 -0.00888485 3.63588e-06  0.000174522 -0.0114833 3.75509e-06  0.000165343 -0.014347 3.75509e-06  0.000142813 -0.017463 5.42402e-06  0.000104785 -0.0208228 6.55651e-06  5.11408e-05 -0.0244164 8.70228e-06  -1.7345e-05 -0.0282342 1.07884e-05  -0.000102043 -0.0322677 1.28746e-05  -0.000202 -0.0365076 1.45435e-05  -0.000318825 -0.0409453 1.71661e-05  -0.000451803 -0.0455731 1.96695e-05  -0.00059998 -0.0503815 2.09212e-05  -0.000762224 -0.0553629 2.14577e-05  -0.000940681 -0.0605078 2.3663e-05  -0.00113428 -0.0658109 2.58088e-05  -0.00134254 -0.0712631 2.64049e-05  -0.00156426 -0.076855 2.78354e-05  -0.00180054 -0.0825818 2.77162e-05  -0.00204873 -0.0884348 2.84314e-05  -0.00231063 -0.0944086 2.89679e-05  -0.00258553 -0.100495 2.98619e-05  -0.00286937 -0.106688 2.92659e-05  -0.00316536 -0.112979 2.99811e-05  -0.00347245 -0.119366 2.95043e-05  -0.00378859 -0.12584 2.92659e-05  -0.00411558 -0.132395 2.90275e-05  -0.00445008 -0.139027 2.88486e-05  -0.00479341 -0.145729 2.80738e-05  -0.00514531 -0.152496 2.81334e-05  -0.00550437 -0.159323 2.72989e-05  -0.0058713 -0.166206 2.64049e-05  -0.00624323 -0.173137 2.61068e-05  -0.00661874 -0.180116 2.50936e-05  -0.00700212 -0.187136 2.41995e-05  -0.00739026 -0.194191 2.30074e-05  -0.00778246 -0.20128 2.32458e-05  -0.00817823 -0.208397 2.21133e-05  -0.00857854 -0.215541 2.17557e-05  -0.00898099 -0.222705 2.0802e-05  -0.00938654 -0.229887 1.93119e-05  -0.00979376 -0.237084 1.82986e-05  -0.0102041 -0.244293 1.72257e-05  -0.0106144 -0.251512 1.68681e-05  -0.0110269 -0.258736 1.41263e-05  -0.0114403 -0.265964 1.35303e-05  -0.0118544 -0.273193 1.25766e-05  -0.0122681 -0.280421 1.15633e-05  -0.0126843 -0.287648 1.00732e-05  -0.0130973 -0.294869 1.01924e-05  -0.0135109 -0.302085 8.58307e-06  -0.0139234 -0.309294 7.62939e-06  -0.0143387 -0.316493 6.13928e-06  -0.0147507 -0.323681 5.1856e-06  -0.0151634 -0.33086 4.41074e-06  -0.0155723 -0.338026 3.63588e-06  -0.0159814 -0.345178 2.74181e-06  -0.0163918 -0.352315 1.43051e-06  -0.0167956 -0.359436 4.17233e-07  0 0 0  7.6741e-05 -8.10027e-05 0.000203371  0.000256017 -0.000633478 0.000358582  0.000501662 -0.00160927 0.00047189  0.000785559 -0.002967 0.000551939  0.0010871 -0.00467473 0.000602841  0.00139105 -0.00670195 0.000632942  0.00168589 -0.00902587 0.000648201  0.00196564 -0.0116287 0.0006513  0.00222552 -0.0144969 0.000645459  0.00246537 -0.0176178 0.000634551  0.00268143 -0.0209838 0.000620067  0.00287229 -0.0245829 0.000602484  0.00303984 -0.0284066 0.000583708  0.00318152 -0.0324464 0.000564694  0.00329924 -0.0366943 0.000545204  0.00339258 -0.0411403 0.000525236  0.00346112 -0.0457752 0.000506222  0.00350654 -0.0505913 0.000487149  0.00352824 -0.0555817 0.000468433  0.00352728 -0.0607364 0.000449538  0.00350296 -0.0660472 0.000431716  0.00345683 -0.0715073 0.00041467  0.0033896 -0.0771091 0.000396967  0.0033021 -0.0828441 0.000379622  0.0031935 -0.0887063 0.000362456  0.00306726 -0.0946884 0.000346303  0.00292015 -0.100783 0.000329196  0.00275564 -0.106984 0.000314713  0.00257218 -0.113284 0.000298679  0.00237489 -0.119677 0.000284255  0.00216019 -0.126159 0.000269353  0.00192976 -0.132722 0.000254989  0.0016849 -0.13936 0.000240207  0.00142598 -0.146069 0.00022614  0.00115371 -0.152841 0.000213444  0.000870705 -0.159675 0.000200212  0.000575066 -0.166563 0.000187874  0.000268459 -0.1735 0.000175714  -4.95911e-05 -0.180483 0.000164032  -0.000375509 -0.187508 0.000152528  -0.000711203 -0.194567 0.000141382  -0.00105572 -0.20166 0.000130713  -0.00140786 -0.208781 0.000120282  -0.00176716 -0.215927 0.000110507  -0.00213218 -0.223094 0.00010103  -0.00250506 -0.230279 9.21488e-05  -0.00288248 -0.237479 8.36849e-05  -0.00326371 -0.24469 7.53999e-05  -0.00364852 -0.25191 6.81877e-05  -0.00403953 -0.259136 6.06179e-05  -0.00443292 -0.266365 5.42998e-05  -0.00483012 -0.273596 4.73261e-05  -0.005229 -0.280826 4.15444e-05  -0.0056293 -0.288053 3.57628e-05  -0.00603318 -0.295275 3.0458e-05  -0.00643826 -0.302491 2.49743e-05  -0.00684428 -0.3097 2.12789e-05  -0.00724959 -0.316899 1.74046e-05  -0.0076561 -0.324089 1.35899e-05  -0.00806451 -0.331267 9.41753e-06  -0.00847077 -0.338432 5.48363e-06  -0.00887847 -0.345585 3.21865e-06  -0.00928521 -0.352722 -4.76837e-07  -0.00968742 -0.359843 -3.63588e-06  0 0 0  0.000144415 -0.000175536 0.000398338  0.000482097 -0.000799119 0.000704944  0.000946462 -0.00182515 0.000932038  0.00148493 -0.00321627 0.00109315  0.00206074 -0.00494277 0.0011977  0.00264579 -0.00697911 0.00126088  0.00322139 -0.00930786 0.0012905  0.00377738 -0.0119117 0.00129706  0.00430727 -0.014779 0.00128603  0.00480855 -0.0179013 0.00126261  0.00527519 -0.0212665 0.00123167  0.00570965 -0.0248668 0.00119662  0.00611234 -0.0286921 0.0011574  0.00648028 -0.032735 0.00111729  0.00681621 -0.0369854 0.00107622  0.00711763 -0.0414346 0.00103533  0.0073874 -0.0460736 0.000994384  0.00762641 -0.0508947 0.000954568  0.00783169 -0.0558895 0.000914931  0.00800741 -0.0610491 0.000876248  0.00815237 -0.0663654 0.000838161  0.00826883 -0.0718306 0.000802457  0.00835586 -0.0774379 0.000766456  0.00841498 -0.0831793 0.000731409  0.00844741 -0.0890464 0.000697434  0.00845373 -0.0950332 0.000663936  0.00843322 -0.101133 0.000630796  0.00839019 -0.107339 0.00059855  0.00832212 -0.113645 0.000568807  0.00823128 -0.120043 0.000538468  0.00811791 -0.126528 0.00050962  0.0079844 -0.133096 0.000480056  0.00782919 -0.139739 0.000452459  0.00765538 -0.14645 0.000425339  0.00746417 -0.153228 0.000399113  0.00725508 -0.160064 0.0003739  0.00702691 -0.166955 0.000349104  0.00678539 -0.173896 0.000325501  0.00652862 -0.180881 0.000302672  0.00625873 -0.187907 0.000280261  0.00597501 -0.19497 0.000259101  0.00567818 -0.202063 0.000238836  0.00537086 -0.209187 0.000218868  0.00505042 -0.216335 0.000200689  0.0047226 -0.223503 0.000182748  0.00438547 -0.230689 0.00016588  0.00403786 -0.237889 0.000149548  0.00368261 -0.245101 0.000134408  0.00332093 -0.252321 0.000120163  0.00295067 -0.259548 0.000106037  0.00257802 -0.266778 9.39369e-05  0.0021975 -0.274008 8.08835e-05  0.00181317 -0.281238 6.97374e-05  0.00142455 -0.288464 6.02007e-05  0.00103378 -0.295686 5.13792e-05  0.000638247 -0.302902 4.23789e-05  0.000239849 -0.31011 3.32594e-05  -0.00015974 -0.31731 2.74181e-05  -0.000561237 -0.324498 2.15173e-05  -0.00096488 -0.331676 1.46627e-05  -0.00136709 -0.338841 8.88109e-06  -0.0017736 -0.345994 3.63588e-06  -0.00217772 -0.353132 -1.72853e-06  -0.00257921 -0.360254 -7.45058e-06  0 0 0  0.000216819 -0.000328541 0.000587702  0.00072372 -0.00106525 0.00104517  0.00141639 -0.0021683 0.00138819  0.00221938 -0.00360447 0.00163162  0.00307575 -0.00535446 0.00179178  0.00394431 -0.00740135 0.00188762  0.00480261 -0.00972974 0.00193328  0.00563473 -0.0123302 0.00194305  0.00643307 -0.0151936 0.00192666  0.00719339 -0.0183101 0.00189209  0.00791234 -0.0216712 0.00184542  0.00858986 -0.0252674 0.0017904  0.00922382 -0.0290905 0.00173193  0.00981748 -0.0331312 0.00167102  0.0103685 -0.0373803 0.00160879  0.0108788 -0.0418292 0.0015462  0.0113492 -0.0464694 0.00148445  0.0117779 -0.0512912 0.00142312  0.0121688 -0.0562864 0.00136387  0.0125195 -0.0614479 0.0013057  0.0128341 -0.0667658 0.00124836  0.0131104 -0.0722328 0.00119311  0.0133518 -0.0778418 0.00113821  0.013558 -0.0835854 0.0010851  0.0137293 -0.0894552 0.00103396  0.0138681 -0.0954443 0.000983834  0.0139743 -0.101546 0.000933945  0.0140498 -0.107754 0.000885606  0.0140942 -0.114061 0.000839531  0.01411 -0.120461 0.00079453  0.0140998 -0.126949 0.000749946  0.0140605 -0.133518 0.000706494  0.0139978 -0.140162 0.000665486  0.0139074 -0.146876 0.000624597  0.0137949 -0.153654 0.000585973  0.0136597 -0.160491 0.000547588  0.0135014 -0.167383 0.000510871  0.0133245 -0.174324 0.000475347  0.0131276 -0.18131 0.000441372  0.012912 -0.188336 0.000409126  0.0126791 -0.195398 0.000377476  0.01243 -0.202493 0.000346303  0.0121646 -0.209615 0.000317931  0.0118842 -0.216763 0.000290036  0.0115919 -0.223931 0.000263751  0.0112855 -0.231116 0.000237823  0.0109694 -0.238315 0.000215292  0.0106404 -0.245526 0.000191987  0.0103021 -0.252746 0.000171363  0.00995445 -0.259972 0.00015074  0.00959873 -0.2672 0.000132442  0.00923562 -0.27443 0.000115395  0.00886583 -0.281658 9.93013e-05  0.00848961 -0.288884 8.44002e-05  0.0081079 -0.296105 7.12276e-05  0.00771952 -0.303319 5.85914e-05  0.00733042 -0.310526 4.72069e-05  0.00693679 -0.317723 3.8147e-05  0.00653958 -0.324912 2.7895e-05  0.00613928 -0.332088 1.98483e-05  0.00573826 -0.339252 1.20401e-05  0.00533485 -0.346405 5.24521e-06  0.00493264 -0.353544 -2.92063e-06  0.00453138 -0.360669 -1.07288e-05  0 0 0  0.000296697 -0.000555515 0.000771165  0.000988379 -0.00144881 0.00138021  0.00192809 -0.00265086 0.00184143  0.00300899 -0.00414318 0.00217009  0.00415483 -0.00591671 0.00238776  0.00531298 -0.00796831 0.00251669  0.00645402 -0.0102925 0.00257951  0.00756246 -0.0128842 0.00259203  0.0086289 -0.0157361 0.00256968  0.00964528 -0.0188418 0.00252366  0.0106137 -0.0221942 0.00246149  0.0115314 -0.0257823 0.00238889  0.0123976 -0.0295988 0.00231075  0.0132138 -0.0336339 0.00222826  0.0139802 -0.0378785 0.00214547  0.0146971 -0.0423232 0.00206137  0.0153649 -0.0469602 0.00197822  0.0159849 -0.0517789 0.00189739  0.0165576 -0.0567722 0.00181651  0.0170841 -0.0619315 0.00173813  0.0175657 -0.0672479 0.00166166  0.0180017 -0.0727143 0.00158614  0.018396 -0.078322 0.00151336  0.0187474 -0.0840635 0.00144249  0.0190567 -0.0899314 0.00137299  0.0193282 -0.0959209 0.00130522  0.0195582 -0.102021 0.00123882  0.0197525 -0.108228 0.00117487  0.0199101 -0.114535 0.00111318  0.0200332 -0.120934 0.00105202  0.0201203 -0.127421 0.000992  0.0201762 -0.133988 0.000935853  0.0202017 -0.140631 0.000879705  0.0201945 -0.147343 0.000826001  0.020159 -0.154119 0.000773072  0.0200961 -0.160956 0.000722528  0.0200064 -0.167846 0.00067395  0.0198934 -0.174785 0.000627041  0.0197551 -0.18177 0.000581563  0.0195928 -0.188794 0.000537753  0.0194113 -0.195855 0.000495374  0.019207 -0.202947 0.000454128  0.0189841 -0.210067 0.000416636  0.0187438 -0.217213 0.000380456  0.0184865 -0.224378 0.000344574  0.0182114 -0.231561 0.000310719  0.0179234 -0.238758 0.000280082  0.0176189 -0.245966 0.000249684  0.0173042 -0.253184 0.00022161  0.0169766 -0.260407 0.000195444  0.0166383 -0.267633 0.000171423  0.0162883 -0.27486 0.000148594  0.0159318 -0.282086 0.000126839  0.0155649 -0.28931 0.000107169  0.0151939 -0.296528 9.05395e-05  0.0148139 -0.303741 7.45058e-05  0.0144303 -0.310945 6.04391e-05  0.0140395 -0.318141 4.73261e-05  0.0136487 -0.325326 3.52859e-05  0.0132506 -0.332502 2.48551e-05  0.0128527 -0.339666 1.49608e-05  0.01245 -0.346818 6.02007e-06  0.0120497 -0.353959 -3.8147e-06  0.0116482 -0.361087 -1.25766e-05  0 0 0  0.000387788 -0.000879169 0.000948191  0.001293 -0.00197423 0.00171328  0.00250465 -0.00329173 0.00229758  0.00388095 -0.00483954 0.00271708  0.00532523 -0.00663215 0.0029912  0.00677711 -0.00867981 0.00315237  0.00820243 -0.0109916 0.00323033  0.00958425 -0.0135674 0.00324553  0.0109144 -0.0164037 0.00321805  0.0121881 -0.0194944 0.00316113  0.0134031 -0.0228322 0.00308329  0.0145587 -0.0264094 0.00299311  0.0156547 -0.0302147 0.00289464  0.0166917 -0.0342401 0.00279135  0.0176711 -0.0384765 0.00268763  0.0185933 -0.042914 0.00258225  0.0194573 -0.0475436 0.00247824  0.0202675 -0.0523575 0.00237566  0.0210198 -0.0573448 0.00227457  0.0217202 -0.0624987 0.00217611  0.0223665 -0.0678106 0.00207967  0.0229623 -0.0732718 0.00198597  0.0235064 -0.0788751 0.0018934  0.0240017 -0.0846124 0.00180352  0.0244496 -0.0904768 0.00171691  0.0248488 -0.096461 0.0016315  0.0252043 -0.102558 0.00154787  0.0255135 -0.108761 0.00146788  0.0257823 -0.115064 0.0013895  0.026009 -0.121459 0.00131226  0.0261955 -0.127942 0.00123787  0.0263431 -0.134506 0.00116622  0.0264556 -0.141145 0.00109762  0.0265312 -0.147853 0.00102979  0.0265732 -0.154626 0.000963509  0.0265808 -0.161458 0.000899255  0.0265567 -0.168343 0.000838816  0.0265062 -0.175279 0.000778377  0.0264237 -0.182259 0.000722229  0.0263174 -0.18928 0.000667393  0.0261817 -0.196336 0.000614703  0.0260227 -0.203425 0.000564218  0.0258393 -0.210541 0.000515997  0.0256352 -0.217681 0.000469744  0.0254097 -0.224843 0.000425994  0.0251656 -0.232022 0.000384152  0.024904 -0.239215 0.000344336  0.0246241 -0.24642 0.000306964  0.0243289 -0.253633 0.000271916  0.0240207 -0.260852 0.00023973  0.0236974 -0.268076 0.000208437  0.0233626 -0.2753 0.000179887  0.0230172 -0.282522 0.000154793  0.0226605 -0.289741 0.000130296  0.0222962 -0.296956 0.000108063  0.0219233 -0.304166 8.9407e-05  0.0215437 -0.311368 7.09295e-05  0.0211577 -0.318561 5.54323e-05  0.0207675 -0.325745 4.25577e-05  0.0203729 -0.332919 3.01003e-05  0.0199747 -0.340081 1.74046e-05  0.019573 -0.347233 7.7486e-06  0.0191729 -0.354374 -2.26498e-06  0.0187721 -0.361507 -1.37687e-05  0 0 0  0.000504874 -0.00133175 0.00112355  0.00165981 -0.00267345 0.00205261  0.00318129 -0.00411218 0.00277352  0.00487262 -0.0057025 0.00327915  0.00662056 -0.00749809 0.00360793  0.00836444 -0.00953251 0.00380033  0.0100708 -0.0118226 0.00389183  0.0117239 -0.0143753 0.00390965  0.0133152 -0.0171894 0.00387633  0.0148411 -0.0202608 0.00380725  0.0162999 -0.0235808 0.0037148  0.0176914 -0.0271414 0.0036056  0.0190166 -0.0309334 0.00348777  0.020273 -0.034946 0.00336444  0.0214632 -0.0391706 0.00323826  0.0225875 -0.0435981 0.00311202  0.0236472 -0.0482175 0.00298709  0.0246438 -0.0530223 0.00286192  0.0255762 -0.0580013 0.0027402  0.0264475 -0.0631466 0.00262159  0.0272577 -0.0684509 0.00250489  0.028008 -0.0739036 0.00239164  0.0287023 -0.0794991 0.00227988  0.029339 -0.0852298 0.00217116  0.0299208 -0.0910878 0.00206572  0.0304484 -0.097065 0.00196272  0.030925 -0.103154 0.0018627  0.0313507 -0.109351 0.00176471  0.0317272 -0.115647 0.00167012  0.0320567 -0.122037 0.00157809  0.032339 -0.128513 0.00148809  0.0325787 -0.13507 0.00140172  0.0327752 -0.141701 0.00131673  0.0329301 -0.148404 0.00123483  0.0330472 -0.155171 0.00115508  0.0331249 -0.161996 0.00107914  0.0331674 -0.168876 0.00100547  0.0331738 -0.175805 0.00093329  0.0331464 -0.182779 0.000864327  0.0330884 -0.189794 0.000798762  0.0330014 -0.196844 0.000734568  0.0328829 -0.203926 0.000673711  0.0327406 -0.211036 0.000615239  0.0325699 -0.218171 0.000560105  0.0323758 -0.225327 0.000506878  0.03216 -0.2325 0.000456691  0.0319228 -0.239688 0.000409424  0.0316646 -0.246887 0.000362933  0.0313895 -0.254095 0.000321388  0.0310943 -0.261308 0.000281394  0.030786 -0.268527 0.000245988  0.0304632 -0.275746 0.000211716  0.0301256 -0.282964 0.00017941  0.0297761 -0.29018 0.000151098  0.0294178 -0.29739 0.000124753  0.0290504 -0.304596 0.00010252  0.0286727 -0.311795 8.12411e-05  0.0282881 -0.318984 6.31213e-05  0.0278995 -0.326165 4.71473e-05  0.0275033 -0.333336 3.3915e-05  0.0271068 -0.340497 2.13981e-05  0.026706 -0.347648 9.23872e-06  0.0263021 -0.35479 -1.60933e-06  0.0258999 -0.361926 -1.2219e-05  0 0 0  0.000637569 -0.00197065 0.00130928  0.00214513 -0.0035997 0.00244868  0.00401723 -0.00512189 0.00328702  0.00602779 -0.00672567 0.00386757  0.00807479 -0.00850469 0.00424331  0.0101021 -0.0105106 0.0044626  0.0120829 -0.0127711 0.00456667  0.0140005 -0.0152952 0.00458676  0.0158498 -0.0180837 0.00454748  0.0176262 -0.021131 0.00446725  0.0193277 -0.0244307 0.00435853  0.0209526 -0.0279726 0.00423169  0.0225024 -0.0317474 0.00409269  0.0239769 -0.0357452 0.00394851  0.025376 -0.0399557 0.00380069  0.0267016 -0.0443691 0.00365239  0.0279547 -0.0489773 0.00350446  0.029134 -0.0537692 0.00335836  0.0302438 -0.0587366 0.00321585  0.031284 -0.0638711 0.0030756  0.0322551 -0.0691631 0.00293887  0.0331613 -0.0746061 0.00280422  0.0339998 -0.080192 0.00267357  0.0347767 -0.0859124 0.00254655  0.0354911 -0.0917599 0.00242227  0.0361452 -0.0977272 0.00230169  0.0367401 -0.103808 0.00218302  0.0372782 -0.109995 0.00206929  0.0377603 -0.116282 0.00195587  0.0381899 -0.122662 0.00184816  0.0385672 -0.129128 0.0017432  0.0388951 -0.135677 0.0016402  0.0391731 -0.142301 0.0015406  0.0394068 -0.148993 0.00144422  0.0395944 -0.155752 0.00135052  0.0397391 -0.162569 0.00126106  0.0398428 -0.16944 0.00117373  0.0399067 -0.176361 0.00108981  0.0399334 -0.183326 0.00100851  0.0399227 -0.190332 0.000930965  0.0398784 -0.197375 0.000856042  0.0398014 -0.204449 0.000785172  0.0396948 -0.211551 0.000716686  0.0395563 -0.218679 0.000650644  0.0393915 -0.225826 0.000588  0.0392008 -0.232992 0.000529408  0.038985 -0.240173 0.000473499  0.0387459 -0.247366 0.000420153  0.0384865 -0.254566 0.000370264  0.0382075 -0.261775 0.000324786  0.0379093 -0.268985 0.000281274  0.0375929 -0.276198 0.000241518  0.0372646 -0.28341 0.000204504  0.0369191 -0.29062 0.000171185  0.0365646 -0.297827 0.000140905  0.0361953 -0.305028 0.000113666  0.0358202 -0.312221 9.0003e-05  0.0354347 -0.319407 6.94394e-05  0.0350442 -0.326586 5.16772e-05  0.0346484 -0.333754 3.63588e-05  0.0342488 -0.340912 2.30074e-05  0.0338445 -0.348062 1.15633e-05  0.033442 -0.355205 2.98023e-07  0.0330377 -0.362344 -1.16825e-05  0 0 0  0.00105626 -0.00294441 0.00166547  0.0029667 -0.00475377 0.00290853  0.00514303 -0.00629532 0.00382924  0.00742456 -0.00787354 0.00447261  0.00973055 -0.00961721 0.00489348  0.0120166 -0.0115879 0.00514019  0.0142565 -0.0138141 0.00525731  0.0164314 -0.0163077 0.00528109  0.0185341 -0.0190688 0.00523561  0.0205579 -0.0220928 0.00514293  0.0225001 -0.0253692 0.00501788  0.0243577 -0.0288913 0.0048719  0.0261309 -0.0326474 0.00471187  0.0278222 -0.0366286 0.00454569  0.0294279 -0.0408221 0.00437534  0.0309527 -0.04522 0.00420439  0.0323958 -0.0498112 0.00403464  0.0337573 -0.05459 0.00386608  0.0350413 -0.0595433 0.00370121  0.0362478 -0.0646629 0.00353962  0.037377 -0.069943 0.00338137  0.0384345 -0.0753726 0.00322729  0.0394166 -0.0809457 0.00307667  0.0403295 -0.0866529 0.00292945  0.0411749 -0.0924875 0.00278616  0.0419507 -0.0984426 0.00264668  0.0426629 -0.104513 0.00251114  0.0433081 -0.110688 0.00237828  0.0438951 -0.116962 0.00224918  0.0444216 -0.12333 0.00212401  0.0448892 -0.129787 0.00200212  0.0453041 -0.136324 0.00188416  0.0456624 -0.142937 0.00176942  0.0459697 -0.149619 0.00165832  0.0462255 -0.156366 0.00155067  0.0464351 -0.163173 0.00144726  0.0465968 -0.170033 0.00134599  0.0467176 -0.176942 0.00124896  0.0467923 -0.183898 0.00115556  0.046828 -0.190894 0.00106674  0.0468242 -0.197926 0.000980377  0.0467851 -0.204992 0.00089699  0.0467095 -0.212084 0.000818431  0.0466022 -0.219202 0.00074172  0.046463 -0.22634 0.000670195  0.0462966 -0.233497 0.000602841  0.046097 -0.24067 0.000537694  0.0458765 -0.247854 0.000476778  0.0456283 -0.255048 0.000419557  0.0453575 -0.262246 0.000365615  0.0450697 -0.26945 0.000317812  0.044759 -0.276656 0.000270367  0.0444334 -0.283862 0.000228584  0.0440922 -0.291066 0.000190794  0.0437353 -0.298265 0.000155091  0.0433681 -0.30546 0.00012511  0.0429895 -0.312649 9.86457e-05  0.0425997 -0.319832 7.55787e-05  0.0422056 -0.327004 5.60284e-05  0.0418036 -0.334169 3.97563e-05  0.0413995 -0.341327 2.53916e-05  0.0409925 -0.348475 1.44243e-05  0.0405855 -0.355619 3.15905e-06  0.0401793 -0.362759 -9.47714e-06  0 0 0  -0.00109933 -0.00299312 -0.00130123  -0.00298589 -0.0047843 -0.00229496  -0.00511432 -0.00628829 -0.00305635  -0.00734819 -0.00781233 -0.00360674  -0.00962541 -0.00948491 -0.00397944  -0.0119053 -0.0113657 -0.00420696  -0.0141661 -0.0134827 -0.00432163  -0.0163871 -0.0158474 -0.0043509  -0.0185605 -0.0184655 -0.004318  -0.0206785 -0.0213314 -0.00424051  -0.0227399 -0.0244387 -0.00413138  -0.0247403 -0.0277814 -0.00400317  -0.0266827 -0.0313507 -0.0038625  -0.0285657 -0.035139 -0.00371557  -0.0303915 -0.0391347 -0.00356603  -0.0321582 -0.0433322 -0.00341493  -0.0338725 -0.0477213 -0.00326574  -0.035532 -0.0522944 -0.00312114  -0.0371408 -0.0570423 -0.00297868  -0.0386988 -0.0619587 -0.00283933  -0.0402073 -0.0670354 -0.00270516  -0.0416694 -0.0722637 -0.00257427  -0.0430853 -0.0776391 -0.00244778  -0.0444536 -0.083152 -0.0023244  -0.0457788 -0.0887968 -0.00220597  -0.0470613 -0.0945681 -0.00209057  -0.0483048 -0.100457 -0.00197756  -0.0495039 -0.106457 -0.0018692  -0.0506637 -0.112562 -0.00176454  -0.0517865 -0.118768 -0.00166208  -0.0528702 -0.125067 -0.00156325  -0.0539149 -0.131456 -0.00146717  -0.054929 -0.137925 -0.00137573  -0.0559037 -0.144473 -0.00128669  -0.0568442 -0.151091 -0.00119925  -0.0577531 -0.157775 -0.00111645  -0.0586286 -0.164522 -0.001037  -0.0594745 -0.171324 -0.000959098  -0.0602875 -0.17818 -0.000885785  -0.0610721 -0.185082 -0.000814855  -0.0618303 -0.192029 -0.000745773  -0.0625582 -0.199014 -0.000681937  -0.0632622 -0.206031 -0.000619829  -0.0639362 -0.213082 -0.000561178  -0.0645893 -0.220161 -0.000503898  -0.0652165 -0.227262 -0.000451326  -0.0658231 -0.234385 -0.000401556  -0.0664074 -0.241527 -0.000353754  -0.0669696 -0.24868 -0.000309408  -0.0675135 -0.255848 -0.000269353  -0.0680418 -0.263021 -0.000232279  -0.0685515 -0.270202 -0.000197232  -0.0690424 -0.277389 -0.000165582  -0.0695231 -0.284575 -0.000135839  -0.0699892 -0.291764 -0.000110924  -0.0704408 -0.298951 -8.82745e-05  -0.0708854 -0.306132 -6.82473e-05  -0.0713172 -0.31331 -5.14984e-05  -0.0717413 -0.320482 -3.86238e-05  -0.072161 -0.327646 -2.65837e-05  -0.0725756 -0.334804 -1.7345e-05  -0.0729883 -0.341956 -7.92742e-06  -0.0733988 -0.349102 -5.96046e-07  -0.0738094 -0.356245 6.97374e-06  0 0 0  -0.000637878 -0.00195498 -0.0010162  -0.00210093 -0.00357195 -0.00192094  -0.00391121 -0.00507645 -0.00261205  -0.0058676 -0.00664762 -0.00310928  -0.00787801 -0.00837896 -0.00344408  -0.00989494 -0.0103191 -0.00364673  -0.0118926 -0.0124941 -0.003748  -0.0138562 -0.0149167 -0.00377357  -0.0157732 -0.0175881 -0.0037443  -0.0176415 -0.0205063 -0.00367635  -0.0194598 -0.0236649 -0.00358069  -0.0212268 -0.0270566 -0.00346917  -0.0229428 -0.0306738 -0.00334698  -0.0246084 -0.0345077 -0.00321913  -0.026226 -0.0385493 -0.00308812  -0.0277964 -0.0427907 -0.00295842  -0.0293202 -0.047223 -0.00283009  -0.0308 -0.0518375 -0.00270331  -0.0322356 -0.0566274 -0.00257927  -0.0336297 -0.0615842 -0.00245976  -0.0349828 -0.0666991 -0.00234377  -0.0362961 -0.0719674 -0.00222981  -0.03757 -0.0773798 -0.00211954  -0.0388063 -0.0829295 -0.00201339  -0.0400053 -0.0886106 -0.00191081  -0.0411694 -0.0944151 -0.00180995  -0.0422977 -0.100337 -0.00171334  -0.0433927 -0.106369 -0.00161868  -0.0444533 -0.112508 -0.00152791  -0.0454807 -0.118743 -0.00143927  -0.0464774 -0.125072 -0.00135452  -0.0474417 -0.131489 -0.00127095  -0.0483763 -0.137986 -0.00119239  -0.0492811 -0.144558 -0.00111389  -0.050159 -0.151201 -0.00103968  -0.0510058 -0.15791 -0.000967562  -0.0518258 -0.16468 -0.000898838  -0.0526202 -0.171504 -0.000832438  -0.0533881 -0.178379 -0.000767827  -0.0541301 -0.185302 -0.000706136  -0.0548494 -0.192265 -0.000648022  -0.0555437 -0.199266 -0.00059092  -0.056216 -0.206304 -0.000537276  -0.0568655 -0.21337 -0.000486851  -0.0574923 -0.220461 -0.000438273  -0.0581014 -0.227578 -0.000392735  -0.0586903 -0.234713 -0.000349283  -0.0592608 -0.241864 -0.000308931  -0.0598135 -0.24903 -0.000270367  -0.0603497 -0.256205 -0.000235021  -0.0608692 -0.26339 -0.000202537  -0.0613739 -0.270579 -0.000172019  -0.0618644 -0.277771 -0.000144839  -0.0623434 -0.284966 -0.000119865  -0.0628092 -0.292158 -9.74536e-05  -0.0632648 -0.299348 -7.82013e-05  -0.0637112 -0.306534 -6.06179e-05  -0.0641491 -0.313714 -4.63128e-05  -0.0645781 -0.32089 -3.43323e-05  -0.0650029 -0.328056 -2.3365e-05  -0.0654218 -0.335214 -1.41859e-05  -0.0658371 -0.342365 -6.07967e-06  -0.0662513 -0.349509 1.43051e-06  -0.0666635 -0.356649 1.01924e-05  0 0 0  -0.000487354 -0.00129191 -0.000861406  -0.00158408 -0.00262139 -0.00159883  -0.00303446 -0.0040557 -0.00219321  -0.00466323 -0.00563262 -0.00262576  -0.00636986 -0.00740108 -0.00291598  -0.00809661 -0.00939035 -0.00309294  -0.00981349 -0.0116178 -0.00318152  -0.0115038 -0.0140923 -0.00320488  -0.0131586 -0.0168141 -0.00318074  -0.0147711 -0.0197802 -0.00312179  -0.0163426 -0.0229856 -0.00304186  -0.0178719 -0.0264228 -0.00294673  -0.0193596 -0.030083 -0.00284159  -0.0208055 -0.0339584 -0.00273293  -0.0222119 -0.038042 -0.00262201  -0.0235818 -0.0423233 -0.00251132  -0.0249132 -0.0467941 -0.00240135  -0.0262083 -0.0514477 -0.00229436  -0.027468 -0.0562742 -0.00218886  -0.0286943 -0.0612669 -0.00208676  -0.0298892 -0.0664192 -0.00198787  -0.0310502 -0.0717219 -0.00189185  -0.0321803 -0.0771684 -0.00179851  -0.03328 -0.0827518 -0.00170845  -0.0343488 -0.0884647 -0.00162017  -0.0353923 -0.094301 -0.00153571  -0.0364039 -0.100254 -0.00145352  -0.0373895 -0.106316 -0.00137329  -0.0383463 -0.112483 -0.00129622  -0.0392778 -0.118747 -0.0012216  -0.0401833 -0.125103 -0.0011493  -0.0410627 -0.131544 -0.00107878  -0.0419183 -0.138066 -0.00101113  -0.0427489 -0.144663 -0.00094533  -0.043556 -0.151329 -0.000882268  -0.0443399 -0.15806 -0.00082165  -0.0451028 -0.164849 -0.000762761  -0.0458417 -0.171694 -0.000706315  -0.0465622 -0.178588 -0.000651479  -0.0472572 -0.185529 -0.0006001  -0.0479367 -0.192509 -0.00055027  -0.0485926 -0.199527 -0.000502348  -0.049232 -0.206579 -0.000456691  -0.0498505 -0.213659 -0.000414193  -0.0504553 -0.220765 -0.000372946  -0.0510385 -0.227892 -0.000333369  -0.0516088 -0.235039 -0.000297844  -0.0521617 -0.242201 -0.000263572  -0.0527005 -0.249376 -0.000230432  -0.0532227 -0.256561 -0.000201344  -0.0537326 -0.263754 -0.00017333  -0.0542321 -0.27095 -0.000146747  -0.0547175 -0.278149 -0.000124276  -0.0551922 -0.285349 -0.000102937  -0.0556555 -0.292547 -8.43406e-05  -0.0561104 -0.299742 -6.66976e-05  -0.0565572 -0.306931 -5.34058e-05  -0.0569968 -0.314115 -4.09484e-05  -0.0574291 -0.321292 -3.02196e-05  -0.0578535 -0.32846 -1.97887e-05  -0.0582762 -0.335619 -1.22786e-05  -0.0586929 -0.34277 -4.23193e-06  -0.059109 -0.349913 4.29153e-06  -0.0595217 -0.35705 1.11461e-05  0 0 0  -0.000363763 -0.000838041 -0.000718236  -0.00120178 -0.00192659 -0.00132287  -0.00233693 -0.00325151 -0.00180471  -0.00364585 -0.00480197 -0.00216198  -0.00504225 -0.0065823 -0.00240433  -0.00647095 -0.00860402 -0.00255334  -0.00789988 -0.010873 -0.00262874  -0.00931278 -0.0133909 -0.00264841  -0.0106971 -0.0161563 -0.00262928  -0.0120513 -0.0191652 -0.00258118  -0.0133725 -0.0224122 -0.00251502  -0.0146599 -0.0258886 -0.00243485  -0.0159169 -0.0295881 -0.0023483  -0.0171396 -0.0335016 -0.00225806  -0.0183333 -0.0376202 -0.00216526  -0.0194978 -0.041937 -0.00207394  -0.0206321 -0.0464425 -0.00198299  -0.021742 -0.0511296 -0.00189364  -0.0228232 -0.0559897 -0.00180691  -0.0238805 -0.0610158 -0.0017224  -0.024912 -0.0662001 -0.00164002  -0.0259188 -0.0715337 -0.00156111  -0.0269017 -0.0770113 -0.00148338  -0.0278636 -0.082624 -0.00140893  -0.0288013 -0.0883668 -0.00133657  -0.0297145 -0.094231 -0.00126678  -0.0306094 -0.100212 -0.00119907  -0.0314825 -0.106301 -0.00113308  -0.0323358 -0.112494 -0.00106919  -0.0331658 -0.118783 -0.00100732  -0.033978 -0.125163 -0.000947714  -0.0347707 -0.131628 -0.000889838  -0.0355425 -0.138173 -0.000833213  -0.0362968 -0.144791 -0.00077939  -0.0370326 -0.151477 -0.000727832  -0.0377517 -0.158228 -0.000677228  -0.0384514 -0.165037 -0.000629306  -0.0391338 -0.1719 -0.000582278  -0.0398009 -0.178811 -0.000537694  -0.0404491 -0.185767 -0.000495613  -0.0410821 -0.192764 -0.000454247  -0.0417004 -0.199797 -0.000414789  -0.0423026 -0.206861 -0.000376701  -0.0428903 -0.213954 -0.000341713  -0.0434644 -0.221073 -0.000308394  -0.0440235 -0.228212 -0.000276327  -0.04457 -0.235368 -0.00024581  -0.0451031 -0.24254 -0.000217199  -0.0456238 -0.249725 -0.00019151  -0.046134 -0.256918 -0.000166714  -0.0466323 -0.264116 -0.000143945  -0.0471194 -0.271321 -0.000122905  -0.0475976 -0.278526 -0.000103176  -0.0480659 -0.28573 -8.58307e-05  -0.0485256 -0.292933 -7.06911e-05  -0.0489779 -0.300132 -5.73993e-05  -0.0494223 -0.307326 -4.47631e-05  -0.0498593 -0.314513 -3.43323e-05  -0.0502908 -0.321691 -2.49743e-05  -0.0507166 -0.328862 -1.57356e-05  -0.0511382 -0.336022 -9.59635e-06  -0.0515571 -0.343173 -2.74181e-06  -0.0519724 -0.350315 4.76837e-06  -0.0523858 -0.357448 1.09673e-05  0 0 0  -0.000269528 -0.000526473 -0.000578105  -0.000893541 -0.00142562 -0.00105733  -0.00175476 -0.00264739 -0.00143611  -0.0027657 -0.00415488 -0.00171626  -0.00385797 -0.00593238 -0.00190842  -0.00498673 -0.00797217 -0.00202763  -0.00612429 -0.010271 -0.00208837  -0.00725555 -0.0128235 -0.00210434  -0.0083676 -0.0156251 -0.00208896  -0.00945795 -0.0186705 -0.00205016  -0.0105264 -0.0219519 -0.00199765  -0.0115708 -0.0254631 -0.00193423  -0.012592 -0.0291957 -0.00186503  -0.0135913 -0.0331412 -0.00179279  -0.014569 -0.0372916 -0.0017181  -0.0155273 -0.0416388 -0.00164545  -0.0164653 -0.0461749 -0.00157315  -0.0173846 -0.0508914 -0.00150156  -0.0182849 -0.0557812 -0.00143248  -0.0191681 -0.0608359 -0.00136513  -0.020035 -0.0660475 -0.00129932  -0.0208852 -0.0714093 -0.00123638  -0.0217196 -0.0769139 -0.00117511  -0.0225369 -0.0825535 -0.00111598  -0.0233396 -0.0883218 -0.00105846  -0.0241282 -0.0942121 -0.00100285  -0.0249008 -0.100216 -0.000948668  -0.0256586 -0.106331 -0.0008955  -0.0264025 -0.112546 -0.000845969  -0.0271318 -0.118857 -0.000796974  -0.0278479 -0.125259 -0.000749528  -0.0285493 -0.131745 -0.000703812  -0.0292387 -0.13831 -0.000659227  -0.0299139 -0.144947 -0.000616491  -0.030576 -0.151652 -0.000575483  -0.0312247 -0.158421 -0.000535488  -0.0318596 -0.165247 -0.000497341  -0.0324814 -0.172125 -0.000460505  -0.0330942 -0.179051 -0.00042516  -0.033694 -0.186022 -0.000391662  -0.0342813 -0.193033 -0.00035882  -0.0348561 -0.200078 -0.000327528  -0.0354204 -0.207155 -0.000297904  -0.0359733 -0.214261 -0.000269651  -0.036516 -0.221388 -0.000242889  -0.0370471 -0.228537 -0.00021708  -0.0375686 -0.235704 -0.000193894  -0.0380797 -0.242884 -0.000171244  -0.0385828 -0.250076 -0.000150442  -0.0390732 -0.257277 -0.000131249  -0.0395589 -0.264482 -0.000113904  -0.0400338 -0.271692 -9.799e-05  -0.0405018 -0.278902 -8.15988e-05  -0.0409608 -0.286113 -6.80089e-05  -0.0414152 -0.293319 -5.66244e-05  -0.0418606 -0.300523 -4.52995e-05  -0.0423033 -0.307719 -3.60608e-05  -0.0427375 -0.314909 -2.74181e-05  -0.0431664 -0.322089 -1.98483e-05  -0.0435903 -0.329261 -1.28746e-05  -0.0440111 -0.336424 -6.79493e-06  -0.0444295 -0.343575 -5.96046e-07  -0.0448449 -0.350715 4.29153e-06  -0.0452588 -0.357844 1.00136e-05  0 0 0  -0.000189532 -0.000317454 -0.000435948  -0.000629954 -0.00107723 -0.000792801  -0.00124651 -0.00221452 -0.00107354  -0.00197779 -0.00368223 -0.0012815  -0.00277728 -0.00544962 -0.00142336  -0.0036124 -0.00749883 -0.00151181  -0.00446025 -0.0098176 -0.00155753  -0.00530621 -0.0123963 -0.00156987  -0.006145 -0.0152266 -0.0015583  -0.0069707 -0.0183014 -0.00152987  -0.00778306 -0.0216123 -0.00148988  -0.00858033 -0.0251513 -0.00144166  -0.00936639 -0.0289108 -0.0013898  -0.010139 -0.0328833 -0.00133479  -0.0108994 -0.0370607 -0.00127977  -0.0116482 -0.0414339 -0.0012238  -0.0123856 -0.045996 -0.00117004  -0.0131143 -0.0507379 -0.00111699  -0.0138323 -0.055653 -0.00106418  -0.0145419 -0.0607319 -0.00101429  -0.0152423 -0.0659675 -0.000965297  -0.0159332 -0.0713537 -0.000917792  -0.0166144 -0.0768813 -0.000871718  -0.0172892 -0.0825445 -0.000827432  -0.0179547 -0.0883356 -0.000784159  -0.0186123 -0.0942468 -0.000742614  -0.0192628 -0.100273 -0.00070262  -0.0199033 -0.106407 -0.000663996  -0.0205384 -0.112643 -0.000626206  -0.021163 -0.118974 -0.000588715  -0.0217813 -0.125394 -0.000553966  -0.0223912 -0.131898 -0.000519872  -0.0229926 -0.13848 -0.00048691  -0.0235853 -0.145135 -0.000455201  -0.0241728 -0.151856 -0.000424504  -0.0247505 -0.15864 -0.000394821  -0.0253203 -0.16548 -0.000366747  -0.0258839 -0.172373 -0.000338793  -0.0264375 -0.179313 -0.000312507  -0.026984 -0.186297 -0.000287354  -0.0275216 -0.193319 -0.000263929  -0.0280519 -0.200376 -0.00024122  -0.0285754 -0.207463 -0.000219107  -0.0290933 -0.214577 -0.000197768  -0.0296013 -0.221716 -0.000178337  -0.0301027 -0.228873 -0.000160158  -0.030597 -0.236048 -0.000142038  -0.0310853 -0.243235 -0.000125587  -0.0315659 -0.250434 -0.000110269  -0.0320401 -0.25764 -9.60231e-05  -0.0325084 -0.264852 -8.29101e-05  -0.03297 -0.272067 -7.11083e-05  -0.0334258 -0.279282 -5.90682e-05  -0.0338759 -0.286496 -5.126e-05  -0.0343215 -0.293707 -4.14848e-05  -0.03476 -0.300913 -3.26037e-05  -0.0351963 -0.308113 -2.67029e-05  -0.0356252 -0.315304 -2.00272e-05  -0.0360503 -0.322488 -1.36495e-05  -0.0364749 -0.329661 -8.70228e-06  -0.0368936 -0.336825 -4.47035e-06  -0.0373096 -0.343976 -5.96046e-08  -0.037724 -0.351115 3.8743e-06  -0.0381374 -0.358241 9.0003e-06  0 0 0  -0.000118181 -0.000187337 -0.000290513  -0.000395209 -0.00085482 -0.000528038  -0.000785843 -0.00193357 -0.000713885  -0.00125474 -0.00336927 -0.000851452  -0.00177303 -0.00512731 -0.000944734  -0.00231788 -0.00718179 -0.00100338  -0.00287616 -0.00951469 -0.00103378  -0.00344026 -0.0121129 -0.00104201  -0.00400209 -0.0149644 -0.00103426  -0.00456148 -0.0180616 -0.00101507  -0.00511611 -0.0213946 -0.000987768  -0.00566828 -0.024956 -0.000955939  -0.00621659 -0.0287384 -0.000920892  -0.00675869 -0.0327325 -0.000883579  -0.00730199 -0.0369311 -0.000846326  -0.00783992 -0.0413263 -0.000809312  -0.00837684 -0.045909 -0.000772536  -0.0089128 -0.0506722 -0.000736535  -0.00944686 -0.0556071 -0.000702322  -0.00997972 -0.0607071 -0.000667214  -0.0105119 -0.0659648 -0.00063467  -0.0110418 -0.07137 -0.000602663  -0.0115708 -0.0769173 -0.000572443  -0.0121012 -0.0825993 -0.000541985  -0.012629 -0.0884092 -0.000513494  -0.0131541 -0.0943401 -0.000486255  -0.0136793 -0.100384 -0.000459433  -0.0142021 -0.106536 -0.000432909  -0.0147246 -0.112789 -0.000407934  -0.0152441 -0.119137 -0.000383914  -0.0157621 -0.125573 -0.00036037  -0.0162784 -0.132093 -0.000337481  -0.0167911 -0.138689 -0.000315845  -0.0173011 -0.145358 -0.000295222  -0.0178099 -0.152093 -0.000274837  -0.0183153 -0.158889 -0.000255644  -0.0188189 -0.165743 -0.000236928  -0.0193179 -0.172647 -0.000218511  -0.0198143 -0.179599 -0.000202179  -0.0203073 -0.186593 -0.000185311  -0.0207963 -0.193625 -0.000169039  -0.0212815 -0.20069 -0.000154138  -0.0217621 -0.207787 -0.000139773  -0.0222414 -0.21491 -0.000126481  -0.0227144 -0.222055 -0.000113487  -0.0231845 -0.22922 -0.000101447  -0.0236509 -0.236402 -9.0301e-05  -0.0241129 -0.243596 -7.98702e-05  -0.0245712 -0.2508 -6.95586e-05  -0.0250244 -0.258012 -6.04391e-05  -0.0254762 -0.265229 -5.19156e-05  -0.0259225 -0.272447 -4.3571e-05  -0.0263643 -0.279666 -3.68357e-05  -0.0268035 -0.286884 -3.1054e-05  -0.0272384 -0.294098 -2.52724e-05  -0.0276706 -0.301307 -2.06232e-05  -0.0281005 -0.308509 -1.52588e-05  -0.0285246 -0.315702 -1.18613e-05  -0.0289462 -0.322888 -7.56979e-06  -0.0293653 -0.330063 -4.41074e-06  -0.0297813 -0.337226 -2.26498e-06  -0.0301957 -0.344377 1.66893e-06  -0.0306077 -0.351517 3.39746e-06  -0.031019 -0.358641 6.19888e-06  0 0 0  -5.31599e-05 -0.000120997 -0.000143647  -0.00017722 -0.000739902 -0.000261903  -0.000354633 -0.0017862 -0.000354469  -0.000570655 -0.00320593 -0.000422955  -0.000813097 -0.00495905 -0.000469983  -0.00107461 -0.00701767 -0.000499606  -0.00134718 -0.0093613 -0.000514925  -0.0016267 -0.0119719 -0.000519514  -0.00191516 -0.0148396 -0.000515223  -0.00220758 -0.0179524 -0.000505328  -0.0025059 -0.0213023 -0.000491202  -0.00280815 -0.0248808 -0.000474632  -0.00311708 -0.0286796 -0.000455201  -0.00343359 -0.0326904 -0.000436723  -0.00375396 -0.0369051 -0.000417113  -0.0040819 -0.0413171 -0.000397921  -0.00441718 -0.0459175 -0.000378609  -0.00475955 -0.0506967 -0.000359535  -0.00510836 -0.0556487 -0.000341535  -0.0054636 -0.0607659 -0.000323892  -0.00582671 -0.0660389 -0.000307381  -0.00619662 -0.0714609 -0.000290275  -0.00657213 -0.0770239 -0.00027436  -0.00695372 -0.0827224 -0.00025928  -0.00734174 -0.0885473 -0.000245452  -0.00773454 -0.0944929 -0.000230789  -0.00813472 -0.100552 -0.00021708  -0.00853729 -0.106719 -0.00020498  -0.00894618 -0.112985 -0.000191927  -0.00935984 -0.119347 -0.000180125  -0.00977731 -0.125798 -0.000168025  -0.010198 -0.132329 -0.000157237  -0.0106225 -0.138938 -0.000147223  -0.0110495 -0.145618 -0.000136197  -0.0114789 -0.152364 -0.000126123  -0.0119102 -0.159172 -0.000116825  -0.0123446 -0.166035 -0.000107527  -0.01278 -0.172949 -9.88245e-05  -0.0132174 -0.17991 -9.01818e-05  -0.0136549 -0.186912 -8.22544e-05  -0.0140927 -0.193953 -7.52807e-05  -0.0145302 -0.201026 -6.86049e-05  -0.0149689 -0.208131 -6.23465e-05  -0.0154083 -0.21526 -5.48363e-05  -0.0158463 -0.22241 -4.84586e-05  -0.0162854 -0.229582 -4.31538e-05  -0.0167217 -0.236769 -3.74317e-05  -0.0171576 -0.243966 -3.31402e-05  -0.0175917 -0.251175 -2.81334e-05  -0.0180244 -0.258392 -2.43187e-05  -0.0184572 -0.265611 -2.05636e-05  -0.0188861 -0.272833 -1.66893e-05  -0.0193155 -0.280056 -1.38879e-05  -0.0197406 -0.287276 -1.15633e-05  -0.0201657 -0.294492 -9.11951e-06  -0.0205886 -0.301703 -6.3777e-06  -0.0210102 -0.308907 -4.58956e-06  -0.0214293 -0.316102 -2.86102e-06  -0.0218465 -0.323288 -3.03984e-06  -0.0222619 -0.330464 -1.3113e-06  -0.0226755 -0.337629 8.34465e-07  -0.0230875 -0.344781 1.43051e-06  -0.0234973 -0.351918 3.15905e-06  -0.0239077 -0.359041 4.23193e-06  0 0 0  1.00359e-05 -0.00011003 3.93391e-06  3.35723e-05 -0.000720918 5.54323e-06  6.2868e-05 -0.0017629 5.06639e-06  9.37283e-05 -0.00318202 4.05312e-06  0.000122368 -0.00493902 2.74181e-06  0.000142425 -0.00700441 1.3113e-06  0.000155091 -0.00935474 4.76837e-07  0.000154197 -0.0119747 4.17233e-07  0.000141561 -0.0148516 0  0.000117302 -0.0179752 1.37091e-06  7.68304e-05 -0.021336 3.09944e-06  2.18749e-05 -0.0249254 4.70877e-06  -4.80413e-05 -0.0287353 5.72205e-06  -0.000134289 -0.0327582 8.04663e-06  -0.000235915 -0.0369856 1.03116e-05  -0.000352204 -0.0414094 1.15633e-05  -0.000484943 -0.0460216 1.32918e-05  -0.000632763 -0.0508141 1.47223e-05  -0.000797391 -0.0557789 1.64509e-05  -0.000975609 -0.0609075 1.74642e-05  -0.00116873 -0.0661934 1.95503e-05  -0.00137556 -0.0716278 2.04444e-05  -0.00159562 -0.0772044 2.17557e-05  -0.00183177 -0.0829143 2.13385e-05  -0.00207961 -0.0887517 2.21133e-05  -0.00233936 -0.0947097 2.25306e-05  -0.00261188 -0.100781 2.32458e-05  -0.00289559 -0.106957 2.41995e-05  -0.00319183 -0.113236 2.34246e-05  -0.00349748 -0.119608 2.36034e-05  -0.00381184 -0.126067 2.32458e-05  -0.00413716 -0.13261 2.27094e-05  -0.00447083 -0.139228 2.31862e-05  -0.00481343 -0.145917 2.2769e-05  -0.00516343 -0.152673 2.21729e-05  -0.0055232 -0.159489 2.15769e-05  -0.00588512 -0.16636 2.11596e-05  -0.00625801 -0.173281 2.01464e-05  -0.00663447 -0.18025 2.02656e-05  -0.00701666 -0.187258 1.93715e-05  -0.00740099 -0.194305 1.82986e-05  -0.00779414 -0.201384 1.81198e-05  -0.00819087 -0.208493 1.77622e-05  -0.00858808 -0.215628 1.64509e-05  -0.00898957 -0.222784 1.58548e-05  -0.00939393 -0.229958 1.46627e-05  -0.00980091 -0.237148 1.49608e-05  -0.0102098 -0.244351 1.37687e-05  -0.0106194 -0.251563 1.26958e-05  -0.0110321 -0.258781 1.19209e-05  -0.0114439 -0.266003 1.17421e-05  -0.0118573 -0.273228 9.89437e-06  -0.0122712 -0.280452 8.58307e-06  -0.0126858 -0.287674 9.0003e-06  -0.0131001 -0.294892 7.92742e-06  -0.0135131 -0.302104 6.91414e-06  -0.0139258 -0.309309 5.78165e-06  -0.0143392 -0.316506 5.1856e-06  -0.0147505 -0.323693 4.29153e-06  -0.0151641 -0.330868 3.03984e-06  -0.0155721 -0.338033 2.44379e-06  -0.0159829 -0.345186 2.26498e-06  -0.0163901 -0.352322 1.43051e-06  -0.0167966 -0.359443 5.96046e-07  0 0 0  7.22036e-05 -0.000151992 0.000151873  0.000242978 -0.000794828 0.000272274  0.000479355 -0.0018611 0.000362873  0.000757456 -0.00329667 0.000428855  0.00105461 -0.00506496 0.000473738  0.00135732 -0.00713795 0.000500381  0.00165254 -0.00949395 0.000514388  0.00193375 -0.0121197 0.000517547  0.00219655 -0.0150017 0.000514805  0.00243682 -0.0181293 0.000506163  0.00265408 -0.0214949 0.000495076  0.0028463 -0.0250908 0.000482082  0.00301462 -0.0289071 0.00046587  0.00315827 -0.0329372 0.000451088  0.00327569 -0.0371717 0.000435531  0.00336945 -0.0416032 0.000420153  0.00343907 -0.0462231 0.000404179  0.00348556 -0.0510239 0.000389218  0.00350845 -0.0559975 0.000374079  0.0035063 -0.0611351 0.000359118  0.00348318 -0.06643 0.000344217  0.00343907 -0.0718728 0.000330627  0.00337136 -0.0774587 0.000317037  0.00328434 -0.0831774 0.000303209  0.00317562 -0.0890235 0.000290036  0.00305045 -0.0949896 0.000276506  0.0029037 -0.101069 0.000263572  0.00274086 -0.107255 0.000250816  0.00255871 -0.113541 0.000239074  0.00236142 -0.11992 0.000227153  0.00214684 -0.126388 0.000214934  0.00191855 -0.132937 0.000203371  0.00167513 -0.139562 0.000191748  0.00141692 -0.146259 0.000180662  0.00114536 -0.15302 0.000169933  0.000862598 -0.159841 0.000160336  0.00056839 -0.166718 0.000149429  0.000261784 -0.173645 0.000140369  -5.45979e-05 -0.180617 0.000130475  -0.000380993 -0.187631 0.000121474  -0.00071454 -0.194681 0.000112653  -0.00105977 -0.201766 0.000104189  -0.00140977 -0.208877 9.57847e-05  -0.00176907 -0.216014 8.83341e-05  -0.00213313 -0.223174 8.08835e-05  -0.00250697 -0.230351 7.51615e-05  -0.00288105 -0.237544 6.66976e-05  -0.00326443 -0.244748 5.94854e-05  -0.00364876 -0.251962 5.38826e-05  -0.00403976 -0.259182 4.8697e-05  -0.00443244 -0.266406 4.30942e-05  -0.00482941 -0.273631 3.67761e-05  -0.00522852 -0.280856 3.36766e-05  -0.00562978 -0.288079 2.89679e-05  -0.00603318 -0.295297 2.39611e-05  -0.00643682 -0.302511 1.9908e-05  -0.00684166 -0.309716 1.66297e-05  -0.00724912 -0.316912 1.3411e-05  -0.00765514 -0.324099 9.95398e-06  -0.00806284 -0.331277 8.16584e-06  -0.00847077 -0.33844 5.06639e-06  -0.00887609 -0.345591 1.78814e-06  -0.00928259 -0.352729 -7.7486e-07  -0.00968695 -0.359852 -3.15905e-06  0 0 0  0.000138268 -0.000248134 0.000297546  0.000459999 -0.000964582 0.000535488  0.000909522 -0.00208092 0.000718534  0.00143808 -0.00355071 0.000852168  0.00200811 -0.00533688 0.000943065  0.00259331 -0.00741905 0.000998318  0.00317255 -0.00977933 0.00102675  0.00373381 -0.0124058 0.00103402  0.00427061 -0.0152866 0.00102717  0.0047763 -0.0184141 0.00101048  0.00524938 -0.02178 0.000986278  0.00568825 -0.0253755 0.000958323  0.0060944 -0.0291934 0.000926673  0.00646496 -0.0332252 0.000894666  0.00680298 -0.0374629 0.000861764  0.0071069 -0.0418972 0.00082916  0.0073781 -0.0465217 0.00079596  0.00761616 -0.0513275 0.000763595  0.00782323 -0.0563056 0.000732541  0.00799954 -0.0614483 0.000701427  0.00814545 -0.0667478 0.000670791  0.00826204 -0.0721969 0.000641644  0.00835001 -0.0777871 0.000613272  0.0084095 -0.0835121 0.000584304  0.00844204 -0.0893636 0.000558138  0.00844812 -0.0953342 0.000530958  0.00842857 -0.101419 0.000504136  0.00838614 -0.107611 0.000478864  0.00831842 -0.113902 0.000454247  0.00822854 -0.120286 0.000430107  0.00811577 -0.126757 0.000406504  0.00798249 -0.133312 0.000383675  0.007828 -0.139941 0.000361383  0.00765562 -0.146641 0.000340402  0.00746393 -0.153406 0.000318766  0.00725508 -0.160231 0.000299275  0.00702953 -0.167111 0.000278652  0.00678778 -0.17404 0.000260055  0.00653219 -0.181015 0.000241101  0.00626135 -0.188031 0.000223458  0.00597668 -0.195084 0.000207067  0.00568104 -0.20217 0.000190258  0.00537395 -0.209283 0.000175476  0.00505543 -0.216422 0.000160396  0.00472593 -0.223582 0.000145853  0.00438714 -0.230762 0.000132143  0.00404167 -0.237954 0.000118852  0.00368643 -0.245159 0.000106812  0.00332594 -0.252373 9.56655e-05  0.00295711 -0.259594 8.52346e-05  0.0025816 -0.266818 7.37309e-05  0.00220323 -0.274044 6.44922e-05  0.0018177 -0.281268 5.54323e-05  0.00142932 -0.28849 4.73857e-05  0.0010376 -0.295709 4.02331e-05  0.000642776 -0.302921 3.29018e-05  0.000244856 -0.310126 2.71201e-05  -0.000155449 -0.317322 2.11596e-05  -0.000555754 -0.324509 1.63913e-05  -0.000960112 -0.331685 1.19805e-05  -0.00136471 -0.338849 7.98702e-06  -0.00176954 -0.346 3.75509e-06  -0.00217438 -0.353139 -1.54972e-06  -0.00257468 -0.360263 -6.13928e-06  0 0 0  0.000207782 -0.000408828 0.000439465  0.000691801 -0.0012387 0.000794768  0.00136487 -0.00243253 0.00107199  0.00215545 -0.0039475 0.00127363  0.0030053 -0.00575811 0.00141084  0.00387615 -0.00784856 0.00149584  0.00474125 -0.0102095 0.00153905  0.00558174 -0.0128306 0.00155139  0.00638956 -0.0157058 0.00154048  0.00715846 -0.018827 0.00151521  0.00788617 -0.0221874 0.00147814  0.00857073 -0.0257784 0.00143552  0.00921237 -0.0295926 0.00138849  0.0098092 -0.0336232 0.00133878  0.0103651 -0.0378582 0.00128925  0.010878 -0.0422924 0.0012387  0.0113498 -0.0469171 0.00118858  0.0117806 -0.0517229 0.00113988  0.0121714 -0.0567021 0.00109214  0.0125247 -0.0618463 0.00104481  0.012839 -0.0671483 0.000999331  0.0131159 -0.0725992 0.000954211  0.0133582 -0.0781915 0.000911117  0.0135628 -0.0839181 0.000868678  0.0137355 -0.089772 0.000827134  0.0138744 -0.0957465 0.000786841  0.0139809 -0.101833 0.000747442  0.0140572 -0.108026 0.000709653  0.0141026 -0.114319 0.000671446  0.0141176 -0.120705 0.000634968  0.0141078 -0.127179 0.000599563  0.0140691 -0.133734 0.000565171  0.0140052 -0.140365 0.000531614  0.0139139 -0.147066 0.000499845  0.0138023 -0.153832 0.000468373  0.0136673 -0.160658 0.000438571  0.0135114 -0.167538 0.000408828  0.0133333 -0.174469 0.000380993  0.0131371 -0.181445 0.0003528  0.0129218 -0.18846 0.000325978  0.0126889 -0.195513 0.000301957  0.0124383 -0.202598 0.000277102  0.0121739 -0.209712 0.000253856  0.011894 -0.216851 0.000232279  0.0116029 -0.224011 0.000210524  0.011296 -0.231188 0.000191033  0.0109797 -0.238381 0.000171006  0.0106497 -0.245584 0.000153184  0.0103118 -0.252798 0.000135958  0.00996399 -0.260017 0.000121415  0.00960803 -0.267239 0.000105739  0.00924349 -0.274465 9.20296e-05  0.00887394 -0.281689 7.9453e-05  0.00849795 -0.28891 6.69956e-05  0.00811577 -0.296126 5.62072e-05  0.00772858 -0.303338 4.69089e-05  0.00733876 -0.310541 3.74317e-05  0.00694227 -0.317736 2.96831e-05  0.00654626 -0.324922 2.24113e-05  0.00614548 -0.332096 1.60336e-05  0.0057435 -0.33926 9.47714e-06  0.00534177 -0.346412 3.8743e-06  0.00493932 -0.353551 -1.07288e-06  0.00453854 -0.360678 -8.40425e-06  0 0 0  0.000285961 -0.000645339 0.000577271  0.000951245 -0.00163519 0.00105101  0.0018672 -0.00292891 0.00142235  0.00293198 -0.00449884 0.00169486  0.00406924 -0.0063327 0.00188136  0.00522941 -0.00842816 0.00199544  0.00638059 -0.0107825 0.00205296  0.00749946 -0.0133935 0.00207007  0.00857848 -0.016256 0.00205576  0.00960946 -0.0193654 0.00202203  0.010588 -0.022715 0.00197345  0.0115149 -0.0262973 0.00191516  0.01239 -0.0301036 0.00185275  0.0132123 -0.0341261 0.00178707  0.0139835 -0.038357 0.00171888  0.0147038 -0.0427873 0.00165206  0.0153748 -0.0474077 0.00158507  0.0159968 -0.0522105 0.0015195  0.0165712 -0.0571877 0.00145519  0.0170982 -0.0623296 0.00139183  0.0175804 -0.0676295 0.00132984  0.0180166 -0.0730788 0.00127  0.0184113 -0.0786698 0.00121164  0.0187632 -0.0843956 0.00115448  0.0190721 -0.0902482 0.00109762  0.0193421 -0.0962213 0.00104469  0.0195739 -0.102308 0.000992358  0.0197682 -0.108499 0.000940502  0.019925 -0.114791 0.000890434  0.0200474 -0.121177 0.000841856  0.0201356 -0.12765 0.00079447  0.0201914 -0.134204 0.000748932  0.0202148 -0.140834 0.00070411  0.0202088 -0.147533 0.000660479  0.0201745 -0.154298 0.000618339  0.0201125 -0.161123 0.000578284  0.0200231 -0.168001 0.000539601  0.0199077 -0.17493 0.000501573  0.0197699 -0.181903 0.000464618  0.019608 -0.188918 0.000430048  0.0194271 -0.195969 0.000395715  0.019223 -0.203051 0.000364482  0.0189984 -0.210163 0.000332773  0.0187571 -0.2173 0.000303805  0.0184972 -0.224457 0.000274777  0.0182235 -0.231633 0.000249088  0.0179353 -0.238822 0.000224054  0.017633 -0.246025 0.000199616  0.0173159 -0.253235 0.000176847  0.0169883 -0.260452 0.000156403  0.0166495 -0.267673 0.000136375  0.0163004 -0.274895 0.000117958  0.0159435 -0.282116 0.000101507  0.0155768 -0.289336 8.61287e-05  0.0152025 -0.29655 7.23004e-05  0.0148251 -0.303758 5.9247e-05  0.0144403 -0.310961 4.78625e-05  0.0140491 -0.318153 3.80874e-05  0.0136585 -0.325337 2.83718e-05  0.0132585 -0.332511 1.93715e-05  0.0128601 -0.339674 1.22786e-05  0.0124574 -0.346825 4.82798e-06  0.0120571 -0.353965 -2.80142e-06  0.0116553 -0.361095 -1.01924e-05  0 0 0  0.000376508 -0.000982344 0.000711441  0.00125244 -0.00217932 0.00130606  0.00243647 -0.00358921 0.00177562  0.00379533 -0.00521356 0.00212175  0.00523058 -0.00706476 0.00235581  0.00668466 -0.00915557 0.00249821  0.00811911 -0.0114956 0.00257158  0.0095154 -0.0140882 0.00259179  0.0108605 -0.0169327 0.00257462  0.0121484 -0.0200245 0.00253212  0.013377 -0.0233592 0.00247163  0.0145437 -0.0269271 0.00239974  0.0156476 -0.030721 0.0023216  0.0166939 -0.0347341 0.00223851  0.0176797 -0.038955 0.00215447  0.0186052 -0.0433778 0.00206965  0.0194738 -0.0479915 0.00198621  0.0202833 -0.0527879 0.00190359  0.0210398 -0.0577583 0.00182146  0.0217419 -0.0628955 0.00174266  0.0223891 -0.0681898 0.00166529  0.0229838 -0.0736349 0.00159025  0.0235292 -0.0792224 0.00151581  0.0240235 -0.084944 0.00144392  0.0244709 -0.0907919 0.00137329  0.0248698 -0.0967611 0.00130498  0.0252254 -0.102843 0.00123978  0.0255359 -0.109031 0.00117511  0.0258026 -0.115319 0.00111252  0.0260299 -0.121701 0.00105095  0.026216 -0.12817 0.00099194  0.0263634 -0.134721 0.000933409  0.0264761 -0.141347 0.000877976  0.0265515 -0.148043 0.00082314  0.0265923 -0.154804 0.000771165  0.0266011 -0.161624 0.000719905  0.0265787 -0.168499 0.000670135  0.026526 -0.175423 0.000623405  0.0264442 -0.182393 0.000577867  0.0263355 -0.189403 0.000533998  0.0261993 -0.196451 0.000491798  0.026042 -0.203529 0.000451207  0.0258582 -0.210637 0.000412345  0.025655 -0.217769 0.00037545  0.0254269 -0.224922 0.000340104  0.0251832 -0.232094 0.000307024  0.024919 -0.23928 0.000275671  0.0246406 -0.246478 0.000245035  0.0243442 -0.253684 0.000217795  0.0240355 -0.260898 0.000190735  0.0237117 -0.268115 0.000166178  0.023376 -0.275333 0.000143349  0.0230286 -0.282551 0.000123441  0.0226724 -0.289768 0.000103772  0.0223076 -0.296979 8.70228e-05  0.0219343 -0.304184 7.07507e-05  0.0215559 -0.311383 5.72205e-05  0.0211678 -0.318574 4.50015e-05  0.0207775 -0.325755 3.35574e-05  0.0203812 -0.332928 2.30074e-05  0.0199833 -0.340088 1.48416e-05  0.0195825 -0.34724 6.61612e-06  0.0191803 -0.354382 -2.5034e-06  0.0187793 -0.361515 -9.59635e-06  0 0 0  0.000494577 -0.00145632 0.000845075  0.00162037 -0.00290632 0.00156605  0.00311512 -0.00443679 0.00214201  0.00478598 -0.00610149 0.00255853  0.00652361 -0.00795227 0.00283879  0.0082674 -0.0100266 0.0030092  0.00998303 -0.0123423 0.00309479  0.0116497 -0.0149093 0.00311875  0.0132561 -0.0177287 0.00309855  0.0147982 -0.0207986 0.00304776  0.0162713 -0.0241114 0.00297558  0.0176755 -0.0276628 0.00288951  0.0190091 -0.0314429 0.0027948  0.020275 -0.0354407 0.00269586  0.0214709 -0.0396499 0.00259542  0.0226011 -0.0440613 0.00249428  0.0236646 -0.0486635 0.00239241  0.0246619 -0.0534515 0.00229263  0.0255969 -0.058413 0.0021944  0.0264692 -0.063541 0.00209826  0.0272807 -0.0688283 0.00200504  0.0280321 -0.0742649 0.00191396  0.0287266 -0.0798447 0.00182492  0.0293621 -0.0855581 0.00173765  0.0299442 -0.0914014 0.00165331  0.030473 -0.0973632 0.00157064  0.0309494 -0.103437 0.00148982  0.0313729 -0.109619 0.00141239  0.0317509 -0.115901 0.00133628  0.0320783 -0.122276 0.00126272  0.0323626 -0.128739 0.00119114  0.0326006 -0.135283 0.00112075  0.0327969 -0.141902 0.00105327  0.0329535 -0.148592 0.000988245  0.0330675 -0.155347 0.00092411  0.0331461 -0.162161 0.000863135  0.0331872 -0.169029 0.000804067  0.0331938 -0.175948 0.000746429  0.0331686 -0.182911 0.000691712  0.0331092 -0.189916 0.000638962  0.0330203 -0.196956 0.00058794  0.0329041 -0.20403 0.000539243  0.0327585 -0.211131 0.000492394  0.0325899 -0.218257 0.000447392  0.0323932 -0.225405 0.000405431  0.0321782 -0.232571 0.000365674  0.0319386 -0.239751 0.000327051  0.0316825 -0.246944 0.00029099  0.0314047 -0.254146 0.000256121  0.0311108 -0.261354 0.000225306  0.0308018 -0.268565 0.000195563  0.030477 -0.275779 0.000169218  0.030139 -0.282993 0.000144243  0.0297897 -0.290204 0.000120521  0.0294304 -0.297411 9.94205e-05  0.0290594 -0.304613 8.14199e-05  0.0286829 -0.311809 6.55651e-05  0.0282996 -0.318996 5.0962e-05  0.0279102 -0.326175 3.86834e-05  0.0275142 -0.333344 2.74181e-05  0.0271161 -0.340504 1.69873e-05  0.0267136 -0.347655 8.16584e-06  0.0263126 -0.354797 -2.98023e-07  0.0259109 -0.361933 -9.71556e-06  0 0 0  0.000630327 -0.00212562 0.000987887  0.00211723 -0.0038746 0.00186455  0.00396369 -0.00548691 0.00253278  0.00595254 -0.00715744 0.00301099  0.007985 -0.00898647 0.00333083  0.0100092 -0.0110271 0.00352556  0.0119942 -0.0133091 0.00362378  0.0139226 -0.0158435 0.00365198  0.0157863 -0.0186345 0.00362921  0.0175762 -0.021678 0.00356984  0.0192913 -0.0249687 0.00348622  0.0209289 -0.0284992 0.00338608  0.0224888 -0.032259 0.00327599  0.023972 -0.0362415 0.00316018  0.0253766 -0.0404357 0.0030421  0.0267084 -0.044832 0.00292301  0.0279651 -0.0494222 0.00280482  0.0291485 -0.0541966 0.00268751  0.0302603 -0.0591463 0.00257325  0.0313013 -0.0642637 0.00246024  0.0322734 -0.0695387 0.00235003  0.0331799 -0.0749655 0.00224382  0.0340198 -0.0805349 0.00213826  0.0347955 -0.0862396 0.00203639  0.0355105 -0.0920712 0.00193703  0.0361638 -0.0980225 0.00183964  0.0367591 -0.104088 0.00174588  0.0372964 -0.11026 0.00165421  0.0377805 -0.116533 0.00156456  0.0382084 -0.1229 0.00147802  0.0385865 -0.129353 0.00139415  0.0389135 -0.135889 0.00131154  0.0391917 -0.142499 0.00123256  0.0394251 -0.149181 0.00115579  0.0396128 -0.155927 0.00108063  0.0397563 -0.162732 0.00100839  0.0398602 -0.169592 0.00093925  0.0399244 -0.176501 0.000872076  0.0399504 -0.183458 0.000807464  0.0399408 -0.190453 0.00074476  0.0398953 -0.197485 0.000684619  0.0398183 -0.204551 0.000627458  0.0397105 -0.211644 0.000573099  0.0395727 -0.218763 0.000521481  0.0394084 -0.225904 0.000470459  0.0392153 -0.233062 0.000423014  0.0389991 -0.240235 0.000378788  0.0387611 -0.247421 0.000336587  0.0385005 -0.254615 0.000296831  0.0382187 -0.261817 0.000260055  0.0379224 -0.269023 0.000225186  0.0376065 -0.276231 0.000193417  0.0372765 -0.283438 0.000163734  0.036931 -0.290644 0.000136971  0.0365767 -0.297846 0.000113606  0.0362077 -0.305044 9.23276e-05  0.0358307 -0.312234 7.33733e-05  0.0354457 -0.319419 5.71609e-05  0.0350535 -0.326595 4.28557e-05  0.0346577 -0.333762 3.01003e-05  0.0342584 -0.340919 1.94311e-05  0.0338554 -0.348069 1.0252e-05  0.0334516 -0.355212 1.01328e-06  0.0330467 -0.36235 -8.16584e-06  0 0 0  0.00107384 -0.00316143 0.00125122  0.00297596 -0.00509363 0.00221086  0.00512564 -0.00671464 0.00294304  0.00737795 -0.00834966 0.00347078  0.00966281 -0.0101341 0.00382596  0.0119368 -0.0121337 0.00404483  0.0141742 -0.014377 0.00415695  0.0163537 -0.0168765 0.00418919  0.0184631 -0.0196351 0.00416464  0.020498 -0.0226517 0.00409687  0.0224509 -0.0259181 0.00400245  0.0243191 -0.029426 0.00388795  0.0261022 -0.0331657 0.0037626  0.0278009 -0.0371288 0.00363034  0.0294133 -0.041305 0.00349528  0.0309429 -0.0456856 0.0033583  0.0323905 -0.0502592 0.00322253  0.0337567 -0.055018 0.00308824  0.0350435 -0.0599532 0.00295657  0.0362494 -0.0650553 0.00282723  0.0373833 -0.070319 0.00270045  0.0384389 -0.0757313 0.00257707  0.0394239 -0.0812876 0.00245649  0.040337 -0.0869789 0.00233978  0.041181 -0.092797 0.002226  0.0419583 -0.0987383 0.00211281  0.0426692 -0.104792 0.00200403  0.0433189 -0.110953 0.00190032  0.0439035 -0.117214 0.00179648  0.044431 -0.123568 0.00169605  0.0448989 -0.130011 0.00159919  0.0453129 -0.136534 0.00150567  0.0456722 -0.143134 0.00141406  0.0459769 -0.149804 0.00132394  0.0462365 -0.156539 0.00123847  0.0464442 -0.163334 0.00115561  0.0466068 -0.170183 0.0010761  0.0467269 -0.177084 0.000997782  0.046802 -0.184026 0.000923634  0.0468371 -0.191013 0.000852406  0.0468342 -0.198036 0.000784159  0.046793 -0.20509 0.0007177  0.0467203 -0.212175 0.000654757  0.046612 -0.219285 0.000593841  0.0464725 -0.226416 0.000536323  0.0463054 -0.233565 0.00048244  0.0461071 -0.240729 0.000430822  0.0458858 -0.247907 0.000382841  0.0456378 -0.255094 0.000336587  0.0453696 -0.262287 0.000294328  0.0450809 -0.269486 0.000253975  0.0447702 -0.276685 0.000217974  0.0444443 -0.283888 0.000184  0.0441015 -0.291087 0.000154138  0.0437446 -0.298283 0.000126183  0.0433779 -0.305475 0.000101328  0.0429971 -0.312661 8.0049e-05  0.0426104 -0.319841 6.19292e-05  0.0422173 -0.327012 4.73857e-05  0.0418134 -0.334176 3.3617e-05  0.0414102 -0.341334 2.29478e-05  0.0410044 -0.348482 1.36495e-05  0.0405972 -0.355627 4.52995e-06  0.0401921 -0.362767 -5.30481e-06  0 0 0  -0.00111948 -0.00314863 -0.000936806  -0.00301309 -0.00504431 -0.00166142  -0.00513092 -0.00661832 -0.00222445  -0.00734982 -0.00819298 -0.00264055  -0.00961211 -0.00990223 -0.00292873  -0.0118812 -0.011806 -0.0031113  -0.0141366 -0.0139391 -0.00320882  -0.0163598 -0.0163123 -0.00324059  -0.0185375 -0.018929 -0.00322336  -0.0206648 -0.0217898 -0.00317121  -0.0227348 -0.0248878 -0.00309283  -0.0247452 -0.0282188 -0.00299966  -0.0266948 -0.0317744 -0.00289619  -0.0285857 -0.0355466 -0.00278676  -0.0304166 -0.0395272 -0.00267285  -0.0321906 -0.0437077 -0.00256151  -0.0339093 -0.0480815 -0.00245005  -0.0355712 -0.0526375 -0.0023402  -0.0371822 -0.0573701 -0.00223404  -0.0387427 -0.0622712 -0.00212914  -0.0402517 -0.0673325 -0.00202781  -0.0417135 -0.0725474 -0.00193036  -0.0431272 -0.0779085 -0.00183475  -0.0444975 -0.0834088 -0.00174314  -0.0458229 -0.0890399 -0.00165319  -0.0471039 -0.0947975 -0.00156611  -0.0483449 -0.100673 -0.00148237  -0.049542 -0.106662 -0.00140089  -0.0507009 -0.112758 -0.00132203  -0.0518221 -0.118952 -0.00124598  -0.0529072 -0.12524 -0.00117183  -0.05395 -0.131617 -0.00110066  -0.0549603 -0.138077 -0.00103074  -0.0559347 -0.144614 -0.000963449  -0.0568743 -0.151223 -0.00090009  -0.0577819 -0.1579 -0.000837922  -0.0586565 -0.164636 -0.000777364  -0.0595005 -0.17143 -0.000719547  -0.0603127 -0.178278 -0.000663757  -0.061094 -0.185173 -0.000610948  -0.0618505 -0.192111 -0.000560403  -0.0625775 -0.199089 -0.000511885  -0.0632792 -0.206101 -0.000464439  -0.0639539 -0.213145 -0.000420451  -0.064604 -0.220218 -0.000379264  -0.065232 -0.227314 -0.000339687  -0.0658369 -0.234431 -0.000301301  -0.0664206 -0.241565 -0.000266492  -0.0669825 -0.248716 -0.000233412  -0.0675268 -0.255878 -0.000202596  -0.0680509 -0.263048 -0.000174046  -0.0685608 -0.270226 -0.000149012  -0.0690536 -0.277407 -0.000124156  -0.0695317 -0.284591 -0.000103772  -0.0699952 -0.291777 -8.32677e-05  -0.0704477 -0.298961 -6.71148e-05  -0.0708916 -0.306141 -5.32269e-05  -0.0713234 -0.313317 -4.071e-05  -0.0717483 -0.320486 -2.96235e-05  -0.0721705 -0.32765 -2.15769e-05  -0.0725844 -0.334808 -1.49012e-05  -0.0729978 -0.34196 -5.78165e-06  -0.0734076 -0.349106 -1.72853e-06  -0.0738204 -0.356249 5.90086e-06  0 0 0  -0.00063641 -0.0020679 -0.000735104  -0.0020956 -0.00378167 -0.00139236  -0.00389406 -0.0053604 -0.00190604  -0.00583866 -0.00698795 -0.00228381  -0.00784144 -0.00876106 -0.00254375  -0.00985616 -0.0107321 -0.00270712  -0.0118571 -0.0129267 -0.00279254  -0.0138267 -0.0153592 -0.00282007  -0.0157548 -0.0180337 -0.00280374  -0.0176353 -0.0209487 -0.00275642  -0.0194637 -0.0241005 -0.00268841  -0.0212412 -0.0274822 -0.00260586  -0.0229666 -0.031087 -0.00251454  -0.0246421 -0.0349071 -0.00241822  -0.0262666 -0.0389337 -0.00232095  -0.0278414 -0.0431608 -0.00222278  -0.0293696 -0.0475773 -0.00212586  -0.0308526 -0.0521769 -0.00203115  -0.0322906 -0.0569513 -0.00193763  -0.0336857 -0.0618931 -0.00184679  -0.0350387 -0.0669947 -0.00175887  -0.0363514 -0.0722482 -0.00167394  -0.0376257 -0.0776471 -0.0015915  -0.0388612 -0.0831834 -0.00151139  -0.0400593 -0.0888519 -0.00143355  -0.0412215 -0.0946437 -0.00135893  -0.0423484 -0.100553 -0.0012849  -0.0434415 -0.106574 -0.0012148  -0.0445012 -0.1127 -0.0011465  -0.0455278 -0.118925 -0.00108063  -0.0465214 -0.125244 -0.00101608  -0.0474851 -0.131649 -0.000953555  -0.0484183 -0.138136 -0.000893652  -0.0493205 -0.144699 -0.000836551  -0.0501957 -0.151334 -0.000780284  -0.0510414 -0.158033 -0.000726759  -0.0518601 -0.164793 -0.000674367  -0.0526521 -0.17161 -0.00062418  -0.0534186 -0.178477 -0.000576675  -0.0541601 -0.185391 -0.000530422  -0.0548766 -0.192348 -0.000485778  -0.0555701 -0.199342 -0.000443876  -0.0562387 -0.206372 -0.000403404  -0.0568864 -0.213432 -0.000365198  -0.0575144 -0.220519 -0.000329077  -0.0581222 -0.227628 -0.000294924  -0.0587091 -0.234758 -0.00026238  -0.0592782 -0.241904 -0.000231028  -0.0598297 -0.249064 -0.000203669  -0.0603626 -0.256237 -0.000176847  -0.060883 -0.263417 -0.000152111  -0.0613852 -0.270601 -0.000129044  -0.061877 -0.277791 -0.000108123  -0.0623536 -0.284982 -9.0003e-05  -0.0628188 -0.292172 -7.32541e-05  -0.063272 -0.29936 -5.98431e-05  -0.0637186 -0.306544 -4.63128e-05  -0.0641556 -0.313722 -3.55244e-05  -0.0645869 -0.320895 -2.50936e-05  -0.0650108 -0.328061 -1.74046e-05  -0.0654294 -0.335219 -1.16229e-05  -0.065845 -0.342369 -4.82798e-06  -0.0662582 -0.349512 4.76837e-07  -0.0666707 -0.356653 7.33137e-06  0 0 0  -0.000483807 -0.00138244 -0.000620723  -0.00156547 -0.00279638 -0.00116014  -0.00300354 -0.00430486 -0.00160199  -0.00462198 -0.00594295 -0.00193155  -0.00632265 -0.00775741 -0.00215912  -0.00805205 -0.00978077 -0.00230104  -0.00977612 -0.0120319 -0.00237608  -0.0114763 -0.0145184 -0.00239962  -0.0131429 -0.0172457 -0.00238633  -0.0147691 -0.0202114 -0.00234628  -0.0163537 -0.0234114 -0.00228685  -0.0178947 -0.0268401 -0.00221616  -0.0193918 -0.0304897 -0.00213856  -0.0208466 -0.0343536 -0.00205612  -0.0222605 -0.0384225 -0.00197297  -0.0236341 -0.0426896 -0.00188875  -0.0249684 -0.0471463 -0.00180614  -0.0262671 -0.0517846 -0.00172502  -0.0275285 -0.0565971 -0.00164503  -0.0287571 -0.0615757 -0.00156832  -0.0299516 -0.0667136 -0.00149387  -0.031111 -0.0720024 -0.00142133  -0.0322416 -0.077435 -0.00135118  -0.0333403 -0.0830056 -0.00128275  -0.0344082 -0.0887053 -0.00121719  -0.0354496 -0.0945297 -0.00115347  -0.0364596 -0.10047 -0.00109106  -0.0374432 -0.106521 -0.00103104  -0.0383998 -0.112676 -0.000973105  -0.0393294 -0.118929 -0.000916958  -0.0402319 -0.125274 -0.00086242  -0.0411109 -0.131705 -0.000809729  -0.0419636 -0.138217 -0.000758767  -0.0427926 -0.144804 -0.000709891  -0.0435977 -0.151461 -0.000661552  -0.0443804 -0.158182 -0.00061661  -0.0451398 -0.164965 -0.000572681  -0.0458789 -0.1718 -0.000530005  -0.0465941 -0.178687 -0.000489712  -0.0472896 -0.185619 -0.000450134  -0.047966 -0.192593 -0.000412703  -0.0486221 -0.199604 -0.000377893  -0.0492582 -0.206648 -0.000343263  -0.0498769 -0.213722 -0.000309944  -0.0504773 -0.220822 -0.00027895  -0.0510612 -0.227944 -0.00025034  -0.0516279 -0.235085 -0.000222743  -0.0521801 -0.242243 -0.000197113  -0.0527174 -0.249413 -0.00017333  -0.0532405 -0.256593 -0.000150442  -0.0537486 -0.263781 -0.000130594  -0.0542445 -0.270973 -0.000110686  -0.0547292 -0.27817 -9.26852e-05  -0.0552022 -0.285366 -7.73072e-05  -0.0556679 -0.292561 -6.25849e-05  -0.0561209 -0.299754 -5.08428e-05  -0.0565665 -0.306941 -3.97563e-05  -0.0570052 -0.314123 -3.09348e-05  -0.057436 -0.321298 -2.22325e-05  -0.0578618 -0.328465 -1.53184e-05  -0.0582831 -0.335623 -8.9407e-06  -0.0587008 -0.342774 -2.98023e-06  -0.0591152 -0.349918 1.78814e-06  -0.0595288 -0.357054 7.45058e-06  0 0 0  -0.00035752 -0.000913575 -0.000516474  -0.00118153 -0.00207879 -0.000959933  -0.00230299 -0.00347617 -0.00132012  -0.00360262 -0.00508855 -0.00159216  -0.00499499 -0.00691807 -0.00178248  -0.00642741 -0.00897625 -0.00190204  -0.0078643 -0.01127 -0.00196499  -0.00928801 -0.0138038 -0.00198609  -0.0106859 -0.0165767 -0.00197417  -0.0120535 -0.0195873 -0.00194162  -0.0133867 -0.0228308 -0.00189221  -0.0146857 -0.0263003 -0.00183266  -0.015951 -0.0299894 -0.00176853  -0.0171829 -0.0338915 -0.00170016  -0.0183833 -0.0379989 -0.00163001  -0.0195529 -0.0423018 -0.00156063  -0.0206918 -0.046794 -0.00149184  -0.0218016 -0.0514671 -0.00142485  -0.022886 -0.0563128 -0.00135916  -0.0239426 -0.0613254 -0.00129473  -0.0249746 -0.0664942 -0.00123352  -0.0259808 -0.0718153 -0.00117314  -0.0269636 -0.0772793 -0.00111479  -0.0279226 -0.082879 -0.0010587  -0.0288588 -0.0886085 -0.00100416  -0.0297732 -0.0944612 -0.000951409  -0.0306654 -0.10043 -0.000899971  -0.0315361 -0.106507 -0.000851512  -0.032387 -0.112689 -0.000802934  -0.0332156 -0.118966 -0.000756562  -0.0340263 -0.125336 -0.000711203  -0.0348181 -0.13179 -0.000667632  -0.0355887 -0.138325 -0.000626028  -0.0363419 -0.144933 -0.000585496  -0.0370727 -0.151611 -0.0005458  -0.0377913 -0.158352 -0.000509143  -0.0384886 -0.165153 -0.000472426  -0.03917 -0.172007 -0.000436723  -0.0398335 -0.178911 -0.000404  -0.0404818 -0.185859 -0.000370681  -0.0411134 -0.192848 -0.000340343  -0.041728 -0.199874 -0.000311017  -0.0423293 -0.206932 -0.000283062  -0.0429158 -0.214019 -0.000256777  -0.043488 -0.221131 -0.000231087  -0.044045 -0.228264 -0.000206828  -0.04459 -0.235415 -0.000184059  -0.0451224 -0.242582 -0.000163138  -0.0456407 -0.249761 -0.000142992  -0.046149 -0.256949 -0.000124753  -0.0466466 -0.264145 -0.000107169  -0.0471323 -0.271345 -9.20296e-05  -0.0476105 -0.278547 -7.77841e-05  -0.0480771 -0.285748 -6.41942e-05  -0.0485363 -0.292948 -5.25713e-05  -0.048986 -0.300145 -4.26173e-05  -0.0494304 -0.307336 -3.44515e-05  -0.0498679 -0.314521 -2.5034e-05  -0.0502985 -0.321699 -1.81198e-05  -0.0507245 -0.328868 -1.23978e-05  -0.0511451 -0.336027 -7.39098e-06  -0.0515633 -0.343178 -2.44379e-06  -0.0519788 -0.35032 2.32458e-06  -0.0523932 -0.357454 8.04663e-06  0 0 0  -0.000263639 -0.000591785 -0.000414133  -0.000874445 -0.00156157 -0.000766754  -0.00172342 -0.00285269 -0.0010497  -0.00272514 -0.00442278 -0.00126451  -0.00381646 -0.00625119 -0.00141585  -0.00494891 -0.00832875 -0.00151086  -0.00609574 -0.0106541 -0.00156236  -0.00723702 -0.0132241 -0.00157887  -0.00836086 -0.0160353 -0.00156975  -0.00946361 -0.0190834 -0.00154364  -0.0105435 -0.0223634 -0.0015046  -0.0115978 -0.0258691 -0.00145668  -0.0126281 -0.0295935 -0.00140417  -0.0136334 -0.0335292 -0.00135034  -0.0146171 -0.0376679 -0.00129473  -0.0155789 -0.0420029 -0.0012393  -0.0165192 -0.0465259 -0.00118375  -0.0174417 -0.0512289 -0.00112963  -0.0183438 -0.0561046 -0.00107729  -0.0192283 -0.0611455 -0.00102693  -0.0200945 -0.0663436 -0.000978053  -0.0209446 -0.0716918 -0.000930011  -0.0217769 -0.0771837 -0.000883341  -0.0225949 -0.0828104 -0.000838697  -0.0233954 -0.0885656 -0.000795245  -0.0241823 -0.0944428 -0.000753343  -0.0249525 -0.100436 -0.000712693  -0.0257094 -0.106538 -0.000673294  -0.0264525 -0.112741 -0.000634611  -0.027179 -0.119042 -0.00059855  -0.0278937 -0.125433 -0.000562608  -0.0285935 -0.131909 -0.000528574  -0.0292807 -0.138463 -0.000494838  -0.0299528 -0.145091 -0.00046283  -0.0306134 -0.151787 -0.000431716  -0.0312614 -0.158546 -0.000402093  -0.0318959 -0.165363 -0.000373006  -0.0325174 -0.172233 -0.000345886  -0.0331266 -0.179152 -0.000318885  -0.0337229 -0.186116 -0.000292778  -0.0343089 -0.193118 -0.000268042  -0.0348837 -0.200156 -0.000245988  -0.0354459 -0.207226 -0.000223398  -0.0359972 -0.214324 -0.000202775  -0.0365376 -0.221447 -0.000182569  -0.0370684 -0.228591 -0.000163078  -0.0375876 -0.235752 -0.000145495  -0.0380974 -0.242926 -0.00012815  -0.0385978 -0.250114 -0.000112653  -0.0390887 -0.25731 -9.84073e-05  -0.0395715 -0.264511 -8.51154e-05  -0.0400462 -0.271717 -7.23004e-05  -0.0405147 -0.278924 -6.11544e-05  -0.0409725 -0.286131 -5.16772e-05  -0.041425 -0.293335 -4.08292e-05  -0.0418704 -0.300535 -3.32594e-05  -0.0423102 -0.30773 -2.6226e-05  -0.0427437 -0.314917 -1.96695e-05  -0.0431724 -0.322097 -1.51992e-05  -0.0435965 -0.329268 -1.00136e-05  -0.044018 -0.336429 -4.88758e-06  -0.0444357 -0.34358 -1.3113e-06  -0.0448499 -0.350721 3.39746e-06  -0.045264 -0.357852 7.27177e-06  0 0 0  -0.000184402 -0.000375271 -0.000311911  -0.000615239 -0.00120169 -0.000574708  -0.0012219 -0.00240734 -0.00078553  -0.00194757 -0.00393593 -0.000944078  -0.00274616 -0.0057537 -0.00105608  -0.00358528 -0.00784218 -0.00112808  -0.00443864 -0.010189 -0.00116551  -0.00529438 -0.0127855 -0.00117803  -0.00614262 -0.0156276 -0.00117099  -0.00697839 -0.0187068 -0.00115138  -0.00780153 -0.0220168 -0.00112236  -0.00860739 -0.0255522 -0.00108629  -0.00940025 -0.0293056 -0.00104725  -0.0101774 -0.0332689 -0.00100589  -0.0109428 -0.0374351 -0.000963807  -0.0116953 -0.0417968 -0.000922501  -0.0124354 -0.0463458 -0.000880301  -0.0131655 -0.0510749 -0.000840425  -0.0138855 -0.0559771 -0.000800848  -0.0145942 -0.0610421 -0.000762522  -0.0152935 -0.0662653 -0.000726819  -0.0159844 -0.0716373 -0.000690103  -0.0166668 -0.077152 -0.000655353  -0.0173389 -0.0828021 -0.000622392  -0.0180039 -0.0885798 -0.000589132  -0.0186603 -0.0944789 -0.000557899  -0.0193093 -0.100494 -0.00052774  -0.0199493 -0.106616 -0.000498533  -0.0205805 -0.11284 -0.000469923  -0.0212046 -0.11916 -0.000442564  -0.0218222 -0.12557 -0.000415683  -0.0224303 -0.132063 -0.000390112  -0.0230296 -0.138635 -0.000365674  -0.0236208 -0.14528 -0.000342369  -0.0242069 -0.151992 -0.000318468  -0.0247827 -0.158767 -0.000295877  -0.0253515 -0.165598 -0.000274897  -0.0259125 -0.172483 -0.000254333  -0.0264647 -0.179415 -0.000234842  -0.0270107 -0.18639 -0.000215709  -0.0275466 -0.193405 -0.000198126  -0.0280764 -0.200455 -0.000180721  -0.0285993 -0.207535 -0.000164211  -0.0291133 -0.214643 -0.000148118  -0.0296204 -0.221775 -0.000133097  -0.0301218 -0.228927 -0.000119805  -0.0306156 -0.236096 -0.000106096  -0.0311003 -0.243279 -9.36985e-05  -0.03158 -0.250472 -8.2612e-05  -0.0320532 -0.257674 -7.19428e-05  -0.0325186 -0.264882 -6.15716e-05  -0.0329802 -0.272092 -5.25713e-05  -0.0334339 -0.279304 -4.48823e-05  -0.0338845 -0.286515 -3.73721e-05  -0.0343282 -0.293723 -3.09348e-05  -0.0347667 -0.300927 -2.46763e-05  -0.0352013 -0.308124 -1.93715e-05  -0.0356317 -0.315315 -1.42455e-05  -0.036057 -0.322496 -1.0252e-05  -0.0364788 -0.329668 -6.61612e-06  -0.0368969 -0.33683 -3.99351e-06  -0.0373132 -0.343981 -4.17233e-07  -0.0377283 -0.351122 2.68221e-06  -0.0381422 -0.358248 6.97374e-06  0 0 0  -0.000115022 -0.000239462 -0.000208378  -0.000384726 -0.000970691 -0.000382304  -0.000769228 -0.0021162 -0.000522256  -0.00123456 -0.00361288 -0.000627637  -0.00175235 -0.00542146 -0.000701129  -0.00230119 -0.00751472 -0.000748217  -0.00286636 -0.00987607 -0.000774264  -0.00343668 -0.012494 -0.00078243  -0.00400645 -0.0153572 -0.000778198  -0.00457293 -0.0184602 -0.000764251  -0.00513583 -0.0217945 -0.0007447  -0.00569344 -0.0253533 -0.000721216  -0.00624627 -0.0291293 -0.000694156  -0.00679547 -0.0331151 -0.000666618  -0.00734049 -0.0373042 -0.000637352  -0.0078811 -0.0416873 -0.000609159  -0.00841844 -0.0462587 -0.000582218  -0.00895679 -0.0510089 -0.000555098  -0.00949168 -0.0559319 -0.000527322  -0.0100242 -0.0610185 -0.000501752  -0.0105561 -0.0662614 -0.000477135  -0.0110857 -0.0716541 -0.000453293  -0.0116159 -0.0771882 -0.000429988  -0.0121425 -0.0828578 -0.000407517  -0.0126688 -0.0886559 -0.000385523  -0.0131946 -0.0945733 -0.000365078  -0.0137188 -0.100605 -0.000345409  -0.0142399 -0.106746 -0.00032562  -0.0147614 -0.112986 -0.00030601  -0.0152792 -0.119324 -0.00028801  -0.0157959 -0.125749 -0.000270665  -0.0163094 -0.132258 -0.00025332  -0.0168216 -0.138845 -0.000237882  -0.0173326 -0.145504 -0.000221968  -0.0178385 -0.15223 -0.000206232  -0.0183423 -0.159017 -0.000191569  -0.0188441 -0.165862 -0.000177503  -0.0193415 -0.172758 -0.000163376  -0.0198367 -0.179701 -0.000151753  -0.0203285 -0.186687 -0.000138342  -0.0208156 -0.193712 -0.000127196  -0.0212991 -0.200771 -0.000115335  -0.0217817 -0.20786 -0.000104785  -0.0222564 -0.214976 -9.4831e-05  -0.0227301 -0.222117 -8.4281e-05  -0.0231988 -0.229276 -7.689e-05  -0.0236642 -0.236451 -6.75917e-05  -0.0241261 -0.24364 -5.96642e-05  -0.0245819 -0.25084 -5.21541e-05  -0.0250363 -0.258045 -4.48227e-05  -0.0254858 -0.265258 -3.89814e-05  -0.0259302 -0.272474 -3.24249e-05  -0.0263722 -0.279688 -2.73585e-05  -0.0268102 -0.286903 -2.2471e-05  -0.0272446 -0.294115 -1.87159e-05  -0.0276754 -0.301321 -1.4782e-05  -0.0281034 -0.30852 -1.13845e-05  -0.0285296 -0.315712 -8.58307e-06  -0.0289502 -0.322896 -5.42402e-06  -0.0293689 -0.330069 -3.93391e-06  -0.0297852 -0.337232 -1.66893e-06  -0.0301995 -0.344382 5.36442e-07  -0.0306118 -0.351521 1.60933e-06  -0.0310228 -0.358646 2.98023e-06  0 0 0  -5.16735e-05 -0.000169516 -0.000103116  -0.000172436 -0.000850737 -0.000189781  -0.000347704 -0.00196221 -0.000259519  -0.000564277 -0.00344184 -0.000311852  -0.000808656 -0.00524554 -0.000348926  -0.00107157 -0.00734344 -0.000373244  -0.00134775 -0.00971535 -0.000386238  -0.00163317 -0.0123462 -0.000390172  -0.00192636 -0.0152267 -0.000388205  -0.00222272 -0.0183463 -0.000381052  -0.00252593 -0.0216984 -0.000371099  -0.00283307 -0.025274 -0.000357926  -0.00314468 -0.0290678 -0.000344276  -0.00346178 -0.0330713 -0.000330031  -0.00378472 -0.0372771 -0.000314951  -0.00411534 -0.0416777 -0.000299513  -0.00445068 -0.0462665 -0.000285625  -0.00479376 -0.0510339 -0.000271082  -0.005144 -0.0559726 -0.000257134  -0.00549924 -0.061076 -0.000243843  -0.00586236 -0.0663358 -0.000231087  -0.00623024 -0.0717456 -0.000218987  -0.00660658 -0.0772952 -0.000206769  -0.00698745 -0.0829811 -0.000195444  -0.00737429 -0.0887941 -0.00018394  -0.00776744 -0.0947279 -0.000173986  -0.00816524 -0.100775 -0.000163555  -0.00856781 -0.106929 -0.000153601  -0.00897539 -0.113185 -0.000144124  -0.00938809 -0.119535 -0.000134885  -0.00980318 -0.125974 -0.000127017  -0.0102232 -0.132496 -0.000117898  -0.0106454 -0.139095 -0.000109792  -0.0110729 -0.145765 -0.00010258  -0.0114996 -0.152502 -9.41753e-05  -0.0119314 -0.1593 -8.7738e-05  -0.0123651 -0.166156 -8.12411e-05  -0.0127988 -0.17306 -7.37906e-05  -0.0132332 -0.180013 -6.81281e-05  -0.0136714 -0.187008 -6.22272e-05  -0.0141079 -0.194041 -5.63264e-05  -0.0145459 -0.201108 -5.14388e-05  -0.0149834 -0.208204 -4.5836e-05  -0.0154202 -0.215327 -4.11868e-05  -0.0158577 -0.222472 -3.62992e-05  -0.0162935 -0.229637 -3.18885e-05  -0.0167298 -0.236818 -2.77162e-05  -0.0171645 -0.244012 -2.46167e-05  -0.0175993 -0.251216 -2.08616e-05  -0.0180309 -0.258427 -1.77026e-05  -0.0184619 -0.265643 -1.49012e-05  -0.0188909 -0.272861 -1.26362e-05  -0.0193193 -0.280079 -1.01924e-05  -0.0197463 -0.287295 -8.28505e-06  -0.0201709 -0.294508 -6.55651e-06  -0.0205929 -0.301717 -4.94719e-06  -0.0210133 -0.308918 -3.75509e-06  -0.0214319 -0.316112 -2.14577e-06  -0.0218484 -0.323297 -8.9407e-07  -0.0222645 -0.330471 -1.07288e-06  -0.0226769 -0.337635 1.78814e-07  -0.0230894 -0.344786 1.19209e-06  -0.0235002 -0.351924 1.49012e-06  -0.0239096 -0.359047 2.38419e-06  0 0 0  9.46969e-06 -0.000157237 1.90735e-06  3.07709e-05 -0.000829369 3.21865e-06  5.84871e-05 -0.00193673 2.80142e-06  8.73208e-05 -0.00341484 2.80142e-06  0.00011304 -0.00522143 6.55651e-07  0.000130892 -0.00732541 -5.96046e-07  0.000141114 -0.00970486 -3.57628e-07  0.000139534 -0.0123454 -8.9407e-07  0.000124991 -0.0152358 -5.96046e-07  9.76324e-05 -0.0183667 -4.17233e-07  5.70416e-05 -0.0217293 9.53674e-07  -8.9407e-07 -0.025317 1.66893e-06  -7.15256e-05 -0.0291231 3.27826e-06  -0.000159204 -0.0331379 4.82798e-06  -0.000260532 -0.0373562 6.07967e-06  -0.000377238 -0.0417692 8.34465e-06  -0.000511646 -0.0463697 9.17912e-06  -0.000660181 -0.0511503 1.03116e-05  -0.00082314 -0.0561024 1.17421e-05  -0.001001 -0.0612183 1.34706e-05  -0.00119388 -0.0664909 1.33514e-05  -0.00140023 -0.0719126 1.46031e-05  -0.00162125 -0.0774765 1.4782e-05  -0.00185525 -0.083174 1.57356e-05  -0.00210214 -0.0889988 1.69277e-05  -0.00236225 -0.0949439 1.57356e-05  -0.00263488 -0.101003 1.72257e-05  -0.00291657 -0.107169 1.7643e-05  -0.00321138 -0.113436 1.81794e-05  -0.00351584 -0.119796 1.75834e-05  -0.00383055 -0.126245 1.7345e-05  -0.00415468 -0.132778 1.71065e-05  -0.00448751 -0.139386 1.67489e-05  -0.00482917 -0.146066 1.70469e-05  -0.00517726 -0.152812 1.65701e-05  -0.00553536 -0.159618 1.62721e-05  -0.00589919 -0.16648 1.50204e-05  -0.00626945 -0.173393 1.54972e-05  -0.00664496 -0.180352 1.45435e-05  -0.00702667 -0.187355 1.43051e-05  -0.00741148 -0.194393 1.44839e-05  -0.0078032 -0.201466 1.31726e-05  -0.00819564 -0.208568 1.35899e-05  -0.00859404 -0.215695 1.30534e-05  -0.00899625 -0.222846 1.14441e-05  -0.00940013 -0.230014 1.12653e-05  -0.00980473 -0.237199 1.09673e-05  -0.0102139 -0.244396 1.0848e-05  -0.0106235 -0.251603 1.01328e-05  -0.0110347 -0.258817 9.59635e-06  -0.011447 -0.266035 8.10623e-06  -0.0118599 -0.273255 6.91414e-06  -0.012274 -0.280476 7.56979e-06  -0.0126863 -0.287694 6.02007e-06  -0.0130997 -0.294909 5.90086e-06  -0.0135126 -0.302119 5.60284e-06  -0.0139265 -0.309322 4.41074e-06  -0.0143394 -0.316516 3.45707e-06  -0.0147524 -0.323701 3.45707e-06  -0.0151618 -0.330876 2.5034e-06  -0.0155716 -0.33804 2.20537e-06  -0.0159805 -0.345191 7.15256e-07  -0.0163906 -0.352328 1.19209e-06  -0.0167964 -0.359452 0  0 0 0  7.09668e-05 -0.000199139 0.000107586  0.000235513 -0.000903547 0.000195444  0.000465274 -0.00203401 0.000264645  0.000737637 -0.00352955 0.000314593  0.00103179 -0.00534743 0.000349641  0.00133201 -0.00745857 0.000371456  0.00162733 -0.00984395 0.000383258  0.00190824 -0.0124894 0.00038749  0.00217116 -0.0153841 0.000384867  0.00241381 -0.0185198 0.000379205  0.00263292 -0.0218879 0.00037092  0.00282514 -0.0254816 0.000360787  0.00299448 -0.0292926 0.000349998  0.00313824 -0.033316 0.000338018  0.00325769 -0.0375414 0.000326395  0.00335169 -0.0419621 0.000314534  0.00342333 -0.0465716 0.000303209  0.0034678 -0.0513602 0.000292122  0.00349069 -0.0563208 0.000280619  0.00349081 -0.0614462 0.000268936  0.00346601 -0.0667272 0.000258565  0.00342214 -0.0721582 0.000248134  0.00335646 -0.0777309 0.000237465  0.00326896 -0.083437 0.000226855  0.0031625 -0.0892702 0.000216663  0.00303543 -0.0952244 0.000207126  0.00289166 -0.101292 0.000197887  0.00272763 -0.107467 0.000188231  0.00254798 -0.113741 0.000179052  0.00235021 -0.120109 0.000169754  0.00213706 -0.126567 0.000160933  0.00190949 -0.133106 0.000152349  0.0016644 -0.139721 0.000144184  0.00140834 -0.146407 0.000135243  0.00113773 -0.153159 0.000127435  0.000856161 -0.159971 0.000119984  0.000561237 -0.166839 0.000112534  0.000255346 -0.173757 0.00010556  -6.03199e-05 -0.180722 9.82285e-05  -0.000385523 -0.187727 9.14335e-05  -0.000720739 -0.19477 8.43406e-05  -0.00106263 -0.201847 7.80225e-05  -0.00141549 -0.208952 7.19428e-05  -0.00177312 -0.216083 6.61612e-05  -0.00213671 -0.223236 6.06775e-05  -0.00250649 -0.230408 5.49555e-05  -0.00288296 -0.237594 5.10216e-05  -0.00326324 -0.244794 4.56572e-05  -0.0036509 -0.252002 3.99351e-05  -0.00403881 -0.259218 3.57032e-05  -0.00443292 -0.266438 3.18885e-05  -0.00483012 -0.27366 2.79546e-05  -0.00522709 -0.280881 2.49147e-05  -0.00562811 -0.2881 2.14577e-05  -0.0060308 -0.295315 1.8537e-05  -0.00643587 -0.302525 1.51992e-05  -0.00683999 -0.309728 1.18613e-05  -0.00724554 -0.316923 1.01328e-05  -0.00765371 -0.324108 8.28505e-06  -0.00806093 -0.331283 5.48363e-06  -0.00846791 -0.338447 3.69549e-06  -0.00887322 -0.345597 1.3113e-06  -0.00928044 -0.352736 -3.57628e-07  -0.00968552 -0.359859 -9.53674e-07  0 0 0  0.000134081 -0.00029844 0.000211835  0.000446588 -0.00107574 0.000386238  0.000883743 -0.002258 0.000523865  0.00140586 -0.0037865 0.000626624  0.0019725 -0.00562251 0.000697315  0.00255537 -0.007743 0.000742614  0.00313616 -0.0101318 0.000766218  0.00369978 -0.0127778 0.000774503  0.00423789 -0.0156716 0.000770152  0.00474912 -0.0188051 0.000757754  0.00522608 -0.0221735 0.00074023  0.00566876 -0.0257668 0.000719309  0.00607711 -0.0295792 0.000696361  0.00645119 -0.0336039 0.00067234  0.00679058 -0.0378322 0.000647724  0.00709677 -0.0422565 0.000621438  0.00736773 -0.0468696 0.000597417  0.00760841 -0.0516625 0.000573218  0.00781488 -0.0566281 0.00054884  0.00799286 -0.0617583 0.000526011  0.00813913 -0.0670455 0.000504136  0.0082556 -0.0724814 0.000481248  0.00834441 -0.0780592 0.00045979  0.00840318 -0.0837715 0.000438869  0.00843692 -0.0896102 0.000418067  0.00844371 -0.0955696 0.000398338  0.00842464 -0.101643 0.000379026  0.00838232 -0.107823 0.00035888  0.00831509 -0.114102 0.000341058  0.00822449 -0.120476 0.0003227  0.00811148 -0.126936 0.000304937  0.00797939 -0.13348 0.00028801  0.00782681 -0.140099 0.000271499  0.00765347 -0.14679 0.000255287  0.00746322 -0.153545 0.000239551  0.00725389 -0.160361 0.000223637  0.00702906 -0.167232 0.000209689  0.00678921 -0.174153 0.000195205  0.00653267 -0.18112 0.000181019  0.00626159 -0.188128 0.000168324  0.00597978 -0.195174 0.000154912  0.00568295 -0.202252 0.000143886  0.00537586 -0.209359 0.000130773  0.00505805 -0.216492 0.000119865  0.00472856 -0.223646 0.000109196  0.00439072 -0.230818 9.85265e-05  0.00404429 -0.238006 8.97646e-05  0.00369024 -0.245205 8.08239e-05  0.0033288 -0.252414 7.13468e-05  0.00296044 -0.25963 6.27637e-05  0.0025866 -0.26685 5.60284e-05  0.00220633 -0.274072 4.85778e-05  0.00182247 -0.281293 4.27961e-05  0.00143385 -0.288511 3.60608e-05  0.00104165 -0.295726 3.05176e-05  0.000645876 -0.302936 2.50936e-05  0.000247955 -0.310139 1.99676e-05  -0.000151873 -0.317333 1.63317e-05  -0.000554085 -0.324518 1.2219e-05  -0.000957727 -0.331692 9.41753e-06  -0.00136018 -0.338856 5.30481e-06  -0.00176668 -0.346008 2.32458e-06  -0.00216985 -0.353146 -5.36442e-07  -0.00257158 -0.360272 -3.63588e-06  0 0 0  0.000201292 -0.000463545 0.000312805  0.000674322 -0.00135767 0.000574708  0.00133274 -0.00261682 0.000781655  0.00211132 -0.00419021 0.000936747  0.00295582 -0.00604975 0.00104475  0.0038256 -0.00817907 0.00111252  0.00469244 -0.0105671 0.00114864  0.00553876 -0.0132076 0.00116158  0.00635207 -0.0160937 0.00115567  0.00712746 -0.0192209 0.0011366  0.0078615 -0.0225821 0.00111079  0.00855166 -0.0261713 0.00107849  0.00919753 -0.0299798 0.00104374  0.00979978 -0.0340009 0.00100672  0.010358 -0.0382282 0.000969052  0.0108726 -0.0426519 0.000930846  0.0113467 -0.0472643 0.000892878  0.0117792 -0.0520581 0.000855923  0.0121722 -0.0570247 0.000819623  0.0125257 -0.062156 0.000784099  0.0128402 -0.0674449 0.000749707  0.013118 -0.0728833 0.000717163  0.013359 -0.0784631 0.000684202  0.0135663 -0.0841773 0.000651479  0.0137385 -0.0900189 0.000620186  0.0138768 -0.0959805 0.000589967  0.0139849 -0.102055 0.000560939  0.0140593 -0.108237 0.000531971  0.0141053 -0.114519 0.00050354  0.0141206 -0.120894 0.00047648  0.0141107 -0.127357 0.000450492  0.0140743 -0.133902 0.000424504  0.0140092 -0.140523 0.000398993  0.0139198 -0.147215 0.000374854  0.0138092 -0.153971 0.000351191  0.0136728 -0.160788 0.000328183  0.0135159 -0.16766 0.000306368  0.013339 -0.174582 0.000285506  0.0131423 -0.181549 0.000264585  0.0129271 -0.188558 0.000245452  0.0126941 -0.195603 0.000225902  0.012445 -0.20268 0.000208735  0.0121806 -0.209788 0.000191092  0.0119011 -0.21692 0.000173688  0.0116081 -0.224074 0.000158727  0.0113018 -0.231245 0.000142634  0.0109842 -0.238432 0.000128984  0.0106566 -0.245631 0.000115454  0.0103173 -0.252839 0.00010246  0.00997066 -0.260053 8.98838e-05  0.00961375 -0.267272 7.96914e-05  0.00925016 -0.274493 6.84857e-05  0.00887966 -0.281713 5.84126e-05  0.00850272 -0.288931 5.05447e-05  0.00811982 -0.296144 4.20213e-05  0.00773287 -0.303352 3.51071e-05  0.00734401 -0.310553 2.74777e-05  0.00694776 -0.317747 2.11e-05  0.0065496 -0.32493 1.7345e-05  0.00615048 -0.332104 1.21593e-05  0.00574923 -0.339266 7.80821e-06  0.00534749 -0.346419 3.21865e-06  0.00494313 -0.353558 -1.54972e-06  0.0045414 -0.360686 -5.90086e-06  0 0 0  0.00027898 -0.000707209 0.000412762  0.000929758 -0.00176424 0.000760078  0.00182728 -0.00312358 0.00103807  0.00287938 -0.00475264 0.00124729  0.00401139 -0.00663495 0.00139284  0.00517023 -0.00876689 0.00148392  0.00632331 -0.0111488 0.00153279  0.00744927 -0.0137763 0.0015499  0.00853622 -0.0166493 0.00154209  0.00957519 -0.0197632 0.00151765  0.0105616 -0.0231128 0.00148267  0.0114959 -0.0266908 0.00143945  0.0123779 -0.0304914 0.00139183  0.0132055 -0.0345064 0.00134254  0.0139797 -0.0387262 0.00129277  0.0147049 -0.0431454 0.00124097  0.0153775 -0.0477545 0.00119078  0.0160016 -0.0525447 0.00114053  0.0165757 -0.0575082 0.00109237  0.0171056 -0.0626386 0.00104541  0.0175867 -0.067925 0.000998199  0.0180253 -0.0733623 0.000953734  0.0184193 -0.0789408 0.00090909  0.0187708 -0.0846537 0.00086689  0.0190818 -0.0904945 0.000824451  0.0193514 -0.0964557 0.000783801  0.0195826 -0.102529 0.000744164  0.0197766 -0.10871 0.000705302  0.0199342 -0.114991 0.000668228  0.0200566 -0.121365 0.000631273  0.0201454 -0.127827 0.000596285  0.0202005 -0.134371 0.000561953  0.0202243 -0.140991 0.000528038  0.0202188 -0.147682 0.000495553  0.0201836 -0.154437 0.000463784  0.0201216 -0.161253 0.00043416  0.0200326 -0.168123 0.000404596  0.019918 -0.175043 0.000376999  0.0197806 -0.182009 0.000348151  0.0196192 -0.189014 0.000321984  0.0194361 -0.196058 0.000298202  0.0192304 -0.203134 0.000273347  0.0190098 -0.21024 0.000250518  0.0187676 -0.217369 0.000226736  0.0185084 -0.224519 0.00020647  0.0182347 -0.231689 0.000186026  0.0179448 -0.238873 0.000167787  0.0176408 -0.24607 0.00014919  0.0173247 -0.253276 0.00013268  0.0169969 -0.260489 0.000116587  0.0166571 -0.267704 0.000102103  0.0163088 -0.274923 8.82745e-05  0.0159504 -0.28214 7.62343e-05  0.0155842 -0.289356 6.38962e-05  0.0152099 -0.296568 5.38826e-05  0.0148308 -0.303773 4.45247e-05  0.0144451 -0.310972 3.64184e-05  0.0140553 -0.318164 2.82526e-05  0.0136623 -0.325346 2.11596e-05  0.0132654 -0.332518 1.5378e-05  0.0128655 -0.339681 8.46386e-06  0.0124648 -0.346831 3.93391e-06  0.0120625 -0.353972 -1.66893e-06  0.011662 -0.361102 -8.82149e-06  0 0 0  0.000368573 -0.00105488 0.000509918  0.00122964 -0.00232214 0.000945508  0.00239553 -0.00380003 0.00129527  0.00373867 -0.00548291 0.00156057  0.0051665 -0.00738019 0.0017435  0.00661865 -0.00950646 0.00185823  0.00805691 -0.0118707 0.00191945  0.00945872 -0.0144798 0.00193971  0.0108131 -0.017333 0.00193048  0.0121096 -0.0204269 0.00190043  0.013348 -0.0237592 0.00185663  0.014524 -0.027323 0.00180358  0.0156367 -0.0311101 0.00174433  0.016688 -0.0351139 0.00168264  0.0176778 -0.0393245 0.0016185  0.0186081 -0.0437348 0.00155514  0.0194788 -0.0483367 0.00149149  0.0202912 -0.0531206 0.00142866  0.0210495 -0.0580787 0.00136811  0.021751 -0.0632027 0.00130892  0.0223994 -0.0684847 0.00125051  0.0229961 -0.0739164 0.00119233  0.0235406 -0.079491 0.00113714  0.0240359 -0.0852007 0.00108451  0.0244821 -0.0910367 0.0010305  0.0248827 -0.0969933 0.000980079  0.0252373 -0.103064 0.000930071  0.0255486 -0.10924 0.000881255  0.0258156 -0.115517 0.000834048  0.0260415 -0.121888 0.000788808  0.0262284 -0.128347 0.000744164  0.0263779 -0.134888 0.000700593  0.0264885 -0.141504 0.000658512  0.0265641 -0.14819 0.000617623  0.0266054 -0.154942 0.000578105  0.026614 -0.161753 0.000540137  0.0265911 -0.168619 0.000503778  0.0265365 -0.175535 0.000467718  0.0264575 -0.182497 0.000432551  0.0263467 -0.189499 0.000399709  0.026212 -0.196539 0.000368595  0.0260541 -0.20361 0.000338912  0.0258687 -0.210711 0.000310063  0.025665 -0.217837 0.00028187  0.0254383 -0.224984 0.000255406  0.0251949 -0.23215 0.000229955  0.0249305 -0.23933 0.000206947  0.0246511 -0.246523 0.000184119  0.0243554 -0.253725 0.000162423  0.0240445 -0.260934 0.000142932  0.0237217 -0.268146 0.000124454  0.023386 -0.275361 0.000108242  0.0230379 -0.282575 9.16123e-05  0.0226827 -0.289788 7.79629e-05  0.0223167 -0.296995 6.41942e-05  0.0219424 -0.304199 5.24521e-05  0.0215623 -0.311395 4.27365e-05  0.0211759 -0.318584 3.3915e-05  0.0207849 -0.325764 2.52128e-05  0.0203893 -0.332934 1.7643e-05  0.0199909 -0.340095 1.03712e-05  0.0195892 -0.347245 5.126e-06  0.0191872 -0.354387 -7.7486e-07  0.0187879 -0.361521 -7.86781e-06  0 0 0  0.000487864 -0.00154239 0.000606835  0.00159889 -0.00307143 0.00113338  0.00307582 -0.0046705 0.00156248  0.0047307 -0.00639021 0.00188065  0.00645971 -0.00828618 0.00209898  0.00820047 -0.0103917 0.00223541  0.00991681 -0.0127297 0.00230819  0.0115901 -0.0153092 0.00233203  0.0132056 -0.018136 0.00232112  0.0147566 -0.0212069 0.00228542  0.01624 -0.0245169 0.00223333  0.0176513 -0.0280617 0.00216991  0.0189946 -0.0318323 0.00209975  0.0202666 -0.0358204 0.00202519  0.0214689 -0.0400192 0.00194877  0.0226014 -0.0444178 0.00187308  0.0236692 -0.0490083 0.00179684  0.0246708 -0.0537826 0.00172061  0.0256058 -0.0587313 0.00164735  0.0264812 -0.0638468 0.00157523  0.0272918 -0.0691206 0.00150406  0.0280441 -0.0745443 0.00143653  0.0287383 -0.0801111 0.00136971  0.0293759 -0.0858136 0.00130391  0.0299581 -0.0916432 0.00124031  0.0304853 -0.0975931 0.0011788  0.0309613 -0.103657 0.00111842  0.0313873 -0.109826 0.00105923  0.0317633 -0.116097 0.00100231  0.0320919 -0.122462 0.000946939  0.0323749 -0.128913 0.000893533  0.0326154 -0.135448 0.000841558  0.0328097 -0.142058 0.000790596  0.0329661 -0.148739 0.000740767  0.0330801 -0.155483 0.0006935  0.0331588 -0.162288 0.000647902  0.0331988 -0.169149 0.000603557  0.0332057 -0.176059 0.00056082  0.0331783 -0.183014 0.000518084  0.0331211 -0.190011 0.000478983  0.0330317 -0.197044 0.000441432  0.0329154 -0.20411 0.000404596  0.0327713 -0.211204 0.000369728  0.0326018 -0.218324 0.000335574  0.0324056 -0.225467 0.00030458  0.0321898 -0.232626 0.000274479  0.0319505 -0.239801 0.000245452  0.0316927 -0.246988 0.000218451  0.0314152 -0.254184 0.000192821  0.0311208 -0.261388 0.000169158  0.0308106 -0.268596 0.000147343  0.0304849 -0.275806 0.000127017  0.0301473 -0.283015 0.000108719  0.0297987 -0.290224 9.11951e-05  0.029439 -0.297428 7.56383e-05  0.0290685 -0.304628 6.12736e-05  0.0286913 -0.31182 4.85182e-05  0.0283074 -0.319005 3.89814e-05  0.0279162 -0.326183 2.89083e-05  0.0275211 -0.333352 2.02656e-05  0.0271237 -0.34051 1.34706e-05  0.0267217 -0.34766 6.3777e-06  0.0263202 -0.354803 -4.76837e-07  0.025919 -0.36194 -7.98702e-06  0 0 0  0.000627585 -0.0022341 0.000711441  0.00210632 -0.00407255 0.0013482  0.00393623 -0.00575292 0.00184435  0.00590801 -0.00747502 0.00220907  0.00792843 -0.0093413 0.00245863  0.00994536 -0.0114108 0.00261462  0.0119292 -0.013711 0.002698  0.0138621 -0.0162561 0.00272644  0.0157318 -0.0190498 0.00271386  0.0175294 -0.0220924 0.00267333  0.0192534 -0.0253792 0.00261289  0.0208985 -0.0289007 0.00253934  0.0224665 -0.0326517 0.00245845  0.0239563 -0.0366226 0.00237131  0.0253691 -0.0408047 0.00228244  0.0267036 -0.0451885 0.00219315  0.0279638 -0.0497652 0.0021047  0.0291492 -0.0545267 0.00201625  0.0302633 -0.0594634 0.00192952  0.0313063 -0.064567 0.00184524  0.0322801 -0.06983 0.00176293  0.0331879 -0.075243 0.00168216  0.0340277 -0.0808001 0.00160426  0.0348043 -0.086491 0.00152707  0.0355183 -0.092311 0.00145167  0.0361722 -0.0982516 0.00137985  0.0367689 -0.104305 0.00130886  0.0373054 -0.110466 0.00124013  0.0377895 -0.116729 0.00117356  0.0382183 -0.123083 0.00110883  0.0385954 -0.129527 0.00104439  0.0389235 -0.136052 0.000983715  0.0392027 -0.142653 0.000923812  0.0394363 -0.149325 0.00086683  0.0396223 -0.156062 0.000810802  0.0397675 -0.162859 0.000756323  0.0398715 -0.16971 0.000704408  0.0399346 -0.176611 0.000653803  0.0399613 -0.183559 0.000605404  0.0399511 -0.190547 0.000558794  0.0399067 -0.197573 0.00051415  0.03983 -0.204631 0.000470519  0.0397205 -0.211717 0.000429869  0.039582 -0.21883 0.000390649  0.0394168 -0.225963 0.000352919  0.0392241 -0.233116 0.000317395  0.0390103 -0.240284 0.000284612  0.0387695 -0.247464 0.000253022  0.0385089 -0.254654 0.000222802  0.0382295 -0.261851 0.000195026  0.037931 -0.269053 0.000169456  0.0376146 -0.276256 0.000145555  0.0372851 -0.283461 0.000123799  0.0369387 -0.290663 0.000102818  0.0365832 -0.297863 8.61287e-05  0.0362141 -0.305057 7.03931e-05  0.03584 -0.312246 5.58496e-05  0.0354533 -0.319428 4.32134e-05  0.0350628 -0.326603 3.34978e-05  0.0346663 -0.333767 2.34842e-05  0.0342674 -0.340925 1.50204e-05  0.0338638 -0.348076 7.80821e-06  0.0334597 -0.355218 8.9407e-07  0.0330567 -0.362356 -6.61612e-06  0 0 0  0.00108714 -0.003313 0.000897527  0.00299191 -0.00534081 0.0015958  0.00512776 -0.00702512 0.00213969  0.00735846 -0.00870305 0.00253981  0.00962311 -0.0105193 0.00281686  0.0118836 -0.0125408 0.00299102  0.0141134 -0.0147981 0.00308603  0.0162914 -0.0173042 0.00311983  0.0184043 -0.0200655 0.00310701  0.0204458 -0.0230775 0.00306141  0.0224048 -0.026336 0.00299382  0.0242805 -0.0298343 0.00291038  0.0260705 -0.0335637 0.00281841  0.0277742 -0.0375136 0.00271994  0.029394 -0.0416765 0.00261772  0.0309271 -0.046043 0.00251603  0.0323778 -0.0506036 0.00241458  0.0337466 -0.0553487 0.00231332  0.0350363 -0.0602706 0.00221455  0.0362449 -0.0653595 0.00211835  0.0373781 -0.0706086 0.00202262  0.0384353 -0.0760092 0.00193077  0.0394211 -0.0815514 0.00184041  0.0403359 -0.0872313 0.00175261  0.0411801 -0.0930383 0.00166672  0.0419574 -0.0989661 0.00158262  0.0426687 -0.105008 0.00150234  0.0433182 -0.111158 0.00142294  0.0439047 -0.117407 0.00134534  0.0444311 -0.123752 0.00127131  0.044898 -0.130183 0.00119793  0.0453143 -0.136697 0.00112802  0.0456727 -0.143288 0.00105876  0.0459821 -0.149946 0.000993073  0.0462368 -0.156673 0.000929117  0.0464478 -0.163458 0.00086534  0.0466099 -0.1703 0.000807106  0.0467274 -0.177191 0.000749171  0.0468066 -0.184129 0.00069207  0.0468409 -0.191106 0.000638783  0.046839 -0.198121 0.000587583  0.0467989 -0.205169 0.000538528  0.0467265 -0.212248 0.000491381  0.0466163 -0.21935 0.000445664  0.0464799 -0.226475 0.000402629  0.0463095 -0.233618 0.000362277  0.0461125 -0.240777 0.000324607  0.0458891 -0.247949 0.000287354  0.0456445 -0.255131 0.000252604  0.0453739 -0.262319 0.000221431  0.0450847 -0.269513 0.000191987  0.0447745 -0.27671 0.000164747  0.0444481 -0.283906 0.000139475  0.0441053 -0.291104 0.000116348  0.0437498 -0.298298 9.57847e-05  0.0433831 -0.305487 7.74264e-05  0.0430031 -0.31267 6.17504e-05  0.0426166 -0.319849 4.82798e-05  0.0422206 -0.327018 3.56436e-05  0.0418224 -0.334182 2.68817e-05  0.0414176 -0.341339 1.92523e-05  0.0410123 -0.348487 1.04904e-05  0.0406058 -0.355631 4.17233e-06  0.0401983 -0.362773 -4.47035e-06  0 0 0  -0.00113479 -0.00325286 -0.00060755  -0.0030369 -0.00521731 -0.00107962  -0.00515062 -0.0068436 -0.00145078  -0.00735781 -0.0084538 -0.00173002  -0.00960758 -0.0101888 -0.0019269  -0.0118689 -0.0121127 -0.00205296  -0.0141189 -0.0142564 -0.00212276  -0.0163394 -0.0166359 -0.00214899  -0.0185198 -0.0192535 -0.00214159  -0.0206522 -0.0221121 -0.00210822  -0.022726 -0.0252041 -0.00205904  -0.0247407 -0.0285276 -0.0019986  -0.0266984 -0.0320748 -0.00193  -0.0285937 -0.0358366 -0.0018574  -0.0304296 -0.0398058 -0.00178313  -0.0322069 -0.0439752 -0.00170732  -0.0339283 -0.0483376 -0.00163358  -0.0355941 -0.0528826 -0.00156039  -0.0372084 -0.0576049 -0.00148839  -0.0387665 -0.062495 -0.00141966  -0.0402781 -0.0675466 -0.00135249  -0.0417398 -0.0727514 -0.00128704  -0.0431563 -0.0781011 -0.00122309  -0.0445247 -0.0835916 -0.00116146  -0.0458502 -0.0892139 -0.00110191  -0.0471302 -0.0949617 -0.00104386  -0.0483699 -0.10083 -0.000988662  -0.0495681 -0.10681 -0.000934064  -0.0507278 -0.112895 -0.000881255  -0.0518439 -0.119083 -0.000829577  -0.052927 -0.125363 -0.000780165  -0.0539712 -0.131733 -0.000733078  -0.0549812 -0.138186 -0.000687122  -0.0559535 -0.144716 -0.000641823  -0.0568914 -0.151318 -0.000600278  -0.0577974 -0.157987 -0.000558019  -0.0586736 -0.164719 -0.000519156  -0.059516 -0.171507 -0.000480473  -0.0603302 -0.178347 -0.00044322  -0.0611079 -0.185238 -0.000407636  -0.0618641 -0.19217 -0.000374317  -0.0625896 -0.199143 -0.00034076  -0.0632915 -0.206151 -0.000309706  -0.0639637 -0.21319 -0.000280321  -0.0646155 -0.220258 -0.000252843  -0.0652399 -0.22735 -0.000227213  -0.0658436 -0.234464 -0.000200033  -0.0664277 -0.241596 -0.00017786  -0.0669892 -0.248742 -0.000156701  -0.0675323 -0.2559 -0.000135779  -0.0680556 -0.263066 -0.000116229  -0.0685654 -0.270242 -9.87053e-05  -0.0690575 -0.277422 -8.44002e-05  -0.0695355 -0.284604 -6.98566e-05  -0.0699987 -0.291786 -5.6982e-05  -0.0704503 -0.298969 -4.52399e-05  -0.0708957 -0.306147 -3.55244e-05  -0.0713296 -0.313321 -2.75373e-05  -0.0717564 -0.320491 -2.06828e-05  -0.0721745 -0.327654 -1.46627e-05  -0.0725892 -0.334811 -9.05991e-06  -0.0730019 -0.341963 -6.19888e-06  -0.0734158 -0.349109 -1.2517e-06  -0.0738277 -0.356253 2.86102e-06  0 0 0  -0.000635978 -0.00214097 -0.000478089  -0.00209492 -0.00392092 -0.000907004  -0.00388871 -0.00555175 -0.00124568  -0.0058248 -0.00722033 -0.00149983  -0.00782117 -0.00902409 -0.0016762  -0.0098331 -0.0110176 -0.00178927  -0.011833 -0.0132265 -0.00185162  -0.0138046 -0.0156674 -0.00187349  -0.0157382 -0.0183455 -0.00186598  -0.0176247 -0.0212595 -0.00183642  -0.0194615 -0.0244076 -0.00179261  -0.0212469 -0.0277823 -0.00173861  -0.022979 -0.0313792 -0.00167763  -0.0246589 -0.0351908 -0.00161445  -0.0262894 -0.0392078 -0.00154972  -0.027868 -0.0434237 -0.00148368  -0.0293992 -0.0478298 -0.00141895  -0.0308838 -0.0524186 -0.00135523  -0.0323236 -0.0571826 -0.00129271  -0.0337212 -0.0621152 -0.00123262  -0.0350742 -0.0672061 -0.00117344  -0.0363874 -0.0724491 -0.00111669  -0.0376601 -0.0778382 -0.00106102  -0.038897 -0.0833648 -0.00100809  -0.0400945 -0.0890239 -0.00095576  -0.041255 -0.0948072 -0.000905573  -0.0423816 -0.100707 -0.000857711  -0.043474 -0.106721 -0.000809968  -0.0445318 -0.112839 -0.000764906  -0.0455574 -0.119056 -0.000720322  -0.0465502 -0.125366 -0.000677824  -0.0475128 -0.131765 -0.00063628  -0.0484438 -0.138245 -0.000596583  -0.049345 -0.144801 -0.000557542  -0.0502186 -0.151427 -0.000520229  -0.0510647 -0.158121 -0.000483871  -0.0518823 -0.164875 -0.000449836  -0.0526729 -0.171686 -0.00041616  -0.0534394 -0.178548 -0.000384152  -0.054179 -0.185456 -0.000354052  -0.0548942 -0.192408 -0.000323951  -0.0555861 -0.199398 -0.000295639  -0.0562549 -0.206422 -0.000269473  -0.0569019 -0.213477 -0.000244737  -0.057529 -0.220559 -0.000219524  -0.058135 -0.227665 -0.000196576  -0.0587208 -0.234791 -0.000173986  -0.0592899 -0.241934 -0.000155509  -0.0598395 -0.249091 -0.000135362  -0.0603745 -0.256259 -0.000118077  -0.0608919 -0.263437 -0.000101626  -0.0613942 -0.270619 -8.61883e-05  -0.0618834 -0.277805 -7.24196e-05  -0.0623603 -0.284993 -6.04987e-05  -0.0628273 -0.292181 -4.98295e-05  -0.0632813 -0.299368 -3.96371e-05  -0.063724 -0.306551 -3.14713e-05  -0.064162 -0.313729 -2.40803e-05  -0.0645902 -0.320899 -1.75834e-05  -0.0650151 -0.328065 -1.18613e-05  -0.0654342 -0.335222 -6.97374e-06  -0.0658512 -0.342372 -3.39746e-06  -0.0662646 -0.349517 -1.78814e-07  -0.0666757 -0.356657 4.70877e-06  0 0 0  -0.000480335 -0.00144204 -0.000402868  -0.00155642 -0.00291219 -0.000755966  -0.00298685 -0.00447179 -0.00104922  -0.00459844 -0.00615252 -0.00126976  -0.00629467 -0.00800111 -0.00142485  -0.00802305 -0.0100492 -0.00152445  -0.00975022 -0.0123169 -0.00157785  -0.0114559 -0.0148153 -0.00159681  -0.0131292 -0.0175472 -0.00159109  -0.0147635 -0.0205145 -0.00156564  -0.0163558 -0.0237117 -0.00152671  -0.0179044 -0.0271355 -0.00148028  -0.019409 -0.030778 -0.00142872  -0.0208696 -0.0346329 -0.00137383  -0.0222888 -0.0386933 -0.00131804  -0.0236656 -0.0429502 -0.00126147  -0.0250038 -0.047397 -0.00120628  -0.0263052 -0.0520258 -0.00115108  -0.0275686 -0.0568277 -0.00109851  -0.028796 -0.0617963 -0.00104767  -0.0299914 -0.0669237 -0.000997305  -0.0311526 -0.0722028 -0.000948727  -0.0322813 -0.0776265 -0.000901163  -0.0333786 -0.0831873 -0.000855863  -0.0344479 -0.0888783 -0.000812232  -0.0354859 -0.0946929 -0.000769258  -0.036497 -0.100625 -0.000728309  -0.0374788 -0.106668 -0.000688255  -0.0384328 -0.112815 -0.000649035  -0.039361 -0.11906 -0.000611126  -0.0402629 -0.125397 -0.000575066  -0.0411425 -0.13182 -0.000540376  -0.0419924 -0.138326 -0.00050658  -0.0428219 -0.144905 -0.000473559  -0.0436256 -0.151556 -0.000441968  -0.0444071 -0.158271 -0.000410676  -0.0451653 -0.165047 -0.000381708  -0.045902 -0.171876 -0.000353694  -0.0466175 -0.178757 -0.000326395  -0.0473108 -0.185684 -0.000300527  -0.0479848 -0.192653 -0.00027591  -0.048641 -0.199659 -0.000252843  -0.0492761 -0.206699 -0.000228763  -0.0498941 -0.213768 -0.000206411  -0.050494 -0.220863 -0.00018543  -0.0510767 -0.227981 -0.000166893  -0.0516419 -0.235118 -0.000148475  -0.0521934 -0.242273 -0.000132024  -0.0527277 -0.249439 -0.000115097  -0.0532496 -0.256616 -0.000100732  -0.0537577 -0.263801 -8.66652e-05  -0.0542538 -0.270991 -7.37309e-05  -0.0547388 -0.278184 -6.28829e-05  -0.0552113 -0.285379 -5.13196e-05  -0.0556741 -0.292572 -4.18425e-05  -0.0561268 -0.299763 -3.45111e-05  -0.0565734 -0.306949 -2.73585e-05  -0.0570111 -0.314129 -2.06828e-05  -0.057441 -0.321304 -1.50204e-05  -0.0578671 -0.32847 -1.03712e-05  -0.0582883 -0.335628 -6.55651e-06  -0.0587049 -0.342778 -2.563e-06  -0.0591202 -0.349921 9.53674e-07  -0.0595348 -0.357059 5.66244e-06  0 0 0  -0.000354476 -0.000963733 -0.000334382  -0.00117049 -0.0021797 -0.000625849  -0.0022828 -0.00362566 -0.000863492  -0.00357646 -0.0052809 -0.00104809  -0.0049656 -0.00714605 -0.00117725  -0.00639835 -0.00923099 -0.00126112  -0.00783977 -0.0115449 -0.00130713  -0.00926983 -0.0140903 -0.0013234  -0.0106755 -0.0168705 -0.00131768  -0.012051 -0.0198833 -0.00129575  -0.0133924 -0.0231257 -0.00126421  -0.0146993 -0.0265909 -0.00122565  -0.0159723 -0.0302747 -0.0011825  -0.0172085 -0.0341695 -0.00113636  -0.0184141 -0.0382672 -0.00109017  -0.0195863 -0.0425614 -0.00104338  -0.0207274 -0.0470439 -0.000996828  -0.0218421 -0.0517075 -0.000952303  -0.0229267 -0.0565442 -0.000907898  -0.0239848 -0.0615452 -0.00086534  -0.0250156 -0.066705 -0.000823498  -0.0260222 -0.0720164 -0.000782609  -0.0270039 -0.0774708 -0.000743985  -0.0279639 -0.0830618 -0.000707388  -0.0288984 -0.0887816 -0.00067091  -0.0298102 -0.0946256 -0.000634432  -0.0307026 -0.100586 -0.000601113  -0.0315728 -0.106655 -0.000568211  -0.0324227 -0.112827 -0.000535727  -0.0332513 -0.119098 -0.000504494  -0.0340598 -0.12546 -0.000474691  -0.0348493 -0.131907 -0.000445366  -0.0356174 -0.138434 -0.000418305  -0.0363696 -0.145036 -0.000390112  -0.0371013 -0.151707 -0.000364006  -0.0378165 -0.158442 -0.00033915  -0.0385134 -0.165236 -0.00031513  -0.0391936 -0.172084 -0.000292182  -0.0398564 -0.178982 -0.000269055  -0.0405025 -0.185925 -0.000247657  -0.0411327 -0.192909 -0.000226617  -0.0417471 -0.199931 -0.000207603  -0.0423472 -0.206983 -0.000188887  -0.0429325 -0.214064 -0.00017035  -0.0435033 -0.221173 -0.00015384  -0.0440605 -0.228302 -0.000137746  -0.0446043 -0.235449 -0.000122547  -0.0451343 -0.242612 -0.000108361  -0.0456536 -0.249788 -9.49502e-05  -0.0461609 -0.256973 -8.25524e-05  -0.0466559 -0.264165 -7.18832e-05  -0.0471427 -0.271362 -6.11544e-05  -0.0476196 -0.278562 -5.1856e-05  -0.0480859 -0.285762 -4.32134e-05  -0.0485427 -0.29296 -3.62396e-05  -0.0489938 -0.300154 -2.81334e-05  -0.0494366 -0.307344 -2.22325e-05  -0.0498743 -0.314527 -1.68681e-05  -0.0503027 -0.321703 -1.19805e-05  -0.05073 -0.328871 -8.34465e-06  -0.051151 -0.336031 -4.41074e-06  -0.0515683 -0.343182 -1.54972e-06  -0.0519829 -0.350323 1.2517e-06  -0.0523973 -0.357457 4.41074e-06  0 0 0  -0.000261586 -0.000633955 -0.000268281  -0.000863865 -0.0016509 -0.000498891  -0.00170499 -0.00298977 -0.000687838  -0.00270204 -0.00460257 -0.000831902  -0.00379056 -0.00646625 -0.000935674  -0.00492531 -0.00857282 -0.00100261  -0.00607413 -0.0109183 -0.00103933  -0.00722039 -0.0135022 -0.00105226  -0.00835294 -0.0163215 -0.00104839  -0.00946409 -0.0193738 -0.0010314  -0.0105515 -0.0226541 -0.00100517  -0.0116135 -0.0261568 -0.000973582  -0.0126499 -0.0298751 -0.000939429  -0.01366 -0.033804 -0.00090313  -0.0146476 -0.037935 -0.000865102  -0.0156131 -0.0422612 -0.000828862  -0.0165559 -0.0467758 -0.000791371  -0.0174807 -0.0514699 -0.000754178  -0.0183817 -0.0563355 -0.000719965  -0.0192671 -0.0613668 -0.000685871  -0.0201343 -0.0665552 -0.000653088  -0.0209826 -0.0718942 -0.000621021  -0.0218158 -0.0773759 -0.000590026  -0.0226314 -0.0829934 -0.000559747  -0.0234329 -0.0887398 -0.000531137  -0.0242188 -0.094608 -0.000502825  -0.024989 -0.100593 -0.000475347  -0.0257452 -0.106686 -0.00044924  -0.026486 -0.112882 -0.00042361  -0.0272115 -0.119174 -0.00039959  -0.0279256 -0.125558 -0.00037545  -0.0286238 -0.132026 -0.000352859  -0.0293095 -0.138573 -0.000330389  -0.0299819 -0.145194 -0.00030899  -0.0306413 -0.151884 -0.00028795  -0.0312862 -0.158636 -0.000267684  -0.0319195 -0.165447 -0.000248909  -0.0325401 -0.172311 -0.00023067  -0.0331478 -0.179224 -0.000212967  -0.0337448 -0.186182 -0.00019604  -0.0343282 -0.19318 -0.000178993  -0.0349014 -0.200212 -0.000163496  -0.0354631 -0.207278 -0.00014925  -0.0360129 -0.214372 -0.000134647  -0.0365524 -0.22149 -0.000121415  -0.0370829 -0.228629 -0.000108778  -0.0376005 -0.235786 -9.64999e-05  -0.0381093 -0.242958 -8.64267e-05  -0.0386086 -0.250141 -7.52211e-05  -0.0391002 -0.257334 -6.56843e-05  -0.0395799 -0.264533 -5.61476e-05  -0.0400541 -0.271736 -4.78625e-05  -0.0405188 -0.27894 -4.03523e-05  -0.0409799 -0.286145 -3.42131e-05  -0.0414305 -0.293346 -2.79546e-05  -0.0418749 -0.300545 -2.18749e-05  -0.0423141 -0.307738 -1.80006e-05  -0.0427501 -0.314924 -1.38879e-05  -0.0431764 -0.322103 -9.23872e-06  -0.0436018 -0.329272 -6.07967e-06  -0.0440218 -0.336433 -3.45707e-06  -0.0444393 -0.343584 -6.55651e-07  -0.0448534 -0.350724 2.08616e-06  -0.0452678 -0.357857 4.88758e-06  0 0 0  -0.000182513 -0.000412524 -0.000202119  -0.000605792 -0.00128269 -0.000374019  -0.00120667 -0.00253457 -0.000514507  -0.00192846 -0.00410557 -0.000621915  -0.00272515 -0.00595987 -0.000698507  -0.00356543 -0.00807688 -0.000748158  -0.00442448 -0.0104448 -0.000775516  -0.00528517 -0.0130575 -0.00078553  -0.00613946 -0.0159082 -0.000782073  -0.00698334 -0.0189914 -0.000769377  -0.00781101 -0.0223024 -0.000749767  -0.00862372 -0.0258363 -0.000727117  -0.00942105 -0.0295852 -0.000700891  -0.0102038 -0.0335419 -0.000672758  -0.0109714 -0.0377019 -0.000644803  -0.0117265 -0.0420551 -0.000616372  -0.0124686 -0.0465957 -0.000589371  -0.0132005 -0.0513158 -0.000561476  -0.0139205 -0.0562074 -0.000535011  -0.0146291 -0.0612638 -0.000510037  -0.0153303 -0.0664776 -0.000485122  -0.016021 -0.0718402 -0.000460386  -0.0167028 -0.0773446 -0.000437319  -0.017374 -0.0829861 -0.000415266  -0.0180385 -0.0887549 -0.000393569  -0.0186951 -0.0946451 -0.000372112  -0.0193423 -0.100651 -0.000351906  -0.019979 -0.106766 -0.000331819  -0.0206109 -0.112981 -0.00031364  -0.0212339 -0.119294 -0.000295162  -0.0218494 -0.125696 -0.000277042  -0.0224559 -0.132181 -0.000260293  -0.0230548 -0.138747 -0.000244141  -0.0236466 -0.145384 -0.000227988  -0.0242295 -0.15209 -0.000212729  -0.0248055 -0.158858 -0.000198126  -0.0253727 -0.165684 -0.000183582  -0.0259318 -0.172561 -0.000169337  -0.0264838 -0.179487 -0.000156283  -0.0270269 -0.186458 -0.000143945  -0.0275638 -0.193467 -0.000132561  -0.0280914 -0.200511 -0.000120282  -0.0286131 -0.207587 -0.000109613  -0.0291278 -0.214691 -9.86457e-05  -0.0296342 -0.221818 -8.91089e-05  -0.0301337 -0.228966 -7.93934e-05  -0.0306256 -0.23613 -7.09891e-05  -0.0311108 -0.24331 -6.30021e-05  -0.0315897 -0.250499 -5.55515e-05  -0.0320616 -0.257699 -4.82202e-05  -0.0325277 -0.264904 -4.04119e-05  -0.0329881 -0.272111 -3.46303e-05  -0.033442 -0.279321 -2.96235e-05  -0.0338922 -0.286529 -2.563e-05  -0.0343325 -0.293735 -2.02656e-05  -0.0347729 -0.300936 -1.60336e-05  -0.0352077 -0.308132 -1.2815e-05  -0.0356343 -0.315321 -9.35793e-06  -0.0360606 -0.322502 -6.67572e-06  -0.0364821 -0.329673 -4.76837e-06  -0.0369008 -0.336835 -1.84774e-06  -0.0373158 -0.343985 4.17233e-07  -0.0377312 -0.351125 2.20537e-06  -0.0381439 -0.358252 4.17233e-06  0 0 0  -0.000114448 -0.000273526 -0.000134408  -0.000380062 -0.00104639 -0.000249088  -0.000759318 -0.00223586 -0.000341952  -0.00122267 -0.00377533 -0.000413179  -0.00174037 -0.00561994 -0.00046432  -0.00229061 -0.00774238 -0.000497043  -0.00285846 -0.0101259 -0.000515223  -0.00343284 -0.0127586 -0.000521719  -0.00400794 -0.0156324 -0.000519693  -0.00458062 -0.0187406 -0.000511646  -0.00514752 -0.0220772 -0.000497937  -0.00570947 -0.0256344 -0.000482142  -0.00626624 -0.0294065 -0.000464678  -0.00681853 -0.0333877 -0.000445843  -0.00736517 -0.0375694 -0.000427783  -0.00790834 -0.0419454 -0.000407279  -0.00844872 -0.0465078 -0.000388682  -0.00898635 -0.0512489 -0.000370681  -0.00952232 -0.0561633 -0.000352979  -0.0100555 -0.0612405 -0.000335574  -0.0105861 -0.0664741 -0.0003196  -0.0111177 -0.071857 -0.000302672  -0.0116453 -0.0773822 -0.000287175  -0.0121725 -0.0830427 -0.000272512  -0.0126981 -0.0888309 -0.000258088  -0.0132238 -0.0947407 -0.000243664  -0.0137461 -0.100764 -0.000230432  -0.014267 -0.106896 -0.000217319  -0.0147862 -0.113129 -0.000204563  -0.0153041 -0.119457 -0.000192463  -0.0158195 -0.125876 -0.000181079  -0.0163329 -0.132377 -0.000168681  -0.0168438 -0.138957 -0.000158429  -0.0173514 -0.14561 -0.000147998  -0.017858 -0.152328 -0.000137627  -0.0183609 -0.159109 -0.000127554  -0.0188613 -0.165948 -0.000118494  -0.0193589 -0.172837 -0.000109196  -0.0198526 -0.179774 -0.000100434  -0.0203435 -0.186755 -9.23276e-05  -0.0208313 -0.193774 -8.46386e-05  -0.0213125 -0.200829 -7.74264e-05  -0.0217936 -0.207914 -7.05123e-05  -0.022269 -0.215025 -6.34193e-05  -0.0227423 -0.22216 -5.62072e-05  -0.0232096 -0.229315 -5.03063e-05  -0.0236735 -0.236486 -4.57168e-05  -0.0241339 -0.243671 -3.98159e-05  -0.0245905 -0.250867 -3.45111e-05  -0.0250423 -0.258071 -2.99215e-05  -0.025491 -0.26528 -2.52724e-05  -0.0259356 -0.272492 -2.11e-05  -0.0263784 -0.279705 -1.85966e-05  -0.0268154 -0.286918 -1.55568e-05  -0.0272479 -0.294127 -1.16229e-05  -0.0276797 -0.301331 -1.0252e-05  -0.0281072 -0.308529 -8.04663e-06  -0.0285316 -0.31572 -5.48363e-06  -0.0289533 -0.322902 -3.15905e-06  -0.0293715 -0.330075 -2.26498e-06  -0.0297875 -0.337236 -5.96046e-07  -0.0302024 -0.344386 8.9407e-07  -0.0306146 -0.351526 1.2517e-06  -0.0310221 -0.358652 2.92063e-06  0 0 0  -5.09284e-05 -0.000200927 -6.68168e-05  -0.000170462 -0.00092274 -0.000123799  -0.00034526 -0.0020774 -0.000169873  -0.000559881 -0.00359875 -0.000205576  -0.000804394 -0.00543913 -0.000231743  -0.00106931 -0.00756589 -0.000248253  -0.00134912 -0.00996059 -0.000256896  -0.00163731 -0.0126071 -0.00026083  -0.00193244 -0.0154981 -0.000259578  -0.00223297 -0.018624 -0.000254869  -0.00253785 -0.0219776 -0.000248075  -0.00284755 -0.025553 -0.000240386  -0.0031628 -0.0293437 -0.000230908  -0.00348324 -0.0333425 -0.000221133  -0.00380862 -0.0375418 -0.000211  -0.00413901 -0.0419348 -0.000201166  -0.00447571 -0.0465155 -0.000190794  -0.00481915 -0.0512732 -0.0001809  -0.00516856 -0.0562031 -0.000172138  -0.00552511 -0.0612983 -0.000163615  -0.00588715 -0.0665497 -0.000154972  -0.0062542 -0.0719487 -0.000145555  -0.00663078 -0.0774908 -0.00013876  -0.00701094 -0.0831669 -0.000130832  -0.00739634 -0.0889705 -0.000123322  -0.00778937 -0.0948957 -0.000115693  -0.00818622 -0.100934 -0.000109673  -0.00858831 -0.10708 -0.000102699  -0.00899541 -0.113327 -9.63211e-05  -0.00940704 -0.11967 -9.08375e-05  -0.00982141 -0.126101 -8.38637e-05  -0.0102423 -0.132616 -7.87377e-05  -0.010663 -0.139207 -7.30157e-05  -0.0110877 -0.145871 -6.83069e-05  -0.0115161 -0.152602 -6.34789e-05  -0.0119467 -0.159392 -5.84126e-05  -0.0123777 -0.16624 -5.37634e-05  -0.0128112 -0.173141 -4.94719e-05  -0.0132463 -0.180088 -4.54783e-05  -0.0136819 -0.187077 -4.19617e-05  -0.0141189 -0.194104 -3.79682e-05  -0.0145559 -0.201166 -3.36766e-05  -0.0149927 -0.208257 -3.03388e-05  -0.0154293 -0.215375 -2.71201e-05  -0.0158668 -0.222517 -2.46167e-05  -0.0163021 -0.229678 -2.12193e-05  -0.0167379 -0.236854 -1.88947e-05  -0.0171723 -0.244044 -1.66893e-05  -0.0176051 -0.251244 -1.35303e-05  -0.0180368 -0.258452 -1.2219e-05  -0.0184669 -0.265665 -9.47714e-06  -0.0188951 -0.272881 -8.58307e-06  -0.0193236 -0.280096 -6.67572e-06  -0.0197492 -0.287311 -5.30481e-06  -0.0201733 -0.294522 -3.99351e-06  -0.0205939 -0.301728 -3.09944e-06  -0.0210161 -0.308927 -2.32458e-06  -0.0214341 -0.31612 -1.3113e-06  -0.0218513 -0.323303 -9.53674e-07  -0.0222659 -0.330477 -6.55651e-07  -0.0226779 -0.337639 -5.96046e-07  -0.0230901 -0.344791 1.78814e-07  -0.0235009 -0.351929 2.86102e-06  -0.0239093 -0.359053 1.78814e-06  0 0 0  9.19402e-06 -0.000187218 1.01328e-06  2.89232e-05 -0.000899315 1.54972e-06  5.58048e-05 -0.00204951 1.60933e-06  8.35955e-05 -0.00356984 7.15256e-07  0.00010708 -0.00541148 4.76837e-07  0.000123829 -0.00754547 -7.15256e-07  0.000131607 -0.00994784 -1.13249e-06  0.000128448 -0.0126043 -7.15256e-07  0.000112534 -0.0155051 -1.78814e-06  8.37445e-05 -0.0186418 -5.96046e-07  4.15444e-05 -0.0220077 -5.96046e-08  -1.61529e-05 -0.0255942 3.57628e-07  -8.84533e-05 -0.0293974 1.66893e-06  -0.00017494 -0.0334075 2.20537e-06  -0.000278652 -0.0376193 3.33786e-06  -0.000396907 -0.0420263 5.06639e-06  -0.000529885 -0.0466184 5.84126e-06  -0.000678301 -0.0513904 6.73532e-06  -0.000841737 -0.0563335 7.51019e-06  -0.00101876 -0.0614408 7.80821e-06  -0.00121081 -0.066704 9.05991e-06  -0.00141823 -0.0721167 9.11951e-06  -0.00163984 -0.0776708 1.01924e-05  -0.00187314 -0.0833595 1.03712e-05  -0.0021199 -0.0891758 1.10865e-05  -0.0023793 -0.0951121 1.19209e-05  -0.00264919 -0.101163 1.13249e-05  -0.00293195 -0.10732 1.12057e-05  -0.00322533 -0.113579 1.09076e-05  -0.00352967 -0.119931 1.13249e-05  -0.00384426 -0.126374 1.22786e-05  -0.00416768 -0.132898 1.12653e-05  -0.00449991 -0.139499 1.09673e-05  -0.00484109 -0.146172 1.07884e-05  -0.00518918 -0.152911 1.06096e-05  -0.00554633 -0.159711 1.09076e-05  -0.0059092 -0.166566 1.12653e-05  -0.00627828 -0.173473 9.83477e-06  -0.00665402 -0.180428 9.35793e-06  -0.00703335 -0.187423 9.95398e-06  -0.00741959 -0.194457 9.53674e-06  -0.00780964 -0.201523 8.52346e-06  -0.00820446 -0.208621 8.9407e-06  -0.00860119 -0.215745 8.52346e-06  -0.00900126 -0.22289 8.04663e-06  -0.0094049 -0.230055 7.09295e-06  -0.00980973 -0.237235 8.10623e-06  -0.0102179 -0.244429 6.3777e-06  -0.0106263 -0.251632 6.3777e-06  -0.0110373 -0.258842 6.31809e-06  -0.0114489 -0.266058 5.72205e-06  -0.0118618 -0.273276 5.66244e-06  -0.0122743 -0.280494 5.1856e-06  -0.0126874 -0.287709 4.23193e-06  -0.0131006 -0.294922 3.63588e-06  -0.013515 -0.30213 3.15905e-06  -0.0139267 -0.30933 3.21865e-06  -0.0143397 -0.316523 3.15905e-06  -0.0147526 -0.323707 2.20537e-06  -0.0151632 -0.330881 2.20537e-06  -0.015573 -0.338045 1.96695e-06  -0.0159822 -0.345196 8.9407e-07  -0.0163913 -0.352333 9.53674e-07  -0.0167966 -0.359458 4.17233e-07  0 0 0  6.84634e-05 -0.000230014 6.98566e-05  0.000229537 -0.000974357 0.000126898  0.000456423 -0.00214732 0.000172257  0.000725091 -0.00368375 0.00020659  0.00101638 -0.00553763 0.000231028  0.00131541 -0.00767857 0.00024581  0.00160897 -0.0100864 0.000253856  0.00189078 -0.0127472 0.000256956  0.00215364 -0.0156531 0.000256181  0.00239533 -0.0187947 0.000252664  0.00261539 -0.0221648 0.000247538  0.0028097 -0.0257579 0.000240564  0.00297934 -0.0295673 0.000233173  0.00312424 -0.033585 0.000225365  0.00324416 -0.037804 0.000217378  0.00333774 -0.0422183 0.000209928  0.00340903 -0.0468194 0.000202298  0.00345588 -0.0515999 0.000194311  0.00347733 -0.0565526 0.000187218  0.0034771 -0.0616677 0.00017947  0.00345612 -0.0669399 0.000171959  0.00341094 -0.0723621 0.00016582  0.00334561 -0.0779257 0.000158191  0.00325871 -0.0836233 0.000150919  0.00315273 -0.0894485 0.000144124  0.00302577 -0.0953929 0.000138104  0.00288129 -0.101452 0.000132561  0.00271928 -0.107618 0.000126004  0.00253904 -0.113884 0.000118852  0.00234079 -0.120245 0.000112951  0.0021292 -0.126694 0.000107646  0.00190163 -0.133226 0.000101268  0.00165915 -0.139834 9.59039e-05  0.00140262 -0.146514 9.03606e-05  0.00113201 -0.153258 8.48174e-05  0.000849485 -0.160064 8.07047e-05  0.000556946 -0.166926 7.53403e-05  0.000249624 -0.173838 6.98566e-05  -6.41346e-05 -0.180796 6.48499e-05  -0.000388861 -0.187797 6.04987e-05  -0.0007236 -0.194835 5.67436e-05  -0.00106573 -0.201905 5.24521e-05  -0.00141525 -0.209007 4.78029e-05  -0.00177288 -0.216133 4.45247e-05  -0.00213838 -0.223282 3.99947e-05  -0.00250721 -0.230448 3.67165e-05  -0.00288367 -0.237632 3.35574e-05  -0.0032649 -0.244827 3.03984e-05  -0.00364947 -0.252033 2.68817e-05  -0.00403976 -0.259245 2.40803e-05  -0.00443244 -0.26646 2.06232e-05  -0.00482678 -0.273679 1.93715e-05  -0.00522804 -0.280898 1.72257e-05  -0.00562763 -0.288115 1.40667e-05  -0.00603175 -0.295328 1.21593e-05  -0.00643468 -0.302536 1.04904e-05  -0.00684047 -0.309737 8.40425e-06  -0.00724626 -0.31693 6.19888e-06  -0.00765228 -0.324114 5.90086e-06  -0.00805998 -0.331288 4.05312e-06  -0.00846767 -0.338452 2.74181e-06  -0.00887418 -0.345602 1.19209e-06  -0.00927973 -0.35274 1.78814e-07  -0.00968456 -0.359866 -2.98023e-07  0 0 0  0.000131674 -0.000330627 0.000136614  0.000438169 -0.00114924 0.000250459  0.000869602 -0.00237387 0.000342071  0.00138488 -0.00394315 0.000411689  0.0019477 -0.00581533 0.00045985  0.00252891 -0.00796461 0.000491202  0.00310946 -0.0103751 0.000509441  0.00367445 -0.0130371 0.000514984  0.00421554 -0.0159405 0.000512958  0.00472975 -0.01908 0.000505447  0.00520802 -0.0224495 0.000493586  0.0056529 -0.0260438 0.000480354  0.00606412 -0.0298532 0.000464618  0.00643927 -0.033873 0.000448406  0.00678033 -0.0380952 0.000431716  0.00708723 -0.0425129 0.000415444  0.00735998 -0.0471169 0.000399172  0.00760102 -0.0519017 0.000382543  0.00780869 -0.0568586 0.000366032  0.00798655 -0.0619802 0.000351012  0.00813293 -0.0672582 0.000335932  0.00825155 -0.0726851 0.000321388  0.00833952 -0.0782536 0.000306964  0.00839901 -0.0839565 0.000293136  0.00843334 -0.0897878 0.000279009  0.00843966 -0.0957385 0.000265539  0.00842071 -0.101803 0.000252485  0.00837839 -0.107974 0.000240326  0.00831091 -0.114245 0.000226915  0.00822091 -0.120611 0.000214934  0.00810897 -0.127065 0.000203967  0.00797844 -0.133601 0.000192523  0.00782418 -0.140213 0.000179887  0.00765181 -0.146897 0.000169754  0.00746155 -0.153645 0.000159502  0.00725198 -0.160454 0.000149488  0.00702882 -0.167319 0.000139117  0.00678778 -0.174234 0.000129938  0.00653195 -0.181195 0.00012058  0.00626326 -0.188198 0.000112057  0.00597906 -0.195238 0.00010401  0.0056839 -0.202311 9.52482e-05  0.00537682 -0.209413 8.79169e-05  0.00505877 -0.216542 8.0049e-05  0.00473046 -0.223691 7.24792e-05  0.00439262 -0.230859 6.60419e-05  0.00404596 -0.238042 5.99623e-05  0.00369048 -0.245239 5.34058e-05  0.00332999 -0.252444 4.81009e-05  0.00296187 -0.259657 4.23193e-05  0.00258613 -0.266873 3.68357e-05  0.00220919 -0.274092 3.19481e-05  0.00182414 -0.28131 2.79546e-05  0.00143528 -0.288526 2.38419e-05  0.00104427 -0.295741 1.98483e-05  0.000648737 -0.302948 1.70469e-05  0.000250816 -0.310148 1.40667e-05  -0.000150442 -0.317341 1.0848e-05  -0.000550985 -0.324524 8.64267e-06  -0.000954866 -0.331698 6.49691e-06  -0.00135946 -0.338861 3.75509e-06  -0.00176287 -0.346012 1.37091e-06  -0.00216842 -0.353152 -6.55651e-07  -0.00257206 -0.360276 -2.20537e-06  0 0 0  0.000198729 -0.000499129 0.000202  0.000662848 -0.00143492 0.00037241  0.00131276 -0.00273699 0.000511289  0.0020836 -0.00435233 0.000615656  0.00292289 -0.00624734 0.000689745  0.00379166 -0.00840467 0.000737548  0.0046584 -0.0108141 0.000763118  0.00550771 -0.0134692 0.000772417  0.00632489 -0.0163655 0.000769496  0.00710422 -0.0194977 0.000758767  0.00784254 -0.0228605 0.000741124  0.00853556 -0.026448 0.000720203  0.00918478 -0.0302529 0.000696719  0.00978988 -0.0342703 0.000671804  0.0103507 -0.038491 0.000646174  0.010868 -0.0429068 0.000620604  0.0113436 -0.0475115 0.000595868  0.0117767 -0.0522967 0.000571191  0.0121703 -0.057255 0.000546396  0.0125245 -0.0623773 0.000523269  0.012839 -0.0676576 0.000500023  0.0131177 -0.0730861 0.000477672  0.0133598 -0.0786572 0.000456095  0.0135666 -0.0843623 0.000435054  0.013739 -0.0901945 0.000413656  0.0138776 -0.0961484 0.000393689  0.0139854 -0.102214 0.000374079  0.0140618 -0.108388 0.000354946  0.0141073 -0.114662 0.000335753  0.0141228 -0.121029 0.000317454  0.0141126 -0.127484 0.00029999  0.0140746 -0.134023 0.000283301  0.0140114 -0.140636 0.000266254  0.0139227 -0.147321 0.000249624  0.0138102 -0.154072 0.000234365  0.013675 -0.160881 0.000219464  0.013519 -0.167747 0.000204563  0.0133424 -0.174663 0.000190079  0.0131445 -0.181624 0.000176966  0.0129318 -0.188627 0.000163317  0.0126977 -0.195667 0.000151217  0.0124488 -0.202741 0.000138462  0.0121832 -0.209842 0.000127137  0.011904 -0.216969 0.000116348  0.0116115 -0.224118 0.000104904  0.0113063 -0.231286 9.53078e-05  0.010989 -0.238469 8.60691e-05  0.0106597 -0.245663 7.70092e-05  0.0103221 -0.252869 6.83069e-05  0.00997329 -0.26008 6.02007e-05  0.00961852 -0.267295 5.23329e-05  0.00925374 -0.274514 4.59552e-05  0.00888371 -0.281731 3.99351e-05  0.00850582 -0.288946 3.31402e-05  0.00812459 -0.296157 2.81334e-05  0.00773764 -0.303364 2.34246e-05  0.00734448 -0.310564 1.91331e-05  0.00695062 -0.317754 1.44839e-05  0.00655413 -0.324937 1.10865e-05  0.00615454 -0.33211 8.76188e-06  0.00575256 -0.339272 5.54323e-06  0.0053494 -0.346423 1.54972e-06  0.00494647 -0.353563 -1.07288e-06  0.0045433 -0.360691 -2.68221e-06  0 0 0  0.000275403 -0.000747979 0.000266314  0.000915319 -0.00184816 0.000493228  0.00180383 -0.00325304 0.000678718  0.00284639 -0.00492305 0.000819862  0.00397268 -0.00683993 0.000918984  0.00512958 -0.00899941 0.000982821  0.00628376 -0.0114006 0.00101799  0.00741291 -0.0140424 0.00103086  0.00850362 -0.0169237 0.00102764  0.00954837 -0.0200426 0.00101221  0.0105409 -0.0233925 0.000989616  0.0114802 -0.0269687 0.000961125  0.0123655 -0.0307661 0.000929832  0.0131963 -0.0347746 0.000896573  0.0139748 -0.0389884 0.000862896  0.0147011 -0.0434004 0.00082922  0.0153766 -0.0480006 0.000795066  0.0160012 -0.0527831 0.000761628  0.0165784 -0.0577375 0.000728369  0.017108 -0.0628582 0.000697136  0.017591 -0.0681364 0.000666082  0.0180296 -0.0735642 0.000635922  0.0184232 -0.0791333 0.000606894  0.0187753 -0.084838 0.000578165  0.0190856 -0.0906699 0.000549972  0.0193572 -0.0966216 0.000522494  0.0195885 -0.102688 0.000496089  0.0197816 -0.108861 0.000470221  0.0199392 -0.115134 0.000445604  0.0200614 -0.1215 0.000421226  0.0201511 -0.127954 0.000397444  0.0202067 -0.134491 0.000374734  0.0202312 -0.141104 0.000352442  0.0202241 -0.147788 0.000330746  0.0201898 -0.154537 0.000309169  0.0201261 -0.161345 0.000288963  0.0200386 -0.168208 0.000269473  0.0199242 -0.175123 0.000249922  0.0197854 -0.182083 0.000232458  0.0196257 -0.189084 0.00021565  0.0194407 -0.196122 0.000197768  0.0192378 -0.203192 0.000181913  0.0190144 -0.210293 0.000166297  0.0187731 -0.217417 0.000151396  0.0185139 -0.224565 0.000137925  0.0182385 -0.23173 0.000124753  0.0179513 -0.238911 0.000111461  0.0176449 -0.246104 9.98974e-05  0.0173302 -0.253305 8.83341e-05  0.0170023 -0.260515 7.76052e-05  0.0166616 -0.267727 6.83665e-05  0.0163131 -0.274942 5.99027e-05  0.0159543 -0.282158 5.0962e-05  0.015588 -0.289371 4.25577e-05  0.0152156 -0.29658 3.62396e-05  0.0148358 -0.303785 2.98023e-05  0.0144498 -0.310983 2.36034e-05  0.0140612 -0.318172 1.91331e-05  0.0136645 -0.325352 1.42455e-05  0.0132697 -0.332524 9.23872e-06  0.0128691 -0.339685 6.25849e-06  0.0124681 -0.346836 1.72853e-06  0.0120654 -0.353977 -1.66893e-06  0.0116658 -0.361108 -3.63588e-06  0 0 0  0.000365898 -0.00110233 0.00032872  0.00121579 -0.00241768 0.000613987  0.00236988 -0.00394094 0.00084728  0.00370449 -0.00566381 0.0010258  0.00512403 -0.0075947 0.00115079  0.00657356 -0.00974709 0.00123101  0.00801277 -0.0121305 0.00127435  0.00941885 -0.0147512 0.0012902  0.0107782 -0.0176116 0.00128663  0.0120806 -0.020709 0.00126731  0.013324 -0.0240414 0.00123918  0.0145054 -0.0276028 0.00120407  0.0156239 -0.0313853 0.00116444  0.01668 -0.0353831 0.00112379  0.0176721 -0.0395869 0.00108045  0.0186064 -0.0439885 0.00103784  0.0194794 -0.0485827 0.000995874  0.0202947 -0.0533575 0.000954092  0.0210522 -0.0583068 0.000912845  0.0217557 -0.0634211 0.000873387  0.022405 -0.0686939 0.000833869  0.0230021 -0.074117 0.000795722  0.0235473 -0.0796826 0.000759244  0.0240426 -0.0853823 0.000722706  0.0244881 -0.0912104 0.000688195  0.0248902 -0.0971592 0.000653565  0.0252447 -0.103221 0.000619948  0.0255544 -0.10939 0.00058794  0.0258218 -0.115659 0.000557005  0.0260493 -0.122023 0.000525951  0.0262359 -0.128473 0.000496745  0.0263839 -0.135006 0.000467002  0.0264969 -0.141615 0.000439405  0.026572 -0.148295 0.000412047  0.0266128 -0.15504 0.000385284  0.0266213 -0.161845 0.000360548  0.026598 -0.168705 0.000336051  0.026545 -0.175616 0.00031209  0.0264633 -0.182571 0.000288546  0.0263543 -0.189568 0.000267327  0.0262189 -0.196602 0.000246465  0.0260603 -0.203669 0.000225961  0.0258756 -0.210764 0.000207007  0.025672 -0.217886 0.000187516  0.0254462 -0.225029 0.000169933  0.0252018 -0.23219 0.000154078  0.0249362 -0.239367 0.000137687  0.024657 -0.246556 0.000123143  0.0243614 -0.253754 0.000108838  0.0240512 -0.260959 9.56655e-05  0.0237269 -0.268169 8.39233e-05  0.023391 -0.27538 7.15852e-05  0.0230429 -0.282592 6.13928e-05  0.0226874 -0.289802 5.1558e-05  0.0223207 -0.297009 4.33326e-05  0.0219479 -0.30421 3.57032e-05  0.0215671 -0.311404 2.82526e-05  0.0211809 -0.318592 2.19345e-05  0.0207903 -0.32577 1.70469e-05  0.0203936 -0.33294 1.2219e-05  0.0199947 -0.3401 7.33137e-06  0.0195935 -0.34725 3.51667e-06  0.0191929 -0.354392 -1.2517e-06  0.0187902 -0.361527 -3.93391e-06  0 0 0  0.000486039 -0.00159997 0.000392854  0.00158824 -0.00318134 0.00073725  0.0030527 -0.00482762 0.00102121  0.00469795 -0.00658697 0.00123459  0.00641927 -0.00851381 0.00138432  0.00815552 -0.0106429 0.00147963  0.00987178 -0.012997 0.00153154  0.0115463 -0.0155882 0.00155091  0.0131667 -0.0184198 0.00154603  0.0147243 -0.0214928 0.00152344  0.0162131 -0.0248019 0.0014897  0.0176305 -0.0283433 0.00144762  0.0189785 -0.0321078 0.00140154  0.0202553 -0.0360898 0.00135177  0.021461 -0.0402799 0.00130123  0.0225993 -0.0446708 0.00124925  0.0236684 -0.0492526 0.00119847  0.0246712 -0.0540183 0.00114876  0.0256091 -0.0589574 0.00109899  0.0264843 -0.0640641 0.00105041  0.0272961 -0.0693285 0.00100362  0.0280499 -0.0747436 0.000957906  0.0287435 -0.0803014 0.000912666  0.0293803 -0.0859945 0.000869691  0.0299635 -0.0918155 0.000827372  0.0304916 -0.0977569 0.000785828  0.0309685 -0.103813 0.000746071  0.0313938 -0.109975 0.00070709  0.0317694 -0.116238 0.000668406  0.0320982 -0.122594 0.000631809  0.0323825 -0.129039 0.000595689  0.0326202 -0.135566 0.000561178  0.0328169 -0.142169 0.00052774  0.0329731 -0.148842 0.000494897  0.0330884 -0.155582 0.000462592  0.033165 -0.162379 0.000432253  0.0332067 -0.169233 0.000402272  0.0332131 -0.176137 0.000373006  0.0331855 -0.183087 0.000345945  0.0331275 -0.190079 0.000318825  0.0330393 -0.197106 0.000294209  0.0329218 -0.204168 0.000268877  0.0327764 -0.211258 0.000246823  0.0326068 -0.218373 0.000224948  0.0324118 -0.22551 0.000202656  0.032196 -0.232665 0.000182986  0.0319567 -0.239837 0.000164032  0.0316985 -0.24702 0.000145793  0.0314219 -0.254213 0.000128508  0.0311267 -0.261414 0.00011307  0.0308158 -0.268618 9.799e-05  0.0304921 -0.275825 8.54135e-05  0.0301545 -0.283032 7.2062e-05  0.0298042 -0.290239 6.03795e-05  0.029444 -0.297441 5.01275e-05  0.0290742 -0.304638 4.16636e-05  0.0286975 -0.311829 3.40343e-05  0.0283117 -0.319013 2.55704e-05  0.0279212 -0.326189 1.91927e-05  0.0275271 -0.333357 1.37091e-05  0.0271282 -0.340515 8.34465e-06  0.0267277 -0.347665 4.94719e-06  0.0263255 -0.354809 -4.17233e-07  0.0259233 -0.361944 -4.70877e-06  0 0 0  0.00062675 -0.00230628 0.000461221  0.00210197 -0.00420594 0.000876009  0.00392382 -0.0059337 0.00120485  0.00588313 -0.00769216 0.00144821  0.00789312 -0.00958633 0.00161868  0.00990275 -0.011676 0.00172848  0.0118843 -0.0139894 0.00178814  0.0138176 -0.0165427 0.00181091  0.0156911 -0.0193411 0.00180554  0.0174936 -0.0223839 0.00177997  0.0192221 -0.025667 0.00174093  0.0208735 -0.0291851 0.00169331  0.0224465 -0.0329297 0.00163913  0.0239405 -0.0368922 0.00158125  0.0253569 -0.0410669 0.00152194  0.026696 -0.045442 0.00146234  0.0279583 -0.0500093 0.00140321  0.0291464 -0.0547607 0.0013442  0.0302624 -0.0596882 0.00128758  0.031307 -0.0647826 0.00122994  0.0322815 -0.0700372 0.00117517  0.0331874 -0.0754406 0.00112152  0.0340289 -0.0809878 0.00106943  0.0348065 -0.0866716 0.0010184  0.0355209 -0.0924826 0.000968337  0.036175 -0.0984149 0.000919402  0.0367702 -0.104461 0.00087291  0.0373088 -0.110613 0.000827014  0.0377926 -0.116868 0.00078243  0.0382215 -0.123216 0.0007388  0.0385997 -0.129651 0.00069648  0.0389261 -0.136168 0.000656128  0.0392056 -0.142763 0.000616789  0.0394378 -0.149428 0.000577986  0.0396261 -0.156157 0.000540137  0.039772 -0.162949 0.000504732  0.0398753 -0.169793 0.000469804  0.0399399 -0.176689 0.000435174  0.0399654 -0.183631 0.000403523  0.0399544 -0.190614 0.000372946  0.0399103 -0.197634 0.000342488  0.0398347 -0.204687 0.000314593  0.0397248 -0.211769 0.000286698  0.039587 -0.218877 0.000260711  0.039422 -0.226007 0.000235975  0.0392303 -0.233155 0.000211358  0.0390131 -0.240318 0.000190079  0.0387752 -0.247495 0.000168562  0.0385137 -0.254682 0.000148773  0.038234 -0.261875 0.000130296  0.0379353 -0.269075 0.000112355  0.0376198 -0.276275 9.63807e-05  0.0372887 -0.283476 8.27312e-05  0.0369442 -0.290676 7.02739e-05  0.036588 -0.297874 5.72801e-05  0.0362198 -0.305067 4.65512e-05  0.0358424 -0.312254 3.74913e-05  0.0354602 -0.319436 2.87294e-05  0.035068 -0.326609 2.27094e-05  0.0346723 -0.333772 1.57952e-05  0.0342734 -0.34093 1.055e-05  0.0338688 -0.34808 5.48363e-06  0.0334663 -0.355223 8.9407e-07  0.0330615 -0.362362 -4.47035e-06  0 0 0  0.00109961 -0.00341374 0.000580251  0.00300665 -0.00550741 0.00103581  0.00513275 -0.00723761 0.00139397  0.00735092 -0.00894815 0.00166297  0.00960225 -0.010787 0.0018509  0.0118511 -0.0128237 0.00197333  0.0140729 -0.0150912 0.00204152  0.0162485 -0.0176032 0.00206774  0.0183619 -0.0203652 0.00206304  0.020404 -0.0233763 0.00203598  0.0223668 -0.0266308 0.00199223  0.0242469 -0.0301224 0.00193751  0.0260416 -0.0338439 0.00187641  0.0277517 -0.0377878 0.00181216  0.0293735 -0.0419396 0.00174463  0.0309107 -0.0462977 0.00167692  0.0323635 -0.0508484 0.00160795  0.0337344 -0.0555836 0.00154173  0.0350251 -0.0604951 0.00147575  0.0362365 -0.0655757 0.0014109  0.03737 -0.0708147 0.00134784  0.0384295 -0.0762057 0.00128549  0.0394145 -0.0817404 0.00122637  0.0403299 -0.0874096 0.0011667  0.0411743 -0.0932086 0.00111103  0.0419533 -0.0991282 0.00105554  0.0426652 -0.105162 0.00100082  0.0433141 -0.111304 0.000947475  0.0439019 -0.117545 0.000896871  0.0444278 -0.123881 0.000847578  0.0448976 -0.130307 0.000798523  0.0453105 -0.136813 0.000751615  0.0456719 -0.143395 0.000705659  0.045979 -0.150049 0.000661135  0.0462382 -0.156769 0.000619233  0.0464466 -0.163547 0.000577688  0.0466099 -0.170383 0.000537336  0.0467284 -0.177269 0.000499427  0.0468073 -0.184198 0.000461459  0.0468421 -0.191172 0.000426352  0.04684 -0.198181 0.000391304  0.0467997 -0.205225 0.00035888  0.0467257 -0.212298 0.000327468  0.0466177 -0.219395 0.000297487  0.0464804 -0.226516 0.000270188  0.0463109 -0.233656 0.000242293  0.0461152 -0.24081 0.000216186  0.0458913 -0.247979 0.000192642  0.0456467 -0.255157 0.000170171  0.0453761 -0.262342 0.000148892  0.0450869 -0.269534 0.000128448  0.0447776 -0.276728 0.000110328  0.044451 -0.283922 9.44734e-05  0.0441113 -0.291117 7.89762e-05  0.0437541 -0.298308 6.56247e-05  0.0433874 -0.305496 5.19753e-05  0.0430081 -0.312679 4.25577e-05  0.0426214 -0.319854 3.22461e-05  0.0422273 -0.327024 2.56896e-05  0.0418284 -0.334188 1.80006e-05  0.0414248 -0.341344 1.27554e-05  0.0410187 -0.348492 8.16584e-06  0.0406139 -0.355638 3.69549e-06  0.0402079 -0.362779 -1.84774e-06  0 0 0  -0.00114405 -0.0033115 -0.000299454  -0.00305163 -0.00531824 -0.000532091  -0.00516292 -0.00697372 -0.000716329  -0.00736518 -0.00860663 -0.000855803  -0.00960827 -0.0103573 -0.000954628  -0.0118643 -0.012292 -0.00102019  -0.014109 -0.0144434 -0.00105685  -0.0163278 -0.0168266 -0.0010708  -0.0185093 -0.0194459 -0.00106812  -0.0206411 -0.0223023 -0.00105298  -0.0227176 -0.0253932 -0.0010283  -0.0247391 -0.0287121 -0.000998855  -0.0266978 -0.0322528 -0.000965297  -0.0285963 -0.0360088 -0.000927866  -0.0304348 -0.0399726 -0.000891626  -0.0322151 -0.0441359 -0.000854433  -0.0339383 -0.048491 -0.000816405  -0.0356053 -0.0530307 -0.000780761  -0.0372205 -0.0577452 -0.000744343  -0.0387812 -0.0626287 -0.000709295  -0.0402927 -0.0676735 -0.000676811  -0.0417552 -0.0728727 -0.000643134  -0.0431688 -0.0782172 -0.000611544  -0.0445396 -0.0837018 -0.00058043  -0.045864 -0.0893186 -0.000550449  -0.0471448 -0.0950609 -0.000522196  -0.0483835 -0.100923 -0.000493348  -0.0495807 -0.106898 -0.000466824  -0.05074 -0.11298 -0.000440717  -0.0518599 -0.119161 -0.000415385  -0.0529408 -0.125438 -0.000389993  -0.0539831 -0.131803 -0.000365555  -0.0549924 -0.138251 -0.000344157  -0.0559638 -0.144777 -0.000321448  -0.0569022 -0.151376 -0.000299394  -0.0578079 -0.15804 -0.000278175  -0.0586822 -0.164769 -0.000258982  -0.0595238 -0.171554 -0.000240088  -0.060333 -0.178391 -0.000221431  -0.0611169 -0.185277 -0.000204027  -0.0618713 -0.192206 -0.000187993  -0.0625961 -0.199176 -0.000171065  -0.063297 -0.206181 -0.000154853  -0.0639715 -0.213218 -0.000140131  -0.0646191 -0.220283 -0.000126123  -0.0652459 -0.227372 -0.000112593  -0.0658488 -0.234482 -0.00010097  -0.0664322 -0.241612 -8.9407e-05  -0.0669935 -0.248757 -7.87973e-05  -0.0675371 -0.255912 -6.82473e-05  -0.0680599 -0.263079 -5.87106e-05  -0.0685689 -0.270253 -4.92334e-05  -0.0690603 -0.277431 -4.29749e-05  -0.0695379 -0.284611 -3.51667e-05  -0.0700011 -0.291794 -2.92063e-05  -0.0704539 -0.298973 -2.31862e-05  -0.0708981 -0.306151 -1.8537e-05  -0.0713336 -0.313325 -1.38879e-05  -0.0717573 -0.320493 -1.055e-05  -0.0721757 -0.327657 -6.79493e-06  -0.072593 -0.334813 -5.00679e-06  -0.0730064 -0.341966 -2.26498e-06  -0.0734174 -0.349112 -1.19209e-06  -0.0738297 -0.356255 -8.34465e-07  0 0 0  -0.000636719 -0.00218287 -0.000235975  -0.00209555 -0.00400051 -0.000447631  -0.00388844 -0.00566296 -0.000615597  -0.00581913 -0.00735562 -0.000742435  -0.00781146 -0.00917772 -0.000831783  -0.00982055 -0.0111842 -0.000890315  -0.0118186 -0.0134024 -0.000922441  -0.0137919 -0.0158491 -0.000934839  -0.0157275 -0.0185296 -0.000931978  -0.0176175 -0.0214445 -0.000918448  -0.0194588 -0.0245894 -0.000896573  -0.021247 -0.0279622 -0.000869453  -0.0229824 -0.0315542 -0.000840068  -0.0246679 -0.0353597 -0.000807703  -0.0262997 -0.0393708 -0.000775397  -0.0278813 -0.0435815 -0.000742793  -0.0294149 -0.0479815 -0.000709355  -0.0309006 -0.0525639 -0.00067842  -0.032342 -0.0573215 -0.000646949  -0.0337392 -0.0622471 -0.00061655  -0.0350933 -0.0673322 -0.000587583  -0.0364072 -0.0725693 -0.000558019  -0.0376811 -0.0779529 -0.000531375  -0.0389161 -0.0834742 -0.000504553  -0.0401127 -0.0891276 -0.000477731  -0.0412743 -0.0949053 -0.000452816  -0.0423996 -0.100801 -0.000428915  -0.0434914 -0.106808 -0.000405729  -0.0445486 -0.112922 -0.000382721  -0.0455735 -0.119135 -0.000360072  -0.0465651 -0.12544 -0.00033921  -0.0475278 -0.131833 -0.000318825  -0.0484586 -0.138309 -0.0002985  -0.0493605 -0.144862 -0.00027895  -0.0502341 -0.151484 -0.000260115  -0.0510776 -0.158175 -0.000242412  -0.0518939 -0.164925 -0.000224411  -0.0526841 -0.171731 -0.00020802  -0.0534496 -0.17859 -0.000192463  -0.054189 -0.185495 -0.00017637  -0.0549035 -0.192444 -0.000162303  -0.0555952 -0.199431 -0.000147939  -0.056263 -0.206451 -0.000135303  -0.0569115 -0.213504 -0.000121355  -0.0575371 -0.220585 -0.000109911  -0.0581424 -0.227688 -9.7692e-05  -0.0587277 -0.234811 -8.75592e-05  -0.0592957 -0.241951 -7.76052e-05  -0.0598457 -0.249106 -6.82473e-05  -0.0603774 -0.256273 -5.93066e-05  -0.0608962 -0.263447 -5.10812e-05  -0.0613985 -0.270629 -4.33326e-05  -0.0618882 -0.277815 -3.65376e-05  -0.0623643 -0.285002 -3.08156e-05  -0.0628283 -0.292189 -2.44379e-05  -0.0632832 -0.299374 -2.06828e-05  -0.0637286 -0.306554 -1.57356e-05  -0.0641654 -0.313732 -1.13845e-05  -0.064594 -0.320902 -9.77516e-06  -0.0650184 -0.328066 -6.19888e-06  -0.0654378 -0.335224 -3.03984e-06  -0.0658534 -0.342374 -2.26498e-06  -0.0662682 -0.349518 -5.96046e-08  -0.0666802 -0.35666 1.84774e-06  0 0 0  -0.000481028 -0.00147488 -0.000198126  -0.00155208 -0.0029785 -0.000373363  -0.00297862 -0.00456816 -0.000518858  -0.00458603 -0.00627352 -0.000628829  -0.00628021 -0.0081422 -0.000708401  -0.00800639 -0.0102062 -0.000758588  -0.009734 -0.0124849 -0.00078696  -0.0114431 -0.0149896 -0.000797749  -0.0131204 -0.0177255 -0.000795186  -0.0147586 -0.0206933 -0.000782847  -0.0163556 -0.0238905 -0.00076437  -0.0179089 -0.0273109 -0.000741065  -0.0194178 -0.0309495 -0.000715315  -0.0208803 -0.0348003 -0.000687897  -0.0223026 -0.0388553 -0.000660181  -0.023684 -0.0431065 -0.00063163  -0.0250226 -0.0475469 -0.000603318  -0.0263251 -0.0521698 -0.000576377  -0.0275894 -0.0569662 -0.000550389  -0.0288182 -0.0619285 -0.000524402  -0.0300137 -0.06705 -0.000499368  -0.0311743 -0.0723231 -0.00047487  -0.0323032 -0.0777415 -0.000451028  -0.0334018 -0.0832961 -0.000428438  -0.0344697 -0.0889814 -0.000406563  -0.0355072 -0.0947917 -0.000384986  -0.0365167 -0.100718 -0.000364006  -0.0374985 -0.106756 -0.000344455  -0.0384533 -0.112898 -0.000324905  -0.0393806 -0.119138 -0.00030601  -0.0402837 -0.125471 -0.000287831  -0.0411578 -0.13189 -0.000270665  -0.0420108 -0.138391 -0.000252843  -0.0428364 -0.144967 -0.00023675  -0.0436413 -0.151613 -0.000220954  -0.0444219 -0.158324 -0.000206709  -0.0451806 -0.165096 -0.000191271  -0.0459151 -0.171923 -0.000177264  -0.046629 -0.1788 -0.000163198  -0.0473244 -0.185724 -0.000150621  -0.0479972 -0.192688 -0.000138462  -0.0486505 -0.199692 -0.000125825  -0.0492866 -0.206729 -0.000114202  -0.0499034 -0.213795 -0.000103056  -0.0505021 -0.220888 -9.31621e-05  -0.0510843 -0.228004 -8.32677e-05  -0.0516503 -0.235138 -7.48038e-05  -0.0522006 -0.24229 -6.61016e-05  -0.0527341 -0.249455 -5.78761e-05  -0.0532572 -0.25663 -4.95911e-05  -0.0537641 -0.263814 -4.23789e-05  -0.0542598 -0.271002 -3.67761e-05  -0.0547431 -0.278194 -3.06964e-05  -0.0552149 -0.285387 -2.63453e-05  -0.0556786 -0.292578 -2.13385e-05  -0.0561297 -0.299768 -1.66893e-05  -0.0565755 -0.306954 -1.37091e-05  -0.057014 -0.314133 -1.0252e-05  -0.0574434 -0.321306 -7.7486e-06  -0.0578711 -0.328472 -5.30481e-06  -0.05829 -0.33563 -3.15905e-06  -0.0587077 -0.34278 -1.3113e-06  -0.0591218 -0.349923 1.01328e-06  -0.0595372 -0.357062 2.20537e-06  0 0 0  -0.000352744 -0.000991851 -0.000164688  -0.0011647 -0.00223687 -0.000308514  -0.00227349 -0.00371125 -0.000427961  -0.00356226 -0.00539134 -0.000519514  -0.00494978 -0.00727817 -0.000585914  -0.00638247 -0.00937963 -0.000628233  -0.00782469 -0.0117052 -0.000652254  -0.00925788 -0.0142591 -0.000661552  -0.0106685 -0.017044 -0.000658751  -0.0120486 -0.0200589 -0.000648439  -0.0133938 -0.0232999 -0.000632703  -0.0147054 -0.0267636 -0.000613928  -0.0159824 -0.0304453 -0.000592053  -0.0172223 -0.0343349 -0.000569344  -0.0184304 -0.0384282 -0.000546157  -0.019605 -0.0427169 -0.000522435  -0.0207498 -0.0471936 -0.000498772  -0.0218642 -0.0518513 -0.000476003  -0.0229486 -0.056682 -0.000454664  -0.0240068 -0.0616779 -0.000433683  -0.0250391 -0.066832 -0.000411868  -0.0260458 -0.0721369 -0.00039196  -0.0270274 -0.077586 -0.000372708  -0.0279859 -0.083171 -0.000353992  -0.0289207 -0.0888861 -0.000335336  -0.0298337 -0.0947244 -0.00031811  -0.0307233 -0.100679 -0.000300109  -0.0315942 -0.106743 -0.000283599  -0.032444 -0.11291 -0.000267863  -0.0332695 -0.119177 -0.000252545  -0.0340786 -0.125534 -0.000236452  -0.0348674 -0.131977 -0.000223458  -0.0356364 -0.1385 -0.00020957  -0.0363867 -0.145097 -0.000195563  -0.0371184 -0.151764 -0.00018239  -0.0378325 -0.158496 -0.00016886  -0.0385273 -0.165286 -0.000157416  -0.0392075 -0.17213 -0.000145972  -0.0398686 -0.179025 -0.000135303  -0.0405147 -0.185965 -0.000124097  -0.0411448 -0.192945 -0.000113308  -0.0417588 -0.199963 -0.000103295  -0.0423579 -0.207014 -9.40561e-05  -0.0429423 -0.214093 -8.57711e-05  -0.0435131 -0.221198 -7.69496e-05  -0.0440674 -0.228325 -6.86646e-05  -0.0446117 -0.23547 -6.09756e-05  -0.0451422 -0.242631 -5.42402e-05  -0.0456595 -0.249804 -4.76241e-05  -0.0461669 -0.256988 -4.14848e-05  -0.0466611 -0.264179 -3.57032e-05  -0.0471468 -0.271374 -3.05772e-05  -0.0476239 -0.278571 -2.54512e-05  -0.04809 -0.285769 -2.16365e-05  -0.0485473 -0.292967 -1.75834e-05  -0.0489957 -0.30016 -1.40071e-05  -0.0494404 -0.307348 -1.14441e-05  -0.0498765 -0.314532 -8.70228e-06  -0.0503066 -0.321707 -6.73532e-06  -0.0507331 -0.328874 -4.05312e-06  -0.0511527 -0.336034 -2.5034e-06  -0.0515711 -0.343184 -7.7486e-07  -0.051986 -0.350326 4.17233e-07  -0.0524008 -0.35746 9.53674e-07  0 0 0  -0.000260193 -0.000658661 -0.000131667  -0.000858672 -0.00170191 -0.000245929  -0.0016951 -0.00306761 -0.000340223  -0.00268868 -0.00470595 -0.000412583  -0.00377518 -0.00659138 -0.000465214  -0.00491014 -0.00871451 -0.000500023  -0.00606138 -0.0110739 -0.000518501  -0.00721097 -0.0136662 -0.000526071  -0.00834894 -0.0164915 -0.000524879  -0.00946403 -0.0195456 -0.000515997  -0.0105546 -0.0228257 -0.000503421  -0.0116207 -0.0263279 -0.000487924  -0.0126602 -0.0300436 -0.000471056  -0.0136734 -0.0339691 -0.000452161  -0.0146649 -0.038095 -0.000433445  -0.0156322 -0.0424161 -0.000414789  -0.0165771 -0.0469254 -0.000396848  -0.017501 -0.0516134 -0.000378609  -0.0184046 -0.0564741 -0.000360131  -0.0192896 -0.0614995 -0.000343502  -0.0201575 -0.0666821 -0.000326395  -0.0210065 -0.0720156 -0.000310838  -0.0218394 -0.0774917 -0.000294983  -0.0226551 -0.083103 -0.000280499  -0.0234551 -0.0888444 -0.000266314  -0.0242398 -0.0947075 -0.000251114  -0.0250108 -0.100687 -0.000237405  -0.0257643 -0.106775 -0.000224531  -0.0265055 -0.112966 -0.00021255  -0.0272299 -0.119254 -0.000199378  -0.0279434 -0.125633 -0.000188053  -0.0286402 -0.132097 -0.00017637  -0.0293257 -0.138639 -0.000165701  -0.0299981 -0.145256 -0.000154734  -0.0306554 -0.151942 -0.000144124  -0.031301 -0.158691 -0.000134289  -0.031934 -0.165497 -0.000124395  -0.0325537 -0.172358 -0.000114679  -0.0331621 -0.179268 -0.000106335  -0.0337565 -0.186222 -9.83477e-05  -0.0343401 -0.193216 -8.89897e-05  -0.0349119 -0.200247 -8.20756e-05  -0.0354724 -0.20731 -7.37309e-05  -0.0360229 -0.2144 -6.76513e-05  -0.0365608 -0.221516 -6.08563e-05  -0.0370884 -0.228652 -5.44786e-05  -0.0376079 -0.235807 -4.79221e-05  -0.0381169 -0.242977 -4.29153e-05  -0.0386152 -0.250157 -3.83258e-05  -0.0391052 -0.257349 -3.20077e-05  -0.0395863 -0.264545 -2.8789e-05  -0.0400591 -0.271747 -2.47359e-05  -0.040525 -0.278949 -1.98483e-05  -0.040983 -0.286152 -1.58548e-05  -0.0414331 -0.293354 -1.35303e-05  -0.0418785 -0.300551 -1.09673e-05  -0.0423183 -0.307744 -9.17912e-06  -0.0427504 -0.314929 -6.97374e-06  -0.0431805 -0.322107 -5.30481e-06  -0.0436032 -0.329276 -3.27826e-06  -0.0440242 -0.336436 -1.19209e-06  -0.0444417 -0.343587 -6.55651e-07  -0.0448546 -0.350726 1.01328e-06  -0.0452707 -0.357857 2.92063e-06  0 0 0  -0.000180844 -0.00043419 -9.89437e-05  -0.000601783 -0.00132924 -0.00018394  -0.00119895 -0.00260639 -0.000254154  -0.00191811 -0.00420257 -0.000308812  -0.00271457 -0.00607887 -0.000347257  -0.00355473 -0.00821355 -0.000372529  -0.00441524 -0.0105956 -0.000387669  -0.00527829 -0.0132171 -0.000392616  -0.00613731 -0.0160736 -0.000391603  -0.00698328 -0.0191604 -0.000385225  -0.00781506 -0.0224735 -0.000375748  -0.008632 -0.0260054 -0.000364184  -0.00943333 -0.0297514 -0.000350952  -0.010217 -0.0337056 -0.000337303  -0.0109876 -0.0378616 -0.0003227  -0.0117455 -0.04221 -0.00030899  -0.012488 -0.0467449 -0.000295103  -0.01322 -0.0514599 -0.000281572  -0.0139402 -0.0563462 -0.000268638  -0.0146503 -0.0613968 -0.000255227  -0.0153509 -0.0666048 -0.000243068  -0.0160408 -0.0719616 -0.000230193  -0.0167233 -0.0774607 -0.000219166  -0.0173942 -0.0830969 -0.00020802  -0.0180583 -0.0888597 -0.000196517  -0.0187128 -0.0947455 -0.000187099  -0.0193599 -0.100746 -0.000176072  -0.0199994 -0.106855 -0.000165999  -0.0206293 -0.113067 -0.000156105  -0.0212517 -0.119374 -0.000147641  -0.021866 -0.125771 -0.000139415  -0.022472 -0.132253 -0.000130236  -0.0230706 -0.138813 -0.000121891  -0.0236602 -0.145447 -0.000114024  -0.0242431 -0.152148 -0.000106156  -0.0248175 -0.158912 -9.90629e-05  -0.0253835 -0.165734 -9.15527e-05  -0.0259445 -0.172609 -8.52942e-05  -0.0264945 -0.179532 -7.92146e-05  -0.0270379 -0.186498 -7.24196e-05  -0.0275733 -0.193505 -6.53267e-05  -0.0281029 -0.200546 -6.00815e-05  -0.0286222 -0.207619 -5.44786e-05  -0.0291367 -0.214719 -4.97103e-05  -0.0296414 -0.221844 -4.39286e-05  -0.0301406 -0.22899 -3.99351e-05  -0.030632 -0.236152 -3.50475e-05  -0.031116 -0.243329 -3.17693e-05  -0.0315948 -0.250517 -2.77162e-05  -0.0320661 -0.257714 -2.3067e-05  -0.032531 -0.264917 -2.06232e-05  -0.0329919 -0.272122 -1.74642e-05  -0.0334449 -0.279331 -1.41263e-05  -0.0338953 -0.286538 -1.25766e-05  -0.0343354 -0.293742 -1.04904e-05  -0.0347755 -0.300943 -7.33137e-06  -0.0352104 -0.308137 -6.49691e-06  -0.0356376 -0.315326 -5.54323e-06  -0.0360639 -0.322505 -4.11272e-06  -0.0364852 -0.329676 -1.96695e-06  -0.0369036 -0.336837 -9.53674e-07  -0.037318 -0.343987 2.38419e-07  -0.0377331 -0.351128 1.72853e-06  -0.0381463 -0.358256 2.563e-06  0 0 0  -0.000113364 -0.000292927 -6.59823e-05  -0.000376202 -0.00108901 -0.000122964  -0.000754848 -0.00230363 -0.00016892  -0.00121617 -0.00386724 -0.000204921  -0.00173295 -0.00573465 -0.000230491  -0.00228456 -0.00787476 -0.000247836  -0.00285411 -0.010272 -0.000257671  -0.00343123 -0.0129153 -0.000260651  -0.00400829 -0.0157961 -0.000259757  -0.00458407 -0.0189071 -0.000256181  -0.00515389 -0.0222452 -0.000249863  -0.00571889 -0.0258017 -0.000242114  -0.00627702 -0.0295725 -0.000232935  -0.00683069 -0.0335504 -0.000223577  -0.00737971 -0.0377283 -0.000213385  -0.00792509 -0.0421001 -0.000204623  -0.00846565 -0.0466575 -0.000195146  -0.00900376 -0.0513939 -0.000186265  -0.0095396 -0.056302 -0.000176549  -0.0100733 -0.0613736 -0.000168145  -0.0106051 -0.0666013 -0.000159621  -0.011135 -0.0719788 -0.000151396  -0.0116634 -0.0774992 -0.000144064  -0.0121907 -0.0831534 -0.000136375  -0.012715 -0.0889368 -0.000129104  -0.013239 -0.0948403 -0.00012219  -0.0137612 -0.100859 -0.000115097  -0.0142814 -0.106986 -0.000108659  -0.0148013 -0.113214 -0.000102699  -0.0153173 -0.119539 -9.64999e-05  -0.0158325 -0.125952 -9.06587e-05  -0.016345 -0.132449 -8.57115e-05  -0.0168567 -0.139025 -7.86185e-05  -0.0173657 -0.145672 -7.37309e-05  -0.017869 -0.152387 -6.91414e-05  -0.0183716 -0.159164 -6.4075e-05  -0.0188727 -0.165999 -5.88894e-05  -0.0193701 -0.172884 -5.43594e-05  -0.0198617 -0.179818 -5.03063e-05  -0.0203507 -0.186796 -4.60744e-05  -0.0208385 -0.193813 -4.25577e-05  -0.0213199 -0.200864 -3.9041e-05  -0.0217993 -0.207945 -3.49283e-05  -0.0222766 -0.215053 -3.15309e-05  -0.0227454 -0.222186 -2.80142e-05  -0.0232153 -0.229339 -2.51532e-05  -0.0236781 -0.236508 -2.18749e-05  -0.0241396 -0.243692 -1.98483e-05  -0.0245943 -0.250885 -1.78814e-05  -0.0250475 -0.258086 -1.50204e-05  -0.0254955 -0.265293 -1.28746e-05  -0.0259399 -0.272504 -1.13249e-05  -0.0263803 -0.279716 -8.64267e-06  -0.0268188 -0.286926 -6.79493e-06  -0.0272505 -0.294134 -6.55651e-06  -0.0276818 -0.301337 -4.64916e-06  -0.0281098 -0.308534 -3.57628e-06  -0.0285337 -0.315724 -2.80142e-06  -0.0289536 -0.322906 -1.72853e-06  -0.0293727 -0.330077 -4.76837e-07  -0.0297897 -0.33724 -7.15256e-07  -0.0302031 -0.34439 4.76837e-07  -0.0306144 -0.351529 1.19209e-06  -0.0310261 -0.358656 1.54972e-06  0 0 0  -5.10104e-05 -0.00021857 -3.26037e-05  -0.000170015 -0.000963211 -6.08563e-05  -0.000342205 -0.00214285 -8.45194e-05  -0.000557885 -0.00368825 -0.000101626  -0.000802368 -0.00555027 -0.000114679  -0.00106862 -0.00769565 -0.000123501  -0.00134826 -0.0101041 -0.000128448  -0.00163922 -0.0127613 -0.000130296  -0.00193715 -0.0156593 -0.000130177  -0.00223935 -0.018789 -0.00012815  -0.00254661 -0.022144 -0.000124872  -0.00285715 -0.0257192 -0.000119627  -0.00317329 -0.0295083 -0.000115693  -0.00349396 -0.033504 -0.000110865  -0.0038203 -0.0376996 -0.000105798  -0.00415194 -0.0420886 -0.000100613  -0.0044893 -0.0466648 -9.54866e-05  -0.00483334 -0.0514183 -9.08375e-05  -0.00518394 -0.0563427 -8.57711e-05  -0.00553894 -0.061432 -8.2016e-05  -0.00590098 -0.0666768 -7.73072e-05  -0.00627017 -0.0720718 -7.34925e-05  -0.00664461 -0.0776067 -6.86646e-05  -0.00702417 -0.0832782 -6.60419e-05  -0.00741124 -0.0890766 -6.16312e-05  -0.00780308 -0.0949964 -5.79357e-05  -0.00819898 -0.10103 -5.42402e-05  -0.00860023 -0.107171 -5.13792e-05  -0.00900769 -0.113413 -4.79817e-05  -0.00941837 -0.119751 -4.47631e-05  -0.00983226 -0.126177 -4.21405e-05  -0.0102518 -0.132688 -3.97563e-05  -0.0106728 -0.139275 -3.60608e-05  -0.0110977 -0.145934 -3.35574e-05  -0.0115249 -0.152661 -3.1054e-05  -0.0119543 -0.159448 -2.87294e-05  -0.0123854 -0.166292 -2.76566e-05  -0.0128195 -0.173189 -2.48551e-05  -0.013253 -0.180132 -2.22921e-05  -0.0136881 -0.187118 -2.13385e-05  -0.0141251 -0.194142 -1.91927e-05  -0.0145631 -0.201201 -1.71661e-05  -0.014997 -0.20829 -1.50204e-05  -0.0154347 -0.215405 -1.32322e-05  -0.0158694 -0.222543 -1.19209e-05  -0.0163064 -0.229701 -1.10865e-05  -0.016741 -0.236876 -9.41753e-06  -0.0171733 -0.244064 -7.56979e-06  -0.0176079 -0.251262 -7.15256e-06  -0.0180397 -0.258468 -6.3777e-06  -0.0184689 -0.265679 -5.66244e-06  -0.018899 -0.272893 -4.17233e-06  -0.0193257 -0.280107 -2.98023e-06  -0.0197489 -0.28732 -2.68221e-06  -0.0201733 -0.294529 -2.14577e-06  -0.0205965 -0.301735 -1.49012e-06  -0.0210147 -0.308934 -6.55651e-07  -0.0214341 -0.316125 -1.01328e-06  -0.0218511 -0.323307 -4.17233e-07  -0.0222654 -0.33048 -9.53674e-07  -0.0226774 -0.337643 -1.78814e-07  -0.0230911 -0.344794 1.66893e-06  -0.0235019 -0.351932 3.57628e-07  -0.02391 -0.359056 1.01328e-06  0 0 0  9.03755e-06 -0.000204623 1.01328e-06  2.88486e-05 -0.000938833 8.34465e-07  5.45532e-05 -0.00211436 6.55651e-07  8.07941e-05 -0.00365791 5.96046e-07  0.000103444 -0.00552195 -5.96046e-08  0.000119954 -0.00767365 -5.96046e-07  0.00012657 -0.0100901 -6.55651e-07  0.000121474 -0.0127561 -8.9407e-07  0.000104606 -0.0156641 -1.78814e-07  7.58171e-05 -0.0188056 -8.34465e-07  3.23057e-05 -0.0221726 -4.76837e-07  -2.55704e-05 -0.02576 1.19209e-07  -9.88245e-05 -0.0295612 5.36442e-07  -0.000185847 -0.0335686 1.43051e-06  -0.000289202 -0.0377775 2.563e-06  -0.0004071 -0.0421804 2.08616e-06  -0.000541568 -0.0467675 2.5034e-06  -0.000689626 -0.0515342 2.98023e-06  -0.000852585 -0.0564722 3.8743e-06  -0.00102997 -0.0615737 4.23193e-06  -0.00122285 -0.0668324 4.64916e-06  -0.00142932 -0.072239 4.94719e-06  -0.00164914 -0.0777881 5.36442e-06  -0.00188339 -0.0834712 4.88758e-06  -0.00212979 -0.0892819 5.36442e-06  -0.0023874 -0.0952137 4.94719e-06  -0.00265753 -0.101258 5.84126e-06  -0.00294042 -0.107411 5.24521e-06  -0.00323355 -0.113665 5.24521e-06  -0.00353813 -0.120013 6.07967e-06  -0.0038501 -0.12645 6.13928e-06  -0.00417507 -0.13297 6.4373e-06  -0.00450754 -0.139567 5.66244e-06  -0.004848 -0.146235 5.30481e-06  -0.00519586 -0.152971 4.76837e-06  -0.00555182 -0.159767 4.52995e-06  -0.00591445 -0.166619 5.24521e-06  -0.00628352 -0.173522 4.94719e-06  -0.00665903 -0.180472 5.126e-06  -0.00703669 -0.187465 4.70877e-06  -0.00742316 -0.194495 4.35114e-06  -0.0078125 -0.201559 5.00679e-06  -0.00820589 -0.208654 4.88758e-06  -0.00860405 -0.215774 4.11272e-06  -0.00900388 -0.222917 3.63588e-06  -0.00940728 -0.230079 4.05312e-06  -0.00981236 -0.237257 3.09944e-06  -0.0102201 -0.244449 3.21865e-06  -0.0106277 -0.25165 2.74181e-06  -0.0110397 -0.258859 2.86102e-06  -0.0114505 -0.266073 3.21865e-06  -0.011862 -0.273288 2.98023e-06  -0.0122752 -0.280504 2.5034e-06  -0.0126886 -0.287719 2.26498e-06  -0.0131021 -0.29493 1.96695e-06  -0.0135155 -0.302136 1.43051e-06  -0.013927 -0.309336 1.72853e-06  -0.0143399 -0.316528 6.55651e-07  -0.0147517 -0.323711 5.36442e-07  -0.0151634 -0.330885 1.37091e-06  -0.0155733 -0.338048 1.78814e-06  -0.0159812 -0.345198 7.7486e-07  -0.0163903 -0.352337 -2.98023e-07  -0.0167973 -0.359461 5.96046e-08  0 0 0  6.82026e-05 -0.0002473 3.43919e-05  0.000226527 -0.00101382 6.23465e-05  0.000451148 -0.00221139 8.51154e-05  0.000717014 -0.00377268 0.000102341  0.00100717 -0.00564849 0.000114858  0.00130534 -0.00780624 0.000122488  0.00159898 -0.0102275 0.000126302  0.00188035 -0.0128999 0.00012821  0.00214237 -0.0158122 0.000128031  0.00238585 -0.0189574 0.000125468  0.00260592 -0.0223305 0.000122905  0.00279933 -0.0259222 0.000120699  0.00296944 -0.0297305 0.000116646  0.00311512 -0.0337461 0.000112653  0.00323504 -0.0379616 0.000108838  0.00333047 -0.0423717 0.000105023  0.0034008 -0.0469685 0.000101209  0.00344789 -0.0517436 9.70364e-05  0.00347161 -0.0566908 9.32813e-05  0.00347137 -0.061801 8.91685e-05  0.00344849 -0.0670677 8.58903e-05  0.00340414 -0.0724838 8.27909e-05  0.00333858 -0.078042 7.88569e-05  0.00325191 -0.0837346 7.56383e-05  0.00314581 -0.089555 7.24196e-05  0.00301957 -0.0954945 6.98566e-05  0.0028758 -0.101547 6.61612e-05  0.00271273 -0.107709 6.23465e-05  0.00253367 -0.11397 5.94854e-05  0.0023365 -0.120327 5.66244e-05  0.00212467 -0.126771 5.38826e-05  0.00189614 -0.133298 5.10216e-05  0.00165415 -0.139902 4.76241e-05  0.00139809 -0.146578 4.50015e-05  0.00112915 -0.153319 4.33326e-05  0.000846624 -0.160121 4.00543e-05  0.000553846 -0.166979 3.68357e-05  0.000248194 -0.173887 3.51071e-05  -6.67572e-05 -0.180842 3.27826e-05  -0.000392199 -0.187839 2.96831e-05  -0.000725746 -0.194873 2.80738e-05  -0.0010674 -0.201941 2.6226e-05  -0.00141788 -0.209039 2.41399e-05  -0.00177479 -0.216163 2.12789e-05  -0.00213861 -0.223309 2.0504e-05  -0.00250912 -0.230473 1.88947e-05  -0.00288391 -0.237654 1.63317e-05  -0.00326538 -0.244847 1.53184e-05  -0.00365114 -0.25205 1.37687e-05  -0.00403953 -0.25926 1.18017e-05  -0.00443363 -0.266474 1.03116e-05  -0.0048275 -0.273692 9.53674e-06  -0.005229 -0.280909 8.58307e-06  -0.00562763 -0.288123 7.03335e-06  -0.00603175 -0.295336 5.90086e-06  -0.00643396 -0.302543 5.00679e-06  -0.00683951 -0.309743 4.94719e-06  -0.00724554 -0.316935 4.11272e-06  -0.00765276 -0.324119 2.08616e-06  -0.00805974 -0.331292 1.72853e-06  -0.00846696 -0.338455 7.7486e-07  -0.00887275 -0.345605 5.36442e-07  -0.00927973 -0.352744 -5.96046e-07  -0.00968409 -0.359869 -1.37091e-06  0 0 0  0.0001297 -0.000349641 6.6638e-05  0.000432849 -0.00118977 0.000123262  0.000862375 -0.00243938 0.000168979  0.00137272 -0.00403333 0.000203967  0.00193325 -0.00592667 0.000228465  0.00251323 -0.00809342 0.000245094  0.00309423 -0.0105184 0.000253499  0.00365937 -0.0131891 0.000257015  0.00420123 -0.0161002 0.000256181  0.00471592 -0.0192437 0.000252366  0.00519753 -0.0226151 0.000247002  0.00564325 -0.0262083 0.000240445  0.00605589 -0.0300169 0.000232518  0.00643253 -0.0340332 0.000224471  0.00677276 -0.0382524 0.000216663  0.00708032 -0.0426656 0.000207722  0.00735509 -0.0472659 0.000199795  0.00759625 -0.0520461 0.000191033  0.00780463 -0.0569968 0.000182867  0.00798321 -0.0621128 0.000175357  0.00812912 -0.0673858 0.000167847  0.00824714 -0.072807 0.000160575  0.00833619 -0.0783708 0.000153244  0.00839627 -0.0840685 0.000146151  0.00842988 -0.089893 0.000139892  0.0084368 -0.0958391 0.000132859  0.0084188 -0.101899 0.000126243  0.00837624 -0.108064 0.000119925  0.00830936 -0.114331 0.000113308  0.0082202 -0.120692 0.000107884  0.00810838 -0.127142 0.00010246  0.00797629 -0.133673 9.57251e-05  0.00782275 -0.140281 9.06587e-05  0.00765133 -0.14696 8.51154e-05  0.00746131 -0.153705 7.93338e-05  0.00725389 -0.160511 7.44462e-05  0.0070281 -0.167372 7.03931e-05  0.00678706 -0.174283 6.41942e-05  0.00653172 -0.181241 6.02007e-05  0.0062623 -0.188239 5.59092e-05  0.0059793 -0.195276 5.1856e-05  0.00568485 -0.202347 4.76241e-05  0.00537705 -0.209446 4.3869e-05  0.00505972 -0.216571 4.09484e-05  0.00473094 -0.223718 3.5584e-05  0.00439358 -0.230884 3.30806e-05  0.00404787 -0.238064 2.99215e-05  0.00369072 -0.24526 2.71797e-05  0.00333166 -0.252462 2.37226e-05  0.00296378 -0.259672 2.0802e-05  0.0025897 -0.266887 1.84774e-05  0.00220942 -0.274104 1.59144e-05  0.00182509 -0.28132 1.38879e-05  0.00143671 -0.288537 1.15037e-05  0.00104403 -0.295748 1.00136e-05  0.000650406 -0.302954 8.34465e-06  0.000249863 -0.310154 7.15256e-06  -0.000148535 -0.317345 5.42402e-06  -0.000550747 -0.324528 4.35114e-06  -0.000953674 -0.331702 2.80142e-06  -0.00135803 -0.338864 1.43051e-06  -0.00176215 -0.346015 1.13249e-06  -0.00216746 -0.353154 -2.38419e-07  -0.00256896 -0.36028 -1.37091e-06  0 0 0  0.000197284 -0.000519574 9.85265e-05  0.000657231 -0.00147855 0.000183582  0.0013018 -0.00280643 0.000252187  0.0020681 -0.00444508 0.00030458  0.00290558 -0.00636119 0.000343442  0.00377148 -0.0085367 0.000367105  0.00463954 -0.0109588 0.000380933  0.00548786 -0.013624 0.000386238  0.00630641 -0.016526 0.00038439  0.0070886 -0.0196615 0.000379026  0.00783068 -0.0230266 0.000370741  0.00852579 -0.0266135 0.00036037  0.00917679 -0.0304164 0.000348866  0.00978392 -0.034431 0.00033617  0.0103456 -0.0386475 0.000323594  0.0108632 -0.0430594 0.000311136  0.0113403 -0.0476598 0.000297844  0.011775 -0.05244 0.000285506  0.0121685 -0.0573926 0.000273645  0.0125225 -0.0625095 0.00026226  0.0128382 -0.0677843 0.000250101  0.0131172 -0.073208 0.000239074  0.013358 -0.0787731 0.000228047  0.013566 -0.084473 0.000217855  0.013739 -0.0903006 0.000207007  0.0138779 -0.0962489 0.000196636  0.013985 -0.10231 0.000187457  0.0140612 -0.108479 0.000177681  0.0141068 -0.114747 0.000168264  0.0141251 -0.12111 0.00015831  0.0141133 -0.127562 0.000150383  0.014075 -0.134095 0.00014168  0.0140126 -0.140704 0.00013274  0.0139239 -0.147385 0.000124574  0.0138113 -0.154131 0.000117362  0.0136769 -0.160937 0.000109494  0.0135202 -0.167799 0.000102282  0.0133433 -0.174711 9.51886e-05  0.0131476 -0.181669 8.79169e-05  0.0129321 -0.188669 8.21352e-05  0.0127008 -0.195706 7.56383e-05  0.0124509 -0.202776 6.95586e-05  0.0121861 -0.209875 6.30021e-05  0.0119066 -0.216999 5.75781e-05  0.0116136 -0.224146 5.25713e-05  0.0113096 -0.23131 4.78029e-05  0.0109909 -0.238491 4.30346e-05  0.010663 -0.245684 3.83258e-05  0.0103245 -0.252887 3.44515e-05  0.00997663 -0.260096 2.98619e-05  0.00961924 -0.26731 2.55108e-05  0.00925732 -0.274525 2.23517e-05  0.00888467 -0.281741 2.02656e-05  0.00850916 -0.288955 1.64509e-05  0.00812626 -0.296165 1.37091e-05  0.00773954 -0.303371 1.18613e-05  0.00734663 -0.310569 9.77516e-06  0.00695348 -0.31776 7.39098e-06  0.0065546 -0.324941 5.48363e-06  0.00615454 -0.332113 3.75509e-06  0.00575352 -0.339275 1.96695e-06  0.00535178 -0.346426 1.49012e-06  0.00494957 -0.353566 -5.96046e-07  0.00454712 -0.360695 -2.44379e-06  0 0 0  0.000273593 -0.000771344 0.000130475  0.000908643 -0.00189668 0.000243664  0.00179026 -0.0033263 0.000334799  0.0028289 -0.0050199 0.000405908  0.00395045 -0.0069586 0.000457048  0.00510722 -0.00913429 0.000489771  0.00626093 -0.0115479 0.000507534  0.00739163 -0.0141996 0.000515103  0.00848418 -0.0170861 0.00051409  0.0095309 -0.0202078 0.000505745  0.0105267 -0.0235588 0.000494361  0.0114682 -0.0271348 0.000480413  0.0123577 -0.0309287 0.000465572  0.0131907 -0.0349346 0.000449538  0.0139706 -0.0391448 0.000431597  0.0146989 -0.0435522 0.000415027  0.0153759 -0.0481479 0.000397921  0.0160016 -0.0529246 0.000380635  0.0165793 -0.0578747 0.000364721  0.0171088 -0.0629904 0.000348806  0.0175922 -0.0682626 0.000333726  0.0180309 -0.0736845 0.000317991  0.0184249 -0.0792491 0.000303626  0.0187773 -0.0849484 0.000289202  0.019088 -0.090775 0.000274837  0.0193584 -0.0967219 0.000262499  0.0195899 -0.102783 0.000248551  0.0197841 -0.10895 0.000235081  0.0199424 -0.115219 0.000222862  0.0200641 -0.121581 0.000210941  0.020153 -0.128032 0.000199378  0.0202079 -0.134564 0.000187159  0.0202341 -0.141172 0.000176132  0.0202281 -0.147851 0.000165641  0.0201929 -0.154596 0.000154555  0.0201309 -0.161401 0.00014466  0.0200412 -0.168261 0.000134885  0.0199263 -0.175171 0.000124753  0.0197878 -0.182128 0.000116587  0.019628 -0.189126 0.000107586  0.0194447 -0.196161 9.92417e-05  0.0192409 -0.203228 9.08971e-05  0.0190182 -0.210325 8.28505e-05  0.0187769 -0.217448 7.59959e-05  0.0185177 -0.224592 6.90222e-05  0.0182443 -0.231755 6.21676e-05  0.0179529 -0.238933 5.6386e-05  0.0176501 -0.246123 4.93526e-05  0.0173337 -0.253323 4.39882e-05  0.0170054 -0.260531 3.82662e-05  0.0166636 -0.267741 3.38554e-05  0.0163157 -0.274955 2.89083e-05  0.0159569 -0.282168 2.49147e-05  0.0155916 -0.28938 2.14577e-05  0.0152185 -0.296588 1.8239e-05  0.0148389 -0.303791 1.49012e-05  0.0144525 -0.310988 1.23978e-05  0.0140636 -0.318177 8.88109e-06  0.0136697 -0.325357 6.73532e-06  0.0132716 -0.332528 5.06639e-06  0.0128722 -0.339689 2.02656e-06  0.0124714 -0.346839 1.49012e-06  0.0120685 -0.35398 -4.17233e-07  0.0116673 -0.361112 -2.68221e-06  0 0 0  0.000363514 -0.00112951 0.000161707  0.00120759 -0.00247192 0.000302672  0.00235678 -0.00402141 0.000418782  0.00368443 -0.00576836 0.000508428  0.00510177 -0.0077191 0.000571907  0.00654921 -0.00988722 0.000612378  0.00798741 -0.0122825 0.000635564  0.00939429 -0.0149112 0.000644207  0.0107556 -0.0177766 0.000642598  0.012063 -0.0208762 0.000633895  0.0133081 -0.0242095 0.000619829  0.0144931 -0.0277684 0.000601947  0.0156138 -0.031549 0.000583231  0.0166724 -0.0355431 0.000562072  0.0176679 -0.039743 0.000540793  0.0186037 -0.0441413 0.000519335  0.0194784 -0.0487289 0.000498235  0.0202942 -0.0534985 0.000477552  0.0210537 -0.0584433 0.00045675  0.0217576 -0.0635526 0.000436306  0.0224068 -0.0688195 0.000417113  0.0230035 -0.074237 0.000398397  0.0235482 -0.0797969 0.000379086  0.024045 -0.0854923 0.000361562  0.0244923 -0.0913144 0.00034374  0.0248933 -0.0972586 0.000327587  0.0252475 -0.103315 0.000310004  0.0255589 -0.10948 0.000293612  0.0258265 -0.115744 0.000278354  0.0260527 -0.122102 0.000263095  0.0262401 -0.128549 0.000247657  0.0263879 -0.135077 0.000233889  0.0264978 -0.141682 0.00022012  0.0265751 -0.148359 0.00020504  0.0266163 -0.155099 0.00019294  0.0266244 -0.161901 0.000180185  0.026602 -0.168757 0.000167549  0.0265491 -0.175663 0.000156105  0.0264668 -0.182615 0.000145376  0.0263572 -0.189609 0.000133097  0.0262234 -0.19664 0.000123203  0.0260639 -0.203705 0.000112414  0.0258803 -0.210797 0.000102997  0.0256739 -0.217915 9.44138e-05  0.0254493 -0.225056 8.58903e-05  0.0252054 -0.232214 7.689e-05  0.0249407 -0.239388 6.83665e-05  0.0246606 -0.246575 6.12736e-05  0.0243642 -0.253771 5.46575e-05  0.0240543 -0.260975 4.76241e-05  0.0237298 -0.268182 4.09484e-05  0.0233943 -0.275392 3.47495e-05  0.023046 -0.282603 3.09944e-05  0.0226896 -0.289811 2.60472e-05  0.0223222 -0.297016 2.13385e-05  0.0219498 -0.304217 1.77622e-05  0.0215688 -0.311409 1.42455e-05  0.0211833 -0.318596 1.15037e-05  0.0207903 -0.325774 8.40425e-06  0.0203955 -0.332943 5.96046e-06  0.0199978 -0.340103 3.8743e-06  0.0195968 -0.347254 1.3113e-06  0.0191953 -0.354395 -4.17233e-07  0.0187945 -0.361529 -1.72853e-06  0 0 0  0.000484198 -0.00163245 0.000192761  0.00158277 -0.00324392 0.000362873  0.0030421 -0.00491852 0.000504673  0.00468069 -0.00670052 0.000611901  0.0063954 -0.00864661 0.000686824  0.00812939 -0.0107902 0.000735819  0.00984511 -0.0131544 0.000763297  0.0115203 -0.0157521 0.000774384  0.0131429 -0.0185882 0.000772297  0.0147033 -0.021662 0.000761449  0.0161948 -0.0249707 0.000744879  0.0176181 -0.0285103 0.000724554  0.0189682 -0.032272 0.000701547  0.0202479 -0.0362506 0.000676155  0.0214553 -0.0404363 0.000650704  0.0225945 -0.0448216 0.000625193  0.0236658 -0.0493991 0.000598967  0.0246686 -0.054159 0.000574768  0.0256083 -0.0590933 0.000549138  0.0264846 -0.0641938 0.000525236  0.0272986 -0.0694534 0.000502348  0.0280514 -0.074863 0.000478864  0.0287452 -0.0804153 0.000456452  0.0293831 -0.0861031 0.000434399  0.0299655 -0.0919191 0.000413775  0.0304948 -0.0978557 0.000392973  0.0309694 -0.103906 0.000373185  0.0313952 -0.110064 0.000353158  0.0317721 -0.116322 0.00033474  0.0321008 -0.122674 0.000315249  0.0323846 -0.129114 0.000297844  0.0326247 -0.135636 0.000280857  0.032819 -0.142236 0.000263512  0.0329747 -0.148905 0.000248075  0.0330904 -0.15564 0.000232041  0.0331693 -0.162435 0.000216067  0.0332098 -0.169285 0.00020057  0.0332165 -0.176186 0.000186503  0.0331891 -0.183132 0.000173569  0.0331326 -0.190119 0.000159919  0.0330417 -0.197144 0.000146389  0.0329247 -0.204202 0.000135243  0.0327804 -0.211289 0.000122547  0.0326102 -0.218402 0.000111997  0.0324156 -0.225536 0.000101447  0.0321987 -0.232689 9.11355e-05  0.0319593 -0.239857 8.24332e-05  0.0317006 -0.247039 7.30753e-05  0.0314243 -0.25423 6.48499e-05  0.0311279 -0.261428 5.6386e-05  0.0308206 -0.268631 4.97699e-05  0.0304937 -0.275837 4.19617e-05  0.0301585 -0.283042 3.62396e-05  0.0298059 -0.290246 3.05176e-05  0.0294471 -0.297448 2.45571e-05  0.0290768 -0.304644 2.05636e-05  0.0287006 -0.311835 1.69873e-05  0.0283151 -0.319018 1.29342e-05  0.0279253 -0.326193 9.29832e-06  0.0275307 -0.33336 7.7486e-06  0.027133 -0.340519 4.23193e-06  0.0267308 -0.347668 1.72853e-06  0.0263276 -0.354811 -7.7486e-07  0.0259256 -0.361948 -2.92063e-06  0 0 0  0.00062716 -0.00234669 0.000226676  0.00210068 -0.0042817 0.000432014  0.00391641 -0.00603771 0.000594556  0.00587156 -0.00781864 0.000717044  0.00787416 -0.00972962 0.000803471  0.00988013 -0.0118314 0.000859439  0.0118589 -0.0141541 0.000890136  0.0137918 -0.0167124 0.000902712  0.0156655 -0.0195134 0.000901222  0.0174705 -0.022557 0.000889361  0.0192018 -0.0258383 0.000869751  0.0208564 -0.029353 0.000846624  0.0224326 -0.0330952 0.000819623  0.0239302 -0.0370538 0.00078994  0.025348 -0.041223 0.000761747  0.0266885 -0.0455927 0.000731528  0.027953 -0.0501548 0.000701308  0.0291425 -0.0549018 0.0006724  0.0302577 -0.0598235 0.000643015  0.0313034 -0.0649123 0.000615537  0.0322795 -0.0701607 0.000588119  0.0331872 -0.0755593 0.000560641  0.0340292 -0.0811016 0.000534475  0.0348058 -0.0867793 0.000508606  0.0355216 -0.0925845 0.000484288  0.036176 -0.0985125 0.000459909  0.0367708 -0.104553 0.000436544  0.0373091 -0.110702 0.000413001  0.0377923 -0.116951 0.00039053  0.0382233 -0.123294 0.00036943  0.0385996 -0.129726 0.00034833  0.0389278 -0.136239 0.000328004  0.039207 -0.142829 0.000308037  0.0394392 -0.149489 0.000289083  0.0396283 -0.156216 0.000270367  0.039773 -0.163002 0.000252068  0.039876 -0.169844 0.000235021  0.0399396 -0.176736 0.000217915  0.0399666 -0.183675 0.000202  0.0399573 -0.190654 0.000186145  0.0399122 -0.197671 0.000172079  0.0398364 -0.204721 0.000156641  0.0397272 -0.2118 0.00014329  0.0395896 -0.218905 0.000129819  0.039423 -0.226032 0.000118136  0.0392332 -0.233178 0.000106573  0.039016 -0.240339 9.4533e-05  0.0387771 -0.247513 8.38637e-05  0.038516 -0.254698 7.47442e-05  0.0382366 -0.26189 6.58631e-05  0.0379364 -0.269087 5.6684e-05  0.0376213 -0.276286 4.8399e-05  0.037292 -0.283486 4.14252e-05  0.0369468 -0.290685 3.48091e-05  0.0365896 -0.297881 2.92063e-05  0.0362244 -0.305073 2.29478e-05  0.0358453 -0.31226 1.81198e-05  0.0354619 -0.31944 1.45435e-05  0.0350702 -0.326612 1.01328e-05  0.0346756 -0.333776 8.9407e-06  0.0342748 -0.340933 5.60284e-06  0.0338733 -0.348083 2.563e-06  0.033469 -0.355225 2.98023e-07  0.0330625 -0.362366 -1.60933e-06  0 0 0  0.0011066 -0.00347126 0.000284612  0.00301665 -0.00560349 0.000510156  0.00513911 -0.00736147 0.000688255  0.00734881 -0.00909054 0.00082165  0.00959095 -0.0109438 0.000917614  0.0118332 -0.0129904 0.000981629  0.0140509 -0.0152639 0.00101537  0.0162227 -0.0177801 0.00103039  0.0183341 -0.0205432 0.00102884  0.020378 -0.0235532 0.00101596  0.0223431 -0.026806 0.000994802  0.0242264 -0.0302944 0.000968039  0.0260233 -0.0340115 0.000938416  0.0277345 -0.0379485 0.000905156  0.029359 -0.0420973 0.000872195  0.0308981 -0.0464492 0.000838101  0.0323541 -0.0509943 0.000804663  0.0337255 -0.0557243 0.000769675  0.0350168 -0.060631 0.000737846  0.0362296 -0.0657054 0.000705361  0.037364 -0.0709385 0.00067389  0.0384241 -0.0763245 0.000642538  0.0394098 -0.0818531 0.000612557  0.0403249 -0.0875172 0.000583947  0.0411716 -0.0933114 0.0005548  0.0419481 -0.0992256 0.000527143  0.0426621 -0.105255 0.000499189  0.0433109 -0.111391 0.000474453  0.0438974 -0.117628 0.000448585  0.0444257 -0.123959 0.000422955  0.0448949 -0.130379 0.000399232  0.0453095 -0.136883 0.000375688  0.0456686 -0.143461 0.000353038  0.0459762 -0.150109 0.000331044  0.0462346 -0.156825 0.000308573  0.0464451 -0.163602 0.000289321  0.0466096 -0.170433 0.000268996  0.0467281 -0.177314 0.000249386  0.0468042 -0.184242 0.000230968  0.0468404 -0.191212 0.000211954  0.0468402 -0.198217 0.00019592  0.0468009 -0.205259 0.000179529  0.046726 -0.212328 0.000164092  0.0466163 -0.219422 0.000148296  0.0464795 -0.226542 0.00013572  0.0463119 -0.233678 0.000121474  0.0461135 -0.240832 0.000109136  0.0458939 -0.247997 9.69172e-05  0.0456462 -0.255172 8.44002e-05  0.0453773 -0.262356 7.42674e-05  0.0450885 -0.269545 6.53863e-05  0.0447791 -0.276738 5.52535e-05  0.0444524 -0.283933 4.70281e-05  0.0441101 -0.291124 3.97563e-05  0.0437558 -0.298315 3.25441e-05  0.0433884 -0.305502 2.65241e-05  0.0430095 -0.312683 2.01464e-05  0.0426223 -0.319858 1.65701e-05  0.0422287 -0.327029 1.30534e-05  0.0418303 -0.334191 8.46386e-06  0.0414262 -0.341346 4.94719e-06  0.0410211 -0.348493 3.93391e-06  0.040616 -0.355638 1.19209e-06  0.0402107 -0.362781 -2.98023e-06  0 0 0  -0.0011466 -0.00333167 -1.19209e-07  -0.00305701 -0.00535043 2.98023e-07  -0.00516835 -0.00701607 -2.38419e-07  -0.00736824 -0.00865676 -5.96046e-07  -0.0096083 -0.0104116 4.17233e-07  -0.0118617 -0.0123509 0  -0.0141062 -0.0145054 -2.98023e-07  -0.0163243 -0.016889 4.76837e-07  -0.0185053 -0.0195096 -8.34465e-07  -0.0206373 -0.0223661 -5.96046e-08  -0.0227165 -0.0254554 -5.96046e-08  -0.0247365 -0.0287729 -5.96046e-08  -0.0266956 -0.0323121 2.38419e-07  -0.0285957 -0.0360665 2.38419e-07  -0.0304355 -0.0400287 4.17233e-07  -0.0322188 -0.0441886 3.57628e-07  -0.0339413 -0.0485418 -4.76837e-07  -0.0356098 -0.0530792 -1.78814e-07  -0.0372243 -0.0577914 3.57628e-07  -0.0387855 -0.0626734 -2.98023e-07  -0.0402967 -0.067717 5.36442e-07  -0.0417601 -0.0729131 -1.19209e-07  -0.0431765 -0.0782564 2.98023e-07  -0.0445441 -0.083738 -1.78814e-07  -0.0458695 -0.0893528 -2.38419e-07  -0.0471503 -0.0950937 -4.76837e-07  -0.0483886 -0.100954 1.78814e-07  -0.049584 -0.106929 8.9407e-07  -0.0507436 -0.113008 5.96046e-08  -0.0518613 -0.119188 -4.17233e-07  -0.052943 -0.125462 4.76837e-07  -0.0539874 -0.131826 -7.15256e-07  -0.0549941 -0.138272 -2.98023e-07  -0.0559683 -0.144797 -5.96046e-08  -0.0569053 -0.151394 2.98023e-07  -0.057811 -0.158058 -1.19209e-07  -0.0586843 -0.164785 -5.96046e-07  -0.0595272 -0.171569 -5.96046e-08  -0.060338 -0.178406 -5.96046e-07  -0.0611207 -0.18529 0  -0.0618725 -0.192219 5.96046e-08  -0.0626011 -0.199186 2.38419e-07  -0.0632989 -0.206191 -5.96046e-08  -0.0639715 -0.213226 3.57628e-07  -0.0646226 -0.22029 5.96046e-08  -0.065249 -0.22738 9.53674e-07  -0.065851 -0.234489 -1.19209e-07  -0.0664339 -0.241618 -7.15256e-07  -0.0669932 -0.248762 7.15256e-07  -0.067538 -0.255918 4.76837e-07  -0.0680611 -0.263083 -7.15256e-07  -0.0685704 -0.270256 -1.13249e-06  -0.0690598 -0.277433 3.57628e-07  -0.0695372 -0.284614 -4.76837e-07  -0.070004 -0.291794 5.96046e-07  -0.070456 -0.298975 -1.19209e-07  -0.0708997 -0.306153 1.78814e-07  -0.071332 -0.313326 -2.98023e-07  -0.0717583 -0.320494 1.78814e-07  -0.0721776 -0.327657 8.9407e-07  -0.0725946 -0.334814 1.13249e-06  -0.0730071 -0.341966 8.34465e-07  -0.0734191 -0.349112 -5.96046e-08  -0.0738332 -0.356255 -1.3113e-06  0 0 0  -0.00063736 -0.00219627 -1.78814e-07  -0.00209644 -0.00402701 0  -0.00388765 -0.00569918 -2.98023e-07  -0.0058178 -0.00739954 5.96046e-08  -0.00780874 -0.00922766 5.96046e-07  -0.00981599 -0.0112384 5.96046e-08  -0.0118145 -0.0134605 -5.96046e-07  -0.0137879 -0.0159096 5.96046e-08  -0.015724 -0.0185907 -4.17233e-07  -0.0176139 -0.0215058 4.17233e-07  -0.0194565 -0.0246502 2.98023e-07  -0.0212462 -0.0280211 2.98023e-07  -0.0229841 -0.0316124 1.19209e-07  -0.0246702 -0.0354159 -5.96046e-08  -0.026303 -0.0394253 -1.78814e-07  -0.0278858 -0.0436336 1.78814e-07  -0.0294203 -0.0480313 -2.98023e-07  -0.0309062 -0.052612 5.96046e-07  -0.032348 -0.0573679 -3.57628e-07  -0.0337461 -0.0622912 0  -0.0351 -0.0673741 3.57628e-07  -0.036413 -0.0726102 -4.76837e-07  -0.0376863 -0.0779913 -4.17233e-07  -0.0389211 -0.0835111 -2.98023e-07  -0.0401193 -0.0891621 1.78814e-07  -0.0412804 -0.0949382 -2.98023e-07  -0.0424054 -0.100832 -1.78814e-07  -0.0434966 -0.106838 5.36442e-07  -0.0445554 -0.112949 1.78814e-07  -0.0455785 -0.11916 -5.36442e-07  -0.0465715 -0.125465 1.78814e-07  -0.0475326 -0.131856 2.98023e-07  -0.0484641 -0.138331 -5.96046e-08  -0.0493653 -0.144882 -1.78814e-07  -0.0502379 -0.151503 0  -0.0510817 -0.158192 2.38419e-07  -0.0518973 -0.164942 1.19209e-07  -0.0526888 -0.171746 -1.19209e-07  -0.0534523 -0.178604 1.78814e-07  -0.0541918 -0.185508 4.17233e-07  -0.0549064 -0.192456 4.17233e-07  -0.0555987 -0.199442 -2.38419e-07  -0.0562668 -0.206463 -5.96046e-08  -0.0569127 -0.213514 1.78814e-07  -0.0575387 -0.220592 2.38419e-07  -0.0581443 -0.227695 -3.57628e-07  -0.0587304 -0.234818 4.17233e-07  -0.0592961 -0.241957 5.36442e-07  -0.0598454 -0.249112 6.55651e-07  -0.0603795 -0.256278 0  -0.0608964 -0.263452 5.96046e-08  -0.0614002 -0.270632 2.38419e-07  -0.0618882 -0.277818 -2.98023e-07  -0.0623655 -0.285004 2.98023e-07  -0.0628295 -0.29219 -1.19209e-07  -0.063283 -0.299375 2.98023e-07  -0.0637281 -0.306557 -2.38419e-07  -0.0641656 -0.313733 2.98023e-07  -0.0645964 -0.320904 -5.96046e-08  -0.0650194 -0.328068 -4.76837e-07  -0.0654404 -0.335224 -2.98023e-07  -0.0658548 -0.342374 -2.38419e-07  -0.0662689 -0.349519 0  -0.0666823 -0.356661 7.15256e-07  0 0 0  -0.000479851 -0.00148594 -1.78814e-07  -0.00155167 -0.00300014 -5.36442e-07  -0.00297701 -0.00459957 5.96046e-08  -0.00458267 -0.00631341 -4.17233e-07  -0.00627595 -0.00818926 3.57628e-07  -0.00800198 -0.0102581 5.96046e-07  -0.00972897 -0.0125401 -1.19209e-07  -0.0114389 -0.0150473 3.57628e-07  -0.013117 -0.0177853 -2.38419e-07  -0.014757 -0.0207532 -5.96046e-07  -0.0163547 -0.0239494 -1.19209e-07  -0.0179091 -0.027369 1.78814e-07  -0.0194196 -0.0310068 1.78814e-07  -0.0208848 -0.0348564 1.78814e-07  -0.0223074 -0.0389087 -1.78814e-07  -0.0236883 -0.0431583 -4.17233e-07  -0.0250286 -0.0475975 1.19209e-07  -0.0263313 -0.052217 -6.55651e-07  -0.0275973 -0.057011 1.19209e-07  -0.0288262 -0.0619729 -5.96046e-08  -0.0300213 -0.067092 1.19209e-07  -0.0311816 -0.0723635 0  -0.03231 -0.0777791 -1.78814e-07  -0.0334092 -0.0833328 -1.19209e-07  -0.034476 -0.0890164 1.19209e-07  -0.0355151 -0.0948236 -1.78814e-07  -0.0365236 -0.100749 1.19209e-07  -0.0375047 -0.106785 4.17233e-07  -0.0384595 -0.112925 8.34465e-07  -0.0393871 -0.119164 0  -0.0402881 -0.125495 -1.19209e-07  -0.0411643 -0.131914 3.57628e-07  -0.0420153 -0.138412 1.19209e-07  -0.0428421 -0.144987 -1.19209e-07  -0.0436459 -0.151632 1.19209e-07  -0.0444257 -0.158342 -1.19209e-07  -0.0451832 -0.165112 -2.38419e-07  -0.0459201 -0.171938 1.78814e-07  -0.046633 -0.178814 0  -0.047327 -0.185736 -5.96046e-07  -0.0480008 -0.192701 1.78814e-07  -0.0486538 -0.199703 4.17233e-07  -0.0492902 -0.206738 2.38419e-07  -0.049906 -0.213805 0  -0.0505056 -0.220897 -6.55651e-07  -0.0510869 -0.228011 5.96046e-07  -0.0516517 -0.235145 -1.78814e-07  -0.0522015 -0.242297 -7.7486e-07  -0.052737 -0.24946 8.9407e-07  -0.0532582 -0.256635 4.76837e-07  -0.0537648 -0.263817 2.38419e-07  -0.0542622 -0.271006 4.17233e-07  -0.054744 -0.278197 -4.17233e-07  -0.0552173 -0.28539 -1.19209e-07  -0.0556777 -0.292582 -6.55651e-07  -0.0561316 -0.29977 8.34465e-07  -0.056577 -0.306955 5.96046e-08  -0.0570138 -0.314134 2.38419e-07  -0.0574439 -0.321307 -5.36442e-07  -0.0578692 -0.328473 -3.57628e-07  -0.0582926 -0.335631 9.53674e-07  -0.0587087 -0.342781 1.13249e-06  -0.0591257 -0.349924 -1.01328e-06  -0.0595384 -0.357063 -7.7486e-07  0 0 0  -0.000352778 -0.00100118 -5.96046e-08  -0.00116284 -0.00225538 4.17233e-07  -0.00226887 -0.00373895 3.57628e-07  -0.00355749 -0.00542808 5.96046e-08  -0.0049434 -0.00732228 0  -0.00637692 -0.0094291 -2.38419e-07  -0.0078204 -0.0117577 -4.76837e-07  -0.00925407 -0.0143151 -1.19209e-07  -0.0106652 -0.0171011 1.78814e-07  -0.0120469 -0.0201168 -3.57628e-07  -0.0133942 -0.0233589 -5.96046e-08  -0.0147073 -0.0268214 -1.78814e-07  -0.0159845 -0.0305012 -1.78814e-07  -0.0172265 -0.0343897 4.17233e-07  -0.0184357 -0.038482 0  -0.0196112 -0.0427693 3.57628e-07  -0.0207559 -0.0472433 -2.38419e-07  -0.0218698 -0.0518997 -2.38419e-07  -0.0229566 -0.0567279 4.76837e-07  -0.0240144 -0.0617221 2.98023e-07  -0.0250469 -0.0668744 2.98023e-07  -0.0260534 -0.072177 -1.19209e-07  -0.0270365 -0.0776237 -6.55651e-07  -0.0279932 -0.0832078 2.38419e-07  -0.0289285 -0.0889211 8.9407e-07  -0.0298417 -0.0947573 5.96046e-08  -0.0307308 -0.10071 -2.98023e-07  -0.0316008 -0.106772 5.96046e-08  -0.032449 -0.112939 4.76837e-07  -0.0332767 -0.119203 0  -0.0340841 -0.125559 -2.98023e-07  -0.0348727 -0.132 5.96046e-08  -0.0356402 -0.138522 3.57628e-07  -0.0363915 -0.145118 5.96046e-08  -0.037123 -0.151783 5.96046e-08  -0.037837 -0.158513 0  -0.0385308 -0.165303 -2.38419e-07  -0.0392118 -0.172146 -2.38419e-07  -0.0398726 -0.17904 -6.55651e-07  -0.0405188 -0.185978 7.15256e-07  -0.0411491 -0.192957 -4.17233e-07  -0.0417633 -0.199975 1.19209e-07  -0.0423608 -0.207024 0  -0.0429461 -0.214102 3.57628e-07  -0.0435152 -0.221206 1.19209e-07  -0.044071 -0.228332 -3.57628e-07  -0.0446143 -0.235476 2.38419e-07  -0.0451441 -0.242637 3.57628e-07  -0.0456617 -0.24981 4.17233e-07  -0.0461679 -0.256992 4.17233e-07  -0.0466635 -0.264183 5.36442e-07  -0.0471478 -0.271377 -5.96046e-07  -0.0476251 -0.278575 4.17233e-07  -0.0480914 -0.285773 3.57628e-07  -0.0485492 -0.292969 4.76837e-07  -0.0489976 -0.300162 1.19209e-07  -0.0494409 -0.30735 5.96046e-07  -0.0498781 -0.314533 5.96046e-07  -0.0503075 -0.321708 0  -0.0507329 -0.328876 -3.57628e-07  -0.0511527 -0.336034 -5.36442e-07  -0.051573 -0.343185 7.15256e-07  -0.0519879 -0.350327 4.17233e-07  -0.0524025 -0.357461 -1.19209e-07  0 0 0  -0.00025909 -0.000666678 -1.78814e-07  -0.000856757 -0.00171836 -1.19209e-07  -0.00169261 -0.00309268 4.17233e-07  -0.00268506 -0.0047399 3.57628e-07  -0.00377098 -0.00663242 5.96046e-08  -0.00490582 -0.00876139 6.55651e-07  -0.00605774 -0.011125 1.19209e-07  -0.00720996 -0.0137201 3.57628e-07  -0.0083465 -0.0165471 5.96046e-08  -0.0094623 -0.0196023 2.38419e-07  -0.0105549 -0.022883 -1.19209e-07  -0.0116227 -0.0263842 -6.55651e-07  -0.0126646 -0.0300992 -1.19209e-07  -0.0136793 -0.0340234 1.78814e-07  -0.0146704 -0.0381485 -5.96046e-08  -0.0156378 -0.0424676 0  -0.0165832 -0.0469756 4.76837e-07  -0.0175076 -0.0516618 -4.17233e-07  -0.0184122 -0.0565201 -8.34465e-07  -0.0192968 -0.0615433 1.19209e-07  -0.0201641 -0.066724 1.78814e-07  -0.0210124 -0.0720553 2.38419e-07  -0.0218459 -0.0775301 4.17233e-07  -0.0226613 -0.0831401 -3.57628e-07  -0.0234617 -0.0888794 4.17233e-07  -0.0242462 -0.094741 4.17233e-07  -0.0250161 -0.100718 -2.98023e-07  -0.0257705 -0.106805 -2.98023e-07  -0.0265112 -0.112994 7.7486e-07  -0.0272372 -0.119281 -1.19209e-07  -0.027949 -0.125658 -2.98023e-07  -0.0286469 -0.13212 -4.17233e-07  -0.0293322 -0.138661 2.38419e-07  -0.0300035 -0.145277 2.38419e-07  -0.0306604 -0.15196 -1.19209e-07  -0.0313058 -0.158708 -2.98023e-07  -0.0319381 -0.165514 2.98023e-07  -0.0325589 -0.172373 4.17233e-07  -0.0331662 -0.179282 -2.38419e-07  -0.0337596 -0.186236 -1.19209e-07  -0.0343435 -0.193229 -7.15256e-07  -0.0349166 -0.200258 5.96046e-08  -0.0354757 -0.20732 5.96046e-08  -0.0360246 -0.214409 5.96046e-08  -0.0365634 -0.221525 7.15256e-07  -0.0370924 -0.22866 -5.96046e-07  -0.0376105 -0.235814 -2.38419e-07  -0.0381186 -0.242982 2.98023e-07  -0.0386178 -0.250163 -1.78814e-07  -0.0391064 -0.257353 -1.19209e-07  -0.0395892 -0.264549 0  -0.0400608 -0.27175 5.96046e-08  -0.0405266 -0.278953 -2.98023e-07  -0.0409849 -0.286156 -4.17233e-07  -0.0414362 -0.293356 0  -0.0418799 -0.300553 0  -0.0423203 -0.307746 2.98023e-07  -0.0427513 -0.31493 6.55651e-07  -0.0431805 -0.322108 -7.15256e-07  -0.0436051 -0.329276 -3.57628e-07  -0.0440254 -0.336436 -5.36442e-07  -0.0444417 -0.343587 5.96046e-08  -0.044857 -0.350727 -6.55651e-07  -0.0452704 -0.35786 1.78814e-07  0 0 0  -0.000180386 -0.000440866 -5.96046e-08  -0.000600435 -0.00134411 2.98023e-07  -0.00119634 -0.00263 2.38419e-07  -0.00191508 -0.00423461 1.19209e-07  -0.0027101 -0.00611764 3.57628e-07  -0.00355074 -0.00825846 -1.19209e-07  -0.00441214 -0.0106454 0  -0.00527668 -0.01327 0  -0.00613624 -0.0161284 3.57628e-07  -0.00698435 -0.0192164 -4.17233e-07  -0.00781691 -0.0225295 1.78814e-07  -0.00863439 -0.0260616 -2.38419e-07  -0.00943577 -0.0298075 -2.38419e-07  -0.0102212 -0.03376 7.15256e-07  -0.0109923 -0.0379137 2.38419e-07  -0.0117497 -0.0422617 -5.96046e-08  -0.0124944 -0.0467952 2.98023e-07  -0.0132266 -0.0515081 -4.17233e-07  -0.0139474 -0.0563922 -1.78814e-07  -0.0146585 -0.0614405 -4.17233e-07  -0.0153581 -0.0666468 2.98023e-07  -0.0160474 -0.0720026 5.96046e-08  -0.0167297 -0.0775 -5.96046e-08  -0.0174013 -0.0831331 5.96046e-08  -0.0180645 -0.0888951 -5.96046e-08  -0.0187201 -0.0947788 7.7486e-07  -0.0193663 -0.100777 5.36442e-07  -0.0200053 -0.106885 1.19209e-07  -0.0206342 -0.113094 2.38419e-07  -0.0212559 -0.1194 4.76837e-07  -0.0218703 -0.125797 5.36442e-07  -0.0224769 -0.132277 -5.96046e-08  -0.0230751 -0.138836 5.96046e-07  -0.0236666 -0.145468 5.96046e-08  -0.0242476 -0.152168 -5.36442e-07  -0.0248215 -0.15893 2.38419e-07  -0.025388 -0.165751 -6.55651e-07  -0.025948 -0.172625 -5.36442e-07  -0.0264986 -0.179546 -1.78814e-07  -0.027041 -0.186512 -7.15256e-07  -0.0275755 -0.193518 -1.19209e-07  -0.0281053 -0.200557 8.34465e-07  -0.0286255 -0.207629 1.07288e-06  -0.0291398 -0.214729 -1.19209e-07  -0.0296443 -0.221853 -1.19209e-07  -0.0301425 -0.228998 -4.17233e-07  -0.0306339 -0.23616 5.96046e-08  -0.0311184 -0.243335 -1.78814e-07  -0.0315959 -0.250523 3.57628e-07  -0.0320683 -0.257719 -1.19209e-07  -0.0325327 -0.264921 -5.96046e-07  -0.0329933 -0.272126 4.17233e-07  -0.033447 -0.279334 -2.98023e-07  -0.0338955 -0.28654 2.98023e-07  -0.0343375 -0.293745 5.96046e-07  -0.0347753 -0.300946 -9.53674e-07  -0.0352101 -0.308139 7.7486e-07  -0.0356386 -0.315327 5.96046e-08  -0.0360634 -0.322507 -5.36442e-07  -0.0364845 -0.329677 4.76837e-07  -0.0369043 -0.336839 0  -0.0373194 -0.343989 4.76837e-07  -0.0377338 -0.351128 -4.76837e-07  -0.0381479 -0.358257 -7.15256e-07  0 0 0  -0.000113346 -0.000299305 -1.19209e-07  -0.000376381 -0.00110298 2.38419e-07  -0.00075376 -0.00232628 2.98023e-07  -0.00121427 -0.00389725 -2.98023e-07  -0.00173053 -0.00577196 5.96046e-08  -0.00228143 -0.0079183 1.19209e-07  -0.00285235 -0.0103205 -1.78814e-07  -0.00343046 -0.0129665 2.98023e-07  -0.00400925 -0.0158494 0  -0.00458544 -0.0189622 1.19209e-07  -0.00515515 -0.0223008 -1.78814e-07  -0.00572109 -0.0258573 1.78814e-07  -0.0062815 -0.0296273 -4.76837e-07  -0.00683558 -0.0336046 5.96046e-08  -0.007384 -0.0377814 2.38419e-07  -0.00792927 -0.042151 -2.98023e-07  -0.00847077 -0.0467069 2.38419e-07  -0.00901008 -0.0514417 -4.17233e-07  -0.00954485 -0.0563485 -5.96046e-07  -0.0100793 -0.0614182 1.78814e-07  -0.0106111 -0.0666437 -1.19209e-07  -0.0111405 -0.0720197 -5.96046e-08  -0.0116687 -0.0775377 1.78814e-07  -0.0121952 -0.0831904 -2.98023e-07  -0.0127221 -0.0889719 -2.38419e-07  -0.0132444 -0.0948739 -1.13249e-06  -0.0137669 -0.100891 2.98023e-07  -0.0142866 -0.107017 3.57628e-07  -0.0148065 -0.113243 -2.98023e-07  -0.0153226 -0.119565 1.78814e-07  -0.0158376 -0.125977 2.38419e-07  -0.0163511 -0.132473 -1.78814e-07  -0.01686 -0.139046 -5.96046e-07  -0.0173681 -0.145693 1.19209e-07  -0.0178735 -0.152407 -5.96046e-08  -0.0183759 -0.159182 3.57628e-07  -0.018877 -0.166016 -5.36442e-07  -0.0193713 -0.172901 -1.78814e-07  -0.019865 -0.179834 -4.17233e-07  -0.0203545 -0.18681 -4.76837e-07  -0.0208399 -0.193825 -2.98023e-07  -0.0213239 -0.200875 6.55651e-07  -0.0218027 -0.207956 -5.36442e-07  -0.0222774 -0.215064 -9.53674e-07  -0.0227492 -0.222195 7.7486e-07  -0.0232179 -0.229347 8.9407e-07  -0.0236793 -0.236515 7.7486e-07  -0.0241396 -0.243698 5.96046e-07  -0.0245945 -0.25089 -1.78814e-07  -0.0250483 -0.258091 -3.57628e-07  -0.0254953 -0.265298 6.55651e-07  -0.0259409 -0.272508 8.9407e-07  -0.0263805 -0.279719 1.2517e-06  -0.0268176 -0.286929 2.38419e-07  -0.0272522 -0.294136 1.19209e-07  -0.0276818 -0.301339 -7.15256e-07  -0.0281091 -0.308536 -2.38419e-07  -0.028533 -0.315726 8.34465e-07  -0.028955 -0.322907 -3.57628e-07  -0.0293722 -0.330079 2.38419e-07  -0.0297892 -0.337241 7.15256e-07  -0.0302022 -0.344391 -1.19209e-07  -0.0306153 -0.351531 -2.98023e-07  -0.0310254 -0.358657 0  0 0 0  -4.98183e-05 -0.000223935 -3.57628e-07  -0.000169456 -0.000976741 -2.38419e-07  -0.000342295 -0.00216421 -4.76837e-07  -0.000556827 -0.00371733 1.19209e-07  -0.000801027 -0.00558701 4.76837e-07  -0.00106856 -0.00773814 5.96046e-08  -0.00134948 -0.0101514 -5.96046e-08  -0.00163999 -0.0128125 -2.98023e-07  -0.00193775 -0.0157123 5.96046e-08  -0.00224125 -0.0188435 -1.19209e-07  -0.00254846 -0.0221993 -4.17233e-07  -0.00285959 -0.0257744 -1.19209e-07  -0.00317723 -0.0295627 -6.55651e-07  -0.00349826 -0.0335578 5.96046e-08  -0.00382417 -0.0377529 5.96046e-08  -0.00415671 -0.0421405 7.7486e-07  -0.00449383 -0.0467145 0  -0.00483716 -0.0514657 0  -0.00518775 -0.0563895 -3.57628e-07  -0.00554395 -0.0614763 4.76837e-07  -0.00590599 -0.0667194 2.38419e-07  -0.0062741 -0.072112 -1.19209e-07  -0.00664949 -0.0776461 -7.7486e-07  -0.00703001 -0.083315 1.78814e-07  -0.00741601 -0.0891119 1.19209e-07  -0.00780654 -0.0950294 0  -0.00820327 -0.101062 2.38419e-07  -0.00860441 -0.107201 -2.38419e-07  -0.00901175 -0.113442 3.57628e-07  -0.00942206 -0.119778 2.38419e-07  -0.00983644 -0.126203 1.19209e-07  -0.0102538 -0.132712 1.19209e-07  -0.0106747 -0.139298 1.78814e-07  -0.0111001 -0.145955 1.19209e-07  -0.0115266 -0.15268 0  -0.0119572 -0.159466 -2.38419e-07  -0.0123866 -0.16631 -5.96046e-08  -0.0128207 -0.173205 -5.36442e-07  -0.0132554 -0.180147 -5.36442e-07  -0.0136909 -0.187132 -1.19209e-07  -0.0141258 -0.194154 -2.38419e-07  -0.0145628 -0.201213 5.96046e-08  -0.0149987 -0.2083 5.36442e-07  -0.0154362 -0.215415 1.78814e-07  -0.0158713 -0.222553 5.96046e-08  -0.0163078 -0.229709 -5.96046e-08  -0.0167408 -0.236884 0  -0.0171759 -0.244071 1.78814e-07  -0.0176082 -0.251267 1.19209e-07  -0.0180411 -0.258473 1.19209e-07  -0.0184698 -0.265683 4.17233e-07  -0.0188985 -0.272896 -2.38419e-07  -0.0193255 -0.28011 -3.57628e-07  -0.0197504 -0.287322 -1.19209e-07  -0.0201752 -0.294531 1.78814e-07  -0.020596 -0.301737 -4.17233e-07  -0.0210156 -0.308935 -4.76837e-07  -0.0214345 -0.316126 1.78814e-07  -0.0218523 -0.323309 5.96046e-08  -0.0222671 -0.330482 3.57628e-07  -0.0226791 -0.337644 1.78814e-07  -0.0230908 -0.344794 -4.17233e-07  -0.0235004 -0.351932 -4.76837e-07  -0.0239105 -0.359058 -6.55651e-07  0 0 0  8.63522e-06 -0.000210941 -1.78814e-07  2.80291e-05 -0.000951588 0  5.42253e-05 -0.00213417 8.34465e-07  8.00192e-05 -0.00368682 -5.96046e-08  0.000102758 -0.00555801 -1.19209e-07  0.000118017 -0.00771552 -1.78814e-07  0.000124425 -0.0101363 8.9407e-07  0.000119567 -0.012807 2.38419e-07  0.000103474 -0.0157174 5.96046e-08  7.36713e-05 -0.0188594 3.57628e-07  2.91467e-05 -0.022227 1.19209e-07  -2.90871e-05 -0.0258147 -1.19209e-07  -0.000102341 -0.0296158 -5.36442e-07  -0.000189483 -0.0336227 5.96046e-08  -0.000293732 -0.0378299 2.38419e-07  -0.000410318 -0.0422311 1.78814e-07  -0.000545382 -0.0468176 2.38419e-07  -0.000693321 -0.0515828 -2.98023e-07  -0.000856519 -0.0565186 2.38419e-07  -0.00103378 -0.0616185 4.76837e-07  -0.00122607 -0.0668749 3.57628e-07  -0.0014329 -0.0722791 1.19209e-07  -0.00165272 -0.0778265 -4.76837e-07  -0.00188649 -0.083508 5.96046e-07  -0.0021323 -0.0893175 -4.17233e-07  -0.00239062 -0.0952473 3.57628e-07  -0.00266099 -0.101291 -5.96046e-08  -0.00294304 -0.107442 2.98023e-07  -0.00323641 -0.113694 2.38419e-07  -0.00354099 -0.12004 1.78814e-07  -0.00385499 -0.126476 2.98023e-07  -0.00417745 -0.132995 0  -0.00450873 -0.13959 -1.78814e-07  -0.00484967 -0.146257 -2.98023e-07  -0.005198 -0.15299 -2.38419e-07  -0.00555348 -0.159786 -4.17233e-07  -0.00591516 -0.166636 -1.19209e-07  -0.00628376 -0.173538 1.19209e-07  -0.00665998 -0.180487 -5.96046e-08  -0.00703859 -0.187478 -1.01328e-06  -0.00742435 -0.194508 -7.15256e-07  -0.00781298 -0.201572 0  -0.00820708 -0.208665 2.98023e-07  -0.00860453 -0.215784 -6.55651e-07  -0.00900459 -0.222926 1.19209e-07  -0.00940871 -0.230088 1.19209e-07  -0.00981236 -0.237265 -5.96046e-07  -0.0102193 -0.244455 -2.38419e-07  -0.0106289 -0.251656 6.55651e-07  -0.0110395 -0.258864 5.96046e-08  -0.0114505 -0.266076 1.07288e-06  -0.0118639 -0.273292 3.57628e-07  -0.0122762 -0.280507 5.36442e-07  -0.0126879 -0.287721 2.38419e-07  -0.0131028 -0.294932 2.98023e-07  -0.0135138 -0.302138 0  -0.0139284 -0.309338 -2.98023e-07  -0.0143404 -0.31653 4.76837e-07  -0.0147524 -0.323713 5.96046e-07  -0.0151627 -0.330886 -2.38419e-07  -0.015573 -0.338049 -4.76837e-07  -0.0159814 -0.345199 -1.19209e-07  -0.0163891 -0.352338 4.17233e-07  -0.0167956 -0.359462 -1.01328e-06  0 0 0  6.87614e-05 -0.000253141 -1.19209e-07  0.000225708 -0.00102663 -1.19209e-07  0.000448033 -0.00223249 5.36442e-07  0.000715822 -0.00380093 1.19209e-07  0.00100434 -0.00568372 -8.9407e-07  0.00130221 -0.00784826 2.38419e-07  0.0015958 -0.0102746 4.76837e-07  0.001876 -0.0129498 0  0.00214016 -0.0158638 5.96046e-08  0.00238192 -0.0190112 5.36442e-07  0.0026021 -0.0223846 3.57628e-07  0.00279701 -0.0259781 -5.96046e-07  0.00296742 -0.0297852 -1.78814e-07  0.00311208 -0.0337991 1.78814e-07  0.00323194 -0.0380148 5.96046e-07  0.00332749 -0.0424227 -1.19209e-07  0.00339842 -0.0470174 -5.96046e-07  0.00344467 -0.051791 -2.98023e-07  0.00346744 -0.0567372 -2.98023e-07  0.00346768 -0.0618452 8.34465e-07  0.00344563 -0.0671107 5.96046e-08  0.00340104 -0.0725257 -3.57628e-07  0.0033356 -0.0780808 -2.38419e-07  0.00324988 -0.0837716 -2.38419e-07  0.00314426 -0.0895898 3.57628e-07  0.00301778 -0.095528 -1.78814e-07  0.00287366 -0.10158 0  0.00271177 -0.107739 0  0.00253153 -0.113999 5.96046e-08  0.00233448 -0.120354 3.57628e-07  0.00212252 -0.126797 -5.96046e-07  0.00189543 -0.133323 -2.98023e-07  0.00165319 -0.139925 1.19209e-07  0.00139666 -0.146599 2.98023e-07  0.00112748 -0.153338 -5.96046e-08  0.000846863 -0.160139 0  0.000552416 -0.166996 -3.57628e-07  0.000247002 -0.173903 -6.55651e-07  -6.8903e-05 -0.180857 1.19209e-07  -0.000391722 -0.187853 -1.19209e-07  -0.000725985 -0.194886 -3.57628e-07  -0.0010674 -0.201953 4.17233e-07  -0.00141692 -0.20905 -1.78814e-07  -0.00177526 -0.216172 4.17233e-07  -0.00213885 -0.223318 7.15256e-07  -0.00251102 -0.230481 -3.57628e-07  -0.00288367 -0.237661 1.19209e-07  -0.0032661 -0.244853 2.98023e-07  -0.00364995 -0.252056 1.78814e-07  -0.00403953 -0.259265 -4.17233e-07  -0.00443196 -0.26648 2.38419e-07  -0.00482678 -0.273695 0  -0.00522733 -0.280912 2.38419e-07  -0.00562692 -0.288127 -5.96046e-08  -0.00603056 -0.295338 -3.57628e-07  -0.00643325 -0.302544 0  -0.00683856 -0.309745 -8.34465e-07  -0.00724506 -0.316936 1.78814e-07  -0.00765085 -0.32412 1.07288e-06  -0.00805831 -0.331293 -4.76837e-07  -0.00846624 -0.338456 -2.98023e-07  -0.00887418 -0.345607 5.96046e-08  -0.0092802 -0.352746 1.19209e-07  -0.00968432 -0.35987 -4.17233e-07  0 0 0  0.000129394 -0.000355363 -4.17233e-07  0.000430614 -0.00120413 1.19209e-07  0.000858665 -0.00246108 3.57628e-07  0.00136891 -0.00406271 4.76837e-07  0.00192881 -0.00596255 1.19209e-07  0.00250891 -0.00813615 0  0.00308904 -0.0105651 2.38419e-07  0.00365525 -0.0132394 4.76837e-07  0.00419754 -0.0161523 -5.36442e-07  0.00471139 -0.0192977 5.96046e-08  0.00519282 -0.0226703 1.19209e-07  0.00563985 -0.0262626 -4.17233e-07  0.00605142 -0.0300705 5.96046e-08  0.00642902 -0.0340871 2.38419e-07  0.00677156 -0.0383046 1.19209e-07  0.00707912 -0.0427169 0  0.00735223 -0.047315 -1.78814e-07  0.00759423 -0.0520933 -3.57628e-07  0.00780308 -0.0570428 -1.19209e-07  0.0079807 -0.0621575 -5.96046e-08  0.00812817 -0.0674281 -1.19209e-07  0.00824642 -0.0728476 -2.98023e-07  0.0083344 -0.07841 -1.19209e-07  0.00839496 -0.0841055 4.17233e-07  0.00842881 -0.0899284 -7.15256e-07  0.00843549 -0.0958733 3.57628e-07  0.00841784 -0.10193 2.38419e-07  0.00837481 -0.108095 -1.19209e-07  0.00830686 -0.11436 9.53674e-07  0.00821817 -0.12072 2.38419e-07  0.00810647 -0.127168 -2.38419e-07  0.00797534 -0.133697 2.98023e-07  0.00782204 -0.140304 2.38419e-07  0.00765085 -0.146982 1.78814e-07  0.00745988 -0.153725 -5.36442e-07  0.00725198 -0.160529 2.38419e-07  0.0070281 -0.167389 -5.96046e-08  0.00678754 -0.174299 1.19209e-07  0.00653243 -0.181256 -4.76837e-07  0.0062623 -0.188253 -2.38419e-07  0.00597978 -0.19529 -5.96046e-08  0.00568342 -0.202359 5.96046e-08  0.00537729 -0.209457 0  0.00505733 -0.216581 -6.55651e-07  0.00473118 -0.223727 0  0.00439429 -0.230891 3.57628e-07  0.00404859 -0.238072 0  0.0036931 -0.245264 1.19209e-07  0.00333166 -0.252467 1.78814e-07  0.00296211 -0.259678 -7.7486e-07  0.00259018 -0.266892 1.78814e-07  0.00221038 -0.274108 -4.17233e-07  0.00182605 -0.281324 -5.96046e-07  0.00143743 -0.288539 0  0.00104642 -0.29575 6.55651e-07  0.000650644 -0.302956 -5.36442e-07  0.000251532 -0.310156 -4.17233e-07  -0.000148058 -0.317348 7.7486e-07  -0.000549555 -0.32453 0  -0.000952959 -0.331702 -6.55651e-07  -0.00135684 -0.338865 4.17233e-07  -0.00176334 -0.346016 2.38419e-07  -0.00216675 -0.353155 0  -0.00256872 -0.360281 -2.38419e-07  0 0 0  0.000197202 -0.000526309 -2.38419e-07  0.000654936 -0.00149286 -1.78814e-07  0.00129868 -0.00282913 0  0.00206396 -0.00447577 4.76837e-07  0.00289893 -0.00639874 -1.78814e-07  0.00376475 -0.00857913 1.19209e-07  0.00463277 -0.0110065 4.76837e-07  0.00548267 -0.0136747 -3.57628e-07  0.0063023 -0.016579 2.38419e-07  0.00708467 -0.0197167 -1.78814e-07  0.00782514 -0.0230809 0  0.00852251 -0.0266679 1.78814e-07  0.00917363 -0.0304707 -2.38419e-07  0.00978148 -0.0344843 -2.38419e-07  0.0103427 -0.0386992 2.98023e-07  0.010862 -0.0431105 2.38419e-07  0.0113397 -0.0477097 1.19209e-07  0.0117736 -0.0524873 -2.98023e-07  0.0121684 -0.0574381 0  0.0125227 -0.0625536 2.38419e-07  0.0128382 -0.0678266 -1.19209e-07  0.0131171 -0.0732483 -1.19209e-07  0.0133582 -0.0788117 -2.38419e-07  0.0135655 -0.0845103 5.96046e-08  0.0137384 -0.0903363 4.17233e-07  0.0138774 -0.0962824 4.76837e-07  0.0139852 -0.102342 -5.36442e-07  0.0140622 -0.108509 -2.38419e-07  0.0141069 -0.114776 -4.17233e-07  0.0141237 -0.121137 4.76837e-07  0.0141139 -0.127587 -2.98023e-07  0.0140753 -0.134119 4.17233e-07  0.0140133 -0.140727 -7.7486e-07  0.0139241 -0.147406 5.96046e-08  0.0138118 -0.154151 -2.98023e-07  0.0136766 -0.160955 -5.96046e-07  0.0135217 -0.167816 4.17233e-07  0.0133438 -0.174727 2.98023e-07  0.0131476 -0.181684 2.38419e-07  0.0129328 -0.188683 -5.96046e-08  0.012701 -0.195719 -7.15256e-07  0.0124509 -0.202787 3.57628e-07  0.012187 -0.209886 5.36442e-07  0.0119071 -0.217009 0  0.0116146 -0.224155 -5.96046e-08  0.0113089 -0.231319 2.98023e-07  0.0109906 -0.238498 -1.19209e-07  0.010663 -0.245691 -3.57628e-07  0.010324 -0.252892 -2.98023e-07  0.00997663 -0.260102 2.98023e-07  0.00961995 -0.267313 6.55651e-07  0.00925708 -0.274529 2.38419e-07  0.00888562 -0.281745 -5.96046e-08  0.0085094 -0.288958 4.17233e-07  0.00812721 -0.296168 2.38419e-07  0.00774026 -0.303373 -7.7486e-07  0.00734854 -0.310571 -3.57628e-07  0.00695324 -0.317761 4.17233e-07  0.00655651 -0.324942 -2.98023e-07  0.00615644 -0.332115 5.96046e-08  0.00575399 -0.339276 -1.19209e-07  0.00535059 -0.346427 0  0.00494885 -0.353567 2.38419e-07  0.00454664 -0.360696 -2.38419e-07  0 0 0  0.00027243 -0.000778854 0  0.00090608 -0.00191259 1.19209e-07  0.00178678 -0.00335014 -5.96046e-08  0.00282356 -0.00505155 -1.19209e-07  0.00394377 -0.00699669 -4.17233e-07  0.00509897 -0.0091787 1.78814e-07  0.00625271 -0.0115968 0  0.0073846 -0.0142511 4.17233e-07  0.00847751 -0.0171407 -5.96046e-07  0.00952542 -0.0202627 -1.19209e-07  0.0105217 -0.0236142 2.38419e-07  0.011465 -0.02719 4.76837e-07  0.0123536 -0.0309833 5.96046e-07  0.0131876 -0.0349881 -5.36442e-07  0.01397 -0.0391978 2.98023e-07  0.0146972 -0.0436031 2.98023e-07  0.0153741 -0.0481971 1.78814e-07  0.0160012 -0.0529723 -2.98023e-07  0.0165786 -0.0579206 -2.38419e-07  0.0171087 -0.063034 5.96046e-08  0.0175921 -0.0683048 -2.98023e-07  0.0180308 -0.0737261 -7.7486e-07  0.0184243 -0.0792875 2.98023e-07  0.0187775 -0.0849853 1.19209e-07  0.0190885 -0.0908108 4.76837e-07  0.019359 -0.0967552 5.96046e-08  0.0195898 -0.102814 1.19209e-07  0.0197848 -0.108981 0  0.019942 -0.115247 -3.57628e-07  0.0200652 -0.121607 2.98023e-07  0.0201547 -0.128056 5.96046e-08  0.0202098 -0.134587 4.17233e-07  0.0202341 -0.141194 2.38419e-07  0.0202286 -0.147872 -7.15256e-07  0.0201938 -0.154616 -1.19209e-07  0.0201321 -0.161419 -5.96046e-07  0.0200419 -0.168278 1.19209e-07  0.019928 -0.175188 -1.78814e-07  0.0197906 -0.182143 5.96046e-08  0.0196283 -0.18914 -3.57628e-07  0.0194461 -0.196173 -4.17233e-07  0.0192413 -0.203241 -1.78814e-07  0.0190184 -0.210336 -1.19209e-07  0.0187764 -0.217457 5.36442e-07  0.0185182 -0.2246 0  0.0182443 -0.231763 -1.19209e-07  0.0179543 -0.23894 2.38419e-07  0.0176497 -0.246129 -3.57628e-07  0.017334 -0.25333 3.57628e-07  0.0170054 -0.260535 4.17233e-07  0.0166659 -0.267746 2.38419e-07  0.0163164 -0.274959 -5.96046e-07  0.0159581 -0.282172 6.55651e-07  0.0155916 -0.289384 2.98023e-07  0.0152192 -0.296591 -7.15256e-07  0.0148385 -0.303793 5.36442e-07  0.0144536 -0.310989 -5.96046e-08  0.0140638 -0.318177 2.38419e-07  0.0136697 -0.325358 -4.17233e-07  0.0132725 -0.332528 -7.7486e-07  0.0128722 -0.339689 -5.36442e-07  0.012471 -0.34684 2.38419e-07  0.0120692 -0.353981 1.07288e-06  0.0116692 -0.361113 1.19209e-06  0 0 0  0.000363208 -0.00113803 4.17233e-07  0.00120562 -0.00248945 1.19209e-07  0.00235228 -0.00404757 0  0.00367841 -0.00580263 0  0.00509539 -0.00776029 1.78814e-07  0.00653985 -0.00993347 1.19209e-07  0.00797841 -0.0123323 -2.38419e-07  0.00938725 -0.014964 2.38419e-07  0.010748 -0.0178311 2.98023e-07  0.0120557 -0.020932 -1.78814e-07  0.0133027 -0.0242649 1.19209e-07  0.0144894 -0.0278239 1.19209e-07  0.0156117 -0.0316032 -5.36442e-07  0.0166698 -0.0355963 -1.19209e-07  0.0176666 -0.0397944 -2.38419e-07  0.018602 -0.0441912 5.96046e-08  0.0194775 -0.0487772 -6.55651e-07  0.0202947 -0.0535456 -5.96046e-08  0.0210543 -0.058489 2.38419e-07  0.0217577 -0.0635957 4.17233e-07  0.0224075 -0.0688612 2.98023e-07  0.0230047 -0.074277 -1.78814e-07  0.0235497 -0.0798357 -1.19209e-07  0.0240455 -0.0855289 -8.34465e-07  0.0244931 -0.0913497 1.78814e-07  0.0248938 -0.0972915 5.96046e-08  0.0252485 -0.103346 -5.96046e-08  0.0255588 -0.109509 -3.57628e-07  0.0258273 -0.115773 -2.98023e-07  0.0260539 -0.122129 -3.57628e-07  0.0262399 -0.128574 1.78814e-07  0.0263891 -0.135102 6.55651e-07  0.0264997 -0.141705 -1.78814e-07  0.026577 -0.148379 -3.57628e-07  0.0266156 -0.155119 -2.38419e-07  0.0266252 -0.161919 -3.57628e-07  0.0266027 -0.168774 1.78814e-07  0.0265491 -0.175679 1.19209e-07  0.0264676 -0.18263 -3.57628e-07  0.0263581 -0.189622 5.96046e-08  0.0262232 -0.196654 2.38419e-07  0.0260637 -0.203716 2.38419e-07  0.0258815 -0.210808 5.96046e-08  0.025676 -0.217925 2.38419e-07  0.0254514 -0.225064 1.78814e-07  0.0252051 -0.232222 -4.76837e-07  0.0249424 -0.239396 5.96046e-08  0.0246627 -0.246581 3.57628e-07  0.0243669 -0.253778 0  0.0240541 -0.26098 -3.57628e-07  0.0237322 -0.268187 -5.36442e-07  0.0233955 -0.275397 -2.98023e-07  0.0230482 -0.282606 4.17233e-07  0.0226901 -0.289813 5.96046e-08  0.022325 -0.297018 2.38419e-07  0.0219498 -0.304218 2.98023e-07  0.0215716 -0.311412 4.76837e-07  0.0211844 -0.318598 -1.78814e-07  0.0207915 -0.325775 1.78814e-07  0.0203984 -0.332945 -1.78814e-07  0.0199986 -0.340104 -4.17233e-07  0.019599 -0.347255 1.19209e-07  0.0191958 -0.354396 1.19209e-07  0.018795 -0.36153 -5.96046e-07  0 0 0  0.00048358 -0.00164318 0  0.00158051 -0.00326431 6.55651e-07  0.00303844 -0.00494784 4.76837e-07  0.00467479 -0.00673789 -1.19209e-07  0.00638956 -0.00868988 1.19209e-07  0.00812048 -0.0108384 -1.78814e-07  0.00983632 -0.0132063 -4.76837e-07  0.0115132 -0.0158067 -5.36442e-07  0.0131351 -0.018643 2.38419e-07  0.0146956 -0.0217181 1.78814e-07  0.0161889 -0.0250272 1.19209e-07  0.0176126 -0.0285654 -1.78814e-07  0.0189645 -0.0323271 0  0.0202445 -0.0363039 -5.96046e-08  0.0214539 -0.0404881 -1.19209e-07  0.0225933 -0.044872 1.19209e-07  0.0236651 -0.0494478 2.38419e-07  0.0246695 -0.0542055 -5.96046e-08  0.0256087 -0.059138 -1.19209e-07  0.0264847 -0.0642374 -1.19209e-07  0.0272976 -0.0694946 -4.17233e-07  0.0280523 -0.0749028 -2.38419e-07  0.0287457 -0.0804534 1.19209e-07  0.0293841 -0.0861394 0  0.0299656 -0.0919538 2.98023e-07  0.0304949 -0.0978889 2.38419e-07  0.03097 -0.103937 -2.38419e-07  0.0313957 -0.110094 5.96046e-08  0.0317743 -0.11635 6.55651e-07  0.032102 -0.1227 1.78814e-07  0.0323863 -0.129139 -5.96046e-07  0.032625 -0.13566 -5.36442e-07  0.0328202 -0.142257 5.96046e-08  0.0329757 -0.148925 7.15256e-07  0.0330927 -0.155659 7.7486e-07  0.0331697 -0.162452 4.17233e-07  0.0332093 -0.169302 -5.96046e-08  0.0332167 -0.176201 -1.19209e-07  0.0331914 -0.183146 -4.76837e-07  0.0331321 -0.190133 2.38419e-07  0.0330443 -0.197157 0  0.0329263 -0.204214 -5.96046e-07  0.032783 -0.2113 5.96046e-07  0.0326109 -0.218412 -1.78814e-07  0.0324173 -0.225545 1.78814e-07  0.0322011 -0.232697 3.57628e-07  0.0319607 -0.239865 1.19209e-07  0.031703 -0.247046 6.55651e-07  0.0314257 -0.254236 -4.17233e-07  0.0311301 -0.261434 0  0.0308204 -0.268636 -2.98023e-07  0.0304949 -0.27584 -4.17233e-07  0.0301564 -0.283046 3.57628e-07  0.029808 -0.290249 4.76837e-07  0.0294473 -0.29745 8.9407e-07  0.0290778 -0.304647 -5.96046e-08  0.0287008 -0.311836 -2.38419e-07  0.0283151 -0.319019 -5.96046e-08  0.0279262 -0.326195 8.9407e-07  0.0275309 -0.333361 1.01328e-06  0.0271325 -0.34052 -5.96046e-08  0.0267315 -0.347669 -2.98023e-07  0.0263288 -0.354812 -2.98023e-07  0.0259261 -0.36195 -5.36442e-07  0 0 0  0.000626817 -0.00236005 2.38419e-07  0.0021005 -0.00430673 2.98023e-07  0.00391489 -0.0060721 4.76837e-07  0.00586718 -0.00786 1.78814e-07  0.00786856 -0.00977653 2.98023e-07  0.00987265 -0.0118829 5.96046e-08  0.0118497 -0.0142077 1.19209e-07  0.0137827 -0.0167681 -5.36442e-07  0.0156567 -0.0195709 -1.78814e-07  0.017463 -0.0226142 2.38419e-07  0.0191953 -0.0258955 4.17233e-07  0.0208504 -0.0294099 -5.96046e-08  0.0224271 -0.0331495 -5.96046e-08  0.0239249 -0.0371073 1.19209e-07  0.025345 -0.0412745 0  0.0266864 -0.0456432 -5.96046e-08  0.027951 -0.0502036 -5.96046e-08  0.0291398 -0.0549476 -5.96046e-07  0.0302575 -0.0598681 2.98023e-07  0.0313029 -0.0649553 1.19209e-07  0.032279 -0.0702018 5.36442e-07  0.0331868 -0.0755987 -5.36442e-07  0.0340275 -0.0811386 1.19209e-07  0.0348064 -0.0868149 2.38419e-07  0.0355213 -0.0926196 3.57628e-07  0.0361763 -0.0985451 5.36442e-07  0.036772 -0.104584 0  0.0373089 -0.110731 -6.55651e-07  0.037793 -0.116979 -2.38419e-07  0.038222 -0.12332 5.96046e-08  0.0385993 -0.12975 6.55651e-07  0.0389292 -0.136262 5.96046e-08  0.0392079 -0.14285 4.17233e-07  0.0394397 -0.14951 -4.17233e-07  0.039628 -0.156236 1.78814e-07  0.0397739 -0.16302 1.78814e-07  0.0398762 -0.169861 -1.19209e-07  0.039942 -0.176751 -1.78814e-07  0.0399671 -0.183689 -4.17233e-07  0.0399575 -0.190668 -5.96046e-08  0.0399125 -0.197684 -5.36442e-07  0.0398376 -0.204732 1.19209e-07  0.0397286 -0.211811 0  0.0395896 -0.218914 -4.76837e-07  0.0394258 -0.226041 2.38419e-07  0.0392325 -0.233186 4.17233e-07  0.0390165 -0.240346 -6.55651e-07  0.038779 -0.24752 -2.38419e-07  0.038517 -0.254704 2.38419e-07  0.038238 -0.261894 -2.98023e-07  0.0379386 -0.269091 2.38419e-07  0.0376236 -0.27629 2.38419e-07  0.0372925 -0.283489 0  0.0369465 -0.290688 2.38419e-07  0.0365899 -0.297884 -2.38419e-07  0.0362241 -0.305075 -5.36442e-07  0.0358469 -0.312262 -5.96046e-08  0.0354619 -0.319441 2.98023e-07  0.0350723 -0.326613 4.17233e-07  0.0346763 -0.333778 1.19209e-07  0.0342765 -0.340935 -3.57628e-07  0.0338743 -0.348083 4.76837e-07  0.0334706 -0.355226 -1.19209e-07  0.0330658 -0.362368 -8.34465e-07  0 0 0  0.00110939 -0.00348938 -1.19209e-07  0.00302117 -0.00563562 2.98023e-07  0.00514127 -0.00740129 -6.55651e-07  0.00734776 -0.00913769 5.96046e-08  0.00958824 -0.0109954 7.15256e-07  0.0118277 -0.0130451 -8.34465e-07  0.0140427 -0.015321 5.96046e-08  0.0162143 -0.0178391 7.15256e-07  0.0183275 -0.0206025 5.96046e-07  0.0203698 -0.0236118 5.96046e-08  0.0223342 -0.0268632 -1.19209e-07  0.0242164 -0.0303512 5.96046e-08  0.0260157 -0.0340676 -2.38419e-07  0.027729 -0.0380029 1.78814e-07  0.0293543 -0.0421503 -2.98023e-07  0.0308931 -0.0464993 6.55651e-07  0.0323493 -0.0510422 2.38419e-07  0.033722 -0.0557715 -3.57628e-07  0.0350144 -0.060676 0  0.0362267 -0.0657484 -7.15256e-07  0.0373619 -0.0709794 -6.55651e-07  0.0384216 -0.0763632 1.19209e-07  0.0394078 -0.0818908 7.7486e-07  0.040323 -0.087554 2.98023e-07  0.04117 -0.0933449 1.78814e-07  0.0419468 -0.0992578 -8.9407e-07  0.0426601 -0.105285 2.38419e-07  0.0433079 -0.11142 6.55651e-07  0.043896 -0.117655 -1.78814e-07  0.0444242 -0.123986 -1.19209e-07  0.0448936 -0.130403 1.78814e-07  0.0453074 -0.136904 2.98023e-07  0.0456691 -0.143483 -4.17233e-07  0.0459769 -0.150131 7.15256e-07  0.0462358 -0.156844 8.34465e-07  0.0464444 -0.16362 -4.17233e-07  0.0466084 -0.17045 5.36442e-07  0.0467279 -0.177331 -5.96046e-07  0.0468059 -0.184258 0  0.0468419 -0.191225 -1.2517e-06  0.046839 -0.198229 0  0.0467982 -0.20527 -4.17233e-07  0.0467255 -0.212338 1.78814e-07  0.0466173 -0.219432 5.36442e-07  0.0464797 -0.22655 -1.43051e-06  0.0463111 -0.233687 5.96046e-08  0.0461152 -0.240838 2.98023e-07  0.0458946 -0.248003 4.17233e-07  0.0456457 -0.255178 4.76837e-07  0.0453794 -0.262363 -5.96046e-07  0.045089 -0.269551 5.36442e-07  0.0447805 -0.276741 1.90735e-06  0.0444539 -0.283935 -1.78814e-07  0.0441117 -0.291127 -5.36442e-07  0.043756 -0.298317 -1.19209e-07  0.0433877 -0.305503 -5.96046e-08  0.043011 -0.312685 -1.19209e-07  0.042624 -0.319861 1.78814e-07  0.0422297 -0.327029 -1.01328e-06  0.0418308 -0.33419 4.76837e-07  0.0414274 -0.341347 1.07288e-06  0.0410233 -0.348495 -1.78814e-07  0.0406179 -0.35564 -1.78814e-07  0.0402117 -0.362783 -1.60933e-06  0 0 0  -0.00114331 -0.00331215 0.000299215  -0.00305149 -0.00531763 0.00053215  -0.00516368 -0.00697398 0.000715613  -0.00736465 -0.00860752 0.000855863  -0.00960872 -0.0103575 0.000954509  -0.0118633 -0.012292 0.00101978  -0.0141083 -0.0144443 0.00105655  -0.0163293 -0.0168265 0.00107014  -0.0185087 -0.0194458 0.00106788  -0.0206408 -0.0223018 0.00105286  -0.0227187 -0.025392 0.00102907  -0.0247383 -0.0287113 0.000999212  -0.0266964 -0.0322534 0.000965178  -0.0285957 -0.0360087 0.000928938  -0.0304345 -0.0399727 0.000892043  -0.0322148 -0.0441355 0.000853777  -0.0339383 -0.0484913 0.000816107  -0.0356065 -0.0530301 0.000780165  -0.0372198 -0.0577453 0.000743926  -0.0387813 -0.0626294 0.000709891  -0.0402932 -0.067674 0.000677109  -0.0417551 -0.0728716 0.000643671  -0.0431701 -0.0782167 0.000611663  -0.0445381 -0.0837017 0.000580788  -0.0458632 -0.0893196 0.000550628  -0.0471443 -0.0950611 0.000522375  -0.0483847 -0.100923 0.000494719  -0.0495814 -0.106898 0.000467062  -0.0507395 -0.112979 0.00044018  -0.0518566 -0.119162 0.000415325  -0.0529377 -0.125438 0.000389993  -0.0539845 -0.131803 0.000366986  -0.054991 -0.138251 0.000343442  -0.055963 -0.144776 0.000321507  -0.0569031 -0.151375 0.000299871  -0.0578082 -0.158041 0.000278592  -0.0586827 -0.164768 0.000259757  -0.0595238 -0.171553 0.000240445  -0.0603352 -0.178391 0.000221848  -0.0611176 -0.185277 0.000203073  -0.0618722 -0.192206 0.000187516  -0.0625975 -0.199176 0.000170171  -0.0632975 -0.206181 0.000155747  -0.0639715 -0.213217 0.000141203  -0.0646203 -0.220283 0.000126898  -0.0652447 -0.227372 0.00011313  -0.0658507 -0.234484 0.000101089  -0.0664315 -0.241612 8.98242e-05  -0.066993 -0.248755 7.82609e-05  -0.0675354 -0.255913 6.80685e-05  -0.0680621 -0.263079 5.79357e-05  -0.0685692 -0.270252 4.94123e-05  -0.0690613 -0.277429 4.23789e-05  -0.0695372 -0.284611 3.5584e-05  -0.0700037 -0.291793 2.83718e-05  -0.0704563 -0.298974 2.32458e-05  -0.0708966 -0.30615 1.78814e-05  -0.0713313 -0.313324 1.46627e-05  -0.071758 -0.320494 1.07288e-05  -0.0721762 -0.327656 8.64267e-06  -0.0725913 -0.334812 5.66244e-06  -0.0730064 -0.341964 2.6226e-06  -0.0734172 -0.349112 2.08616e-06  -0.0738292 -0.356255 -7.15256e-07  0 0 0  -0.000637565 -0.0021826 0.000235856  -0.00209621 -0.00400073 0.00044769  -0.0038875 -0.00566273 0.000615656  -0.00581954 -0.00735538 0.000743091  -0.00781143 -0.00917735 0.000832558  -0.00982007 -0.011184 0.000890195  -0.0118188 -0.013403 0.00092274  -0.0137915 -0.015849 0.000934482  -0.0157272 -0.0185296 0.000931501  -0.0176173 -0.0214444 0.00091815  -0.0194579 -0.0245896 0.000896335  -0.0212467 -0.027962 0.000869811  -0.022983 -0.0315535 0.000840008  -0.0246685 -0.0353595 0.000808179  -0.0263 -0.0393714 0.000775635  -0.0278811 -0.043581 0.000742674  -0.0294154 -0.0479811 0.000709951  -0.0309006 -0.0525637 0.000678062  -0.0323424 -0.0573217 0.00064677  -0.0337385 -0.0622472 0.000616372  -0.0350934 -0.0673318 0.000586987  -0.0364065 -0.0725694 0.000558376  -0.0376806 -0.0779529 0.000530899  -0.0389162 -0.0834744 0.000504375  -0.0401124 -0.0891273 0.000478029  -0.0412742 -0.0949052 0.000453651  -0.0424002 -0.100801 0.000428557  -0.0434915 -0.106809 0.000405073  -0.0445492 -0.112922 0.000383019  -0.0455743 -0.119134 0.00036025  -0.0465662 -0.12544 0.000339389  -0.047527 -0.131834 0.000318587  -0.0484595 -0.138309 0.000298381  -0.0493598 -0.144862 0.000278354  -0.0502324 -0.151484 0.000259876  -0.0510769 -0.158173 0.000242472  -0.0518951 -0.164924 0.000224948  -0.0526843 -0.171732 0.000208437  -0.0534492 -0.17859 0.000192761  -0.054188 -0.185495 0.000176072  -0.054903 -0.192444 0.000160992  -0.0555937 -0.199431 0.000148714  -0.0562637 -0.206452 0.000135064  -0.0569105 -0.213505 0.000122249  -0.0575364 -0.220585 0.000109971  -0.0581415 -0.227687 9.86457e-05  -0.0587273 -0.234811 8.79169e-05  -0.0592947 -0.241952 7.76052e-05  -0.0598447 -0.249107 6.79493e-05  -0.0603788 -0.256273 5.87106e-05  -0.0608954 -0.263448 5.11408e-05  -0.0613985 -0.270629 4.36902e-05  -0.0618868 -0.277815 3.75509e-05  -0.0623641 -0.285002 3.02792e-05  -0.0628281 -0.292188 2.47359e-05  -0.063283 -0.299372 2.01464e-05  -0.0637288 -0.306555 1.59144e-05  -0.0641654 -0.313732 1.20997e-05  -0.0645962 -0.320903 9.29832e-06  -0.0650175 -0.328067 6.07967e-06  -0.0654376 -0.335224 3.93391e-06  -0.0658531 -0.342374 2.5034e-06  -0.0662684 -0.349518 -3.57628e-07  -0.0666807 -0.356662 -2.02656e-06  0 0 0  -0.000481248 -0.00147525 0.000198066  -0.00155295 -0.00297881 0.000373185  -0.00297898 -0.00456801 0.000518382  -0.00458652 -0.0062739 0.000629783  -0.00627992 -0.00814272 0.000707984  -0.00800708 -0.010206 0.000758767  -0.00973371 -0.0124846 0.000787139  -0.0114428 -0.0149898 0.000798166  -0.0131198 -0.0177257 0.000794768  -0.0147586 -0.0206936 0.000782728  -0.0163557 -0.0238904 0.000764489  -0.0179089 -0.0273102 0.000740767  -0.0194166 -0.0309495 0.000715077  -0.0208815 -0.0348 0.000687897  -0.0223026 -0.0388547 0.000659585  -0.0236831 -0.0431066 0.000632107  -0.025023 -0.0475473 0.000603437  -0.0263252 -0.0521698 0.000576556  -0.0275902 -0.0569657 0.000549853  -0.0288181 -0.0619285 0.000523329  -0.0300137 -0.0670502 0.000498712  -0.0311747 -0.0723231 0.000474632  -0.0323035 -0.0777411 0.000451207  -0.0334016 -0.0832961 0.00042814  -0.0344694 -0.088982 0.000406623  -0.035507 -0.0947913 0.000385106  -0.036518 -0.100718 0.000364423  -0.0374995 -0.106755 0.000344038  -0.038453 -0.112898 0.000324845  -0.0393806 -0.119138 0.000305951  -0.040283 -0.125471 0.000287592  -0.0411582 -0.131891 0.000270367  -0.0420094 -0.13839 0.000253677  -0.0428367 -0.144967 0.000236988  -0.0436404 -0.151613 0.000220537  -0.044421 -0.158324 0.000205696  -0.0451791 -0.165096 0.000191271  -0.0459146 -0.171922 0.000176489  -0.046629 -0.1788 0.000162899  -0.0473235 -0.185724 0.000149786  -0.047997 -0.192689 0.000137985  -0.0486512 -0.199692 0.000125945  -0.0492842 -0.206729 0.000114977  -0.0499032 -0.213795 0.000103116  -0.0505013 -0.220888 9.36985e-05  -0.0510845 -0.228004 8.38041e-05  -0.05165 -0.235139 7.4625e-05  -0.0521998 -0.24229 6.634e-05  -0.0527358 -0.249454 5.71012e-05  -0.0532568 -0.25663 5.02467e-05  -0.0537636 -0.263814 4.36306e-05  -0.0542595 -0.271001 3.75509e-05  -0.0547428 -0.278194 3.1352e-05  -0.0552158 -0.285387 2.58684e-05  -0.0556786 -0.292579 2.13385e-05  -0.0561314 -0.299769 1.65105e-05  -0.0565758 -0.306954 1.32322e-05  -0.0570135 -0.314134 1.055e-05  -0.0574443 -0.321306 8.04663e-06  -0.0578713 -0.328471 5.72205e-06  -0.0582907 -0.335631 3.57628e-06  -0.058707 -0.342781 2.26498e-06  -0.0591221 -0.349924 4.76837e-07  -0.0595388 -0.357061 -2.26498e-06  0 0 0  -0.000352938 -0.000992417 0.000164568  -0.00116457 -0.00223634 0.000308156  -0.0022735 -0.0037111 0.000427783  -0.00356197 -0.00539164 0.000519574  -0.00495011 -0.00727852 0.000585616  -0.00638261 -0.00938021 0.000628412  -0.00782579 -0.0117049 0.000652134  -0.00925761 -0.014259 0.000660896  -0.0106676 -0.0170442 0.000659049  -0.0120469 -0.0200589 0.000648439  -0.0133953 -0.0232997 0.000633001  -0.0147051 -0.026764 0.00061363  -0.0159824 -0.0304446 0.000592649  -0.0172228 -0.0343353 0.000569463  -0.01843 -0.0384283 0.00054574  -0.0196058 -0.0427169 0.000522733  -0.020749 -0.0471941 0.000499725  -0.0218635 -0.0518517 0.000476778  -0.0229489 -0.056682 0.000454485  -0.0240055 -0.0616779 0.000432968  -0.0250387 -0.0668321 0.000412405  -0.026046 -0.0721374 0.000391603  -0.0270277 -0.0775859 0.000372767  -0.0279853 -0.0831716 0.00035429  -0.0289209 -0.0888859 0.000335336  -0.0298333 -0.0947246 0.000318527  -0.0307239 -0.100679 0.000300884  -0.0315931 -0.106743 0.000284135  -0.0324421 -0.112911 0.000268519  -0.033269 -0.119177 0.000252783  -0.0340781 -0.125534 0.000237405  -0.0348662 -0.131976 0.000222921  -0.0356352 -0.1385 0.000208735  -0.0363858 -0.145097 0.000195265  -0.0371184 -0.151765 0.000182211  -0.037832 -0.158496 0.000169694  -0.0385277 -0.165285 0.000157416  -0.0392075 -0.17213 0.000145376  -0.0398695 -0.179025 0.000134885  -0.0405142 -0.185965 0.000123322  -0.0411446 -0.192945 0.000113368  -0.0417581 -0.199963 0.000103533  -0.0423574 -0.207014 9.42945e-05  -0.042942 -0.214092 8.53539e-05  -0.0435128 -0.221197 7.7486e-05  -0.0440691 -0.228324 6.9201e-05  -0.0446122 -0.23547 6.10352e-05  -0.0451412 -0.242631 5.47767e-05  -0.045661 -0.249805 4.79221e-05  -0.0461664 -0.256988 4.1604e-05  -0.0466621 -0.264179 3.61204e-05  -0.0471473 -0.271374 3.06964e-05  -0.0476227 -0.278571 2.63453e-05  -0.0480893 -0.28577 2.20537e-05  -0.0485458 -0.292966 1.7643e-05  -0.048996 -0.30016 1.43647e-05  -0.049439 -0.307349 1.15037e-05  -0.0498772 -0.314531 7.98702e-06  -0.0503061 -0.321707 5.78165e-06  -0.0507307 -0.328875 4.11272e-06  -0.0511513 -0.336034 2.08616e-06  -0.0515704 -0.343184 9.53674e-07  -0.0519848 -0.350326 -1.78814e-07  -0.0524004 -0.357461 -3.09944e-06  0 0 0  -0.000259943 -0.000658438 0.000131607  -0.000858881 -0.00170183 0.000245869  -0.00169522 -0.00306766 0.000340402  -0.0026876 -0.00470613 0.000412822  -0.00377515 -0.00659066 0.000465155  -0.00491008 -0.00871466 0.000500262  -0.00606176 -0.0110735 0.000518978  -0.00721145 -0.0136666 0.000525951  -0.00834882 -0.0164913 0.000524163  -0.00946319 -0.0195456 0.000516772  -0.010554 -0.0228263 0.000503719  -0.0116198 -0.0263276 0.000487864  -0.0126611 -0.0300439 0.000470757  -0.0136752 -0.0339682 0.00045234  -0.014664 -0.0380953 0.000433743  -0.0156314 -0.042417 0.000415146  -0.016577 -0.0469259 0.000396729  -0.0175011 -0.0516143 0.000377655  -0.0184041 -0.0564742 0.000360012  -0.0192901 -0.0614993 0.000343561  -0.0201564 -0.0666822 0.000327229  -0.0210065 -0.0720156 0.000310838  -0.0218389 -0.0774918 0.000295341  -0.0226543 -0.0831033 0.000280321  -0.023455 -0.0888442 0.000265539  -0.02424 -0.0947078 0.000251293  -0.0250092 -0.100687 0.000237703  -0.0257659 -0.106775 0.000225246  -0.0265055 -0.112966 0.000212848  -0.0272311 -0.119254 0.000199676  -0.0279425 -0.125633 0.000187457  -0.028641 -0.132096 0.000177085  -0.0293255 -0.138639 0.000165284  -0.0299976 -0.145256 0.000154555  -0.0306556 -0.151941 0.000143886  -0.031301 -0.15869 0.000134289  -0.0319333 -0.165498 0.000124991  -0.032553 -0.172357 0.000115812  -0.0331616 -0.179267 0.000106275  -0.0337555 -0.186222 9.68575e-05  -0.0343397 -0.193217 8.93474e-05  -0.0349114 -0.200247 8.15988e-05  -0.0354719 -0.207309 7.44462e-05  -0.036021 -0.214401 6.71744e-05  -0.0365617 -0.221515 6.10352e-05  -0.0370889 -0.228652 5.44786e-05  -0.0376081 -0.235806 4.82798e-05  -0.0381167 -0.242976 4.24385e-05  -0.0386152 -0.250158 3.75509e-05  -0.039104 -0.257349 3.25441e-05  -0.0395873 -0.264545 2.89679e-05  -0.0400581 -0.271747 2.46167e-05  -0.0405257 -0.27895 2.0206e-05  -0.0409827 -0.286153 1.68085e-05  -0.0414343 -0.293354 1.34706e-05  -0.0418787 -0.300551 1.10269e-05  -0.0423183 -0.307742 9.11951e-06  -0.042752 -0.314928 6.73532e-06  -0.0431802 -0.322107 5.78165e-06  -0.0436032 -0.329275 3.09944e-06  -0.0440249 -0.336436 1.01328e-06  -0.0444417 -0.343586 6.55651e-07  -0.0448556 -0.350726 -1.66893e-06  -0.0452719 -0.357858 -2.26498e-06  0 0 0  -0.000180937 -0.000434071 9.84073e-05  -0.000602521 -0.00132933 0.000184357  -0.00119908 -0.00260666 0.000254631  -0.00191829 -0.00420251 0.000308633  -0.00271472 -0.00607848 0.000347435  -0.00355577 -0.00821394 0.000372708  -0.00441504 -0.0105958 0.000387192  -0.00527847 -0.013217 0.000392735  -0.00613761 -0.0160731 0.000390768  -0.00698394 -0.0191606 0.000385523  -0.00781536 -0.0224738 0.000375628  -0.00863224 -0.0260049 0.000364304  -0.0094322 -0.0297515 0.000351787  -0.0102168 -0.033706 0.000337422  -0.0109876 -0.037861 0.000323474  -0.0117443 -0.04221 0.000309348  -0.0124888 -0.0467453 0.000294924  -0.0132197 -0.0514597 0.000281572  -0.0139408 -0.0563465 0.000267744  -0.0146507 -0.061397 0.000254929  -0.0153512 -0.066604 0.00024277  -0.0160419 -0.0719616 0.000230014  -0.0167234 -0.0774614 0.000218987  -0.0173951 -0.0830967 0.000208259  -0.0180584 -0.0888601 0.000197291  -0.0187136 -0.0947451 0.000186682  -0.0193598 -0.100746 0.000176191  -0.0199978 -0.106855 0.000166059  -0.0206285 -0.113067 0.000157297  -0.0212507 -0.119373 0.000147462  -0.0218657 -0.125771 0.000139296  -0.0224731 -0.132253 0.000130117  -0.0230703 -0.138813 0.000121534  -0.0236604 -0.145446 0.000113964  -0.0242429 -0.152148 0.000106812  -0.0248172 -0.158912 9.88245e-05  -0.0253842 -0.165734 9.15527e-05  -0.0259428 -0.172609 8.4579e-05  -0.0264957 -0.179531 7.79629e-05  -0.0270371 -0.186498 7.1764e-05  -0.0275741 -0.193505 6.59227e-05  -0.0281022 -0.200546 6.03795e-05  -0.0286222 -0.207619 5.48959e-05  -0.0291357 -0.214719 4.95911e-05  -0.0296419 -0.221844 4.38094e-05  -0.0301392 -0.228989 3.95179e-05  -0.0306313 -0.236153 3.59416e-05  -0.0311174 -0.243329 3.15309e-05  -0.031595 -0.250517 2.75373e-05  -0.0320673 -0.257714 2.37226e-05  -0.0325322 -0.264916 2.09212e-05  -0.0329909 -0.272123 1.71661e-05  -0.0334461 -0.279331 1.52588e-05  -0.0338943 -0.286537 1.22786e-05  -0.0343368 -0.293743 1.03712e-05  -0.0347755 -0.300943 8.70228e-06  -0.035208 -0.308138 5.84126e-06  -0.0356376 -0.315325 4.58956e-06  -0.0360627 -0.322506 3.8743e-06  -0.0364845 -0.329677 1.66893e-06  -0.036902 -0.336837 9.53674e-07  -0.037318 -0.343988 -5.96046e-08  -0.0377347 -0.351127 -8.9407e-07  -0.0381446 -0.358256 -3.15905e-06  0 0 0  -0.000114158 -0.00029248 6.59823e-05  -0.000376225 -0.00108916 0.000123084  -0.00075464 -0.00230354 0.000169039  -0.00121617 -0.00386733 0.000205398  -0.00173298 -0.00573468 0.000230551  -0.00228447 -0.00787553 0.000248313  -0.00285375 -0.010272 0.00025785  -0.00343066 -0.012915 0.000261128  -0.00400883 -0.0157955 0.000259876  -0.00458342 -0.0189071 0.00025624  -0.00515372 -0.0222448 0.000249624  -0.00571871 -0.0258024 0.000241578  -0.00627708 -0.0295724 0.000232756  -0.00683069 -0.0335501 0.000223517  -0.00737917 -0.0377286 0.000213623  -0.00792497 -0.0420994 0.000204265  -0.00846601 -0.0466574 0.000194848  -0.009004 -0.0513938 0.000185847  -0.0095396 -0.0563012 0.000176668  -0.0100734 -0.0613734 0.000167429  -0.0106055 -0.0666022 0.000160098  -0.0111345 -0.0719797 0.000151575  -0.0116631 -0.077499 0.000143945  -0.0121897 -0.0831534 0.000136733  -0.0127151 -0.0889364 0.000128925  -0.0132395 -0.0948409 0.000122309  -0.0137606 -0.100859 0.000115454  -0.0142822 -0.106986 0.000108898  -0.0148005 -0.113214 0.000102997  -0.0153183 -0.119538 9.63211e-05  -0.015834 -0.125951 9.04799e-05  -0.0163471 -0.132449 8.4579e-05  -0.0168555 -0.139024 7.84993e-05  -0.017365 -0.145672 7.43866e-05  -0.0178695 -0.152387 6.91414e-05  -0.0183725 -0.159165 6.31213e-05  -0.0188723 -0.165998 5.87702e-05  -0.0193686 -0.172884 5.52535e-05  -0.0198629 -0.179819 5.07236e-05  -0.0203521 -0.186795 4.54187e-05  -0.0208385 -0.193812 4.30346e-05  -0.0213208 -0.200864 3.78489e-05  -0.0218 -0.207945 3.45707e-05  -0.0222762 -0.215054 3.17097e-05  -0.0227468 -0.222186 2.86102e-05  -0.0232155 -0.229338 2.64645e-05  -0.023679 -0.236508 2.30074e-05  -0.0241401 -0.243691 1.95503e-05  -0.0245938 -0.250884 1.66297e-05  -0.0250471 -0.258086 1.51396e-05  -0.0254955 -0.265294 1.3113e-05  -0.025939 -0.272504 1.09673e-05  -0.0263803 -0.279715 8.70228e-06  -0.0268178 -0.286927 8.22544e-06  -0.0272517 -0.294134 6.85453e-06  -0.0276804 -0.301338 5.24521e-06  -0.0281098 -0.308535 3.8147e-06  -0.0285339 -0.315724 2.32458e-06  -0.0289543 -0.322905 1.72853e-06  -0.0293722 -0.330078 4.17233e-07  -0.0297892 -0.33724 4.17233e-07  -0.030201 -0.34439 1.78814e-07  -0.0306141 -0.35153 -8.34465e-07  -0.031024 -0.358656 -1.19209e-06  0 0 0  -5.17778e-05 -0.000218719 3.26037e-05  -0.000169791 -0.000962913 6.01411e-05  -0.000341892 -0.00214294 8.38041e-05  -0.000557378 -0.00368831 0.000102639  -0.000802547 -0.00555086 0.000114858  -0.00106844 -0.00769576 0.000124097  -0.001349 -0.0101041 0.000128925  -0.00163928 -0.0127618 0.000130594  -0.00193644 -0.0156591 0.000129819  -0.00223947 -0.0187892 0.00012815  -0.00254565 -0.0221441 0.000124454  -0.00285739 -0.0257195 0.000120163  -0.00317407 -0.0295084 0.00011605  -0.00349498 -0.0335044 0.000111222  -0.00382054 -0.0377 0.000105619  -0.00415212 -0.0420886 0.00010097  -0.00448954 -0.0466641 9.62019e-05  -0.00483298 -0.0514176 9.06587e-05  -0.00518334 -0.0563429 8.58903e-05  -0.00553906 -0.0614321 8.17776e-05  -0.00590134 -0.0666769 7.79033e-05  -0.00627005 -0.0720709 7.38502e-05  -0.00664508 -0.077607 6.97374e-05  -0.00702488 -0.0832779 6.55055e-05  -0.00741065 -0.089077 6.19888e-05  -0.00780201 -0.0949961 5.84126e-05  -0.00819838 -0.10103 5.47171e-05  -0.00860071 -0.10717 5.17368e-05  -0.00900781 -0.113413 4.84586e-05  -0.00941706 -0.119751 4.52995e-05  -0.00983274 -0.126177 4.22597e-05  -0.0102514 -0.132687 3.92795e-05  -0.0106723 -0.139275 3.65973e-05  -0.0110972 -0.145934 3.42727e-05  -0.0115225 -0.152661 3.23057e-05  -0.0119534 -0.159449 2.93255e-05  -0.0123858 -0.166293 2.68817e-05  -0.0128174 -0.173188 2.47955e-05  -0.0132544 -0.180131 2.23517e-05  -0.0136888 -0.187118 2.01464e-05  -0.0141258 -0.194142 1.80602e-05  -0.0145614 -0.2012 1.64509e-05  -0.0149982 -0.20829 1.53184e-05  -0.0154345 -0.215405 1.34706e-05  -0.0158706 -0.222543 1.18613e-05  -0.0163057 -0.229701 1.13845e-05  -0.0167403 -0.236876 9.77516e-06  -0.0171745 -0.244064 7.09295e-06  -0.0176075 -0.251262 6.73532e-06  -0.0180402 -0.258468 5.90086e-06  -0.0184679 -0.265679 5.00679e-06  -0.018898 -0.272892 4.47035e-06  -0.0193248 -0.280106 3.57628e-06  -0.0197504 -0.28732 2.563e-06  -0.020174 -0.29453 1.66893e-06  -0.0205951 -0.301734 1.2517e-06  -0.0210149 -0.308933 2.38419e-06  -0.0214357 -0.316125 1.19209e-06  -0.0218513 -0.323307 4.17233e-07  -0.0222659 -0.33048 7.15256e-07  -0.0226793 -0.337643 -4.17233e-07  -0.0230916 -0.344793 -1.01328e-06  -0.0235016 -0.351932 -2.08616e-06  -0.0239098 -0.359057 -8.34465e-07  0 0 0  8.24779e-06 -0.000204474 -8.34465e-07  2.89381e-05 -0.000938922 -4.76837e-07  5.56707e-05 -0.00211337 -6.55651e-07  8.02279e-05 -0.00365812 -1.19209e-07  0.000103772 -0.00552225 -2.38419e-07  0.000119179 -0.00767329 7.7486e-07  0.000126511 -0.0100895 5.36442e-07  0.000121772 -0.0127566 9.53674e-07  0.000105679 -0.0156643 7.7486e-07  7.54595e-05 -0.0188053 1.01328e-06  3.21865e-05 -0.0221726 4.17233e-07  -2.563e-05 -0.02576 -4.17233e-07  -9.88841e-05 -0.0295615 -7.15256e-07  -0.000185311 -0.0335692 -1.07288e-06  -0.000289857 -0.0377776 -1.96695e-06  -0.000407159 -0.0421801 -1.72853e-06  -0.000540495 -0.0467674 -2.98023e-06  -0.000688791 -0.0515338 -3.09944e-06  -0.000852108 -0.0564727 -3.39746e-06  -0.00103068 -0.0615739 -3.75509e-06  -0.00122297 -0.066832 -4.29153e-06  -0.00142992 -0.0722388 -4.64916e-06  -0.0016495 -0.0777872 -4.23193e-06  -0.00188303 -0.0834714 -5.126e-06  -0.00212944 -0.0892821 -4.94719e-06  -0.00238776 -0.0952133 -5.42402e-06  -0.00265884 -0.101258 -5.66244e-06  -0.00294006 -0.107411 -5.24521e-06  -0.00323367 -0.113665 -5.90086e-06  -0.00353718 -0.120013 -5.30481e-06  -0.00385141 -0.12645 -5.72205e-06  -0.00417459 -0.13297 -5.96046e-06  -0.00450587 -0.139567 -5.54323e-06  -0.00484705 -0.146237 -5.30481e-06  -0.00519633 -0.152971 -5.48363e-06  -0.00555158 -0.159766 -5.96046e-06  -0.00591397 -0.166619 -5.66244e-06  -0.00628376 -0.173522 -5.126e-06  -0.00665879 -0.180472 -5.36442e-06  -0.0070374 -0.187465 -4.82798e-06  -0.00742459 -0.194495 -5.84126e-06  -0.00781155 -0.201559 -4.82798e-06  -0.00820661 -0.208653 -4.76837e-06  -0.0086019 -0.215775 -4.35114e-06  -0.00900292 -0.222917 -4.23193e-06  -0.00940537 -0.23008 -4.05312e-06  -0.00981259 -0.237257 -3.27826e-06  -0.0102193 -0.244449 -4.05312e-06  -0.0106299 -0.251649 -3.27826e-06  -0.0110383 -0.258859 -2.80142e-06  -0.011451 -0.266072 -1.72853e-06  -0.011863 -0.273288 -2.08616e-06  -0.0122752 -0.280504 -1.66893e-06  -0.0126877 -0.287718 -1.49012e-06  -0.0131011 -0.29493 -1.3113e-06  -0.0135148 -0.302136 -1.54972e-06  -0.0139282 -0.309336 -1.13249e-06  -0.0143406 -0.316528 -1.19209e-06  -0.0147524 -0.323711 -1.37091e-06  -0.0151625 -0.330885 -1.07288e-06  -0.0155716 -0.338048 -1.3113e-06  -0.0159814 -0.345198 -1.78814e-07  -0.0163898 -0.352337 -2.38419e-07  -0.0167971 -0.359461 5.96046e-08  0 0 0  6.74948e-05 -0.000247002 -3.38554e-05  0.000226021 -0.00101334 -6.18696e-05  0.00045085 -0.00221133 -8.50558e-05  0.000717819 -0.00377256 -0.000102103  0.00100729 -0.00564742 -0.000114083  0.00130492 -0.00780642 -0.00012213  0.00159872 -0.0102279 -0.000126839  0.00188005 -0.0128996 -0.000128031  0.00214267 -0.0158117 -0.000128031  0.00238568 -0.0189579 -0.000125527  0.0026058 -0.0223296 -0.00012368  0.00279999 -0.0259236 -0.000119865  0.0029707 -0.0297309 -0.000116229  0.00311494 -0.0337456 -0.000112712  0.00323474 -0.0379618 -0.000109076  0.00332999 -0.0423719 -0.000104904  0.00340104 -0.0469682 -0.000101209  0.00344682 -0.0517434 -9.7692e-05  0.00347066 -0.0566902 -9.31025e-05  0.00347114 -0.0618005 -8.9407e-05  0.0034492 -0.0670684 -8.61287e-05  0.00340402 -0.0724839 -8.24332e-05  0.00333786 -0.0780421 -7.93934e-05  0.00325191 -0.0837338 -7.55787e-05  0.00314617 -0.0895532 -7.18832e-05  0.00302029 -0.0954941 -6.86646e-05  0.00287509 -0.101548 -6.58035e-05  0.00271237 -0.107709 -6.25253e-05  0.0025326 -0.11397 -5.94258e-05  0.00233567 -0.120327 -5.6982e-05  0.00212431 -0.126772 -5.3525e-05  0.00189567 -0.133298 -5.126e-05  0.00165367 -0.139902 -4.81606e-05  0.0013988 -0.146577 -4.54783e-05  0.00112939 -0.153318 -4.21405e-05  0.000846148 -0.160121 -4.01735e-05  0.000554085 -0.166978 -3.75509e-05  0.000248909 -0.173887 -3.54648e-05  -6.58035e-05 -0.180842 -3.34382e-05  -0.00039196 -0.187839 -2.97427e-05  -0.000724077 -0.194873 -2.83718e-05  -0.00106621 -0.201942 -2.65837e-05  -0.00141716 -0.209039 -2.34246e-05  -0.00177407 -0.216162 -2.23517e-05  -0.00213861 -0.223308 -2.05636e-05  -0.00250912 -0.230473 -1.78218e-05  -0.0028863 -0.237653 -1.5974e-05  -0.00326395 -0.244847 -1.53184e-05  -0.0036509 -0.25205 -1.44839e-05  -0.00403953 -0.259259 -1.18017e-05  -0.00443268 -0.266475 -1.06692e-05  -0.00482702 -0.273692 -9.89437e-06  -0.0052278 -0.280909 -8.46386e-06  -0.00562859 -0.288124 -7.39098e-06  -0.00602961 -0.295335 -5.54323e-06  -0.00643373 -0.302542 -4.70877e-06  -0.00683928 -0.309742 -4.11272e-06  -0.00724578 -0.316934 -3.63588e-06  -0.00765252 -0.324118 -3.03984e-06  -0.00805879 -0.331292 -1.43051e-06  -0.00846672 -0.338455 -4.76837e-07  -0.00887346 -0.345605 -5.96046e-07  -0.00927973 -0.352744 -2.98023e-07  -0.00968385 -0.359869 2.38419e-07  0 0 0  0.00012973 -0.000348985 -6.65784e-05  0.000433058 -0.00119066 -0.000123262  0.00086166 -0.0024398 -0.000169337  0.00137302 -0.00403261 -0.000204086  0.00193343 -0.00592649 -0.000228643  0.00251383 -0.00809401 -0.000244677  0.00309423 -0.0105183 -0.000253737  0.00365984 -0.0131887 -0.000257313  0.00420177 -0.0160999 -0.00025624  0.00471604 -0.0192441 -0.000252545  0.00519711 -0.0226154 -0.000246942  0.00564241 -0.0262085 -0.000239849  0.00605541 -0.0300162 -0.000232399  0.00643158 -0.0340334 -0.000223875  0.00677335 -0.0382521 -0.000215828  0.00707984 -0.0426651 -0.000208139  0.00735474 -0.0472658 -0.000199676  0.0075953 -0.0520456 -0.000192344  0.00780523 -0.0569969 -0.000183284  0.00798202 -0.0621131 -0.00017482  0.00812876 -0.0673853 -0.000167787  0.00824714 -0.0728073 -0.000160694  0.00833547 -0.07837 -0.000152826  0.00839639 -0.0840682 -0.00014621  0.00842941 -0.0898929 -0.000139594  0.00843668 -0.0958395 -0.00013262  0.00841844 -0.101899 -0.000125945  0.00837588 -0.108065 -0.000119925  0.00831008 -0.114332 -0.000113726  0.0082202 -0.120694 -0.000106931  0.00810814 -0.127142 -0.000101864  0.00797582 -0.133673 -9.62019e-05  0.00782275 -0.140281 -9.03606e-05  0.00765085 -0.146961 -8.54135e-05  0.00746131 -0.153706 -7.96914e-05  0.00725317 -0.16051 -7.44462e-05  0.00702786 -0.167372 -7.02143e-05  0.00678682 -0.174283 -6.45518e-05  0.00653267 -0.181241 -6.02007e-05  0.00626206 -0.18824 -5.62072e-05  0.0059793 -0.195276 -5.14984e-05  0.00568366 -0.202346 -4.70281e-05  0.00537729 -0.209446 -4.4167e-05  0.00505948 -0.216571 -4.10676e-05  0.00473118 -0.223717 -3.64184e-05  0.00439405 -0.230884 -3.26633e-05  0.00404596 -0.238065 -2.96235e-05  0.00369239 -0.245258 -2.63453e-05  0.00333071 -0.252462 -2.3365e-05  0.00296378 -0.259672 -2.18749e-05  0.00258946 -0.266886 -1.91927e-05  0.0022099 -0.274104 -1.62125e-05  0.00182581 -0.281321 -1.34706e-05  0.00143743 -0.288537 -1.17421e-05  0.00104523 -0.295747 -1.03116e-05  0.000648975 -0.302954 -9.0003e-06  0.000252008 -0.310154 -6.3777e-06  -0.000148296 -0.317345 -5.30481e-06  -0.000550747 -0.324528 -4.11272e-06  -0.000954151 -0.331702 -2.68221e-06  -0.00135732 -0.338864 -2.6226e-06  -0.00176287 -0.346015 -1.19209e-06  -0.00216746 -0.353154 2.38419e-07  -0.00257134 -0.36028 1.13249e-06  0 0 0  0.000197113 -0.000519395 -9.89437e-05  0.00065577 -0.00147814 -0.00018394  0.00130107 -0.00280643 -0.000252545  0.0020684 -0.00444573 -0.00030452  0.00290501 -0.00636142 -0.000341952  0.00377139 -0.00853598 -0.000366509  0.00463903 -0.0109581 -0.000380933  0.00548857 -0.013624 -0.000385404  0.00630772 -0.0165265 -0.000384748  0.00708932 -0.019662 -0.000379026  0.00783044 -0.0230259 -0.000370681  0.00852531 -0.0266131 -0.000360191  0.00917655 -0.0304167 -0.000348628  0.00978285 -0.0344302 -0.00033617  0.0103452 -0.0386471 -0.000323474  0.0108637 -0.0430596 -0.00031054  0.0113395 -0.0476594 -0.000298619  0.0117737 -0.0524399 -0.000285983  0.0121678 -0.0573924 -0.000273943  0.0125226 -0.0625093 -0.000261784  0.0128382 -0.067784 -0.000249743  0.0131174 -0.0732081 -0.00023973  0.0133594 -0.0787731 -0.000228226  0.0135661 -0.0844734 -0.00021714  0.0137393 -0.0903009 -0.000207186  0.0138775 -0.0962481 -0.000196815  0.0139849 -0.10231 -0.000186861  0.0140616 -0.108479 -0.000177324  0.0141072 -0.114748 -0.000167549  0.0141243 -0.12111 -0.00015825  0.0141141 -0.127562 -0.00014919  0.0140746 -0.134095 -0.000142097  0.0140119 -0.140704 -0.000133038  0.0139246 -0.147385 -0.000125051  0.0138111 -0.154132 -0.000117481  0.0136762 -0.160937 -0.000109315  0.01352 -0.167798 -0.000102401  0.0133433 -0.174712 -9.52482e-05  0.0131474 -0.181669 -8.80957e-05  0.0129321 -0.188668 -8.18372e-05  0.0126998 -0.195705 -7.52807e-05  0.0124512 -0.202776 -6.96182e-05  0.0121856 -0.209874 -6.30617e-05  0.0119069 -0.216999 -5.76973e-05  0.011615 -0.224146 -5.26309e-05  0.0113075 -0.231311 -4.70281e-05  0.0109911 -0.238491 -4.26769e-05  0.0106626 -0.245684 -3.77297e-05  0.0103235 -0.252888 -3.45707e-05  0.00997591 -0.260095 -3.05176e-05  0.00962019 -0.267309 -2.57492e-05  0.00925589 -0.274525 -2.21729e-05  0.00888538 -0.281741 -1.93715e-05  0.00850701 -0.288955 -1.68681e-05  0.00812531 -0.296166 -1.45435e-05  0.00773907 -0.30337 -1.18613e-05  0.00734663 -0.310568 -9.47714e-06  0.00695181 -0.31776 -7.09295e-06  0.00655532 -0.324941 -5.66244e-06  0.0061543 -0.332113 -4.11272e-06  0.00575495 -0.339275 -1.72853e-06  0.00535154 -0.346426 -1.49012e-06  0.00494933 -0.353567 -2.38419e-07  0.00454664 -0.360694 5.96046e-07  0 0 0  0.000273727 -0.000771523 -0.000130296  0.000908256 -0.0018965 -0.000243306  0.00179116 -0.0033257 -0.000335038  0.00282878 -0.0050199 -0.000405967  0.00395063 -0.00695795 -0.000457227  0.00510639 -0.00913471 -0.000489652  0.00626117 -0.0115483 -0.000507832  0.00739133 -0.014199 -0.000515223  0.00848377 -0.0170866 -0.000513673  0.00953043 -0.0202073 -0.000506043  0.0105267 -0.023559 -0.000494838  0.0114694 -0.0271347 -0.000480592  0.0123583 -0.0309291 -0.000465631  0.0131907 -0.0349351 -0.000448823  0.0139704 -0.0391451 -0.000431895  0.0146979 -0.0435523 -0.000415087  0.0153753 -0.0481483 -0.000397742  0.0160016 -0.0529249 -0.000380814  0.0165795 -0.057875 -0.000365257  0.0171087 -0.06299 -0.000348747  0.0175922 -0.0682626 -0.000333905  0.0180304 -0.073685 -0.000318229  0.0184244 -0.0792494 -0.000303507  0.018778 -0.0849482 -0.000288248  0.0190881 -0.0907745 -0.000275671  0.019359 -0.0967219 -0.000261307  0.0195899 -0.102783 -0.000247836  0.0197837 -0.108951 -0.00023514  0.0199426 -0.115219 -0.000223279  0.0200644 -0.121582 -0.000210702  0.0201524 -0.128031 -0.000197887  0.0202084 -0.134563 -0.000187278  0.0202324 -0.141172 -0.000176489  0.0202286 -0.147851 -0.000165164  0.0201919 -0.154595 -0.000155091  0.0201318 -0.1614 -0.000144839  0.0200403 -0.168261 -0.000134408  0.0199275 -0.175171 -0.000124991  0.019789 -0.182127 -0.000116229  0.0196278 -0.189125 -0.000107229  0.019444 -0.196161 -9.88841e-05  0.0192404 -0.203228 -9.05991e-05  0.0190175 -0.210325 -8.25524e-05  0.0187762 -0.217447 -7.64132e-05  0.018518 -0.224592 -6.81281e-05  0.0182426 -0.231754 -6.13332e-05  0.0179536 -0.238933 -5.56111e-05  0.0176494 -0.246124 -4.91738e-05  0.017334 -0.253323 -4.41074e-05  0.0170057 -0.26053 -3.92199e-05  0.0166647 -0.267742 -3.41535e-05  0.0163171 -0.274955 -2.85506e-05  0.0159571 -0.282168 -2.49743e-05  0.0155909 -0.28938 -2.18749e-05  0.0152175 -0.296588 -1.70469e-05  0.014838 -0.303791 -1.52588e-05  0.0144532 -0.310988 -1.16229e-05  0.0140634 -0.318177 -8.9407e-06  0.01367 -0.325357 -7.56979e-06  0.0132713 -0.332526 -5.00679e-06  0.0128725 -0.339688 -2.5034e-06  0.0124702 -0.34684 -1.3113e-06  0.0120687 -0.35398 -1.19209e-07  0.0116673 -0.361112 3.39746e-06  0 0 0  0.00036402 -0.00112933 -0.000162065  0.00120756 -0.00247139 -0.000302672  0.0023562 -0.00402117 -0.000418842  0.0036853 -0.00576812 -0.000508487  0.00510216 -0.00771916 -0.000571847  0.00654826 -0.00988704 -0.000612676  0.0079869 -0.0122828 -0.000635684  0.00939494 -0.0149111 -0.000644326  0.0107548 -0.0177766 -0.000642836  0.0120622 -0.0208768 -0.000633895  0.0133091 -0.0242093 -0.000619829  0.0144932 -0.0277686 -0.000602245  0.0156136 -0.0315489 -0.000582993  0.0166733 -0.0355422 -0.000562012  0.017668 -0.0397421 -0.000540733  0.0186034 -0.0441409 -0.000519454  0.0194781 -0.0487288 -0.000497878  0.020295 -0.0534992 -0.000477433  0.0210536 -0.0584424 -0.00045681  0.0217582 -0.0635523 -0.000436246  0.0224063 -0.0688199 -0.000417709  0.0230031 -0.0742376 -0.000398457  0.0235493 -0.0797973 -0.000379443  0.0240453 -0.0854921 -0.000361383  0.0244929 -0.0913152 -0.000344276  0.0248926 -0.0972586 -0.000326812  0.0252471 -0.103316 -0.000310123  0.0255586 -0.109479 -0.000293791  0.0258255 -0.115744 -0.000278234  0.0260522 -0.122103 -0.000262678  0.0262392 -0.128549 -0.000247419  0.0263877 -0.135077 -0.000234187  0.026499 -0.141682 -0.000219941  0.0265753 -0.148358 -0.000206053  0.0266156 -0.155099 -0.000193298  0.0266254 -0.161901 -0.000180125  0.0266011 -0.168757 -0.000167727  0.0265479 -0.175663 -0.000156164  0.0264671 -0.182615 -0.000144362  0.0263572 -0.18961 -0.000133634  0.0262227 -0.19664 -0.000123203  0.026063 -0.203704 -0.000113368  0.0258791 -0.210798 -0.000103056  0.0256751 -0.217916 -9.39369e-05  0.02545 -0.225056 -8.52346e-05  0.0252042 -0.232214 -7.62343e-05  0.0249405 -0.239389 -6.83069e-05  0.0246606 -0.246575 -6.1512e-05  0.0243635 -0.253771 -5.45979e-05  0.0240533 -0.260974 -4.76837e-05  0.0237296 -0.268182 -4.17233e-05  0.0233934 -0.275393 -3.5882e-05  0.0230482 -0.282603 -3.09944e-05  0.0226891 -0.28981 -2.65837e-05  0.0223246 -0.297016 -2.17557e-05  0.0219495 -0.304217 -1.70469e-05  0.0215693 -0.311411 -1.46627e-05  0.0211833 -0.318597 -1.15037e-05  0.0207911 -0.325774 -8.28505e-06  0.0203962 -0.332943 -5.90086e-06  0.0199976 -0.340103 -4.17233e-06  0.0195975 -0.347254 -1.43051e-06  0.0191946 -0.354396 5.36442e-07  0.0187936 -0.361529 1.84774e-06  0 0 0  0.000484236 -0.00163287 -0.000193179  0.00158226 -0.0032441 -0.000363052  0.00304113 -0.00491822 -0.000504255  0.00468057 -0.00670075 -0.000611424  0.00639552 -0.00864625 -0.000687182  0.00813043 -0.0107901 -0.000736177  0.00984597 -0.013154 -0.000763535  0.0115207 -0.0157524 -0.000773907  0.0131428 -0.0185879 -0.000772655  0.0147024 -0.0216619 -0.000761509  0.0161947 -0.0249708 -0.000744522  0.0176176 -0.0285092 -0.000723958  0.0189683 -0.0322719 -0.000701249  0.0202467 -0.0362501 -0.000676453  0.0214559 -0.0404363 -0.000650644  0.0225952 -0.0448219 -0.000625134  0.0236652 -0.0493987 -0.00059998  0.0246699 -0.0541586 -0.00057435  0.0256088 -0.0590936 -0.000549555  0.0264831 -0.064194 -0.000525475  0.0272977 -0.0694531 -0.000502467  0.0280511 -0.0748629 -0.000479639  0.0287457 -0.0804151 -0.00045675  0.0293839 -0.0861033 -0.000434697  0.0299658 -0.09192 -0.000412643  0.0304937 -0.0978559 -0.00039345  0.0309705 -0.103906 -0.000373125  0.0313959 -0.110063 -0.000354171  0.0317727 -0.116322 -0.000334203  0.0321007 -0.122674 -0.000316262  0.0323852 -0.129114 -0.000298083  0.0326242 -0.135637 -0.000280499  0.0328193 -0.142235 -0.000264227  0.0329747 -0.148905 -0.000247717  0.0330913 -0.15564 -0.000231385  0.0331686 -0.162434 -0.000215888  0.0332108 -0.169285 -0.00020057  0.0332158 -0.176184 -0.00018692  0.0331895 -0.183132 -0.000173032  0.0331321 -0.190119 -0.000160158  0.0330429 -0.197144 -0.000146985  0.0329261 -0.204202 -0.000135362  0.0327816 -0.211288 -0.000123918  0.0326107 -0.218402 -0.000111878  0.0324159 -0.225536 -0.000101209  0.0321977 -0.23269 -9.11355e-05  0.0319591 -0.239858 -8.2016e-05  0.031702 -0.247039 -7.33137e-05  0.0314231 -0.25423 -6.42538e-05  0.0311298 -0.261428 -5.68032e-05  0.0308201 -0.268631 -4.88162e-05  0.0304945 -0.275836 -4.18425e-05  0.0301561 -0.283042 -3.58224e-05  0.0298061 -0.290247 -3.05176e-05  0.0294471 -0.297447 -2.55108e-05  0.0290763 -0.304644 -2.00272e-05  0.0287011 -0.311835 -1.60933e-05  0.0283151 -0.319018 -1.29342e-05  0.027926 -0.326193 -9.53674e-06  0.0275311 -0.333359 -8.04663e-06  0.0271311 -0.340518 -4.82798e-06  0.0267317 -0.347668 -2.26498e-06  0.0263295 -0.354812 -2.38419e-07  0.0259271 -0.361949 1.01328e-06  0 0 0  0.000626512 -0.00234652 -0.000226796  0.00210007 -0.00428182 -0.000432014  0.00391775 -0.00603825 -0.000593781  0.00587082 -0.00781858 -0.000717282  0.00787401 -0.0097295 -0.000803649  0.00988045 -0.011831 -0.000859499  0.0118593 -0.014154 -0.000890732  0.0137911 -0.0167121 -0.00090313  0.0156648 -0.0195135 -0.000901759  0.0174704 -0.0225562 -0.00088948  0.0192016 -0.0258381 -0.000870228  0.0208563 -0.0293534 -0.00084585  0.0224323 -0.0330946 -0.000819623  0.0239293 -0.0370541 -0.000791192  0.0253483 -0.0412219 -0.000761449  0.0266895 -0.0455919 -0.000731766  0.0279539 -0.050155 -0.000702083  0.0291424 -0.0549016 -0.000672817  0.0302584 -0.0598234 -0.000643253  0.0313038 -0.0649124 -0.000614643  0.0322801 -0.0701606 -0.000587463  0.0331886 -0.0755593 -0.000560224  0.0340297 -0.0811018 -0.000534475  0.0348057 -0.0867794 -0.000509202  0.0355221 -0.0925854 -0.000483513  0.0361755 -0.098513 -0.000459969  0.0367717 -0.104553 -0.000436366  0.0373095 -0.110701 -0.000413716  0.0377927 -0.116951 -0.000390828  0.0382212 -0.123294 -0.000369668  0.0386001 -0.129725 -0.00034821  0.0389266 -0.136238 -0.00032717  0.0392075 -0.142829 -0.000308752  0.0394406 -0.14949 -0.000289083  0.0396285 -0.156216 -0.000270665  0.0397725 -0.163002 -0.000252604  0.0398779 -0.169844 -0.000234306  0.0399408 -0.176737 -0.000217915  0.0399673 -0.183674 -0.000202656  0.0399568 -0.190655 -0.000186861  0.0399127 -0.197671 -0.000171602  0.0398345 -0.204721 -0.000157893  0.0397272 -0.2118 -0.000143528  0.0395896 -0.218904 -0.000130296  0.0394244 -0.226032 -0.000117719  0.0392318 -0.233178 -0.000106215  0.0390165 -0.240339 -9.47714e-05  0.0387774 -0.247514 -8.4281e-05  0.0385158 -0.254698 -7.50422e-05  0.0382371 -0.26189 -6.49095e-05  0.0379364 -0.269086 -5.71609e-05  0.0376222 -0.276286 -4.88162e-05  0.0372918 -0.283486 -4.10676e-05  0.036947 -0.290685 -3.51071e-05  0.0365906 -0.297882 -2.86698e-05  0.0362229 -0.305073 -2.3067e-05  0.0358458 -0.31226 -1.93715e-05  0.0354617 -0.319439 -1.50204e-05  0.0350707 -0.326611 -1.09076e-05  0.0346754 -0.333776 -8.28505e-06  0.034276 -0.340934 -5.60284e-06  0.0338724 -0.348082 -2.44379e-06  0.0334694 -0.355225 -1.07288e-06  0.0330639 -0.362366 1.96695e-06  0 0 0  0.00110625 -0.00347072 -0.000284851  0.00301577 -0.00560361 -0.000510514  0.0051392 -0.00736135 -0.000687897  0.00734895 -0.00909078 -0.000822306  0.00959203 -0.0109435 -0.000917852  0.0118323 -0.0129906 -0.000980079  0.0140495 -0.0152649 -0.00101614  0.0162234 -0.0177804 -0.00103086  0.0183355 -0.0205432 -0.00102878  0.0203778 -0.0235535 -0.00101548  0.0223426 -0.0268055 -0.000994802  0.0242275 -0.0302941 -0.000967324  0.0260244 -0.0340117 -0.000938773  0.0277352 -0.0379487 -0.000905335  0.0293583 -0.0420976 -0.000871778  0.0308979 -0.0464486 -0.000838339  0.0323529 -0.050994 -0.000804067  0.0337254 -0.0557237 -0.000769973  0.035017 -0.0606304 -0.000737071  0.0362287 -0.0657052 -0.000705123  0.0373627 -0.0709383 -0.000674188  0.0384233 -0.0763239 -0.000642657  0.0394098 -0.0818533 -0.000612676  0.0403244 -0.087518 -0.000583291  0.0411701 -0.0933117 -0.0005548  0.0419476 -0.0992251 -0.000527382  0.0426615 -0.105255 -0.000500441  0.0433104 -0.111391 -0.000474274  0.0438987 -0.117627 -0.000447869  0.0444241 -0.12396 -0.000423551  0.0448949 -0.13038 -0.000400066  0.0453095 -0.136883 -0.000375867  0.04567 -0.143461 -0.000353038  0.0459774 -0.15011 -0.000331461  0.0462348 -0.156826 -0.000308692  0.0464466 -0.163601 -0.000288248  0.0466082 -0.170433 -0.000268698  0.0467284 -0.177314 -0.000249386  0.0468061 -0.184242 -0.000231683  0.0468414 -0.191211 -0.000212967  0.0468388 -0.198218 -0.000196218  0.046798 -0.205258 -0.000180781  0.0467243 -0.212327 -0.000163794  0.0466189 -0.219424 -0.000148714  0.0464807 -0.226541 -0.000134647  0.0463104 -0.233678 -0.000121176  0.0461154 -0.24083 -0.00010848  0.045893 -0.247998 -9.58443e-05  0.0456462 -0.255174 -8.46386e-05  0.0453773 -0.262356 -7.43866e-05  0.0450888 -0.269546 -6.45518e-05  0.0447793 -0.276739 -5.50151e-05  0.0444536 -0.283931 -4.66704e-05  0.0441115 -0.291125 -3.91006e-05  0.0437553 -0.298315 -3.23653e-05  0.0433874 -0.305501 -2.69413e-05  0.0430105 -0.312682 -2.0802e-05  0.0426223 -0.31986 -1.65701e-05  0.0422299 -0.327029 -1.32322e-05  0.0418303 -0.334191 -8.76188e-06  0.0414264 -0.341345 -6.91414e-06  0.0410218 -0.348494 -5.06639e-06  0.0406168 -0.355639 -2.38419e-06  0.0402126 -0.362782 2.14577e-06  0 0 0  -0.00113414 -0.00325226 0.000608116  -0.00303636 -0.00521758 0.00107986  -0.00515068 -0.00684336 0.00145096  -0.0073577 -0.00845365 0.00173002  -0.00960737 -0.0101894 0.00192568  -0.0118698 -0.0121124 0.00205269  -0.0141178 -0.014257 0.00212273  -0.0163405 -0.0166353 0.00214842  -0.0185208 -0.0192533 0.00214022  -0.02065 -0.0221115 0.00210887  -0.022726 -0.0252045 0.00205946  -0.0247415 -0.0285281 0.00199777  -0.026697 -0.0320743 0.00193  -0.0285935 -0.035837 0.00185719  -0.0304301 -0.0398058 0.00178286  -0.032208 -0.043976 0.00170758  -0.0339286 -0.0483374 0.00163394  -0.0355949 -0.0528833 0.00156012  -0.0372065 -0.057605 0.00148889  -0.0387686 -0.0624953 0.00141969  -0.040279 -0.0675462 0.00135148  -0.0417415 -0.07275 0.00128675  -0.0431544 -0.0781015 0.00122321  -0.0445253 -0.0835908 0.00116163  -0.0458483 -0.0892143 0.00110224  -0.0471301 -0.0949621 0.00104463  -0.0483702 -0.100831 0.000987738  -0.0495682 -0.10681 0.000933468  -0.0507267 -0.112895 0.000881046  -0.0518441 -0.119082 0.000830591  -0.0529287 -0.125363 0.000780672  -0.0539708 -0.131733 0.000733227  -0.0549808 -0.138186 0.000687152  -0.0559535 -0.144717 0.000642747  -0.056891 -0.151319 0.000599265  -0.0577993 -0.157988 0.000557393  -0.0586705 -0.16472 0.000518888  -0.059514 -0.171507 0.000479728  -0.0603268 -0.178348 0.000442684  -0.0611095 -0.185239 0.000408351  -0.0618644 -0.192171 0.000372946  -0.0625908 -0.199142 0.000341237  -0.0632899 -0.206152 0.00031057  -0.0639634 -0.21319 0.000280619  -0.0646157 -0.220257 0.000252873  -0.0652411 -0.227351 0.00022611  -0.0658455 -0.234463 0.00020057  -0.0664279 -0.241595 0.000178725  -0.0669889 -0.248742 0.00015682  -0.0675325 -0.2559 0.000134885  -0.068058 -0.263067 0.000116289  -0.0685647 -0.270242 9.9957e-05  -0.0690572 -0.277422 8.39829e-05  -0.069535 -0.284604 6.91712e-05  -0.0700009 -0.291786 5.67734e-05  -0.070452 -0.298968 4.58062e-05  -0.0708952 -0.306147 3.56138e-05  -0.0713284 -0.313321 2.78056e-05  -0.0717547 -0.320491 2.11e-05  -0.0721736 -0.327654 1.45137e-05  -0.0725894 -0.334812 9.92417e-06  -0.0730014 -0.341963 5.69224e-06  -0.073415 -0.349109 2.71201e-06  -0.0738261 -0.356251 -1.66893e-06  0 0 0  -0.000637051 -0.00214108 0.000478297  -0.00209514 -0.0039207 0.000906646  -0.00388877 -0.00555167 0.00124589  -0.00582528 -0.00722039 0.00149933  -0.00782201 -0.00902382 0.00167599  -0.00983286 -0.0110172 0.00178975  -0.0118335 -0.0132267 0.00185162  -0.0138046 -0.0156679 0.0018737  -0.0157375 -0.0183453 0.00186634  -0.0176243 -0.0212593 0.00183681  -0.0194614 -0.0244072 0.00179267  -0.0212466 -0.0277825 0.00173855  -0.022979 -0.0313798 0.00167868  -0.0246592 -0.0351901 0.00161457  -0.0262885 -0.0392078 0.00154963  -0.0278684 -0.0434236 0.00148362  -0.0293998 -0.04783 0.0014191  -0.0308843 -0.0524188 0.00135532  -0.0323236 -0.0571826 0.00129208  -0.03372 -0.0621138 0.00123286  -0.0350744 -0.0672049 0.00117335  -0.036388 -0.0724494 0.0011166  -0.0376611 -0.0778383 0.00106132  -0.0388966 -0.0833656 0.00100791  -0.0400934 -0.0890233 0.000955999  -0.0412552 -0.0948069 0.000905722  -0.042382 -0.100708 0.000857711  -0.0434736 -0.106721 0.000810355  -0.0445324 -0.112839 0.000764757  -0.0455569 -0.119056 0.000720978  -0.0465508 -0.125366 0.000677526  -0.0475123 -0.131764 0.000636518  -0.0484447 -0.138244 0.000596225  -0.0493462 -0.144801 0.000557512  -0.0502195 -0.151429 0.00052017  -0.0510647 -0.158121 0.000484139  -0.0518825 -0.164875 0.000449926  -0.0526721 -0.171687 0.00041604  -0.0534384 -0.178547 0.000383228  -0.0541775 -0.185456 0.000353336  -0.054894 -0.192408 0.000324368  -0.0555866 -0.199397 0.000295788  -0.0562558 -0.206422 0.000269085  -0.0569019 -0.213478 0.000243932  -0.057528 -0.22056 0.000219733  -0.0581334 -0.227664 0.000196904  -0.0587201 -0.234792 0.000175029  -0.0592895 -0.241934 0.000155032  -0.05984 -0.249091 0.000135422  -0.060374 -0.256259 0.000118017  -0.0608912 -0.263436 0.000102162  -0.0613935 -0.270619 8.62479e-05  -0.0618834 -0.277805 7.31349e-05  -0.0623591 -0.284994 6.05881e-05  -0.0628259 -0.292181 4.92334e-05  -0.0632796 -0.299368 3.98159e-05  -0.0637248 -0.30655 3.15607e-05  -0.0641615 -0.313729 2.38419e-05  -0.0645921 -0.3209 1.76132e-05  -0.0650165 -0.328064 1.2666e-05  -0.065434 -0.335222 8.52346e-06  -0.06585 -0.342373 3.66569e-06  -0.0662644 -0.349516 -2.38419e-07  -0.0666778 -0.356657 -4.82798e-06  0 0 0  -0.000480734 -0.00144144 0.000403583  -0.00155696 -0.00291248 0.000755668  -0.00298683 -0.00447193 0.00104889  -0.00459865 -0.00615258 0.00126979  -0.00629497 -0.00800127 0.00142494  -0.00802284 -0.0100488 0.00152442  -0.00974989 -0.0123166 0.00157815  -0.0114556 -0.0148148 0.00159609  -0.0131291 -0.0175479 0.00159076  -0.0147639 -0.0205139 0.00156567  -0.0163561 -0.0237114 0.00152713  -0.0179051 -0.027135 0.00148052  -0.0194088 -0.0307781 0.00142857  -0.0208694 -0.0346331 0.00137421  -0.0222878 -0.0386933 0.00131828  -0.0236654 -0.0429503 0.00126189  -0.0250044 -0.047397 0.00120649  -0.0263046 -0.0520253 0.0011518  -0.0275674 -0.0568278 0.00109863  -0.0287964 -0.0617961 0.00104758  -0.0299907 -0.0669239 0.000997126  -0.0311515 -0.0722026 0.000948519  -0.0322815 -0.0776263 0.000901848  -0.0333796 -0.0831877 0.000855893  -0.0344476 -0.0888786 0.000812143  -0.0354861 -0.0946931 0.000770152  -0.0364964 -0.100625 0.000728816  -0.0374782 -0.106668 0.000688553  -0.0384327 -0.112814 0.000649244  -0.0393621 -0.11906 0.000611544  -0.040264 -0.125397 0.000575483  -0.041141 -0.131821 0.000540227  -0.0419936 -0.138326 0.000506282  -0.0428214 -0.144905 0.000473589  -0.0436254 -0.151556 0.000441492  -0.0444064 -0.158272 0.000411928  -0.0451653 -0.165047 0.000381887  -0.045902 -0.171877 0.000353336  -0.0466177 -0.178757 0.000326216  -0.0473108 -0.185684 0.000300288  -0.0479858 -0.192652 0.000275761  -0.0486398 -0.199659 0.000251085  -0.0492766 -0.206698 0.000228316  -0.0498946 -0.213768 0.000207126  -0.0504935 -0.220863 0.000186414  -0.0510769 -0.227981 0.000167847  -0.0516417 -0.235118 0.000149548  -0.0521934 -0.242272 0.000131786  -0.0527289 -0.249439 0.000115663  -0.0532494 -0.256616 0.000100076  -0.0537596 -0.263801 8.63373e-05  -0.0542533 -0.270991 7.39098e-05  -0.054738 -0.278185 6.24955e-05  -0.0552101 -0.285379 5.17964e-05  -0.0556731 -0.292573 4.23491e-05  -0.0561264 -0.299763 3.40343e-05  -0.0565708 -0.306949 2.75671e-05  -0.0570102 -0.314129 2.13385e-05  -0.0574412 -0.321303 1.54376e-05  -0.0578666 -0.32847 1.05202e-05  -0.0582874 -0.335628 6.07967e-06  -0.0587046 -0.342778 3.39746e-06  -0.0591197 -0.349922 -1.01328e-06  -0.0595343 -0.357059 -3.93391e-06  0 0 0  -0.000354733 -0.000963733 0.000334859  -0.00117057 -0.00217986 0.000625432  -0.00228257 -0.00362562 0.000863999  -0.00357577 -0.00528096 0.00104809  -0.00496608 -0.00714664 0.0011777  -0.00639862 -0.00923134 0.00126085  -0.00783989 -0.0115445 0.00130621  -0.00926927 -0.0140902 0.00132269  -0.0106744 -0.0168703 0.00131729  -0.0120512 -0.0198833 0.00129673  -0.0133922 -0.0231253 0.00126436  -0.0146996 -0.0265912 0.0012258  -0.0159718 -0.0302749 0.00118184  -0.0172088 -0.0341694 0.00113621  -0.0184142 -0.0382675 0.00109011  -0.019587 -0.0425619 0.00104287  -0.0207281 -0.047044 0.000997543  -0.0218415 -0.051707 0.000951946  -0.0229266 -0.0565436 0.000907004  -0.0239837 -0.0615454 0.000865012  -0.0250161 -0.0667051 0.000823855  -0.0260229 -0.0720165 0.000783384  -0.0270038 -0.0774705 0.000744849  -0.0279619 -0.0830617 0.000706941  -0.0288976 -0.0887825 0.000670373  -0.0298111 -0.0946255 0.000635177  -0.0307031 -0.100585 0.000601172  -0.0315714 -0.106655 0.000567853  -0.0324215 -0.112828 0.000535667  -0.0332518 -0.119098 0.000504822  -0.034059 -0.125459 0.000474989  -0.0348481 -0.131907 0.000445902  -0.0356183 -0.138434 0.000417888  -0.0363698 -0.145036 0.000390381  -0.0371025 -0.151707 0.000364661  -0.037817 -0.158442 0.00033915  -0.0385141 -0.165235 0.00031516  -0.0391943 -0.172084 0.000291556  -0.0398569 -0.178982 0.000269175  -0.0405028 -0.185924 0.0002473  -0.0411339 -0.192909 0.000226915  -0.041749 -0.19993 0.00020805  -0.0423486 -0.206983 0.000189275  -0.0429323 -0.214064 0.000170946  -0.0435028 -0.221172 0.00015384  -0.0440605 -0.228302 0.000137597  -0.0446036 -0.235449 0.000123203  -0.0451353 -0.242612 0.000108361  -0.0456538 -0.249788 9.5576e-05  -0.0461602 -0.256973 8.33869e-05  -0.0466559 -0.264166 7.14362e-05  -0.0471425 -0.271363 6.13928e-05  -0.0476182 -0.278562 5.20051e-05  -0.0480847 -0.285762 4.3571e-05  -0.0485437 -0.29296 3.5882e-05  -0.0489926 -0.300155 2.84314e-05  -0.0494363 -0.307344 2.26498e-05  -0.0498743 -0.314527 1.7494e-05  -0.050303 -0.321703 1.21593e-05  -0.0507298 -0.328871 8.61287e-06  -0.0511506 -0.336031 4.82798e-06  -0.0515676 -0.343181 1.19209e-06  -0.0519834 -0.350324 -1.99676e-06  -0.052397 -0.357457 -4.52995e-06  0 0 0  -0.000260733 -0.000634789 0.000268042  -0.000864215 -0.00165078 0.00049895  -0.0017058 -0.00298959 0.000687599  -0.00270137 -0.00460291 0.000832051  -0.00379077 -0.00646633 0.000935853  -0.00492382 -0.00857307 0.0010027  -0.00607532 -0.0109185 0.00103891  -0.00722137 -0.0135016 0.0010519  -0.00835323 -0.0163212 0.00104791  -0.00946456 -0.0193739 0.00103104  -0.0105518 -0.022654 0.00100544  -0.0116131 -0.0261562 0.000974476  -0.0126485 -0.0298758 0.000939429  -0.0136605 -0.0338041 0.000902891  -0.0146478 -0.0379356 0.00086534  -0.015613 -0.042262 0.000828385  -0.0165566 -0.0467754 0.000791639  -0.0174798 -0.0514696 0.000755578  -0.0183817 -0.0563357 0.000720352  -0.0192672 -0.0613664 0.000686079  -0.0201347 -0.0665553 0.00065282  -0.0209839 -0.0718938 0.000620544  -0.0218165 -0.0773759 0.000590503  -0.0226322 -0.0829928 0.000560194  -0.023433 -0.0887396 0.000530273  -0.0242194 -0.094609 0.000502378  -0.0249888 -0.100592 0.000475824  -0.0257449 -0.106686 0.000449657  -0.0264847 -0.112882 0.000423759  -0.0272123 -0.119175 0.000398993  -0.0279247 -0.125558 0.000376016  -0.0286243 -0.132026 0.000353396  -0.0293095 -0.138573 0.000329822  -0.0299819 -0.145194 0.000307739  -0.0306404 -0.151883 0.000287563  -0.031285 -0.158636 0.000268459  -0.0319197 -0.165447 0.000249118  -0.0325391 -0.17231 0.000230789  -0.0331478 -0.179225 0.000212669  -0.0337439 -0.186183 0.000195503  -0.034327 -0.19318 0.000178546  -0.0349011 -0.200212 0.000163347  -0.0354629 -0.207278 0.000149816  -0.0360129 -0.214372 0.000135034  -0.0365531 -0.22149 0.000121176  -0.037082 -0.228629 0.000108987  -0.0375998 -0.235786 9.66787e-05  -0.03811 -0.242958 8.54135e-05  -0.03861 -0.250141 7.65324e-05  -0.0391009 -0.257334 6.55949e-05  -0.039582 -0.264533 5.61476e-05  -0.040055 -0.271735 4.80413e-05  -0.0405214 -0.27894 4.03523e-05  -0.0409784 -0.286145 3.45409e-05  -0.04143 -0.293347 2.7895e-05  -0.0418754 -0.300545 2.16663e-05  -0.0423145 -0.307738 1.77324e-05  -0.0427487 -0.314924 1.42157e-05  -0.0431769 -0.322102 9.71556e-06  -0.043602 -0.329272 6.82473e-06  -0.0440209 -0.336433 3.27826e-06  -0.0444386 -0.343584 2.98023e-07  -0.044853 -0.350724 -2.08616e-06  -0.0452685 -0.357854 -4.32134e-06  0 0 0  -0.000183377 -0.000412554 0.00020206  -0.0006072 -0.00128275 0.000373632  -0.00120671 -0.00253469 0.000513852  -0.00192855 -0.00410563 0.000621796  -0.00272512 -0.00595996 0.000697702  -0.00356612 -0.008077 0.000748008  -0.00442365 -0.0104453 0.000775844  -0.00528407 -0.0130574 0.00078547  -0.00613898 -0.015908 0.000782102  -0.00698268 -0.0189918 0.000769317  -0.00781077 -0.0223031 0.000750452  -0.00862414 -0.0258364 0.00072664  -0.00942057 -0.0295846 0.000700533  -0.0102036 -0.0335425 0.000673056  -0.0109705 -0.0377017 0.000644714  -0.0117264 -0.042055 0.000616521  -0.0124692 -0.0465963 0.000588804  -0.0132003 -0.0513155 0.000561357  -0.0139205 -0.0562073 0.000534773  -0.0146307 -0.0612637 0.000509828  -0.0153304 -0.066477 0.000484407  -0.0160199 -0.07184 0.000461072  -0.0167024 -0.0773453 0.000437319  -0.0173739 -0.0829859 0.000415534  -0.0180377 -0.0887547 0.000394344  -0.0186937 -0.0946451 0.000372559  -0.019341 -0.100651 0.000352025  -0.0199798 -0.106765 0.000332475  -0.0206109 -0.112981 0.000313699  -0.0212338 -0.119293 0.000295252  -0.0218501 -0.125695 0.00027734  -0.0224559 -0.132182 0.000260562  -0.023056 -0.138746 0.000243992  -0.0236478 -0.145384 0.00022766  -0.024229 -0.15209 0.000212938  -0.0248046 -0.158857 0.00019747  -0.025373 -0.165683 0.000183105  -0.0259316 -0.172562 0.000169635  -0.026484 -0.179488 0.000156283  -0.0270269 -0.186458 0.000144482  -0.0275636 -0.193468 0.000132471  -0.0280924 -0.200511 0.000120401  -0.0286136 -0.207587 0.000109136  -0.0291271 -0.214691 9.88245e-05  -0.0296345 -0.221819 8.87811e-05  -0.0301328 -0.228966 7.9751e-05  -0.0306265 -0.236131 7.11381e-05  -0.0311115 -0.243309 6.27935e-05  -0.0315895 -0.2505 5.47171e-05  -0.0320621 -0.257699 4.73857e-05  -0.0325284 -0.264904 4.05312e-05  -0.0329876 -0.272112 3.47197e-05  -0.0334425 -0.279321 3.00705e-05  -0.0338907 -0.286529 2.56896e-05  -0.0343335 -0.293735 2.09212e-05  -0.0347726 -0.300937 1.63913e-05  -0.0352058 -0.308132 1.24574e-05  -0.0356355 -0.315321 9.65595e-06  -0.0360589 -0.322501 7.18236e-06  -0.0364835 -0.329673 4.55976e-06  -0.036901 -0.336835 1.84774e-06  -0.0373178 -0.343986 2.08616e-07  -0.03773 -0.351125 -2.29478e-06  -0.0381441 -0.358253 -4.35114e-06  0 0 0  -0.000114162 -0.000273138 0.000134796  -0.000379659 -0.00104663 0.0002487  -0.000759616 -0.00223529 0.000341743  -0.00122328 -0.00377458 0.00041312  -0.00174016 -0.00561976 0.000463814  -0.00229043 -0.00774199 0.000497043  -0.00285813 -0.010126 0.000515521  -0.00343284 -0.0127587 0.000522017  -0.00400788 -0.0156324 0.000519812  -0.00458068 -0.0187404 0.00051105  -0.00514817 -0.0220764 0.000497729  -0.00571054 -0.0256343 0.000481933  -0.0062654 -0.0294068 0.00046435  -0.00681823 -0.0333876 0.00044632  -0.00736535 -0.0375698 0.000426918  -0.00790811 -0.0419458 0.000407338  -0.0084486 -0.0465077 0.000388592  -0.008986 -0.0512495 0.000370473  -0.00952125 -0.0561632 0.000353307  -0.0100549 -0.0612409 0.00033623  -0.0105869 -0.0664741 0.000318438  -0.0111172 -0.0718573 0.000303119  -0.0116456 -0.0773824 0.000287563  -0.012172 -0.0830429 0.000272155  -0.0126983 -0.0888304 0.00025773  -0.0132232 -0.0947405 0.000243425  -0.0137453 -0.100764 0.000230193  -0.0142666 -0.106896 0.000217617  -0.0147866 -0.113128 0.000204861  -0.0153036 -0.119458 0.000192851  -0.0158187 -0.125876 0.000181317  -0.0163326 -0.132378 0.000169039  -0.0168428 -0.138958 0.00015834  -0.0173516 -0.145609 0.000147402  -0.0178578 -0.152328 0.000136942  -0.0183601 -0.159109 0.000127673  -0.0188613 -0.165947 0.000118494  -0.0193584 -0.172838 0.000109166  -0.0198519 -0.179774 0.000100017  -0.0203426 -0.186755 9.30429e-05  -0.0208299 -0.193774 8.42214e-05  -0.0213141 -0.200828 7.67112e-05  -0.0217924 -0.207914 6.97374e-05  -0.0222688 -0.215025 6.30319e-05  -0.0227396 -0.22216 5.6982e-05  -0.0232093 -0.229315 5.0813e-05  -0.0236738 -0.236486 4.51803e-05  -0.0241334 -0.243672 3.95179e-05  -0.0245898 -0.250868 3.46601e-05  -0.0250421 -0.258071 3.00407e-05  -0.0254905 -0.26528 2.59578e-05  -0.0259352 -0.272493 2.18451e-05  -0.0263774 -0.279706 1.8239e-05  -0.0268145 -0.286917 1.54674e-05  -0.0272491 -0.294127 1.27554e-05  -0.0276794 -0.301331 1.01626e-05  -0.028106 -0.308529 7.53999e-06  -0.0285311 -0.315719 5.27501e-06  -0.0289516 -0.322901 4.02331e-06  -0.0293701 -0.330074 2.29478e-06  -0.0297868 -0.337236 6.25849e-07  -0.0302012 -0.344387 -3.57628e-07  -0.0306137 -0.351527 -1.10269e-06  -0.0310247 -0.358653 -2.29478e-06  0 0 0  -5.11184e-05 -0.000200897 6.64294e-05  -0.000170894 -0.000922143 0.000123829  -0.000344917 -0.00207776 0.000169516  -0.000559807 -0.00359851 0.000205576  -0.000804305 -0.00543848 0.000231534  -0.00106931 -0.00756609 0.000247627  -0.001349 -0.00996011 0.000257671  -0.00163713 -0.0126077 0.000260323  -0.00193286 -0.0154981 0.000259638  -0.00223356 -0.0186238 0.000255078  -0.00253791 -0.0219769 0.000248551  -0.00284833 -0.0255533 0.000239938  -0.0031631 -0.0293437 0.0002307  -0.0034833 -0.0333422 0.000221014  -0.0038082 -0.037542 0.00021103  -0.00413841 -0.0419354 0.000200868  -0.00447547 -0.0465154 0.000190735  -0.0048182 -0.0512743 0.000181437  -0.00516856 -0.056205 0.00017184  -0.00552344 -0.0612981 0.000163049  -0.00588655 -0.0665486 0.000154376  -0.00625539 -0.071949 0.000146657  -0.00663006 -0.0774907 0.000138402  -0.00700986 -0.0831667 0.000130475  -0.00739706 -0.0889704 0.000123382  -0.00778878 -0.0948951 0.00011602  -0.00818694 -0.100934 0.000108957  -0.00858784 -0.10708 0.00010258  -0.00899506 -0.113327 9.62019e-05  -0.00940681 -0.11967 9.01818e-05  -0.00982201 -0.126101 8.48174e-05  -0.0102412 -0.132615 7.9006e-05  -0.0106626 -0.139208 7.38502e-05  -0.0110881 -0.145872 6.80089e-05  -0.0115163 -0.1526 6.27935e-05  -0.0119457 -0.159392 5.82635e-05  -0.0123777 -0.166241 5.47171e-05  -0.0128121 -0.173141 4.94421e-05  -0.0132456 -0.180088 4.50015e-05  -0.0136817 -0.187076 4.15444e-05  -0.0141184 -0.194104 3.72529e-05  -0.0145555 -0.201166 3.35276e-05  -0.0149906 -0.208258 3.03686e-05  -0.0154295 -0.215375 2.70009e-05  -0.015867 -0.222516 2.40505e-05  -0.0163009 -0.229677 2.13087e-05  -0.0167353 -0.236855 1.95503e-05  -0.0171714 -0.244045 1.66893e-05  -0.0176036 -0.251245 1.40071e-05  -0.0180352 -0.258452 1.2666e-05  -0.018466 -0.265665 1.0103e-05  -0.0188951 -0.272881 7.86781e-06  -0.0193214 -0.280096 6.58631e-06  -0.0197487 -0.287311 5.42402e-06  -0.0201728 -0.294522 4.41074e-06  -0.0205956 -0.301728 3.01003e-06  -0.0210147 -0.308927 2.17557e-06  -0.0214336 -0.31612 1.81794e-06  -0.0218501 -0.323303 1.3113e-06  -0.0222652 -0.330477 1.49012e-07  -0.0226784 -0.337639 5.96046e-08  -0.0230901 -0.34479 -1.04308e-06  -0.0235009 -0.351929 -7.15256e-07  -0.0239093 -0.359052 -6.85453e-07  0 0 0  8.61287e-06 -0.000187635 -1.87755e-06  3.0607e-05 -0.000899613 -1.75834e-06  5.67436e-05 -0.00204965 -1.69873e-06  8.29697e-05 -0.00356969 -7.7486e-07  0.000106722 -0.00541177 -2.38419e-07  0.000123709 -0.00754514 3.27826e-07  0.000131756 -0.00994721 1.01328e-06  0.000128627 -0.0126044 1.37091e-06  0.000112355 -0.0155053 1.99676e-06  8.35657e-05 -0.0186417 0  4.10676e-05 -0.0220071 5.96046e-08  -1.63913e-05 -0.0255942 -5.96046e-07  -8.73804e-05 -0.0293972 -1.75834e-06  -0.000176191 -0.0334073 -2.38419e-06  -0.000278652 -0.0376194 -3.93391e-06  -0.000396073 -0.0420263 -5.33462e-06  -0.000529647 -0.0466188 -5.63264e-06  -0.000677824 -0.0513913 -6.3777e-06  -0.000841141 -0.0563336 -7.18236e-06  -0.00101972 -0.0614403 -8.31485e-06  -0.00121164 -0.0667043 -8.70228e-06  -0.00141847 -0.0721165 -9.47714e-06  -0.00163829 -0.0776706 -1.0103e-05  -0.00187087 -0.0833595 -1.01626e-05  -0.00211895 -0.0891757 -1.0699e-05  -0.00237715 -0.0951125 -1.09375e-05  -0.00264895 -0.101162 -1.11759e-05  -0.00293148 -0.107321 -1.12653e-05  -0.00322497 -0.113579 -1.16229e-05  -0.00352967 -0.119931 -1.08778e-05  -0.0038439 -0.126374 -1.12653e-05  -0.00416756 -0.132898 -1.055e-05  -0.00449967 -0.139499 -1.15037e-05  -0.00484085 -0.146172 -1.18613e-05  -0.0051899 -0.152911 -1.11759e-05  -0.00554609 -0.159711 -1.12355e-05  -0.00590777 -0.166566 -1.03712e-05  -0.00627851 -0.173474 -1.04606e-05  -0.00665188 -0.180428 -1.05202e-05  -0.00703311 -0.187423 -1.02222e-05  -0.00741816 -0.194457 -9.14931e-06  -0.00780797 -0.201524 -8.82149e-06  -0.00820327 -0.208621 -9.0301e-06  -0.00859904 -0.215745 -8.07643e-06  -0.00900149 -0.22289 -8.19564e-06  -0.00940466 -0.230055 -7.59959e-06  -0.00980973 -0.237235 -6.85453e-06  -0.0102165 -0.244429 -6.61612e-06  -0.0106266 -0.251632 -6.16908e-06  -0.0110371 -0.258842 -5.54323e-06  -0.0114486 -0.266059 -5.30481e-06  -0.0118608 -0.273275 -5.00679e-06  -0.012274 -0.280493 -4.23193e-06  -0.0126882 -0.28771 -3.12924e-06  -0.0131011 -0.294922 -4.11272e-06  -0.0135136 -0.302129 -3.15905e-06  -0.0139267 -0.309331 -3.12924e-06  -0.0143402 -0.316524 -2.89083e-06  -0.0147512 -0.323708 -2.95043e-06  -0.0151622 -0.330882 -1.37091e-06  -0.0155723 -0.338044 -1.2219e-06  -0.015981 -0.345195 -1.2815e-06  -0.0163894 -0.352333 -1.2517e-06  -0.0167964 -0.359458 8.9407e-08  0 0 0  6.90296e-05 -0.000229955 -6.91414e-05  0.000230238 -0.000974238 -0.000127137  0.000457048 -0.00214803 -0.000173151  0.00072512 -0.00368339 -0.000206441  0.00101727 -0.00553733 -0.000230312  0.00131488 -0.00767851 -0.00024575  0.00160873 -0.010086 -0.000254065  0.00188988 -0.0127475 -0.000257432  0.00215429 -0.0156527 -0.000255764  0.00239599 -0.0187946 -0.000252783  0.00261456 -0.0221653 -0.000247151  0.00280929 -0.0257583 -0.000240684  0.00297928 -0.0295666 -0.000233054  0.00312459 -0.0335844 -0.000225693  0.00324255 -0.0378042 -0.000217527  0.00333881 -0.042218 -0.000210345  0.00340974 -0.0468195 -0.00020203  0.00345576 -0.0515999 -0.00019443  0.00347877 -0.0565526 -0.000187129  0.00347877 -0.0616677 -0.000179619  0.00345445 -0.0669407 -0.000171423  0.00341058 -0.0723614 -0.000165135  0.00334466 -0.0779245 -0.000158429  0.00325835 -0.083623 -0.000151545  0.00315225 -0.0894474 -0.000144184  0.00302672 -0.0953932 -0.000138223  0.00288308 -0.101452 -0.00013116  0.00271904 -0.107618 -0.000125319  0.00253808 -0.113884 -0.000119507  0.00234151 -0.120246 -0.000113368  0.00212872 -0.126694 -0.000107497  0.00190282 -0.133227 -0.000100791  0.00165892 -0.139834 -9.64999e-05  0.00140262 -0.146513 -9.05991e-05  0.00113368 -0.153259 -8.60095e-05  0.000849962 -0.160064 -7.9602e-05  0.000556707 -0.166927 -7.53701e-05  0.000251532 -0.173837 -7.00653e-05  -6.27041e-05 -0.180797 -6.55949e-05  -0.000389338 -0.187797 -6.13332e-05  -0.000724077 -0.194834 -5.67734e-05  -0.00106525 -0.201905 -5.23031e-05  -0.00141621 -0.209006 -4.87566e-05  -0.0017736 -0.216134 -4.43161e-05  -0.0021379 -0.223281 -4.02033e-05  -0.00250793 -0.230448 -3.62396e-05  -0.00288463 -0.237632 -3.25441e-05  -0.00326538 -0.244827 -3.03984e-05  -0.00365043 -0.252032 -2.75075e-05  -0.00403953 -0.259245 -2.39909e-05  -0.00443387 -0.266461 -2.12193e-05  -0.00482678 -0.273679 -1.90735e-05  -0.00522733 -0.280898 -1.62125e-05  -0.00562859 -0.288115 -1.40965e-05  -0.00603032 -0.295327 -1.18911e-05  -0.0064342 -0.302536 -1.03712e-05  -0.00683951 -0.309737 -8.55327e-06  -0.0072453 -0.31693 -6.67572e-06  -0.00765276 -0.324114 -5.1558e-06  -0.00806046 -0.331288 -2.92063e-06  -0.00846601 -0.338452 -1.96695e-06  -0.0088737 -0.345602 -8.9407e-07  -0.00927973 -0.352741 -6.85453e-07  -0.00968289 -0.359866 6.55651e-07  0 0 0  0.000130951 -0.000331342 -0.000136048  0.000436723 -0.00114918 -0.00025028  0.0008699 -0.00237387 -0.00034228  0.00138509 -0.00394326 -0.000411034  0.00194746 -0.00581515 -0.000460267  0.00252876 -0.00796419 -0.000492156  0.00310883 -0.0103751 -0.000508696  0.00367445 -0.0130365 -0.000514954  0.00421572 -0.0159404 -0.00051254  0.00472879 -0.0190806 -0.000505447  0.00520867 -0.0224505 -0.000494272  0.00565249 -0.0260431 -0.000480622  0.00606316 -0.0298536 -0.000464708  0.00643969 -0.0338731 -0.000447989  0.00678021 -0.0380955 -0.000431836  0.00708687 -0.042512 -0.000414908  0.00735974 -0.0471176 -0.000398457  0.00760019 -0.0519024 -0.000382513  0.00780916 -0.0568586 -0.000366658  0.00798714 -0.0619805 -0.000350505  0.00813329 -0.0672581 -0.000335813  0.00825131 -0.0726854 -0.000320852  0.00833917 -0.0782533 -0.000306427  0.00839901 -0.083957 -0.00029242  0.00843275 -0.089788 -0.00027889  0.00843978 -0.0957382 -0.00026539  0.00842118 -0.101803 -0.000252336  0.00837839 -0.107974 -0.000239372  0.00831234 -0.114246 -0.000227034  0.00822115 -0.120612 -0.00021553  0.00810957 -0.127065 -0.000202119  0.0079782 -0.133601 -0.000192344  0.0078249 -0.140213 -0.000181377  0.00765252 -0.146896 -0.000169635  0.00746226 -0.153645 -0.000159651  0.00725293 -0.160455 -0.000149578  0.00702953 -0.167319 -0.000139505  0.00678825 -0.174234 -0.000129908  0.00653291 -0.181195 -0.000120878  0.00626206 -0.188198 -0.000111818  0.00598025 -0.195238 -0.000103951  0.00568461 -0.202311 -9.57847e-05  0.00537634 -0.209413 -8.7887e-05  0.00505853 -0.216541 -8.02577e-05  0.0047307 -0.22369 -7.28667e-05  0.0043931 -0.230859 -6.61016e-05  0.00404596 -0.238042 -5.88596e-05  0.00369239 -0.245238 -5.42998e-05  0.00333142 -0.252444 -4.80115e-05  0.00296116 -0.259657 -4.21405e-05  0.00258875 -0.266873 -3.77297e-05  0.00220776 -0.274091 -3.22759e-05  0.00182509 -0.28131 -2.71201e-05  0.00143552 -0.288527 -2.41399e-05  0.0010438 -0.29574 -2.04444e-05  0.000648022 -0.302947 -1.61827e-05  0.000250816 -0.310148 -1.41263e-05  -0.000150204 -0.31734 -1.10269e-05  -0.000551701 -0.324525 -7.92742e-06  -0.000955343 -0.331698 -5.45382e-06  -0.00135994 -0.338861 -4.20213e-06  -0.00176382 -0.346012 -2.11596e-06  -0.00216866 -0.353151 2.98023e-08  -0.00257134 -0.360276 2.26498e-06  0 0 0  0.000199817 -0.000499249 -0.000201792  0.00066267 -0.00143439 -0.000372976  0.00131272 -0.0027377 -0.000510812  0.00208485 -0.00435251 -0.000615835  0.00292367 -0.00624788 -0.00068903  0.00379193 -0.00840425 -0.000737071  0.00465885 -0.010814 -0.000763178  0.00550759 -0.0134695 -0.000772953  0.00632465 -0.0163657 -0.000769913  0.0071044 -0.0194979 -0.000758588  0.00784242 -0.0228609 -0.000741631  0.00853634 -0.0264481 -0.000719935  0.00918531 -0.0302534 -0.000696361  0.00978947 -0.0342699 -0.000672132  0.0103504 -0.0384905 -0.000647068  0.0108678 -0.0429067 -0.000621319  0.0113434 -0.0475114 -0.000596136  0.0117772 -0.0522969 -0.000571489  0.0121707 -0.0572545 -0.000547171  0.0125238 -0.0623775 -0.000523478  0.0128387 -0.0676573 -0.000500411  0.013118 -0.0730861 -0.000477612  0.0133591 -0.0786571 -0.000456244  0.0135664 -0.084362 -0.000434726  0.0137384 -0.0901952 -0.000413597  0.0138775 -0.0961487 -0.000393748  0.013985 -0.102214 -0.000374198  0.0140613 -0.108388 -0.000354469  0.014106 -0.114662 -0.00033626  0.0141243 -0.121029 -0.000317901  0.0141115 -0.127485 -0.000300437  0.0140736 -0.134023 -0.000282705  0.01401 -0.140636 -0.000266463  0.0139225 -0.147321 -0.00025028  0.0138106 -0.154071 -0.000234216  0.013675 -0.160881 -0.000218958  0.0135198 -0.167747 -0.000204027  0.0133424 -0.174663 -0.000190973  0.0131457 -0.181624 -0.000175923  0.0129309 -0.188627 -0.000163108  0.0126989 -0.195667 -0.000151157  0.0124481 -0.202739 -0.000138879  0.0121832 -0.209841 -0.000127435  0.0119038 -0.216968 -0.000115186  0.0116122 -0.224119 -0.000105083  0.011306 -0.231286 -9.58443e-05  0.0109887 -0.238469 -8.52644e-05  0.0106604 -0.245663 -7.63237e-05  0.0103214 -0.252868 -6.82473e-05  0.00997305 -0.26008 -6.00219e-05  0.00961637 -0.267295 -5.24223e-05  0.00925398 -0.274513 -4.50611e-05  0.00888371 -0.281731 -3.90708e-05  0.00850701 -0.288945 -3.37064e-05  0.00812411 -0.296157 -2.82526e-05  0.00773835 -0.303364 -2.25008e-05  0.00734615 -0.310562 -1.87457e-05  0.00695276 -0.317755 -1.52886e-05  0.0065527 -0.324937 -1.21593e-05  0.00615406 -0.33211 -7.83801e-06  0.00575113 -0.339271 -4.79817e-06  0.00534892 -0.346423 -2.08616e-06  0.00494599 -0.353562 0  0.00454569 -0.360692 2.38419e-06  0 0 0  0.000275739 -0.000748158 -0.000266671  0.000915825 -0.0018484 -0.000493675  0.00180417 -0.00325233 -0.000678688  0.00284711 -0.00492257 -0.000818789  0.00397328 -0.00683981 -0.000919044  0.00513002 -0.00899947 -0.000983089  0.006284 -0.0114005 -0.00101906  0.00741327 -0.0140429 -0.00103086  0.00850409 -0.0169243 -0.00102684  0.00954771 -0.0200427 -0.0010125  0.0105409 -0.0233923 -0.000989914  0.0114792 -0.0269687 -0.000961214  0.0123652 -0.0307654 -0.000929534  0.0131966 -0.0347746 -0.000896424  0.0139759 -0.0389886 -0.000862718  0.0147029 -0.0434006 -0.000828952  0.015377 -0.048001 -0.000794619  0.0160021 -0.0527824 -0.00076139  0.0165801 -0.0577376 -0.000728846  0.0171081 -0.0628583 -0.000697672  0.0175908 -0.068136 -0.000666291  0.018029 -0.0735642 -0.000635624  0.0184233 -0.0791338 -0.000606477  0.0187759 -0.0848379 -0.000578403  0.0190858 -0.0906695 -0.00055027  0.0193566 -0.0966216 -0.000522703  0.0195874 -0.102688 -0.000496179  0.0197824 -0.108861 -0.000470728  0.0199392 -0.115133 -0.000445247  0.0200614 -0.1215 -0.000421405  0.0201514 -0.127954 -0.000397056  0.0202057 -0.134492 -0.000374675  0.0202308 -0.141105 -0.00035271  0.0202239 -0.147787 -0.000330746  0.0201895 -0.154537 -0.000309676  0.0201266 -0.161345 -0.000289738  0.0200393 -0.168209 -0.000270218  0.0199232 -0.175123 -0.000250667  0.0197866 -0.182084 -0.000232279  0.0196247 -0.189084 -0.00021553  0.0194423 -0.196122 -0.000198394  0.0192378 -0.203193 -0.000181735  0.0190156 -0.210292 -0.000166714  0.0187736 -0.217418 -0.000151783  0.0185146 -0.224564 -0.000138104  0.0182397 -0.23173 -0.000124067  0.0179501 -0.23891 -0.000111103  0.0176466 -0.246104 -0.000100076  0.0173302 -0.253305 -8.78274e-05  0.0170021 -0.260513 -7.87675e-05  0.0166626 -0.267727 -6.79493e-05  0.0163126 -0.274943 -5.80251e-05  0.015954 -0.282157 -5.0813e-05  0.0155897 -0.289371 -4.26471e-05  0.0152164 -0.29658 -3.6329e-05  0.0148365 -0.303785 -2.95341e-05  0.0144498 -0.310983 -2.40803e-05  0.0140598 -0.318172 -1.86265e-05  0.0136678 -0.325354 -1.33812e-05  0.0132704 -0.332524 -9.80496e-06  0.0128696 -0.339686 -6.22869e-06  0.0124691 -0.346837 -1.72853e-06  0.0120666 -0.353978 8.9407e-07  0.0116649 -0.361108 4.26173e-06  0 0 0  0.000365555 -0.00110257 -0.000329405  0.00121495 -0.00241715 -0.000613928  0.00237 -0.00394058 -0.000847846  0.00370362 -0.00566375 -0.00102478  0.00512505 -0.00759447 -0.00115052  0.00657421 -0.00974745 -0.00123063  0.00801271 -0.0121306 -0.00127384  0.00941902 -0.0147514 -0.00129071  0.0107773 -0.0176116 -0.00128603  0.0120804 -0.020709 -0.00126776  0.0133248 -0.0240411 -0.00123924  0.0145052 -0.0276025 -0.00120372  0.0156239 -0.0313855 -0.00116432  0.0166796 -0.0353824 -0.00112346  0.0176722 -0.0395862 -0.00108093  0.0186059 -0.043989 -0.00103796  0.0194792 -0.0485819 -0.000995666  0.0202943 -0.0533571 -0.000953406  0.0210532 -0.0583061 -0.000913292  0.0217563 -0.0634216 -0.00087297  0.0224051 -0.0686945 -0.000833631  0.0230011 -0.074117 -0.000795335  0.0235469 -0.0796824 -0.000758857  0.0240419 -0.0853832 -0.000723124  0.0244886 -0.0912104 -0.000688165  0.0248897 -0.0971591 -0.000653714  0.0252439 -0.103221 -0.000620455  0.0255549 -0.109391 -0.000587881  0.0258231 -0.11566 -0.000555962  0.0260491 -0.122022 -0.000525832  0.0262361 -0.128474 -0.000495613  0.0263841 -0.135005 -0.000467837  0.0264955 -0.141616 -0.000439763  0.0265701 -0.148295 -0.00041309  0.0266116 -0.155039 -0.000385731  0.0266199 -0.161844 -0.000360817  0.026598 -0.168705 -0.000335395  0.0265446 -0.175615 -0.000311524  0.0264633 -0.182571 -0.000289232  0.0263543 -0.189568 -0.000267178  0.0262187 -0.196602 -0.00024581  0.0260599 -0.203669 -0.00022617  0.0258763 -0.210765 -0.000206918  0.0256717 -0.217886 -0.000187963  0.0254459 -0.225029 -0.000170201  0.0252006 -0.23219 -0.00015378  0.0249383 -0.239367 -0.000137478  0.0246568 -0.246556 -0.00012207  0.0243614 -0.253754 -0.00010854  0.0240512 -0.260959 -9.52482e-05  0.0237272 -0.268169 -8.31485e-05  0.023391 -0.27538 -7.15554e-05  0.0230439 -0.282593 -6.20186e-05  0.0226865 -0.289802 -5.15878e-05  0.0223215 -0.297009 -4.4018e-05  0.0219462 -0.304209 -3.60608e-05  0.0215678 -0.311404 -2.8193e-05  0.0211797 -0.318592 -2.20537e-05  0.0207887 -0.32577 -1.63615e-05  0.0203929 -0.332941 -1.20103e-05  0.019995 -0.3401 -7.6592e-06  0.0195942 -0.347251 -3.09944e-06  0.0191922 -0.354393 -3.8743e-07  0.0187926 -0.361527 3.96371e-06  0 0 0  0.00048545 -0.00159967 -0.000393152  0.00158766 -0.00318098 -0.000737429  0.00305332 -0.00482798 -0.00102136  0.00469905 -0.00658709 -0.00123495  0.00641894 -0.00851417 -0.00138426  0.00815475 -0.0106431 -0.00147957  0.0098716 -0.0129974 -0.00153124  0.011547 -0.0155883 -0.00155097  0.0131668 -0.01842 -0.00154567  0.0147243 -0.021493 -0.00152352  0.0162122 -0.0248017 -0.00148949  0.0176313 -0.0283432 -0.00144759  0.0189788 -0.0321076 -0.00140098  0.020256 -0.03609 -0.00135213  0.021462 -0.0402803 -0.00130099  0.022599 -0.0446708 -0.0012494  0.0236681 -0.0492527 -0.00119862  0.024671 -0.0540178 -0.00114834  0.0256089 -0.0589575 -0.00109923  0.026484 -0.0640635 -0.00105089  0.0272965 -0.0693282 -0.00100371  0.0280492 -0.0747441 -0.000957549  0.0287448 -0.0803013 -0.000913292  0.0293816 -0.0859945 -0.000869632  0.029964 -0.0918159 -0.000827879  0.0304919 -0.097757 -0.000785381  0.030968 -0.103813 -0.000745714  0.0313934 -0.109975 -0.000706553  0.0317689 -0.116238 -0.000668943  0.0320982 -0.122594 -0.000631928  0.0323827 -0.129039 -0.000595242  0.03262 -0.135566 -0.000561208  0.0328174 -0.142169 -0.00052768  0.0329719 -0.148842 -0.000494719  0.0330875 -0.155581 -0.000462741  0.0331652 -0.162379 -0.000432402  0.0332074 -0.169233 -0.000401616  0.0332127 -0.176138 -0.000372976  0.0331869 -0.183087 -0.000345796  0.0331268 -0.190079 -0.000319719  0.0330393 -0.197107 -0.000294387  0.0329204 -0.204167 -0.000270456  0.0327783 -0.211258 -0.00024581  0.0326066 -0.218373 -0.000224143  0.0324125 -0.22551 -0.000202328  0.0321963 -0.232666 -0.000182927  0.0319583 -0.239837 -0.000163555  0.031698 -0.24702 -0.000145406  0.03142 -0.254213 -0.000128686  0.0311263 -0.261413 -0.00011301  0.0308154 -0.268617 -9.79006e-05  0.0304918 -0.275825 -8.50856e-05  0.0301545 -0.283032 -7.15852e-05  0.0298049 -0.290238 -6.02901e-05  0.0294442 -0.297441 -5.04255e-05  0.0290754 -0.304638 -4.13656e-05  0.0286961 -0.311829 -3.23653e-05  0.0283139 -0.319014 -2.60174e-05  0.0279219 -0.326189 -1.99378e-05  0.0275271 -0.333357 -1.36495e-05  0.0271289 -0.340516 -9.62615e-06  0.0267277 -0.347664 -3.93391e-06  0.0263243 -0.354808 3.8743e-07  0.0259228 -0.361945 4.67896e-06  0 0 0  0.00062748 -0.00230628 -0.000461668  0.00210221 -0.00420505 -0.000876814  0.00392289 -0.00593352 -0.0012041  0.00588322 -0.00769204 -0.00144851  0.0078932 -0.00958645 -0.00161952  0.00990376 -0.0116759 -0.00172809  0.0118844 -0.0139897 -0.00178817  0.013818 -0.0165428 -0.00181079  0.01569 -0.0193409 -0.00180539  0.0174935 -0.0223843 -0.00178087  0.0192221 -0.0256671 -0.00174117  0.0208738 -0.0291852 -0.0016931  0.022447 -0.0329292 -0.00163883  0.0239407 -0.0368922 -0.00158197  0.0253574 -0.0410661 -0.00152221  0.0266957 -0.0454409 -0.00146294  0.0279579 -0.0500094 -0.00140333  0.0291464 -0.0547608 -0.00134474  0.0302622 -0.059689 -0.00128657  0.0313059 -0.0647833 -0.00123033  0.0322813 -0.0700371 -0.0011757  0.0331874 -0.0754411 -0.00112152  0.034029 -0.0809892 -0.00106904  0.0348067 -0.0866717 -0.00101805  0.035521 -0.0924829 -0.000968546  0.0361761 -0.0984158 -0.000919551  0.0367707 -0.10446 -0.000873119  0.0373088 -0.110614 -0.000826806  0.0377932 -0.116867 -0.000781536  0.0382215 -0.123215 -0.000739098  0.0385989 -0.129651 -0.00069657  0.0389264 -0.136169 -0.000656456  0.0392063 -0.142762 -0.000616044  0.0394385 -0.149428 -0.000578165  0.0396254 -0.156158 -0.00054121  0.0397716 -0.162948 -0.000504881  0.0398757 -0.169794 -0.000469774  0.0399384 -0.176689 -0.00043574  0.0399647 -0.183631 -0.000403672  0.0399551 -0.190614 -0.000373423  0.0399103 -0.197634 -0.000343025  0.0398343 -0.204687 -0.000314683  0.0397253 -0.211769 -0.000286698  0.0395875 -0.218877 -0.000259936  0.0394218 -0.226007 -0.000235975  0.0392294 -0.233155 -0.000212371  0.0390136 -0.240319 -0.000189424  0.038774 -0.247494 -0.000168502  0.0385137 -0.254682 -0.00014919  0.0382326 -0.261875 -0.000130713  0.0379357 -0.269074 -0.000113428  0.0376182 -0.276275 -9.74536e-05  0.0372887 -0.283476 -8.22246e-05  0.0369446 -0.290677 -6.95288e-05  0.0365889 -0.297874 -5.73695e-05  0.0362201 -0.305068 -4.63724e-05  0.0358429 -0.312255 -3.74615e-05  0.0354595 -0.319435 -2.91169e-05  0.0350661 -0.326608 -2.26498e-05  0.0346727 -0.333773 -1.60038e-05  0.0342736 -0.34093 -1.00136e-05  0.0338702 -0.34808 -5.126e-06  0.0334649 -0.355223 -1.87755e-06  0.0330625 -0.362363 3.72529e-06  0 0 0  0.00110002 -0.00341266 -0.000580162  0.00300579 -0.00550705 -0.00103536  0.00513348 -0.00723761 -0.00139412  0.00735164 -0.00894767 -0.0016624  0.0096021 -0.0107875 -0.0018521  0.011851 -0.0128239 -0.00197366  0.014074 -0.0150911 -0.00204101  0.0162485 -0.0176033 -0.00206849  0.0183615 -0.0203649 -0.00206327  0.0204033 -0.0233757 -0.00203538  0.0223674 -0.0266304 -0.00199187  0.0242469 -0.030122 -0.00193724  0.0260416 -0.0338444 -0.00187552  0.02775 -0.0377862 -0.00181186  0.0293732 -0.0419406 -0.00174496  0.0309097 -0.0462974 -0.00167686  0.0323634 -0.0508478 -0.00160885  0.0337344 -0.0555841 -0.0015412  0.0350251 -0.0604956 -0.00147545  0.0362371 -0.065576 -0.00141042  0.0373708 -0.0708154 -0.0013479  0.0384302 -0.0762061 -0.00128686  0.0394154 -0.0817401 -0.00122586  0.0403296 -0.0874112 -0.00116667  0.0411747 -0.0932093 -0.0011107  0.0419533 -0.0991281 -0.00105411  0.0426652 -0.105162 -0.0010004  0.0433137 -0.111304 -0.000947624  0.0439019 -0.117545 -0.000896484  0.0444285 -0.123882 -0.000846565  0.0448989 -0.130306 -0.000798792  0.0453107 -0.136811 -0.000751853  0.0456712 -0.143396 -0.000706226  0.0459795 -0.150049 -0.000661045  0.0462382 -0.156769 -0.000619233  0.0464468 -0.163548 -0.00057736  0.0466106 -0.170382 -0.000537694  0.0467298 -0.177268 -0.000499278  0.0468066 -0.184199 -0.000461489  0.0468438 -0.191172 -0.000425279  0.0468371 -0.198182 -0.000392556  0.0467997 -0.205225 -0.00035879  0.0467231 -0.212299 -0.000328392  0.0466187 -0.219396 -0.000297606  0.0464787 -0.226516 -0.000268638  0.0463114 -0.233655 -0.000241846  0.0461144 -0.24081 -0.000216126  0.0458925 -0.247979 -0.000191718  0.0456452 -0.255156 -0.000169426  0.0453761 -0.262343 -0.000146776  0.0450861 -0.269533 -0.000129133  0.0447786 -0.276727 -0.000110626  0.0444508 -0.283922 -9.35495e-05  0.0441093 -0.291116 -7.86483e-05  0.0437541 -0.298309 -6.48797e-05  0.0433867 -0.305496 -5.29587e-05  0.0430081 -0.312678 -4.23193e-05  0.0426202 -0.319856 -3.34084e-05  0.0422254 -0.327025 -2.52426e-05  0.0418274 -0.334187 -1.94311e-05  0.041424 -0.341343 -1.31726e-05  0.041018 -0.348492 -8.04663e-06  0.0406125 -0.355636 -3.42727e-06  0.0402093 -0.362777 5.36442e-07  0 0 0  -0.001119 -0.00314875 0.000937492  -0.00301347 -0.00504383 0.00166065  -0.00513214 -0.0066189 0.00222442  -0.00735001 -0.00819338 0.00264037  -0.00961116 -0.00990193 0.00292924  -0.0118824 -0.0118073 0.0031113  -0.014137 -0.0139398 0.00320929  -0.016359 -0.0163116 0.00324038  -0.0185385 -0.0189292 0.00322327  -0.0206638 -0.0217892 0.00317052  -0.022734 -0.024888 0.0030925  -0.0247456 -0.0282194 0.00299999  -0.026695 -0.0317745 0.00289589  -0.0285867 -0.0355471 0.00278658  -0.0304165 -0.0395278 0.00267354  -0.0321911 -0.043708 0.00256202  -0.0339091 -0.0480802 0.00244963  -0.0355706 -0.0526384 0.00234058  -0.0371832 -0.0573707 0.00223362  -0.0387431 -0.062272 0.00212961  -0.0402508 -0.0673333 0.00202781  -0.0417147 -0.0725477 0.00193006  -0.0431285 -0.0779088 0.00183529  -0.0444969 -0.0834077 0.00174266  -0.0458215 -0.0890402 0.00165251  -0.0471041 -0.0947977 0.00156629  -0.0483447 -0.100674 0.00148338  -0.0495431 -0.106662 0.00140023  -0.0507028 -0.112757 0.0013231  -0.0518222 -0.118952 0.00124547  -0.052905 -0.12524 0.00117111  -0.0539509 -0.131618 0.00109965  -0.0549598 -0.138078 0.00103122  -0.0559342 -0.144614 0.000964165  -0.0568745 -0.151223 0.000899702  -0.057781 -0.1579 0.000837177  -0.0586553 -0.164636 0.000775754  -0.0594988 -0.171431 0.000720352  -0.0603113 -0.178279 0.000664562  -0.0610948 -0.185173 0.000611633  -0.0618489 -0.192111 0.000560462  -0.062577 -0.199089 0.000510693  -0.063277 -0.206101 0.000464916  -0.0639546 -0.213145 0.000420362  -0.0646038 -0.220216 0.000378996  -0.0652304 -0.227314 0.000338972  -0.0658357 -0.234431 0.000302523  -0.0664194 -0.241566 0.000266284  -0.0669813 -0.248715 0.000232637  -0.0675268 -0.255877 0.000203222  -0.0680518 -0.263048 0.000174463  -0.0685596 -0.270225 0.000147909  -0.0690517 -0.277407 0.000124514  -0.0695305 -0.284593 0.000104934  -0.0699944 -0.291777 8.43704e-05  -0.0704474 -0.298959 6.74427e-05  -0.0708895 -0.30614 5.25415e-05  -0.0713248 -0.313315 3.98159e-05  -0.0717483 -0.320485 2.95043e-05  -0.0721703 -0.32765 2.13087e-05  -0.0725842 -0.334809 1.32322e-05  -0.0729976 -0.34196 7.48038e-06  -0.0734067 -0.349106 2.38419e-06  -0.0738184 -0.356248 -5.39422e-06  0 0 0  -0.000635825 -0.00206807 0.000734776  -0.00209475 -0.00378179 0.00139257  -0.00389406 -0.00535952 0.00190586  -0.00583872 -0.00698761 0.00228354  -0.00784108 -0.00876165 0.00254363  -0.00985718 -0.0107319 0.00270626  -0.0118576 -0.0129266 0.00279278  -0.0138257 -0.0153597 0.00281945  -0.0157546 -0.0180331 0.00280327  -0.0176343 -0.0209489 0.00275663  -0.0194636 -0.0241007 0.00268805  -0.0212417 -0.027482 0.00260568  -0.022967 -0.0310871 0.00251502  -0.0246422 -0.034907 0.00241894  -0.0262659 -0.0389343 0.00232047  -0.0278413 -0.0431604 0.00222293  -0.0293703 -0.0475775 0.0021255  -0.0308524 -0.0521769 0.00203034  -0.0322896 -0.0569515 0.00193769  -0.0336858 -0.0618932 0.00184649  -0.0350398 -0.0669947 0.00175899  -0.0363508 -0.0722487 0.00167385  -0.0376251 -0.0776467 0.00159109  -0.0388614 -0.083184 0.00151145  -0.0400605 -0.0888518 0.00143352  -0.0412215 -0.0946435 0.00135821  -0.0423481 -0.100552 0.00128567  -0.0434408 -0.106574 0.00121498  -0.0445014 -0.1127 0.00114667  -0.0455272 -0.118925 0.00108051  -0.0465215 -0.125244 0.00101632  -0.0474846 -0.131649 0.000953317  -0.0484183 -0.138136 0.000893891  -0.04932 -0.1447 0.000836641  -0.0501955 -0.151334 0.000779927  -0.0510414 -0.158033 0.000726134  -0.0518591 -0.164793 0.000674456  -0.0526512 -0.17161 0.000624359  -0.0534184 -0.178477 0.000575483  -0.0541594 -0.185391 0.000530511  -0.0548766 -0.192348 0.000486493  -0.0555696 -0.199343 0.000443757  -0.0562391 -0.206372 0.000403762  -0.0568874 -0.213432 0.000365138  -0.0575154 -0.220519 0.000328898  -0.0581217 -0.227628 0.000294596  -0.0587084 -0.234759 0.000262082  -0.0592775 -0.241904 0.000231892  -0.059829 -0.249065 0.000203609  -0.0603631 -0.256237 0.000176936  -0.060883 -0.263416 0.000152051  -0.0613847 -0.270602 0.000129938  -0.061877 -0.277791 0.000109345  -0.0623543 -0.284982 9.10163e-05  -0.0628183 -0.292172 7.39098e-05  -0.0632744 -0.299359 5.85318e-05  -0.06372 -0.306543 4.58062e-05  -0.0641568 -0.313723 3.47793e-05  -0.0645871 -0.320896 2.67923e-05  -0.0650098 -0.32806 1.84476e-05  -0.0654294 -0.335218 1.14739e-05  -0.065845 -0.342369 5.21541e-06  -0.0662594 -0.349513 -1.2517e-06  -0.0666714 -0.356653 -7.27177e-06  0 0 0  -0.000483837 -0.0013824 0.000620514  -0.00156599 -0.00279654 0.00116026  -0.00300322 -0.00430493 0.00160211  -0.00462167 -0.00594278 0.00193185  -0.00632292 -0.0077572 0.0021593  -0.00805089 -0.00978105 0.00230083  -0.00977546 -0.0120311 0.00237608  -0.0114764 -0.0145181 0.00239977  -0.0131429 -0.0172462 0.00238633  -0.01477 -0.0202114 0.00234535  -0.016354 -0.0234114 0.0022873  -0.0178939 -0.0268402 0.00221622  -0.0193921 -0.0304898 0.00213817  -0.0208467 -0.0343532 0.00205591  -0.022259 -0.038423 0.00197241  -0.0236338 -0.0426895 0.0018889  -0.0249693 -0.0471459 0.00180548  -0.0262673 -0.0517844 0.00172484  -0.0275297 -0.056597 0.00164568  -0.0287571 -0.0615759 0.0015685  -0.0299509 -0.0667136 0.0014939  -0.031111 -0.0720022 0.00142097  -0.0322417 -0.077435 0.00135097  -0.0333405 -0.0830056 0.0012826  -0.0344093 -0.0887057 0.00121683  -0.0354482 -0.0945297 0.00115335  -0.0364602 -0.10047 0.00109154  -0.0374432 -0.106521 0.00103149  -0.0383981 -0.112676 0.000973046  -0.0393288 -0.11893 0.000916868  -0.0402317 -0.125274 0.000862956  -0.0411105 -0.131705 0.000809729  -0.0419624 -0.138217 0.000758499  -0.042794 -0.144804 0.000709534  -0.0435977 -0.151461 0.000662148  -0.0443804 -0.158183 0.000616312  -0.04514 -0.164964 0.000572175  -0.0458784 -0.1718 0.000530452  -0.0465949 -0.178686 0.000489414  -0.0472913 -0.185619 0.000450313  -0.0479653 -0.192593 0.000412732  -0.0486219 -0.199604 0.000377297  -0.049258 -0.206648 0.000342309  -0.0498767 -0.213722 0.000310361  -0.0504773 -0.220822 0.000280112  -0.0510612 -0.227944 0.000250608  -0.0516272 -0.235085 0.000223428  -0.0521805 -0.242242 0.000197381  -0.0527165 -0.249412 0.000173867  -0.0532393 -0.256593 0.000150234  -0.0537484 -0.263781 0.000129908  -0.054245 -0.270974 0.000110716  -0.0547283 -0.278169 9.34601e-05  -0.0552042 -0.285366 7.75456e-05  -0.0556657 -0.292561 6.32703e-05  -0.0561204 -0.299753 5.18858e-05  -0.0565643 -0.306941 4.01139e-05  -0.0570049 -0.314123 3.08156e-05  -0.0574341 -0.321298 2.25306e-05  -0.0578625 -0.328464 1.57058e-05  -0.0582821 -0.335623 9.98378e-06  -0.0586994 -0.342775 3.75509e-06  -0.0591145 -0.349918 -3.21865e-06  -0.0595295 -0.357055 -8.55327e-06  0 0 0  -0.00035762 -0.000914142 0.000516087  -0.00118066 -0.00207874 0.000959218  -0.00230265 -0.0034761 0.00132024  -0.00360344 -0.00508785 0.0015927  -0.0049957 -0.0069184 0.00178251  -0.00642717 -0.00897592 0.00190195  -0.007864 -0.0112698 0.00196472  -0.0092884 -0.0138034 0.00198609  -0.0106856 -0.016577 0.00197458  -0.0120531 -0.0195874 0.00194097  -0.0133866 -0.0228304 0.00189283  -0.0146862 -0.0263005 0.00183287  -0.0159516 -0.02999 0.00176772  -0.0171832 -0.033892 0.00170007  -0.0183834 -0.0379982 0.0016298  -0.0195525 -0.0423019 0.00156149  -0.020691 -0.046794 0.00149158  -0.0218022 -0.0514667 0.00142458  -0.0228846 -0.0563134 0.00135893  -0.0239433 -0.0613252 0.00129455  -0.0249753 -0.0664943 0.00123304  -0.0259807 -0.0718148 0.00117287  -0.0269634 -0.0772797 0.00111499  -0.0279236 -0.0828795 0.00105885  -0.0288594 -0.088609 0.00100413  -0.0297723 -0.0944614 0.000951558  -0.0306644 -0.10043 0.000900209  -0.0315357 -0.106508 0.000851035  -0.0323859 -0.112689 0.000802904  -0.0332167 -0.118966 0.000756502  -0.0340264 -0.125336 0.000711352  -0.034817 -0.13179 0.000667781  -0.0355885 -0.138326 0.000626028  -0.0363414 -0.144934 0.000585467  -0.0370739 -0.151611 0.000545621  -0.0377915 -0.158353 0.000508934  -0.0384896 -0.165153 0.000471592  -0.03917 -0.172007 0.000436693  -0.0398331 -0.178911 0.000403285  -0.0404816 -0.185859 0.00037095  -0.0411129 -0.192848 0.000340104  -0.0417287 -0.199874 0.000310123  -0.0423307 -0.206932 0.000282556  -0.0429151 -0.214019 0.000256568  -0.0434875 -0.22113 0.00023067  -0.0440454 -0.228264 0.000206381  -0.0445902 -0.235415 0.000184804  -0.0451219 -0.242582 0.000163019  -0.0456419 -0.249762 0.0001432  -0.0461502 -0.25695 0.000124425  -0.0466456 -0.264145 0.000108063  -0.0471332 -0.271345 9.19402e-05  -0.0476093 -0.278547 7.73072e-05  -0.0480757 -0.285748 6.47902e-05  -0.0485356 -0.292948 5.31971e-05  -0.0489867 -0.300145 4.25875e-05  -0.0494301 -0.307336 3.37064e-05  -0.0498667 -0.314521 2.53916e-05  -0.0502989 -0.321697 1.86265e-05  -0.0507228 -0.328867 1.20997e-05  -0.0511451 -0.336027 7.24196e-06  -0.051563 -0.343179 1.72853e-06  -0.0519786 -0.35032 -3.66569e-06  -0.0523932 -0.357453 -7.59959e-06  0 0 0  -0.000264544 -0.000591576 0.000414699  -0.000874102 -0.00156143 0.000766039  -0.00172402 -0.00285317 0.00105041  -0.00272648 -0.00442311 0.00126493  -0.00381613 -0.0062506 0.00141555  -0.00494954 -0.00832875 0.00151113  -0.00609496 -0.0106543 0.00156212  -0.00723562 -0.013224 0.00157842  -0.00836116 -0.016035 0.0015699  -0.00946397 -0.0190838 0.00154281  -0.0105429 -0.0223638 0.001504  -0.0115975 -0.0258698 0.0014571  -0.0126286 -0.0295933 0.00140494  -0.0136337 -0.0335289 0.00135002  -0.0146163 -0.0376679 0.00129479  -0.0155784 -0.0420029 0.00123861  -0.0165201 -0.0465256 0.00118333  -0.0174407 -0.051229 0.00113022  -0.0183437 -0.0561048 0.00107786  -0.0192279 -0.0611448 0.0010269  -0.0200943 -0.0663436 0.00097698  -0.0209435 -0.071693 0.000929743  -0.0217766 -0.0771835 0.000883043  -0.0225943 -0.0828098 0.00083825  -0.0233963 -0.0885655 0.000795215  -0.0241815 -0.0944435 0.000753701  -0.0249529 -0.100436 0.000712335  -0.0257094 -0.106538 0.000672638  -0.0264513 -0.112741 0.000635624  -0.0271809 -0.119042 0.000598997  -0.0278947 -0.125433 0.000562489  -0.0285944 -0.131908 0.000528038  -0.0292807 -0.138463 0.000494808  -0.0299559 -0.14509 0.000462532  -0.0306151 -0.151787 0.000431389  -0.0312614 -0.158546 0.000401467  -0.0318954 -0.165363 0.00037235  -0.0325167 -0.172233 0.000344843  -0.0331271 -0.179153 0.000319451  -0.0337243 -0.186115 0.000293881  -0.0343101 -0.193118 0.00026837  -0.0348837 -0.200156 0.000244915  -0.0354462 -0.207227 0.000222981  -0.0359969 -0.214325 0.000202209  -0.0365376 -0.221447 0.000182211  -0.0370677 -0.228591 0.000163168  -0.0375872 -0.235752 0.000145286  -0.0380971 -0.242927 0.000128955  -0.0385973 -0.250114 0.00011301  -0.0390892 -0.257309 9.89139e-05  -0.0395715 -0.264511 8.52644e-05  -0.040046 -0.271717 7.25091e-05  -0.0405126 -0.278924 6.11544e-05  -0.0409727 -0.286131 5.08428e-05  -0.0414236 -0.293335 4.26769e-05  -0.0418706 -0.300535 3.3617e-05  -0.042309 -0.30773 2.56896e-05  -0.0427423 -0.314917 2.01166e-05  -0.0431728 -0.322097 1.44541e-05  -0.0435963 -0.329268 9.65595e-06  -0.0440166 -0.336429 4.97699e-06  -0.0444343 -0.343579 1.2219e-06  -0.0448492 -0.35072 -3.12924e-06  -0.0452645 -0.35785 -8.64267e-06  0 0 0  -0.000185501 -0.000375211 0.000312269  -0.000614956 -0.00120154 0.000574708  -0.00122151 -0.00240737 0.000785202  -0.0019474 -0.00393572 0.000944674  -0.00274736 -0.00575384 0.00105664  -0.00358391 -0.007842 0.00112784  -0.00443858 -0.0101888 0.00116524  -0.0052945 -0.0127863 0.00117806  -0.00614238 -0.0156274 0.00117126  -0.00697887 -0.0187067 0.00115192  -0.00780189 -0.0220172 0.00112221  -0.00860763 -0.0255524 0.00108632  -0.00939918 -0.0293059 0.00104773  -0.0101773 -0.0332688 0.0010058  -0.0109432 -0.0374348 0.000963956  -0.0116953 -0.0417965 0.000921994  -0.0124364 -0.0463463 0.000880837  -0.0131658 -0.0510754 0.000840276  -0.0138845 -0.0559762 0.000800937  -0.0145943 -0.0610419 0.000762939  -0.0152938 -0.0662649 0.000725597  -0.0159851 -0.0716372 0.000689805  -0.0166664 -0.0771521 0.000655532  -0.0173401 -0.0828017 0.000622302  -0.0180036 -0.0885797 0.000589341  -0.0186615 -0.0944795 0.000558376  -0.0193083 -0.100494 0.000528634  -0.0199493 -0.106615 0.000498652  -0.0205821 -0.11284 0.000469506  -0.0212064 -0.11916 0.000442594  -0.021821 -0.12557 0.000416547  -0.0224291 -0.132064 0.00039053  -0.0230291 -0.138635 0.000366092  -0.0236208 -0.14528 0.000341475  -0.0242054 -0.151992 0.000317901  -0.0247815 -0.158767 0.000296533  -0.0253518 -0.165599 0.000274777  -0.025913 -0.172483 0.000253797  -0.0264635 -0.179415 0.000234872  -0.0270092 -0.186391 0.000215411  -0.0275452 -0.193405 0.000197768  -0.0280766 -0.200455 0.000180572  -0.0285978 -0.207535 0.000163585  -0.0291133 -0.214644 0.000147879  -0.0296199 -0.221776 0.000133723  -0.0301201 -0.228927 0.000119507  -0.0306127 -0.236096 0.000106215  -0.0311 -0.243279 9.49204e-05  -0.0315797 -0.250473 8.29697e-05  -0.0320511 -0.257673 7.17342e-05  -0.0325196 -0.264881 6.16908e-05  -0.0329809 -0.272092 5.27799e-05  -0.0334339 -0.279304 4.52101e-05  -0.0338862 -0.286515 3.73125e-05  -0.034327 -0.293723 3.10838e-05  -0.0347679 -0.300926 2.42591e-05  -0.0352013 -0.308124 1.85072e-05  -0.0356317 -0.315314 1.48714e-05  -0.036057 -0.322496 1.01626e-05  -0.0364783 -0.329668 7.00355e-06  -0.0368965 -0.33683 3.8743e-06  -0.0373135 -0.343981 -5.36442e-07  -0.0377262 -0.35112 -3.72529e-06  -0.038141 -0.358248 -6.91414e-06  0 0 0  -0.000115056 -0.000239402 0.000208586  -0.000385888 -0.000971645 0.000382811  -0.000769764 -0.00211617 0.000521749  -0.00123498 -0.00361261 0.000627309  -0.00175208 -0.00542086 0.000701159  -0.00230139 -0.00751489 0.000748396  -0.00286648 -0.00987595 0.000773728  -0.00343627 -0.0124934 0.000782818  -0.00400615 -0.0153572 0.000778288  -0.00457394 -0.0184599 0.000763983  -0.00513607 -0.0217943 0.000744671  -0.00569367 -0.0253529 0.00072059  -0.00624669 -0.0291294 0.000694245  -0.00679439 -0.0331153 0.000666231  -0.00734007 -0.0373048 0.000637829  -0.00788051 -0.0416875 0.000609547  -0.00841987 -0.0462591 0.000581712  -0.00895631 -0.0510096 0.000554353  -0.00949037 -0.0559317 0.000527829  -0.010024 -0.0610182 0.000501573  -0.0105568 -0.0662616 0.000476837  -0.0110863 -0.0716542 0.000453264  -0.011615 -0.0771884 0.000430375  -0.0121433 -0.0828578 0.000407577  -0.0126704 -0.0886549 0.000385702  -0.013194 -0.0945728 0.000366002  -0.0137184 -0.100605 0.000344992  -0.0142393 -0.106746 0.000324994  -0.0147605 -0.112987 0.000306338  -0.0152795 -0.119323 0.000288606  -0.0157968 -0.125749 0.000270575  -0.0163101 -0.132259 0.000253588  -0.0168228 -0.138845 0.000237644  -0.0173318 -0.145504 0.000220925  -0.017839 -0.15223 0.000205636  -0.0183432 -0.159017 0.000191957  -0.0188432 -0.165862 0.000177056  -0.0193431 -0.172758 0.000163525  -0.0198383 -0.179701 0.000151277  -0.0203283 -0.186687 0.000138849  -0.0208168 -0.193712 0.000126839  -0.0213008 -0.200771 0.000115544  -0.02178 -0.207862 0.000104934  -0.0222576 -0.214977 9.50098e-05  -0.0227301 -0.222116 8.48174e-05  -0.0231993 -0.229275 7.60257e-05  -0.0236645 -0.23645 6.7234e-05  -0.0241253 -0.24364 5.91278e-05  -0.0245831 -0.250839 5.25415e-05  -0.0250354 -0.258046 4.52399e-05  -0.0254853 -0.265258 3.90708e-05  -0.0259306 -0.272473 3.27229e-05  -0.0263727 -0.279689 2.81334e-05  -0.0268102 -0.286903 2.2918e-05  -0.0272441 -0.294114 1.91629e-05  -0.0276761 -0.30132 1.5378e-05  -0.0281041 -0.30852 1.04904e-05  -0.0285285 -0.315713 8.46386e-06  -0.0289493 -0.322896 5.48363e-06  -0.0293679 -0.330069 3.60608e-06  -0.0297849 -0.337232 1.2517e-06  -0.0301986 -0.344383 -5.96046e-07  -0.030612 -0.351521 -3.09944e-06  -0.0310237 -0.358648 -5.63264e-06  0 0 0  -5.13494e-05 -0.000169456 0.000103742  -0.000172921 -0.000850827 0.000189871  -0.000347167 -0.00196281 0.000259429  -0.000563353 -0.00344211 0.000311822  -0.000807762 -0.00524527 0.000349104  -0.00107154 -0.00734311 0.000373334  -0.00134861 -0.00971535 0.000386298  -0.00163466 -0.0123462 0.000390977  -0.00192606 -0.0152271 0.000388622  -0.00222307 -0.0183466 0.000381082  -0.00252527 -0.0216981 0.00037086  -0.00283217 -0.0252746 0.000358015  -0.0031442 -0.0290678 0.000343919  -0.00346208 -0.0330715 0.000329852  -0.00378603 -0.0372777 0.000314772  -0.00411516 -0.0416786 0.000300497  -0.00445318 -0.0462663 0.000285566  -0.00479436 -0.0510334 0.000270903  -0.00514328 -0.0559729 0.000257969  -0.00549901 -0.0610769 0.000243574  -0.00586188 -0.066336 0.000231296  -0.00623071 -0.0717455 0.000218362  -0.00660658 -0.0772959 0.000206858  -0.00698817 -0.0829808 0.000195324  -0.00737369 -0.0887946 0.000184447  -0.00776577 -0.0947272 0.000173658  -0.008165 -0.100775 0.000163913  -0.00856793 -0.106929 0.000153333  -0.00897539 -0.113185 0.000144035  -0.00938702 -0.119535 0.000135094  -0.00980389 -0.125974 0.000126451  -0.0102227 -0.132496 0.000118345  -0.0106454 -0.139095 0.000110805  -0.0110707 -0.145766 0.000101924  -0.0115013 -0.152502 9.4384e-05  -0.0119321 -0.159301 8.78572e-05  -0.0123634 -0.166155 8.01682e-05  -0.0127974 -0.173061 7.43568e-05  -0.0132346 -0.180013 6.75023e-05  -0.0136704 -0.187007 6.16908e-05  -0.0141075 -0.194041 5.57899e-05  -0.014545 -0.201108 5.13196e-05  -0.0149834 -0.208205 4.57466e-05  -0.0154207 -0.215328 4.07696e-05  -0.0158582 -0.222472 3.70145e-05  -0.016294 -0.229638 3.22461e-05  -0.0167294 -0.236818 2.80142e-05  -0.017164 -0.244011 2.46167e-05  -0.0175989 -0.251215 2.13683e-05  -0.0180304 -0.258427 1.81496e-05  -0.0184639 -0.265643 1.53184e-05  -0.0188918 -0.27286 1.29938e-05  -0.0193198 -0.280079 9.68575e-06  -0.0197465 -0.287295 8.31485e-06  -0.020169 -0.294509 6.67572e-06  -0.0205925 -0.301718 5.1558e-06  -0.0210118 -0.30892 3.8445e-06  -0.0214317 -0.316113 2.29478e-06  -0.0218489 -0.323297 2.26498e-06  -0.0222638 -0.330471 7.45058e-07  -0.0226774 -0.337634 -1.07288e-06  -0.0230885 -0.344786 -1.3411e-06  -0.0234993 -0.351924 -1.72853e-06  -0.0239079 -0.359047 -1.87755e-06  0 0 0  9.0003e-06 -0.000157207 -2.6226e-06  3.14713e-05 -0.000829458 -3.33786e-06  5.88149e-05 -0.00193632 -2.83122e-06  8.7738e-05 -0.00341532 -2.35438e-06  0.000113159 -0.0052222 -1.90735e-06  0.000132114 -0.00732544 -5.66244e-07  0.00014028 -0.00970456 7.7486e-07  0.000139534 -0.0123463 1.43051e-06  0.000125051 -0.0152357 3.57628e-07  9.70364e-05 -0.0183663 8.9407e-08  5.56111e-05 -0.0217294 -6.55651e-07  -8.34465e-07 -0.0253167 -1.90735e-06  -7.04527e-05 -0.0291223 -3.21865e-06  -0.000158489 -0.0331377 -5.1856e-06  -0.000260293 -0.0373561 -6.25849e-06  -0.000377417 -0.0417698 -7.6592e-06  -0.000511527 -0.0463698 -9.23872e-06  -0.000659108 -0.0511506 -9.95398e-06  -0.000822067 -0.0561028 -1.15633e-05  -0.001001 -0.0612185 -1.27554e-05  -0.00119388 -0.0664915 -1.32918e-05  -0.00139999 -0.0719126 -1.47521e-05  -0.00162089 -0.0774755 -1.5378e-05  -0.00185585 -0.083174 -1.59144e-05  -0.00210309 -0.0889985 -1.63913e-05  -0.00236285 -0.0949444 -1.67191e-05  -0.00263321 -0.101003 -1.70171e-05  -0.00291622 -0.107169 -1.73748e-05  -0.00321114 -0.113436 -1.72853e-05  -0.00351596 -0.119796 -1.84178e-05  -0.00382912 -0.126246 -1.72853e-05  -0.00415444 -0.132777 -1.73151e-05  -0.00448775 -0.139386 -1.69873e-05  -0.00482893 -0.146066 -1.67191e-05  -0.00517797 -0.152812 -1.67489e-05  -0.00553536 -0.159618 -1.61529e-05  -0.00589871 -0.166481 -1.63913e-05  -0.00626874 -0.173394 -1.56462e-05  -0.00664449 -0.180352 -1.51694e-05  -0.00702596 -0.187354 -1.43349e-05  -0.00741291 -0.194393 -1.42455e-05  -0.00780177 -0.201465 -1.35005e-05  -0.00819683 -0.208567 -1.40071e-05  -0.00859404 -0.215696 -1.3411e-05  -0.00899649 -0.222846 -1.15931e-05  -0.0093987 -0.230015 -1.10269e-05  -0.00980663 -0.237199 -1.07884e-05  -0.0102146 -0.244396 -1.0401e-05  -0.0106232 -0.251602 -1.03712e-05  -0.011034 -0.258817 -8.85129e-06  -0.0114467 -0.266035 -7.80821e-06  -0.0118604 -0.273256 -7.18236e-06  -0.0122731 -0.280476 -7.15256e-06  -0.0126853 -0.287695 -5.36442e-06  -0.0130994 -0.29491 -4.94719e-06  -0.0135138 -0.302119 -4.41074e-06  -0.013926 -0.309321 -4.05312e-06  -0.014339 -0.316516 -4.32134e-06  -0.01475 -0.323701 -3.24845e-06  -0.0151625 -0.330876 -2.71201e-06  -0.015573 -0.338039 -2.563e-06  -0.0159814 -0.345191 -1.16229e-06  -0.0163898 -0.352329 -9.83477e-07  -0.0167975 -0.359452 -1.3113e-06  0 0 0  7.07582e-05 -0.000199139 -0.000108033  0.000234798 -0.000903606 -0.000195563  0.000465095 -0.00203449 -0.000264496  0.000737906 -0.00352925 -0.000314772  0.00103262 -0.00534707 -0.000349224  0.00133228 -0.00745898 -0.000371337  0.00162652 -0.00984401 -0.000383019  0.00190818 -0.0124899 -0.000386477  0.00217241 -0.0153846 -0.000385255  0.00241357 -0.01852 -0.000379205  0.00263244 -0.0218878 -0.00037092  0.00282532 -0.0254813 -0.000361174  0.00299454 -0.0292929 -0.000349939  0.0031386 -0.0333157 -0.000338823  0.00325698 -0.0375412 -0.00032708  0.00335264 -0.0419621 -0.000314474  0.00342226 -0.046571 -0.000302911  0.00346851 -0.0513605 -0.000291854  0.00349045 -0.0563208 -0.000280261  0.00349009 -0.0614451 -0.000268638  0.00346696 -0.0667276 -0.000258565  0.0034225 -0.0721585 -0.000248134  0.0033561 -0.077731 -0.000237316  0.00327015 -0.0834368 -0.000226855  0.00316322 -0.0892706 -0.00021717  0.00303674 -0.0952246 -0.000206709  0.00289261 -0.101292 -0.000198543  0.00272644 -0.107467 -0.000187993  0.00254858 -0.113741 -0.000178903  0.0023489 -0.12011 -0.000170201  0.00213683 -0.126567 -0.000161022  0.00190806 -0.133105 -0.000152111  0.0016644 -0.13972 -0.000144094  0.00140762 -0.146408 -0.000136137  0.00113845 -0.153158 -0.000128031  0.000856161 -0.159972 -0.000120044  0.000562668 -0.166839 -0.000112385  0.000257015 -0.173757 -0.000105649  -5.8651e-05 -0.180721 -9.79602e-05  -0.000385046 -0.187727 -9.15527e-05  -0.000718594 -0.194771 -8.42214e-05  -0.0010612 -0.201847 -7.83503e-05  -0.00141335 -0.208952 -7.24196e-05  -0.00177169 -0.216083 -6.59525e-05  -0.00213599 -0.223236 -6.07669e-05  -0.0025084 -0.230408 -5.56111e-05  -0.00288439 -0.237595 -5.00083e-05  -0.00326443 -0.244794 -4.43161e-05  -0.00365043 -0.252002 -4.1008e-05  -0.00403857 -0.259218 -3.68059e-05  -0.0044322 -0.266438 -3.22461e-05  -0.00482821 -0.27366 -2.88785e-05  -0.00522685 -0.280881 -2.45869e-05  -0.00562811 -0.2881 -2.08318e-05  -0.0060308 -0.295316 -1.7494e-05  -0.0064342 -0.302525 -1.54376e-05  -0.00684094 -0.309728 -1.24276e-05  -0.00724673 -0.316923 -1.03116e-05  -0.00765276 -0.324108 -7.33137e-06  -0.00806093 -0.331283 -5.78165e-06  -0.00846791 -0.338447 -3.99351e-06  -0.0088737 -0.345598 -1.40071e-06  -0.00927997 -0.352737 5.06639e-07  -0.00968456 -0.359859 2.563e-06  0 0 0  0.000133969 -0.000298381 -0.000211567  0.00044626 -0.00107586 -0.000386238  0.000885263 -0.0022577 -0.000523806  0.00140586 -0.00378579 -0.000626504  0.00197196 -0.00562298 -0.000697672  0.0025551 -0.00774306 -0.000742078  0.00313535 -0.0101321 -0.000765711  0.00369918 -0.0127773 -0.000773907  0.00423944 -0.0156714 -0.000769824  0.00474864 -0.018805 -0.000758201  0.00522643 -0.0221734 -0.000740856  0.00566822 -0.0257664 -0.000719219  0.00607717 -0.0295795 -0.000695825  0.00645113 -0.0336039 -0.000672221  0.00678951 -0.0378324 -0.000646949  0.00709605 -0.0422568 -0.000621796  0.00736845 -0.0468695 -0.000597298  0.00760829 -0.0516628 -0.000573009  0.00781631 -0.0566284 -0.000549287  0.00799203 -0.0617586 -0.000526637  0.0081389 -0.0670457 -0.000503242  0.00825644 -0.0724816 -0.000480801  0.00834382 -0.0780597 -0.000460148  0.00840402 -0.0837715 -0.000438631  0.00843716 -0.0896098 -0.000418276  0.00844431 -0.0955699 -0.000398099  0.00842619 -0.101643 -0.000378519  0.00838161 -0.107822 -0.000359595  0.00831568 -0.114102 -0.000341535  0.00822544 -0.120476 -0.000322402  0.00811279 -0.126937 -0.000305653  0.00797939 -0.13348 -0.000288039  0.00782561 -0.140099 -0.000271112  0.00765395 -0.146789 -0.000255704  0.00746393 -0.153546 -0.000239253  0.00725389 -0.160361 -0.000223994  0.00702953 -0.167232 -0.000209838  0.00678802 -0.174153 -0.000194997  0.00653362 -0.18112 -0.000180691  0.00626278 -0.188129 -0.000168324  0.00598001 -0.195173 -0.000155628  0.00568247 -0.202252 -0.000143856  0.0053761 -0.209359 -0.0001311  0.00505757 -0.216491 -0.000119358  0.00472903 -0.223645 -0.000109851  0.00439119 -0.230818 -9.91225e-05  0.00404334 -0.238006 -8.92878e-05  0.00369024 -0.245206 -8.00788e-05  0.0033288 -0.252415 -7.21216e-05  0.00296021 -0.25963 -6.34491e-05  0.00258517 -0.266851 -5.52237e-05  0.00220561 -0.274071 -4.87864e-05  0.00182223 -0.281293 -4.18723e-05  0.0014329 -0.288512 -3.56436e-05  0.00104094 -0.295726 -3.00705e-05  0.000644445 -0.302936 -2.47359e-05  0.00024724 -0.310138 -2.02954e-05  -0.000152349 -0.317333 -1.71959e-05  -0.00055337 -0.324517 -1.27256e-05  -0.000957012 -0.331693 -9.17912e-06  -0.00136065 -0.338856 -5.63264e-06  -0.00176644 -0.346007 -2.35438e-06  -0.00216961 -0.353146 6.25849e-07  -0.00257134 -0.360271 3.72529e-06  0 0 0  0.000202097 -0.000463724 -0.000313282  0.000674382 -0.00135744 -0.000574797  0.00133304 -0.00261652 -0.000781327  0.00211188 -0.00419092 -0.000936568  0.00295565 -0.00605029 -0.00104466  0.00382513 -0.00817835 -0.0011127  0.00469247 -0.0105675 -0.00114858  0.00553882 -0.013208 -0.00116074  0.00635248 -0.0160938 -0.00115544  0.00712866 -0.0192207 -0.00113729  0.00786221 -0.0225821 -0.00111106  0.00855172 -0.02617 -0.00107822  0.00919724 -0.0299798 -0.00104311  0.00979954 -0.0340012 -0.00100669  0.0103579 -0.0382279 -0.000968754  0.0108736 -0.0426518 -0.000930786  0.0113468 -0.0472643 -0.000893205  0.0117792 -0.0520581 -0.000856012  0.0121714 -0.0570245 -0.000819832  0.0125242 -0.0621565 -0.000784248  0.0128405 -0.0674451 -0.000750124  0.0131176 -0.0728831 -0.000716388  0.0133594 -0.0784634 -0.000683546  0.0135663 -0.0841776 -0.000651419  0.0137371 -0.0900188 -0.000620693  0.0138763 -0.0959804 -0.000590146  0.0139846 -0.102055 -0.000560045  0.0140604 -0.108237 -0.000531465  0.0141054 -0.114519 -0.000503629  0.0141219 -0.120894 -0.000476688  0.0141118 -0.127357 -0.000450134  0.0140734 -0.133902 -0.000424385  0.0140088 -0.140524 -0.000398695  0.0139201 -0.147214 -0.000375241  0.0138071 -0.153972 -0.000351548  0.0136726 -0.160788 -0.000329047  0.0135164 -0.167659 -0.000307292  0.0133374 -0.174582 -0.000284612  0.0131426 -0.18155 -0.000265002  0.0129266 -0.188557 -0.000245363  0.0126951 -0.195602 -0.000226289  0.0124438 -0.202681 -0.000207752  0.0121815 -0.209788 -0.000191063  0.0119014 -0.216919 -0.000173479  0.0116091 -0.224073 -0.000158578  0.0113015 -0.231246 -0.000142723  0.0109851 -0.238432 -0.000128835  0.0106556 -0.245631 -0.000115097  0.0103183 -0.252839 -0.000101477  0.00997019 -0.260054 -8.97348e-05  0.00961351 -0.267271 -7.89762e-05  0.0092504 -0.274493 -6.88434e-05  0.00887895 -0.281713 -5.89788e-05  0.00850272 -0.288931 -5.05447e-05  0.00812078 -0.296144 -4.15444e-05  0.00773406 -0.303353 -3.53754e-05  0.00734234 -0.310554 -2.85804e-05  0.00694823 -0.317747 -2.28286e-05  0.00655055 -0.324931 -1.69873e-05  0.00615072 -0.332104 -1.19805e-05  0.00574851 -0.339266 -6.91414e-06  0.00534558 -0.346419 -3.01003e-06  0.00494313 -0.353558 1.04308e-06  0.00454187 -0.360685 6.31809e-06  0 0 0  0.000278518 -0.000707626 -0.000412971  0.000929326 -0.001764 -0.000760287  0.00182749 -0.00312358 -0.00103793  0.00287879 -0.00475222 -0.00124666  0.00401092 -0.00663525 -0.00139186  0.005171 -0.00876731 -0.00148419  0.00632429 -0.0111482 -0.00153297  0.00745004 -0.0137761 -0.00154909  0.00853503 -0.016649 -0.00154161  0.00957495 -0.0197632 -0.00151798  0.0105631 -0.0231121 -0.00148243  0.0114961 -0.0266913 -0.00143901  0.0123771 -0.0304907 -0.00139204  0.0132054 -0.034506 -0.00134271  0.0139802 -0.0387267 -0.00129187  0.0147043 -0.0431457 -0.00124151  0.0153769 -0.0477548 -0.00119072  0.0160007 -0.0525445 -0.00114062  0.0165777 -0.0575088 -0.00109246  0.0171047 -0.0626386 -0.00104469  0.0175877 -0.0679249 -0.000998497  0.018026 -0.0733623 -0.000953615  0.01842 -0.0789403 -0.000909239  0.0187714 -0.0846538 -0.000866711  0.0190818 -0.0904946 -0.00082472  0.0193515 -0.0964552 -0.000783473  0.0195833 -0.10253 -0.000743866  0.0197767 -0.10871 -0.000705212  0.0199342 -0.11499 -0.000668168  0.0200567 -0.121366 -0.00063163  0.0201464 -0.127827 -0.000596553  0.0202003 -0.134371 -0.000561804  0.0202255 -0.140992 -0.000527531  0.0202193 -0.147682 -0.000495851  0.0201845 -0.154437 -0.000463843  0.0201221 -0.161252 -0.000434041  0.0200326 -0.168122 -0.000404  0.0199189 -0.175042 -0.000376344  0.0197792 -0.182008 -0.000348628  0.0196185 -0.189015 -0.00032264  0.0194364 -0.196059 -0.000297397  0.0192311 -0.203133 -0.000273436  0.0190094 -0.210238 -0.000249833  0.0187676 -0.217369 -0.000227928  0.0185094 -0.224521 -0.000205934  0.018234 -0.231689 -0.000186533  0.0179446 -0.238874 -0.000167608  0.0176392 -0.24607 -0.000148892  0.017324 -0.253276 -0.000133425  0.0169954 -0.260488 -0.000116557  0.0166574 -0.267705 -0.000102609  0.0163088 -0.274922 -8.86917e-05  0.0159495 -0.28214 -7.54893e-05  0.015584 -0.289356 -6.39558e-05  0.0152104 -0.296568 -5.3674e-05  0.0148311 -0.303774 -4.45545e-05  0.0144446 -0.310972 -3.60906e-05  0.0140553 -0.318165 -2.83718e-05  0.0136623 -0.325347 -2.16663e-05  0.0132654 -0.332519 -1.49906e-05  0.0128658 -0.339681 -8.82149e-06  0.0124636 -0.34683 -3.8445e-06  0.0120628 -0.353972 2.02656e-06  0.011662 -0.361103 6.91414e-06  0 0 0  0.000368886 -0.00105488 -0.000509262  0.00122948 -0.00232273 -0.000944704  0.00239454 -0.00379997 -0.00129583  0.00373799 -0.00548315 -0.0015606  0.00516713 -0.00738019 -0.00174296  0.00661841 -0.00950706 -0.00185782  0.00805646 -0.011871 -0.00191984  0.00945973 -0.0144793 -0.00193956  0.0108135 -0.0173323 -0.00193039  0.0121109 -0.020427 -0.00190079  0.0133486 -0.0237591 -0.00185671  0.0145229 -0.0273222 -0.00180346  0.0156375 -0.03111 -0.00174481  0.0166878 -0.035113 -0.00168231  0.0176781 -0.0393246 -0.00161877  0.0186079 -0.043735 -0.00155494  0.0194795 -0.0483367 -0.00149161  0.020292 -0.0531211 -0.00142953  0.0210496 -0.0580788 -0.00136831  0.0217515 -0.0632027 -0.00130838  0.0223989 -0.0684847 -0.00125027  0.0229951 -0.073916 -0.00119296  0.023541 -0.0794902 -0.00113744  0.0240364 -0.0852 -0.00108361  0.0244825 -0.0910369 -0.00103059  0.0248824 -0.0969928 -0.000979662  0.0252365 -0.103063 -0.00093025  0.0255479 -0.109241 -0.000880718  0.0258161 -0.115518 -0.000834316  0.0260415 -0.121888 -0.000788271  0.0262291 -0.128348 -0.000744224  0.0263777 -0.134887 -0.000700206  0.0264883 -0.141504 -0.00065887  0.0265639 -0.14819 -0.000618458  0.0266047 -0.154941 -0.000578851  0.026614 -0.161753 -0.000540704  0.0265918 -0.168619 -0.000503808  0.0265372 -0.175535 -0.000467658  0.0264571 -0.182497 -0.000433058  0.0263474 -0.1895 -0.000400305  0.0262115 -0.196539 -0.000369281  0.0260527 -0.203611 -0.000338644  0.0258694 -0.210711 -0.000309289  0.0256636 -0.217837 -0.000281453  0.0254393 -0.224984 -0.000255585  0.0251927 -0.23215 -0.000230402  0.0249312 -0.23933 -0.00020662  0.0246508 -0.246523 -0.000183642  0.0243547 -0.253725 -0.000162333  0.0240448 -0.260934 -0.000142723  0.0237205 -0.268146 -0.000123948  0.023386 -0.275361 -0.000107616  0.0230372 -0.282574 -9.19402e-05  0.0226824 -0.289788 -7.75456e-05  0.0223148 -0.296996 -6.49095e-05  0.0219414 -0.304199 -5.40912e-05  0.0215609 -0.311396 -4.31538e-05  0.0211751 -0.318584 -3.34978e-05  0.0207849 -0.325765 -2.47955e-05  0.0203891 -0.332935 -1.84178e-05  0.0199909 -0.340095 -1.16229e-05  0.0195894 -0.347245 -5.1558e-06  0.0191872 -0.354387 1.49012e-06  0.0187869 -0.361521 6.3777e-06  0 0 0  0.000488043 -0.00154227 -0.000607282  0.00159918 -0.00307167 -0.00113329  0.00307688 -0.00467056 -0.00156224  0.004731 -0.00639075 -0.00188121  0.00645888 -0.00828618 -0.00209874  0.00819951 -0.010391 -0.0022352  0.00991762 -0.01273 -0.00230795  0.0115907 -0.01531 -0.00233173  0.0132052 -0.0181358 -0.00232142  0.0147567 -0.0212064 -0.00228611  0.0162386 -0.0245168 -0.002233  0.0176524 -0.0280619 -0.00217009  0.0189945 -0.0318324 -0.00209978  0.0202661 -0.0358207 -0.00202534  0.0214683 -0.0400183 -0.00194925  0.022602 -0.0444174 -0.00187269  0.0236696 -0.049008 -0.0017958  0.0246694 -0.0537825 -0.00172088  0.0256069 -0.058732 -0.00164771  0.0264791 -0.0638466 -0.00157535  0.0272921 -0.0691205 -0.00150502  0.0280452 -0.0745448 -0.00143611  0.0287386 -0.0801121 -0.00136903  0.0293758 -0.0858133 -0.00130388  0.0299568 -0.0916429 -0.00124043  0.030486 -0.0975937 -0.00117919  0.0309626 -0.103656 -0.00111789  0.0313871 -0.109826 -0.00105932  0.0317628 -0.116097 -0.00100231  0.0320923 -0.122463 -0.000947028  0.032375 -0.128914 -0.000893354  0.0326145 -0.135448 -0.000841081  0.032809 -0.142057 -0.000791013  0.0329664 -0.148738 -0.000741988  0.0330801 -0.155484 -0.000693768  0.0331595 -0.162288 -0.000647783  0.0331986 -0.169148 -0.000603497  0.0332072 -0.176059 -0.000561029  0.0331795 -0.183014 -0.000519663  0.0331218 -0.190011 -0.000479251  0.0330329 -0.197044 -0.000441015  0.0329156 -0.204109 -0.000404119  0.0327713 -0.211205 -0.0003694  0.0326016 -0.218324 -0.000336111  0.0324051 -0.225466 -0.000304401  0.0321889 -0.232626 -0.00027439  0.0319498 -0.239801 -0.000244647  0.031692 -0.246988 -0.000217944  0.0314159 -0.254185 -0.00019291  0.0311215 -0.261388 -0.000168532  0.0308106 -0.268596 -0.000147343  0.0304866 -0.275806 -0.000126511  0.030148 -0.283016 -0.000107586  0.0297983 -0.290224 -9.05693e-05  0.0294402 -0.297429 -7.56085e-05  0.0290704 -0.304627 -6.16908e-05  0.0286927 -0.31182 -4.93228e-05  0.0283079 -0.319006 -3.8445e-05  0.0279176 -0.326183 -2.88785e-05  0.0275216 -0.333351 -2.05934e-05  0.0271239 -0.340511 -1.39475e-05  0.0267224 -0.347661 -6.70552e-06  0.026319 -0.354802 5.66244e-07  0.0259185 -0.361938 6.91414e-06  0 0 0  0.000627354 -0.00223452 -0.000711232  0.00210665 -0.00407338 -0.00134838  0.00393729 -0.00575322 -0.00184485  0.00590798 -0.00747496 -0.00220898  0.00792783 -0.00934124 -0.0024578  0.00994542 -0.0114105 -0.00261474  0.0119292 -0.0137104 -0.00269827  0.0138621 -0.0162557 -0.00272641  0.0157303 -0.0190502 -0.00271419  0.0175301 -0.0220928 -0.00267369  0.0192536 -0.0253786 -0.00261381  0.0208995 -0.0289012 -0.00253975  0.0224674 -0.0326521 -0.00245821  0.0239568 -0.036623 -0.00237131  0.0253683 -0.0408046 -0.00228211  0.0267037 -0.0451882 -0.00219277  0.027964 -0.0497659 -0.00210398  0.0291498 -0.054526 -0.00201681  0.0302643 -0.0594633 -0.00193021  0.0313063 -0.0645676 -0.00184575  0.0322807 -0.0698302 -0.00176296  0.033187 -0.0752438 -0.0016821  0.0340265 -0.0807995 -0.00160348  0.0348058 -0.0864918 -0.00152731  0.0355196 -0.0923117 -0.00145262  0.0361736 -0.0982519 -0.00138035  0.0367675 -0.104306 -0.00130904  0.0373048 -0.110467 -0.00124061  0.0377886 -0.116729 -0.00117338  0.0382183 -0.123084 -0.00110805  0.0385948 -0.129527 -0.00104511  0.0389237 -0.136053 -0.000983983  0.0392027 -0.142653 -0.000924557  0.0394347 -0.149325 -0.000866354  0.0396223 -0.156061 -0.0008111  0.0397666 -0.162859 -0.000756264  0.03987 -0.169709 -0.000705212  0.0399342 -0.176611 -0.000654429  0.0399604 -0.183559 -0.000605375  0.0399501 -0.190547 -0.000558794  0.039907 -0.197572 -0.000515193  0.0398281 -0.20463 -0.000470728  0.039721 -0.211717 -0.000430256  0.0395827 -0.218829 -0.000391364  0.0394161 -0.225963 -0.000353634  0.0392249 -0.233116 -0.000317991  0.0390081 -0.240284 -0.000284106  0.0387707 -0.247464 -0.000252634  0.0385091 -0.254654 -0.000222981  0.0382295 -0.261851 -0.000195473  0.03793 -0.269053 -0.000169367  0.0376163 -0.276256 -0.000145108  0.0372832 -0.28346 -0.00012359  0.036938 -0.290663 -0.000103861  0.0365839 -0.297862 -8.60095e-05  0.0362144 -0.305058 -7.06911e-05  0.0358396 -0.312246 -5.58197e-05  0.0354533 -0.319428 -4.3571e-05  0.0350623 -0.326602 -3.24547e-05  0.0346663 -0.333768 -2.33352e-05  0.0342674 -0.340926 -1.51396e-05  0.0338643 -0.348075 -7.62939e-06  0.0334597 -0.355218 -1.37091e-06  0.0330572 -0.362357 5.66244e-06  0 0 0  0.00108745 -0.00331295 -0.000896871  0.00299129 -0.00534004 -0.00159559  0.00512637 -0.00702488 -0.00213885  0.00735906 -0.00870359 -0.0025402  0.00962451 -0.0105199 -0.00281644  0.0118851 -0.0125408 -0.00299087  0.0141144 -0.0147973 -0.00308597  0.0162911 -0.0173041 -0.00311896  0.0184047 -0.0200648 -0.00310734  0.0204445 -0.0230777 -0.0030618  0.0224041 -0.0263367 -0.00299358  0.0242805 -0.0298345 -0.00291029  0.0260688 -0.0335627 -0.00281784  0.0277746 -0.0375139 -0.0027194  0.029393 -0.0416771 -0.00261804  0.0309277 -0.0460431 -0.00251657  0.032378 -0.0506034 -0.00241381  0.0337452 -0.0553493 -0.00231355  0.035035 -0.0602707 -0.00221482  0.0362455 -0.0653597 -0.00211865  0.0373777 -0.0706089 -0.0020231  0.0384362 -0.0760086 -0.00193098  0.03942 -0.0815521 -0.00184086  0.0403347 -0.0872306 -0.00175187  0.0411801 -0.0930378 -0.00166738  0.0419568 -0.0989661 -0.00158286  0.0426689 -0.105008 -0.00150183  0.0433178 -0.111158 -0.00142205  0.0439044 -0.117407 -0.00134644  0.0444304 -0.123751 -0.00127119  0.0449008 -0.130183 -0.00119784  0.0453129 -0.136696 -0.00112817  0.0456731 -0.143286 -0.00105983  0.04598 -0.149946 -0.000993311  0.0462384 -0.156673 -0.000928491  0.0464475 -0.163458 -0.000867277  0.0466108 -0.1703 -0.000807762  0.0467293 -0.177191 -0.000748515  0.0468066 -0.184128 -0.000693053  0.0468426 -0.191107 -0.000638992  0.0468397 -0.198122 -0.000586808  0.0467994 -0.205169 -0.000537664  0.0467241 -0.212246 -0.000491738  0.046617 -0.219349 -0.000448316  0.0464799 -0.226475 -0.000403643  0.0463099 -0.233618 -0.000363022  0.0461137 -0.240777 -0.00032416  0.0458896 -0.247949 -0.000288546  0.0456426 -0.255129 -0.000253141  0.0453746 -0.26232 -0.000221163  0.0450838 -0.269513 -0.000191629  0.0447767 -0.276711 -0.000164747  0.0444481 -0.283909 -0.000139028  0.044106 -0.291103 -0.000116348  0.0437515 -0.298298 -9.63211e-05  0.0433807 -0.305487 -7.7635e-05  0.043004 -0.31267 -6.28531e-05  0.0426171 -0.319849 -4.78029e-05  0.0422213 -0.327017 -3.70443e-05  0.041822 -0.334181 -2.77162e-05  0.041419 -0.341339 -1.94311e-05  0.041012 -0.348489 -1.17719e-05  0.0406058 -0.355632 -4.73857e-06  0.0402026 -0.362774 4.17233e-06  0 0 0  -0.00109927 -0.00299302 0.00130126  -0.00298592 -0.00478374 0.00229678  -0.00511277 -0.00628803 0.00305712  -0.00734776 -0.00781277 0.0036076  -0.00962535 -0.00948497 0.00397852  -0.011906 -0.0113659 0.00420737  -0.014166 -0.0134827 0.00432146  -0.0163875 -0.0158483 0.00435093  -0.0185592 -0.018465 0.00431773  -0.0206789 -0.0213307 0.00424024  -0.0227395 -0.0244388 0.00413242  -0.0247422 -0.0277818 0.00400302  -0.0266816 -0.0313517 0.00386244  -0.0285665 -0.0351381 0.00371495  -0.0303897 -0.0391349 0.00356534  -0.0321588 -0.0433314 0.00341502  -0.0338726 -0.0477214 0.0032661  -0.0355325 -0.0522945 0.00312111  -0.0371412 -0.0570427 0.00297847  -0.0386994 -0.0619587 0.00283989  -0.0402082 -0.0670355 0.00270528  -0.0416694 -0.0722636 0.00257474  -0.0430839 -0.0776386 0.00244805  -0.0444546 -0.0831526 0.00232506  -0.0457797 -0.0887965 0.00220618  -0.0470628 -0.0945672 0.00209028  -0.0483043 -0.100456 0.00197759  -0.0495044 -0.106457 0.00187105  -0.0506659 -0.112562 0.00176448  -0.0517857 -0.118768 0.00166133  -0.0528705 -0.125068 0.00156343  -0.0539161 -0.131456 0.00146821  -0.0549285 -0.137925 0.00137421  -0.0559032 -0.144472 0.0012852  -0.0568461 -0.15109 0.00119999  -0.0577524 -0.157776 0.00111631  -0.0586283 -0.164521 0.00103745  -0.0594745 -0.171325 0.000959486  -0.0602887 -0.178181 0.000886112  -0.0610735 -0.185081 0.000814468  -0.06183 -0.192028 0.000745773  -0.062556 -0.199012 0.000681728  -0.0632598 -0.206032 0.000620037  -0.063935 -0.213082 0.000560731  -0.0645876 -0.22016 0.000504494  -0.0652165 -0.227264 0.000452071  -0.0658216 -0.234386 0.000401825  -0.0664074 -0.241525 0.000354677  -0.0669706 -0.248682 0.000310302  -0.0675142 -0.255847 0.000269473  -0.0680418 -0.263023 0.000232279  -0.0685523 -0.270203 0.000196338  -0.0690434 -0.277389 0.000164926  -0.0695226 -0.284575 0.000136435  -0.0699859 -0.291762 0.000111252  -0.0704405 -0.29895 8.84533e-05  -0.070884 -0.306132 6.82175e-05  -0.0713174 -0.31331 5.19454e-05  -0.0717428 -0.320481 3.80874e-05  -0.0721612 -0.327646 2.71797e-05  -0.0725777 -0.334804 1.72257e-05  -0.0729873 -0.341957 8.79169e-06  -0.0734003 -0.349103 1.81794e-06  -0.0738111 -0.356246 -7.27177e-06  0 0 0  -0.000637442 -0.00195567 0.00101683  -0.00210044 -0.00357234 0.00192088  -0.00391124 -0.00507589 0.00261205  -0.00586651 -0.00664713 0.00310981  -0.00787851 -0.00837853 0.00344375  -0.00989631 -0.0103184 0.00364631  -0.0118928 -0.0124939 0.00374824  -0.0138554 -0.0149168 0.00377339  -0.0157726 -0.0175886 0.00374374  -0.0176414 -0.0205064 0.00367585  -0.0194598 -0.0236649 0.0035809  -0.0212258 -0.0270559 0.00346956  -0.0229425 -0.0306735 0.0033471  -0.024609 -0.0345078 0.00321853  -0.0262265 -0.0385491 0.00308877  -0.0277955 -0.0427909 0.00295818  -0.0293199 -0.047223 0.0028294  -0.0307996 -0.0518376 0.00270388  -0.032236 -0.0566274 0.00257984  -0.0336288 -0.0615838 0.00245914  -0.0349817 -0.0666997 0.00234279  -0.0362964 -0.0719677 0.00222975  -0.0375694 -0.0773797 0.0021202  -0.0388058 -0.0829297 0.00201344  -0.040006 -0.0886108 0.00191084  -0.0411693 -0.0944146 0.00181055  -0.042297 -0.100337 0.00171277  -0.0433931 -0.10637 0.00161907  -0.0444518 -0.112508 0.00152808  -0.0454816 -0.118744 0.00143969  -0.0464774 -0.125072 0.00135472  -0.0474423 -0.131488 0.00127172  -0.0483751 -0.137985 0.00119132  -0.0492821 -0.144558 0.00111416  -0.0501573 -0.151201 0.00103983  -0.0510054 -0.15791 0.000967652  -0.0518262 -0.16468 0.000898629  -0.0526204 -0.171504 0.000831336  -0.0533876 -0.178379 0.000768155  -0.0541308 -0.185302 0.000706315  -0.0548489 -0.192265 0.000647306  -0.0555437 -0.199267 0.000591308  -0.0562155 -0.206303 0.000537217  -0.056865 -0.213369 0.00048691  -0.0574937 -0.220463 0.000438243  -0.0581019 -0.227577 0.000392199  -0.0586908 -0.234713 0.000349611  -0.0592616 -0.241865 0.000308752  -0.0598133 -0.249029 0.000270694  -0.0603492 -0.256206 0.000236064  -0.0608699 -0.263389 0.000203341  -0.0613728 -0.270578 0.00017184  -0.0618656 -0.277771 0.000145435  -0.0623431 -0.284965 0.000120103  -0.0628088 -0.292158 9.799e-05  -0.0632646 -0.299347 7.78139e-05  -0.0637102 -0.306535 6.06775e-05  -0.0641484 -0.313715 4.52995e-05  -0.0645785 -0.320889 3.33786e-05  -0.0650022 -0.328055 2.35736e-05  -0.0654209 -0.335214 1.35601e-05  -0.0658367 -0.342365 5.96046e-06  -0.0662494 -0.349509 -1.93715e-06  -0.0666614 -0.356649 -1.07288e-05  0 0 0  -0.000487603 -0.00129185 0.000861406  -0.00158305 -0.00262168 0.00159922  -0.00303526 -0.00405574 0.00219288  -0.00466248 -0.0056324 0.00262469  -0.00636834 -0.0074003 0.00291616  -0.00809649 -0.00939001 0.00309277  -0.00981405 -0.0116182 0.00318161  -0.0115044 -0.0140924 0.00320533  -0.0131592 -0.0168136 0.00318021  -0.0147712 -0.0197804 0.00312158  -0.0163441 -0.0229854 0.00304168  -0.0178719 -0.0264228 0.00294659  -0.0193594 -0.0300832 0.00284174  -0.0208048 -0.0339585 0.00273275  -0.0222128 -0.0380424 0.00262254  -0.023581 -0.042323 0.00251138  -0.0249122 -0.0467933 0.00240141  -0.0262079 -0.0514469 0.00229409  -0.0274684 -0.0562743 0.00218928  -0.028695 -0.0612679 0.00208744  -0.0298886 -0.0664189 0.00198817  -0.0310491 -0.0717217 0.00189149  -0.0321792 -0.0771687 0.0017983  -0.03328 -0.0827513 0.00170839  -0.03435 -0.0884641 0.00162068  -0.0353919 -0.0943011 0.00153577  -0.0364052 -0.100254 0.00145259  -0.0373887 -0.106316 0.00137305  -0.0383465 -0.112484 0.00129646  -0.0392771 -0.118747 0.00122163  -0.0401827 -0.125102 0.00114888  -0.0410633 -0.131544 0.00107887  -0.0419185 -0.138066 0.00101072  -0.0427504 -0.144662 0.00094521  -0.0435569 -0.151328 0.000882834  -0.0443411 -0.15806 0.000820786  -0.0451026 -0.164849 0.000762612  -0.0458436 -0.171694 0.000706464  -0.0465603 -0.178589 0.000651777  -0.0472586 -0.185529 0.000600189  -0.0479355 -0.192509 0.000549883  -0.0485923 -0.199527 0.000502229  -0.049232 -0.206578 0.000457346  -0.0498517 -0.213659 0.000413746  -0.0504558 -0.220764 0.000373006  -0.0510392 -0.227892 0.000334293  -0.0516088 -0.23504 0.000298262  -0.0521615 -0.242202 0.000263184  -0.0526998 -0.249377 0.0002307  -0.0532229 -0.256561 0.000201374  -0.0537326 -0.263754 0.000172973  -0.0542305 -0.27095 0.0001477  -0.0547171 -0.278149 0.000124365  -0.0551927 -0.285349 0.000103772  -0.0556555 -0.292547 8.47876e-05  -0.0561106 -0.299742 6.76215e-05  -0.0565569 -0.306931 5.31375e-05  -0.0569956 -0.314115 3.96073e-05  -0.0574288 -0.321291 3.00705e-05  -0.0578535 -0.32846 2.07722e-05  -0.0582743 -0.335619 1.2219e-05  -0.0586925 -0.34277 4.44055e-06  -0.0591075 -0.349913 -3.8743e-06  -0.0595231 -0.35705 -1.12653e-05  0 0 0  -0.000363901 -0.00083743 0.000718534  -0.00120218 -0.00192679 0.00132385  -0.0023378 -0.00325166 0.00180507  -0.00364658 -0.004802 0.00216165  -0.00504294 -0.00658295 0.00240409  -0.0064705 -0.00860418 0.00255325  -0.00790012 -0.0108729 0.00262865  -0.00931191 -0.0133902 0.0026488  -0.0106974 -0.0161561 0.0026291  -0.0120514 -0.0191655 0.00258079  -0.0133717 -0.0224125 0.00251448  -0.0146605 -0.0258889 0.00243512  -0.0159155 -0.0295883 0.00234872  -0.01714 -0.0335015 0.00225785  -0.0183323 -0.0376201 0.00216609  -0.0194978 -0.0419365 0.00207388  -0.0206335 -0.0464426 0.0019832  -0.0217425 -0.0511292 0.00189361  -0.0228239 -0.0559897 0.001807  -0.0238796 -0.0610159 0.00172195  -0.0249125 -0.0662 0.00163949  -0.0259185 -0.0715337 0.00156125  -0.0269023 -0.0770109 0.00148344  -0.0278615 -0.0826246 0.00140908  -0.0287992 -0.0883668 0.00133723  -0.0297141 -0.0942316 0.00126588  -0.0306095 -0.100212 0.00119901  -0.0314827 -0.106301 0.00113317  -0.0323339 -0.112493 0.00106904  -0.0331659 -0.118783 0.00100762  -0.0339783 -0.125163 0.000947714  -0.0347695 -0.131628 0.000889599  -0.0355427 -0.138172 0.000833154  -0.0362978 -0.144791 0.000779271  -0.0370324 -0.151477 0.000727504  -0.0377502 -0.158228 0.000676781  -0.0384498 -0.165038 0.000629246  -0.0391338 -0.171899 0.000582308  -0.0397999 -0.178811 0.000537455  -0.040448 -0.185767 0.000495613  -0.0410824 -0.192764 0.000453174  -0.0417001 -0.199797 0.000414759  -0.0423021 -0.206862 0.000377297  -0.0428886 -0.213956 0.000340849  -0.0434632 -0.221072 0.000308186  -0.0440221 -0.228211 0.000276476  -0.0445685 -0.235368 0.00024572  -0.0451038 -0.24254 0.000217259  -0.0456238 -0.249724 0.00019145  -0.0461342 -0.256918 0.000166804  -0.0466309 -0.264117 0.000143349  -0.0471199 -0.27132 0.000123113  -0.0475976 -0.278526 0.00010404  -0.0480654 -0.28573 8.58307e-05  -0.048526 -0.292933 7.05123e-05  -0.0489776 -0.300132 5.67138e-05  -0.049422 -0.307326 4.43161e-05  -0.04986 -0.314512 3.3468e-05  -0.0502915 -0.321691 2.41697e-05  -0.0507171 -0.328862 1.65403e-05  -0.0511394 -0.336022 9.47714e-06  -0.0515563 -0.343173 2.26498e-06  -0.0519719 -0.350315 -4.38094e-06  -0.0523868 -0.357448 -1.09673e-05  0 0 0  -0.000270218 -0.000526384 0.000578165  -0.000892848 -0.00142506 0.00105679  -0.001755 -0.00264692 0.00143534  -0.00276498 -0.00415485 0.00171643  -0.0038574 -0.00593272 0.0019086  -0.00498754 -0.00797231 0.00202724  -0.00612536 -0.0102708 0.00208798  -0.00725475 -0.0128236 0.00210428  -0.00836766 -0.0156256 0.0020889  -0.00945866 -0.0186708 0.00205082  -0.0105257 -0.0219526 0.00199762  -0.0115707 -0.0254633 0.00193414  -0.0125919 -0.0291958 0.00186527  -0.0135914 -0.0331411 0.00179273  -0.0145695 -0.0372913 0.00171885  -0.0155262 -0.0416389 0.00164506  -0.0164649 -0.0461749 0.00157309  -0.0173841 -0.0508916 0.00150198  -0.0182848 -0.0557808 0.00143263  -0.0191679 -0.0608358 0.00136524  -0.0200353 -0.0660474 0.00129995  -0.0208842 -0.0714099 0.00123668  -0.0217192 -0.0769139 0.00117537  -0.022537 -0.0825538 0.00111648  -0.0233405 -0.0883221 0.00105843  -0.0241276 -0.0942119 0.00100246  -0.0249014 -0.100216 0.000948757  -0.0256593 -0.10633 0.000896305  -0.0264032 -0.112545 0.00084576  -0.027133 -0.118857 0.000796944  -0.0278479 -0.125259 0.000750154  -0.0285497 -0.131745 0.00070262  -0.0292382 -0.138309 0.000659108  -0.0299134 -0.144947 0.000616699  -0.0305748 -0.151653 0.000574917  -0.0312243 -0.15842 0.000534743  -0.0318599 -0.165246 0.000496298  -0.0324836 -0.172125 0.000460625  -0.0330956 -0.179051 0.00042522  -0.0336938 -0.186022 0.000390708  -0.0342813 -0.193032 0.000358641  -0.0348561 -0.200079 0.000326812  -0.0354207 -0.207155 0.000297278  -0.0359731 -0.21426 0.000269979  -0.0365157 -0.221389 0.000243425  -0.037046 -0.228537 0.000217944  -0.0375681 -0.235703 0.000194162  -0.038079 -0.242884 0.000171959  -0.0385818 -0.250076 0.000151515  -0.0390747 -0.257276 0.000132412  -0.0395586 -0.264482 0.000113785  -0.0400336 -0.271692 9.7394e-05  -0.0405002 -0.278903 8.18074e-05  -0.040961 -0.286112 6.83367e-05  -0.0414157 -0.293318 5.64456e-05  -0.0418622 -0.300522 4.47333e-05  -0.0423019 -0.307719 3.46899e-05  -0.0427375 -0.314909 2.69413e-05  -0.0431666 -0.32209 1.95503e-05  -0.0435908 -0.329262 1.34408e-05  -0.0440123 -0.336423 6.52671e-06  -0.0444288 -0.343575 1.3113e-06  -0.0448446 -0.350716 -4.55976e-06  -0.0452592 -0.357845 -1.07288e-05  0 0 0  -0.00018983 -0.000317395 0.000436068  -0.000630088 -0.00107718 0.000793636  -0.00124615 -0.00221497 0.00107363  -0.00197816 -0.00368202 0.00128058  -0.00277829 -0.0054495 0.00142276  -0.00361267 -0.00749922 0.00151101  -0.00445929 -0.00981748 0.00155747  -0.00530586 -0.0123964 0.00156981  -0.00614512 -0.0152271 0.00155804  -0.00697023 -0.0183018 0.00152946  -0.0077821 -0.0216119 0.00148904  -0.00858027 -0.0251515 0.00144175  -0.00936633 -0.0289101 0.00138932  -0.010139 -0.0328836 0.00133505  -0.0108985 -0.0370604 0.00127962  -0.0116475 -0.0414344 0.00122428  -0.0123858 -0.0459959 0.00116953  -0.0131141 -0.0507376 0.00111711  -0.0138321 -0.0556528 0.00106451  -0.0145415 -0.0607325 0.00101393  -0.0152417 -0.0659674 0.000965029  -0.0159326 -0.0713533 0.00091821  -0.016615 -0.0768815 0.000872403  -0.017289 -0.0825449 0.000827909  -0.0179539 -0.0883353 0.000784189  -0.0186127 -0.0942462 0.000742525  -0.0192627 -0.100273 0.000702381  -0.0199033 -0.106407 0.0006634  -0.0205367 -0.112643 0.000625998  -0.0211637 -0.118974 0.000589192  -0.0217808 -0.125394 0.000554621  -0.0223906 -0.1319 0.000519693  -0.0229919 -0.138481 0.000486612  -0.0235868 -0.145135 0.000454634  -0.0241714 -0.151857 0.000424534  -0.0247498 -0.15864 0.000395119  -0.0253193 -0.16548 0.000367075  -0.0258815 -0.172373 0.000339359  -0.0264363 -0.179313 0.000312716  -0.026983 -0.186297 0.000288099  -0.0275216 -0.193319 0.000263065  -0.0280521 -0.200375 0.000240207  -0.0285778 -0.207463 0.000218689  -0.0290937 -0.214577 0.000197679  -0.0296018 -0.221715 0.000178665  -0.0301025 -0.228873 0.000159949  -0.0305979 -0.236048 0.000142813  -0.0310857 -0.243235 0.000126094  -0.0315669 -0.250433 0.000110328  -0.0320394 -0.25764 9.59039e-05  -0.0325079 -0.264852 8.26418e-05  -0.0329688 -0.272067 7.15852e-05  -0.0334268 -0.279282 5.96046e-05  -0.0338757 -0.286496 4.99785e-05  -0.0343201 -0.293707 4.13656e-05  -0.0347598 -0.300913 3.2872e-05  -0.0351942 -0.308112 2.6226e-05  -0.035625 -0.315305 1.90437e-05  -0.0360518 -0.322488 1.46031e-05  -0.0364752 -0.329661 9.05991e-06  -0.0368931 -0.336824 4.50015e-06  -0.0373089 -0.343975 -5.96046e-08  -0.0377231 -0.351115 -5.21541e-06  -0.0381353 -0.358242 -1.06692e-05  0 0 0  -0.000118777 -0.000187546 0.000290751  -0.000394434 -0.000854909 0.00052771  -0.00078547 -0.00193316 0.000714034  -0.00125423 -0.00336939 0.000850558  -0.00177279 -0.00512749 0.000945091  -0.00231838 -0.00718203 0.00100347  -0.0028761 -0.00951496 0.00103387  -0.00343892 -0.0121123 0.00104207  -0.00400335 -0.0149643 0.00103384  -0.00456226 -0.0180615 0.00101468  -0.0051167 -0.0213947 0.000987828  -0.00566852 -0.0249566 0.00095576  -0.00621521 -0.0287387 0.000920266  -0.00675988 -0.0327325 0.000883549  -0.00730085 -0.0369315 0.000846595  -0.00784004 -0.0413262 0.000809073  -0.00837672 -0.0459094 0.00077191  -0.00891185 -0.0506721 0.000736535  -0.00944638 -0.0556074 0.000701249  -0.00997949 -0.0607077 0.000667036  -0.0105116 -0.0659642 0.000634789  -0.0110433 -0.0713697 0.000602782  -0.0115726 -0.0769174 0.000572115  -0.0121013 -0.0825996 0.000542313  -0.012628 -0.0884091 0.00051409  -0.0131549 -0.09434 0.000485778  -0.0136793 -0.100384 0.000459284  -0.0142026 -0.106536 0.000433028  -0.0147252 -0.112789 0.000408232  -0.0152435 -0.119136 0.000383377  -0.0157622 -0.125573 0.000360399  -0.0162765 -0.132092 0.000338048  -0.0167909 -0.138689 0.000316113  -0.0173028 -0.145359 0.000295311  -0.0178108 -0.152092 0.000274926  -0.0183156 -0.158889 0.000256062  -0.0188191 -0.165742 0.000236601  -0.0193181 -0.172647 0.000218034  -0.0198138 -0.1796 0.000201225  -0.0203068 -0.186593 0.00018543  -0.0207965 -0.193625 0.000169039  -0.021281 -0.200691 0.000153989  -0.0217633 -0.207787 0.00014028  -0.0222404 -0.21491 0.0001266  -0.0227137 -0.222056 0.000114352  -0.0231855 -0.229221 0.000101477  -0.0236526 -0.236401 8.99434e-05  -0.0241113 -0.243596 7.94828e-05  -0.0245712 -0.2508 6.935e-05  -0.0250258 -0.258011 6.08861e-05  -0.0254757 -0.265228 5.11706e-05  -0.0259221 -0.272447 4.42863e-05  -0.0263641 -0.279666 3.70145e-05  -0.0268042 -0.286883 3.10242e-05  -0.0272379 -0.294097 2.44081e-05  -0.0276709 -0.301306 1.9908e-05  -0.0280986 -0.308509 1.58846e-05  -0.0285251 -0.315702 1.05202e-05  -0.0289452 -0.322887 7.7486e-06  -0.0293648 -0.330062 5.03659e-06  -0.0297828 -0.337225 2.20537e-06  -0.0301967 -0.344377 -6.25849e-07  -0.0306087 -0.351516 -3.75509e-06  -0.0310199 -0.35864 -6.64592e-06  0 0 0  -5.31822e-05 -0.000121266 0.000143617  -0.000177562 -0.000739574 0.000261247  -0.00035511 -0.00178596 0.000354409  -0.000570804 -0.00320628 0.000422418  -0.000812382 -0.00495905 0.000470161  -0.00107464 -0.00701708 0.000499517  -0.00134617 -0.00936088 0.000514656  -0.0016292 -0.0119723 0.000519454  -0.00191599 -0.0148393 0.000514716  -0.00220782 -0.0179517 0.000504881  -0.00250429 -0.0213027 0.000490606  -0.00280827 -0.0248807 0.000473946  -0.00311762 -0.0286797 0.000455886  -0.00343215 -0.0326907 0.000436127  -0.00375319 -0.0369055 0.000417471  -0.00408196 -0.0413176 0.000397533  -0.0044167 -0.0459174 0.000377953  -0.00476003 -0.0506972 0.000359714  -0.00510824 -0.0556489 0.000341147  -0.00546324 -0.0607654 0.000323981  -0.00582588 -0.0660386 0.000306427  -0.00619543 -0.0714608 0.000291109  -0.00657141 -0.0770244 0.000275552  -0.00695312 -0.082722 0.000259817  -0.00734091 -0.0885477 0.000244617  -0.00773561 -0.0944928 0.000231415  -0.0081346 -0.100552 0.000218004  -0.00853801 -0.106719 0.000203997  -0.00894594 -0.112985 0.000192046  -0.00936174 -0.119347 0.000179857  -0.00977719 -0.125797 0.000168651  -0.0101972 -0.132329 0.000157744  -0.010622 -0.138938 0.000146538  -0.011049 -0.145618 0.000136256  -0.0114791 -0.152365 0.000126839  -0.0119104 -0.159172 0.000116408  -0.0123425 -0.166035 0.00010699  -0.01278 -0.172949 9.89139e-05  -0.0132163 -0.17991 9.06587e-05  -0.0136538 -0.186912 8.19266e-05  -0.0140922 -0.193952 7.48038e-05  -0.0145307 -0.201026 6.74427e-05  -0.014971 -0.208131 6.21676e-05  -0.0154078 -0.215259 5.45084e-05  -0.015847 -0.222411 4.8995e-05  -0.0162833 -0.229582 4.38988e-05  -0.0167217 -0.236768 3.77297e-05  -0.0171564 -0.243967 3.25143e-05  -0.0175915 -0.251176 2.84314e-05  -0.0180247 -0.258392 2.39015e-05  -0.0184557 -0.265611 2.03252e-05  -0.0188863 -0.272834 1.75238e-05  -0.0193155 -0.280056 1.40071e-05  -0.0197418 -0.287276 1.09375e-05  -0.0201662 -0.294492 8.64267e-06  -0.0205891 -0.301703 6.82473e-06  -0.0210104 -0.308906 4.73857e-06  -0.0214293 -0.316102 3.51667e-06  -0.0218472 -0.323288 1.75834e-06  -0.0222621 -0.330464 4.47035e-07  -0.0226743 -0.337629 -3.57628e-07  -0.0230873 -0.34478 -1.78814e-06  -0.0234973 -0.351918 -2.68221e-06  -0.0239069 -0.35904 -4.50015e-06  0 0 0  9.73046e-06 -0.000109732 -3.78489e-06  3.33935e-05 -0.000721186 -5.87106e-06  6.37323e-05 -0.00176328 -5.42402e-06  9.42647e-05 -0.00318262 -4.35114e-06  0.000122339 -0.00493926 -2.6226e-06  0.000142246 -0.00700384 -1.07288e-06  0.000154316 -0.0093542 -1.16229e-06  0.000154793 -0.0119745 -4.76837e-07  0.000142217 -0.0148515 -3.8743e-07  0.000117183 -0.0179748 -1.99676e-06  7.70092e-05 -0.021336 -2.80142e-06  2.21729e-05 -0.0249255 -4.26173e-06  -4.82798e-05 -0.0287359 -5.51343e-06  -0.000134408 -0.0327585 -7.83801e-06  -0.000235736 -0.0369856 -9.59635e-06  -0.000351846 -0.0414093 -1.19805e-05  -0.000484824 -0.0460211 -1.2815e-05  -0.000633836 -0.0508143 -1.54674e-05  -0.000796556 -0.055779 -1.65105e-05  -0.000973821 -0.0609072 -1.80304e-05  -0.00116754 -0.0661938 -2.0057e-05  -0.00137544 -0.0716281 -1.99378e-05  -0.00159669 -0.0772035 -2.12789e-05  -0.00183117 -0.0829144 -2.19047e-05  -0.00207818 -0.0887516 -2.2471e-05  -0.00234008 -0.0947096 -2.29478e-05  -0.00261259 -0.10078 -2.31564e-05  -0.00289583 -0.106958 -2.31564e-05  -0.00319064 -0.113236 -2.37226e-05  -0.00349712 -0.119608 -2.38419e-05  -0.00381136 -0.126068 -2.37525e-05  -0.00413728 -0.13261 -2.3365e-05  -0.00447178 -0.139229 -2.25306e-05  -0.00481296 -0.145918 -2.22325e-05  -0.00516438 -0.152673 -2.19047e-05  -0.0055213 -0.159489 -2.13087e-05  -0.00588536 -0.16636 -2.15471e-05  -0.00625753 -0.173281 -2.11298e-05  -0.00663471 -0.180248 -1.96099e-05  -0.00701475 -0.187259 -1.94609e-05  -0.00740266 -0.194304 -1.88351e-05  -0.00779414 -0.201384 -1.87457e-05  -0.00818944 -0.208492 -1.77622e-05  -0.00858879 -0.215627 -1.71065e-05  -0.00899029 -0.222784 -1.64509e-05  -0.00939369 -0.229959 -1.51992e-05  -0.00980091 -0.237148 -1.34706e-05  -0.0102103 -0.244351 -1.34408e-05  -0.0106194 -0.251562 -1.3262e-05  -0.0110312 -0.25878 -1.17421e-05  -0.0114436 -0.266004 -1.15633e-05  -0.0118561 -0.273228 -1.02222e-05  -0.012269 -0.280452 -9.23872e-06  -0.0126851 -0.287674 -9.05991e-06  -0.0130985 -0.294892 -7.7188e-06  -0.0135114 -0.302104 -6.4373e-06  -0.013926 -0.309309 -5.93066e-06  -0.0143378 -0.316505 -5.78165e-06  -0.0147502 -0.323692 -4.08292e-06  -0.015162 -0.330868 -3.27826e-06  -0.0155718 -0.338034 -2.05636e-06  -0.0159814 -0.345185 -1.10269e-06  -0.0163891 -0.352322 -1.07288e-06  -0.0167956 -0.359444 -6.25849e-07  0 0 0  7.31051e-05 -0.000151753 -0.000151902  0.000242665 -0.000795007 -0.000271887  0.000479728 -0.00186133 -0.000362873  0.000757605 -0.00329697 -0.000428975  0.00105548 -0.00506485 -0.000473917  0.00135753 -0.00713795 -0.000500262  0.00165194 -0.00949407 -0.000514269  0.00193459 -0.0121194 -0.000518262  0.00219595 -0.0150009 -0.000514835  0.00243574 -0.0181295 -0.00050652  0.00265384 -0.0214954 -0.000495106  0.00284636 -0.0250908 -0.000481457  0.0030148 -0.0289069 -0.000466585  0.00315762 -0.0329363 -0.000451535  0.00327593 -0.0371718 -0.000436068  0.00337029 -0.041603 -0.000419974  0.00343931 -0.0462228 -0.000404149  0.00348568 -0.051024 -0.000389069  0.00350726 -0.055997 -0.000373274  0.00350678 -0.0611351 -0.000359267  0.00348353 -0.0664296 -0.00034517  0.00343835 -0.0718729 -0.000330299  0.00337112 -0.0774583 -0.000315905  0.00328469 -0.0831768 -0.000303239  0.00317597 -0.0890236 -0.000289887  0.00304973 -0.0949905 -0.000276387  0.00290346 -0.101069 -0.000263095  0.00274074 -0.107255 -0.000251681  0.00255954 -0.113541 -0.000238806  0.0023613 -0.11992 -0.000226766  0.00214779 -0.126388 -0.000214636  0.00191832 -0.132937 -0.000203431  0.00167418 -0.139563 -0.000192463  0.00141644 -0.146259 -0.00018084  0.00114655 -0.15302 -0.000170648  0.000862122 -0.159841 -0.000160336  0.000568151 -0.166718 -0.000150174  0.000262022 -0.173645 -0.000139147  -5.36442e-05 -0.180617 -0.000130743  -0.000379801 -0.187631 -0.000121683  -0.000714779 -0.194682 -0.000113159  -0.00105906 -0.201765 -0.000104755  -0.00141072 -0.208877 -9.62615e-05  -0.00176835 -0.216015 -8.91984e-05  -0.00213408 -0.223174 -8.08537e-05  -0.00250483 -0.230351 -7.35819e-05  -0.00288153 -0.237544 -6.7085e-05  -0.00326157 -0.244748 -6.01113e-05  -0.00364852 -0.251961 -5.3376e-05  -0.00403929 -0.259181 -4.89652e-05  -0.00443172 -0.266406 -4.33922e-05  -0.00482869 -0.273631 -3.74019e-05  -0.0052278 -0.280856 -3.27528e-05  -0.00562835 -0.28808 -2.89381e-05  -0.00603151 -0.295297 -2.41101e-05  -0.00643587 -0.30251 -2.01762e-05  -0.00684142 -0.309716 -1.75536e-05  -0.00724912 -0.316911 -1.38879e-05  -0.00765395 -0.324099 -1.06394e-05  -0.00806355 -0.331275 -6.88434e-06  -0.00847006 -0.33844 -5.87106e-06  -0.00887704 -0.345591 -2.47359e-06  -0.00928235 -0.35273 8.34465e-07  -0.00968528 -0.359852 3.18885e-06  0 0 0  0.000137985 -0.000248909 -0.000297397  0.000460193 -0.000964224 -0.000535309  0.000908628 -0.00208127 -0.000718832  0.00143734 -0.00355017 -0.000852466  0.00200948 -0.00533742 -0.000943303  0.00259355 -0.00741899 -0.000997782  0.00317237 -0.00977939 -0.00102654  0.00373513 -0.0124055 -0.00103438  0.00426942 -0.0152869 -0.0010277  0.00477582 -0.0184138 -0.00101027  0.00524908 -0.02178 -0.000986546  0.00568831 -0.0253759 -0.000957906  0.00609469 -0.029193 -0.000926822  0.00646573 -0.0332253 -0.000894189  0.00680292 -0.0374627 -0.000861496  0.0071069 -0.0418976 -0.00082916  0.00737822 -0.0465219 -0.000795901  0.00761676 -0.051327 -0.000763088  0.00782466 -0.0563056 -0.000731975  0.00800037 -0.061448 -0.000701785  0.00814629 -0.0667476 -0.000671089  0.00826335 -0.0721962 -0.000641674  0.00835013 -0.0777869 -0.000612915  0.00841033 -0.0835122 -0.000584215  0.00844252 -0.0893633 -0.000557542  0.00844967 -0.0953351 -0.00053072  0.00843012 -0.10142 -0.000504047  0.00838578 -0.107611 -0.000479251  0.00831819 -0.113901 -0.000454485  0.00822759 -0.120286 -0.000430554  0.00811446 -0.126758 -0.000406176  0.00798082 -0.133311 -0.000383735  0.00782871 -0.13994 -0.000361294  0.00765562 -0.146641 -0.000339508  0.00746322 -0.153406 -0.000319749  0.00725436 -0.16023 -0.000299126  0.00702858 -0.167111 -0.000279218  0.00678873 -0.174041 -0.000260144  0.00653052 -0.181016 -0.000241637  0.00626183 -0.188031 -0.000224203  0.00597787 -0.195085 -0.000207752  0.00568056 -0.20217 -0.000190765  0.00537467 -0.209283 -0.000175685  0.00505543 -0.216422 -0.000160575  0.00472736 -0.223583 -0.000145316  0.00438786 -0.230761 -0.000132859  0.00404143 -0.237954 -0.000119328  0.00368643 -0.245159 -0.000107229  0.00332546 -0.252374 -9.51886e-05  0.00295663 -0.259594 -8.51154e-05  0.00258255 -0.266817 -7.43866e-05  0.00220323 -0.274043 -6.45816e-05  0.0018189 -0.281268 -5.6535e-05  0.0014298 -0.288491 -4.78327e-05  0.00103855 -0.295709 -3.95775e-05  0.000642538 -0.302921 -3.3915e-05  0.000245094 -0.310126 -2.864e-05  -0.00015378 -0.317323 -2.26498e-05  -0.000557184 -0.324509 -1.67787e-05  -0.000959635 -0.331684 -1.13547e-05  -0.00136423 -0.33885 -7.689e-06  -0.00176907 -0.346001 -2.5928e-06  -0.00217366 -0.353139 1.2517e-06  -0.00257659 -0.360263 5.63264e-06  0 0 0  0.000207007 -0.000408173 -0.000439346  0.000692651 -0.00123858 -0.000795424  0.00136562 -0.00243253 -0.00107169  0.0021551 -0.00394785 -0.00127396  0.00300509 -0.00575805 -0.00141099  0.00387621 -0.00784981 -0.00149554  0.0047406 -0.0102093 -0.00153899  0.00558209 -0.012831 -0.00155151  0.00638968 -0.0157055 -0.00154108  0.00715792 -0.018827 -0.00151524  0.00788683 -0.0221869 -0.00147846  0.00857055 -0.0257779 -0.00143549  0.0092122 -0.0295935 -0.00138888  0.00980884 -0.0336226 -0.00133929  0.0103646 -0.0378582 -0.00128886  0.0108781 -0.0422925 -0.00123855  0.0113497 -0.0469171 -0.0011895  0.0117806 -0.0517234 -0.00113973  0.0121715 -0.0567025 -0.0010922  0.0125247 -0.0618464 -0.00104478  0.0128382 -0.067148 -0.000999272  0.0131172 -0.0725989 -0.000954688  0.0133582 -0.0781913 -0.000910461  0.0135639 -0.0839189 -0.000868142  0.0137352 -0.0897722 -0.000826687  0.0138743 -0.0957458 -0.000786513  0.0139803 -0.101832 -0.000746608  0.014057 -0.108025 -0.000708908  0.0141023 -0.114318 -0.000671506  0.0141187 -0.120704 -0.000635058  0.0141077 -0.127178 -0.000599116  0.0140696 -0.133734 -0.000564724  0.0140052 -0.140365 -0.000532031  0.013916 -0.147066 -0.000499487  0.0138035 -0.153832 -0.000469178  0.0136676 -0.160659 -0.000438333  0.0135109 -0.167539 -0.000409007  0.0133345 -0.174469 -0.000380725  0.0131364 -0.181444 -0.000352949  0.0129211 -0.18846 -0.000326782  0.0126886 -0.195513 -0.000302136  0.0124388 -0.202599 -0.000277609  0.0121744 -0.209712 -0.000253797  0.0118954 -0.216851 -0.000231743  0.011601 -0.224011 -0.000210345  0.011297 -0.231188 -0.000190854  0.0109794 -0.238381 -0.000171125  0.0106494 -0.245585 -0.000153244  0.0103123 -0.252798 -0.000136822  0.00996399 -0.260017 -0.000120431  0.00960779 -0.26724 -0.000104845  0.00924373 -0.274465 -9.10163e-05  0.00887394 -0.281689 -7.91252e-05  0.00849724 -0.28891 -6.74129e-05  0.00811553 -0.296127 -5.75185e-05  0.00772977 -0.303338 -4.6581e-05  0.00733757 -0.310541 -3.78191e-05  0.00694299 -0.317737 -2.97725e-05  0.00654531 -0.324921 -2.22921e-05  0.00614691 -0.332096 -1.61827e-05  0.00574589 -0.33926 -1.03414e-05  0.00534272 -0.346412 -4.23193e-06  0.00493836 -0.353551 1.78814e-06  0.00453949 -0.360679 7.86781e-06  0 0 0  0.000285171 -0.000645518 -0.00057742  0.000951037 -0.00163519 -0.00105152  0.00186723 -0.0029282 -0.00142279  0.00293037 -0.00449818 -0.00169498  0.00406945 -0.00633323 -0.00188136  0.00523055 -0.00842834 -0.00199544  0.00637984 -0.0107828 -0.00205272  0.00750107 -0.013393 -0.00206962  0.00857794 -0.0162564 -0.00205639  0.0096091 -0.019365 -0.00202146  0.0105891 -0.0227137 -0.00197285  0.0115152 -0.0262969 -0.00191611  0.0123904 -0.0301036 -0.00185311  0.0132124 -0.034126 -0.00178614  0.0139842 -0.0383568 -0.00171924  0.0147042 -0.0427871 -0.00165248  0.0153753 -0.0474074 -0.0015851  0.0159961 -0.0522107 -0.00151947  0.0165716 -0.0571868 -0.00145462  0.0170981 -0.0623294 -0.00139183  0.0175796 -0.0676294 -0.00132936  0.0180172 -0.0730789 -0.00127003  0.0184108 -0.0786704 -0.00121155  0.0187614 -0.0843953 -0.00115433  0.0190715 -0.0902485 -0.00109839  0.0193427 -0.0962209 -0.00104392  0.019575 -0.102308 -0.000991791  0.0197676 -0.108499 -0.000940263  0.0199256 -0.114791 -0.000889868  0.0200473 -0.121177 -0.000841588  0.0201367 -0.12765 -0.000794172  0.0201914 -0.134204 -0.000748605  0.0202143 -0.140833 -0.000703186  0.0202098 -0.147534 -0.000660509  0.0201752 -0.154299 -0.000619382  0.0201125 -0.161122 -0.000577807  0.0200238 -0.168001 -0.000539124  0.0199087 -0.174931 -0.000501215  0.0197699 -0.181903 -0.00046584  0.0196104 -0.188918 -0.000429988  0.0194261 -0.195969 -0.00039649  0.0192227 -0.203052 -0.000364393  0.0189986 -0.210163 -0.000332862  0.0187585 -0.2173 -0.000303894  0.0184999 -0.224458 -0.000275493  0.018225 -0.231633 -0.000248581  0.017936 -0.238823 -0.000223577  0.017633 -0.246024 -0.00020045  0.0173159 -0.253234 -0.000177741  0.0169885 -0.260452 -0.000155598  0.0166492 -0.267673 -0.000135809  0.0163004 -0.274895 -0.000118554  0.0159433 -0.282116 -0.000100434  0.0155776 -0.289336 -8.52048e-05  0.015204 -0.296549 -7.16448e-05  0.0148258 -0.303759 -5.90682e-05  0.0144401 -0.310961 -4.85778e-05  0.0140507 -0.318154 -3.77297e-05  0.0136559 -0.325337 -2.90871e-05  0.0132599 -0.332512 -2.0057e-05  0.0128603 -0.339674 -1.17421e-05  0.0124595 -0.346825 -5.33462e-06  0.0120575 -0.353966 2.08616e-06  0.0116568 -0.361095 9.23872e-06  0 0 0  0.00037612 -0.000982523 -0.000711232  0.00125258 -0.00217867 -0.00130585  0.00243622 -0.00358933 -0.00177589  0.00379512 -0.00521421 -0.00212157  0.00523186 -0.0070647 -0.00235578  0.00668472 -0.00915623 -0.0024991  0.00811911 -0.0114964 -0.00257111  0.00951529 -0.0140885 -0.00259233  0.0108591 -0.0169324 -0.00257528  0.0121479 -0.0200245 -0.00253212  0.0133764 -0.0233582 -0.00247183  0.0145433 -0.0269266 -0.00239995  0.015648 -0.0307214 -0.00232154  0.0166946 -0.0347339 -0.00223863  0.0176799 -0.0389555 -0.0021542  0.0186057 -0.0433773 -0.00206953  0.0194725 -0.047991 -0.00198579  0.0202837 -0.0527874 -0.00190294  0.0210409 -0.0577583 -0.00182256  0.0217415 -0.0628957 -0.00174275  0.0223894 -0.0681902 -0.00166589  0.0229834 -0.0736349 -0.00158995  0.0235288 -0.0792227 -0.00151533  0.0240234 -0.0849435 -0.00144365  0.0244694 -0.0907917 -0.00137371  0.0248702 -0.0967609 -0.0013054  0.0252259 -0.102842 -0.00123885  0.0255358 -0.109031 -0.0011746  0.0258038 -0.11532 -0.00111192  0.0260309 -0.121701 -0.00105134  0.0262163 -0.12817 -0.000991732  0.0263658 -0.134721 -0.000933737  0.0264769 -0.141347 -0.00087738  0.0265532 -0.148043 -0.000822902  0.0265927 -0.154804 -0.000770926  0.0266018 -0.161624 -0.000719815  0.0265784 -0.168498 -0.000670999  0.0265241 -0.175423 -0.000623465  0.0264444 -0.182394 -0.000578165  0.0263352 -0.189403 -0.00053376  0.0261998 -0.19645 -0.00049156  0.0260417 -0.20353 -0.000451595  0.0258579 -0.210636 -0.000413179  0.0256524 -0.217769 -0.00037545  0.0254281 -0.224923 -0.000340223  0.025182 -0.232094 -0.000307024  0.0249202 -0.239281 -0.000275403  0.024641 -0.246478 -0.000245541  0.0243459 -0.253684 -0.000217587  0.0240355 -0.260898 -0.000191301  0.0237117 -0.268115 -0.000166863  0.0233769 -0.275333 -0.000143409  0.0230296 -0.282551 -0.000122637  0.0226731 -0.289767 -0.000104159  0.0223072 -0.296979 -8.69334e-05  0.021934 -0.304185 -7.05123e-05  0.0215559 -0.311384 -5.73993e-05  0.021168 -0.318574 -4.43161e-05  0.0207779 -0.325755 -3.41535e-05  0.0203817 -0.332928 -2.38419e-05  0.0199831 -0.340088 -1.48714e-05  0.019582 -0.34724 -7.42078e-06  0.0191808 -0.354381 1.16229e-06  0.0187807 -0.361515 9.65595e-06  0 0 0  0.000494443 -0.00145566 -0.000845104  0.00162187 -0.00290614 -0.00156599  0.00311445 -0.00443691 -0.00214148  0.00478518 -0.00610101 -0.00255862  0.00652367 -0.00795311 -0.0028393  0.00826824 -0.0100265 -0.00300857  0.00998336 -0.0123421 -0.00309479  0.0116499 -0.0149092 -0.00311974  0.0132565 -0.017729 -0.00309873  0.0147983 -0.020798 -0.0030477  0.0162716 -0.0241122 -0.00297582  0.0176751 -0.0276628 -0.00288939  0.0190085 -0.0314419 -0.00279501  0.0202748 -0.0354413 -0.00269663  0.0214719 -0.0396502 -0.00259495  0.0226005 -0.0440605 -0.00249323  0.0236642 -0.0486642 -0.00239205  0.0246626 -0.0534511 -0.00229248  0.0255971 -0.0584133 -0.00219482  0.0264691 -0.0635412 -0.00209856  0.0272801 -0.0688286 -0.00200525  0.0280317 -0.0742653 -0.00191367  0.0287268 -0.0798447 -0.00182456  0.0293626 -0.0855588 -0.00173745  0.0299445 -0.0914007 -0.00165313  0.0304726 -0.0973629 -0.00157112  0.0309501 -0.103438 -0.00149083  0.0313737 -0.109619 -0.00141242  0.0317503 -0.115901 -0.00133625  0.0320789 -0.122276 -0.00126228  0.0323625 -0.128739 -0.00119123  0.0326009 -0.135282 -0.0011214  0.0327976 -0.141903 -0.00105292  0.0329542 -0.148592 -0.000988483  0.0330689 -0.155347 -0.000924617  0.0331459 -0.16216 -0.000863463  0.0331883 -0.169029 -0.000804752  0.0331938 -0.175948 -0.000746965  0.0331683 -0.182911 -0.00069198  0.0331094 -0.189916 -0.000638872  0.033021 -0.196957 -0.000588328  0.0329037 -0.204029 -0.000539064  0.0327594 -0.211131 -0.000492692  0.0325906 -0.218258 -0.000448138  0.0323942 -0.225405 -0.000405878  0.0321777 -0.232571 -0.000365376  0.0319397 -0.239751 -0.0003272  0.0316806 -0.246945 -0.000291348  0.031404 -0.254145 -0.000257075  0.0311103 -0.261353 -0.000226051  0.0308006 -0.268565 -0.000196248  0.030478 -0.275779 -0.00016883  0.0301394 -0.282992 -0.000143826  0.0297902 -0.290204 -0.000121713  0.0294299 -0.297412 -0.000100195  0.0290608 -0.304614 -8.14497e-05  0.0286825 -0.311809 -6.55353e-05  0.0282996 -0.318997 -5.0813e-05  0.0279086 -0.326174 -3.78191e-05  0.0275145 -0.333344 -2.70605e-05  0.027117 -0.340505 -1.74344e-05  0.0267148 -0.347655 -8.19564e-06  0.0263126 -0.354797 8.9407e-07  0.0259113 -0.361933 9.68575e-06  0 0 0  0.000630841 -0.00212634 -0.000988334  0.00211835 -0.00387466 -0.00186503  0.00396459 -0.00548708 -0.00253302  0.00595203 -0.00715762 -0.00301072  0.00798455 -0.00898612 -0.00333068  0.0100094 -0.0110272 -0.00352564  0.0119944 -0.0133092 -0.00362432  0.013923 -0.0158435 -0.00365245  0.0157859 -0.018634 -0.00362855  0.0175766 -0.0216773 -0.00356957  0.019291 -0.024969 -0.0034866  0.0209284 -0.0284991 -0.00338662  0.0224889 -0.0322595 -0.00327608  0.0239711 -0.0362412 -0.00316069  0.0253785 -0.0404359 -0.00304168  0.0267091 -0.0448321 -0.0029234  0.0279652 -0.0494226 -0.00280452  0.0291482 -0.0541968 -0.00268802  0.0302604 -0.0591461 -0.00257322  0.031301 -0.0642639 -0.00245991  0.0322744 -0.0695389 -0.00235033  0.0331794 -0.0749656 -0.00224331  0.0340202 -0.0805346 -0.00213867  0.0347959 -0.0862389 -0.00203615  0.035511 -0.0920705 -0.00193638  0.0361636 -0.0980226 -0.00184005  0.0367599 -0.104089 -0.00174594  0.0372975 -0.110261 -0.00165358  0.0377797 -0.116533 -0.00156525  0.0382082 -0.1229 -0.00147828  0.0385858 -0.129354 -0.001394  0.038914 -0.135889 -0.0013113  0.0391929 -0.142499 -0.00123253  0.0394254 -0.14918 -0.00115618  0.039613 -0.155926 -0.00108024  0.0397584 -0.162731 -0.00100869  0.0398602 -0.169592 -0.000939369  0.0399263 -0.176501 -0.000872135  0.0399501 -0.183456 -0.000807852  0.0399415 -0.190453 -0.000745326  0.0398974 -0.197485 -0.000684768  0.0398202 -0.204551 -0.000627995  0.039712 -0.211645 -0.000572562  0.0395722 -0.218764 -0.000521213  0.0394073 -0.225904 -0.000471264  0.039216 -0.233062 -0.00042361  0.039 -0.240235 -0.000378937  0.0387607 -0.24742 -0.000336438  0.0385013 -0.254616 -0.000296563  0.0382202 -0.261818 -0.000260115  0.037921 -0.269023 -0.000225991  0.0376077 -0.27623 -0.000193477  0.0372756 -0.283438 -0.0001643  0.0369318 -0.290644 -0.000138342  0.0365758 -0.297847 -0.000113904  0.0362082 -0.305044 -9.24766e-05  0.0358312 -0.312234 -7.36415e-05  0.0354474 -0.319418 -5.76377e-05  0.0350564 -0.326595 -4.32432e-05  0.0346582 -0.333762 -2.98917e-05  0.0342591 -0.340919 -2.00868e-05  0.0338559 -0.348069 -1.08778e-05  0.033452 -0.355213 -9.23872e-07  0.0330486 -0.362351 9.38773e-06  0 0 0  0.0010722 -0.00316089 -0.00125217  0.00297464 -0.00509351 -0.00221092  0.00512472 -0.00671566 -0.0029439  0.00738016 -0.00834948 -0.00347143  0.00966352 -0.010134 -0.00382677  0.0119368 -0.0121336 -0.0040448  0.014173 -0.0143768 -0.00415722  0.0163535 -0.0168752 -0.00418979  0.0184634 -0.0196357 -0.00416416  0.0204975 -0.0226521 -0.00409794  0.0224513 -0.0259186 -0.00400171  0.02432 -0.0294255 -0.00388825  0.0261026 -0.0331654 -0.00376287  0.0278012 -0.0371284 -0.00363037  0.0294151 -0.0413051 -0.00349489  0.0309441 -0.0456859 -0.00335783  0.0323908 -0.0502595 -0.0032216  0.0337571 -0.0550178 -0.00308827  0.0350418 -0.0599543 -0.00295645  0.0362509 -0.0650555 -0.00282669  0.0373821 -0.0703186 -0.00270143  0.0384408 -0.0757319 -0.00257689  0.0394231 -0.0812876 -0.00245702  0.0403359 -0.0869797 -0.0023396  0.0411812 -0.0927987 -0.00222504  0.0419586 -0.0987383 -0.00211307  0.0426707 -0.104792 -0.00200534  0.043318 -0.110953 -0.00190032  0.0439043 -0.117213 -0.00179651  0.0444299 -0.123567 -0.00169611  0.0448989 -0.13001 -0.00159961  0.0453124 -0.136534 -0.0015049  0.0456712 -0.143134 -0.00141418  0.0459783 -0.149804 -0.00132516  0.0462363 -0.156539 -0.00124004  0.0464454 -0.163334 -0.00115669  0.0466063 -0.170184 -0.0010758  0.0467269 -0.177083 -0.000998437  0.0468035 -0.184028 -0.000922769  0.0468388 -0.191012 -0.000852674  0.0468349 -0.198036 -0.000784218  0.0467949 -0.205092 -0.00071758  0.0467227 -0.212176 -0.000655442  0.0466123 -0.219285 -0.000593841  0.0464752 -0.226416 -0.000537694  0.0463049 -0.233564 -0.000481784  0.0461082 -0.240729 -0.000430316  0.0458858 -0.247907 -0.000382185  0.045639 -0.255093 -0.000336856  0.0453689 -0.262287 -0.000295371  0.0450804 -0.269485 -0.000254244  0.044771 -0.276687 -0.000218511  0.0444458 -0.283887 -0.000185877  0.044102 -0.291086 -0.000152946  0.0437467 -0.298282 -0.000126898  0.0433772 -0.305475 -0.000102967  0.0429986 -0.312662 -8.00192e-05  0.0426097 -0.319841 -6.36578e-05  0.0422146 -0.327012 -4.71473e-05  0.0418139 -0.334176 -3.44217e-05  0.0414109 -0.341332 -2.39909e-05  0.0410035 -0.348482 -1.48118e-05  0.0405972 -0.355625 -2.92063e-06  0.0401921 -0.362767 5.66244e-06  0 0 0  -0.00107375 -0.00276805 0.00172156  -0.00296306 -0.00442371 0.0030112  -0.0051093 -0.00583815 0.0039719  -0.00736727 -0.00729797 0.00464621  -0.00966212 -0.00892405 0.00508672  -0.0119492 -0.0107725 0.00534454  -0.0142084 -0.0128723 0.00546443  -0.0164213 -0.0152306 0.00548157  -0.0185818 -0.0178508 0.00542402  -0.0206861 -0.0207269 0.00531599  -0.022733 -0.0238494 0.00517377  -0.0247219 -0.0272107 0.00500959  -0.0266504 -0.0308006 0.00482979  -0.0285234 -0.0346089 0.00464544  -0.0303392 -0.0386274 0.00445673  -0.0321016 -0.0428458 0.00426972  -0.0338101 -0.0472564 0.00408444  -0.0354666 -0.0518493 0.00390196  -0.0370735 -0.0566188 0.0037252  -0.0386306 -0.0615549 0.0035516  -0.0401387 -0.0666495 0.00338346  -0.0416009 -0.0718991 0.00322187  -0.043017 -0.0772925 0.00306296  -0.0443879 -0.0828224 0.00290927  -0.0457139 -0.0884844 0.00275993  -0.0469973 -0.0942712 0.00261515  -0.0482419 -0.100175 0.00247514  -0.0494432 -0.106191 0.0023393  -0.0506057 -0.112313 0.00220761  -0.0517299 -0.118532 0.00207978  -0.0528156 -0.124847 0.00195619  -0.0538644 -0.131248 0.00183648  -0.0548785 -0.137731 0.00172085  -0.0558534 -0.144291 0.00160873  -0.0567982 -0.150921 0.00150004  -0.0577095 -0.157618 0.0013974  -0.0585892 -0.164375 0.00129625  -0.059433 -0.171189 0.00120053  -0.0602517 -0.178055 0.00110695  -0.0610378 -0.184968 0.00101817  -0.061795 -0.191923 0.000934035  -0.062526 -0.198916 0.000851691  -0.0632319 -0.205946 0.000774413  -0.0639088 -0.213005 0.000700921  -0.064564 -0.220091 0.000630081  -0.065191 -0.227199 0.0005638  -0.0658 -0.234329 0.000501245  -0.0663865 -0.241477 0.000441134  -0.0669532 -0.248637 0.000386357  -0.0674984 -0.255808 0.000334561  -0.0680263 -0.262989 0.000287443  -0.068536 -0.270174 0.000243753  -0.0690312 -0.277365 0.00020501  -0.0695114 -0.284558 0.000167936  -0.0699785 -0.291748 0.000135124  -0.0704303 -0.298937 0.000107467  -0.070873 -0.306121 8.22544e-05  -0.0713077 -0.313302 6.20186e-05  -0.0717325 -0.320475 4.41968e-05  -0.0721521 -0.327643 3.05176e-05  -0.0725665 -0.334802 1.90437e-05  -0.0729787 -0.341953 9.08971e-06  -0.0733888 -0.349098 -4.17233e-07  -0.0737972 -0.35624 -1.01328e-05  0 0 0  -0.000642687 -0.00179273 0.00133997  -0.00212072 -0.00327851 0.00251374  -0.00395115 -0.00468372 0.00338238  -0.00592372 -0.00618253 0.00398809  -0.00794142 -0.00785822 0.00438097  -0.00995657 -0.00976181 0.00461018  -0.011943 -0.0119149 0.00471604  -0.013889 -0.0143269 0.00473264  -0.0157881 -0.0169984 0.00468475  -0.0176387 -0.0199226 0.00459242  -0.0194388 -0.0230938 0.00446936  -0.02119 -0.0265013 0.00432739  -0.0228939 -0.0301362 0.00417364  -0.0245488 -0.0339897 0.00401387  -0.0261579 -0.0380518 0.00385165  -0.0277207 -0.0423132 0.00368991  -0.0292405 -0.0467653 0.0035302  -0.030718 -0.0514005 0.00337249  -0.032151 -0.0562097 0.00321928  -0.0335451 -0.0611848 0.00306991  -0.0348979 -0.0663204 0.00292543  -0.0362116 -0.0716056 0.00278443  -0.0374871 -0.0770359 0.00264785  -0.0387253 -0.0826031 0.00251511  -0.0399271 -0.0883002 0.00238627  -0.0410928 -0.0941212 0.00226167  -0.0422229 -0.10006 0.00214007  -0.0433191 -0.106107 0.0020228  -0.0443821 -0.112259 0.00190908  -0.0454131 -0.118511 0.0017992  -0.046412 -0.124853 0.00169268  -0.0473788 -0.131283 0.00158897  -0.0483153 -0.137792 0.0014888  -0.0492239 -0.144377 0.00139266  -0.0501034 -0.151032 0.00129935  -0.0509517 -0.157754 0.00120956  -0.0517759 -0.164533 0.00112262  -0.0525723 -0.171369 0.00104001  -0.0533421 -0.178255 0.000959426  -0.0540853 -0.185187 0.000882089  -0.0548077 -0.192161 0.000809342  -0.0555043 -0.199171 0.0007388  -0.0561771 -0.206216 0.000671566  -0.0568302 -0.213291 0.000607699  -0.0574625 -0.220391 0.000547826  -0.0580733 -0.227513 0.000490308  -0.0586638 -0.234656 0.000435859  -0.0592356 -0.241813 0.000384986  -0.0597892 -0.248985 0.000338346  -0.0603282 -0.256167 0.000293404  -0.0608487 -0.263355 0.000252515  -0.0613563 -0.270549 0.000215083  -0.0618494 -0.277747 0.000179321  -0.0623281 -0.284945 0.000148475  -0.0627952 -0.292141 0.000121117  -0.0632527 -0.299334 9.69768e-05  -0.0636988 -0.306524 7.54297e-05  -0.064136 -0.313706 5.70118e-05  -0.0645657 -0.320882 4.10974e-05  -0.064991 -0.328049 2.81334e-05  -0.0654106 -0.335209 1.65999e-05  -0.0658264 -0.34236 6.22869e-06  -0.0662408 -0.349505 -3.18885e-06  -0.0666528 -0.356645 -1.40071e-05  0 0 0  -0.000498511 -0.00116068 0.00114009  -0.00161879 -0.00237345 0.00209051  -0.00309059 -0.00370669 0.00283307  -0.00473288 -0.00520513 0.00335696  -0.00644186 -0.00691362 0.00369865  -0.00816283 -0.00886086 0.00389901  -0.00986421 -0.0110628 0.00399303  -0.0115357 -0.0135232 0.00400919  -0.0131695 -0.0162417 0.00396979  -0.0147619 -0.0192124 0.00389203  -0.0163153 -0.0224272 0.00378856  -0.0178292 -0.0258777 0.00366786  -0.0193025 -0.0295544 0.00353831  -0.0207383 -0.0334476 0.00340274  -0.0221364 -0.037549 0.00326508  -0.0234987 -0.041849 0.00312755  -0.0248266 -0.0463396 0.00299194  -0.0261191 -0.0510114 0.00285938  -0.0273784 -0.0558579 0.00272867  -0.0286044 -0.0608699 0.00260237  -0.0297977 -0.0660396 0.00248  -0.030961 -0.071361 0.00235993  -0.0320922 -0.0768243 0.00224447  -0.0331936 -0.082425 0.00213173  -0.0342656 -0.0881554 0.00202274  -0.0353092 -0.0940077 0.00191584  -0.0363232 -0.0999748 0.00181448  -0.0373116 -0.106053 0.00171494  -0.0382717 -0.112235 0.00161868  -0.0392046 -0.118513 0.00152522  -0.040114 -0.124883 0.00143486  -0.040997 -0.131337 0.00134772  -0.0418541 -0.137872 0.00126237  -0.0426872 -0.144481 0.00118104  -0.043498 -0.151159 0.00110236  -0.0442834 -0.157902 0.00102645  -0.0450485 -0.164703 0.000953466  -0.0457916 -0.171559 0.000881642  -0.0465124 -0.178464 0.000814199  -0.0472119 -0.185413 0.000749856  -0.0478921 -0.192404 0.000687331  -0.0485516 -0.199431 0.000628114  -0.0491927 -0.20649 0.00057146  -0.0498157 -0.213578 0.000516713  -0.0504191 -0.220692 0.000466198  -0.051007 -0.227828 0.000417918  -0.0515788 -0.234981 0.000371426  -0.0521343 -0.24215 0.000329316  -0.0526741 -0.249331 0.000288337  -0.0531986 -0.256521 0.00025019  -0.0537114 -0.263719 0.000217021  -0.0542107 -0.270921 0.000184476  -0.0546982 -0.278124 0.000155121  -0.0551748 -0.285327 0.000129312  -0.0556412 -0.292529 0.000105858  -0.0560975 -0.299728 8.44598e-05  -0.0565453 -0.30692 6.65188e-05  -0.0569851 -0.314107 4.99785e-05  -0.0574174 -0.321284 3.71933e-05  -0.0578446 -0.328454 2.49445e-05  -0.0582652 -0.335614 1.44243e-05  -0.0586827 -0.342765 4.50015e-06  -0.0590982 -0.349909 -4.79817e-06  -0.0595119 -0.357044 -1.35601e-05  0 0 0  -0.00037472 -0.000727847 0.000954002  -0.00123718 -0.00170797 0.00173071  -0.00239527 -0.00293416 0.00232887  -0.00371645 -0.00440274 0.00276086  -0.00511411 -0.00612186 0.00304604  -0.00653383 -0.00809859 0.00321415  -0.00794691 -0.0103386 0.00329459  -0.00933853 -0.0128414 0.00330949  -0.0107039 -0.0156007 0.00327715  -0.0120388 -0.0186106 0.00321361  -0.0133422 -0.0218649 0.00312752  -0.0146142 -0.0253526 0.00302887  -0.015857 -0.0290653 0.00292099  -0.0170717 -0.0329944 0.00280803  -0.0182571 -0.0371308 0.00269502  -0.0194156 -0.0414651 0.00258076  -0.0205481 -0.0459891 0.00246903  -0.0216542 -0.0506948 0.00235882  -0.0227355 -0.0555739 0.0022513  -0.0237906 -0.0606183 0.00214672  -0.0248228 -0.06582 0.00204509  -0.0258303 -0.0711714 0.00194582  -0.0268151 -0.0766666 0.00185084  -0.027777 -0.0822971 0.00175795  -0.0287178 -0.0880556 0.00166774  -0.0296354 -0.0939363 0.00158152  -0.0305319 -0.0999323 0.00149605  -0.0314066 -0.106037 0.00141361  -0.0322603 -0.112244 0.00133425  -0.0330955 -0.118548 0.00125754  -0.0339098 -0.124941 0.00118327  -0.0347052 -0.131419 0.00111035  -0.0354788 -0.137977 0.00104082  -0.0362377 -0.144609 0.000974059  -0.0369744 -0.151307 0.000908405  -0.0376961 -0.158068 0.00084576  -0.038398 -0.164889 0.000785589  -0.0390844 -0.171763 0.000727534  -0.0397511 -0.178685 0.000671118  -0.0404038 -0.185651 0.000617653  -0.0410395 -0.192657 0.000567436  -0.0416598 -0.199698 0.000518441  -0.0422652 -0.206772 0.000471085  -0.0428531 -0.213873 0.000426739  -0.0434296 -0.220999 0.000384867  -0.0439909 -0.228145 0.00034517  -0.0445404 -0.235309 0.000307679  -0.0450764 -0.242488 0.000272214  -0.0455992 -0.249678 0.000238597  -0.0461106 -0.256876 0.000208855  -0.0466108 -0.264081 0.000180185  -0.0471003 -0.27129 0.000154257  -0.04758 -0.278499 0.000130355  -0.048049 -0.285708 0.000108927  -0.0485108 -0.292914 8.87811e-05  -0.0489635 -0.300117 7.08699e-05  -0.0494084 -0.307314 5.53429e-05  -0.0498481 -0.314502 4.31538e-05  -0.050281 -0.321685 3.09646e-05  -0.0507078 -0.328856 2.06828e-05  -0.0511298 -0.336016 1.14739e-05  -0.0515482 -0.343167 3.33786e-06  -0.0519636 -0.35031 -5.66244e-06  -0.0523784 -0.357443 -1.64509e-05  0 0 0  -0.000279993 -0.000430837 0.000769377  -0.000925377 -0.00122687 0.00138342  -0.00180705 -0.00235184 0.00185308  -0.00282724 -0.00377926 0.00219101  -0.00392002 -0.00549366 0.0024164  -0.00504026 -0.00748836 0.00255081  -0.00616324 -0.00975671 0.00261503  -0.00727475 -0.0122914 0.00262681  -0.00836879 -0.0150846 0.00260222  -0.00944287 -0.0181286 0.00255206  -0.0104958 -0.0214151 0.00248393  -0.011526 -0.0249343 0.00240424  -0.0125377 -0.028678 0.00231805  -0.0135271 -0.0326378 0.00222862  -0.0144978 -0.0368047 0.0021382  -0.015451 -0.0411688 0.00204685  -0.0163853 -0.0457226 0.00195822  -0.0173024 -0.050457 0.00186983  -0.018203 -0.0553646 0.00178435  -0.0190864 -0.0604371 0.00170133  -0.0199523 -0.0656673 0.00162035  -0.0208036 -0.0710462 0.00154233  -0.0216399 -0.0765687 0.00146589  -0.0224594 -0.0822249 0.00139195  -0.0232639 -0.0880092 0.00132051  -0.024053 -0.0939155 0.00125131  -0.0248293 -0.0999361 0.0011839  -0.0255895 -0.106064 0.00111902  -0.026336 -0.112295 0.00105572  -0.027068 -0.11862 0.000994056  -0.0277848 -0.125036 0.000935495  -0.0284896 -0.131535 0.000878513  -0.0291808 -0.138112 0.000822425  -0.0298576 -0.144762 0.000769466  -0.0305221 -0.15148 0.000718534  -0.0311737 -0.15826 0.000668585  -0.0318112 -0.165098 0.00062108  -0.0324371 -0.171987 0.000574559  -0.033051 -0.178924 0.00053063  -0.0336523 -0.185905 0.000488728  -0.0342412 -0.192923 0.00044778  -0.0348186 -0.199979 0.000409454  -0.0353851 -0.207064 0.00037235  -0.0359397 -0.214177 0.000336826  -0.0364835 -0.221313 0.000304103  -0.0370193 -0.22847 0.000273615  -0.0375426 -0.235643 0.000243098  -0.0380535 -0.242831 0.00021559  -0.038558 -0.250029 0.000189155  -0.0390525 -0.257234 0.000165373  -0.0395381 -0.264446 0.000142425  -0.0400152 -0.27166 0.000122547  -0.0404868 -0.278875 0.000103533  -0.0409474 -0.286089 8.57413e-05  -0.0414011 -0.2933 7.05123e-05  -0.0418499 -0.300505 5.67734e-05  -0.0422919 -0.307705 4.44949e-05  -0.0427275 -0.314899 3.33786e-05  -0.0431585 -0.322081 2.45571e-05  -0.0435834 -0.329255 1.64807e-05  -0.0440049 -0.336418 8.52346e-06  -0.0444219 -0.34357 1.19209e-06  -0.0448358 -0.350711 -6.58631e-06  -0.0452497 -0.357839 -1.52588e-05  0 0 0  -0.000197444 -0.000233263 0.000580668  -0.000654764 -0.000894666 0.00103852  -0.00128587 -0.00193796 0.00138608  -0.00202623 -0.00332409 0.00163522  -0.00282568 -0.00502914 0.00180173  -0.00365141 -0.00703311 0.00190133  -0.00448662 -0.00932032 0.00194922  -0.00531808 -0.0118791 0.001959  -0.00613987 -0.0146993 0.00194061  -0.00695276 -0.0177704 0.00190213  -0.00775337 -0.0210828 0.00185111  -0.00853992 -0.0246294 0.00179139  -0.00931549 -0.0283994 0.0017269  -0.0100813 -0.0323844 0.00165933  -0.0108354 -0.0365765 0.00159124  -0.0115812 -0.0409662 0.00152352  -0.0123168 -0.0455451 0.00145608  -0.0130428 -0.0503041 0.00139022  -0.0137591 -0.0552362 0.00132635  -0.0144691 -0.0603332 0.00126314  -0.0151691 -0.0655869 0.00120243  -0.0158607 -0.0709906 0.00114441  -0.0165451 -0.0765343 0.00108746  -0.0172212 -0.0822141 0.00103229  -0.0178881 -0.0880214 0.000978857  -0.0185466 -0.0939485 0.000926882  -0.0192001 -0.0999899 0.000876516  -0.0198433 -0.10614 0.000828177  -0.0204793 -0.11239 0.000781655  -0.0211065 -0.118736 0.000736177  -0.0217255 -0.12517 0.000691503  -0.0223366 -0.131688 0.000649303  -0.0229414 -0.138282 0.000608116  -0.0235386 -0.144949 0.000567973  -0.0241249 -0.151683 0.000530809  -0.0247056 -0.158478 0.000493288  -0.0252786 -0.16533 0.00045827  -0.0258441 -0.172233 0.00042367  -0.0263987 -0.179184 0.000390917  -0.0269489 -0.186177 0.000359178  -0.027488 -0.193209 0.000329703  -0.0280232 -0.200274 0.00030145  -0.0285468 -0.207371 0.000273317  -0.0290642 -0.214494 0.000247896  -0.0295751 -0.221639 0.000223577  -0.0300777 -0.228804 0.000200033  -0.0305755 -0.235986 0.000178158  -0.0310638 -0.24318 0.000157624  -0.0315466 -0.250385 0.000138819  -0.0320234 -0.257597 0.000120878  -0.0324924 -0.264814 0.000104785  -0.0329554 -0.272034 8.85725e-05  -0.0334127 -0.279253 7.48038e-05  -0.0338638 -0.286472 6.23167e-05  -0.0343099 -0.293687 5.13196e-05  -0.0347505 -0.300896 4.17531e-05  -0.0351863 -0.308099 3.317e-05  -0.0356185 -0.315293 2.46465e-05  -0.0360448 -0.322479 1.74344e-05  -0.0364678 -0.329654 1.16825e-05  -0.0368869 -0.336819 5.54323e-06  -0.0373046 -0.343971 -2.38419e-07  -0.0377173 -0.351109 -5.96046e-06  -0.0381308 -0.358233 -1.24872e-05  0 0 0  -0.000123773 -0.000110567 0.000387341  -0.000411205 -0.000683606 0.000691056  -0.000812247 -0.00166881 0.000920922  -0.00128464 -0.00302547 0.0010857  -0.00180021 -0.00472158 0.00119543  -0.00234014 -0.00673085 0.0012615  -0.00288916 -0.00903133 0.00129318  -0.0034419 -0.0116074 0.00129905  -0.00399244 -0.0144469 0.00128666  -0.00454164 -0.0175391 0.00126213  -0.00508738 -0.0208731 0.00122723  -0.00563115 -0.0244402 0.00118726  -0.00617188 -0.028231 0.00114286  -0.00671053 -0.0322374 0.00109771  -0.00724769 -0.036449 0.00105193  -0.00778353 -0.0408597 0.00100598  -0.00831807 -0.0454588 0.000960976  -0.00885212 -0.0502393 0.000916213  -0.00938642 -0.0551917 0.000873089  -0.00991988 -0.0603088 0.000831425  -0.0104513 -0.0655825 0.000790119  -0.0109826 -0.0710053 0.000751585  -0.0115131 -0.0765699 0.000712991  -0.012044 -0.0822681 0.000676453  -0.0125732 -0.0880941 0.000640959  -0.0131001 -0.0940405 0.000606626  -0.0136266 -0.1001 0.000573397  -0.014151 -0.106267 0.000540763  -0.0146753 -0.112535 0.000509024  -0.0151972 -0.118897 0.000478685  -0.0157173 -0.125348 0.000450552  -0.0162348 -0.13188 0.00042209  -0.0167496 -0.13849 0.000394523  -0.0172632 -0.145171 0.000369132  -0.0177727 -0.151918 0.000344276  -0.0182796 -0.158727 0.000318974  -0.018785 -0.16559 0.000295639  -0.0192852 -0.172505 0.000273019  -0.0197828 -0.179468 0.000252008  -0.0202782 -0.186471 0.000230819  -0.0207679 -0.193514 0.000211269  -0.0212562 -0.200589 0.000193119  -0.0217395 -0.207693 0.000175089  -0.0222189 -0.214825 0.000157893  -0.0226936 -0.221978 0.00014171  -0.0231657 -0.229151 0.000126541  -0.0236344 -0.236338 0.000113398  -0.0240965 -0.24354 9.98676e-05  -0.0245564 -0.25075 8.77678e-05  -0.025013 -0.257967 7.57277e-05  -0.0254638 -0.265189 6.55949e-05  -0.0259116 -0.272413 5.51045e-05  -0.0263553 -0.279637 4.72367e-05  -0.0267959 -0.286858 3.86238e-05  -0.0272293 -0.294076 3.11732e-05  -0.0276639 -0.301288 2.52426e-05  -0.0280933 -0.308494 1.93119e-05  -0.0285187 -0.31569 1.46627e-05  -0.0289397 -0.322879 1.0401e-05  -0.029362 -0.330055 5.63264e-06  -0.0297773 -0.33722 2.32458e-06  -0.0301924 -0.344372 -9.23872e-07  -0.0306046 -0.351509 -4.82798e-06  -0.0310154 -0.358631 -9.95398e-06  0 0 0  -5.47916e-05 -4.92036e-05 0.000191838  -0.000184312 -0.000575006 0.000341624  -0.000365034 -0.00153065 0.000455618  -0.000581458 -0.00287086 0.000537902  -0.000821978 -0.00456309 0.000592977  -0.00107771 -0.00657606 0.000626236  -0.0013448 -0.00888661 0.000643224  -0.00161916 -0.0114757 0.00064522  -0.00189906 -0.0143293 0.000639588  -0.00218457 -0.0174369 0.000626057  -0.00247633 -0.0207861 0.000608116  -0.00277501 -0.0243687 0.00058797  -0.00308013 -0.0281762 0.000564933  -0.00339162 -0.0321981 0.000541121  -0.00370991 -0.0364261 0.00051716  -0.00403643 -0.0408522 0.000493646  -0.00437069 -0.0454681 0.000470251  -0.00471199 -0.0502647 0.000446945  -0.00506103 -0.0552334 0.000424027  -0.00541687 -0.0603665 0.000401676  -0.00577974 -0.0656565 0.000381678  -0.00614965 -0.0710952 0.000361592  -0.00652635 -0.0766756 0.000342369  -0.00690961 -0.08239 0.000323862  -0.00729787 -0.0882318 0.000305504  -0.00769246 -0.0941936 0.000287652  -0.00809336 -0.100268 0.000271142  -0.00849926 -0.106449 0.000255436  -0.00890946 -0.11273 0.000239134  -0.00932288 -0.119107 0.000224531  -0.00974286 -0.125569 0.000210315  -0.0101649 -0.132115 0.000196129  -0.0105898 -0.138738 0.000182599  -0.011018 -0.14543 0.000170439  -0.0114496 -0.152188 0.000157386  -0.0118837 -0.159007 0.000145674  -0.0123191 -0.165882 0.000134498  -0.0127552 -0.172806 0.000122875  -0.0131943 -0.179777 0.000113219  -0.013634 -0.18679 0.000103861  -0.0140724 -0.193841 9.39369e-05  -0.0145121 -0.200924 8.49366e-05  -0.0149536 -0.208035 7.62939e-05  -0.0153925 -0.215173 6.86944e-05  -0.0158317 -0.222333 6.10352e-05  -0.0162714 -0.229511 5.4121e-05  -0.01671 -0.236704 4.75645e-05  -0.0171452 -0.243909 4.13954e-05  -0.0175817 -0.251125 3.57926e-05  -0.0180156 -0.258346 3.06666e-05  -0.0184476 -0.265572 2.6077e-05  -0.0188792 -0.272799 2.21133e-05  -0.0193074 -0.280026 1.82688e-05  -0.0197358 -0.28725 1.42455e-05  -0.0201609 -0.29447 1.09076e-05  -0.0205863 -0.301685 8.07643e-06  -0.0210071 -0.308892 6.4671e-06  -0.021426 -0.316091 4.11272e-06  -0.0218437 -0.323279 2.05636e-06  -0.0222597 -0.330456 8.34465e-07  -0.0226736 -0.337621 5.96046e-08  -0.0230854 -0.344774 -1.66893e-06  -0.023495 -0.351911 -3.69549e-06  -0.0239046 -0.359031 -5.57303e-06  0 0 0  1.10418e-05 -3.99351e-05 -6.58631e-06  3.58969e-05 -0.000559896 -8.31485e-06  6.86944e-05 -0.00151253 -9.17912e-06  0.000103116 -0.00285268 -8.19564e-06  0.000133574 -0.00454792 -5.69224e-06  0.000157595 -0.00656754 -5.126e-06  0.000172138 -0.00888497 -3.36766e-06  0.000175178 -0.011483 -3.48687e-06  0.000165045 -0.0143463 -4.35114e-06  0.00014174 -0.0174629 -5.24521e-06  0.000104427 -0.0208229 -6.19888e-06  5.20349e-05 -0.0244167 -8.34465e-06  -1.72257e-05 -0.0282343 -1.06394e-05  -0.000102103 -0.032267 -1.22488e-05  -0.000201821 -0.0365079 -1.43051e-05  -0.000319242 -0.040946 -1.69277e-05  -0.00045073 -0.0455728 -1.87755e-05  -0.000599027 -0.0503812 -2.05934e-05  -0.000762463 -0.0553634 -2.29478e-05  -0.000941515 -0.0605084 -2.42293e-05  -0.00113523 -0.0658111 -2.5034e-05  -0.00134242 -0.0712626 -2.68817e-05  -0.00156415 -0.0768546 -2.76566e-05  -0.00179994 -0.0825817 -2.78354e-05  -0.00204992 -0.0884355 -2.81036e-05  -0.00231004 -0.0944088 -2.91467e-05  -0.00258493 -0.100495 -2.87592e-05  -0.00286889 -0.106688 -2.98619e-05  -0.00316536 -0.11298 -3.00705e-05  -0.00347257 -0.119366 -2.95043e-05  -0.0037874 -0.125839 -2.95639e-05  -0.00411534 -0.132395 -2.91169e-05  -0.00445104 -0.139026 -2.87592e-05  -0.00479388 -0.145729 -2.89977e-05  -0.00514436 -0.152496 -2.70307e-05  -0.00550413 -0.159323 -2.72095e-05  -0.00587058 -0.166205 -2.6077e-05  -0.0062418 -0.173138 -2.6226e-05  -0.00662041 -0.180116 -2.56896e-05  -0.00700164 -0.187135 -2.44975e-05  -0.00739193 -0.194192 -2.40207e-05  -0.0077827 -0.20128 -2.25902e-05  -0.00817966 -0.208398 -2.15471e-05  -0.00857878 -0.21554 -2.10106e-05  -0.00898027 -0.222705 -1.99974e-05  -0.0093863 -0.229887 -1.92821e-05  -0.009794 -0.237084 -1.80602e-05  -0.0102041 -0.244293 -1.64509e-05  -0.0106132 -0.251512 -1.52886e-05  -0.0110264 -0.258736 -1.55866e-05  -0.0114405 -0.265963 -1.37091e-05  -0.0118537 -0.273194 -1.26064e-05  -0.0122683 -0.280422 -1.2219e-05  -0.012682 -0.287649 -1.12951e-05  -0.0130959 -0.29487 -9.71556e-06  -0.0135107 -0.302086 -8.73208e-06  -0.0139267 -0.309294 -8.04663e-06  -0.0143375 -0.316493 -6.10948e-06  -0.0147493 -0.323682 -5.81145e-06  -0.0151625 -0.33086 -3.72529e-06  -0.0155725 -0.338027 -3.45707e-06  -0.0159807 -0.345179 -2.89083e-06  -0.0163896 -0.352316 -1.72853e-06  -0.0167964 -0.359436 -1.10269e-06  0 0 0  7.75829e-05 -8.13007e-05 -0.000203937  0.00025627 -0.000634074 -0.000358641  0.00050208 -0.0016098 -0.000472456  0.000786185 -0.00296724 -0.00055176  0.00108811 -0.00467497 -0.000602543  0.00139073 -0.00670224 -0.000633836  0.00168678 -0.00902599 -0.000648201  0.00196534 -0.0116283 -0.000650883  0.00222582 -0.0144963 -0.000645399  0.00246459 -0.0176185 -0.000634164  0.00268108 -0.0209844 -0.000620127  0.00287211 -0.024582 -0.000602543  0.003039 -0.0284059 -0.000584275  0.00318038 -0.0324467 -0.000564367  0.00329846 -0.0366945 -0.000544727  0.00339234 -0.0411394 -0.0005261  0.00346065 -0.0457749 -0.000506163  0.00350678 -0.0505916 -0.00048694  0.00352812 -0.055581 -0.000468463  0.00352728 -0.0607357 -0.000450045  0.00350225 -0.0660469 -0.000431746  0.0034579 -0.0715081 -0.000414014  0.00339031 -0.0771095 -0.000396907  0.00330281 -0.0828443 -0.000379354  0.00319374 -0.0887054 -0.000362873  0.0030663 -0.0946877 -0.000346005  0.00291979 -0.100783 -0.000329942  0.00275528 -0.106984 -0.000313818  0.00257325 -0.113284 -0.000299186  0.00237393 -0.119678 -0.000283509  0.00216091 -0.12616 -0.000268251  0.00192952 -0.132722 -0.000255108  0.00168633 -0.139361 -0.000240475  0.0014267 -0.146069 -0.00022611  0.00115609 -0.152842 -0.000213504  0.000870228 -0.159675 -0.000200808  0.000575304 -0.166563 -0.00018838  0.000268936 -0.1735 -0.000176102  -4.95911e-05 -0.180483 -0.000163406  -0.000375748 -0.187507 -0.000152946  -0.000710964 -0.194568 -0.000141174  -0.00105548 -0.20166 -0.000130743  -0.00140667 -0.208782 -0.00012058  -0.00176549 -0.215927 -0.000110984  -0.00213242 -0.223094 -0.000101924  -0.0025034 -0.230279 -9.23276e-05  -0.00288224 -0.237479 -8.38339e-05  -0.003263 -0.24469 -7.61151e-05  -0.00365019 -0.25191 -6.76215e-05  -0.00403976 -0.259136 -6.01411e-05  -0.00443363 -0.266366 -5.42402e-05  -0.00482941 -0.273596 -4.70877e-05  -0.0052278 -0.280826 -4.12762e-05  -0.00563025 -0.288053 -3.57628e-05  -0.00603366 -0.295275 -2.99513e-05  -0.00643802 -0.302491 -2.47955e-05  -0.006845 -0.309699 -2.11895e-05  -0.00724936 -0.316899 -1.71065e-05  -0.00765705 -0.324088 -1.22488e-05  -0.00806499 -0.331267 -1.04606e-05  -0.00847197 -0.338432 -5.84126e-06  -0.00887775 -0.345585 -2.5928e-06  -0.00928497 -0.352723 -4.76837e-07  -0.00969005 -0.359844 2.71201e-06  0 0 0  0.000144675 -0.000175476 -0.00039795  0.000482202 -0.000798583 -0.000704497  0.000945762 -0.00182509 -0.000931948  0.00148469 -0.00321645 -0.00109234  0.00206143 -0.00494242 -0.0011977  0.00264543 -0.00697982 -0.00126079  0.00322175 -0.0093075 -0.00129053  0.0037787 -0.0119116 -0.00129703  0.00430703 -0.0147794 -0.00128552  0.00480765 -0.0179008 -0.00126234  0.00527692 -0.0212667 -0.00123164  0.00571078 -0.0248663 -0.00119644  0.00611085 -0.0286927 -0.00115731  0.00648028 -0.0327348 -0.00111705  0.00681543 -0.0369845 -0.00107598  0.00711775 -0.0414342 -0.00103551  0.00738645 -0.0460737 -0.000994503  0.00762534 -0.0508949 -0.000954539  0.00783181 -0.0558891 -0.000915587  0.00800848 -0.0610489 -0.000876695  0.00815332 -0.0663655 -0.000839174  0.00826895 -0.0718312 -0.000802457  0.0083555 -0.0774382 -0.000766128  0.0084157 -0.0831791 -0.000731468  0.00844646 -0.0890462 -0.000697106  0.0084542 -0.0950334 -0.00066328  0.00843346 -0.101133 -0.000630975  0.00839007 -0.107339 -0.000599056  0.00832117 -0.113645 -0.0005683  0.00823045 -0.120043 -0.000537425  0.00811768 -0.126529 -0.000509202  0.00798321 -0.133096 -0.000480056  0.00782847 -0.139738 -0.000452042  0.00765681 -0.146451 -0.000425816  0.00746489 -0.153227 -0.000399202  0.00725412 -0.160064 -0.00037393  0.0070281 -0.166955 -0.000349373  0.00678658 -0.173895 -0.000325441  0.00653124 -0.180881 -0.00030306  0.00625944 -0.187907 -0.00028041  0.00597525 -0.19497 -0.000258684  0.00567913 -0.202064 -0.000239044  0.00537133 -0.209187 -0.000219673  0.0050509 -0.216335 -0.000200987  0.00472355 -0.223502 -0.000182956  0.00438619 -0.230689 -0.000165403  0.00403762 -0.237889 -0.000149757  0.00368309 -0.245101 -0.000133187  0.00332046 -0.252322 -0.000119656  0.00295281 -0.259548 -0.000105858  0.0025785 -0.266778 -9.28938e-05  0.00219798 -0.274008 -8.07345e-05  0.00181341 -0.281237 -7.05719e-05  0.00142622 -0.288464 -6.02603e-05  0.00103354 -0.295687 -5.07236e-05  0.000638723 -0.302902 -4.20213e-05  0.000240088 -0.310111 -3.37958e-05  -0.000159502 -0.317309 -2.73883e-05  -0.000560999 -0.324498 -2.11895e-05  -0.00096488 -0.331676 -1.46925e-05  -0.001369 -0.338841 -9.83477e-06  -0.00177431 -0.345994 -4.14252e-06  -0.002177 -0.353132 1.99676e-06  -0.00257826 -0.360254 7.33137e-06  0 0 0  0.000217199 -0.0003286 -0.000588119  0.000723884 -0.00106549 -0.00104514  0.00141677 -0.0021683 -0.00138792  0.00221932 -0.00360554 -0.00163114  0.00307518 -0.00535518 -0.00179195  0.00394401 -0.00740093 -0.00188726  0.00480202 -0.00972992 -0.00193343  0.00563568 -0.0123309 -0.00194284  0.00643355 -0.0151943 -0.00192714  0.00719249 -0.0183101 -0.00189167  0.00791264 -0.0216703 -0.00184494  0.00858974 -0.0252675 -0.0017907  0.00922406 -0.0290905 -0.00173211  0.00981677 -0.0331305 -0.00167057  0.0103685 -0.0373805 -0.00160855  0.0108795 -0.041829 -0.00154611  0.011348 -0.0464688 -0.00148463  0.0117787 -0.051291 -0.00142381  0.0121684 -0.0562867 -0.00136375  0.0125197 -0.0614476 -0.00130641  0.0128341 -0.0667661 -0.00124857  0.0131108 -0.0722334 -0.00119272  0.0133529 -0.0778425 -0.00113797  0.0135572 -0.083586 -0.00108489  0.0137292 -0.0894545 -0.00103316  0.0138683 -0.0954443 -0.000982642  0.0139745 -0.101546 -0.000934303  0.0140493 -0.107754 -0.000886142  0.0140945 -0.114061 -0.000839293  0.014111 -0.120463 -0.000793546  0.0140984 -0.126949 -0.000750005  0.014061 -0.133518 -0.000706792  0.0139954 -0.140162 -0.000665575  0.0139079 -0.146875 -0.000625372  0.0137949 -0.153654 -0.000585049  0.013658 -0.160491 -0.000547588  0.0135026 -0.167383 -0.000511289  0.0133243 -0.174323 -0.000476122  0.013128 -0.18131 -0.000442505  0.0129116 -0.188336 -0.000408828  0.0126791 -0.195399 -0.000378162  0.0124288 -0.202493 -0.000346333  0.0121648 -0.209615 -0.000317723  0.0118845 -0.216763 -0.000290513  0.0115919 -0.223931 -0.000263751  0.0112855 -0.231115 -0.00023821  0.0109689 -0.238316 -0.000214845  0.0106397 -0.245526 -0.000192016  0.010303 -0.252746 -0.000170499  0.0099535 -0.259971 -0.000150859  0.0096004 -0.267201 -0.000132352  0.00923634 -0.27443 -0.000115216  0.00886679 -0.281658 -9.87351e-05  0.00849009 -0.288884 -8.48174e-05  0.00810814 -0.296104 -7.05123e-05  0.00772095 -0.303319 -5.8949e-05  0.00733209 -0.310526 -4.72665e-05  0.0069356 -0.317723 -3.72529e-05  0.00653911 -0.324911 -2.8491e-05  0.00613999 -0.332087 -2.02656e-05  0.00573897 -0.339253 -1.25766e-05  0.00533652 -0.346405 -4.91738e-06  0.00493383 -0.353544 2.77162e-06  0.00453138 -0.36067 1.06096e-05  0 0 0  0.000297546 -0.000556231 -0.000771344  0.000988707 -0.00144809 -0.0013797  0.00192885 -0.00265044 -0.00184122  0.00300968 -0.00414252 -0.00217065  0.00415513 -0.00591648 -0.00238788  0.00531268 -0.00796801 -0.00251698  0.00645411 -0.0102928 -0.00257847  0.00756311 -0.0128838 -0.00259143  0.00862777 -0.0157362 -0.00256997  0.00964499 -0.0188425 -0.00252426  0.0106139 -0.0221939 -0.0024617  0.0115312 -0.0257825 -0.00238916  0.012398 -0.0295988 -0.00230992  0.0132138 -0.0336339 -0.00222778  0.0139799 -0.0378778 -0.0021446  0.0146977 -0.0423232 -0.00206101  0.0153654 -0.0469599 -0.00197795  0.0159847 -0.0517794 -0.00189674  0.0165583 -0.0567722 -0.00181621  0.017085 -0.0619312 -0.00173762  0.0175657 -0.0672479 -0.00166142  0.0180025 -0.0727142 -0.00158712  0.0183966 -0.0783218 -0.00151333  0.0187474 -0.0840639 -0.00144199  0.0190564 -0.0899327 -0.00137246  0.0193273 -0.0959201 -0.00130531  0.0195594 -0.102022 -0.00123951  0.0197532 -0.108229 -0.00117511  0.0199097 -0.114535 -0.00111291  0.0200325 -0.120934 -0.00105143  0.0201194 -0.127421 -0.000992775  0.0201762 -0.133988 -0.000935793  0.0201998 -0.140631 -0.000880599  0.0201943 -0.147343 -0.000825733  0.0201585 -0.15412 -0.0007734  0.0200963 -0.160955 -0.000723153  0.0200083 -0.167846 -0.000674248  0.0198932 -0.174785 -0.000626862  0.0197558 -0.181769 -0.000581503  0.0195935 -0.188794 -0.000537813  0.0194106 -0.195854 -0.000496119  0.0192084 -0.202946 -0.00045526  0.0189836 -0.210067 -0.000416666  0.0187442 -0.217212 -0.000379592  0.0184851 -0.224378 -0.000344783  0.0182109 -0.231561 -0.000311255  0.0179214 -0.238758 -0.000279963  0.0176194 -0.245967 -0.000249535  0.0173028 -0.253184 -0.000221729  0.0169759 -0.260407 -0.000195026  0.0166368 -0.267632 -0.000170439  0.016289 -0.27486 -0.000147313  0.0159328 -0.282086 -0.000126719  0.0155666 -0.28931 -0.000107139  0.0151942 -0.296528 -9.01222e-05  0.0148146 -0.303741 -7.52509e-05  0.014431 -0.310945 -5.99325e-05  0.0140407 -0.31814 -4.73261e-05  0.0136478 -0.325326 -3.5435e-05  0.013252 -0.332502 -2.50936e-05  0.0128529 -0.339666 -1.52886e-05  0.0124514 -0.346818 -5.48363e-06  0.0120497 -0.353959 3.03984e-06  0.0116501 -0.361088 1.23084e-05  0 0 0  0.000388905 -0.000878394 -0.000948101  0.00129339 -0.0019744 -0.00171277  0.00250542 -0.00329202 -0.00229803  0.0038816 -0.0048396 -0.00271675  0.00532582 -0.00663108 -0.00299093  0.00677568 -0.00868034 -0.00315243  0.00820109 -0.0109925 -0.00322989  0.00958538 -0.0135679 -0.00324598  0.0109146 -0.016404 -0.00321844  0.0121884 -0.019495 -0.00316086  0.0134026 -0.0228325 -0.00308326  0.014558 -0.0264091 -0.0029932  0.0156544 -0.030215 -0.00289428  0.0166925 -0.0342399 -0.00279224  0.0176718 -0.0384758 -0.00268698  0.0185934 -0.042914 -0.00258163  0.0194579 -0.0475438 -0.00247866  0.020267 -0.052357 -0.00237542  0.0210212 -0.0573452 -0.00227484  0.021721 -0.0624991 -0.00217661  0.0223671 -0.0678104 -0.00207964  0.0229611 -0.0732716 -0.00198531  0.0235065 -0.078875 -0.00189319  0.0240018 -0.0846128 -0.00180307  0.0244486 -0.0904767 -0.00171691  0.0248489 -0.0964616 -0.00163108  0.0252044 -0.102559 -0.00154793  0.0255146 -0.108762 -0.00146732  0.0257816 -0.115064 -0.00138959  0.0260085 -0.121459 -0.00131282  0.0261961 -0.127942 -0.00123894  0.0263431 -0.134505 -0.00116658  0.0264559 -0.141144 -0.00109693  0.0265312 -0.147853 -0.00102851  0.0265725 -0.154626 -0.000963837  0.0265808 -0.161457 -0.000899851  0.0265589 -0.168345 -0.00083822  0.0265048 -0.175279 -0.000779897  0.0264249 -0.182259 -0.000722766  0.0263147 -0.189279 -0.000667959  0.0261815 -0.196335 -0.000614762  0.0260224 -0.203424 -0.000563979  0.0258405 -0.210541 -0.000516146  0.025635 -0.217682 -0.000469565  0.0254107 -0.224844 -0.000425816  0.0251656 -0.232023 -0.000384092  0.0249038 -0.239215 -0.00034377  0.0246243 -0.246421 -0.000306666  0.0243309 -0.253634 -0.000272423  0.0240197 -0.260852 -0.000239462  0.0236974 -0.268076 -0.00020802  0.0233619 -0.275299 -0.00017938  0.0230169 -0.282522 -0.000154078  0.0226614 -0.289742 -0.000129789  0.0222971 -0.296957 -0.000108331  0.0219243 -0.304166 -8.85129e-05  0.0215435 -0.311368 -7.05719e-05  0.0211585 -0.318562 -5.62072e-05  0.0207682 -0.325745 -4.29749e-05  0.0203719 -0.332918 -2.98917e-05  0.0199761 -0.340081 -1.80602e-05  0.0195742 -0.347233 -8.67248e-06  0.0191722 -0.354375 1.63913e-06  0.0187716 -0.361506 1.34706e-05  0 0 0  0.000505961 -0.00133198 -0.00112343  0.00166042 -0.00267351 -0.00205272  0.00318153 -0.00411177 -0.00277427  0.00487256 -0.00570315 -0.00327945  0.0066213 -0.0074985 -0.00360739  0.00836414 -0.00953209 -0.0038  0.0100701 -0.0118229 -0.00389132  0.0117241 -0.0143754 -0.00390977  0.0133151 -0.0171896 -0.00387642  0.0148411 -0.0202609 -0.00380728  0.0163013 -0.0235812 -0.00371462  0.0176916 -0.0271419 -0.00360614  0.0190164 -0.0309331 -0.00348771  0.0202727 -0.0349461 -0.00336507  0.0214635 -0.0391712 -0.00323886  0.0225891 -0.0435982 -0.00311166  0.0236475 -0.0482188 -0.00298697  0.0246429 -0.0530223 -0.00286263  0.025576 -0.0580013 -0.00274044  0.0264465 -0.0631466 -0.00262079  0.0272567 -0.0684505 -0.00250471  0.0280091 -0.0739043 -0.00239092  0.0287039 -0.0794997 -0.00227952  0.0293398 -0.0852305 -0.00217122  0.0299206 -0.0910875 -0.00206512  0.030449 -0.0970651 -0.00196278  0.030925 -0.103155 -0.00186372  0.0313497 -0.109351 -0.00176516  0.0317278 -0.115648 -0.0016697  0.0320563 -0.122036 -0.00157776  0.0323399 -0.128512 -0.00148743  0.0325797 -0.135069 -0.00140148  0.0327759 -0.141702 -0.00131682  0.0329313 -0.148404 -0.00123447  0.033046 -0.15517 -0.0011563  0.0331249 -0.161996 -0.0010798  0.0331671 -0.168876 -0.00100511  0.0331721 -0.175805 -0.000933319  0.0331469 -0.182779 -0.000865102  0.033088 -0.189793 -0.000798255  0.0330014 -0.196844 -0.000734895  0.0328846 -0.203926 -0.000674367  0.0327399 -0.211036 -0.000615209  0.0325701 -0.218171 -0.000559568  0.0323758 -0.225326 -0.000506878  0.032161 -0.2325 -0.000456363  0.0319214 -0.239689 -0.00040853  0.0316641 -0.246887 -0.000363708  0.031389 -0.254095 -0.000321656  0.0310948 -0.261309 -0.000282347  0.030786 -0.268527 -0.000244826  0.0304623 -0.275746 -0.000211149  0.0301266 -0.282964 -0.000179589  0.0297759 -0.290179 -0.00015083  0.0294185 -0.297391 -0.000125051  0.0290487 -0.304596 -0.000101745  0.0286739 -0.311794 -8.17776e-05  0.0282903 -0.318984 -6.38068e-05  0.0278995 -0.326165 -4.74751e-05  0.0275044 -0.333336 -3.34978e-05  0.0271068 -0.340497 -2.11895e-05  0.0267048 -0.347648 -9.77516e-06  0.0263038 -0.354791 6.25849e-07  0.0259037 -0.361926 1.26064e-05  0 0 0  0.000638418 -0.00197095 -0.00130937  0.00214463 -0.00359958 -0.0024491  0.0040177 -0.00512195 -0.00328702  0.00602818 -0.00672638 -0.00386718  0.00807434 -0.00850487 -0.00424314  0.0101022 -0.0105109 -0.00446293  0.0120822 -0.0127709 -0.00456709  0.0140012 -0.0152944 -0.00458705  0.0158501 -0.0180835 -0.00454769  0.0176255 -0.0211312 -0.00446758  0.0193274 -0.0244309 -0.00435805  0.0209527 -0.0279731 -0.00423184  0.0225025 -0.0317483 -0.00409305  0.0239773 -0.0357453 -0.00394845  0.0253763 -0.0399559 -0.00380108  0.0267013 -0.04437 -0.00365227  0.0279541 -0.0489768 -0.00350443  0.0291343 -0.053769 -0.00335887  0.0302445 -0.0587365 -0.00321683  0.031284 -0.0638706 -0.00307631  0.0322564 -0.0691634 -0.0029386  0.0331603 -0.0746062 -0.00280496  0.0339999 -0.0801917 -0.00267413  0.0347769 -0.0859119 -0.00254655  0.0354913 -0.0917596 -0.00242248  0.0361445 -0.0977275 -0.00230134  0.0367405 -0.103808 -0.00218281  0.0372776 -0.109995 -0.00206855  0.0377606 -0.116282 -0.00195679  0.0381895 -0.122661 -0.00184843  0.038568 -0.129128 -0.00174281  0.0388947 -0.135677 -0.00164068  0.0391729 -0.1423 -0.00154036  0.0394077 -0.148994 -0.00144401  0.0395932 -0.155752 -0.0013513  0.0397396 -0.162569 -0.00126106  0.0398419 -0.16944 -0.00117469  0.0399065 -0.176361 -0.00108981  0.0399325 -0.183326 -0.00100946  0.0399225 -0.190333 -0.000931412  0.0398788 -0.197375 -0.000856608  0.0398014 -0.204448 -0.000785112  0.0396938 -0.211551 -0.00071612  0.0395563 -0.218678 -0.000650287  0.0393913 -0.225827 -0.000588864  0.0392003 -0.232993 -0.00052923  0.0389838 -0.240174 -0.000472486  0.0387459 -0.247365 -0.000420541  0.0384867 -0.254567 -0.00037089  0.0382066 -0.261774 -0.000324309  0.0379093 -0.268985 -0.000280142  0.0375929 -0.276198 -0.000241518  0.0372639 -0.283412 -0.000204861  0.0369189 -0.290621 -0.000171304  0.0365639 -0.297827 -0.00014177  0.0361972 -0.305028 -0.000114262  0.0358217 -0.312222 -9.07183e-05  0.0354354 -0.319409 -6.98268e-05  0.0350432 -0.326585 -5.17368e-05  0.0346489 -0.333753 -3.73423e-05  0.0342488 -0.340913 -2.47657e-05  0.0338452 -0.348063 -1.39177e-05  0.0334411 -0.355206 -9.23872e-07  0.0330367 -0.362344 1.30534e-05  0 0 0  0.00105494 -0.00294495 -0.00166488  0.00296636 -0.00475377 -0.00290933  0.0051429 -0.00629598 -0.00382999  0.00742406 -0.00787479 -0.00447193  0.00973147 -0.00961787 -0.00489214  0.0120174 -0.0115883 -0.0051401  0.0142562 -0.0138143 -0.0052582  0.0164329 -0.0163071 -0.00528109  0.0185341 -0.0190685 -0.00523573  0.0205587 -0.0220921 -0.00514311  0.0225 -0.0253701 -0.00501794  0.0243572 -0.0288911 -0.00487176  0.0261313 -0.0326471 -0.00471255  0.0278214 -0.0366278 -0.00454628  0.0294281 -0.0408224 -0.00437528  0.030952 -0.0452197 -0.00420445  0.0323957 -0.049813 -0.004035  0.0337588 -0.0545903 -0.00386679  0.035042 -0.0595431 -0.00370133  0.0362475 -0.0646634 -0.00354001  0.0373788 -0.0699434 -0.00338221  0.0384349 -0.0753728 -0.00322792  0.0394183 -0.0809453 -0.00307733  0.0403317 -0.086653 -0.00293082  0.0411726 -0.0924879 -0.0027855  0.0419506 -0.0984435 -0.00264728  0.0426623 -0.104513 -0.0025107  0.0433095 -0.110688 -0.0023776  0.0438963 -0.116961 -0.00224942  0.0444223 -0.123331 -0.00212422  0.0448922 -0.129787 -0.00200191  0.0453048 -0.136324 -0.00188431  0.0456629 -0.142935 -0.00176987  0.0459709 -0.149619 -0.00165895  0.0462282 -0.156366 -0.001551  0.0464361 -0.163172 -0.00144711  0.046598 -0.170032 -0.00134644  0.0467172 -0.176942 -0.00125027  0.0467932 -0.1839 -0.00115642  0.0468278 -0.190895 -0.0010663  0.0468259 -0.197927 -0.000980645  0.0467839 -0.204991 -0.000898868  0.0467105 -0.212084 -0.000817657  0.0466037 -0.219202 -0.000742227  0.0464623 -0.226341 -0.000670195  0.0462928 -0.233498 -0.000603437  0.0460992 -0.24067 -0.000537694  0.0458753 -0.247854 -0.000476509  0.0456302 -0.255046 -0.000419855  0.0453613 -0.262245 -0.000366807  0.0450692 -0.26945 -0.000316143  0.0447617 -0.276655 -0.000270963  0.0444334 -0.28386 -0.000228226  0.0440931 -0.291065 -0.000190526  0.043736 -0.298265 -0.000155509  0.0433683 -0.30546 -0.000124127  0.04299 -0.31265 -9.89437e-05  0.0426004 -0.319829 -7.56681e-05  0.0422058 -0.327004 -5.65946e-05  0.0418043 -0.334171 -3.98755e-05  0.0413995 -0.341327 -2.65837e-05  0.0409923 -0.348476 -1.37687e-05  0.0405858 -0.35562 -4.79817e-06  0.0401812 -0.362759 8.31485e-06  0 0 0  -0.00106451 -0.00245673 0.00223327  -0.0029678 -0.00393459 0.00384487  -0.00514838 -0.00525513 0.00499302  -0.00743282 -0.00663317 0.00576839  -0.00973791 -0.00819472 0.00625506  -0.0120236 -0.0100023 0.0065237  -0.0142665 -0.012082 0.00663394  -0.0164581 -0.0144388 0.00662805  -0.0185935 -0.0170697 0.00654185  -0.0206733 -0.0199635 0.00639836  -0.0226983 -0.0231109 0.00621925  -0.0246664 -0.0264985 0.00601687  -0.0265809 -0.0301159 0.00580052  -0.0284421 -0.0339531 0.00557645  -0.0302488 -0.0379994 0.00535116  -0.0320044 -0.0422461 0.00512615  -0.0337095 -0.046684 0.00490499  -0.0353624 -0.0513039 0.00468779  -0.0369667 -0.0560988 0.0044741  -0.0385227 -0.0610602 0.00426781  -0.0400327 -0.0661797 0.00406688  -0.0414954 -0.0714504 0.00387108  -0.042912 -0.0768661 0.00368132  -0.0442868 -0.0824188 0.00349666  -0.0456153 -0.0881014 0.00331788  -0.0469024 -0.0939091 0.00314437  -0.0481467 -0.0998338 0.0029766  -0.0493537 -0.105868 0.00281282  -0.0505195 -0.112008 0.00265385  -0.0516448 -0.118247 0.00250137  -0.0527334 -0.124577 0.00235212  -0.0537864 -0.130995 0.00220726  -0.0548029 -0.137494 0.00206792  -0.0557845 -0.144068 0.00193377  -0.0567312 -0.150715 0.0018051  -0.0576439 -0.157426 0.00167856  -0.0585256 -0.164198 0.00155839  -0.0593739 -0.171025 0.00144109  -0.060194 -0.177904 0.00133072  -0.0609839 -0.184828 0.00122271  -0.0617454 -0.191796 0.0011209  -0.062479 -0.198801 0.00102317  -0.0631859 -0.20584 0.000928968  -0.0638678 -0.212909 0.000839442  -0.0645237 -0.220006 0.000755489  -0.0651557 -0.227123 0.00067541  -0.065767 -0.234262 0.000599325  -0.0663555 -0.241418 0.000528947  -0.0669241 -0.248585 0.000462562  -0.0674729 -0.255764 0.000401065  -0.0680015 -0.262952 0.000342488  -0.0685136 -0.270144 0.000290498  -0.0690107 -0.277339 0.000242278  -0.0694931 -0.284537 0.000199065  -0.0699599 -0.291731 0.000159353  -0.070415 -0.298924 0.000124931  -0.070859 -0.306113 9.5576e-05  -0.0712934 -0.313295 7.03335e-05  -0.0717192 -0.32047 4.98146e-05  -0.0721385 -0.327637 3.34382e-05  -0.0725529 -0.334798 1.88798e-05  -0.0729654 -0.34195 8.34465e-06  -0.0733759 -0.349096 -1.69873e-06  -0.0737855 -0.356237 -1.44988e-05  0 0 0  -0.00066632 -0.00156458 0.00173455  -0.00217541 -0.00287913 0.00320067  -0.0040396 -0.00416859 0.00423448  -0.00603272 -0.00556994 0.00492306  -0.00805104 -0.0071758 0.0053525  -0.0100483 -0.00903414 0.00559081  -0.0120077 -0.0111651 0.00569038  -0.0139215 -0.0135716 0.00568961  -0.0157886 -0.0162488 0.00561903  -0.0176097 -0.0191886 0.00550048  -0.0193854 -0.0223786 0.00534956  -0.0211168 -0.0258098 0.00517717  -0.0228043 -0.0294699 0.0049925  -0.0244472 -0.0333491 0.00480226  -0.026046 -0.0374371 0.00460966  -0.0276031 -0.0417248 0.00441632  -0.0291198 -0.0462022 0.00422631  -0.0305941 -0.0508629 0.00404011  -0.0320271 -0.0556969 0.00385749  -0.0334206 -0.0606971 0.00368005  -0.0347739 -0.0658545 0.00350556  -0.0360905 -0.0711637 0.00333825  -0.0373683 -0.0766156 0.00317509  -0.0386093 -0.0822038 0.0030162  -0.0398126 -0.0879225 0.0028626  -0.0409815 -0.093763 0.00271243  -0.042115 -0.0997203 0.00256772  -0.043215 -0.105787 0.00242642  -0.0442821 -0.111958 0.00229058  -0.0453166 -0.118226 0.00215894  -0.0463181 -0.124585 0.00203072  -0.04729 -0.131031 0.00190683  -0.0482302 -0.137557 0.00178653  -0.0491405 -0.144158 0.001671  -0.0500231 -0.150828 0.00155915  -0.0508764 -0.157563 0.00145112  -0.0517035 -0.164357 0.00134701  -0.0525012 -0.171206 0.0012475  -0.0532761 -0.178104 0.00115126  -0.0540233 -0.185048 0.00105946  -0.0547485 -0.192034 0.000970319  -0.0554492 -0.199056 0.000886083  -0.0561266 -0.206111 0.0008066  -0.0567815 -0.213196 0.000729084  -0.0574155 -0.220305 0.000656217  -0.0580292 -0.227437 0.000588536  -0.0586226 -0.234588 0.000522882  -0.0591984 -0.241754 0.000462115  -0.0597551 -0.248933 0.000405043  -0.0602956 -0.256122 0.000351429  -0.0608187 -0.263317 0.000302151  -0.0613291 -0.270517 0.000257373  -0.0618231 -0.27772 0.000215083  -0.062305 -0.284922 0.000177354  -0.0627749 -0.292123 0.000144243  -0.0632348 -0.29932 0.000114545  -0.063683 -0.306512 8.85278e-05  -0.0641227 -0.313698 6.64741e-05  -0.0645542 -0.320876 4.83692e-05  -0.0649784 -0.328045 3.24696e-05  -0.0653989 -0.335205 1.85817e-05  -0.0658152 -0.342357 6.66082e-06  -0.0662279 -0.349501 -4.52995e-06  -0.0666416 -0.35664 -1.75834e-05  0 0 0  -0.000523701 -0.000975996 0.00148112  -0.00168648 -0.00203102 0.00265579  -0.00319636 -0.00323579 0.00353628  -0.00485495 -0.004632 0.00413023  -0.00655887 -0.00626755 0.00450404  -0.00825694 -0.00816936 0.00471368  -0.00992742 -0.010346 0.00480282  -0.011564 -0.0127976 0.00480585  -0.0131649 -0.0155181 0.00474928  -0.0147278 -0.0184985 0.00465043  -0.0162559 -0.0217294 0.00452463  -0.017749 -0.0251993 0.00437951  -0.0192061 -0.0288976 0.00422454  -0.0206305 -0.0328151 0.00406395  -0.0220206 -0.0369403 0.00390154  -0.0233763 -0.0412651 0.00373811  -0.0247002 -0.0457801 0.0035778  -0.0259907 -0.0504768 0.00341959  -0.0272501 -0.0553474 0.00326602  -0.0284758 -0.0603819 0.00311469  -0.0296717 -0.0655757 0.00296819  -0.030836 -0.070919 0.00282736  -0.0319682 -0.0764043 0.0026876  -0.0330743 -0.0820259 0.00255397  -0.0341482 -0.0877755 0.00242336  -0.0351965 -0.0936481 0.00229695  -0.036214 -0.0996359 0.00217456  -0.0372045 -0.105733 0.00205576  -0.0381701 -0.111932 0.00194074  -0.0391061 -0.118228 0.00182848  -0.0400172 -0.124614 0.00172016  -0.0409042 -0.131085 0.00161619  -0.0417662 -0.137636 0.00151451  -0.0426035 -0.144261 0.00141586  -0.0434175 -0.150954 0.0013217  -0.0442064 -0.157711 0.00123052  -0.0449743 -0.164525 0.00114246  -0.0457196 -0.171394 0.00105849  -0.0464456 -0.178311 0.000976682  -0.047147 -0.185273 0.000898525  -0.0478315 -0.192276 0.000824958  -0.0484929 -0.199314 0.000753805  -0.0491383 -0.206384 0.000685483  -0.0497634 -0.213483 0.000620872  -0.0503719 -0.220606 0.000559404  -0.050961 -0.22775 0.000500321  -0.0515366 -0.234912 0.000447333  -0.0520947 -0.242089 0.000395209  -0.0526385 -0.249278 0.000346765  -0.0531666 -0.256475 0.000302389  -0.0536816 -0.26368 0.000260189  -0.0541849 -0.270887 0.000221506  -0.0546749 -0.278095 0.000186548  -0.0551524 -0.285304 0.000154465  -0.0556216 -0.29251 0.00012596  -0.0560782 -0.299711 0.0001017  -0.0565283 -0.306907 7.90656e-05  -0.0569694 -0.314096 6.06775e-05  -0.0574043 -0.321277 4.4018e-05  -0.057831 -0.328449 2.96533e-05  -0.0582533 -0.335609 1.72108e-05  -0.0586722 -0.342761 5.06639e-06  -0.059087 -0.349905 -6.67572e-06  -0.0594997 -0.35704 -1.91778e-05  0 0 0  -0.000399921 -0.000570551 0.00124288  -0.00130471 -0.00139964 0.00219975  -0.00249898 -0.00249484 0.00290467  -0.00383443 -0.00386229 0.00339311  -0.0052222 -0.00551003 0.00370459  -0.00661847 -0.00744037 0.00388072  -0.00800249 -0.00965318 0.00395714  -0.00936309 -0.0121421 0.00396189  -0.0106964 -0.0148994 0.00391638  -0.0120038 -0.0179152 0.00383547  -0.0132841 -0.021181 0.00373186  -0.014538 -0.0246856 0.00361279  -0.0157655 -0.0284173 0.00348444  -0.0169691 -0.0323679 0.00335221  -0.018146 -0.0365269 0.00321719  -0.0192996 -0.0408847 0.00308381  -0.0204278 -0.0454321 0.00295036  -0.0215333 -0.0501617 0.00282036  -0.0226125 -0.0550629 0.00269291  -0.0236686 -0.0601308 0.00256895  -0.0247021 -0.0653552 0.00244682  -0.025712 -0.070729 0.00233096  -0.0267001 -0.0762451 0.00221677  -0.0276634 -0.0818961 0.00210537  -0.0286064 -0.0876756 0.0019986  -0.0295272 -0.0935749 0.00189373  -0.0304269 -0.0995912 0.0017923  -0.0313057 -0.105714 0.00169478  -0.032163 -0.11194 0.00159967  -0.0330003 -0.118261 0.00150794  -0.0338174 -0.124672 0.00141792  -0.0346177 -0.131166 0.001332  -0.0353954 -0.137739 0.00124855  -0.0361564 -0.144386 0.00116806  -0.0368977 -0.1511 0.00108984  -0.0376205 -0.157876 0.00101474  -0.0383277 -0.16471 0.000942647  -0.0390167 -0.171596 0.000873283  -0.0396874 -0.178531 0.000806451  -0.0403428 -0.18551 0.000741765  -0.0409834 -0.192527 0.000680491  -0.0416055 -0.19958 0.000622079  -0.0422146 -0.206664 0.000566185  -0.0428059 -0.213775 0.000513494  -0.043385 -0.22091 0.000462994  -0.0439501 -0.228066 0.000414997  -0.0445011 -0.235239 0.000369653  -0.0450392 -0.242425 0.000327677  -0.0455654 -0.249623 0.000287473  -0.0460794 -0.256828 0.000250489  -0.046582 -0.26404 0.000216872  -0.0470743 -0.271254 0.000184745  -0.0475576 -0.278469 0.000155762  -0.0480297 -0.285684 0.000130132  -0.0484917 -0.292894 0.000106871  -0.0489469 -0.3001 8.64565e-05  -0.0493951 -0.3073 6.75172e-05  -0.0498338 -0.314491 5.06788e-05  -0.0502682 -0.321675 3.77744e-05  -0.0506952 -0.328849 2.53618e-05  -0.0511191 -0.336012 1.39028e-05  -0.0515373 -0.343164 2.96533e-06  -0.0519538 -0.350305 -8.10623e-06  -0.0523674 -0.357437 -1.885e-05  0 0 0  -0.000301704 -0.00029175 0.00100432  -0.000981972 -0.00094296 0.00176057  -0.00189427 -0.00193848 0.00231192  -0.00292601 -0.00326745 0.00269136  -0.00401014 -0.0049132 0.00293677  -0.00511053 -0.00686055 0.00307746  -0.00620711 -0.00909828 0.0031396  -0.00729191 -0.0116164 0.0031442  -0.00835919 -0.0144035 0.00310871  -0.00940996 -0.0174503 0.00304455  -0.0104425 -0.020745 0.00296196  -0.0114563 -0.0242782 0.00286655  -0.0124534 -0.0280395 0.00276534  -0.0134332 -0.0320182 0.00265928  -0.0143985 -0.0362051 0.00255251  -0.0153455 -0.0405914 0.00244594  -0.016278 -0.0451675 0.0023392  -0.0171936 -0.049925 0.00223561  -0.0180919 -0.054855 0.00213471  -0.0189767 -0.05995 0.00203577  -0.0198447 -0.0652015 0.00193968  -0.0206982 -0.0706031 0.00184603  -0.0215353 -0.076146 0.00175564  -0.0223567 -0.0818227 0.00166754  -0.0231634 -0.0876278 0.00158238  -0.0239562 -0.093554 0.00149964  -0.0247343 -0.0995924 0.00141948  -0.0254977 -0.105741 0.0013414  -0.0262476 -0.111989 0.00126563  -0.0269827 -0.118332 0.001193  -0.027704 -0.124765 0.00112247  -0.028412 -0.13128 0.00105388  -0.0291054 -0.137873 0.000987262  -0.0297866 -0.144539 0.000923842  -0.0304534 -0.151271 0.000861868  -0.0311079 -0.158065 0.000802666  -0.0317492 -0.164916 0.000745505  -0.0323772 -0.171818 0.000690237  -0.032995 -0.178768 0.00063695  -0.0335989 -0.185761 0.000586361  -0.0341914 -0.192793 0.000538379  -0.0347729 -0.199858 0.000492036  -0.0353405 -0.206955 0.000448093  -0.0358975 -0.214078 0.000405386  -0.0364459 -0.221223 0.000365689  -0.0369818 -0.228388 0.000327483  -0.0375075 -0.235571 0.000292704  -0.0380232 -0.242766 0.000259161  -0.0385296 -0.249971 0.000227094  -0.0390255 -0.257185 0.000198677  -0.039515 -0.264402 0.000171766  -0.0399935 -0.271623 0.000146568  -0.0404649 -0.278844 0.000125021  -0.0409293 -0.286063 0.000103861  -0.0413857 -0.293278 8.4728e-05  -0.0418351 -0.300488 6.84857e-05  -0.0422783 -0.307691 5.33164e-05  -0.0427158 -0.314886 4.04567e-05  -0.0431464 -0.322072 2.90722e-05  -0.0435719 -0.329248 1.95205e-05  -0.0439954 -0.336412 1.04159e-05  -0.0444129 -0.343565 1.38581e-06  -0.0448284 -0.350705 -8.35955e-06  -0.0452423 -0.357833 -1.86414e-05  0 0 0  -0.000213671 -0.000107348 0.000758618  -0.000699148 -0.000628114 0.00132233  -0.00135309 -0.00154385 0.00172971  -0.00209953 -0.00283647 0.00200851  -0.00289217 -0.00447354 0.00218913  -0.00370213 -0.00642967 0.00229359  -0.00451559 -0.00868538 0.00233892  -0.00532594 -0.0112247 0.00234284  -0.00612849 -0.0140362 0.00231647  -0.0069201 -0.017107 0.00226876  -0.00770408 -0.0204262 0.00220697  -0.00847793 -0.023983 0.00213565  -0.00924408 -0.0277672 0.00205871  -0.0100006 -0.0317706 0.00197966  -0.0107492 -0.0359815 0.00189967  -0.0114899 -0.0403918 0.00181869  -0.0122236 -0.0449917 0.00173935  -0.0129484 -0.0497729 0.00166178  -0.013665 -0.0547276 0.00158571  -0.0143741 -0.0598464 0.00151257  -0.0150754 -0.0651219 0.00144039  -0.0157691 -0.070546 0.00137037  -0.0164549 -0.0761113 0.00130276  -0.0171326 -0.081812 0.00123638  -0.0178025 -0.087639 0.00117272  -0.0184652 -0.0935859 0.00111067  -0.019118 -0.0996471 0.00105204  -0.0197644 -0.105814 0.000993058  -0.0204023 -0.112083 0.000936925  -0.0210335 -0.118446 0.0008827  -0.0216564 -0.124897 0.00082998  -0.0222713 -0.13143 0.00077863  -0.0228772 -0.138041 0.00072962  -0.0234761 -0.144723 0.000682339  -0.0240674 -0.151472 0.000636339  -0.0246508 -0.158281 0.000592098  -0.0252244 -0.165147 0.000549331  -0.0257921 -0.172063 0.000509143  -0.0263512 -0.179027 0.000469297  -0.0269012 -0.186033 0.000432253  -0.0274446 -0.193076 0.000396043  -0.0279808 -0.200152 0.000361651  -0.0285087 -0.20726 0.000329256  -0.0290287 -0.214392 0.000297904  -0.0295415 -0.221548 0.000268832  -0.0300486 -0.228722 0.000240281  -0.0305455 -0.235911 0.000214592  -0.0310392 -0.243115 0.0001899  -0.0315225 -0.250326 0.000167444  -0.0320008 -0.257546 0.00014545  -0.03247 -0.26477 0.0001259  -0.0329361 -0.271995 0.000107139  -0.0333953 -0.279221 9.04202e-05  -0.033849 -0.286444 7.58767e-05  -0.0342975 -0.293664 6.17802e-05  -0.0347393 -0.300877 5.01424e-05  -0.0351756 -0.308083 3.95775e-05  -0.0356085 -0.315281 3.04431e-05  -0.0360351 -0.322469 2.05636e-05  -0.0364597 -0.329647 1.29491e-05  -0.0368793 -0.336812 6.3777e-06  -0.0372965 -0.343965 -2.08616e-07  -0.0377116 -0.351104 -7.6592e-06  -0.0381229 -0.358228 -1.56462e-05  0 0 0  -0.000135187 5.63264e-06 0.000506967  -0.000440486 -0.000430644 0.000880197  -0.000853732 -0.00129053 0.00114897  -0.00133076 -0.00255424 0.00133277  -0.00184068 -0.00418422 0.00145093  -0.00236923 -0.00614569 0.00151949  -0.00290221 -0.00841296 0.00155057  -0.00343862 -0.0109689 0.00155254  -0.0039748 -0.0137979 0.00153498  -0.00450999 -0.0168874 0.00150326  -0.00504416 -0.0202256 0.00146143  -0.00557828 -0.0238014 0.00141333  -0.00611025 -0.0276059 0.00136219  -0.00664341 -0.0316283 0.00130801  -0.00717628 -0.0358588 0.00125478  -0.00770956 -0.0402883 0.00120091  -0.00824213 -0.0449087 0.00114758  -0.00877464 -0.0497095 0.00109558  -0.0093087 -0.0546838 0.00104403  -0.00984192 -0.0598218 0.000994518  -0.0103751 -0.0651172 0.000946403  -0.010908 -0.0705613 0.000899166  -0.0114396 -0.0761463 0.000854433  -0.0119709 -0.0818656 0.000810459  -0.012502 -0.0877112 0.000768065  -0.0130328 -0.0936767 0.000727311  -0.0135604 -0.0997562 0.000686824  -0.0140871 -0.105941 0.000648469  -0.0146132 -0.112226 0.000611126  -0.0151367 -0.118605 0.000574961  -0.0156609 -0.125073 0.000540331  -0.0161803 -0.131622 0.000506461  -0.0166972 -0.138247 0.000473976  -0.0172126 -0.144944 0.000442386  -0.0177255 -0.151706 0.000412881  -0.018234 -0.158528 0.000383422  -0.0187411 -0.165406 0.000354737  -0.0192451 -0.172335 0.000328928  -0.0197444 -0.17931 0.000302106  -0.0202415 -0.186325 0.000277445  -0.0207341 -0.193379 0.000254408  -0.0212247 -0.200465 0.000231445  -0.021709 -0.207581 0.000210956  -0.0221906 -0.214722 0.000190213  -0.0226681 -0.221885 0.000171259  -0.0231423 -0.229066 0.000153661  -0.0236118 -0.236263 0.000136271  -0.0240769 -0.243472 0.000120312  -0.0245378 -0.25069 0.00010477  -0.0249939 -0.257916 9.11057e-05  -0.025449 -0.265143 7.91401e-05  -0.0258968 -0.272373 6.74427e-05  -0.0263417 -0.279602 5.66393e-05  -0.0267839 -0.286829 4.69089e-05  -0.0272212 -0.294052 3.83258e-05  -0.0276549 -0.301269 2.94894e-05  -0.0280848 -0.308477 2.3514e-05  -0.0285125 -0.315677 1.82092e-05  -0.0289352 -0.322868 1.22786e-05  -0.0293553 -0.330046 7.55489e-06  -0.0297723 -0.337213 1.98185e-06  -0.0301871 -0.344366 -1.53482e-06  -0.0305998 -0.351504 -6.75023e-06  -0.0310099 -0.358624 -1.24127e-05  0 0 0  -5.99027e-05 6.13332e-05 0.000249162  -0.00019642 -0.000331521 0.000433862  -0.000382662 -0.00116169 0.000567704  -0.000598952 -0.00241226 0.000659019  -0.00083518 -0.00403857 0.000718102  -0.00108343 -0.00600374 0.000753224  -0.00134033 -0.00828066 0.000767872  -0.00160506 -0.0108482 0.00076969  -0.00187606 -0.0136899 0.000760108  -0.00215435 -0.0167929 0.000744626  -0.00243741 -0.0201448 0.00072293  -0.00273007 -0.0237363 0.000697568  -0.00303042 -0.0275555 0.00067085  -0.00333732 -0.0315924 0.000643119  -0.00365394 -0.0358383 0.000615105  -0.00397849 -0.0402835 0.000587076  -0.00431168 -0.0449192 0.000559673  -0.00465262 -0.0497365 0.000532389  -0.00500083 -0.0547258 0.000505611  -0.00535738 -0.0598804 0.000481263  -0.00572109 -0.0651917 0.000456303  -0.00609183 -0.0706514 0.000432193  -0.00646937 -0.076252 0.000409588  -0.00685513 -0.0819862 0.00038746  -0.00724494 -0.0878484 0.000366122  -0.00764191 -0.0938289 0.000344723  -0.00804353 -0.0999215 0.00032492  -0.00844979 -0.106122 0.000305623  -0.00886178 -0.112421 0.000287056  -0.00927961 -0.118814 0.000268981  -0.00969994 -0.125294 0.000251487  -0.0101238 -0.131856 0.000235528  -0.0105507 -0.138494 0.000219434  -0.0109818 -0.145201 0.000203341  -0.0114155 -0.151975 0.000188574  -0.0118496 -0.158808 0.000175297  -0.0122859 -0.165696 0.000161096  -0.0127265 -0.172634 0.000148177  -0.0131669 -0.179618 0.000135854  -0.0136087 -0.186643 0.000124693  -0.0140469 -0.193704 0.000113994  -0.0144906 -0.200798 0.000102431  -0.0149317 -0.207921 9.09567e-05  -0.015373 -0.215069 8.20756e-05  -0.0158145 -0.222239 7.39992e-05  -0.0162535 -0.229426 6.54459e-05  -0.0166943 -0.236628 5.77867e-05  -0.017132 -0.243842 4.96954e-05  -0.0175698 -0.251064 4.32134e-05  -0.0180037 -0.258292 3.68655e-05  -0.0184391 -0.265525 3.16501e-05  -0.0188692 -0.272759 2.61664e-05  -0.0193005 -0.279991 2.14726e-05  -0.0197301 -0.28722 1.81943e-05  -0.0201554 -0.294445 1.40071e-05  -0.0205798 -0.301664 9.83477e-06  -0.0210021 -0.308875 7.42078e-06  -0.0214224 -0.316077 4.52995e-06  -0.021841 -0.323267 2.93553e-06  -0.0222566 -0.330448 7.30157e-07  -0.0226707 -0.337615 -7.00355e-07  -0.0230834 -0.344768 -1.89245e-06  -0.0234928 -0.351905 -4.99189e-06  -0.0239022 -0.359024 -6.4373e-06  0 0 0  1.15559e-05 6.69956e-05 -9.83477e-06  4.04716e-05 -0.000320435 -1.43647e-05  7.65622e-05 -0.00114858 -1.43498e-05  0.000114888 -0.00240013 -1.2815e-05  0.000148475 -0.0040302 -1.19507e-05  0.000176936 -0.00600097 -1.05947e-05  0.000195414 -0.00828537 -9.58145e-06  0.000201046 -0.0108613 -9.86457e-06  0.000195265 -0.0137117 -1.01477e-05  0.00017488 -0.0168236 -1.05947e-05  0.0001387 -0.0201864 -1.2666e-05  8.74996e-05 -0.0237871 -1.44392e-05  2.11596e-05 -0.0276164 -1.63317e-05  -6.12736e-05 -0.0316638 -1.93417e-05  -0.000161946 -0.0359208 -2.15918e-05  -0.000278056 -0.0403775 -2.35289e-05  -0.000408888 -0.0450251 -2.59429e-05  -0.000557661 -0.049854 -2.7582e-05  -0.000720859 -0.0548558 -2.864e-05  -0.000899196 -0.0600223 -3.0756e-05  -0.00109386 -0.065346 -3.22759e-05  -0.00130284 -0.0708179 -3.33339e-05  -0.00152576 -0.0764317 -3.40641e-05  -0.00176179 -0.0821778 -3.46154e-05  -0.00201213 -0.0880509 -3.54946e-05  -0.00227511 -0.0940436 -3.4973e-05  -0.00254834 -0.100148 -3.58224e-05  -0.00283587 -0.106358 -3.64184e-05  -0.00313365 -0.11267 -3.62098e-05  -0.00344157 -0.119073 -3.57479e-05  -0.0037595 -0.125563 -3.54946e-05  -0.00408733 -0.132135 -3.5435e-05  -0.00442505 -0.138781 -3.48091e-05  -0.00477004 -0.145499 -3.42727e-05  -0.00512266 -0.152281 -3.39448e-05  -0.00548315 -0.159122 -3.27975e-05  -0.00584912 -0.166019 -3.16352e-05  -0.00622392 -0.172964 -3.13967e-05  -0.0066011 -0.179955 -3.08305e-05  -0.00698614 -0.186986 -2.95639e-05  -0.00737453 -0.194054 -2.88785e-05  -0.00777006 -0.201154 -2.71797e-05  -0.00816584 -0.208282 -2.61813e-05  -0.00856709 -0.215435 -2.46465e-05  -0.00897312 -0.222609 -2.32756e-05  -0.00937772 -0.229802 -2.2769e-05  -0.00978756 -0.237007 -2.11895e-05  -0.0101972 -0.244223 -2.0802e-05  -0.0106091 -0.251449 -1.95801e-05  -0.0110226 -0.258681 -1.7941e-05  -0.0114362 -0.265916 -1.65701e-05  -0.0118511 -0.273151 -1.54078e-05  -0.0122657 -0.280386 -1.45882e-05  -0.012682 -0.287617 -1.34856e-05  -0.0130954 -0.294844 -1.1459e-05  -0.0135105 -0.302064 -1.05649e-05  -0.0139244 -0.309276 -8.77678e-06  -0.0143371 -0.316478 -7.7039e-06  -0.0147505 -0.32367 -5.97537e-06  -0.0151606 -0.330851 -5.45382e-06  -0.0155728 -0.33802 -3.8296e-06  -0.0159822 -0.345173 -2.563e-06  -0.0163891 -0.352308 -1.37091e-06  -0.0167966 -0.359428 -1.17719e-06  0 0 0  8.3603e-05 2.64049e-05 -0.000268847  0.000276104 -0.000394583 -0.000460431  0.000534624 -0.00124669 -0.000593588  0.000826776 -0.00251472 -0.000682846  0.00113085 -0.00415713 -0.000738919  0.001434 -0.00613666 -0.000770673  0.00172687 -0.00842667 -0.000784174  0.00200355 -0.0110077 -0.000785619  0.00226182 -0.0138625 -0.000778139  0.00249833 -0.0169803 -0.000763535  0.00271094 -0.0203475 -0.00074473  0.00290066 -0.0239534 -0.000724331  0.00306702 -0.0277889 -0.00070186  0.00320816 -0.0318438 -0.000679508  0.0033257 -0.0361082 -0.000655472  0.00341749 -0.0405717 -0.00063239  0.00348639 -0.0452268 -0.000609547  0.00353098 -0.0500641 -0.00058648  0.00355268 -0.0550746 -0.000564009  0.00354993 -0.0602494 -0.000541687  0.00352561 -0.0655807 -0.000520095  0.00347972 -0.0710619 -0.000498191  0.00341153 -0.076684 -0.000477105  0.00332332 -0.0824395 -0.000456616  0.00321448 -0.0883214 -0.000435799  0.00308502 -0.0943216 -0.000416204  0.00293791 -0.100435 -0.000396967  0.00277197 -0.106654 -0.000378177  0.00258899 -0.112973 -0.000359222  0.00239003 -0.119384 -0.000340834  0.0021739 -0.125881 -0.00032346  0.00194311 -0.13246 -0.000305623  0.00169849 -0.139115 -0.000288606  0.00143862 -0.145838 -0.000272706  0.00116587 -0.152626 -0.000256523  0.000880241 -0.159473 -0.000241503  0.000583649 -0.166375 -0.000224799  0.00027585 -0.173326 -0.000210941  -4.19617e-05 -0.180321 -0.000197321  -0.000369549 -0.187357 -0.000182673  -0.000705719 -0.194429 -0.000169933  -0.00105071 -0.201533 -0.000157952  -0.00140429 -0.208664 -0.000145093  -0.00176382 -0.215821 -0.000133187  -0.00212955 -0.222999 -0.000121877  -0.0025022 -0.230193 -0.000111058  -0.00288033 -0.237401 -0.000100777  -0.00326252 -0.244619 -9.12696e-05  -0.00364995 -0.251847 -8.22246e-05  -0.00404096 -0.259081 -7.29561e-05  -0.00443435 -0.266317 -6.44922e-05  -0.00483084 -0.273553 -5.74291e-05  -0.00523233 -0.28079 -4.95166e-05  -0.00563264 -0.288022 -4.24385e-05  -0.00603509 -0.295248 -3.70145e-05  -0.00644112 -0.302469 -3.07709e-05  -0.00684762 -0.309681 -2.56896e-05  -0.00725198 -0.316885 -2.01613e-05  -0.0076592 -0.324077 -1.61231e-05  -0.00806832 -0.331257 -1.12355e-05  -0.00847411 -0.338425 -7.39098e-06  -0.00888109 -0.345579 -4.12762e-06  -0.0092876 -0.352716 2.98023e-08  -0.00969148 -0.359835 4.72367e-06  0 0 0  0.00015644 -6.36578e-05 -0.000523508  0.000518128 -0.00055486 -0.000902489  0.00100319 -0.00145835 -0.00116934  0.00155365 -0.00275898 -0.0013486  0.00213161 -0.00441962 -0.00146358  0.00271174 -0.00640899 -0.00152843  0.00327975 -0.00870371 -0.00155739  0.00382805 -0.0112858 -0.00156005  0.00434941 -0.0141422 -0.00154409  0.0048396 -0.0172601 -0.00151484  0.00530142 -0.0206285 -0.00147685  0.00573152 -0.0242363 -0.00143395  0.00612998 -0.0280733 -0.00138792  0.00649446 -0.032131 -0.00134051  0.00682646 -0.0363982 -0.00129089  0.007128 -0.0408656 -0.00124173  0.00739574 -0.0455247 -0.00119412  0.00763154 -0.0503663 -0.00114617  0.00783837 -0.0553812 -0.00109926  0.00801361 -0.060562 -0.00105318  0.00815892 -0.0658991 -0.00100873  0.00827372 -0.0713846 -0.000963852  0.00836122 -0.0770121 -0.000920787  0.00841987 -0.0827731 -0.000878617  0.00845051 -0.0886605 -0.000837535  0.00845611 -0.0946658 -0.000797987  0.0084368 -0.100785 -0.000758126  0.0083921 -0.107009 -0.000719979  0.00832343 -0.113332 -0.000682458  0.00823236 -0.119748 -0.000646293  0.00811803 -0.12625 -0.000611082  0.00798392 -0.132833 -0.0005766  0.00782895 -0.139492 -0.000543788  0.0076561 -0.146219 -0.000510707  0.00746226 -0.153011 -0.000479549  0.00725293 -0.159862 -0.000448838  0.00702572 -0.166766 -0.000419557  0.00678349 -0.17372 -0.000391066  0.00652647 -0.180718 -0.000363916  0.00625443 -0.187757 -0.000337288  0.00597191 -0.194831 -0.000311866  0.00567245 -0.201936 -0.000287727  0.00536537 -0.20907 -0.000263527  0.00504589 -0.216227 -0.000240907  0.00471616 -0.223405 -0.000219733  0.0043788 -0.230602 -0.000199497  0.00403094 -0.23781 -0.000180066  0.00367641 -0.245031 -0.000161022  0.00331402 -0.252259 -0.000143766  0.00294566 -0.259493 -0.000127628  0.00257277 -0.266729 -0.000111595  0.00219274 -0.273966 -9.81838e-05  0.00180864 -0.281201 -8.4877e-05  0.00141978 -0.288434 -7.21365e-05  0.00102854 -0.295661 -6.11544e-05  0.000632763 -0.30288 -5.08726e-05  0.000235796 -0.310093 -4.19915e-05  -0.000164509 -0.317295 -3.28124e-05  -0.000567198 -0.324487 -2.57194e-05  -0.000970125 -0.331667 -1.83135e-05  -0.00137496 -0.338834 -1.16974e-05  -0.00177884 -0.345988 -4.21703e-06  -0.00218272 -0.353126 2.10106e-06  -0.00258517 -0.360247 9.62615e-06  0 0 0  0.000235178 -0.000210524 -0.000771552  0.000774458 -0.000812113 -0.00133584  0.00149718 -0.00179172 -0.00173914  0.00231501 -0.00313711 -0.00201224  0.00317189 -0.00482059 -0.00218695  0.0040327 -0.00681931 -0.00228661  0.00487784 -0.00911623 -0.00233132  0.00569642 -0.0116968 -0.00233524  0.00648075 -0.0145495 -0.00231075  0.00722647 -0.0176631 -0.00226733  0.00793427 -0.0210284 -0.00220992  0.00860327 -0.0246335 -0.00214477  0.00923032 -0.0284693 -0.00207464  0.00981981 -0.0325255 -0.00200185  0.0103665 -0.0367917 -0.00192794  0.0108737 -0.04126 -0.00185364  0.0113405 -0.0459193 -0.00178027  0.0117695 -0.0507615 -0.00170781  0.0121583 -0.0557779 -0.00163689  0.0125102 -0.0609595 -0.00156726  0.0128232 -0.066299 -0.00149886  0.0131006 -0.071787 -0.0014316  0.013341 -0.0774156 -0.00136703  0.0135472 -0.0831783 -0.00130305  0.0137179 -0.0890678 -0.00124118  0.0138563 -0.0950765 -0.00118078  0.0139629 -0.101197 -0.00112106  0.0140377 -0.107423 -0.0010635  0.0140826 -0.113749 -0.00100802  0.0140995 -0.120166 -0.000953853  0.0140871 -0.126669 -0.000899762  0.0140469 -0.133255 -0.00084883  0.013984 -0.139914 -0.000799626  0.0138946 -0.146643 -0.000749767  0.0137811 -0.153436 -0.000703886  0.0136459 -0.160288 -0.000657618  0.0134892 -0.167193 -0.000614256  0.0133116 -0.174148 -0.000572056  0.013113 -0.181146 -0.000530452  0.012898 -0.188185 -0.000492096  0.0126662 -0.195259 -0.000452936  0.0124149 -0.202366 -0.000416473  0.0121498 -0.209498 -0.00038299  0.0118723 -0.216656 -0.000348747  0.0115788 -0.223833 -0.000316963  0.0112743 -0.231028 -0.000286371  0.0109556 -0.238237 -0.000258029  0.0106282 -0.245457 -0.000231594  0.0102913 -0.252683 -0.000205234  0.00994444 -0.259915 -0.000182331  0.00958824 -0.267151 -0.000160128  0.00922465 -0.274388 -0.000139102  0.0088551 -0.281621 -0.000119776  0.00847864 -0.288853 -0.000101358  0.00809932 -0.296079 -8.54582e-05  0.00771356 -0.303298 -7.0259e-05  0.00732183 -0.310507 -5.74142e-05  0.00692916 -0.317709 -4.6134e-05  0.00653076 -0.324899 -3.43472e-05  0.00613236 -0.332078 -2.37077e-05  0.00573015 -0.339245 -1.43796e-05  0.00532842 -0.346399 -6.13928e-06  0.00492549 -0.353538 3.47197e-06  0.00452471 -0.360661 1.45882e-05  0 0 0  0.000318922 -0.000426173 -0.00101048  0.0010518 -0.00118083 -0.00176176  0.00202918 -0.00225961 -0.0023044  0.00312898 -0.00365847 -0.00267544  0.00427356 -0.00536543 -0.0029126  0.00542033 -0.00737017 -0.00304811  0.00654411 -0.00966316 -0.00310805  0.0076322 -0.0122367 -0.00311412  0.00867862 -0.015081 -0.00308108  0.00967878 -0.0181873 -0.00302237  0.0106323 -0.0215442 -0.00294699  0.0115387 -0.025144 -0.00285934  0.0123953 -0.0289737 -0.00276582  0.0132051 -0.0330252 -0.00266862  0.0139651 -0.0372878 -0.00256895  0.0146787 -0.041752 -0.00246972  0.0153446 -0.0464095 -0.0023717  0.0159626 -0.0512494 -0.00227466  0.0165354 -0.0562629 -0.00217871  0.0170603 -0.0614433 -0.00208519  0.0175413 -0.0667804 -0.00199376  0.0179772 -0.0722668 -0.00190318  0.0183709 -0.0778947 -0.00181608  0.018723 -0.0836565 -0.00173059  0.0190326 -0.0895444 -0.00164722  0.0193026 -0.0955524 -0.00156617  0.0195348 -0.101672 -0.0014877  0.0197289 -0.107897 -0.00141013  0.0198859 -0.114221 -0.00133523  0.0200087 -0.120637 -0.00126192  0.0200971 -0.127141 -0.00119188  0.0201533 -0.133725 -0.00112276  0.0201771 -0.140383 -0.0010564  0.0201719 -0.14711 -0.000991315  0.0201371 -0.153902 -0.000929028  0.0200753 -0.160752 -0.000868052  0.0199852 -0.167656 -0.000809342  0.0198705 -0.174609 -0.000752002  0.0197322 -0.181606 -0.000698298  0.0195732 -0.188642 -0.000646487  0.0193894 -0.195715 -0.000595585  0.0191865 -0.202819 -0.000546798  0.018965 -0.20995 -0.000500828  0.0187244 -0.217106 -0.000457227  0.0184658 -0.22428 -0.000414118  0.0181928 -0.231473 -0.000374183  0.0179019 -0.238679 -0.000336424  0.0176017 -0.245896 -0.000300586  0.0172856 -0.253121 -0.000265703  0.0169587 -0.260352 -0.000235066  0.0166202 -0.267585 -0.000205755  0.0162749 -0.274818 -0.000177547  0.0159175 -0.282051 -0.000152588  0.015553 -0.289279 -0.000129893  0.0151818 -0.296503 -0.000108704  0.0148036 -0.30372 -8.9407e-05  0.0144198 -0.310927 -7.28667e-05  0.0140312 -0.318126 -5.69075e-05  0.013638 -0.325316 -4.25726e-05  0.0132411 -0.332493 -2.99215e-05  0.0128434 -0.339659 -1.84029e-05  0.0124431 -0.346811 -7.80821e-06  0.0120413 -0.353952 3.8147e-06  0.0116401 -0.361078 1.50204e-05  0 0 0  0.000413336 -0.000730991 -0.00124016  0.00136422 -0.00168622 -0.00218432  0.00262067 -0.00288111 -0.00287415  0.00401884 -0.00433356 -0.00334826  0.00546247 -0.00605744 -0.00364916  0.00689939 -0.00806034 -0.00381882  0.00830397 -0.0103441 -0.00389306  0.00966191 -0.0129043 -0.00389966  0.0109691 -0.0157357 -0.00385942  0.0122218 -0.0188288 -0.0037863  0.013419 -0.0221753 -0.00369057  0.01456 -0.0257638 -0.00358215  0.0156456 -0.0295857 -0.00346531  0.0166745 -0.0336288 -0.00334221  0.0176477 -0.0378845 -0.00321844  0.0185642 -0.0423421 -0.00309366  0.0194253 -0.0469927 -0.00296991  0.0202332 -0.0518267 -0.00284773  0.0209849 -0.0568361 -0.00272697  0.0216852 -0.0620111 -0.00260918  0.022331 -0.0673425 -0.00249454  0.0229248 -0.072825 -0.00238121  0.0234706 -0.0784491 -0.00227165  0.0239661 -0.0842065 -0.00216338  0.0244131 -0.09009 -0.00205879  0.0248137 -0.096093 -0.00195718  0.0251691 -0.102209 -0.00185803  0.0254805 -0.108431 -0.00176138  0.0257491 -0.114749 -0.00166708  0.0259759 -0.121163 -0.0015758  0.0261635 -0.127663 -0.00148597  0.0263116 -0.134243 -0.00139968  0.0264237 -0.140897 -0.00131623  0.0264988 -0.14762 -0.00123572  0.0265415 -0.154408 -0.00115573  0.0265503 -0.161255 -0.00108017  0.0265288 -0.168155 -0.00100651  0.0264745 -0.175104 -0.00093551  0.0263958 -0.182097 -0.000867173  0.0262864 -0.189129 -0.000801474  0.0261536 -0.196198 -0.000738546  0.0259933 -0.203297 -0.000677869  0.0258133 -0.210425 -0.000619486  0.025609 -0.217575 -0.000564963  0.0253849 -0.224748 -0.000511557  0.0251422 -0.231935 -0.00046061  0.0248806 -0.239137 -0.000413775  0.0246022 -0.246351 -0.000369549  0.0243073 -0.253572 -0.000326902  0.0239987 -0.260799 -0.000287116  0.0236781 -0.268027 -0.000250459  0.0233448 -0.275258 -0.000216872  0.0229993 -0.282487 -0.000184983  0.0226445 -0.289712 -0.000156283  0.0222807 -0.296933 -0.000130594  0.0219095 -0.304146 -0.000106454  0.0215294 -0.311351 -8.56668e-05  0.0211458 -0.318548 -6.74874e-05  0.0207548 -0.325734 -5.07683e-05  0.0203605 -0.33291 -3.57926e-05  0.0199628 -0.340074 -2.28882e-05  0.0195627 -0.347226 -9.43244e-06  0.0191607 -0.354368 4.32134e-06  0.0187597 -0.361498 1.73151e-05  0 0 0  0.000531606 -0.00115901 -0.00146614  0.00173289 -0.00235516 -0.00261612  0.0032973 -0.00367498 -0.00347175  0.00501335 -0.00516987 -0.00404577  0.00676587 -0.00689834 -0.00440533  0.00849709 -0.00888824 -0.00460629  0.0101811 -0.0111526 -0.00469357  0.0118083 -0.013694 -0.00470047  0.0133738 -0.0165069 -0.00465155  0.0148769 -0.0195833 -0.00456367  0.0163165 -0.0229152 -0.00444914  0.0176919 -0.0264909 -0.00431846  0.0190042 -0.0303005 -0.00417767  0.0202518 -0.0343327 -0.00402963  0.0214353 -0.0385781 -0.00387979  0.022554 -0.0430257 -0.00372943  0.0236098 -0.0476676 -0.00357941  0.0246038 -0.0524931 -0.0034323  0.0255345 -0.0574934 -0.0032865  0.0264057 -0.0626605 -0.00314394  0.0272156 -0.0679851 -0.00300375  0.0279663 -0.0734587 -0.00286837  0.0286609 -0.079075 -0.00273578  0.0292977 -0.0848253 -0.00260489  0.0298792 -0.0907017 -0.00247827  0.030408 -0.0966983 -0.00235514  0.0308852 -0.102807 -0.0022352  0.0313116 -0.109021 -0.0021178  0.0316883 -0.115335 -0.00200427  0.0320176 -0.121742 -0.00189361  0.032302 -0.128234 -0.00178573  0.0325422 -0.134808 -0.00168115  0.0327392 -0.141456 -0.00158024  0.0328934 -0.148173 -0.00148197  0.0330098 -0.154954 -0.00138769  0.0330901 -0.161794 -0.00129594  0.0331326 -0.168688 -0.00120597  0.0331383 -0.17563 -0.00112009  0.0331142 -0.182617 -0.00103776  0.033057 -0.189643 -0.000958726  0.0329688 -0.196706 -0.000882253  0.0328522 -0.2038 -0.000808641  0.0327094 -0.210921 -0.000738904  0.0325403 -0.218066 -0.00067246  0.0323479 -0.225232 -0.000607774  0.0321317 -0.232414 -0.000547826  0.0318949 -0.239611 -0.00049068  0.0316396 -0.246819 -0.000436872  0.0313637 -0.254034 -0.000386149  0.0310726 -0.261256 -0.000338405  0.0307634 -0.26848 -0.000295207  0.0304422 -0.275706 -0.000253752  0.0301051 -0.282929 -0.00021559  0.029758 -0.290151 -0.000181347  0.0294006 -0.297367 -0.000150144  0.0290329 -0.304576 -0.000122532  0.028657 -0.311779 -9.84371e-05  0.0282745 -0.318971 -7.63237e-05  0.0278847 -0.326154 -5.73993e-05  0.027492 -0.333328 -4.03821e-05  0.0270946 -0.340489 -2.52426e-05  0.0266933 -0.347641 -1.10865e-05  0.0262918 -0.354784 2.27988e-06  0.025888 -0.361919 1.56164e-05  0 0 0  0.00066302 -0.00175583 -0.00170222  0.00220473 -0.00322866 -0.00312826  0.00411995 -0.00464588 -0.00412349  0.00616071 -0.00616097 -0.00478275  0.00821549 -0.00787455 -0.00519353  0.0102343 -0.00983965 -0.0054225  0.0121948 -0.0120772 -0.0055213  0.0140882 -0.014593 -0.00552769  0.0159137 -0.0173838 -0.00546767  0.0176667 -0.0204413 -0.0053639  0.0193484 -0.0237562 -0.00522935  0.0209586 -0.0273159 -0.00507499  0.0224954 -0.0311106 -0.00490846  0.0239597 -0.0351291 -0.00473513  0.0253515 -0.0393616 -0.00455922  0.0266716 -0.0437977 -0.00438167  0.027921 -0.0484268 -0.00420479  0.0290985 -0.0532414 -0.00403085  0.0302063 -0.0582299 -0.00386025  0.0312454 -0.0633857 -0.00369215  0.0322161 -0.0687 -0.00352864  0.0331216 -0.0741631 -0.0033673  0.033962 -0.079769 -0.00321122  0.0347379 -0.0855091 -0.00305776  0.035452 -0.0913765 -0.00290908  0.0361061 -0.0973632 -0.00276297  0.0367024 -0.103462 -0.00262141  0.0372406 -0.109667 -0.00248377  0.0377235 -0.115972 -0.00234941  0.0381538 -0.122369 -0.00221956  0.0385308 -0.128852 -0.00209258  0.0388591 -0.135416 -0.00196972  0.0391393 -0.142056 -0.00185081  0.0393715 -0.148764 -0.00173423  0.0395617 -0.155538 -0.00162242  0.0397048 -0.162369 -0.00151384  0.0398097 -0.169254 -0.00140977  0.0398755 -0.176188 -0.00130875  0.0399008 -0.183166 -0.00121179  0.0398927 -0.190185 -0.001118  0.0398474 -0.197239 -0.00102758  0.0397723 -0.204324 -0.000942335  0.0396647 -0.211438 -0.000859946  0.0395281 -0.218575 -0.000781432  0.0393641 -0.225733 -0.000705719  0.0391738 -0.232908 -0.000634834  0.038959 -0.240098 -0.000567764  0.038722 -0.247298 -0.000503868  0.0384626 -0.254508 -0.000444666  0.0381832 -0.261722 -0.000388026  0.0378871 -0.26894 -0.000336692  0.0375738 -0.27616 -0.000288665  0.0372429 -0.283378 -0.000244573  0.0369017 -0.290593 -0.000204459  0.0365462 -0.297804 -0.000167847  0.0361812 -0.305009 -0.00013715  0.0358047 -0.312207 -0.000107974  0.0354214 -0.319396 -8.22395e-05  0.0350306 -0.326576 -6.11842e-05  0.0346355 -0.333744 -4.35114e-05  0.034236 -0.340905 -2.81036e-05  0.0338318 -0.348057 -1.32322e-05  0.0334282 -0.355199 1.49012e-07  0.0330253 -0.362336 1.44839e-05  0 0 0  0.00105329 -0.00264829 -0.00217655  0.00298789 -0.00429952 -0.00372376  0.00520515 -0.00576019 -0.00481933  0.00752109 -0.00726455 -0.00555593  0.00984806 -0.00895005 -0.00601836  0.012135 -0.0108834 -0.00627717  0.0143656 -0.0130911 -0.00638774  0.0165246 -0.0155802 -0.00639232  0.0186077 -0.0183488 -0.00632182  0.0206129 -0.0213855 -0.00619876  0.0225374 -0.0246812 -0.00604177  0.0243809 -0.0282238 -0.00586237  0.026142 -0.0320019 -0.00566874  0.0278228 -0.0360051 -0.00546682  0.0294213 -0.0402228 -0.00526227  0.0309402 -0.0446443 -0.00505635  0.0323796 -0.0492602 -0.00485273  0.0337383 -0.0540593 -0.00465113  0.0350207 -0.059036 -0.00445311  0.0362251 -0.0641776 -0.00425903  0.0373546 -0.0694788 -0.00406836  0.0384097 -0.0749303 -0.00388317  0.0393947 -0.0805231 -0.00370251  0.0403057 -0.0862505 -0.00352538  0.0411496 -0.0921053 -0.00335301  0.0419264 -0.098079 -0.00318427  0.0426375 -0.104168 -0.00302078  0.0432866 -0.110361 -0.00286195  0.0438713 -0.116654 -0.00270635  0.0443991 -0.123039 -0.00255558  0.0448658 -0.129512 -0.00240907  0.0452802 -0.136065 -0.00226681  0.0456405 -0.142693 -0.00212865  0.0459456 -0.149391 -0.00199421  0.0462031 -0.156152 -0.00186448  0.0464115 -0.162974 -0.00173952  0.0465739 -0.169848 -0.00161898  0.0466948 -0.176771 -0.00150214  0.0467703 -0.18374 -0.00138952  0.0468049 -0.190749 -0.00128096  0.0468047 -0.197793 -0.00117777  0.0467641 -0.204868 -0.00107773  0.0466895 -0.211973 -0.000982434  0.0465796 -0.2191 -0.000890568  0.0464413 -0.226249 -0.000804082  0.0462737 -0.233415 -0.000722423  0.0460765 -0.240597 -0.000644431  0.0458553 -0.247789 -0.000571504  0.0456107 -0.254989 -0.000502095  0.0453427 -0.262196 -0.000438094  0.0450537 -0.269409 -0.000378326  0.044745 -0.276619 -0.000321999  0.0444193 -0.283829 -0.000270948  0.0440774 -0.291039 -0.000225618  0.043721 -0.298244 -0.000182614  0.0433526 -0.305444 -0.000146061  0.0429747 -0.312636 -0.000115141  0.0425875 -0.31982 -8.7738e-05  0.0421908 -0.326995 -6.32405e-05  0.0417912 -0.334163 -4.43459e-05  0.0413859 -0.34132 -2.73734e-05  0.0409799 -0.348471 -1.4022e-05  0.04057 -0.355614 -8.19564e-07  0.0401645 -0.362753 1.32024e-05  0 0 0  -0.00103638 -0.00200461 0.00291345  -0.003031 -0.00340972 0.004838  -0.00529811 -0.00454916 0.00613074  -0.00761268 -0.00577209 0.00696819  -0.00990331 -0.00723805 0.00746994  -0.0121462 -0.00899983 0.00773039  -0.0143378 -0.0110715 0.00781728  -0.0164783 -0.0134416 0.00778262  -0.0185692 -0.0160972 0.00766255  -0.0206109 -0.0190246 0.0074842  -0.0226049 -0.0222079 0.00726791  -0.0245507 -0.0256336 0.00702734  -0.026448 -0.02929 0.00677441  -0.0282944 -0.0331634 0.00651325  -0.0300942 -0.0372467 0.00625007  -0.0318432 -0.0415293 0.00598924  -0.0335436 -0.0460012 0.00573157  -0.0351981 -0.0506533 0.00547813  -0.0368013 -0.0554786 0.0052309  -0.0383601 -0.0604694 0.00499077  -0.0398717 -0.0656191 0.00475593  -0.0413376 -0.0709177 0.00452784  -0.0427589 -0.0763597 0.00430654  -0.0441346 -0.0819399 0.00409104  -0.0454699 -0.0876477 0.00388281  -0.0467608 -0.0934787 0.00367959  -0.0480096 -0.0994264 0.00348203  -0.0492202 -0.105486 0.00329106  -0.0503916 -0.111647 0.0031067  -0.0515217 -0.117906 0.00292648  -0.0526147 -0.124259 0.00275148  -0.0536723 -0.130697 0.00258382  -0.0546927 -0.137215 0.00242077  -0.0556786 -0.143809 0.00226265  -0.0566294 -0.150473 0.00211066  -0.0575473 -0.157202 0.00196354  -0.058434 -0.163991 0.00182232  -0.0592875 -0.170834 0.00168659  -0.0601115 -0.177727 0.00155456  -0.0609045 -0.184667 0.00142911  -0.0616708 -0.191649 0.00130942  -0.062407 -0.198668 0.00119442  -0.0631187 -0.205718 0.00108543  -0.0638049 -0.2128 0.000981018  -0.0644646 -0.219909 0.000881448  -0.0651009 -0.227039 0.000786886  -0.0657165 -0.234187 0.000698686  -0.0663071 -0.241352 0.000615597  -0.0668783 -0.248529 0.000539079  -0.0674317 -0.255717 0.000465691  -0.067966 -0.262911 0.000398681  -0.0684786 -0.270111 0.000336543  -0.0689812 -0.277312 0.00027898  -0.0694666 -0.284514 0.000227138  -0.0699346 -0.291716 0.000182047  -0.0703933 -0.298913 0.000141203  -0.0708387 -0.306104 0.000105664  -0.0712764 -0.31329 7.77096e-05  -0.0717018 -0.320468 5.34356e-05  -0.072124 -0.327636 3.41088e-05  -0.0725377 -0.334798 1.80155e-05  -0.0729499 -0.341949 5.90086e-06  -0.0733604 -0.349093 -5.48363e-06  -0.0737715 -0.356233 -1.82539e-05  0 0 0  -0.000689544 -0.00125366 0.00225137  -0.00230419 -0.00239608 0.00401877  -0.00425485 -0.00349701 0.00517155  -0.00626417 -0.00475967 0.00590244  -0.00824761 -0.00628105 0.00634061  -0.0101849 -0.00809688 0.00657199  -0.0120794 -0.0102132 0.00665495  -0.0139328 -0.0126262 0.00663449  -0.0157492 -0.0153223 0.00654083  -0.0175291 -0.0182875 0.00639644  -0.0192715 -0.0215084 0.00621846  -0.020978 -0.0249721 0.00601846  -0.022647 -0.0286663 0.00580528  -0.0242776 -0.0325788 0.00558566  -0.0258695 -0.0367008 0.00536267  -0.0274217 -0.0410211 0.00514135  -0.0289352 -0.0455311 0.00492106  -0.0304092 -0.0502224 0.00470527  -0.0318431 -0.0550866 0.00449473  -0.0332392 -0.0601157 0.00428817  -0.0345961 -0.0653014 0.00408745  -0.0359157 -0.0706375 0.00389232  -0.0371965 -0.0761165 0.00370312  -0.0384424 -0.0817297 0.00351813  -0.0396504 -0.0874727 0.00333914  -0.0408239 -0.0933379 0.00316484  -0.041963 -0.0993182 0.00299643  -0.0430684 -0.105408 0.00283214  -0.044139 -0.1116 0.00267339  -0.0451781 -0.11789 0.00251889  -0.0461851 -0.12427 0.00236982  -0.0471612 -0.130735 0.00222529  -0.0481069 -0.137281 0.0020858  -0.0490236 -0.143899 0.00194994  -0.0499098 -0.150588 0.00182009  -0.0507691 -0.15734 0.0016945  -0.0515993 -0.16415 0.00157245  -0.0524039 -0.171015 0.00145635  -0.0531826 -0.177929 0.00134473  -0.0539351 -0.184888 0.00123686  -0.0546637 -0.191887 0.0011335  -0.0553691 -0.198921 0.00103502  -0.0560496 -0.20599 0.000940979  -0.0567095 -0.213086 0.000851884  -0.0573492 -0.220207 0.000767127  -0.0579677 -0.22735 0.000685975  -0.0585649 -0.234512 0.000611722  -0.0591447 -0.241686 0.000539064  -0.0597062 -0.248875 0.000471488  -0.0602493 -0.256072 0.000410691  -0.0607777 -0.263275 0.000352159  -0.061291 -0.270482 0.00029844  -0.0617893 -0.277691 0.000251397  -0.0622745 -0.2849 0.000207409  -0.0627472 -0.292105 0.00016737  -0.0632091 -0.299307 0.00013265  -0.0636601 -0.306503 0.000102609  -0.0641036 -0.313691 7.62641e-05  -0.0645359 -0.320871 5.37783e-05  -0.0649629 -0.328042 3.66122e-05  -0.0653832 -0.335204 2.09808e-05  -0.0658014 -0.342355 6.86944e-06  -0.0662146 -0.349499 -5.70714e-06  -0.0666268 -0.356638 -2.00272e-05  0 0 0  -0.000560101 -0.000714675 0.00192705  -0.00184059 -0.00156613 0.003327  -0.00341602 -0.00259588 0.00430538  -0.00507787 -0.0038719 0.00493771  -0.0067434 -0.00543117 0.00532021  -0.00838363 -0.00728861 0.00552391  -0.00999409 -0.0094463 0.00560136  -0.0115736 -0.0118962 0.00558867  -0.0131255 -0.0146275 0.00551362  -0.0146489 -0.0176271 0.00539552  -0.0161451 -0.0208822 0.00524704  -0.0176142 -0.0243796 0.00508161  -0.0190545 -0.0281077 0.00490269  -0.0204661 -0.0320562 0.00471887  -0.0218481 -0.0362118 0.00453186  -0.0231997 -0.0405676 0.00434501  -0.0245211 -0.0451132 0.00416039  -0.0258116 -0.0498397 0.00397804  -0.0270709 -0.0547393 0.00379954  -0.0282995 -0.0598027 0.0036267  -0.029497 -0.0650241 0.00345691  -0.0306656 -0.0703935 0.00329185  -0.0318044 -0.0759053 0.00313202  -0.0329125 -0.0815522 0.00297588  -0.0339919 -0.087327 0.00282472  -0.0350423 -0.0932227 0.00267807  -0.0360663 -0.0992343 0.00253518  -0.0370619 -0.105352 0.00239681  -0.0380297 -0.111573 0.00226292  -0.0389719 -0.117891 0.00213297  -0.0398893 -0.124297 0.00200632  -0.0407797 -0.130788 0.0018843  -0.0416467 -0.137358 0.00176653  -0.0424881 -0.144002 0.00165215  -0.0433064 -0.150712 0.00154208  -0.044102 -0.157485 0.00143576  -0.0448742 -0.164317 0.00133303  -0.045624 -0.171201 0.00123493  -0.0463529 -0.178134 0.00114071  -0.0470617 -0.18511 0.00105  -0.0477479 -0.192126 0.000962421  -0.0484159 -0.199178 0.000879496  -0.0490649 -0.206261 0.000800371  -0.0496945 -0.213371 0.000725597  -0.0503066 -0.220506 0.000653818  -0.0509017 -0.227661 0.000586286  -0.0514791 -0.234834 0.000521213  -0.052042 -0.24202 0.00046137  -0.0525908 -0.249217 0.000405818  -0.0531213 -0.256423 0.000352696  -0.0536397 -0.263633 0.000304326  -0.0541463 -0.270849 0.000258744  -0.0546405 -0.278064 0.000218585  -0.0551231 -0.285279 0.000181496  -0.0555933 -0.29249 0.000147954  -0.0560546 -0.299695 0.000118047  -0.0565066 -0.306896 9.35495e-05  -0.0569501 -0.314088 7.07358e-05  -0.0573859 -0.321272 5.00679e-05  -0.0578163 -0.328444 3.41982e-05  -0.0582402 -0.335606 1.94758e-05  -0.0586596 -0.342758 6.13928e-06  -0.0590744 -0.349902 -7.88271e-06  -0.05949 -0.357037 -2.27392e-05  0 0 0  -0.000434883 -0.000336051 0.00162208  -0.00144351 -0.000948936 0.00276054  -0.00269137 -0.00188857 0.00353517  -0.00402533 -0.00315009 0.0040524  -0.00538018 -0.00472601 0.00437039  -0.00672823 -0.00661157 0.00454336  -0.00805897 -0.00879945 0.00461064  -0.00936955 -0.0112805 0.00460319  -0.0106615 -0.0140416 0.00454271  -0.0119323 -0.0170707 0.00444642  -0.0131838 -0.0203556 0.00432552  -0.0144165 -0.0238829 0.00418864  -0.0156289 -0.0276412 0.00404219  -0.0168206 -0.0316189 0.00389083  -0.0179897 -0.0358063 0.00373752  -0.0191381 -0.0401926 0.00358264  -0.0202658 -0.04477 0.00343074  -0.0213696 -0.0495276 0.00328048  -0.0224504 -0.0544576 0.00313404  -0.0235084 -0.0595528 0.00299016  -0.024544 -0.0648045 0.0028511  -0.0255574 -0.0702046 0.00271493  -0.0265481 -0.0757458 0.00258209  -0.027517 -0.0814224 0.00245486  -0.028463 -0.0872262 0.00232907  -0.0293883 -0.09315 0.00220725  -0.030291 -0.0991879 0.00209093  -0.0311753 -0.105334 0.00197637  -0.032037 -0.111581 0.00186604  -0.032879 -0.117922 0.00175819  -0.0337006 -0.124354 0.00165422  -0.0345045 -0.130867 0.00155459  -0.0352871 -0.13746 0.00145769  -0.0360518 -0.144124 0.00136262  -0.0367982 -0.150856 0.00127296  -0.0375264 -0.157649 0.00118484  -0.0382369 -0.164499 0.00110018  -0.0389295 -0.171402 0.00101933  -0.0396051 -0.178351 0.000941858  -0.0402648 -0.185344 0.000867218  -0.0409064 -0.192376 0.000794634  -0.0415351 -0.199441 0.000726923  -0.0421472 -0.206538 0.000661641  -0.0427423 -0.213661 0.000600383  -0.0433271 -0.220808 0.000540853  -0.0438941 -0.227974 0.000485018  -0.0444503 -0.235157 0.000432983  -0.044991 -0.242354 0.000382796  -0.0455205 -0.24956 0.00033693  -0.0460379 -0.256774 0.000293583  -0.0465441 -0.263993 0.000254184  -0.0470409 -0.271214 0.000216842  -0.0475245 -0.278436 0.000183567  -0.0480011 -0.285655 0.000152886  -0.0484667 -0.292871 0.000125572  -0.0489261 -0.300083 0.000101119  -0.0493743 -0.307286 7.86632e-05  -0.0498176 -0.314482 6.02454e-05  -0.0502541 -0.321667 4.39286e-05  -0.0506821 -0.328843 2.99662e-05  -0.0511057 -0.336008 1.63019e-05  -0.0515254 -0.343162 3.50177e-06  -0.0519426 -0.350303 -8.70228e-06  -0.0523567 -0.357434 -2.44826e-05  0 0 0  -0.000329278 -7.84397e-05 0.00131266  -0.00109483 -0.000508502 0.00221118  -0.00204764 -0.00136179 0.00281347  -0.00307684 -0.00259356 0.00321306  -0.00413468 -0.00417078 0.00346257  -0.00519672 -0.00607237 0.00360049  -0.00625169 -0.00828329 0.00365517  -0.00729507 -0.0107881 0.00365159  -0.00832754 -0.0135743 0.00360455  -0.0093478 -0.016629 0.00352725  -0.0103555 -0.0199382 0.0034315  -0.0113516 -0.0234911 0.00332302  -0.0123347 -0.0272751 0.00320724  -0.0133061 -0.0312786 0.00308646  -0.0142618 -0.0354927 0.00296421  -0.0152058 -0.0399067 0.00284202  -0.0161344 -0.0445097 0.00272077  -0.017049 -0.0492949 0.00260131  -0.017951 -0.0542526 0.00248389  -0.0188352 -0.0593749 0.00237064  -0.0197048 -0.0646527 0.00225963  -0.0205613 -0.0700793 0.00215144  -0.0214026 -0.0756477 0.00204682  -0.022227 -0.0813498 0.00194448  -0.0230377 -0.0871787 0.00184566  -0.0238347 -0.0931277 0.00174884  -0.0246156 -0.09919 0.00165571  -0.0253837 -0.105359 0.0015655  -0.0261368 -0.111629 0.00147755  -0.0268753 -0.117993 0.00139266  -0.0276003 -0.124445 0.00130947  -0.0283123 -0.130981 0.00122993  -0.0290108 -0.137591 0.00115329  -0.0296953 -0.144276 0.00107828  -0.0303662 -0.151026 0.00100642  -0.0310245 -0.157836 0.000937521  -0.0316701 -0.164704 0.000870645  -0.0323017 -0.171621 0.000806287  -0.0329232 -0.178586 0.000744998  -0.03353 -0.185593 0.000685662  -0.0341268 -0.192639 0.000629082  -0.034709 -0.199718 0.000575513  -0.0352821 -0.206826 0.000522941  -0.0358429 -0.213962 0.000475019  -0.0363929 -0.221119 0.000427827  -0.0369339 -0.228296 0.000383794  -0.0374627 -0.235487 0.000342831  -0.0379813 -0.242692 0.000303775  -0.0384922 -0.249906 0.000267029  -0.0389905 -0.257127 0.000232518  -0.0394826 -0.264353 0.000202134  -0.0399659 -0.271581 0.000173703  -0.0404401 -0.278808 0.000146031  -0.0409062 -0.286033 0.000122055  -0.0413635 -0.293254 0.000100195  -0.041816 -0.300468 8.04365e-05  -0.0422626 -0.307676 6.34193e-05  -0.0427015 -0.314874 4.81904e-05  -0.0431345 -0.322063 3.44962e-05  -0.0435615 -0.329241 2.26796e-05  -0.0439837 -0.336408 1.21742e-05  -0.0444033 -0.343561 1.59442e-06  -0.0448177 -0.350702 -9.46224e-06  -0.0452318 -0.357829 -2.38419e-05  0 0 0  -0.000234965 9.05395e-05 0.000990927  -0.000782214 -0.000208735 0.0016617  -0.00146598 -0.000990123 0.00210503  -0.00221026 -0.00219139 0.00239651  -0.0029805 -0.00376233 0.00257912  -0.00376236 -0.00567281 0.00268063  -0.00454387 -0.0078989 0.00272216  -0.00532314 -0.0104223 0.0027186  -0.00609672 -0.0132294 0.00268416  -0.00686574 -0.0163043 0.00262727  -0.00762933 -0.0196354 0.00255564  -0.00838935 -0.0232089 0.00247492  -0.00914323 -0.0270146 0.00238734  -0.00989193 -0.0310403 0.00229686  -0.0106351 -0.0352766 0.00220518  -0.0113721 -0.039712 0.00211379  -0.0121033 -0.0443386 0.0020223  -0.0128279 -0.0491469 0.00193368  -0.0135459 -0.054128 0.0018464  -0.0142556 -0.0592727 0.00176087  -0.0149596 -0.0645739 0.00167841  -0.0156548 -0.0700238 0.00159714  -0.0163424 -0.0756144 0.00151861  -0.0170236 -0.0813392 0.00144246  -0.0176957 -0.08719 0.00136843  -0.0183607 -0.0931601 0.00129727  -0.019019 -0.0992436 0.00122644  -0.0196681 -0.105433 0.00115927  -0.0203096 -0.111723 0.00109389  -0.0209442 -0.118106 0.00103039  -0.021569 -0.124577 0.000968501  -0.0221875 -0.131129 0.000909925  -0.0227973 -0.13776 0.000852689  -0.0233994 -0.144459 0.000796854  -0.0239925 -0.151225 0.000743866  -0.0245793 -0.158052 0.00069195  -0.0251575 -0.164933 0.000642106  -0.0257275 -0.171865 0.000594258  -0.0262904 -0.178843 0.000549391  -0.026844 -0.185863 0.000505671  -0.0273914 -0.19292 0.000463203  -0.0279298 -0.20001 0.000422895  -0.0284615 -0.20713 0.000384882  -0.0289841 -0.214274 0.000349388  -0.0295007 -0.221441 0.000314549  -0.0300095 -0.228625 0.000282943  -0.0305109 -0.235826 0.000251591  -0.0310035 -0.243038 0.000222161  -0.0314913 -0.250259 0.000195771  -0.031971 -0.257487 0.000170454  -0.0324457 -0.264718 0.000147343  -0.0329142 -0.271951 0.000126377  -0.0333734 -0.279183 0.000107646  -0.0338306 -0.286412 8.97497e-05  -0.0342803 -0.293637 7.32988e-05  -0.0347247 -0.300855 5.90235e-05  -0.0351644 -0.308066 4.60297e-05  -0.0355968 -0.315268 3.49283e-05  -0.0360258 -0.322459 2.56449e-05  -0.0364504 -0.32964 1.55866e-05  -0.0368705 -0.336808 7.43568e-06  -0.0372887 -0.343961 -4.17233e-07  -0.0377014 -0.351101 -9.19402e-06  -0.038115 -0.358223 -2.08318e-05  0 0 0  -0.000147909 0.000192702 0.000660568  -0.000492789 -2.35438e-05 0.00110564  -0.000925556 -0.000754118 0.00139704  -0.00139898 -0.0019303 0.00158732  -0.00189444 -0.00349575 0.00170693  -0.00240079 -0.00541031 0.00177394  -0.00291246 -0.00764751 0.00180137  -0.00342712 -0.0101858 0.00179902  -0.00394332 -0.0130082 0.00177668  -0.00446153 -0.0160997 0.00173829  -0.00498199 -0.0194468 0.0016904  -0.00550413 -0.0230379 0.00163616  -0.00602829 -0.026861 0.00157738  -0.00655556 -0.0309049 0.00151725  -0.00708383 -0.0351587 0.00145541  -0.00761509 -0.0396137 0.00139374  -0.00814569 -0.0442596 0.0013338  -0.00867879 -0.0490861 0.0012731  -0.00921237 -0.0540859 0.00121513  -0.00974596 -0.0592505 0.00115803  -0.0102806 -0.0645709 0.00110213  -0.0108155 -0.0700406 0.00104845  -0.0113506 -0.07565 0.000995994  -0.0118837 -0.0813926 0.000945181  -0.0124172 -0.0872625 0.000896081  -0.0129498 -0.0932506 0.00084801  -0.0134799 -0.0993516 0.00080213  -0.0140111 -0.105559 0.000757352  -0.0145386 -0.111865 0.000713617  -0.0150661 -0.118264 0.000672296  -0.0155907 -0.124751 0.000631064  -0.0161138 -0.13132 0.000592023  -0.0166342 -0.137964 0.000553593  -0.0171525 -0.144678 0.000516862  -0.0176668 -0.151458 0.000481322  -0.0181792 -0.158297 0.000447556  -0.0186889 -0.165191 0.000416264  -0.0191953 -0.172134 0.000383005  -0.0196981 -0.179124 0.000354216  -0.0201967 -0.186154 0.000325009  -0.0206933 -0.193221 0.000297606  -0.0211849 -0.20032 0.000271738  -0.0216718 -0.20745 0.000246078  -0.0221567 -0.214603 0.000223175  -0.0226355 -0.221777 0.000200167  -0.0231123 -0.228969 0.000179589  -0.0235837 -0.236175 0.000159502  -0.0240517 -0.243395 0.000141189  -0.0245149 -0.250621 0.000123844  -0.0249739 -0.257854 0.000107363  -0.0254295 -0.265091 9.21339e-05  -0.0258791 -0.272328 7.9304e-05  -0.0263262 -0.279563 6.66976e-05  -0.0267706 -0.286796 5.53131e-05  -0.0272088 -0.294024 4.47333e-05  -0.0276444 -0.301246 3.57777e-05  -0.0280759 -0.308459 2.77162e-05  -0.0285034 -0.315662 2.11298e-05  -0.0289273 -0.322856 1.4171e-05  -0.0293481 -0.330039 8.61287e-06  -0.0297668 -0.337207 4.23193e-06  -0.0301805 -0.344362 -2.41399e-06  -0.0305946 -0.3515 -9.11951e-06  -0.0310051 -0.358619 -1.54078e-05  0 0 0  -6.55018e-05 0.000241846 0.000323966  -0.000220023 6.61314e-05 0.000543356  -0.000412658 -0.000637084 0.000687301  -0.000625163 -0.0018006 0.000782147  -0.000851959 -0.00336298 0.000841454  -0.00108764 -0.00528318 0.000874609  -0.00133085 -0.00752863 0.000888333  -0.00158289 -0.0100773 0.000888169  -0.0018425 -0.0129108 0.000876009  -0.0021106 -0.0160152 0.000856847  -0.00238597 -0.0193757 0.000832528  -0.00267148 -0.0229798 0.000804842  -0.0029667 -0.0268156 0.000774443  -0.00327075 -0.0308734 0.000743121  -0.00358433 -0.0351422 0.000711352  -0.00390667 -0.0396115 0.000679299  -0.00423837 -0.0442722 0.000648126  -0.00457919 -0.0491144 0.000617579  -0.00492811 -0.0541293 0.000587702  -0.0052855 -0.0593096 0.000558719  -0.00565052 -0.0646457 0.000530049  -0.00602186 -0.0701298 0.000502825  -0.00640297 -0.0757554 0.000476599  -0.00678849 -0.0815145 0.000450715  -0.00718033 -0.0873985 0.000426039  -0.00757921 -0.0934022 0.000402018  -0.00798273 -0.0995175 0.000377983  -0.00839305 -0.105739 0.000356078  -0.00880682 -0.112059 0.000335068  -0.00922644 -0.118472 0.000313953  -0.00964785 -0.124972 0.000293955  -0.0100751 -0.131553 0.000274554  -0.0105035 -0.138209 0.000255689  -0.0109367 -0.144935 0.00023818  -0.0113721 -0.151726 0.000220552  -0.0118093 -0.158575 0.000204846  -0.0122497 -0.165479 0.000188708  -0.0126905 -0.172434 0.000173464  -0.0131321 -0.179432 0.000159651  -0.0135751 -0.18647 0.000145689  -0.0140183 -0.193546 0.000132516  -0.0144613 -0.200653 0.000119865  -0.0149059 -0.207788 0.000108406  -0.0153491 -0.214949 9.68724e-05  -0.0157931 -0.222128 8.63522e-05  -0.0162339 -0.229326 7.63685e-05  -0.0166755 -0.236538 6.79046e-05  -0.0171144 -0.243762 5.88745e-05  -0.0175533 -0.250994 5.05745e-05  -0.0179904 -0.258231 4.3273e-05  -0.0184264 -0.26547 3.72082e-05  -0.0188594 -0.272711 3.10838e-05  -0.0192904 -0.27995 2.44975e-05  -0.0197194 -0.287186 2.06381e-05  -0.020148 -0.294416 1.59889e-05  -0.0205729 -0.30164 1.25766e-05  -0.020997 -0.308855 7.92742e-06  -0.021419 -0.316061 5.36442e-06  -0.0218365 -0.323255 3.54648e-06  -0.0222552 -0.330438 1.90735e-06  -0.0226681 -0.337609 -2.98023e-07  -0.0230806 -0.344763 -2.42889e-06  -0.0234914 -0.351902 -5.39422e-06  -0.0239005 -0.359018 -9.47714e-06  0 0 0  1.42679e-05 0.000243723 -1.4782e-05  4.70132e-05 7.25985e-05 -2.12789e-05  8.67844e-05 -0.000630081 -2.26349e-05  0.000129312 -0.00179514 -2.20388e-05  0.000168115 -0.00336215 -2.03848e-05  0.000199854 -0.00528803 -1.94758e-05  0.000222415 -0.00753963 -1.84625e-05  0.000233054 -0.010096 -1.91182e-05  0.000229895 -0.0129387 -1.91182e-05  0.000213206 -0.0160515 -1.99378e-05  0.000182152 -0.0194204 -2.14279e-05  0.000132799 -0.0230338 -2.31415e-05  6.81281e-05 -0.0268798 -2.51234e-05  -1.3113e-05 -0.0309477 -2.73734e-05  -0.000112295 -0.035227 -2.96384e-05  -0.000227213 -0.0397065 -3.14564e-05  -0.000358939 -0.0443789 -3.31104e-05  -0.000507593 -0.0492327 -3.55244e-05  -0.000671387 -0.0542599 -3.71784e-05  -0.00085187 -0.0594515 -3.82662e-05  -0.00104618 -0.0648 -4.01884e-05  -0.00125623 -0.0702963 -4.00245e-05  -0.0014801 -0.0759336 -4.16487e-05  -0.00171816 -0.0817043 -4.29004e-05  -0.0019691 -0.0876004 -4.26918e-05  -0.00223374 -0.0936158 -4.29302e-05  -0.00250995 -0.0997421 -4.33028e-05  -0.0027982 -0.105975 -4.2513e-05  -0.00309646 -0.112306 -4.29451e-05  -0.00340593 -0.11873 -4.23789e-05  -0.00372672 -0.125239 -4.19319e-05  -0.00405586 -0.13183 -4.17978e-05  -0.00439429 -0.138496 -4.08888e-05  -0.00474 -0.145232 -3.99053e-05  -0.00509667 -0.15203 -3.93391e-05  -0.00545669 -0.158888 -3.8743e-05  -0.00582647 -0.165801 -3.80576e-05  -0.00620151 -0.172761 -3.71188e-05  -0.00658226 -0.179767 -3.50326e-05  -0.00696778 -0.186813 -3.50475e-05  -0.00735879 -0.193894 -3.28869e-05  -0.00775385 -0.201008 -3.13073e-05  -0.00815296 -0.208148 -3.00705e-05  -0.00855422 -0.215312 -2.87592e-05  -0.00895905 -0.222498 -2.72095e-05  -0.00936723 -0.2297 -2.60025e-05  -0.00977707 -0.236917 -2.52277e-05  -0.0101869 -0.244144 -2.37226e-05  -0.0106008 -0.251379 -2.2158e-05  -0.0110157 -0.258618 -2.09957e-05  -0.0114305 -0.26586 -2.01166e-05  -0.0118451 -0.273103 -1.82986e-05  -0.0122614 -0.280344 -1.63913e-05  -0.012677 -0.287582 -1.48267e-05  -0.0130928 -0.294815 -1.4171e-05  -0.0135078 -0.302038 -1.24723e-05  -0.0139225 -0.309255 -1.01179e-05  -0.0143366 -0.316462 -8.85129e-06  -0.0147498 -0.323659 -7.7635e-06  -0.015161 -0.330842 -6.51181e-06  -0.0155728 -0.338012 -4.20213e-06  -0.0159829 -0.345167 -3.74019e-06  -0.0163908 -0.352305 -2.98023e-06  -0.0167959 -0.359421 -2.30968e-06  0 0 0  9.36314e-05 0.000202119 -0.000352994  0.000312164 -2.5034e-06 -0.000584036  0.000585258 -0.000729144 -0.000730574  0.000882745 -0.00191122 -0.000823125  0.00118595 -0.00348961 -0.000879377  0.00148639 -0.00542325 -0.000910863  0.0017741 -0.00768167 -0.000922993  0.00204748 -0.0102437 -0.000922173  0.00229967 -0.0130911 -0.000911117  0.00253224 -0.0162082 -0.000894681  0.00274378 -0.0195823 -0.000873148  0.00293225 -0.0232016 -0.000848368  0.00309592 -0.0270535 -0.000823021  0.00323647 -0.0311276 -0.000795603  0.00335336 -0.0354129 -0.000768796  0.00344443 -0.0399008 -0.000741109  0.00351226 -0.0445799 -0.000714317  0.0035578 -0.0494413 -0.000687599  0.00357795 -0.0544774 -0.000661209  0.00357628 -0.0596775 -0.000635162  0.00355136 -0.0650335 -0.000609353  0.00350451 -0.0705395 -0.00058423  0.00343549 -0.076186 -0.000559419  0.00334466 -0.0819643 -0.000534505  0.00323594 -0.0878696 -0.000511304  0.00310743 -0.0938931 -0.000487536  0.00295806 -0.100028 -0.000464782  0.00279129 -0.106269 -0.000443116  0.00260854 -0.112608 -0.000420645  0.00240743 -0.119038 -0.00039877  0.00219035 -0.125556 -0.000378162  0.00195813 -0.132154 -0.000358045  0.00171089 -0.138827 -0.000338286  0.00145149 -0.145568 -0.000318468  0.00117612 -0.152374 -0.00030002  0.000890493 -0.159238 -0.000281483  0.000592709 -0.166155 -0.000264362  0.000284433 -0.173121 -0.000247717  -3.33786e-05 -0.180132 -0.00022991  -0.000364065 -0.187183 -0.000214666  -0.000699997 -0.194268 -0.000199363  -0.00104785 -0.201384 -0.00018391  -0.00140142 -0.20853 -0.000169992  -0.00176239 -0.215698 -0.000156  -0.00212932 -0.222886 -0.000141963  -0.00250125 -0.230091 -0.000130177  -0.00288129 -0.237309 -0.000118479  -0.00326395 -0.244539 -0.000105396  -0.0036509 -0.251776 -9.56357e-05  -0.00404096 -0.259016 -8.62181e-05  -0.00443602 -0.266261 -7.5385e-05  -0.0048337 -0.273505 -6.66529e-05  -0.00523329 -0.280747 -5.82635e-05  -0.00563431 -0.287986 -4.98593e-05  -0.00603867 -0.295218 -4.27961e-05  -0.00644326 -0.302444 -3.63886e-05  -0.00684977 -0.309661 -3.00556e-05  -0.00725603 -0.316867 -2.40356e-05  -0.0076623 -0.324063 -1.9297e-05  -0.00807142 -0.331248 -1.46776e-05  -0.00847745 -0.338418 -9.25362e-06  -0.00888515 -0.345573 -3.39746e-06  -0.00929141 -0.352712 7.15256e-07  -0.00969553 -0.359828 6.4671e-06  0 0 0  0.000174105 0.000115514 -0.000685796  0.000582844 -0.000161111 -0.00114051  0.0010941 -0.000937045 -0.0014326  0.0016506 -0.00214958 -0.00162019  0.00222319 -0.00374663 -0.00173508  0.00279108 -0.0056892 -0.00179972  0.003346 -0.00795341 -0.00182587  0.00387871 -0.0105171 -0.00182389  0.00438869 -0.0133654 -0.00180224  0.00487202 -0.0164844 -0.00176789  0.00532484 -0.0198603 -0.00172247  0.00574917 -0.0234805 -0.00167279  0.00614208 -0.0273355 -0.00161973  0.006504 -0.0314126 -0.00156467  0.00683361 -0.0357017 -0.00150803  0.00713336 -0.0401931 -0.00145206  0.00740051 -0.0448761 -0.00139599  0.00763631 -0.0497432 -0.00134034  0.00784266 -0.054783 -0.00128464  0.00801766 -0.0599878 -0.00123173  0.00816131 -0.0653499 -0.00117941  0.00827599 -0.0708604 -0.00112815  0.00836313 -0.0765117 -0.00107785  0.00842178 -0.0822967 -0.00102866  0.00845397 -0.0882062 -0.000979602  0.00845742 -0.0942354 -0.000932649  0.0084374 -0.100376 -0.000887007  0.00839126 -0.106621 -0.000842288  0.00832331 -0.112964 -0.000799119  0.00823104 -0.119401 -0.000756875  0.00811684 -0.125923 -0.0007153  0.00798106 -0.132526 -0.000674888  0.00782561 -0.139203 -0.000635535  0.00765133 -0.145948 -0.000597164  0.00745893 -0.152758 -0.000561625  0.00724816 -0.159624 -0.000525177  0.00702047 -0.166545 -0.00049068  0.006778 -0.173514 -0.000458375  0.00652027 -0.180527 -0.000425592  0.00624776 -0.18758 -0.000393912  0.00596404 -0.194669 -0.000364542  0.00566554 -0.201787 -0.000336051  0.00535536 -0.208934 -0.000308245  0.00503683 -0.216103 -0.000282213  0.00470853 -0.223293 -0.000256598  0.00437045 -0.230499 -0.000233084  0.00402164 -0.237719 -0.000210598  0.00366759 -0.244949 -0.000188977  0.00330567 -0.252185 -0.000168324  0.00293636 -0.259428 -0.000149161  0.00256181 -0.266673 -0.000132248  0.0021832 -0.273917 -0.000115052  0.00179935 -0.28116 -9.86159e-05  0.00141096 -0.288398 -8.49068e-05  0.00102067 -0.29563 -7.21514e-05  0.000624895 -0.302855 -6.03497e-05  0.000226498 -0.310072 -4.88758e-05  -0.000173092 -0.317278 -3.96669e-05  -0.000573635 -0.324473 -2.96235e-05  -0.000975609 -0.331656 -2.10106e-05  -0.00138044 -0.338826 -1.33216e-05  -0.00178576 -0.345982 -5.24521e-06  -0.00219059 -0.353121 2.93553e-06  -0.00259256 -0.36024 1.31577e-05  0 0 0  0.000257745 -2.40207e-05 -0.00101027  0.000865325 -0.00041151 -0.00168677  0.00162759 -0.00126094 -0.00212693  0.0024519 -0.00251639 -0.00241344  0.00329781 -0.00413454 -0.00259084  0.0041393 -0.00608695 -0.00268951  0.00496086 -0.00835294 -0.00272863  0.00575763 -0.0109172 -0.00272612  0.00652206 -0.0137633 -0.00269416  0.00725329 -0.0168796 -0.00264151  0.00794911 -0.0202529 -0.00257486  0.00860673 -0.0238724 -0.00249936  0.00922799 -0.027726 -0.00241859  0.00981057 -0.0318033 -0.00233385  0.0103537 -0.0360919 -0.00224927  0.010859 -0.0405833 -0.00216407  0.0113254 -0.0452675 -0.00207853  0.0117519 -0.0501357 -0.00199519  0.0121405 -0.0551766 -0.00191243  0.0124921 -0.060384 -0.00183116  0.0128058 -0.0657474 -0.00175147  0.0130818 -0.0712597 -0.00167376  0.0133233 -0.0769141 -0.00159776  0.0135287 -0.0826997 -0.00152338  0.0137006 -0.0886121 -0.0014509  0.0138385 -0.0946432 -0.00137924  0.0139445 -0.100786 -0.00131035  0.014019 -0.107033 -0.00124361  0.0140647 -0.113379 -0.0011785  0.014081 -0.119817 -0.00111414  0.0140684 -0.126342 -0.00105269  0.0140307 -0.132945 -0.000992998  0.0139658 -0.139623 -0.000932902  0.0138767 -0.14637 -0.000878051  0.013762 -0.15318 -0.000822544  0.0136273 -0.160049 -0.000769228  0.0134687 -0.166971 -0.000717819  0.0132923 -0.173941 -0.000667781  0.0130944 -0.180955 -0.000620842  0.0128787 -0.188008 -0.000574023  0.0126467 -0.195096 -0.000530273  0.0123968 -0.202216 -0.000488922  0.0121334 -0.209362 -0.000446543  0.0118527 -0.216531 -0.000407979  0.0115604 -0.22372 -0.000370592  0.0112562 -0.230926 -0.000335485  0.0109379 -0.238145 -0.000302464  0.0106118 -0.245374 -0.000270277  0.0102742 -0.252611 -0.000241131  0.00992823 -0.259852 -0.000213429  0.00957251 -0.267095 -0.000186861  0.00921082 -0.274339 -0.000163019  0.00884151 -0.28158 -0.000140026  0.00846696 -0.288817 -0.000119299  0.00808549 -0.296049 -9.9659e-05  0.00770068 -0.303272 -8.34614e-05  0.00731182 -0.310488 -6.81579e-05  0.006917 -0.317693 -5.3212e-05  0.00652289 -0.324886 -4.06951e-05  0.0061214 -0.332068 -2.80589e-05  0.00572157 -0.339238 -1.82241e-05  0.00531888 -0.346392 -6.07967e-06  0.00491667 -0.353533 5.52833e-06  0.0045166 -0.360656 1.83731e-05  0 0 0  0.000349462 -0.000228047 -0.00132284  0.00117153 -0.000771523 -0.00222124  0.00219782 -0.00171423 -0.00281638  0.00330478 -0.00301927 -0.00320674  0.00443441 -0.0046587 -0.0034494  0.00555244 -0.00661725 -0.00358278  0.0066438 -0.00888199 -0.00363623  0.00770217 -0.0114406 -0.00363313  0.00872153 -0.0142808 -0.00359043  0.00970024 -0.0173914 -0.00351901  0.0106368 -0.0207599 -0.00343043  0.0115285 -0.0243746 -0.00332987  0.0123771 -0.0282241 -0.00322221  0.0131785 -0.0322966 -0.00310954  0.0139347 -0.0365834 -0.002995  0.0146438 -0.0410717 -0.0028806  0.0153071 -0.0457541 -0.00276726  0.0159246 -0.0506194 -0.00265415  0.0164958 -0.0556597 -0.00254294  0.0170214 -0.0608642 -0.00243425  0.0175023 -0.0662277 -0.00232765  0.0179393 -0.0717381 -0.00222319  0.018333 -0.0773895 -0.0021209  0.018685 -0.0831755 -0.00202191  0.018996 -0.0890861 -0.00192492  0.0192661 -0.0951171 -0.00182989  0.0194997 -0.101259 -0.00173771  0.0196939 -0.107505 -0.00164755  0.019851 -0.11385 -0.00156085  0.0199738 -0.120288 -0.00147542  0.0200623 -0.12681 -0.0013928  0.0201194 -0.133413 -0.00131145  0.0201437 -0.14009 -0.00123391  0.0201378 -0.146836 -0.00115892  0.0201035 -0.153645 -0.001085  0.0200412 -0.160513 -0.00101425  0.0199535 -0.167433 -0.00094603  0.0198395 -0.174401 -0.000880614  0.0197015 -0.181413 -0.000816762  0.0195413 -0.188465 -0.000754774  0.0193591 -0.195552 -0.000695825  0.019156 -0.202669 -0.00063993  0.0189345 -0.209813 -0.000585601  0.0186946 -0.21698 -0.000533521  0.0184388 -0.224166 -0.000484988  0.0181639 -0.231371 -0.000438124  0.0178773 -0.238587 -0.000393584  0.0175755 -0.245815 -0.000351205  0.0172615 -0.253048 -0.000312343  0.0169351 -0.260288 -0.000275686  0.0165997 -0.267529 -0.000240445  0.0162535 -0.274771 -0.000209421  0.0158982 -0.282009 -0.00017944  0.0155346 -0.289244 -0.000152409  0.0151629 -0.296474 -0.000128523  0.0147877 -0.303696 -0.00010547  0.0144043 -0.310908 -8.43406e-05  0.0140173 -0.318111 -6.6489e-05  0.0136259 -0.325303 -5.02914e-05  0.0132296 -0.332483 -3.55542e-05  0.0128314 -0.339651 -2.25157e-05  0.0124285 -0.346806 -9.59635e-06  0.0120282 -0.353947 5.20051e-06  0.0116286 -0.361073 2.07573e-05  0 0 0  0.000449076 -0.000516236 -0.00162035  0.0015076 -0.00126618 -0.00274949  0.00282426 -0.00231457 -0.0035098  0.00423181 -0.00366569 -0.00401342  0.00565383 -0.00532126 -0.00432193  0.00705373 -0.00727916 -0.00448924  0.00841638 -0.00953621 -0.00455499  0.00973791 -0.0120859 -0.00454998  0.0110123 -0.0149162 -0.00449574  0.0122371 -0.0180182 -0.00440684  0.0134138 -0.0213783 -0.00429656  0.0145376 -0.0249852 -0.00416988  0.0156116 -0.0288278 -0.00403434  0.016632 -0.0328948 -0.00389378  0.0176002 -0.0371751 -0.00375056  0.0185131 -0.041658 -0.00360671  0.0193712 -0.0463343 -0.00346345  0.0201777 -0.0511945 -0.00332122  0.0209296 -0.0562291 -0.00318187  0.0216284 -0.0614302 -0.00304522  0.0222752 -0.0667875 -0.00291081  0.0228714 -0.0722941 -0.00278002  0.023416 -0.0779421 -0.00265139  0.0239121 -0.0837228 -0.00252651  0.0243599 -0.0896306 -0.00240418  0.0247622 -0.095656 -0.00228517  0.0251179 -0.101794 -0.00216918  0.0254295 -0.108037 -0.00205632  0.0256983 -0.114378 -0.00194649  0.0259268 -0.120812 -0.00183949  0.0261154 -0.127331 -0.00173573  0.0262642 -0.13393 -0.00163488  0.026376 -0.140604 -0.00153713  0.0264533 -0.147345 -0.00144202  0.0264959 -0.15415 -0.00135018  0.0265057 -0.161014 -0.00126113  0.0264852 -0.167931 -0.00117521  0.0264332 -0.174896 -0.00109267  0.0263531 -0.181903 -0.00101294  0.0262465 -0.188951 -0.000936151  0.0261133 -0.196033 -0.000862837  0.0259547 -0.203146 -0.000792667  0.025775 -0.210287 -0.000724137  0.025573 -0.21745 -0.000659689  0.0253494 -0.224635 -0.00059773  0.0251067 -0.231833 -0.000539556  0.024847 -0.239047 -0.000483811  0.0245681 -0.24627 -0.000431299  0.024277 -0.2535 -0.000382721  0.0239711 -0.260735 -0.00033623  0.0236504 -0.267974 -0.000293329  0.0233171 -0.27521 -0.000253782  0.0229745 -0.282447 -0.000217021  0.0226207 -0.289679 -0.000183851  0.022259 -0.296904 -0.000152409  0.0218902 -0.304124 -0.000126258  0.0215116 -0.311334 -0.000101268  0.0211284 -0.318533 -7.83801e-05  0.0207398 -0.325723 -5.96642e-05  0.0203462 -0.3329 -4.18127e-05  0.0199492 -0.340067 -2.62409e-05  0.0195491 -0.34722 -1.06692e-05  0.0191486 -0.354361 3.8147e-06  0.0187483 -0.361493 2.26796e-05  0 0 0  0.000567414 -0.000918925 -0.00190976  0.00188999 -0.00192732 -0.003286  0.00352666 -0.00308323 -0.00424026  0.00525737 -0.00446707 -0.00485334  0.00698298 -0.00612289 -0.00522114  0.00866911 -0.00806975 -0.00541918  0.0103038 -0.0103129 -0.00549516  0.0118873 -0.0128481 -0.00548701  0.0134154 -0.0156652 -0.00542165  0.0148872 -0.0187547 -0.00531396  0.0163033 -0.0221046 -0.00518049  0.0176606 -0.0257016 -0.00502816  0.0189584 -0.0295352 -0.0048642  0.0201963 -0.0335928 -0.00469401  0.0213732 -0.0378637 -0.00452037  0.0224888 -0.0423386 -0.00434712  0.0235425 -0.0470067 -0.00417361  0.0245346 -0.0518587 -0.00400263  0.0254658 -0.0568849 -0.00383393  0.0263358 -0.0620775 -0.00366816  0.0271456 -0.0674286 -0.00350589  0.0278982 -0.072927 -0.0033465  0.0285937 -0.0785671 -0.00319116  0.0292315 -0.084341 -0.00304109  0.0298145 -0.0902413 -0.00289357  0.0303439 -0.096261 -0.0027492  0.0308223 -0.102392 -0.00260878  0.0312501 -0.108628 -0.00247228  0.0316272 -0.114963 -0.00233999  0.0319577 -0.121389 -0.00221103  0.0322433 -0.127902 -0.00208502  0.0324841 -0.134495 -0.00196302  0.0326815 -0.141162 -0.00184475  0.0328383 -0.147897 -0.00173053  0.0329554 -0.154697 -0.00161889  0.033035 -0.161553 -0.00151159  0.0330787 -0.168464 -0.00140885  0.0330873 -0.175422 -0.0013079  0.033062 -0.182424 -0.00121129  0.0330064 -0.189465 -0.00111984  0.0329208 -0.196542 -0.00103001  0.0328057 -0.20365 -0.000944853  0.032665 -0.210784 -0.000862911  0.0324965 -0.217943 -0.000784755  0.032306 -0.225119 -0.000711024  0.0320909 -0.232314 -0.000639975  0.0318568 -0.23952 -0.000573799  0.0316014 -0.246738 -0.000510603  0.0313289 -0.253964 -0.000451609  0.0310373 -0.261195 -0.000396296  0.0307319 -0.268427 -0.000344351  0.0304122 -0.27566 -0.000296667  0.0300798 -0.282891 -0.000252858  0.0297325 -0.290119 -0.00021264  0.0293775 -0.29734 -0.000176013  0.029011 -0.304555 -0.00014399  0.0286376 -0.311762 -0.000114098  0.0282557 -0.318958 -8.91536e-05  0.0278692 -0.326144 -6.64592e-05  0.0274761 -0.333319 -4.62979e-05  0.0270801 -0.340483 -2.92361e-05  0.0266781 -0.347635 -1.27256e-05  0.0262773 -0.354778 1.99676e-06  0.0258765 -0.361911 1.94758e-05  0 0 0  0.000684336 -0.00147194 -0.00221373  0.00233495 -0.00278515 -0.00393665  0.00434324 -0.00403041 -0.00504957  0.00641298 -0.00541943 -0.00575063  0.00844476 -0.00705487 -0.00616997  0.010418 -0.00897843 -0.00639297  0.0123255 -0.0112001 -0.0064773  0.0141725 -0.013717 -0.00646527  0.015957 -0.0165189 -0.00638536  0.0176769 -0.0195956 -0.006258  0.0193341 -0.0229325 -0.00609797  0.0209249 -0.0265178 -0.00591744  0.0224481 -0.0303387 -0.00572404  0.0239022 -0.034385 -0.00552368  0.0252876 -0.0386454 -0.00531763  0.0266029 -0.0431083 -0.00511244  0.0278487 -0.0477652 -0.00490822  0.0290253 -0.0526062 -0.00470552  0.0301327 -0.0576221 -0.00450622  0.0311716 -0.0628039 -0.00431129  0.0321429 -0.068143 -0.00412044  0.0330493 -0.0736316 -0.00393362  0.0338893 -0.0792624 -0.00374947  0.0346681 -0.0850267 -0.00357182  0.0353833 -0.0909173 -0.00339808  0.0360384 -0.0969261 -0.00322773  0.0366356 -0.103047 -0.00306217  0.0371749 -0.109275 -0.00290181  0.0376595 -0.1156 -0.00274479  0.03809 -0.122017 -0.00259203  0.0384687 -0.128521 -0.00244433  0.0387988 -0.135105 -0.00230031  0.0390792 -0.141763 -0.00216134  0.0393133 -0.148491 -0.00202613  0.0395029 -0.155281 -0.00189531  0.03965 -0.162129 -0.00176845  0.0397546 -0.169031 -0.00164598  0.0398207 -0.175981 -0.00152852  0.0398486 -0.182976 -0.00141481  0.0398402 -0.190008 -0.00130585  0.0397983 -0.197076 -0.00120094  0.0397239 -0.204176 -0.00109959  0.0396178 -0.211303 -0.00100431  0.0394826 -0.218452 -0.0009121  0.0393205 -0.225623 -0.000824362  0.0391319 -0.23281 -0.000741377  0.0389178 -0.24001 -0.000663131  0.038682 -0.24722 -0.000588909  0.0384252 -0.254439 -0.000517845  0.0381489 -0.261663 -0.000453144  0.0378525 -0.26889 -0.000393152  0.0375419 -0.276116 -0.000337258  0.037215 -0.283342 -0.000285193  0.0368736 -0.290564 -0.000238374  0.0365207 -0.29778 -0.000195697  0.0361562 -0.30499 -0.000157908  0.0357835 -0.312191 -0.000124618  0.0354013 -0.319384 -9.53674e-05  0.0350122 -0.326567 -7.09444e-05  0.0346179 -0.333739 -4.99189e-05  0.034219 -0.3409 -3.14713e-05  0.0338151 -0.348052 -1.51396e-05  0.0334148 -0.355194 1.17719e-06  0.0330091 -0.362331 1.74195e-05  0 0 0  0.00103226 -0.00223291 -0.00285207  0.00306633 -0.00382102 -0.00469597  0.00537817 -0.00511611 -0.00592086  0.00773445 -0.00648189 -0.00671415  0.0100517 -0.00808251 -0.00719287  0.0123092 -0.00997496 -0.00744726  0.014499 -0.0121719 -0.00753935  0.0166174 -0.014669 -0.00751756  0.0186649 -0.0174562 -0.00741841  0.0206399 -0.0205173 -0.00726467  0.022541 -0.0238403 -0.00707503  0.0243662 -0.027412 -0.00686157  0.0261139 -0.0312201 -0.00663406  0.0277837 -0.0352532 -0.00639755  0.029377 -0.0395005 -0.00615817  0.0308892 -0.0439504 -0.00591943  0.0323242 -0.0485947 -0.00568064  0.0336832 -0.0534223 -0.00544576  0.0349637 -0.0584251 -0.00521462  0.0361673 -0.0635941 -0.00498714  0.037297 -0.0689203 -0.00476539  0.0383533 -0.0743971 -0.00454815  0.0393366 -0.0800151 -0.00433548  0.0402504 -0.0857682 -0.00412855  0.041095 -0.0916454 -0.00392601  0.0418715 -0.0976424 -0.00373009  0.0425848 -0.103754 -0.00353791  0.043234 -0.109968 -0.00335166  0.0438197 -0.116282 -0.0031694  0.0443468 -0.122689 -0.00299279  0.0448169 -0.129182 -0.00282003  0.0452304 -0.135754 -0.00265272  0.0455911 -0.142401 -0.00249149  0.0458977 -0.149118 -0.00233436  0.0461571 -0.155898 -0.00218175  0.0463669 -0.162735 -0.00203577  0.04653 -0.169626 -0.00189352  0.0466497 -0.176566 -0.00175546  0.0467267 -0.18355 -0.00162432  0.0467629 -0.190574 -0.00149897  0.0467608 -0.197632 -0.00137515  0.0467236 -0.204722 -0.00125888  0.046649 -0.211839 -0.00114807  0.0465438 -0.218981 -0.00104058  0.0464046 -0.226141 -0.000939354  0.0462391 -0.233319 -0.00084208  0.0460455 -0.240511 -0.000751406  0.0458226 -0.247715 -0.000666544  0.0455799 -0.254924 -0.000584945  0.0453129 -0.26214 -0.000509351  0.0450237 -0.269359 -0.000439003  0.0447185 -0.27658 -0.000373513  0.0443919 -0.283798 -0.000313863  0.0440521 -0.291011 -0.000259206  0.0437 -0.298224 -0.000210285  0.0433311 -0.305426 -0.000167161  0.0429549 -0.312623 -0.000129431  0.042568 -0.319811 -9.62913e-05  0.042172 -0.326989 -6.91712e-05  0.0417724 -0.334158 -4.77731e-05  0.041369 -0.341317 -2.96682e-05  0.0409625 -0.348465 -1.38879e-05  0.0405555 -0.355608 -7.15256e-07  0.0401492 -0.362747 1.44541e-05  0 0 0  -0.00145901 -0.00204361 0.00385167  -0.0037166 -0.00273024 0.00597078  -0.00594303 -0.00344326 0.00733057  -0.00809836 -0.00448022 0.00819223  -0.0102152 -0.00588782 0.0086921  -0.0123056 -0.00765654 0.00893571  -0.0143706 -0.00976412 0.00899833  -0.0164161 -0.0121866 0.00893402  -0.0184362 -0.0149002 0.00878243  -0.0204267 -0.0178834 0.0085711  -0.0223851 -0.0211231 0.00832043  -0.0243042 -0.0246027 0.00804416  -0.0261849 -0.0283104 0.0077538  -0.0280219 -0.0322336 0.00745711  -0.0298162 -0.0363627 0.00715905  -0.031566 -0.0406869 0.00686058  -0.0332686 -0.0451994 0.00656749  -0.0349238 -0.0498906 0.00627939  -0.0365343 -0.0547542 0.00599778  -0.0380973 -0.0597814 0.00572214  -0.0396158 -0.064964 0.00545548  -0.0410857 -0.0702963 0.00519404  -0.0425137 -0.0757719 0.00494068  -0.0439008 -0.081381 0.00469536  -0.04524 -0.0871184 0.00445396  -0.0465367 -0.0929804 0.00422286  -0.0477937 -0.0989558 0.00399622  -0.0490118 -0.105042 0.00377791  -0.0501884 -0.111229 0.00356387  -0.0513258 -0.117516 0.00335762  -0.0524255 -0.123891 0.00315801  -0.0534906 -0.130352 0.0029644  -0.0545163 -0.136895 0.00277758  -0.0555117 -0.143512 0.00259633  -0.0564692 -0.150196 0.00242147  -0.0573955 -0.156944 0.00225223  -0.0582867 -0.163754 0.00208939  -0.059145 -0.170617 0.00193302  -0.0599775 -0.177529 0.0017828  -0.0607781 -0.184485 0.0016377  -0.0615518 -0.191484 0.00150059  -0.0622931 -0.19852 0.00136956  -0.0630124 -0.205586 0.00124286  -0.0637019 -0.212682 0.0011237  -0.0643699 -0.219803 0.00100983  -0.0650129 -0.226945 0.000901453  -0.0656316 -0.234106 0.000799127  -0.0662324 -0.241283 0.00070373  -0.0668063 -0.248472 0.000613831  -0.0673649 -0.255667 0.000531428  -0.0679045 -0.262872 0.000453621  -0.0684249 -0.27008 0.000382312  -0.068929 -0.27729 0.00031583  -0.0694199 -0.2845 0.00025741  -0.0698953 -0.291704 0.000203453  -0.0703595 -0.298906 0.000157371  -0.0708082 -0.306104 0.000117615  -0.0712504 -0.31329 8.32379e-05  -0.0716813 -0.320471 5.59166e-05  -0.0721047 -0.32764 3.38554e-05  -0.0725207 -0.3348 1.84551e-05  -0.0729342 -0.341948 3.59863e-06  -0.0733461 -0.349094 -7.51019e-06  -0.0737553 -0.356236 -2.28807e-05  0 0 0  -0.00109024 -0.00103238 0.00296007  -0.00296286 -0.00172176 0.00494712  -0.00488448 -0.00253669 0.00615217  -0.00674638 -0.00364427 0.0068847  -0.00855979 -0.00509299 0.00731368  -0.0103467 -0.00688868 0.00753083  -0.0121164 -0.00901623 0.00759993  -0.0138753 -0.0114573 0.00756204  -0.0156193 -0.01419 0.00744797  -0.0173474 -0.0171986 0.00728147  -0.0190547 -0.0204642 0.00707924  -0.0207359 -0.0239726 0.00685321  -0.0223895 -0.0277112 0.00661461  -0.0240093 -0.0316681 0.00636638  -0.0255961 -0.0358307 0.00611554  -0.0271476 -0.0401919 0.00586495  -0.0286614 -0.0447407 0.00561766  -0.0301396 -0.0494695 0.00537339  -0.0315783 -0.0543702 0.00513297  -0.0329777 -0.0594331 0.00489994  -0.0343422 -0.0646532 0.00467265  -0.0356669 -0.0700213 0.00444921  -0.0369563 -0.0755314 0.0042326  -0.0382073 -0.0811756 0.00402371  -0.0394237 -0.0869484 0.00381794  -0.0406048 -0.0928416 0.00362031  -0.0417485 -0.0988497 0.0034269  -0.0428617 -0.104966 0.00323968  -0.0439386 -0.111184 0.00305835  -0.0449862 -0.117498 0.00288162  -0.0460001 -0.123903 0.00271139  -0.0469828 -0.130392 0.00254694  -0.0479338 -0.13696 0.00238631  -0.0488586 -0.143601 0.00223243  -0.0497506 -0.15031 0.00208271  -0.0506165 -0.157082 0.00193845  -0.0514543 -0.163912 0.00180051  -0.0522647 -0.170796 0.00166679  -0.0530498 -0.177727 0.00153843  -0.0538094 -0.184703 0.00141564  -0.0545447 -0.191719 0.00129823  -0.0552561 -0.19877 0.0011849  -0.0559447 -0.205854 0.00107734  -0.0566092 -0.212965 0.000975028  -0.0572543 -0.220098 0.00087817  -0.0578768 -0.227255 0.000786841  -0.0584807 -0.234428 0.000698574  -0.0590675 -0.241613 0.000617132  -0.0596344 -0.248812 0.00054042  -0.060184 -0.25602 0.000468537  -0.0607169 -0.263233 0.000404015  -0.0612342 -0.270447 0.000342689  -0.0617392 -0.277663 0.000286028  -0.0622313 -0.284877 0.000236183  -0.0627072 -0.29209 0.00019154  -0.0631757 -0.299297 0.000152163  -0.0636308 -0.306496 0.000116251  -0.064079 -0.313689 8.64863e-05  -0.064513 -0.32087 6.12885e-05  -0.064945 -0.328043 3.95551e-05  -0.0653691 -0.335204 2.31788e-05  -0.0657861 -0.342356 8.28505e-06  -0.066201 -0.349499 -6.17653e-06  -0.0666134 -0.356637 -2.40877e-05  0 0 0  -0.000873607 -0.000341423 0.0025771  -0.00234468 -0.000903569 0.00409511  -0.00391199 -0.00174076 0.0051095  -0.00547537 -0.00288769 0.00574666  -0.00701472 -0.0043697 0.00612205  -0.00853378 -0.00619078 0.00631505  -0.0100402 -0.00834001 0.00638033  -0.0115352 -0.010801 0.00635512  -0.0130213 -0.0135542 0.00626596  -0.0144981 -0.0165843 0.00613103  -0.015959 -0.019874 0.00596539  -0.0174043 -0.0234093 0.00577979  -0.0188286 -0.0271765 0.00558092  -0.0202287 -0.0311628 0.00537358  -0.0216063 -0.0353578 0.00516456  -0.0229558 -0.039751 0.00495442  -0.0242769 -0.0443334 0.00474605  -0.02557 -0.0490958 0.00454028  -0.0268337 -0.0540284 0.00433967  -0.0280652 -0.0591272 0.00414259  -0.0292691 -0.0643804 0.00394994  -0.0304413 -0.0697815 0.0037628  -0.0315871 -0.0753246 0.00358036  -0.0327017 -0.0810001 0.0034025  -0.0337863 -0.0868043 0.00322988  -0.034845 -0.0927288 0.00306278  -0.0358723 -0.0987669 0.00289995  -0.0368752 -0.104911 0.00274298  -0.0378506 -0.111158 0.00258877  -0.0387992 -0.1175 0.00243978  -0.0397215 -0.123931 0.00229647  -0.0406188 -0.130445 0.00215577  -0.0414915 -0.137037 0.00202125  -0.0423391 -0.143701 0.00189209  -0.0431638 -0.150433 0.00176461  -0.0439644 -0.157226 0.00164379  -0.0447426 -0.164077 0.00152744  -0.0454993 -0.170979 0.00141407  -0.0462344 -0.17793 0.00130614  -0.0469482 -0.184924 0.00120202  -0.0476413 -0.191956 0.00110316  -0.0483141 -0.199024 0.0010072  -0.0489681 -0.206121 0.000917248  -0.0496042 -0.213245 0.000830956  -0.0502217 -0.220394 0.000748329  -0.0508213 -0.227561 0.000670552  -0.0514047 -0.234745 0.000598274  -0.0519731 -0.241943 0.000529051  -0.052525 -0.249151 0.000465527  -0.0530646 -0.256366 0.000405088  -0.0535872 -0.263586 0.000349537  -0.0540974 -0.270809 0.000298239  -0.0545974 -0.278032 0.000251353  -0.0550823 -0.285254 0.000208154  -0.0555589 -0.292471 0.000169612  -0.0560234 -0.299682 0.000136249  -0.0564806 -0.306885 0.000105195  -0.0569277 -0.314081 7.96989e-05  -0.057368 -0.321268 5.78091e-05  -0.0577991 -0.328442 3.95924e-05  -0.0582237 -0.335606 2.2687e-05  -0.058645 -0.342759 7.13766e-06  -0.0590611 -0.349901 -8.70973e-06  -0.0594718 -0.357035 -2.70754e-05  0 0 0  -0.000677913 9.46373e-05 0.00218216  -0.00182564 -0.000301495 0.0034067  -0.00307371 -0.00109756 0.00419635  -0.00433958 -0.00225021 0.00470899  -0.00560114 -0.00375138 0.00502067  -0.0068548 -0.00559333 0.00518528  -0.00810272 -0.00776368 0.00524475  -0.00934216 -0.0102435 0.005228  -0.0105783 -0.0130182 0.00515738  -0.0118075 -0.0160683 0.00504915  -0.0130285 -0.0193809 0.00491378  -0.014239 -0.0229403 0.00476234  -0.0154343 -0.0267318 0.00459941  -0.0166159 -0.0307446 0.00443066  -0.0177813 -0.0349676 0.0042586  -0.0189268 -0.0393897 0.00408686  -0.0200537 -0.0440012 0.00391454  -0.0211585 -0.0487929 0.00374617  -0.0222422 -0.0537572 0.00357933  -0.0233047 -0.058884 0.00341793  -0.0243435 -0.0641672 0.00325909  -0.025362 -0.0695991 0.00310422  -0.0263569 -0.0751703 0.00295462  -0.0273302 -0.080876 0.00280721  -0.0282823 -0.0867073 0.00266467  -0.0292119 -0.0926588 0.00252794  -0.0301229 -0.0987232 0.00239347  -0.0310107 -0.104895 0.00226257  -0.0318779 -0.111167 0.00213515  -0.0327272 -0.117532 0.00201354  -0.0335538 -0.123987 0.0018947  -0.0343628 -0.130525 0.00177943  -0.035151 -0.137139 0.00166838  -0.0359204 -0.143824 0.00156171  -0.0366728 -0.150575 0.00145701  -0.0374057 -0.15739 0.00135734  -0.0381222 -0.164258 0.00126011  -0.0388196 -0.171179 0.00116882  -0.039501 -0.178146 0.00107935  -0.0401664 -0.185156 0.000993475  -0.0408118 -0.192203 0.000911623  -0.0414453 -0.199284 0.000833489  -0.042063 -0.206397 0.00075987  -0.0426636 -0.213533 0.000686884  -0.0432515 -0.220693 0.000620805  -0.0438244 -0.227872 0.000556871  -0.044384 -0.235066 0.000495993  -0.0449324 -0.242273 0.000439048  -0.0454657 -0.24949 0.000386581  -0.0459883 -0.256714 0.00033801  -0.0464978 -0.263941 0.00029207  -0.0469987 -0.271171 0.000250228  -0.0474873 -0.2784 0.000211157  -0.0479677 -0.285626 0.000176482  -0.0484369 -0.292849 0.00014513  -0.0489004 -0.300064 0.000116877  -0.0493515 -0.307273 9.19476e-05  -0.0497992 -0.314471 6.79269e-05  -0.0502353 -0.32166 5.00008e-05  -0.0506666 -0.328839 3.35574e-05  -0.0510926 -0.336006 1.77622e-05  -0.0515127 -0.34316 3.74764e-06  -0.0519276 -0.350302 -1.04606e-05  -0.0523405 -0.357433 -3.01898e-05  0 0 0  -0.000516076 0.000372171 0.00176832  -0.00138322 0.000122339 0.00273041  -0.00233454 -0.000609934 0.00333677  -0.00331636 -0.00174545 0.00372967  -0.00430423 -0.00325418 0.00397284  -0.00529397 -0.00511016 0.00410441  -0.00628433 -0.00729617 0.00415399  -0.00727168 -0.00979583 0.0041427  -0.00825799 -0.0125883 0.00408713  -0.00924289 -0.015659 0.00400235  -0.0102257 -0.0189912 0.00389641  -0.0112016 -0.0225711 0.00377695  -0.012172 -0.0263845 0.00364832  -0.0131345 -0.0304208 0.00351436  -0.0140849 -0.0346678 0.003378  -0.015026 -0.0391142 0.00324084  -0.0159554 -0.0437512 0.00310523  -0.0168711 -0.0485693 0.00297105  -0.0177741 -0.0535586 0.00283927  -0.0186615 -0.0587125 0.00270988  -0.0195359 -0.0640215 0.00258454  -0.020394 -0.0694794 0.00246073  -0.0212388 -0.0750768 0.00234189  -0.0220692 -0.0808069 0.00222629  -0.0228848 -0.086664 0.00211221  -0.0236851 -0.0926388 0.0020031  -0.0244724 -0.0987279 0.00189642  -0.0252433 -0.104922 0.00179193  -0.026001 -0.111217 0.00169256  -0.0267447 -0.117604 0.00159541  -0.027476 -0.124079 0.00150083  -0.0281919 -0.130637 0.00140984  -0.0288939 -0.137271 0.00132105  -0.0295827 -0.143975 0.00123582  -0.0302606 -0.150746 0.0011538  -0.0309229 -0.157574 0.00107498  -0.0315721 -0.164461 0.000998765  -0.0322108 -0.171397 0.000924498  -0.0328333 -0.17838 0.000853524  -0.0334461 -0.185403 0.000786275  -0.0340466 -0.192464 0.000722021  -0.0346355 -0.199559 0.000659108  -0.035212 -0.206682 0.000601232  -0.0357761 -0.213831 0.000543803  -0.0363324 -0.221 0.000492059  -0.0368757 -0.228188 0.000441633  -0.0374103 -0.235393 0.000392146  -0.0379312 -0.242609 0.000348113  -0.0384448 -0.249834 0.000306867  -0.0389483 -0.257063 0.000268102  -0.0394423 -0.264299 0.000231706  -0.0399296 -0.271534 0.000198707  -0.0404069 -0.278769 0.000168465  -0.0408783 -0.286001 0.000140473  -0.0413394 -0.293227 0.000114881  -0.0417945 -0.300447 9.26182e-05  -0.0422423 -0.307659 7.32765e-05  -0.0426841 -0.314862 5.59464e-05  -0.0431182 -0.322053 3.97936e-05  -0.0435488 -0.329235 2.53096e-05  -0.0439718 -0.336404 1.36569e-05  -0.0443902 -0.34356 1.62423e-06  -0.0448062 -0.350702 -1.32769e-05  -0.0452187 -0.35783 -3.14116e-05  0 0 0  -0.000371054 0.000543773 0.00133531  -0.000988662 0.000408262 0.00205098  -0.00166954 -0.000261962 0.00249209  -0.00237879 -0.001376 0.00277771  -0.00310075 -0.00288132 0.00295432  -0.00382921 -0.0047476 0.00305066  -0.00456107 -0.00694814 0.00308794  -0.00529799 -0.00946155 0.00308073  -0.00603646 -0.0122708 0.00304173  -0.00678009 -0.0153588 0.00297822  -0.00752282 -0.0187081 0.0028993  -0.00826764 -0.0223056 0.00281019  -0.00900948 -0.0261389 0.00271454  -0.00975239 -0.0301948 0.00261442  -0.0104905 -0.0344616 0.00251222  -0.0112239 -0.0389296 0.00240989  -0.0119559 -0.0435875 0.00230859  -0.0126796 -0.048427 0.00220826  -0.0133998 -0.0534398 0.00211009  -0.014111 -0.058616 0.00201331  -0.0148166 -0.0639474 0.00191876  -0.0155171 -0.0694261 0.00182868  -0.016209 -0.0750462 0.00173788  -0.0168928 -0.080799 0.00165109  -0.0175692 -0.0866762 0.00156762  -0.0182381 -0.092674 0.00148519  -0.0188986 -0.0987831 0.00140589  -0.0195538 -0.104997 0.00132914  -0.0201981 -0.111311 0.00125331  -0.0208349 -0.117718 0.00118057  -0.0214654 -0.124212 0.00111078  -0.0220869 -0.130786 0.00104325  -0.0227013 -0.137437 0.000977129  -0.023308 -0.144159 0.0009147  -0.0239053 -0.150944 0.000852518  -0.0244956 -0.157789 0.000794105  -0.0250793 -0.164688 0.000737116  -0.0256529 -0.17164 0.000682473  -0.0262196 -0.178634 0.000629388  -0.0267749 -0.185671 0.000579834  -0.0273271 -0.192744 0.000532366  -0.0278697 -0.19985 0.000487283  -0.0284061 -0.206982 0.000442892  -0.0289307 -0.214141 0.000400856  -0.0294511 -0.22132 0.000361949  -0.0299628 -0.228518 0.000324011  -0.0304666 -0.235729 0.000289164  -0.0309646 -0.242953 0.000256076  -0.0314553 -0.250183 0.000225306  -0.0319397 -0.257421 0.000197247  -0.0324149 -0.264661 0.00016962  -0.0328848 -0.271901 0.000145465  -0.0333507 -0.279142 0.000123352  -0.0338068 -0.286378 0.000102714  -0.03426 -0.293608 8.47355e-05  -0.0347056 -0.300832 6.75917e-05  -0.0351481 -0.308048 5.28917e-05  -0.0355856 -0.315252 4.00618e-05  -0.0360148 -0.322448 2.77981e-05  -0.0364399 -0.329631 1.8537e-05  -0.0368619 -0.336802 7.74115e-06  -0.0372789 -0.34396 -2.6077e-06  -0.0376914 -0.351102 -1.13919e-05  -0.038105 -0.358224 -2.65166e-05  0 0 0  -0.000235531 0.000644863 0.000888884  -0.000625305 0.000583768 0.00136285  -0.00105378 -4.23491e-05 0.00165007  -0.00150156 -0.00113484 0.00183638  -0.00196543 -0.00263718 0.00195097  -0.00243515 -0.00450879 0.00201388  -0.00291297 -0.00671956 0.00203891  -0.00339919 -0.00924608 0.00203517  -0.00389189 -0.0120687 0.00200914  -0.00438988 -0.0151702 0.001967  -0.00489509 -0.018534 0.00191485  -0.00540578 -0.0221482 0.00185505  -0.00592375 -0.0259967 0.00179155  -0.00644374 -0.0300675 0.00172469  -0.00696981 -0.0343513 0.0016565  -0.00749683 -0.038837 0.00158891  -0.00802827 -0.0435132 0.00151951  -0.00856149 -0.0483718 0.00145324  -0.00909626 -0.0534025 0.00138737  -0.00963247 -0.0585966 0.00132376  -0.010169 -0.063947 0.0012604  -0.0107069 -0.069445 0.00119939  -0.0112423 -0.0750826 0.00113991  -0.0117794 -0.0808542 0.00108226  -0.0123163 -0.086751 0.00102527  -0.0128504 -0.0927653 0.000970624  -0.0133849 -0.0988911 0.000918694  -0.0139192 -0.105123 0.000867359  -0.0144511 -0.111454 0.000818521  -0.014981 -0.117877 0.000769317  -0.0155088 -0.124386 0.000724062  -0.0160348 -0.130976 0.000679068  -0.0165579 -0.137642 0.000635453  -0.0170803 -0.144376 0.000592366  -0.0175989 -0.151176 0.000553094  -0.0181155 -0.158033 0.000514664  -0.0186274 -0.164945 0.000476293  -0.0191357 -0.171907 0.00044103  -0.0196428 -0.178914 0.000405878  -0.0201449 -0.185961 0.000374191  -0.0206423 -0.193044 0.000342153  -0.0211391 -0.200157 0.000311933  -0.0216303 -0.2073 0.000284776  -0.0221169 -0.214467 0.00025595  -0.0226007 -0.221655 0.000230461  -0.0230784 -0.228859 0.000205949  -0.0235524 -0.236077 0.000183761  -0.0240216 -0.243306 0.000162445  -0.024487 -0.250544 0.000142857  -0.02495 -0.257786 0.00012476  -0.0254064 -0.265031 0.000107683  -0.0258596 -0.272276 9.11951e-05  -0.0263107 -0.27952 7.60704e-05  -0.0267551 -0.286759 6.4306e-05  -0.027194 -0.293994 5.24148e-05  -0.0276337 -0.301221 4.15593e-05  -0.0280657 -0.308439 3.18661e-05  -0.0284951 -0.315648 2.35662e-05  -0.0289204 -0.322844 1.57505e-05  -0.029341 -0.330031 1.06096e-05  -0.0297573 -0.337202 3.36021e-06  -0.0301766 -0.344361 -3.12924e-06  -0.0305877 -0.351502 -9.41008e-06  -0.0309966 -0.358621 -1.96993e-05  0 0 0  -0.000107341 0.000691444 0.000433736  -0.00027971 0.000666082 0.000666484  -0.000468805 6.50287e-05 0.000808209  -0.00066711 -0.00101697 0.000898689  -0.000874192 -0.00251943 0.000955537  -0.00109047 -0.00439489 0.000987224  -0.00131571 -0.00661442 0.00099922  -0.00155106 -0.00915068 0.000998043  -0.00179476 -0.0119842 0.000985526  -0.00205189 -0.0150954 0.000964262  -0.00231868 -0.0184726 0.000938751  -0.00259703 -0.0220979 0.000907384  -0.0028863 -0.0259576 0.000874639  -0.00318658 -0.0300433 0.000841305  -0.00349772 -0.0343397 0.0008059  -0.00382048 -0.038839 0.000771768  -0.0041517 -0.0435298 0.000736788  -0.00449276 -0.0484017 0.000701994  -0.00484157 -0.0534477 0.000669472  -0.00520039 -0.0586568 0.000637524  -0.00556624 -0.0640222 0.000605442  -0.00594079 -0.069536 0.000574037  -0.00632274 -0.0751891 0.000543155  -0.00671077 -0.0809752 0.000515282  -0.00710547 -0.0868873 0.000487275  -0.00750649 -0.0929163 0.000458948  -0.00791335 -0.0990568 0.000433862  -0.00832534 -0.105303 0.000408515  -0.00874174 -0.111647 0.000382647  -0.00916302 -0.118083 0.00035958  -0.00958717 -0.124605 0.000336453  -0.010018 -0.131209 0.000314832  -0.0104499 -0.137884 0.000292927  -0.0108852 -0.144631 0.000273041  -0.0113237 -0.151442 0.000253625  -0.0117624 -0.158312 0.000234194  -0.0122044 -0.165233 0.000216372  -0.0126481 -0.172203 0.000199214  -0.0130913 -0.17922 0.000183627  -0.0135384 -0.186275 0.000167057  -0.0139844 -0.193366 0.000152268  -0.0144312 -0.200488 0.000137627  -0.0148752 -0.207637 0.00012403  -0.0153198 -0.214811 0.000111312  -0.0157659 -0.222005 9.90033e-05  -0.0162096 -0.229215 8.86098e-05  -0.016655 -0.236438 7.76872e-05  -0.0170956 -0.243673 6.81654e-05  -0.0175366 -0.250914 5.92619e-05  -0.0179768 -0.25816 5.03138e-05  -0.0184133 -0.265409 4.21554e-05  -0.0188472 -0.272659 3.46005e-05  -0.01928 -0.279906 3.00258e-05  -0.0197108 -0.287147 2.27243e-05  -0.0201399 -0.294384 1.87159e-05  -0.0205667 -0.301614 1.4849e-05  -0.0209918 -0.308834 9.90927e-06  -0.0214136 -0.316044 7.55489e-06  -0.0218332 -0.323243 3.7998e-06  -0.0222502 -0.33043 8.12113e-07  -0.0226638 -0.337604 -1.33365e-06  -0.0230787 -0.344761 -3.42727e-06  -0.0234869 -0.351904 -5.91576e-06  -0.0238931 -0.359018 -1.22935e-05  0 0 0  1.77845e-05 0.000689685 -2.29552e-05  5.53578e-05 0.000666857 -3.22014e-05  0.00010024 6.59823e-05 -3.47346e-05  0.000148356 -0.00101864 -3.49805e-05  0.000192136 -0.00252408 -3.41162e-05  0.000228643 -0.00440693 -3.36096e-05  0.00025776 -0.00663248 -3.31923e-05  0.000272632 -0.00917685 -3.1963e-05  0.000273347 -0.0120178 -3.25069e-05  0.00025934 -0.0151378 -3.31923e-05  0.00023067 -0.018522 -3.39225e-05  0.00018543 -0.0221556 -3.51295e-05  0.000121236 -0.0260249 -3.69176e-05  4.14848e-05 -0.0301191 -3.80576e-05  -5.50747e-05 -0.034427 -4.01437e-05  -0.000169635 -0.0389352 -4.19095e-05  -0.000302434 -0.0436372 -4.28185e-05  -0.000450253 -0.0485211 -4.46886e-05  -0.000615597 -0.0535775 -4.64842e-05  -0.000795364 -0.0587986 -4.79743e-05  -0.000991344 -0.0641768 -4.77508e-05  -0.00120151 -0.0697013 -4.90174e-05  -0.00142801 -0.0753674 -5.03287e-05  -0.00166643 -0.0811642 -4.95091e-05  -0.00191963 -0.0870868 -5.18113e-05  -0.00218499 -0.0931289 -5.07683e-05  -0.00246489 -0.0992809 -5.07012e-05  -0.00275457 -0.105538 -5.06192e-05  -0.00305569 -0.111892 -4.8399e-05  -0.00336552 -0.118337 -4.97699e-05  -0.00368869 -0.124872 -4.94868e-05  -0.00401878 -0.131484 -4.71547e-05  -0.00435996 -0.13817 -4.81233e-05  -0.00470757 -0.144926 -4.68418e-05  -0.00506449 -0.151745 -4.53591e-05  -0.00542879 -0.158622 -4.46588e-05  -0.00580001 -0.165551 -4.42043e-05  -0.00617647 -0.172531 -4.08217e-05  -0.00655937 -0.179553 -4.15221e-05  -0.00694752 -0.186614 -3.93912e-05  -0.00733781 -0.193713 -3.75509e-05  -0.00773478 -0.200841 -3.70741e-05  -0.00813556 -0.207996 -3.43397e-05  -0.00853992 -0.215174 -3.26782e-05  -0.00894642 -0.222373 -3.11211e-05  -0.00935602 -0.229587 -3.09423e-05  -0.00976658 -0.236815 -2.87816e-05  -0.0101795 -0.244052 -2.71648e-05  -0.0105934 -0.251297 -2.55108e-05  -0.0110085 -0.258547 -2.31564e-05  -0.011421 -0.265799 -2.19047e-05  -0.0118411 -0.27305 -2.19569e-05  -0.0122564 -0.280298 -1.8999e-05  -0.0126741 -0.287543 -1.69277e-05  -0.0130882 -0.294781 -1.53631e-05  -0.0135074 -0.302011 -1.43498e-05  -0.0139215 -0.309234 -1.19358e-05  -0.0143363 -0.316445 -1.08853e-05  -0.01475 -0.323645 -8.58307e-06  -0.0151625 -0.330833 -6.13928e-06  -0.0155714 -0.338008 -4.63426e-06  -0.0159838 -0.345167 -4.07547e-06  -0.0163922 -0.352305 -2.86847e-06  -0.016799 -0.359422 -1.2368e-06  0 0 0  0.000142232 0.000645399 -0.000477925  0.000389084 0.000588953 -0.000727355  0.000668377 -3.60608e-05 -0.00087525  0.000961095 -0.00113624 -0.000966817  0.00125632 -0.002653 -0.00102137  0.00154573 -0.00454354 -0.00105038  0.00182387 -0.00677568 -0.00106243  0.00208896 -0.00932389 -0.00105955  0.00233954 -0.0121697 -0.0010478  0.00256902 -0.0152956 -0.00102742  0.00277549 -0.0186831 -0.0010027  0.00296277 -0.0223218 -0.00097549  0.00312591 -0.0261987 -0.000945777  0.00326627 -0.0302991 -0.000915796  0.00338203 -0.034613 -0.00088416  0.00347507 -0.0391292 -0.000853717  0.00354123 -0.0438376 -0.000822566  0.00358582 -0.0487286 -0.000791058  0.00360668 -0.0537935 -0.00076104  0.00360453 -0.0590233 -0.000731602  0.00357795 -0.0644094 -0.000701174  0.00353122 -0.0699437 -0.000672229  0.0034616 -0.0756171 -0.000643685  0.00337148 -0.0814225 -0.000615351  0.0032599 -0.087355 -0.000587001  0.00312877 -0.0934037 -0.000561334  0.00298035 -0.0995634 -0.000534907  0.00281262 -0.105828 -0.000508219  0.00262737 -0.112191 -0.000483625  0.00242436 -0.118647 -0.000459172  0.0022074 -0.125186 -0.00043457  0.00197363 -0.131806 -0.000410959  0.00172448 -0.1385 -0.000387795  0.00146484 -0.145261 -0.000366099  0.00118756 -0.152086 -0.000344768  0.000901937 -0.158969 -0.00032381  0.000602961 -0.165905 -0.000303321  0.00029254 -0.172888 -0.000282794  -2.67029e-05 -0.179917 -0.000264786  -0.000357151 -0.186983 -0.000246301  -0.000695944 -0.194084 -0.000228465  -0.00104451 -0.201217 -0.000210807  -0.00139928 -0.208375 -0.000194632  -0.00176024 -0.215559 -0.000178397  -0.0021286 -0.222759 -0.000163853  -0.00250268 -0.229976 -0.00014884  -0.00287986 -0.237206 -0.00013461  -0.00326347 -0.244446 -0.000123017  -0.00365186 -0.251694 -0.000110142  -0.0040431 -0.258945 -9.75505e-05  -0.00443554 -0.266198 -8.75071e-05  -0.00483632 -0.273451 -7.66739e-05  -0.00523496 -0.2807 -6.66752e-05  -0.00563836 -0.287946 -5.68181e-05  -0.00604248 -0.295185 -4.91813e-05  -0.00644875 -0.302416 -4.2446e-05  -0.00685215 -0.309639 -3.4526e-05  -0.00725961 -0.316851 -2.85506e-05  -0.00766802 -0.324051 -2.22772e-05  -0.00807357 -0.331238 -1.63168e-05  -0.00848317 -0.338412 -9.46224e-06  -0.00888991 -0.34557 -4.18723e-06  -0.00929689 -0.352712 7.89762e-07  -0.00970125 -0.359827 7.60704e-06  0 0 0  0.000267625 0.000554323 -0.000928491  0.000730127 0.000429451 -0.00141688  0.00124778 -0.000241339 -0.00170965  0.0017899 -0.00137097 -0.00189323  0.00233889 -0.00290442 -0.00200514  0.00288308 -0.00480378 -0.00206606  0.00341421 -0.00704086 -0.00208982  0.0039289 -0.00959218 -0.00208515  0.00442445 -0.0124404 -0.00205999  0.00489408 -0.0155662 -0.00202014  0.00534034 -0.0189584 -0.00197206  0.00575989 -0.0225991 -0.00191634  0.00614721 -0.0264765 -0.00185451  0.00650686 -0.0305797 -0.00179274  0.00683558 -0.0348979 -0.00172917  0.00713372 -0.039418 -0.0016657  0.00740135 -0.0441306 -0.00160196  0.00763631 -0.0490258 -0.00153836  0.00784171 -0.0540962 -0.00147606  0.00801635 -0.0593318 -0.00141518  0.00816107 -0.064722 -0.00135549  0.00827622 -0.0702615 -0.00129557  0.00836217 -0.0759403 -0.00123826  0.00842106 -0.0817515 -0.0011814  0.00845265 -0.0876883 -0.00112569  0.00845647 -0.0937425 -0.00107145  0.00843537 -0.0999082 -0.00101885  0.00838959 -0.106179 -0.000966698  0.0083195 -0.112546 -0.000916921  0.00822556 -0.119006 -0.000868283  0.00811267 -0.12555 -0.000820249  0.00797534 -0.132175 -0.00077448  0.00782013 -0.138873 -0.000729248  0.00764298 -0.145638 -0.000687078  0.00745153 -0.152468 -0.000643678  0.00723982 -0.159353 -0.00060378  0.00701141 -0.166294 -0.000563569  0.00676894 -0.173281 -0.000524506  0.00651145 -0.18031 -0.000488162  0.00623751 -0.187379 -0.000452481  0.00595331 -0.194483 -0.000417978  0.00565386 -0.201618 -0.000385568  0.00534511 -0.208779 -0.000354528  0.00502706 -0.215962 -0.000323966  0.00469661 -0.223166 -0.000294469  0.00435781 -0.230384 -0.000267729  0.00401139 -0.237615 -0.000240102  0.00365663 -0.244856 -0.000216596  0.00329256 -0.252104 -0.000193894  0.0029273 -0.259356 -0.000172473  0.00255251 -0.26661 -0.000151038  0.00217295 -0.273863 -0.00013224  0.00178862 -0.281113 -0.000114836  0.00139999 -0.288357 -9.76101e-05  0.00101137 -0.295597 -8.30442e-05  0.000616074 -0.302829 -6.87763e-05  0.00021863 -0.310049 -5.61327e-05  -0.000180721 -0.31726 -4.44576e-05  -0.000582457 -0.324459 -3.45185e-05  -0.000988007 -0.331647 -2.40281e-05  -0.0013895 -0.33882 -1.4931e-05  -0.0017941 -0.345978 -5.46128e-06  -0.00219989 -0.35312 5.08875e-06  -0.00260115 -0.360239 1.7412e-05  0 0 0  0.000397533 0.000409544 -0.00136634  0.00108443 0.00018084 -0.00209323  0.00185381 -0.00055927 -0.002536  0.00265434 -0.00172669 -0.00281735  0.00345987 -0.00328016 -0.00299016  0.00426042 -0.00518823 -0.00308397  0.00504598 -0.00742793 -0.00312041  0.00581074 -0.00997961 -0.00311346  0.00655276 -0.0128263 -0.00307541  0.00726557 -0.0159526 -0.0030154  0.00794542 -0.0193424 -0.00294136  0.00859475 -0.0229821 -0.00285701  0.00920826 -0.0268603 -0.00276617  0.00978649 -0.030964 -0.00267235  0.0103288 -0.0352818 -0.00257625  0.0108315 -0.0398027 -0.00247932  0.0112979 -0.0445178 -0.00238279  0.0117245 -0.0494146 -0.00228758  0.0121135 -0.0544857 -0.00219265  0.0124649 -0.0597219 -0.00210051  0.0127778 -0.0651158 -0.00201033  0.0130556 -0.0706559 -0.00192079  0.013297 -0.0763378 -0.00183389  0.0135032 -0.0821509 -0.00174831  0.0136739 -0.0880888 -0.00166462  0.0138115 -0.0941465 -0.0015835  0.0139194 -0.100316 -0.00150491  0.0139949 -0.106586 -0.00142708  0.0140394 -0.112958 -0.00135203  0.0140554 -0.119418 -0.00128017  0.0140437 -0.125965 -0.00120781  0.0140049 -0.132592 -0.00113852  0.0139387 -0.13929 -0.00107244  0.0138476 -0.146058 -0.00100668  0.0137379 -0.152888 -0.000943162  0.0136006 -0.159777 -0.000884749  0.0134437 -0.166717 -0.000823468  0.0132658 -0.173705 -0.000766762  0.0130684 -0.180735 -0.000711769  0.0128536 -0.187805 -0.000659414  0.0126216 -0.19491 -0.000608303  0.0123718 -0.202045 -0.000560634  0.0121083 -0.209205 -0.000514284  0.0118299 -0.216389 -0.000468314  0.011538 -0.223591 -0.00042519  0.0112326 -0.23081 -0.000385761  0.0109146 -0.238041 -0.000346795  0.0105903 -0.245282 -0.000311077  0.0102513 -0.252528 -0.000277109  0.00990701 -0.25978 -0.000245258  0.00955415 -0.267031 -0.000215791  0.00919437 -0.274285 -0.000186771  0.00882387 -0.281534 -0.000160299  0.00844955 -0.288778 -0.000135958  0.00807095 -0.296015 -0.000115477  0.00768614 -0.303245 -9.57027e-05  0.00729728 -0.310466 -7.75307e-05  0.00690436 -0.317675 -6.15269e-05  0.00650907 -0.324873 -4.52921e-05  0.00611162 -0.332058 -3.28198e-05  0.00570869 -0.339231 -2.0735e-05  0.0053072 -0.346388 -7.59959e-06  0.00490379 -0.35353 6.40005e-06  0.00450087 -0.360653 2.25082e-05  0 0 0  0.000535838 0.000194013 -0.00178672  0.00146651 -0.000175059 -0.00275456  0.00250149 -0.000997245 -0.00335688  0.00357178 -0.00220746 -0.00374387  0.0046429 -0.00377947 -0.00398128  0.00570357 -0.0056929 -0.00410955  0.00674462 -0.00793356 -0.0041576  0.00775957 -0.0104823 -0.00414738  0.00874513 -0.0133267 -0.00409538  0.00969851 -0.0164478 -0.00401644  0.0106159 -0.0198349 -0.00391689  0.0114947 -0.0234721 -0.00380418  0.0123338 -0.0273482 -0.00368253  0.01313 -0.0314494 -0.00355646  0.0138822 -0.0357652 -0.00342821  0.0145911 -0.0402836 -0.00329903  0.0152524 -0.0449958 -0.0031688  0.0158691 -0.0498918 -0.0030406  0.0164402 -0.0549616 -0.00291434  0.0169667 -0.0601968 -0.00279087  0.0174485 -0.0655877 -0.00266892  0.0178866 -0.0711284 -0.00254922  0.0182827 -0.076808 -0.00243328  0.0186354 -0.082621 -0.00231864  0.0189456 -0.0885603 -0.00220732  0.0192168 -0.0946161 -0.00209868  0.0194494 -0.100783 -0.00199228  0.0196452 -0.107055 -0.00189041  0.0198038 -0.113424 -0.00178833  0.0199275 -0.119884 -0.00169262  0.0200157 -0.12643 -0.00159799  0.0200746 -0.133055 -0.0015048  0.0201006 -0.139755 -0.00141527  0.0200939 -0.14652 -0.00132778  0.0200605 -0.15335 -0.00124449  0.0199981 -0.160238 -0.00116292  0.0199096 -0.167176 -0.00108556  0.019798 -0.174163 -0.00100935  0.0196614 -0.181192 -0.000935502  0.0195014 -0.188261 -0.000866003  0.01932 -0.195364 -0.000799112  0.0191188 -0.202496 -0.000733472  0.0188973 -0.209655 -0.000672318  0.0186582 -0.216837 -0.000611685  0.0184026 -0.224038 -0.000555739  0.0181308 -0.231254 -0.000502639  0.0178435 -0.238484 -0.000451356  0.0175424 -0.245722 -0.000403464  0.0172284 -0.252968 -0.000359394  0.0169065 -0.260216 -0.000316538  0.0165718 -0.267467 -0.000276409  0.0162256 -0.274717 -0.0002397  0.0158713 -0.281964 -0.000206761  0.0155103 -0.289206 -0.000175931  0.0151412 -0.296442 -0.000146233  0.0147679 -0.303669 -0.000119619  0.0143869 -0.310886 -9.78559e-05  0.0139999 -0.318096 -7.71508e-05  0.0136092 -0.32529 -5.73099e-05  0.0132163 -0.332475 -4.06653e-05  0.0128171 -0.339644 -2.49073e-05  0.0124161 -0.3468 -9.43989e-06  0.0120132 -0.353942 7.17491e-06  0.0116124 -0.361069 2.67103e-05  0 0 0  0.000688769 -0.000118136 -0.00218556  0.00189015 -0.000662804 -0.00340551  0.0032143 -0.00157118 -0.00418423  0.00456509 -0.00281781 -0.00468729  0.00591055 -0.00440013 -0.00499085  0.00723329 -0.00631559 -0.00515025  0.00852981 -0.00855196 -0.00520965  0.00979453 -0.0110973 -0.005195  0.0110257 -0.0139363 -0.00512926  0.0122199 -0.0170528 -0.0050294  0.0133742 -0.0204346 -0.00490325  0.0144815 -0.0240681 -0.00476195  0.0155438 -0.0279384 -0.00460993  0.0165585 -0.0320345 -0.00445148  0.0175204 -0.0363452 -0.00428886  0.0184304 -0.0408602 -0.00412627  0.0192902 -0.0455672 -0.00396417  0.0200956 -0.0504583 -0.00380278  0.0208477 -0.0555238 -0.00364381  0.0215477 -0.0607551 -0.00348745  0.0221962 -0.0661417 -0.0033353  0.0227916 -0.071676 -0.00318494  0.0233402 -0.0773535 -0.00303826  0.0238372 -0.0831631 -0.00289469  0.0242869 -0.0890973 -0.00275514  0.0246902 -0.0951495 -0.00261961  0.0250477 -0.101313 -0.00248561  0.0253601 -0.107583 -0.00235722  0.0256308 -0.113947 -0.00223093  0.0258598 -0.120405 -0.00210847  0.0260487 -0.126946 -0.00198914  0.0261998 -0.133568 -0.00187401  0.0263138 -0.140263 -0.00176077  0.0263908 -0.147028 -0.00165243  0.0264361 -0.153854 -0.00154781  0.0264449 -0.160735 -0.00144708  0.0264268 -0.167672 -0.00134809  0.0263765 -0.174655 -0.00125208  0.0262966 -0.181683 -0.00116062  0.0261934 -0.188746 -0.00107425  0.0260592 -0.195845 -0.000989147  0.0259023 -0.202974 -0.000906684  0.0257251 -0.210129 -0.000830606  0.0255234 -0.217306 -0.000756547  0.0253026 -0.224505 -0.000685237  0.0250607 -0.231717 -0.000619255  0.0248036 -0.238942 -0.000555575  0.0245275 -0.246178 -0.00049603  0.0242364 -0.253419 -0.00043828  0.0239303 -0.260664 -0.000386477  0.0236149 -0.267913 -0.000336826  0.0232837 -0.275159 -0.000291362  0.0229428 -0.282403 -0.000249207  0.0225935 -0.289642 -0.000210181  0.0222321 -0.296874 -0.000175722  0.0218639 -0.304099 -0.000143096  0.0214891 -0.311314 -0.000115439  0.0211072 -0.318518 -9.15155e-05  0.0207207 -0.325712 -6.87018e-05  0.02033 -0.332892 -4.76688e-05  0.019932 -0.34006 -3.07932e-05  0.019532 -0.347215 -1.38804e-05  0.0191336 -0.354359 4.39584e-06  0.0187325 -0.36149 2.55257e-05  0 0 0  0.000864729 -0.00057888 -0.00256  0.00237831 -0.00131553 -0.00406171  0.00401703 -0.00229216 -0.00505598  0.00566289 -0.00355631 -0.00567408  0.00728321 -0.00513941 -0.00603696  0.0088698 -0.00704867 -0.00622406  0.0104221 -0.00927931 -0.00629047  0.0119386 -0.0118182 -0.00627018  0.0134171 -0.0146506 -0.00618863  0.0148537 -0.0177625 -0.00606616  0.0162427 -0.0211387 -0.0059129  0.0175804 -0.0247653 -0.00574077  0.0188651 -0.02863 -0.00555679  0.0200977 -0.0327187 -0.00536385  0.0212697 -0.0370218 -0.00516909  0.0223833 -0.0415296 -0.00497067  0.0234346 -0.0462301 -0.00477486  0.0244273 -0.0511127 -0.0045803  0.0253582 -0.0561715 -0.00438816  0.0262314 -0.0613955 -0.00419929  0.0270435 -0.0667744 -0.00401423  0.0277969 -0.0723028 -0.00383236  0.0284933 -0.0779725 -0.00365569  0.0291343 -0.083775 -0.00348321  0.029719 -0.0897027 -0.00331342  0.0302508 -0.0957487 -0.00314891  0.0307289 -0.101906 -0.00298738  0.031159 -0.108167 -0.00283244  0.0315392 -0.114527 -0.00267976  0.0318716 -0.120978 -0.00253135  0.0321569 -0.127514 -0.00238883  0.0324008 -0.134129 -0.00224858  0.0325997 -0.140819 -0.00211319  0.0327587 -0.147577 -0.00198153  0.0328786 -0.154396 -0.00185512  0.0329592 -0.161272 -0.00173146  0.0330036 -0.168203 -0.00161162  0.0330174 -0.175181 -0.00149885  0.0329912 -0.182201 -0.00138909  0.032939 -0.18926 -0.00128147  0.0328543 -0.196353 -0.00118046  0.0327406 -0.203475 -0.00108185  0.0326009 -0.210626 -0.000988707  0.0324349 -0.217798 -0.000899531  0.0322468 -0.22499 -0.000813946  0.0320363 -0.232198 -0.00073465  0.0318015 -0.239417 -0.000656977  0.031549 -0.246648 -0.000585496  0.0312786 -0.253885 -0.000517584  0.0309916 -0.261127 -0.000454076  0.0306871 -0.268367 -0.000394203  0.0303695 -0.27561 -0.000340194  0.0300388 -0.28285 -0.000289522  0.0296965 -0.290084 -0.000243954  0.0293441 -0.297313 -0.000202455  0.0289814 -0.304534 -0.000163294  0.0286102 -0.311746 -0.000131734  0.0282316 -0.318946 -0.000102006  0.0278485 -0.326136 -7.62492e-05  0.0274577 -0.333314 -5.41806e-05  0.0270627 -0.340477 -3.35202e-05  0.0266631 -0.347631 -1.47447e-05  0.0262601 -0.354773 4.04567e-06  0.025856 -0.361909 2.47285e-05  0 0 0  0.00105828 -0.00126934 -0.00292281  0.00295547 -0.00217181 -0.0048693  0.00494374 -0.00315833 -0.00603665  0.00688878 -0.00440973 -0.00673903  0.00878042 -0.00597882 -0.00714812  0.0106297 -0.00787961 -0.00735813  0.0124422 -0.0101039 -0.00742906  0.0142138 -0.0126377 -0.00739986  0.0159426 -0.0154658 -0.00730034  0.0176236 -0.0185725 -0.00715163  0.0192525 -0.0219419 -0.00696851  0.0208227 -0.0255615 -0.00676333  0.0223328 -0.0294169 -0.00654317  0.0237802 -0.0334982 -0.00631425  0.0251608 -0.0377936 -0.00608274  0.026473 -0.0422896 -0.0058489  0.0277189 -0.0469801 -0.00561575  0.028895 -0.0518543 -0.00538558  0.0300037 -0.0569014 -0.00515842  0.0310446 -0.0621139 -0.00493599  0.0320191 -0.0674852 -0.00471747  0.032927 -0.0730035 -0.00450402  0.0337708 -0.0786625 -0.00429486  0.034551 -0.0844545 -0.00409009  0.0352679 -0.0903738 -0.00389002  0.0359247 -0.0964112 -0.00369649  0.036525 -0.102558 -0.00350817  0.0370674 -0.10881 -0.00332186  0.0375531 -0.115161 -0.00314316  0.0379865 -0.121604 -0.00296875  0.0383672 -0.128132 -0.00279856  0.0386992 -0.134738 -0.00263492  0.0389817 -0.141418 -0.00247515  0.0392196 -0.148167 -0.00232077  0.0394104 -0.154978 -0.0021699  0.0395586 -0.161848 -0.00202529  0.0396659 -0.168769 -0.00188544  0.0397339 -0.175738 -0.00174975  0.0397635 -0.182751 -0.00161952  0.0397594 -0.189802 -0.0014948  0.039717 -0.196887 -0.00137497  0.0396476 -0.204003 -0.00125994  0.039542 -0.211145 -0.00114898  0.0394113 -0.21831 -0.00104409  0.0392504 -0.225494 -0.000944152  0.0390651 -0.232695 -0.000848792  0.0388532 -0.239909 -0.000758678  0.0386214 -0.247132 -0.000673197  0.0383675 -0.254361 -0.000592865  0.0380955 -0.261596 -0.000519216  0.037801 -0.268833 -0.000449523  0.0374942 -0.27607 -0.000382833  0.037169 -0.283303 -0.000326686  0.0368319 -0.290533 -0.000272304  0.0364838 -0.297756 -0.000223726  0.0361221 -0.304973 -0.00017976  0.0357542 -0.312179 -0.000142053  0.0353742 -0.319375 -0.00010927  0.0349898 -0.326561 -7.94753e-05  0.0345969 -0.333734 -5.56707e-05  0.0342002 -0.340897 -3.40044e-05  0.0337989 -0.348047 -1.5527e-05  0.0333967 -0.355188 2.38419e-06  0.0329947 -0.362327 2.11e-05  0 0 0  0.00141392 -0.00225377 -0.00379211  0.00370795 -0.00320315 -0.00582119  0.00599445 -0.00412822 -0.00710367  0.0082154 -0.00533825 -0.0079151  0.0103908 -0.00689 -0.00839042  0.0125237 -0.00878292 -0.00862886  0.0146146 -0.0110036 -0.00869973  0.016661 -0.0135367 -0.00865401  0.0186525 -0.0163614 -0.00852528  0.0205874 -0.0194632 -0.00834158  0.0224587 -0.0228274 -0.00812061  0.0242657 -0.0264397 -0.00787389  0.0259998 -0.0302861 -0.00761142  0.0276601 -0.0343577 -0.00734241  0.0292485 -0.038641 -0.00706938  0.030761 -0.0431272 -0.00679505  0.0321944 -0.0478058 -0.00652269  0.0335531 -0.0526659 -0.00625237  0.0348328 -0.0577006 -0.00598703  0.0360401 -0.062903 -0.00572854  0.0371716 -0.0682611 -0.00547267  0.0382291 -0.0737665 -0.00522368  0.039216 -0.0794141 -0.00497954  0.0401334 -0.0851954 -0.00474211  0.040979 -0.0911011 -0.00451043  0.0417587 -0.0971259 -0.00428277  0.0424728 -0.103263 -0.00406401  0.0431243 -0.109504 -0.00384873  0.0437121 -0.115845 -0.00363996  0.0442438 -0.122273 -0.00343545  0.044715 -0.128791 -0.00323854  0.0451303 -0.135389 -0.00304522  0.0454936 -0.142057 -0.00285746  0.0458024 -0.148796 -0.00267888  0.0460622 -0.155597 -0.00250512  0.0462747 -0.162456 -0.00233608  0.0464404 -0.169366 -0.0021719  0.0465631 -0.176327 -0.00201672  0.0466411 -0.183328 -0.00186408  0.0466795 -0.190368 -0.00171689  0.04668 -0.197445 -0.00157834  0.046643 -0.204552 -0.0014429  0.0465753 -0.211685 -0.0013128  0.0464692 -0.218841 -0.00119239  0.046334 -0.226016 -0.00107538  0.0461717 -0.233208 -0.000964932  0.0459769 -0.240413 -0.000861108  0.0457618 -0.247626 -0.000760682  0.0455186 -0.254849 -0.000669189  0.0452535 -0.262076 -0.000581399  0.0449734 -0.269307 -0.000499651  0.044667 -0.276535 -0.000423782  0.044347 -0.283764 -0.000354357  0.0440123 -0.290986 -0.00029292  0.0436604 -0.298203 -0.000238664  0.0432985 -0.305413 -0.000187315  0.042923 -0.312614 -0.000140861  0.0425406 -0.319806 -0.000105366  0.0421491 -0.326986 -7.44089e-05  0.0417509 -0.334156 -4.90993e-05  0.0413477 -0.341316 -2.9467e-05  0.0409448 -0.348464 -1.29193e-05  0.0405381 -0.355605 2.25008e-06  0.0401335 -0.362743 1.89915e-05  
SCALARS smooth_stress float 1
LOOKUP_TABLE default
31.3403 60.8449 58.2451 56.9485 55.7476 54.1443 52.956 52.5689 51.8473 50.2634 48.707 47.7996 46.5447 44.823 43.3783 42.2831 40.6826 38.7123 37.0524 35.9393 34.396 32.6621 31.1605 29.5789 28.8203 27.9627 26.0885 24.078 22.8579 21.8377 20.7238 19.8349 18.5922 17.2802 15.9022 14.7046 14.3949 13.3161 11.7917 10.9975 10.3006 9.41657 8.6531 7.88599 6.93244 6.43453 6.16514 5.68834 4.93674 4.42749 3.99726 3.46613 3.40621 3.16044 2.56262 2.14127 1.93771 1.90448 1.57659 1.11991 0.940478 1.48485 1.60537 1.2754 0.74174 54.3537 107.837 106.519 105.158 103.569 101.359 99.177 97.9668 96.544 94.0973 91.5235 89.2446 86.7934 84.572 82.2668 79.8278 76.6991 73.1225 69.7307 67.1125 64.3737 61.3829 58.8534 55.9276 53.7367 51.7764 48.8919 45.4481 43.0781 41.3336 39.1298 37.5976 35.6749 33.2855 30.6274 28.3366 27.2506 25.7283 23.5259 21.2088 19.3925 17.9919 17.1028 15.8722 13.8232 12.6381 12.3638 11.2304 9.94564 9.17828 7.81129 6.85075 6.52326 6.41536 5.84396 5.33798 5.04146 4.19543 3.09856 2.67005 2.53269 2.85567 2.75891 2.17312 1.17511 41.8917 84.7607 87.1146 87.8243 87.3492 86.6534 85.0809 83.5572 82.0281 80.939 79.8412 77.6612 75.3602 73.8981 72.233 69.7897 66.9352 64.4237 61.9053 59.0268 56.4672 54.1899 52.3866 50.1527 47.3042 44.6137 43.0959 41.1577 38.6205 36.9597 35.4479 33.8005 32.0718 30.083 27.6533 26.0277 24.4594 22.9627 21.4803 19.7783 18.2535 17.0365 16.3868 15.346 13.9185 12.5094 12.0987 11.541 10.5141 9.62843 8.26022 7.5395 6.8661 6.53451 6.37936 6.30761 6.09858 5.02131 3.65006 3.10291 3.07464 2.90516 2.44087 1.94764 1.0122 34.3828 68.192 69.5686 71.7292 72.1433 72.0395 71.0372 69.9792 68.8702 68.2178 68.095 66.9581 65.0477 63.2166 61.7791 59.9009 57.6642 56.0592 54.6639 52.9723 50.5906 48.5356 46.6771 44.7005 42.4999 39.8804 38.3557 36.6357 34.4304 32.8536 31.7116 29.8497 27.998 26.5172 24.8131 23.6361 22.344 20.5326 18.9871 18.3743 17.47 16.4929 15.3923 14.5954 13.6616 12.0427 11.6174 11.5322 10.9713 10.198 9.23601 8.53934 7.86663 7.20489 6.64828 5.84067 5.19614 5.0591 4.32955 3.26954 2.82486 3.13071 2.8471 2.55364 1.51902 28.1794 54.259 53.6139 56.9832 58.6901 59.2846 59.1816 58.6204 58.1179 57.4532 57.501 57.1267 55.6791 53.424 51.9186 50.776 49.1896 48.0443 47.2892 46.1556 43.9684 42.1005 40.8666 38.8493 37.115 35.7486 33.7225 31.8294 30.4069 29.1757 28.1621 26.7757 25.4144 24.6256 23.427 21.9722 20.9076 19.503 18.5462 18.0766 16.8678 15.6129 14.7974 14.6415 13.4638 12.0119 11.9585 11.3258 10.7538 10.2255 9.2406 8.53095 8.02599 7.52877 6.70883 5.66056 4.87015 4.67489 4.36677 3.7874 3.40933 3.41109 3.2264 2.62512 1.23335 22.6071 41.6645 39.4002 42.5695 44.6521 46.1553 47.166 47.3068 47.951 47.8865 47.2392 46.9863 46.2219 44.6697 43.3961 42.7238 41.6613 40.5541 40.0106 38.7119 36.9182 35.5696 35.2879 33.8905 32.0806 31.151 29.5784 28.3532 27.5902 26.7001 25.8435 24.7941 23.6705 23.1145 22.1198 21.0656 20.1903 18.9471 18.4576 18.0668 16.577 15.0965 14.4824 14.3836 13.8047 12.8241 12.1278 11.522 10.8684 9.98608 9.14776 8.76338 8.11176 7.22542 6.89552 6.4615 5.7541 5.04654 4.76445 4.83257 4.29849 3.55911 3.46899 3.01911 1.2573 17.1064 30.0281 27.0269 29.7851 32.4471 34.2371 35.7071 37.0943 38.3251 38.632 38.1482 38.0892 38.16 37.758 37.1175 36.6225 35.9251 34.9518 34.3896 33.6769 32.5547 31.9539 31.5951 30.4205 29.0432 28.0327 27.083 26.2177 25.7342 24.8866 24.1095 23.3837 22.1722 21.6411 20.9041 20.0502 19.409 18.3379 17.5776 17.1281 16.0697 15.1577 14.5713 13.9876 13.4534 13.062 12.2878 11.3561 11.1959 10.5562 9.75574 9.77687 9.06998 7.97199 7.60795 6.97129 6.03991 5.58331 5.23871 5.05124 4.629 3.7338 3.62585 3.52675 1.58119 12.4878 19.8396 16.0002 19.4192 23.5741 26.6942 28.6357 30.4005 31.6293 32.1864 32.6818 33.2478 33.5182 33.1933 32.9613 32.6856 32.1098 31.5067 31.1005 30.6355 29.8172 29.3038 28.6686 27.7157 26.8446 26.1712 25.583 24.8336 24.3571 23.5233 22.9617 22.5759 21.7743 21.1984 20.1143 19.0252 18.8858 18.231 17.0992 16.7164 16.1367 15.3474 14.5801 13.9515 13.1694 12.6812 12.4056 11.329 10.7483 10.6467 10.0598 10.0427 9.43427 8.27651 7.45801 6.78248 6.23909 5.65422 5.26582 4.73539 4.52176 4.05991 3.58712 3.27656 1.47627 10.1863 14.4912 10.1329 14.2104 19.2189 23.3283 25.9516 27.8228 29.5037 30.3305 30.8158 31.5251 31.7905 31.6415 31.4796 31.1803 30.6893 30.306 29.9586 29.3679 28.5978 27.8764 27.0843 26.4613 25.9235 25.5146 24.9805 24.0553 23.5886 23.2525 22.7482 22.0701 21.3804 20.6755 19.6629 18.8152 18.6828 18.2129 17.3655 16.7389 15.9425 15.3321 14.6164 14.0184 13.5052 12.839 12.337 11.6477 10.8077 10.5226 10.1197 9.70252 8.8063 7.89461 7.58774 6.82203 6.23584 5.48489 5.27337 5.28737 4.61445 4.329 3.77163 3.18769 1.58508 11.0142 17.5049 14.6469 19.0049 23.3118 26.7264 29.0815 31.1486 32.743 32.7661 32.9612 33.2646 33.424 33.1806 32.8405 32.5577 31.9639 31.5839 31.2592 30.4092 29.6107 29.1261 28.442 27.6287 27.0458 26.5459 25.8539 24.8988 24.1369 23.7453 23.0192 22.0239 21.1473 20.4529 19.8565 19.2313 18.5918 17.8307 17.4251 16.7728 15.7934 15.2929 14.6926 13.9924 13.9185 13.3646 12.0902 11.6965 11.3334 10.3949 10.0714 9.60462 8.50025 7.71306 7.63959 7.16216 6.44084 5.71784 5.26184 5.46096 4.85873 4.06438 3.38704 3.0091 1.51341 14.689 26.5869 25.8728 29.7163 32.9681 35.5728 37.2997 38.5366 38.9943 38.6866 38.8899 38.6672 37.9905 37.4484 37.2703 36.9978 36.0847 35.225 34.5206 33.5558 32.5452 31.8909 31.1053 30.301 29.4152 28.2836 27.4464 26.5446 25.4176 24.8333 23.8739 22.7967 22.0761 21.3042 20.5028 19.635 19.0713 18.4173 17.8952 17.2712 16.2564 15.4613 14.729 14.0729 13.9966 13.2213 11.7362 11.4489 11.2063 10.3155 9.99329 9.29213 8.37215 7.55925 7.20992 7.15773 6.50428 5.68466 5.05112 5.11884 4.57341 3.48778 3.03277 2.82358 1.32479 19.896 38.2385 38.594 41.9319 44.6742 45.89 47.5677 48.4242 47.7711 47.6058 47.0913 46.4232 45.6445 44.7724 44.1747 43.1901 41.8626 40.7365 39.634 38.8961 37.4504 35.8574 34.5808 33.4888 32.438 31.1062 30.1191 29.291 27.9054 26.8381 25.9069 25.0779 24.1662 22.9912 21.7829 20.6052 19.7524 19.2107 18.6608 17.8285 16.873 15.8809 15.171 14.2732 13.5888 13.2687 12.3026 11.3196 10.9724 10.3389 9.69112 9.33392 8.54487 7.56312 7.21411 6.829 5.8718 5.40908 5.08073 4.5378 3.61036 3.14577 3.10405 2.56694 1.17299 25.7079 50.5955 52.1155 55.7135 57.4538 57.9314 58.7121 58.9628 57.9936 57.5849 56.724 56.0098 55.2068 53.2536 51.6092 50.3528 49.3365 47.7581 45.8842 44.7742 43.1523 41.1587 39.6973 37.8362 36.1617 35.0934 33.8681 32.4851 31.0021 29.609 28.7019 27.7313 26.2341 24.8372 23.3923 22.3991 21.4652 20.5955 19.4233 17.9444 17.4673 16.6258 15.6366 14.6437 13.7542 13.2801 12.2974 11.2687 10.515 9.97082 9.63951 9.26045 8.334 7.34239 6.96154 6.54335 5.74644 5.34301 5.36382 4.4508 3.10433 2.82584 2.94421 2.57121 1.14651 32.1211 63.6896 65.7001 69.5455 71.0091 71.4532 70.6281 69.6875 68.9494 67.7799 67.0881 66.2211 64.3371 62.306 60.0932 58.4852 57.7746 55.7895 53.3726 51.3323 49.1441 47.4339 45.6172 43.0315 40.9195 39.2643 37.9483 36.7147 34.8688 32.6831 31.3096 29.836 28.3157 27.3172 25.584 24.0406 22.9337 22.0802 20.7467 18.9225 18.0198 17.0083 15.7906 15.0872 14.051 12.9636 12.2062 11.3645 10.3545 9.82979 9.6277 8.52091 7.86731 7.16761 6.45465 6.34727 5.37087 4.64281 4.70034 4.41931 3.70595 2.79421 2.70928 2.58402 1.02419 39.1971 79.7025 83.0865 85.9176 86.8977 86.3734 84.3633 82.7927 81.9727 80.3359 78.5857 76.5207 73.4822 71.6489 69.9195 67.9723 66.1283 63.2242 60.7921 58.8496 55.9845 53.7865 52.3499 49.5265 46.9319 44.755 42.7094 40.987 38.7896 36.6336 34.7382 33.077 31.5505 30.0827 28.0453 26.0647 24.7034 23.8074 22.6958 20.9532 19.1374 17.5581 16.243 15.4111 14.31 13.1108 12.4684 11.6785 10.3478 9.30974 9.00491 7.98082 7.5363 7.07807 6.36883 6.30302 5.20272 4.30634 4.10915 3.69622 3.51719 3.21045 2.89123 2.74866 1.34266 48.3808 99.5414 103.53 103.898 103.217 101.81 99.7074 97.498 95.0044 93.2948 91.3273 88.6627 85.7537 83.4022 80.6475 78.0205 75.5398 71.768 68.9758 66.9318 63.0698 60.1028 58.9592 56.4576 53.4571 51.136 48.2793 44.926 42.3873 40.7189 38.7971 37.0896 34.8971 32.4964 30.6623 28.5045 27.108 25.6107 23.7979 22.3791 20.8141 19.5593 17.7814 16.2529 15.0488 13.5113 12.4533 11.7949 10.6397 9.11483 8.41885 7.56697 6.98083 7.14228 6.10562 5.39533 4.99022 4.232 3.58759 2.74996 2.66912 3.17311 2.95338 2.77323 1.57359 26.9454 55.2387 56.7508 56.158 55.3781 54.6019 53.7484 52.4561 50.6798 49.6091 48.7944 47.609 46.5264 45.4172 43.2332 41.417 40.3041 38.475 36.9552 35.6555 33.3084 31.6931 30.8406 29.7146 28.3072 27.0271 25.6152 23.7463 22.3369 21.2079 20.174 19.3749 18.1523 16.8436 16.0706 14.7763 13.9632 13.0185 11.9245 11.381 10.7814 10.469 9.35945 8.40125 7.73182 6.82533 6.21775 5.83415 5.55641 4.73113 4.05282 3.67324 3.41214 3.63823 2.87295 2.24955 2.26889 1.95411 1.45929 1.06088 1.15912 1.39493 1.27755 1.24968 0.744365 57.8995 115.34 115.451 115.751 114.81 112.636 109.816 107.54 104.854 101.335 98.2686 96.139 93.3956 89.7808 86.8889 84.4374 81.2218 77.8861 74.6247 71.6257 68.5602 65.5404 62.7095 59.3735 57.2046 54.9864 51.5621 48.2974 46.2162 44.6365 42.309 39.1027 36.9609 35.5101 32.7014 30.393 28.8687 26.1615 23.6262 22.3899 20.9311 18.7331 17.2517 16.4034 14.5487 13.1829 12.3415 11.1384 9.63564 8.75701 8.03521 6.77992 6.37007 5.6788 4.74031 4.63289 4.25328 3.69112 3.13819 2.3446 1.95487 2.42563 2.48847 2.20074 1.19225 100.391 205.271 212.522 214.386 212.993 209.62 204.122 200.158 195.83 189.809 184.479 180.226 175.278 169.549 164.535 159.032 152.636 146.658 140.322 134.467 128.926 122.857 117.345 111.832 107.178 102.794 97.3659 91.5408 87.397 84.0647 79.479 74.533 70.7872 67.143 61.7446 57.0198 54.1066 50.6097 46.5659 42.7896 38.9911 35.7679 33.8055 31.6406 28.219 25.4962 23.7301 21.7875 19.6646 17.681 15.7467 14.1527 12.9921 12.1896 11.0651 10.3951 9.80189 7.97719 6.26272 5.72953 5.3881 5.60824 5.01161 4.10243 2.20439 76.594 160.959 174.122 179.878 180.439 178.661 174.433 170.704 167.186 163.72 160.7 157.136 152.852 148.816 144.509 139.041 133.193 128.391 123.582 118.322 113.491 108.23 103.845 99.3476 94.2365 89.8384 86.2997 82.5175 78.0424 74.377 70.6812 66.8726 63.5587 59.4937 54.4338 50.7982 48.4717 45.5932 42.4537 39.2467 36.0367 33.7324 32.1621 30.0292 27.62 25.07 23.1891 21.9866 20.5104 18.5126 16.6838 15.3118 13.7682 13.4259 12.6383 11.6329 11.0599 9.20267 7.18561 6.81648 6.94276 6.2527 5.02565 4.38322 2.35425 61.8748 127.842 138.143 146.315 148.945 149.126 146.446 143.256 140.985 139.139 137.325 134.141 130.846 127.898 123.774 119.55 115.025 111.325 108.616 105.047 100.757 96.4068 92.5729 88.1772 84.0626 80.1568 76.5485 73.2159 69.0703 65.7708 62.7417 58.8303 55.8791 52.8233 49.0269 46.5984 44.4364 41.1358 38.2525 36.7078 34.7887 32.5103 30.5905 29.1491 27.1019 24.484 22.982 21.8864 20.6422 19.52 18.3209 16.5042 15.02 14.3838 13.1645 11.4434 10.291 9.39234 8.35979 7.39733 6.76993 6.21039 5.41274 5.37749 2.94921 50.0326 100.704 106.668 116.007 120.537 122.18 121.445 120.188 119.209 117.463 115.942 113.667 111.302 108.018 104.435 101.338 97.9014 95.2453 93.3158 90.5163 86.9552 83.1796 80.2828 76.3913 72.8995 70.3861 66.448 62.9907 60.5683 58.0098 55.4858 52.9174 50.7082 48.5668 45.8755 43.4631 41.5006 38.9018 36.6592 35.5005 33.5018 31.4649 29.82 28.5412 26.3445 24.0686 23.1322 21.5354 20.2504 19.3552 18.264 16.886 15.4658 14.8095 13.6413 11.7542 10.3524 9.57057 8.8964 8.03874 7.27035 6.75121 6.11983 5.71241 2.88983 39.182 76.0367 78.1237 87.02 92.4245 95.2809 96.8542 96.9364 97.0859 96.3929 95.0167 93.9652 92.2688 89.667 87.1094 84.8582 82.5908 80.5059 78.6743 75.9073 73.2236 70.3923 68.991 66.213 62.6282 60.7162 57.8013 55.75 54.5912 52.4455 50.3658 48.6803 46.6209 44.8147 43.0737 41.2775 39.4283 36.9662 35.3708 34.2627 32.0427 30.1289 29.0065 28.1386 26.6526 24.7775 23.4829 22.2145 20.7639 19.2957 18.2897 17.5562 15.9868 14.4196 13.9719 13.1141 11.4293 10.5834 9.73681 8.66988 7.94137 7.36581 6.75256 6.02687 2.89777 29.2065 54.127 53.6904 61.3517 67.5364 71.4884 73.9608 75.6208 77.0369 77.2606 76.422 75.9448 75.5918 74.7141 73.1068 71.9007 70.696 69.0379 67.5886 66.0188 64.1453 62.2848 61.0454 58.8778 56.4893 54.68 52.9257 51.579 50.3264 48.5311 46.891 45.5179 43.2992 41.6341 40.7892 39.2839 37.066 35.1207 34.0118 32.6498 30.6147 29.0824 28.3364 27.3999 26.0655 24.7174 23.6674 22.6515 21.7104 20.4417 18.9104 18.4602 17.2861 15.0366 14.3062 13.4415 11.6145 11.047 10.4173 9.08437 7.87389 7.20117 6.61543 6.0856 3.02944 20.4312 34.8753 33.1462 41.9141 50.1211 55.9561 59.612 62.2337 63.9132 64.6521 65.0315 65.5515 65.7669 64.988 64.1181 63.6052 62.54 61.3466 60.4456 59.591 58.173 56.8446 55.5344 53.8325 52.5137 51.2083 49.7666 48.2178 47.1426 45.6871 44.4576 43.6299 41.9446 40.6273 39.1504 37.336 36.094 34.6822 33.0813 31.9221 30.8122 29.3844 27.9524 26.8389 25.5419 24.6197 24.1971 22.661 21.1217 20.4877 19.1479 18.1963 17.3459 15.9093 14.4561 13.281 12.1474 11.2903 10.8641 9.44792 8.35421 7.67932 6.36676 5.93806 3.14359 15.3069 24.0336 22.5039 32.651 42.4645 49.6841 54.2113 57.0452 59.1241 60.5937 61.3267 62.0759 62.2269 61.7674 61.4039 60.848 59.6807 58.7587 58.1473 57.2374 55.9258 54.5956 53.352 52.0961 50.871 50.0153 48.4678 46.6884 46.257 45.2516 43.6726 42.5094 41.158 39.9516 38.5061 36.864 36.145 35.1809 33.5412 32.1556 31.0918 29.7722 28.3225 27.3665 26.0421 24.8549 24.2358 22.8957 21.2488 20.4344 19.3434 18.0566 16.5622 15.4691 15.1208 14.2893 12.847 11.2932 11.0344 10.1612 8.72886 7.99653 6.48374 5.92604 3.16516 16.9742 30.0118 31.0964 41.6332 50.8226 56.7268 60.4077 63.4053 65.1975 65.6623 65.8052 65.5633 65.7219 65.2637 64.4396 63.9055 62.5615 61.4689 60.6893 59.2125 57.8734 56.8567 55.6112 54.022 52.453 51.4146 49.9603 48.1771 47.1734 46.0998 44.3295 42.7437 41.2613 39.9004 38.8654 37.5405 36.3699 35.2585 34.057 32.4228 31.0487 29.9993 28.7908 27.63 26.6058 25.2264 23.6522 22.9275 21.7843 20.3857 19.5339 18.2639 16.2712 14.916 15.1377 14.8869 13.1828 11.3723 10.5673 10.1454 8.67371 7.19978 5.93872 5.65053 3.03572 24.5074 47.7597 52.0651 62.0974 69.5928 74.0719 76.4997 78.1995 78.7401 78.1155 77.3878 76.4643 75.6297 74.6713 73.5866 72.1642 70.6886 69.4197 67.4858 65.3082 63.6087 62.3199 60.6479 58.971 57.0623 54.9067 53.2373 51.4983 49.5946 48.2193 46.5217 44.452 42.7815 41.6491 40.2094 38.5133 37.242 35.9324 35.2062 33.5984 31.6903 30.4525 29.197 27.8463 27.0164 25.5273 23.3053 22.7216 21.3263 19.8569 19.479 17.9721 16.1089 15.0134 14.7319 14.3779 12.8173 11.1581 10.0446 9.95263 8.55773 6.37965 5.61459 5.46621 2.87233 34.583 69.8913 76.2402 85.9556 92.2348 95.0479 97.2313 97.9608 96.9996 96.0741 94.362 92.5242 90.9913 89.6654 87.8793 84.5589 82.2586 81.1484 78.7716 76.313 73.6971 70.7346 68.0515 65.9541 63.6115 60.868 58.6847 56.8419 54.6786 52.7554 50.8472 48.8391 46.8591 45.2809 43.3962 40.9002 39.0304 37.7478 36.9175 35.1856 32.8365 31.0304 29.9185 28.1969 26.5693 25.6054 23.9899 22.7059 21.5555 20.1274 18.9141 17.9377 16.5575 15.2045 14.4268 13.5437 11.8684 10.5846 9.94674 9.35786 7.71516 6.08989 6.21176 5.64753 2.44321 45.6757 94.1932 102.684 112.543 117.366 119.203 120.645 120.006 117.854 116.504 114.407 111.504 109.424 106.803 103.369 100.003 97.3603 94.92 91.8875 88.8357 85.5513 81.4922 78.2969 75.2992 72.2495 69.3329 66.2377 63.2881 60.7706 58.4039 56.4293 54.5362 51.7779 49.4148 46.8714 44.1425 42.1118 40.4724 38.0756 35.3843 33.8417 32.2469 30.7902 28.8818 26.8944 25.7716 24.2341 22.4101 20.9557 19.9317 18.9735 17.9764 16.5451 14.8657 13.6422 12.4288 11.0843 10.4891 10.4332 9.19744 7.13581 6.00174 6.29545 5.60456 2.21763 57.7424 119.504 130.246 141.046 145.459 146.077 145.063 143.244 140.73 137.764 135.009 131.807 128.256 124.88 120.96 117.388 114.66 110.77 106.591 102.606 98.3594 94.1758 90.5164 86.2457 81.8902 78.4678 75.5148 71.9191 68.295 64.8808 62.1889 59.5669 56.4002 53.8661 50.8663 47.8778 45.5676 43.5126 40.7646 37.3181 34.959 33.2035 31.4796 30.049 27.7775 25.8653 24.2568 22.4521 20.6521 19.4173 18.6485 16.9456 15.5722 14.2246 12.7827 11.8644 10.7689 9.83222 9.66518 8.88335 7.15943 5.76034 5.7607 5.1865 2.03842 71.3545 150.041 165.05 175.167 177.928 176.275 172.624 169.24 166.45 162.949 158.376 153.586 147.956 144.404 140.543 135.613 131.585 126.246 121.807 117.69 112.378 107.716 104.049 98.7069 93.124 89.7907 85.9721 81.0038 76.9608 73.5623 69.2813 65.7483 62.9037 59.7314 56.2462 52.8205 49.9302 47.4292 44.8154 41.3929 37.3363 34.3964 32.377 30.4947 28.156 25.8858 24.0354 22.3371 20.5325 18.5342 17.3361 15.5169 14.3729 13.916 12.5563 11.3806 10.4499 9.37803 8.5252 7.5008 6.81833 6.34934 5.8974 5.25397 2.32728 89.8419 189.43 205.672 211.737 210.792 207.312 203.254 197.898 192.362 189.203 185.208 179.357 172.853 167.933 161.497 155.266 150.675 143.859 138.494 133.312 126.039 120.876 117.14 111.849 106.115 101.725 96.2143 90.1897 86.2368 82.5869 77.5429 73.3378 69.3667 65.4102 61.5114 57.2985 54.556 50.963 47.2485 44.4871 41.3879 38.7327 35.0434 31.6241 29.4886 26.8225 24.1891 22.759 21.0732 18.5794 17.1491 15.2759 13.9484 13.9668 12.2579 10.2242 9.38712 8.7752 7.41608 6.30779 5.92216 5.89583 5.46962 4.96126 2.60193 50.4433 105.704 112.954 114.561 113.119 110.947 109.356 106.548 102.649 100.755 99.4066 96.6183 93.6041 90.8702 86.4703 82.8184 80.62 77.177 74.1669 70.903 66.433 63.7854 61.5333 59.0617 56.3153 53.4137 50.706 47.9892 45.8487 43.2994 40.6808 38.5046 35.9709 33.9142 32.0019 29.5703 28.2532 26.0836 23.8689 22.7777 21.8223 20.8765 18.3302 16.3042 15.2691 13.8184 12.3394 11.7176 11.0873 9.67068 8.72536 7.87268 7.21477 6.9992 5.8854 4.81491 4.39815 3.97776 3.14374 2.84277 2.64148 2.45162 2.3839 2.25793 1.26606 51.9049 106.667 112.02 116.077 117.882 116.775 114.296 111.392 107.146 103.25 100.21 97.4922 94.716 90.8684 87.3203 84.824 81.6191 77.7193 75.0816 72.3171 68.4817 65.1106 62.192 59.3091 56.906 54.2086 51.6692 48.749 46.5939 45.3265 42.4142 38.5788 36.7162 35.2948 32.2783 30.2656 28.8633 26.0604 23.7393 22.2661 20.3879 18.7447 17.1924 16.259 14.6718 13.11 12.1232 11.382 9.93676 8.61051 8.0735 6.99241 6.24089 5.16834 4.24914 4.31626 4.00966 3.32252 3.10187 2.82294 2.41548 2.09504 1.88817 1.87332 0.907113 89.2708 189.504 207.424 216.5 218.589 216.688 212.293 207.985 201.562 194.054 188.252 183.703 178.428 171.062 164.876 159.213 153.137 146.77 141.071 135.584 129.102 122.132 115.944 111.383 106.58 101.686 97.4186 92.332 88.5356 84.8236 79.0807 73.6083 70.2025 66.8073 60.8451 56.1737 53.4224 49.0887 45.3086 42.3767 39.0353 35.9983 33.2123 30.8162 28.0573 25.5086 23.0887 21.7755 20.0982 17.3445 15.8548 14.5266 13.0167 11.2706 9.69885 9.35633 8.96769 7.19502 6.09272 6.29703 5.56729 5.1092 4.62239 3.95528 1.97221 66.0656 146.963 170.797 183.342 186.855 185.835 181.981 177.917 173.863 168.588 163.689 160.113 155.299 149.689 144.7 139.165 133.773 128.137 123.033 118.821 114.189 107.434 102.058 98.8042 94.3858 90.0715 85.7667 82.2545 78.4961 73.9347 69.8924 66.1864 62.8044 58.7131 53.3131 49.745 47.9191 43.8392 40.3467 38.5433 36.4091 33.5698 31.2313 29.0527 26.585 24.5979 22.2127 20.48 19.4438 17.7568 16.4678 15.1722 13.7798 12.7427 11.4217 10.6912 9.91624 8.2035 7.0478 6.97721 6.65941 6.03444 5.37706 5.07758 2.67306 51.5396 114.257 135.054 149.078 155.018 156.239 153.499 149.168 146.156 143.156 139.179 135.485 131.803 128.087 123.605 119.424 115.275 110.312 106.84 103.901 99.8044 94.3676 90.5299 87.3024 83.3746 79.4139 75.2175 72.1933 68.2254 65.1815 62.3473 57.8459 54.6887 51.5793 47.7002 45.4725 43.687 40.1689 36.8133 35.7213 34.6754 31.9358 29.6641 28.1595 25.945 23.9614 22.2531 20.3292 18.8365 18.2551 17.484 15.6512 14.2424 13.709 12.5451 11.2174 10.071 9.01497 8.64939 7.76199 7.11433 6.1428 5.45568 5.70583 2.90605 40.2102 87.996 104.701 118.54 125.127 127.658 127.051 124.519 122.604 120.345 116.961 113.912 111.333 108.004 104.347 101.062 97.6893 94.0453 90.5681 87.6458 84.4653 80.7679 78.1455 74.6356 70.5881 67.9824 64.9132 61.8187 59.5618 57.371 54.4972 51.3793 48.8658 46.476 43.9819 42.0158 40.2936 37.9953 35.4264 33.9821 32.9035 31.1137 28.901 27.2865 25.6325 23.8739 22.3432 20.6172 19.3853 18.394 17.4383 15.8492 14.492 14.5407 13.2955 11.3688 10.7621 10.4724 9.89527 8.27113 6.84309 6.33536 5.74815 5.82348 3.12693 30.1325 65.1255 77.3455 90.3407 97.7838 100.606 101.594 100.654 99.3466 97.8561 95.7055 93.9249 91.9662 89.4206 86.7014 84.3884 81.7294 78.7551 75.7383 73.439 71.4842 68.804 67.1803 64.111 60.3331 58.5585 56.276 54.2673 52.854 50.5985 48.4882 46.9611 44.9621 42.7576 40.9463 39.3929 37.7982 35.8983 34.1533 32.3469 30.6707 29.5494 28.4095 26.9918 25.4657 24.1247 22.8051 21.0208 19.9403 18.9921 17.7258 16.6514 15.2101 14.0675 13.4204 12.3919 11.1876 11.258 10.2346 7.80385 6.54286 6.61374 5.93153 5.73239 3.3408 21.3906 45.4246 54.4736 65.6608 73.1238 76.9031 78.574 78.9834 78.6736 77.9993 76.8904 75.8066 74.7688 73.2385 71.1473 70.3262 69.0032 66.7423 65.3216 64.1717 62.6246 60.1511 58.3748 56.4146 53.9268 52.2854 50.8384 49.7438 48.037 46.0749 44.6557 43.2863 41.791 40.1382 38.8641 37.4712 35.1498 33.6236 32.7506 31.02 29.4359 28.0532 27.3916 26.5024 24.8434 23.4979 22.8224 21.822 20.2758 19.1738 18.1917 17.3353 16.0646 14.0373 13.2828 12.6444 11.1106 11.0349 10.2948 8.28897 7.19229 6.96919 5.51779 5.09757 3.11936 13.3062 28.3854 36.6312 48.1856 56.628 61.6559 64.1255 65.0502 65.3935 65.564 65.0361 64.6648 64.2147 62.9511 61.5827 61.151 60.2431 58.5446 57.7143 57.0441 56.156 54.4452 52.632 51.4296 49.9797 48.5612 47.0696 46.1715 45.3287 43.3443 41.7745 40.8954 39.5956 38.2947 37.2766 36.0552 34.0297 32.273 31.1788 30.2833 29.4963 27.9705 26.8207 26.0389 24.667 23.515 23.0422 22.0376 20.205 19.1094 18.4058 16.9463 16.0596 15.488 14.237 12.9187 11.5561 11.3436 10.982 9.16305 8.39623 7.83934 5.82913 5.72286 3.45006 8.30709 18.6734 28.091 40.8984 50.2284 55.8039 58.7224 60.138 60.458 61.0024 61.1773 60.8063 60.295 59.4736 58.6344 57.7879 56.8137 55.6909 54.9079 54.1156 53.2693 52.3267 51.0169 49.6713 48.4958 47.2861 45.5253 44.5211 44.2795 42.557 40.4153 39.6724 38.5564 37.4873 36.5276 35.0485 33.7265 32.6559 31.3092 30.0494 29.481 28.5896 27.3521 26.187 24.8476 23.5378 23.0861 22.1134 20.5739 19.5807 18.2525 16.797 15.7948 15.1739 14.699 14.163 12.3951 11.1412 10.8167 9.57684 8.762 7.4499 5.88422 5.9812 3.25594 10.0974 24.339 35.6472 48.585 57.3367 62.0991 65.2108 66.4549 65.8985 65.9447 65.822 64.6301 63.87 63.0655 62.1139 61.199 60.108 59.1122 57.8995 56.4198 55.0968 54.0847 52.926 51.4215 49.8322 48.4966 46.9389 45.4724 44.8439 43.4522 41.5794 40.3312 38.8498 37.737 36.7606 35.2999 34.3484 33.8645 32.5519 30.5876 29.8138 28.9483 27.4393 26.5131 25.0809 23.345 22.5329 21.9745 20.5251 19.1819 18.0683 17.1628 15.9998 14.444 14.1361 14.127 12.3713 10.8562 10.0239 9.31824 8.53794 6.82196 5.72489 5.61141 2.9153 17.5409 40.6218 53.69 66.5746 74.5893 78.4266 80.4084 81.0014 80.1948 79.3262 77.8995 76.0711 75.1887 74.0061 72.0943 70.0141 68.6612 67.4177 64.7831 62.6905 61.5921 60.1236 58.1579 56.6021 54.6763 52.4495 50.5683 48.969 47.908 46.0358 44.7346 43.0132 40.4012 39.3984 38.2296 36.7105 35.3897 34.2765 33.4249 31.7075 30.5414 29.2914 27.9044 26.7741 25.2951 23.7507 22.2398 21.5657 19.8888 18.6707 18.2214 17.16 15.7346 14.3311 13.9927 13.4736 11.7049 10.5662 9.76745 9.23744 8.24343 6.58762 6.05307 5.64692 2.7715 26.765 60.3717 75.5467 89.0491 96.6771 100.091 101.073 100.56 99.6114 98.1644 95.4577 92.5502 90.6307 89.2081 86.6883 83.1123 81.2192 79.5844 76.2708 73.9089 72.0625 69.3343 66.2065 63.854 61.4126 58.9162 56.8564 54.8213 52.8904 50.5028 49.1244 47.2449 44.4518 43.2122 41.7894 39.5473 37.6441 36.3684 35.2437 33.2369 31.112 29.684 28.9176 27.2491 25.1033 23.6106 22.3251 21.5214 20.411 19.1105 17.7642 16.5719 15.5301 14.4789 13.789 12.6768 11.3624 10.4649 9.60501 9.08768 8.04598 6.26136 6.19012 5.79589 2.37465 36.6995 82.7611 100.127 113.88 121.486 124.853 125.572 123.822 121.292 118.824 115.546 111.561 108.415 106.012 102.995 99.2976 96.3004 93.4331 90.4356 87.4381 83.8215 80.3839 77.0247 73.8362 71.1671 67.7325 64.6539 62.1689 59.2888 56.4334 54.3605 52.5251 50.1875 48.1068 46.0674 42.9965 40.6817 39.4838 37.4945 34.5634 31.9665 30.5223 29.7076 28.134 25.981 24.5107 23.105 21.7314 20.883 19.5608 17.6249 16.6804 16.1303 14.7399 13.2379 11.6067 10.7948 10.889 9.84154 8.46093 7.60835 6.38719 6.34186 5.8601 2.35696 48.0058 107.413 127.892 142.754 150.296 152.402 151.267 148.504 144.503 140.117 135.926 132.07 128.16 124.34 121.072 117.565 113.176 108.901 105.949 102.04 97.1326 93.0365 89.1084 84.9413 82.0192 78.1812 73.9034 70.461 67.1815 64.0081 61.0124 58.298 55.4347 52.7803 50.4017 47.3412 44.6427 42.9051 40.5516 36.7497 33.7837 32.0616 30.6115 29.3621 27.4054 25.8143 23.8567 21.9796 20.4891 18.8114 17.3016 16.4919 15.5536 13.8681 12.5356 11.5052 10.8138 10.1832 9.34567 8.29706 7.23374 6.24735 6.25448 5.73054 2.34043 61.6806 137.015 161.919 177.637 182.682 183.132 180.456 175.317 170.488 165.837 160.211 154.751 149.216 144.979 140.591 135.282 130.216 125.375 121.737 116.952 111.778 106.683 102.072 97.2044 92.7288 89.2723 84.8635 79.7987 76.1286 73.2692 68.8228 64.5287 61.5439 58.767 55.6305 52.0403 49.3338 47.1905 44.0953 40.0415 36.5064 33.972 31.7593 29.8681 28.1067 26.158 23.5647 21.6829 20.291 18.2392 16.4009 15.1538 13.9466 12.972 12.1472 10.7374 10.1768 9.46592 8.06122 7.30071 6.73016 5.92246 5.74034 5.32264 2.24424 80.0267 174.728 199.676 212.875 215.118 213.27 209.549 203.415 197.724 193.14 187.561 181.12 174.868 169.09 161.519 154.216 148.902 142.976 137.682 131.946 126.108 121.243 115.613 110.463 105.814 100.724 95.9995 90.6583 86.2988 82.6266 77.3075 72.3426 68.5333 65.2407 61.0189 56.9797 54.3312 50.7837 46.8023 43.48 40.7822 37.9428 34.2986 31.1532 29.5332 27.4426 24.2762 22.6254 21.1225 19.1228 17.2497 15.3094 14.2195 13.2949 11.6818 9.40676 8.73314 8.9792 7.45173 6.43719 6.17765 5.57498 5.1568 4.56234 2.03592 45.3448 98.0018 109.398 114.756 115.474 113.666 111.55 108.702 105.476 102.825 100.353 97.6349 94.7088 90.9546 86.3289 82.5097 79.7135 76.3949 73.2967 70.1303 66.7247 64.4661 61.0985 58.4282 56.4711 53.2489 50.8814 48.3534 45.8645 43.5352 40.9217 38.3572 35.8521 34.0275 31.8462 29.9691 28.5462 26.2256 24.0166 22.6091 21.7377 20.234 17.9339 16.2198 15.2947 14.2856 12.6829 11.8692 10.9493 9.94117 9.1832 8.1712 7.64817 6.91476 5.71782 4.59871 4.19283 4.19948 3.55833 3.22991 3.16181 2.82954 2.61435 2.13373 0.880311 49.9787 103.07 108.869 113.834 116.897 116.893 115.085 112.701 109.144 105.038 101.383 97.7157 94.8192 92.0598 88.7724 86.1569 82.8299 78.2591 75.2698 72.6698 68.4083 64.6699 61.8989 59.4899 56.61 53.9055 51.8669 48.5933 45.9901 44.2393 41.8808 39.0996 36.0933 33.6415 31.4579 29.3625 28.2249 25.9991 23.6961 21.6047 19.385 18.7117 17.3904 15.9568 14.407 12.8139 12.0154 11.4796 10.1653 8.94401 8.05261 7.14173 6.39969 5.36554 4.47063 4.12161 3.79905 3.37163 3.11726 2.94285 2.52961 2.02592 1.90669 2.07096 1.13433 84.9034 181.784 201.377 213.25 217.614 217.484 215.387 211.908 206.071 198.081 191.11 185.036 179.141 173.122 167.066 161.446 154.892 147.217 141.55 136.571 129.401 121.828 116.172 112.002 106.465 101.421 97.6373 91.9625 87.4885 83.1802 77.6921 73.5831 69.4182 64.813 59.9334 55.7095 53.1205 48.8011 44.7369 41.2866 37.9426 36.081 33.2208 30.398 27.7042 25.1093 23.0204 21.543 19.8731 17.931 15.9275 14.2346 13.2137 11.4205 9.98239 9.48549 8.42646 7.00232 6.36466 6.20777 5.47386 4.65795 4.6224 4.45843 2.06573 60.6959 138.53 166.051 181.882 187.493 187.921 186.245 182.947 178.366 172.411 166.41 161.658 156.267 150.404 145.756 140.238 134.781 128.898 123.518 118.854 113.836 107.338 102.309 99.8769 95.2563 90.041 85.9893 81.7834 77.4926 73.2266 69.0979 65.4919 61.8367 57.6404 53.1745 49.9915 47.5039 43.4728 39.603 37.6661 36.0291 33.1862 30.7043 28.2151 25.5911 23.8471 21.7028 19.5543 18.4538 17.8565 16.0471 14.4821 13.986 12.2835 11.2176 11.2626 9.60053 7.59035 7.03524 6.7024 6.02959 5.32082 5.36944 5.69905 2.82389 45.5717 105.984 131.598 148.35 156.735 158.693 157.554 154.736 150.08 145.725 141.768 137.895 132.716 127.609 123.959 119.661 116.281 111.678 106.71 102.418 97.9442 93.3424 89.9673 87.5939 83.054 78.3637 74.8119 71.0507 66.696 64.1185 61.1892 56.735 53.1467 50.0542 46.6482 43.9865 42.2378 39.4167 35.8192 34.334 33.6314 31.0477 28.5348 26.5938 24.6591 23.0168 21.6588 19.7895 18.2902 17.8551 16.4019 15.0725 14.1276 13.0246 11.9967 11.5586 10.2674 8.72341 8.13575 7.10161 6.45469 5.59541 5.11165 5.73793 3.10706 34.1201 80.4147 102.361 118.324 127.489 130.94 131.458 129.667 126.462 122.972 119.575 116.287 111.703 107.612 104.322 101.117 98.1155 94.0029 89.8056 86.7447 83.1345 79.6877 77.4377 73.8914 69.4855 66.7318 64.2127 60.903 57.8836 55.5248 52.7682 49.8921 47.1467 44.6892 42.4933 40.1807 38.5763 36.5164 34.389 33.0778 31.8039 29.7809 27.428 26.172 24.8007 22.9882 21.5827 20.0567 19.1902 18.4577 16.8364 15.1984 14.33 13.8646 12.0351 10.7619 10.7664 10.2305 9.57059 7.80947 6.1225 5.74432 5.37777 5.19786 2.65594 25.0009 59.4559 77.2467 92.0578 101.035 104.745 105.775 104.42 102.925 100.552 97.2522 94.5962 91.9117 89.1109 86.0379 83.9962 81.1167 77.0965 74.3839 72.812 70.432 67.5714 65.7661 63.1096 59.8602 57.6535 55.2395 53.065 51.07 48.7908 47.2886 45.6574 43.116 40.8814 39.4268 37.9691 35.9694 34.284 33.4615 32.0327 29.9444 28.3111 27.177 25.904 24.3944 23.2214 21.7199 19.8915 19.4417 19.1075 17.3966 15.8678 14.8408 13.412 12.0823 11.3699 11.2786 10.8955 10.0766 8.26372 5.82019 5.46276 5.45596 5.12394 2.74557 17.5257 42.2551 57.0487 69.9261 77.7793 81.3489 82.7457 82.3536 81.2937 79.9955 78.1838 76.3433 74.7978 72.972 70.4013 69.0488 67.6522 65.2285 64.1 62.8437 60.617 58.2434 56.3112 55.0253 52.8784 50.8678 49.0104 47.8047 46.3205 44.1664 42.8655 41.4189 40.1872 38.7365 36.9501 35.6484 33.9687 32.8464 31.9396 30.3468 29.0132 27.6627 26.5693 25.7664 24.2768 23.4279 22.5426 20.7772 19.6631 18.6878 17.512 16.6445 15.5125 13.8575 12.9054 12.25 11.2481 10.5602 9.71457 8.48262 7.38806 6.47929 5.35431 5 2.7397 10.1518 27.4471 41.7792 54.0956 62.3126 66.8058 68.3932 68.358 67.8842 67.2647 66.2257 64.8901 63.6745 62.5311 60.8966 59.5487 58.5207 56.9447 56.0702 54.8715 53.6816 52.3099 50.4304 49.3924 47.934 46.4107 44.8121 44.1208 43.2562 41.2728 39.8462 38.8301 38.0578 36.7096 35.3458 34.3118 33.0185 31.7067 30.4653 29.5412 29.0758 27.5891 26.4973 26.0358 24.3116 23.3759 22.3684 20.9844 19.6178 18.3459 17.519 16.6369 16.1157 15.1144 13.7989 12.6944 11.3529 10.7069 10.0783 9.02288 8.8676 7.69233 5.73408 5.47756 2.94606 5.66687 19.2996 34.9508 47.906 56.1549 60.7849 62.7424 63.422 63.2545 62.3725 61.511 60.4849 59.4834 58.5596 57.0763 55.7265 55.1168 53.6235 52.0772 51.0048 50.445 49.76 48.4386 47.2017 46.0262 44.6609 43.0163 42.0627 41.2652 40.031 38.3664 37.7078 36.9403 35.6337 34.6897 33.6718 32.3274 30.8818 29.7423 28.5605 28.0531 27.4522 26.5295 25.3212 24.1243 22.9041 21.6994 20.9304 19.7258 18.5232 17.2491 16.4189 15.9102 14.6199 13.5946 13.1321 11.8676 10.6924 10.0627 9.61806 8.96513 7.0643 5.37076 5.49938 3.08862 8.07966 24.7144 41.1099 54.4878 62.4259 67.0195 69.3729 69.2047 68.0054 66.7981 65.7402 64.4697 63.1181 61.9332 60.4171 58.7277 58.2206 57.2876 55.3928 53.7559 52.6167 51.633 50.2938 48.8506 47.5269 46.2691 44.9897 43.3733 42.5142 41.1709 39.1458 38.3398 37.1331 36.1546 35.2099 33.9943 32.8378 31.6039 30.2491 28.98 28.1685 27.1863 25.9049 24.9356 23.9902 22.4127 21.422 20.7999 19.5096 18.0977 16.9557 16.6415 15.9651 14.3326 13.3187 12.6754 11.4114 10.3914 9.67091 9.1928 8.36445 6.74719 5.99313 5.68483 2.79194 14.9292 39.0098 56.6964 70.1908 78.1248 82.5674 84.2854 83.8381 82.3036 80.5314 79.104 76.797 74.5554 73.2389 71.2736 69.4057 67.4686 65.6378 63.1616 60.7974 59.7145 58.2406 56.1669 54.7222 53.0285 50.7759 49.1008 47.5417 46.6483 44.5774 42.6262 41.4393 39.0811 37.683 36.7123 35.6265 33.9897 32.529 31.2996 30.3214 29.5454 27.6518 26.5352 25.7142 24.4221 22.9053 21.5953 20.5829 18.9507 18.0447 17.2307 16.2429 15.544 14.4432 13.4242 12.0936 10.8336 10.3149 9.51566 8.58099 7.81366 7.32062 7.08588 5.73308 2.33291 22.4528 55.5364 76.4026 91.3913 99.342 102.975 103.984 103.245 101.434 99.3827 97.2743 94.4576 91.2871 88.6413 86.2226 84.0369 80.992 77.6057 74.2724 72.5961 71.0558 68.2521 65.0762 62.5547 60.3806 57.7554 55.8761 54.2277 52.0076 49.3741 47.989 46.55 43.499 41.3999 39.8494 38.4273 36.8543 35.1335 33.6029 32.0824 30.5681 28.7582 27.7219 26.4144 24.7882 23.1654 21.8538 20.8947 19.335 18.2612 16.8766 15.438 14.8702 14.1037 13.0447 11.7747 10.7202 9.94899 8.86313 8.31927 7.69463 6.92859 6.66118 5.39226 2.17193 31.6693 75.5284 98.2072 115.059 124.051 127.327 127.822 126.53 123.526 120.046 116.707 113.592 110.135 105.998 102.499 99.3576 95.9956 91.7612 88.367 86.6035 82.8272 79.7057 76.7912 72.7502 70.1673 67.0295 63.9754 61.8075 58.9339 56.1266 54.0406 51.69 49.0966 46.5121 44.3529 42.2342 40.2374 38.3769 36.8092 34.2767 31.3453 29.9607 28.5936 27.0398 25.3211 23.4234 22.2956 21.7966 20.4167 18.4453 16.4394 15.6709 15.5355 14.2198 12.6949 11.4145 10.6283 10.4425 9.07134 7.74492 7.24989 6.41478 6.0915 5.60854 2.59964 42.9053 100.115 125.362 142.746 152.018 155.433 154.378 151.328 147.161 142.314 137.884 133.629 129.039 124.899 121.12 117.185 112.544 107.803 104.376 100.847 95.6387 91.517 88.2263 83.8577 80.9649 77.0648 72.7684 69.8028 66.6605 63.8825 60.8823 57.1764 54.4912 51.9771 49.2909 46.6894 43.9177 41.7454 40.0901 36.441 33.5328 32.0388 29.6035 28.5692 26.9223 24.8693 23.2784 21.9494 20.3114 18.1592 16.6547 15.5383 14.8966 13.7255 12.2481 11.1704 10.3127 9.7785 8.54248 7.65078 7.38815 6.31896 5.7133 5.58629 2.6856 56.6867 129.277 157.929 176.096 182.959 185.669 184.293 178.845 173.616 168.876 163.465 156.958 150.035 145.045 140.505 135.764 130.168 124.681 120.231 115.944 111.249 105.562 100.737 96.2329 92.0908 87.578 83.7977 79.7595 75.2153 72.2225 68.1861 63.2657 60.1717 57.5691 54.0521 50.6947 48.573 46.6338 43.4644 39.1963 36.6445 34.0613 30.5699 29.5965 28.2516 26.4027 24.0482 21.5131 19.7839 17.8481 16.5969 15.1283 13.6196 12.4372 11.7925 10.753 9.38746 8.13262 6.86005 6.786 6.63201 5.44747 4.80417 5.01535 2.57439 75.4609 166.424 192.466 208.518 214.375 214.741 212.18 206.626 201.309 195.972 189.373 182.83 175.911 168.509 161.624 155.428 148.477 141.295 135.954 131.212 126.442 121.74 115.729 110.022 105.341 99.9519 96.0051 91.3896 85.8192 81.1383 76.565 72.0664 67.5996 63.7843 59.7355 55.8991 53.4553 50.945 46.7031 42.6141 40.0863 36.884 33.3396 31.1352 29.438 27.6864 24.7767 22.1487 20.3892 18.9299 17.2679 15.2758 13.9801 12.1965 10.8288 9.56131 8.55759 7.97827 6.89189 5.75029 5.60658 5.83616 5.1117 4.66071 2.34764 43.254 94.0761 105.228 111.681 114.91 114.445 112.346 109.522 106.905 103.847 100.29 97.9672 95.0026 90.4663 86.7367 83.2162 78.9163 74.8363 72.1799 69.6219 66.9801 64.9861 61.5711 58.1925 55.9842 53.2996 51.1705 48.7366 45.7626 42.8134 40.7665 38.9329 35.9082 33.6685 31.5571 29.5766 28.01 26.3803 24.1849 22.2614 21.1304 19.4287 17.6796 16.2041 15.0131 14.1443 12.6166 11.3102 10.4184 9.88031 9.03588 7.77767 7.17247 6.23843 5.16577 4.50077 4.19622 4.09033 3.67635 2.84182 2.9397 3.42183 3.04289 2.29773 0.912116 49.4317 101.617 107.244 112.954 115.948 115.873 114.624 112.447 109.565 105.889 102.414 98.4294 94.6382 91.855 89.2549 86.4007 83.1014 79.6662 75.7299 72.2815 68.7545 65.2001 62.1341 59.2556 56.1328 53.4324 50.8573 47.6607 45.9584 44.4392 42.3732 39.6217 36.2826 33.9244 32.164 29.9089 27.5711 25.4007 23.6114 21.661 19.3711 18.4284 17.3368 15.8217 14.3447 12.7672 12.1658 10.9563 9.48256 9.03661 8.00351 6.89275 6.29761 5.34333 4.61101 4.4789 3.67738 3.28501 3.01996 2.67518 2.50337 2.10453 2.27315 2.37464 1.20501 83.0601 178.157 197.558 210.808 217.061 216.943 214.705 211.413 206.746 199.625 193.205 186.615 178.951 173.424 168.193 161.927 155.2 148.588 142.256 136.429 129.556 122.234 116.59 111.713 106.527 101.462 96.988 91.3919 87.1954 83.4577 78.2023 73.9134 69.4958 64.2117 60.1187 56.3384 52.0447 47.9429 44.7956 41.4787 37.5097 35.4301 32.7104 29.8688 27.5924 24.6192 22.8485 20.7353 18.6978 17.8343 16.0891 13.9144 12.6054 11.4325 10.7522 9.97625 7.65572 6.52355 6.48836 5.81879 5.36289 4.76354 4.7919 4.93363 2.37164 57.9063 133.677 162.386 179.43 187.294 188.365 186.795 184.758 180.228 173.9 168.975 163.745 156.913 151.464 146.843 140.755 134.718 129.105 123.871 118.552 112.477 107.38 103.326 98.9593 94.6977 90.0147 86.4584 82.4467 77.759 73.747 68.323 64.5605 61.2511 56.5584 53.203 50.0356 46.4852 43.1493 39.7575 37.3674 34.7987 32.1991 29.9251 27.1758 25.2403 23.3466 21.1437 19.181 17.9987 17.3364 15.9228 14.1114 13.0002 12.3817 11.7589 10.7426 8.95288 7.24562 6.98332 6.65994 5.91276 5.08698 4.86077 5.68732 2.95702 42.0074 100.894 129.377 147.401 156.981 160.003 159.773 158.401 153.467 147.987 143.814 139.406 134.338 129.607 125.407 120.488 116.434 112.114 107.213 101.684 96.5247 93.216 90.5101 86.2458 81.9401 78.4048 74.789 71.3031 67.2074 63.8563 59.9842 55.8691 52.2177 49.3497 46.8851 43.6416 41.2454 39.0864 36.089 33.9452 32.13 29.8487 28.2158 25.913 24.2757 22.8108 20.988 19.4791 18.3023 17.3843 15.9004 14.9318 13.8326 12.8745 12.0531 11.3577 10.4814 8.6544 7.20971 6.74369 6.44826 5.27267 4.73789 5.43543 2.82937 30.4652 76.1674 101.124 118.38 129.434 133.141 133.85 132.53 129.052 125.502 121.118 116.928 113.041 110.061 105.969 101.465 97.986 93.4779 89.8391 86.6177 82.9787 79.1056 76.1203 72.7874 69.4675 67.0647 63.5 60.047 57.3324 54.8298 51.9749 48.9202 45.9995 43.9155 41.8892 39.1024 37.3289 35.6101 33.8918 32.6802 31.1687 29.2491 27.2061 25.3181 24.0205 22.8746 21.069 19.363 18.7937 18.2663 16.5478 15.5687 14.4988 13.1286 12.2883 11.8559 11.2171 9.50382 8.0748 7.18596 6.31455 5.76275 5.61933 4.79073 2.02201 21.7897 56.2753 77.7372 93.3455 103.438 107.415 108.281 106.657 104.664 102.415 98.7822 95.2029 92.2973 90.3597 86.6772 82.9286 80.4126 76.5554 74.15 72.6276 69.736 66.5606 63.8717 61.844 59.4283 56.963 54.0143 52.0078 50.8749 48.5493 46.2586 44.4421 41.7889 39.53 38.4953 36.9512 34.8806 32.9388 31.8923 31.2602 29.8125 28.1867 26.7636 24.9059 23.2004 22.3496 20.8016 19.0062 18.9798 18.7697 17.0254 15.9711 14.65 12.9197 11.995 11.6442 11.2064 9.6383 8.73549 8.10548 6.39825 6.07043 6.2557 4.97606 2.07861 15.2763 41.0781 59.6592 72.9896 81.0004 85.0572 85.9307 84.9364 83.9964 81.7544 78.9456 76.7364 75.0869 73.5449 70.693 68.085 66.7364 64.7582 63.3659 61.4151 58.5913 56.4862 54.4305 53.4538 52.021 49.8627 47.7096 46.8157 45.7607 43.2514 41.3955 40.2503 38.7241 36.7119 35.5045 34.379 32.8677 31.4983 30.4758 29.3257 28.0454 26.8608 25.566 24.7099 23.2859 22.1187 21.3231 19.9697 19.4838 18.6543 16.8082 15.9424 15.2354 13.9261 12.6369 11.9247 11.1621 9.70056 8.65192 8.08246 7.24423 6.61129 6.43104 5.45659 2.30227 9.07641 28.5265 46.4559 58.8844 66.4767 70.6316 71.6932 71.4486 70.7949 68.7175 66.7352 64.9324 63.4953 62.5085 60.8791 58.9384 57.0677 55.5014 54.3606 52.5081 51.0326 50.1643 48.6133 47.3241 46.3703 44.9578 43.1875 42.0761 40.9449 39.6853 38.3436 37.3004 36.4572 34.9973 33.6248 32.3284 31.673 30.8023 29.6737 28.478 27.9787 26.7158 24.9666 24.396 22.9283 22.387 21.7302 20.2525 19.1309 17.8706 16.3758 15.6282 15.6335 14.6336 13.1094 12.3232 11.4147 9.90359 9.02454 8.57873 7.69309 6.70316 5.95029 5.22376 2.4357 5.4724 21.9874 40.9877 53.57 60.9007 64.8673 66.0558 66.0175 65.2768 63.3603 61.7211 60.2532 58.8183 57.6372 56.0638 54.4902 53.2765 51.9879 50.4231 48.8955 48.0693 47.3945 46.7276 45.4027 43.8914 42.8133 41.1912 39.7682 38.8184 38.4136 37.2447 36.2843 35.519 34.2737 33.3366 32.1565 31.2787 29.9466 28.7418 27.9114 27.397 26.2823 25.1645 24.3087 22.7098 21.885 21.0426 19.9604 19.0086 17.6337 16.4828 16.0368 15.2905 13.8745 12.9046 12.3607 11.7692 10.5136 9.55066 9.35844 8.03277 6.52058 5.03489 4.78519 2.74867 8.07767 26.9074 45.7073 59.2687 67.4158 70.8765 71.5958 71.3175 70.0046 67.7726 65.7772 64.1747 62.647 61.2805 59.1875 57.4136 56.3992 54.9955 53.4157 51.8865 50.881 49.6451 48.4032 46.9869 45.5688 44.54 43.3895 41.7383 40.5077 39.7243 38.1476 36.9616 36.0517 35.037 34.114 32.8851 31.5293 29.8421 28.2174 27.8187 27.1495 25.751 25.1197 24.4108 23.1906 21.5217 20.342 19.5494 18.977 17.752 16.3975 16.0966 15.3263 14.0695 13.0091 12.0282 11.5451 10.6259 9.5273 8.87143 7.43267 6.3961 5.83533 5.5484 2.80357 13.9842 39.4371 59.5121 73.8949 82.3385 85.7895 86.4725 86.0908 84.3783 81.3531 79.3185 77.0168 74.4374 72.8374 70.646 68.6473 66.29 63.9332 61.6273 59.2595 57.8367 56.4767 54.3414 52.5859 51.2154 49.3035 47.9212 46.3554 44.7043 43.2793 41.7671 40.0803 37.9727 36.6336 35.606 34.3992 32.7906 31.1424 29.8921 29.4038 28.3928 26.3665 25.7195 25.1415 23.9028 22.2146 20.9489 19.6823 18.5721 17.6525 16.4923 15.5873 14.9499 14.6449 13.7129 11.9197 10.663 10.1934 9.5285 8.19931 7.06398 6.97456 6.69062 6.02958 2.83599 20.3786 53.6635 77.2713 93.3656 101.988 105.567 105.861 104.876 102.789 100.412 98.2664 95.5007 92.1015 88.1525 86.0751 83.8845 79.789 76.4687 73.4181 71.3865 69.6242 66.832 63.4026 60.9363 59.0822 56.5447 54.6939 52.9816 50.6889 48.6223 47.2081 45.7153 42.7292 40.3276 38.8567 37.2721 35.7155 34.129 32.8286 31.6095 30.1905 28.3545 26.6733 25.4308 24.3662 23.0283 21.7559 20.4519 18.7568 17.8683 16.8815 15.1792 14.3062 13.8874 13.0023 11.9954 10.7858 9.87741 8.89397 7.80926 7.19277 6.81106 6.54111 5.99507 2.82248 28.6071 71.8116 97.7269 116.076 125.783 128.921 129.024 127.767 124.728 121.508 118.275 114.87 111.224 105.982 103.265 100.709 95.3248 90.6274 87.9148 85.9241 82.4289 79.0881 76.0896 72.4317 69.8753 66.7241 63.1168 60.4937 58.0428 55.9834 54.2242 51.9008 48.6581 45.8437 43.7451 41.7118 39.5221 37.0918 35.5772 33.5793 31.4563 30.4987 28.2653 26.1566 25.1642 23.4083 22.0551 21.7945 19.9732 17.9692 16.6622 15.3267 14.408 13.1675 12.288 11.8598 10.83 9.63351 8.44509 7.44385 6.6867 6.08402 6.05799 5.53062 2.47448 39.3908 95.5696 124.181 142.97 152.674 155.941 156.012 153.614 149.211 144.602 139.74 134.33 129.724 125.805 122.202 118.25 112.298 106.981 103.419 99.8186 95.4798 91.2864 88.116 84.4223 80.2628 76.4612 72.8544 68.9358 65.3275 63.3378 61.2224 57.6707 54.4304 52.0002 49.2793 46.2562 43.4338 40.6866 38.8303 36.1213 33.7443 32.2022 29.5901 28.1396 26.5606 24.4606 22.8242 21.8534 20.1362 18.0883 16.8696 15.0003 13.6 13.0844 12.2701 11.2947 10.4172 9.19589 7.81238 7.02696 6.6004 6.09502 5.51912 5.04011 2.50756 53.5137 124.631 155.693 174.315 181.891 184.409 184.228 180.626 175.946 171.535 165.903 158.54 150.962 145.911 141.002 136.077 130.083 124.459 119.358 114.852 110.976 105.656 100.321 96.4927 91.7707 87.0378 83.8348 79.2926 74.563 71.4225 67.5806 63.1888 59.8955 57.0619 53.821 50.1212 47.5462 45.3851 42.4828 39.4323 36.9221 33.9711 30.8616 29.1577 27.3367 25.6921 23.7074 21.1618 19.5354 18.4442 17.2013 14.8313 12.9766 12.5189 11.4147 10.3856 9.3861 7.65823 6.66461 6.44605 6.41527 5.74461 4.61951 4.39526 2.43865 73.5219 163.214 189.765 205.494 211.96 212.99 211.868 207.876 202.739 197.486 191.906 185.262 177.083 169.406 162.723 156.644 149.266 142.151 136.482 131.193 125.974 121.321 115.767 110.487 105.561 99.9394 95.4772 91.2823 87.0261 81.5615 76.2738 72.1086 67.0326 62.7889 59.2158 55.0118 52.5848 50.2242 46.333 42.7569 39.9629 36.7207 33.0615 30.5219 28.7833 26.9222 24.3694 21.6166 20.2115 19.4003 17.3285 14.9887 12.992 10.9952 10.2113 9.64405 8.40191 7.19282 6.54083 5.67902 5.37301 5.57349 4.39035 3.9318 2.19944 42.6455 92.801 103.72 109.927 113.404 113.944 112.809 110.43 107.246 104.217 101.556 98.9055 95.5164 91.2497 87.6065 83.8456 79.3498 75.3408 72.585 69.7361 66.6957 64.472 61.7833 58.59 55.6687 53.0198 50.8046 48.8369 46.8337 43.4281 40.7575 39.1743 35.9008 33.3195 31.3201 28.8701 27.7165 26.4281 24.2295 22.1075 20.9259 19.3537 17.0562 15.7968 14.8925 13.7925 12.2044 10.8754 10.344 9.97473 8.74697 7.41287 6.28909 4.91101 4.7871 4.73579 4.25042 3.87804 3.3137 2.58217 2.32773 2.79616 2.43439 2.03432 1.06429 49.9628 101.204 105.695 112.193 115.619 115.394 114.562 112.822 109.383 106.354 104.396 100.674 96.5321 92.9348 89.1215 85.8879 83.0141 80.3335 76.7397 72.8445 69.0655 65.1841 61.6836 58.8071 56.7345 54.0613 50.8632 47.7636 46.1571 44.8881 42.1804 39.3593 36.8059 34.3567 32.2974 29.9778 27.369 25.549 23.8397 22.0565 19.9658 18.3845 17.2351 15.8622 14.5403 12.8507 11.8413 10.7431 9.49388 8.5754 7.60132 6.95524 6.6392 5.57718 4.60139 4.46932 3.55215 3.1097 2.96765 2.74725 2.35249 2.2575 2.86931 2.43454 0.932359 83.3258 176.97 195.101 209.757 217.634 217.331 214.982 211.671 206.209 200.484 195.814 189.329 181.415 174.848 167.705 161.03 155.549 150.065 143.558 136.235 129.191 122.303 116.152 110.881 106.807 102.188 96.9549 91.574 87.4056 83.824 78.3326 73.7915 69.8777 64.8458 60.0319 55.5437 51.0939 47.4925 44.833 41.9162 38.3853 35.1384 32.2565 30.4001 28.0596 24.9018 23.0133 20.8898 18.8903 17.046 15.4525 13.8761 12.7795 11.539 10.1031 9.11448 7.19201 6.37401 6.06672 5.74039 4.82256 4.64687 5.69456 5.59197 2.65107 56.8666 131.637 160.78 178.746 188.428 189.933 187.822 185.897 181.507 175.836 171.26 165.952 158.575 152.506 146.596 140.682 135.363 129.505 124.188 118.582 112.234 107.202 102.849 97.4128 93.8792 89.8794 85.5633 82.015 77.795 73.2929 67.8681 64.2312 60.8994 56.576 52.736 49.1695 45.7837 41.8338 39.4202 37.9051 35.2754 32.174 29.6799 27.8434 25.8214 23.9664 21.8697 19.8233 18.456 16.9886 15.8129 13.957 12.9081 12.6059 11.0556 9.29943 8.25453 7.29238 6.46254 6.08152 4.97444 4.75994 5.18849 5.44735 2.86039 40.3175 97.7419 127.693 147.056 157.635 161.875 161.551 159.888 155.997 150.851 146.108 141.192 135.82 131.307 126.136 121.179 116.613 111.667 106.98 102.176 97.5605 93.045 89.298 84.6303 81.4017 77.7602 73.2908 70.4963 67.1281 63.3536 59.3535 55.6034 51.6753 48.7989 46.4811 43.9541 41.2386 37.9427 36.0462 34.4167 32.2787 30.0994 28.3974 26.3253 24.464 23.238 21.3416 19.7945 18.1627 16.7951 15.6573 14.5858 14.3053 13.5322 11.7861 10.415 10.1191 9.04593 7.17135 6.20577 5.9127 5.48888 5.22272 4.95546 2.27242 28.7785 73.2047 100.3 118.889 130.123 134.745 135.424 133.335 130.349 127.164 122.101 117.217 113.981 111.79 107.48 102.242 97.7619 93.2232 89.3005 85.9176 82.7485 78.6642 74.7352 71.6719 69.0232 66.32 62.5036 59.1116 56.6544 54.3516 51.6418 48.3488 45.3687 43.4708 41.1669 39.1453 37.0483 34.7144 33.5789 31.9609 30.9361 29.2713 27.0155 25.0729 23.4312 22.9611 21.5114 19.4988 18.5507 17.5062 15.4472 14.5765 14.1347 13.2712 12.7244 11.8205 10.9222 9.66862 7.63304 6.53217 6.45931 6.3107 6.05258 5.05341 2.14411 20.1856 54.389 78.4386 94.8922 105.083 109.027 109.33 107.943 105.662 103.103 99.6129 95.9578 93.1556 91.1211 87.5759 83.1321 79.6649 76.1329 73.4212 71.1435 68.2377 65.7525 62.8932 60.7237 58.7678 56.4646 53.6403 50.8102 49.3399 47.5061 45.074 43.3002 41.3178 39.0957 37.4877 36.1789 34.6169 32.4878 31.2051 30.4863 29.4746 28.2774 26.3402 24.0043 22.7443 22.3936 20.899 18.8984 19.1086 18.516 15.7977 15.0766 14.1314 12.815 12.3907 11.3869 10.5726 9.60826 7.93831 7.29925 6.99102 6.82222 6.75199 5.32006 2.21516 13.7716 40.0845 61.325 75.3958 83.8958 87.6084 87.6001 86.8763 85.7112 83.1452 79.9429 77.2704 75.4508 73.1875 70.1532 67.8725 66.0186 63.8599 62.117 59.4671 57.2508 55.644 53.7134 52.486 51.0398 49.1421 47.1765 45.2955 43.7331 42.0556 40.4361 39.4421 37.8731 35.8804 34.7215 33.5219 32.3626 30.9265 29.4552 28.3815 27.0203 26.5758 25.246 23.5969 23.07 21.4555 20.0509 19.1385 18.7591 17.7798 15.9022 15.8619 15.2004 14.0548 12.6026 11.1048 10.6128 9.93731 8.5171 7.70803 7.56345 7.05975 6.8348 5.8655 2.55391 8.90013 29.6768 49.5818 62.6061 70.3024 73.7215 74.1339 73.692 72.4155 70.3163 67.5281 64.8107 63.303 61.7256 59.7633 58.1633 56.492 54.6943 53.07 51.2282 49.8608 48.6315 47.2285 46.023 44.9581 43.6567 42.0224 40.5038 39.3911 38.3967 37.407 36.4102 34.9671 33.7822 32.8789 31.6777 30.5852 29.6107 28.6625 27.2722 26.4626 25.948 24.17 22.7858 21.9865 21.0132 20.5621 19.6468 18.5811 17.2619 15.9233 15.446 14.9059 14.6206 13.0785 11.7698 11.0934 9.75011 8.66625 7.92376 7.39698 7.10053 6.28446 5.42911 2.73232 6.62284 24.9146 45.0573 58.0692 65.1035 68.4004 68.8533 68.0969 66.5037 64.4533 62.4023 60.2892 58.6805 57.1434 55.1215 53.1621 51.7637 50.9558 49.5789 48.1644 46.9526 45.8713 45.2718 43.8131 42.5284 41.3582 39.8548 38.5332 37.6014 36.957 36.1978 35.2592 34.0796 33.1178 32.5529 31.3595 29.9981 29.0633 28.4002 27.4789 26.6041 25.3739 24.0849 22.9642 21.4878 20.9652 20.4498 19.5893 18.9093 17.6591 16.439 15.3703 14.1934 13.5113 12.4981 11.6889 11.2039 10.1153 8.99304 8.2957 7.56369 7.26036 6.04039 4.98387 2.64596 8.31481 28.6982 49.2727 62.8863 70.8205 73.872 73.8636 73.1636 71.3104 68.7327 66.3801 64.2593 62.5035 60.7811 58.4586 56.6077 54.8979 53.4942 52.6347 51.233 49.5668 48.3708 47.3523 45.6085 44.251 43.1503 41.695 40.0883 38.9083 38.4167 37.6259 36.2755 35.2944 34.3531 33.426 31.7935 30.2998 29.4116 28.3233 27.5313 26.4438 24.873 24.2494 23.9346 22.8602 21.3972 19.7988 18.9989 18.6616 17.4448 16.2976 15.5116 14.3692 13.3597 12.1566 11.1628 10.8057 10.4303 9.28108 8.05429 7.22433 6.5395 5.56728 5.17815 2.69741 13.4712 40.0095 62.0634 76.7189 84.8142 87.3101 87.8876 87.8833 85.2405 81.4844 79.1376 76.6773 74.2588 72.2635 70.0235 67.5738 65.162 62.8105 60.4932 58.4948 56.5375 55.0774 52.8621 51.0245 49.8301 48.5076 46.7496 44.7225 43.2549 42.2034 41.5376 39.7708 37.4916 36.2228 35.0981 33.3645 32.1046 30.928 29.8734 28.9603 27.0338 25.1992 24.5541 24.3962 23.1786 21.3002 20.1079 19.3105 18.7909 17.5713 16.2104 15.3025 14.5193 13.6055 12.395 11.2536 10.2715 9.81607 9.21399 7.84994 7.15491 6.33675 5.07392 5.47128 3.025 19.686 53.6366 78.771 95.0626 103.944 107.084 107.207 106.718 104.414 101.658 98.6301 94.9426 91.5941 87.9878 85.7046 82.9785 79.1992 76.1811 72.864 70.0038 67.7574 65.2797 61.8455 59.3861 57.5917 55.9646 54.1314 51.6619 49.3069 47.2493 46.0394 44.5116 42.0573 39.9953 38.082 36.277 35.0189 33.5519 31.9614 30.3915 28.5478 27.0805 25.7112 24.5968 23.1792 21.7431 20.6659 19.5608 18.744 18.1364 16.7748 14.7843 13.6546 13.1891 12.4877 11.302 10.2281 9.74195 9.09822 7.4402 6.85167 6.60538 5.46833 5.36498 2.85122 26.9885 70.6115 98.5906 116.095 126.266 130.873 130.832 128.835 126.673 124.231 119.908 114.916 110.087 105.551 103.613 101.155 95.7182 90.9331 87.9255 84.4402 80.9417 77.9753 74.4309 71.0016 68.4271 65.4264 62.2768 59.4493 56.2988 53.8043 52.0765 50.2484 47.9149 45.4081 42.7695 40.8377 38.6732 36.2503 34.1656 32.2038 30.7678 29.7071 27.5316 25.494 24.6399 23.2845 21.8384 20.6116 18.9588 17.6869 16.4982 14.9864 13.42 12.3922 12.5688 11.781 10.3333 9.63235 8.72761 7.06682 6.00104 5.89461 5.64502 5.16145 2.43953 37.5329 93.4368 123.732 142.359 152.535 157.012 157.087 153.946 150.43 146.324 141.026 135.171 129.812 125.58 122.217 118.967 112.737 106.721 103.448 99.0884 94.3969 90.5342 86.9021 83.083 79.3608 75.8404 72.6264 69.1764 64.3385 61.6915 59.6925 56.2325 53.5463 51.5384 48.8041 45.5034 42.5533 40.0675 37.4364 34.9099 32.7873 31.0714 29.1623 27.105 25.6576 24.0519 22.3801 20.8093 18.8382 17.2575 16.0089 14.9037 13.7188 12.3858 12.286 11.9335 10.3362 8.99959 7.89823 6.80464 6.23359 5.95455 5.82194 5.55407 2.66992 52.5089 123.186 154.683 173.539 182.45 185.486 184.566 180.72 176.957 172.608 166.173 158.495 151.826 146.937 140.996 136.189 129.937 124.219 119.879 114.158 109.157 104.464 99.7916 95.6656 91.1769 86.9398 83.4707 79.2812 73.9185 71.1148 67.519 62.482 59.3226 56.9319 53.4146 49.0737 46.5459 44.1305 41.2039 38.3845 35.6832 33.3175 31.0672 28.384 26.6901 25.0901 22.92 21.1285 19.261 17.9347 16.3173 14.4138 13.4411 12.6589 11.1115 10.1868 9.28898 7.96754 6.9428 6.47506 6.61709 5.83656 4.81574 4.82186 2.56644 73.4715 162.7 188.901 204.187 211.032 213.762 212.812 208.772 204.255 198.296 192.399 185.49 178.244 171.48 163.079 156.134 150.017 143.611 137.503 131.503 125.125 120.378 115.224 110.166 105.613 99.4534 94.2066 89.4212 85.3042 81.5358 76.3021 71.3861 66.6954 62.5689 58.6419 54.2539 51.6922 48.6696 45.5144 42.4457 39.5813 36.9164 33.3488 30.273 28.9573 26.9369 24.4556 22.5826 20.7369 18.7623 16.2194 14.1118 12.5447 11.1883 10.1868 9.41352 8.32213 7.4376 6.56975 6.18994 5.72148 4.51378 3.20444 3.30593 1.96449 42.7632 92.3978 102.997 109.16 112.287 113.934 113.421 111.327 108.368 104.49 102.177 99.6611 96.4563 92.518 87.5337 83.4274 80.4312 76.7273 73.2571 70.5426 66.8088 64.2129 61.5587 58.6187 56.112 52.8436 50.1094 47.5603 45.7093 43.306 40.3696 38.3693 35.6756 33.0138 31.0768 28.7323 27.2134 25.8384 24.0451 22.0381 20.6749 19.4012 17.2214 15.8112 15.0495 13.8021 12.5271 11.3377 10.5437 9.51792 7.90288 6.87213 5.9534 4.95275 4.91793 4.89356 4.22982 3.84849 3.23215 2.90175 2.46791 1.95554 1.49546 1.46048 0.886329 49.9229 101.007 105.636 111.633 114.762 115.431 114.41 112.719 109.929 106.638 104.186 100.851 97.2533 93.805 89.8052 86.3365 83.2136 79.8208 76.747 73.1194 68.8844 64.6855 61.4139 58.8044 56.5107 54.3091 51.6643 48.8554 46.0745 43.6684 41.1049 38.7791 36.6702 34.0071 31.9637 30.015 27.3201 25.4863 23.8478 21.6895 20.0674 18.4575 17.0685 16.0635 14.6663 12.8925 11.4899 10.624 10.2373 9.04615 7.56999 6.71545 6.04011 5.41962 4.5125 4.19909 3.90645 3.16686 2.68592 2.87978 2.64287 2.52327 2.99551 2.47854 0.923426 83.2773 176.735 195.011 208.52 215.443 216.968 215.688 212.658 207.089 201.561 196.191 189.23 182.868 176.21 168.283 161.499 155.6 149.807 143.48 135.716 128.486 121.58 115.885 110.932 106.271 102.009 97.0748 92.6684 87.5458 81.9271 77.2213 72.8423 69.129 65.2688 60.8955 56.1188 51.663 48.1029 44.8962 40.9549 37.8705 34.9159 32.0537 30.6723 28.6929 25.5804 22.4586 20.9817 20.0491 17.5835 15.3445 13.4314 12.1385 11.4052 10.0749 8.88565 7.45002 6.37153 5.75836 5.95841 5.44528 5.12483 6.04124 5.62388 2.46387 56.4169 130.851 160.454 178.569 187.311 189.686 189.213 186.776 181.426 177.124 172.305 166.055 160.019 153.632 146.639 140.988 136.047 130.235 123.949 117.814 112.769 107.482 102.436 97.6009 93.9626 89.6505 84.8884 81.2721 77.1191 71.974 67.6919 63.9539 60.41 57.2915 53.1932 49.0207 45.7206 41.9839 39.1994 36.7979 34.8213 32.157 29.5614 28.0841 26.3002 24.4393 21.8242 20.3426 19.1497 17.2529 15.7918 14.0336 13.276 12.9296 11.5525 9.41666 7.58481 6.96246 6.11953 5.8493 5.34535 5.42542 5.95957 5.41827 2.61303 39.5027 96.3753 127.209 147.627 157.869 162.489 162.861 160.479 156.169 151.874 147.738 142.801 137.276 132.282 126.014 121.183 117.69 112.372 106.75 102.232 98.8277 93.814 89.2448 85.2906 82.162 77.7492 72.992 69.2347 65.9889 62.6486 58.5209 55.501 52.2227 48.7276 45.7183 43.4229 40.6573 37.3012 35.2594 33.5337 32.3663 30.4272 28.1791 26.2791 24.2318 22.9678 21.6927 20.1291 18.2559 16.9648 15.3751 13.9656 14.177 13.6688 11.6567 9.71824 8.95897 8.31132 7.2242 6.37675 5.64068 5.37557 5.35247 4.90625 2.24463 27.7495 71.8394 100.322 119.155 130.201 136.081 137.005 135.051 131.695 127.955 124.029 119.107 114.718 111.898 107.277 101.933 97.7121 93.5566 89.0555 85.473 82.9039 79.0495 75.0448 72.0995 69.2425 65.5059 62.509 59.4515 56.044 53.3522 50.6349 48.2091 45.7151 42.9217 40.8685 39.2661 36.762 34.1696 32.708 31.1803 30.1793 28.6971 26.6956 25.2081 23.4468 22.6114 21.641 19.7081 18.362 17.3609 15.1664 13.3277 13.6303 13.4966 11.9929 10.3303 9.57682 9.14154 8.24822 7.20821 6.38016 5.46967 4.94925 5.0378 2.38484 19.4418 53.5919 78.8417 95.7 105.693 109.978 110.329 109.504 106.966 103.63 100.803 97.4468 93.7308 90.8419 87.7979 83.5342 79.005 75.8111 72.8343 70.2347 67.9574 65.2554 62.0975 60.0364 58.2541 55.4427 53.7537 51.0009 47.9188 46.2901 44.5872 42.8367 41.0184 38.4799 37.0441 36.081 34.1108 31.995 30.9815 30.1967 28.8631 27.3657 25.5813 24.2325 23.3992 22.5183 21.0368 19.0185 18.5409 18.0492 15.7891 14.4395 13.7934 12.9856 12.1479 10.4387 9.86095 9.59062 8.19042 7.32965 6.9633 6.42326 5.51727 4.91124 2.34172 13.2231 40.0301 62.7157 77.2496 85.5586 88.9353 88.8934 88.1651 86.433 83.7233 81.1266 78.7002 75.7635 72.6906 69.9111 67.3983 64.9423 62.9641 61.201 58.846 56.668 54.6108 53.0209 51.6446 49.8117 47.944 46.4257 43.878 41.8289 41.1825 40.187 39.0118 37.3904 35.724 34.5059 33.3247 32.0772 30.7229 29.6747 28.2992 26.7497 26.2124 25.0073 23.712 23.3345 21.4561 19.8473 18.7411 17.7458 16.8734 15.404 15.372 14.3544 13.3158 12.1662 10.5963 10.5361 9.71817 8.85821 7.90578 7.09771 6.8883 6.0606 5.421 2.73647 8.85059 30.9094 52.4226 65.416 72.7096 75.7814 76.0753 75.0787 73.152 71.2798 68.756 65.543 63.0416 61.2807 59.0195 56.7882 55.4216 53.882 52.0957 50.873 49.2491 47.5349 46.9371 45.5384 43.6957 42.4234 41.2989 39.7791 38.1658 37.2529 37.1095 36.1385 34.3748 33.4929 32.654 31.3292 30.0184 29.1878 28.2 26.3573 25.5273 25.5754 24.3579 22.9619 21.9689 20.5574 19.4884 18.8234 18.0143 16.6717 15.4412 14.8273 14.0444 13.7837 12.4232 11.4793 10.9826 9.51087 8.90561 8.10434 7.39042 7.34825 6.21241 5.58374 3.08966 7.02754 26.8212 48.1834 60.9968 67.4688 70.2702 70.6882 69.5419 67.3966 65.3586 63.1278 60.7257 58.787 56.944 54.5607 52.456 51.2531 50.0859 48.3943 47.7732 46.4656 44.6805 44.2931 43.01 41.5695 40.3523 39.2515 38.2405 37.121 36.0081 35.4216 34.6243 33.3304 32.3762 31.7857 30.6842 29.3471 28.598 27.7319 26.4374 25.6543 24.7633 23.3862 22.3562 21.3886 20.6629 19.4822 18.7306 18.4127 17.59 16.1742 14.3091 13.5838 13.0887 11.9103 11.539 10.836 9.56032 8.81695 8.00177 7.47445 7.3359 6.06353 5.1073 2.64178 8.48289 29.9955 51.9604 65.2596 72.3648 76.0694 76.5919 74.581 71.7414 69.2066 66.8899 64.7097 62.5273 60.3114 57.91 55.9059 54.3554 52.7615 51.5393 50.7001 48.8673 47.1987 46.2515 44.8765 43.5229 42.2191 40.6288 39.0138 38.2699 37.7202 36.8272 35.6715 34.4044 33.3936 32.7791 31.3437 29.7815 28.9802 28.02 26.9385 25.678 24.2098 23.336 22.9849 22.1395 20.9154 19.7307 18.7895 17.8086 17.128 16.0396 14.8684 14.1547 12.9067 11.9662 11.405 10.0852 9.33936 9.1908 7.94291 7.18045 6.56609 5.2708 4.8946 2.51074 12.9345 40.1287 63.7934 78.1382 85.7762 89.3061 90.469 89.5294 85.9435 81.7857 79.4494 76.9512 74.0908 71.9362 69.307 66.9152 65.0148 62.4692 60.1624 58.0841 55.576 53.8531 52.5283 51.0279 49.4643 48.0034 45.7294 43.6701 42.65 41.6464 40.5078 38.748 36.834 35.5928 34.754 33.1985 31.6224 30.6808 29.8691 28.2785 26.1303 24.9127 24.099 23.6605 22.6418 20.8598 19.8772 18.9839 17.7474 17.0699 15.99 14.9824 14.4227 12.9503 11.7197 11.0055 10.0544 9.38928 8.81242 8.02105 7.71879 6.85596 5.22547 4.93611 2.65563 18.4365 52.9367 79.8457 95.991 104.471 107.779 108.941 108.889 105.86 101.415 98.4524 95.7139 91.9196 88.8828 85.5722 82.256 79.02 75.6801 73.0787 69.8691 66.4868 64.3698 62.1838 59.3875 57.3087 55.9181 53.6004 51.1693 49.4066 47.3855 45.3829 43.6535 41.7569 39.751 37.6704 35.8696 34.7421 33.3659 31.7815 29.9609 27.6854 26.2731 25.2452 24.1862 22.9157 21.2992 20.1625 19.2513 17.9998 17.4648 16.2689 14.5812 14.0526 13.2597 11.6466 10.3067 9.91238 9.22519 8.24553 7.58123 7.40633 7.10953 5.92975 4.80858 2.20262 25.999 69.6296 98.7383 116.278 126.627 131.611 132.127 130.089 127.547 124.254 120.055 115.976 111.376 107.521 103.347 99.2883 95.0873 90.8048 87.9683 83.9126 79.8802 77.1332 73.2531 69.6776 67.5861 64.8944 61.5543 58.7405 56.2097 53.573 51.1073 48.945 47.1197 44.6906 41.7203 39.9087 38.1479 36.1074 33.544 31.5937 30.2644 28.4502 26.423 24.9243 23.8132 22.5054 21.7332 20.2775 18.1243 17.0934 16.0471 14.9009 13.912 12.6584 11.9652 10.6819 9.4901 8.69697 7.74296 7.04575 6.67642 6.09393 5.64935 5.38526 2.50654 37.1382 92.5319 122.815 142.026 153.598 158.784 158.102 154.623 151.466 148.077 142.383 135.866 130.917 126.782 121.864 118.095 113.401 107.651 103.621 99.161 94.4377 89.6998 85.0022 81.0976 78.4734 75.287 72.0164 68.7866 64.1901 61.0725 58.4019 54.752 52.4794 50.3811 47.3663 44.8132 42.0164 39.7912 37.2349 34.159 31.9567 30.2217 28.3742 26.8883 24.939 23.0154 22.2787 20.3031 18.0774 16.7515 15.3222 14.5013 13.6159 11.974 11.4512 11.1758 9.61722 8.3771 7.59044 6.97852 6.90552 5.99851 5.49585 5.99605 3.06867 52.4293 122.682 153.911 173.351 183.12 186.803 185.678 181.819 177.696 174.059 167.507 158.966 152.802 147.626 141.022 136.789 131.693 125.179 120.086 114.657 109.387 104.021 99.2789 94.2728 90.512 87.0056 83.5691 79.5135 73.5028 70.7544 67.0224 62.0981 59.0305 56.4391 52.9483 49.1759 46.7871 43.8048 41.2525 38.2 34.9387 33.0901 30.7585 28.491 26.4325 24.1978 22.4614 20.9088 18.9967 17.0517 15.5794 14.2945 13.4834 12.4988 10.8912 9.8349 8.72297 8.13132 7.48833 6.80698 7.05424 5.84022 4.72426 5.24144 2.83833 73.2657 161.957 188.346 204.274 211.253 213.587 213.03 209.606 204.438 198.693 192.786 185.678 178.931 172.65 163.47 156.512 151.066 143.263 137.293 131.954 125.483 120.798 115.394 109.264 105.522 100.056 93.9333 88.9171 83.6787 80.3688 76.0224 70.8702 66.6587 62.8842 58.8587 54.764 51.8817 48.4246 45.4352 42.6487 39.2025 36.6686 33.5359 30.4374 28.6194 26.2499 24.0571 22.5686 20.4222 17.5991 16.0722 14.2283 12.8189 11.9561 10.0801 8.82562 7.76632 7.73886 7.31289 6.40461 5.72592 4.31432 3.2136 3.75631 2.34338 42.693 92.0438 102.697 109.443 112.576 113.311 113.133 111.727 108.814 104.838 102.214 99.6546 96.4015 93.1895 88.0612 83.6684 80.5952 76.1106 73.1295 71.0609 67.2612 64.7349 61.7282 58.2855 56.5506 53.4393 49.7065 46.9483 44.6147 42.5068 40.3955 37.8963 35.5441 33.3362 31.2467 29.1485 27.087 25.595 23.9813 22.2733 20.3444 18.9171 17.6637 16.1426 14.8825 13.4786 12.5492 11.5484 10.3922 8.87434 7.92991 6.90737 6.09272 5.58211 4.73601 4.63137 3.92602 3.69794 3.64571 2.95777 2.2679 1.82769 1.40586 1.45491 0.965244 49.5477 101.437 106.574 111.113 113.792 114.623 114.053 112.457 109.963 106.475 102.474 99.8681 97.1183 93.6882 90.3061 86.6818 83.1511 79.166 75.9597 72.9689 69.5743 65.1394 61.5112 59.737 56.818 53.8231 51.5466 49.2453 46.0707 42.8817 40.9291 38.576 36.3234 34.2093 31.7223 29.9823 27.5618 25.6361 24.3738 21.7762 19.7826 18.3953 16.8912 15.3327 14.0909 12.9176 11.7917 10.7957 10.1343 9.23347 7.74147 6.34135 5.4535 5.20507 4.32358 3.79108 3.78947 3.34151 2.79375 2.85992 2.97061 2.65213 2.6858 2.46565 0.997524 82.6982 176.598 195.534 207.668 213.621 215.344 214.939 212.691 207.421 201.137 194.742 189.057 183.326 176.336 169.278 162.38 155.724 149.294 143.195 136.173 129.676 122.075 115.746 112.256 106.961 101.399 97.1704 93.0602 87.6535 81.9663 77.4786 72.7206 68.9077 65.5929 60.7531 56.0707 51.6791 48.5896 45.6609 40.9048 37.4346 34.6329 31.4454 29.1259 27.682 25.287 22.5364 21.2633 20.2173 17.8279 15.3613 12.9159 10.9614 10.8697 10.1415 9.03156 7.95848 6.75947 6.12422 5.85881 5.5028 5.24318 5.30195 4.73538 2.03414 56.3215 130.389 160.467 178.57 185.904 188.444 188.905 187.036 181.901 177.127 172.8 166.826 160.174 153.821 147.888 142.25 136.393 130.938 125.156 118.924 114.02 108.04 103.007 99.1155 94.655 89.9306 85.9082 82.035 77.7305 73.2299 68.668 63.9918 60.4847 57.6965 53.3003 49.0099 45.7579 43.0366 39.7069 36.3412 34.1779 31.5766 28.6888 26.7251 25.5738 23.3323 21.1544 20.5063 19.0865 16.635 15.4076 14.0166 12.0567 11.8652 11.9608 10.1559 7.96635 7.01541 6.55873 5.78523 5.085 5.12031 5.14282 4.85565 2.33464 39.1378 96.4422 128.272 148.78 158.177 162.638 163.356 160.445 156.291 151.9 147.348 143.126 137.729 132.039 126.736 122.049 117.622 112.698 107.508 103.16 99.542 94.844 90.9183 86.795 82.8418 78.3153 73.8781 69.9497 66.592 63.2099 59.344 55.8397 52.3942 49.3309 46.2743 43.6113 40.856 38.0766 35.3586 33.2473 31.69 29.8152 27.4844 25.2205 23.806 21.8296 20.5766 19.7574 17.8784 16.6094 15.4272 14.2192 13.3013 12.6692 11.8201 9.50685 8.22656 7.79198 7.33322 6.75141 5.63957 4.74406 4.64061 5.09454 2.50573 26.9432 71.5776 101.233 120.707 131.649 137.09 138.442 136.055 131.638 127.39 123.409 119.935 116.766 112.578 107.547 102.619 98.0544 93.8261 89.5034 86.0321 83.1423 79.3929 75.8671 72.4768 69.3196 65.3617 62.3505 59.2393 56.2991 53.6839 50.7896 48.5031 45.3663 42.9873 41.6738 39.1182 36.4236 34.4095 32.6952 30.9325 29.0608 27.7335 26.1081 24.7542 23.5343 22.0915 20.7038 19.0171 17.5707 17.0285 15.4694 13.8871 13.9232 13.4735 11.699 9.93456 9.23805 8.77598 8.37063 7.48047 6.40286 5.15639 4.76065 5.0754 2.36993 18.7087 53.0508 79.5031 96.8738 106.512 110.74 111.85 110.626 106.985 103.588 100.651 97.2503 94.3518 91.3168 88.0644 84.4139 80.0424 76.2354 72.8332 70.6396 68.477 65.0305 61.833 59.7492 57.3822 54.3583 52.7905 50.6035 48.2842 46.4613 44.471 42.627 40.1446 38.2652 37.3783 35.6051 33.745 32.314 31.0203 29.3902 27.5224 25.9663 24.6648 23.8487 22.924 22.1628 20.8913 18.5699 17.3538 17.313 16.0686 14.4556 13.5308 12.8241 11.7131 10.3927 9.48029 8.78025 8.36189 7.14708 6.46073 6.29414 5.51105 4.82978 2.21387 12.6398 39.6253 63.6437 78.4473 86.2583 89.9351 90.1944 88.6037 86.8341 83.9597 80.853 78.477 75.1275 72.2028 70.1086 67.7211 64.97 62.3039 60.7834 59.4731 57.3204 54.9482 52.8448 51.0841 48.7686 46.7256 45.5596 43.8705 42.1955 41.262 40.1336 38.7622 36.7791 35.2555 34.4071 32.9777 31.8316 30.649 29.2415 27.8745 26.7866 25.4036 24.4055 23.3075 21.9925 21.1527 20.2304 18.4509 17.173 17.1598 16.0781 14.7238 13.1939 12.2094 11.6452 10.836 10.4143 9.24128 8.68963 7.88043 6.98006 6.95797 5.708 4.5035 2.19325 8.65259 31.1767 53.87 67.1217 73.9667 77.1161 77.3113 75.7133 73.8898 71.4422 68.7497 66.0666 63.0046 61.0186 59.2326 56.8832 54.5558 52.6313 51.5919 50.7933 49.4244 47.9219 46.8467 44.8593 42.6164 41.3585 41.0187 40.0546 37.9087 37.1606 36.8488 35.6956 33.9566 32.8574 32.1948 30.8092 29.8459 28.686 27.3574 26.3363 25.5478 24.8059 24.4199 23.4566 21.5808 20.3633 19.16 17.9921 17.1634 16.5001 15.6827 14.663 13.4766 12.4966 11.9833 11.8215 11.2758 9.82995 9.05088 8.36393 7.32158 7.26397 6.29391 4.99185 2.4511 7.25738 28.0161 50.0575 62.7296 69.172 71.7734 71.8228 70.343 67.8911 65.5172 63.1371 60.576 58.5581 56.363 54.2512 52.6789 51.0691 49.2688 47.5711 46.957 45.7903 44.0704 43.5287 42.3707 40.8494 39.5289 38.7417 38.0269 36.7343 35.7163 34.7145 34.2882 33.1466 31.6643 30.8894 29.7591 29.0689 28.1554 26.945 26.4079 25.3232 24.1948 23.5137 22.7768 21.3977 19.7978 18.3825 17.6911 17.5239 16.9033 15.6679 14.1775 13.3733 12.6669 12.1967 11.5779 10.6325 9.53391 8.82284 8.14157 7.29418 6.74806 5.81482 5.27416 2.55585 8.64987 30.7334 52.9016 66.5184 73.6485 76.9684 77.7868 75.9509 72.7529 69.6257 66.9201 64.5866 62.2366 59.6705 57.4141 55.7575 54.6235 52.9198 51.0923 49.8565 48.0246 46.5874 45.624 44.5862 43.4645 41.9804 40.3776 38.7982 38.1923 37.5353 36.0926 35.111 33.6676 32.3281 31.7457 30.399 29.4306 28.6476 27.4466 27.037 25.8842 24.2026 23.2568 22.6577 21.3154 19.549 19.0869 18.3723 17.1807 16.6797 15.4926 14.2492 13.9177 13.1092 12.6399 11.8894 10.3612 9.29917 8.72262 8.00882 7.74343 6.95424 5.30355 4.79359 2.36564 12.1756 39.3979 63.364 78.5982 86.7893 89.852 91.0539 90.1168 87.0739 82.7926 79.8378 77.3081 74.1419 71.6772 68.9533 66.7324 65.6457 62.7373 59.6243 57.6664 55.2354 54.0471 52.9085 50.8102 49.1645 47.5101 45.4994 43.6774 42.2808 41.1672 39.7838 37.8956 36.0529 34.8598 33.8779 32.2269 30.9475 30.1848 29.082 27.7564 26.3958 25.0302 23.8802 23.1199 21.7025 19.8773 19.2844 18.3275 16.6923 16.0278 15.5011 14.7803 13.9399 12.8551 12.2142 11.658 10.4264 9.34455 8.83814 8.37303 7.78669 7.27217 6.18284 4.97174 2.31514 17.3227 51.7419 79.0186 95.7114 104.524 107.794 109.062 108.55 105.995 101.675 98.4599 95.6443 92.2264 88.9992 84.9135 81.6351 79.2363 75.3043 72.1673 69.6746 66.3496 64.4654 62.1749 58.8815 56.844 55.2131 53.2597 51.5027 49.6944 47.3608 45.0149 43.2455 41.0671 39.0797 37.3612 35.3883 33.786 32.5994 31.1629 29.5001 28.1794 26.477 24.8864 23.8877 22.5782 20.9711 19.6581 18.6752 17.4482 16.487 15.8732 14.7709 13.9205 13.1774 11.5924 10.6143 10.5426 9.26659 8.29303 8.39091 7.40494 6.67936 6.40398 5.47825 2.4215 25.2586 68.5409 98.1598 116.388 126.576 130.914 131.538 129.865 127.092 123.432 119.43 115.679 111.979 108.22 103.018 98.7736 94.8748 90.7068 88.04 83.8992 80.2869 77.4786 72.8797 69.4406 67.6882 65.1218 61.4806 58.7686 56.8424 54.4479 51.7751 49.058 46.8445 44.3793 41.8506 40.0772 37.9175 35.9411 33.7558 31.9775 30.6365 28.1612 26.3475 25.5431 24.1651 22.5583 21.7806 20.6161 18.3857 16.7827 15.7025 14.4544 13.8422 12.7716 11.1405 10.3125 10.3586 8.81837 7.50055 7.81012 6.91872 6.10532 5.91979 5.61025 2.6667 36.6345 91.6547 122.315 142.361 154.213 158.548 158.224 155.277 151.684 148.136 142.256 136.427 131.728 127.179 121.854 118.094 113.722 108.217 104.4 99.8059 95.5974 91.0294 85.2004 81.3658 79.2037 76.0312 71.6489 67.5862 64.2269 61.3502 58.7488 55.4904 52.8928 50.2478 47.5701 45.674 42.6502 40.0808 37.8019 34.9988 32.6882 30.1894 28.2281 27.3084 25.5191 23.4037 22.5669 21.0632 19.1142 17.0613 15.0561 13.9267 12.8712 11.6014 10.5794 10.4237 10.02 8.28096 7.20775 6.98197 6.55464 6.0755 5.78079 5.91929 3.03307 52.0687 122.251 153.417 173.295 183.115 186.592 186.245 182.579 178.239 174.441 168.204 160.429 153.431 147.416 140.995 136.944 132.382 125.964 120.645 115.423 110.783 105.489 99.4084 94.5513 91.7312 87.6615 83.2978 79.1462 74.2394 70.4705 66.6217 62.5626 58.689 56.396 54.0277 50.4895 47.2125 44.1921 42.2169 39.3107 35.4294 33.0274 30.655 28.649 26.6819 24.1416 22.3799 21.031 19.771 17.5142 15.508 13.8158 12.2995 11.4324 10.5015 9.8751 8.67078 7.85834 7.46209 6.49975 6.34433 6.06185 5.61366 5.78065 3.00212 72.9606 162.399 188.794 204.366 211.389 212.558 211.917 209.072 203.983 198.55 192.907 186.318 179.451 173.26 164.882 157.553 150.866 143.25 137.361 131.386 125.684 121.172 115.512 109.644 106.491 101.045 94.5783 89.4744 84.5734 80.4571 75.6212 70.9331 67.022 63.907 59.9049 55.2467 52.3979 49.6871 46.8558 43.6949 39.306 36.6716 33.8231 30.7634 28.5922 25.9841 23.7391 22.0599 20.242 17.8201 16.366 14.3193 12.967 11.9008 10.2881 8.85477 7.34064 7.87686 7.89317 6.14938 5.16382 4.95935 4.72146 4.7477 2.4856 42.5526 92.5622 103.291 109.553 112.794 112.484 112.191 111.27 108.369 104.919 101.89 99.3768 96.758 93.8523 89.3074 84.3666 79.8504 75.6385 72.8657 70.1456 66.6226 64.52 61.9 58.5506 56.8106 54.0375 50.3378 47.0204 44.7327 42.6421 40.2043 38.0254 36.3662 34.1608 31.4333 29.1634 27.6694 26.4762 24.6473 22.7325 20.6598 19.2381 17.7188 16.0607 14.8589 13.6814 12.5074 11.3176 10.2607 9.01356 8.25168 7.32283 6.8643 6.1691 5.0763 4.39374 3.70907 3.95589 3.95042 2.82178 2.00908 2.13961 2.12893 2.05338 1.07551 49.4406 101.545 107.048 111.021 113.3 113.929 114.053 112.8 109.749 106.652 102.796 100.099 97.5436 94.2957 90.5266 86.8075 83.5607 79.6128 76.3496 73.335 69.9663 65.9241 61.9059 60.1177 57.7971 54.0785 51.469 49.3025 46.7285 43.572 41.3461 39.1892 36.2105 34.0683 32.2253 30.2315 27.698 25.872 24.5891 21.9274 19.6693 18.4245 16.9912 15.4195 13.9846 12.7365 11.6313 10.7121 9.87904 9.01196 7.45727 6.74322 6.34755 5.2843 4.69851 4.00951 3.50286 3.21319 2.98344 2.74042 2.40172 2.60784 2.66058 2.29469 1.06777 82.6855 176.541 196.256 208.522 213.82 215.114 214.979 212.551 207.28 200.987 194.378 189.564 183.702 176.891 169.932 163.604 157.37 149.739 143.912 137.754 131.671 124.597 116.946 112.895 108.364 102.155 97.6671 93.0596 88.1585 83.1322 78.6417 74.1954 68.9466 64.9517 60.5805 55.8342 51.3267 49.0871 46.3516 40.9406 37.1753 34.3522 31.3995 29.2915 27.1631 24.442 22.2605 20.662 19.483 17.3642 14.4289 13.0152 11.9755 10.8503 9.73631 8.68999 7.94453 6.95066 6.33584 5.64846 4.96207 5.12133 4.9625 4.55056 2.25646 56.3225 130.564 161.551 179.466 186.792 189.716 189.203 186.892 182.466 176.952 171.88 166.877 159.975 153.388 148.09 142.604 136.929 131.247 126.247 120.824 115.834 110.065 104.062 99.8666 95.6804 90.7018 86.4942 82.2624 77.9809 74.1844 69.7844 64.6949 60.2072 57.1767 52.9226 48.7233 45.8167 43.9269 40.9517 36.3583 33.5919 31.2687 28.448 26.7406 25.5919 22.846 20.522 19.7082 18.4084 16.3223 14.892 13.6182 12.1082 11.2652 10.1816 9.12525 8.49816 7.24799 6.6556 5.89498 5.07847 4.91916 4.30394 4.61622 2.5932 38.8381 96.5129 129.277 149.05 158.752 163.365 163.19 160.763 157.182 152.529 147.283 142.651 136.951 131.304 126.81 121.819 116.777 112.577 108.179 103.679 99.7342 95.2475 90.9408 87.1799 83.6313 78.5118 74.0616 70.7042 67.0894 63.9204 59.985 55.5591 51.5543 48.9647 46.5625 43.8137 41.7241 39.0734 36.426 33.4791 31.3223 30.0528 27.3011 25.1455 23.9704 21.5671 19.5289 18.9236 17.2658 15.9636 15.5672 14.3949 13.0103 11.9856 11.0342 9.38429 8.27834 7.3504 6.83758 6.61574 5.82528 5.16788 4.52807 4.662 2.50016 26.6499 71.3515 101.688 121.321 131.977 137.024 138.438 136.325 132.486 128.173 123.617 120.052 116.893 112.452 107.542 103.543 98.6351 93.6332 90.1445 86.9469 83.1923 79.0185 75.3621 72.2963 69.7874 65.7735 62.1364 59.2151 56.9728 54.3287 50.7257 48.357 45.1969 42.7076 41.3928 39.2465 37.3703 35.0268 33.3051 31.0521 28.7206 27.7743 25.8096 24.2898 22.9247 21.1406 19.4403 18.1931 17.1297 16.1702 15.0964 14.2713 13.4752 12.7123 11.667 10.2448 9.26743 8.25999 7.34568 6.79523 6.25473 5.59062 5.23555 4.71571 2.1229 18.4615 53.159 80.1017 97.4445 106.709 111.207 112.956 111.505 107.666 104.076 100.828 97.1944 94.7158 91.3524 87.4888 84.879 81.4098 76.6659 73.2894 71.2303 68.6349 65.2013 61.8472 59.7897 57.4631 54.6578 52.37 50.0902 48.7166 46.4167 43.9869 42.6741 40.2981 38.2329 36.8101 35.233 34.1732 32.7793 31.2282 28.7451 26.329 25.2208 24.0548 22.9949 22.3019 21.7421 20.1169 18.2874 17.2925 16.5287 15.3811 14.6268 13.727 12.431 11.2781 10.4795 10.2299 9.01226 7.78376 6.67401 5.76876 5.73099 5.41235 4.93593 2.36834 12.7022 40.0255 64.0006 78.7316 86.5538 90.2127 90.8056 89.2045 86.9442 84.0098 80.8315 77.9226 74.9222 72.1404 69.8873 68.0232 65.9018 62.7173 60.6991 58.9972 57.4868 56.0395 53.4754 51.2767 48.6932 46.7521 45.6776 44.1891 42.282 40.708 39.5736 38.2478 36.3495 34.7482 33.639 32.1125 31.2522 30.5578 29.1957 27.3175 25.7421 24.7345 23.7822 22.6489 21.8174 21.4759 20.4184 18.4722 17.26 16.9338 16.0456 14.7555 13.6639 12.6706 11.7091 10.9034 10.4645 9.45531 8.34507 7.44466 6.80422 6.75369 5.73199 4.84032 2.36521 8.92209 31.4691 53.9118 67.4697 74.5159 77.4653 77.6284 76.0661 73.9904 71.2357 68.252 65.6627 63.0207 60.842 59.0623 57.0518 54.7701 52.7118 51.7874 50.6298 49.2858 48.3283 46.5901 44.4741 42.7803 41.6575 41.0657 39.9559 37.7973 36.8454 36.1394 34.6855 33.2391 32.3778 31.4888 30.4676 29.7868 28.3561 27.627 26.7416 25.2569 24.2607 23.7076 22.8877 21.6794 20.6007 19.5656 18.1255 16.898 16.643 16.031 14.7117 13.4944 12.849 12.1846 11.335 10.6787 9.90308 8.87667 7.93332 7.32617 7.49599 6.81202 5.26426 2.33126 7.7 28.7707 50.5414 63.5033 70.2969 72.714 72.5025 71.0734 68.4308 65.6482 62.8723 60.1567 58.2809 55.9552 53.932 52.4729 50.6758 48.9342 47.4767 46.3763 45.3326 44.0948 42.7852 41.6922 40.8028 39.4418 38.2556 37.2583 36.0007 35.3116 34.2785 33.5839 32.6833 31.2887 30.2476 29.6193 29.2231 27.9455 27.0013 26.5184 25.355 23.9616 23.0557 22.3234 21.3179 19.7195 18.5422 17.9497 16.9666 16.4241 15.5785 14.329 13.0982 12.5995 12.3438 11.2582 10.6023 9.73808 8.92293 8.31721 7.42477 7.09888 6.45001 5.63347 2.73414 9.15228 31.7029 53.2045 66.8805 74.9062 77.915 77.7017 75.905 73.4717 70.8053 67.6107 64.4585 62.0832 59.4238 57.3776 55.7515 54.2693 52.5918 50.7153 49.1659 47.7017 46.879 45.3849 43.9402 43.0448 41.8588 40.5416 38.8538 37.7631 36.8203 35.2333 34.6679 33.6851 32.1063 31.0667 29.8461 29.2795 28.4978 27.6986 27.2475 25.7679 24.3188 23.417 22.6632 21.4041 19.4862 19.295 19.0064 17.336 16.4292 15.2413 14.1191 13.7703 13.1775 12.5497 11.7477 11.1621 10.0425 8.88271 8.42454 7.92655 7.35184 5.98797 4.90222 2.35486 12.5132 39.4911 62.6695 78.3597 87.5482 90.417 90.6797 89.4452 87.5911 84.512 80.6065 76.837 73.3843 70.9845 68.8477 66.3625 65.0525 62.6323 59.2645 57.2102 55.4544 54.4455 52.3046 49.9141 48.481 47.2254 46.1403 43.7743 41.7832 40.5447 38.9116 37.6983 36.2002 34.8534 33.7076 32.1499 31.0128 29.9384 28.8901 27.9418 26.6435 25.0798 23.8669 23.2699 21.669 19.6993 19.6438 18.9881 17.4305 16.2318 15.026 14.3385 13.9312 12.9677 11.8893 11.7502 11.0678 9.38485 8.43753 8.261 7.66727 7.05637 5.78292 4.30759 1.97375 17.6041 51.5186 78.3446 95.6202 104.935 107.982 108.585 107.786 105.607 102.415 98.5231 94.2494 91.0065 88.4053 84.9873 81.4409 78.8521 75.5002 71.9906 69.4796 67.0245 64.3746 61.1562 58.4161 56.2649 54.2443 53.0149 51.0999 48.8806 46.8088 44.7519 43.1559 40.8771 39.0871 37.2299 35.3879 33.9744 32.3512 30.51 29.2702 28.4988 26.6259 24.7836 24.0214 22.5902 20.8299 19.7259 18.4568 17.5257 16.6603 15.6383 14.3511 13.279 12.5753 11.6258 11.0739 10.3802 8.68649 8.20776 8.52303 7.30957 6.31617 5.61667 4.89711 2.31019 25.2366 68.121 97.6467 116.271 126.217 129.819 130.055 129.049 126.718 123.323 119.072 114.38 110.897 107.713 103.648 99.6345 95.2895 90.9594 87.3832 83.4421 80.3981 77.1803 72.883 69.6849 67.4255 64.1448 61.1587 59.0003 56.7402 54.3139 51.5342 49.4084 47.1519 44.6084 42.1098 40.1544 38.1007 35.6352 33.5656 32.1509 30.4336 28.1109 26.4635 25.6676 24.3805 22.5401 21.3247 19.9638 18.1038 16.83 15.639 14.146 13.1471 11.8102 10.7116 10.334 10.4238 9.15775 8.35125 8.34216 6.63649 6.11348 6.11242 5.40781 2.45982 36.5266 91.1467 121.342 141.927 153.281 156.467 156.224 153.916 151.546 147.683 141.999 136.824 130.942 125.807 121.953 118.537 113.911 108.109 103.679 99.2746 95.311 91.3374 86.2056 82.4412 79.6395 76.2617 72.2216 67.9133 64.2073 61.421 58.5387 55.9314 53.4455 50.5141 47.9207 46.0315 43.0052 39.8045 37.3643 34.8007 32.4085 30.1299 27.9046 26.3987 25.3067 23.5714 22.2648 20.9881 19.4131 16.9392 14.6877 13.9792 12.9229 11.1976 9.75183 9.57512 9.95558 8.78081 7.73916 6.93485 5.88888 5.92059 5.69402 5.30775 2.67033 52.0478 121.904 152.397 173.091 183.128 186.137 185.448 181.223 178.25 174.533 168.014 160.992 153.206 146.54 140.971 136.691 132.083 125.637 120.503 115.813 110.859 105.533 99.6611 95.6141 92.1097 88.1221 83.7119 78.9225 74.8304 71.1034 67.0432 62.7545 58.8145 56.4433 53.8816 50.7784 47.3104 44.3459 42.1594 38.728 35.0949 32.6806 30.1399 28.2431 26.9176 24.466 22.5777 21.2654 19.9348 17.3626 15.3309 14.0709 12.3384 11.0537 10.3018 9.50911 8.37703 7.41632 6.75328 5.5826 5.41318 5.69313 5.54833 5.66855 2.76158 73.3316 162.414 188.23 204.195 211.128 212.482 211.544 207.944 203.78 199.082 193.436 186.666 180.026 173.512 165.068 157.869 150.965 143.605 137.389 130.99 125.118 119.976 114.79 110.257 106.093 100.26 94.2008 89.0724 85.498 81.5884 75.9329 71.1891 67.2081 63.6855 59.6609 54.9954 51.613 49.4742 47.2162 43.7081 39.2114 36.372 33.4811 30.8643 29.0017 26.5699 24.2541 22.0786 20.267 18.1589 16.2668 14.5255 12.9327 11.1931 10.6916 9.44079 7.4698 7.47111 7.20354 5.75157 4.71186 4.64724 5.36372 5.45507 2.40781 42.9091 92.6915 103.126 109.344 112.235 112.03 111.623 110.423 107.888 105.011 102.622 99.952 97.3457 94.0673 89.2342 84.8131 80.1971 76.1266 72.8733 69.2593 65.9579 63.6392 61.4217 58.9311 56.504 53.3672 50.0995 46.8248 44.7921 42.8866 40.0126 38.1244 36.4398 34.0254 31.1939 28.5935 27.0986 26.1751 24.7636 22.9388 20.7193 19.2982 17.492 15.6645 14.814 14.1855 12.9115 11.2758 10.3683 9.40034 8.17668 7.45084 7.00231 5.89574 5.34944 4.59181 3.89518 4.32388 4.07223 3.12725 2.0383 1.91887 2.55157 2.49055 1.12105 49.9304 101.895 106.815 111.382 113.738 114.032 113.902 112.99 110.044 106.676 103.619 100.584 97.1514 93.4494 89.882 86.6122 83.1848 79.6631 76.5503 73.503 70.0509 65.8029 61.749 59.6284 57.7263 54.5423 51.9739 49.2467 46.585 44.1279 41.8222 39.832 36.6302 33.7868 32.0436 30.1181 27.4856 25.4989 23.7496 21.1939 19.5448 18.5083 17.0153 15.714 14.0005 12.7435 11.5025 10.3543 10.0341 9.16483 7.49762 6.79447 6.63815 5.659 4.87917 4.24415 3.61466 2.88886 2.55833 2.32365 2.15156 2.51409 2.52432 2.36549 1.24483 83.1515 177.055 195.932 208.295 214.334 215.595 215.378 213.485 207.825 201.543 195.545 189.519 182.56 175.83 169.285 163.165 157.016 149.558 143.505 137.279 131.051 124.516 117.021 112.055 107.961 102.334 97.975 92.8348 87.2685 82.9498 78.6295 74.5778 69.4228 64.598 60.6374 56.6072 52.1069 48.9467 45.2971 40.223 37.1047 34.166 31.3049 29.458 27.0447 24.6297 22.0931 20.1129 19.4068 17.6925 14.5911 13.1588 12.4725 11.0875 9.49332 8.44254 7.96303 6.42869 5.52011 5.24733 4.90917 4.86225 4.61633 4.75918 2.58839 56.2672 130.407 160.386 178.192 186.879 189.611 189.896 187.87 182.311 177.389 171.736 165.53 158.763 153.269 148.146 141.764 136.433 130.307 124.933 119.304 114.142 109.9 103.592 99.1169 95.864 90.5926 86.0895 81.8001 76.7455 73.1744 69.2147 64.2572 60.667 57.1947 53.275 49.9628 46.6598 43.9919 40.7211 36.3446 33.4101 30.8383 28.2849 26.8202 25.883 23.4796 21.0356 20.1099 18.8424 16.9937 14.8759 13.3048 12.1653 11.0622 9.51932 8.33498 8.53124 7.30436 6.08074 5.81583 5.42162 5.10315 4.25578 4.5436 2.66221 38.8743 96.237 128.338 148.393 158.653 162.479 163.103 161.223 156.321 152.159 146.898 141.947 136.259 131.123 126.649 120.31 115.886 111.545 107.243 102.93 98.3699 94.2559 89.7646 86.657 84.2646 79.0573 73.7707 69.9015 65.9953 63.663 59.9486 55.159 51.8758 48.794 46.1629 43.7175 41.2787 38.6186 35.9184 32.9712 31.3597 30.4617 27.914 26.0946 24.6625 22.2748 20.2937 19.6311 18.6672 16.9644 15.5587 13.715 12.1999 11.6222 10.6603 9.23932 8.20328 7.0769 6.44137 6.33331 5.97894 5.91995 5.1223 4.40897 2.24793 27.2427 71.7964 101.754 120.959 131.46 136.183 137.398 135.584 131.761 128.023 123.849 120.387 115.987 111.506 106.629 101.988 98.0756 92.6349 88.711 86.1655 82.4308 78.1846 74.7121 72.3545 70.4951 66.7243 62.7518 59.2013 56.5106 54.9631 51.4828 48.2343 45.3832 42.4195 40.5896 38.7747 37.0639 34.7284 32.5593 30.6958 29.6762 28.8262 26.8063 25.1809 23.0622 21.172 19.5385 18.5758 18.2206 16.8542 15.6966 13.8819 12.282 12.1481 11.3205 10.0725 8.77838 7.73162 7.21476 6.80974 6.25259 5.72345 5.39171 4.72009 2.11555 19.2852 53.8424 80.075 96.9354 106.252 110.873 112.375 110.911 107.414 104.145 101.189 98.1219 94.8019 90.9633 86.6895 83.6349 80.8705 76.2886 73.0155 71.0937 68.3135 65.2918 62.1159 60.2818 58.2117 55.1827 52.9881 50.637 48.7357 47.0856 44.5798 42.6425 40.758 38.2215 36.4334 35.3811 34.2876 32.614 30.8764 29.1588 27.511 26.3784 25.2088 23.8707 22.6565 21.6683 20.1184 18.9026 17.9744 16.2845 15.3111 14.604 13.4221 12.3617 11.2604 10.1847 9.88081 8.94727 7.83522 7.30409 6.39521 5.68542 5.044 5.04698 2.65876 13.1006 40.5041 64.3099 78.8346 86.5404 90.1514 90.6 89.2816 86.5327 83.6298 81.1057 78.7458 76.1024 72.4029 69.3288 67.257 65.5718 63.0425 61.1924 59.2349 57.1639 55.6477 53.6419 51.6324 48.9262 46.7253 45.4556 43.8512 42.1161 40.5989 39.2025 38.1883 36.8295 35.2311 33.8546 32.4753 31.2877 30.5589 29.6653 27.7945 26.0734 25.2857 24.1806 23.107 22.5918 21.754 20.5493 19.0108 17.7433 16.4769 15.4379 15.0996 14.1061 12.671 11.5308 10.5902 9.91499 8.93694 8.49245 8.04442 7.17874 6.75783 5.99932 5.67799 2.87424 8.62373 31.4176 54.2574 67.5256 74.3227 77.2015 77.2878 75.8161 73.5195 70.6422 67.9942 65.8064 63.6121 61.1639 58.8006 56.8232 55.1749 53.4417 51.6789 50.039 48.6026 47.5923 46.5636 45.1581 43.3117 41.9342 40.96 39.5267 38.2047 36.9929 35.7796 34.8093 33.8012 32.9261 31.8086 30.7253 29.6939 28.5881 28.2526 26.9204 25.6962 24.7633 22.8923 22.0766 21.8522 20.7528 19.8463 18.8269 17.549 16.9822 16.0032 14.5463 13.6887 13.0405 12.0635 11.0723 10.3715 9.59707 8.84641 8.2936 7.67374 7.27362 6.8721 6.08412 2.75479 7.10698 28.2792 50.4519 63.0345 69.6974 72.1733 72.1962 71.1034 68.4887 65.237 62.432 60.2307 58.1378 55.8852 54.1189 52.3143 50.7972 49.5535 47.715 46.2153 45.0963 44.1689 43.1627 42.2332 41.2957 40.0092 38.8417 37.632 36.4625 35.5295 34.6335 33.6051 32.6118 31.4641 30.3321 29.989 29.7359 28.1864 26.9413 26.1428 25.6047 24.407 22.4823 21.854 21.3183 20.1365 19.6347 18.9058 17.4149 16.8483 16.1866 14.6233 13.5255 12.9546 12.495 11.6299 11.0284 10.0091 8.71068 8.55269 7.98634 7.11611 6.41329 5.61665 2.58462 9.15356 31.8388 53.4838 66.9388 74.7259 77.7015 77.1543 75.1589 72.706 70.2715 67.4998 64.5343 62.1378 59.509 57.5914 55.9655 53.949 51.8808 50.3423 49.2406 48.0856 46.9635 45.464 44.3203 43.1829 41.8488 40.8656 39.2984 37.8146 36.8107 35.8275 34.8461 33.4651 32.0164 31.0063 30.35 29.8679 28.5799 27.2831 26.4559 25.2061 24.2776 23.7082 22.9399 21.6773 20.5643 20.0163 19.1538 17.7283 16.8043 15.6917 14.6763 14.1392 12.8146 12.2652 11.8626 11.2894 10.0543 8.87799 8.74944 8.0688 7.32369 6.34873 5.20095 2.32729 12.8271 40.0593 63.4351 78.7265 87.4805 91.1353 91.0435 89.0607 86.8655 84.5121 81.0504 76.5494 73.9032 71.8238 69.4452 66.8891 64.4125 61.6814 58.9858 57.0017 55.61 54.0624 52.0838 50.5984 49.0796 47.4195 46.3559 43.9442 41.8754 41.1272 39.367 37.8655 36.383 34.6942 33.5456 32.4634 31.3521 29.9354 28.5319 27.5885 26.4439 25.1539 24.5871 23.7612 21.9954 20.7491 19.8857 18.7783 17.8729 16.9446 15.2725 14.1751 13.9637 12.6732 11.5869 11.5834 11.0513 9.28674 8.16163 8.24785 7.7029 6.94588 5.65161 4.59641 2.22487 17.8984 52.2206 78.9011 96.021 105.614 109.194 109.63 108.538 105.722 102.379 98.6341 94.236 91.2472 89.1992 86.0357 82.0917 78.7286 75.4151 72.7382 70.0629 67.3066 64.0469 61.1339 58.8179 56.7023 54.9541 53.1309 50.5677 48.5225 47.1479 44.985 43.223 41.2482 38.9252 36.862 35.3849 34.1987 32.3219 30.608 29.5834 28.2992 26.5776 25.3564 24.4148 22.8794 21.1698 19.9349 18.3891 17.297 16.6532 15.6092 14.2674 13.4625 12.6127 11.3962 10.9746 10.3075 8.8861 8.11005 7.99258 7.0445 5.932 5.0947 4.63713 2.19839 25.4446 68.8532 98.0947 116.565 127.037 130.487 130.752 129.983 126.962 123.007 119.233 115.247 111.462 108.204 104.565 100.448 95.7259 90.8062 87.7164 84.4253 80.1712 76.3252 73.093 70.1779 67.183 63.8163 60.9757 58.9512 56.8236 53.9869 50.9904 49.3543 47.0874 44.6089 42.5002 40.0754 37.7873 35.1731 33.2175 32.0059 30.1455 27.9358 26.3916 25.3533 24.049 22.4096 20.8733 19.1544 17.8364 16.926 15.5733 14.1832 13.141 11.6594 10.8214 10.2584 9.78583 9.04244 8.41368 7.80782 6.19162 5.65233 6.01767 5.42882 2.25032 36.5582 91.4758 121.35 141.824 153.301 156.538 156.222 154.175 151.348 147.578 142.799 137.178 131.309 126.108 122.527 118.845 114.121 108.318 103.421 99.6136 95.1783 90.5811 86.1042 82.8233 79.6023 76.0438 72.8468 68.8015 64.8735 61.203 58.0865 56.2807 53.1011 50.1988 48.117 45.2955 42.3175 39.5269 36.7627 34.2551 31.9708 29.7629 27.7725 25.9963 24.3504 23.1224 21.9251 19.8446 18.3068 16.9481 15.3718 14.2641 12.7953 10.8469 9.86966 9.26639 9.13715 8.74982 7.87854 6.93904 5.75532 5.49581 5.34198 4.85318 2.3292 52.0902 122.12 152.094 172.213 182.063 185.334 184.882 181.141 177.484 173.886 168 160.579 153.483 146.832 141.613 137.251 132.64 126.157 120.237 115.895 111.09 105.213 99.4844 95.7003 91.6966 87.9915 84.27 79.0084 74.8908 71.1049 67.0062 63.5079 59.3892 55.5021 52.7589 49.895 46.8328 44.5141 41.648 38.0236 34.8241 32.9753 30.4043 27.6749 25.8488 23.8588 22.522 20.8109 18.8547 17.115 15.9189 14.744 12.8708 11.0521 10.2761 9.2743 8.22828 7.41597 6.80617 6.04392 5.85743 5.60016 4.81144 4.93285 2.49276 73.3356 161.945 187.954 203.456 209.799 212.208 211.651 208.839 204.213 198.947 193.402 186.604 180.502 173.077 164.577 158.249 151.633 143.573 137.001 131.368 125.716 119.9 114.411 110.15 105.667 100.139 94.5812 89.6952 85.6981 82.0079 76.417 71.2156 67.1338 62.5488 59.2993 55.4002 51.256 48.5846 45.7906 42.73 39.1622 36.0434 33.1583 30.5313 28.1057 25.9098 24.0733 21.8705 20.1875 18.4593 16.7031 15.0208 12.8884 11.0359 10.4227 9.22561 7.6394 6.81007 6.6009 5.65285 5.03737 4.86407 5.06856 5.76878 2.74451 42.8707 92.1182 102.952 109.483 112.107 112.683 112.132 111.135 108.619 105.306 102.937 100.093 97.4393 93.6006 88.4265 84.5599 80.5387 76.1743 72.9056 69.8812 66.8692 63.8427 61.0595 58.8212 56.6376 53.6727 50.4044 47.6278 45.1034 43.248 40.5341 37.9096 35.8247 33.3273 31.427 29.1079 26.8021 25.1934 23.7549 22.508 20.5871 18.5004 17.1629 15.9169 14.4796 13.7889 12.7595 11.0311 10.2978 9.465 8.38063 7.44632 6.3762 5.5422 5.00213 4.28034 3.8591 3.93409 3.67215 2.86631 2.12026 1.94381 2.44357 2.87741 1.39986 50.079 101.377 105.71 110.967 114.6 115.599 114.455 113.062 110.298 106.363 103.64 100.86 96.9212 92.8831 89.2399 85.8161 82.1585 78.86 75.6835 72.3933 69.252 65.2172 61.3696 59.4979 57.6399 54.2802 51.5395 49.0928 46.4205 44.091 41.7766 38.773 35.5745 33.935 32.0614 30.0366 27.6811 25.4165 23.5448 21.0994 19.5156 18.0625 16.769 15.6047 13.7106 12.8477 11.9554 10.6717 9.80177 8.63772 7.89352 7.09508 6.56473 5.93624 4.70204 4.42443 4.12561 3.18347 3.02163 2.49078 2.23285 2.21735 1.92745 2.15185 1.07761 83.2142 176.676 194.908 208.148 215.157 216.287 215.517 212.886 207.113 201.231 196.098 189.842 182.304 175.621 168.556 161.021 154.678 148.396 141.882 135.186 129.316 122.719 116.136 111.873 107.416 101.921 97.2527 91.8629 86.5828 82.9247 78.3448 73.0476 68.5061 64.8299 60.4661 56.5767 52.7566 48.3976 44.4248 40.7815 37.424 33.9111 31.4998 29.1387 26.4346 25.2625 23.2847 20.9252 19.2604 17 15.1981 13.9643 12.6231 11.2902 9.5389 8.5098 8.18818 6.80135 6.19377 5.39814 4.58669 4.36885 4.23973 4.57339 2.27131 56.2385 130.154 159.836 178.183 186.464 187.785 188.873 187.163 181.72 177.839 172.568 166.061 159.01 153.906 148.383 140.464 134.528 129.509 124.203 118.093 112.711 107.96 102.516 98.565 94.7392 90.0361 85.6244 80.3386 75.626 73.4274 69.2382 63.7969 60.917 57.4879 53.1025 50.1138 47.1318 42.9995 39.9639 37.5346 34.0129 30.7065 28.6614 27.0335 25.6373 23.9446 22.2335 20.8401 18.6158 16.2934 14.6638 13.9435 12.5828 11.4206 10.4364 8.45044 8.20567 7.58544 6.17634 5.60726 5.0235 4.8372 4.70437 4.7567 2.48894 39.1084 95.8835 127.543 148.058 158.05 161.352 162.266 160.819 156.714 152.459 147.296 142.902 136.701 131.07 126.974 120.517 115.423 111.277 106.994 102.311 97.0988 93.0044 89.0688 85.8201 82.7533 77.9181 73.2748 69.3125 65.4917 63.7078 59.9969 55.0386 52.151 49.4118 46.1299 43.5341 41.0054 38.0453 36.1093 33.9947 31.5699 29.8178 28.0053 26.3945 24.8172 22.385 20.8873 20.2408 18.7377 16.8978 15.8876 14.4139 12.7921 12.3752 11.387 9.4618 8.2363 7.5156 6.66642 6.05799 5.78275 6.14471 5.79463 5.15958 2.58786 27.5576 71.6138 101.163 120.445 131.177 135.846 136.419 135.039 132.025 127.682 123.579 120.496 115.305 110.432 106.974 102.206 97.741 93.0551 88.1353 84.5353 81.216 78.3265 74.8451 71.6661 69.2321 65.7587 62.1259 58.9005 56.1202 54.6197 51.7424 48.0533 45.241 43.1176 40.6719 38.3975 36.5927 35.0614 33.5335 31.6011 30.3173 28.7529 26.8402 25.1101 23.2684 21.5434 19.9752 18.9765 18.7524 17.7826 17.0566 14.8644 13.0161 12.9547 11.5814 10.1847 8.64608 7.81582 7.82014 7.0056 6.3397 6.28308 5.78517 5.37599 2.70394 19.5257 53.5247 79.3295 96.0165 106.135 110.764 111.257 110.068 106.92 103.408 100.173 97.4066 94.1824 90.3399 86.8319 83.3026 79.7505 76.4021 72.8654 70.1701 67.7145 65.7462 62.6355 60.0347 58.1933 55.1181 52.4032 50.4083 48.6681 47.4559 45.5727 42.5779 40.0753 38.3822 36.9427 35.6476 34.0274 32.5359 31.35 29.8347 28.4909 26.9005 25.4543 24.2118 22.8748 22.0069 20.6823 19.447 18.8734 17.2212 15.9421 14.9791 14.053 13.3357 11.7413 10.357 9.53304 8.56313 8.17422 7.95654 7.16767 6.21098 5.07758 4.93085 2.64689 13.508 40.3177 63.5254 78.1724 86.0891 89.7035 89.8677 88.44 85.7581 83.2507 80.5071 78.5197 76.5921 72.3331 68.7957 66.9306 64.8612 62.7759 61.3433 59.4246 56.874 55.0287 53.5093 51.7345 49.5109 46.9903 44.9068 43.6143 42.8933 42.0032 40.287 38.4095 36.8317 35.4482 34.4191 33.2654 31.6718 30.4871 29.3098 27.9894 26.7724 25.7684 24.5669 23.1824 22.5414 22.226 21.2436 19.8229 18.5852 17.0486 15.7217 15.17 14.405 12.7506 11.5099 10.856 10.0596 8.89314 8.65405 8.72445 8.1038 6.83233 5.50743 4.98596 2.36728 8.96433 31.1009 53.1459 66.4508 73.1338 76.0451 76.4178 75.2703 73.2193 70.6537 67.8453 66.1105 64.1328 60.9281 58.5326 57.2414 55.4263 53.411 51.8443 50.2442 48.7602 47.2617 46.4222 45.5452 43.595 42.073 40.886 39.3929 38.9824 38.2721 36.6681 35.5735 34.5224 33.3555 32.1543 31.2745 30.0807 28.8095 28.1142 27.1126 26.2011 25.192 23.5763 22.5933 21.8266 20.9311 20.2414 19.085 17.8414 17.0711 16.1511 14.6854 13.8994 12.8126 12.0697 11.5838 10.5238 9.64118 9.20057 8.80354 8.26496 6.73682 5.39299 4.90633 2.13136 7.16503 27.4041 48.728 61.3345 68.072 70.8341 71.1066 70.2073 67.9933 64.887 62.1781 60.5403 58.4515 56.1063 54.5599 53.1122 51.7027 50.058 48.0423 46.7182 45.5226 44.4299 43.8115 43.046 41.7213 40.5493 39.5654 38.1319 37.0509 36.2703 35.5014 34.4831 33.2657 32.093 31.0312 30.404 29.786 28.2194 27.2992 26.6067 25.4647 24.4361 23.1453 23.0237 22.1139 20.5309 19.9418 18.978 17.8987 16.9994 16.2596 14.9445 14.1313 13.2545 12.6356 11.983 11.0145 10.4705 9.04827 8.03207 7.86845 6.50706 5.1689 4.84803 2.19774 8.76478 30.4617 52.0783 65.9586 73.4987 76.4741 76.2031 74.8554 72.9164 69.7641 66.6944 64.3096 61.8954 59.4687 57.8714 56.3808 54.6342 52.6557 51.0929 50.046 48.5481 47.0897 46.1069 45.0064 43.5471 42.3143 41.2049 39.5172 38.184 37.5272 36.8568 35.4362 34.0665 33.0293 31.702 30.7065 30.1717 29.1128 27.542 26.2046 24.899 24.3186 23.8574 23.2771 22.3091 21.314 19.9479 18.5267 17.7315 16.8375 16.1118 14.9393 13.8448 12.8378 12.3402 12.0377 11.1538 10.4389 9.17995 8.15165 7.68568 6.46944 5.38658 5.0748 2.51505 12.3371 39.2137 62.9033 78.0523 86.7133 90.2577 90.2867 88.7859 86.518 83.5505 80.37 76.4589 73.8932 72.0863 70.0284 67.3165 64.0591 61.4533 59.3763 57.6744 55.9126 54.3928 53.1109 51.3172 49.1985 47.4673 46.0634 44.3336 42.7859 41.5326 39.9461 38.1794 36.7928 35.2468 33.624 32.2828 31.3721 30.1954 28.4601 27.3183 26.1776 25.2094 24.9964 24.0559 22.4125 21.2682 19.4182 18.1902 17.4665 16.7387 16.1616 14.4802 13.4485 13.1926 12.2107 11.4885 10.7529 9.7452 8.78893 7.9319 7.02369 6.28309 5.59461 5.03009 2.5258 18.1979 52.4116 78.7238 95.9242 105.507 108.915 109.116 107.922 105.563 102.306 99.1298 94.5719 91.5629 90.0952 86.8609 82.5954 78.5839 75.2594 72.4899 69.9234 67.1226 64.5004 62.1792 59.8052 57.6069 55.6593 53.1066 51.1089 49.1292 46.8886 44.7421 42.9501 41.5337 39.065 36.8891 35.8258 34.5034 32.1672 30.7764 29.7537 28.1877 26.6619 25.7852 24.9184 23.2933 21.6542 20.2067 19.2402 17.9996 16.7916 16.1886 14.4985 13.2185 13.1894 11.7844 10.8456 10.5706 9.34116 8.4826 7.67934 6.10722 5.51937 5.51422 5.27229 2.59717 26.061 69.7099 98.738 116.785 126.842 131.199 131.673 130.2 127.71 123.847 119.613 115.327 111.229 107.626 103.959 100.67 96.5394 91.1951 87.8378 84.5038 79.907 75.9531 73.0957 70.8201 67.5904 64.2683 60.7738 58.3573 56.0731 53.6209 51.0761 48.6316 47.0044 44.9329 42.3784 40.5949 38.4347 35.0701 33.1607 32.0217 30.2662 28.219 26.7629 25.5191 23.8665 22.6657 21.4049 20.0914 18.9711 17.3525 15.9452 14.1516 12.8235 12.4433 11.5049 10.5008 9.71452 8.66648 8.51563 8.02439 5.8956 5.09377 5.62308 5.48954 2.56055 36.7915 92.0421 123.036 142.376 152.298 157.37 158.346 155.337 151.392 147.273 142.338 137.034 131.504 125.643 121.444 118.715 114.236 107.687 103.15 99.8373 94.925 89.8199 85.9512 82.7346 78.8689 75.7111 72.5729 68.519 64.529 61.1722 58.5151 55.8687 52.657 50.1407 48.0603 45.2693 42.3806 39.2038 36.0804 34.3408 32.1304 29.7795 28.231 26.1203 23.9775 23.0827 21.8595 19.6399 18.3786 17.4453 16.1211 14.2724 12.9374 11.8967 11.0309 9.65677 8.36635 7.93315 7.48192 6.87983 5.73444 5.03668 5.18975 5.13809 2.46211 52.1567 122.664 154.382 173.447 180.721 184.776 186.202 182.451 177.204 172.823 167.601 160.198 153.494 146.803 140.965 137.239 132.188 125.505 119.664 115.583 110.988 105.055 99.6393 95.6851 91.7399 87.6899 83.8338 79.0901 74.3225 70.0954 66.1479 62.6103 58.8874 55.0919 52.6135 49.7795 46.8768 44.1417 40.7407 38.0537 34.7961 32.3388 30.4273 27.6947 25.2069 23.5441 22.1034 20.0476 18.2306 17.1845 16.105 14.5351 12.8022 11.4352 10.6764 9.08349 7.73283 6.96067 6.6225 6.43745 5.70279 5.17183 4.49457 4.72593 2.67282 73.2146 162.522 189.22 203.934 209.718 212.466 212.488 209.855 204.526 198.064 192.945 186.609 179.872 171.719 163.466 158.277 151.329 143.005 136.577 131.455 126.12 120.396 115.22 110.602 105.813 100.236 94.5669 90.2494 85.5305 81.0015 75.8835 70.6119 66.8043 62.3873 58.7283 54.9024 51.6377 48.6644 45.1322 42.2452 38.924 35.815 33.2061 30.313 27.4732 25.454 23.4674 21.0992 19.3861 17.7232 15.8572 14.2895 12.7348 11.3715 10.3612 8.75537 7.7023 6.66489 6.60412 6.59467 5.67944 5.40763 4.84062 4.94456 2.60804 42.6783 92.1684 102.998 109.481 112.818 113.672 112.728 111.666 109.138 104.916 102.464 100.326 97.2586 92.7091 87.6316 84.2968 80.282 75.6825 72.6099 70.2474 67.2217 64.1745 61.822 59.0896 56.4213 53.9114 50.835 48.5121 45.8052 43.2895 40.8644 38.1674 35.8015 33.2485 31.1709 28.8621 27.0167 25.3455 23.5167 22.0427 20.5041 18.9027 17.4459 15.7431 14.2489 13.5196 12.3013 10.5858 9.88658 8.95032 7.65049 6.85791 6.32894 5.72118 4.99611 4.23654 4.02256 3.57861 3.33608 3.2678 2.81849 2.66878 2.63052 2.63581 1.22512 49.661 100.961 105.894 111.461 115.027 116.115 114.942 113.242 110.367 106.322 103.405 101.184 97.4958 93.157 88.9055 85.3911 82.5045 78.7135 75.2403 72.0529 68.4919 65.1154 62.1423 59.5008 56.7786 53.679 51.2453 48.9334 46.9282 44.1134 40.7562 37.5308 35.2924 34.1838 32.6027 30.7601 27.6896 25.1305 23.2409 21.1199 19.4245 17.6531 16.2509 15.0187 13.7536 13.1179 12.1263 10.9981 9.51817 8.45681 8.38723 7.42123 6.19725 5.54064 4.84822 4.27657 3.78091 3.36585 3.38765 2.80269 2.48392 2.47472 1.85508 1.58609 0.755998 82.9118 176.597 195.341 208.988 215.819 217.031 215.313 211.692 207.29 201.153 195.584 190.415 183.015 175.604 167.869 160.642 154.973 147.812 141.251 135.348 128.651 122.653 117.119 112.087 107.156 101.431 96.2516 91.813 88.398 83.3041 77.0096 71.7837 67.9981 64.9333 61.2649 57.3298 52.0191 47.6757 44.3542 41.026 37.3684 34.3118 32.1871 29.1553 26.6097 26.2801 24.4498 21.6046 19.1646 17.0092 16.067 14.1001 12.2981 11.4177 10.1043 8.56446 7.38222 6.708 6.64984 5.63814 5.02858 5.05037 4.31862 4.00811 1.94991 56.9096 131.588 160.396 178.092 186.487 188.155 187.437 184.879 181.928 177.584 171.701 165.919 159.646 153.274 146.758 139.926 134.424 129.259 123.007 117.131 111.971 107.53 103.275 99.0274 94.321 89.5958 85.127 80.4025 77.014 73.4664 68.3669 64.2828 60.7932 57.2135 53.4693 49.985 46.3831 42.6899 39.9884 37.1279 33.8376 31.8392 30.1886 27.5696 25.7286 24.8764 22.9415 20.5007 18.0729 16.1182 15.1592 14.0092 12.7947 11.8035 10.8786 9.31848 7.97203 7.03649 6.3663 5.85619 5.208 5.11527 5.06029 4.87397 2.43579 40.1638 97.3497 127.832 147.453 156.989 160.523 160.78 160.044 157.724 152.526 146.556 141.842 136.722 131.032 125.459 119.956 115.649 111.546 105.902 100.824 96.3854 92.7762 89.8388 85.8973 81.0836 77.0442 73.6665 69.8639 66.5248 63.5013 59.4282 55.8359 52.388 49.4616 46.9417 43.8066 41.3056 38.7942 36.3541 33.6281 30.9358 29.823 28.2801 25.7434 24.4373 22.4548 20.5303 19.6022 17.4289 15.7632 15.646 14.6213 13.1912 12.5481 11.9725 10.6242 8.71426 7.56985 7.06584 6.67682 5.67054 5.72284 5.8495 5.4408 2.88023 28.1346 72.1707 100.832 119.831 130.239 134.875 135.218 134.843 132.851 127.633 122.947 119.3 114.732 110.533 106.675 102.255 97.9843 93.5604 89.0212 85.3592 81.7151 78.5194 75.3215 71.6373 68.6123 65.4737 61.8949 59.2893 57.0505 54.106 51.078 48.4524 45.4791 43.4504 41.7788 39.1628 37.1991 35.8463 33.9779 32.0203 30.031 28.5999 26.712 24.3657 23.2693 21.8567 20.1168 19.2676 18.5974 17.1524 16.2168 15.0617 14.3055 14.0987 12.7628 11.0689 9.15593 8.16363 7.99721 7.64263 6.70237 6.31652 5.84408 5.39773 2.8589 19.7772 54.0971 78.7099 94.8335 105.245 109.842 110.084 109.152 106.37 102.701 99.5747 96.5835 93.4908 90.0376 87.1618 83.9212 80.03 76.9599 73.3122 70.338 67.8745 65.3573 62.5978 59.7228 57.9547 55.4898 52.5348 50.7589 49.0307 47.0208 45.35 43.1196 40.5906 39.1135 37.8751 36.1566 34.2371 32.861 31.8049 30.2095 28.8028 26.9933 24.8399 24.2136 23.5782 22.0681 20.7154 19.7276 19.2123 17.9347 16.2697 15.5635 15.2522 14.2196 12.3943 11.0878 10.2293 8.76364 8.11594 8.08701 7.16786 5.97225 4.81023 4.37129 2.28451 13.9305 40.6515 62.4089 76.2024 84.0776 87.7669 88.4244 87.5854 85.2164 82.6455 79.8201 77.4471 75.5515 72.6216 70.0481 68.2083 65.7812 63.6009 61.3393 59.0171 56.9291 54.9357 53.357 51.3867 49.517 47.8466 46.1903 45.0966 43.6851 42.2345 41.0642 39.3059 37.5971 36.1792 34.7662 33.2561 31.7949 30.6645 29.8232 28.3876 27.0371 25.9274 24.6177 23.6838 22.6417 21.8259 20.9139 19.6479 18.5648 17.8203 16.7265 15.6523 14.7423 13.059 12.2321 11.6502 10.517 9.367 8.85013 8.35802 7.43664 6.18373 4.95582 4.1716 1.82932 9.33897 30.3853 50.8207 63.8655 70.6856 73.9531 74.603 74.0051 72.5129 70.3281 67.4248 65.2036 63.3833 60.9199 59.264 58.1838 55.9852 53.9339 52.632 51.0501 49.6338 47.7766 46.4635 45.5483 44.2394 43.3906 42.2087 40.6622 39.6582 38.7016 37.7003 36.3998 35.0197 34.0112 32.3995 31.4512 30.5271 28.8314 28.6098 27.8623 26.2333 25.2565 24.4636 23.3739 21.9147 21.3269 20.3144 18.668 17.5564 17.0699 16.7649 15.563 14.695 13.3615 12.6139 12.112 10.4546 9.93038 9.34246 8.14191 7.77227 6.43216 5.05152 4.33626 1.74857 7.19307 25.8497 45.9461 58.9449 65.6537 68.7331 69.1876 68.4195 66.8794 64.5268 62.1841 60.2953 58.2592 56.163 54.6593 53.5428 51.9844 50.1872 48.7589 47.8975 46.7685 45.1619 44.2442 43.5611 42.5224 41.5569 40.2006 38.5746 37.496 37.2638 36.5669 35.1295 34.0742 33.0115 31.9357 31.2622 30.037 28.2172 28.1436 27.6797 25.8141 24.6576 23.879 23.6606 22.844 21.3128 20.291 19.1082 17.5419 16.9008 16.5768 15.0791 14.4705 13.9123 12.7498 12.0742 11.1455 10.4501 9.09488 7.90582 7.87533 6.32422 4.92478 4.59476 2.0558 8.29307 28.8038 49.6631 63.6088 71.1991 74.2148 74.4905 73.7543 72.562 69.7927 66.5225 64.0034 61.7718 59.7422 58.07 56.3398 54.9644 53.3795 51.6417 50.6765 49.5562 48.06 46.6829 45.5025 44.3716 43.2428 41.7931 40.1376 38.6271 38.1351 37.374 35.8885 35.0061 33.9706 32.5514 31.4331 30.489 29.4564 28.4757 27.0381 25.7849 25.0481 24.2154 23.8131 23.1836 21.5358 20.1834 19.2108 17.712 16.8905 16.3262 14.8317 13.9939 14.0321 13.0829 12.1311 11.1513 10.0797 9.30621 8.63969 8.01536 6.33284 5.22819 5.1455 2.58271 12.3304 38.5396 61.011 76.104 85.1332 88.3731 88.8156 87.7216 85.9827 83.1674 79.8497 76.4945 73.6924 71.5712 69.6732 66.8604 63.9297 62.0134 59.971 58.2974 56.6854 55.3384 53.8458 51.7571 49.657 48.0443 46.3046 44.901 43.401 41.3592 40.0041 38.6351 37.1683 35.9425 34.3702 32.9695 31.7187 30.3086 29.2054 27.8198 26.6334 25.619 24.6768 24.2873 23.1242 21.3776 19.7964 18.581 17.6477 16.7397 16.1468 14.7369 13.9928 14.0869 12.9429 12.072 10.6009 9.65143 9.2369 7.90338 7.02033 6.22712 5.76414 5.46897 2.63672 18.7574 52.5608 78.078 95.3141 104.862 108.341 107.998 106.455 104.555 101.681 98.7913 94.5163 91.2461 89.0923 86.4257 82.8941 78.7301 75.8697 72.6409 69.6462 67.2456 64.8557 62.8615 60.7084 57.9365 55.3202 52.9063 51.4976 49.5439 46.6182 45.1228 43.7183 41.6631 39.4752 37.8942 36.6511 34.6029 32.0495 30.9745 29.9082 28.2529 26.7877 25.3968 24.6114 23.4536 22.1363 20.8417 19.6309 18.4161 17.453 16.5484 14.6405 13.5586 13.292 12.5482 11.9269 10.7881 9.67267 9.01133 7.45686 5.7155 5.48916 5.85313 5.4764 2.52612 26.504 69.8685 98.837 117.288 126.94 131.48 131.333 129.483 127.122 123.44 119.206 114.43 110.537 106.627 103.083 100.779 96.8998 92.0341 88.1168 83.835 79.9352 76.4103 73.8003 71.5413 68.3168 64.7081 61.4363 59.2931 56.4307 54.1524 52.3094 49.7794 47.8465 45.2987 42.912 41.0744 38.8521 36.0791 33.7422 32.1101 30.6309 28.9382 27.0052 25.3805 24.1124 23.1272 21.6684 20.5527 19.1195 17.8061 16.5698 14.512 13.2278 12.7369 11.943 11.2117 10.0996 8.74664 8.8453 8.33217 6.30374 5.32496 5.37708 5.44852 2.76757 37.5095 92.8744 123.819 143.049 152.739 158.213 158.838 155.263 151.019 146.366 140.881 135.65 130.958 125.565 120.217 117.555 113.859 107.492 103.246 99.3395 94.6547 90.0126 86.4749 82.8511 78.7806 75.6867 72.5069 69.0777 64.9823 62.2364 59.2742 55.8195 53.5939 50.9264 48.2332 45.3536 42.4312 40.0743 36.8693 34.2145 32.7866 31.1682 28.751 26.1982 24.7714 23.8308 22.0197 20.0819 19.1492 18.2338 16.0464 13.9099 13.1355 12.3823 11.2272 10.5005 8.74903 7.75851 7.78044 6.82787 6.59145 6.07216 5.37169 5.59422 2.91297 52.6628 123.309 155.094 174.437 182.721 186.372 186.165 181.931 177.298 172.318 166.467 159.669 152.827 146.857 140.462 135.749 130.911 125.003 119.938 115.261 110.175 104.917 99.8081 94.9767 91.0928 87.4117 83.48 79.2159 74.2796 69.9644 65.533 61.4535 59.0714 56.3745 53.3302 49.9385 46.6584 44.1421 41.1866 38.4189 35.6424 32.5685 30.0419 27.6104 25.939 25.2839 23.2041 20.5813 19.2875 18.1001 15.725 14.0874 13.115 11.9665 11.0155 10.068 8.10637 7.01632 6.89647 6.11894 5.64095 5.03339 4.53065 4.83254 2.67918 73.0921 162.122 188.85 204.749 211.919 213.605 211.968 209.175 204.495 197.604 192.98 186.461 178.395 171.501 163.713 158.177 151.151 143.366 137.553 132.062 125.474 119.931 115.617 110.483 105.325 99.6515 94.6789 90.1557 85.0965 80.0472 75.1105 70.3595 66.5747 63.2384 59.4622 55.2946 52.0957 48.8462 45.8179 43.1708 39.3892 35.6059 32.5792 30.222 28.2524 26.7155 24.4668 21.9098 19.7594 17.8736 15.8435 14.3765 13.1832 11.694 10.3893 9.27938 8.34517 6.79541 6.27979 6.72191 5.51213 4.51429 4.37147 4.41195 2.38107 42.5179 91.8532 102.695 109.498 113.181 113.854 112.551 111.436 108.884 104.516 102.736 99.9362 96.2402 92.6896 87.9146 84.9579 80.9243 75.9872 72.7854 70.4344 66.8043 63.4939 61.861 59.4119 56.0288 52.9411 50.6678 48.2604 45.5765 42.9045 40.6907 38.3553 35.5119 33.4759 31.4571 29.0682 27.3746 25.5102 23.9522 22.3734 20.5031 19.1919 17.341 15.7542 14.7882 13.5698 12.4631 11.1985 10.0492 9.1335 8.004 7.04656 6.46194 5.74302 4.9597 4.48631 4.43569 3.4807 2.87701 3.27036 2.8024 2.58613 2.54243 2.41035 1.24682 49.6385 101.498 107.409 113.493 116.206 116.358 115.291 113.154 110.032 107.113 104.112 101.132 97.1898 92.9905 89.4065 85.8582 82.6575 78.5441 75.1009 72.463 68.8398 64.9676 62.4001 59.8288 56.4985 53.3102 50.8939 48.8912 47.1055 44.2141 40.7048 37.9065 36.531 34.2101 31.5927 30.1577 27.5116 25.9146 24.2125 21.6508 19.6244 18.058 16.7296 15.2502 14.2513 13.7295 12.6397 11.3814 9.7249 8.64319 8.50848 7.17827 6.02244 5.61003 4.93874 3.97426 3.36299 3.29669 2.9575 2.60081 2.87832 2.78205 2.03676 1.75516 0.906976 83.1396 177.467 197.627 211.5 217.39 217.658 215.635 211.864 207.152 201.793 196.033 190.233 182.159 174.308 167.911 161.703 155.348 147.456 141.087 135.506 129.132 123.178 117.556 113.219 108.058 101.203 95.7746 92.3835 89.498 83.2612 76.6546 72.9219 69.1724 64.2332 60.0664 56.4982 51.3285 48.4203 45.7241 41.5746 37.5959 34.8033 32.6542 29.6385 27.5981 26.7382 24.7134 22.2159 19.4131 17.4961 16.8198 14.0763 12.3595 11.684 10.2204 8.54165 7.22392 6.97375 6.49538 5.64146 5.37058 5.00029 4.23698 4.2443 2.28736 57.8551 132.881 161.579 179.111 187.113 188.431 186.716 184.153 181.316 176.616 170.572 164.355 158.351 152.093 145.744 140.24 135.251 129.023 122.609 116.6 111.798 108.092 103.893 100.147 95.187 89.9249 85.2842 81.5268 78.309 72.8376 67.5533 65.01 60.7993 56.4183 53.328 49.4807 45.758 43.1597 40.4906 37.4421 34.172 32.3659 30.7631 27.5358 25.8294 25.0085 23.5677 21.1945 18.581 17.1631 15.8331 13.7934 12.5919 11.6933 10.9981 10.143 8.26753 6.99889 6.67659 6.33197 5.1521 4.49682 4.69763 4.80664 2.43937 41.464 98.9426 127.777 147.141 156.852 159.562 159.466 159.079 155.955 150.553 144.715 139.576 135.942 131.209 124.541 119.445 115.966 111.083 105.878 101.61 97.3933 93.9233 91.1176 86.6914 81.5511 78.5964 74.7054 70.0032 66.7681 62.9915 59.235 56.7663 53.4118 49.9612 47.2281 43.8541 41.2944 39.1258 35.9887 33.4223 31.3356 30.2165 28.8815 25.857 24.348 23.1226 21.8424 20.2449 17.6926 16.2247 15.3544 14.2459 13.2688 12.8096 12.3139 11.2571 9.08272 7.23715 6.93912 7.01142 6.00392 5.57117 5.44381 5.05457 2.63226 29.352 73.9532 100.704 119.157 129.894 133.659 134.112 134.179 131.154 125.817 120.938 117.594 114.889 110.752 105.489 101.26 97.3471 93.0933 89.74 87.0499 83.0663 79.0297 76.3257 72.799 69.5901 67.0291 63.1938 59.582 57.3044 53.9996 51.307 49.6532 46.7959 44.0767 42.1582 39.4419 37.1904 35.7689 33.3392 31.2189 29.4785 28.4905 27.3355 24.9644 23.463 22.1605 20.8283 19.8673 18.2817 16.5167 15.5492 15.0163 14.5382 14.3155 13.4075 12.0172 10.1176 8.57979 7.7422 7.3819 7.0214 6.63196 5.84979 5.07802 2.63115 21.0351 55.6497 78.7093 94.7454 104.386 108.549 109.039 107.891 105.397 101.944 98.4539 95.6526 93.2628 89.7222 86.5731 83.8935 80.4202 77.1568 74.0902 71.5184 68.5001 64.8501 62.7632 60.6343 58.5779 56.5329 53.7782 51.9079 49.8594 47.4178 45.6533 43.651 41.4255 39.6559 38.3803 36.3666 34.5064 33.4757 32.0994 30.3052 28.9142 27.6378 25.5622 24.5914 23.6131 21.8478 20.7578 19.7484 18.7309 17.7979 16.5014 15.4559 14.291 13.6402 13.3434 12.2172 10.5142 9.17809 8.53339 8.26125 7.55766 6.27247 5.41354 4.71773 2.24241 14.4955 40.5127 61.0438 74.9303 82.0294 85.549 86.917 85.9925 83.9911 81.9125 79.3135 76.8675 74.8111 72.3978 70.3095 68.8725 67.1017 64.9881 62.4947 60.1146 57.9423 55.5563 53.8063 52.1656 50.5324 49.4239 47.7401 46.0975 44.1932 42.6265 41.7048 40.2694 38.5249 37.0346 35.7875 34.0271 32.576 31.5392 30.8133 29.1325 28.2036 27.1795 25.0901 24.2764 23.328 21.8837 20.5989 19.3709 18.5361 18.5933 17.6504 15.7963 14.0432 13.097 13.0579 11.9018 10.1721 9.66921 9.61134 8.69037 7.26917 5.98427 5.50966 5.10893 2.36319 8.87737 28.6399 48.0207 61.0135 67.7304 70.9703 72.0272 71.712 70.883 69.4809 67.1978 64.7301 62.9248 61.2284 59.5348 58.3114 57.133 55.8087 53.9151 52.0821 50.6358 48.7434 47.5978 46.7615 45.4305 44.7455 43.6548 41.8681 40.4361 39.3146 38.447 37.6529 36.2068 34.6731 33.5218 32.4976 31.2628 29.7409 29.4061 28.2839 26.7004 25.8167 25.0857 23.7553 22.7807 22.1563 20.3602 19.1026 18.069 17.6812 17.2227 15.8222 14.8359 13.5919 12.7218 12.2102 10.9078 10.7622 9.95498 8.17069 7.49285 6.57801 5.9224 5.46405 2.47183 6.02209 23.2293 42.6276 55.2921 62.0822 65.487 66.2838 65.9759 65.381 64.1244 62.3872 60.4541 58.4222 56.7313 55.3302 54.0316 52.7663 51.3681 49.8992 48.7901 47.824 46.241 45.3528 44.7237 43.7154 42.6338 41.4052 39.8949 38.6203 38.1506 37.3602 36.319 35.3122 33.686 32.7901 32.3405 30.6198 28.6962 28.4657 27.9944 26.1453 24.8221 24.449 23.5994 23.1153 22.1014 20.561 19.6984 17.8479 17.0989 16.7478 15.3314 14.7344 14.3793 12.9604 12.2722 11.7131 10.5947 9.27388 8.14835 8.12781 6.7531 5.41719 5.27837 2.48146 7.57926 27.0839 47.1819 60.5439 67.7918 71.0502 72.0592 71.4669 70.4671 68.9188 66.42 64.4793 62.6776 60.4725 58.7477 56.9548 55.6616 54.4903 52.6976 51.045 50.4094 49.2756 47.6389 46.4703 45.4013 44.2286 43.0628 41.4048 39.6195 38.6677 37.8686 37.2783 36.1175 34.302 33.2408 32.6484 31.4159 29.6409 28.7987 27.9948 26.6117 25.326 24.5431 24.0185 23.2776 22.0184 20.8488 19.8393 18.1942 17.5787 16.7349 15.2656 14.6403 14.9075 14.075 12.4285 10.9109 9.5223 9.01195 8.36847 8.12027 6.9249 5.67507 5.84247 2.95675 12.7694 38.5545 59.6381 73.9637 81.9473 85.4576 87.0414 86.1164 84.5032 82.1667 79.2958 76.7713 74.2681 71.5237 69.5276 67.4641 65.2533 63.1741 60.8574 59.1818 57.9943 56.3008 54.1108 52.1226 50.5079 49.0135 47.4208 45.9308 44.2612 42.3412 40.818 39.622 37.7586 36.1267 34.9525 33.987 32.9319 31.0756 29.7959 28.6765 27.6924 26.2857 24.9402 24.4418 23.3589 22.2477 20.7861 19.0478 18.292 17.6978 16.4011 15.0095 14.7725 14.5464 13.4574 12.2437 10.4578 9.58826 9.22028 8.19826 7.38699 6.67044 6.0665 5.83646 2.89827 19.6324 53.2719 77.0475 93.0985 102.01 106.626 107.657 105.871 103.56 100.455 97.528 94.7597 91.449 87.7663 85.6803 83.5511 79.4143 75.9467 72.924 70.8357 69.0041 65.598 62.9898 60.8427 58.586 56.4146 53.8201 52.3566 50.7837 48.1204 46.4201 44.9248 42.702 40.6432 39.0182 37.0093 34.8935 33.0275 31.7171 30.5152 29.2323 27.5679 25.7111 24.4322 23.7907 22.8799 21.4582 20.0921 18.859 17.885 16.4587 14.8799 14.6558 14.2694 12.8856 11.888 10.866 10.0005 8.90456 7.4752 5.78831 5.26805 5.42064 4.81959 2.22366 27.7508 71.0997 98.3808 116.623 126.493 131.158 131.235 128.852 125.917 122.018 118.165 114.878 111.014 106.715 103.078 100.146 95.6306 92.0587 88.7595 84.4937 81.5477 77.7961 74.578 71.7464 69.1647 66.0816 62.8138 60.7579 58.0667 55.1181 53.1287 51.4758 49.2991 46.016 43.7482 41.4841 39.127 37.1994 34.6835 32.8032 31.2579 29.2696 27.3566 25.6665 24.5796 23.5637 21.9841 20.8077 19.1425 17.8474 16.357 14.7129 14.338 14.0328 12.6673 11.4049 10.344 9.29568 8.8301 7.58083 5.75371 5.18585 5.14339 5.32931 2.88225 38.5741 94.2861 123.709 143.459 154.105 158.103 157.291 153.952 149.784 145.062 140.522 135.382 130.303 126.485 121.114 116.647 112.903 108.596 104.774 99.9437 95.6079 91.5003 87.4311 83.2981 80.0382 76.263 72.931 70.2139 66.1629 63.0093 59.6883 56.7542 54.4864 51.1041 48.6342 45.909 43.1108 41.3939 37.9041 34.2567 32.8348 31.5924 29.3299 26.7789 25.0926 24.1349 22.3072 20.102 19.1124 18.2824 15.7437 13.7382 13.5797 13.2182 11.8615 10.9714 9.32901 8.44372 8.39288 6.81957 6.57213 6.39358 5.76531 5.79127 2.89051 53.0762 123.878 154.577 174.454 184.427 186.665 184.13 180.429 176.596 171.402 165.881 158.903 151.336 146.65 141.165 136.142 131.075 125.274 120.566 115.484 110.39 105.87 100.943 95.6744 92.0858 87.7063 83.4293 79.808 75.5688 71.2823 66.1697 62.3867 59.8253 57.0542 53.9973 50.5718 47.5189 45.2148 42.075 38.2208 36.0003 33.7464 30.4729 27.8677 26.438 25.9595 24.208 21.4864 19.9861 18.7416 15.9703 13.6358 13.2021 12.5875 11.3828 10.6261 8.78403 7.84516 7.15479 5.83022 6.0745 5.40101 5.10695 5.2031 2.38657 73.0984 162.477 189.345 206.005 213.973 214.641 211.759 208.964 204.739 198.109 192.635 185.511 177.496 170.95 163.586 158.118 151.536 143.626 137.782 131.889 125.146 120.649 115.828 109.949 105.345 99.8464 95.221 90.0512 85.0713 80.515 75.042 70.5057 66.8394 63.568 59.9077 56.7653 53.5181 49.4734 46.6029 43.5704 40.0731 36.1092 32.5305 30.5969 28.931 27.4452 25.7153 22.9 20.0512 18.6776 16.6375 14.4097 13.4061 12.0172 10.2807 9.4018 8.95819 7.57958 6.03038 5.59209 4.87708 4.06697 3.99414 4.58493 2.60962 42.4405 92.2123 103.459 110.483 114.045 114.395 113.208 111.947 109.049 105.147 102.839 99.368 95.9345 92.2886 87.6383 84.6093 81.3006 76.6394 73.1204 70.2537 66.425 63.8639 61.5115 58.659 55.7064 52.7064 50.7669 47.7 44.7697 42.7274 40.2624 37.8123 35.5156 33.5179 31.643 30.0579 28.0968 25.7301 24.3654 22.7839 20.7234 18.8523 17.1613 16.0666 15.0682 13.6889 12.8296 11.3906 9.73008 9.32158 8.4558 7.4198 6.7944 5.87601 4.83214 4.33261 4.57363 3.82887 2.79595 2.57743 2.11881 2.16994 2.04403 2.12293 1.32514 49.725 101.908 108.418 114.896 117.369 116.67 115.07 112.553 109.497 107.086 104.083 100.256 95.7641 92.3625 89.2188 85.1199 81.879 78.5797 75.2705 72.2872 69.1438 65.4798 61.9376 59.5071 57.1088 54.1331 51.2124 49.3538 47.2243 44.166 41.7886 38.9363 36.5389 34.0679 31.3525 29.8506 27.7588 26.1944 24.6224 21.9467 19.7612 18.3348 17.1725 15.5837 14.3535 13.6603 12.7094 11.4433 9.82048 8.47743 8.12373 7.14901 6.30347 5.89621 5.05796 4.24627 3.70748 3.47819 3.12619 2.94764 3.00962 2.70125 1.95106 1.67995 0.872946 83.8991 178.936 200.319 214.482 218.484 217.396 215.232 210.814 205.234 200.721 195.576 188.535 180.024 173.014 167.175 160.76 153.865 147.207 140.811 134.773 129.773 123.655 117.083 112.377 107.454 101.866 96.3169 92.5702 89.1024 83.0538 77.9909 74.1902 69.1187 63.6804 59.3955 56.1983 52.1299 48.9144 46.2035 41.8671 37.4919 34.752 33.0462 30.3164 27.9866 25.9907 23.9769 21.9209 19.1717 17.1031 16.5434 15.0567 13.1004 11.6672 10.0063 8.74011 7.72293 7.21163 6.80829 6.28365 5.53146 4.78399 4.38031 4.30303 2.18616 59.4529 135.254 164.217 181.216 186.775 187.734 186.493 182.758 178.244 174.162 169.398 163.051 156.742 150.928 144.939 139.559 134.286 128.341 122.242 117.109 113.238 108.27 103.429 99.4095 94.5166 90.4322 85.7214 81.4492 78.1559 73.3999 68.8141 65.4988 60.6995 56.1946 53.0086 49.4109 45.9996 43.2632 40.7539 37.951 34.9867 32.7337 31.1283 28.3269 25.8285 24.1701 23.1533 20.9512 18.6463 17.4897 15.9684 14.5797 13.2683 12.0814 10.729 9.40059 8.13956 7.36175 6.88923 6.78191 5.44808 4.47593 5.12585 4.97514 2.28009 43.7879 102.162 129.158 147.41 156.377 159.026 158.331 156.359 151.651 146.991 143.348 138.994 134.665 130.073 124.069 118.853 115.816 111.289 106.741 103.297 99.3247 94.664 90.5512 86.634 82.6259 79.642 75.1551 70.8861 67.257 63.7471 60.4638 57.006 53.3831 50.0323 47.2936 44.0918 41.2195 38.8508 35.9926 33.9888 32.8762 31.2742 29.0806 26.4644 24.6224 23.2985 22.4388 20.5045 18.2812 16.9709 15.5974 14.1118 13.5304 13.4108 12.308 10.9158 9.18802 8.06167 7.28163 6.84563 6.5111 6.04007 5.77007 5.37371 2.57359 32.1076 77.7375 101.571 118.999 128.927 131.53 131.827 131.233 126.9 122.365 119.714 116.757 113.752 109.797 105.205 100.935 97.1922 94.1837 91.1116 87.6256 83.8399 80.0776 76.5466 73.2155 70.3057 67.394 63.5504 60.7754 58.1705 54.7382 52.1957 50.3827 47.5283 44.1004 42.0996 40.1019 37.8065 36.0685 34.2124 32.0174 30.2945 28.8741 27.33 25.7694 24.1548 22.4378 21.0691 20.0174 18.5558 17.1279 16.2603 15.5752 14.989 13.8218 12.7252 12.4789 11.1036 9.35213 8.0523 6.81733 6.76986 6.7311 5.8856 5.48447 2.76952 23.4346 58.2582 78.2537 93.7653 103.037 106.013 106.565 105.887 103.274 99.9519 96.9659 94.1969 92.2172 89.3044 86.1262 83.4118 80.2751 77.725 75.0268 72.2549 69.2727 66.2916 63.7613 61.4114 59.4689 57.0882 54.3113 52.9947 51.4227 48.8492 46.9302 44.9846 42.3783 39.9895 38.9329 37.4787 35.3086 33.9496 33.3413 31.5308 29.3535 27.7054 26.2584 25.4127 23.7401 22.4291 21.2976 19.8358 19.16 18.0282 16.5524 16.1043 15.2513 13.6646 13.0377 12.4297 11.4203 9.80751 8.55937 8.06894 7.46088 6.4985 5.73287 5.42419 2.61646 16.3846 41.2371 58.1169 71.8052 79.6634 83.0489 84.2883 83.8854 82.2562 80.3742 78.1542 76.3259 74.4378 72.3297 70.0854 68.452 67.4701 65.4903 63.0641 61.4971 59.4926 57.1848 55.3436 53.5789 52.1862 50.6134 48.2655 46.74 45.5585 44.2011 42.8044 41.0058 38.8641 37.7081 37.4053 35.7619 33.6001 31.9515 31.4248 30.0436 28.9013 28.0185 25.8221 24.8371 24.2327 23.0926 21.6232 19.8127 18.8986 18.1992 16.9572 15.6686 14.2966 13.8679 13.5695 11.8458 10.8201 10.5817 9.89472 9.1511 7.96732 6.46742 6.0727 6.19762 3.05322 9.60428 27.5693 43.5635 56.1059 63.9272 67.5617 69.1401 69.3222 68.5263 67.7595 66.4082 64.9202 63.2359 61.7155 60.0345 58.5901 58.0609 57.0095 54.9167 53.6172 52.5781 50.9541 49.6853 48.4409 47.1013 45.9776 44.3069 42.5885 41.6085 40.5933 39.3303 38.2942 36.9642 35.9394 35.3999 33.7742 32.3055 31.1175 30.3538 29.353 27.9175 26.7627 25.43 24.3871 24.2015 23.0964 21.1658 19.8457 18.3945 17.8173 17.2175 15.5741 14.4223 14.0627 13.2357 11.6992 10.9973 11.6337 10.6547 8.77571 7.49686 6.39268 5.99443 6.11027 3.18223 5.36181 20.6486 37.721 49.7105 57.8568 61.9266 63.2771 63.4865 63.1426 62.7533 61.7512 60.609 59.3773 57.8937 56.4199 55.2108 54.1852 53.1331 51.5456 50.4937 49.8967 48.4817 47.3768 46.4361 45.0223 43.8261 43.0187 41.775 40.3177 39.2084 38.3017 37.4507 36.472 35.1703 34.0528 32.7334 31.4415 30.3691 29.7001 29.2026 27.3824 25.5125 24.8279 24.1369 23.9667 22.9416 21.2057 20.268 18.6176 17.6522 17.1989 16.0413 15.0457 14.5874 13.0917 11.5562 10.8768 10.9375 10.2827 8.43147 7.6561 6.54973 5.50054 5.63609 2.87829 7.5769 25.2876 43.0013 56.08 63.7085 67.5648 69.1843 69.0621 68.5539 67.5011 66.1194 65.295 63.6498 61.3112 60.0091 58.6563 57.3809 56.3859 54.6381 52.7938 51.9123 50.6146 49.3561 48.2416 46.7025 45.4051 44.4776 42.9318 41.1414 40.1744 39.4309 38.6766 37.5893 35.9765 34.2922 33.1786 32.3557 31.0057 30.0062 28.817 27.4484 26.3176 25.3097 24.5005 23.5431 22.7803 21.7006 20.1762 18.9215 18.2655 17.3428 16.0298 15.0885 14.9132 13.8111 11.8383 10.3159 9.84297 9.48996 8.19023 7.83635 6.92725 5.73606 5.67111 2.78231 13.8106 38.4642 57.2 71.1734 79.1021 82.6426 84.4043 84.4757 83.6425 81.1874 78.8354 77.2859 74.6257 71.87 70.4512 68.975 66.8991 64.7936 62.5435 60.5556 59.249 57.1785 54.8809 53.2468 51.6239 50.1706 48.57 46.7995 45.257 44.1154 42.4827 40.9712 39.476 37.8118 36.2504 34.6707 33.7489 32.5425 30.9544 29.5535 28.7862 27.5413 26.1334 24.8331 23.5696 23.1067 22.0025 20.1959 18.9513 18.4941 17.5873 15.7973 14.871 14.5096 13.6435 12.1563 10.8079 10.2098 8.85476 7.86977 7.36841 6.6901 5.68432 5.02405 2.64427 21.245 54.3887 76.0075 91.179 99.3774 103.6 105.394 104.437 102.801 99.9498 96.8366 94.8119 91.8123 88.3001 85.9838 83.7681 79.8111 76.1023 73.8657 72.3182 70.4574 66.9912 63.7674 61.5024 59.598 58.0416 55.4563 53.7109 52.0333 49.9102 47.6655 45.6339 43.8864 42.2406 40.281 37.302 35.3535 34.5326 32.9786 31.4666 30.4575 28.7184 27.0119 24.9553 24.3106 23.9393 22.3675 21.3515 19.7239 18.2456 17.4272 16.0504 15.2487 14.8432 13.169 11.8438 11.2999 10.4343 8.29376 7.2421 6.56874 5.73297 5.42568 4.50575 2.134 30.0915 73.5419 98.487 115.671 124.912 129.238 128.983 126.473 124.228 120.832 116.886 114.681 111.363 107.024 103.724 99.8633 94.5239 91.0406 88.5965 85.7419 83.1321 79.2887 75.4047 72.2349 70.095 67.4183 63.809 61.3828 58.6811 56.0678 53.7407 51.4521 49.6552 47.2159 44.1826 41.6096 39.7663 37.7814 35.3354 33.5358 31.7588 29.6578 28.0959 26.4554 25.5839 24.6578 22.4531 21.0889 19.7809 18.0455 16.801 15.3633 15.0036 15.0802 13.1515 11.2992 10.5453 9.82812 8.25819 6.79318 6.33541 5.72096 5.57667 5.36648 2.51134 40.7988 97.4225 124.846 142.933 152.95 156.709 155.153 151.368 147.469 143.402 139.001 134.493 129.415 125.396 121.579 117.043 112.032 108.144 104.72 100.413 96.9368 92.9168 87.7755 83.5811 80.8699 77.2564 73.6521 70.2009 66.1162 63.0325 60.2051 57.2119 54.5349 51.9583 48.8015 46.132 44.2827 41.5304 38.4281 35.4768 33.2183 31.4957 29.7609 27.9885 26.202 24.766 22.7788 20.669 19.2079 17.9984 16.2246 14.052 13.7435 13.6536 12.4193 11.0647 9.52186 8.99578 8.40772 6.81673 6.47753 6.01628 5.61382 5.50778 2.50184 55.0668 127.773 157.226 174.763 182.701 184.903 183.306 179.064 174.568 170.266 164.633 157.387 150.103 145.018 139.967 135.693 130.616 124.997 120.359 115.018 110.985 107.064 101.641 96.8067 92.8411 87.7258 83.6015 79.9844 75.6886 71.6262 67.5997 63.889 59.8981 57.1493 54.2275 51.0179 48.5512 45.7512 42.5506 38.5739 36.0642 34.2595 31.7502 29.4946 27.0404 24.9806 23.3842 21.4704 19.7935 18.5834 16.4207 13.8495 13.3332 12.897 11.6132 10.0108 8.70254 8.60062 7.97573 6.65144 6.41293 5.52399 4.86872 4.86021 2.16289 74.5041 166.258 193.36 208.161 214.293 214.287 211.858 208.699 203.742 197.841 191.305 184.314 177.201 169.674 161.876 156.021 150.226 143.395 136.767 130.207 124.986 121.291 116.238 110.368 105.027 99.3533 94.5829 89.9982 85.7926 81.4237 76.6389 71.6569 66.961 63.2883 59.6231 56.8959 53.6624 50.0656 46.9629 43.2926 40.2683 36.9018 33.4304 30.9418 28.7948 26.1668 23.939 21.6513 19.6694 18.5736 16.1275 13.8252 13.2734 12.3789 10.6895 8.86844 8.90133 8.87434 7.09014 5.57352 5.3603 5.31995 4.53421 4.4122 2.2949 42.8499 93.719 105.551 111.882 114.849 114.465 113.209 112.019 108.772 105.09 102.105 99.2071 96.0554 91.5635 86.8435 83.2958 80.415 76.6997 72.7528 69.3468 66.2636 64.3539 61.6573 58.1211 55.1469 52.9168 50.5103 47.6211 45.4206 43.2612 40.9281 38.0675 35.6839 33.6869 31.4405 29.8946 27.9449 26.0448 24.713 22.9679 21.0962 18.9957 17.068 15.5295 14.6711 13.4196 12.0646 10.7072 9.46572 8.93334 7.71508 6.78049 6.54786 5.85276 5.09496 4.40569 4.66439 4.51211 3.25171 2.35265 2.2755 2.85122 2.52199 2.08403 1.09892 50.8778 104.87 110.865 115.772 118.103 117.129 114.795 111.541 108.05 105.341 102.198 98.2632 94.0579 91.235 88.3669 84.2763 81.5125 78.5313 74.8183 71.9148 68.9962 66.6681 62.6781 59.2941 57.5653 54.7738 52.1053 49.6697 47.5094 44.3474 41.9331 39.7919 36.8295 34.4686 32.2357 30.6282 28.2902 25.58 23.6799 21.9242 20.1574 18.5668 16.8677 15.1629 14.5777 13.7929 12.4574 11.1598 9.86401 8.89005 8.16584 7.31264 6.50782 5.74068 4.94053 4.36866 4.00807 3.51005 3.04634 3.12499 2.74445 2.23414 2.13758 1.78605 0.726072 86.7612 185.103 204.92 216.388 220.052 218.239 214.107 209.13 203.308 197.818 192.325 185.673 178.123 171.475 165.173 158.812 153.3 147.466 140.507 134.663 129.358 123.923 118.01 112.032 107.162 101.816 96.6301 92.2361 88.6467 83.6878 78.5357 74.7811 70.3804 65.2884 60.8622 57.9042 53.4669 48.7234 45.5824 41.7222 38.062 35.4453 33.1457 30.6283 28.355 26.053 24.2015 22.1816 19.6709 17.541 16.2246 14.8828 13.3881 11.9765 9.99548 9.14546 8.33083 6.91642 6.35956 6.52266 5.88664 4.88181 4.22612 3.88421 1.88378 63.7237 142.526 168.302 182.65 186.922 187.068 184.709 180.568 175.232 170.386 166.346 161.601 155.566 148.733 143.025 138.191 133.296 128.169 121.407 116.64 113.334 107.565 103.239 99.0676 94.4228 90.0663 85.4113 81.2854 78.1094 74.4791 69.7064 65.6894 61.9832 57.6146 53.75 50.6561 47.1717 44.3485 41.9138 37.9868 35.0518 33.2757 31.6418 29.6507 26.6765 24.5475 23.0765 20.8846 19.2768 17.7525 16.3335 14.9353 13.638 12.8752 10.9804 9.6317 8.8769 7.76254 7.1902 7.32557 6.3488 5.2768 4.96665 4.43907 2.01852 48.9248 109.951 132.631 148.465 155.2 157.102 155.765 152.194 147.499 143.755 140.95 137.838 132.999 126.971 122.66 118.315 114.938 111.044 105.728 102.496 99.5803 94.3652 90.1319 86.4129 82.9945 79.7821 75.5459 72.5112 68.6494 64.8962 61.7748 57.487 53.3128 50.1446 47.8057 44.9996 42.0291 39.9846 37.6939 34.8876 33.2164 31.855 29.6967 27.6308 26.1419 24.5774 22.0784 19.8192 18.5993 17.3667 16.4774 14.9172 13.7806 13.392 12.4485 11.147 9.93221 9.38544 8.31844 7.64574 7.10463 5.83907 5.4925 5.5473 2.62271 37.2505 84.1946 103.503 118.974 126.262 128.173 127.889 126.899 123.897 120.524 119.042 116.568 112.976 108.81 104.923 101.1 97.8584 94.6527 91.3764 88.4133 84.9553 81.0102 77.5985 74.0118 70.8239 67.8404 64.3614 62.4085 59.1808 55.8807 53.6999 51.3928 48.2298 44.981 43.3455 41.5278 38.8613 36.8339 35.5743 33.7274 31.7479 29.9146 28.2672 27.08 25.5567 23.5554 21.3632 20.2815 19.3521 17.7557 16.6147 15.637 15.5264 14.3314 12.6375 12.0668 11.168 9.95695 8.72638 7.78882 7.5074 6.44448 5.6391 6.04676 3.06867 27.8599 62.7584 77.8371 91.2132 98.5806 101.255 102.148 102.478 100.526 98.299 96.8391 94.389 92.2517 89.8769 86.6129 83.6972 81.216 78.6279 76.0136 73.5752 71.0945 68.5224 65.6554 62.9826 61.213 58.3664 56.0443 54.6868 52.6691 50.0502 48.0996 47.0521 44.3663 41.7868 40.4224 38.6128 36.2289 34.6587 34.336 32.8949 30.3765 28.3046 27.3016 26.9373 24.5818 22.5424 21.6032 20.7784 20.1342 18.3328 16.7556 16.4194 16.5437 14.9763 12.7162 11.584 11.5572 10.8138 9.35935 8.24706 7.21993 6.41832 5.76457 5.58212 2.79182 19.6763 43.8384 55.3654 67.0766 74.9249 78.8577 80.2671 80.8527 79.9313 79.028 77.6962 76.201 74.6441 72.9942 70.902 68.798 67.8936 66.6972 64.5143 62.7325 61.6603 59.5322 57.0227 54.9489 53.921 51.9291 50.192 49.2884 47.7167 45.8151 44.1608 42.7796 40.3128 39.109 38.7976 36.9322 34.4545 32.8803 32.5253 31.1867 29.3431 28.2013 26.8942 26.3679 24.9029 23.1829 22.0893 20.5785 19.5426 18.0304 16.9011 16.5883 15.6759 14.5341 13.5632 12.0302 11.2523 11.6846 10.4499 8.90249 7.97084 6.93774 6.25098 5.64589 2.74689 11.7455 27.7546 38.4604 49.9721 58.8424 63.586 65.6139 66.5444 66.2091 65.8689 65.3227 64.7129 63.6628 62.9748 61.8709 60.0282 59.0328 58.3411 56.6888 55.4042 55.3962 53.9685 51.7197 50.0367 49.0783 47.6803 45.9766 44.792 43.7209 42.5803 41.2235 39.6181 38.0522 37.3578 37.0356 35.5147 33.8133 32.5633 31.7959 30.7495 28.989 27.7007 26.3277 25.6037 24.7922 23.2471 22.0247 20.7936 19.6834 18.9711 18.1256 16.8048 15.2352 14.2251 14.0054 12.6323 11.3414 12.0268 10.9084 9.33543 8.23157 7.02459 6.20472 5.86689 3.14927 6.77377 18.9511 31.0106 43.041 52.4698 57.5962 59.8077 60.9012 60.9631 60.9095 60.6005 60.3646 60.0449 59.2026 58.2317 57.0676 55.824 54.9932 53.8083 53.1632 52.7424 51.275 49.7848 48.6733 47.3953 45.8769 44.5627 43.6602 42.453 41.0393 39.9986 38.7025 37.625 36.6672 35.7191 34.5665 33.3647 32.1484 31.37 30.7302 29.0734 27.4136 26.0309 25.1336 24.2559 23.0799 22.3505 21.3739 20.0446 19.3336 18.4377 16.9537 15.8648 15.0039 14.0816 12.4451 11.0322 11.6006 11.4802 9.5295 7.58961 6.52074 5.8764 5.60342 2.85368 9.19298 24.2552 37.1603 49.826 58.7284 63.3445 65.3001 66.6151 66.9079 66.2914 65.7112 65.0759 64.4307 62.9752 61.5388 60.4929 59.2725 58.0783 56.6001 55.531 54.5168 52.848 51.6334 50.6942 49.0711 47.3647 45.8553 44.7441 43.3267 41.924 40.9764 39.7649 38.9157 37.5971 35.8206 34.5328 33.699 32.7026 31.5949 30.2843 29.1164 28.1831 26.9204 25.501 23.9488 23.2371 22.5262 20.9361 19.8318 18.9443 17.9104 16.6859 15.6929 15.3735 14.0853 11.8153 10.3057 10.4221 10.6817 9.19247 7.78282 7.10799 6.25322 5.03593 2.06831 16.3754 39.899 54.3884 67.3526 75.706 79.35 80.3131 81.253 82.1242 80.2632 77.8643 76.9818 75.7083 73.6435 71.6834 70.067 68.4568 66.4917 64.3861 62.4265 60.7799 58.6595 56.6286 55.637 54.0267 52.0795 50.1229 48.3869 46.8873 45.4729 43.8385 42.586 41.3418 39.4566 37.6536 35.6666 34.5924 33.8564 32.6399 31.1078 29.9777 28.8615 27.5184 25.9003 24.0772 23.3269 22.9962 21.6561 20.0537 18.8424 17.9666 16.5078 14.7767 14.428 13.8818 12.254 11.2151 10.4821 9.07849 8.28788 7.49541 6.6821 5.56412 4.58427 2.33187 24.6827 58.3869 76.2115 89.6748 97.0627 100.66 101.701 100.951 100.78 98.9022 95.6482 93.962 91.7706 89.0149 86.4083 83.8765 80.8776 78.1543 76.2601 74.0287 71.2553 67.9637 65.2013 63.2327 60.9523 59.3214 57.436 55.1334 52.8159 50.7131 48.4183 47.0011 45.1413 42.8906 40.9706 38.5131 36.9741 35.6281 34.1757 33.0527 31.8584 30.179 28.2562 26.1737 24.8988 24.3922 23.4571 22.2339 20.3701 18.6431 17.6424 16.2262 14.8643 14.7993 14.2498 12.9735 11.8946 10.7424 8.58191 7.49139 7.17102 6.05499 5.72271 4.93715 2.19665 34.1282 78.6188 100.026 115.068 122.35 126.34 126.438 123.727 121.542 119.591 116.304 113.455 110.098 106.87 104.473 100.928 95.7738 92.2581 89.9394 87.1011 83.828 80.13 76.7942 73.4861 70.6507 68.0781 65.0202 62.1362 59.2169 57.1256 54.6135 51.6891 49.7948 47.7563 44.6996 42.2422 40.7271 38.1247 35.6173 34.3122 32.4735 30.5764 29.4273 27.6642 26.3093 25.6789 23.4248 21.5856 20.1193 18.4806 17.2173 15.3908 15.1132 15.208 13.6998 12.2019 10.8929 10.3842 9.05959 7.47478 7.69433 6.78631 6.29397 5.35355 2.06449 45.3989 103.154 127.45 143.868 151.662 154.722 152.664 148.464 144.521 141.058 137.122 133.359 128.837 125.058 121.835 117.27 112.413 108.459 105.11 101.544 97.9257 93.735 88.7372 84.259 81.3039 78.099 74.1972 70.2344 66.104 63.4484 61.0347 57.3011 54.451 52.4916 49.4277 46.662 44.3836 41.3672 38.8258 36.1834 33.6729 31.7799 30.714 29.0876 27.3925 26.2815 23.7518 21.9302 20.2789 18.8595 17.4213 15.1537 14.3529 13.3857 12.1166 10.9097 9.78539 9.89694 9.27717 7.89574 7.67411 7.20837 6.23897 5.20036 2.24845 59.2627 133.867 160.721 176.885 183.439 183.956 180.617 175.779 170.98 166.499 160.845 155.573 149.971 144.911 139.389 133.965 130.231 125.844 120.774 115.712 112.072 108 102.049 96.5495 92.1062 88.0891 84.3148 79.8392 74.9609 71.1966 68.5889 64.8433 60.0994 57.1897 54.4522 51.0684 48.3081 46.1646 43.6652 39.5801 36.4257 34.6594 32.7643 30.2804 28.2349 26.5826 23.7343 21.7101 20.4149 19.0502 17.5801 15.776 14.0692 12.5298 11.6186 9.79033 9.14097 9.05824 8.47351 7.90815 7.11953 6.77424 5.80804 5.16802 2.56926 77.7313 171.841 198.22 211.319 214.801 213.488 209.964 205.678 199.992 194.032 188.005 181.785 175.506 169.18 161.603 154.812 149.528 143.661 136.551 130.187 125.787 121.987 116.953 111.026 104.842 99.6798 95.2082 89.9493 85.9585 81.694 77.2077 73.0738 67.4689 63.315 60.3306 56.0828 52.4353 49.9772 47.1974 43.3567 39.8425 37.3033 34.4941 31.2993 29.1293 26.6243 23.484 21.3351 20.1974 18.8747 17.0571 15.3249 14.1126 12.8067 11.5482 9.53135 8.82967 8.40498 7.12952 6.61434 6.54825 6.38546 5.50419 5.06501 2.5299 44.2289 96.4391 108.708 113.907 114.753 113.927 112.426 110.533 107.024 103.482 101.026 97.7876 94.5132 91.1272 86.7092 82.9096 79.7329 76.1937 72.4345 69.3269 66.545 64.4732 62.2467 59.0078 55.7052 53.3766 50.8031 47.6127 45.8569 43.6372 40.731 38.6043 35.8724 33.6289 32.0221 29.5338 27.2602 25.6682 24.2162 22.576 20.8836 19.2814 17.4443 15.6215 14.6493 13.2079 11.6346 10.7781 10.0979 9.39788 8.39746 7.31334 6.7983 6.28423 5.76205 4.94983 4.3905 4.16951 3.11156 2.60265 3.14859 3.26405 2.87016 2.49194 1.11143 54.6304 110.725 113.889 116.407 116.481 114.071 111.26 108.548 105.513 103.06 100.275 96.6365 93.4257 90.5987 87.6775 84.6988 81.5579 77.7273 74.1215 71.2814 68.8329 67.2242 63.1638 59.0812 57.2898 54.146 51.0482 48.9766 47.4893 44.4109 41.8709 40.6426 37.462 34.611 32.6184 30.7348 28.6819 25.8528 24.1346 23.1893 21.2297 18.9042 16.9647 15.6067 14.9378 13.8889 12.5046 11.3642 10.098 9.46408 8.56916 7.60806 7.04469 5.73263 4.55001 4.01313 3.85538 3.27523 2.75561 3.14925 2.71042 2.29128 2.92116 2.59954 0.955248 94.0074 196.668 210.253 216.095 216.634 212.949 208.048 203.842 198.545 193.703 188.091 182.025 176.442 170.355 164.392 158.502 152.584 146.801 139.99 133.536 128.94 124.335 118.264 112.777 107.944 101.758 96.5697 92.2312 88.6551 83.7281 78.6702 75.6368 70.7619 65.3889 60.9347 57.944 54.1243 49.0813 45.7964 42.8765 39.282 35.6855 32.9697 31.044 29.1085 26.3382 24.397 22.8616 20.6152 19.0303 16.7719 14.794 14.1435 12.7003 10.1808 8.91933 9.03407 7.49164 6.08575 6.34128 5.76574 5.04784 4.72119 4.14641 1.91076 71.1495 153.846 172.434 181.257 183.474 182.154 178.814 175.123 170.594 166.294 162.018 158.555 153.99 147.896 143.103 137.432 131.613 127.942 122.672 117.159 113.41 108.317 104.083 100.101 95.5376 90.7309 86.7257 82.4823 78.7666 75.5447 70.9028 66.7119 62.3386 57.7798 53.8232 51.5526 48.3939 44.8792 42.6043 39.2007 35.6855 33.0743 31.1229 29.8696 27.8987 25.1896 23.7032 22.1178 20.3769 18.9004 17.089 15.2337 14.0401 13.5435 11.5534 10.2061 10.2225 8.86607 7.28952 6.83349 6.33505 5.68568 4.47563 3.94981 2.18974 56.8136 121.112 135.835 147.022 151.031 151.645 149.923 146.084 143.024 140.506 137.709 135.694 132.124 126.011 122.339 118.682 113.996 110.382 106.619 103.459 100.11 95.8533 92.31 87.3569 83.773 80.9819 76.7493 73.3822 70.091 66.5891 63.0664 59.0934 54.7555 51.3453 48.6059 46.0759 43.5352 41.6299 39.8858 37.0064 34.3873 31.9555 30.0266 29.0695 27.5017 25.671 23.3833 20.8248 19.764 18.5999 17.524 16.4994 14.7121 13.4565 12.6063 11.3287 9.87661 9.2892 8.37753 7.88922 7.6507 5.97312 4.74364 4.82838 2.44846 44.8576 94.3562 105.978 116.877 121.588 123.512 123.291 121.939 120.62 118.709 116.882 114.99 112.446 107.676 104.135 101.689 98.619 94.6059 91.3269 89.5952 86.5839 82.976 79.9505 75.7255 72.2498 69.7897 66.2502 63.4097 60.1931 56.9812 54.6255 52.3222 49.6504 47.3949 45.0297 42.157 40.0045 38.7668 37.1765 35.007 33.3687 31.472 29.8845 28.7267 26.9305 24.7281 22.5355 21.2951 20.8988 19.0978 17.2633 16.6457 15.9919 14.8492 13.674 11.737 9.8242 9.37308 9.14414 8.9904 8.49407 6.85485 5.28365 4.97459 2.47458 34.7727 71.2675 78.9268 88.4066 93.5957 96.4979 97.7315 98.3968 98.0063 96.6906 95.5454 94.1151 92.6133 89.9698 87.0933 84.6349 82.5367 79.71 77.361 75.9489 73.4628 70.5894 67.9535 65.2649 62.9758 60.1399 58.1054 56.2936 53.7474 51.4493 49.5139 48.1272 46.0002 44.2669 42.2406 39.5639 37.6473 36.2091 35.1081 33.9029 32.4132 30.7564 29.2107 27.8646 25.8701 23.6095 22.4013 22.5107 21.6423 19.3456 17.582 16.6644 16.6759 15.8783 14.0291 12.3748 11.1796 10.9016 10.1054 8.84563 7.81152 6.91026 5.76848 5.06601 2.54542 25.5766 50.2581 54.0712 62.8252 69.3082 73.4702 75.7869 77.113 77.7754 77.5549 76.908 76.6157 75.7259 73.9418 72.3993 70.8091 69.3149 68.6318 67.4927 65.5507 63.8559 61.7101 59.6255 57.5565 55.9974 53.8776 52.5462 51.8564 50.0298 47.9615 46.3543 44.8688 42.817 41.0158 39.5956 38.0006 36.0758 34.8671 33.9579 32.577 31.2967 29.768 28.3329 27.6747 25.8707 23.9259 23.0254 22.3225 21.1139 19.5442 18.4139 17.5006 16.8248 15.5836 14.0724 13.1729 11.7979 11.6414 10.8117 8.71111 7.85733 6.90497 5.87471 4.94754 2.25261 16.9307 31.3458 34.0464 44.0123 52.2018 57.8702 61.2425 63.4829 64.8018 64.7943 64.8744 65.5314 64.996 64.1585 63.5792 62.4415 61.2582 60.847 59.894 58.349 57.6006 56.3614 54.4637 52.6324 51.4394 49.9197 48.84 47.9733 46.3831 45.0002 43.9082 42.2976 40.513 38.953 38.1795 37.3452 35.564 34.3352 33.2362 31.752 30.2621 29.1197 28.1444 27.321 25.5647 23.8176 22.9409 21.9988 21.2259 20.3763 19.4149 17.8774 15.9904 15.2384 14.9487 13.5155 12.1635 12.0393 10.9121 9.31594 8.29708 7.26282 6.2137 5.5207 2.77498 11.6115 20.4567 23.9541 35.7935 45.0767 51.3113 55.4219 58.5617 60.211 60.4424 60.8665 61.4729 61.5277 60.8708 60.2867 59.4322 58.3755 57.7008 56.7981 55.8612 54.9321 53.5994 52.2337 51.1094 49.9602 48.3997 47.199 46.1455 44.8334 43.4522 42.5244 41.4541 40.0417 38.6109 37.61 36.9024 35.3638 33.7632 32.4977 31.4525 30.2389 29.2817 28.4652 26.8686 24.8537 23.8977 23.2417 21.9629 21.2629 20.4566 18.9484 17.4738 16.3405 15.5884 15.2189 13.9274 12.4385 12.0026 11.4109 9.83273 7.89929 7.08278 6.21425 5.70105 3.00995 13.8113 26.4315 31.8915 43.5335 52.3699 57.95 61.2948 64.1336 65.4869 65.8771 65.7718 65.2485 65.4084 64.9336 63.7007 62.7635 61.6987 60.3996 59.1607 58.1817 56.9789 55.3628 54.2654 53.1562 51.299 49.7938 48.3225 46.959 45.8103 44.2139 42.9354 42.0035 41.0701 39.3852 37.9614 36.8423 35.3397 34.2147 32.897 31.8947 31.0735 30.1444 28.9665 26.9273 24.9216 24.2521 23.571 21.767 21.1017 20.0177 18.2112 17.624 16.9199 15.7802 14.5081 13.4327 12.3017 11.1897 11.0201 9.68258 7.85539 7.47594 6.82276 5.43904 2.26339 21.4955 44.5571 52.1346 62.6254 70.1702 74.5961 76.6984 78.4877 79.6509 78.7013 77.1001 76.9052 76.2932 74.6347 72.8902 71.7153 70.6748 68.5904 66.4693 64.9725 63.3677 61.1425 59.6179 58.1566 55.8808 54.3142 52.6681 50.853 49.1047 47.2212 45.5822 44.0325 42.4754 40.6733 39.322 37.9578 36.5451 35.1226 33.8464 32.8052 31.7568 30.8652 29.4279 27.5441 25.7464 24.4151 23.7192 22.1062 20.8899 19.5942 18.4296 17.5068 15.6495 14.9835 14.1141 12.5993 12.0137 11.0463 9.59895 8.76336 7.99112 7.04033 6.26179 5.51667 2.45915 30.7979 65.5112 76.0318 86.3013 92.2387 96.337 98.6366 98.5952 98.0378 96.1555 93.7158 93.1576 91.2551 88.9165 87.1392 84.5819 82.3319 80.4644 78.0603 75.7399 73.4938 70.1776 67.4153 65.1424 62.9348 61.4842 59.517 56.6269 54.2225 52.3837 50.1324 48.3793 46.3181 43.7419 41.5984 40.1239 39.1716 37.111 35.3566 34.321 32.9841 32.1079 30.2327 28.0249 26.6074 24.9415 23.8222 22.5252 20.6872 19.1471 17.869 16.1484 14.8201 15.1715 14.5874 12.8561 11.5893 10.6868 9.40871 8.16393 7.49423 6.36892 5.87511 5.70247 2.71401 41.0984 87.7049 101.771 113.461 118.296 121.85 123.432 120.552 118.084 117.013 114.478 111.939 108.987 106.771 104.456 100.711 96.7403 94.6374 91.9604 87.8375 84.6163 81.4218 78.0512 75.1138 72.5957 69.6525 66.3945 62.9153 60.157 58.298 55.8272 53.0593 50.7832 48.5244 45.9979 44.1427 42.3686 39.3265 36.8865 35.253 32.9486 31.7761 31.0208 28.9962 27.062 25.6919 24.0919 22.6676 21.1755 19.3568 17.2509 15.5182 15.1755 14.8633 13.8456 12.6115 10.7013 10.0606 10.2359 8.79502 7.58573 6.88317 6.57045 5.623 2.38091 52.8928 112.994 129.899 143.441 148.185 149.407 147.854 144.479 141.531 138.573 135.549 132.702 128.883 125.013 121.296 116.768 112.844 109.71 106.41 102.654 97.9613 94.2221 90.8165 86.4439 83.0776 79.3496 75.296 70.8779 66.7646 64.0656 61.6526 58.1561 55.0757 52.8213 50.5465 48.7857 46.0857 42.3797 39.5745 36.7332 33.6317 32.4407 31.6997 29.7443 27.543 26.368 24.5619 22.9613 21.5203 19.5704 17.5827 15.9202 14.9959 13.3286 12.0693 11.0067 9.82196 9.76292 9.58947 8.56314 7.62601 7.07508 6.70099 5.83482 2.61181 66.4868 143.498 164.313 177.382 180.815 179.799 175.434 171.644 168.147 162.589 157.115 153.863 149.523 144.535 139.421 134.15 130.482 125.926 121.31 118.006 113.32 108.273 103.778 98.2403 93.3241 89.8815 85.9069 80.2868 75.7283 72.0519 68.692 65.0391 61.3665 57.9321 54.8236 52.4198 49.4467 46.3222 44.0616 40.785 37.2868 35.3894 33.0167 30.3884 28.3128 27.0233 24.6406 22.6381 21.0325 19.317 18.3937 16.2824 13.7753 12.7723 12.0121 10.227 10.0773 9.38726 7.95619 7.66996 7.00699 6.71729 6.4094 5.86173 2.883 84.3803 182.032 203.095 212.225 212.426 209.833 205.53 200.507 195.433 189.483 184.336 179.352 173.938 168.516 161.181 154.663 149.481 143.417 137.429 132.542 127.401 122.234 117.694 112.07 105.324 100.473 96.1601 89.9055 85.6219 82.022 77.1757 73.3277 68.9022 64.4822 60.8851 56.5507 52.5916 49.6245 47.3807 44.3453 40.7818 37.9501 34.901 32.0727 29.6657 27.4375 25.0998 22.5464 20.6729 19.2745 18.0521 16.2547 13.8052 12.7611 12.154 10.0685 8.95716 8.13321 6.94162 6.61622 6.23178 6.06565 5.71036 5.02518 2.46943 47.5004 101.96 111.434 114.407 113.473 111.725 110.122 107.554 104.27 101.419 99.9493 96.8472 93.7416 90.9482 86.3511 82.3995 79.353 75.9681 72.7732 70.1462 67.0292 64.4706 62.6788 59.759 55.9324 53.1077 50.8213 47.3239 44.9936 43.5302 40.6755 38.8912 36.4618 33.8424 32.1317 29.3642 27.1791 25.6848 24.0697 22.5622 21.0039 19.6291 17.9156 16.3933 15.1702 13.6747 12.7153 11.5214 10.3811 9.63083 8.64955 8.01307 7.22087 6.39834 6.04318 5.00787 3.99317 3.84183 3.23784 2.67262 2.85244 2.71928 2.5452 2.38908 1.13306 28.6997 57.1128 57.4268 58.173 57.1833 55.1951 53.8092 53.1701 52.148 50.8363 49.6404 48.1305 46.8373 45.2756 43.4741 42.3836 40.8372 38.8616 37.2133 35.4701 34.5568 33.7208 31.5418 29.4385 28.4002 26.9209 25.0317 24.1105 23.4123 21.9675 21.1605 20.6042 18.7003 17.1787 16.3731 15.231 14.3099 12.9757 12.267 12.0612 10.9308 9.46614 8.56343 8.0108 7.49284 6.86502 6.20486 5.74081 5.03672 4.76937 4.33897 3.79504 3.61867 2.9921 2.25617 1.88263 1.82166 1.63983 1.45137 1.66302 1.40355 1.29345 1.67733 1.4133 0.529769 49.5257 101.859 106.157 107.378 106.052 103.495 101.3 99.8082 97.6315 95.463 92.9365 90.0378 87.8717 85.0945 82.1139 79.3516 75.9068 73.2684 70.2569 66.4305 64.6139 62.4756 58.9832 56.2926 53.8098 51.1624 48.5441 46.2043 44.1276 41.5231 39.4713 37.9091 34.7846 32.1188 30.2335 28.6421 27.1208 24.6198 22.8389 21.8518 19.9354 17.6875 16.4578 15.6119 14.6977 13.1909 11.9975 11.2761 10.3854 9.97906 8.69029 7.62695 7.33128 6.56674 5.21584 4.25 4.67874 4.02521 3.05975 3.09191 2.70814 2.67517 2.78721 2.16658 0.908812 37.837 80.2332 86.8348 89.2571 89.7799 89.0738 87.4717 85.4288 83.759 82.181 79.8454 78.1585 76.5137 74.1122 72.0391 68.6942 65.0086 63.7333 62.0729 59.0149 56.7615 54.6573 52.4719 50.2446 47.8864 45.9612 44.4007 41.9405 39.7228 38.1678 35.9761 33.6457 30.834 28.4456 26.7551 26.0773 24.4911 22.3911 21.1476 19.9747 18.3279 16.5755 15.341 14.7799 14.166 12.6917 12.0706 11.3782 10.457 9.98875 8.87897 7.74767 7.14422 6.8281 5.84362 5.1026 5.34582 4.64174 3.36845 2.92391 2.8495 2.85182 2.33309 1.97834 1.14564 30.7737 63.8627 68.4327 72.2311 73.6776 73.8532 73.1849 71.1539 70.0589 69.2677 67.9899 67.2127 65.8232 63.3464 61.3316 59.15 56.7206 55.2919 54.0748 52.4261 50.4396 48.7139 47.0002 44.0978 42.2003 41.0646 38.9293 36.8483 35.5037 33.8974 31.9796 30.186 27.9407 25.9845 24.5917 23.4671 22.1211 21.1469 20.2606 18.9421 17.8619 16.3403 14.9727 14.6858 13.8632 12.8327 12.3169 11.0924 10.4535 9.82306 8.85138 8.26953 7.41747 6.62783 6.22784 5.64763 4.6492 4.42292 3.99209 3.71824 3.84347 3.05011 2.22109 2.1927 1.14257 24.8027 50.5869 53.8781 57.6391 59.2489 60.1879 60.5595 59.6813 58.7588 58.268 57.6321 56.7557 55.8355 53.6774 51.9892 50.8389 49.5457 47.724 45.9479 45.1188 43.8039 42.2736 40.5449 38.2194 36.5441 35.478 33.4997 31.6677 30.4067 28.8013 27.3234 26.3125 25.1725 24.2577 22.9722 21.1333 20.3162 19.983 18.9239 17.6937 17.2893 16.4177 15.2518 14.6845 13.7511 12.5325 11.5713 10.9314 11.0239 10.1081 8.74387 8.64688 8.21904 7.32811 7.00323 5.8995 4.51586 4.46091 4.65961 4.69671 4.40355 3.65953 2.66312 2.12236 0.984572 19.4937 38.6487 39.9751 43.4091 45.807 47.0891 47.7945 48.2078 48.2853 47.6101 46.9846 46.5833 46.1823 44.9076 43.7791 42.6559 41.5222 40.1259 39.0363 38.6309 37.2542 35.7672 34.573 33.1532 31.7063 30.3028 29.1931 28.1905 27.071 26.1299 25.0834 24.15 23.3213 22.7085 21.6875 20.2604 19.3244 18.4569 17.6902 17.3234 17.0307 16.2554 15.0966 14.0082 13.3186 12.3745 11.5942 11.7224 11.2968 10.1474 8.99939 8.58569 8.71141 8.01351 7.34185 6.76662 5.62753 5.18673 4.95386 4.47519 4.13185 3.71205 2.98559 2.40369 1.10964 14.7575 27.4875 26.8039 30.1922 33.3323 35.3627 36.6379 37.6511 38.6039 38.2553 37.9304 38.3268 38.0368 37.275 36.8683 36.2131 35.1095 34.6009 34.3481 33.7237 32.373 31.24 30.6476 29.5684 28.3425 27.2584 26.5566 26.2493 25.5189 24.4628 23.6779 22.8714 22.1496 21.0856 20.0678 19.3635 18.5292 17.9378 17.1962 16.6562 16.3812 15.5564 14.6408 13.9856 13.2347 12.4486 11.9725 11.6786 11.001 10.2457 9.45975 8.87463 8.65037 8.03638 7.33022 7.06335 6.14238 5.5736 5.28357 4.32968 3.93423 3.30151 2.77974 2.36634 0.943826 10.4031 17.2686 16.0163 20.4355 24.2292 27.3562 29.507 31.0526 32.1915 32.2127 32.4096 33.1764 32.9654 32.3143 32.2459 32.0431 31.3835 31.1416 30.7925 30.1183 29.222 28.6422 28.0352 27.0617 26.3395 25.5863 25.2134 24.7785 23.8201 22.9871 22.6106 21.9266 21.0019 20.0585 19.4871 18.9383 18.0834 17.5937 16.924 16.2369 15.721 15.0504 14.5475 14.0875 13.1413 12.2899 11.6969 11.0745 10.6195 10.1766 9.86013 9.03433 8.00389 8.18371 7.96941 6.70071 6.21209 6.0322 5.29656 4.46115 3.86326 3.31137 2.89987 2.57949 1.19824 7.47321 11.1695 10.34 15.9927 20.4419 23.8862 26.5939 28.8001 30.0918 30.2753 30.7309 31.2078 31.3605 30.9543 30.5452 30.3168 29.9714 29.7571 29.2816 28.6313 27.9837 27.3904 26.7523 26.1409 25.5604 24.8873 24.6033 23.9079 23.035 22.407 22.0092 21.6644 20.852 20.0766 19.468 18.9067 18.089 17.3945 16.6269 16.0937 15.5993 15.0513 14.905 13.9984 12.7806 12.4542 11.7971 10.8992 10.6842 10.1948 9.55732 8.83678 8.11722 8.04093 7.84243 7.03279 6.44213 5.93012 5.22926 4.68775 4.07463 3.62693 3.09579 2.80732 1.48578 8.49193 14.269 14.8335 20.3595 24.3667 27.4626 29.8108 31.4888 32.4246 32.7918 32.8726 32.8578 32.9928 32.9662 32.5132 32.0672 31.6322 30.947 30.3722 29.7469 28.9828 28.3021 27.8629 27.2634 26.2172 25.5369 25.0056 24.1203 23.5301 22.9754 22.253 21.7492 21.2491 20.4295 19.7179 19.0376 18.1732 17.7066 16.8892 16.3282 16.2283 15.7003 15.0763 13.9777 12.828 12.5153 12.1175 11.0881 10.8621 10.3393 9.27636 9.08558 8.73544 7.82809 7.11894 7.12765 6.84454 5.69466 5.17607 4.93262 4.25672 3.79771 3.41751 2.84475 1.20842 12.4032 23.8644 25.5022 30.1822 33.62 35.9712 37.7179 39.0247 39.2522 38.8482 38.6088 38.7263 38.139 37.2845 36.8923 36.5315 36.0085 34.8878 33.7568 33.0112 32.317 31.264 30.726 29.7792 28.3413 27.8232 27.0731 25.9729 25.0192 24.3039 23.5076 22.338 21.5323 20.9241 20.3557 19.7629 18.8652 17.9004 17.132 16.6983 16.4737 16.0446 15.2179 14.1855 13.4012 12.6701 12.0504 11.041 10.4645 10.0539 9.6052 9.15617 8.18077 7.55004 6.9783 6.50138 6.40225 5.79387 4.77994 4.28527 4.22279 3.6147 3.30901 3.05379 1.19279 17.1499 34.688 37.8657 42.2809 44.8123 46.8626 48.6425 49.2207 48.4161 47.28 46.6072 46.5596 45.5744 44.5043 43.8575 42.6383 41.6689 40.7608 39.3142 38.0268 37.3329 35.9728 34.4261 32.9842 31.9479 31.4764 30.3151 28.6752 27.5092 26.92 25.8413 24.3772 23.2401 22.1708 21.1172 20.4246 19.8167 18.7995 17.8687 17.2109 16.4873 16.3106 15.6926 14.4171 13.8189 12.7088 11.7399 11.1661 10.3125 9.74869 9.35887 8.41583 7.64126 7.57164 7.05482 6.24743 5.70027 5.47495 5.0229 4.17879 3.85782 3.33996 2.95458 3.11213 1.55997 22.5405 46.4954 51.3316 56.3761 58.1922 59.5391 60.5005 59.2567 58.0945 57.5539 56.5007 55.5313 54.5134 53.5071 51.9539 50.0648 48.5564 47.7446 46.4872 44.0286 42.4982 41.2743 39.3322 38.0403 37.101 35.4886 33.6263 31.716 30.2979 29.5106 28.4428 26.8707 25.5566 24.5704 23.5758 22.7019 21.5078 20.0927 18.9218 17.7786 16.4894 16.111 15.7338 14.7678 13.9793 12.7716 11.9063 11.3774 10.797 9.87638 8.67647 8.09509 7.68478 7.18663 6.77167 6.18436 5.29998 4.99349 5.33581 4.72399 3.66605 3.42747 3.32735 2.92422 1.38205 28.6275 59.6432 65.4437 70.8324 72.4762 72.6928 72.2856 70.9827 69.9984 68.8051 67.2871 65.9695 64.6759 62.3942 60.1938 58.2812 56.4058 55.0025 53.5371 51.4158 48.7599 47.1398 45.8474 44.0259 42.2247 40.2122 38.215 35.6639 33.6865 32.1901 31.0077 29.5224 27.9361 26.805 25.5554 24.9882 23.899 21.685 20.1897 18.8132 17.0235 16.5952 15.9116 15.0963 14.018 12.953 12.4185 11.6699 10.86 9.63847 8.49888 7.8024 7.29943 6.35649 6.00925 5.79451 5.0125 4.70463 4.62986 4.21568 3.47095 3.07436 3.23844 3.24798 1.57058 35.5612 75.1103 83.1203 87.7946 88.4447 88.1783 86.3925 84.7263 83.6256 80.9092 77.8869 76.5227 74.7164 71.9762 69.4792 67.1941 65.025 62.6955 60.9257 59.4931 56.7029 54.0923 52.3841 49.8613 47.0926 45.3023 43.5302 40.4346 38.2547 36.36 34.3253 32.4605 31.1651 29.4565 27.4909 26.7492 25.3659 23.0606 21.9806 20.8763 19.0892 17.9789 16.4552 15.2787 13.9371 12.956 12.3092 11.569 10.5791 9.56306 9.04372 7.55988 6.47254 6.45845 6.0771 5.50569 5.38819 4.91451 4.09732 3.7375 3.30321 2.8121 2.81794 2.88557 1.43393 44.4759 94.6152 102.76 105.407 104.859 103.573 101.261 98.7504 96.8492 93.9957 91.3089 89.4307 86.9592 84.0401 80.3469 77.022 74.396 71.7117 69.3316 67.048 64.0629 61.0478 59.0398 56.2446 52.4559 49.9141 48.1213 45.1234 42.6933 41.1439 38.9064 36.4915 34.813 32.862 30.6803 28.8337 26.5972 24.7532 23.7567 22.6352 21.1503 19.2149 17.2345 16.1246 14.7748 13.4401 12.6626 11.5097 10.4329 9.60127 8.84068 7.81703 6.39318 6.34524 6.25656 5.09473 4.59898 4.41752 3.82275 3.13846 2.79329 2.82588 2.77502 2.22046 0.981873 24.8666 52.7946 56.2466 56.7257 56.037 54.9905 54.1031 52.9261 51.5218 50.2989 49.621 48.4683 47.0923 45.5055 43.1406 40.9722 39.5737 38.245 36.6821 35.3516 33.6711 32.1488 31.367 29.8308 27.6333 26.1359 25.2152 23.6052 22.2739 21.786 20.7305 19.5447 18.3245 17.1424 16.0121 14.6661 13.6616 13.0258 12.222 11.5091 10.8577 9.9531 8.88062 8.31786 7.71774 6.91537 6.66178 5.9837 5.17923 4.65366 4.07172 3.92519 3.44574 3.07252 3.09176 2.45699 1.96558 2.01075 1.7485 1.16421 1.06801 1.1991 1.27593 1.21653 0.581735 
CELL_DATA 16384
SCALARS stress float 1
LOOKUP_TABLE default
31.3403 29.5045 28.7405 28.208 27.5396 26.6047 26.3513 26.2175 25.6298 24.6336 24.0734 23.7262 22.8185 22.0045 21.3738 20.9093 19.7733 18.939 18.1135 17.8259 16.5702 16.0919 15.0685 14.5103 14.31 13.6528 12.4358 11.6423 11.2156 10.622 10.1017 9.73318 8.85903 8.42118 7.48099 7.22365 7.17124 6.14486 5.64689 5.35063 4.95 4.46657 4.18653 3.69946 3.23298 3.20155 2.96359 2.72475 2.21199 2.2155 1.78175 1.68437 1.72184 1.4386 1.12402 1.01725 0.920456 0.984026 0.592567 0.527343 0.413135 1.07171 0.533658 0.74174 23.0133 23.9787 24.2953 23.9146 23.9072 23.3075 22.9135 22.4845 22.2122 21.6217 21.1948 20.2502 19.9985 19.7505 19.138 18.4066 17.6098 16.8003 15.8779 15.2952 14.6825 14.0383 13.6546 12.6941 12.2223 11.5914 11.212 10.1581 10.0621 9.43383 8.97221 8.79053 8.29213 7.71312 7.01213 6.61983 6.23592 6.17624 5.55793 4.65338 4.43852 4.13676 4.3129 3.67331 3.21748 2.98613 3.21253 2.32948 2.67942 2.07137 1.74266 1.64197 1.47508 1.77984 1.50149 1.69521 1.40854 0.882401 0.639564 0.910573 0.681635 0.689189 0.464351 0.433373 18.8783 18.8904 19.9502 19.6642 19.8632 19.5755 19.2845 18.8748 18.4566 18.6485 18.3762 17.8401 17.2714 16.8777 16.4668 15.7782 15.1405 14.8731 14.3539 13.4998 12.9898 12.4794 12.2143 11.5896 10.7981 10.0019 10.2906 9.49698 8.90336 8.5604 8.48148 7.5563 7.43284 6.6449 6.28316 6.11258 5.49111 5.05941 4.68677 4.88026 4.28135 4.17985 3.7573 3.60249 3.42522 2.88061 3.01942 2.97954 2.52561 2.35202 2.09417 2.0607 1.68835 1.59123 1.50679 1.60411 1.39071 1.33966 0.788436 0.764341 0.718094 0.81624 0.471086 0.578827 15.5045 14.9188 15.8092 16.3056 16.3103 16.2905 15.8868 15.9332 15.6055 15.5071 15.5631 15.1787 14.7575 14.31 14.1245 13.5313 13.2143 12.8313 12.6055 12.5132 11.5878 11.4786 10.5048 10.3917 9.72047 9.35994 8.7032 8.14491 7.88519 7.50467 7.16501 6.64693 6.36197 6.07746 5.80759 5.43281 5.30749 4.67455 4.56635 4.24089 4.06751 3.9642 3.49092 3.74473 2.88919 2.84771 2.86971 2.6635 2.80268 2.51769 2.27214 2.11233 2.00525 1.92005 1.6302 1.09957 1.10175 1.22698 0.974479 0.742286 0.600141 0.996235 0.56354 0.94019 12.6749 11.1608 11.725 13.1433 12.9309 13.7529 13.2514 13.5491 13.0302 13.3103 13.1204 13.2644 12.4785 11.8779 11.6061 11.514 10.93 11.0686 10.7837 10.2532 9.61422 9.41986 9.46326 8.48946 8.51337 8.15483 7.50456 7.4767 6.90007 6.8858 6.60662 6.3571 6.0484 6.13782 5.40411 5.32768 4.83958 4.68138 4.62397 4.64534 3.91401 3.66723 3.67505 3.73078 3.0991 3.17588 3.06523 2.72737 2.56022 2.34493 2.10584 2.04065 1.86776 1.73571 1.42287 1.50792 1.16091 1.18525 0.980057 1.09058 0.976327 0.83839 0.828232 0.293157 9.93215 7.89663 8.61769 9.08346 9.49432 9.97713 10.1846 10.3217 11.05 10.4959 10.3125 10.289 10.19 10.1233 9.78876 9.81484 9.40239 9.15308 9.00511 8.66983 8.38092 8.1546 8.25015 7.6876 7.39015 7.09264 6.82639 6.5456 6.66778 6.2465 6.10456 5.7258 5.53918 5.38913 5.18879 5.14505 4.878 4.54816 4.60414 4.19337 3.82432 3.69093 3.44915 3.52868 3.44612 3.10295 2.78375 2.94567 2.63513 2.4458 2.25119 2.3657 1.83766 1.7843 1.95264 1.57807 1.5072 1.19318 1.40596 1.35598 0.875609 0.868789 0.93358 0.964139 7.1743 5.02504 5.48755 6.5964 7.27294 7.49271 8.05266 8.53526 8.41807 8.66794 8.67183 8.81589 8.86513 8.57951 8.6259 8.39303 8.31481 8.0815 8.14992 7.85205 7.65188 7.76649 7.42387 7.05892 6.90657 6.64334 6.52066 6.32509 6.19568 5.7766 5.98189 5.5715 5.33574 5.37705 4.94916 4.76723 4.61876 4.29301 4.13234 4.1983 3.85374 3.78873 3.6425 3.36726 3.11137 3.40152 2.99953 2.62713 2.98798 2.48728 2.57147 2.58852 2.27811 2.07193 1.79908 1.64149 1.31315 1.56978 1.06978 1.21952 1.17789 0.811507 1.01198 0.617054 5.31355 2.32671 3.16094 4.17435 5.53046 6.39804 6.6923 7.12029 7.55567 7.54474 7.79724 7.96286 7.87429 7.87434 7.88151 7.78517 7.6168 7.49355 7.37555 7.25802 7.05529 6.83014 6.64812 6.58484 6.2943 6.32698 6.09203 5.89583 5.94044 5.61061 5.59263 5.4299 5.4372 5.04842 4.73971 4.56906 4.93075 4.38844 4.28538 4.1004 3.98425 3.72069 3.42817 3.51354 3.17727 2.99108 3.01351 2.68879 2.44439 2.72709 2.274 2.60875 1.95889 1.96758 1.61943 1.72248 1.56196 1.20932 1.41693 1.02915 1.09519 0.975318 0.78832 0.859212 4.87272 1.9782 2.66709 4.20801 5.30612 6.09364 6.76767 7.24256 7.58515 7.64498 7.82887 7.93614 8.01721 7.87565 7.84811 7.66555 7.62175 7.57393 7.51556 7.21876 7.06578 6.92518 6.6809 6.54748 6.49692 6.3964 6.16512 5.90235 5.84993 5.85152 5.69342 5.35411 5.15918 5.03073 4.84399 4.66241 4.5206 4.37313 4.3186 4.03454 3.82328 3.80388 3.66368 3.41301 3.40136 3.26931 3.06313 2.88222 2.79226 2.55888 2.55969 2.26009 1.97858 1.98956 2.01117 1.46895 1.48245 1.23116 1.41596 1.42532 1.06479 1.1937 0.814295 0.725865 6.14146 4.51254 5.48907 6.64074 7.1569 8.16978 8.0504 9.08796 8.82734 8.70864 8.7787 8.72087 8.74974 8.53796 8.57878 8.46522 8.2114 8.17678 7.99295 7.68194 7.6442 7.49096 7.34492 7.05537 6.94603 6.70656 6.58583 6.24552 6.1391 5.90471 5.56958 5.40682 5.22722 5.03579 4.94598 4.77887 4.62996 4.30702 4.42632 3.99332 3.94229 3.72341 3.50161 3.41412 3.68999 3.00394 2.75379 2.99734 2.6616 2.38212 2.57074 2.21411 2.04748 1.69744 1.94142 1.74062 1.74881 1.25542 1.3593 1.26038 1.10824 0.697652 0.681396 0.787546 8.54753 7.3854 8.48577 9.10075 10.0697 10.1764 10.9031 10.4951 10.5839 10.5668 10.8358 10.3318 10.1881 9.97262 10.1809 9.77292 9.63512 9.20168 9.14922 8.73165 8.48743 8.26831 8.00113 7.8996 7.51422 7.11679 7.03718 6.67607 6.35689 6.43265 5.96692 5.85334 5.58869 5.45253 5.0685 4.84169 4.82077 4.65951 4.50236 4.34917 3.97166 3.82392 3.68008 3.47708 3.41542 3.11196 2.86649 2.83124 2.71617 2.55565 2.48478 2.0225 2.08807 1.72626 1.8448 1.63089 1.38396 1.29648 1.13992 1.35924 0.845557 0.836325 0.817399 0.537242 11.3485 10.9571 11.7657 12.5797 12.9241 12.7198 13.7684 13.2576 13.4345 13.0207 12.668 12.5875 12.537 12.0746 11.9466 11.2897 11.1648 10.7349 10.5482 10.467 9.76427 9.33744 8.97389 8.6142 8.40998 8.06516 7.89995 7.67776 7.19466 6.85386 6.65351 6.60416 6.12001 5.82996 5.43194 5.26306 4.82689 4.90357 4.59535 4.38167 4.17051 3.91478 3.75224 3.36383 3.33247 3.40886 2.91525 2.70665 2.71834 2.34873 2.30195 2.52468 1.90961 1.83918 1.80386 1.54945 1.3075 1.42114 1.22318 0.815453 0.590117 0.873775 0.576554 0.635746 14.3594 13.9305 15.4622 15.9059 16.0441 16.2434 15.9804 15.9563 15.3452 15.7846 15.2507 15.5035 14.5787 14.0633 13.5247 13.5918 13.2902 12.5682 12.0329 11.7261 11.1949 10.8622 10.5238 9.7243 9.41323 9.205 8.69804 8.20931 7.92036 7.64009 7.55449 6.91913 6.59079 6.29645 5.83399 5.87012 5.50509 5.35997 4.56437 4.40298 4.51209 4.0284 3.94116 3.58651 3.47141 3.06735 2.90597 2.74082 2.34917 2.55458 2.43425 1.99957 1.90013 1.69346 1.62504 1.56499 1.32449 1.28987 1.42962 0.982545 0.716213 0.645733 0.84815 0.510759 17.7617 17.638 18.6693 19.5081 19.551 19.6147 18.7895 18.9613 18.6867 17.9634 18.0894 17.3775 16.8773 16.7866 15.7186 15.6502 15.2424 14.6887 14.0828 13.4905 12.7326 12.6443 11.587 11.1964 10.5855 10.0605 9.98468 9.82265 8.9165 8.20619 7.90886 7.45348 7.35232 7.07762 6.37598 5.96052 5.59799 5.61718 5.20518 4.74993 4.3548 4.113 3.70808 3.85142 3.14169 3.28314 2.94975 2.768 2.49647 2.42958 2.20929 1.8778 2.08981 1.48421 1.65194 1.5053 0.976098 1.05235 0.928497 1.07865 0.928544 0.503724 0.711671 0.513435 21.4354 22.8673 23.9118 23.8284 24.0103 23.1975 22.7616 22.2803 22.0444 21.6414 20.8916 20.1622 19.0652 18.9198 18.4945 18.109 17.1267 16.1663 15.8543 15.422 14.3394 14.0703 14.0484 12.6946 12.4553 11.6537 11.0105 10.1692 9.88118 9.62977 8.99333 8.72137 8.02338 7.62942 6.96231 6.76591 6.37894 6.21326 5.66016 5.3379 4.69476 4.3955 4.02644 3.82518 3.49176 3.19424 3.04126 2.91946 2.16387 2.21983 2.1462 1.74753 1.82117 1.68288 1.54979 1.59599 1.12534 1.15255 0.975752 0.713321 0.796675 0.981503 0.694329 0.829223 26.9454 28.2933 28.4576 27.7004 27.6777 26.9242 26.8241 25.6319 25.0478 24.5613 24.2331 23.3759 23.1505 22.2667 20.9665 20.4505 19.8536 18.6214 18.3337 17.3217 15.9867 15.7064 15.1341 14.5805 13.7267 13.3004 12.3148 11.4316 10.9053 10.3026 9.87135 9.50358 8.64875 8.19485 7.87572 6.90061 7.06255 5.95594 5.96858 5.41246 5.36896 5.10005 4.2594 4.14185 3.58996 3.23536 2.98239 2.85176 2.70464 2.02649 2.02633 1.64691 1.76522 1.87301 0.999942 1.24961 1.01928 0.934835 0.524459 0.536424 0.6227 0.772229 0.505317 0.744365 26.5592 27.936 29.2696 29.5329 29.5296 28.9616 27.898 27.0728 25.9339 25.1373 24.4243 23.9151 22.9358 22.022 21.4886 20.6656 19.8736 19.3002 18.2721 17.4143 16.7499 16.1284 15.4206 14.3741 14.0103 13.0134 12.4602 11.7591 11.5992 11.1996 10.3856 8.88222 9.48643 8.74349 8.05578 7.63261 6.8412 6.00422 5.83025 5.56215 5.06832 4.24823 4.35041 4.16699 3.44925 3.29916 2.87718 2.57284 2.12606 2.20346 1.83449 1.4793 1.48456 1.0338 1.14389 1.34772 0.967852 0.818788 0.742808 0.48188 0.53251 0.408273 0.474832 0.450507 19.478 23.4606 25.3367 25.0885 25.2731 24.4962 23.5888 23.6311 22.6476 21.9924 21.4013 21.2404 20.393 19.6261 19.1315 17.9187 17.4794 16.8829 16.1365 15.5315 14.8568 13.7387 13.2042 12.9057 12.1508 11.843 11.1575 10.7159 10.2447 9.68758 9.07638 8.59114 8.15252 7.47508 6.84281 6.15197 6.23015 5.80586 5.39971 4.78871 4.17938 4.28012 3.82394 3.42702 3.35251 2.75712 2.43282 2.67434 2.34569 1.82752 2.06994 1.91821 1.58678 1.66905 1.37442 1.19113 1.25372 0.741404 0.861162 0.973628 0.86739 0.944398 0.425203 0.57877 15.2243 18.0353 20.1752 21.453 21.2754 20.9631 20.3037 19.6237 19.2554 18.8857 18.5791 18.2538 17.6046 17.2944 16.2244 15.977 14.8826 14.7228 13.9341 13.693 12.9424 12.502 12.0137 11.0713 10.8045 10.4264 9.77699 9.70948 8.75185 8.73316 7.73614 7.66842 7.07485 6.70824 5.75441 6.0213 5.60883 4.98569 4.78213 4.49781 4.31733 3.91908 3.75211 3.68012 3.24179 3.20916 2.69127 2.6472 2.32912 2.38186 2.14427 1.63989 1.75725 1.87833 1.33714 1.42264 1.09383 1.09241 0.840571 1.0382 0.988898 0.546858 0.668326 0.76328 12.2677 14.1221 16.2417 16.7163 17.3572 17.4909 16.6511 16.6988 16.5366 16.2437 15.5217 14.8278 15.1122 14.6702 13.8062 13.6417 12.8593 12.8009 12.4945 11.9535 11.5777 10.8492 10.5309 9.86079 9.82603 9.21941 8.77006 8.32373 7.85482 7.57731 6.98349 6.59258 6.5452 5.97782 5.77328 5.41323 5.04908 4.95965 4.53791 4.51571 3.98779 3.79314 3.73393 3.38751 3.13089 2.85947 2.6047 2.41106 2.28348 2.32755 2.23123 1.94946 1.80676 1.7366 1.56416 1.27883 1.29959 0.847417 1.24984 0.999173 0.918797 0.625124 0.725328 0.666916 9.58552 10.4694 12.2211 13.8446 13.9287 14.1185 14.0033 14.2139 13.6415 13.5879 13.088 13.1029 12.5798 12.2315 11.8085 11.3054 10.9054 10.6355 10.0957 9.81693 9.63865 9.01362 9.02257 8.12782 7.96987 7.62214 7.11385 6.95366 7.02918 6.37275 6.39017 6.17554 5.98052 5.43759 5.25981 5.04462 5.08613 4.30391 4.31147 4.0589 4.07163 3.99942 3.49616 3.28213 3.08015 2.98623 2.72323 2.47058 2.33151 2.18715 2.27746 1.89687 1.78673 1.9506 1.6811 1.56957 1.33428 1.4144 1.01798 0.98435 0.958697 0.837502 0.705474 0.989571 6.98947 7.32775 8.70517 9.67956 10.3196 10.7588 10.8075 10.6049 10.6746 10.6025 10.4992 10.2888 10.0755 10.1106 9.56273 9.45773 9.26096 9.14987 8.78267 8.5001 8.34977 7.82066 7.84625 7.32585 7.12407 6.84913 6.63777 6.69149 6.32675 6.01663 5.74282 5.57769 5.21663 5.06548 5.191 4.71647 4.3908 4.23825 4.0595 3.76602 3.56917 3.39226 3.63635 3.34033 3.14529 2.74175 2.90384 2.59485 2.49862 2.29236 2.38496 2.23355 1.95792 1.49892 1.94574 1.45624 1.31507 1.47313 1.06685 0.768123 0.93171 1.07878 0.661807 0.650908 5.11061 4.671 5.95954 7.22231 7.8679 8.30506 8.38232 8.73188 8.70055 8.65103 8.52112 8.54644 8.52099 8.24913 8.06695 8.1908 7.86149 7.81383 7.45263 7.60645 7.13432 7.02614 6.75726 6.52795 6.46816 6.20595 6.1498 5.88215 5.6918 5.60937 5.41263 5.40097 4.9317 4.77922 4.84934 4.47682 4.0729 4.08087 4.05553 3.64059 3.56921 3.39407 3.34237 3.09322 3.03325 2.73511 2.99892 2.79785 2.62318 2.47134 2.00602 2.05878 1.96588 1.64193 1.61165 1.45658 1.3467 1.32879 1.30978 0.888371 0.656684 0.800199 0.44879 0.797343 2.83278 2.42126 4.09414 5.21886 6.23785 6.85112 7.43778 7.28123 7.57023 7.54384 7.63372 7.60236 7.57889 7.44573 7.39508 7.26679 7.11112 7.05352 7.02511 6.87123 6.7438 6.63651 6.44586 6.3857 6.2873 6.07565 5.7522 5.59997 5.61167 5.25089 5.22294 5.01746 4.82013 4.8978 4.50966 4.47499 4.18345 4.11402 3.73176 3.77785 3.68784 3.38589 3.24994 3.20191 3.04408 3.12602 2.93146 2.60381 2.34854 2.39788 2.21277 1.87602 2.011 2.01399 1.73049 1.69984 1.40514 1.55545 1.40423 1.11014 1.17726 0.985269 0.54538 0.869983 2.28786 2.00047 3.85507 5.2725 6.51636 6.75054 7.22017 7.28319 7.48574 7.66335 7.66999 7.64467 7.61044 7.49082 7.59271 7.41308 7.20047 7.08757 7.02248 6.95069 6.76229 6.57665 6.60868 6.19456 6.07985 6.0579 5.6015 5.67944 5.77738 5.35918 5.09137 5.10757 4.83248 4.72563 4.71016 4.35398 4.44975 4.22079 4.10909 3.79799 3.88564 3.48076 3.5895 3.30678 2.98415 2.86167 2.9796 2.73314 2.75567 2.40965 2.20344 2.06183 1.80709 1.74244 2.04612 1.99087 1.5153 1.33244 1.46892 0.890581 0.936431 0.56858 0.612883 0.710104 3.67218 4.54641 6.04759 7.45317 8.26884 8.46464 8.89085 8.86247 8.82309 8.92405 8.58663 8.39742 8.64543 8.33645 8.17915 8.16293 7.8211 7.7759 7.54417 7.28598 7.2638 7.12785 6.85608 6.73402 6.3988 6.33212 6.11481 5.88257 5.69714 5.52088 5.33887 5.18192 4.99204 4.89734 4.67573 4.56941 4.40495 4.35229 3.94976 3.79323 3.77837 3.56163 3.46629 3.27495 3.12144 2.8945 2.8263 2.69199 2.27008 2.55544 2.29391 2.10007 1.80191 1.85152 1.85805 1.82974 1.40605 1.40068 1.10342 1.22156 0.766415 0.863975 0.506241 0.812201 6.14623 6.80799 8.79031 10.09 10.8127 10.9529 10.8916 11.018 11.0423 10.6395 10.3477 10.4654 10.1309 10.11 9.69069 9.13358 9.48629 9.11146 8.53365 8.3886 8.12507 7.91228 7.64642 7.43347 7.08084 6.81139 6.53264 6.42371 6.17357 5.99435 5.79375 5.3408 5.19071 5.2648 4.86871 4.76438 4.43196 4.32595 4.68296 3.90131 3.96098 3.6902 3.74983 3.28239 3.34099 2.94909 2.89928 2.85519 2.30271 2.41313 2.22321 2.06277 1.77195 2.02877 1.78365 1.74878 1.32849 1.33822 1.1512 1.35762 0.638722 0.622761 0.588841 0.735345 8.5407 10.1578 11.8901 13.2532 13.4047 13.9877 13.8313 13.7956 13.3726 13.4139 12.8696 12.4183 12.3322 12.3199 11.584 10.9605 10.8156 10.9985 10.4941 10.0006 9.73244 9.10734 8.80469 8.5807 8.07848 7.79109 7.43048 7.16411 7.01179 6.73763 6.41453 6.21215 5.94925 5.88493 5.59485 5.0671 5.01454 4.76464 4.48317 4.28961 3.81158 3.68673 3.62068 3.27079 3.08637 2.96019 2.87877 2.75299 2.67226 2.4004 2.18626 2.13154 2.04633 1.79429 1.60604 1.57627 1.3431 1.16575 1.21084 1.1004 1.00805 0.674577 1.22152 0.534874 11.4271 13.4721 15.0488 16.6378 16.6166 17.2628 16.8514 16.5651 16.1272 16.0055 15.3935 14.8131 14.6536 14.2434 13.6127 13.4934 12.7542 12.5935 11.9172 11.6496 11.0163 10.4773 10.2102 9.8674 9.56125 8.80868 8.33934 7.86915 7.72349 7.32198 7.25325 6.925 6.45745 6.28598 5.71326 5.36814 5.19685 4.90081 4.50374 4.16343 4.10982 4.01299 3.83327 3.5133 3.2697 3.17525 2.92246 2.58716 2.42834 2.45983 2.28748 2.11065 1.92262 1.76004 1.52033 1.18281 1.23564 1.40163 1.29121 1.14419 0.778835 0.714433 0.740703 0.536252 14.1942 16.721 19.304 20.5098 20.6854 20.0586 20.2625 19.8775 19.2106 18.6403 17.8818 17.4978 16.9545 16.7226 16.2877 15.5089 15.1288 14.5038 14.2039 13.5032 13.0462 12.2022 12.0095 11.127 10.415 10.4185 10 8.99594 8.8376 8.31462 7.98941 7.56327 7.13877 6.66671 6.61635 6.13942 5.92944 5.40528 5.20809 4.52033 4.14562 3.92676 3.91598 3.69932 3.24411 3.21269 2.74023 2.83772 2.44445 2.25491 2.01859 2.00798 1.6636 1.71074 1.33693 1.47708 1.50245 1.04969 1.22231 0.806329 0.724129 0.74873 0.84756 0.477973 17.9631 21.4597 24.4793 24.9568 24.8779 24.2795 23.6597 22.6475 22.7414 22.0208 21.2472 20.4381 19.5837 19.4938 18.1188 17.7251 17.0944 16.2948 16.012 15.1211 14.7233 13.9575 13.5304 12.5135 12.1366 12.0655 10.7787 10.2421 10.0956 9.68088 8.55819 8.56037 8.09073 7.75247 7.16531 6.83466 6.32327 5.96385 5.54241 5.16885 4.36414 4.40181 3.88945 3.57888 3.32361 2.99453 2.61962 2.46105 2.44151 2.08354 1.97418 1.53535 1.62964 1.83391 1.30593 0.957599 1.31004 1.20951 0.934536 0.841408 0.929277 0.736758 0.673127 0.50665 23.4979 26.9676 29.2352 29.1679 28.5731 27.772 27.8355 26.2569 25.7119 25.4343 25.1779 23.8314 23.2463 22.2067 21.0304 20.3711 19.9448 18.7571 18.4545 16.793 16.3315 15.7608 14.9319 14.4152 13.593 12.7937 12.2971 11.9458 11.566 10.5255 9.98128 9.14836 8.67019 8.40041 7.53096 7.26302 7.02704 6.03811 5.90624 5.49046 5.55039 4.85711 4.1136 3.78932 3.74801 3.24506 2.87661 3.00683 2.52405 2.4155 2.25704 1.9424 1.86023 1.50073 1.51172 1.05364 1.07562 0.948025 0.736421 1.04547 0.436886 0.619801 0.486552 0.521694 25.3457 26.8257 27.9887 29.2863 29.5329 28.7508 28.6858 27.7351 26.404 25.7743 24.8745 24.2784 23.5867 22.3239 21.4859 21.1839 19.896 18.6495 18.8598 17.7709 16.5467 15.6857 14.9573 14.5571 13.9646 13.2204 12.9752 11.5545 11.6811 10.8466 9.98233 9.32871 9.01879 8.04608 7.43298 7.14424 7.24526 5.96973 5.93504 4.93866 4.81876 4.60942 3.98438 3.75724 3.29836 3.06318 2.88363 3.0484 2.18947 2.09153 1.94402 1.7346 1.54243 1.10755 0.963899 0.860747 0.833334 0.702542 0.837734 0.760522 0.640563 0.513692 0.491374 0.456606 17.8879 22.0104 24.5959 25.4013 24.9446 25.1988 24.7128 24.6605 23.4766 22.6882 21.9594 21.6097 20.4683 19.7061 19.0919 18.2467 17.8735 16.8154 16.1541 15.4443 14.788 13.6375 13.1716 12.7922 11.8258 11.6578 11.0912 10.6184 10.3628 9.20206 8.70049 8.66145 8.08128 7.80363 6.44528 6.46807 5.70887 5.28342 5.08041 4.84178 4.8375 3.95662 3.95924 3.34697 3.25893 3.0301 2.74554 2.54071 2.60072 1.9601 1.92379 1.62227 1.6485 1.19788 1.20835 1.26617 1.24701 0.630376 0.757911 0.881379 0.429418 0.772954 0.591658 0.486324 13.4753 17.3912 19.7921 21.4991 21.9199 21.7636 20.9544 20.4425 20.1253 19.5168 18.6658 18.4037 17.3258 17.2706 16.3549 16.22 15.1752 14.3051 14.0822 13.8455 13.0875 11.8812 11.9095 11.736 11.0995 10.2638 9.55013 9.63499 8.45799 8.49461 8.26197 7.49042 7.08431 6.33322 5.95048 6.11069 5.61926 4.5971 4.41242 4.74036 4.20622 3.87359 3.66657 3.39674 2.88094 2.86731 2.47942 2.26867 2.03735 2.27448 1.88584 1.96802 1.63891 1.36602 1.39047 1.50088 0.940856 1.20389 0.920064 0.704291 0.776205 0.708321 0.719336 0.844684 10.5722 13.1684 16.1279 17.0726 17.7242 17.7449 17.6274 16.8669 16.6067 15.9858 15.7805 15.4529 14.8224 13.9867 13.9978 13.2023 13.3168 12.2499 12.2507 11.6473 11.0575 10.4702 10.3733 9.80696 9.16943 8.60487 8.60585 7.82211 7.67039 7.64138 6.91928 6.19355 6.03937 5.81626 5.38648 5.06268 4.80193 4.54734 3.99109 4.24392 4.16623 3.6724 3.25327 3.28925 2.93777 2.83408 2.70767 2.51917 2.34046 2.2808 1.95793 1.87456 1.60756 1.91755 1.35481 1.36851 1.16588 1.3711 1.12409 0.885761 0.803004 0.775597 0.68679 0.631169 7.78473 10.0258 12.3242 13.9917 14.4915 14.8023 14.6121 13.8451 14.1945 13.5479 13.2059 12.9324 12.5029 12.0979 11.7477 11.5522 10.9063 10.3712 9.66965 9.71738 9.05631 9.10477 8.78099 8.13233 7.69487 7.87574 7.10132 7.12808 6.77985 6.44534 6.16747 5.95722 5.38182 5.29741 5.03325 5.04248 4.79344 4.45379 4.32127 4.00188 3.85744 3.5657 3.38696 3.45735 3.06742 2.97786 2.64995 2.53083 2.49824 2.1448 2.03141 1.63027 1.93978 1.79512 1.29562 1.25625 1.48917 1.55056 1.31988 0.690053 0.603255 0.813379 0.578955 0.839273 5.77274 7.17004 9.10191 10.4724 11.0558 11.1307 11.3608 11.2064 10.9657 10.6415 10.5326 10.2752 10.2087 9.61371 9.52876 9.42544 8.91604 8.60975 8.42395 8.43257 7.97244 7.84776 7.74373 7.13143 6.82683 6.59583 6.48021 6.16092 5.78405 5.84399 5.50898 5.44118 5.23153 5.14662 4.51516 4.59013 4.13418 4.49784 3.96721 3.86061 3.48509 3.60868 3.32399 3.06849 3.02458 3.10144 2.72084 2.42671 2.58895 2.45045 1.95725 2.23965 1.52527 1.61319 1.64011 1.54728 1.21971 1.46171 0.930084 1.02653 0.580142 0.810274 0.445354 0.86105 3.5178 4.86519 6.673 7.8469 8.65938 8.80587 9.02287 8.86682 8.92284 8.84066 8.60184 8.54137 8.31175 8.14816 7.86727 8.22649 7.66426 7.46611 7.62282 7.35054 7.27838 6.72166 6.61131 6.47085 6.0517 6.16372 5.75597 5.98551 5.51433 5.28798 5.23331 4.96878 5.02257 4.74445 4.57282 4.55944 4.20904 3.99969 3.85174 3.81881 3.72643 3.30833 3.38555 3.31211 2.82616 2.89036 2.73017 2.64885 2.09683 2.1521 2.4772 1.97792 2.10558 1.72859 1.60263 1.38416 1.3849 1.50488 1.21957 1.07966 1.26106 0.850334 0.422254 0.810061 1.84502 3.12168 4.82539 6.3454 7.22936 7.69939 7.6211 7.70623 7.61375 7.72107 7.52286 7.69511 7.41774 7.27875 7.13162 7.00605 6.91609 6.65818 6.62208 6.49322 6.67809 6.22629 6.207 6.02369 5.76439 5.54438 5.42192 5.62399 5.41922 4.95907 4.79833 4.84104 4.59294 4.50594 4.41736 4.19476 3.85834 3.75471 3.5905 3.8165 3.4591 3.43964 3.31486 3.13893 3.01729 2.84278 2.78739 2.53913 2.54682 2.47268 2.21577 2.12183 1.94258 2.07841 1.82931 1.60406 1.27472 1.543 1.11624 1.03505 1.188 0.92053 0.856377 0.972668 1.34143 2.82294 4.95006 6.33701 7.07104 7.4482 7.69412 7.89423 7.62335 7.78102 7.6415 7.39606 7.34975 7.30152 6.99815 6.98446 6.91564 6.74828 6.69069 6.44013 6.32982 6.37328 5.94264 5.86322 5.89708 5.57952 5.49219 5.34989 5.2179 4.96165 4.77192 4.82175 4.52307 4.58932 4.17177 4.21581 3.99542 4.07939 3.70891 3.51685 3.53917 3.71156 3.17991 3.20519 2.94924 2.71256 2.84458 2.69431 2.35252 2.29698 2.04336 2.06201 1.91247 1.66596 1.59229 1.67002 1.23513 1.27999 1.11639 1.43528 0.989262 0.684572 0.710625 0.703183 2.79595 4.87172 6.55293 8.11668 8.30107 9.27843 9.46389 9.14604 8.78036 8.86376 8.69168 8.60214 8.22412 8.10695 8.10815 7.76037 7.84991 7.71329 7.31715 7.16847 6.89562 6.75538 6.68548 6.5368 6.12784 6.02353 5.73734 5.61465 5.62492 5.29315 5.24234 4.7755 4.61547 4.5616 4.42902 4.17402 4.18502 4.17689 3.95479 3.757 3.74557 3.24564 3.204 3.28643 2.95271 2.86873 2.54498 2.65958 2.36781 2.17379 2.09175 2.30641 1.94804 1.71456 1.66513 1.47483 1.24935 1.43728 0.884755 1.19733 1.10108 0.911645 0.866365 0.689812 4.92651 6.85476 9.21831 10.3056 11.2413 11.1068 11.3593 11.3693 11.1533 11.0998 10.7464 10.2338 10.4895 9.96267 9.60023 9.37903 9.06804 8.5917 8.1958 8.25668 8.20793 7.83569 7.33871 7.37109 6.99345 6.68156 6.3349 6.3284 6.16306 5.56877 5.98245 5.35757 4.94723 4.92922 4.6032 4.62605 4.23394 4.16546 3.81685 3.85158 3.7534 3.5556 3.4312 3.07901 2.95715 2.66607 2.59089 2.4975 2.24393 2.34377 2.12641 1.95545 1.788 1.42638 1.66463 1.44882 1.21889 1.18729 1.26461 1.05695 0.903751 0.779267 0.913977 0.534141 7.1516 9.78617 12.0412 13.4603 14.1094 14.4759 14.4671 13.8274 14.0328 13.4102 12.9306 12.5384 12.0222 11.8408 11.58 11.1843 11.1918 10.321 10.0246 10.0149 9.33628 9.07726 8.48406 8.19489 7.67968 7.79975 7.4746 7.13246 6.49324 6.36043 6.27245 5.87125 5.58285 5.4632 5.18052 4.84244 4.66369 4.7682 4.23643 3.97501 3.56848 3.65704 3.52631 3.28891 2.79775 2.85297 2.52786 2.51894 2.56748 2.16678 1.90418 1.98211 1.79199 1.83118 1.6541 1.19449 1.50358 1.37957 0.907535 1.03852 0.941957 0.692274 0.6969 0.570291 9.5801 12.6456 15.0852 16.4635 17.54 17.4556 17.2402 17.2437 16.3274 16.1347 15.3885 15.2092 14.4282 14.1715 13.6428 13.24 12.6605 12.0979 11.9888 11.3482 10.7231 10.9138 9.94991 9.74434 9.46039 8.5532 8.45677 8.302 7.59253 7.19227 6.80797 6.76851 6.42107 6.06203 5.88264 5.34753 5.18136 4.9937 4.84381 4.0682 3.98037 3.69526 3.67537 3.40541 3.34881 3.01966 2.76787 2.77537 2.58047 2.2852 1.93473 2.14347 2.00156 1.59196 1.48002 1.39266 1.36623 1.49354 0.991467 0.77676 0.819629 0.757437 0.844009 0.715543 12.8044 16.5688 19.0467 20.6577 21.1853 21.5982 20.5379 19.9252 19.2264 18.4445 18.0368 17.8498 16.7537 16.4124 15.9786 15.8006 14.5895 14.5724 14.0717 13.3575 12.4884 12.1692 11.1762 10.8566 10.9871 9.97695 9.34997 9.14783 8.71292 8.31271 7.82019 7.17045 6.99021 6.75805 6.41665 5.85723 5.62276 5.67491 5.02126 4.42087 4.37504 3.81577 3.73611 3.58335 3.34141 3.20273 2.81577 2.53299 2.30259 2.05564 2.00527 1.98374 1.72 1.49757 1.63799 1.47736 1.17956 0.954502 0.941314 1.12347 1.06039 0.643768 0.957835 0.610661 16.7189 20.5847 23.7544 24.9285 24.8806 25.5662 24.4929 23.9135 22.9461 22.6069 21.3324 20.467 19.6709 19.3872 18.1901 17.6726 16.6961 16.4956 15.5825 15.0999 14.4386 13.6579 13.3688 12.6223 12.0705 11.202 11.0719 10.2122 9.88439 9.43051 8.71627 8.15053 7.87957 7.49049 6.76448 6.24622 6.38085 5.89014 5.38935 4.7703 4.7412 4.20166 3.87173 3.59328 3.74278 3.09617 2.88295 2.79261 2.47811 2.17842 1.83036 1.79831 1.60802 1.30853 1.51557 1.02894 1.24372 1.01645 0.732908 0.698433 0.546723 0.532686 0.599873 0.64896 21.8469 25.6894 27.5054 28.8473 28.8857 28.4353 27.5077 27.1016 26.4053 25.2733 24.4677 24.1578 23.4733 22.0283 21.0634 20.0448 19.3528 18.3402 17.7449 17.1379 16.4623 15.9115 14.4943 14.5867 13.8762 12.986 12.8045 11.306 11.0468 10.397 10.0179 9.20969 8.82387 8.13299 7.78181 7.39327 6.86291 6.29758 5.77464 5.43777 5.25906 4.56746 4.39577 3.92114 3.83623 3.45626 3.10502 2.88076 2.53762 2.46401 2.04666 1.92511 1.92044 1.63336 1.072 0.961346 1.10223 1.07361 0.800276 0.647743 1.03171 0.741137 0.766864 0.358617 24.6329 26.2652 27.7893 28.7695 29.3078 29.3013 28.3475 27.9327 27.0725 25.7868 24.9472 23.6157 23.3384 22.8108 22.1518 21.3354 20.4147 19.299 18.4615 17.5776 16.5131 15.9245 15.3314 14.6441 13.4442 13.2763 12.3951 11.6685 11.086 10.6257 10.4262 9.36241 8.38341 8.19323 7.78562 6.99964 6.83573 5.94833 5.84297 4.888 4.73957 4.54399 4.25262 3.9626 3.38879 3.06361 3.005 2.54257 2.3849 2.27812 1.73895 1.72416 1.3985 1.31706 1.08212 1.21485 0.890121 0.94563 0.631358 0.713232 0.415294 0.456366 0.445254 0.677724 17.0368 21.7789 24.1232 25.2961 25.0759 25.3717 25.0182 24.8151 23.9749 22.9034 22.1766 21.5742 20.6698 20.218 19.2774 18.6734 17.2684 17.001 16.3095 15.9936 14.7665 13.9661 13.498 13.0506 12.1866 11.8451 11.1763 10.4833 10.034 9.34205 8.56669 8.55481 8.02734 7.25919 6.96741 6.46628 6.25246 5.55733 5.1197 4.64 4.23835 4.3368 3.57771 3.55721 3.13407 2.87223 2.35712 2.42002 2.14632 2.27986 1.71114 1.83566 1.70757 1.50104 1.60449 1.28487 0.829353 0.923946 0.93516 0.690479 0.942968 0.486693 0.864412 0.445078 12.2958 16.6539 19.7052 21.4691 21.887 21.7598 21.4653 20.878 19.9933 19.7325 18.7668 18.5014 17.7136 17.0316 16.8059 15.5677 15.7561 14.7032 14.1472 12.8778 13.033 12.1781 12.0669 11.6521 10.9135 10.249 10.1561 9.07297 8.82823 8.50491 8.02511 7.23096 6.70615 6.34525 6.07 5.51328 5.36498 5.08934 4.46326 4.36817 4.15677 3.58038 3.75338 2.95733 3.05888 2.74468 2.60635 2.13645 2.30359 2.25404 1.75783 1.77755 1.78749 1.43607 1.51325 1.49415 1.03724 0.777674 0.88621 0.926907 0.677945 0.526314 0.699749 1.04781 9.22827 13.1992 15.56 17.1244 18.0383 17.8552 18.383 18.1188 17.0481 16.7163 16.603 15.7204 14.7759 14.6827 13.8289 13.6839 13.3587 12.8131 12.1589 11.4085 10.9871 10.6478 10.4404 9.60875 9.06774 8.99593 8.38635 7.82219 7.3871 7.13388 6.20805 6.40569 5.99627 5.73335 5.01317 4.87969 4.88527 4.51153 4.20709 3.90766 3.84207 3.5501 3.18509 3.09222 3.04594 2.64717 2.77216 2.29958 2.38493 1.97941 2.01158 1.83923 1.63431 1.6367 1.38186 1.55466 1.20523 1.02154 0.831181 0.823101 0.857472 0.470548 0.524998 0.583396 6.53491 9.9012 12.0542 14.0686 14.9774 15.3061 15.1275 15.0863 14.6953 14.1777 13.5582 13.0336 12.4627 12.281 11.6992 11.4053 10.69 10.2968 9.99526 9.89687 9.36354 9.00053 8.61978 8.12892 7.87645 7.44673 7.19595 6.84113 6.43273 6.03418 6.21861 5.82225 5.35049 5.07422 5.13915 4.6238 4.48703 4.03606 4.32086 4.08403 3.70066 3.42633 3.38816 3.11969 2.79105 2.68689 2.30691 2.27038 2.34663 2.48247 1.94795 1.9055 1.89875 1.43488 1.21855 1.33168 1.39504 1.03194 1.32029 0.815107 0.644745 0.776316 0.751183 0.602097 4.90849 7.35798 9.31134 10.7334 11.2444 11.7371 11.6985 11.4834 11.4482 10.8815 10.7069 10.3514 10.1447 9.79915 9.27053 9.36711 8.85427 8.45206 8.5652 8.11117 7.88174 7.3443 7.32423 7.2482 6.82121 6.51584 6.02783 6.12958 5.81368 5.65702 5.41305 5.12868 4.80286 4.5965 4.62445 4.40065 3.89768 3.984 3.88044 3.59643 3.35822 3.309 3.16817 2.99124 2.87456 2.69757 2.57844 2.40742 2.37258 2.22337 2.1589 1.99683 1.70481 1.50018 1.5847 1.49573 1.54374 1.20368 1.25844 0.903335 0.557027 0.677618 0.602877 0.443149 3.32667 5.3362 7.23298 8.55422 9.2128 9.50283 9.4869 9.22785 9.17242 9.12259 8.85619 8.47779 8.48681 8.259 7.91472 7.44845 7.75014 7.51589 7.44424 6.8932 6.69697 6.5002 6.218 6.27755 6.05059 5.84212 5.6289 5.63576 5.29666 4.96864 4.95257 4.77238 4.81918 4.37276 4.37732 4.0084 4.16915 3.95483 3.80385 3.56772 3.59984 3.26711 3.19851 3.31831 2.86139 3.15183 2.67197 2.59279 2.52901 2.27452 1.8182 2.01857 1.94385 1.73604 1.49993 1.49549 1.1771 1.06445 1.07175 0.993253 0.987048 0.755784 0.789818 0.625438 1.46229 3.97222 5.75251 6.86517 7.59933 8.09682 8.15742 8.26879 8.10546 7.76597 7.79458 7.40041 7.34348 7.28545 7.01162 6.94251 6.56671 6.40733 6.33353 6.11191 6.17933 6.02903 5.91691 5.66707 5.62816 5.36566 5.0894 4.9793 4.80139 5.0255 4.62079 4.64294 4.39796 4.25375 4.1014 4.08032 3.93902 3.82197 3.68804 3.40406 3.68335 3.10529 3.47807 2.88951 2.94789 2.83816 2.45577 2.55835 2.10606 2.1679 1.9406 2.06686 1.93852 1.64082 1.68321 1.59563 1.43682 1.32098 1.23746 1.26989 1.05363 0.675939 0.463049 0.537896 1.01813 3.71588 5.79007 7.0404 7.66723 7.97351 8.05185 8.02822 8.01444 7.74747 7.53654 7.49786 7.38297 7.19992 6.86925 6.78283 7.00254 6.40873 6.20833 6.10489 6.10766 5.83652 5.90695 5.67419 5.50839 5.3733 5.14989 4.95611 4.91736 4.72894 4.50017 4.71082 4.4098 4.36094 4.28925 4.2011 3.84264 3.59034 3.50847 3.32721 3.30688 3.20719 3.09295 3.02183 2.95443 2.64175 2.57639 2.47451 2.45409 2.12614 1.98562 1.98284 1.88308 1.55805 1.54656 1.61102 1.44021 1.1615 1.28714 1.1206 0.873421 0.678954 0.380714 0.874871 2.92414 5.22423 7.18202 8.51863 9.37381 9.90618 9.55676 9.36964 9.14911 8.8386 8.63965 8.46432 8.20088 8.16705 7.66613 7.55838 7.36644 7.28281 7.02353 6.80272 6.76735 6.56739 6.22612 6.01523 5.9041 5.85528 5.77867 5.29453 5.53881 4.88814 4.75946 4.75782 4.5189 4.57545 4.23259 4.28073 3.9431 3.7911 3.43916 3.76758 3.20827 3.22199 3.04169 2.90358 2.71676 2.6165 2.6165 2.38908 2.11767 2.20874 2.02936 2.14014 1.73009 1.9203 1.65585 1.4597 1.27112 1.31684 1.18701 0.964294 0.683181 0.825072 0.93518 0.524078 4.2826 7.1299 9.66255 10.6341 11.6336 11.7263 11.8879 11.6853 11.6505 10.9959 11.2282 10.1908 10.1498 9.93797 9.72448 9.60899 8.87742 8.88825 8.14911 7.88393 7.7318 7.47942 7.27869 7.27013 6.80986 6.38029 6.30919 6.14406 5.93991 5.56064 5.33122 5.23299 4.87559 4.65957 4.72162 4.55926 3.98761 4.04587 3.90948 3.82499 3.63704 3.28427 3.55084 3.21741 3.30909 2.81829 2.8733 2.41107 2.26406 2.32489 1.93201 1.66137 2.01448 1.90135 1.47597 1.24871 1.46215 1.17201 1.06586 0.960179 0.946891 1.16973 0.684639 0.584882 6.09211 9.31279 12.3968 13.6724 14.2854 14.3961 14.5643 14.084 13.6316 13.4084 13.4548 13.1346 12.528 11.7105 11.8659 11.094 10.5884 10.0791 10.0228 10.0483 9.57597 9.00771 8.57464 8.04252 8.01901 7.3918 7.50403 7.00004 6.80641 6.48164 6.43138 6.07074 5.56077 5.38148 4.91056 4.98361 4.95766 4.3111 4.34948 4.11855 3.83904 3.46337 3.2533 3.06744 3.07148 2.69259 2.83188 2.64324 2.18878 2.16154 1.91702 1.95949 1.7173 1.63302 1.45803 1.62994 1.01362 1.01188 0.874373 1.15124 0.695143 0.799576 0.924817 0.482611 8.84548 12.1145 14.8248 17.1146 17.4055 17.6586 17.5643 17.5387 16.8399 16.2608 15.7186 15.2176 15.0568 14.2401 13.4474 13.3033 12.7333 12.0891 11.7437 11.4121 10.3683 10.7032 10.0805 9.67927 9.34717 8.77844 8.01686 7.92073 7.68648 7.5136 6.98085 6.48684 6.33452 5.70615 5.76635 5.32058 4.94053 4.56067 4.7458 3.93945 3.85622 3.9009 3.42208 3.40098 2.94034 2.69985 2.90291 2.8285 2.31393 2.1811 1.88885 1.94103 1.99861 1.6542 1.39243 1.21286 1.31491 1.35914 1.05383 0.951191 0.875447 0.833319 0.54317 0.831196 11.6754 15.8806 19.1959 20.358 21.2931 21.2962 21.0266 20.2518 19.8084 19.2724 18.628 17.5806 16.9429 16.8931 16.3338 15.439 14.7782 14.2821 13.5301 13.3947 12.5463 11.6046 11.6288 10.742 10.148 9.81354 9.82264 8.78606 8.512 8.35996 7.89472 7.24689 7.07272 6.63238 6.06667 6.0317 5.61602 5.15542 5.09455 4.30703 4.58561 3.82962 3.52839 3.81754 3.08443 3.23206 2.63753 2.68841 2.28915 2.15112 2.15285 1.48832 1.61992 1.64172 1.35227 1.22486 1.14431 0.966312 0.782373 1.03037 0.750888 0.578083 0.555679 0.528199 15.4881 19.5564 23.3418 24.8127 24.8432 25.0062 24.7691 23.9278 23.6165 22.9552 22.1892 20.8742 19.8963 19.0884 18.2216 18.1274 17.0645 16.2028 15.4935 15.4138 14.5097 14.1473 12.9843 12.8539 11.8103 11.5695 10.9912 10.3777 9.58221 9.42776 8.22398 8.04263 7.61869 7.12702 6.79639 6.51539 6.30279 5.99088 5.24788 4.94508 4.49938 4.01307 3.57351 3.89257 3.19621 3.50693 2.67404 2.48885 2.21117 2.18191 2.04133 1.82812 1.57317 1.46832 1.37057 1.14546 0.943242 0.684529 0.781657 0.695473 0.726255 0.608671 0.32758 0.786566 21.4071 25.1327 26.9007 28.4271 28.7503 28.3736 28.029 26.8839 26.5142 25.6546 24.8941 24.4476 22.9239 22.0407 21.6042 20.5037 19.015 18.1284 17.9665 16.7726 16.6073 16.0051 15.1602 13.9512 13.5701 12.8672 12.5127 12.1133 11.2966 10.0731 10.2785 9.42688 8.44775 8.26393 7.37835 7.02322 6.73065 6.4892 5.62343 5.4256 5.00795 4.59419 4.12221 3.76497 3.49077 3.36101 2.6943 2.63016 2.36987 2.50882 2.0164 1.78951 1.53741 1.14722 1.31319 1.15423 0.97842 0.936074 0.866389 0.52741 0.732829 0.916147 0.618747 0.5535 24.7988 25.9199 27.2692 29.1257 28.7448 28.5186 28.4561 27.7108 26.8485 26.1807 25.4993 24.3672 23.3169 22.3889 21.9033 21.0102 20.3412 19.6114 18.3581 17.8843 16.7794 15.9831 14.8951 14.385 13.6594 13.0525 12.1335 11.4637 11.7402 10.9874 10.334 9.49912 9.0377 8.31002 7.87515 7.2485 6.48724 6.12942 5.69064 5.23941 4.50415 4.64067 3.8995 3.70703 3.2863 3.02849 3.06866 2.34005 2.21505 2.15855 1.8279 1.60174 1.5732 1.05456 1.15728 1.02466 0.547747 0.901507 0.541469 0.789119 0.585721 0.647147 0.724378 0.527286 16.5915 21.1334 23.2784 25.1563 25.5844 25.038 24.6532 24.4791 23.9123 22.9457 22.7652 21.6697 20.3988 20.2822 19.1601 18.4152 17.742 16.9106 16.3047 15.5397 14.5018 13.7995 13.1922 12.7166 12.4402 11.5576 11.5517 10.5198 10.1999 9.44258 8.47777 8.69241 7.93854 7.06225 6.6658 6.33005 5.42476 5.30764 5.19955 4.85844 4.40174 4.02477 3.43436 3.47774 3.0787 2.76704 2.68638 2.31546 2.33342 2.03805 2.05657 1.41824 1.34631 1.53425 1.50137 1.10662 0.757499 0.72775 0.881538 0.636438 0.589643 0.639708 0.527944 0.72155 11.9821 16.2044 19.5088 20.8932 21.9321 21.7162 21.7728 21.6759 20.4996 19.9377 19.7473 18.5434 17.8421 17.3078 16.7605 16.0948 15.2004 14.5234 13.9716 13.4077 12.3568 12.7786 11.8465 10.9364 10.8016 10.0211 9.90155 9.58501 9.03575 8.35963 7.60423 7.40856 6.69232 6.52735 6.30571 5.71707 5.41636 4.73638 4.28432 4.43393 3.70128 3.75899 3.4587 2.95939 3.01694 2.67407 2.4358 2.22346 2.12 1.86109 1.9642 1.59023 1.53718 1.53182 1.13659 1.10124 1.34191 0.850255 1.00079 0.702417 0.745958 0.47775 0.638195 0.742585 8.50115 12.8287 15.7171 17.4236 18.2129 18.6021 18.2187 17.8882 17.3653 16.6945 15.6162 15.9071 15.3343 14.9186 14.0711 13.6752 13.0969 12.6626 12.2325 11.4792 10.9746 10.26 10.2918 9.40287 9.55711 8.7988 8.2802 8.09876 7.37735 7.2294 6.91897 6.06754 5.71022 5.63876 5.2515 4.89122 4.57754 4.50503 4.29208 3.98866 3.73146 3.52767 3.40146 3.10547 3.03951 2.58366 2.52415 2.48116 2.35318 2.12805 1.94423 2.04694 1.61966 1.69123 1.72556 1.45038 1.29657 1.12398 0.718087 0.854996 0.859466 0.657219 0.743115 0.455583 6.20087 9.77311 12.0908 14.3416 15.2475 14.902 15.4552 14.2528 14.5969 14.208 13.5442 12.9453 12.8617 12.7447 11.7429 11.3586 10.7174 9.84237 9.83746 9.60893 9.26007 8.61202 8.24793 8.04696 7.77872 7.54322 6.85278 6.56967 6.8035 6.4317 5.80007 5.47906 5.16803 5.24415 4.79486 4.50899 4.4754 4.13221 3.88696 3.99289 3.92125 3.54954 3.17778 2.84826 2.97832 3.10205 2.44606 2.26264 2.39526 2.19636 1.85777 2.0155 1.53887 1.67419 1.52534 1.66783 1.31575 1.11378 0.914 0.909199 0.55046 0.946521 0.749431 0.380931 4.14542 7.45327 9.7953 10.9503 11.8746 12.1262 11.9284 11.6247 11.4761 10.9312 10.7745 10.2888 10.2091 9.85674 9.28307 8.80188 9.21799 8.48441 8.67644 7.93628 7.67744 7.42101 7.30192 6.92609 6.60173 6.37908 6.05291 6.338 5.94659 5.42989 5.27407 5.30631 4.73121 4.56254 4.45946 4.39985 4.08723 3.83914 3.81259 3.68605 3.47294 3.44872 3.29595 2.91664 2.68061 2.53852 2.44521 2.28911 2.63574 2.11734 2.04122 2.04744 1.54229 1.62571 1.43146 1.3889 1.06769 0.966688 0.926669 1.05844 0.959942 0.957797 0.793954 0.652437 2.89571 5.6543 7.51781 8.89433 9.53643 9.82281 9.62788 9.85859 9.705 9.01726 8.65544 8.62538 8.5029 8.28648 8.02333 7.97596 7.32059 7.16281 7.06488 6.72372 6.67079 6.29372 6.02718 6.13067 5.96499 5.68711 5.57586 5.42688 5.17357 4.96539 4.73483 4.66845 4.495 4.33181 4.17971 3.92917 3.97556 3.59073 3.61022 3.36842 3.39583 3.00912 2.8694 2.95172 2.69143 2.62275 2.61678 2.368 2.28913 2.21262 1.96199 1.89927 2.0823 1.79094 1.46794 1.56053 1.43292 1.24429 0.915953 0.954629 0.830558 0.88552 0.967674 0.581243 1.39173 4.48734 6.5025 7.56483 8.24961 8.61095 8.38758 8.43362 8.0232 7.80559 7.71754 7.40502 7.25348 7.09088 7.0076 6.61419 6.44915 6.32879 6.10317 5.83349 5.92323 5.871 5.75722 5.32946 5.32183 5.09737 4.90106 4.83896 4.79239 4.66173 4.41418 4.49429 4.16696 4.15988 3.84816 3.80391 3.76747 3.58363 3.62039 3.41531 3.54414 3.11112 2.92801 2.76246 2.50555 2.76802 2.60491 2.38396 2.30356 1.98781 2.0122 1.91054 1.77359 1.72752 1.56299 1.45746 1.25878 0.968244 1.20141 0.934383 0.669696 0.84499 0.56752 0.691125 1.60024 4.33961 6.42752 7.62696 8.28713 8.38276 8.39486 8.29519 8.10792 7.79022 7.56316 7.33806 7.19703 6.88402 6.71507 6.54715 6.37144 6.45323 6.17999 6.02015 5.78868 5.6591 5.75089 5.40001 5.36234 5.15622 5.05826 4.79519 4.73769 4.74859 4.54477 4.35633 4.33985 4.18454 4.13866 3.69374 3.95049 3.45103 3.4779 3.46998 3.24605 3.07828 3.16359 2.97224 2.6559 2.57327 2.5843 2.32224 2.40578 2.08237 2.18016 1.95798 1.77709 1.57588 1.60961 1.29422 1.67504 1.25206 1.12186 1.1857 0.925454 0.798494 0.62523 0.64478 2.53515 5.54999 7.47795 9.20517 9.69649 9.58941 9.7405 9.88048 9.15961 8.96518 8.69634 8.43879 8.12706 8.12152 7.56455 7.71025 7.0602 7.05016 6.80896 6.73795 6.55157 6.36684 6.08939 5.92412 5.78045 5.59994 5.41795 5.28774 4.98026 5.18456 4.79293 4.5393 4.41886 4.22869 4.10391 3.9451 3.67241 3.60095 3.35843 3.46992 3.35358 3.12874 3.18524 3.02967 2.93621 2.42688 2.30644 2.27993 2.53366 1.8236 1.96156 1.85891 1.99621 1.62884 1.51406 1.33716 1.45661 1.05251 1.14837 0.85647 0.823554 0.787975 0.803707 0.759844 4.24235 7.54872 9.73672 11.4778 11.7989 12.0648 12.0007 11.9696 11.5141 11.0801 10.8746 10.4841 10.3816 9.75147 9.7128 9.10173 9.00664 8.40124 8.02319 7.83007 7.53129 7.48102 6.85257 6.92964 6.5819 6.39166 6.18818 5.93513 5.58385 5.60316 5.64703 5.01953 4.60971 4.74678 4.33744 4.21857 4.18385 3.91755 3.82957 3.80462 3.32676 3.2059 3.1008 3.11225 2.67784 2.71302 2.57796 2.22801 2.34862 2.03128 2.1809 1.82303 1.72569 1.72794 1.88862 1.33963 1.0879 1.37428 1.21162 0.80551 1.0239 0.714249 0.770067 0.967185 5.76157 9.29351 12.1903 13.595 14.8912 14.771 14.4498 14.2347 14.019 14.1125 13.1119 13.0217 12.2108 11.4824 11.8895 10.8871 10.6248 10.0028 9.8516 9.57747 9.44534 8.57948 8.14909 7.83904 7.59005 7.38012 7.14863 6.75238 6.52708 6.1196 6.03344 5.94901 5.41081 5.08286 5.01642 4.52459 4.30039 4.42497 4.04062 3.73215 3.90738 3.69076 3.12405 3.00473 2.90593 2.84005 2.40883 2.47766 2.19534 2.35378 1.9801 1.72525 1.6796 1.48801 1.42936 1.5251 1.4788 1.27677 0.907169 0.833302 0.776602 0.684963 0.79307 0.787801 7.90794 12.4837 15.1104 17.1718 17.6471 17.8663 17.753 17.5786 16.8013 16.4349 15.7726 15.438 14.6165 14.1367 14.4926 13.7291 12.3649 12.1449 11.9808 11.2873 10.714 10.694 10.301 9.76557 9.59262 8.62484 8.27206 7.87896 7.47071 7.37792 7.28577 6.66274 6.18265 6.18443 5.6969 5.49281 5.00196 4.59451 4.55 4.10322 3.96031 3.88075 3.53004 3.35402 3.41933 2.8387 2.8403 2.86113 2.46464 2.11008 2.06977 1.84516 1.54153 1.45526 1.77771 1.43436 1.22042 0.957974 1.00395 0.668798 0.73498 0.683996 0.795082 0.372874 10.962 15.6999 18.8714 20.3235 21.3609 21.413 21.4341 20.4672 19.9255 19.2588 18.3941 17.5806 17.2907 16.6283 16.0303 15.4749 14.4755 14.1128 13.5358 12.9341 12.8228 11.8332 11.2708 10.9543 10.0338 10.1229 9.40319 8.83533 8.23722 8.17988 7.6297 7.48318 6.96088 6.92648 6.29991 5.5813 5.44894 5.36858 4.76074 4.62051 4.37193 3.81688 3.68144 3.40514 3.13885 3.10706 2.56581 2.52879 2.16161 2.41667 1.89918 1.71515 1.4503 1.72283 1.27367 1.62657 1.23887 0.993957 0.694845 0.841601 0.747124 0.891183 0.638612 0.775294 15.3883 19.9806 23.1665 24.2451 24.6545 24.5422 24.7406 24.0089 23.9399 22.7582 22.447 20.8462 19.9502 19.221 18.5857 17.8639 16.8601 16.6827 15.5181 15.0315 14.3229 13.8693 12.9829 13.0757 12.1527 11.3871 10.7247 10.3517 9.88082 9.24266 8.62191 8.0458 7.42474 7.29898 6.67321 6.15666 5.89339 5.60905 5.2557 5.20082 4.39178 4.46279 3.95593 3.30316 3.49883 2.92768 3.05634 2.52199 2.64545 2.38707 1.97118 1.73519 1.56643 1.47623 1.10912 1.28311 0.779671 0.90733 0.853606 0.766119 0.857435 0.584968 0.434739 0.348591 21.2383 25.0228 26.6636 27.9361 28.291 28.529 27.8778 27.6392 26.2083 25.8394 25.1683 24.3955 23.7493 22.5357 21.4259 20.3117 19.5194 18.678 17.8122 17.1848 16.131 15.7286 14.8893 14.5893 13.5582 13.0243 12.4004 11.8105 11.6133 10.4451 9.9608 9.50814 8.518 8.08983 7.58803 6.88052 7.08215 6.12608 5.99078 5.06764 5.42468 4.32686 4.01297 3.89661 3.74016 3.2006 2.9485 2.60245 2.74152 2.35452 1.86724 1.73972 1.22244 1.00393 1.32276 0.945612 1.17216 0.791388 0.719854 0.468513 0.598974 0.548206 0.351289 0.510787 25.164 25.3217 27.1838 28.6147 29.1337 28.9968 28.5901 28.0653 26.758 26.567 26.1493 24.6581 24.1899 23.0391 21.7902 21.1842 20.4786 19.9024 18.8678 17.7343 16.6674 15.7541 15.0512 14.4758 14.2143 13.1351 12.5422 11.6242 11.3289 10.8316 10.0274 9.49867 8.77037 8.23858 7.87361 6.98055 6.65275 6.27962 5.74004 5.38637 4.83588 4.40377 4.29117 3.96453 3.58249 2.95342 2.79077 2.54358 2.39521 1.8066 1.80827 1.71732 1.74693 1.20248 1.18707 1.10031 0.879434 0.78101 0.74366 0.673005 0.30464 0.719988 0.777798 0.405073 16.7715 21.2697 23.7253 25.4034 25.8705 25.4442 25.285 24.4309 24.0038 23.2676 22.4395 21.7806 21.0337 20.1988 18.9421 18.6252 17.7525 17.3259 16.2768 15.2692 14.8151 14.0029 13.474 12.691 12.2243 11.9049 11.0775 10.6614 9.86736 9.42606 8.80572 8.45636 7.98449 7.50386 6.50262 6.06746 5.90261 5.30845 5.17766 4.62404 4.53526 3.79216 3.77013 3.85561 3.1072 3.09818 2.62037 2.52451 2.22303 1.87606 1.88048 1.56553 1.81025 1.271 1.19507 0.842098 0.93364 0.84542 0.64437 0.830791 0.413202 0.746823 0.910777 0.997165 11.5215 16.1626 19.4972 21.2833 22.3047 22.0428 21.8698 21.7303 20.7752 20.494 19.6625 19.3438 17.9628 17.4794 16.4649 16.2192 15.3141 14.7358 14.1389 13.6731 12.6707 12.277 11.478 11.0781 10.9909 9.93876 9.6102 9.10777 8.81801 8.14365 7.60843 7.17777 6.54894 6.31823 5.85019 5.73061 5.19481 4.5428 4.86341 4.46373 4.25695 3.70284 3.73799 3.14943 3.17638 3.04791 2.53994 2.47736 2.23875 2.29821 1.83826 1.64354 1.99677 1.57833 1.30722 1.10922 1.0623 0.773613 0.738802 0.646377 0.409613 0.737243 0.510046 0.39909 8.31271 12.2287 15.5453 17.188 18.3974 18.6667 18.6625 18.0699 17.9922 17.0922 16.8638 15.5078 15.3785 15.0836 14.05 13.8435 13.169 12.9652 11.75 11.5228 11.4756 10.2516 10.1144 9.48226 9.15244 8.49943 8.24075 7.6721 7.43335 6.95643 6.53281 6.28507 5.78491 5.57814 5.01121 5.19656 4.51441 4.45534 4.36683 3.72371 3.97902 3.44123 3.36849 3.14439 2.8725 2.82706 2.70902 2.40365 1.86514 1.93066 1.69263 1.86577 2.00519 1.57201 1.24333 1.34142 1.41606 1.18125 0.784582 0.759718 0.934159 0.667467 0.791685 0.675164 5.7638 9.59569 12.5205 14.0621 15.2498 15.4671 15.4495 15.338 14.8454 14.3692 13.7129 13.1198 12.9268 12.5421 12.3274 11.1732 10.7282 10.0416 9.96871 9.51795 8.9094 8.92079 8.03657 8.04911 7.55371 7.43657 6.85185 6.54546 6.15417 5.96572 5.80672 5.45853 5.41533 4.93127 4.71696 4.77398 4.11016 3.94429 3.99619 3.71362 3.88547 3.23571 3.31364 2.71343 2.7293 2.82875 2.49069 2.18143 2.60825 2.0293 1.66819 1.48543 1.55732 1.61277 1.67995 1.18669 1.24749 0.973756 0.823613 0.76798 0.823332 0.87208 0.625066 0.632433 4.07549 7.38138 9.8285 11.3031 12.0539 12.1056 11.8958 11.9984 11.5296 11.1467 10.9263 10.6461 10.1581 9.82206 9.25705 9.18814 8.47961 8.62136 7.94885 7.64889 7.67875 7.27298 7.07998 7.03517 6.77635 6.39518 6.12873 5.47081 5.51166 5.2629 5.10295 5.07252 4.68685 4.35629 4.42217 4.10263 4.15868 3.74064 3.85311 3.54494 3.25746 3.50633 2.81251 2.92613 2.95165 2.58442 2.46326 2.32001 2.41617 2.11758 1.76995 2.19106 1.75344 1.51045 1.3308 1.17591 1.52238 1.40073 0.81908 1.08027 0.841401 0.87069 0.936447 0.549364 2.65493 5.82403 7.87042 9.23609 10.0471 10.0417 10.0518 9.89081 9.62792 9.71136 8.78004 8.57389 8.44659 7.90556 7.71895 7.62409 7.41034 7.16275 6.99552 6.4725 6.44242 6.18689 6.12968 5.85534 5.74948 5.58819 5.36944 4.93287 4.93273 4.83286 4.83324 4.44976 4.46297 4.25375 4.15581 3.87311 3.83634 3.6982 3.31054 3.19569 3.09895 3.38649 2.91746 2.90708 3.04475 2.34133 2.43861 2.19748 2.2435 1.74768 1.93378 2.01719 1.66741 2.08223 1.36309 1.38617 1.07832 1.22428 1.01941 0.933579 0.904634 0.809204 0.613513 0.770864 1.95774 4.81102 6.91437 8.10577 8.66819 8.7446 8.84662 8.59519 8.28116 8.14482 7.696 7.35743 7.13835 7.10133 6.62919 6.56996 6.52775 6.33207 5.92002 6.11489 5.67975 5.56365 5.39918 5.39432 5.21203 5.03569 4.76769 4.69108 4.60263 4.43543 4.5293 4.28617 3.94352 3.96831 3.98149 3.90636 3.49324 3.66552 3.58326 3.16842 3.27587 3.12651 2.82185 2.62779 2.49571 2.54364 2.62609 2.41097 2.3845 2.09309 1.97411 1.73692 1.81871 1.67791 1.40591 1.56569 1.35349 1.18979 0.902874 1.06152 1.10798 1.04795 0.54809 0.689085 1.67312 4.65378 6.92115 8.0061 8.59494 8.86222 8.62373 8.5201 8.24729 8.05307 7.63191 7.58009 7.41099 7.06728 6.62616 6.45282 6.23126 6.2621 5.99952 5.99318 5.5992 5.78666 5.48406 5.29793 5.21049 4.96228 4.8762 4.60479 4.53864 4.43995 4.42381 4.21037 4.28213 4.07258 4.19929 3.78795 3.59497 3.55694 3.46156 3.2821 3.20217 2.7898 3.06579 2.62249 2.84567 2.57741 2.17211 2.48473 2.21352 2.18842 1.92088 1.67752 1.541 1.61965 1.31863 1.47438 1.12483 1.29307 1.06373 0.824222 0.854744 1.01105 0.597066 0.620968 2.50629 5.84003 8.06271 9.15877 10.245 10.2141 10.056 9.6527 9.44711 8.96229 8.71791 8.29309 8.11841 7.85481 7.62515 7.36653 7.1582 6.9076 6.97313 6.52009 6.35601 6.26277 5.95258 5.70952 5.56614 5.51246 5.11171 4.93643 5.02761 4.75939 4.73186 4.67613 4.47141 4.355 4.14333 3.7815 3.87368 3.71113 3.70532 3.3061 3.11385 2.96048 2.87747 3.01816 2.77985 2.60204 2.55639 2.29276 2.129 2.06841 2.07216 1.88239 1.67811 1.54294 1.34703 1.26776 1.17567 1.40052 0.948959 0.904986 0.849209 0.489019 0.454737 0.671816 4.18739 7.59955 10.2477 11.3521 11.88 11.8214 12.4006 12.1827 11.4343 10.9216 10.9195 10.2529 10.1627 9.74588 9.64733 8.84551 8.91291 8.31356 8.01536 7.58605 7.42444 7.10349 6.75345 6.81323 6.52514 6.54988 5.97784 5.86757 5.63634 5.42826 5.39044 4.97355 4.78309 4.60928 4.57368 4.26094 4.16851 3.79987 3.95062 3.53575 3.12321 2.98663 3.1088 2.96384 2.66081 2.50352 2.42165 2.64739 2.33157 2.30521 1.76731 1.75623 1.79875 1.50699 1.23861 1.32076 1.28604 0.982541 1.09519 0.878836 1.01244 0.636396 0.417775 0.626153 5.49474 9.50879 12.6457 13.8173 15.1316 14.7254 14.9731 14.507 14.5526 14.024 13.5859 12.692 12.3882 11.8648 11.6104 11.2842 10.5363 10.3827 9.87343 9.24658 9.11612 8.59854 8.32786 7.72124 7.59147 7.35434 7.14078 6.65136 6.3532 5.99782 5.81966 5.67899 5.63256 5.12024 4.59531 4.75007 4.61199 4.14475 3.85351 3.64463 3.47327 3.36661 3.12767 3.05468 2.79919 2.64274 2.55817 2.24114 2.27424 2.29641 1.85983 1.69166 1.45444 1.80771 1.40041 1.15949 1.03034 1.22529 1.02536 0.683213 0.837859 0.918963 0.532846 0.470085 7.82427 12.337 15.0212 16.5434 17.468 18.3724 17.9206 17.4186 17.5614 16.7252 16.1415 15.1527 14.567 14.285 13.8516 13.411 12.8809 11.9957 11.6935 10.9295 10.6254 10.2024 9.57856 9.31921 9.00786 8.28513 8.07091 7.53421 7.1309 6.82703 6.61524 6.20357 6.19461 5.59998 5.47334 5.28831 4.70311 4.4686 4.08861 4.19108 3.75579 3.67223 3.13949 3.15927 2.94274 2.89584 2.81377 2.41054 2.03411 1.95831 1.8699 1.94475 1.53761 1.42807 1.78227 1.2723 1.21248 1.23029 1.10081 0.84422 0.622072 0.635174 0.600927 0.808771 10.8387 15.3833 18.8246 20.4924 21.5283 21.3555 20.9724 20.4015 20.2756 19.3418 18.9574 17.7342 17.4325 16.6236 16.1688 15.8085 14.5925 14.154 13.8303 12.8971 12.1866 11.4558 11.5664 10.3272 10.3603 9.81311 10.0344 9.14737 8.10378 8.3641 7.41288 6.93944 6.91927 6.57014 6.05297 5.6179 5.41898 5.06284 4.54248 4.05328 3.73114 3.88235 3.55915 3.27645 2.96178 2.74763 2.57096 2.21798 2.15943 1.95262 1.73237 1.82746 1.85682 1.39334 1.4528 1.31384 1.01739 1.1282 0.788198 0.862217 0.912582 0.727435 0.849531 0.712981 15.32 19.6137 23.1428 24.4727 25.3729 25.2586 24.8494 23.8463 24.0921 23.0158 22.0004 20.5349 20.457 19.3342 18.4045 17.8524 17.0097 16.3315 15.7132 14.6979 14.2642 13.7087 13.1046 12.3837 11.8893 11.1807 10.8047 9.97981 9.38249 9.7238 8.34408 8.00505 7.54422 7.28715 6.30578 6.38598 6.04277 5.286 5.31853 4.63248 4.6813 3.97935 3.72934 3.4734 3.63246 3.07583 2.86868 2.79791 2.22779 1.98404 1.97419 1.55911 1.7306 1.46232 1.22122 0.906505 1.12302 0.779094 0.797566 0.870904 0.759106 0.356726 0.332543 0.729569 21.5249 24.6118 26.6992 27.8607 28.1991 28.9152 28.0993 27.7106 26.8099 25.6328 25.5368 24.5604 23.7511 22.4819 21.0902 20.5996 20.0005 18.5294 18.2376 17.308 16.185 16.1683 14.7724 14.3678 13.5968 12.6644 12.0204 11.3291 10.9565 10.2911 9.6726 9.22773 8.42176 7.98419 7.41473 6.84901 6.40174 6.22847 5.69976 5.27994 4.90261 4.74703 4.13451 3.76711 3.64558 3.2158 3.16221 2.62451 2.57522 1.84666 1.83446 1.43071 1.56053 1.16585 1.42539 1.1998 0.912246 0.972693 0.748219 0.965163 0.435263 0.373098 0.222866 0.375542 24.7589 25.7624 27.3683 28.4658 28.548 28.7523 28.071 27.993 27.1131 26.1999 25.2697 24.7742 23.6311 22.9449 22.031 21.331 20.2198 19.22 18.7568 17.7604 16.7222 15.5417 15.0668 14.2105 13.6101 13.3497 12.6373 12.0517 11.0696 10.4382 9.80765 9.4453 8.95591 8.04226 7.80924 7.35155 6.33528 6.21863 5.60949 4.95355 4.89158 4.32623 4.04735 3.7605 3.35879 2.99785 2.74789 2.5418 2.75676 2.08757 1.86755 1.32231 1.25354 1.21667 0.906291 1.00542 0.92129 0.585128 0.576118 0.887 0.778229 0.720408 0.777316 0.518353 16.5829 21.104 23.2758 24.4825 24.9239 25.2982 25.2506 24.9716 23.7532 23.8986 22.3999 21.7584 21.0421 20.1303 19.207 18.388 17.6205 17.2869 15.8435 15.2073 14.3101 13.7664 13.2284 12.7339 12.1116 11.4595 10.9686 11.1054 9.8372 9.1281 8.75653 8.04465 7.9732 7.80011 7.12524 6.40849 5.96435 5.44117 5.12115 4.34263 4.3012 3.82978 3.59307 3.38993 3.67384 2.80869 2.44142 2.77136 2.29286 2.14541 1.87252 1.39744 1.32518 1.57917 1.51712 1.13228 0.635544 0.790068 0.792584 0.81088 0.747535 0.694006 0.694127 0.543274 11.541 15.8978 19.5215 21.38 21.6628 22.1386 21.884 21.3538 20.4073 20.5247 19.6178 19.053 18.045 17.7392 16.4772 16.6648 15.4627 14.7367 13.6042 13.8009 13.0228 12.6174 11.5915 11.326 10.8069 10.2137 9.71525 9.02596 8.69604 8.05759 7.76584 7.33858 6.88598 6.2767 5.81625 5.51986 4.93236 4.69737 4.04741 4.15784 4.13968 3.59917 3.53628 3.05167 2.89616 2.63095 2.63671 2.33091 2.29095 1.88763 1.99326 1.84259 1.69469 1.67424 1.43041 0.883237 0.986487 0.935391 0.599284 0.786217 0.700736 0.976261 0.69029 0.673505 8.12752 12.5834 15.772 17.4393 18.2135 19.0628 18.534 18.3748 17.4657 17.1223 16.3606 16.3917 15.5935 15.0003 13.7188 13.7442 13.272 12.716 12.1036 11.6389 11.023 10.4759 10.4389 9.78138 9.54404 8.60304 8.17081 7.69183 7.54389 6.9996 6.45653 6.33595 5.86546 5.4692 5.39841 4.89983 4.66886 4.29526 3.99096 3.91981 3.7256 3.58272 3.21035 3.08043 2.8608 2.65606 2.64506 2.38643 2.26267 2.1908 1.54369 1.54585 1.58259 1.56496 1.2862 1.1172 1.04305 0.913171 1.29811 0.763653 0.640204 0.30989 0.669593 0.496874 5.54544 9.68212 12.3944 14.2332 15.4176 15.606 15.5564 15.0657 14.5431 14.5246 13.9838 13.1669 12.6328 12.74 11.8148 11.2607 10.5213 10.1432 9.36708 9.60393 9.21233 8.78092 8.02568 8.17115 7.50845 7.2082 7.49835 6.78031 6.22286 6.07614 5.84093 5.4926 5.07728 4.80006 4.96322 4.30596 4.29218 3.88911 3.77002 3.69913 3.53298 3.31439 3.22907 3.1483 2.89765 2.93925 2.54511 2.3467 2.30772 2.16636 1.94477 1.58134 2.00676 1.595 1.43871 1.03677 1.18814 1.17863 1.09512 0.91544 0.775676 0.446857 0.566616 0.580369 4.05703 7.49099 9.94805 11.4101 11.963 12.1146 12.1339 12.0665 11.579 11.0928 11.0463 10.8447 10.2357 9.78439 9.51012 9.00281 8.65106 8.62476 8.11868 8.0606 7.32553 7.15472 6.82583 6.8129 6.34724 6.21704 6.01774 5.70761 5.52587 5.57075 4.96112 5.1013 4.71405 4.49878 4.35533 4.44073 3.92647 3.93349 3.85466 3.76502 3.46447 3.16889 3.0008 3.08861 2.94418 2.64307 2.54223 2.12903 2.23164 2.17218 1.92079 1.87796 1.34008 1.60982 1.37039 1.21952 1.28404 0.79545 1.10405 0.724094 1.0351 0.758127 0.441391 0.57955 2.43562 6.11059 8.26174 9.39158 10.1537 10.4557 10.0945 10.0336 9.70722 9.32865 9.09438 8.78838 8.07012 8.2681 7.64483 7.4523 7.13391 6.88026 6.84884 6.75215 6.28712 6.26239 6.10846 5.79728 5.43794 5.43252 5.27686 4.97388 4.77349 4.7722 4.85099 4.63988 4.26302 4.48826 3.97555 3.99942 3.73982 3.68921 3.5949 3.18039 3.24281 3.08701 3.12781 2.93164 2.54048 2.4062 2.42821 2.22228 1.98572 1.95897 1.78307 1.87819 1.62905 1.72328 1.17619 1.57424 1.29552 1.11744 1.37777 0.847525 0.731103 0.938044 0.693181 0.836693 1.8023 5.31316 7.3173 8.31877 8.78835 8.88209 8.95827 8.60789 8.4082 8.07046 7.93023 7.32266 7.34422 7.00642 6.74508 6.40382 6.29943 6.1355 5.82072 5.94831 5.5519 5.56076 5.7261 5.12809 5.12122 4.84629 4.98215 4.78513 4.474 4.42955 4.42593 4.12318 4.2063 3.90674 3.9241 3.5134 3.65669 3.40876 3.24961 3.07452 3.29063 3.06716 2.82359 2.8047 2.61674 2.56851 2.13579 2.36392 2.20591 2.0523 1.89821 1.60584 1.69109 1.49404 1.50054 1.50743 1.22176 1.03028 1.04378 0.917888 0.886195 0.923138 0.639291 0.793019 1.59438 5.01567 7.23695 8.17638 8.8103 8.91954 8.85117 8.53892 8.19788 7.9557 7.64559 7.56179 7.07143 6.80403 6.58125 6.44771 6.32032 5.9775 5.94688 6.02964 5.54877 5.3898 5.38288 5.19747 5.00799 4.95627 4.82489 4.70853 4.71621 4.37164 4.36595 4.2596 4.01912 3.9775 3.75574 3.61586 3.77862 3.44325 3.36301 3.25492 3.10565 2.90553 2.786 2.804 2.5715 2.44367 2.41496 2.12205 2.22712 2.2251 1.82206 1.67353 1.83916 1.40715 1.4865 1.27991 1.30851 1.0386 1.25484 0.932916 0.888984 0.615863 0.681078 0.538704 2.70911 6.00317 8.22695 9.47058 9.90272 10.5206 10.5445 9.79385 9.34351 8.99972 8.92368 8.35563 8.13591 7.84859 7.50268 7.30363 7.07495 6.82958 6.64304 6.59459 6.22578 6.02969 5.96305 5.88905 5.64435 5.35908 5.02595 4.92535 4.81231 5.05448 4.68011 4.32367 4.16195 4.05395 4.22169 3.83832 3.51065 3.51097 3.26783 3.29764 3.11561 3.01667 2.93422 2.87673 2.62109 2.47415 2.48995 2.25659 2.08284 1.99354 1.74903 2.07084 1.79213 1.48653 1.75776 1.473 0.981154 1.01701 1.17408 0.839183 1.0862 0.771017 0.650975 0.679256 3.53172 7.75148 10.0617 11.5576 12.2095 12.5128 12.3989 12.5001 11.5893 11.0878 10.9168 10.5716 10.2005 9.86938 9.21312 9.41121 8.94183 8.33057 8.1496 7.60228 7.26671 7.1842 7.27906 6.66795 6.64897 6.1974 5.99504 5.83023 5.61411 5.31389 5.14937 4.82291 4.62124 4.53689 4.26014 4.11891 4.06992 4.03607 3.88726 3.328 3.31009 3.28617 2.92858 2.95272 2.76863 2.44968 2.37979 1.93936 2.06788 2.09141 1.94294 1.74149 1.70275 1.44207 1.3978 1.2028 1.34723 1.19911 0.995017 1.1848 0.963123 1.04855 0.756998 0.678405 5.22264 9.6404 12.3903 13.9185 14.6045 14.8938 15.2146 14.7123 14.3818 13.4235 13.5733 13.202 12.4497 12.2016 11.4196 10.8247 10.2634 9.99874 10.0147 9.3811 8.86349 8.81281 8.12439 7.70029 7.64039 7.41047 6.97464 6.73186 6.72196 6.3199 5.96358 5.85496 5.38964 5.05804 4.91678 4.39371 4.36805 4.16672 3.94272 3.81842 3.45201 3.27509 3.16565 2.88424 2.83164 2.64297 2.56402 2.49973 1.99853 2.09956 1.90626 1.91545 1.99181 1.5552 1.29779 1.28905 1.27667 0.877961 0.845062 0.873743 0.972308 0.71988 0.898342 0.427977 7.45734 12.1444 15.0505 16.8912 18.2526 18.163 17.8647 17.4785 16.9349 16.6506 15.9309 15.6979 15.227 14.5379 13.5759 13.311 12.576 12.1711 11.8385 10.9353 10.7827 10.1317 9.47685 9.42917 9.17644 8.42836 7.88971 7.74705 7.33913 6.88305 6.68103 6.12794 6.03743 5.65813 5.29853 5.19264 4.84 4.80417 4.07492 3.97976 3.94947 3.50568 3.17056 3.22273 2.91867 2.83164 2.78402 2.40615 2.25989 2.17233 1.88449 1.8286 1.54767 1.33586 1.35793 1.12262 1.12715 0.716788 0.721401 0.951947 0.891059 0.496619 0.846604 0.79971 11.0179 15.5291 18.5254 20.6775 21.7448 21.8991 21.5545 21.0124 20.3829 20.2046 18.4312 17.8197 17.2856 16.8237 15.9974 15.9711 14.8506 14.4302 13.5082 13.5285 12.5524 11.7627 10.8278 10.5724 10.2808 9.93505 9.55976 8.80321 8.38445 8.04008 7.57853 7.19335 6.86376 6.53782 6.17544 5.71412 5.24131 5.25215 4.9411 4.28776 4.00845 3.71658 3.72819 3.63241 2.82492 2.89215 2.74273 2.35691 2.23235 1.9825 1.76964 1.64413 1.42885 1.44572 1.25524 1.61876 0.932669 1.01212 0.892626 0.8171 1.00433 0.709241 0.630314 0.74721 15.2527 19.7272 23.1652 24.0502 24.7814 24.8629 24.9261 24.2568 23.4289 23.3174 22.2383 21.2501 20.2875 19.382 18.2881 18.2983 17.31 16.5009 15.6175 14.8644 14.3957 13.695 13.158 12.3326 12.3657 11.1807 11.0608 10.1236 9.57814 9.17753 8.38144 8.24337 7.32204 7.39467 6.62436 6.29936 6.06668 5.43411 5.41528 5.00905 4.53526 4.55563 3.60793 3.48413 3.14692 2.91607 2.64735 2.70623 2.29811 2.21486 1.96919 1.81842 1.61804 1.56306 1.09746 0.969065 0.841713 1.2971 0.793416 0.98495 0.843053 0.527748 0.590725 0.648566 21.1681 24.739 26.6474 28.2358 28.28 27.9166 28.2014 27.7157 26.5782 25.8174 25.2273 24.3302 23.7599 23.1966 21.2926 20.6861 19.309 18.2717 18.0909 17.4245 16.3437 16.0379 14.7496 14.3958 14.1902 12.988 12.0338 11.565 10.764 10.4952 9.93661 9.05932 8.83526 8.09497 7.7528 7.132 6.70422 6.26057 5.79251 5.50111 4.66078 4.60667 4.17547 4.06556 3.40421 3.21297 2.95817 2.80354 2.38889 2.06357 2.18522 1.45698 1.6445 1.21123 0.93354 1.07264 0.741339 1.07166 0.853142 0.391249 0.476227 0.543099 0.266797 0.589702 24.7888 26.1265 27.3169 27.9621 28.8159 28.5067 28.7226 27.6709 27.1858 25.9761 25.0283 24.796 23.917 23.1952 22.135 21.1847 20.4155 19.3107 18.6722 17.7795 17.3121 15.5634 15.3393 15.1203 13.8771 12.9862 12.5733 11.9829 10.9665 10.4074 10.2758 9.04726 8.87494 8.33616 7.53462 7.28688 6.58813 6.49407 6.05167 5.16147 4.77596 4.40155 4.11607 3.40875 3.56289 2.99803 3.04791 2.45806 2.37771 2.01142 1.77492 1.37657 1.50108 1.23378 0.966844 0.912526 0.950237 0.884853 0.747649 0.649155 0.65623 0.497262 0.69081 0.479171 16.5676 20.9072 23.6733 25.1238 25.2988 25.1998 25.1378 24.8737 23.8601 23.1501 22.8196 22.2107 21.196 20.2794 19.3552 18.7485 17.8156 17.4054 16.699 15.4544 15.1297 13.7297 13.5099 13.0467 12.2509 11.7537 11.442 10.2988 10.3414 9.77798 8.88686 8.4565 8.10998 7.50031 6.60518 5.94948 5.79494 5.75301 4.97175 4.69308 4.31514 3.79142 3.33997 3.47029 3.05704 2.82984 2.66482 2.59005 2.42868 1.72743 1.87449 1.43005 1.3552 1.40506 1.31656 1.27452 1.12667 0.865683 0.882132 0.513295 0.46048 0.68903 0.538988 0.49334 11.63 16.1589 19.9289 21.1839 21.8488 22.0727 21.9234 21.6411 21.0404 20.4931 19.8964 19.0704 17.7979 17.5913 17.1085 16.3002 15.3929 15.2177 14.3623 13.9523 13.1422 12.3221 12.2412 11.438 10.9411 10.3933 9.96206 9.51686 8.90891 8.48271 7.81233 6.93046 6.74538 6.4048 5.77173 5.81366 5.37476 5.07867 4.59641 4.41094 3.81742 3.78277 3.21637 3.1275 2.90743 2.52842 2.61361 2.45747 1.92419 1.93785 1.96901 1.63719 1.37434 1.45734 1.58092 1.02089 0.906721 0.768851 0.924738 0.476106 0.58975 0.262509 0.597608 0.624521 7.83935 12.6642 15.7448 17.8092 18.6394 18.9997 18.7404 17.9931 18.0151 16.831 16.5023 16.2337 15.5435 14.728 14.3725 13.663 13.1219 12.7776 11.9898 11.7078 11.2541 10.9865 10.2448 9.73326 9.27116 8.54206 8.27784 7.58909 7.61939 6.90175 6.86764 6.33236 5.95999 5.72334 5.41383 4.97768 4.66895 4.36036 4.2922 3.83177 3.68693 3.48089 3.07579 2.92214 2.95984 2.39001 2.47577 2.2114 2.01442 2.10091 1.80407 1.88355 1.74054 1.58046 1.2456 0.942388 1.32659 0.911724 0.981952 0.921349 0.761558 0.503147 0.631316 0.710829 5.43086 9.70467 12.6873 14.6268 15.2703 15.8804 16.0623 15.7283 14.4521 14.4361 13.6481 13.6481 13.5557 12.7837 12.3887 11.6565 10.8147 10.4592 9.9467 9.67422 9.02808 8.63213 8.28224 7.7994 7.51071 7.17408 6.87612 6.35496 6.49674 5.82347 5.82358 5.35355 4.94911 5.14286 4.7629 4.39635 4.21374 4.02108 4.07617 3.35245 3.31217 3.09783 3.11709 2.97109 2.69406 2.69381 2.35874 2.04794 1.9934 1.99223 1.72655 1.85729 1.72528 1.67794 1.31018 1.55752 1.0264 1.18828 0.803645 0.701204 0.923774 0.795284 0.837946 0.581853 3.67535 7.46439 10.1312 11.4428 12.1478 12.3402 12.1558 11.8568 11.6932 11.2673 10.652 10.2605 10.0076 9.57692 9.46576 9.3145 8.82079 8.20029 7.9732 7.89518 7.67713 7.21969 6.91175 6.92025 6.31208 6.08049 5.71845 5.64992 5.54596 5.19951 5.17551 4.87844 4.57832 4.50469 4.35046 4.03019 4.13936 3.89861 3.5772 3.2956 3.10056 2.975 2.76177 2.53202 2.64811 2.70267 2.46643 2.13376 2.16365 2.28585 1.85985 1.68699 1.45504 1.4142 1.29688 1.16276 1.00513 1.11418 1.08254 0.720991 0.664448 0.894877 0.76995 0.472101 2.47183 5.91946 8.3173 9.54457 10.2047 10.5555 10.3443 9.91837 9.97954 9.31201 9.05949 8.73124 8.18927 8.07067 7.78784 7.54289 7.05176 6.94109 7.19626 6.62813 6.69456 6.32706 6.03487 5.67277 5.46815 5.43012 5.38637 5.13962 4.87913 4.99509 4.60849 4.54647 4.05766 4.15078 4.08326 3.74279 3.81279 3.50928 3.18415 3.42258 3.31519 3.04971 3.23446 2.63039 2.6771 2.59094 2.4507 2.07826 2.2287 2.13308 1.96434 1.75256 1.57403 1.46389 1.59054 1.4455 1.42754 1.20198 0.896228 1.12723 1.12956 0.806706 0.405724 0.304907 1.94285 5.18092 7.44949 8.52099 9.04402 9.03208 8.98892 8.76744 8.4676 8.1685 7.78597 7.35428 7.20443 6.86534 6.84437 6.46207 6.20964 5.97974 5.78947 5.80936 5.75284 5.48524 5.3418 5.04996 4.94099 4.68125 4.98313 4.52749 4.35599 4.48114 4.28545 4.21525 3.90484 3.87979 3.78637 3.78431 3.59663 3.2728 3.44868 3.18146 2.8402 2.91317 3.11697 2.78707 2.59272 2.3706 2.20909 2.1039 1.97467 1.96074 1.93197 1.84881 1.49702 1.42416 1.61065 1.41637 1.3874 1.14803 1.23538 0.918132 0.763945 1.08528 0.802546 0.516484 1.91786 5.24901 7.29498 8.41473 9.0985 9.19856 8.99215 8.63828 8.26486 7.98397 7.59672 7.37879 7.32048 6.74666 6.65803 6.53662 6.38945 5.95718 5.96409 5.64855 5.50097 5.28015 5.36202 5.18243 5.22123 4.75366 4.7141 4.50147 4.66542 4.22233 4.13251 4.4803 3.93799 3.832 3.82716 3.55214 3.57122 3.42746 3.33143 3.50427 3.07153 3.00097 2.90033 2.75413 2.46684 2.16726 2.07259 2.26881 2.25754 1.99993 1.77761 1.61951 1.59837 1.71594 1.5577 1.21882 1.29234 1.10699 0.964952 0.873693 1.11243 0.472229 0.595394 0.707643 2.42852 5.81568 8.05914 9.63868 10.1366 10.3816 10.3786 10.2134 9.76222 9.11786 8.69684 8.42759 7.98497 7.75842 7.51441 7.21319 7.33758 7.0332 6.74081 6.28886 6.18741 6.42487 5.79155 5.81779 5.50415 5.5337 5.20996 4.88798 4.97502 4.71784 4.54769 4.32117 4.16384 4.18176 3.89594 3.69211 3.87167 3.53373 3.56888 3.44904 3.08556 2.90104 2.81204 2.79027 2.43085 2.37362 2.65069 2.0967 1.86909 2.02449 1.90084 1.63575 1.68841 1.58147 1.64684 1.46888 1.33858 1.216 0.950161 1.019 0.991027 1.01649 0.500504 0.440033 3.50623 7.65199 9.7939 11.7896 12.084 12.1042 12.2125 12.0749 11.7967 11.0955 10.9996 10.4163 10.0494 9.83003 9.41663 9.15757 9.20577 7.98381 7.91369 7.73351 7.33622 7.39227 6.8438 6.55791 6.43428 6.18815 5.99011 5.81277 5.42305 5.25651 5.06394 4.98674 4.65139 4.4888 4.23875 3.96104 3.88482 3.76695 3.51027 3.44749 3.36238 2.95265 3.04882 2.77647 2.4857 2.27358 2.19299 2.32139 2.05839 1.84014 1.95868 1.78075 1.52778 1.6339 1.26788 1.44301 1.17171 1.07375 1.21302 0.997776 0.705578 0.690182 0.748123 0.517442 5.06212 9.37535 12.3535 13.8463 14.5139 14.8715 14.8541 14.583 14.3565 13.944 13.4194 12.5454 12.7916 11.607 11.3561 10.8361 10.5957 9.98448 9.79171 9.08799 9.07827 8.53145 8.00694 7.70113 7.49312 7.20034 7.30352 6.86452 6.69592 6.01548 5.93221 5.47181 5.26844 5.06522 4.79655 4.70237 4.28714 4.01971 3.83315 3.73274 3.72826 3.11029 3.1191 3.01208 2.86671 2.65219 2.50286 2.27505 2.28782 2.04331 1.9909 1.5344 1.72611 1.59781 1.4 1.31604 1.49605 0.824098 1.26501 1.01648 0.691132 0.888608 0.653293 0.797673 7.51651 12.1221 15.0833 16.8545 17.6942 17.9207 17.7557 17.4018 17.2436 16.497 15.9909 15.319 14.7467 14.6587 13.6616 13.7887 12.6792 12.4382 11.8026 11.0473 11.1107 10.1674 9.62819 9.37362 9.17403 8.59866 7.67489 7.58241 7.15957 7.31288 6.66698 6.35951 6.33478 5.56762 5.48972 5.28689 4.84667 4.60869 4.30576 4.29003 3.6858 3.45461 3.5465 3.42224 3.00683 2.80766 2.99522 2.58907 2.06945 1.85186 1.7538 1.6405 1.65766 1.35948 1.23643 1.29263 1.43842 1.06123 1.189 0.947471 0.574582 0.871132 0.545309 0.64134 10.6427 15.2246 18.6352 20.6433 21.4545 21.4193 21.6465 20.5633 20.6664 19.5556 18.9954 18.242 17.3904 16.5089 16.0902 15.6985 14.8466 14.225 13.986 13.1595 12.4809 12.0409 11.165 10.8928 10.3044 10.1334 9.42906 8.90009 8.31096 7.92005 7.6662 7.21689 6.75916 6.48908 6.35378 6.16286 5.36568 5.1221 4.69304 4.42644 4.06051 3.80834 3.29761 3.28813 3.20312 2.91868 2.59477 2.59434 2.60601 1.88687 1.75462 1.65091 1.4729 1.35323 1.23552 1.30456 1.18323 0.809356 0.805232 0.65719 0.710967 0.817576 0.863993 0.844809 15.1553 19.7014 22.9094 24.6886 25.0745 25.3552 24.5817 24.0376 23.8905 22.9948 22.4667 20.9859 20.1696 19.5682 18.3367 18.2632 17.1439 16.6565 15.7205 15.0381 14.7637 13.7977 12.9614 12.6413 12.3411 11.1203 10.8787 10.391 9.74801 9.31126 8.54666 7.73621 7.3542 7.67527 6.77725 6.38229 5.98018 5.72991 5.62922 4.90881 4.1931 4.14953 3.7912 3.81939 3.28288 2.95683 2.71136 2.67735 2.29967 1.99386 1.93641 1.27246 1.39381 1.15675 1.39449 1.00001 0.82078 0.961373 0.890867 0.658366 0.668377 0.78056 0.693501 0.76153 21.3845 25.2707 26.6337 28.0361 28.2424 28.0447 28.0285 27.3244 26.7509 25.7721 25.0729 24.7465 23.9215 22.9743 21.8439 20.5441 19.3112 18.7466 17.7566 16.8737 15.9807 16.1577 14.9548 14.4504 13.7742 13.0851 12.2309 11.1906 11.2129 10.17 9.60259 9.42689 9.0447 8.18588 7.39968 6.87894 6.9542 6.55721 6.03695 5.40195 5.09591 4.87477 4.06187 3.75784 3.63125 3.43294 2.90337 2.6525 2.41573 2.14537 1.85752 1.82311 1.93971 1.37366 1.55786 0.829704 1.06539 1.07751 0.948109 0.629282 0.512319 0.607965 0.711071 0.485806 24.6517 25.9778 27.6265 28.1156 28.4067 28.1998 28.6244 27.7824 27.11 26.3799 25.4117 24.8634 23.9672 23.2162 21.9801 21.5076 20.4528 19.4338 18.9329 17.9505 16.9242 16.1244 14.8788 14.7793 14.0203 13.1949 12.7146 12.0316 11.7475 10.4506 10.2122 9.65384 8.63444 8.22278 8.13169 7.27832 6.54472 6.24513 5.79825 4.91599 4.81586 4.43112 4.04248 3.85215 3.16083 3.01472 2.57061 2.63555 2.40771 2.21511 1.45582 2.13591 1.33399 1.21545 1.28243 0.847705 0.792394 0.585701 0.765237 0.57838 0.517958 0.936393 0.536113 0.588594 16.6774 20.8439 23.784 24.9198 25.1778 25.5091 25.0793 24.66 24.1375 23.1877 22.4248 22.0091 20.7422 20.3774 19.3934 19.2989 17.9462 16.9593 16.4983 15.7676 15.3534 14.4597 13.3411 12.8797 12.3898 11.6822 11.3201 10.696 10.0937 9.3472 9.28356 8.3793 7.7904 7.4827 6.76708 6.28095 5.60332 6.06375 4.97394 4.37446 4.12337 3.6978 3.57908 3.4827 3.16846 2.65021 2.48436 2.21067 2.37459 1.82154 1.54813 1.41932 1.42336 1.38242 0.933756 1.15565 0.884839 0.860284 0.744302 0.768304 0.818267 0.545708 0.52819 0.695351 11.4476 16.3312 19.924 20.9287 22.3102 22.2992 21.9819 21.5945 20.6584 20.4243 19.4841 18.9618 17.9868 17.4168 16.5676 15.8315 15.5949 14.9149 14.1899 13.8995 13.1345 12.7941 11.6645 11.7455 10.9887 10.3021 9.63862 9.38785 8.73734 8.49522 7.69855 7.24731 6.54789 6.59528 5.79549 5.73973 5.2599 4.99858 4.51564 3.82203 4.03541 3.70539 3.33522 3.18943 3.18904 2.51558 2.23515 2.45204 1.97069 2.13735 1.87617 1.86389 1.60487 1.26258 0.842985 0.999971 1.12891 0.706038 0.903572 0.682528 0.769746 0.783666 0.358236 0.779987 7.9212 12.5205 16.0046 17.5259 18.5059 18.6893 18.4836 18.4048 17.8346 17.232 16.4202 16.082 15.2749 14.9643 14.0605 13.9154 12.9569 12.6002 12.1263 11.4514 11.1923 10.4216 10.266 9.84681 9.66675 8.40657 8.53897 7.79294 7.53702 7.23804 6.48881 6.18169 5.60923 5.37878 5.47921 4.8224 5.06697 4.26524 4.31887 3.6913 4.02646 3.51752 3.1871 3.09198 2.58306 2.49377 2.27659 2.20153 2.03402 1.84417 1.89764 1.46338 1.44258 1.52289 1.5414 1.21013 0.742734 0.858836 0.781866 0.943632 0.680607 0.816899 0.574685 0.38482 5.45847 9.81214 12.5494 14.3728 15.2268 15.8122 15.7704 15.142 14.9165 14.456 14.0915 13.4265 13.1284 12.474 11.7706 11.7162 10.7904 10.1122 10.1324 9.9183 8.96615 8.53756 7.99128 8.13255 7.8268 7.37541 6.94539 6.83975 6.74287 5.9694 5.61306 5.69634 5.11464 4.82966 4.66219 4.73194 4.49222 3.93826 4.03289 3.45643 3.36313 3.2894 3.04402 2.88055 2.82196 2.50407 2.24755 2.37355 2.25341 1.93768 1.79318 1.84561 1.51698 1.50567 1.28289 1.1547 1.30696 0.898468 0.920912 0.740672 0.581934 0.527417 0.54886 0.445396 3.89682 7.71631 10.0364 11.5979 12.024 12.5057 12.4291 12.3606 11.5167 11.3385 10.9382 10.5297 10.1595 9.66671 9.36251 9.20423 9.09244 8.37586 8.08948 7.60077 7.8751 7.26545 7.00706 6.74516 6.21616 6.16205 6.03803 5.66755 5.41884 5.21994 5.16246 4.97112 4.75655 4.3571 4.20024 4.09872 4.07067 4.00534 3.67866 3.27573 3.17294 2.90976 2.85997 2.82838 2.92573 2.75169 2.39197 2.26746 2.05928 1.84318 1.9426 1.91468 1.72514 1.4107 1.37965 1.3349 1.68148 0.791363 0.984374 0.719669 0.716074 0.627183 0.410837 0.868988 2.65816 6.22317 8.19247 9.46897 10.123 10.3117 10.1633 9.97626 9.64273 9.2598 9.00423 8.74739 8.29708 8.17268 7.78417 7.5613 7.31392 6.92115 7.00175 6.61239 6.50355 6.47699 6.23253 5.7523 5.60636 5.47671 5.38536 5.20377 4.77715 4.67239 4.54018 4.36515 4.19583 4.14733 3.84514 3.76166 3.59601 3.52569 3.8168 3.06679 3.09268 3.11867 2.8729 2.929 2.6467 2.53296 2.531 2.15263 2.17628 2.04381 1.97284 1.66168 1.89376 1.73383 1.41942 1.2738 1.13334 1.1003 1.17411 0.73952 0.986724 0.928113 0.8886 0.719209 1.84925 5.22343 7.40561 8.57032 9.0393 9.15499 9.07766 8.82989 8.40862 7.99688 7.6651 7.31503 7.18202 6.86047 6.67674 6.39239 6.23614 6.05839 5.89955 5.69284 5.59215 5.49595 5.19564 5.1942 5.0956 4.95835 4.76444 4.56569 4.34845 4.33607 4.22062 3.90386 4.05004 3.99153 3.60457 3.85953 3.63304 3.40988 3.4597 3.16149 3.17652 2.75456 2.64711 2.66979 2.74667 2.44298 2.43729 2.16267 2.02089 2.10485 1.91933 1.66018 1.60639 1.65588 1.28627 1.29248 1.30224 1.20225 0.918394 0.924325 0.736733 1.05893 0.836126 0.790663 1.99005 5.41733 7.32065 8.52655 9.08254 9.06403 8.9941 8.78493 8.26918 8.08865 7.58653 7.47433 7.05156 6.72425 6.55619 6.34651 6.10298 6.00068 5.82764 5.74483 5.59105 5.39641 5.228 5.13812 4.98029 4.81048 4.59024 4.61176 4.42444 4.47773 4.12264 4.22326 3.96775 3.72469 3.60147 3.60381 3.62238 3.41206 3.23927 3.19215 3.22742 2.97719 2.74541 2.70262 2.59805 2.33442 2.50795 2.18737 1.99073 2.11473 1.76938 1.80221 1.4657 1.63609 1.45712 1.41881 1.2738 1.02502 1.32191 1.16042 0.935093 0.934247 0.665269 0.719348 2.81585 6.06864 7.97903 9.64672 10.362 10.5913 10.1013 9.80223 9.73665 9.58189 8.95821 8.33947 8.10604 7.73138 7.68827 7.2383 7.10466 6.66609 6.52564 6.42551 6.31449 6.18363 5.7183 5.70195 5.49883 5.55648 5.37294 4.96537 4.73159 4.60591 4.4067 4.43362 4.15713 4.1411 3.86257 3.81087 3.55535 3.50397 3.68182 3.28065 2.95727 3.09784 2.98212 2.97633 2.68499 2.43018 2.75834 2.46394 2.20186 1.97086 1.6835 1.9303 2.03 1.46151 1.49306 1.4865 1.66433 1.12549 1.17219 0.962214 0.872682 1.01765 0.786189 0.487839 3.76263 7.44158 9.85955 11.5931 12.2975 12.4599 12.4502 12.2119 11.9931 11.428 10.7286 10.2704 9.79018 9.73413 9.17444 8.95967 8.83577 8.46546 7.93576 7.64644 7.52194 7.08471 6.86551 6.61724 6.34887 6.16094 6.12805 5.40713 5.58032 5.25449 5.05853 4.87994 4.60642 4.46297 4.43573 4.2529 3.98408 3.83785 3.48665 3.51699 3.54409 3.17898 2.89336 2.9905 2.53392 2.48647 2.4779 2.0262 2.39292 1.87405 1.7734 1.67525 1.66295 1.38172 1.42289 1.5211 0.973729 0.821268 0.865656 1.08099 1.038 0.724764 0.29902 0.528437 5.27315 9.4456 12.4232 13.9611 14.8493 14.8017 14.8305 14.5685 14.0219 13.7793 13.1288 12.741 12.4023 12.2007 11.6682 10.8721 10.3893 10.0399 9.87585 9.4946 9.12551 8.30423 8.12725 7.69631 7.416 7.00255 7.04123 6.5526 6.54423 6.03882 6.13192 5.63086 5.38151 5.16235 4.57947 4.42104 4.48097 4.08972 3.96568 3.77723 3.38966 3.35955 3.12086 3.06023 2.86463 2.6667 2.47322 2.18715 1.97681 2.18687 1.97093 1.6668 1.70493 1.34007 1.58158 1.1214 1.33713 0.988755 1.1562 0.927894 0.851715 0.726189 0.88649 0.466633 7.38481 11.9413 14.9024 16.8468 17.651 17.517 17.5042 17.5517 16.9909 16.49 15.8224 15.4133 14.9378 14.3683 14.1272 13.3244 12.8039 12.0286 11.4219 10.9202 10.5336 10.3292 9.7884 9.3631 9.2082 8.05187 8.2856 7.69553 7.64541 6.90157 6.53437 6.68075 6.02419 5.80427 5.64456 5.23382 4.84181 4.46054 4.28238 3.9639 3.86603 3.51666 3.23597 3.15067 2.99715 2.67818 2.54866 2.39253 2.32592 2.08794 1.75339 1.83531 1.38138 1.04279 1.15343 1.2325 1.18963 0.822445 1.04451 0.795588 0.831627 0.678492 0.862904 0.554172 10.9826 15.332 18.1009 20.8601 21.2769 21.5338 20.9267 20.5662 20.5616 19.6781 18.9699 18.0712 16.8221 16.374 16.164 15.6827 15.0868 14.0001 13.7764 13.1607 12.8981 11.7767 11.3099 10.9202 10.4031 10.388 9.66014 8.68554 8.2278 7.94276 7.59391 7.21282 6.85741 6.67755 5.89414 5.96573 5.30175 5.25722 4.63452 4.20467 3.91117 3.82674 3.21815 3.23938 2.99918 2.96056 2.76108 2.51248 2.32331 1.7878 1.81146 1.77922 1.50499 1.42517 0.94578 1.17428 1.14034 1.13617 0.871222 0.624642 0.746818 0.689401 0.365214 0.63001 15.2672 19.5981 22.8953 24.3577 24.7729 25.2496 24.7351 24.1663 23.7977 23.388 21.9653 21.2959 20.2292 19.4773 18.4518 18.0038 17.3571 16.3214 15.817 15.155 14.2029 13.5723 13.0373 12.6863 11.9205 11.5113 10.591 10.3869 10.1801 9.46246 8.59995 8.18191 7.4959 7.1347 6.87981 6.36256 5.78933 5.79969 5.29374 4.93754 4.45263 4.27858 3.76977 3.81942 3.26608 2.87869 2.7957 2.61832 2.30335 2.16169 1.99821 1.86762 1.39646 1.35037 1.44052 1.01396 0.739876 0.625198 0.653866 0.421215 0.925607 0.353829 0.98426 0.525231 21.5246 24.5117 26.7094 27.9644 27.9917 27.7514 27.798 27.2724 26.5402 25.9477 25.8289 24.3037 24.3741 22.7974 21.6186 20.8066 19.5352 18.5336 17.8365 16.7925 16.311 15.1898 15.1194 14.4066 13.8729 12.6351 12.1484 11.2548 11.1337 10.37 9.87004 9.22484 8.74341 8.05139 7.55691 6.75799 6.50749 6.1562 6.01327 5.48661 4.73482 4.5927 3.9627 3.88213 3.54276 3.57852 2.99671 2.72327 2.57678 2.26245 1.91133 1.85887 1.38062 1.20176 1.21616 0.988082 1.012 1.16898 0.877637 0.672226 0.224472 0.574113 0.658425 0.635244 25.2786 25.9868 27.2237 28.4159 28.7994 28.626 28.4522 28.1311 27.0206 26.1655 25.662 24.6469 23.674 22.592 22.0937 21.0308 20.1935 19.583 18.6006 18.019 17.1572 15.597 15.1487 14.8215 14.1052 13.2219 12.8425 11.6579 11.1479 10.7818 10.3775 9.58847 8.75349 8.17615 7.51302 7.19504 6.46753 6.24155 5.46464 5.01504 4.79787 4.46348 4.07822 3.74118 3.24638 3.32156 2.59559 2.55259 2.4382 2.10381 1.72289 1.47985 1.6884 1.42117 0.960122 1.15389 0.820674 0.690095 0.517292 0.462739 0.592479 0.467264 0.584549 0.656232 16.5438 21.0952 23.3944 24.8151 25.6836 25.1931 25.6945 25.0615 23.9222 23.6192 22.694 21.8072 20.8497 20.411 19.221 18.6396 17.947 17.0422 16.4554 15.0543 14.8245 14.0754 13.3962 12.8096 12.1559 11.5638 11.4351 10.1369 9.75686 9.62411 8.55242 8.53048 8.09238 7.44566 6.89829 6.54277 6.19427 5.58642 4.92345 4.75728 4.3048 3.53167 3.48105 3.20117 3.19183 2.87572 2.58035 2.48317 2.30431 2.02727 1.69652 1.70033 1.29138 1.33132 0.966654 1.14234 1.16555 0.629148 0.728045 0.683033 0.488014 0.496163 0.521944 0.64821 11.5985 15.8692 19.1443 21.2815 21.7626 21.6754 22.4631 21.3347 20.9425 20.497 19.4045 18.7445 17.6613 17.8237 16.935 15.877 15.2975 14.6047 14.2679 13.1714 12.9363 12.3222 11.5389 11.7413 11.1534 10.3566 9.79099 9.39451 8.54238 8.57754 7.63609 6.92948 7.1498 6.09058 6.19994 5.73853 5.30033 4.98535 4.67397 4.30382 3.68897 3.75085 3.20383 3.3477 3.11267 2.77609 2.9182 2.74601 2.30096 2.05698 1.71191 1.48856 1.37357 1.39266 1.40695 0.886681 1.16731 0.762285 0.747063 0.558988 0.652736 0.548847 0.473022 0.538658 7.90707 12.6417 15.9023 17.6822 18.6562 18.5801 18.9308 18.03 17.5217 17.0489 16.3874 16.4623 15.0858 14.9095 13.9711 13.1522 13.2603 12.3158 12.2237 11.6 10.9845 10.4703 10.287 9.567 9.55511 8.62796 8.10888 7.24873 7.35452 7.18096 6.63338 6.34375 5.86666 5.5558 5.06778 4.87439 4.47644 4.2658 3.89499 3.75056 4.04116 3.69593 3.5182 3.22116 2.92747 2.67715 2.40117 2.40038 2.5616 2.05859 1.97588 1.43761 1.5255 1.49752 1.19328 1.15792 0.909623 0.801166 0.880548 0.835112 0.85559 0.811853 0.755097 0.544465 5.95592 9.57938 12.744 14.1778 15.3126 15.4002 15.7318 15.0904 14.8213 14.1918 14.0214 13.496 13.0314 12.6374 11.8418 11.5607 10.7236 9.87552 9.32486 9.38862 8.9295 8.6826 8.05581 8.20808 7.69203 7.57371 7.17486 6.55177 6.44301 6.49729 5.86188 5.41541 5.15552 4.90924 4.70699 4.42978 4.16977 4.05364 3.78963 3.76117 3.58595 3.30669 3.24745 2.9904 2.54559 2.6189 2.31934 2.35569 2.04045 2.12425 2.06521 1.40338 1.64695 1.49001 1.28683 1.24533 1.05097 1.16286 0.910107 0.796894 0.818153 0.631002 0.725898 0.740865 3.97399 7.44938 10.188 11.2691 12.2708 12.3204 12.4054 11.9812 11.5853 11.3192 10.8326 10.7861 10.2444 9.62151 9.31505 8.86377 8.91916 8.3994 8.70568 7.93358 7.70147 7.33399 7.24219 6.8997 6.49123 5.84536 5.87331 5.54637 5.52556 5.2687 4.98704 4.93518 4.71326 4.38556 4.38242 4.16883 4.12569 3.75841 3.61957 3.54467 3.35096 3.3996 3.15191 2.86803 2.7959 2.7045 2.58041 2.36666 2.25793 1.76828 1.8367 1.80263 1.5667 1.49956 1.40511 1.0953 1.01116 1.04401 1.12313 1.10833 0.91348 0.870178 0.702625 0.603508 2.57167 6.01461 8.48958 9.59207 10.1944 10.4012 10.0631 9.90267 9.56713 9.40034 9.0128 8.89488 8.44349 7.79755 7.60861 7.55736 7.05962 6.96099 6.73809 6.5532 6.38381 6.10735 5.97631 5.77714 5.43812 5.48929 5.18549 4.95134 5.02547 4.69079 4.66095 4.56618 4.32626 4.34922 4.18763 3.83067 3.63539 3.84174 3.41907 3.3732 3.19644 3.04466 2.82314 2.77367 2.8244 2.57209 2.48466 2.23604 2.22697 2.10115 1.9293 2.03921 1.50232 1.33902 1.34349 1.33854 1.04647 1.12884 1.14633 1.04896 0.945978 0.770095 0.801685 0.682535 1.54466 5.33264 7.37593 8.43065 8.90393 9.0729 9.04294 8.76034 8.43187 7.93485 7.72017 7.44682 7.28537 7.12527 6.77509 6.46753 6.58669 6.3048 5.79413 5.74703 5.5176 5.51487 5.56392 5.46603 4.98192 4.88787 4.81246 4.65817 4.67468 4.46788 4.19071 4.36166 4.03224 3.83363 3.84954 3.78656 3.59099 3.3553 3.42437 3.19901 3.43003 2.94974 2.68146 2.67948 2.58246 2.40456 2.44078 2.3818 2.1917 2.11659 1.81529 1.54845 1.77673 1.53257 1.753 1.36535 1.61932 1.06432 1.11187 1.23009 1.06141 0.785639 0.802919 0.562386 1.72302 5.19879 7.17754 8.22725 8.91685 8.93875 8.85081 8.76274 8.24117 7.86579 7.57399 7.44877 6.9339 6.72234 6.6785 6.42138 6.24357 6.02028 5.80955 5.69974 5.51102 5.54985 5.21805 5.22928 5.21024 5.08447 4.93341 4.69586 4.48349 4.31676 4.50108 4.08127 3.99171 3.87252 3.85414 3.8294 3.81022 3.35255 3.28813 3.17872 3.03934 2.85223 2.87456 2.85353 2.48573 2.54166 2.52507 2.26285 2.21684 2.09198 2.25445 1.85397 1.81189 1.46933 1.70474 1.35209 1.40429 1.1179 0.949013 0.936662 1.00161 0.602449 0.727716 0.512223 2.62464 6.00045 8.32134 9.73967 10.2243 10.5218 10.0922 9.77052 9.33861 9.14954 8.69523 8.45781 8.32593 7.91356 7.57694 7.45936 7.03229 6.71028 6.78219 6.42548 6.37352 6.04355 6.12619 5.96043 5.46373 5.24427 5.27333 4.85548 5.04665 4.72412 4.67253 4.40503 4.20535 3.9561 3.9937 3.79406 3.84185 3.48147 3.32378 3.27136 3.05919 3.06713 3.11168 2.69361 2.68246 2.80677 2.1119 2.33637 2.06834 2.14892 1.65786 1.72463 1.52049 1.41956 1.6238 1.32646 1.36311 1.08032 1.08615 1.16088 1.03924 0.920724 0.694482 0.607883 3.62398 7.72157 10.043 11.5441 12.0732 12.6054 12.2214 12.4108 11.6016 11.6827 10.8263 10.2734 10.3399 9.88268 9.74383 9.04827 8.73419 8.13268 7.76774 7.49296 7.40963 7.13092 6.931 6.67779 6.81079 6.33556 6.28429 5.65761 5.63125 5.55291 5.0918 4.91732 4.77818 4.38695 4.30647 4.00711 4.10588 3.62498 3.59142 3.43583 3.37857 2.87081 3.38519 2.72838 2.70524 2.41906 2.39508 2.20862 2.17467 2.11297 2.05097 1.67922 1.74084 1.45611 1.32826 1.38135 1.3347 0.923799 1.08676 0.833006 0.71589 0.61693 0.59185 0.600711 5.23863 9.7134 12.2533 14.3438 14.9523 15.155 15.1059 14.7391 14.1748 13.6974 13.3631 12.9044 12.5256 12.3237 11.3081 11.317 10.5722 10.2456 10.2753 9.57422 9.04131 8.4286 8.26164 7.64112 7.49422 7.38517 6.79314 6.70368 6.44568 6.10015 5.75634 5.75625 5.29772 4.84907 4.67899 4.70314 4.24355 3.95487 4.0568 3.75279 3.50401 3.35193 3.19568 3.04063 2.95586 2.53792 2.47857 2.1424 2.18825 1.74666 1.89335 1.55753 1.77494 1.5511 1.33451 1.28352 1.35461 1.1521 1.1155 0.926567 0.67044 0.588069 0.661383 0.602605 7.54798 12.3084 15.1071 16.7276 17.7053 17.8558 17.9816 17.7014 17.2134 16.6392 16.3128 15.5608 14.9771 14.4684 14.1007 13.7306 12.7162 12.0104 11.8189 11.0444 10.4374 10.1254 9.72832 9.5718 8.79222 8.46611 7.95004 7.92936 7.30714 7.00387 6.52335 6.34042 5.9757 6.11406 5.66747 5.14693 4.716 4.38563 4.02188 4.18522 3.70667 3.24128 3.36972 3.17952 2.8003 2.9089 2.58117 2.35072 2.27265 2.1409 1.79323 1.7127 1.50744 1.35679 1.46112 1.0903 1.17674 1.02102 1.11314 0.72842 0.459372 0.846424 0.767719 0.626914 10.6428 15.3359 18.3223 20.9562 21.2775 21.7203 21.1828 20.7604 20.0022 20.0027 18.8844 18.1428 17.3835 16.7768 16.1478 15.5678 15.2081 14.4639 13.9013 13.5699 12.614 11.8668 11.1795 10.962 10.3816 10.3527 9.69231 8.90299 8.47971 7.69476 7.89189 7.50323 6.50661 6.23905 6.07593 5.66691 5.44457 5.11938 4.60114 4.36134 3.77181 3.92256 3.44143 3.16146 2.82275 2.95539 2.53119 2.16677 1.9624 2.04718 1.94993 1.62888 1.44544 1.18287 1.3017 0.907272 1.22609 1.03738 0.832649 0.928868 0.639989 0.603687 0.528144 0.518108 15.1976 19.764 22.7451 23.9751 24.5862 24.9166 24.617 24.186 23.4437 23.0118 22.0998 21.15 20.3879 19.3815 18.8401 18.393 17.3409 16.3789 15.5779 14.9373 14.552 13.7305 13.0114 12.5937 11.8292 11.2052 10.8693 10.2202 9.80757 9.30976 8.51069 8.01346 7.61787 6.97302 6.8847 6.16524 6.13669 5.66547 5.27679 4.71384 4.47104 4.3408 3.60624 3.41905 3.12152 2.85466 2.78474 2.6406 2.32746 2.20182 1.96079 1.74786 1.50029 1.24655 1.38312 1.10767 0.918795 0.592117 1.05757 0.653896 0.916397 0.724428 0.562472 0.81941 21.3461 24.7358 26.9951 27.8143 28.3364 28.6033 27.9796 28.0849 26.7214 26.097 25.0633 24.8966 23.8649 22.5643 21.4462 20.6884 19.5085 18.597 17.9384 17.3137 16.452 15.8899 14.8604 14.4349 13.9232 13.2416 12.3793 11.8452 10.8697 10.8746 9.41942 9.39532 8.46109 8.07139 7.74735 7.04565 6.49101 6.03871 5.54674 5.46142 4.90427 4.2686 4.3389 3.73314 3.32159 3.34601 2.83823 2.47292 2.5248 2.10096 2.10588 1.57024 1.56647 1.39335 1.19086 0.885241 0.97377 0.77933 0.846202 0.470244 0.753315 0.391914 0.81912 0.764621 24.8004 25.3114 27.1881 28.139 29.2458 28.9277 28.4491 28.0294 27.1172 26.0599 25.7524 24.7984 23.802 22.8151 21.7391 20.9525 19.9817 19.1018 18.3981 17.3756 16.7002 15.7627 14.8611 14.6666 14.0467 12.9064 12.5686 12.0237 11.5909 10.5704 10.0469 8.76013 8.47242 8.53292 7.83928 7.48926 6.52927 6.17814 5.66044 4.9593 4.74342 4.05777 4.16953 3.61577 3.10726 3.1725 2.86579 2.65769 2.1533 1.94241 2.12441 1.76793 1.62854 1.19813 1.12261 1.18781 0.963238 0.709461 1.10478 0.405967 0.771666 0.385939 0.489694 0.421374 16.5914 21.0684 23.6401 25.3323 24.7264 25.0848 25.0893 23.9788 23.8524 23.4736 22.6712 21.8096 20.9165 20.5608 19.1231 18.2215 17.711 16.8357 15.8654 15.4174 14.7677 13.8346 13.4598 12.7094 12.1011 11.8204 10.8939 10.3042 9.96433 9.48834 8.90335 8.28832 8.02037 7.33655 6.72419 6.37486 5.96365 5.2368 5.13334 4.86798 3.97833 4.03373 3.68436 3.1674 3.16359 3.18366 2.68949 2.50057 2.17055 1.8602 1.7206 1.75177 1.31488 1.41642 1.12247 0.853903 0.900783 0.922402 0.892545 0.603742 0.579044 0.58828 0.705896 0.545496 11.5049 15.8828 19.7413 20.8335 22.0286 21.6301 22.0425 21.4988 21.1291 20.4034 19.8051 19.1246 18.0964 17.5868 16.7219 15.7244 15.1104 14.9602 14.1711 13.6902 12.8496 12.3501 11.5384 11.3715 10.697 10.1879 9.57572 8.80731 8.71951 8.75432 7.70202 7.25471 6.6515 6.70101 5.70622 5.929 5.08838 4.64426 4.78028 4.09446 4.01729 3.40086 3.57503 3.37291 3.08002 2.56108 2.64896 2.27332 1.83687 1.73625 1.85403 2.01974 1.64262 1.6578 1.14215 0.92929 1.15982 0.878145 0.616705 0.777141 0.680799 0.803316 0.5669 0.756578 8.09795 12.3814 15.9795 17.4933 18.3117 18.7068 18.2376 18.2819 17.9753 16.9411 16.8084 16.1655 15.3609 14.5452 14.481 13.6547 13.3466 12.3817 12.0685 11.1181 10.7487 10.3427 10.2192 9.55692 9.11106 8.22898 8.39777 7.98863 7.43607 7.14253 6.37009 6.16913 5.78597 5.61049 5.19803 4.82019 4.77814 4.50664 4.35803 4.13857 3.53503 3.68766 3.1729 2.9828 2.77249 2.47801 2.42669 2.4261 2.19248 2.15405 2.33989 1.58625 1.71824 1.56732 1.52933 1.21619 0.809462 1.02779 0.952717 0.689711 0.732672 1.0589 0.776698 0.748157 5.59668 9.45369 12.4813 13.9843 15.5592 15.3192 15.5119 15.2243 15.0804 14.1014 14.079 13.0756 12.6279 12.2336 12.3547 11.1895 10.8536 10.298 9.64706 9.16442 9.28218 8.88599 7.90151 7.87057 7.67129 7.29855 6.71518 6.71472 6.38277 6.18253 5.87371 5.38593 5.11868 5.11526 4.50832 4.79204 4.2519 4.5591 4.10563 3.80256 3.70232 3.19817 3.01321 2.96392 2.86454 2.65921 2.39468 2.25246 2.52326 2.12792 2.21083 1.8454 1.85282 1.65632 1.36075 1.19508 1.06149 0.992455 1.09249 0.848016 0.763548 0.611366 0.414358 0.670447 3.99909 7.51653 9.91724 11.2548 12.3062 12.2754 12.2921 11.8311 11.3062 11.002 10.6259 10.4901 10.4309 9.51264 9.31522 8.86194 8.77829 8.55452 8.06031 7.9456 7.36916 7.56134 6.9721 6.88476 6.4757 6.07022 5.85205 5.98005 5.52385 5.6322 5.2694 4.84931 4.50206 4.48265 4.45227 4.20692 3.88247 3.73489 3.72914 3.4823 3.26095 3.09589 3.04136 2.93549 2.91097 2.90727 2.49798 2.6798 2.39712 1.98201 1.82686 1.98812 1.94702 1.67629 1.3664 1.40218 1.47152 0.768664 1.08051 0.997069 0.922181 0.681075 0.441076 0.632071 2.96327 5.82917 8.1209 9.34075 9.86085 10.0741 10.036 9.92849 9.65592 9.41453 8.89968 8.97768 8.3246 7.95801 7.66714 7.74146 7.07963 7.02434 6.9 6.58816 6.39903 6.17253 6.14349 5.83882 5.70546 5.47487 5.11623 5.10946 5.23122 5.10543 4.67247 4.46902 4.47045 4.2187 3.96061 4.07606 3.74579 3.76268 3.44432 3.3771 3.18677 3.23316 2.7772 2.81164 2.62133 2.88958 2.60707 2.37027 2.05044 2.2647 2.01269 1.73451 1.82444 1.39529 1.48471 1.42026 1.27416 1.14832 1.21426 1.00586 1.16194 0.567406 0.673293 0.449168 1.88474 4.96013 7.02291 8.07801 8.73307 8.80453 8.92297 8.61379 8.35907 7.89 7.57296 7.58547 7.17446 6.81934 6.7816 6.64256 6.2914 6.10357 6.01837 5.90526 5.66615 5.5004 5.44338 5.33611 5.05135 5.04407 4.87573 4.68398 4.64804 4.42856 4.45128 4.20124 4.09536 4.02959 3.72538 3.85804 3.55723 3.32042 3.54629 3.32927 3.10931 3.0419 3.025 3.02167 2.51199 2.52471 2.31798 2.24644 2.13775 1.98176 1.92964 1.67632 1.79742 1.64477 1.57682 1.30164 1.15803 1.20173 1.18491 0.861252 0.949473 0.494876 0.497079 0.437271 2.01261 4.74752 6.91255 8.10967 8.67254 8.79153 8.6822 8.5715 8.25278 7.91146 7.70887 7.4833 7.09343 6.95215 6.70563 6.63993 6.40962 6.09807 5.89356 5.85054 5.6252 5.5448 5.47627 5.31298 5.13343 5.15591 4.77144 4.70088 4.50583 4.74506 4.40003 4.29577 4.20645 4.03151 3.83486 3.6661 3.68747 3.54527 3.46688 3.17405 3.00493 3.00857 2.71181 3.17617 2.80284 2.67695 2.51007 2.29302 2.16832 2.09441 1.97548 1.89092 1.77563 1.4462 1.50818 1.42112 1.39268 1.51225 0.906284 0.851985 0.975963 0.635644 0.622575 0.685856 2.40451 5.75018 7.96993 9.50064 10.1078 10.3005 10.0253 10.1001 9.87892 9.12578 8.66376 8.27792 7.87431 7.65312 7.66915 7.22995 7.19814 6.94348 6.8355 6.74948 6.31313 6.1286 6.01956 5.66364 5.5734 5.44881 5.2933 4.99353 4.90227 4.80307 4.69413 4.38633 4.49455 4.27115 3.88806 3.84616 3.69646 3.69755 3.38642 3.1152 3.05622 3.23097 3.00043 2.85529 2.75952 2.55805 2.21744 2.26999 2.11576 1.93296 1.9557 1.62629 1.64099 1.75367 1.41474 1.68656 1.20745 1.36088 1.16714 1.09353 0.62581 0.668002 0.514986 0.709082 3.68394 7.40439 9.69247 11.2412 12.2824 12.1422 12.3779 11.7876 11.6298 11.1436 11.0831 10.1814 10.1625 9.9343 9.65478 8.93424 8.42269 8.27953 7.92492 7.69614 7.45221 7.54123 7.18986 6.74875 6.29998 6.29075 5.8931 6.08293 5.61619 5.25616 5.1514 4.86091 4.74516 4.4094 4.41215 4.03514 4.04539 3.70184 3.65261 3.54167 3.31958 3.22689 3.1033 3.17797 2.81008 2.52705 2.38283 2.26797 2.02479 2.16031 2.1419 1.64365 1.87239 1.78858 1.42599 1.30131 1.15199 1.32295 0.760919 0.743503 0.811829 0.884665 0.702969 0.608128 5.6513 9.37437 12.5214 14.2851 14.7847 14.9199 14.5885 14.6912 14.5285 13.8474 13.4862 12.4539 12.7218 12.2047 11.8088 10.7803 10.7749 10.0976 9.7666 9.42553 9.03056 8.46595 8.22996 8.1251 7.80916 7.23367 6.89091 6.80323 6.18866 6.09755 5.73578 5.68034 5.49779 5.10075 4.74534 4.93742 4.42579 4.06493 4.12897 3.59359 3.66163 3.34847 3.30291 2.98437 2.89073 2.80825 2.65795 2.70673 2.28613 2.0978 1.98465 1.54723 1.40272 1.60271 1.29714 1.49349 1.26964 0.83136 1.28921 0.923869 0.482117 0.749432 0.718925 0.785721 7.62307 12.2528 15.2074 16.3394 17.7035 18.1224 17.9444 17.4482 17.2133 16.5327 15.7338 15.5118 14.5739 13.8304 13.9141 13.7107 12.9373 11.8408 11.7827 10.8162 10.5374 9.88647 9.96939 9.29272 8.86405 8.22374 7.83106 7.45585 7.23952 7.23834 6.62068 6.21845 6.23773 5.86011 5.36258 5.35305 4.90884 4.37049 4.17716 4.10527 3.757 3.64806 3.30484 3.14141 2.87363 2.89014 2.54201 2.63182 2.39236 2.22774 2.06088 1.60207 1.71883 1.52876 1.37278 1.16789 0.878322 0.982678 1.01062 0.917067 0.787747 0.510165 0.780967 0.545305 10.9776 15.3536 19.1483 20.568 21.0203 21.9649 21.5741 20.7446 20.309 19.3608 18.8719 18.0158 17.3385 16.2943 15.9118 15.6318 14.7332 13.7768 13.5548 13.3492 12.5566 11.7959 11.3994 10.6314 10.373 10.2577 9.79923 8.95819 8.25621 7.95269 7.5895 7.18117 6.69369 6.51375 6.22741 5.76907 5.37522 4.88367 4.52101 4.36779 3.87526 3.85684 3.44628 3.07566 2.92273 2.90881 2.54191 2.29428 2.30764 2.09447 1.80672 1.71799 1.60406 1.5525 1.27433 1.08136 0.838378 0.772542 0.71188 0.637188 0.635795 0.553502 0.599146 0.771783 15.3387 20.0536 23.6593 24.0729 24.265 25.0255 25.2003 24.1854 23.5727 23.12 22.2495 20.7835 20.292 18.9485 18.664 18.0828 17.2304 16.3726 15.6378 15.0548 14.3542 13.5851 13.0707 12.8369 12.132 11.1584 10.4989 10.149 9.54862 9.04606 8.15257 7.76781 7.60361 6.94436 6.7553 6.23499 6.0841 5.43263 5.24063 4.97118 4.26385 3.83662 3.97658 3.56804 3.11571 2.8425 2.68417 2.40391 2.12752 2.11604 1.92807 1.79491 1.36278 1.54068 1.19471 0.833327 0.819948 0.755422 0.862937 0.752471 0.538184 0.559844 0.36335 0.563516 21.3322 24.7543 26.5129 28.1589 28.5088 28.2238 27.9217 27.6802 26.6512 25.4462 25.8573 24.5092 23.988 22.292 21.3292 20.833 19.2521 18.3248 17.7497 17.2456 16.2104 15.6222 15.4496 14.3447 13.7185 13.0281 12.186 12.1015 10.9887 10.5564 10.0139 9.33872 8.60639 8.10959 7.2426 6.82654 6.65353 6.16223 5.76905 5.26553 4.87292 4.85694 3.98145 3.6896 3.50454 3.34748 2.76963 2.50503 2.38383 1.94073 1.50292 1.67886 1.51337 1.24799 1.1639 0.996544 1.16701 0.6585 1.05205 0.899304 0.695627 0.827921 0.591569 0.460497 24.8606 25.9882 27.4059 28.7283 28.9136 29.0277 28.5379 28.226 26.994 26.1504 25.442 25.1917 23.7037 22.8361 21.5151 21.1843 20.3859 19.2441 18.4964 17.7829 16.6333 16.0193 15.4992 14.4739 13.5914 13.1345 12.6358 11.7052 11.6084 10.3437 9.79524 8.92853 9.13133 8.04718 8.18333 7.24824 6.42287 6.0002 5.40216 5.09797 4.62377 4.22812 3.79549 3.43795 3.59266 3.24552 2.84246 2.63215 2.07504 2.28607 2.03434 1.49455 1.30623 1.40774 1.11974 0.846403 0.783464 0.909684 0.663724 0.628216 0.678067 0.639051 0.340395 0.334623 16.6594 21.3174 23.4215 25.1326 25.6014 25.5037 24.6928 24.6891 24.4032 23.1025 22.9326 21.8177 20.975 19.9947 19.2846 18.6212 17.9148 16.6371 16.6721 15.3403 14.634 14.3009 13.3816 13.0349 12.5319 11.299 10.9929 10.6886 10.5126 9.22546 8.63618 8.42506 7.97194 7.42061 7.18082 6.2898 5.70119 5.64356 5.09959 4.80519 4.29247 4.35418 3.86394 3.42081 3.10427 3.7106 2.73978 2.67669 2.2986 2.22303 1.87598 1.33048 1.70369 1.44208 1.27509 1.03643 0.810194 0.708774 0.738465 0.600701 0.761173 0.647151 0.522208 0.64842 12.1538 16.41 18.9148 21.0762 21.7558 21.824 21.5703 21.317 21.0594 20.1607 19.1516 18.6066 18.2994 16.8448 16.6409 15.5883 15.532 14.5581 13.3077 12.6664 12.6051 12.188 12.2216 11.3103 10.5649 10.3936 9.96353 9.17621 8.84116 7.96066 7.69661 7.37657 6.80476 6.30675 6.09316 5.68694 5.34933 5.06279 4.38779 3.95928 3.82258 3.9398 3.33674 3.14842 3.27116 2.802 2.60599 2.36588 1.95039 2.04226 1.84685 1.60979 1.42171 1.20426 1.61828 1.34087 0.940746 0.715628 0.893634 0.733254 0.472149 0.58336 0.643176 0.485294 8.40711 12.5118 16.0108 17.4034 18.0867 18.1794 18.5893 18.5067 17.9557 16.9019 16.384 15.7967 15.2718 15.0266 13.6118 13.5334 13.1597 12.4972 11.9576 11.8446 10.8627 10.8293 10.1495 9.52994 8.94192 8.91875 8.00027 7.95443 7.60148 7.04557 6.75641 6.51037 5.83493 5.76618 5.55983 4.81324 4.84035 4.52427 4.09001 3.8197 3.54889 3.87086 3.29626 2.85831 2.95118 2.53889 2.46871 2.38656 1.9973 1.85362 1.81907 1.54567 1.64717 1.68896 1.56438 1.28371 1.03418 1.00408 0.977135 1.03652 0.548294 0.843353 0.5738 0.890199 6.03287 9.68925 12.3243 14.1545 15.2457 15.4663 15.2073 15.2839 14.5428 14.1347 13.597 13.394 13.0396 12.4279 11.9943 11.4355 10.8114 10.2122 9.9588 9.60019 9.09423 8.47355 8.5197 7.88998 8.04066 7.26248 7.07289 6.44545 6.52693 5.78817 5.91898 5.46781 5.20631 5.01259 5.00806 4.46305 4.4402 3.94573 3.88852 3.81726 3.66664 3.39032 3.08257 2.99571 2.88037 2.71201 2.43861 2.47373 2.34553 1.95824 1.75316 1.96139 2.14858 1.81931 1.57642 1.34299 1.21283 1.02135 0.92919 1.11685 0.966759 0.791628 0.77398 0.550093 4.1486 7.66036 9.6672 11.0498 11.6907 11.9795 12.0322 11.7695 11.3314 11.2019 10.8328 10.4891 9.94355 9.82145 9.50204 9.26808 8.83169 8.62022 7.96103 8.00062 7.41814 7.27274 7.01083 6.67332 6.44845 6.22248 6.04098 5.93753 5.51936 5.46496 5.22 5.1345 4.92597 4.74996 4.54603 4.17994 4.02054 4.02613 3.81577 3.56827 3.50256 3.1765 2.84192 3.33945 2.68779 2.44592 2.65971 2.33062 2.2098 2.39077 2.01987 1.9579 1.55094 1.56831 1.37055 1.47339 1.06981 1.16553 1.06576 0.95713 0.596306 0.639382 0.457363 0.431899 2.81954 5.71497 7.98255 8.86915 9.70537 9.87471 9.86032 9.83573 9.55804 9.17544 8.66771 8.46403 8.43149 8.19894 8.07266 7.77973 7.44036 7.2719 6.94703 6.61435 6.59399 6.14875 6.0752 5.78818 5.7023 5.74714 5.66635 5.3939 4.98977 4.76766 4.93208 4.75911 4.48663 4.34281 4.0132 3.8211 3.86208 3.62989 3.68039 3.2903 3.36884 3.1027 3.34902 2.58777 2.74722 2.61582 2.29058 2.21182 2.31493 2.21049 2.0191 2.0932 1.64611 1.45059 1.92 1.21274 1.19296 1.27603 1.13106 0.906381 0.889772 0.72567 0.770554 0.31618 1.67142 4.5421 6.64798 7.80323 8.29518 8.60524 8.42509 8.38271 8.17915 8.09593 7.70857 7.32748 7.09806 6.91499 6.85133 6.64732 6.36277 6.35992 6.00683 6.07011 5.79677 5.49898 5.48076 5.4424 5.37476 5.29067 4.99365 4.82291 4.77896 4.75201 4.59081 4.32375 4.21418 4.15342 3.95575 4.04109 3.56576 3.38753 3.83828 3.35637 3.21533 2.99852 2.93614 2.86547 2.74759 2.66869 2.39999 2.22389 2.00087 2.109 2.23753 1.85997 2.06304 1.53986 1.60182 1.59403 1.30074 1.37841 0.80774 1.03045 0.967145 0.675879 0.64676 0.545951 1.6243 4.40686 6.70608 7.66446 8.29752 8.53353 8.42255 8.39866 8.12176 7.71666 7.57969 7.32895 7.16807 6.9425 6.69172 6.58274 6.40807 6.15375 6.12482 6.02797 5.82645 5.70315 5.59649 5.4727 5.39872 5.10797 4.96118 4.76478 4.59058 4.81476 4.38442 4.48223 4.25521 4.02577 4.17943 4.00152 3.65985 3.49373 3.54523 3.42328 3.20159 3.07741 3.07965 2.84466 2.87362 2.50639 2.68621 2.43062 2.04095 2.36771 1.88127 1.628 1.77917 1.86618 1.56591 1.50466 1.47264 1.0336 1.06996 1.19325 1.04582 0.579421 0.772543 0.386722 2.25166 5.60615 7.56381 9.18162 9.66487 9.84649 9.88838 9.66557 9.5727 9.21268 8.60359 8.35733 8.18852 7.87009 7.58567 7.23501 7.26092 6.90744 6.68511 6.50951 6.65389 6.2648 5.94918 6.01166 5.80503 5.61948 5.43505 5.21745 4.95179 4.82172 4.7108 4.53483 4.35068 4.33525 3.98534 4.03165 3.89975 3.77632 3.5643 3.36275 3.44691 3.02151 3.08501 3.06008 2.81144 2.54699 2.4813 2.32217 2.07117 2.09919 2.0195 1.85454 1.79838 1.97188 1.55612 1.47378 0.992455 1.1077 1.14839 1.20915 1.01985 0.782326 0.652689 0.801051 3.99031 7.4485 9.57559 11.3788 11.7759 12.2529 11.982 11.8948 11.4531 11.1508 10.8663 10.461 10.1894 9.69893 9.6072 8.94437 8.70434 8.29689 8.09809 7.79867 7.51235 7.47221 7.28037 6.89409 6.66048 6.34635 5.9778 6.00781 5.62901 5.37898 5.18785 5.10884 4.68696 4.64935 4.41946 4.3515 3.81266 3.67862 3.74774 3.44907 3.342 2.97489 3.03381 2.9714 2.67843 2.68601 2.39669 2.24259 2.33323 2.00228 1.83499 1.66033 1.89617 1.36482 1.66712 1.54639 1.24091 1.26709 1.10182 0.67892 0.837734 0.5969 0.961601 0.51846 5.43183 9.5762 12.4851 14.1345 14.9793 15.204 14.5311 14.6019 13.9685 13.9596 13.2543 12.7301 12.346 11.8345 11.6824 11.4819 10.6872 10.6065 9.57079 9.36548 8.96467 8.4165 8.2654 7.97488 7.42406 7.25572 7.018 6.82382 6.39222 6.05939 6.25571 5.73745 5.34563 5.04011 5.11764 4.63244 4.3626 3.95765 4.04217 3.7524 3.59295 3.32132 3.08521 2.95239 2.98823 2.74748 2.63544 2.34074 2.21394 2.33454 1.99197 1.83574 1.70036 1.66427 1.73753 1.45792 1.32646 1.26227 1.17572 0.782898 0.454632 0.671849 0.566791 0.613809 7.79783 12.1612 15.2586 17.0567 17.6563 18.1096 17.9127 17.7651 16.9057 16.4844 15.9074 15.3525 14.8465 14.2691 13.539 13.8619 12.6655 12.4242 12.0277 11.08 10.7154 10.3934 10.1732 9.51057 9.31624 8.58143 8.40175 8.06845 7.45897 7.47779 6.82417 6.70683 6.42226 5.79434 5.8911 5.03487 5.19704 4.79174 4.2091 4.10147 4.06656 3.5422 3.45224 3.15717 3.12441 2.80429 2.58288 2.45515 2.09259 2.16102 1.71123 1.77823 1.6426 1.47662 1.26321 1.42175 1.08416 1.11174 1.18171 1.05108 0.904333 0.764681 0.614265 0.822738 11.111 15.5974 18.8396 20.6305 21.7641 21.872 21.3382 20.5353 20.0975 19.4629 18.5268 17.7302 17.5884 16.8238 15.6343 15.352 14.9669 14.1472 13.6915 13.0374 12.5625 11.565 11.2922 10.5821 10.2104 9.86014 9.55185 9.01129 8.53386 8.07898 7.49209 7.1866 6.94721 6.45732 6.12659 5.58897 5.20412 5.3432 4.57294 4.15978 4.35351 4.06875 3.43178 3.18884 3.28751 3.01927 2.7304 2.30342 2.67196 2.28601 1.69832 1.53442 1.53732 1.32162 1.4374 1.48182 0.79535 1.29534 0.713936 0.604391 1.05385 0.862083 0.686875 0.773141 15.2355 19.6413 22.8007 24.7178 25.6825 24.7775 24.4128 23.9403 23.9128 22.4822 22.393 21.0985 19.9803 19.5908 18.595 17.8776 17.0362 16.7395 16.0176 14.9177 14.343 14.1547 12.9451 12.2189 12.108 11.3119 11.0419 10.2056 9.61687 8.93115 8.29 7.79377 7.89759 7.31697 6.98847 6.24768 6.15429 5.66491 5.52755 5.058 4.59302 3.72061 3.70443 3.21877 3.56174 3.62566 2.85136 2.77188 2.4069 2.08959 1.7058 1.90116 1.66238 1.38512 1.3091 1.45593 0.800267 0.939075 0.845345 0.990792 0.428277 0.401851 0.503994 0.570738 21.1857 24.581 26.8467 27.9799 28.5332 28.5886 27.8173 28.0165 26.536 25.8823 25.55 24.0196 23.7234 22.6862 21.6072 21.1886 19.6506 18.7596 17.9513 17.4878 15.8606 15.8008 14.9884 14.6292 13.3364 12.8581 12.5955 11.3773 11.1089 10.2504 9.86995 9.13272 8.43408 8.32585 7.77907 7.21996 6.6746 6.01988 6.00103 5.33783 5.02684 4.43516 4.06744 4.01567 3.57836 3.13948 3.20657 2.71723 2.44313 2.36582 2.19453 1.67024 1.59947 1.3822 1.16561 1.16026 1.11187 0.543315 0.623148 0.695864 0.511606 0.550975 0.571965 0.786322 24.7779 25.8715 28.1432 29.2153 29.3483 29.0685 28.6569 27.7335 27.0789 26.8898 25.6301 24.8688 23.4257 23.0249 22.0303 21.1285 19.9588 18.9552 18.4051 17.7787 16.645 15.67 15.2116 14.644 13.7892 12.7952 12.3284 12.2218 11.5701 10.6918 9.87405 9.30871 9.16243 7.86914 7.49301 7.23308 6.60737 6.88415 5.92599 5.22465 4.67802 4.52807 4.17794 3.8388 3.38193 3.50938 3.04234 2.86449 2.15322 2.12887 2.0592 1.59018 1.63149 1.26457 1.14669 0.861423 0.871699 0.731843 0.652246 0.656624 0.915409 0.549527 0.507785 0.572352 16.8417 21.1506 24.3285 25.1251 25.325 24.8695 25.2782 24.0495 23.978 23.196 22.6894 21.6604 20.5165 19.8317 19.3933 18.5459 17.609 16.7506 15.926 15.1048 15.213 14.0622 13.4107 13.5634 12.4293 11.6321 10.9567 10.8541 10.3371 8.97187 9.11633 8.83775 7.40669 7.22386 6.64847 6.22146 5.60451 5.5565 5.21194 4.80709 4.06672 4.0319 3.67461 3.42895 3.39275 2.80105 2.82225 2.59578 2.11708 2.21424 1.99808 1.69351 1.60941 1.31879 1.24569 1.01018 1.00413 1.15396 0.936686 0.7648 0.365593 0.444319 0.586544 0.731969 12.2001 16.1478 19.8882 21.2241 21.873 21.6788 21.2988 21.2576 20.562 20.1537 19.1853 18.3118 18.1632 17.4681 16.2856 15.8805 15.5591 14.4625 14.2947 13.2876 12.9472 12.142 12.1863 11.038 10.7143 10.3599 9.68645 9.20831 8.69085 8.29778 7.64842 7.27308 6.70345 6.58024 5.8741 5.48597 5.41886 4.82293 4.70546 4.46576 3.95293 3.90531 3.65657 3.0058 3.05718 2.86945 3.21655 2.17163 2.40495 1.91257 1.72004 1.71872 1.50458 1.4888 1.40507 1.21144 0.913549 0.751905 0.777542 0.886888 0.567543 0.655534 0.615335 0.573692 8.70286 12.409 15.4844 17.1392 18.2934 17.8709 18.4547 18.085 17.2118 16.5474 16.2304 15.9101 15.5824 14.5524 14.1104 13.7937 12.9198 12.3944 12.4055 11.846 11.3338 11.0151 10.3856 9.8701 9.58166 9.12143 8.26152 7.75249 7.54315 7.01081 6.81875 6.68611 6.22253 5.74237 5.30544 5.03542 4.66431 4.44301 3.9525 4.04176 3.72473 3.45139 3.42455 3.13037 2.92554 2.70717 2.63361 2.39592 2.01998 2.0436 2.11639 1.86934 1.95183 1.90225 1.44187 1.39151 0.966727 0.910333 0.908855 0.797589 0.961679 0.939255 0.589999 0.683073 6.20915 9.99114 12.2829 14.3571 15.2136 15.3027 15.041 15.011 14.557 13.9655 13.1772 13.105 12.7891 12.0621 11.7035 11.0773 10.6163 10.4824 9.83186 9.60539 8.87936 8.54158 8.41136 8.04282 7.69302 7.46916 7.08735 7.00763 6.47281 6.01067 5.95764 5.5371 5.33071 4.96105 4.8027 4.45411 4.47969 4.43132 4.06386 3.54527 3.3143 3.52336 3.29623 2.88042 2.84114 2.6042 2.72508 2.34506 2.31763 1.98078 2.02432 1.927 1.48719 1.67024 1.74406 1.67224 1.2134 1.21689 0.774363 0.841402 0.752305 0.82869 0.509085 0.507789 4.64445 7.27391 9.82024 11.0894 11.5854 12.0651 11.9452 11.6006 11.3011 10.9097 10.635 10.4224 10.0799 9.55849 9.50343 9.40933 8.97063 8.61196 8.41172 8.14878 7.75334 7.41712 7.11631 6.96998 6.81964 6.57704 6.0458 6.27024 5.67943 5.95545 5.3374 5.07761 4.74546 4.72381 4.57605 4.33663 4.1322 3.99995 3.92808 3.67818 3.82171 3.24245 3.00891 3.14621 2.84201 2.83438 2.33793 2.43765 2.27092 2.32423 2.05003 1.76226 1.49568 1.89999 1.69449 1.34302 1.1865 1.09178 1.26852 1.30803 1.01888 0.678521 0.734895 0.752624 2.88295 5.36792 7.55661 8.89539 9.14429 9.50388 9.65606 9.2929 9.30188 9.13294 8.7579 8.59848 8.38204 7.98188 7.67064 7.66662 7.73526 7.50609 7.16471 6.86637 6.54666 6.40557 6.35981 6.17198 5.95855 5.94831 5.49196 5.25073 5.15226 5.09761 4.92959 4.8791 4.51655 4.54344 4.29215 4.26196 3.96153 3.90689 3.82621 3.34525 3.62854 3.33618 3.03237 2.97073 3.00685 2.70371 2.71081 2.39179 2.36857 2.50356 2.13239 1.76158 1.77556 1.70985 1.44411 1.44352 1.25014 1.43646 1.17619 0.877287 0.715381 0.720355 0.78292 0.862489 1.50346 4.13753 6.07109 7.18754 7.83025 8.01134 8.09053 8.16861 8.16402 7.87346 7.7859 7.42004 7.20313 7.01787 6.82646 6.79663 6.70434 6.42809 6.23049 6.18219 5.96532 5.78732 5.84145 5.60175 5.39056 5.3332 5.18349 5.06507 4.98248 4.79384 4.58337 4.65505 4.37244 4.04364 4.17738 3.93498 3.81433 3.61288 3.52404 3.42304 3.07273 3.09389 3.23686 2.77699 3.07809 2.58838 2.38223 2.49149 2.06563 2.10811 1.90255 1.81585 1.8206 1.58624 1.46936 1.52466 1.38902 1.53841 1.21068 1.03091 1.07552 0.808283 0.791978 0.747212 1.22291 4.12073 5.99519 7.21653 7.78752 8.12638 8.06916 8.01858 7.94752 8.02589 7.6011 7.7024 7.17404 7.21261 6.87272 6.76268 6.50172 6.44947 6.1458 6.0019 5.95331 5.70973 5.73488 5.55329 5.48124 5.25666 5.27834 4.82546 4.7901 4.6479 4.79313 4.50628 4.50303 4.11829 4.13638 3.91394 3.68837 3.4738 3.59019 3.29403 3.1589 3.00375 3.02275 2.8369 3.09194 2.54672 2.78242 2.30152 2.29295 2.1137 2.02794 1.9783 1.78942 1.93478 1.39621 1.61556 1.31178 1.1701 1.06499 0.740383 1.04433 0.556698 0.585631 0.801571 2.4804 5.37088 7.4122 8.80401 9.17523 9.61868 9.55399 9.44999 9.2923 9.02935 8.65107 8.65518 8.1031 7.81363 7.75877 7.46548 7.44502 7.36393 6.86729 6.68257 6.75384 6.41044 6.27024 5.88186 5.79678 5.76268 5.64142 5.2811 5.19821 4.85263 4.84326 5.02332 4.46192 4.25184 4.20848 4.19168 4.02912 3.61993 3.73521 3.47984 3.24445 3.17152 3.0815 3.00796 2.75103 2.89026 2.40847 2.42658 2.30825 2.28478 1.94084 1.93521 1.87724 1.89046 1.89341 1.42281 1.11723 1.31681 1.10041 0.841933 1.02555 0.870905 0.87486 0.967401 4.04704 7.35951 9.30142 10.7463 11.2206 11.903 11.996 11.6856 11.4891 10.9666 10.8154 10.3613 9.95211 9.7079 9.48541 9.38217 8.81594 8.37958 8.25903 8.28149 7.80194 7.43132 7.03226 6.80289 6.65517 6.36757 6.27042 6.09971 5.87611 5.63277 5.39003 4.82313 4.76891 4.62181 4.48098 4.31789 4.29767 3.96152 3.7123 3.62525 3.7421 3.34231 3.22968 2.97233 3.10626 2.77722 2.59919 2.1708 2.41727 2.1816 2.03791 1.72617 2.02444 1.72297 1.39062 1.2934 1.37078 1.17529 1.00277 1.11487 0.658986 0.878188 0.449034 0.611361 6.16324 9.25522 12.0459 13.431 14.3433 14.947 14.8408 14.3385 14.1287 13.3387 13.1763 13.0949 12.3141 11.7233 11.9407 11.0269 10.3714 10.0848 9.62831 9.83385 9.44565 8.55334 8.5384 8.05438 8.12009 7.58515 6.99913 7.15988 6.79512 6.35677 6.15861 6.26317 5.96794 5.56246 5.12642 4.56297 4.5558 4.40098 4.21611 3.97021 3.75828 3.49409 3.22983 2.95752 3.16416 2.7321 2.8841 2.82251 2.31791 2.0842 1.99122 1.80154 2.01104 1.88536 1.45288 1.34211 1.28802 1.06966 0.849945 0.768269 0.492 0.677766 0.61851 0.48003 8.35795 12.3563 15.2423 16.9692 17.923 17.9958 17.6936 17.1681 17.0403 16.1917 15.8527 15.5097 14.8199 14.5615 13.5277 13.0853 12.4504 12.7687 11.6485 11.3391 10.8036 10.5036 9.73416 9.49538 9.26914 8.52973 8.44292 7.84397 7.52428 7.0535 6.94279 6.58711 6.26873 5.61457 5.60161 5.51705 5.26427 4.66931 4.3964 4.11535 3.90072 3.59348 3.63826 3.19385 3.04187 2.96111 2.63667 2.45025 2.44937 2.19381 1.889 1.71393 1.85457 1.79801 1.38945 1.34003 1.08359 1.06978 1.10928 0.661936 0.638559 0.582028 0.647496 0.965675 11.3073 15.5972 18.6567 20.805 21.3003 21.4819 20.8868 20.6525 19.62 19.2598 18.8363 17.6669 16.7891 16.7866 15.9717 15.6756 14.8454 14.3279 13.7382 13.3813 12.6886 12.2683 11.5013 11.0092 10.6452 9.8507 9.71249 9.18115 8.54092 8.34094 7.47808 7.53651 6.83117 6.76847 6.38026 5.76859 5.53593 5.38826 4.53314 4.16852 3.96888 4.09828 3.50486 3.21189 2.88703 3.0094 2.56322 2.38003 2.30963 2.118 1.68629 1.72682 1.79178 1.79562 1.3796 1.2581 0.864213 1.13955 0.771549 0.72569 0.932291 0.65575 0.952132 0.328952 15.4224 19.966 23.4781 24.5255 25.0016 24.7846 24.5764 24.0872 23.7501 22.8173 22.1032 20.5484 19.9338 19.1566 18.6057 18.4306 16.8907 16.3197 15.5846 15.1155 14.3444 13.9433 13.2737 12.852 12.4601 11.26 10.8404 10.2634 10.2158 9.02382 8.53458 8.07505 7.55742 7.27811 6.68117 6.79006 6.22928 5.69477 5.35026 4.8506 4.84803 4.09528 3.8489 3.75827 3.32398 3.2449 3.16384 2.7223 2.42 2.43954 1.94676 1.43619 1.61199 1.48166 1.27264 1.03151 1.09684 0.914524 0.53548 0.643041 0.696166 0.370737 0.673525 0.713743 21.2548 25.1908 26.8401 28.8162 28.7161 28.5571 28.245 27.8683 26.6279 26.1003 25.3066 24.4918 23.6996 22.1794 21.1654 20.648 19.8134 18.4157 17.9938 16.8208 16.2559 15.9467 14.7757 14.2657 13.4751 13.0369 12.2764 11.4508 10.8327 10.5355 9.6066 9.20308 8.74573 8.01225 7.52578 7.5331 6.66916 6.3665 5.97798 5.46709 4.89167 4.49864 4.16003 3.82343 3.65079 3.32029 3.16323 2.30358 2.26614 2.24649 1.64896 1.90607 1.61862 1.27572 1.00862 0.998124 1.30336 0.870318 0.759171 0.499242 0.412093 0.695267 0.225827 0.538816 24.9471 26.3114 28.0918 29.4455 29.3598 28.8935 28.4507 27.7118 26.973 26.1444 25.419 24.3383 23.1313 22.7805 21.3831 20.578 20.2137 19.452 18.4582 17.6453 17.0748 16.0899 14.9661 14.6854 13.9903 13.5584 12.5304 12.2732 11.1592 10.7449 10.4778 9.27572 8.79209 8.24422 7.74614 7.37835 6.53998 6.16291 5.64936 5.14674 4.7118 4.41692 4.04952 3.51747 3.61528 3.15374 3.00396 2.53249 2.27029 1.92505 2.0106 1.48902 1.59278 1.40737 1.23932 0.998835 0.97552 0.89913 0.842966 0.795804 0.641782 0.594534 0.299215 0.300594 17.3324 21.7037 24.7178 25.4151 25.2498 25.2821 24.7328 24.2007 23.5089 22.9517 22.6553 21.2738 20.8092 19.4937 19.2378 18.4628 17.3685 16.899 15.9648 15.4898 14.8217 14.078 13.5946 12.3012 12.0509 11.6208 10.8948 10.5108 10.1761 9.40266 8.71146 8.58834 7.74699 7.23499 6.93564 6.54211 6.003 5.55603 5.25659 4.64476 4.21208 4.10644 4.06084 3.56826 3.24318 2.89344 2.75079 2.30878 2.32958 1.9648 2.24251 1.97359 1.52048 1.32227 1.06156 1.17641 0.824732 0.750612 0.84085 0.793672 0.597777 0.675053 0.723336 0.581241 13.0787 16.7989 19.4817 21.0354 21.5272 21.9285 21.424 20.5168 20.1709 19.6412 18.9251 18.3497 17.6577 16.9882 16.2409 15.5118 15.3486 14.3432 13.6013 13.4398 12.9346 12.0709 11.8843 11.4308 10.9887 10.6362 9.93445 9.4036 8.97509 8.54841 8.11714 7.20628 6.93688 6.36154 6.14976 5.55342 5.17032 5.1311 4.51331 4.3461 4.49123 3.96708 3.72556 3.2063 2.92609 2.98693 2.8128 2.27259 2.44594 2.10055 1.81564 1.41757 1.83045 1.48662 1.4002 0.890036 1.10909 0.853774 0.823898 0.957577 0.514229 0.655881 0.769844 0.393185 9.8062 13.0179 15.9299 17.2269 18.0577 17.7967 17.8781 17.4444 16.4021 16.3023 16.3631 15.7185 14.9719 14.6886 13.7346 13.295 13.5076 12.7543 12.4847 11.9377 11.5981 10.6222 10.2445 9.59423 9.4081 8.83178 8.32344 8.31579 7.3677 7.31332 6.70911 6.54707 5.80771 5.67762 5.60256 5.08509 4.80616 4.39412 4.03018 3.93368 3.91997 3.86155 3.08858 3.22668 3.14444 2.68174 2.53054 2.47086 2.09937 1.94397 1.94464 1.50949 1.72843 1.51787 1.66535 1.51034 1.19534 1.36096 0.894365 0.79892 1.02668 0.719273 0.82495 0.923637 7.38935 10.2118 12.2439 14.3352 14.3037 14.6908 14.7923 14.5267 13.6622 13.717 13.4106 12.8417 12.8331 12.3174 12.0359 11.1845 10.7981 10.7109 10.0476 9.46684 9.17271 8.91471 8.41146 8.25539 7.86043 7.4284 7.02732 6.99991 6.71103 6.30874 6.06662 6.06032 5.33674 5.02166 4.98619 4.83035 4.45135 4.39854 4.49892 3.95126 3.86355 3.21526 3.46912 3.25347 2.75271 2.78087 2.40593 2.51038 2.39657 2.32601 1.88059 2.3034 2.21229 1.35169 1.43185 1.62172 1.53229 0.956188 1.03034 0.7715 0.819785 0.683435 0.790918 0.655024 5.19163 7.34676 9.08302 10.5536 11.5995 11.2525 11.4754 11.4944 11.1213 10.718 10.4328 10.1721 9.97369 9.69045 9.25501 9.24285 8.97608 8.55875 8.37171 8.37105 7.87526 7.73755 7.21119 6.99288 6.83479 6.4057 6.27058 6.28585 5.99584 5.71528 5.57842 5.36951 4.92082 4.94921 4.91224 4.58047 4.04381 4.01276 4.00788 3.85733 3.3219 3.40292 3.10022 3.25808 2.76609 3.00772 2.60149 2.47232 2.40947 2.00255 1.96389 2.19281 1.87068 1.67687 1.56852 1.35375 1.49737 1.11309 1.1082 0.96658 0.982398 0.734491 0.772834 0.701023 3.66552 4.86396 6.80443 8.00259 8.79328 9.105 9.28517 9.13569 9.00838 8.8808 8.68705 8.62014 8.18898 8.47423 7.95124 7.75288 7.71643 7.41509 7.02411 7.13862 6.79251 6.65681 6.43925 6.31746 6.12094 5.94848 5.57765 5.54715 5.37702 5.22822 4.96241 4.87181 4.4832 4.82558 4.58279 4.21965 4.06389 3.8305 3.91254 3.48813 3.76023 3.50459 3.19449 3.1261 3.11663 2.81521 2.61196 2.24878 2.29912 2.02082 1.9597 1.84589 1.59212 1.84713 1.72854 1.26989 1.47587 1.53049 1.16999 1.2763 0.822462 0.794933 0.853754 0.737083 1.55234 3.59559 5.16635 6.42194 7.65192 7.52175 7.96636 7.72686 7.72797 7.67004 7.62006 7.43065 7.3924 7.07495 7.03721 6.88843 6.80031 6.70388 6.44424 6.56649 6.51995 6.27998 5.9151 5.79414 5.74587 5.53169 5.29214 5.18032 5.05344 4.90847 4.82681 4.58601 4.60005 4.55446 4.38045 3.92488 4.12432 3.80314 3.93755 3.8962 3.30334 3.06323 2.96843 3.08116 3.0449 2.74265 2.61089 2.39778 2.13138 2.32015 2.27019 1.88596 1.92478 1.80644 1.64402 1.17507 1.46916 1.54416 1.04828 0.986071 0.712925 0.742819 0.49939 0.835443 1.0831 3.4329 5.20162 6.45026 7.31088 7.68652 7.80512 7.64127 7.74781 7.5966 7.57816 7.47069 7.58392 7.23482 7.14327 6.88339 6.84772 6.6976 6.44607 6.47653 6.231 6.03507 6.07324 5.92227 5.53319 5.55371 5.58942 5.36073 5.06009 4.97208 4.77605 4.72396 4.52519 4.45323 4.18897 4.07645 3.96426 3.88796 3.87052 3.66701 3.56718 3.24949 3.18953 3.02427 3.03246 2.81645 2.73593 2.56571 2.37113 2.24915 2.20708 1.95339 1.87742 1.84775 1.40695 1.32441 1.06716 1.44767 1.25842 1.09175 0.974206 0.634939 0.880798 0.494062 2.79049 4.7862 6.68155 8.31867 8.64544 9.21414 9.11029 9.41368 9.04279 8.81887 8.8184 8.81798 8.14245 8.04666 7.92664 7.84336 7.63153 7.44891 7.21902 6.9546 6.85851 6.66274 6.45979 6.34605 6.18781 5.83302 5.56235 5.39297 5.23273 5.42065 5.12519 4.88536 4.96022 4.70276 4.23223 4.23048 4.26136 4.08095 3.7477 3.43254 3.60448 3.31789 3.27331 3.06428 2.73424 2.91717 2.60321 2.35234 2.30304 2.34255 2.17671 1.81029 1.86727 1.82887 1.61265 1.16626 1.29071 1.12151 1.01005 1.0823 1.0359 0.78472 0.547509 0.519273 4.49262 7.13701 9.15128 10.7579 11.4339 11.4316 11.5766 11.6895 11.5795 10.9688 10.7669 10.3996 10.194 9.91019 9.80202 9.3112 9.00444 8.70423 8.30144 7.99014 7.92592 7.33385 7.2803 7.17341 6.7799 6.7877 6.34486 6.20664 5.9695 5.93283 5.2853 5.59557 4.95758 5.08676 4.66552 4.34344 4.07725 4.21475 3.88209 3.93861 3.71896 3.39961 3.31755 2.88654 3.04699 2.88353 2.92344 2.7119 2.26108 2.39553 2.22739 1.94284 1.68753 1.61078 1.69379 1.68341 1.46326 1.35424 0.773687 0.943751 0.665118 0.770732 0.508375 0.546238 6.54208 9.39202 12.3652 13.38 14.0645 14.2561 14.4429 13.8671 14.0226 13.4557 13.3482 12.8493 12.647 11.8516 11.5628 11.2569 10.6421 10.0999 10.4084 9.61556 9.5628 8.93638 8.66151 7.95929 8.05285 7.69322 7.40827 7.22195 6.70444 6.64262 6.26651 5.85162 5.65851 5.61666 5.12042 4.68437 4.5141 4.51057 4.08032 4.04167 3.66244 3.60062 3.39825 2.9636 3.21324 3.01579 2.55209 2.68741 2.33499 2.25304 2.25632 2.06705 1.9881 1.91303 1.4996 1.48801 1.37089 1.34217 0.72601 1.06281 0.862941 0.727238 0.795833 0.49637 9.02825 12.4468 15.3833 16.8545 17.9466 17.7622 17.0449 17.0773 16.5858 16.0685 15.4538 15.3965 14.7318 14.375 14.1811 13.282 12.4088 12.2145 11.7434 11.5248 11.0067 10.4766 10.0007 9.79108 9.35281 8.81536 8.33518 7.97147 7.45995 7.53115 6.78879 6.59354 6.46459 6.06246 5.47797 5.51878 5.14901 4.71733 4.34442 4.37137 3.93872 3.70943 3.43194 3.64215 3.40751 3.12207 2.54917 2.50671 2.21173 2.20041 1.93302 1.71125 1.85609 1.77402 1.43915 1.348 1.28464 1.31937 0.771978 0.842957 1.00594 0.734487 0.793308 0.569261 12.1053 16.2234 18.9404 20.0813 21.07 21.2293 21.0588 19.7866 19.539 19.0972 18.2406 17.5363 16.965 16.3671 15.8088 15.5108 14.7735 14.3549 13.9239 13.1142 13.0785 12.0908 11.2 10.8493 10.4578 10.3357 9.63003 9.08369 8.51081 8.07099 7.99888 7.28619 6.9671 6.98119 5.91499 5.95279 5.57631 5.22996 5.14925 4.39834 4.35636 3.92985 3.85478 3.51073 3.30699 3.03001 2.90718 2.67582 2.22431 2.29116 1.91291 1.47876 1.61033 1.17314 1.6703 1.24007 1.10322 1.13142 1.09479 0.838547 0.831603 0.635622 0.613001 0.637955 16.2318 20.9192 23.4455 24.8301 25.0866 24.949 24.339 23.677 23.4557 22.7273 21.5517 20.904 19.7591 19.2609 18.0095 17.6798 16.8101 16.675 15.4349 14.7255 14.5365 14.1131 13.2509 12.8704 11.6973 11.0191 10.9532 10.3201 9.57276 9.35019 8.80219 8.17754 7.46712 7.29878 6.92453 6.60552 6.09269 6.00401 5.20094 4.92289 4.55055 4.41224 4.00595 3.79922 3.24228 2.93604 2.52966 2.52831 2.53309 2.24762 1.77846 1.88328 1.79405 1.63846 1.20174 0.956863 1.15173 1.19914 1.18928 0.853059 0.892535 0.509292 0.458665 0.482236 21.5951 25.6784 27.8421 28.3837 28.9333 28.2589 28.1482 27.7574 26.5183 25.8435 24.8547 24.554 23.3099 22.3746 21.1241 20.3582 19.5954 18.8753 17.4681 17.0642 16.1227 16.0286 14.9064 14.1733 13.2328 13.172 12.025 11.869 11.2681 10.6249 10.1611 9.09673 8.63835 8.29056 7.61193 7.22378 6.51886 6.4903 5.87818 5.64464 5.09278 4.51261 3.89675 3.64929 3.54757 2.90093 2.68012 2.56026 2.33574 2.08497 1.73466 1.49081 1.53236 1.42605 1.38458 1.01437 1.34853 0.989899 0.632324 0.461915 0.902249 0.841614 0.759281 0.560107 25.9308 27.681 28.7811 29.4531 29.8444 29.0313 28.4199 26.958 26.4071 25.8168 24.8181 23.6879 22.9004 22.4227 21.7806 20.5346 20.1862 18.6795 18.2286 17.5827 16.6935 16.8099 14.8122 14.8305 14.0592 13.1659 12.8506 12.0155 12.0615 10.3819 10.3285 9.7099 9.05179 8.38048 7.86484 7.63889 6.73303 6.14412 5.72349 5.40459 4.89424 4.54381 3.85747 3.73841 3.70652 3.31732 2.98242 2.64095 2.42029 2.27442 1.95577 1.85725 1.56877 1.17177 1.12208 1.00843 1.02529 0.610112 0.694128 0.792097 0.514768 0.48306 0.760767 0.425479 18.551 22.6461 24.9874 25.4962 25.7878 24.7901 24.5068 24.1494 23.3993 22.6164 21.9029 21.5781 20.4043 19.5326 18.542 18.2933 17.6634 17.0037 15.821 15.4731 14.577 13.7786 13.8805 12.9616 12.283 11.0875 10.9216 10.2392 10.2113 9.55034 8.93819 8.75113 8.46447 7.37335 7.08256 6.71564 5.91593 5.66842 5.42146 4.47515 4.57262 3.98739 4.12327 3.71302 3.25282 2.87066 3.22915 2.73303 2.43551 1.92102 1.9304 1.42363 1.96262 1.43044 1.24067 1.29815 1.02346 0.807569 0.914193 0.848946 0.901795 0.47304 0.217112 0.576466 14.7616 17.6539 20.3123 21.2045 21.206 21.2965 20.7484 20.2893 18.9969 19.1004 18.5526 18.3633 17.1304 16.7167 16.2731 15.6294 15.0182 14.5239 13.2504 13.5996 12.9988 12.3056 11.6466 11.3679 11.0388 10.3604 9.95543 9.42546 9.16786 8.44738 7.99084 7.38599 6.90308 6.59333 6.01886 5.65815 5.61311 5.29063 5.07622 4.25323 4.05663 3.88223 3.78904 3.46438 3.30246 3.07197 2.4608 2.31666 2.43477 2.12033 2.23827 1.89371 1.61591 1.70644 1.33218 1.23249 1.32253 1.07078 1.12853 1.01791 0.716898 0.742128 0.710259 0.467629 11.2784 13.5555 15.8803 17.3936 17.5491 17.7403 16.9526 16.9403 16.7383 16.4029 15.6627 15.9026 14.9047 13.9125 14.1056 13.5242 13.1037 12.4441 12.3257 11.8569 11.2149 10.6201 10.7375 9.50705 9.65901 8.85914 8.64506 8.50794 7.486 7.59046 7.05813 6.4724 6.05335 5.81107 5.59099 5.34077 4.80208 4.77712 4.4812 4.25367 3.96183 3.71448 3.66816 3.46209 3.4095 3.05431 2.47936 2.47561 2.08351 2.13827 2.1757 1.92219 1.86285 1.64345 1.69636 1.42007 1.25231 1.22066 0.965472 1.05907 1.01335 0.450637 0.619531 0.838261 8.77662 10.1589 12.505 13.4593 13.9367 14.0976 13.9406 14.4244 13.7583 13.5414 13.6423 13.0267 12.7766 12.4049 11.7231 11.4974 10.9481 10.3861 10.2231 10.0708 9.63742 9.23004 8.81796 8.44368 8.09599 7.69756 7.5487 7.04034 6.75206 6.35138 6.30214 6.17703 5.77513 5.49767 5.15775 4.93412 4.61138 4.59318 4.40109 4.17735 3.68661 3.6914 3.55867 3.35327 2.95457 2.77731 2.65315 2.75563 2.56014 2.20781 1.99768 1.90328 2.08449 1.93032 1.40064 1.32046 1.3155 1.1237 1.1747 1.09446 0.923651 0.807673 0.742686 0.651751 6.50233 7.18101 9.10678 9.9265 10.4661 10.9083 10.9905 10.8334 10.7049 11.0759 10.301 10.5617 10.066 9.81461 9.37158 9.38691 9.18206 9.06787 8.64761 8.37648 8.12398 7.83075 7.50176 7.34824 7.38158 6.66197 7.00404 6.51002 6.37404 5.84184 5.93515 5.56287 5.16385 5.12175 4.77594 4.43572 4.34173 4.20595 4.21772 3.78335 3.73517 3.38775 3.4763 3.46821 2.77545 2.7277 2.64897 2.73055 2.29918 2.13106 2.24602 1.93168 2.04505 1.80492 1.55142 1.33565 1.58044 1.6952 1.15795 0.943339 0.718222 0.748661 0.483867 0.78402 4.31678 4.77042 6.20901 7.39066 8.19265 8.54042 8.70973 8.92833 8.70491 8.81382 8.78678 8.63939 8.42202 8.36414 7.98073 7.85679 7.77959 8.00134 7.42782 7.37515 7.60729 6.90807 6.73729 6.40082 6.52427 6.05133 6.27227 5.82082 5.806 5.47685 5.4226 5.07681 4.86392 4.78067 4.84947 4.57597 4.19325 4.18839 4.14961 3.77012 3.62688 3.46184 3.36614 3.3784 3.01391 2.96022 2.71607 2.54838 2.53481 2.33338 2.24371 2.20462 1.99304 1.70427 1.68159 1.54088 1.1985 1.59367 1.08128 1.19885 1.06268 1.07389 0.788548 0.524765 2.21085 2.77909 4.27156 5.70559 6.68377 7.09718 7.38825 7.40397 7.57299 7.48994 7.37425 7.55457 7.41462 7.64341 7.34503 7.21586 7.02251 6.90193 6.7704 6.65738 6.73879 6.46509 6.31808 6.11453 6.06026 5.69747 5.60558 5.49607 5.44008 5.29021 5.10793 4.76374 4.80669 4.44319 4.61901 4.36253 4.34885 4.01095 3.96325 3.6321 3.512 3.46855 3.30039 3.18856 2.84254 2.71102 2.85671 2.80307 2.72011 2.61136 2.36629 2.02846 1.76035 1.59702 1.99641 1.59591 1.61616 1.59877 1.3418 1.23286 0.939415 0.875464 0.575924 1.05198 1.92749 2.36976 4.19374 5.62991 6.6155 7.02864 7.31388 7.65553 7.4867 7.61749 7.65398 7.68226 7.51575 7.34277 7.41028 7.14415 7.02165 6.99759 6.8466 6.95549 6.59678 6.40834 6.28992 6.246 5.97899 5.77574 5.5169 5.61908 5.24315 5.07177 5.04524 4.87277 4.74654 4.53788 4.54194 4.47223 4.0912 3.91775 3.97893 3.7846 3.71093 3.53888 3.25237 3.12893 2.91308 2.97681 2.90005 2.50381 2.55165 2.37861 2.03484 2.20743 2.22702 1.9631 1.81993 1.4824 1.30191 1.5556 1.68547 0.884853 0.767539 0.873431 0.793637 0.472189 3.3919 4.47331 6.0212 7.32911 8.42867 8.41468 8.72687 8.94852 8.97158 9.00955 8.61812 8.43631 8.78131 8.32753 8.10683 8.03499 7.86572 7.56762 7.37673 7.25598 7.18787 6.86771 6.83658 6.52038 6.33639 6.16581 5.85836 5.8443 5.57362 5.34989 5.21553 5.12078 5.08086 4.59042 4.57322 4.21723 4.38582 4.11332 3.99777 3.80527 3.54438 3.64983 3.4491 3.11916 2.93241 2.91451 2.66211 2.61292 2.57124 2.17695 2.34447 1.95164 1.79841 1.96362 1.64247 1.3602 1.31262 1.32489 1.27811 0.901523 1.04475 0.992507 0.745678 0.582782 5.70042 7.12708 9.01079 10.0821 10.7103 11.0713 10.7677 11.02 11.4586 10.4134 10.4502 10.6743 10.2624 9.97899 9.58459 9.4574 9.30816 8.96108 8.80703 8.52153 8.08535 7.73757 7.45009 7.57037 7.11237 6.87648 6.6943 6.48314 6.18445 5.80926 5.69983 5.65841 5.08306 4.99493 4.80779 4.5967 4.48012 4.24289 4.36047 3.94337 3.99009 3.63631 3.47484 3.31555 2.97803 2.92007 3.17212 2.61803 2.62317 2.16887 2.13411 1.92039 1.79832 1.87315 1.65653 1.4387 1.49991 1.115 1.10102 1.19744 0.624614 0.763754 0.45084 0.683579 7.94758 10.0481 11.9801 12.9475 13.6866 14.0063 14.1489 13.438 13.7051 13.2983 12.9466 12.5269 12.2171 11.9537 11.7645 11.1371 10.7602 10.6742 10.3038 10.0807 9.47335 8.90853 8.89303 8.24469 8.05943 7.95945 7.6717 7.10253 6.94323 6.52674 6.25521 6.3886 5.94799 5.54515 5.13339 5.16148 5.11661 4.47187 4.41273 4.39348 4.16983 4.0011 3.42788 3.38949 3.10537 3.22919 2.76085 2.80809 2.32538 2.28099 1.92615 1.75197 1.70812 2.22031 1.78261 1.73082 1.21957 1.37734 0.792452 0.894225 0.920121 0.720474 0.985461 0.47046 10.6103 12.6036 15.8072 16.3506 17.1195 17.4985 17.2779 16.43 16.4164 16.0388 15.6937 15.2404 14.4893 14.6042 14.1799 13.5642 12.7224 12.736 11.7592 11.6653 10.8988 10.8668 10.0506 9.88519 9.30539 8.83964 8.29743 8.12764 7.68566 7.63184 6.97068 6.57415 6.31583 6.14507 5.59849 5.54737 5.03539 4.60986 4.47023 4.19799 3.69797 3.79626 4.06183 3.34911 3.23879 3.34698 2.84862 2.87264 2.37239 2.50166 1.86569 1.87933 2.15133 1.59695 1.47411 1.43964 1.0113 1.45886 1.2714 1.11295 0.992392 0.822718 0.714452 0.528402 13.655 16.4817 19.5633 20.8875 21.3516 20.7443 20.0477 19.7409 18.9449 18.3676 18.162 17.6362 16.8413 16.6844 15.634 15.1087 15.0429 14.2058 14.1723 13.641 12.9964 12.3203 11.7313 10.7509 10.9115 10.0809 9.86304 8.92587 8.33887 8.21914 7.82325 7.26558 6.984 6.57133 6.67619 5.97539 5.62854 5.42086 4.88387 4.36792 4.34427 4.00704 3.9229 3.31416 3.62302 3.20616 2.74158 2.82851 2.58677 2.47112 2.24531 2.12744 1.53837 1.68548 1.30349 0.994951 1.36356 1.22456 1.00478 0.958337 1.09138 1.09423 0.831155 0.512829 17.2706 20.9804 24.1671 24.9698 25.1618 24.3634 23.886 23.2432 22.5926 21.7745 20.9245 20.6176 19.7118 19.3214 18.3023 17.9109 17.3944 16.5879 15.4188 15.281 14.6992 14.1653 13.1768 12.72 11.8491 11.7377 10.6951 10.3682 9.84063 9.29323 9.03106 8.45862 7.49326 7.42696 6.65821 6.36078 6.11607 6.09616 5.68015 4.97679 4.50859 4.55053 4.08105 3.79158 3.64687 3.59122 2.79245 2.70653 2.33155 2.36454 2.26902 2.08078 1.55615 1.53385 1.41214 1.01077 1.31981 0.564806 1.06473 0.904617 0.749449 0.970136 0.695941 0.936237 22.6338 26.5318 28.6557 29.0252 28.4104 28.3244 27.695 26.9327 25.8154 25.3051 25.0232 23.3557 23.2936 22.1491 21.0614 20.366 19.4134 18.3097 17.7814 17.0132 16.3449 15.977 15.3348 14.5934 13.7057 13.266 12.34 11.3787 11.3411 10.4031 9.5419 9.80462 8.33267 8.36735 7.75225 6.9458 6.57175 6.08734 5.76035 5.29278 4.85343 4.82261 4.21236 3.8631 3.58933 3.17004 2.88349 2.65426 2.54764 2.42953 2.14831 1.93957 1.83556 1.49026 1.46116 1.08973 0.937871 0.893208 0.59613 0.912282 0.872146 0.648039 0.621224 0.551323 28.6997 28.4131 29.0137 29.1593 28.024 27.1711 26.6382 26.5319 25.6161 25.2202 24.4202 23.7103 23.1271 22.1485 21.3256 21.058 19.7792 19.0824 18.1309 17.3392 17.2176 16.5032 15.0385 14.4 14.0002 12.9207 12.111 11.9995 11.4128 10.5547 10.6058 9.99838 8.70196 8.47676 7.8963 7.33474 6.9752 6.00046 6.26653 5.79469 5.13614 4.33 4.23343 3.77737 3.71547 3.14954 3.05532 2.68549 2.35123 2.41815 1.92083 1.87421 1.74446 1.24763 1.00854 0.87409 0.947574 0.692254 0.759119 0.903903 0.49965 0.793803 0.883527 0.529769 20.826 23.9202 24.8103 24.3943 24.4746 23.8259 23.6647 22.9734 22.5101 22.1166 21.1795 20.7279 20.3066 19.5124 19.1274 17.8406 17.229 17.1779 15.8657 15.0947 14.9624 13.7925 13.649 13.2051 12.2045 12.037 11.4754 10.6184 10.0968 9.45875 8.85201 8.45286 7.63145 7.30868 6.55175 6.85931 5.95157 5.69254 4.87935 4.91122 4.09331 4.12801 3.76634 3.8347 3.37017 2.95571 2.83691 2.69834 2.65035 2.55934 1.79197 2.03994 1.67267 1.90197 1.0577 1.30967 1.54741 0.837977 0.770397 0.658496 0.646087 0.735632 0.374245 0.379043 17.011 18.476 19.6283 20.4242 20.4868 20.2865 19.6946 19.0961 19.1794 18.3749 18.1745 18.0767 17.4025 16.8907 16.5087 15.2175 14.7215 14.6049 14.4243 13.6302 13.0742 12.8282 12.2023 11.1882 11.2885 10.4312 10.4572 9.38957 9.618 8.99422 8.67107 7.6698 7.07985 6.42561 6.4691 6.19718 5.483 5.26405 5.31167 4.87244 4.45092 3.90321 3.54342 3.6354 3.3257 3.04008 3.23791 2.60503 2.50326 2.2758 2.25186 1.6639 1.76772 1.48574 1.39821 1.33702 1.15172 1.10463 0.655447 0.839575 0.705344 0.764758 0.458454 0.7666 13.7628 14.6131 15.7153 16.4632 16.3033 16.7766 16.4272 15.936 15.8475 15.866 15.5746 15.3869 14.957 14.0962 13.836 13.5878 13.1938 12.7717 12.2738 12.0978 11.6374 11.1741 10.7956 9.91173 9.81184 9.53303 8.50791 8.49366 8.00247 7.28267 7.0316 6.81358 6.37743 6.10161 5.59534 5.20549 5.23538 5.16449 4.52041 4.23757 4.30102 3.68518 3.84088 3.66615 3.23598 3.23096 2.80792 2.44156 2.90366 2.14034 2.18338 2.17039 1.81546 1.55892 1.78498 1.12743 1.03304 1.13354 1.09847 1.12475 1.1738 0.406201 0.591673 0.375968 11.0399 11.1712 12.3785 13.082 13.4003 13.7077 13.6481 13.67 13.3053 13.2492 12.9422 12.8519 12.6396 11.9845 12.0724 11.3426 11.4215 10.337 10.5654 10.1817 9.88704 9.57503 9.00016 8.51188 8.3086 7.82451 7.63428 7.03181 6.87877 6.63737 6.37176 6.09555 5.88592 5.89277 5.38249 4.95 4.9253 4.65785 4.58115 4.35458 4.39609 4.03542 3.69034 3.48716 3.3618 2.70372 2.82872 2.85315 2.82557 2.23851 2.18164 2.11147 2.12173 1.83201 1.82733 1.15977 1.19562 1.09871 1.32888 1.1446 0.960393 1.11914 0.546115 0.608603 8.45382 7.98378 8.44164 9.50688 9.81776 10.1633 10.2754 10.6144 10.6957 10.3599 10.4333 10.356 10.3348 9.9487 9.77351 9.46735 9.29074 9.07662 9.05731 8.8264 8.35898 7.94616 8.05161 7.5896 7.29624 6.87345 6.86087 6.66357 6.49683 6.11698 5.95729 5.72536 5.61445 5.31533 5.09689 4.83103 4.61805 4.25567 4.19553 4.1921 4.08797 3.73597 3.63486 3.19585 3.27382 3.03515 3.02659 3.01394 2.60413 2.47915 2.1001 2.19249 2.28573 1.77404 1.90847 1.87106 1.40108 1.49131 1.03496 0.966745 1.06011 0.572414 0.74793 0.50104 6.3037 4.74621 5.6323 6.61139 7.39627 7.98535 8.21386 8.54745 8.74642 8.45336 8.68388 8.85367 8.49233 8.49918 8.64686 8.3254 8.02605 8.2075 8.00668 7.8333 7.35436 7.58051 7.0693 6.85786 6.59879 6.48998 6.33233 6.3925 5.96602 5.88299 5.72063 5.46808 5.3417 4.8141 4.84144 4.59414 4.48596 4.57811 4.16688 4.10169 3.99941 3.73306 3.53694 3.61798 3.14705 2.99257 2.91815 2.7199 2.66299 2.49946 2.38105 2.201 1.97116 2.00545 1.64226 1.64157 1.22868 1.45253 1.30478 1.0232 0.884172 0.784816 0.674585 0.442785 4.09939 2.11934 3.51842 4.67336 5.54814 6.42644 6.88131 7.41001 7.48767 7.52522 7.74715 7.89167 7.72773 7.59506 7.50476 7.56604 7.46597 7.44211 7.13623 7.14206 6.89231 6.815 6.57039 6.56413 6.31877 6.17882 6.21227 5.84142 5.62019 5.51789 5.48914 5.24871 4.94338 4.95931 4.8723 4.63038 4.37295 4.15673 4.02226 3.94611 3.67383 3.64409 3.63336 3.29919 3.07706 3.07319 2.71297 2.72353 2.51312 2.50103 2.47859 1.97369 1.85805 2.34906 1.97264 1.44425 1.89759 1.45339 1.08585 1.04732 0.908572 0.73381 0.706663 0.755452 3.37382 1.57693 3.12529 4.67561 5.54476 6.36683 6.91936 7.58941 7.60475 7.65769 7.80081 7.7682 7.97294 7.65855 7.78681 7.45922 7.48013 7.36891 7.33435 7.01865 6.93068 6.75241 6.61449 6.39191 6.28558 6.10409 6.10818 5.74603 5.82739 5.44152 5.56066 5.36588 5.29399 4.87994 4.75644 4.64757 4.43814 4.42667 4.02121 4.10409 3.87528 3.85809 3.76944 3.29639 3.10796 3.19603 2.81495 2.64778 2.79979 2.3809 2.19679 2.1877 2.09778 1.73604 1.78469 1.83121 1.26908 1.31006 1.37995 1.17463 0.944105 1.04044 0.614875 0.730332 5.11811 4.20013 5.93114 6.62746 7.51885 8.03211 8.49248 8.48758 8.74282 8.78653 8.62761 8.66119 8.59045 8.74425 8.32363 8.49754 8.1953 7.90263 7.76628 7.62766 7.40579 7.21323 7.28273 6.97423 6.56553 6.5817 6.21168 6.05445 5.90228 5.80423 5.44657 5.37611 5.21316 5.04244 5.03911 4.59453 4.493 4.34881 4.0925 4.11037 4.13856 3.82842 3.62034 3.29154 3.13216 3.07911 3.02742 2.59794 2.81655 2.34203 2.35664 2.34445 2.1055 1.88877 1.70944 1.80231 1.94195 1.17358 1.31248 1.06556 1.07243 0.740734 1.02146 0.478086 7.28511 7.26107 8.10989 9.51376 9.95998 10.4602 10.7331 11.3115 10.7103 10.6085 10.5861 10.8513 10.036 9.91383 9.9106 9.79974 9.51597 9.27395 8.81396 8.80329 8.48026 8.16473 8.06526 7.45694 7.34459 7.33137 6.94837 6.75839 6.30408 6.29334 5.96351 5.55179 5.39126 5.27721 4.99691 5.1323 4.64542 4.4132 4.27744 4.21797 4.00683 4.07081 3.69828 3.57533 3.4022 3.05668 2.88715 2.52847 2.52154 2.37379 2.53274 1.92234 1.80848 1.74729 1.6328 1.35683 1.30116 1.37719 0.916691 0.990537 1.09426 0.707278 0.839541 0.714704 9.86484 10.277 12.2178 12.4395 12.8991 13.5433 13.9059 13.2701 13.1242 12.8371 12.5755 12.5466 12.1404 12.4141 11.6189 11.309 11.0442 10.9267 10.2995 10.11 9.93937 9.38846 8.80766 8.65431 8.49207 8.30841 7.7269 7.24155 7.20516 7.1174 6.46708 6.39481 5.9022 5.6001 5.24296 5.0524 4.9866 4.75428 4.42375 4.29176 3.97074 4.26221 3.66129 3.48223 3.35917 2.89077 2.90535 2.84512 2.41739 2.43596 2.01638 1.94437 1.96607 2.0498 1.62492 1.63287 1.4094 1.3872 1.34182 0.929747 0.843278 0.695144 0.712617 0.845264 12.6756 13.6779 15.159 16.5598 16.2937 16.8029 16.2484 15.8323 15.8679 15.7248 15.3633 15.0459 14.7805 14.1721 13.7489 13.388 12.8151 12.9585 12.3024 11.3166 11.1322 10.8143 10.3218 10.2565 9.6981 8.98999 8.60095 8.14663 7.70459 7.4834 7.37487 6.6339 6.62567 6.44241 6.2903 6.11627 5.35251 4.99935 4.74443 4.31865 3.90821 3.96982 3.84045 3.78389 3.35398 3.1677 2.94246 2.68443 2.8501 2.17292 2.05121 2.08314 1.69119 1.47956 1.61738 1.30919 0.948522 1.24836 1.35843 1.094 0.799021 1.09002 0.829561 0.536781 15.9519 17.3378 19.269 19.8445 19.7781 19.818 19.4163 19.4857 18.8125 18.3999 17.7991 17.7612 17.0883 16.3533 15.9196 15.2247 14.978 14.2509 14.0252 13.7716 12.5395 12.6538 12.0575 11.3901 10.8799 10.6442 9.97993 8.93644 8.89888 8.10324 8.04618 7.46748 7.20907 6.52789 6.29479 6.28687 6.14338 5.18977 5.25611 4.49397 4.30268 4.41445 3.68691 3.78503 3.09506 3.33629 2.9721 3.07091 2.25453 2.36093 1.91383 1.75423 1.77087 1.41486 1.49744 1.3705 1.38429 1.12345 0.899615 0.863633 0.714302 0.471011 0.847842 1.03379 19.6093 22.2113 24.3022 24.3789 24.4431 24.139 23.0191 22.8052 22.5223 21.1746 20.5133 20.4491 19.4178 19.1168 18.0895 17.9603 16.8621 16.6045 16.045 15.6514 14.7405 14.1585 13.5142 12.8995 11.923 11.8552 11.0509 10.4673 9.95209 9.40578 8.77007 8.17681 8.31172 7.40786 7.26037 6.90717 6.02847 5.69896 5.83574 5.29044 5.00213 4.25968 4.09415 3.71259 3.34445 3.18023 2.82054 2.70542 2.54829 2.39932 2.36964 1.52219 1.42525 1.84747 1.31733 1.32041 1.31299 1.09378 0.980461 0.993788 0.731488 0.895294 0.603792 0.400138 24.8666 27.928 28.3186 28.4071 27.63 27.3605 26.7426 26.1834 25.3384 24.9605 24.6605 23.8078 23.2846 22.221 20.9197 20.0525 19.5211 18.7239 17.9582 17.3934 16.2777 15.8711 15.4959 14.3349 13.2984 12.8375 12.3777 11.2275 11.0464 10.7396 9.99086 9.55379 8.77066 8.37174 7.64036 7.02578 6.63578 6.38998 5.832 5.67707 5.18062 4.77247 4.10815 4.2097 3.50804 3.40733 3.25445 2.72925 2.44997 2.20369 1.86803 2.05716 1.38857 1.68395 1.40781 1.04918 0.9164 1.09435 0.654155 0.510054 0.557956 0.641141 0.634794 0.581735 
SCALARS volume float 1
LOOKUP_TABLE default
0.0394055 0.0394951 0.0395156 0.039522 0.0395232 0.0395238 0.0395234 0.0395248 0.0395255 0.0395259 0.0395264 0.0395264 0.0395277 0.0395282 0.0395293 0.0395303 0.0395312 0.0395317 0.0395321 0.0395332 0.0395346 0.0395348 0.0395359 0.0395366 0.0395375 0.0395378 0.0395387 0.0395396 0.03954 0.0395393 0.0395417 0.0395411 0.0395427 0.0395429 0.0395431 0.0395429 0.0395444 0.0395446 0.0395461 0.0395458 0.0395462 0.0395465 0.0395464 0.0395474 0.0395471 0.0395474 0.0395475 0.0395478 0.0395501 0.0395481 0.0395498 0.0395492 0.0395508 0.0395492 0.0395514 0.0395498 0.0395513 0.0395494 0.039552 0.0395502 0.039551 0.0395504 0.0395516 0.0395507 0.0394454 0.0394868 0.0395088 0.0395185 0.0395221 0.0395234 0.0395241 0.0395243 0.0395248 0.0395248 0.0395263 0.039526 0.039527 0.0395284 0.039528 0.0395284 0.0395304 0.0395316 0.0395319 0.0395322 0.0395333 0.0395348 0.0395349 0.0395361 0.0395366 0.0395376 0.0395381 0.0395388 0.0395397 0.0395398 0.0395404 0.0395414 0.0395418 0.0395425 0.0395433 0.0395435 0.0395444 0.0395452 0.0395445 0.0395455 0.0395461 0.0395461 0.0395459 0.0395469 0.0395469 0.039549 0.039548 0.039549 0.0395495 0.0395478 0.0395504 0.0395494 0.0395497 0.0395502 0.0395512 0.0395497 0.0395512 0.0395507 0.0395512 0.0395504 0.0395518 0.0395513 0.0395514 0.0395508 0.0394637 0.0395007 0.0395121 0.0395201 0.0395243 0.0395261 0.0395268 0.0395266 0.0395266 0.0395278 0.0395281 0.0395284 0.0395295 0.0395299 0.0395305 0.0395303 0.0395318 0.0395332 0.0395338 0.0395343 0.0395351 0.0395358 0.0395357 0.0395373 0.0395376 0.0395386 0.0395394 0.0395399 0.0395409 0.0395409 0.0395412 0.0395424 0.0395425 0.0395436 0.0395441 0.0395437 0.0395444 0.0395445 0.0395452 0.0395457 0.0395465 0.0395464 0.0395471 0.0395474 0.0395472 0.0395495 0.0395488 0.0395483 0.0395495 0.0395488 0.0395497 0.03955 0.0395489 0.039551 0.0395505 0.0395502 0.0395505 0.0395503 0.0395517 0.0395507 0.0395504 0.0395508 0.0395511 0.0395509 0.039483 0.0395111 0.0395202 0.0395242 0.0395277 0.0395291 0.0395302 0.0395303 0.0395303 0.0395318 0.0395314 0.0395315 0.0395325 0.0395323 0.0395334 0.0395334 0.0395341 0.0395352 0.0395363 0.0395363 0.0395373 0.0395377 0.0395384 0.0395387 0.039539 0.0395406 0.0395405 0.0395417 0.0395419 0.039542 0.0395425 0.0395432 0.0395434 0.0395439 0.0395444 0.0395451 0.0395457 0.0395457 0.0395464 0.0395463 0.0395474 0.0395471 0.0395477 0.0395484 0.0395484 0.0395487 0.039548 0.039548 0.0395497 0.0395491 0.0395492 0.0395504 0.0395491 0.0395508 0.0395505 0.0395503 0.0395512 0.03955 0.0395517 0.0395508 0.0395507 0.0395503 0.039551 0.0395521 0.0394994 0.0395211 0.0395264 0.0395293 0.0395316 0.0395327 0.0395336 0.0395336 0.0395343 0.0395343 0.0395349 0.0395352 0.0395355 0.039536 0.0395359 0.0395367 0.0395371 0.0395379 0.0395378 0.0395384 0.0395391 0.0395394 0.0395407 0.039541 0.0395411 0.0395423 0.039542 0.0395428 0.0395427 0.0395436 0.0395442 0.0395436 0.0395447 0.0395453 0.0395454 0.0395463 0.039546 0.039547 0.039547 0.0395473 0.0395471 0.0395476 0.039549 0.0395482 0.0395473 0.0395488 0.0395486 0.0395493 0.0395498 0.0395487 0.0395491 0.0395512 0.0395491 0.0395509 0.0395495 0.03955 0.0395513 0.039551 0.0395503 0.0395511 0.0395514 0.0395506 0.0395504 0.0395516 0.0395146 0.0395293 0.0395329 0.0395344 0.0395358 0.0395369 0.039537 0.0395371 0.0395379 0.0395374 0.0395377 0.0395384 0.0395384 0.0395386 0.039539 0.03954 0.0395402 0.0395409 0.0395405 0.0395411 0.0395414 0.0395417 0.0395428 0.0395431 0.0395434 0.0395437 0.0395439 0.0395444 0.0395446 0.0395449 0.0395456 0.039546 0.0395465 0.0395466 0.0395462 0.0395468 0.0395471 0.0395477 0.0395482 0.0395478 0.0395476 0.0395482 0.0395494 0.0395483 0.0395482 0.0395497 0.0395488 0.0395493 0.0395497 0.0395484 0.0395489 0.0395513 0.0395496 0.0395507 0.0395494 0.0395505 0.0395505 0.0395504 0.0395504 0.0395513 0.0395502 0.0395497 0.0395499 0.0395507 0.0395288 0.0395377 0.0395397 0.039539 0.03954 0.0395397 0.0395408 0.0395407 0.039541 0.0395411 0.0395408 0.0395413 0.0395417 0.0395419 0.039542 0.039542 0.0395426 0.0395432 0.0395428 0.0395434 0.0395437 0.039544 0.0395448 0.0395446 0.0395453 0.039546 0.0395453 0.0395461 0.0395465 0.0395461 0.0395464 0.0395472 0.0395468 0.039548 0.0395474 0.0395475 0.039548 0.0395482 0.0395488 0.0395478 0.0395487 0.0395498 0.0395496 0.0395487 0.0395488 0.0395504 0.0395496 0.0395507 0.0395493 0.03955 0.0395498 0.0395507 0.0395506 0.0395496 0.0395502 0.0395504 0.0395504 0.03955 0.0395503 0.039551 0.0395503 0.0395509 0.039551 0.0395512 0.0395432 0.0395453 0.0395451 0.039544 0.039544 0.0395435 0.0395444 0.0395436 0.0395435 0.0395444 0.0395447 0.0395443 0.0395448 0.0395449 0.0395449 0.0395451 0.0395451 0.039546 0.0395451 0.0395465 0.0395464 0.0395472 0.039547 0.0395467 0.0395472 0.0395476 0.0395469 0.0395475 0.0395486 0.0395479 0.0395477 0.039548 0.039548 0.0395489 0.0395484 0.0395482 0.0395487 0.0395492 0.0395502 0.0395485 0.0395493 0.0395492 0.0395502 0.0395491 0.0395496 0.0395504 0.0395499 0.0395508 0.0395498 0.0395508 0.0395502 0.0395499 0.0395507 0.0395497 0.039551 0.0395511 0.039551 0.0395508 0.0395509 0.0395497 0.0395512 0.0395508 0.0395513 0.0395512 0.039557 0.0395518 0.0395495 0.0395478 0.0395475 0.0395474 0.0395477 0.0395476 0.0395471 0.0395472 0.0395475 0.039548 0.0395477 0.0395477 0.0395478 0.0395478 0.0395479 0.0395488 0.0395479 0.0395484 0.0395478 0.0395487 0.0395485 0.0395487 0.0395493 0.0395497 0.0395483 0.0395497 0.0395494 0.0395495 0.0395491 0.0395487 0.0395503 0.0395493 0.0395498 0.0395496 0.0395499 0.0395501 0.0395508 0.0395495 0.039551 0.0395495 0.0395502 0.0395503 0.039551 0.0395497 0.0395505 0.0395496 0.0395515 0.0395507 0.0395504 0.0395504 0.03955 0.0395508 0.0395508 0.0395503 0.0395503 0.0395506 0.0395513 0.0395502 0.0395523 0.0395504 0.0395504 0.0395504 0.0395706 0.0395583 0.0395543 0.039552 0.0395513 0.0395503 0.0395503 0.0395511 0.0395513 0.0395509 0.0395506 0.0395505 0.0395506 0.0395508 0.0395507 0.0395507 0.0395513 0.0395506 0.0395506 0.0395503 0.039551 0.0395505 0.0395508 0.0395504 0.0395511 0.0395511 0.0395498 0.0395516 0.0395496 0.0395517 0.0395508 0.03955 0.0395511 0.0395504 0.0395513 0.0395502 0.0395513 0.0395507 0.0395517 0.0395501 0.039551 0.0395514 0.0395508 0.0395511 0.0395503 0.0395511 0.0395507 0.0395502 0.039551 0.039551 0.0395507 0.0395506 0.039551 0.0395506 0.0395501 0.0395503 0.0395511 0.0395512 0.0395503 0.0395505 0.039551 0.0395495 0.0395502 0.0395497 0.0395844 0.0395653 0.0395594 0.039556 0.0395546 0.0395539 0.0395536 0.0395539 0.0395545 0.039555 0.0395539 0.0395532 0.0395541 0.0395538 0.0395534 0.0395535 0.0395537 0.0395537 0.0395535 0.0395525 0.0395536 0.0395533 0.0395527 0.0395521 0.0395525 0.039553 0.039553 0.0395522 0.039552 0.0395525 0.0395522 0.0395525 0.0395519 0.0395519 0.0395522 0.039551 0.0395528 0.0395514 0.0395523 0.0395512 0.0395511 0.0395521 0.0395511 0.039551 0.0395508 0.0395527 0.0395503 0.0395515 0.039551 0.0395507 0.0395516 0.0395509 0.0395527 0.0395509 0.0395498 0.0395508 0.0395516 0.0395504 0.0395507 0.0395505 0.0395515 0.03955 0.0395503 0.0395491 0.0395983 0.0395719 0.0395641 0.0395597 0.0395585 0.0395575 0.0395571 0.0395571 0.0395576 0.0395579 0.039557 0.039557 0.0395566 0.0395573 0.039557 0.0395564 0.0395562 0.0395564 0.039556 0.0395556 0.0395559 0.0395558 0.0395553 0.0395551 0.0395548 0.0395547 0.0395547 0.0395532 0.0395537 0.0395536 0.0395533 0.0395539 0.039554 0.0395529 0.0395534 0.0395527 0.0395535 0.0395521 0.0395532 0.0395514 0.0395525 0.0395524 0.0395517 0.0395514 0.039552 0.0395525 0.0395507 0.0395514 0.0395513 0.03955 0.0395521 0.0395511 0.039551 0.0395519 0.0395505 0.0395516 0.0395518 0.0395492 0.0395507 0.0395509 0.0395506 0.0395509 0.0395499 0.0395497 0.0396113 0.0395786 0.039569 0.0395635 0.039562 0.0395606 0.0395604 0.0395604 0.0395608 0.0395607 0.0395604 0.0395607 0.0395602 0.0395598 0.0395599 0.0395592 0.0395592 0.0395588 0.0395587 0.0395579 0.0395571 0.039558 0.039557 0.0395573 0.0395562 0.0395562 0.0395562 0.039556 0.0395559 0.0395554 0.0395557 0.0395544 0.0395543 0.0395538 0.0395541 0.0395544 0.0395541 0.0395534 0.0395535 0.0395524 0.0395531 0.0395528 0.0395531 0.0395528 0.0395522 0.039552 0.0395521 0.0395524 0.0395517 0.0395516 0.0395511 0.0395523 0.0395504 0.0395512 0.039551 0.0395517 0.0395511 0.0395506 0.0395509 0.0395515 0.0395504 0.0395513 0.0395502 0.0395503 0.0396257 0.0395854 0.0395731 0.0395667 0.0395649 0.0395648 0.0395642 0.039564 0.0395635 0.0395636 0.0395642 0.039563 0.0395639 0.0395633 0.0395623 0.039562 0.0395613 0.0395609 0.0395607 0.0395606 0.0395601 0.0395602 0.0395593 0.039559 0.0395578 0.0395582 0.0395582 0.0395575 0.0395567 0.0395565 0.0395571 0.0395555 0.0395554 0.0395551 0.0395555 0.0395548 0.0395549 0.0395537 0.0395544 0.0395523 0.0395534 0.039553 0.0395529 0.0395529 0.0395531 0.0395519 0.0395527 0.0395522 0.0395516 0.0395521 0.0395517 0.0395517 0.0395509 0.0395505 0.0395517 0.0395512 0.03955 0.0395514 0.0395506 0.0395514 0.039551 0.0395513 0.0395511 0.0395503 0.0396378 0.0395929 0.039575 0.0395698 0.0395683 0.0395684 0.0395681 0.0395679 0.0395675 0.0395672 0.0395675 0.0395667 0.0395667 0.0395661 0.039565 0.0395652 0.0395639 0.0395636 0.0395633 0.039563 0.0395626 0.0395624 0.0395612 0.0395609 0.0395601 0.0395593 0.0395589 0.0395595 0.0395582 0.0395578 0.0395577 0.0395573 0.0395572 0.0395564 0.0395561 0.0395559 0.039556 0.0395546 0.0395554 0.0395541 0.0395543 0.0395535 0.0395533 0.0395537 0.0395527 0.0395522 0.0395521 0.0395517 0.0395536 0.0395519 0.0395527 0.0395522 0.0395516 0.0395508 0.0395521 0.0395516 0.039551 0.0395521 0.0395509 0.0395505 0.0395507 0.0395508 0.0395512 0.039551 0.0396666 0.0395909 0.039576 0.0395731 0.0395728 0.039572 0.0395719 0.0395717 0.0395724 0.039571 0.0395703 0.0395698 0.039569 0.0395689 0.0395683 0.0395669 0.0395663 0.0395671 0.0395658 0.0395653 0.0395638 0.0395632 0.0395632 0.0395632 0.0395612 0.0395617 0.0395599 0.0395605 0.0395599 0.0395599 0.0395589 0.0395583 0.0395584 0.0395579 0.0395567 0.0395562 0.0395561 0.0395559 0.0395569 0.0395558 0.0395543 0.0395542 0.0395544 0.0395539 0.039554 0.0395541 0.0395532 0.0395525 0.0395528 0.039552 0.0395521 0.039553 0.039552 0.0395512 0.0395518 0.0395523 0.0395511 0.0395507 0.0395512 0.0395508 0.039551 0.0395505 0.0395521 0.0395519 0.039445 0.0394795 0.0395023 0.0395134 0.0395184 0.0395215 0.0395227 0.0395232 0.0395245 0.0395248 0.039525 0.039526 0.0395267 0.0395276 0.0395281 0.039529 0.0395303 0.0395311 0.0395322 0.0395327 0.0395339 0.0395337 0.0395352 0.039536 0.0395366 0.0395371 0.0395381 0.0395384 0.0395398 0.0395397 0.0395412 0.0395418 0.0395419 0.0395424 0.0395431 0.0395431 0.0395433 0.0395449 0.0395452 0.0395452 0.0395455 0.0395468 0.0395473 0.0395485 0.0395472 0.0395489 0.0395473 0.0395483 0.0395491 0.0395492 0.0395504 0.0395485 0.0395503 0.0395488 0.0395502 0.0395504 0.0395508 0.0395505 0.0395506 0.0395508 0.0395508 0.0395503 0.0395516 0.0395512 0.0394931 0.0394828 0.0395007 0.0395109 0.0395169 0.0395215 0.0395228 0.0395241 0.0395252 0.0395257 0.0395268 0.0395271 0.0395281 0.0395292 0.0395298 0.0395306 0.0395313 0.0395319 0.0395332 0.0395342 0.039534 0.0395357 0.0395359 0.0395366 0.0395374 0.0395382 0.0395385 0.0395397 0.0395397 0.0395402 0.0395409 0.0395426 0.0395426 0.0395434 0.0395435 0.039544 0.039544 0.0395455 0.0395452 0.0395461 0.039546 0.0395472 0.0395464 0.0395484 0.0395481 0.039548 0.0395478 0.039548 0.0395493 0.0395489 0.0395499 0.0395491 0.0395502 0.0395496 0.0395506 0.0395496 0.0395514 0.0395502 0.0395507 0.0395513 0.039552 0.0395508 0.0395505 0.0395512 0.0394998 0.0394959 0.0395063 0.039514 0.0395194 0.0395229 0.0395244 0.0395255 0.0395266 0.0395275 0.0395288 0.0395293 0.03953 0.0395306 0.0395316 0.0395319 0.0395324 0.0395329 0.0395343 0.0395354 0.0395355 0.0395369 0.0395364 0.039538 0.0395391 0.039539 0.0395395 0.0395407 0.0395402 0.0395412 0.0395417 0.0395427 0.0395428 0.0395442 0.0395441 0.0395443 0.0395446 0.0395458 0.0395455 0.0395465 0.0395465 0.0395471 0.0395465 0.0395478 0.0395485 0.0395481 0.0395485 0.0395481 0.0395497 0.039549 0.0395489 0.0395495 0.0395494 0.0395505 0.0395502 0.0395499 0.0395514 0.0395505 0.0395507 0.0395503 0.0395511 0.0395512 0.0395506 0.0395505 0.039511 0.0395055 0.0395145 0.0395196 0.0395238 0.0395261 0.0395283 0.039529 0.0395299 0.039531 0.0395313 0.0395319 0.0395326 0.0395331 0.0395338 0.039534 0.0395345 0.0395355 0.0395361 0.0395369 0.0395378 0.0395383 0.0395385 0.0395392 0.0395396 0.0395407 0.0395406 0.0395415 0.0395415 0.0395427 0.0395429 0.0395436 0.0395439 0.0395441 0.0395447 0.0395449 0.0395457 0.0395462 0.0395457 0.0395466 0.0395476 0.039547 0.0395482 0.039548 0.0395476 0.0395486 0.039549 0.0395488 0.039549 0.0395491 0.0395491 0.0395499 0.03955 0.0395498 0.0395503 0.0395498 0.0395507 0.0395501 0.0395513 0.0395497 0.039551 0.0395514 0.0395508 0.039551 0.0395204 0.039516 0.0395224 0.0395256 0.0395283 0.0395301 0.0395323 0.0395324 0.039533 0.0395339 0.0395344 0.0395349 0.0395354 0.039536 0.0395356 0.0395367 0.0395375 0.0395375 0.0395382 0.0395391 0.0395399 0.0395399 0.0395406 0.0395408 0.0395411 0.0395425 0.0395423 0.0395427 0.0395437 0.0395441 0.0395443 0.0395445 0.0395452 0.039545 0.0395453 0.039546 0.0395463 0.0395463 0.0395469 0.0395473 0.0395472 0.0395478 0.0395494 0.0395482 0.0395476 0.0395486 0.0395492 0.0395493 0.0395489 0.0395496 0.0395499 0.0395506 0.03955 0.039549 0.0395502 0.0395497 0.0395509 0.0395504 0.0395504 0.0395499 0.0395511 0.0395514 0.0395507 0.0395509 0.0395295 0.0395258 0.0395299 0.0395316 0.0395334 0.0395344 0.0395354 0.039536 0.0395364 0.039537 0.0395378 0.0395383 0.0395385 0.0395383 0.0395387 0.0395398 0.0395403 0.0395397 0.0395407 0.0395412 0.0395422 0.0395424 0.0395422 0.0395424 0.0395432 0.0395437 0.0395436 0.0395444 0.0395455 0.0395453 0.0395453 0.0395457 0.0395461 0.0395462 0.0395464 0.0395471 0.0395474 0.039547 0.039548 0.0395482 0.0395476 0.0395487 0.0395489 0.0395483 0.0395489 0.0395491 0.0395495 0.0395494 0.039549 0.0395503 0.03955 0.03955 0.0395499 0.03955 0.0395504 0.0395507 0.0395507 0.0395504 0.0395499 0.0395508 0.0395512 0.0395513 0.0395501 0.0395508 0.0395377 0.0395351 0.0395367 0.039537 0.0395381 0.0395383 0.0395395 0.0395395 0.0395397 0.0395403 0.0395405 0.0395411 0.0395415 0.0395418 0.0395419 0.0395425 0.0395426 0.0395429 0.0395428 0.039543 0.0395441 0.0395438 0.0395445 0.0395446 0.0395451 0.0395452 0.0395448 0.0395459 0.0395462 0.0395461 0.0395462 0.0395467 0.0395472 0.0395474 0.0395477 0.0395479 0.0395483 0.0395476 0.0395486 0.0395488 0.0395486 0.0395492 0.0395487 0.039549 0.0395492 0.0395494 0.0395501 0.03955 0.0395498 0.0395507 0.0395507 0.0395496 0.0395505 0.0395512 0.03955 0.0395503 0.0395505 0.0395506 0.0395504 0.0395508 0.0395509 0.039551 0.03955 0.039551 0.039546 0.0395439 0.0395435 0.0395431 0.0395429 0.0395426 0.0395435 0.039543 0.0395432 0.0395437 0.0395441 0.0395444 0.0395443 0.0395449 0.0395445 0.0395452 0.0395455 0.0395452 0.0395455 0.0395457 0.0395464 0.039546 0.0395465 0.0395467 0.0395471 0.039547 0.0395468 0.0395475 0.0395476 0.0395479 0.0395484 0.0395476 0.0395483 0.0395484 0.0395487 0.0395488 0.0395489 0.0395481 0.0395495 0.0395492 0.03955 0.0395496 0.0395496 0.0395492 0.0395501 0.0395496 0.0395502 0.0395501 0.0395502 0.0395503 0.0395503 0.0395497 0.0395509 0.0395503 0.0395502 0.0395506 0.0395504 0.039551 0.0395509 0.0395499 0.0395512 0.0395504 0.0395508 0.0395513 0.0395542 0.0395527 0.03955 0.0395481 0.0395474 0.0395474 0.0395478 0.0395464 0.0395472 0.0395468 0.039547 0.0395476 0.0395471 0.0395474 0.0395479 0.0395482 0.039548 0.0395479 0.0395482 0.0395484 0.0395483 0.0395488 0.0395479 0.0395489 0.0395486 0.0395493 0.0395489 0.0395499 0.0395487 0.0395496 0.0395497 0.0395492 0.03955 0.0395496 0.0395493 0.0395498 0.0395499 0.0395495 0.0395503 0.0395492 0.0395504 0.0395497 0.0395507 0.0395494 0.0395507 0.0395496 0.039551 0.0395503 0.0395513 0.0395498 0.0395505 0.0395507 0.0395504 0.0395505 0.0395503 0.0395512 0.0395504 0.0395508 0.0395507 0.0395505 0.0395517 0.03955 0.0395516 0.039551 0.0395623 0.039561 0.0395566 0.0395539 0.039552 0.0395512 0.039551 0.0395504 0.0395507 0.03955 0.0395507 0.0395508 0.0395502 0.0395506 0.0395503 0.0395508 0.0395504 0.0395505 0.0395504 0.0395508 0.0395508 0.0395503 0.0395507 0.0395509 0.0395506 0.0395509 0.0395504 0.0395511 0.0395504 0.0395507 0.0395507 0.0395505 0.0395511 0.0395505 0.0395507 0.0395505 0.039551 0.03955 0.0395511 0.0395504 0.0395509 0.0395506 0.0395512 0.0395506 0.0395506 0.0395505 0.0395509 0.0395507 0.0395509 0.0395505 0.0395507 0.0395506 0.0395507 0.0395509 0.0395502 0.0395509 0.0395511 0.039551 0.0395506 0.0395498 0.0395513 0.0395499 0.0395509 0.0395504 0.0395696 0.0395684 0.0395619 0.0395587 0.0395563 0.0395555 0.0395541 0.0395542 0.039554 0.0395537 0.0395533 0.0395535 0.0395536 0.0395534 0.0395535 0.0395539 0.0395534 0.039553 0.0395529 0.0395526 0.0395531 0.0395529 0.0395529 0.039553 0.0395525 0.0395522 0.039552 0.0395525 0.0395522 0.039552 0.0395519 0.0395517 0.0395527 0.0395509 0.0395519 0.0395521 0.0395523 0.0395504 0.0395517 0.0395521 0.0395517 0.0395517 0.0395507 0.0395514 0.039551 0.0395516 0.0395507 0.0395515 0.0395501 0.0395513 0.0395508 0.0395507 0.0395513 0.0395505 0.0395505 0.0395514 0.0395512 0.0395507 0.0395513 0.03955 0.0395514 0.0395504 0.0395507 0.0395506 0.039577 0.0395758 0.0395672 0.0395632 0.0395608 0.039559 0.039558 0.0395578 0.0395574 0.0395573 0.0395571 0.0395567 0.0395565 0.0395563 0.0395565 0.0395566 0.039556 0.0395556 0.0395554 0.0395557 0.0395552 0.039555 0.039555 0.0395547 0.0395546 0.0395542 0.0395537 0.0395544 0.0395534 0.0395537 0.0395533 0.0395526 0.0395537 0.0395522 0.0395532 0.0395532 0.0395527 0.039552 0.0395522 0.0395524 0.0395522 0.0395521 0.0395512 0.0395519 0.0395517 0.039552 0.0395514 0.0395519 0.0395513 0.039551 0.0395514 0.0395513 0.0395507 0.0395506 0.0395507 0.0395513 0.0395507 0.0395503 0.0395513 0.0395504 0.0395512 0.0395502 0.0395501 0.0395506 0.0395847 0.0395838 0.039573 0.0395678 0.0395649 0.0395622 0.0395611 0.0395609 0.0395609 0.0395601 0.0395602 0.0395598 0.0395596 0.0395595 0.0395595 0.0395592 0.0395586 0.0395582 0.0395579 0.0395577 0.0395571 0.0395573 0.0395568 0.039556 0.0395561 0.0395563 0.0395557 0.0395558 0.0395554 0.0395555 0.0395552 0.0395544 0.039555 0.0395536 0.0395544 0.0395532 0.0395534 0.0395537 0.0395528 0.0395532 0.039553 0.0395529 0.039553 0.0395525 0.039552 0.0395522 0.0395516 0.0395515 0.0395521 0.0395515 0.0395515 0.0395524 0.0395507 0.0395511 0.0395511 0.0395521 0.0395501 0.0395507 0.039551 0.0395505 0.039551 0.039551 0.0395508 0.0395508 0.0395921 0.0395901 0.0395782 0.0395714 0.0395688 0.039567 0.039565 0.0395642 0.0395644 0.0395636 0.0395632 0.0395627 0.0395627 0.0395622 0.0395616 0.0395617 0.0395613 0.0395608 0.0395604 0.03956 0.0395595 0.0395593 0.0395587 0.0395583 0.0395578 0.0395583 0.0395576 0.0395571 0.0395568 0.0395567 0.0395562 0.0395557 0.0395559 0.0395548 0.0395553 0.0395546 0.0395553 0.0395541 0.0395539 0.0395537 0.039554 0.0395531 0.0395535 0.0395528 0.0395522 0.0395534 0.0395525 0.0395515 0.0395519 0.0395525 0.0395518 0.0395516 0.0395502 0.0395516 0.0395512 0.0395516 0.0395498 0.0395507 0.0395515 0.0395507 0.0395512 0.0395503 0.0395516 0.0395506 0.0395956 0.0395976 0.0395826 0.0395755 0.0395715 0.03957 0.0395685 0.0395678 0.0395675 0.0395667 0.0395663 0.0395658 0.0395653 0.0395647 0.0395644 0.0395645 0.0395637 0.0395635 0.0395625 0.0395619 0.039562 0.0395616 0.0395608 0.0395608 0.0395594 0.0395594 0.0395583 0.0395591 0.039558 0.0395582 0.0395573 0.0395575 0.0395566 0.0395562 0.0395563 0.0395553 0.0395564 0.0395544 0.0395549 0.0395547 0.0395546 0.0395539 0.039554 0.0395541 0.0395527 0.0395535 0.0395528 0.0395516 0.0395519 0.0395523 0.0395516 0.0395522 0.0395511 0.0395518 0.0395517 0.0395515 0.0395507 0.0395508 0.0395513 0.0395506 0.0395517 0.0395497 0.0395508 0.0395507 0.0396261 0.0396015 0.0395875 0.0395802 0.0395758 0.0395735 0.0395728 0.0395718 0.0395713 0.0395705 0.0395704 0.03957 0.0395693 0.0395683 0.0395676 0.0395675 0.0395663 0.0395662 0.0395651 0.0395643 0.0395642 0.0395635 0.0395635 0.0395626 0.0395611 0.0395618 0.0395607 0.0395605 0.0395598 0.0395599 0.0395588 0.0395588 0.0395583 0.039557 0.0395578 0.0395559 0.0395564 0.0395562 0.0395559 0.0395542 0.0395552 0.0395541 0.0395543 0.0395545 0.0395533 0.039554 0.0395532 0.0395526 0.0395521 0.0395533 0.0395515 0.0395524 0.039551 0.0395528 0.0395524 0.0395518 0.0395516 0.0395508 0.0395504 0.0395504 0.0395509 0.0395502 0.0395511 0.0395516 0.0394344 0.0394829 0.0394988 0.0395086 0.0395135 0.0395171 0.0395196 0.0395209 0.0395223 0.0395236 0.0395244 0.0395248 0.039526 0.0395265 0.0395276 0.039529 0.0395301 0.0395305 0.0395312 0.0395324 0.0395329 0.0395339 0.0395347 0.0395354 0.0395366 0.0395367 0.0395377 0.0395382 0.0395397 0.0395398 0.0395407 0.0395412 0.0395416 0.0395415 0.0395428 0.0395434 0.0395441 0.0395441 0.0395453 0.039546 0.0395459 0.0395461 0.0395461 0.0395467 0.0395473 0.0395477 0.0395487 0.0395488 0.0395483 0.0395492 0.0395493 0.03955 0.0395503 0.0395495 0.0395497 0.0395512 0.0395503 0.0395512 0.0395509 0.0395505 0.0395503 0.0395504 0.0395516 0.0395509 0.0394888 0.039484 0.0394987 0.0395077 0.0395141 0.0395188 0.0395214 0.0395225 0.0395238 0.0395252 0.0395267 0.0395267 0.0395281 0.0395291 0.0395303 0.0395306 0.0395316 0.0395318 0.0395327 0.0395344 0.0395339 0.0395352 0.0395364 0.0395365 0.039538 0.0395382 0.0395388 0.0395396 0.0395402 0.0395404 0.0395415 0.0395424 0.0395422 0.0395429 0.0395431 0.0395445 0.0395445 0.0395448 0.0395456 0.0395462 0.0395461 0.0395466 0.0395472 0.0395469 0.0395478 0.0395476 0.0395483 0.039548 0.0395494 0.0395491 0.0395495 0.0395497 0.0395505 0.0395495 0.039551 0.0395497 0.0395513 0.0395498 0.039551 0.0395512 0.039551 0.0395504 0.0395512 0.0395517 0.0394972 0.0395002 0.0395044 0.0395112 0.039517 0.0395211 0.0395232 0.0395243 0.0395267 0.0395278 0.0395287 0.0395293 0.0395301 0.0395308 0.0395321 0.0395323 0.0395332 0.0395335 0.0395345 0.0395355 0.0395358 0.0395365 0.0395374 0.0395381 0.0395393 0.0395397 0.03954 0.0395409 0.0395413 0.0395416 0.0395419 0.0395427 0.0395427 0.0395441 0.0395437 0.0395452 0.0395443 0.0395455 0.0395455 0.0395462 0.0395465 0.0395465 0.0395476 0.0395477 0.0395481 0.0395482 0.0395484 0.0395486 0.0395496 0.0395495 0.0395488 0.0395498 0.0395505 0.0395505 0.0395515 0.0395499 0.039551 0.0395497 0.0395499 0.039551 0.0395507 0.0395511 0.0395509 0.0395515 0.0395093 0.0395088 0.0395123 0.0395166 0.0395209 0.0395246 0.0395265 0.0395276 0.03953 0.0395302 0.0395307 0.0395321 0.0395326 0.0395331 0.0395341 0.0395347 0.0395353 0.0395361 0.0395368 0.039537 0.0395376 0.0395382 0.0395386 0.0395395 0.03954 0.0395412 0.039541 0.0395413 0.0395423 0.0395426 0.0395426 0.0395436 0.0395441 0.0395443 0.0395453 0.0395453 0.0395456 0.0395464 0.0395465 0.0395465 0.0395474 0.0395467 0.0395485 0.0395488 0.0395478 0.0395485 0.039549 0.0395495 0.0395491 0.0395496 0.0395496 0.0395496 0.0395505 0.0395506 0.0395508 0.0395501 0.0395504 0.0395502 0.0395509 0.0395514 0.0395507 0.039551 0.0395502 0.0395499 0.0395191 0.0395185 0.0395206 0.0395232 0.039526 0.0395284 0.0395305 0.0395316 0.0395323 0.0395334 0.039534 0.0395347 0.039535 0.0395359 0.0395363 0.0395372 0.0395378 0.0395374 0.0395393 0.0395395 0.0395394 0.0395401 0.0395408 0.0395413 0.0395416 0.0395421 0.0395424 0.0395429 0.0395438 0.0395433 0.0395441 0.0395447 0.0395456 0.039546 0.0395462 0.0395458 0.0395469 0.0395465 0.0395476 0.0395473 0.0395476 0.0395473 0.0395493 0.0395482 0.0395484 0.0395483 0.039549 0.0395493 0.0395493 0.0395496 0.0395502 0.0395498 0.0395502 0.0395499 0.0395508 0.0395496 0.0395508 0.0395507 0.039551 0.0395512 0.0395509 0.0395509 0.0395501 0.0395501 0.0395283 0.0395275 0.0395282 0.0395301 0.0395324 0.0395333 0.039534 0.0395348 0.039536 0.0395371 0.0395375 0.0395378 0.0395379 0.0395383 0.0395392 0.03954 0.0395405 0.0395402 0.0395409 0.0395416 0.039542 0.0395425 0.0395427 0.0395431 0.0395436 0.0395436 0.039544 0.0395443 0.039545 0.0395455 0.0395454 0.039546 0.0395468 0.0395463 0.0395463 0.0395464 0.0395476 0.0395473 0.0395484 0.0395482 0.0395478 0.0395482 0.0395488 0.0395485 0.0395496 0.039549 0.0395494 0.0395488 0.039549 0.0395502 0.0395501 0.0395499 0.0395506 0.03955 0.0395507 0.0395505 0.0395506 0.0395507 0.0395506 0.0395507 0.0395504 0.0395513 0.0395508 0.0395513 0.0395371 0.0395363 0.0395356 0.0395365 0.0395373 0.0395379 0.0395384 0.0395389 0.0395396 0.0395404 0.0395405 0.0395408 0.039541 0.0395417 0.0395418 0.039542 0.0395427 0.0395436 0.0395429 0.0395434 0.0395444 0.0395441 0.039545 0.039545 0.0395453 0.0395456 0.0395453 0.0395459 0.039546 0.0395468 0.0395466 0.0395478 0.0395474 0.0395473 0.0395473 0.0395475 0.0395487 0.0395476 0.0395491 0.0395483 0.0395485 0.0395491 0.0395489 0.0395493 0.0395496 0.0395492 0.0395499 0.0395501 0.0395496 0.0395503 0.03955 0.0395505 0.0395504 0.0395502 0.0395508 0.0395503 0.0395504 0.0395504 0.0395503 0.0395503 0.0395506 0.0395514 0.0395502 0.0395512 0.0395458 0.0395446 0.0395432 0.0395428 0.0395427 0.0395421 0.0395425 0.039543 0.0395427 0.0395439 0.039544 0.039544 0.0395441 0.0395451 0.0395446 0.0395443 0.0395456 0.0395454 0.0395457 0.0395459 0.0395465 0.0395461 0.0395466 0.0395474 0.0395472 0.0395474 0.0395469 0.0395476 0.0395469 0.0395479 0.0395485 0.0395487 0.0395483 0.0395484 0.0395481 0.0395491 0.0395488 0.0395486 0.0395503 0.0395486 0.0395494 0.0395497 0.0395495 0.0395498 0.0395502 0.0395493 0.0395505 0.0395504 0.0395504 0.0395502 0.0395497 0.0395505 0.0395508 0.0395495 0.039551 0.0395506 0.0395505 0.0395502 0.0395512 0.0395504 0.0395517 0.0395511 0.0395503 0.0395514 0.0395545 0.0395522 0.0395501 0.0395483 0.039548 0.0395472 0.0395468 0.0395463 0.039547 0.0395477 0.0395467 0.0395468 0.0395469 0.0395474 0.039548 0.0395473 0.0395479 0.039548 0.0395483 0.0395481 0.0395482 0.0395488 0.0395488 0.0395488 0.0395484 0.0395491 0.0395484 0.0395496 0.0395486 0.0395494 0.0395501 0.0395491 0.0395501 0.0395495 0.0395494 0.03955 0.0395493 0.0395496 0.0395505 0.0395501 0.0395504 0.0395501 0.0395505 0.0395499 0.0395507 0.0395495 0.0395508 0.0395497 0.0395512 0.0395501 0.0395508 0.0395506 0.0395501 0.0395498 0.0395508 0.0395511 0.0395503 0.0395501 0.0395506 0.0395501 0.0395517 0.03955 0.0395503 0.039551 0.0395624 0.0395591 0.0395563 0.039554 0.0395525 0.0395514 0.039551 0.0395504 0.0395506 0.0395508 0.0395502 0.0395507 0.0395503 0.0395503 0.0395503 0.0395503 0.0395506 0.0395508 0.0395504 0.0395508 0.0395502 0.0395505 0.0395511 0.0395505 0.0395502 0.0395515 0.0395505 0.0395508 0.0395503 0.0395506 0.0395513 0.0395511 0.0395509 0.0395499 0.0395507 0.039551 0.0395508 0.0395503 0.0395508 0.0395516 0.0395508 0.0395503 0.0395515 0.0395506 0.0395505 0.0395502 0.0395505 0.0395502 0.0395507 0.0395502 0.0395516 0.0395506 0.0395504 0.0395509 0.0395508 0.0395503 0.0395506 0.0395509 0.0395512 0.0395498 0.0395514 0.0395498 0.0395505 0.0395508 0.0395707 0.0395669 0.0395626 0.0395594 0.0395577 0.039556 0.0395549 0.0395542 0.0395541 0.0395541 0.039553 0.0395534 0.0395535 0.0395537 0.0395534 0.0395532 0.0395535 0.0395526 0.0395527 0.0395528 0.0395523 0.0395524 0.039553 0.0395526 0.0395526 0.0395525 0.0395522 0.0395522 0.0395518 0.0395521 0.0395529 0.0395521 0.0395528 0.0395513 0.0395517 0.0395517 0.0395513 0.0395511 0.0395516 0.0395518 0.0395515 0.0395514 0.039551 0.0395515 0.0395511 0.0395512 0.0395508 0.0395514 0.0395504 0.0395512 0.0395514 0.0395514 0.0395512 0.039551 0.0395509 0.0395505 0.039551 0.039551 0.0395516 0.0395501 0.0395514 0.0395506 0.0395506 0.0395516 0.0395789 0.0395737 0.0395687 0.0395644 0.039562 0.0395598 0.039559 0.039558 0.0395576 0.0395576 0.0395572 0.0395568 0.0395564 0.0395566 0.0395562 0.039556 0.0395559 0.0395552 0.0395556 0.0395552 0.039555 0.0395541 0.0395549 0.0395544 0.0395541 0.0395547 0.0395537 0.0395541 0.0395531 0.0395537 0.0395533 0.0395526 0.0395543 0.0395522 0.0395532 0.0395527 0.039552 0.0395528 0.039552 0.039552 0.0395523 0.039552 0.0395506 0.0395519 0.0395518 0.0395509 0.0395518 0.0395514 0.0395509 0.0395516 0.039551 0.0395517 0.0395511 0.0395505 0.0395512 0.0395509 0.0395509 0.0395506 0.0395517 0.0395507 0.0395511 0.0395502 0.0395504 0.0395509 0.0395865 0.03958 0.0395742 0.0395695 0.0395667 0.0395636 0.0395626 0.0395624 0.0395609 0.0395598 0.0395604 0.0395597 0.0395597 0.0395592 0.0395589 0.0395592 0.0395582 0.039558 0.0395573 0.0395576 0.0395572 0.0395572 0.0395576 0.0395564 0.039556 0.0395561 0.0395552 0.0395551 0.0395552 0.0395555 0.0395546 0.0395542 0.0395551 0.0395531 0.0395544 0.039553 0.039553 0.0395538 0.0395525 0.0395533 0.0395531 0.0395528 0.0395522 0.0395526 0.0395518 0.0395518 0.0395523 0.0395514 0.0395516 0.039552 0.0395513 0.0395518 0.0395512 0.0395511 0.0395515 0.039552 0.0395515 0.039551 0.0395513 0.0395503 0.0395509 0.0395505 0.0395511 0.0395499 0.0395949 0.0395856 0.0395796 0.0395736 0.0395707 0.039568 0.039566 0.0395646 0.0395642 0.0395637 0.0395632 0.0395628 0.0395632 0.0395617 0.0395611 0.0395614 0.0395609 0.0395606 0.0395593 0.03956 0.0395589 0.0395593 0.0395593 0.0395582 0.039558 0.0395572 0.0395572 0.0395565 0.0395565 0.0395558 0.0395555 0.0395553 0.0395561 0.0395549 0.0395555 0.0395539 0.0395545 0.0395544 0.039553 0.0395541 0.0395534 0.0395527 0.0395535 0.0395527 0.0395516 0.039553 0.0395527 0.039552 0.0395521 0.0395521 0.039552 0.0395525 0.0395509 0.0395516 0.0395508 0.0395511 0.0395509 0.0395505 0.0395514 0.0395506 0.0395509 0.0395497 0.0395513 0.0395511 0.0395998 0.0395939 0.0395832 0.0395781 0.0395741 0.0395716 0.03957 0.0395685 0.0395677 0.0395669 0.0395667 0.039566 0.0395659 0.039565 0.0395642 0.0395638 0.0395635 0.0395629 0.0395622 0.0395618 0.0395613 0.0395615 0.0395609 0.0395603 0.0395593 0.0395594 0.0395581 0.0395582 0.039558 0.0395574 0.0395572 0.0395575 0.0395562 0.0395564 0.0395564 0.0395546 0.0395557 0.0395547 0.0395541 0.0395544 0.0395542 0.0395532 0.0395546 0.039553 0.0395527 0.0395529 0.039553 0.0395522 0.039552 0.0395514 0.0395518 0.0395528 0.0395513 0.0395513 0.0395517 0.0395511 0.0395515 0.0395509 0.0395514 0.0395506 0.0395519 0.0395502 0.0395508 0.0395513 0.0396324 0.0395937 0.0395878 0.039583 0.0395801 0.0395768 0.0395743 0.0395729 0.0395725 0.0395712 0.0395706 0.0395698 0.039569 0.0395683 0.0395674 0.0395673 0.0395663 0.0395655 0.039565 0.0395642 0.0395631 0.0395635 0.0395622 0.0395626 0.039562 0.0395621 0.0395607 0.0395603 0.0395599 0.0395589 0.0395583 0.0395584 0.0395578 0.0395574 0.0395572 0.0395567 0.0395558 0.0395564 0.0395551 0.0395552 0.0395553 0.0395544 0.0395542 0.0395538 0.0395531 0.039554 0.0395531 0.0395532 0.0395517 0.0395522 0.0395522 0.0395521 0.0395513 0.0395514 0.0395519 0.0395512 0.0395519 0.0395507 0.0395512 0.0395518 0.0395501 0.0395498 0.0395509 0.0395516 0.0394301 0.0394819 0.0394975 0.0395064 0.0395111 0.0395143 0.0395168 0.0395191 0.0395206 0.0395217 0.0395235 0.0395245 0.039525 0.0395263 0.0395274 0.0395284 0.0395293 0.0395304 0.0395312 0.0395325 0.0395331 0.0395338 0.0395347 0.0395359 0.0395365 0.0395363 0.0395378 0.0395394 0.0395391 0.0395393 0.0395407 0.0395415 0.0395411 0.0395425 0.0395431 0.0395433 0.0395438 0.0395437 0.039546 0.0395456 0.0395458 0.039547 0.0395463 0.0395475 0.0395481 0.0395479 0.0395482 0.0395489 0.0395492 0.0395499 0.0395483 0.0395493 0.0395503 0.0395495 0.03955 0.0395511 0.0395505 0.0395509 0.0395513 0.0395502 0.0395509 0.0395508 0.0395516 0.0395506 0.0394899 0.0394815 0.039497 0.0395061 0.0395125 0.0395165 0.0395197 0.0395211 0.0395231 0.0395246 0.0395262 0.0395265 0.0395278 0.0395291 0.0395299 0.0395297 0.0395314 0.0395318 0.0395329 0.0395346 0.0395337 0.0395348 0.0395364 0.0395362 0.0395378 0.0395374 0.0395388 0.0395396 0.0395402 0.0395406 0.039541 0.0395422 0.0395426 0.0395432 0.0395431 0.0395446 0.0395445 0.0395452 0.0395457 0.0395464 0.0395458 0.0395465 0.0395477 0.0395476 0.039548 0.039548 0.0395483 0.0395484 0.0395489 0.0395491 0.0395493 0.0395496 0.0395503 0.0395492 0.0395509 0.0395497 0.039551 0.0395496 0.039551 0.0395507 0.0395509 0.0395509 0.0395513 0.0395511 0.0394978 0.0394991 0.0395037 0.03951 0.0395151 0.0395193 0.0395223 0.0395237 0.039526 0.0395274 0.0395282 0.039529 0.0395299 0.039531 0.0395316 0.0395319 0.0395337 0.039534 0.0395351 0.0395357 0.039536 0.0395366 0.0395378 0.0395378 0.0395393 0.0395393 0.0395399 0.0395409 0.039541 0.039542 0.0395419 0.0395429 0.0395433 0.0395441 0.0395445 0.0395449 0.0395439 0.0395454 0.0395457 0.0395471 0.0395465 0.0395464 0.0395479 0.039548 0.0395472 0.0395488 0.0395478 0.0395487 0.0395488 0.0395496 0.0395493 0.0395496 0.0395501 0.0395502 0.0395517 0.0395504 0.0395508 0.0395499 0.0395503 0.0395513 0.0395509 0.0395507 0.0395512 0.0395518 0.0395096 0.0395082 0.0395122 0.0395158 0.0395191 0.0395231 0.0395255 0.0395265 0.0395295 0.0395298 0.0395307 0.0395316 0.0395323 0.0395335 0.039534 0.0395346 0.0395358 0.0395359 0.0395371 0.0395373 0.0395383 0.0395387 0.0395395 0.0395398 0.0395404 0.0395412 0.039541 0.0395413 0.0395421 0.0395436 0.0395433 0.0395434 0.0395441 0.0395444 0.0395452 0.0395446 0.0395457 0.0395463 0.0395462 0.0395466 0.0395474 0.0395469 0.0395479 0.0395484 0.0395475 0.039549 0.0395486 0.0395492 0.039549 0.0395499 0.0395492 0.0395497 0.03955 0.0395501 0.0395503 0.0395497 0.0395499 0.0395506 0.03955 0.0395515 0.0395509 0.0395503 0.039551 0.0395512 0.039519 0.039518 0.0395204 0.0395223 0.0395247 0.0395273 0.0395293 0.0395305 0.0395321 0.039533 0.0395336 0.0395342 0.0395348 0.0395359 0.0395367 0.0395371 0.0395379 0.0395377 0.0395392 0.0395395 0.0395398 0.0395404 0.0395412 0.0395415 0.0395416 0.039542 0.0395424 0.0395433 0.0395438 0.0395434 0.0395445 0.0395445 0.0395452 0.0395455 0.0395457 0.0395461 0.0395473 0.0395468 0.0395465 0.0395472 0.0395479 0.0395477 0.0395484 0.0395485 0.0395486 0.0395491 0.0395492 0.0395491 0.0395497 0.0395506 0.0395496 0.0395495 0.0395502 0.0395504 0.0395495 0.0395499 0.0395502 0.0395507 0.0395504 0.0395504 0.0395507 0.0395506 0.0395503 0.0395504 0.0395284 0.0395272 0.0395276 0.0395287 0.0395306 0.0395322 0.0395331 0.0395342 0.0395353 0.0395361 0.0395371 0.0395377 0.0395377 0.0395386 0.0395392 0.0395402 0.0395404 0.0395402 0.0395411 0.0395416 0.0395414 0.039542 0.0395428 0.0395425 0.0395439 0.0395441 0.039544 0.0395446 0.0395446 0.0395453 0.0395458 0.0395453 0.0395465 0.0395463 0.0395461 0.039547 0.0395468 0.0395469 0.0395478 0.0395477 0.0395484 0.0395485 0.0395487 0.0395482 0.0395501 0.0395495 0.0395494 0.0395486 0.0395491 0.0395503 0.0395497 0.0395497 0.0395504 0.0395504 0.0395497 0.0395503 0.0395501 0.0395508 0.0395509 0.0395499 0.0395508 0.0395513 0.0395504 0.0395507 0.0395373 0.0395358 0.0395351 0.0395354 0.039536 0.0395371 0.0395379 0.0395385 0.0395392 0.0395396 0.0395402 0.0395403 0.0395411 0.039542 0.0395417 0.0395425 0.0395423 0.0395429 0.0395431 0.0395436 0.0395439 0.0395442 0.0395447 0.0395444 0.0395454 0.0395464 0.0395453 0.0395464 0.0395465 0.0395468 0.0395463 0.0395471 0.0395471 0.039548 0.039548 0.0395477 0.0395479 0.039548 0.039549 0.0395483 0.0395492 0.0395491 0.0395487 0.0395482 0.0395499 0.0395493 0.0395497 0.0395501 0.0395498 0.0395505 0.0395495 0.0395509 0.03955 0.0395502 0.0395504 0.03955 0.0395508 0.0395507 0.039551 0.0395507 0.0395507 0.0395511 0.0395502 0.0395508 0.0395456 0.0395439 0.0395425 0.0395423 0.0395427 0.0395415 0.0395426 0.0395425 0.0395421 0.0395434 0.0395434 0.039544 0.0395444 0.0395444 0.0395447 0.0395446 0.0395446 0.039545 0.0395457 0.0395464 0.0395463 0.0395464 0.0395467 0.0395467 0.0395468 0.0395473 0.0395463 0.0395481 0.0395473 0.0395477 0.0395482 0.0395488 0.0395482 0.0395489 0.0395487 0.0395486 0.039549 0.0395484 0.0395497 0.0395491 0.0395499 0.0395492 0.0395489 0.0395495 0.0395493 0.0395492 0.0395504 0.0395503 0.0395499 0.0395503 0.0395503 0.0395509 0.0395505 0.0395503 0.0395507 0.0395503 0.039551 0.03955 0.0395511 0.03955 0.0395513 0.0395508 0.0395505 0.0395514 0.0395541 0.0395519 0.0395495 0.0395479 0.0395477 0.0395472 0.0395469 0.0395462 0.0395463 0.0395471 0.0395468 0.0395468 0.0395472 0.0395468 0.0395473 0.0395474 0.0395471 0.0395478 0.0395483 0.0395479 0.0395477 0.0395484 0.0395486 0.0395483 0.0395486 0.0395494 0.0395487 0.0395496 0.0395486 0.0395497 0.0395497 0.0395491 0.0395495 0.0395494 0.0395494 0.0395496 0.0395501 0.039549 0.0395499 0.0395499 0.0395506 0.0395494 0.0395498 0.0395502 0.0395505 0.0395498 0.0395507 0.03955 0.039551 0.03955 0.0395508 0.03955 0.0395503 0.0395505 0.0395508 0.0395507 0.0395508 0.03955 0.0395509 0.0395493 0.039551 0.0395505 0.0395502 0.0395513 0.0395624 0.0395596 0.0395565 0.0395537 0.0395523 0.0395523 0.039551 0.0395501 0.0395502 0.0395505 0.0395498 0.0395499 0.0395506 0.0395499 0.0395503 0.0395505 0.0395507 0.0395507 0.0395504 0.0395506 0.0395505 0.0395506 0.0395503 0.0395505 0.0395501 0.0395513 0.0395504 0.0395514 0.03955 0.0395506 0.03955 0.0395506 0.0395501 0.0395505 0.0395504 0.0395508 0.0395506 0.0395506 0.0395504 0.0395509 0.0395507 0.0395501 0.0395513 0.0395503 0.0395511 0.0395503 0.0395511 0.0395501 0.0395511 0.0395502 0.039551 0.03955 0.0395504 0.039551 0.0395506 0.0395505 0.0395509 0.0395508 0.0395507 0.0395503 0.0395518 0.0395509 0.0395499 0.0395508 0.0395706 0.0395667 0.0395627 0.0395597 0.039558 0.0395564 0.0395553 0.0395545 0.0395538 0.0395537 0.0395532 0.0395532 0.0395535 0.0395527 0.0395533 0.0395531 0.0395531 0.0395527 0.0395529 0.0395531 0.0395529 0.0395525 0.0395528 0.0395525 0.0395525 0.039552 0.0395515 0.0395529 0.039552 0.0395515 0.0395517 0.0395513 0.0395514 0.0395511 0.0395518 0.0395518 0.0395511 0.0395514 0.0395516 0.0395509 0.0395512 0.0395514 0.0395514 0.0395509 0.0395514 0.039551 0.0395515 0.0395505 0.0395511 0.0395504 0.0395512 0.0395508 0.0395509 0.0395507 0.0395506 0.0395501 0.0395511 0.0395508 0.0395511 0.0395503 0.0395512 0.0395502 0.0395507 0.039551 0.0395787 0.0395737 0.0395686 0.0395651 0.0395622 0.0395603 0.0395593 0.0395578 0.0395576 0.0395571 0.0395569 0.0395565 0.0395561 0.039556 0.0395559 0.0395554 0.0395555 0.0395551 0.0395552 0.0395549 0.039555 0.0395541 0.0395549 0.0395544 0.0395541 0.0395543 0.0395537 0.0395544 0.0395536 0.0395529 0.0395532 0.039553 0.0395534 0.0395519 0.0395529 0.0395527 0.0395524 0.0395529 0.0395526 0.0395515 0.0395521 0.0395517 0.0395518 0.0395514 0.0395519 0.0395515 0.0395524 0.0395506 0.0395514 0.0395516 0.0395513 0.0395506 0.0395518 0.039551 0.039551 0.0395507 0.0395515 0.0395499 0.0395521 0.0395503 0.039551 0.03955 0.0395511 0.0395501 0.0395859 0.0395801 0.0395742 0.0395705 0.039567 0.0395649 0.0395633 0.0395621 0.0395618 0.0395604 0.0395602 0.0395595 0.0395589 0.0395592 0.0395589 0.0395583 0.0395582 0.0395578 0.0395573 0.0395575 0.039557 0.0395565 0.039557 0.0395562 0.0395552 0.0395552 0.0395559 0.0395557 0.0395551 0.0395554 0.0395549 0.0395546 0.0395545 0.0395532 0.0395533 0.0395538 0.0395534 0.0395539 0.0395531 0.0395531 0.0395531 0.0395528 0.039552 0.0395526 0.0395516 0.0395523 0.0395525 0.0395519 0.0395516 0.039552 0.0395514 0.0395507 0.0395513 0.0395508 0.0395516 0.0395512 0.0395515 0.0395505 0.0395521 0.0395494 0.0395512 0.0395502 0.039551 0.0395495 0.0395943 0.0395858 0.0395802 0.0395747 0.0395712 0.0395691 0.0395667 0.0395656 0.0395647 0.039564 0.0395636 0.0395632 0.0395621 0.039562 0.0395617 0.0395614 0.0395609 0.0395607 0.0395599 0.0395598 0.0395588 0.0395585 0.039559 0.0395583 0.0395579 0.0395563 0.0395574 0.0395567 0.0395566 0.039556 0.0395559 0.0395554 0.0395558 0.0395551 0.0395545 0.0395544 0.0395539 0.0395542 0.0395537 0.0395539 0.0395531 0.0395535 0.0395527 0.0395531 0.0395514 0.0395529 0.0395522 0.0395524 0.0395517 0.0395517 0.0395514 0.0395514 0.0395509 0.039551 0.0395517 0.0395508 0.0395509 0.0395506 0.0395516 0.0395503 0.0395513 0.0395505 0.0395508 0.0395509 0.0395981 0.0395943 0.0395836 0.0395788 0.039575 0.0395728 0.0395711 0.0395692 0.0395684 0.0395677 0.0395668 0.0395659 0.0395657 0.039565 0.0395637 0.0395644 0.0395635 0.0395626 0.0395627 0.0395617 0.039561 0.0395611 0.0395605 0.0395593 0.0395597 0.0395594 0.0395588 0.0395577 0.0395585 0.0395573 0.0395574 0.039557 0.0395559 0.0395568 0.039556 0.0395551 0.039555 0.0395549 0.0395548 0.0395541 0.0395539 0.0395534 0.0395538 0.0395529 0.0395525 0.0395532 0.0395522 0.0395527 0.0395524 0.0395514 0.0395518 0.0395511 0.0395518 0.0395512 0.0395522 0.0395507 0.0395519 0.0395517 0.0395516 0.0395504 0.0395515 0.0395507 0.0395515 0.039551 0.0396328 0.0395929 0.0395872 0.0395832 0.0395805 0.0395776 0.0395758 0.0395734 0.039573 0.0395718 0.0395707 0.0395693 0.0395684 0.039568 0.0395665 0.0395667 0.0395663 0.0395656 0.0395654 0.0395646 0.0395636 0.0395634 0.0395623 0.0395623 0.0395628 0.0395614 0.0395602 0.0395593 0.0395594 0.0395593 0.0395584 0.0395585 0.0395574 0.0395573 0.039557 0.0395561 0.0395558 0.0395563 0.0395555 0.0395554 0.0395546 0.0395544 0.0395542 0.0395539 0.0395541 0.0395535 0.0395521 0.0395531 0.0395518 0.039552 0.0395528 0.0395507 0.0395519 0.0395501 0.0395513 0.0395511 0.0395513 0.0395502 0.0395517 0.0395515 0.0395515 0.0395506 0.0395514 0.0395512 0.0394243 0.0394804 0.0394959 0.0395041 0.0395096 0.0395137 0.0395152 0.0395173 0.0395195 0.0395213 0.0395224 0.0395236 0.0395247 0.0395258 0.0395274 0.0395286 0.0395287 0.0395304 0.0395309 0.0395315 0.0395333 0.0395336 0.0395342 0.0395352 0.039536 0.039537 0.0395371 0.0395388 0.0395394 0.0395396 0.0395398 0.0395415 0.0395408 0.0395431 0.0395426 0.0395428 0.0395439 0.0395438 0.0395452 0.039546 0.0395452 0.0395471 0.0395469 0.0395479 0.0395477 0.0395478 0.039548 0.0395485 0.0395494 0.0395496 0.0395495 0.0395497 0.0395507 0.0395497 0.0395506 0.039552 0.0395502 0.0395515 0.0395518 0.0395504 0.0395509 0.0395508 0.0395514 0.0395514 0.039489 0.0394806 0.0394962 0.0395046 0.0395111 0.0395155 0.0395179 0.0395198 0.0395221 0.0395241 0.0395253 0.0395262 0.0395273 0.0395285 0.0395292 0.0395299 0.0395314 0.0395317 0.0395329 0.0395336 0.0395344 0.0395355 0.0395358 0.0395366 0.0395381 0.0395375 0.0395391 0.0395391 0.0395399 0.0395403 0.0395411 0.039542 0.0395428 0.0395435 0.039543 0.0395443 0.0395446 0.0395452 0.039545 0.0395459 0.0395457 0.0395466 0.0395467 0.0395481 0.0395479 0.0395479 0.0395485 0.039549 0.0395486 0.0395495 0.0395498 0.03955 0.0395501 0.0395507 0.0395507 0.0395508 0.0395502 0.0395504 0.0395511 0.0395515 0.039551 0.0395512 0.0395503 0.039551 0.0394969 0.0394987 0.0395023 0.0395093 0.0395143 0.0395181 0.0395214 0.0395231 0.0395252 0.0395266 0.0395275 0.0395292 0.0395297 0.039531 0.0395316 0.0395322 0.039534 0.039534 0.0395353 0.0395353 0.0395356 0.0395374 0.0395374 0.0395381 0.0395393 0.0395391 0.0395407 0.0395406 0.0395408 0.039542 0.0395426 0.039543 0.0395437 0.0395436 0.039545 0.0395444 0.039545 0.0395454 0.0395453 0.0395471 0.0395467 0.0395472 0.0395469 0.0395479 0.0395477 0.0395489 0.0395484 0.0395491 0.0395493 0.0395496 0.03955 0.0395494 0.0395492 0.0395505 0.0395507 0.0395511 0.0395503 0.0395503 0.0395513 0.0395513 0.0395504 0.0395509 0.0395505 0.0395511 0.039509 0.0395077 0.0395111 0.0395153 0.0395189 0.039522 0.0395249 0.039526 0.0395287 0.0395295 0.0395306 0.0395322 0.0395323 0.0395336 0.0395339 0.0395345 0.0395361 0.039536 0.0395369 0.0395374 0.0395378 0.0395385 0.0395393 0.0395393 0.0395404 0.0395411 0.0395417 0.0395419 0.039542 0.0395441 0.0395432 0.0395437 0.0395443 0.0395444 0.0395455 0.0395443 0.0395459 0.0395467 0.0395466 0.0395475 0.0395478 0.039548 0.0395479 0.0395478 0.039548 0.0395489 0.0395487 0.0395491 0.0395496 0.0395497 0.0395493 0.0395508 0.0395498 0.0395505 0.03955 0.039551 0.0395498 0.0395509 0.0395514 0.0395513 0.0395508 0.0395501 0.0395508 0.0395515 0.039519 0.0395181 0.0395197 0.0395221 0.0395243 0.0395265 0.0395285 0.0395301 0.039532 0.0395329 0.0395328 0.0395347 0.0395353 0.0395366 0.0395366 0.0395369 0.0395383 0.0395384 0.039539 0.0395393 0.0395396 0.0395398 0.039541 0.0395414 0.0395418 0.039542 0.0395427 0.0395433 0.0395435 0.0395447 0.039544 0.0395451 0.0395453 0.039546 0.0395454 0.0395465 0.0395471 0.0395471 0.0395468 0.0395473 0.0395484 0.0395481 0.0395479 0.0395484 0.0395488 0.0395488 0.0395492 0.0395492 0.0395491 0.0395503 0.0395497 0.0395504 0.0395501 0.0395505 0.0395501 0.0395512 0.0395503 0.0395517 0.0395513 0.0395503 0.0395505 0.0395503 0.0395507 0.0395514 0.0395282 0.0395269 0.0395272 0.0395287 0.0395303 0.0395311 0.0395328 0.0395338 0.039535 0.0395364 0.0395368 0.0395378 0.0395377 0.0395391 0.0395389 0.0395402 0.0395407 0.0395403 0.0395414 0.0395421 0.0395417 0.0395423 0.0395429 0.0395432 0.0395435 0.0395439 0.0395439 0.0395451 0.0395447 0.0395456 0.0395449 0.039546 0.0395463 0.0395466 0.0395462 0.0395476 0.0395474 0.0395473 0.0395478 0.0395476 0.0395486 0.0395489 0.0395487 0.0395487 0.0395496 0.0395492 0.0395493 0.0395497 0.0395496 0.0395497 0.0395498 0.0395499 0.0395503 0.0395503 0.0395508 0.0395507 0.0395499 0.0395511 0.0395512 0.0395498 0.0395506 0.0395506 0.0395507 0.0395506 0.039537 0.0395353 0.0395352 0.0395354 0.039536 0.0395368 0.0395374 0.0395384 0.039539 0.0395398 0.03954 0.0395404 0.039541 0.0395414 0.0395418 0.0395432 0.0395432 0.0395422 0.0395436 0.0395444 0.0395441 0.0395447 0.0395444 0.0395449 0.0395454 0.0395461 0.0395453 0.0395465 0.0395462 0.0395471 0.0395467 0.0395467 0.0395474 0.0395472 0.0395482 0.0395482 0.0395475 0.0395487 0.0395487 0.0395485 0.0395491 0.0395491 0.039549 0.0395491 0.0395496 0.0395496 0.0395493 0.0395499 0.0395504 0.0395503 0.0395499 0.039551 0.03955 0.0395506 0.0395511 0.0395513 0.0395507 0.0395506 0.0395514 0.039551 0.039551 0.0395501 0.0395504 0.0395504 0.0395455 0.0395438 0.0395426 0.0395422 0.0395425 0.0395415 0.0395424 0.0395426 0.0395424 0.0395437 0.0395432 0.0395437 0.0395442 0.0395439 0.0395448 0.039545 0.0395455 0.0395455 0.0395453 0.0395463 0.0395462 0.0395466 0.039546 0.0395462 0.0395472 0.0395473 0.0395466 0.0395478 0.0395473 0.0395477 0.0395488 0.0395485 0.0395488 0.0395483 0.0395491 0.0395482 0.0395489 0.0395489 0.0395492 0.0395485 0.0395503 0.0395494 0.0395499 0.0395504 0.0395494 0.0395496 0.0395505 0.0395501 0.0395503 0.0395506 0.0395506 0.0395508 0.0395502 0.0395509 0.0395503 0.0395507 0.0395502 0.0395501 0.0395508 0.0395508 0.0395514 0.0395502 0.0395504 0.0395505 0.039554 0.0395516 0.0395494 0.0395484 0.0395474 0.0395466 0.0395473 0.0395466 0.0395466 0.0395471 0.0395472 0.0395461 0.0395474 0.0395472 0.0395471 0.0395476 0.0395477 0.0395479 0.0395482 0.0395483 0.039548 0.0395487 0.0395483 0.039548 0.0395487 0.0395491 0.0395489 0.0395495 0.0395489 0.0395495 0.0395492 0.0395495 0.0395493 0.0395493 0.0395496 0.0395494 0.0395504 0.0395492 0.03955 0.0395499 0.0395513 0.0395495 0.0395502 0.0395507 0.0395506 0.0395497 0.0395508 0.0395505 0.039551 0.0395503 0.03955 0.0395496 0.0395507 0.0395506 0.0395503 0.0395509 0.0395508 0.0395502 0.0395508 0.0395502 0.0395506 0.0395508 0.0395502 0.0395507 0.0395626 0.0395594 0.0395563 0.0395546 0.0395524 0.039552 0.0395512 0.0395506 0.0395505 0.0395504 0.03955 0.0395492 0.0395504 0.0395505 0.0395505 0.0395502 0.0395505 0.0395505 0.0395504 0.0395503 0.0395504 0.0395511 0.0395506 0.0395504 0.0395501 0.0395506 0.0395509 0.0395512 0.0395505 0.0395503 0.0395502 0.0395514 0.0395506 0.0395509 0.0395506 0.0395507 0.0395508 0.039551 0.0395512 0.039551 0.039551 0.0395506 0.0395509 0.0395505 0.0395508 0.0395499 0.0395512 0.0395512 0.0395513 0.0395504 0.0395505 0.0395509 0.0395512 0.039551 0.039551 0.0395513 0.0395514 0.0395509 0.0395512 0.0395507 0.0395509 0.0395506 0.03955 0.0395511 0.0395703 0.0395663 0.0395626 0.0395606 0.0395583 0.0395567 0.0395555 0.0395547 0.0395546 0.0395541 0.0395536 0.0395533 0.0395535 0.0395532 0.0395536 0.0395529 0.0395526 0.0395529 0.0395524 0.039553 0.0395527 0.0395526 0.0395527 0.0395521 0.0395524 0.0395515 0.039552 0.0395527 0.039552 0.0395516 0.0395521 0.0395523 0.0395519 0.0395513 0.0395522 0.0395514 0.0395515 0.0395514 0.0395515 0.0395514 0.0395517 0.0395516 0.0395519 0.039551 0.039551 0.0395508 0.0395519 0.0395516 0.0395516 0.0395506 0.0395509 0.0395514 0.0395509 0.039551 0.0395512 0.0395511 0.0395514 0.0395503 0.0395513 0.0395507 0.0395511 0.0395504 0.0395504 0.0395513 0.0395787 0.039574 0.0395691 0.0395658 0.0395628 0.0395608 0.0395596 0.0395582 0.0395582 0.0395574 0.0395567 0.0395567 0.0395565 0.0395558 0.0395562 0.0395558 0.0395555 0.0395552 0.0395548 0.039555 0.0395544 0.0395547 0.039555 0.0395543 0.0395543 0.0395538 0.0395538 0.0395533 0.0395535 0.0395529 0.0395539 0.0395535 0.0395527 0.0395523 0.0395531 0.0395521 0.0395522 0.0395521 0.0395527 0.0395522 0.0395525 0.0395517 0.0395525 0.0395514 0.0395518 0.0395515 0.0395518 0.0395516 0.0395514 0.0395515 0.0395506 0.0395511 0.0395513 0.0395509 0.0395502 0.0395512 0.0395516 0.0395497 0.0395516 0.0395507 0.0395509 0.039551 0.0395507 0.0395503 0.0395864 0.0395809 0.0395745 0.039571 0.0395676 0.0395652 0.0395638 0.0395625 0.0395621 0.0395609 0.0395602 0.0395599 0.0395594 0.0395591 0.0395588 0.0395588 0.039558 0.039557 0.0395572 0.0395577 0.039557 0.0395567 0.0395564 0.0395558 0.0395558 0.0395556 0.0395557 0.0395551 0.0395544 0.039555 0.0395547 0.0395541 0.0395537 0.0395537 0.0395533 0.0395538 0.0395537 0.039553 0.0395537 0.0395522 0.0395529 0.0395528 0.0395527 0.0395529 0.0395513 0.0395528 0.0395513 0.0395522 0.0395515 0.0395516 0.0395513 0.0395517 0.0395511 0.0395508 0.0395502 0.0395511 0.0395513 0.0395505 0.0395516 0.0395502 0.0395512 0.0395503 0.0395507 0.03955 0.0395948 0.0395857 0.0395802 0.0395751 0.0395719 0.0395695 0.0395673 0.0395663 0.0395655 0.0395641 0.039564 0.0395635 0.0395621 0.0395625 0.0395615 0.0395606 0.0395609 0.0395596 0.0395599 0.0395601 0.039559 0.0395583 0.0395585 0.0395583 0.039558 0.0395572 0.0395575 0.0395567 0.0395559 0.0395553 0.0395557 0.0395561 0.0395558 0.0395555 0.0395542 0.039555 0.0395545 0.0395542 0.0395543 0.0395528 0.0395529 0.0395542 0.0395524 0.0395541 0.0395513 0.0395532 0.0395515 0.0395529 0.0395514 0.0395519 0.0395519 0.0395515 0.0395509 0.039552 0.0395518 0.0395503 0.0395509 0.0395506 0.0395512 0.0395504 0.0395511 0.0395501 0.0395509 0.0395508 0.0395987 0.0395944 0.0395836 0.0395791 0.039576 0.0395734 0.0395715 0.0395703 0.0395691 0.0395678 0.0395668 0.0395655 0.0395661 0.0395657 0.0395639 0.0395636 0.0395636 0.0395626 0.0395621 0.039562 0.039561 0.039561 0.0395604 0.0395596 0.0395596 0.0395593 0.0395595 0.0395579 0.0395586 0.039557 0.0395572 0.0395569 0.0395562 0.0395568 0.0395548 0.0395555 0.039555 0.0395554 0.0395547 0.0395538 0.0395536 0.0395542 0.039553 0.0395532 0.0395524 0.0395534 0.0395527 0.0395531 0.0395522 0.039552 0.0395522 0.0395512 0.0395519 0.0395516 0.0395527 0.0395511 0.0395521 0.0395511 0.0395509 0.0395506 0.0395515 0.0395502 0.0395509 0.0395509 0.0396353 0.0395921 0.0395871 0.0395838 0.0395816 0.0395786 0.0395761 0.0395744 0.0395729 0.0395715 0.0395707 0.0395692 0.0395686 0.0395682 0.0395671 0.0395663 0.0395659 0.0395654 0.039565 0.0395637 0.0395641 0.0395628 0.0395626 0.0395622 0.0395614 0.0395609 0.0395606 0.0395592 0.039559 0.0395588 0.0395578 0.0395582 0.0395569 0.039557 0.0395571 0.0395567 0.0395561 0.0395554 0.0395554 0.0395551 0.0395549 0.0395546 0.0395548 0.0395532 0.039554 0.0395526 0.039553 0.0395529 0.0395521 0.0395521 0.0395533 0.0395517 0.0395526 0.0395507 0.0395516 0.0395512 0.0395514 0.039551 0.0395513 0.0395513 0.0395514 0.0395507 0.0395507 0.0395502 0.0394207 0.0394791 0.0394959 0.0395038 0.0395084 0.039512 0.0395141 0.0395169 0.0395186 0.03952 0.0395224 0.0395232 0.0395247 0.0395259 0.0395265 0.0395277 0.0395287 0.0395302 0.0395307 0.0395318 0.0395323 0.0395333 0.0395343 0.0395351 0.0395359 0.039537 0.0395368 0.039538 0.0395385 0.0395405 0.0395402 0.0395414 0.039541 0.0395426 0.039543 0.0395434 0.0395436 0.039544 0.039544 0.0395465 0.0395452 0.0395469 0.0395472 0.0395478 0.0395472 0.0395483 0.039549 0.0395484 0.0395495 0.0395496 0.0395496 0.0395495 0.0395497 0.0395498 0.0395504 0.0395513 0.0395505 0.0395513 0.039551 0.0395503 0.0395516 0.0395505 0.0395508 0.0395513 0.0394886 0.0394797 0.0394951 0.0395035 0.0395099 0.0395143 0.0395173 0.0395197 0.0395215 0.0395235 0.0395251 0.0395259 0.0395273 0.0395282 0.0395287 0.0395307 0.0395315 0.0395318 0.0395331 0.0395333 0.0395345 0.0395356 0.0395363 0.0395368 0.0395378 0.0395388 0.0395388 0.0395389 0.0395401 0.0395405 0.0395418 0.0395413 0.0395428 0.0395433 0.0395435 0.0395443 0.039545 0.0395448 0.0395456 0.0395462 0.0395462 0.0395462 0.0395475 0.0395471 0.0395475 0.0395481 0.0395494 0.0395481 0.0395488 0.0395493 0.0395499 0.0395507 0.0395494 0.0395502 0.0395495 0.0395511 0.0395506 0.0395505 0.0395509 0.0395504 0.0395514 0.0395511 0.0395508 0.0395515 0.0394966 0.0394988 0.0395011 0.0395078 0.0395137 0.0395171 0.0395202 0.0395226 0.0395243 0.0395261 0.0395275 0.0395284 0.0395297 0.0395312 0.0395314 0.0395326 0.0395338 0.0395339 0.039535 0.0395352 0.039536 0.0395378 0.0395378 0.0395384 0.039539 0.0395397 0.03954 0.0395403 0.0395409 0.0395422 0.0395427 0.0395418 0.0395439 0.0395433 0.0395451 0.0395442 0.039546 0.0395453 0.0395462 0.0395464 0.0395465 0.0395469 0.0395474 0.0395478 0.0395482 0.0395482 0.0395486 0.0395489 0.0395499 0.0395496 0.0395501 0.0395498 0.039549 0.03955 0.0395496 0.0395508 0.0395504 0.0395502 0.0395514 0.0395505 0.0395506 0.0395505 0.0395508 0.0395512 0.0395087 0.0395079 0.039511 0.0395146 0.0395183 0.0395212 0.0395239 0.0395258 0.0395278 0.0395293 0.0395309 0.0395316 0.0395319 0.0395337 0.0395339 0.0395348 0.0395359 0.0395356 0.0395372 0.0395374 0.0395381 0.0395391 0.0395396 0.0395394 0.0395402 0.0395408 0.0395418 0.039542 0.0395424 0.0395439 0.0395431 0.0395437 0.0395445 0.0395445 0.0395456 0.0395449 0.0395463 0.0395462 0.0395471 0.0395468 0.0395468 0.0395479 0.0395481 0.0395484 0.0395489 0.0395486 0.0395489 0.0395491 0.0395495 0.0395492 0.0395498 0.0395498 0.0395496 0.0395505 0.0395502 0.0395503 0.0395505 0.0395501 0.0395516 0.0395507 0.0395512 0.039551 0.0395514 0.0395507 0.0395182 0.0395179 0.039519 0.039521 0.0395237 0.0395259 0.0395281 0.0395299 0.0395312 0.0395321 0.0395335 0.0395349 0.0395348 0.0395363 0.0395367 0.0395373 0.0395383 0.039538 0.0395395 0.0395394 0.03954 0.0395406 0.0395412 0.0395421 0.039542 0.039542 0.0395432 0.0395438 0.0395436 0.0395444 0.0395438 0.0395453 0.0395452 0.0395457 0.0395457 0.0395463 0.0395462 0.0395467 0.0395473 0.0395473 0.0395477 0.0395477 0.039548 0.0395486 0.0395488 0.0395486 0.0395498 0.0395494 0.039549 0.0395496 0.0395504 0.0395499 0.0395506 0.0395498 0.0395508 0.0395504 0.0395503 0.0395503 0.0395509 0.0395507 0.0395506 0.0395512 0.0395513 0.0395518 0.0395278 0.0395267 0.0395272 0.039528 0.0395294 0.0395306 0.0395324 0.0395337 0.0395349 0.0395357 0.0395364 0.0395376 0.039538 0.0395387 0.0395392 0.0395399 0.0395409 0.0395405 0.0395412 0.0395416 0.0395419 0.0395426 0.0395429 0.0395441 0.0395433 0.039543 0.0395442 0.0395457 0.0395452 0.0395455 0.0395452 0.0395461 0.0395466 0.0395468 0.0395467 0.0395472 0.0395472 0.0395476 0.0395481 0.0395482 0.0395485 0.0395491 0.0395477 0.039549 0.0395486 0.039549 0.0395492 0.0395494 0.0395494 0.0395496 0.0395505 0.0395501 0.0395501 0.0395496 0.0395509 0.0395501 0.0395501 0.0395508 0.0395509 0.0395508 0.039551 0.0395512 0.0395512 0.0395518 0.0395369 0.0395353 0.0395349 0.0395351 0.0395354 0.0395362 0.039537 0.0395383 0.0395388 0.0395394 0.0395399 0.0395408 0.039541 0.0395412 0.0395418 0.0395422 0.0395432 0.0395428 0.0395435 0.0395442 0.0395439 0.0395445 0.0395442 0.0395451 0.0395453 0.039545 0.0395458 0.0395465 0.0395461 0.0395462 0.039547 0.0395469 0.0395476 0.0395476 0.0395478 0.0395477 0.0395482 0.0395485 0.0395486 0.0395482 0.0395486 0.0395493 0.0395483 0.0395498 0.0395491 0.0395503 0.0395494 0.0395494 0.0395501 0.0395499 0.0395501 0.0395507 0.0395493 0.0395501 0.0395512 0.0395512 0.0395506 0.0395506 0.039551 0.039551 0.0395515 0.0395504 0.0395509 0.0395526 0.0395456 0.0395436 0.0395422 0.0395415 0.0395416 0.0395418 0.039542 0.0395422 0.039542 0.039543 0.0395435 0.0395432 0.0395437 0.0395441 0.0395447 0.0395447 0.0395452 0.0395456 0.0395453 0.0395456 0.0395459 0.0395471 0.0395459 0.0395468 0.039547 0.0395472 0.0395479 0.0395473 0.039547 0.0395473 0.0395487 0.0395482 0.0395487 0.0395482 0.0395491 0.0395481 0.0395493 0.0395495 0.0395493 0.0395491 0.0395495 0.0395495 0.0395503 0.03955 0.0395492 0.03955 0.0395502 0.0395496 0.0395499 0.0395504 0.0395506 0.0395511 0.0395502 0.0395506 0.0395506 0.0395508 0.0395501 0.0395506 0.0395504 0.039551 0.039551 0.0395502 0.0395506 0.0395516 0.0395543 0.0395516 0.0395497 0.0395482 0.0395472 0.0395468 0.0395467 0.0395463 0.0395461 0.0395466 0.0395475 0.0395463 0.0395474 0.0395472 0.0395472 0.0395475 0.0395478 0.0395474 0.0395477 0.0395481 0.039548 0.0395484 0.0395483 0.0395485 0.0395488 0.0395488 0.0395498 0.0395495 0.0395491 0.0395486 0.0395493 0.0395498 0.0395493 0.0395495 0.0395496 0.0395494 0.0395504 0.0395495 0.0395498 0.0395503 0.0395502 0.0395502 0.0395502 0.0395502 0.0395501 0.0395505 0.0395507 0.0395502 0.03955 0.0395502 0.0395502 0.0395507 0.039551 0.039551 0.0395502 0.0395502 0.0395508 0.0395508 0.0395502 0.0395511 0.0395511 0.0395514 0.0395503 0.0395511 0.0395629 0.0395599 0.0395561 0.0395543 0.0395529 0.0395518 0.0395511 0.03955 0.0395493 0.0395509 0.0395505 0.0395496 0.0395502 0.0395502 0.0395502 0.03955 0.0395508 0.0395506 0.0395502 0.0395511 0.0395501 0.0395506 0.0395511 0.0395504 0.0395512 0.0395502 0.0395507 0.0395509 0.0395506 0.0395497 0.0395507 0.0395516 0.0395502 0.0395504 0.0395504 0.0395507 0.0395511 0.0395501 0.0395506 0.0395506 0.0395507 0.0395509 0.0395505 0.0395511 0.0395505 0.0395512 0.0395505 0.0395504 0.0395509 0.0395514 0.0395504 0.0395509 0.0395507 0.039551 0.0395505 0.0395507 0.0395514 0.0395512 0.0395507 0.0395507 0.0395513 0.0395507 0.03955 0.0395502 0.0395707 0.0395666 0.0395622 0.0395605 0.0395586 0.0395566 0.0395554 0.0395546 0.0395536 0.0395544 0.0395535 0.0395533 0.0395534 0.0395531 0.0395526 0.0395526 0.0395527 0.039553 0.0395522 0.039553 0.0395522 0.0395525 0.0395521 0.0395521 0.0395528 0.039552 0.0395523 0.0395528 0.0395521 0.0395512 0.039552 0.0395528 0.0395515 0.0395512 0.039552 0.0395512 0.039552 0.0395513 0.0395511 0.0395515 0.0395514 0.0395513 0.0395512 0.0395517 0.039551 0.0395511 0.0395514 0.0395511 0.0395512 0.0395513 0.039551 0.039551 0.0395509 0.0395503 0.039551 0.039551 0.0395513 0.039551 0.0395513 0.0395508 0.0395511 0.0395509 0.0395504 0.0395503 0.039579 0.0395741 0.0395686 0.0395654 0.0395627 0.0395611 0.0395596 0.0395585 0.0395576 0.0395575 0.039557 0.0395567 0.0395566 0.0395557 0.0395553 0.0395555 0.0395554 0.039555 0.0395551 0.0395551 0.0395542 0.0395546 0.039554 0.0395546 0.0395542 0.0395537 0.039554 0.0395532 0.0395534 0.0395528 0.0395537 0.0395532 0.0395529 0.0395525 0.039553 0.039552 0.0395527 0.0395522 0.0395519 0.039553 0.0395516 0.0395514 0.0395517 0.0395516 0.0395518 0.0395516 0.0395518 0.0395509 0.0395517 0.0395516 0.039551 0.0395516 0.0395517 0.039551 0.0395507 0.0395509 0.0395509 0.039551 0.0395507 0.0395514 0.0395507 0.0395508 0.03955 0.039551 0.0395863 0.0395802 0.0395742 0.0395711 0.039568 0.0395655 0.039564 0.0395625 0.0395617 0.0395609 0.0395606 0.03956 0.0395597 0.0395593 0.0395581 0.0395589 0.0395582 0.0395577 0.0395572 0.0395571 0.0395566 0.0395572 0.0395565 0.0395561 0.0395555 0.039556 0.039555 0.0395549 0.039555 0.039555 0.0395547 0.0395539 0.039554 0.0395539 0.0395537 0.0395533 0.0395534 0.0395524 0.0395536 0.0395534 0.0395526 0.0395526 0.0395522 0.0395525 0.0395518 0.0395527 0.0395518 0.0395514 0.0395523 0.0395519 0.0395514 0.0395519 0.039551 0.0395515 0.0395511 0.0395516 0.0395509 0.0395511 0.0395508 0.0395511 0.0395508 0.0395508 0.0395502 0.0395512 0.0395949 0.0395854 0.0395798 0.0395754 0.0395721 0.0395701 0.0395678 0.0395665 0.0395662 0.0395644 0.039564 0.039563 0.0395627 0.0395626 0.0395616 0.0395611 0.0395604 0.0395605 0.03956 0.0395597 0.0395585 0.0395591 0.0395585 0.039558 0.0395576 0.0395578 0.039557 0.0395569 0.0395564 0.0395561 0.0395561 0.039556 0.0395555 0.0395557 0.0395546 0.0395548 0.0395543 0.0395537 0.0395542 0.0395537 0.0395534 0.0395536 0.0395518 0.0395536 0.0395519 0.0395531 0.0395515 0.0395525 0.0395523 0.039552 0.039552 0.0395516 0.039551 0.0395518 0.0395507 0.0395509 0.0395515 0.039551 0.0395509 0.0395508 0.0395511 0.0395505 0.0395507 0.039551 0.0395987 0.0395942 0.0395832 0.0395786 0.0395763 0.039574 0.0395719 0.0395707 0.0395699 0.0395687 0.0395675 0.0395658 0.0395661 0.0395651 0.0395645 0.0395635 0.039563 0.0395628 0.0395624 0.0395623 0.0395607 0.0395609 0.0395598 0.0395599 0.03956 0.0395588 0.0395591 0.0395587 0.0395582 0.0395572 0.0395572 0.0395568 0.0395565 0.0395569 0.0395553 0.0395554 0.0395549 0.0395547 0.0395541 0.0395544 0.0395537 0.0395539 0.0395529 0.0395533 0.0395529 0.0395532 0.0395527 0.0395528 0.0395521 0.0395521 0.0395513 0.0395512 0.0395517 0.0395515 0.039552 0.0395509 0.0395523 0.0395508 0.0395499 0.0395511 0.0395515 0.0395501 0.039551 0.0395512 0.0396367 0.0395915 0.0395867 0.0395832 0.0395809 0.0395785 0.0395768 0.0395748 0.0395733 0.0395718 0.0395709 0.0395698 0.0395687 0.0395676 0.0395677 0.0395667 0.0395656 0.0395649 0.0395655 0.0395642 0.0395635 0.0395628 0.039562 0.0395621 0.0395612 0.0395614 0.0395606 0.0395593 0.0395598 0.0395588 0.039558 0.0395579 0.0395575 0.0395577 0.0395562 0.0395574 0.0395563 0.0395546 0.0395557 0.0395546 0.0395552 0.0395549 0.039554 0.0395532 0.0395548 0.0395528 0.0395529 0.0395521 0.0395531 0.0395528 0.0395528 0.0395514 0.0395519 0.0395521 0.0395521 0.039551 0.0395512 0.0395518 0.0395514 0.0395515 0.0395503 0.0395505 0.0395518 0.0395506 0.0394184 0.0394779 0.0394948 0.0395038 0.0395086 0.0395111 0.0395139 0.0395165 0.0395178 0.0395193 0.0395215 0.0395227 0.0395242 0.0395255 0.0395268 0.0395276 0.0395284 0.03953 0.0395299 0.0395319 0.0395321 0.0395336 0.0395346 0.0395346 0.0395361 0.0395368 0.0395373 0.0395384 0.0395382 0.0395395 0.0395398 0.0395411 0.0395411 0.0395423 0.0395431 0.0395436 0.0395436 0.0395452 0.0395446 0.0395462 0.0395456 0.0395465 0.0395464 0.0395479 0.0395479 0.0395484 0.0395482 0.0395476 0.0395499 0.0395493 0.0395497 0.039549 0.0395501 0.0395502 0.039551 0.0395508 0.0395499 0.0395504 0.0395518 0.0395515 0.0395507 0.0395509 0.0395511 0.039551 0.0394882 0.0394787 0.0394941 0.0395039 0.0395097 0.0395136 0.039517 0.0395189 0.039521 0.0395233 0.0395241 0.0395254 0.0395267 0.0395279 0.0395287 0.0395303 0.0395315 0.0395317 0.0395321 0.0395334 0.0395346 0.0395352 0.039536 0.039536 0.0395374 0.0395386 0.0395387 0.0395391 0.0395402 0.0395408 0.0395415 0.0395414 0.0395428 0.0395433 0.0395432 0.0395437 0.0395444 0.0395451 0.0395451 0.0395463 0.0395468 0.0395468 0.0395474 0.039547 0.0395477 0.0395483 0.0395491 0.0395482 0.0395493 0.0395489 0.0395497 0.0395502 0.03955 0.0395502 0.0395497 0.0395512 0.0395507 0.0395508 0.0395518 0.0395498 0.0395511 0.0395508 0.039551 0.0395514 0.0394961 0.0394984 0.0395005 0.0395077 0.039513 0.0395168 0.03952 0.0395219 0.0395242 0.039526 0.0395274 0.0395284 0.0395292 0.0395312 0.039531 0.0395325 0.0395337 0.0395336 0.039535 0.0395355 0.0395361 0.039537 0.0395377 0.0395379 0.0395389 0.0395399 0.0395398 0.0395405 0.0395411 0.0395422 0.0395419 0.0395422 0.0395437 0.0395437 0.0395443 0.0395443 0.0395452 0.0395459 0.0395463 0.0395461 0.0395468 0.0395474 0.0395475 0.0395477 0.0395477 0.0395481 0.0395483 0.0395489 0.0395499 0.0395489 0.0395506 0.0395497 0.0395496 0.0395504 0.03955 0.0395511 0.0395504 0.0395503 0.0395514 0.0395499 0.0395513 0.0395506 0.0395511 0.0395511 0.0395084 0.0395081 0.0395105 0.0395137 0.0395177 0.0395205 0.0395242 0.039526 0.0395273 0.0395292 0.0395306 0.0395308 0.0395318 0.0395342 0.0395336 0.0395352 0.0395357 0.0395353 0.0395376 0.0395373 0.0395379 0.0395388 0.0395391 0.0395397 0.0395406 0.039541 0.0395417 0.0395423 0.039542 0.0395437 0.0395432 0.0395443 0.0395445 0.0395443 0.0395451 0.0395452 0.0395462 0.0395463 0.0395468 0.0395466 0.0395473 0.0395479 0.0395483 0.0395478 0.0395481 0.039549 0.0395488 0.0395491 0.0395493 0.0395489 0.0395502 0.0395489 0.0395495 0.0395504 0.0395516 0.0395508 0.0395498 0.03955 0.039551 0.0395498 0.0395511 0.0395507 0.0395517 0.0395508 0.039518 0.0395183 0.0395192 0.0395209 0.0395235 0.0395256 0.0395281 0.0395299 0.0395304 0.0395322 0.0395334 0.0395339 0.0395348 0.0395365 0.0395363 0.0395366 0.0395382 0.0395378 0.0395393 0.0395396 0.0395395 0.0395408 0.039541 0.0395422 0.0395416 0.0395422 0.0395427 0.0395438 0.0395434 0.0395445 0.0395437 0.0395453 0.039545 0.0395452 0.0395462 0.0395466 0.0395465 0.0395466 0.0395473 0.0395478 0.039548 0.0395479 0.0395485 0.0395484 0.039549 0.0395486 0.0395494 0.03955 0.0395497 0.03955 0.0395503 0.0395493 0.0395505 0.0395498 0.0395521 0.0395502 0.0395503 0.0395512 0.0395502 0.0395505 0.0395507 0.0395514 0.0395512 0.0395512 0.0395276 0.039527 0.0395273 0.0395281 0.0395296 0.0395308 0.0395319 0.0395338 0.0395348 0.0395354 0.0395365 0.0395368 0.0395379 0.0395385 0.0395396 0.0395397 0.0395404 0.0395405 0.0395409 0.0395415 0.0395421 0.0395427 0.0395426 0.0395436 0.0395437 0.0395433 0.039544 0.0395451 0.039545 0.0395458 0.0395456 0.0395458 0.0395463 0.0395468 0.0395469 0.0395472 0.0395475 0.0395473 0.0395481 0.0395482 0.0395484 0.0395493 0.0395486 0.0395484 0.0395496 0.0395489 0.0395497 0.0395494 0.0395493 0.0395502 0.0395504 0.0395494 0.0395501 0.03955 0.0395517 0.0395493 0.03955 0.0395512 0.0395499 0.0395506 0.0395505 0.0395507 0.0395508 0.0395517 0.0395367 0.0395354 0.0395347 0.0395349 0.0395361 0.0395366 0.0395368 0.0395378 0.0395389 0.0395388 0.0395398 0.0395406 0.039541 0.0395412 0.0395421 0.0395427 0.0395427 0.0395425 0.0395435 0.0395443 0.0395445 0.0395441 0.0395444 0.039545 0.0395455 0.039545 0.0395461 0.0395466 0.0395462 0.0395467 0.0395472 0.0395463 0.0395471 0.0395481 0.0395479 0.0395477 0.0395484 0.0395483 0.0395487 0.0395486 0.0395482 0.0395495 0.0395493 0.0395491 0.0395499 0.0395493 0.0395498 0.0395501 0.03955 0.0395495 0.0395498 0.0395495 0.0395496 0.0395509 0.0395509 0.0395501 0.0395508 0.0395509 0.0395508 0.039551 0.0395513 0.0395504 0.0395505 0.0395519 0.0395457 0.0395438 0.0395423 0.0395414 0.0395419 0.0395419 0.0395416 0.0395417 0.0395423 0.0395431 0.0395429 0.0395436 0.0395438 0.0395446 0.0395448 0.0395449 0.039545 0.0395452 0.0395452 0.0395463 0.0395466 0.0395465 0.0395462 0.0395471 0.0395469 0.0395469 0.039548 0.0395477 0.0395475 0.0395481 0.0395487 0.0395475 0.039549 0.0395489 0.0395494 0.0395487 0.0395486 0.0395488 0.0395496 0.0395501 0.0395489 0.0395495 0.0395504 0.0395495 0.0395498 0.0395498 0.0395501 0.0395503 0.0395501 0.0395497 0.0395504 0.0395502 0.0395504 0.0395508 0.0395503 0.0395505 0.0395511 0.0395502 0.0395499 0.0395506 0.0395509 0.039551 0.0395506 0.0395509 0.0395542 0.0395514 0.0395499 0.0395484 0.0395469 0.0395466 0.0395465 0.0395462 0.0395459 0.0395466 0.0395467 0.0395467 0.0395472 0.0395476 0.0395473 0.0395478 0.0395476 0.0395477 0.0395475 0.0395481 0.0395486 0.0395484 0.0395485 0.0395483 0.0395486 0.0395484 0.0395493 0.0395489 0.0395493 0.0395489 0.0395497 0.0395495 0.03955 0.0395493 0.0395496 0.0395491 0.0395495 0.0395489 0.0395501 0.0395506 0.039549 0.03955 0.0395504 0.0395502 0.0395499 0.0395505 0.0395505 0.0395499 0.0395509 0.0395496 0.0395505 0.0395513 0.0395497 0.039551 0.0395503 0.0395507 0.0395508 0.0395505 0.0395501 0.0395501 0.0395507 0.0395512 0.0395502 0.0395503 0.0395624 0.0395594 0.0395568 0.0395539 0.039553 0.0395522 0.0395511 0.0395502 0.0395496 0.0395507 0.0395503 0.0395494 0.0395502 0.0395504 0.0395502 0.0395499 0.0395503 0.0395506 0.0395502 0.0395506 0.03955 0.0395502 0.0395504 0.0395503 0.0395515 0.0395507 0.0395505 0.0395502 0.0395504 0.0395505 0.039551 0.0395508 0.0395504 0.0395509 0.0395509 0.0395504 0.039551 0.0395499 0.0395511 0.0395511 0.0395505 0.0395508 0.0395506 0.0395509 0.0395506 0.039551 0.0395507 0.0395498 0.0395512 0.039551 0.0395503 0.0395516 0.0395496 0.0395513 0.0395501 0.0395511 0.0395504 0.0395513 0.0395512 0.0395504 0.0395502 0.0395509 0.0395497 0.0395499 0.0395705 0.0395666 0.0395629 0.0395598 0.0395588 0.0395569 0.0395555 0.0395544 0.039554 0.0395542 0.0395535 0.0395528 0.0395538 0.0395534 0.0395528 0.0395531 0.0395532 0.0395526 0.0395523 0.0395528 0.039552 0.0395527 0.039552 0.0395519 0.0395526 0.039552 0.0395523 0.0395523 0.0395515 0.039552 0.0395521 0.0395522 0.0395515 0.0395521 0.0395517 0.0395513 0.039552 0.0395515 0.0395511 0.0395518 0.0395509 0.0395514 0.0395509 0.0395513 0.0395512 0.0395517 0.039551 0.0395507 0.039552 0.0395505 0.0395506 0.0395512 0.0395502 0.0395505 0.0395512 0.0395513 0.0395497 0.0395511 0.0395511 0.0395505 0.0395503 0.0395513 0.0395509 0.03955 0.039579 0.0395739 0.0395689 0.0395648 0.0395627 0.0395614 0.0395598 0.039559 0.0395582 0.0395577 0.0395574 0.0395564 0.0395563 0.0395561 0.0395562 0.0395557 0.0395558 0.0395548 0.0395554 0.0395552 0.0395548 0.0395552 0.0395542 0.0395546 0.0395539 0.0395541 0.0395543 0.0395538 0.0395534 0.0395529 0.0395534 0.0395529 0.0395533 0.0395523 0.0395526 0.0395522 0.0395526 0.0395524 0.0395519 0.0395527 0.0395515 0.0395521 0.0395518 0.0395517 0.0395516 0.0395517 0.0395513 0.0395508 0.0395517 0.0395512 0.0395504 0.0395513 0.0395505 0.0395511 0.0395512 0.0395511 0.0395501 0.0395516 0.0395502 0.039551 0.0395503 0.0395509 0.0395508 0.0395496 0.0395868 0.0395803 0.0395745 0.0395708 0.0395679 0.0395663 0.0395639 0.0395629 0.0395619 0.0395612 0.0395603 0.0395595 0.0395595 0.0395589 0.0395579 0.0395585 0.0395579 0.0395572 0.0395573 0.0395571 0.0395571 0.0395572 0.039556 0.0395563 0.0395557 0.0395563 0.0395554 0.0395549 0.0395548 0.0395546 0.0395548 0.0395539 0.0395546 0.0395536 0.0395536 0.0395535 0.0395534 0.039553 0.0395533 0.0395536 0.0395524 0.0395528 0.0395517 0.0395524 0.0395525 0.0395526 0.0395517 0.0395515 0.0395518 0.0395519 0.0395502 0.0395509 0.0395502 0.0395518 0.039551 0.039551 0.0395508 0.0395519 0.0395501 0.0395511 0.0395508 0.0395508 0.0395511 0.0395507 0.0395956 0.0395856 0.0395799 0.0395754 0.0395718 0.0395697 0.039568 0.0395668 0.039566 0.0395647 0.0395635 0.0395632 0.0395627 0.0395627 0.0395611 0.039562 0.0395607 0.0395598 0.0395598 0.0395597 0.0395587 0.0395589 0.0395579 0.0395579 0.0395573 0.0395579 0.0395571 0.0395566 0.039556 0.0395559 0.039556 0.0395553 0.0395552 0.0395553 0.0395546 0.0395545 0.0395541 0.039554 0.0395538 0.039554 0.0395532 0.0395533 0.0395519 0.0395524 0.0395529 0.0395531 0.0395513 0.0395523 0.0395521 0.0395515 0.0395516 0.0395511 0.0395511 0.0395514 0.0395508 0.0395512 0.039551 0.0395509 0.039551 0.0395511 0.0395512 0.0395504 0.0395504 0.0395502 0.039599 0.0395942 0.0395825 0.0395788 0.0395762 0.039574 0.0395719 0.0395704 0.0395698 0.0395685 0.0395671 0.0395666 0.0395657 0.0395649 0.0395638 0.0395638 0.0395631 0.0395625 0.0395622 0.039562 0.0395614 0.0395606 0.0395601 0.0395595 0.0395595 0.0395591 0.0395583 0.0395581 0.0395578 0.0395572 0.039557 0.0395564 0.0395558 0.0395557 0.0395562 0.0395557 0.0395545 0.039555 0.0395545 0.0395548 0.0395537 0.0395544 0.0395533 0.039553 0.0395524 0.0395532 0.039552 0.039553 0.0395526 0.0395521 0.0395522 0.0395514 0.039552 0.0395508 0.0395518 0.0395512 0.0395509 0.0395508 0.0395499 0.0395513 0.0395515 0.03955 0.0395504 0.0395501 0.0396381 0.0395912 0.0395862 0.0395832 0.039581 0.039579 0.039577 0.0395747 0.0395732 0.0395719 0.0395704 0.0395696 0.0395691 0.039568 0.039567 0.039567 0.0395658 0.0395649 0.0395643 0.0395641 0.0395637 0.039563 0.0395618 0.0395617 0.0395613 0.0395606 0.0395601 0.0395595 0.0395595 0.0395591 0.0395584 0.0395574 0.0395573 0.0395571 0.0395573 0.0395563 0.039556 0.0395551 0.0395558 0.0395546 0.0395549 0.0395549 0.0395532 0.0395535 0.0395539 0.0395536 0.0395525 0.0395527 0.0395522 0.0395525 0.0395528 0.0395525 0.0395516 0.0395512 0.0395512 0.0395517 0.03955 0.0395522 0.0395511 0.0395508 0.03955 0.0395506 0.0395514 0.0395498 0.0394176 0.0394781 0.0394947 0.0395035 0.0395082 0.0395112 0.0395143 0.0395163 0.0395175 0.0395198 0.0395212 0.0395226 0.0395246 0.0395249 0.0395269 0.0395276 0.0395284 0.0395299 0.0395304 0.0395313 0.0395327 0.0395335 0.0395343 0.0395351 0.0395354 0.0395361 0.039537 0.0395388 0.0395389 0.0395398 0.0395401 0.039541 0.0395415 0.0395422 0.039543 0.0395433 0.0395436 0.0395444 0.0395458 0.0395452 0.0395468 0.0395462 0.0395471 0.0395473 0.0395475 0.0395475 0.0395481 0.0395482 0.0395505 0.0395498 0.0395502 0.0395492 0.0395507 0.0395504 0.0395509 0.0395511 0.0395504 0.0395509 0.0395516 0.0395517 0.0395503 0.0395519 0.0395518 0.0395512 0.0394878 0.0394788 0.0394939 0.0395036 0.0395091 0.0395137 0.0395166 0.0395184 0.039521 0.0395234 0.0395242 0.0395257 0.0395269 0.0395278 0.0395287 0.0395299 0.0395311 0.0395318 0.0395325 0.0395334 0.0395346 0.0395354 0.0395358 0.0395364 0.0395377 0.0395381 0.039539 0.0395394 0.0395402 0.0395413 0.0395414 0.0395423 0.0395422 0.0395432 0.039543 0.0395445 0.0395451 0.0395447 0.0395457 0.0395457 0.0395469 0.0395472 0.0395473 0.0395472 0.0395475 0.0395482 0.039549 0.0395492 0.0395494 0.0395493 0.0395495 0.0395492 0.0395503 0.0395503 0.0395506 0.0395509 0.0395507 0.0395506 0.0395515 0.0395506 0.0395503 0.0395512 0.0395504 0.0395512 0.0394956 0.0394984 0.0395008 0.0395077 0.0395126 0.0395169 0.0395201 0.0395219 0.0395242 0.0395256 0.0395272 0.0395284 0.0395291 0.0395313 0.0395314 0.0395321 0.0395331 0.0395333 0.0395344 0.039536 0.0395361 0.0395373 0.0395377 0.039538 0.0395392 0.0395394 0.0395405 0.0395404 0.0395411 0.0395425 0.0395416 0.0395429 0.0395435 0.039544 0.0395441 0.0395449 0.0395456 0.0395455 0.039547 0.0395459 0.0395468 0.0395475 0.0395469 0.0395477 0.0395481 0.0395486 0.0395483 0.0395488 0.0395496 0.0395491 0.0395503 0.0395493 0.0395495 0.0395501 0.0395507 0.0395512 0.0395504 0.0395508 0.0395512 0.0395499 0.039551 0.0395509 0.0395509 0.0395514 0.0395082 0.0395079 0.0395108 0.0395139 0.0395177 0.0395206 0.0395237 0.0395254 0.0395273 0.0395291 0.0395306 0.0395306 0.0395319 0.0395339 0.0395337 0.0395353 0.0395354 0.0395359 0.0395367 0.0395379 0.039538 0.0395389 0.0395387 0.0395401 0.0395409 0.0395412 0.0395415 0.0395413 0.039542 0.0395437 0.0395427 0.0395439 0.0395449 0.0395448 0.0395456 0.0395451 0.0395463 0.0395456 0.0395467 0.0395473 0.0395468 0.0395472 0.0395481 0.0395477 0.0395486 0.0395491 0.0395481 0.0395491 0.0395501 0.0395495 0.0395497 0.0395503 0.0395492 0.0395501 0.0395506 0.0395511 0.0395495 0.0395512 0.0395509 0.0395505 0.0395508 0.0395503 0.039552 0.0395517 0.0395179 0.0395177 0.0395189 0.039521 0.0395237 0.0395257 0.0395279 0.0395295 0.0395308 0.0395326 0.0395331 0.0395334 0.0395345 0.0395366 0.0395363 0.0395365 0.0395381 0.0395388 0.0395389 0.0395394 0.0395397 0.0395409 0.0395406 0.0395422 0.0395421 0.0395429 0.0395426 0.039543 0.0395436 0.0395445 0.0395442 0.0395449 0.0395449 0.0395456 0.0395463 0.0395464 0.0395468 0.0395461 0.0395472 0.0395485 0.0395474 0.0395469 0.039549 0.0395483 0.0395496 0.0395488 0.0395484 0.0395494 0.0395499 0.0395498 0.0395494 0.0395501 0.03955 0.0395493 0.0395509 0.0395499 0.03955 0.0395526 0.0395505 0.039551 0.0395502 0.0395513 0.0395507 0.03955 0.0395274 0.0395267 0.0395271 0.0395282 0.0395298 0.0395306 0.0395321 0.0395339 0.0395344 0.0395353 0.0395368 0.039537 0.0395377 0.0395387 0.0395391 0.0395394 0.0395407 0.0395408 0.0395412 0.0395409 0.039542 0.0395432 0.0395424 0.0395437 0.0395435 0.0395441 0.0395447 0.0395446 0.0395449 0.0395457 0.0395462 0.0395466 0.0395465 0.0395464 0.0395473 0.0395474 0.0395468 0.0395466 0.0395485 0.0395484 0.0395483 0.0395483 0.0395493 0.0395483 0.0395498 0.0395487 0.0395501 0.0395494 0.0395499 0.0395494 0.0395504 0.0395497 0.0395507 0.0395497 0.0395516 0.0395501 0.0395495 0.0395514 0.0395507 0.0395507 0.0395501 0.0395512 0.0395502 0.0395504 0.0395368 0.0395352 0.0395347 0.0395347 0.0395357 0.039536 0.0395368 0.0395375 0.0395384 0.0395387 0.0395401 0.0395406 0.0395406 0.0395414 0.0395421 0.0395422 0.0395429 0.0395427 0.0395433 0.0395438 0.0395442 0.039544 0.0395443 0.039545 0.039545 0.0395455 0.0395456 0.0395465 0.0395458 0.0395471 0.0395471 0.0395472 0.0395473 0.0395469 0.0395481 0.0395478 0.039548 0.0395483 0.0395484 0.0395485 0.0395489 0.0395492 0.0395498 0.0395482 0.0395498 0.0395489 0.0395507 0.0395496 0.0395504 0.0395492 0.0395506 0.0395501 0.0395507 0.0395506 0.0395506 0.0395503 0.0395503 0.0395505 0.0395508 0.0395509 0.0395512 0.0395507 0.0395504 0.0395512 0.0395452 0.039543 0.0395426 0.0395411 0.0395415 0.0395412 0.0395417 0.0395417 0.0395423 0.0395432 0.0395434 0.0395436 0.0395429 0.0395442 0.0395444 0.0395448 0.0395449 0.0395454 0.0395451 0.0395463 0.0395462 0.0395463 0.0395463 0.0395466 0.0395471 0.0395476 0.0395477 0.0395479 0.0395476 0.0395478 0.0395484 0.0395479 0.0395485 0.0395481 0.0395487 0.0395483 0.0395493 0.0395488 0.0395491 0.0395499 0.0395491 0.0395494 0.0395503 0.039549 0.0395503 0.0395492 0.0395507 0.0395503 0.0395503 0.0395499 0.0395511 0.0395502 0.0395504 0.0395509 0.0395498 0.0395509 0.0395509 0.0395503 0.0395507 0.0395511 0.0395511 0.0395502 0.0395506 0.0395506 0.0395541 0.039551 0.0395499 0.0395484 0.0395465 0.0395464 0.0395469 0.0395463 0.039546 0.039547 0.0395471 0.0395465 0.0395468 0.0395474 0.0395468 0.0395481 0.0395474 0.0395481 0.039548 0.0395483 0.0395486 0.0395482 0.0395482 0.0395484 0.0395488 0.0395487 0.0395491 0.039549 0.0395497 0.0395489 0.0395496 0.0395489 0.0395496 0.0395493 0.0395496 0.0395498 0.0395499 0.0395494 0.039549 0.0395503 0.0395491 0.0395502 0.0395502 0.0395501 0.0395505 0.0395496 0.0395512 0.0395501 0.0395508 0.0395506 0.0395509 0.039551 0.0395497 0.0395512 0.03955 0.0395516 0.0395502 0.0395505 0.0395515 0.0395509 0.0395502 0.0395505 0.0395504 0.0395507 0.0395625 0.0395587 0.0395568 0.0395542 0.0395528 0.039552 0.0395513 0.0395505 0.03955 0.0395506 0.039551 0.0395495 0.0395499 0.0395504 0.0395502 0.0395501 0.0395498 0.0395501 0.0395505 0.039551 0.0395504 0.0395504 0.0395502 0.0395503 0.0395511 0.0395504 0.0395506 0.0395504 0.0395506 0.0395508 0.0395504 0.0395504 0.0395506 0.0395512 0.0395507 0.0395507 0.0395507 0.0395503 0.0395507 0.0395512 0.039551 0.0395509 0.0395505 0.0395503 0.0395513 0.0395505 0.0395516 0.0395497 0.0395511 0.0395506 0.0395509 0.0395513 0.0395497 0.0395513 0.0395501 0.0395513 0.0395497 0.0395505 0.0395511 0.0395511 0.0395507 0.0395508 0.0395507 0.0395513 0.0395707 0.0395664 0.0395632 0.03956 0.0395589 0.0395565 0.0395559 0.0395544 0.0395537 0.0395543 0.0395541 0.039553 0.0395532 0.0395535 0.0395525 0.0395529 0.0395531 0.0395528 0.0395526 0.0395527 0.0395523 0.0395525 0.0395519 0.0395526 0.0395522 0.0395518 0.0395525 0.039552 0.0395514 0.0395529 0.0395519 0.0395519 0.0395518 0.0395519 0.0395516 0.0395519 0.0395519 0.0395515 0.039552 0.0395512 0.0395512 0.0395509 0.0395516 0.0395508 0.0395514 0.0395519 0.039551 0.0395503 0.0395513 0.0395506 0.0395511 0.0395515 0.0395502 0.0395509 0.0395512 0.0395508 0.0395491 0.0395513 0.0395509 0.0395508 0.0395512 0.0395508 0.0395508 0.0395507 0.0395793 0.0395735 0.0395689 0.0395661 0.0395627 0.0395611 0.0395602 0.0395589 0.0395577 0.0395579 0.0395579 0.039557 0.0395565 0.039556 0.0395557 0.0395555 0.0395562 0.0395555 0.0395552 0.0395546 0.0395544 0.0395546 0.0395536 0.0395546 0.0395542 0.0395539 0.0395536 0.0395538 0.0395529 0.0395532 0.0395532 0.0395523 0.0395537 0.0395527 0.0395524 0.0395522 0.039552 0.0395521 0.0395525 0.0395519 0.0395521 0.0395511 0.0395521 0.0395519 0.0395518 0.0395521 0.0395506 0.0395515 0.0395513 0.0395516 0.0395511 0.0395524 0.0395507 0.0395516 0.0395513 0.0395511 0.0395504 0.0395516 0.039551 0.0395505 0.0395508 0.039551 0.039551 0.0395507 0.0395869 0.0395801 0.0395745 0.0395709 0.0395677 0.039566 0.0395638 0.0395633 0.0395617 0.0395614 0.0395605 0.0395606 0.03956 0.0395583 0.0395585 0.0395584 0.039558 0.0395576 0.0395572 0.039557 0.039557 0.0395567 0.0395559 0.0395565 0.0395563 0.0395557 0.0395548 0.0395554 0.0395547 0.0395544 0.0395548 0.0395543 0.0395542 0.0395541 0.039553 0.0395534 0.039553 0.0395534 0.0395532 0.039553 0.0395531 0.0395523 0.0395525 0.039552 0.0395523 0.0395524 0.0395516 0.039552 0.0395521 0.0395517 0.0395513 0.0395518 0.0395512 0.0395519 0.0395513 0.0395507 0.039551 0.0395511 0.0395504 0.0395509 0.0395507 0.0395512 0.0395509 0.0395517 0.0395955 0.0395857 0.0395803 0.0395749 0.0395724 0.0395698 0.0395682 0.0395669 0.0395658 0.0395653 0.0395636 0.039564 0.0395623 0.0395619 0.0395614 0.0395615 0.0395608 0.0395595 0.03956 0.0395601 0.0395591 0.0395585 0.0395578 0.0395584 0.0395576 0.0395577 0.0395563 0.0395568 0.0395569 0.0395557 0.0395561 0.039556 0.0395544 0.0395556 0.0395546 0.0395548 0.0395544 0.0395542 0.0395533 0.0395531 0.0395537 0.0395535 0.0395535 0.0395522 0.0395527 0.0395523 0.0395517 0.0395524 0.0395518 0.0395508 0.0395523 0.0395512 0.0395518 0.0395512 0.0395516 0.0395513 0.0395516 0.0395505 0.0395507 0.0395517 0.0395506 0.0395506 0.0395504 0.0395501 0.0395994 0.0395947 0.0395828 0.0395789 0.0395761 0.0395744 0.0395723 0.0395708 0.0395693 0.0395683 0.0395673 0.0395669 0.0395654 0.0395651 0.0395642 0.0395634 0.0395636 0.0395625 0.0395623 0.0395623 0.0395612 0.0395607 0.0395599 0.0395604 0.0395598 0.0395597 0.0395579 0.039558 0.0395585 0.0395574 0.0395571 0.0395567 0.0395556 0.039556 0.039556 0.0395556 0.0395544 0.0395554 0.0395547 0.0395543 0.0395533 0.0395541 0.039554 0.0395533 0.0395534 0.0395531 0.0395519 0.039553 0.0395522 0.0395517 0.0395521 0.0395511 0.0395521 0.0395508 0.0395515 0.039552 0.0395511 0.0395506 0.0395515 0.0395513 0.0395507 0.0395507 0.0395507 0.0395502 0.039639 0.0395909 0.0395851 0.0395832 0.0395811 0.0395788 0.0395768 0.0395751 0.0395733 0.0395724 0.0395709 0.0395697 0.0395687 0.0395684 0.0395674 0.0395663 0.0395662 0.0395647 0.0395644 0.0395638 0.0395632 0.0395628 0.0395618 0.0395618 0.0395616 0.0395604 0.0395606 0.0395593 0.0395596 0.0395593 0.0395583 0.0395589 0.0395571 0.0395565 0.0395577 0.0395568 0.0395556 0.0395553 0.0395546 0.0395547 0.0395548 0.0395547 0.0395536 0.0395535 0.0395539 0.0395528 0.0395521 0.0395532 0.0395518 0.0395529 0.0395514 0.0395526 0.039552 0.0395508 0.0395515 0.0395519 0.0395511 0.039552 0.0395514 0.0395513 0.0395508 0.039552 0.0395516 0.0395505 0.0394178 0.0394782 0.039495 0.0395045 0.0395087 0.0395116 0.0395146 0.0395161 0.0395179 0.0395199 0.0395206 0.0395228 0.0395246 0.039525 0.039527 0.0395272 0.0395284 0.0395298 0.0395302 0.0395314 0.0395326 0.0395337 0.0395341 0.0395355 0.0395357 0.0395367 0.0395374 0.0395387 0.0395382 0.0395408 0.0395405 0.0395406 0.0395421 0.0395421 0.0395425 0.0395434 0.0395442 0.0395449 0.0395458 0.0395456 0.0395459 0.0395457 0.0395471 0.0395477 0.0395472 0.0395481 0.039548 0.0395492 0.0395494 0.0395483 0.0395497 0.0395497 0.0395509 0.0395504 0.03955 0.0395515 0.0395512 0.039551 0.0395507 0.0395521 0.0395503 0.0395508 0.0395514 0.0395509 0.0394877 0.039479 0.0394947 0.039504 0.0395094 0.0395132 0.039517 0.0395189 0.0395209 0.0395232 0.0395242 0.0395255 0.0395266 0.0395273 0.0395292 0.0395303 0.0395309 0.0395319 0.0395323 0.0395337 0.0395339 0.0395353 0.0395362 0.0395366 0.0395377 0.0395382 0.039539 0.0395391 0.0395396 0.039541 0.0395414 0.0395421 0.039542 0.0395435 0.0395433 0.0395439 0.0395448 0.0395452 0.0395459 0.0395454 0.0395459 0.0395468 0.0395474 0.0395477 0.0395478 0.0395483 0.0395489 0.0395493 0.0395488 0.0395487 0.0395499 0.039549 0.0395509 0.0395501 0.0395507 0.0395498 0.0395501 0.0395508 0.039551 0.0395522 0.0395503 0.0395513 0.0395505 0.0395518 0.0394955 0.0394986 0.039501 0.039508 0.039513 0.0395164 0.0395202 0.0395222 0.0395242 0.0395259 0.0395272 0.0395284 0.0395292 0.0395306 0.0395313 0.0395321 0.0395334 0.0395338 0.039534 0.0395356 0.0395355 0.0395369 0.0395377 0.0395384 0.0395388 0.0395393 0.0395405 0.0395408 0.0395408 0.0395416 0.0395421 0.0395429 0.0395436 0.0395436 0.0395441 0.0395446 0.0395456 0.039545 0.0395465 0.0395459 0.0395464 0.0395473 0.0395474 0.0395473 0.0395486 0.0395487 0.0395488 0.0395496 0.0395485 0.039549 0.0395499 0.0395495 0.0395502 0.03955 0.0395512 0.0395509 0.0395503 0.0395503 0.0395512 0.0395507 0.0395509 0.0395506 0.0395509 0.0395514 0.0395084 0.0395079 0.0395104 0.0395139 0.0395177 0.0395208 0.0395238 0.0395256 0.0395273 0.0395294 0.0395302 0.0395313 0.0395318 0.0395337 0.0395341 0.0395349 0.0395355 0.0395361 0.0395367 0.0395378 0.0395379 0.0395387 0.0395388 0.0395406 0.0395401 0.0395407 0.0395418 0.0395418 0.0395425 0.0395432 0.0395434 0.039544 0.0395447 0.0395441 0.0395452 0.0395456 0.0395464 0.0395456 0.0395472 0.0395476 0.0395464 0.0395473 0.0395482 0.0395477 0.0395478 0.0395489 0.0395488 0.0395493 0.0395492 0.0395499 0.039549 0.0395511 0.0395497 0.0395504 0.0395504 0.0395508 0.0395501 0.03955 0.0395507 0.0395511 0.0395511 0.0395502 0.0395516 0.0395513 0.039518 0.0395176 0.039519 0.0395211 0.0395235 0.0395253 0.0395277 0.0395293 0.0395306 0.0395325 0.0395333 0.0395338 0.0395349 0.0395361 0.0395366 0.0395372 0.0395377 0.0395389 0.0395393 0.0395394 0.03954 0.0395405 0.0395404 0.0395421 0.039542 0.0395421 0.0395428 0.0395428 0.039544 0.0395443 0.0395445 0.0395447 0.0395451 0.039545 0.0395464 0.0395465 0.039547 0.0395465 0.0395466 0.0395486 0.0395477 0.0395474 0.0395487 0.0395485 0.0395484 0.0395492 0.0395488 0.039549 0.0395497 0.03955 0.0395496 0.0395507 0.0395496 0.0395507 0.0395505 0.0395504 0.0395498 0.0395509 0.0395511 0.0395511 0.0395501 0.039551 0.0395505 0.0395513 0.0395273 0.0395266 0.0395272 0.0395283 0.0395297 0.0395304 0.0395324 0.0395339 0.039534 0.0395354 0.039537 0.0395368 0.0395381 0.0395387 0.0395389 0.0395396 0.0395403 0.039541 0.0395415 0.0395411 0.0395417 0.0395427 0.0395425 0.0395439 0.0395439 0.0395441 0.0395446 0.0395444 0.0395451 0.0395455 0.0395455 0.0395457 0.0395468 0.0395461 0.0395477 0.0395473 0.0395468 0.039548 0.0395476 0.0395487 0.0395489 0.039548 0.0395482 0.0395486 0.0395494 0.0395492 0.0395501 0.0395491 0.03955 0.0395493 0.0395505 0.0395498 0.0395498 0.0395501 0.0395505 0.0395515 0.0395503 0.0395499 0.0395507 0.0395508 0.0395497 0.0395512 0.0395499 0.0395513 0.0395367 0.0395355 0.0395347 0.039535 0.0395358 0.0395361 0.0395371 0.0395378 0.0395382 0.0395386 0.0395401 0.0395404 0.0395408 0.0395416 0.0395422 0.0395418 0.0395426 0.039543 0.0395437 0.0395435 0.039544 0.0395449 0.0395448 0.0395452 0.039545 0.0395462 0.0395462 0.0395462 0.0395464 0.0395469 0.0395464 0.039547 0.039548 0.0395471 0.0395484 0.0395476 0.039548 0.0395491 0.0395484 0.039549 0.0395492 0.0395489 0.0395489 0.0395491 0.0395494 0.0395491 0.0395508 0.039549 0.0395501 0.0395489 0.0395506 0.0395496 0.03955 0.0395503 0.0395503 0.0395516 0.039551 0.0395504 0.0395503 0.0395509 0.0395502 0.0395512 0.0395512 0.0395521 0.0395452 0.0395434 0.0395427 0.0395411 0.0395416 0.0395413 0.0395418 0.039542 0.0395426 0.0395428 0.0395436 0.0395436 0.0395434 0.0395447 0.0395444 0.0395448 0.0395447 0.0395454 0.0395452 0.0395458 0.0395461 0.0395464 0.0395472 0.0395472 0.0395472 0.0395476 0.0395475 0.0395478 0.0395473 0.039548 0.0395476 0.0395479 0.0395485 0.0395479 0.039549 0.0395485 0.0395493 0.039549 0.0395485 0.0395501 0.0395491 0.0395497 0.0395492 0.0395496 0.0395499 0.0395494 0.0395505 0.0395499 0.0395495 0.0395499 0.0395508 0.0395498 0.0395507 0.0395511 0.0395502 0.0395513 0.039551 0.0395506 0.0395506 0.039551 0.039551 0.0395505 0.0395507 0.0395508 0.0395541 0.0395516 0.0395496 0.0395479 0.0395473 0.0395467 0.0395463 0.0395457 0.0395466 0.0395464 0.0395467 0.0395466 0.0395472 0.0395477 0.0395465 0.0395479 0.0395477 0.0395479 0.0395482 0.0395482 0.0395483 0.0395478 0.0395484 0.0395488 0.0395493 0.0395492 0.0395487 0.0395493 0.0395492 0.0395488 0.0395492 0.0395496 0.0395498 0.0395496 0.0395498 0.03955 0.0395501 0.0395496 0.0395492 0.0395506 0.0395498 0.0395506 0.0395496 0.0395506 0.03955 0.0395497 0.0395511 0.0395509 0.0395496 0.0395508 0.0395506 0.0395507 0.0395501 0.0395509 0.0395503 0.0395514 0.0395504 0.0395508 0.0395507 0.039551 0.0395509 0.0395505 0.0395503 0.0395507 0.0395627 0.0395589 0.0395561 0.0395541 0.0395528 0.0395521 0.0395509 0.0395502 0.03955 0.0395502 0.0395502 0.0395499 0.0395511 0.0395503 0.0395501 0.0395501 0.0395503 0.03955 0.0395507 0.0395506 0.0395505 0.0395507 0.0395505 0.0395506 0.0395509 0.0395505 0.0395507 0.0395507 0.03955 0.03955 0.0395506 0.0395509 0.0395505 0.0395506 0.0395502 0.0395506 0.0395508 0.0395505 0.0395509 0.0395507 0.0395512 0.0395507 0.0395508 0.0395498 0.0395506 0.0395506 0.0395513 0.039551 0.0395505 0.0395504 0.039551 0.0395511 0.0395498 0.0395509 0.0395508 0.0395506 0.0395509 0.0395505 0.0395502 0.0395509 0.039551 0.0395501 0.0395508 0.0395509 0.0395707 0.0395664 0.039563 0.0395595 0.0395582 0.039557 0.0395558 0.0395544 0.0395537 0.039554 0.039554 0.0395535 0.0395535 0.0395535 0.0395532 0.0395528 0.0395527 0.0395524 0.0395528 0.0395527 0.0395528 0.0395528 0.0395521 0.0395525 0.0395521 0.0395518 0.0395527 0.0395525 0.0395516 0.0395525 0.0395528 0.0395518 0.0395517 0.0395519 0.0395515 0.0395517 0.039552 0.0395511 0.039552 0.0395514 0.0395518 0.039551 0.0395516 0.0395511 0.0395517 0.0395509 0.0395509 0.0395512 0.0395508 0.0395507 0.0395509 0.039551 0.0395512 0.0395508 0.0395504 0.0395502 0.0395508 0.0395509 0.0395509 0.0395508 0.0395515 0.03955 0.0395507 0.0395499 0.0395792 0.039573 0.0395691 0.039566 0.039563 0.0395613 0.0395597 0.0395589 0.0395581 0.039558 0.0395576 0.0395567 0.0395561 0.0395559 0.0395556 0.0395551 0.0395557 0.0395552 0.0395552 0.0395546 0.0395546 0.0395548 0.0395537 0.0395547 0.0395541 0.0395533 0.0395537 0.0395541 0.0395533 0.0395532 0.0395538 0.0395526 0.0395532 0.0395534 0.0395525 0.0395531 0.0395522 0.0395523 0.0395525 0.039552 0.0395526 0.0395517 0.0395517 0.0395516 0.0395523 0.0395517 0.0395517 0.0395515 0.0395518 0.0395513 0.0395506 0.0395515 0.0395513 0.0395508 0.0395514 0.0395513 0.0395509 0.0395512 0.0395516 0.0395508 0.0395516 0.0395505 0.0395505 0.0395496 0.0395868 0.0395798 0.0395744 0.0395707 0.0395676 0.0395653 0.039564 0.0395631 0.0395613 0.0395615 0.0395606 0.0395603 0.0395596 0.0395589 0.0395591 0.0395583 0.0395583 0.0395583 0.0395573 0.039557 0.0395566 0.0395569 0.0395563 0.0395569 0.039556 0.0395553 0.0395551 0.0395559 0.0395554 0.0395548 0.0395548 0.0395542 0.0395535 0.0395546 0.0395529 0.0395541 0.0395525 0.0395535 0.0395536 0.0395528 0.039553 0.0395524 0.0395525 0.0395517 0.0395521 0.0395523 0.0395525 0.0395519 0.0395522 0.0395511 0.0395515 0.0395519 0.039551 0.0395506 0.039552 0.0395505 0.039551 0.0395504 0.0395505 0.0395511 0.0395508 0.0395512 0.03955 0.0395507 0.0395952 0.0395846 0.0395795 0.0395749 0.0395722 0.0395693 0.0395684 0.0395674 0.0395652 0.0395651 0.0395641 0.039564 0.0395628 0.0395621 0.0395615 0.0395613 0.0395607 0.0395605 0.0395598 0.0395595 0.0395587 0.0395587 0.0395582 0.0395586 0.0395577 0.0395571 0.0395567 0.0395567 0.0395567 0.039556 0.0395562 0.0395558 0.0395546 0.0395553 0.0395542 0.0395549 0.0395543 0.039554 0.0395542 0.0395531 0.0395535 0.0395531 0.0395532 0.0395525 0.0395528 0.0395521 0.0395522 0.0395523 0.0395512 0.0395514 0.0395523 0.0395519 0.0395518 0.0395505 0.039551 0.0395503 0.0395521 0.0395506 0.0395507 0.0395512 0.0395503 0.0395513 0.0395503 0.0395499 0.0395991 0.0395941 0.0395821 0.0395783 0.0395758 0.0395741 0.0395721 0.039571 0.0395694 0.0395679 0.0395672 0.0395667 0.0395656 0.0395646 0.0395646 0.0395639 0.039563 0.0395625 0.0395625 0.0395619 0.0395615 0.0395611 0.0395599 0.0395601 0.0395597 0.0395591 0.0395583 0.0395579 0.0395581 0.0395563 0.0395573 0.0395572 0.0395561 0.0395555 0.0395556 0.0395546 0.0395548 0.039555 0.0395551 0.0395542 0.0395534 0.0395538 0.0395534 0.0395527 0.0395539 0.0395524 0.0395525 0.0395531 0.0395513 0.0395526 0.039552 0.0395517 0.0395516 0.0395513 0.0395509 0.0395514 0.0395519 0.0395506 0.0395515 0.03955 0.0395499 0.0395509 0.0395512 0.0395505 0.0396388 0.0395904 0.0395852 0.0395825 0.0395805 0.0395783 0.0395763 0.0395744 0.0395729 0.0395718 0.0395705 0.0395701 0.0395689 0.0395679 0.0395671 0.0395661 0.0395657 0.0395649 0.0395649 0.039564 0.0395636 0.0395633 0.0395618 0.0395611 0.0395613 0.0395606 0.0395607 0.0395589 0.0395602 0.0395587 0.0395582 0.0395579 0.0395574 0.0395562 0.0395567 0.0395564 0.0395557 0.0395557 0.0395546 0.0395545 0.0395553 0.0395542 0.039554 0.0395536 0.0395542 0.0395525 0.0395532 0.0395534 0.0395513 0.039553 0.0395512 0.0395514 0.0395514 0.0395514 0.0395516 0.0395518 0.0395518 0.0395509 0.039551 0.0395511 0.0395509 0.0395508 0.0395509 0.0395512 0.0394187 0.0394789 0.039496 0.0395052 0.0395093 0.0395123 0.039515 0.0395164 0.0395185 0.03952 0.0395209 0.0395226 0.0395244 0.0395251 0.0395265 0.0395274 0.0395286 0.03953 0.0395309 0.0395318 0.0395324 0.0395331 0.0395343 0.0395345 0.0395366 0.0395366 0.0395369 0.0395384 0.0395384 0.0395404 0.03954 0.0395409 0.0395415 0.0395428 0.0395425 0.0395431 0.0395445 0.0395445 0.0395439 0.0395461 0.039546 0.0395463 0.0395469 0.0395473 0.0395467 0.0395486 0.0395477 0.0395486 0.0395492 0.0395489 0.0395494 0.0395503 0.0395498 0.0395501 0.0395498 0.0395517 0.0395513 0.0395503 0.0395501 0.0395516 0.0395506 0.0395503 0.0395506 0.0395511 0.0394881 0.0394794 0.0394952 0.039504 0.0395098 0.0395142 0.0395176 0.0395195 0.0395213 0.0395233 0.0395244 0.0395255 0.0395271 0.0395275 0.0395293 0.0395301 0.0395308 0.0395321 0.0395324 0.0395338 0.0395342 0.0395351 0.039536 0.0395365 0.0395376 0.0395378 0.0395384 0.0395398 0.0395402 0.0395407 0.0395413 0.0395422 0.0395418 0.0395436 0.039544 0.039544 0.0395439 0.0395457 0.0395451 0.0395458 0.0395467 0.0395471 0.0395464 0.0395472 0.0395484 0.0395479 0.0395486 0.0395485 0.0395492 0.0395495 0.0395495 0.0395498 0.0395498 0.0395502 0.0395499 0.0395501 0.0395505 0.0395508 0.0395507 0.0395514 0.0395515 0.039551 0.0395503 0.039551 0.0394961 0.0394991 0.0395016 0.0395084 0.0395135 0.039517 0.03952 0.0395221 0.0395242 0.0395259 0.0395271 0.0395284 0.0395293 0.0395304 0.0395315 0.039532 0.0395332 0.0395338 0.0395346 0.0395359 0.0395361 0.0395369 0.0395377 0.0395384 0.0395388 0.0395396 0.0395399 0.0395412 0.0395413 0.0395414 0.0395421 0.0395432 0.0395432 0.0395436 0.0395443 0.0395447 0.0395453 0.0395458 0.0395461 0.0395468 0.0395465 0.0395473 0.0395475 0.0395475 0.0395484 0.039548 0.0395494 0.0395491 0.0395487 0.0395499 0.0395494 0.0395494 0.0395497 0.0395503 0.0395507 0.0395511 0.039551 0.0395505 0.0395517 0.0395504 0.0395511 0.0395508 0.0395506 0.0395508 0.0395086 0.0395084 0.039511 0.0395147 0.0395179 0.0395215 0.0395235 0.039526 0.0395275 0.0395291 0.0395299 0.0395313 0.0395316 0.0395332 0.0395341 0.0395343 0.0395354 0.0395358 0.039537 0.0395376 0.0395376 0.0395384 0.0395396 0.0395403 0.0395403 0.0395406 0.0395415 0.0395421 0.0395422 0.0395425 0.0395436 0.0395441 0.0395446 0.0395443 0.0395449 0.0395459 0.0395457 0.0395462 0.0395469 0.0395477 0.0395469 0.0395474 0.0395483 0.0395486 0.0395476 0.0395485 0.039549 0.0395491 0.0395491 0.0395501 0.0395492 0.0395499 0.0395495 0.0395505 0.0395505 0.0395508 0.0395506 0.0395504 0.0395515 0.0395508 0.0395511 0.0395506 0.0395513 0.0395513 0.0395183 0.0395181 0.0395193 0.0395215 0.0395235 0.0395256 0.0395277 0.0395297 0.0395307 0.0395322 0.0395331 0.0395338 0.0395351 0.0395356 0.0395366 0.0395368 0.0395375 0.0395388 0.0395397 0.0395393 0.0395398 0.0395405 0.0395411 0.039542 0.0395418 0.0395423 0.0395433 0.0395429 0.0395438 0.0395441 0.0395447 0.0395448 0.0395453 0.0395452 0.0395461 0.0395466 0.0395465 0.039547 0.0395462 0.0395486 0.039548 0.0395479 0.0395486 0.0395491 0.0395482 0.0395495 0.0395487 0.0395487 0.0395501 0.0395502 0.0395495 0.0395502 0.0395489 0.039551 0.039551 0.03955 0.03955 0.0395505 0.0395511 0.0395503 0.0395512 0.0395506 0.0395508 0.039551 0.0395277 0.0395272 0.0395276 0.0395282 0.0395297 0.0395303 0.0395328 0.039534 0.0395345 0.0395356 0.0395367 0.0395368 0.0395379 0.0395381 0.0395393 0.0395392 0.03954 0.0395408 0.039541 0.0395417 0.0395416 0.0395425 0.0395428 0.0395437 0.0395438 0.0395436 0.0395444 0.0395446 0.039545 0.0395455 0.0395454 0.0395459 0.0395469 0.0395461 0.0395471 0.039547 0.039547 0.0395479 0.0395473 0.0395493 0.0395488 0.0395485 0.0395486 0.0395483 0.0395493 0.0395495 0.0395491 0.039549 0.0395501 0.0395495 0.0395498 0.0395505 0.0395498 0.0395507 0.0395508 0.0395506 0.0395503 0.0395502 0.0395513 0.0395506 0.039551 0.039551 0.0395505 0.0395514 0.0395364 0.0395359 0.039535 0.0395345 0.0395358 0.0395363 0.0395368 0.0395377 0.0395384 0.0395387 0.0395397 0.0395402 0.0395411 0.0395409 0.0395421 0.0395424 0.0395424 0.0395429 0.0395432 0.0395441 0.0395441 0.0395445 0.0395447 0.0395451 0.0395448 0.0395452 0.0395459 0.039546 0.0395463 0.0395467 0.0395468 0.0395472 0.0395485 0.0395471 0.0395474 0.0395477 0.0395481 0.0395485 0.0395478 0.039549 0.0395487 0.0395491 0.0395497 0.0395488 0.0395497 0.0395493 0.0395497 0.0395497 0.0395509 0.0395498 0.0395504 0.0395499 0.03955 0.0395501 0.0395502 0.0395512 0.0395507 0.0395499 0.039551 0.0395509 0.0395505 0.039551 0.0395512 0.0395527 0.0395451 0.039544 0.0395427 0.0395409 0.0395416 0.0395416 0.0395417 0.039542 0.0395424 0.0395426 0.0395433 0.0395434 0.0395437 0.0395441 0.0395448 0.0395449 0.0395446 0.0395455 0.0395454 0.0395459 0.0395458 0.039546 0.0395467 0.0395471 0.0395467 0.0395473 0.0395472 0.0395477 0.039547 0.0395479 0.0395478 0.0395483 0.0395491 0.0395482 0.0395481 0.0395483 0.0395493 0.0395491 0.039549 0.0395496 0.0395492 0.0395505 0.0395499 0.03955 0.0395492 0.0395501 0.0395499 0.0395505 0.0395505 0.0395508 0.0395505 0.0395496 0.0395504 0.0395503 0.0395508 0.039551 0.0395506 0.0395496 0.0395509 0.0395506 0.039551 0.0395509 0.0395512 0.0395516 0.0395538 0.0395518 0.0395495 0.0395474 0.0395474 0.0395462 0.0395464 0.0395462 0.0395465 0.0395462 0.0395464 0.0395466 0.0395472 0.0395473 0.0395469 0.0395479 0.0395477 0.0395479 0.0395481 0.0395478 0.0395482 0.0395483 0.0395484 0.0395488 0.0395489 0.0395493 0.0395487 0.039549 0.0395489 0.0395489 0.0395492 0.0395498 0.0395497 0.0395496 0.0395495 0.0395493 0.0395505 0.0395496 0.0395506 0.0395495 0.0395501 0.0395513 0.0395493 0.0395509 0.0395499 0.0395507 0.03955 0.0395514 0.03955 0.039551 0.0395502 0.0395512 0.03955 0.0395505 0.0395509 0.0395504 0.0395503 0.0395507 0.0395511 0.0395513 0.0395512 0.0395504 0.0395502 0.0395506 0.0395623 0.0395589 0.0395563 0.0395539 0.0395527 0.0395513 0.0395509 0.0395504 0.0395502 0.0395503 0.03955 0.0395494 0.0395503 0.03955 0.0395497 0.0395504 0.0395507 0.0395502 0.039551 0.0395502 0.03955 0.0395507 0.0395501 0.0395505 0.0395505 0.0395504 0.0395505 0.0395504 0.0395505 0.03955 0.0395506 0.0395515 0.0395506 0.0395508 0.0395507 0.0395498 0.0395512 0.0395504 0.0395513 0.0395497 0.0395506 0.0395508 0.0395501 0.0395506 0.039551 0.0395508 0.0395499 0.0395516 0.0395504 0.0395508 0.0395508 0.0395518 0.0395504 0.0395506 0.039551 0.0395504 0.0395507 0.0395503 0.0395506 0.0395509 0.039551 0.0395504 0.0395502 0.0395505 0.0395706 0.0395663 0.0395632 0.0395599 0.0395578 0.0395564 0.0395554 0.0395545 0.0395536 0.0395541 0.0395538 0.0395526 0.0395535 0.0395534 0.0395531 0.0395526 0.0395532 0.0395531 0.0395531 0.0395526 0.0395521 0.039553 0.039552 0.0395521 0.0395523 0.0395521 0.0395524 0.0395524 0.0395521 0.0395518 0.0395518 0.0395519 0.0395517 0.0395521 0.0395518 0.039551 0.039552 0.0395512 0.0395515 0.0395514 0.0395518 0.0395506 0.039551 0.039552 0.0395518 0.0395503 0.0395506 0.0395513 0.0395507 0.0395509 0.0395513 0.0395504 0.0395512 0.0395504 0.0395507 0.0395512 0.0395513 0.0395506 0.0395503 0.0395509 0.0395516 0.0395508 0.0395506 0.03955 0.039579 0.0395727 0.0395689 0.0395655 0.0395626 0.0395608 0.0395591 0.0395585 0.0395581 0.0395576 0.0395574 0.0395564 0.0395567 0.0395557 0.0395557 0.0395554 0.0395553 0.0395552 0.0395556 0.0395546 0.0395545 0.0395552 0.0395543 0.0395544 0.0395541 0.0395541 0.0395534 0.0395535 0.0395531 0.0395529 0.0395526 0.0395526 0.039553 0.039553 0.0395524 0.039553 0.0395524 0.0395522 0.0395524 0.0395521 0.0395521 0.0395513 0.0395513 0.0395515 0.0395522 0.0395509 0.0395516 0.0395508 0.0395513 0.0395519 0.0395511 0.0395515 0.0395511 0.0395512 0.0395511 0.0395516 0.0395503 0.0395507 0.0395507 0.0395506 0.0395509 0.0395502 0.0395505 0.03955 0.0395867 0.0395796 0.039574 0.0395704 0.039568 0.0395656 0.0395638 0.0395628 0.0395617 0.0395613 0.0395607 0.0395596 0.0395598 0.0395593 0.0395587 0.0395589 0.0395582 0.0395579 0.0395579 0.039557 0.0395566 0.0395569 0.0395568 0.0395563 0.0395552 0.0395555 0.0395548 0.0395556 0.0395552 0.0395547 0.0395545 0.039554 0.0395544 0.0395537 0.0395531 0.0395539 0.0395526 0.039553 0.0395537 0.0395524 0.0395524 0.0395526 0.0395518 0.0395517 0.0395518 0.0395514 0.0395519 0.0395516 0.039552 0.0395517 0.0395512 0.0395516 0.0395507 0.0395511 0.0395514 0.03955 0.039551 0.0395507 0.0395517 0.0395507 0.0395503 0.039551 0.0395505 0.0395503 0.0395953 0.0395846 0.039579 0.0395746 0.0395713 0.0395693 0.0395681 0.0395669 0.0395654 0.039565 0.0395639 0.0395633 0.039563 0.0395626 0.0395609 0.0395613 0.0395605 0.0395606 0.0395597 0.0395592 0.0395592 0.0395592 0.0395591 0.0395581 0.0395571 0.039557 0.0395571 0.039557 0.0395564 0.0395561 0.0395565 0.0395552 0.0395549 0.0395548 0.0395546 0.0395546 0.0395545 0.039554 0.0395543 0.0395532 0.0395534 0.039553 0.0395532 0.039553 0.0395528 0.039552 0.0395522 0.0395523 0.0395517 0.0395522 0.0395519 0.0395518 0.0395521 0.039551 0.0395517 0.0395501 0.0395514 0.0395511 0.0395509 0.0395515 0.0395513 0.0395514 0.0395505 0.0395505 0.0395988 0.0395935 0.0395817 0.0395778 0.0395751 0.0395739 0.0395718 0.0395702 0.0395695 0.0395686 0.039567 0.0395665 0.0395655 0.0395648 0.0395646 0.0395642 0.0395633 0.0395628 0.0395621 0.0395613 0.0395612 0.0395608 0.0395603 0.0395593 0.0395592 0.0395584 0.0395588 0.0395584 0.0395579 0.0395568 0.0395577 0.0395562 0.0395567 0.0395561 0.0395556 0.039555 0.0395553 0.0395539 0.0395552 0.0395544 0.0395537 0.0395533 0.0395542 0.0395532 0.039553 0.0395525 0.039553 0.0395527 0.0395518 0.0395523 0.0395515 0.0395512 0.0395516 0.0395517 0.0395518 0.0395508 0.0395511 0.0395516 0.0395505 0.0395513 0.0395512 0.0395508 0.0395509 0.0395513 0.0396383 0.0395902 0.0395855 0.039582 0.03958 0.0395775 0.0395761 0.0395744 0.0395727 0.0395717 0.0395705 0.0395701 0.039569 0.039568 0.0395669 0.039566 0.0395657 0.0395652 0.0395648 0.039564 0.0395634 0.0395628 0.039562 0.0395615 0.039561 0.0395609 0.0395608 0.0395596 0.0395603 0.0395584 0.039559 0.0395574 0.0395575 0.0395571 0.0395564 0.0395563 0.0395561 0.0395552 0.0395557 0.0395554 0.0395544 0.0395547 0.0395541 0.0395543 0.0395536 0.0395528 0.0395536 0.0395527 0.0395519 0.0395525 0.0395524 0.0395517 0.0395517 0.0395516 0.0395513 0.0395509 0.0395517 0.0395512 0.0395502 0.0395511 0.0395508 0.0395508 0.0395512 0.0395516 0.039421 0.0394802 0.0394973 0.039506 0.0395106 0.039513 0.039516 0.0395176 0.0395185 0.039521 0.0395213 0.0395231 0.0395251 0.0395256 0.0395273 0.0395276 0.0395285 0.0395299 0.0395312 0.0395317 0.0395333 0.0395332 0.0395348 0.0395346 0.0395359 0.0395363 0.0395375 0.0395387 0.0395386 0.0395404 0.0395394 0.0395412 0.0395414 0.039543 0.0395429 0.0395433 0.0395446 0.039544 0.0395448 0.0395464 0.0395463 0.0395462 0.0395476 0.0395473 0.0395467 0.0395484 0.0395485 0.0395484 0.0395492 0.039549 0.0395498 0.0395504 0.0395494 0.0395506 0.039551 0.0395511 0.0395505 0.0395499 0.0395501 0.0395505 0.0395514 0.0395507 0.0395506 0.0395504 0.0394887 0.0394808 0.0394965 0.0395047 0.0395112 0.0395152 0.0395178 0.0395208 0.0395215 0.0395229 0.0395247 0.0395258 0.039527 0.0395279 0.039529 0.0395297 0.0395308 0.039532 0.0395332 0.0395331 0.0395339 0.0395357 0.0395359 0.0395367 0.0395375 0.0395383 0.0395382 0.0395392 0.03954 0.0395406 0.0395414 0.039542 0.039542 0.0395432 0.0395441 0.039544 0.0395442 0.0395453 0.0395454 0.0395464 0.0395465 0.0395469 0.0395471 0.0395475 0.0395479 0.0395478 0.0395487 0.0395481 0.0395493 0.0395498 0.0395489 0.0395506 0.0395498 0.0395504 0.0395505 0.0395502 0.0395505 0.0395499 0.0395512 0.0395511 0.0395516 0.039551 0.0395501 0.0395501 0.0394963 0.0394993 0.0395027 0.0395091 0.0395144 0.0395181 0.0395205 0.0395228 0.0395251 0.0395255 0.0395272 0.0395282 0.0395292 0.0395307 0.0395314 0.0395321 0.039533 0.0395337 0.0395351 0.0395352 0.039536 0.0395373 0.0395371 0.0395381 0.0395389 0.0395396 0.0395397 0.0395408 0.0395411 0.0395411 0.0395429 0.0395427 0.0395431 0.0395429 0.0395447 0.0395443 0.039545 0.0395456 0.0395461 0.0395464 0.0395466 0.0395467 0.0395469 0.0395479 0.0395484 0.0395481 0.039549 0.0395483 0.0395493 0.0395495 0.0395497 0.03955 0.03955 0.0395499 0.0395502 0.0395505 0.0395509 0.0395494 0.0395514 0.0395506 0.0395512 0.039551 0.0395504 0.0395506 0.0395088 0.0395087 0.0395116 0.0395153 0.0395189 0.0395221 0.039524 0.0395263 0.0395283 0.0395288 0.0395303 0.0395311 0.039532 0.0395335 0.0395338 0.0395347 0.0395356 0.0395356 0.039537 0.0395373 0.0395375 0.0395385 0.0395392 0.0395395 0.0395406 0.0395411 0.0395414 0.0395421 0.0395426 0.0395423 0.0395435 0.0395432 0.0395443 0.0395447 0.0395456 0.0395455 0.0395454 0.0395461 0.0395466 0.0395466 0.0395471 0.0395471 0.0395471 0.0395484 0.039548 0.0395484 0.0395491 0.0395488 0.0395492 0.0395494 0.0395504 0.0395498 0.03955 0.0395503 0.03955 0.0395507 0.0395506 0.0395502 0.0395507 0.0395507 0.0395507 0.0395511 0.0395512 0.0395508 0.0395184 0.0395188 0.0395199 0.0395223 0.0395245 0.0395267 0.0395282 0.0395299 0.0395308 0.039532 0.0395332 0.0395343 0.0395353 0.0395359 0.0395369 0.0395373 0.0395374 0.0395382 0.0395393 0.0395392 0.0395398 0.0395407 0.0395409 0.0395413 0.0395419 0.0395426 0.0395434 0.039543 0.0395439 0.0395441 0.039545 0.0395448 0.0395449 0.0395454 0.0395463 0.0395464 0.0395458 0.0395467 0.0395469 0.0395479 0.0395481 0.0395473 0.039548 0.0395484 0.0395486 0.0395491 0.039549 0.0395491 0.0395496 0.0395498 0.0395502 0.0395502 0.0395501 0.0395499 0.039551 0.0395499 0.0395508 0.0395502 0.0395504 0.0395502 0.0395512 0.0395503 0.0395514 0.0395497 0.0395277 0.0395273 0.0395281 0.0395287 0.0395304 0.0395316 0.0395325 0.0395338 0.039535 0.0395356 0.0395368 0.0395376 0.0395387 0.0395384 0.0395388 0.0395396 0.0395402 0.0395411 0.0395412 0.0395409 0.0395415 0.0395424 0.0395428 0.0395436 0.0395435 0.0395437 0.0395451 0.0395448 0.0395444 0.0395453 0.0395457 0.0395464 0.0395462 0.0395466 0.039547 0.0395474 0.0395471 0.0395472 0.0395482 0.0395487 0.0395484 0.0395482 0.0395489 0.0395482 0.0395494 0.0395492 0.0395492 0.0395497 0.0395499 0.0395502 0.0395497 0.0395506 0.0395503 0.03955 0.0395511 0.03955 0.0395506 0.03955 0.039551 0.0395502 0.0395512 0.0395507 0.039551 0.0395497 0.0395371 0.0395357 0.0395355 0.0395349 0.0395359 0.0395364 0.0395369 0.0395382 0.0395389 0.0395388 0.03954 0.0395404 0.0395412 0.0395411 0.0395416 0.0395429 0.0395424 0.0395434 0.0395435 0.0395436 0.0395437 0.0395444 0.0395444 0.0395451 0.039545 0.0395459 0.0395459 0.0395465 0.0395459 0.0395464 0.0395463 0.0395472 0.0395478 0.0395474 0.0395471 0.0395484 0.0395481 0.0395477 0.0395486 0.0395488 0.0395487 0.0395491 0.0395501 0.0395489 0.0395496 0.0395497 0.0395495 0.0395493 0.03955 0.0395505 0.0395495 0.0395505 0.0395505 0.0395503 0.0395505 0.0395503 0.039551 0.0395504 0.039551 0.0395508 0.0395504 0.0395508 0.0395504 0.0395511 0.0395457 0.0395439 0.0395426 0.0395416 0.0395412 0.0395415 0.0395417 0.0395424 0.0395424 0.0395429 0.0395435 0.0395435 0.0395444 0.0395438 0.0395449 0.0395457 0.039545 0.0395459 0.0395456 0.0395462 0.0395459 0.0395462 0.0395467 0.0395471 0.0395469 0.0395474 0.0395471 0.0395479 0.0395474 0.0395476 0.0395479 0.0395481 0.0395488 0.0395491 0.0395482 0.0395487 0.0395492 0.0395485 0.0395497 0.0395493 0.0395491 0.0395499 0.03955 0.0395498 0.0395491 0.0395508 0.03955 0.0395498 0.0395501 0.0395506 0.0395498 0.0395508 0.0395507 0.0395498 0.0395507 0.0395507 0.0395517 0.0395503 0.0395508 0.0395504 0.0395501 0.0395507 0.0395505 0.0395504 0.0395541 0.039552 0.0395494 0.0395479 0.0395474 0.0395464 0.039546 0.0395468 0.0395465 0.0395461 0.0395468 0.0395466 0.0395477 0.0395467 0.0395469 0.0395485 0.039548 0.0395482 0.0395481 0.039548 0.0395481 0.0395483 0.0395483 0.0395488 0.0395485 0.0395492 0.0395491 0.0395482 0.0395492 0.0395483 0.0395491 0.039549 0.0395489 0.0395499 0.0395502 0.0395496 0.0395501 0.0395495 0.0395508 0.0395498 0.0395504 0.0395508 0.0395496 0.0395505 0.0395495 0.0395506 0.0395498 0.0395505 0.0395502 0.03955 0.0395498 0.0395508 0.03955 0.0395504 0.0395511 0.0395511 0.0395508 0.0395507 0.0395513 0.0395506 0.0395504 0.0395506 0.0395509 0.0395509 0.0395623 0.039559 0.0395568 0.039554 0.0395524 0.0395514 0.039551 0.0395506 0.0395507 0.03955 0.0395504 0.0395497 0.0395504 0.0395501 0.0395491 0.0395507 0.0395504 0.0395503 0.0395508 0.0395505 0.0395498 0.0395507 0.0395502 0.0395507 0.0395506 0.0395506 0.0395508 0.0395494 0.039551 0.03955 0.0395506 0.0395509 0.0395503 0.0395509 0.0395512 0.0395503 0.0395514 0.0395504 0.0395511 0.0395499 0.039551 0.0395508 0.0395501 0.039551 0.0395512 0.0395503 0.03955 0.0395516 0.0395513 0.0395504 0.0395504 0.0395513 0.0395507 0.0395504 0.0395514 0.0395509 0.0395509 0.039551 0.0395509 0.0395499 0.0395508 0.0395507 0.0395508 0.0395513 0.0395706 0.0395657 0.0395624 0.0395596 0.0395573 0.0395564 0.0395555 0.0395547 0.039554 0.0395539 0.0395539 0.0395532 0.0395538 0.0395535 0.039553 0.0395532 0.0395529 0.039553 0.0395531 0.0395525 0.0395525 0.0395529 0.039552 0.0395523 0.0395521 0.039552 0.0395527 0.0395521 0.0395518 0.0395519 0.0395516 0.0395517 0.0395517 0.039552 0.0395517 0.039551 0.039552 0.0395508 0.0395518 0.0395509 0.0395519 0.0395506 0.0395521 0.0395517 0.0395516 0.0395506 0.0395508 0.0395513 0.0395516 0.0395507 0.0395515 0.039551 0.0395507 0.0395504 0.0395513 0.0395508 0.0395508 0.0395509 0.0395505 0.0395508 0.0395508 0.0395511 0.039551 0.0395513 0.0395789 0.0395729 0.0395682 0.0395652 0.0395623 0.0395605 0.0395593 0.0395591 0.0395579 0.0395576 0.0395575 0.0395566 0.0395566 0.0395561 0.0395559 0.0395558 0.0395549 0.0395551 0.0395556 0.0395545 0.0395552 0.0395547 0.0395542 0.0395548 0.0395538 0.0395542 0.0395542 0.0395538 0.0395532 0.0395536 0.0395534 0.0395526 0.0395531 0.0395528 0.0395526 0.0395525 0.0395529 0.039552 0.0395527 0.0395517 0.0395525 0.0395508 0.0395525 0.0395512 0.0395517 0.0395512 0.0395517 0.0395507 0.0395516 0.0395518 0.0395516 0.0395511 0.039551 0.0395518 0.0395509 0.0395513 0.0395498 0.0395509 0.0395504 0.0395507 0.0395501 0.0395506 0.0395507 0.0395509 0.0395863 0.0395797 0.0395734 0.0395695 0.0395675 0.0395652 0.0395633 0.0395627 0.0395614 0.0395612 0.0395613 0.0395597 0.03956 0.0395591 0.039559 0.0395591 0.0395582 0.0395576 0.0395579 0.0395568 0.0395567 0.0395566 0.0395568 0.0395563 0.0395556 0.0395559 0.0395555 0.0395558 0.0395547 0.0395544 0.0395547 0.0395535 0.039555 0.0395538 0.0395539 0.0395537 0.0395539 0.0395525 0.0395534 0.039553 0.0395527 0.0395522 0.0395525 0.0395519 0.0395524 0.0395518 0.0395522 0.0395514 0.0395519 0.0395514 0.0395514 0.0395511 0.0395507 0.039552 0.0395511 0.0395507 0.0395506 0.0395507 0.0395515 0.0395504 0.0395507 0.0395506 0.0395508 0.0395509 0.0395949 0.0395848 0.039579 0.0395738 0.0395709 0.0395692 0.0395675 0.0395663 0.0395653 0.0395644 0.0395637 0.0395629 0.0395627 0.0395621 0.0395616 0.0395613 0.039561 0.0395601 0.03956 0.0395594 0.0395591 0.0395585 0.0395584 0.039558 0.0395579 0.0395576 0.0395566 0.0395572 0.0395569 0.039556 0.0395562 0.0395554 0.0395555 0.0395553 0.0395544 0.039555 0.0395547 0.0395534 0.039554 0.0395535 0.0395531 0.0395533 0.0395533 0.0395527 0.0395528 0.0395522 0.0395526 0.0395515 0.0395521 0.0395525 0.0395519 0.0395522 0.0395512 0.0395517 0.0395513 0.039551 0.0395508 0.0395508 0.0395511 0.039551 0.0395512 0.0395502 0.0395505 0.0395518 0.0395983 0.0395933 0.039582 0.0395771 0.0395749 0.0395733 0.0395715 0.0395707 0.0395691 0.0395686 0.0395668 0.0395666 0.0395655 0.039565 0.0395647 0.039564 0.0395635 0.0395628 0.0395627 0.0395611 0.0395611 0.0395605 0.0395603 0.0395601 0.0395592 0.0395589 0.0395583 0.0395581 0.0395578 0.0395577 0.0395571 0.0395564 0.0395563 0.0395561 0.0395554 0.0395558 0.0395544 0.0395542 0.039554 0.0395539 0.0395545 0.0395536 0.0395543 0.0395525 0.0395519 0.0395529 0.0395528 0.0395528 0.0395523 0.039552 0.0395517 0.0395519 0.0395515 0.0395515 0.0395523 0.0395508 0.0395505 0.0395513 0.0395506 0.0395515 0.0395516 0.0395504 0.0395499 0.0395514 0.0396374 0.0395905 0.039585 0.0395814 0.0395794 0.0395776 0.0395756 0.039574 0.0395725 0.0395721 0.0395707 0.0395696 0.0395685 0.0395679 0.0395675 0.0395665 0.0395662 0.039565 0.0395647 0.0395638 0.0395634 0.039563 0.0395621 0.0395623 0.0395611 0.0395612 0.0395601 0.0395596 0.0395597 0.0395584 0.0395587 0.0395584 0.0395581 0.0395568 0.039557 0.0395566 0.0395562 0.0395551 0.0395555 0.0395553 0.039554 0.0395546 0.0395538 0.0395537 0.0395529 0.0395531 0.039553 0.0395523 0.0395522 0.0395526 0.0395524 0.039553 0.0395512 0.0395516 0.0395522 0.0395501 0.0395519 0.0395511 0.0395505 0.0395524 0.0395512 0.0395498 0.0395504 0.0395528 0.0394249 0.0394825 0.0394992 0.0395079 0.0395121 0.0395147 0.0395174 0.0395187 0.0395197 0.0395213 0.0395225 0.0395236 0.0395256 0.039525 0.0395278 0.0395279 0.0395284 0.0395306 0.039531 0.0395319 0.0395335 0.0395334 0.0395348 0.0395352 0.0395359 0.0395372 0.0395377 0.0395387 0.0395392 0.0395398 0.0395401 0.0395418 0.0395419 0.039542 0.0395421 0.039544 0.0395443 0.0395439 0.0395452 0.0395455 0.0395454 0.0395465 0.0395472 0.0395475 0.0395475 0.0395481 0.0395488 0.0395481 0.0395495 0.0395492 0.0395496 0.0395508 0.03955 0.0395498 0.0395507 0.0395503 0.0395509 0.0395502 0.0395506 0.0395504 0.0395512 0.0395515 0.0395512 0.0395514 0.03949 0.0394828 0.0394978 0.0395066 0.0395126 0.0395163 0.0395187 0.0395207 0.0395221 0.0395238 0.0395248 0.0395264 0.0395267 0.039528 0.0395294 0.0395301 0.0395311 0.0395324 0.039533 0.0395335 0.0395342 0.0395357 0.039536 0.0395366 0.0395377 0.0395388 0.0395382 0.0395388 0.0395404 0.0395403 0.0395413 0.039542 0.0395428 0.0395423 0.0395441 0.0395441 0.0395445 0.0395447 0.0395456 0.0395457 0.0395463 0.0395465 0.039547 0.0395474 0.0395476 0.0395485 0.0395489 0.0395487 0.0395493 0.0395497 0.0395495 0.0395504 0.0395493 0.03955 0.0395516 0.03955 0.0395508 0.0395503 0.0395509 0.039551 0.039551 0.0395506 0.0395506 0.0395508 0.0394975 0.0395009 0.0395039 0.0395106 0.0395149 0.0395188 0.0395216 0.0395234 0.0395251 0.0395264 0.0395271 0.0395288 0.0395296 0.0395307 0.039532 0.0395325 0.0395333 0.0395338 0.0395349 0.0395355 0.039536 0.0395376 0.0395373 0.0395378 0.0395389 0.0395396 0.0395396 0.0395405 0.0395414 0.039542 0.0395426 0.0395428 0.0395436 0.0395426 0.0395451 0.0395444 0.0395452 0.0395453 0.0395463 0.0395463 0.039547 0.0395469 0.0395475 0.039548 0.0395473 0.0395491 0.0395491 0.0395488 0.0395494 0.0395494 0.0395503 0.0395494 0.0395502 0.0395498 0.0395507 0.0395502 0.0395505 0.0395498 0.0395506 0.039551 0.0395507 0.0395505 0.039551 0.039551 0.0395092 0.03951 0.0395124 0.039516 0.03952 0.0395227 0.039525 0.0395264 0.039528 0.0395294 0.0395307 0.0395311 0.0395325 0.0395336 0.0395344 0.0395344 0.0395355 0.0395362 0.0395369 0.0395374 0.0395377 0.039539 0.0395388 0.0395399 0.0395406 0.0395413 0.039541 0.0395422 0.0395427 0.0395423 0.0395434 0.0395439 0.0395441 0.0395442 0.0395458 0.0395449 0.0395461 0.0395465 0.0395466 0.039547 0.0395472 0.0395479 0.0395478 0.0395488 0.0395479 0.0395491 0.0395488 0.0395484 0.0395493 0.0395498 0.0395506 0.0395495 0.0395505 0.0395504 0.0395499 0.0395501 0.0395507 0.0395506 0.03955 0.0395513 0.0395505 0.0395513 0.0395511 0.0395512 0.0395187 0.0395196 0.0395203 0.0395225 0.0395248 0.0395267 0.0395288 0.0395304 0.0395313 0.0395327 0.0395335 0.0395345 0.0395349 0.0395361 0.0395367 0.0395373 0.0395375 0.0395386 0.0395389 0.039539 0.0395397 0.0395411 0.0395413 0.0395415 0.039542 0.0395421 0.0395424 0.0395432 0.0395437 0.0395433 0.0395452 0.0395449 0.0395447 0.0395449 0.0395464 0.0395462 0.0395464 0.0395471 0.0395474 0.0395475 0.0395478 0.039548 0.039548 0.0395489 0.039549 0.0395493 0.0395492 0.0395492 0.0395492 0.0395503 0.0395497 0.0395504 0.0395505 0.0395496 0.0395507 0.0395497 0.0395514 0.0395507 0.0395504 0.0395514 0.0395509 0.0395507 0.0395512 0.0395507 0.0395281 0.0395276 0.0395282 0.0395291 0.03953 0.0395316 0.0395329 0.0395343 0.0395348 0.039536 0.0395366 0.0395375 0.0395378 0.0395383 0.0395388 0.0395397 0.0395399 0.0395406 0.0395414 0.0395413 0.0395417 0.0395423 0.0395431 0.0395432 0.0395441 0.0395434 0.0395442 0.0395447 0.0395446 0.0395451 0.0395457 0.0395464 0.039546 0.039546 0.0395473 0.0395478 0.0395478 0.0395476 0.0395479 0.039548 0.0395485 0.0395482 0.0395484 0.0395486 0.0395497 0.0395493 0.0395495 0.0395501 0.0395491 0.0395501 0.0395492 0.0395503 0.0395502 0.0395497 0.0395513 0.0395497 0.039551 0.0395499 0.0395505 0.0395507 0.0395508 0.0395509 0.0395508 0.0395504 0.039537 0.0395354 0.0395357 0.0395356 0.0395362 0.0395368 0.0395379 0.0395379 0.0395383 0.0395393 0.0395403 0.0395401 0.039541 0.0395413 0.0395419 0.0395425 0.039542 0.0395431 0.0395436 0.0395436 0.0395439 0.0395445 0.0395447 0.039545 0.0395456 0.0395455 0.0395454 0.0395464 0.0395464 0.0395463 0.0395463 0.0395479 0.0395469 0.0395476 0.0395477 0.0395482 0.0395484 0.0395478 0.0395483 0.0395491 0.0395488 0.0395493 0.039549 0.0395496 0.0395497 0.0395499 0.0395493 0.0395506 0.0395491 0.03955 0.0395494 0.0395502 0.0395504 0.0395502 0.039551 0.0395496 0.039551 0.0395506 0.0395511 0.0395509 0.0395506 0.0395511 0.0395508 0.0395512 0.0395456 0.0395437 0.0395427 0.0395422 0.0395423 0.0395415 0.039542 0.0395419 0.0395426 0.0395432 0.0395435 0.0395436 0.0395445 0.0395443 0.0395449 0.0395452 0.0395448 0.0395455 0.0395455 0.039546 0.0395457 0.0395462 0.0395469 0.0395468 0.0395473 0.0395468 0.0395472 0.0395479 0.0395478 0.0395475 0.0395489 0.0395485 0.0395482 0.039549 0.0395485 0.039549 0.0395495 0.0395484 0.0395492 0.0395499 0.0395489 0.0395496 0.0395495 0.0395509 0.0395491 0.0395503 0.0395498 0.0395504 0.0395503 0.0395509 0.0395501 0.0395504 0.0395506 0.0395502 0.0395501 0.0395498 0.0395507 0.0395507 0.0395505 0.0395502 0.0395508 0.0395509 0.0395505 0.0395501 0.0395541 0.0395516 0.0395493 0.0395481 0.0395478 0.039547 0.0395462 0.0395466 0.0395464 0.0395464 0.0395468 0.0395468 0.0395477 0.0395473 0.0395475 0.039548 0.0395474 0.039548 0.0395481 0.0395484 0.0395479 0.0395484 0.0395482 0.0395486 0.0395487 0.0395484 0.0395492 0.0395488 0.0395493 0.0395487 0.03955 0.0395487 0.0395492 0.03955 0.0395501 0.0395499 0.0395501 0.0395498 0.0395501 0.0395503 0.0395498 0.0395499 0.0395497 0.0395505 0.03955 0.0395506 0.0395499 0.0395505 0.0395507 0.0395507 0.0395501 0.0395501 0.0395508 0.03955 0.0395499 0.0395506 0.0395502 0.0395504 0.039551 0.03955 0.0395512 0.039551 0.0395507 0.0395509 0.0395623 0.0395587 0.0395562 0.0395542 0.0395523 0.0395511 0.0395506 0.0395507 0.0395501 0.03955 0.0395506 0.0395496 0.0395505 0.0395503 0.0395501 0.0395506 0.0395499 0.0395507 0.0395506 0.0395501 0.0395502 0.0395509 0.0395506 0.039551 0.0395502 0.039551 0.0395512 0.0395502 0.0395512 0.0395501 0.0395508 0.0395505 0.0395506 0.0395515 0.0395513 0.0395502 0.0395512 0.039551 0.0395509 0.0395503 0.039551 0.0395503 0.0395505 0.0395502 0.0395508 0.0395506 0.0395506 0.0395513 0.0395507 0.0395506 0.0395504 0.039551 0.0395512 0.0395505 0.0395509 0.0395508 0.0395504 0.0395505 0.0395511 0.0395504 0.039551 0.0395503 0.0395507 0.0395509 0.0395702 0.0395659 0.0395617 0.0395589 0.0395575 0.0395562 0.0395551 0.0395545 0.0395538 0.0395539 0.0395543 0.0395535 0.0395535 0.0395531 0.0395533 0.0395534 0.0395528 0.0395528 0.0395529 0.0395525 0.0395528 0.0395526 0.0395521 0.0395526 0.0395518 0.0395524 0.0395525 0.0395522 0.0395522 0.0395518 0.0395523 0.0395524 0.0395518 0.0395519 0.0395517 0.0395509 0.0395519 0.0395515 0.0395513 0.0395516 0.0395519 0.0395505 0.0395524 0.0395508 0.0395515 0.0395511 0.039551 0.039551 0.0395517 0.0395508 0.0395509 0.0395513 0.0395509 0.0395504 0.039551 0.0395505 0.0395504 0.0395511 0.0395508 0.0395513 0.039551 0.0395504 0.0395507 0.039551 0.0395781 0.039573 0.0395678 0.0395644 0.0395621 0.0395605 0.0395592 0.0395588 0.0395573 0.0395576 0.0395579 0.0395561 0.039556 0.0395562 0.0395562 0.0395558 0.0395553 0.0395551 0.0395555 0.0395548 0.039555 0.0395551 0.0395545 0.0395546 0.0395542 0.0395544 0.039554 0.0395532 0.0395535 0.0395534 0.0395539 0.039553 0.0395529 0.0395528 0.0395524 0.0395526 0.0395528 0.0395522 0.0395521 0.0395524 0.0395521 0.0395511 0.0395529 0.0395518 0.0395511 0.0395512 0.0395518 0.0395507 0.0395519 0.0395513 0.0395514 0.0395517 0.0395515 0.0395516 0.0395506 0.0395512 0.0395504 0.0395512 0.0395508 0.0395509 0.03955 0.0395503 0.0395508 0.0395506 0.0395857 0.0395796 0.0395726 0.0395686 0.0395668 0.0395643 0.0395629 0.0395627 0.0395608 0.0395614 0.0395608 0.0395594 0.0395597 0.0395593 0.0395592 0.0395586 0.0395582 0.0395575 0.0395581 0.0395567 0.0395569 0.0395569 0.0395568 0.039556 0.0395557 0.0395559 0.0395561 0.0395551 0.0395548 0.0395546 0.0395551 0.0395539 0.0395539 0.0395546 0.0395536 0.0395537 0.0395535 0.0395528 0.0395529 0.0395528 0.0395526 0.0395524 0.0395519 0.0395521 0.0395525 0.0395517 0.0395527 0.0395512 0.0395511 0.0395512 0.0395512 0.0395516 0.0395507 0.0395518 0.0395504 0.0395513 0.0395507 0.039551 0.0395512 0.0395508 0.0395512 0.0395504 0.0395502 0.0395503 0.0395944 0.0395845 0.039578 0.0395737 0.0395709 0.0395682 0.0395673 0.039566 0.0395643 0.0395646 0.0395637 0.039563 0.0395627 0.0395623 0.0395618 0.0395612 0.039561 0.0395602 0.0395603 0.0395591 0.0395591 0.0395583 0.0395586 0.0395579 0.0395573 0.0395574 0.0395571 0.0395565 0.0395567 0.0395559 0.0395555 0.0395558 0.0395554 0.0395564 0.0395543 0.0395553 0.0395547 0.0395538 0.0395545 0.0395534 0.0395529 0.0395536 0.0395525 0.0395525 0.0395528 0.0395523 0.0395526 0.0395517 0.0395515 0.0395515 0.0395511 0.0395522 0.0395506 0.0395513 0.0395508 0.0395516 0.0395517 0.0395509 0.0395511 0.0395508 0.0395514 0.0395501 0.0395502 0.0395516 0.0395978 0.0395927 0.0395811 0.0395765 0.0395743 0.0395724 0.0395709 0.0395698 0.0395684 0.0395685 0.0395667 0.0395661 0.0395657 0.0395652 0.0395644 0.0395635 0.0395633 0.0395623 0.039563 0.0395615 0.0395617 0.0395609 0.0395605 0.0395603 0.0395597 0.0395597 0.0395592 0.0395574 0.0395577 0.0395574 0.0395568 0.0395568 0.0395562 0.0395567 0.0395554 0.0395556 0.0395543 0.0395556 0.0395547 0.0395543 0.0395547 0.0395538 0.0395538 0.0395531 0.0395518 0.0395532 0.0395523 0.0395526 0.0395525 0.0395514 0.0395508 0.0395523 0.0395506 0.0395511 0.039552 0.0395511 0.0395515 0.0395514 0.039551 0.0395506 0.0395516 0.0395505 0.0395503 0.0395512 0.0396349 0.0395902 0.0395843 0.039581 0.0395786 0.0395765 0.0395745 0.0395734 0.0395722 0.0395715 0.0395702 0.0395694 0.0395685 0.0395682 0.0395672 0.0395663 0.0395657 0.039565 0.0395646 0.0395644 0.0395641 0.0395631 0.0395618 0.0395621 0.0395619 0.039561 0.0395606 0.0395594 0.0395592 0.0395588 0.0395586 0.0395586 0.0395581 0.0395571 0.039557 0.0395565 0.0395558 0.0395562 0.039555 0.0395553 0.0395545 0.0395533 0.0395545 0.039554 0.0395543 0.0395532 0.0395535 0.0395531 0.039553 0.0395527 0.039552 0.0395527 0.03955 0.0395509 0.0395528 0.0395507 0.0395521 0.0395505 0.0395506 0.0395516 0.0395521 0.0395498 0.0395508 0.0395525 0.0394308 0.0394845 0.0395012 0.0395093 0.0395135 0.0395168 0.0395184 0.03952 0.0395212 0.0395216 0.0395229 0.0395242 0.0395263 0.0395262 0.0395279 0.0395283 0.0395295 0.0395303 0.039531 0.0395322 0.0395331 0.0395335 0.0395352 0.0395355 0.0395362 0.0395367 0.0395375 0.039538 0.0395389 0.0395395 0.0395402 0.0395415 0.0395417 0.0395429 0.0395425 0.0395442 0.0395434 0.0395445 0.0395448 0.0395453 0.039546 0.0395471 0.0395464 0.039548 0.0395471 0.0395485 0.0395483 0.0395478 0.0395492 0.0395491 0.0395488 0.03955 0.0395502 0.0395501 0.03955 0.0395501 0.0395507 0.0395506 0.0395513 0.039551 0.0395511 0.0395516 0.0395507 0.0395516 0.039491 0.0394846 0.0394996 0.0395087 0.0395139 0.0395172 0.03952 0.0395212 0.0395233 0.0395251 0.0395255 0.0395265 0.0395267 0.0395287 0.0395292 0.0395305 0.0395311 0.0395318 0.0395327 0.0395333 0.0395345 0.0395352 0.0395363 0.0395366 0.0395372 0.0395376 0.0395389 0.0395397 0.0395405 0.0395402 0.0395411 0.0395419 0.0395429 0.0395425 0.0395438 0.0395447 0.0395443 0.0395447 0.0395458 0.0395458 0.0395461 0.039547 0.0395471 0.0395472 0.0395475 0.0395485 0.039548 0.0395484 0.0395494 0.0395492 0.039549 0.0395497 0.0395491 0.0395498 0.0395508 0.0395502 0.0395509 0.0395512 0.0395511 0.0395506 0.0395508 0.0395507 0.0395507 0.0395514 0.0394984 0.0395015 0.0395052 0.0395121 0.0395162 0.0395196 0.0395228 0.0395244 0.0395252 0.0395274 0.0395276 0.0395286 0.03953 0.0395306 0.0395315 0.0395321 0.0395327 0.0395337 0.0395347 0.0395357 0.039536 0.0395371 0.0395377 0.0395382 0.0395384 0.0395393 0.03954 0.0395406 0.0395416 0.0395421 0.0395418 0.0395428 0.039544 0.0395434 0.0395444 0.0395451 0.0395456 0.0395449 0.0395464 0.0395462 0.0395466 0.0395476 0.0395472 0.0395478 0.0395473 0.0395489 0.0395484 0.0395489 0.0395495 0.0395492 0.0395499 0.0395499 0.0395497 0.0395504 0.0395507 0.0395508 0.0395507 0.0395508 0.0395509 0.0395508 0.0395508 0.0395508 0.0395508 0.0395506 0.0395099 0.0395107 0.0395136 0.0395174 0.0395207 0.0395238 0.0395257 0.0395275 0.0395281 0.0395293 0.0395307 0.0395314 0.0395324 0.0395329 0.0395342 0.0395343 0.0395349 0.0395357 0.0395365 0.0395377 0.0395379 0.039539 0.0395385 0.03954 0.0395398 0.0395413 0.0395411 0.039542 0.0395425 0.0395424 0.0395433 0.0395435 0.0395442 0.0395444 0.0395455 0.0395448 0.0395464 0.0395455 0.0395463 0.0395468 0.039547 0.0395478 0.0395477 0.0395489 0.0395478 0.0395486 0.0395484 0.039549 0.039549 0.039549 0.0395501 0.0395499 0.0395501 0.0395508 0.0395502 0.0395507 0.0395512 0.0395504 0.0395508 0.0395514 0.0395503 0.039551 0.0395509 0.0395506 0.0395193 0.0395201 0.0395213 0.0395236 0.0395259 0.0395281 0.0395295 0.0395309 0.0395318 0.0395326 0.0395337 0.0395346 0.0395348 0.0395358 0.0395367 0.039537 0.0395374 0.0395381 0.0395386 0.0395389 0.0395396 0.0395406 0.0395405 0.0395413 0.0395417 0.0395427 0.0395422 0.0395433 0.0395434 0.0395436 0.0395447 0.0395447 0.0395448 0.0395449 0.0395464 0.0395459 0.0395468 0.0395466 0.0395467 0.0395471 0.0395475 0.0395481 0.0395485 0.0395488 0.0395485 0.039549 0.0395484 0.0395497 0.0395491 0.0395498 0.03955 0.0395503 0.0395496 0.0395505 0.0395496 0.0395499 0.0395507 0.0395507 0.0395509 0.039551 0.0395509 0.039551 0.0395515 0.0395517 0.0395285 0.0395284 0.0395288 0.0395299 0.0395312 0.0395327 0.0395335 0.0395341 0.0395353 0.0395365 0.0395371 0.0395376 0.0395379 0.0395381 0.0395394 0.0395397 0.0395406 0.0395407 0.039541 0.0395412 0.0395416 0.039542 0.0395425 0.0395427 0.0395441 0.0395438 0.0395438 0.0395451 0.0395447 0.0395453 0.0395452 0.0395462 0.0395463 0.0395455 0.0395475 0.0395472 0.0395468 0.0395476 0.0395479 0.039547 0.0395486 0.0395484 0.0395485 0.0395491 0.0395492 0.0395487 0.0395486 0.0395505 0.0395493 0.0395499 0.0395504 0.0395504 0.0395497 0.0395504 0.0395511 0.0395502 0.0395507 0.0395502 0.039551 0.0395497 0.039551 0.0395507 0.0395512 0.0395511 0.0395373 0.0395365 0.0395357 0.0395361 0.0395367 0.0395371 0.0395386 0.0395379 0.0395387 0.0395402 0.0395409 0.0395405 0.0395413 0.0395415 0.0395421 0.0395422 0.0395431 0.0395429 0.039543 0.0395436 0.039544 0.039544 0.0395445 0.0395447 0.0395455 0.0395453 0.0395457 0.0395462 0.0395461 0.0395462 0.0395468 0.0395476 0.0395468 0.0395474 0.039548 0.039548 0.0395478 0.0395481 0.0395488 0.0395486 0.039549 0.0395493 0.0395484 0.0395494 0.0395495 0.0395491 0.0395488 0.0395512 0.0395495 0.0395497 0.0395507 0.0395502 0.0395503 0.0395499 0.0395513 0.0395497 0.0395508 0.0395508 0.0395515 0.0395504 0.0395509 0.0395507 0.0395513 0.0395507 0.039546 0.0395441 0.0395428 0.0395422 0.0395424 0.0395414 0.0395425 0.0395423 0.0395427 0.0395436 0.039544 0.0395439 0.0395439 0.0395446 0.039545 0.0395447 0.0395455 0.0395455 0.0395458 0.0395458 0.039546 0.0395461 0.0395463 0.0395468 0.0395473 0.0395469 0.0395467 0.0395478 0.0395477 0.0395475 0.0395489 0.039548 0.0395481 0.0395488 0.0395483 0.0395486 0.0395495 0.0395488 0.0395486 0.0395498 0.0395492 0.0395498 0.0395491 0.0395502 0.0395498 0.0395496 0.0395492 0.0395504 0.0395506 0.0395505 0.0395508 0.0395508 0.0395507 0.0395501 0.0395508 0.03955 0.0395498 0.0395513 0.0395506 0.0395505 0.039551 0.0395502 0.0395505 0.0395501 0.039554 0.0395513 0.0395496 0.0395478 0.0395474 0.0395464 0.0395465 0.0395468 0.0395464 0.0395467 0.039547 0.039547 0.0395472 0.0395471 0.0395478 0.0395478 0.0395475 0.0395479 0.0395482 0.0395482 0.0395482 0.0395488 0.0395477 0.0395486 0.0395488 0.0395492 0.0395487 0.0395497 0.0395492 0.0395492 0.0395504 0.0395488 0.0395493 0.0395495 0.0395499 0.0395493 0.03955 0.0395496 0.0395492 0.0395504 0.0395494 0.0395502 0.0395502 0.0395504 0.0395504 0.0395506 0.0395497 0.0395503 0.039551 0.0395504 0.0395504 0.0395509 0.0395507 0.0395502 0.0395507 0.0395508 0.0395498 0.0395515 0.0395512 0.0395496 0.0395511 0.0395511 0.03955 0.03955 0.0395622 0.0395586 0.0395558 0.0395535 0.0395529 0.0395513 0.0395508 0.0395508 0.0395495 0.0395504 0.0395511 0.0395499 0.03955 0.0395499 0.0395507 0.0395509 0.0395499 0.0395507 0.03955 0.0395504 0.0395503 0.0395509 0.0395501 0.0395506 0.0395495 0.0395511 0.0395502 0.0395509 0.0395506 0.0395503 0.0395507 0.0395499 0.0395511 0.0395508 0.0395509 0.0395502 0.0395509 0.0395505 0.0395501 0.0395508 0.039551 0.0395505 0.0395511 0.0395508 0.0395506 0.0395507 0.0395505 0.0395516 0.0395502 0.0395504 0.0395512 0.0395509 0.0395508 0.039551 0.0395508 0.0395507 0.0395511 0.0395515 0.039551 0.0395501 0.0395507 0.0395506 0.0395503 0.0395504 0.0395702 0.0395659 0.0395612 0.0395588 0.0395578 0.0395556 0.0395548 0.039555 0.0395532 0.0395537 0.0395545 0.0395534 0.0395532 0.0395531 0.0395532 0.0395533 0.0395529 0.039553 0.0395525 0.0395527 0.0395523 0.0395527 0.0395523 0.0395522 0.0395517 0.039553 0.0395518 0.0395523 0.0395521 0.0395522 0.0395518 0.0395517 0.0395515 0.0395517 0.0395514 0.0395511 0.0395517 0.039552 0.039551 0.0395514 0.0395519 0.0395513 0.039552 0.0395507 0.039551 0.0395514 0.039551 0.0395505 0.0395518 0.0395511 0.0395513 0.0395503 0.039551 0.0395508 0.0395509 0.039551 0.0395512 0.0395514 0.0395508 0.0395511 0.0395509 0.0395504 0.0395505 0.0395506 0.0395776 0.0395724 0.0395677 0.0395641 0.039562 0.0395602 0.0395588 0.0395589 0.0395574 0.0395569 0.0395576 0.0395564 0.0395568 0.0395561 0.0395564 0.0395562 0.0395555 0.0395554 0.0395555 0.0395551 0.0395545 0.0395548 0.0395546 0.0395541 0.0395541 0.0395544 0.0395537 0.0395531 0.0395532 0.0395535 0.039553 0.0395528 0.0395519 0.0395527 0.0395527 0.0395528 0.0395531 0.039552 0.039552 0.0395519 0.0395519 0.0395522 0.039552 0.0395519 0.0395511 0.0395513 0.0395514 0.0395511 0.0395522 0.0395514 0.0395514 0.0395511 0.0395517 0.039551 0.0395511 0.0395512 0.0395508 0.0395507 0.039551 0.0395513 0.0395506 0.0395507 0.0395504 0.0395508 0.0395855 0.0395785 0.0395722 0.0395679 0.0395662 0.039564 0.0395626 0.0395627 0.0395609 0.0395609 0.0395601 0.0395595 0.0395597 0.0395595 0.039559 0.0395589 0.0395582 0.0395578 0.0395584 0.039557 0.0395567 0.0395565 0.0395568 0.039556 0.0395557 0.0395559 0.0395559 0.0395552 0.0395547 0.0395548 0.0395547 0.0395545 0.0395538 0.0395542 0.0395534 0.0395535 0.0395534 0.0395524 0.0395536 0.0395526 0.0395524 0.0395531 0.0395518 0.0395526 0.0395522 0.0395516 0.0395523 0.0395523 0.0395517 0.0395518 0.0395514 0.0395518 0.0395514 0.0395509 0.0395511 0.039551 0.0395513 0.0395507 0.0395508 0.039551 0.0395513 0.0395505 0.0395505 0.0395508 0.0395937 0.0395835 0.0395772 0.0395725 0.03957 0.0395678 0.0395668 0.0395665 0.0395646 0.0395646 0.0395639 0.0395628 0.0395625 0.0395627 0.0395614 0.0395612 0.0395603 0.0395599 0.0395603 0.0395596 0.0395592 0.0395585 0.0395593 0.039558 0.0395573 0.0395574 0.0395573 0.0395561 0.0395568 0.0395562 0.039556 0.0395559 0.0395555 0.0395552 0.039554 0.0395543 0.0395548 0.0395534 0.0395547 0.0395529 0.0395532 0.0395531 0.0395528 0.0395527 0.0395527 0.0395526 0.0395527 0.0395525 0.0395525 0.0395513 0.039552 0.0395521 0.0395515 0.0395514 0.0395516 0.0395511 0.0395516 0.039551 0.0395506 0.0395505 0.0395515 0.0395502 0.0395507 0.039551 0.0395974 0.0395916 0.0395798 0.0395754 0.0395734 0.0395718 0.03957 0.0395697 0.0395685 0.0395676 0.0395673 0.039566 0.0395654 0.0395651 0.0395645 0.0395636 0.0395632 0.0395627 0.0395627 0.0395615 0.0395615 0.0395611 0.0395612 0.0395597 0.0395598 0.0395593 0.0395596 0.0395575 0.0395581 0.0395573 0.0395576 0.0395567 0.0395561 0.039557 0.0395553 0.0395555 0.0395549 0.0395549 0.039555 0.0395544 0.0395546 0.0395539 0.0395535 0.0395532 0.0395527 0.0395532 0.0395525 0.0395528 0.0395526 0.0395511 0.039552 0.0395524 0.0395513 0.0395513 0.0395521 0.0395511 0.0395516 0.0395516 0.0395504 0.0395506 0.0395511 0.0395501 0.0395506 0.039551 0.0396326 0.0395899 0.0395831 0.0395798 0.0395779 0.0395758 0.0395739 0.0395734 0.039572 0.0395711 0.0395704 0.0395695 0.039569 0.0395681 0.0395672 0.0395661 0.0395656 0.0395652 0.0395646 0.0395637 0.0395637 0.0395626 0.039562 0.0395616 0.039561 0.0395606 0.0395609 0.0395595 0.0395598 0.0395591 0.0395592 0.0395581 0.0395573 0.0395582 0.0395569 0.0395567 0.0395549 0.0395563 0.0395543 0.0395548 0.0395549 0.0395532 0.0395544 0.0395536 0.0395541 0.0395531 0.0395533 0.0395526 0.039553 0.0395527 0.039553 0.0395525 0.0395518 0.0395518 0.0395522 0.039552 0.0395513 0.0395507 0.0395519 0.039551 0.0395512 0.0395506 0.039551 0.0395517 0.0394364 0.0394884 0.0395045 0.0395121 0.0395162 0.0395188 0.03952 0.0395214 0.0395225 0.0395235 0.0395242 0.0395251 0.0395262 0.0395269 0.0395283 0.0395287 0.0395293 0.039531 0.0395317 0.0395325 0.0395335 0.0395336 0.039535 0.0395354 0.0395368 0.0395373 0.0395381 0.0395384 0.0395393 0.0395402 0.039541 0.039541 0.0395412 0.0395424 0.039543 0.0395442 0.0395433 0.0395453 0.039544 0.0395462 0.0395456 0.0395462 0.0395469 0.0395473 0.0395469 0.0395483 0.0395474 0.0395486 0.0395492 0.039549 0.03955 0.0395495 0.0395495 0.0395503 0.0395509 0.0395505 0.0395505 0.0395503 0.0395512 0.0395512 0.0395512 0.039551 0.0395515 0.0395513 0.0394909 0.0394879 0.0395028 0.039511 0.0395157 0.0395187 0.0395213 0.0395224 0.0395235 0.039525 0.0395258 0.0395265 0.0395272 0.0395283 0.0395298 0.0395308 0.0395305 0.0395318 0.0395333 0.0395339 0.0395345 0.0395347 0.0395362 0.0395364 0.0395377 0.0395378 0.0395395 0.0395396 0.0395396 0.0395406 0.039541 0.0395418 0.039543 0.0395429 0.0395427 0.0395446 0.0395436 0.0395451 0.0395451 0.0395466 0.0395454 0.0395467 0.0395471 0.0395476 0.0395477 0.0395477 0.0395482 0.0395488 0.0395492 0.0395496 0.0395496 0.0395486 0.0395501 0.0395504 0.0395499 0.0395501 0.0395506 0.0395507 0.0395508 0.0395506 0.0395506 0.0395508 0.0395508 0.0395513 0.0394982 0.0395032 0.0395074 0.0395141 0.0395179 0.039521 0.0395237 0.0395246 0.0395255 0.0395273 0.0395281 0.0395289 0.03953 0.0395303 0.0395317 0.0395323 0.0395328 0.0395335 0.0395344 0.0395358 0.0395354 0.0395368 0.039538 0.0395377 0.0395385 0.0395392 0.0395402 0.0395403 0.0395413 0.0395421 0.039542 0.0395422 0.0395442 0.0395433 0.0395438 0.0395451 0.0395449 0.0395453 0.0395464 0.0395465 0.039546 0.0395477 0.0395469 0.0395484 0.0395482 0.0395486 0.0395483 0.0395491 0.0395492 0.0395501 0.0395499 0.0395495 0.0395496 0.03955 0.0395497 0.0395508 0.0395504 0.0395509 0.0395508 0.039551 0.0395511 0.0395508 0.0395507 0.0395511 0.0395101 0.0395126 0.039515 0.0395189 0.0395219 0.0395246 0.0395262 0.0395278 0.0395292 0.0395295 0.0395304 0.039532 0.0395323 0.0395333 0.0395342 0.0395348 0.0395352 0.0395355 0.0395368 0.0395375 0.0395379 0.0395383 0.0395387 0.03954 0.0395402 0.0395406 0.0395406 0.039542 0.0395426 0.0395431 0.0395436 0.0395428 0.0395448 0.0395446 0.0395457 0.0395452 0.0395457 0.0395459 0.039547 0.0395468 0.039547 0.0395476 0.0395477 0.0395491 0.0395483 0.0395484 0.0395486 0.0395494 0.0395492 0.0395493 0.0395495 0.0395499 0.0395489 0.0395501 0.0395501 0.0395505 0.0395511 0.0395503 0.0395501 0.0395514 0.0395502 0.0395506 0.0395504 0.0395514 0.0395192 0.0395216 0.0395225 0.0395247 0.0395266 0.0395289 0.0395302 0.0395314 0.0395327 0.0395328 0.0395334 0.039535 0.0395349 0.0395362 0.0395366 0.0395371 0.0395371 0.0395379 0.0395389 0.0395388 0.0395401 0.0395399 0.0395405 0.0395415 0.0395417 0.0395423 0.0395426 0.0395435 0.0395433 0.039544 0.0395451 0.039545 0.0395451 0.0395455 0.0395462 0.0395457 0.0395467 0.0395468 0.0395472 0.0395472 0.0395477 0.0395471 0.039549 0.0395492 0.0395483 0.0395479 0.0395488 0.0395496 0.0395492 0.0395493 0.0395497 0.0395498 0.0395495 0.0395505 0.0395502 0.03955 0.03955 0.0395504 0.0395511 0.0395505 0.0395503 0.0395506 0.0395512 0.0395519 0.0395287 0.0395296 0.0395301 0.0395312 0.0395321 0.0395329 0.0395341 0.0395347 0.039536 0.0395366 0.0395369 0.0395378 0.0395382 0.0395385 0.0395394 0.0395396 0.03954 0.0395407 0.0395409 0.0395412 0.0395425 0.0395426 0.0395426 0.0395429 0.0395435 0.0395438 0.0395441 0.0395448 0.0395447 0.0395452 0.0395451 0.0395457 0.0395463 0.0395459 0.0395467 0.0395467 0.039547 0.0395475 0.0395482 0.0395477 0.0395492 0.0395474 0.0395492 0.0395493 0.0395493 0.0395491 0.0395493 0.0395497 0.0395498 0.0395494 0.03955 0.0395501 0.0395504 0.0395504 0.039551 0.03955 0.0395503 0.0395503 0.039551 0.0395495 0.0395509 0.0395503 0.0395509 0.0395513 0.0395373 0.0395372 0.0395371 0.0395373 0.0395373 0.0395375 0.0395386 0.0395386 0.0395397 0.0395399 0.0395409 0.0395404 0.039541 0.0395415 0.0395418 0.0395422 0.0395426 0.039543 0.039543 0.0395437 0.0395445 0.0395444 0.0395449 0.0395449 0.0395453 0.0395453 0.0395458 0.0395461 0.0395461 0.0395468 0.0395463 0.0395474 0.0395477 0.0395472 0.0395475 0.0395484 0.039548 0.0395483 0.0395487 0.0395481 0.0395498 0.0395484 0.0395489 0.0395493 0.0395496 0.0395497 0.0395492 0.0395502 0.0395494 0.03955 0.0395498 0.0395503 0.03955 0.0395496 0.0395515 0.0395499 0.0395503 0.0395502 0.039551 0.0395506 0.0395509 0.0395505 0.039551 0.0395508 0.0395458 0.0395439 0.0395432 0.0395433 0.0395425 0.0395429 0.0395426 0.0395425 0.0395431 0.0395437 0.0395443 0.0395436 0.039544 0.0395449 0.0395446 0.0395444 0.039545 0.0395453 0.0395458 0.0395463 0.0395465 0.0395465 0.0395466 0.0395464 0.0395469 0.0395474 0.0395472 0.0395475 0.0395476 0.0395478 0.0395483 0.0395482 0.0395487 0.0395486 0.0395482 0.0395485 0.0395491 0.0395487 0.0395489 0.0395492 0.0395501 0.0395495 0.0395494 0.0395496 0.0395497 0.03955 0.0395494 0.0395504 0.0395499 0.0395501 0.0395501 0.0395508 0.0395501 0.0395498 0.0395513 0.0395503 0.0395506 0.0395514 0.0395509 0.0395509 0.0395501 0.0395503 0.0395511 0.0395503 0.0395541 0.0395511 0.0395493 0.0395489 0.0395472 0.0395466 0.0395468 0.0395461 0.0395468 0.0395469 0.0395469 0.0395474 0.039548 0.0395473 0.0395469 0.0395473 0.0395481 0.0395475 0.0395483 0.0395485 0.039548 0.0395489 0.0395485 0.0395488 0.0395485 0.0395496 0.0395494 0.0395488 0.0395491 0.0395495 0.0395498 0.0395488 0.0395494 0.0395494 0.0395499 0.0395489 0.0395501 0.0395502 0.03955 0.0395502 0.03955 0.0395498 0.0395501 0.0395504 0.0395504 0.039551 0.03955 0.0395507 0.0395503 0.0395502 0.0395505 0.0395508 0.0395504 0.0395505 0.0395511 0.0395502 0.0395501 0.039552 0.0395503 0.0395502 0.0395511 0.0395515 0.0395503 0.0395503 0.0395618 0.0395582 0.0395557 0.0395535 0.0395523 0.0395512 0.0395513 0.0395507 0.0395501 0.0395501 0.0395511 0.0395506 0.0395504 0.0395501 0.0395506 0.0395511 0.0395503 0.0395506 0.0395508 0.0395507 0.0395499 0.0395506 0.0395506 0.0395508 0.0395498 0.0395504 0.0395503 0.0395506 0.0395504 0.0395505 0.0395504 0.0395504 0.0395513 0.0395509 0.0395507 0.0395502 0.0395513 0.0395514 0.0395509 0.0395507 0.0395511 0.03955 0.0395507 0.0395506 0.0395512 0.0395514 0.0395501 0.0395511 0.0395499 0.0395504 0.0395508 0.0395504 0.0395503 0.0395514 0.0395506 0.03955 0.0395499 0.0395515 0.0395506 0.03955 0.039551 0.0395507 0.0395503 0.0395507 0.0395698 0.0395648 0.0395604 0.0395578 0.0395569 0.0395555 0.039555 0.0395548 0.0395535 0.039553 0.0395541 0.0395537 0.0395531 0.0395535 0.039553 0.0395535 0.0395526 0.0395534 0.0395529 0.0395531 0.0395527 0.0395523 0.0395526 0.0395524 0.039552 0.0395525 0.039552 0.0395525 0.039552 0.039552 0.0395517 0.0395523 0.0395516 0.0395529 0.0395515 0.0395511 0.0395518 0.0395514 0.0395519 0.0395511 0.039552 0.0395504 0.0395516 0.0395512 0.0395514 0.0395516 0.0395507 0.0395507 0.0395511 0.0395512 0.0395517 0.0395503 0.0395508 0.039551 0.0395512 0.0395507 0.0395509 0.0395504 0.0395505 0.039551 0.0395506 0.0395508 0.0395508 0.0395502 0.0395779 0.0395714 0.0395667 0.0395631 0.0395613 0.0395594 0.0395584 0.0395584 0.039558 0.0395573 0.0395575 0.0395572 0.0395563 0.0395565 0.0395558 0.0395565 0.0395553 0.0395554 0.0395551 0.039555 0.0395549 0.039555 0.039555 0.0395541 0.0395536 0.039554 0.0395542 0.0395536 0.0395534 0.0395542 0.039553 0.0395534 0.0395529 0.0395534 0.0395526 0.0395527 0.0395531 0.039552 0.0395524 0.039552 0.0395524 0.0395522 0.0395516 0.0395517 0.0395513 0.0395515 0.0395511 0.0395518 0.0395516 0.0395506 0.0395508 0.0395512 0.0395511 0.0395507 0.0395513 0.0395509 0.0395511 0.0395502 0.0395508 0.0395513 0.0395511 0.0395508 0.0395503 0.0395503 0.0395856 0.039577 0.0395713 0.0395675 0.0395654 0.0395631 0.0395621 0.0395617 0.0395608 0.0395608 0.0395606 0.0395603 0.0395596 0.0395592 0.0395589 0.0395587 0.0395581 0.0395581 0.0395579 0.039557 0.0395566 0.0395566 0.0395571 0.0395562 0.0395559 0.0395562 0.039556 0.0395553 0.0395551 0.0395553 0.0395546 0.0395547 0.0395548 0.0395541 0.0395535 0.0395536 0.0395533 0.0395523 0.0395539 0.0395526 0.0395528 0.0395527 0.0395525 0.0395521 0.0395516 0.039552 0.0395517 0.0395522 0.0395515 0.039552 0.0395515 0.0395516 0.0395513 0.039551 0.0395514 0.0395516 0.0395511 0.0395506 0.0395508 0.0395509 0.0395515 0.0395501 0.0395502 0.0395503 0.0395933 0.0395818 0.0395767 0.0395713 0.0395687 0.0395663 0.0395659 0.0395657 0.0395644 0.039564 0.0395636 0.0395628 0.0395628 0.0395623 0.0395619 0.0395609 0.0395603 0.0395604 0.0395598 0.0395601 0.0395588 0.0395584 0.0395592 0.039558 0.0395576 0.0395576 0.0395574 0.0395569 0.0395564 0.0395555 0.0395562 0.0395559 0.0395557 0.0395542 0.0395544 0.0395548 0.0395548 0.0395534 0.0395553 0.0395531 0.0395536 0.0395522 0.0395531 0.0395521 0.0395527 0.0395532 0.039552 0.0395519 0.0395525 0.0395521 0.0395518 0.0395511 0.0395514 0.0395513 0.0395516 0.039551 0.0395508 0.0395513 0.0395509 0.0395507 0.0395511 0.0395503 0.0395514 0.0395507 0.0395981 0.0395899 0.0395793 0.0395746 0.0395724 0.0395707 0.0395694 0.0395691 0.0395681 0.0395672 0.039567 0.039566 0.0395657 0.039565 0.0395648 0.0395638 0.0395634 0.0395632 0.0395624 0.039562 0.0395615 0.0395613 0.0395611 0.03956 0.0395595 0.0395593 0.0395596 0.0395584 0.0395581 0.0395574 0.0395573 0.039557 0.0395563 0.0395559 0.0395554 0.0395559 0.0395554 0.0395544 0.0395548 0.0395542 0.0395539 0.0395542 0.0395537 0.0395528 0.0395531 0.0395533 0.0395522 0.0395531 0.0395523 0.0395519 0.0395519 0.0395518 0.0395515 0.039551 0.0395523 0.0395513 0.0395514 0.0395509 0.0395499 0.0395514 0.0395513 0.0395504 0.0395517 0.039551 0.0396307 0.0395891 0.039583 0.0395781 0.0395765 0.0395745 0.0395735 0.0395725 0.0395714 0.039571 0.0395703 0.0395695 0.0395691 0.0395687 0.0395673 0.0395668 0.0395666 0.0395654 0.0395651 0.0395642 0.0395641 0.039563 0.0395627 0.0395621 0.0395611 0.0395615 0.039561 0.0395592 0.0395596 0.0395596 0.0395583 0.0395579 0.0395576 0.0395575 0.0395571 0.0395563 0.0395559 0.0395571 0.0395552 0.0395546 0.0395553 0.0395545 0.0395543 0.0395534 0.0395535 0.0395539 0.0395532 0.0395522 0.0395529 0.0395531 0.0395521 0.0395517 0.0395524 0.0395527 0.0395518 0.0395517 0.039551 0.039551 0.0395517 0.0395514 0.0395505 0.0395512 0.0395515 0.0395518 0.0394477 0.0394893 0.0395074 0.0395168 0.0395202 0.0395216 0.0395222 0.039523 0.0395239 0.0395246 0.0395253 0.0395262 0.0395268 0.0395281 0.0395286 0.0395297 0.0395306 0.0395312 0.0395325 0.0395327 0.0395338 0.0395343 0.0395352 0.0395358 0.0395371 0.0395376 0.0395386 0.0395382 0.0395397 0.0395408 0.0395409 0.039541 0.0395424 0.0395424 0.039543 0.0395438 0.039544 0.0395454 0.0395446 0.0395457 0.0395455 0.0395466 0.0395467 0.0395468 0.0395481 0.039548 0.0395477 0.0395489 0.0395487 0.0395488 0.0395498 0.0395499 0.0395488 0.0395493 0.0395508 0.03955 0.0395505 0.0395501 0.0395513 0.0395502 0.039551 0.0395508 0.0395509 0.0395506 0.0394958 0.03949 0.0395055 0.0395135 0.0395179 0.0395211 0.039522 0.0395233 0.039524 0.0395253 0.0395259 0.0395265 0.0395281 0.0395287 0.0395297 0.039531 0.0395311 0.039532 0.0395327 0.0395337 0.0395348 0.0395346 0.0395363 0.0395364 0.0395379 0.0395382 0.039539 0.0395393 0.0395401 0.0395407 0.0395411 0.0395417 0.0395425 0.0395429 0.0395431 0.0395441 0.0395445 0.0395455 0.0395452 0.0395468 0.0395462 0.0395466 0.0395469 0.0395478 0.0395478 0.0395483 0.0395486 0.0395481 0.0395483 0.0395496 0.0395498 0.0395487 0.0395499 0.0395507 0.0395503 0.0395505 0.0395511 0.0395509 0.0395504 0.0395504 0.0395508 0.0395506 0.0395517 0.0395518 0.039502 0.039502 0.03951 0.0395163 0.0395201 0.0395226 0.0395242 0.0395257 0.0395262 0.0395277 0.0395281 0.0395286 0.03953 0.0395304 0.0395317 0.039532 0.0395324 0.0395331 0.0395342 0.0395352 0.0395359 0.0395363 0.0395369 0.039538 0.0395387 0.0395388 0.0395404 0.0395404 0.0395407 0.0395419 0.0395422 0.0395418 0.0395432 0.0395438 0.0395442 0.039545 0.0395449 0.0395453 0.0395456 0.0395468 0.0395464 0.039547 0.0395467 0.0395484 0.0395476 0.0395489 0.0395484 0.0395485 0.0395486 0.0395499 0.0395495 0.0395491 0.0395499 0.0395504 0.0395508 0.0395501 0.0395499 0.039551 0.0395505 0.0395513 0.0395506 0.0395504 0.039551 0.0395516 0.0395129 0.0395112 0.0395169 0.0395207 0.039524 0.0395259 0.0395274 0.0395289 0.0395298 0.03953 0.0395307 0.0395317 0.0395326 0.0395329 0.0395345 0.0395344 0.0395349 0.0395359 0.0395364 0.0395367 0.0395379 0.0395383 0.0395384 0.03954 0.0395404 0.03954 0.0395411 0.0395415 0.0395425 0.0395428 0.0395429 0.0395423 0.0395446 0.0395444 0.0395451 0.0395457 0.0395451 0.039546 0.0395464 0.0395472 0.0395473 0.0395474 0.0395473 0.0395486 0.0395476 0.0395485 0.0395488 0.0395496 0.0395493 0.0395501 0.0395496 0.0395501 0.0395502 0.0395497 0.0395507 0.0395501 0.0395505 0.0395507 0.0395505 0.0395511 0.0395501 0.0395508 0.039551 0.0395511 0.0395217 0.0395205 0.0395244 0.0395267 0.0395286 0.0395298 0.0395313 0.0395323 0.0395331 0.0395334 0.0395336 0.0395345 0.0395355 0.0395361 0.0395364 0.0395371 0.0395375 0.0395383 0.0395384 0.0395389 0.0395395 0.0395397 0.0395408 0.0395415 0.0395418 0.039542 0.0395425 0.0395427 0.0395437 0.0395438 0.0395442 0.0395444 0.0395453 0.0395452 0.0395461 0.0395461 0.0395467 0.0395468 0.0395465 0.039548 0.039547 0.039548 0.0395481 0.0395489 0.0395484 0.0395486 0.0395498 0.0395492 0.0395492 0.0395499 0.0395493 0.0395501 0.0395508 0.0395501 0.0395507 0.0395503 0.0395503 0.0395507 0.0395513 0.039551 0.0395506 0.0395505 0.0395514 0.0395514 0.03953 0.0395284 0.0395313 0.0395326 0.0395336 0.0395338 0.0395354 0.0395355 0.0395363 0.0395371 0.0395372 0.0395379 0.0395386 0.0395387 0.0395392 0.0395393 0.0395398 0.0395402 0.0395409 0.0395417 0.0395416 0.0395422 0.0395424 0.039543 0.0395438 0.0395437 0.0395445 0.0395443 0.0395451 0.0395451 0.0395454 0.0395454 0.0395464 0.0395463 0.0395464 0.0395465 0.0395474 0.039547 0.0395473 0.0395485 0.0395482 0.0395482 0.0395488 0.0395489 0.039549 0.0395485 0.0395497 0.0395492 0.0395497 0.0395501 0.0395495 0.0395499 0.0395509 0.0395501 0.0395508 0.0395506 0.0395503 0.0395503 0.039551 0.0395506 0.0395512 0.0395508 0.0395505 0.0395511 0.0395382 0.0395365 0.039538 0.039538 0.039538 0.0395382 0.0395391 0.039539 0.0395399 0.0395401 0.0395407 0.0395407 0.0395414 0.0395419 0.0395421 0.0395418 0.0395428 0.0395428 0.0395432 0.0395438 0.0395436 0.0395444 0.0395447 0.0395449 0.0395452 0.0395448 0.0395462 0.039546 0.0395463 0.0395462 0.0395468 0.0395471 0.0395474 0.0395471 0.0395477 0.039548 0.0395482 0.0395478 0.0395484 0.0395486 0.039549 0.0395483 0.0395495 0.0395492 0.0395492 0.0395494 0.0395491 0.0395498 0.0395498 0.0395504 0.0395493 0.0395509 0.0395499 0.0395494 0.0395504 0.0395509 0.0395506 0.0395498 0.0395508 0.0395509 0.0395513 0.0395512 0.0395504 0.0395503 0.039546 0.0395443 0.0395438 0.0395435 0.0395427 0.039543 0.0395433 0.0395431 0.0395435 0.0395434 0.0395441 0.0395438 0.0395445 0.0395452 0.0395447 0.0395453 0.0395456 0.0395454 0.0395459 0.0395459 0.0395461 0.0395465 0.0395463 0.0395463 0.0395469 0.0395467 0.0395473 0.0395473 0.039548 0.0395474 0.0395484 0.0395484 0.0395486 0.0395483 0.0395484 0.0395494 0.0395487 0.0395483 0.03955 0.0395493 0.0395501 0.039549 0.0395501 0.0395504 0.0395493 0.0395502 0.0395491 0.0395507 0.0395502 0.0395503 0.0395497 0.0395509 0.0395503 0.0395502 0.0395503 0.0395504 0.0395509 0.0395508 0.0395506 0.0395508 0.0395508 0.0395501 0.0395509 0.0395501 0.0395538 0.0395519 0.039549 0.0395484 0.0395474 0.0395476 0.039547 0.0395467 0.0395469 0.039547 0.0395469 0.0395471 0.0395475 0.0395476 0.0395475 0.0395474 0.0395484 0.0395483 0.0395482 0.039548 0.0395486 0.0395489 0.0395487 0.0395486 0.0395487 0.0395486 0.0395492 0.0395486 0.0395495 0.0395496 0.0395492 0.0395494 0.0395493 0.0395501 0.0395494 0.03955 0.0395495 0.0395492 0.0395508 0.0395497 0.0395501 0.0395499 0.0395507 0.0395503 0.0395501 0.0395508 0.0395498 0.0395512 0.0395508 0.0395506 0.0395505 0.0395506 0.0395503 0.0395507 0.039551 0.0395503 0.0395504 0.0395511 0.0395504 0.0395502 0.0395506 0.0395508 0.0395502 0.0395498 0.0395612 0.0395593 0.0395544 0.0395526 0.039552 0.0395516 0.0395506 0.0395506 0.0395508 0.0395505 0.0395502 0.0395507 0.0395507 0.0395506 0.0395506 0.0395503 0.0395505 0.0395505 0.039551 0.0395509 0.0395504 0.0395503 0.0395505 0.0395503 0.0395506 0.0395504 0.0395506 0.0395501 0.0395508 0.0395507 0.0395502 0.0395504 0.0395505 0.0395511 0.0395503 0.0395508 0.0395508 0.0395504 0.0395508 0.0395504 0.0395514 0.0395498 0.0395506 0.0395506 0.0395513 0.0395516 0.03955 0.0395509 0.0395508 0.0395507 0.0395504 0.0395505 0.0395504 0.0395509 0.0395508 0.03955 0.0395501 0.0395507 0.0395506 0.0395502 0.0395509 0.0395507 0.0395506 0.0395505 0.0395683 0.039566 0.0395598 0.0395571 0.0395567 0.0395554 0.0395545 0.0395542 0.0395538 0.0395533 0.0395538 0.039554 0.0395535 0.0395536 0.039553 0.0395535 0.0395526 0.0395528 0.0395534 0.0395535 0.0395528 0.0395523 0.0395524 0.0395524 0.0395525 0.0395525 0.0395529 0.0395522 0.0395521 0.0395518 0.0395513 0.0395514 0.0395523 0.0395525 0.0395512 0.0395519 0.0395512 0.0395517 0.0395509 0.0395513 0.0395526 0.0395499 0.0395512 0.0395516 0.0395513 0.039552 0.0395502 0.0395514 0.039551 0.0395512 0.0395514 0.039551 0.0395514 0.0395513 0.0395514 0.0395503 0.0395505 0.0395509 0.0395509 0.039551 0.0395504 0.0395507 0.0395506 0.0395508 0.0395756 0.0395725 0.0395651 0.0395618 0.0395603 0.0395589 0.0395579 0.0395585 0.0395578 0.0395571 0.0395574 0.0395569 0.0395564 0.0395572 0.0395562 0.0395562 0.0395558 0.0395555 0.0395554 0.0395554 0.0395551 0.0395547 0.0395549 0.0395548 0.0395541 0.0395543 0.0395546 0.0395537 0.0395535 0.0395539 0.039553 0.0395532 0.0395535 0.0395531 0.0395525 0.0395533 0.0395523 0.0395525 0.0395517 0.0395529 0.0395527 0.0395512 0.0395522 0.0395521 0.0395518 0.0395518 0.0395507 0.0395525 0.0395515 0.0395508 0.0395506 0.0395515 0.0395507 0.0395508 0.0395509 0.0395508 0.0395503 0.0395512 0.0395511 0.0395502 0.0395507 0.0395503 0.039551 0.0395515 0.0395827 0.0395787 0.0395695 0.0395665 0.0395646 0.0395628 0.0395619 0.0395616 0.0395612 0.0395607 0.0395607 0.03956 0.03956 0.0395593 0.0395589 0.0395584 0.0395582 0.0395588 0.0395583 0.0395574 0.0395575 0.0395571 0.0395566 0.0395564 0.0395555 0.0395557 0.0395565 0.0395556 0.039555 0.0395551 0.0395547 0.0395545 0.0395541 0.039554 0.039554 0.0395537 0.0395535 0.0395522 0.0395529 0.0395533 0.0395529 0.0395521 0.0395529 0.0395527 0.039552 0.0395512 0.0395516 0.0395522 0.0395514 0.0395513 0.0395518 0.0395519 0.0395509 0.0395508 0.039551 0.0395515 0.0395502 0.0395513 0.0395509 0.0395505 0.0395508 0.03955 0.0395505 0.0395504 0.0395902 0.0395836 0.0395739 0.0395698 0.0395678 0.0395661 0.039565 0.0395651 0.0395646 0.0395644 0.0395641 0.0395627 0.0395632 0.0395624 0.0395622 0.0395613 0.0395605 0.039561 0.03956 0.0395602 0.0395589 0.0395586 0.0395597 0.0395586 0.0395575 0.0395575 0.0395575 0.0395575 0.0395563 0.0395559 0.0395564 0.0395555 0.0395552 0.0395548 0.0395549 0.0395551 0.0395551 0.0395536 0.0395547 0.0395538 0.0395536 0.0395521 0.0395533 0.0395525 0.0395528 0.0395522 0.0395524 0.0395522 0.0395523 0.0395519 0.0395516 0.0395518 0.0395514 0.039551 0.0395516 0.0395513 0.0395504 0.0395513 0.0395512 0.0395514 0.0395514 0.0395509 0.0395506 0.0395503 0.039594 0.0395908 0.0395772 0.039573 0.0395708 0.0395699 0.0395683 0.0395688 0.0395683 0.0395671 0.0395668 0.0395659 0.0395657 0.0395651 0.0395647 0.039564 0.0395634 0.0395631 0.0395625 0.0395622 0.0395614 0.0395615 0.0395616 0.0395604 0.039559 0.0395589 0.0395596 0.0395586 0.0395575 0.0395577 0.0395574 0.0395572 0.0395565 0.0395555 0.039556 0.0395559 0.0395555 0.0395545 0.0395543 0.0395543 0.0395535 0.0395541 0.0395539 0.0395534 0.0395535 0.0395523 0.0395525 0.0395525 0.0395524 0.0395521 0.0395518 0.0395525 0.0395509 0.0395509 0.0395516 0.0395512 0.0395518 0.0395515 0.0395505 0.0395513 0.0395515 0.0395495 0.0395508 0.0395501 0.0396247 0.0395922 0.0395809 0.0395764 0.0395741 0.0395728 0.0395722 0.0395721 0.0395717 0.0395703 0.0395704 0.0395701 0.0395689 0.0395681 0.0395678 0.0395671 0.0395663 0.0395656 0.0395653 0.0395644 0.0395639 0.0395632 0.0395627 0.0395623 0.0395617 0.0395614 0.0395607 0.0395598 0.0395591 0.0395592 0.0395579 0.0395587 0.0395585 0.0395568 0.0395575 0.039556 0.0395563 0.0395574 0.0395559 0.039555 0.0395547 0.0395553 0.0395542 0.0395536 0.0395537 0.0395542 0.0395531 0.0395522 0.0395527 0.0395529 0.0395519 0.0395517 0.0395511 0.0395523 0.0395516 0.0395509 0.0395518 0.0395515 0.0395509 0.039551 0.03955 0.03955 0.0395507 0.0395503 0.0394205 0.0394997 0.0395165 0.0395221 0.0395227 0.039523 0.039524 0.0395244 0.039525 0.0395256 0.0395261 0.0395273 0.0395277 0.0395292 0.0395295 0.0395305 0.0395315 0.0395321 0.0395331 0.0395333 0.0395343 0.0395357 0.0395354 0.0395365 0.0395374 0.039538 0.0395391 0.0395389 0.0395402 0.0395405 0.0395415 0.0395415 0.0395428 0.0395421 0.0395442 0.0395433 0.0395446 0.0395455 0.0395444 0.0395456 0.0395454 0.0395477 0.0395468 0.0395472 0.0395476 0.0395491 0.0395483 0.0395481 0.0395499 0.0395485 0.0395487 0.0395504 0.0395491 0.0395493 0.039551 0.0395494 0.0395514 0.0395494 0.0395518 0.03955 0.0395513 0.0395509 0.0395508 0.039551 0.0394596 0.0394917 0.0395104 0.0395183 0.0395215 0.0395231 0.0395232 0.0395239 0.0395244 0.0395247 0.0395258 0.0395261 0.0395272 0.0395285 0.0395286 0.0395298 0.0395306 0.0395312 0.0395327 0.0395338 0.039534 0.039535 0.0395351 0.0395362 0.0395372 0.0395375 0.0395387 0.0395385 0.0395405 0.0395399 0.0395407 0.0395418 0.0395421 0.0395424 0.0395437 0.0395433 0.0395447 0.0395453 0.0395453 0.0395456 0.0395467 0.0395465 0.0395469 0.0395478 0.0395471 0.0395479 0.0395487 0.0395475 0.0395483 0.0395497 0.0395504 0.0395506 0.0395495 0.0395495 0.0395503 0.0395507 0.0395509 0.0395501 0.0395515 0.03955 0.0395511 0.0395512 0.0395518 0.0395523 0.0394745 0.0395056 0.039514 0.0395202 0.0395234 0.0395252 0.0395255 0.0395272 0.039527 0.0395278 0.0395285 0.0395284 0.0395298 0.0395306 0.0395307 0.0395318 0.0395321 0.039533 0.0395339 0.0395352 0.0395359 0.0395361 0.0395367 0.0395377 0.0395382 0.0395391 0.0395404 0.0395402 0.0395407 0.039541 0.0395423 0.0395422 0.0395425 0.039544 0.0395442 0.0395441 0.039545 0.0395456 0.0395455 0.0395455 0.0395472 0.0395469 0.0395473 0.0395477 0.039547 0.0395482 0.0395482 0.0395484 0.0395488 0.0395494 0.0395498 0.0395494 0.0395501 0.0395503 0.0395509 0.0395501 0.0395506 0.0395496 0.0395508 0.0395517 0.0395509 0.0395503 0.0395509 0.0395514 0.0394916 0.0395152 0.0395205 0.0395246 0.0395268 0.0395279 0.0395289 0.0395306 0.0395301 0.0395309 0.0395312 0.0395319 0.0395329 0.0395329 0.0395341 0.0395342 0.0395346 0.0395359 0.039536 0.0395371 0.0395379 0.039538 0.0395387 0.0395394 0.0395397 0.0395407 0.0395413 0.0395414 0.0395421 0.039542 0.0395432 0.039543 0.039544 0.0395445 0.039544 0.0395452 0.0395454 0.0395462 0.0395467 0.0395467 0.0395481 0.039547 0.0395475 0.0395486 0.0395472 0.0395492 0.0395482 0.0395488 0.0395489 0.03955 0.03955 0.0395489 0.0395506 0.0395495 0.0395509 0.0395498 0.0395512 0.0395498 0.0395506 0.0395506 0.0395503 0.0395506 0.0395507 0.0395502 0.0395055 0.0395243 0.0395276 0.0395292 0.0395312 0.0395318 0.0395325 0.0395336 0.0395341 0.0395338 0.0395345 0.0395348 0.0395357 0.0395354 0.0395369 0.0395369 0.0395373 0.0395385 0.0395381 0.0395398 0.0395395 0.0395401 0.0395406 0.0395412 0.0395418 0.039542 0.0395425 0.0395428 0.0395435 0.0395438 0.0395439 0.039545 0.0395451 0.039545 0.0395459 0.0395461 0.0395466 0.0395469 0.0395466 0.0395474 0.0395467 0.0395482 0.039548 0.0395491 0.039548 0.0395487 0.0395486 0.0395493 0.0395489 0.03955 0.0395498 0.0395493 0.03955 0.0395497 0.0395505 0.0395502 0.03955 0.0395508 0.0395509 0.0395503 0.0395508 0.0395502 0.0395508 0.0395502 0.0395192 0.0395326 0.0395329 0.0395342 0.0395351 0.0395355 0.0395363 0.0395363 0.0395374 0.0395374 0.0395382 0.0395378 0.0395385 0.0395389 0.0395396 0.0395402 0.0395396 0.0395402 0.0395406 0.039542 0.0395416 0.0395418 0.0395428 0.0395431 0.0395433 0.0395436 0.0395444 0.0395443 0.0395453 0.0395449 0.0395459 0.0395458 0.0395458 0.0395463 0.0395471 0.0395466 0.0395469 0.039548 0.0395473 0.0395483 0.0395478 0.0395489 0.0395493 0.0395494 0.0395483 0.0395484 0.0395491 0.0395498 0.0395493 0.0395498 0.0395505 0.03955 0.0395496 0.0395499 0.0395508 0.0395502 0.03955 0.0395501 0.0395503 0.0395506 0.0395505 0.0395494 0.0395508 0.0395503 0.039532 0.0395393 0.0395389 0.0395397 0.0395391 0.0395397 0.0395397 0.0395397 0.0395407 0.0395409 0.0395411 0.0395409 0.0395412 0.039542 0.0395417 0.0395425 0.0395429 0.0395427 0.0395436 0.0395439 0.0395445 0.0395447 0.0395446 0.039545 0.0395451 0.0395452 0.0395457 0.0395455 0.0395465 0.039546 0.039547 0.0395466 0.0395477 0.039547 0.0395479 0.0395482 0.0395476 0.039548 0.0395483 0.0395485 0.0395489 0.0395481 0.0395492 0.0395493 0.0395491 0.03955 0.0395496 0.0395502 0.0395499 0.0395498 0.0395504 0.0395506 0.0395497 0.03955 0.0395506 0.0395503 0.0395505 0.0395506 0.0395508 0.0395506 0.039551 0.0395495 0.039551 0.039551 0.0395434 0.0395452 0.0395444 0.0395442 0.0395435 0.0395434 0.0395438 0.0395436 0.039544 0.0395434 0.0395447 0.0395445 0.0395442 0.0395449 0.0395449 0.0395452 0.0395457 0.0395454 0.0395458 0.0395459 0.0395466 0.0395466 0.0395457 0.0395471 0.0395476 0.0395469 0.0395472 0.0395475 0.0395481 0.0395483 0.0395482 0.0395482 0.0395487 0.0395482 0.0395482 0.0395495 0.0395483 0.0395491 0.0395496 0.0395491 0.0395498 0.0395492 0.0395492 0.03955 0.0395494 0.0395496 0.039549 0.0395504 0.03955 0.03955 0.0395506 0.0395499 0.0395508 0.0395508 0.0395502 0.0395505 0.039551 0.0395507 0.039551 0.0395501 0.039551 0.0395494 0.0395513 0.0395511 0.0395555 0.0395514 0.0395491 0.0395487 0.0395476 0.0395475 0.0395472 0.0395471 0.039547 0.0395469 0.0395477 0.0395479 0.0395472 0.0395476 0.0395479 0.0395477 0.0395472 0.0395488 0.0395485 0.0395483 0.0395486 0.0395489 0.039548 0.0395488 0.0395488 0.0395486 0.0395488 0.0395493 0.0395501 0.0395494 0.0395484 0.0395497 0.0395493 0.0395503 0.0395485 0.03955 0.0395492 0.0395506 0.0395505 0.0395491 0.0395508 0.0395498 0.03955 0.03955 0.03955 0.0395499 0.0395505 0.039551 0.0395501 0.039551 0.0395519 0.0395494 0.0395505 0.0395503 0.039551 0.0395499 0.0395508 0.0395502 0.0395505 0.0395513 0.0395517 0.0395508 0.0395504 0.0395507 0.039567 0.0395571 0.039554 0.0395528 0.0395519 0.0395516 0.039551 0.0395508 0.039551 0.039551 0.0395505 0.0395507 0.0395505 0.0395515 0.0395509 0.0395509 0.0395504 0.0395509 0.0395508 0.0395506 0.0395499 0.0395507 0.0395507 0.0395504 0.039551 0.0395506 0.0395503 0.0395504 0.0395513 0.0395505 0.0395512 0.0395505 0.0395506 0.0395509 0.0395501 0.0395508 0.0395504 0.0395509 0.0395514 0.03955 0.0395516 0.0395498 0.0395504 0.0395514 0.0395508 0.0395509 0.039551 0.0395508 0.0395501 0.0395513 0.0395507 0.0395498 0.0395504 0.0395502 0.0395512 0.0395501 0.0395505 0.0395506 0.0395508 0.0395509 0.0395514 0.039551 0.0395505 0.0395506 0.039578 0.0395626 0.0395588 0.0395564 0.0395556 0.0395551 0.0395546 0.0395541 0.0395544 0.0395542 0.0395539 0.0395539 0.0395534 0.0395538 0.0395534 0.0395539 0.0395537 0.0395527 0.0395534 0.0395532 0.0395523 0.0395524 0.0395527 0.0395525 0.0395529 0.0395518 0.0395522 0.0395521 0.0395525 0.0395517 0.0395523 0.039552 0.039552 0.0395513 0.0395527 0.0395514 0.0395506 0.0395522 0.0395517 0.0395508 0.0395519 0.0395506 0.0395512 0.0395513 0.0395516 0.0395515 0.0395507 0.0395521 0.0395501 0.0395511 0.0395508 0.0395515 0.0395505 0.0395509 0.0395515 0.0395507 0.039551 0.0395508 0.0395516 0.0395505 0.039551 0.0395507 0.0395508 0.0395511 0.0395896 0.0395679 0.0395636 0.0395605 0.0395588 0.0395586 0.0395577 0.0395577 0.0395578 0.0395579 0.0395573 0.0395568 0.0395572 0.0395567 0.0395563 0.039556 0.0395563 0.039556 0.0395557 0.0395556 0.0395549 0.0395546 0.039555 0.0395547 0.0395541 0.0395536 0.0395543 0.0395536 0.0395537 0.0395536 0.0395528 0.0395543 0.0395527 0.0395527 0.0395539 0.0395522 0.0395519 0.0395528 0.0395525 0.0395525 0.039552 0.0395517 0.0395521 0.0395513 0.0395524 0.0395516 0.0395513 0.039552 0.0395504 0.0395517 0.0395512 0.0395514 0.0395508 0.0395513 0.0395507 0.0395515 0.0395514 0.0395505 0.0395515 0.0395508 0.0395509 0.0395508 0.0395508 0.0395513 0.0396018 0.0395738 0.0395672 0.0395643 0.0395632 0.0395621 0.0395616 0.0395614 0.0395613 0.0395608 0.0395606 0.0395596 0.0395602 0.0395596 0.0395593 0.0395586 0.0395583 0.0395588 0.0395581 0.0395576 0.0395572 0.0395574 0.0395571 0.0395562 0.0395561 0.0395561 0.0395564 0.0395555 0.0395552 0.0395554 0.0395544 0.0395549 0.0395542 0.0395538 0.039554 0.0395532 0.0395539 0.0395532 0.0395531 0.0395533 0.039552 0.0395526 0.0395532 0.0395525 0.0395526 0.0395512 0.0395523 0.0395511 0.0395516 0.0395521 0.0395519 0.0395511 0.0395516 0.0395512 0.0395511 0.0395529 0.0395508 0.0395504 0.0395509 0.0395513 0.0395503 0.0395498 0.039551 0.0395504 0.0396142 0.0395787 0.039571 0.0395676 0.0395664 0.0395655 0.0395649 0.0395647 0.0395649 0.0395644 0.0395643 0.0395631 0.0395629 0.0395629 0.0395624 0.0395621 0.0395614 0.0395611 0.0395604 0.0395604 0.0395595 0.0395588 0.039559 0.0395584 0.0395582 0.0395578 0.0395571 0.0395572 0.0395565 0.0395567 0.0395561 0.0395556 0.0395552 0.0395552 0.039555 0.0395537 0.0395549 0.0395547 0.0395533 0.0395547 0.0395531 0.0395532 0.0395541 0.0395522 0.0395531 0.0395522 0.0395524 0.0395517 0.0395523 0.0395514 0.0395519 0.0395516 0.039552 0.0395517 0.0395515 0.0395516 0.0395515 0.0395506 0.0395513 0.0395508 0.0395505 0.0395501 0.0395513 0.0395508 0.0396241 0.0395869 0.0395741 0.039571 0.0395695 0.0395696 0.0395687 0.0395684 0.0395682 0.0395673 0.039567 0.0395662 0.0395659 0.0395665 0.0395646 0.039564 0.0395641 0.0395634 0.0395627 0.0395627 0.0395619 0.0395616 0.0395606 0.0395604 0.0395598 0.0395594 0.0395591 0.0395591 0.0395582 0.0395581 0.0395572 0.0395573 0.0395561 0.0395566 0.0395559 0.0395552 0.0395552 0.0395558 0.0395533 0.0395549 0.0395541 0.039554 0.0395536 0.0395534 0.0395537 0.0395529 0.0395519 0.0395524 0.0395529 0.0395529 0.0395516 0.0395527 0.0395521 0.0395509 0.0395515 0.0395511 0.0395522 0.0395506 0.0395514 0.0395506 0.0395509 0.0395498 0.0395515 0.0395509 0.0396539 0.0395871 0.0395754 0.0395736 0.0395726 0.039573 0.0395727 0.039572 0.039571 0.0395705 0.0395702 0.0395694 0.0395687 0.0395683 0.0395679 0.0395663 0.0395659 0.039566 0.0395655 0.0395646 0.0395639 0.0395637 0.0395626 0.0395624 0.0395614 0.0395616 0.039561 0.03956 0.0395592 0.0395593 0.0395587 0.0395581 0.039558 0.0395576 0.0395568 0.0395564 0.039556 0.0395558 0.039555 0.0395559 0.0395546 0.0395547 0.0395543 0.0395546 0.0395532 0.039554 0.0395524 0.0395534 0.0395532 0.0395525 0.0395519 0.039553 0.0395516 0.0395518 0.039552 0.0395509 0.0395526 0.0395512 0.039551 0.039551 0.0395506 0.0395504 0.0395512 0.0395512 
SCALARS volume_diff float 1
LOOKUP_TABLE default
0.0391614 0.039251 0.0392715 0.0392779 0.0392791 0.0392797 0.0392792 0.0392807 0.0392814 0.0392817 0.0392822 0.0392822 0.0392835 0.0392841 0.0392851 0.0392861 0.0392871 0.0392876 0.039288 0.0392891 0.0392904 0.0392906 0.0392918 0.0392924 0.0392934 0.0392937 0.0392945 0.0392955 0.0392959 0.0392952 0.0392975 0.039297 0.0392985 0.0392988 0.0392989 0.0392988 0.0393003 0.0393005 0.039302 0.0393016 0.039302 0.0393023 0.0393022 0.0393033 0.039303 0.0393033 0.0393034 0.0393037 0.0393059 0.039304 0.0393056 0.0393051 0.0393066 0.039305 0.0393073 0.0393056 0.0393072 0.0393053 0.0393078 0.039306 0.0393068 0.0393062 0.0393075 0.0393066 0.0392013 0.0392426 0.0392647 0.0392744 0.0392779 0.0392793 0.0392799 0.0392801 0.0392807 0.0392807 0.0392822 0.0392818 0.0392829 0.0392842 0.0392838 0.0392843 0.0392863 0.0392875 0.0392877 0.039288 0.0392891 0.0392906 0.0392908 0.0392919 0.0392924 0.0392934 0.039294 0.0392947 0.0392956 0.0392956 0.0392963 0.0392973 0.0392976 0.0392983 0.0392992 0.0392993 0.0393003 0.039301 0.0393003 0.0393013 0.039302 0.039302 0.0393018 0.0393028 0.0393028 0.0393049 0.0393039 0.0393048 0.0393054 0.0393036 0.0393062 0.0393052 0.0393056 0.039306 0.0393071 0.0393055 0.039307 0.0393066 0.0393071 0.0393063 0.0393077 0.0393071 0.0393072 0.0393066 0.0392196 0.0392565 0.039268 0.039276 0.0392802 0.039282 0.0392827 0.0392824 0.0392825 0.0392836 0.039284 0.0392842 0.0392853 0.0392858 0.0392864 0.0392862 0.0392877 0.0392891 0.0392896 0.0392902 0.039291 0.0392917 0.0392916 0.0392932 0.0392935 0.0392944 0.0392952 0.0392958 0.0392967 0.0392968 0.039297 0.0392983 0.0392983 0.0392995 0.0393 0.0392996 0.0393003 0.0393003 0.0393011 0.0393016 0.0393024 0.0393023 0.039303 0.0393033 0.0393031 0.0393054 0.0393046 0.0393042 0.0393054 0.0393047 0.0393056 0.0393059 0.0393048 0.0393069 0.0393063 0.0393061 0.0393064 0.0393062 0.0393075 0.0393065 0.0393063 0.0393066 0.039307 0.0393068 0.0392389 0.0392669 0.0392761 0.0392801 0.0392835 0.039285 0.0392861 0.0392862 0.0392862 0.0392876 0.0392872 0.0392874 0.0392883 0.0392881 0.0392893 0.0392893 0.03929 0.039291 0.0392922 0.0392922 0.0392931 0.0392935 0.0392942 0.0392946 0.0392949 0.0392965 0.0392964 0.0392976 0.0392978 0.0392978 0.0392984 0.0392991 0.0392993 0.0392997 0.0393003 0.0393009 0.0393015 0.0393015 0.0393023 0.0393022 0.0393033 0.039303 0.0393035 0.0393043 0.0393042 0.0393045 0.0393038 0.0393039 0.0393056 0.039305 0.0393051 0.0393062 0.0393049 0.0393066 0.0393064 0.0393062 0.0393071 0.0393059 0.0393076 0.0393067 0.0393065 0.0393062 0.0393068 0.039308 0.0392552 0.039277 0.0392823 0.0392851 0.0392875 0.0392886 0.0392894 0.0392894 0.0392902 0.0392901 0.0392907 0.0392911 0.0392913 0.0392918 0.0392918 0.0392926 0.039293 0.0392937 0.0392937 0.0392942 0.039295 0.0392953 0.0392966 0.0392969 0.0392969 0.0392982 0.0392978 0.0392986 0.0392986 0.0392994 0.0393001 0.0392995 0.0393006 0.0393012 0.0393012 0.0393021 0.0393019 0.0393029 0.0393029 0.0393032 0.039303 0.0393034 0.0393048 0.0393041 0.0393032 0.0393046 0.0393045 0.0393051 0.0393057 0.0393046 0.0393049 0.039307 0.039305 0.0393067 0.0393054 0.0393058 0.0393071 0.0393068 0.0393062 0.039307 0.0393073 0.0393065 0.0393063 0.0393074 0.0392704 0.0392852 0.0392887 0.0392902 0.0392917 0.0392927 0.0392928 0.0392929 0.0392938 0.0392933 0.0392936 0.0392943 0.0392942 0.0392944 0.0392949 0.0392959 0.0392961 0.0392968 0.0392964 0.0392969 0.0392973 0.0392975 0.0392987 0.039299 0.0392992 0.0392995 0.0392998 0.0393002 0.0393005 0.0393008 0.0393014 0.0393018 0.0393023 0.0393024 0.0393021 0.0393027 0.039303 0.0393036 0.039304 0.0393036 0.0393035 0.039304 0.0393052 0.0393041 0.039304 0.0393056 0.0393047 0.0393051 0.0393056 0.0393043 0.0393047 0.0393072 0.0393055 0.0393066 0.0393053 0.0393064 0.0393063 0.0393063 0.0393062 0.0393072 0.0393061 0.0393056 0.0393058 0.0393066 0.0392847 0.0392935 0.0392955 0.0392949 0.0392959 0.0392955 0.0392967 0.0392965 0.0392969 0.0392969 0.0392966 0.0392972 0.0392976 0.0392978 0.0392979 0.0392978 0.0392985 0.0392991 0.0392986 0.0392992 0.0392996 0.0392999 0.0393006 0.0393005 0.0393012 0.0393018 0.0393012 0.0393019 0.0393023 0.039302 0.0393023 0.039303 0.0393027 0.0393038 0.0393033 0.0393034 0.0393039 0.0393041 0.0393047 0.0393037 0.0393046 0.0393056 0.0393054 0.0393046 0.0393047 0.0393062 0.0393055 0.0393065 0.0393052 0.0393058 0.0393056 0.0393065 0.0393065 0.0393055 0.0393061 0.0393063 0.0393062 0.0393059 0.0393062 0.0393068 0.0393062 0.0393067 0.0393069 0.0393071 0.0392991 0.0393011 0.0393009 0.0392998 0.0392999 0.0392994 0.0393003 0.0392994 0.0392994 0.0393002 0.0393006 0.0393002 0.0393006 0.0393008 0.0393007 0.039301 0.039301 0.0393018 0.0393009 0.0393023 0.0393023 0.039303 0.0393028 0.0393025 0.0393031 0.0393035 0.0393028 0.0393034 0.0393045 0.0393038 0.0393036 0.0393039 0.0393039 0.0393048 0.0393043 0.0393041 0.0393046 0.039305 0.0393061 0.0393044 0.0393051 0.039305 0.0393061 0.0393049 0.0393055 0.0393062 0.0393058 0.0393067 0.0393057 0.0393067 0.0393061 0.0393058 0.0393065 0.0393055 0.0393069 0.0393069 0.0393068 0.0393066 0.0393068 0.0393055 0.0393071 0.0393067 0.0393071 0.0393071 0.0393129 0.0393077 0.0393054 0.0393037 0.0393034 0.0393033 0.0393035 0.0393035 0.039303 0.039303 0.0393034 0.0393039 0.0393035 0.0393035 0.0393037 0.0393037 0.0393038 0.0393047 0.0393038 0.0393043 0.0393037 0.0393046 0.0393044 0.0393046 0.0393051 0.0393056 0.0393041 0.0393055 0.0393052 0.0393054 0.0393049 0.0393046 0.0393062 0.0393051 0.0393056 0.0393055 0.0393058 0.0393059 0.0393066 0.0393054 0.0393068 0.0393054 0.0393061 0.0393061 0.0393069 0.0393056 0.0393063 0.0393054 0.0393074 0.0393066 0.0393063 0.0393063 0.0393058 0.0393067 0.0393066 0.0393061 0.0393062 0.0393064 0.0393071 0.0393061 0.0393081 0.0393062 0.0393063 0.0393062 0.0393264 0.0393142 0.0393102 0.0393079 0.0393072 0.0393061 0.0393062 0.039307 0.0393071 0.0393067 0.0393065 0.0393063 0.0393065 0.0393067 0.0393065 0.0393065 0.0393072 0.0393064 0.0393065 0.0393062 0.0393068 0.0393063 0.0393067 0.0393062 0.0393069 0.0393069 0.0393056 0.0393074 0.0393055 0.0393075 0.0393067 0.0393058 0.039307 0.0393063 0.0393071 0.0393061 0.0393072 0.0393066 0.0393075 0.0393059 0.0393068 0.0393073 0.0393066 0.0393069 0.0393062 0.039307 0.0393066 0.0393061 0.0393069 0.0393068 0.0393066 0.0393064 0.0393068 0.0393065 0.0393059 0.0393062 0.0393069 0.0393071 0.0393061 0.0393063 0.0393068 0.0393054 0.0393061 0.0393055 0.0393403 0.0393212 0.0393153 0.0393118 0.0393105 0.0393098 0.0393095 0.0393098 0.0393104 0.0393108 0.0393097 0.0393091 0.0393099 0.0393096 0.0393092 0.0393094 0.0393095 0.0393095 0.0393094 0.0393083 0.0393095 0.0393092 0.0393086 0.039308 0.0393084 0.0393089 0.0393089 0.039308 0.0393079 0.0393084 0.0393081 0.0393084 0.0393078 0.0393077 0.0393081 0.0393068 0.0393086 0.0393072 0.0393082 0.0393071 0.039307 0.039308 0.0393069 0.0393069 0.0393067 0.0393086 0.0393061 0.0393073 0.0393069 0.0393065 0.0393074 0.0393067 0.0393086 0.0393067 0.0393057 0.0393066 0.0393074 0.0393062 0.0393065 0.0393064 0.0393074 0.0393059 0.0393062 0.0393049 0.0393542 0.0393277 0.03932 0.0393155 0.0393143 0.0393134 0.039313 0.0393129 0.0393135 0.0393138 0.0393129 0.0393129 0.0393125 0.0393131 0.0393129 0.0393123 0.039312 0.0393122 0.0393119 0.0393114 0.0393118 0.0393116 0.0393111 0.039311 0.0393107 0.0393106 0.0393106 0.0393091 0.0393096 0.0393095 0.0393092 0.0393098 0.0393099 0.0393088 0.0393092 0.0393086 0.0393094 0.039308 0.0393091 0.0393073 0.0393083 0.0393082 0.0393076 0.0393072 0.0393078 0.0393083 0.0393066 0.0393073 0.0393072 0.0393059 0.039308 0.0393069 0.0393069 0.0393077 0.0393064 0.0393075 0.0393077 0.039305 0.0393065 0.0393067 0.0393065 0.0393068 0.0393058 0.0393056 0.0393672 0.0393344 0.0393248 0.0393194 0.0393179 0.0393165 0.0393163 0.0393163 0.0393166 0.0393165 0.0393163 0.0393165 0.0393161 0.0393156 0.0393158 0.0393151 0.0393151 0.0393146 0.0393146 0.0393138 0.0393129 0.0393139 0.0393129 0.0393131 0.039312 0.0393121 0.0393121 0.0393119 0.0393118 0.0393113 0.0393115 0.0393103 0.0393102 0.0393097 0.03931 0.0393103 0.0393099 0.0393092 0.0393094 0.0393082 0.039309 0.0393087 0.039309 0.0393086 0.0393081 0.0393078 0.039308 0.0393082 0.0393075 0.0393075 0.0393069 0.0393081 0.0393062 0.039307 0.0393069 0.0393076 0.039307 0.0393065 0.0393068 0.0393073 0.0393063 0.0393072 0.039306 0.0393062 0.0393815 0.0393413 0.039329 0.0393225 0.0393207 0.0393206 0.0393201 0.0393199 0.0393193 0.0393194 0.0393201 0.0393189 0.0393197 0.0393192 0.0393182 0.0393179 0.0393171 0.0393168 0.0393166 0.0393165 0.039316 0.039316 0.0393151 0.0393148 0.0393137 0.0393141 0.039314 0.0393133 0.0393125 0.0393123 0.0393129 0.0393114 0.0393113 0.039311 0.0393114 0.0393106 0.0393108 0.0393096 0.0393102 0.0393082 0.0393093 0.0393089 0.0393087 0.0393088 0.039309 0.0393078 0.0393086 0.039308 0.0393074 0.0393079 0.0393075 0.0393075 0.0393067 0.0393064 0.0393076 0.0393071 0.0393058 0.0393072 0.0393065 0.0393073 0.0393068 0.0393072 0.039307 0.0393061 0.0393937 0.0393488 0.0393308 0.0393257 0.0393241 0.0393243 0.039324 0.0393238 0.0393234 0.039323 0.0393233 0.0393226 0.0393226 0.039322 0.0393209 0.0393211 0.0393198 0.0393195 0.0393191 0.0393188 0.0393185 0.0393183 0.039317 0.0393168 0.0393159 0.0393152 0.0393148 0.0393154 0.0393141 0.0393137 0.0393136 0.0393132 0.0393131 0.0393123 0.039312 0.0393117 0.0393118 0.0393105 0.0393113 0.03931 0.0393101 0.0393094 0.0393091 0.0393096 0.0393086 0.0393081 0.0393079 0.0393075 0.0393095 0.0393077 0.0393085 0.0393081 0.0393075 0.0393066 0.039308 0.0393075 0.0393068 0.039308 0.0393067 0.0393064 0.0393066 0.0393066 0.0393071 0.0393068 0.0394225 0.0393467 0.0393319 0.039329 0.0393286 0.0393279 0.0393278 0.0393276 0.0393282 0.0393268 0.0393262 0.0393257 0.0393248 0.0393247 0.0393242 0.0393228 0.0393221 0.0393229 0.0393217 0.0393212 0.0393196 0.0393191 0.039319 0.0393191 0.0393171 0.0393176 0.0393157 0.0393164 0.0393158 0.0393157 0.0393148 0.0393141 0.0393142 0.0393137 0.0393125 0.0393121 0.0393119 0.0393118 0.0393128 0.0393116 0.0393102 0.0393101 0.0393103 0.0393098 0.0393098 0.0393099 0.0393091 0.0393083 0.0393087 0.0393078 0.039308 0.0393089 0.0393078 0.0393071 0.0393077 0.0393081 0.0393069 0.0393065 0.0393071 0.0393067 0.0393069 0.0393063 0.039308 0.0393077 0.0392009 0.0392353 0.0392581 0.0392693 0.0392742 0.0392774 0.0392785 0.0392791 0.0392804 0.0392807 0.0392809 0.0392819 0.0392825 0.0392834 0.0392839 0.0392849 0.0392862 0.0392869 0.0392881 0.0392886 0.0392897 0.0392896 0.0392911 0.0392919 0.0392924 0.0392929 0.039294 0.0392943 0.0392956 0.0392955 0.0392971 0.0392977 0.0392978 0.0392983 0.0392989 0.0392989 0.0392992 0.0393008 0.039301 0.0393011 0.0393013 0.0393026 0.0393032 0.0393043 0.039303 0.0393048 0.0393032 0.0393041 0.0393049 0.0393051 0.0393063 0.0393043 0.0393062 0.0393047 0.0393061 0.0393063 0.0393066 0.0393064 0.0393065 0.0393067 0.0393066 0.0393062 0.0393074 0.039307 0.039249 0.0392387 0.0392566 0.0392668 0.0392728 0.0392773 0.0392786 0.03928 0.0392811 0.0392815 0.0392826 0.039283 0.039284 0.039285 0.0392856 0.0392864 0.0392872 0.0392878 0.039289 0.03929 0.0392899 0.0392916 0.0392918 0.0392925 0.0392932 0.039294 0.0392943 0.0392956 0.0392955 0.039296 0.0392967 0.0392984 0.0392985 0.0392993 0.0392994 0.0392999 0.0392998 0.0393013 0.039301 0.0393019 0.0393018 0.0393031 0.0393023 0.0393043 0.039304 0.0393039 0.0393036 0.0393038 0.0393052 0.0393047 0.0393058 0.039305 0.0393061 0.0393055 0.0393064 0.0393054 0.0393072 0.0393061 0.0393065 0.0393072 0.0393079 0.0393066 0.0393064 0.0393071 0.0392556 0.0392518 0.0392622 0.0392699 0.0392753 0.0392787 0.0392802 0.0392814 0.0392825 0.0392834 0.0392847 0.0392851 0.0392858 0.0392864 0.0392875 0.0392878 0.0392883 0.0392888 0.0392902 0.0392912 0.0392914 0.0392927 0.0392923 0.0392938 0.039295 0.0392949 0.0392954 0.0392966 0.039296 0.039297 0.0392975 0.0392985 0.0392987 0.0393 0.0393 0.0393002 0.0393005 0.0393017 0.0393013 0.0393023 0.0393023 0.039303 0.0393024 0.0393036 0.0393043 0.039304 0.0393044 0.039304 0.0393056 0.0393049 0.0393047 0.0393054 0.0393052 0.0393063 0.039306 0.0393058 0.0393073 0.0393063 0.0393065 0.0393062 0.0393069 0.039307 0.0393065 0.0393064 0.0392669 0.0392613 0.0392704 0.0392755 0.0392797 0.039282 0.0392842 0.0392848 0.0392858 0.0392868 0.0392871 0.0392878 0.0392885 0.0392889 0.0392897 0.0392899 0.0392904 0.0392914 0.039292 0.0392927 0.0392937 0.0392942 0.0392944 0.0392951 0.0392954 0.0392965 0.0392965 0.0392974 0.0392973 0.0392985 0.0392987 0.0392994 0.0392998 0.0393 0.0393006 0.0393008 0.0393015 0.039302 0.0393015 0.0393024 0.0393034 0.0393029 0.0393041 0.0393039 0.0393034 0.0393044 0.0393049 0.0393047 0.0393049 0.039305 0.0393049 0.0393057 0.0393058 0.0393057 0.0393062 0.0393056 0.0393065 0.039306 0.0393071 0.0393056 0.0393069 0.0393073 0.0393067 0.0393069 0.0392763 0.0392719 0.0392783 0.0392815 0.0392841 0.039286 0.0392881 0.0392883 0.0392888 0.0392898 0.0392902 0.0392907 0.0392912 0.0392919 0.0392914 0.0392925 0.0392934 0.0392934 0.0392941 0.039295 0.0392957 0.0392958 0.0392965 0.0392966 0.039297 0.0392984 0.0392982 0.0392985 0.0392995 0.0392999 0.0393002 0.0393003 0.0393011 0.0393009 0.0393011 0.0393018 0.0393022 0.0393022 0.0393028 0.0393032 0.0393031 0.0393037 0.0393053 0.0393041 0.0393035 0.0393045 0.039305 0.0393052 0.0393047 0.0393055 0.0393058 0.0393065 0.0393058 0.0393049 0.0393061 0.0393055 0.0393067 0.0393063 0.0393063 0.0393057 0.0393069 0.0393072 0.0393066 0.0393068 0.0392854 0.0392816 0.0392857 0.0392875 0.0392892 0.0392903 0.0392913 0.0392918 0.0392923 0.0392929 0.0392937 0.0392942 0.0392943 0.0392942 0.0392946 0.0392957 0.0392961 0.0392955 0.0392965 0.0392971 0.039298 0.0392982 0.0392981 0.0392983 0.039299 0.0392996 0.0392995 0.0393003 0.0393013 0.0393011 0.0393012 0.0393015 0.0393019 0.0393021 0.0393023 0.0393029 0.0393033 0.0393029 0.0393039 0.0393041 0.0393034 0.0393046 0.0393047 0.0393041 0.0393047 0.039305 0.0393054 0.0393052 0.0393049 0.0393061 0.0393059 0.0393059 0.0393057 0.0393058 0.0393062 0.0393065 0.0393066 0.0393062 0.0393058 0.0393066 0.0393071 0.0393072 0.039306 0.0393067 0.0392935 0.039291 0.0392926 0.0392928 0.039294 0.0392942 0.0392954 0.0392953 0.0392955 0.0392962 0.0392964 0.0392969 0.0392974 0.0392977 0.0392977 0.0392983 0.0392985 0.0392988 0.0392987 0.0392988 0.0392999 0.0392996 0.0393004 0.0393004 0.039301 0.0393011 0.0393006 0.0393018 0.0393021 0.0393019 0.039302 0.0393026 0.0393031 0.0393033 0.0393036 0.0393038 0.0393042 0.0393034 0.0393045 0.0393047 0.0393044 0.0393051 0.0393046 0.0393049 0.039305 0.0393052 0.0393059 0.0393059 0.0393057 0.0393065 0.0393066 0.0393055 0.0393064 0.0393071 0.0393059 0.0393061 0.0393064 0.0393065 0.0393062 0.0393067 0.0393068 0.0393069 0.0393058 0.0393069 0.0393018 0.0392998 0.0392993 0.0392989 0.0392988 0.0392984 0.0392994 0.0392989 0.039299 0.0392995 0.0393 0.0393003 0.0393002 0.0393008 0.0393003 0.0393011 0.0393014 0.0393011 0.0393014 0.0393015 0.0393023 0.0393019 0.0393023 0.0393026 0.039303 0.0393029 0.0393027 0.0393033 0.0393034 0.0393037 0.0393043 0.0393035 0.0393042 0.0393042 0.0393045 0.0393046 0.0393047 0.039304 0.0393054 0.039305 0.0393058 0.0393054 0.0393054 0.039305 0.039306 0.0393055 0.0393061 0.039306 0.0393061 0.0393062 0.0393061 0.0393055 0.0393068 0.0393062 0.0393061 0.0393065 0.0393062 0.0393069 0.0393068 0.0393058 0.039307 0.0393062 0.0393066 0.0393072 0.0393101 0.0393085 0.0393059 0.039304 0.0393033 0.0393032 0.0393037 0.0393022 0.039303 0.0393027 0.0393028 0.0393035 0.039303 0.0393033 0.0393037 0.039304 0.0393039 0.0393037 0.039304 0.0393043 0.0393042 0.0393047 0.0393037 0.0393047 0.0393045 0.0393051 0.0393048 0.0393057 0.0393046 0.0393055 0.0393055 0.039305 0.0393059 0.0393055 0.0393052 0.0393056 0.0393057 0.0393054 0.0393062 0.0393051 0.0393063 0.0393056 0.0393066 0.0393053 0.0393065 0.0393054 0.0393068 0.0393062 0.0393072 0.0393056 0.0393064 0.0393066 0.0393063 0.0393064 0.0393062 0.039307 0.0393063 0.0393066 0.0393066 0.0393063 0.0393076 0.0393059 0.0393075 0.0393069 0.0393182 0.0393169 0.0393125 0.0393097 0.0393079 0.0393071 0.0393068 0.0393063 0.0393065 0.0393059 0.0393066 0.0393066 0.0393061 0.0393065 0.0393062 0.0393066 0.0393062 0.0393063 0.0393063 0.0393066 0.0393067 0.0393062 0.0393065 0.0393067 0.0393064 0.0393067 0.0393063 0.039307 0.0393063 0.0393065 0.0393065 0.0393064 0.039307 0.0393064 0.0393066 0.0393064 0.0393069 0.0393059 0.039307 0.0393062 0.0393068 0.0393065 0.039307 0.0393065 0.0393064 0.0393063 0.0393068 0.0393065 0.0393067 0.0393064 0.0393065 0.0393064 0.0393066 0.0393067 0.039306 0.0393068 0.0393069 0.0393069 0.0393064 0.0393056 0.0393072 0.0393057 0.0393068 0.0393063 0.0393255 0.0393243 0.0393177 0.0393146 0.0393122 0.0393114 0.03931 0.03931 0.0393098 0.0393095 0.0393092 0.0393094 0.0393095 0.0393092 0.0393094 0.0393097 0.0393092 0.0393089 0.0393088 0.0393085 0.0393089 0.0393088 0.0393088 0.0393088 0.0393083 0.039308 0.0393078 0.0393084 0.0393081 0.0393079 0.0393078 0.0393076 0.0393085 0.0393068 0.0393077 0.0393079 0.0393082 0.0393062 0.0393075 0.039308 0.0393075 0.0393075 0.0393066 0.0393072 0.0393068 0.0393075 0.0393066 0.0393074 0.039306 0.0393072 0.0393067 0.0393065 0.0393072 0.0393063 0.0393063 0.0393072 0.0393071 0.0393065 0.0393072 0.0393058 0.0393073 0.0393063 0.0393066 0.0393064 0.0393329 0.0393317 0.0393231 0.039319 0.0393166 0.0393148 0.0393139 0.0393136 0.0393133 0.0393132 0.0393129 0.0393125 0.0393123 0.0393122 0.0393123 0.0393124 0.0393118 0.0393114 0.0393112 0.0393115 0.039311 0.0393109 0.0393109 0.0393106 0.0393105 0.0393101 0.0393096 0.0393103 0.0393093 0.0393095 0.0393091 0.0393085 0.0393096 0.0393081 0.0393091 0.039309 0.0393086 0.0393078 0.0393081 0.0393083 0.0393081 0.0393079 0.0393071 0.0393078 0.0393076 0.0393078 0.0393073 0.0393077 0.0393071 0.0393069 0.0393073 0.0393072 0.0393065 0.0393064 0.0393065 0.0393072 0.0393066 0.0393062 0.0393072 0.0393063 0.0393071 0.0393061 0.039306 0.0393064 0.0393405 0.0393397 0.0393289 0.0393237 0.0393208 0.039318 0.0393169 0.0393168 0.0393168 0.039316 0.0393161 0.0393157 0.0393155 0.0393153 0.0393154 0.0393151 0.0393145 0.0393141 0.0393138 0.0393136 0.039313 0.0393132 0.0393127 0.0393119 0.0393119 0.0393122 0.0393116 0.0393117 0.0393112 0.0393114 0.039311 0.0393102 0.0393108 0.0393094 0.0393102 0.0393091 0.0393093 0.0393096 0.0393087 0.0393091 0.0393089 0.0393087 0.0393088 0.0393083 0.0393079 0.039308 0.0393074 0.0393074 0.039308 0.0393074 0.0393073 0.0393083 0.0393065 0.039307 0.0393069 0.0393079 0.039306 0.0393066 0.0393069 0.0393063 0.0393068 0.0393068 0.0393066 0.0393067 0.039348 0.0393459 0.0393341 0.0393273 0.0393247 0.0393229 0.0393209 0.0393201 0.0393203 0.0393195 0.0393191 0.0393185 0.0393186 0.039318 0.0393175 0.0393176 0.0393172 0.0393167 0.0393163 0.0393159 0.0393153 0.0393151 0.0393146 0.0393142 0.0393137 0.0393142 0.0393134 0.039313 0.0393127 0.0393125 0.0393121 0.0393115 0.0393117 0.0393106 0.0393111 0.0393105 0.0393111 0.0393099 0.0393097 0.0393096 0.0393098 0.039309 0.0393093 0.0393086 0.0393081 0.0393092 0.0393084 0.0393073 0.0393078 0.0393084 0.0393076 0.0393074 0.0393061 0.0393074 0.039307 0.0393075 0.0393057 0.0393065 0.0393074 0.0393065 0.039307 0.0393061 0.0393075 0.0393065 0.0393515 0.0393535 0.0393385 0.0393314 0.0393273 0.0393259 0.0393244 0.0393236 0.0393233 0.0393226 0.0393222 0.0393216 0.0393211 0.0393205 0.0393202 0.0393204 0.0393196 0.0393194 0.0393183 0.0393178 0.0393179 0.0393175 0.0393166 0.0393166 0.0393152 0.0393153 0.0393142 0.0393149 0.0393138 0.039314 0.0393131 0.0393133 0.0393125 0.039312 0.0393121 0.0393111 0.0393122 0.0393102 0.0393108 0.0393105 0.0393105 0.0393098 0.0393098 0.03931 0.0393085 0.0393093 0.0393086 0.0393075 0.0393077 0.0393082 0.0393075 0.039308 0.039307 0.0393077 0.0393076 0.0393073 0.0393065 0.0393067 0.0393072 0.0393064 0.0393075 0.0393056 0.0393066 0.0393065 0.039382 0.0393573 0.0393433 0.039336 0.0393317 0.0393293 0.0393287 0.0393276 0.0393272 0.0393263 0.0393263 0.0393259 0.0393251 0.0393242 0.0393234 0.0393233 0.0393221 0.0393221 0.039321 0.0393201 0.0393201 0.0393193 0.0393193 0.0393185 0.0393169 0.0393177 0.0393166 0.0393164 0.0393157 0.0393157 0.0393147 0.0393147 0.0393141 0.0393129 0.0393137 0.0393118 0.0393122 0.039312 0.0393118 0.03931 0.039311 0.03931 0.0393101 0.0393104 0.0393092 0.0393098 0.0393091 0.0393084 0.0393079 0.0393092 0.0393074 0.0393083 0.0393068 0.0393087 0.0393083 0.0393077 0.0393075 0.0393066 0.0393063 0.0393062 0.0393067 0.039306 0.0393069 0.0393074 0.0391902 0.0392388 0.0392547 0.0392644 0.0392693 0.039273 0.0392755 0.0392768 0.0392782 0.0392795 0.0392803 0.0392806 0.0392818 0.0392824 0.0392835 0.0392848 0.0392859 0.0392864 0.0392871 0.0392883 0.0392887 0.0392897 0.0392906 0.0392912 0.0392924 0.0392926 0.0392935 0.0392941 0.0392955 0.0392957 0.0392966 0.0392971 0.0392975 0.0392973 0.0392987 0.0392993 0.0393 0.0392999 0.0393012 0.0393018 0.0393018 0.0393019 0.039302 0.0393026 0.0393031 0.0393036 0.0393046 0.0393047 0.0393041 0.0393051 0.0393051 0.0393058 0.0393062 0.0393054 0.0393056 0.039307 0.0393061 0.039307 0.0393068 0.0393064 0.0393061 0.0393062 0.0393075 0.0393068 0.0392446 0.0392398 0.0392546 0.0392636 0.0392699 0.0392746 0.0392773 0.0392784 0.0392797 0.0392811 0.0392826 0.0392825 0.0392839 0.039285 0.0392862 0.0392865 0.0392874 0.0392877 0.0392886 0.0392903 0.0392897 0.0392911 0.0392922 0.0392923 0.0392939 0.0392941 0.0392947 0.0392954 0.0392961 0.0392963 0.0392974 0.0392983 0.0392981 0.0392988 0.039299 0.0393004 0.0393004 0.0393006 0.0393014 0.0393021 0.039302 0.0393025 0.0393031 0.0393027 0.0393037 0.0393034 0.0393042 0.0393039 0.0393052 0.0393049 0.0393053 0.0393056 0.0393063 0.0393054 0.0393069 0.0393056 0.0393071 0.0393056 0.0393069 0.0393071 0.0393068 0.0393063 0.0393071 0.0393076 0.0392531 0.0392561 0.0392602 0.039267 0.0392729 0.0392769 0.0392791 0.0392801 0.0392826 0.0392836 0.0392846 0.0392852 0.039286 0.0392866 0.0392879 0.0392881 0.039289 0.0392893 0.0392903 0.0392913 0.0392916 0.0392923 0.0392933 0.0392939 0.0392952 0.0392955 0.0392958 0.0392968 0.0392971 0.0392975 0.0392978 0.0392986 0.0392986 0.0392999 0.0392996 0.039301 0.0393002 0.0393014 0.0393013 0.0393021 0.0393023 0.0393024 0.0393035 0.0393036 0.039304 0.039304 0.0393043 0.0393045 0.0393055 0.0393053 0.0393047 0.0393057 0.0393064 0.0393064 0.0393074 0.0393058 0.0393068 0.0393055 0.0393058 0.0393068 0.0393066 0.039307 0.0393067 0.0393074 0.0392651 0.0392646 0.0392682 0.0392725 0.0392768 0.0392804 0.0392824 0.0392835 0.0392859 0.0392861 0.0392866 0.0392879 0.0392885 0.039289 0.03929 0.0392905 0.0392912 0.039292 0.0392927 0.0392929 0.0392935 0.0392941 0.0392945 0.0392953 0.0392959 0.0392971 0.0392968 0.0392971 0.0392981 0.0392984 0.0392985 0.0392994 0.0393 0.0393002 0.0393012 0.0393012 0.0393015 0.0393022 0.0393024 0.0393024 0.0393032 0.0393026 0.0393044 0.0393047 0.0393036 0.0393044 0.0393048 0.0393053 0.039305 0.0393055 0.0393054 0.0393055 0.0393064 0.0393065 0.0393067 0.0393059 0.0393063 0.0393061 0.0393068 0.0393073 0.0393066 0.0393069 0.039306 0.0393057 0.039275 0.0392743 0.0392764 0.039279 0.0392819 0.0392843 0.0392863 0.0392874 0.0392882 0.0392893 0.0392899 0.0392905 0.0392909 0.0392917 0.0392921 0.0392931 0.0392937 0.0392933 0.0392951 0.0392954 0.0392952 0.039296 0.0392966 0.0392972 0.0392974 0.039298 0.0392983 0.0392988 0.0392997 0.0392992 0.0392999 0.0393006 0.0393015 0.0393018 0.0393021 0.0393016 0.0393027 0.0393023 0.0393035 0.0393032 0.0393034 0.0393032 0.0393052 0.039304 0.0393043 0.0393042 0.0393048 0.0393051 0.0393052 0.0393055 0.0393061 0.0393057 0.0393061 0.0393058 0.0393066 0.0393055 0.0393066 0.0393066 0.0393069 0.039307 0.0393068 0.0393068 0.0393059 0.039306 0.0392841 0.0392833 0.039284 0.0392859 0.0392883 0.0392892 0.0392898 0.0392907 0.0392919 0.0392929 0.0392933 0.0392937 0.0392938 0.0392942 0.0392951 0.0392959 0.0392963 0.039296 0.0392967 0.0392975 0.0392978 0.0392983 0.0392985 0.039299 0.0392995 0.0392994 0.0392999 0.0393002 0.0393009 0.0393014 0.0393013 0.0393019 0.0393026 0.0393022 0.0393021 0.0393023 0.0393035 0.0393032 0.0393043 0.039304 0.0393037 0.0393041 0.0393047 0.0393044 0.0393054 0.0393049 0.0393052 0.0393047 0.0393048 0.0393061 0.039306 0.0393057 0.0393064 0.0393059 0.0393065 0.0393063 0.0393064 0.0393066 0.0393065 0.0393065 0.0393063 0.0393072 0.0393067 0.0393071 0.0392929 0.0392922 0.0392915 0.0392924 0.0392932 0.0392938 0.0392943 0.0392948 0.0392955 0.0392962 0.0392964 0.0392967 0.0392969 0.0392975 0.0392977 0.0392979 0.0392985 0.0392994 0.0392988 0.0392992 0.0393002 0.0393 0.0393008 0.0393009 0.0393012 0.0393015 0.0393011 0.0393018 0.0393019 0.0393026 0.0393025 0.0393037 0.0393033 0.0393032 0.0393032 0.0393033 0.0393045 0.0393034 0.039305 0.0393041 0.0393043 0.039305 0.0393048 0.0393052 0.0393055 0.0393051 0.0393057 0.0393059 0.0393055 0.0393062 0.0393059 0.0393063 0.0393062 0.039306 0.0393066 0.0393062 0.0393063 0.0393063 0.0393062 0.0393061 0.0393065 0.0393073 0.039306 0.0393071 0.0393017 0.0393004 0.039299 0.0392987 0.0392986 0.039298 0.0392984 0.0392989 0.0392986 0.0392998 0.0392999 0.0392998 0.0393 0.0393009 0.0393004 0.0393002 0.0393014 0.0393013 0.0393016 0.0393018 0.0393024 0.0393019 0.0393025 0.0393032 0.0393031 0.0393032 0.0393027 0.0393035 0.0393028 0.0393038 0.0393044 0.0393046 0.0393041 0.0393043 0.039304 0.039305 0.0393047 0.0393044 0.0393062 0.0393045 0.0393052 0.0393056 0.0393054 0.0393056 0.039306 0.0393052 0.0393063 0.0393063 0.0393062 0.0393061 0.0393056 0.0393064 0.0393067 0.0393053 0.0393069 0.0393065 0.0393064 0.039306 0.039307 0.0393062 0.0393075 0.039307 0.0393062 0.0393073 0.0393104 0.039308 0.039306 0.0393042 0.0393039 0.039303 0.0393027 0.0393021 0.0393028 0.0393036 0.0393025 0.0393027 0.0393028 0.0393032 0.0393038 0.0393032 0.0393037 0.0393039 0.0393041 0.039304 0.0393041 0.0393047 0.0393047 0.0393046 0.0393042 0.039305 0.0393042 0.0393055 0.0393045 0.0393052 0.0393059 0.039305 0.0393059 0.0393054 0.0393053 0.0393058 0.0393052 0.0393054 0.0393064 0.0393059 0.0393062 0.039306 0.0393064 0.0393058 0.0393066 0.0393054 0.0393066 0.0393056 0.039307 0.039306 0.0393067 0.0393065 0.039306 0.0393056 0.0393067 0.0393069 0.0393062 0.039306 0.0393065 0.039306 0.0393076 0.0393058 0.0393061 0.0393069 0.0393182 0.039315 0.0393121 0.0393099 0.0393084 0.0393073 0.0393068 0.0393063 0.0393065 0.0393067 0.0393061 0.0393065 0.0393062 0.0393062 0.0393062 0.0393062 0.0393064 0.0393066 0.0393062 0.0393067 0.0393061 0.0393064 0.039307 0.0393063 0.039306 0.0393073 0.0393063 0.0393066 0.0393062 0.0393065 0.0393071 0.0393069 0.0393067 0.0393058 0.0393065 0.0393068 0.0393067 0.0393061 0.0393066 0.0393075 0.0393067 0.0393061 0.0393074 0.0393064 0.0393064 0.039306 0.0393063 0.0393061 0.0393066 0.0393061 0.0393074 0.0393065 0.0393063 0.0393068 0.0393067 0.0393062 0.0393064 0.0393067 0.039307 0.0393057 0.0393073 0.0393057 0.0393063 0.0393066 0.0393265 0.0393227 0.0393185 0.0393152 0.0393135 0.0393119 0.0393107 0.0393101 0.03931 0.0393099 0.0393089 0.0393092 0.0393094 0.0393095 0.0393093 0.039309 0.0393094 0.0393085 0.0393086 0.0393087 0.0393082 0.0393082 0.0393088 0.0393084 0.0393084 0.0393084 0.0393081 0.0393081 0.0393077 0.039308 0.0393087 0.039308 0.0393086 0.0393072 0.0393076 0.0393076 0.0393072 0.039307 0.0393075 0.0393076 0.0393074 0.0393073 0.0393068 0.0393073 0.0393069 0.0393071 0.0393067 0.0393073 0.0393062 0.039307 0.0393073 0.0393072 0.0393071 0.0393068 0.0393068 0.0393063 0.0393069 0.0393068 0.0393075 0.039306 0.0393072 0.0393064 0.0393065 0.0393075 0.0393347 0.0393296 0.0393246 0.0393202 0.0393178 0.0393157 0.0393149 0.0393139 0.0393135 0.0393135 0.0393131 0.0393126 0.0393123 0.0393125 0.039312 0.0393119 0.0393118 0.0393111 0.0393114 0.0393111 0.0393108 0.03931 0.0393107 0.0393102 0.0393099 0.0393105 0.0393096 0.03931 0.039309 0.0393095 0.0393092 0.0393085 0.0393102 0.039308 0.039309 0.0393085 0.0393079 0.0393086 0.0393079 0.0393079 0.0393082 0.0393079 0.0393065 0.0393078 0.0393076 0.0393068 0.0393077 0.0393073 0.0393068 0.0393074 0.0393069 0.0393076 0.0393069 0.0393063 0.0393071 0.0393068 0.0393067 0.0393065 0.0393076 0.0393065 0.039307 0.039306 0.0393063 0.0393067 0.0393423 0.0393358 0.0393301 0.0393253 0.0393226 0.0393194 0.0393185 0.0393182 0.0393168 0.0393157 0.0393163 0.0393156 0.0393155 0.0393151 0.0393147 0.039315 0.0393141 0.0393139 0.0393132 0.0393135 0.0393131 0.0393131 0.0393135 0.0393122 0.0393119 0.039312 0.0393111 0.0393109 0.039311 0.0393114 0.0393104 0.0393101 0.039311 0.039309 0.0393102 0.0393089 0.0393088 0.0393096 0.0393083 0.0393092 0.0393089 0.0393086 0.0393081 0.0393084 0.0393077 0.0393076 0.0393081 0.0393073 0.0393074 0.0393078 0.0393072 0.0393076 0.0393071 0.0393069 0.0393073 0.0393078 0.0393074 0.0393069 0.0393072 0.0393061 0.0393067 0.0393064 0.039307 0.0393057 0.0393507 0.0393414 0.0393355 0.0393294 0.0393266 0.0393239 0.0393218 0.0393205 0.0393201 0.0393195 0.039319 0.0393187 0.039319 0.0393175 0.039317 0.0393173 0.0393167 0.0393164 0.0393152 0.0393158 0.0393147 0.0393152 0.0393152 0.0393141 0.0393139 0.039313 0.039313 0.0393124 0.0393124 0.0393117 0.0393114 0.0393111 0.039312 0.0393108 0.0393114 0.0393097 0.0393104 0.0393103 0.0393088 0.03931 0.0393092 0.0393085 0.0393093 0.0393086 0.0393075 0.0393088 0.0393085 0.0393078 0.0393079 0.0393079 0.0393078 0.0393084 0.0393067 0.0393075 0.0393067 0.039307 0.0393068 0.0393064 0.0393073 0.0393065 0.0393068 0.0393056 0.0393071 0.039307 0.0393556 0.0393497 0.0393391 0.039334 0.03933 0.0393274 0.0393259 0.0393243 0.0393236 0.0393227 0.0393226 0.0393218 0.0393217 0.0393209 0.0393201 0.0393197 0.0393193 0.0393188 0.0393181 0.0393177 0.0393171 0.0393174 0.0393167 0.0393162 0.0393152 0.0393153 0.0393139 0.0393141 0.0393139 0.0393133 0.0393131 0.0393133 0.039312 0.0393123 0.0393123 0.0393105 0.0393116 0.0393106 0.03931 0.0393102 0.0393101 0.039309 0.0393105 0.0393089 0.0393086 0.0393087 0.0393088 0.0393081 0.0393079 0.0393073 0.0393076 0.0393087 0.0393072 0.0393071 0.0393076 0.039307 0.0393073 0.0393068 0.0393073 0.0393065 0.0393078 0.0393061 0.0393067 0.0393072 0.0393883 0.0393496 0.0393436 0.0393389 0.0393359 0.0393326 0.0393301 0.0393287 0.0393283 0.039327 0.0393265 0.0393256 0.0393249 0.0393242 0.0393233 0.0393231 0.0393221 0.0393213 0.0393208 0.0393201 0.039319 0.0393194 0.0393181 0.0393184 0.0393179 0.0393179 0.0393166 0.0393162 0.0393158 0.0393148 0.0393141 0.0393143 0.0393136 0.0393132 0.0393131 0.0393125 0.0393117 0.0393123 0.0393109 0.039311 0.0393112 0.0393102 0.03931 0.0393097 0.039309 0.0393099 0.039309 0.0393091 0.0393075 0.039308 0.0393081 0.0393079 0.0393071 0.0393072 0.0393078 0.0393071 0.0393077 0.0393065 0.039307 0.0393076 0.0393059 0.0393057 0.0393068 0.0393075 0.039186 0.0392377 0.0392533 0.0392623 0.039267 0.0392702 0.0392726 0.039275 0.0392764 0.0392775 0.0392794 0.0392804 0.0392808 0.0392822 0.0392833 0.0392842 0.0392852 0.0392862 0.0392871 0.0392884 0.0392889 0.0392897 0.0392906 0.0392917 0.0392923 0.0392922 0.0392936 0.0392953 0.039295 0.0392952 0.0392966 0.0392974 0.039297 0.0392983 0.039299 0.0392992 0.0392997 0.0392995 0.0393018 0.0393014 0.0393017 0.0393029 0.0393022 0.0393033 0.0393039 0.0393038 0.0393041 0.0393048 0.0393051 0.0393057 0.0393042 0.0393052 0.0393062 0.0393054 0.0393058 0.039307 0.0393064 0.0393067 0.0393072 0.039306 0.0393068 0.0393066 0.0393075 0.0393064 0.0392458 0.0392374 0.0392529 0.039262 0.0392683 0.0392723 0.0392755 0.039277 0.0392789 0.0392805 0.0392821 0.0392823 0.0392836 0.039285 0.0392857 0.0392856 0.0392872 0.0392876 0.0392887 0.0392905 0.0392896 0.0392906 0.0392923 0.0392921 0.0392937 0.0392933 0.0392947 0.0392955 0.039296 0.0392965 0.0392968 0.039298 0.0392985 0.0392991 0.0392989 0.0393005 0.0393004 0.0393011 0.0393015 0.0393022 0.0393016 0.0393024 0.0393035 0.0393034 0.0393039 0.0393038 0.0393041 0.0393042 0.0393048 0.039305 0.0393051 0.0393054 0.0393061 0.0393051 0.0393067 0.0393056 0.0393068 0.0393054 0.0393069 0.0393066 0.0393068 0.0393067 0.0393071 0.039307 0.0392537 0.039255 0.0392596 0.0392658 0.0392709 0.0392752 0.0392782 0.0392796 0.0392818 0.0392832 0.0392841 0.0392849 0.0392858 0.0392869 0.0392875 0.0392878 0.0392896 0.0392899 0.0392909 0.0392916 0.0392919 0.0392924 0.0392937 0.0392937 0.0392951 0.0392951 0.0392957 0.0392968 0.0392969 0.0392978 0.0392978 0.0392987 0.0392992 0.0393 0.0393004 0.0393008 0.0392998 0.0393013 0.0393015 0.039303 0.0393023 0.0393022 0.0393038 0.0393039 0.0393031 0.0393046 0.0393036 0.0393046 0.0393046 0.0393054 0.0393051 0.0393055 0.0393059 0.0393061 0.0393076 0.0393063 0.0393066 0.0393058 0.0393062 0.0393072 0.0393068 0.0393066 0.0393071 0.0393076 0.0392654 0.039264 0.0392681 0.0392717 0.0392749 0.0392789 0.0392814 0.0392824 0.0392854 0.0392857 0.0392865 0.0392874 0.0392882 0.0392894 0.0392899 0.0392904 0.0392916 0.0392918 0.0392929 0.0392931 0.0392941 0.0392945 0.0392954 0.0392957 0.0392962 0.0392971 0.0392969 0.0392972 0.0392979 0.0392995 0.0392991 0.0392993 0.0393 0.0393003 0.0393011 0.0393004 0.0393016 0.0393021 0.039302 0.0393025 0.0393033 0.0393028 0.0393038 0.0393042 0.0393034 0.0393049 0.0393045 0.0393051 0.0393048 0.0393058 0.0393051 0.0393056 0.0393059 0.039306 0.0393061 0.0393056 0.0393058 0.0393065 0.0393059 0.0393074 0.0393067 0.0393061 0.0393069 0.0393071 0.0392749 0.0392738 0.0392762 0.0392781 0.0392806 0.0392832 0.0392852 0.0392864 0.039288 0.0392889 0.0392895 0.0392901 0.0392907 0.0392917 0.0392925 0.0392929 0.0392937 0.0392935 0.0392951 0.0392953 0.0392956 0.0392963 0.0392971 0.0392974 0.0392974 0.0392979 0.0392982 0.0392992 0.0392996 0.0392993 0.0393003 0.0393003 0.0393011 0.0393014 0.0393016 0.0393019 0.0393032 0.0393026 0.0393023 0.039303 0.0393038 0.0393036 0.0393043 0.0393043 0.0393045 0.039305 0.0393051 0.039305 0.0393055 0.0393065 0.0393055 0.0393053 0.039306 0.0393063 0.0393053 0.0393058 0.0393061 0.0393066 0.0393063 0.0393063 0.0393066 0.0393064 0.0393062 0.0393063 0.0392843 0.0392831 0.0392834 0.0392846 0.0392865 0.039288 0.0392889 0.0392901 0.0392912 0.0392919 0.039293 0.0392936 0.0392936 0.0392944 0.0392951 0.039296 0.0392963 0.039296 0.0392969 0.0392974 0.0392972 0.0392979 0.0392987 0.0392983 0.0392998 0.0392999 0.0392999 0.0393004 0.0393005 0.0393012 0.0393016 0.0393011 0.0393023 0.0393022 0.039302 0.0393028 0.0393027 0.0393028 0.0393037 0.0393036 0.0393043 0.0393043 0.0393046 0.0393041 0.039306 0.0393054 0.0393053 0.0393045 0.039305 0.0393062 0.0393056 0.0393055 0.0393062 0.0393063 0.0393056 0.0393061 0.0393059 0.0393066 0.0393067 0.0393057 0.0393066 0.0393072 0.0393063 0.0393066 0.0392931 0.0392916 0.039291 0.0392912 0.0392919 0.0392929 0.0392937 0.0392944 0.0392951 0.0392955 0.039296 0.0392961 0.039297 0.0392978 0.0392976 0.0392983 0.0392981 0.0392988 0.039299 0.0392995 0.0392997 0.0393001 0.0393006 0.0393003 0.0393013 0.0393022 0.0393012 0.0393023 0.0393024 0.0393027 0.0393021 0.039303 0.039303 0.0393038 0.0393038 0.0393036 0.0393037 0.0393038 0.0393049 0.0393042 0.0393051 0.039305 0.0393046 0.0393041 0.0393058 0.0393052 0.0393055 0.039306 0.0393057 0.0393064 0.0393054 0.0393068 0.0393059 0.039306 0.0393063 0.0393059 0.0393067 0.0393066 0.0393069 0.0393066 0.0393065 0.0393069 0.0393061 0.0393066 0.0393015 0.0392997 0.0392983 0.0392981 0.0392985 0.0392973 0.0392984 0.0392983 0.0392979 0.0392993 0.0392992 0.0392999 0.0393002 0.0393002 0.0393006 0.0393004 0.0393005 0.0393009 0.0393016 0.0393023 0.0393021 0.0393023 0.0393025 0.0393026 0.0393027 0.0393032 0.0393022 0.039304 0.0393032 0.0393036 0.0393041 0.0393047 0.0393041 0.0393048 0.0393045 0.0393044 0.0393049 0.0393043 0.0393056 0.039305 0.0393058 0.0393051 0.0393048 0.0393054 0.0393052 0.039305 0.0393063 0.0393062 0.0393058 0.0393062 0.0393061 0.0393068 0.0393064 0.0393061 0.0393066 0.0393062 0.0393069 0.0393059 0.039307 0.0393059 0.0393071 0.0393066 0.0393063 0.0393073 0.03931 0.0393078 0.0393054 0.0393037 0.0393036 0.0393031 0.0393028 0.039302 0.0393022 0.0393029 0.0393027 0.0393027 0.039303 0.0393027 0.0393032 0.0393033 0.039303 0.0393037 0.0393041 0.0393038 0.0393036 0.0393043 0.0393045 0.0393041 0.0393044 0.0393052 0.0393045 0.0393055 0.0393045 0.0393056 0.0393056 0.0393049 0.0393054 0.0393052 0.0393053 0.0393055 0.0393059 0.0393049 0.0393057 0.0393058 0.0393065 0.0393053 0.0393057 0.0393061 0.0393063 0.0393057 0.0393066 0.0393058 0.0393069 0.0393059 0.0393066 0.0393059 0.0393061 0.0393063 0.0393067 0.0393066 0.0393067 0.0393059 0.0393068 0.0393052 0.0393069 0.0393063 0.039306 0.0393072 0.0393183 0.0393154 0.0393123 0.0393096 0.0393082 0.0393082 0.0393069 0.039306 0.039306 0.0393063 0.0393056 0.0393057 0.0393065 0.0393057 0.0393061 0.0393064 0.0393066 0.0393066 0.0393063 0.0393064 0.0393064 0.0393064 0.0393061 0.0393064 0.0393059 0.0393072 0.0393063 0.0393072 0.0393059 0.0393064 0.0393059 0.0393065 0.0393059 0.0393063 0.0393062 0.0393067 0.0393064 0.0393064 0.0393062 0.0393067 0.0393066 0.039306 0.0393072 0.0393061 0.039307 0.0393062 0.039307 0.039306 0.039307 0.039306 0.0393069 0.0393059 0.0393063 0.0393069 0.0393065 0.0393063 0.0393067 0.0393066 0.0393066 0.0393061 0.0393077 0.0393067 0.0393057 0.0393067 0.0393264 0.0393226 0.0393185 0.0393156 0.0393138 0.0393123 0.0393111 0.0393104 0.0393097 0.0393095 0.039309 0.039309 0.0393093 0.0393085 0.0393092 0.039309 0.039309 0.0393085 0.0393088 0.039309 0.0393087 0.0393084 0.0393086 0.0393084 0.0393084 0.0393079 0.0393074 0.0393087 0.0393078 0.0393074 0.0393076 0.0393072 0.0393073 0.0393069 0.0393076 0.0393076 0.0393069 0.0393073 0.0393074 0.0393068 0.0393071 0.0393073 0.0393073 0.0393068 0.0393073 0.0393068 0.0393074 0.0393063 0.039307 0.0393063 0.039307 0.0393067 0.0393067 0.0393065 0.0393064 0.0393059 0.039307 0.0393067 0.039307 0.0393062 0.039307 0.039306 0.0393066 0.0393069 0.0393345 0.0393295 0.0393245 0.039321 0.0393181 0.0393162 0.0393151 0.0393136 0.0393134 0.0393129 0.0393127 0.0393124 0.0393119 0.0393119 0.0393118 0.0393112 0.0393114 0.039311 0.0393111 0.0393107 0.0393108 0.0393099 0.0393107 0.0393102 0.0393099 0.0393102 0.0393096 0.0393102 0.0393094 0.0393087 0.0393091 0.0393088 0.0393092 0.0393077 0.0393088 0.0393085 0.0393083 0.0393087 0.0393084 0.0393073 0.0393079 0.0393076 0.0393077 0.0393072 0.0393078 0.0393073 0.0393083 0.0393065 0.0393073 0.0393075 0.0393072 0.0393064 0.0393076 0.0393068 0.0393069 0.0393066 0.0393074 0.0393057 0.0393079 0.0393061 0.0393069 0.0393059 0.039307 0.039306 0.0393418 0.0393359 0.0393301 0.0393263 0.0393229 0.0393208 0.0393191 0.039318 0.0393176 0.0393163 0.0393161 0.0393154 0.0393148 0.0393151 0.0393148 0.0393142 0.0393141 0.0393137 0.0393132 0.0393134 0.0393129 0.0393124 0.0393128 0.039312 0.0393111 0.039311 0.0393117 0.0393115 0.039311 0.0393113 0.0393108 0.0393105 0.0393104 0.0393091 0.0393092 0.0393096 0.0393093 0.0393098 0.039309 0.039309 0.039309 0.0393087 0.0393078 0.0393085 0.0393075 0.0393081 0.0393083 0.0393077 0.0393075 0.0393079 0.0393073 0.0393065 0.0393071 0.0393067 0.0393074 0.039307 0.0393074 0.0393064 0.0393079 0.0393052 0.0393071 0.0393061 0.0393068 0.0393053 0.0393502 0.0393417 0.039336 0.0393305 0.039327 0.039325 0.0393225 0.0393214 0.0393206 0.0393199 0.0393194 0.0393191 0.0393179 0.0393179 0.0393175 0.0393172 0.0393168 0.0393165 0.0393157 0.0393156 0.0393146 0.0393143 0.0393149 0.0393142 0.0393137 0.0393121 0.0393133 0.0393125 0.0393125 0.0393118 0.0393118 0.0393113 0.0393116 0.039311 0.0393104 0.0393103 0.0393098 0.03931 0.0393096 0.0393097 0.0393089 0.0393094 0.0393086 0.0393089 0.0393073 0.0393087 0.0393081 0.0393083 0.0393075 0.0393076 0.0393073 0.0393072 0.0393068 0.0393068 0.0393076 0.0393067 0.0393068 0.0393065 0.0393075 0.0393062 0.0393071 0.0393064 0.0393067 0.0393067 0.0393539 0.0393502 0.0393394 0.0393347 0.0393308 0.0393286 0.039327 0.0393251 0.0393243 0.0393235 0.0393226 0.0393217 0.0393216 0.0393209 0.0393196 0.0393202 0.0393193 0.0393185 0.0393186 0.0393176 0.0393168 0.039317 0.0393164 0.0393152 0.0393155 0.0393153 0.0393146 0.0393136 0.0393143 0.0393132 0.0393132 0.0393128 0.0393118 0.0393126 0.0393118 0.039311 0.0393109 0.0393108 0.0393107 0.03931 0.0393097 0.0393093 0.0393096 0.0393087 0.0393084 0.0393091 0.0393081 0.0393086 0.0393083 0.0393073 0.0393077 0.0393069 0.0393076 0.039307 0.0393081 0.0393066 0.0393078 0.0393076 0.0393075 0.0393063 0.0393073 0.0393066 0.0393074 0.0393069 0.0393887 0.0393488 0.0393431 0.0393391 0.0393363 0.0393334 0.0393317 0.0393293 0.0393289 0.0393277 0.0393265 0.0393251 0.0393243 0.0393239 0.0393223 0.0393225 0.0393222 0.0393215 0.0393213 0.0393205 0.0393195 0.0393192 0.0393182 0.0393182 0.0393186 0.0393172 0.0393161 0.0393152 0.0393153 0.0393152 0.0393143 0.0393144 0.0393133 0.0393131 0.0393129 0.039312 0.0393117 0.0393121 0.0393113 0.0393113 0.0393104 0.0393102 0.0393101 0.0393098 0.0393099 0.0393093 0.039308 0.039309 0.0393076 0.0393079 0.0393087 0.0393066 0.0393078 0.039306 0.0393071 0.039307 0.0393071 0.0393061 0.0393075 0.0393074 0.0393074 0.0393065 0.0393072 0.0393071 0.0391802 0.0392363 0.0392517 0.03926 0.0392655 0.0392696 0.039271 0.0392732 0.0392754 0.0392771 0.0392782 0.0392795 0.0392806 0.0392817 0.0392833 0.0392844 0.0392845 0.0392863 0.0392867 0.0392874 0.0392891 0.0392894 0.0392901 0.0392911 0.0392919 0.0392928 0.039293 0.0392947 0.0392953 0.0392955 0.0392957 0.0392974 0.0392966 0.0392989 0.0392985 0.0392987 0.0392997 0.0392996 0.0393011 0.0393019 0.0393011 0.0393029 0.0393027 0.0393038 0.0393036 0.0393037 0.0393038 0.0393044 0.0393053 0.0393055 0.0393054 0.0393056 0.0393066 0.0393056 0.0393064 0.0393078 0.0393061 0.0393073 0.0393076 0.0393062 0.0393068 0.0393066 0.0393073 0.0393072 0.0392449 0.0392365 0.0392521 0.0392605 0.039267 0.0392713 0.0392737 0.0392756 0.0392779 0.03928 0.0392811 0.039282 0.0392832 0.0392844 0.0392851 0.0392858 0.0392873 0.0392875 0.0392887 0.0392895 0.0392902 0.0392914 0.0392916 0.0392925 0.0392939 0.0392934 0.039295 0.0392949 0.0392958 0.0392961 0.039297 0.0392979 0.0392987 0.0392993 0.0392989 0.0393002 0.0393004 0.039301 0.0393009 0.0393018 0.0393016 0.0393025 0.0393025 0.0393039 0.0393038 0.0393038 0.0393044 0.0393048 0.0393044 0.0393053 0.0393056 0.0393059 0.039306 0.0393066 0.0393065 0.0393067 0.039306 0.0393062 0.039307 0.0393073 0.0393069 0.039307 0.0393061 0.0393069 0.0392528 0.0392546 0.0392581 0.0392652 0.0392702 0.0392739 0.0392773 0.039279 0.0392811 0.0392825 0.0392834 0.0392851 0.0392855 0.0392868 0.0392874 0.0392881 0.0392898 0.0392899 0.0392911 0.0392912 0.0392915 0.0392933 0.0392933 0.0392939 0.0392952 0.0392949 0.0392966 0.0392964 0.0392967 0.0392979 0.0392984 0.0392988 0.0392996 0.0392994 0.0393009 0.0393003 0.0393009 0.0393012 0.0393012 0.039303 0.0393025 0.0393031 0.0393028 0.0393038 0.0393036 0.0393048 0.0393042 0.039305 0.0393051 0.0393054 0.0393058 0.0393053 0.0393051 0.0393063 0.0393065 0.039307 0.0393061 0.0393062 0.0393072 0.0393072 0.0393062 0.0393068 0.0393063 0.039307 0.0392649 0.0392636 0.039267 0.0392712 0.0392748 0.0392779 0.0392808 0.0392819 0.0392846 0.0392854 0.0392865 0.0392881 0.0392882 0.0392895 0.0392897 0.0392904 0.039292 0.0392919 0.0392927 0.0392932 0.0392936 0.0392944 0.0392952 0.0392952 0.0392963 0.0392969 0.0392976 0.0392977 0.0392979 0.0393 0.039299 0.0392995 0.0393001 0.0393003 0.0393014 0.0393002 0.0393017 0.0393025 0.0393024 0.0393034 0.0393036 0.0393038 0.0393037 0.0393036 0.0393038 0.0393047 0.0393045 0.0393049 0.0393055 0.0393055 0.0393052 0.0393066 0.0393056 0.0393063 0.0393059 0.0393069 0.0393057 0.0393067 0.0393072 0.0393071 0.0393067 0.039306 0.0393067 0.0393074 0.0392748 0.0392739 0.0392755 0.039278 0.0392802 0.0392823 0.0392844 0.039286 0.0392879 0.0392888 0.0392887 0.0392906 0.0392912 0.0392924 0.0392924 0.0392927 0.0392941 0.0392942 0.0392949 0.0392952 0.0392954 0.0392956 0.0392969 0.0392973 0.0392977 0.0392979 0.0392985 0.0392992 0.0392994 0.0393005 0.0392998 0.0393009 0.0393011 0.0393018 0.0393013 0.0393024 0.039303 0.039303 0.0393026 0.0393032 0.0393042 0.039304 0.0393038 0.0393042 0.0393046 0.0393046 0.039305 0.039305 0.039305 0.0393062 0.0393055 0.0393062 0.039306 0.0393063 0.039306 0.039307 0.0393061 0.0393076 0.0393071 0.0393062 0.0393064 0.0393062 0.0393066 0.0393072 0.0392841 0.0392827 0.0392831 0.0392846 0.0392861 0.039287 0.0392887 0.0392896 0.0392909 0.0392923 0.0392926 0.0392936 0.0392936 0.0392949 0.0392948 0.039296 0.0392966 0.0392962 0.0392973 0.039298 0.0392976 0.0392981 0.0392988 0.0392991 0.0392994 0.0392998 0.0392997 0.039301 0.0393005 0.0393014 0.0393008 0.0393018 0.0393022 0.0393025 0.039302 0.0393035 0.0393032 0.0393032 0.0393036 0.0393035 0.0393045 0.0393048 0.0393046 0.0393046 0.0393054 0.0393051 0.0393051 0.0393056 0.0393055 0.0393055 0.0393057 0.0393058 0.0393061 0.0393062 0.0393066 0.0393065 0.0393058 0.0393069 0.0393071 0.0393057 0.0393064 0.0393065 0.0393066 0.0393065 0.0392928 0.0392911 0.0392911 0.0392912 0.0392919 0.0392927 0.0392932 0.0392943 0.0392949 0.0392957 0.0392958 0.0392963 0.0392968 0.0392973 0.0392977 0.0392991 0.0392991 0.0392981 0.0392994 0.0393003 0.0392999 0.0393006 0.0393003 0.0393007 0.0393012 0.0393019 0.0393012 0.0393024 0.039302 0.0393029 0.0393025 0.0393025 0.0393033 0.0393031 0.0393041 0.039304 0.0393034 0.0393046 0.0393046 0.0393044 0.039305 0.0393049 0.0393048 0.0393049 0.0393055 0.0393055 0.0393052 0.0393058 0.0393063 0.0393061 0.0393057 0.0393068 0.0393058 0.0393065 0.039307 0.0393072 0.0393065 0.0393065 0.0393072 0.0393069 0.0393068 0.039306 0.0393063 0.0393062 0.0393014 0.0392997 0.0392985 0.0392981 0.0392983 0.0392974 0.0392982 0.0392985 0.0392983 0.0392996 0.039299 0.0392996 0.0393001 0.0392997 0.0393006 0.0393009 0.0393014 0.0393013 0.0393011 0.0393022 0.039302 0.0393025 0.0393019 0.039302 0.039303 0.0393032 0.0393024 0.0393037 0.0393032 0.0393036 0.0393046 0.0393044 0.0393047 0.0393042 0.039305 0.039304 0.0393048 0.0393048 0.0393051 0.0393043 0.0393062 0.0393053 0.0393058 0.0393063 0.0393053 0.0393054 0.0393064 0.0393059 0.0393061 0.0393064 0.0393065 0.0393067 0.039306 0.0393067 0.0393062 0.0393066 0.0393061 0.0393059 0.0393067 0.0393066 0.0393073 0.039306 0.0393063 0.0393064 0.0393098 0.0393075 0.0393053 0.0393043 0.0393033 0.0393024 0.0393031 0.0393024 0.0393024 0.039303 0.039303 0.039302 0.0393033 0.039303 0.0393029 0.0393035 0.0393035 0.0393038 0.039304 0.0393041 0.0393039 0.0393046 0.0393041 0.0393039 0.0393046 0.0393049 0.0393048 0.0393053 0.0393047 0.0393053 0.0393051 0.0393053 0.0393051 0.0393052 0.0393055 0.0393053 0.0393063 0.0393051 0.0393058 0.0393058 0.0393071 0.0393054 0.0393061 0.0393066 0.0393065 0.0393056 0.0393067 0.0393064 0.0393068 0.0393062 0.0393059 0.0393054 0.0393066 0.0393065 0.0393061 0.0393068 0.0393067 0.0393061 0.0393066 0.0393061 0.0393064 0.0393067 0.0393061 0.0393065 0.0393184 0.0393153 0.0393121 0.0393105 0.0393083 0.0393078 0.0393071 0.0393064 0.0393064 0.0393063 0.0393059 0.0393051 0.0393063 0.0393064 0.0393063 0.0393061 0.0393063 0.0393063 0.0393063 0.0393062 0.0393063 0.039307 0.0393065 0.0393062 0.039306 0.0393064 0.0393067 0.039307 0.0393064 0.0393061 0.0393061 0.0393072 0.0393064 0.0393068 0.0393065 0.0393065 0.0393066 0.0393069 0.0393071 0.0393069 0.0393069 0.0393064 0.0393067 0.0393064 0.0393067 0.0393058 0.039307 0.039307 0.0393071 0.0393063 0.0393064 0.0393068 0.039307 0.0393069 0.0393069 0.0393071 0.0393073 0.0393067 0.039307 0.0393066 0.0393068 0.0393065 0.0393059 0.0393069 0.0393262 0.0393222 0.0393184 0.0393165 0.0393142 0.0393126 0.0393114 0.0393105 0.0393105 0.0393099 0.0393095 0.0393091 0.0393093 0.0393091 0.0393094 0.0393087 0.0393084 0.0393088 0.0393083 0.0393088 0.0393085 0.0393085 0.0393086 0.0393079 0.0393083 0.0393073 0.0393079 0.0393086 0.0393078 0.0393074 0.039308 0.0393082 0.0393077 0.0393071 0.0393081 0.0393072 0.0393074 0.0393073 0.0393074 0.0393073 0.0393076 0.0393075 0.0393078 0.0393069 0.0393069 0.0393067 0.0393077 0.0393074 0.0393075 0.0393065 0.0393067 0.0393073 0.0393068 0.0393069 0.039307 0.039307 0.0393072 0.0393062 0.0393072 0.0393066 0.0393069 0.0393062 0.0393063 0.0393072 0.0393346 0.0393299 0.039325 0.0393216 0.0393187 0.0393167 0.0393154 0.0393141 0.039314 0.0393133 0.0393126 0.0393126 0.0393123 0.0393117 0.0393121 0.0393117 0.0393114 0.0393111 0.0393106 0.0393109 0.0393103 0.0393106 0.0393109 0.0393102 0.0393102 0.0393097 0.0393096 0.0393091 0.0393093 0.0393088 0.0393098 0.0393093 0.0393086 0.0393081 0.039309 0.039308 0.039308 0.039308 0.0393085 0.0393081 0.0393084 0.0393075 0.0393084 0.0393073 0.0393077 0.0393074 0.0393076 0.0393074 0.0393073 0.0393073 0.0393065 0.039307 0.0393072 0.0393068 0.0393061 0.0393071 0.0393075 0.0393055 0.0393075 0.0393066 0.0393067 0.0393068 0.0393066 0.0393062 0.0393423 0.0393367 0.0393304 0.0393269 0.0393234 0.039321 0.0393197 0.0393184 0.039318 0.0393168 0.039316 0.0393158 0.0393152 0.0393149 0.0393146 0.0393147 0.0393138 0.0393128 0.039313 0.0393136 0.0393129 0.0393126 0.0393123 0.0393117 0.0393116 0.0393115 0.0393115 0.0393109 0.0393103 0.0393108 0.0393105 0.0393099 0.0393095 0.0393095 0.0393091 0.0393096 0.0393096 0.0393089 0.0393095 0.0393081 0.0393087 0.0393087 0.0393085 0.0393088 0.0393072 0.0393086 0.0393071 0.039308 0.0393073 0.0393075 0.0393071 0.0393075 0.039307 0.0393066 0.0393061 0.0393069 0.0393072 0.0393063 0.0393075 0.0393061 0.0393071 0.0393062 0.0393066 0.0393058 0.0393507 0.0393416 0.039336 0.039331 0.0393277 0.0393254 0.0393231 0.0393221 0.0393214 0.03932 0.0393199 0.0393193 0.039318 0.0393184 0.0393173 0.0393165 0.0393167 0.0393154 0.0393157 0.039316 0.0393148 0.0393142 0.0393144 0.0393142 0.0393139 0.039313 0.0393134 0.0393126 0.0393117 0.0393112 0.0393116 0.0393119 0.0393116 0.0393114 0.03931 0.0393109 0.0393104 0.03931 0.0393101 0.0393087 0.0393087 0.0393101 0.0393082 0.0393099 0.0393072 0.0393091 0.0393074 0.0393087 0.0393073 0.0393078 0.0393078 0.0393074 0.0393067 0.0393079 0.0393077 0.0393061 0.0393068 0.0393065 0.039307 0.0393063 0.039307 0.039306 0.0393068 0.0393067 0.0393545 0.0393503 0.0393395 0.0393349 0.0393319 0.0393292 0.0393274 0.0393262 0.0393249 0.0393237 0.0393227 0.0393214 0.039322 0.0393215 0.0393197 0.0393195 0.0393195 0.0393185 0.0393179 0.0393178 0.0393169 0.0393169 0.0393162 0.0393154 0.0393155 0.0393152 0.0393154 0.0393138 0.0393145 0.0393129 0.039313 0.0393128 0.0393121 0.0393127 0.0393107 0.0393114 0.0393109 0.0393112 0.0393105 0.0393097 0.0393094 0.0393101 0.0393089 0.039309 0.0393083 0.0393092 0.0393085 0.039309 0.0393081 0.0393078 0.0393081 0.0393071 0.0393077 0.0393075 0.0393085 0.0393069 0.039308 0.039307 0.0393067 0.0393064 0.0393073 0.039306 0.0393068 0.0393068 0.0393912 0.0393479 0.039343 0.0393397 0.0393375 0.0393344 0.039332 0.0393303 0.0393287 0.0393274 0.0393265 0.0393251 0.0393245 0.039324 0.0393229 0.0393221 0.0393218 0.0393212 0.0393208 0.0393196 0.0393199 0.0393186 0.0393185 0.0393181 0.0393172 0.0393168 0.0393165 0.0393151 0.0393148 0.0393146 0.0393137 0.039314 0.0393127 0.0393129 0.039313 0.0393126 0.039312 0.0393113 0.0393112 0.0393109 0.0393107 0.0393105 0.0393107 0.0393091 0.0393098 0.0393085 0.0393089 0.0393087 0.0393079 0.0393079 0.0393092 0.0393076 0.0393085 0.0393066 0.0393075 0.0393071 0.0393073 0.0393068 0.0393071 0.0393072 0.0393073 0.0393066 0.0393066 0.0393061 0.0391766 0.0392349 0.0392517 0.0392596 0.0392642 0.0392678 0.03927 0.0392728 0.0392744 0.0392759 0.0392782 0.039279 0.0392806 0.0392818 0.0392824 0.0392836 0.0392845 0.039286 0.0392865 0.0392877 0.0392881 0.0392892 0.0392902 0.039291 0.0392918 0.0392928 0.0392926 0.0392938 0.0392943 0.0392963 0.0392961 0.0392973 0.0392969 0.0392984 0.0392988 0.0392993 0.0392995 0.0392999 0.0392999 0.0393024 0.0393011 0.0393027 0.039303 0.0393036 0.039303 0.0393041 0.0393048 0.0393043 0.0393054 0.0393055 0.0393055 0.0393053 0.0393056 0.0393057 0.0393063 0.0393072 0.0393064 0.0393072 0.0393068 0.0393062 0.0393075 0.0393064 0.0393066 0.0393071 0.0392445 0.0392355 0.039251 0.0392594 0.0392658 0.0392702 0.0392732 0.0392755 0.0392774 0.0392794 0.039281 0.0392818 0.0392832 0.039284 0.0392846 0.0392866 0.0392874 0.0392877 0.0392889 0.0392892 0.0392904 0.0392915 0.0392921 0.0392926 0.0392936 0.0392947 0.0392946 0.0392948 0.039296 0.0392964 0.0392977 0.0392972 0.0392986 0.0392992 0.0392994 0.0393001 0.0393009 0.0393007 0.0393015 0.0393021 0.039302 0.0393021 0.0393033 0.039303 0.0393033 0.039304 0.0393053 0.039304 0.0393046 0.0393052 0.0393057 0.0393065 0.0393052 0.0393061 0.0393053 0.0393069 0.0393065 0.0393063 0.0393068 0.0393063 0.0393072 0.039307 0.0393066 0.0393074 0.0392525 0.0392546 0.039257 0.0392637 0.0392696 0.039273 0.0392761 0.0392784 0.0392802 0.039282 0.0392834 0.0392843 0.0392855 0.0392871 0.0392872 0.0392885 0.0392897 0.0392898 0.0392908 0.0392911 0.0392919 0.0392936 0.0392936 0.0392942 0.0392949 0.0392955 0.0392959 0.0392962 0.0392968 0.0392981 0.0392986 0.0392976 0.0392997 0.0392991 0.039301 0.0393001 0.0393018 0.0393011 0.0393021 0.0393022 0.0393024 0.0393027 0.0393033 0.0393037 0.039304 0.0393041 0.0393045 0.0393047 0.0393058 0.0393055 0.039306 0.0393057 0.0393048 0.0393058 0.0393055 0.0393066 0.0393063 0.0393061 0.0393073 0.0393063 0.0393064 0.0393064 0.0393067 0.039307 0.0392645 0.0392638 0.0392669 0.0392704 0.0392742 0.039277 0.0392798 0.0392817 0.0392836 0.0392851 0.0392868 0.0392875 0.0392877 0.0392896 0.0392897 0.0392907 0.0392918 0.0392915 0.039293 0.0392933 0.0392939 0.0392949 0.0392954 0.0392952 0.0392961 0.0392967 0.0392977 0.0392979 0.0392983 0.0392997 0.039299 0.0392995 0.0393004 0.0393004 0.0393015 0.0393007 0.0393021 0.0393021 0.0393029 0.0393027 0.0393027 0.0393038 0.039304 0.0393043 0.0393048 0.0393045 0.0393047 0.0393049 0.0393053 0.039305 0.0393057 0.0393056 0.0393055 0.0393063 0.039306 0.0393061 0.0393063 0.039306 0.0393074 0.0393066 0.0393071 0.0393069 0.0393073 0.0393066 0.039274 0.0392738 0.0392749 0.0392769 0.0392796 0.0392818 0.039284 0.0392858 0.0392871 0.039288 0.0392894 0.0392907 0.0392906 0.0392922 0.0392926 0.0392931 0.0392942 0.0392938 0.0392953 0.0392952 0.0392958 0.0392965 0.0392971 0.039298 0.0392978 0.0392979 0.0392991 0.0392996 0.0392994 0.0393003 0.0392997 0.0393011 0.0393011 0.0393016 0.0393015 0.0393022 0.0393021 0.0393025 0.0393032 0.0393032 0.0393036 0.0393035 0.0393038 0.0393045 0.0393047 0.0393045 0.0393057 0.0393053 0.0393048 0.0393055 0.0393063 0.0393057 0.0393065 0.0393057 0.0393066 0.0393062 0.0393062 0.0393061 0.0393068 0.0393066 0.0393065 0.039307 0.0393072 0.0393077 0.0392837 0.0392826 0.0392831 0.0392839 0.0392852 0.0392864 0.0392882 0.0392895 0.0392908 0.0392916 0.0392923 0.0392934 0.0392938 0.0392946 0.039295 0.0392958 0.0392967 0.0392963 0.039297 0.0392975 0.0392977 0.0392985 0.0392987 0.0392999 0.0392992 0.0392989 0.0393 0.0393016 0.039301 0.0393014 0.0393011 0.039302 0.0393025 0.0393026 0.0393026 0.039303 0.039303 0.0393035 0.039304 0.0393041 0.0393044 0.039305 0.0393035 0.0393048 0.0393045 0.0393049 0.0393051 0.0393052 0.0393053 0.0393054 0.0393063 0.0393059 0.039306 0.0393055 0.0393067 0.0393059 0.0393059 0.0393066 0.0393067 0.0393067 0.0393069 0.039307 0.0393071 0.0393077 0.0392928 0.0392911 0.0392907 0.0392909 0.0392913 0.039292 0.0392928 0.0392942 0.0392947 0.0392952 0.0392957 0.0392966 0.0392969 0.039297 0.0392977 0.039298 0.039299 0.0392987 0.0392993 0.0393 0.0392998 0.0393004 0.0393001 0.0393009 0.0393011 0.0393008 0.0393016 0.0393024 0.039302 0.0393021 0.0393029 0.0393027 0.0393035 0.0393035 0.0393037 0.0393036 0.0393041 0.0393043 0.0393045 0.0393041 0.0393045 0.0393051 0.0393042 0.0393056 0.0393049 0.0393062 0.0393053 0.0393053 0.0393059 0.0393057 0.0393059 0.0393065 0.0393051 0.0393059 0.0393071 0.0393071 0.0393065 0.0393065 0.0393068 0.0393069 0.0393073 0.0393063 0.0393068 0.0393084 0.0393015 0.0392995 0.0392981 0.0392974 0.0392974 0.0392976 0.0392978 0.0392981 0.0392978 0.0392989 0.0392993 0.0392991 0.0392996 0.0392999 0.0393006 0.0393005 0.0393011 0.0393015 0.0393012 0.0393014 0.0393018 0.0393029 0.0393017 0.0393027 0.0393029 0.0393031 0.0393037 0.0393031 0.0393028 0.0393032 0.0393046 0.039304 0.0393046 0.039304 0.0393049 0.039304 0.0393051 0.0393054 0.0393052 0.039305 0.0393053 0.0393053 0.0393061 0.0393059 0.0393051 0.0393058 0.0393061 0.0393054 0.0393058 0.0393062 0.0393064 0.0393069 0.0393061 0.0393064 0.0393065 0.0393066 0.0393059 0.0393064 0.0393062 0.0393068 0.0393068 0.0393061 0.0393065 0.0393074 0.0393102 0.0393075 0.0393055 0.0393041 0.039303 0.0393026 0.0393026 0.0393022 0.0393019 0.0393025 0.0393033 0.0393022 0.0393033 0.0393031 0.039303 0.0393033 0.0393037 0.0393033 0.0393036 0.039304 0.0393039 0.0393042 0.0393041 0.0393044 0.0393047 0.0393047 0.0393057 0.0393054 0.0393049 0.0393044 0.0393051 0.0393057 0.0393052 0.0393053 0.0393054 0.0393053 0.0393062 0.0393054 0.0393056 0.0393061 0.039306 0.039306 0.0393061 0.039306 0.039306 0.0393064 0.0393066 0.0393061 0.0393059 0.039306 0.0393061 0.0393066 0.0393069 0.0393069 0.039306 0.0393061 0.0393067 0.0393067 0.0393061 0.039307 0.0393069 0.0393073 0.0393062 0.0393069 0.0393187 0.0393158 0.039312 0.0393102 0.0393088 0.0393076 0.039307 0.0393058 0.0393052 0.0393067 0.0393064 0.0393055 0.039306 0.039306 0.039306 0.0393059 0.0393067 0.0393065 0.0393061 0.039307 0.039306 0.0393064 0.039307 0.0393062 0.039307 0.039306 0.0393065 0.0393068 0.0393065 0.0393056 0.0393065 0.0393075 0.0393061 0.0393063 0.0393062 0.0393065 0.039307 0.039306 0.0393065 0.0393064 0.0393065 0.0393067 0.0393064 0.039307 0.0393064 0.039307 0.0393064 0.0393063 0.0393068 0.0393073 0.0393062 0.0393067 0.0393065 0.0393069 0.0393064 0.0393065 0.0393073 0.039307 0.0393066 0.0393066 0.0393072 0.0393066 0.0393058 0.039306 0.0393266 0.0393225 0.039318 0.0393164 0.0393144 0.0393125 0.0393113 0.0393105 0.0393094 0.0393103 0.0393093 0.0393091 0.0393093 0.039309 0.0393084 0.0393085 0.0393086 0.0393088 0.0393081 0.0393089 0.0393081 0.0393083 0.039308 0.0393079 0.0393087 0.0393078 0.0393081 0.0393086 0.039308 0.0393071 0.0393078 0.0393087 0.0393073 0.039307 0.0393078 0.0393071 0.0393079 0.0393071 0.0393069 0.0393074 0.0393073 0.0393072 0.039307 0.0393076 0.0393068 0.039307 0.0393073 0.039307 0.0393071 0.0393071 0.0393068 0.0393068 0.0393067 0.0393062 0.0393068 0.0393069 0.0393072 0.0393069 0.0393072 0.0393066 0.039307 0.0393068 0.0393063 0.0393062 0.0393348 0.0393299 0.0393245 0.0393212 0.0393186 0.039317 0.0393154 0.0393144 0.0393134 0.0393134 0.0393129 0.0393125 0.0393124 0.0393116 0.0393112 0.0393114 0.0393113 0.0393109 0.0393109 0.0393109 0.0393101 0.0393105 0.0393098 0.0393105 0.03931 0.0393096 0.0393098 0.0393091 0.0393092 0.0393086 0.0393095 0.0393091 0.0393087 0.0393084 0.0393088 0.0393079 0.0393086 0.0393081 0.0393077 0.0393089 0.0393074 0.0393073 0.0393075 0.0393075 0.0393076 0.0393074 0.0393076 0.0393067 0.0393076 0.0393074 0.0393068 0.0393074 0.0393076 0.0393068 0.0393066 0.0393068 0.0393067 0.0393069 0.0393066 0.0393072 0.0393066 0.0393066 0.0393058 0.0393069 0.0393421 0.0393361 0.03933 0.0393269 0.0393238 0.0393214 0.0393199 0.0393183 0.0393175 0.0393168 0.0393165 0.0393159 0.0393156 0.0393152 0.039314 0.0393148 0.039314 0.0393136 0.0393131 0.039313 0.0393125 0.0393131 0.0393124 0.0393119 0.0393114 0.0393119 0.0393108 0.0393107 0.0393109 0.0393108 0.0393106 0.0393097 0.0393098 0.0393098 0.0393095 0.0393092 0.0393092 0.0393082 0.0393095 0.0393093 0.0393085 0.0393084 0.0393081 0.0393084 0.0393077 0.0393086 0.0393077 0.0393073 0.0393081 0.0393077 0.0393072 0.0393078 0.0393069 0.0393074 0.0393069 0.0393075 0.0393067 0.039307 0.0393067 0.0393069 0.0393067 0.0393067 0.0393061 0.0393071 0.0393508 0.0393413 0.0393357 0.0393313 0.0393279 0.0393259 0.0393237 0.0393224 0.039322 0.0393203 0.0393198 0.0393188 0.0393186 0.0393185 0.0393175 0.039317 0.0393163 0.0393164 0.0393159 0.0393156 0.0393144 0.0393149 0.0393143 0.0393139 0.0393134 0.0393137 0.0393129 0.0393128 0.0393122 0.039312 0.039312 0.0393119 0.0393113 0.0393115 0.0393105 0.0393107 0.0393102 0.0393096 0.0393101 0.0393096 0.0393093 0.0393094 0.0393077 0.0393095 0.0393077 0.039309 0.0393074 0.0393084 0.0393081 0.0393079 0.0393079 0.0393075 0.0393068 0.0393077 0.0393066 0.0393067 0.0393074 0.0393069 0.0393068 0.0393066 0.0393069 0.0393064 0.0393065 0.0393068 0.0393545 0.0393501 0.039339 0.0393344 0.0393321 0.0393299 0.0393277 0.0393265 0.0393258 0.0393245 0.0393234 0.0393217 0.0393219 0.0393209 0.0393203 0.0393193 0.0393188 0.0393187 0.0393183 0.0393182 0.0393166 0.0393168 0.0393157 0.0393157 0.0393158 0.0393147 0.0393149 0.0393146 0.0393141 0.0393131 0.0393131 0.0393127 0.0393123 0.0393127 0.0393111 0.0393113 0.0393108 0.0393106 0.0393099 0.0393103 0.0393095 0.0393097 0.0393087 0.0393091 0.0393087 0.039309 0.0393085 0.0393086 0.0393079 0.0393079 0.0393072 0.0393071 0.0393075 0.0393073 0.0393079 0.0393067 0.0393082 0.0393067 0.0393058 0.0393069 0.0393074 0.0393059 0.0393069 0.0393071 0.0393926 0.0393474 0.0393425 0.0393391 0.0393368 0.0393344 0.0393327 0.0393307 0.0393291 0.0393277 0.0393267 0.0393257 0.0393246 0.0393234 0.0393235 0.0393226 0.0393214 0.0393207 0.0393213 0.03932 0.0393194 0.0393187 0.0393178 0.039318 0.039317 0.0393173 0.0393165 0.0393152 0.0393157 0.0393146 0.0393139 0.0393138 0.0393134 0.0393135 0.0393121 0.0393132 0.0393121 0.0393105 0.0393115 0.0393105 0.039311 0.0393108 0.0393098 0.0393091 0.0393107 0.0393087 0.0393088 0.039308 0.039309 0.0393086 0.0393086 0.0393072 0.0393078 0.0393079 0.039308 0.0393069 0.039307 0.0393076 0.0393073 0.0393073 0.0393061 0.0393064 0.0393077 0.0393064 0.0391743 0.0392338 0.0392506 0.0392597 0.0392644 0.039267 0.0392698 0.0392724 0.0392737 0.0392752 0.0392774 0.0392786 0.03928 0.0392814 0.0392827 0.0392835 0.0392842 0.0392859 0.0392858 0.0392878 0.039288 0.0392895 0.0392904 0.0392904 0.039292 0.0392926 0.0392932 0.0392943 0.0392941 0.0392954 0.0392956 0.0392969 0.039297 0.0392982 0.039299 0.0392994 0.0392995 0.0393011 0.0393004 0.039302 0.0393014 0.0393023 0.0393022 0.0393038 0.0393037 0.0393043 0.0393041 0.0393035 0.0393058 0.0393052 0.0393056 0.0393048 0.0393059 0.0393061 0.0393069 0.0393067 0.0393058 0.0393063 0.0393076 0.0393073 0.0393065 0.0393068 0.039307 0.0393069 0.0392441 0.0392346 0.03925 0.0392598 0.0392655 0.0392695 0.0392729 0.0392747 0.0392769 0.0392791 0.0392799 0.0392813 0.0392826 0.0392838 0.0392846 0.0392861 0.0392874 0.0392876 0.0392879 0.0392893 0.0392904 0.0392911 0.0392919 0.0392918 0.0392932 0.0392945 0.0392945 0.039295 0.039296 0.0392967 0.0392973 0.0392972 0.0392987 0.0392992 0.0392991 0.0392995 0.0393003 0.039301 0.039301 0.0393021 0.0393027 0.0393026 0.0393032 0.0393028 0.0393036 0.0393042 0.0393049 0.039304 0.0393052 0.0393048 0.0393056 0.039306 0.0393059 0.039306 0.0393056 0.039307 0.0393065 0.0393067 0.0393077 0.0393057 0.039307 0.0393067 0.0393068 0.0393073 0.0392519 0.0392543 0.0392564 0.0392635 0.0392689 0.0392727 0.0392759 0.0392778 0.03928 0.0392819 0.0392832 0.0392843 0.0392851 0.0392871 0.0392869 0.0392884 0.0392896 0.0392894 0.0392908 0.0392913 0.0392919 0.0392929 0.0392935 0.0392938 0.0392948 0.0392958 0.0392956 0.0392963 0.039297 0.0392981 0.0392977 0.039298 0.0392995 0.0392995 0.0393002 0.0393002 0.0393011 0.0393018 0.0393021 0.039302 0.0393027 0.0393032 0.0393034 0.0393036 0.0393036 0.039304 0.0393042 0.0393048 0.0393057 0.0393048 0.0393065 0.0393056 0.0393055 0.0393063 0.0393058 0.0393069 0.0393063 0.0393062 0.0393073 0.0393057 0.0393071 0.0393065 0.0393069 0.039307 0.0392642 0.0392639 0.0392664 0.0392696 0.0392736 0.0392764 0.03928 0.0392818 0.0392832 0.039285 0.0392865 0.0392866 0.0392876 0.0392901 0.0392895 0.039291 0.0392916 0.0392911 0.0392935 0.0392932 0.0392938 0.0392946 0.0392949 0.0392955 0.0392965 0.0392969 0.0392975 0.0392982 0.0392979 0.0392996 0.0392991 0.0393001 0.0393004 0.0393002 0.0393009 0.0393011 0.039302 0.0393022 0.0393026 0.0393025 0.0393031 0.0393037 0.0393041 0.0393037 0.039304 0.0393049 0.0393046 0.039305 0.0393052 0.0393048 0.039306 0.0393048 0.0393054 0.0393063 0.0393075 0.0393067 0.0393057 0.0393059 0.0393069 0.0393056 0.0393069 0.0393066 0.0393076 0.0393066 0.0392738 0.0392742 0.039275 0.0392768 0.0392794 0.0392814 0.0392839 0.0392857 0.0392862 0.039288 0.0392893 0.0392898 0.0392907 0.0392923 0.0392922 0.0392924 0.0392941 0.0392937 0.0392951 0.0392955 0.0392954 0.0392967 0.0392969 0.0392981 0.0392974 0.0392981 0.0392985 0.0392997 0.0392993 0.0393003 0.0392995 0.0393011 0.0393009 0.0393011 0.0393021 0.0393024 0.0393023 0.0393024 0.0393031 0.0393036 0.0393039 0.0393037 0.0393044 0.0393043 0.0393049 0.0393045 0.0393053 0.0393058 0.0393056 0.0393059 0.0393062 0.0393052 0.0393063 0.0393056 0.039308 0.039306 0.0393061 0.039307 0.039306 0.0393064 0.0393065 0.0393073 0.039307 0.0393071 0.0392834 0.0392829 0.0392832 0.0392839 0.0392854 0.0392867 0.0392878 0.0392897 0.0392906 0.0392912 0.0392923 0.0392926 0.0392938 0.0392943 0.0392954 0.0392956 0.0392963 0.0392963 0.0392967 0.0392973 0.039298 0.0392986 0.0392985 0.0392994 0.0392996 0.0392992 0.0392999 0.0393009 0.0393009 0.0393017 0.0393014 0.0393016 0.0393021 0.0393027 0.0393028 0.0393031 0.0393034 0.0393031 0.039304 0.039304 0.0393042 0.0393051 0.0393044 0.0393043 0.0393055 0.0393048 0.0393055 0.0393053 0.0393052 0.039306 0.0393063 0.0393052 0.039306 0.0393059 0.0393076 0.0393051 0.0393059 0.0393071 0.0393058 0.0393065 0.0393064 0.0393065 0.0393067 0.0393076 0.0392926 0.0392913 0.0392906 0.0392908 0.0392919 0.0392924 0.0392927 0.0392937 0.0392947 0.0392947 0.0392957 0.0392964 0.0392969 0.039297 0.039298 0.0392985 0.0392985 0.0392984 0.0392993 0.0393002 0.0393003 0.0392999 0.0393003 0.0393009 0.0393014 0.0393008 0.0393019 0.0393025 0.0393021 0.0393025 0.0393031 0.0393021 0.0393029 0.039304 0.0393038 0.0393036 0.0393043 0.0393041 0.0393046 0.0393045 0.0393041 0.0393053 0.0393051 0.039305 0.0393058 0.0393051 0.0393057 0.039306 0.0393059 0.0393053 0.0393057 0.0393054 0.0393055 0.0393068 0.0393068 0.039306 0.0393067 0.0393068 0.0393066 0.0393069 0.0393071 0.0393063 0.0393064 0.0393078 0.0393016 0.0392996 0.0392981 0.0392972 0.0392978 0.0392978 0.0392975 0.0392975 0.0392982 0.0392989 0.0392988 0.0392995 0.0392996 0.0393004 0.0393007 0.0393008 0.0393008 0.0393011 0.0393011 0.0393021 0.0393024 0.0393024 0.0393021 0.039303 0.0393027 0.0393028 0.0393038 0.0393036 0.0393033 0.0393039 0.0393046 0.0393034 0.0393049 0.0393047 0.0393052 0.0393046 0.0393044 0.0393046 0.0393055 0.039306 0.0393047 0.0393054 0.0393063 0.0393053 0.0393057 0.0393057 0.039306 0.0393062 0.0393059 0.0393056 0.0393063 0.0393061 0.0393063 0.0393067 0.0393062 0.0393064 0.039307 0.0393061 0.0393057 0.0393064 0.0393068 0.0393068 0.0393064 0.0393067 0.03931 0.0393072 0.0393058 0.0393042 0.0393027 0.0393024 0.0393024 0.0393021 0.0393017 0.0393024 0.0393025 0.0393025 0.0393031 0.0393034 0.0393032 0.0393036 0.0393034 0.0393036 0.0393034 0.0393039 0.0393045 0.0393042 0.0393043 0.0393042 0.0393044 0.0393043 0.0393052 0.0393047 0.0393052 0.0393048 0.0393056 0.0393053 0.0393059 0.0393052 0.0393054 0.039305 0.0393053 0.0393048 0.039306 0.0393065 0.0393049 0.0393059 0.0393063 0.039306 0.0393057 0.0393064 0.0393064 0.0393058 0.0393067 0.0393055 0.0393063 0.0393072 0.0393056 0.0393068 0.0393062 0.0393066 0.0393067 0.0393064 0.0393059 0.039306 0.0393066 0.0393071 0.039306 0.0393062 0.0393183 0.0393153 0.0393127 0.0393098 0.0393088 0.039308 0.0393069 0.039306 0.0393055 0.0393065 0.0393062 0.0393053 0.039306 0.0393063 0.039306 0.0393057 0.0393062 0.0393064 0.0393061 0.0393065 0.0393059 0.039306 0.0393062 0.0393061 0.0393073 0.0393066 0.0393064 0.0393061 0.0393062 0.0393063 0.0393069 0.0393067 0.0393063 0.0393068 0.0393067 0.0393063 0.0393069 0.0393057 0.039307 0.039307 0.0393063 0.0393067 0.0393064 0.0393067 0.0393065 0.0393069 0.0393065 0.0393056 0.0393071 0.0393069 0.0393061 0.0393075 0.0393054 0.0393072 0.0393059 0.039307 0.0393063 0.0393072 0.039307 0.0393063 0.0393061 0.0393068 0.0393055 0.0393058 0.0393264 0.0393224 0.0393187 0.0393156 0.0393146 0.0393127 0.0393113 0.0393103 0.0393098 0.0393101 0.0393093 0.0393087 0.0393097 0.0393093 0.0393087 0.039309 0.039309 0.0393085 0.0393081 0.0393087 0.0393079 0.0393085 0.0393078 0.0393078 0.0393084 0.0393079 0.0393082 0.0393082 0.0393074 0.0393078 0.0393079 0.039308 0.0393074 0.039308 0.0393075 0.0393072 0.0393078 0.0393073 0.0393069 0.0393077 0.0393068 0.0393072 0.0393067 0.0393072 0.0393071 0.0393075 0.0393069 0.0393065 0.0393078 0.0393064 0.0393065 0.0393071 0.039306 0.0393064 0.0393071 0.0393071 0.0393055 0.0393069 0.0393069 0.0393064 0.0393062 0.0393071 0.0393067 0.0393058 0.0393348 0.0393297 0.0393247 0.0393207 0.0393186 0.0393173 0.0393156 0.0393148 0.0393141 0.0393136 0.0393132 0.0393122 0.0393122 0.039312 0.039312 0.0393116 0.0393117 0.0393107 0.0393112 0.0393111 0.0393107 0.039311 0.03931 0.0393104 0.0393098 0.03931 0.0393101 0.0393097 0.0393092 0.0393088 0.0393092 0.0393087 0.0393091 0.0393082 0.0393084 0.039308 0.0393084 0.0393083 0.0393077 0.0393086 0.0393074 0.039308 0.0393077 0.0393075 0.0393074 0.0393076 0.0393072 0.0393066 0.0393076 0.039307 0.0393063 0.0393072 0.0393063 0.039307 0.039307 0.039307 0.039306 0.0393075 0.0393061 0.0393069 0.0393062 0.0393068 0.0393066 0.0393055 0.0393427 0.0393361 0.0393303 0.0393267 0.0393238 0.0393222 0.0393197 0.0393188 0.0393177 0.0393171 0.0393161 0.0393153 0.0393154 0.0393148 0.0393138 0.0393144 0.0393138 0.0393131 0.0393132 0.0393129 0.0393129 0.0393131 0.0393119 0.0393121 0.0393115 0.0393121 0.0393113 0.0393107 0.0393106 0.0393105 0.0393106 0.0393097 0.0393104 0.0393094 0.0393095 0.0393093 0.0393092 0.0393089 0.0393092 0.0393094 0.0393082 0.0393087 0.0393076 0.0393082 0.0393083 0.0393085 0.0393075 0.0393073 0.0393076 0.0393077 0.039306 0.0393068 0.0393061 0.0393077 0.0393069 0.0393068 0.0393067 0.0393078 0.039306 0.0393069 0.0393067 0.0393067 0.039307 0.0393066 0.0393514 0.0393414 0.0393358 0.0393312 0.0393277 0.0393256 0.0393238 0.0393227 0.0393218 0.0393206 0.0393193 0.0393191 0.0393185 0.0393185 0.039317 0.0393178 0.0393165 0.0393157 0.0393156 0.0393155 0.0393146 0.0393147 0.0393137 0.0393137 0.0393131 0.0393138 0.039313 0.0393124 0.0393119 0.0393118 0.0393118 0.0393112 0.039311 0.0393111 0.0393105 0.0393103 0.03931 0.0393099 0.0393097 0.0393099 0.039309 0.0393091 0.0393078 0.0393083 0.0393087 0.039309 0.0393071 0.0393081 0.0393079 0.0393074 0.0393074 0.039307 0.039307 0.0393072 0.0393067 0.0393071 0.0393068 0.0393067 0.0393069 0.0393069 0.039307 0.0393063 0.0393063 0.039306 0.0393549 0.0393501 0.0393384 0.0393347 0.039332 0.0393299 0.0393277 0.0393263 0.0393257 0.0393243 0.039323 0.0393225 0.0393215 0.0393207 0.0393196 0.0393196 0.0393189 0.0393184 0.039318 0.0393179 0.0393172 0.0393165 0.039316 0.0393154 0.0393154 0.039315 0.0393142 0.039314 0.0393137 0.0393131 0.0393129 0.0393123 0.0393117 0.0393116 0.039312 0.0393115 0.0393104 0.0393109 0.0393104 0.0393106 0.0393096 0.0393102 0.0393091 0.0393089 0.0393082 0.039309 0.0393079 0.0393088 0.0393085 0.0393079 0.0393081 0.0393073 0.0393079 0.0393067 0.0393076 0.0393071 0.0393067 0.0393066 0.0393058 0.0393072 0.0393073 0.0393058 0.0393062 0.039306 0.0393939 0.039347 0.039342 0.039339 0.0393369 0.0393349 0.0393328 0.0393306 0.039329 0.0393278 0.0393263 0.0393255 0.039325 0.0393239 0.0393229 0.0393229 0.0393217 0.0393208 0.0393201 0.03932 0.0393195 0.0393188 0.0393176 0.0393176 0.0393171 0.0393165 0.0393159 0.0393153 0.0393154 0.039315 0.0393142 0.0393132 0.0393131 0.0393129 0.0393132 0.0393122 0.0393118 0.039311 0.0393116 0.0393105 0.0393108 0.0393108 0.039309 0.0393094 0.0393098 0.0393095 0.0393083 0.0393085 0.039308 0.0393084 0.0393087 0.0393083 0.0393075 0.0393071 0.0393071 0.0393076 0.0393059 0.0393081 0.039307 0.0393067 0.0393059 0.0393064 0.0393073 0.0393057 0.0391734 0.0392339 0.0392506 0.0392593 0.039264 0.039267 0.0392702 0.0392722 0.0392733 0.0392757 0.039277 0.0392785 0.0392805 0.0392807 0.0392827 0.0392835 0.0392842 0.0392857 0.0392863 0.0392872 0.0392885 0.0392894 0.0392902 0.0392909 0.0392913 0.039292 0.0392929 0.0392947 0.0392947 0.0392957 0.039296 0.0392968 0.0392974 0.0392981 0.0392988 0.0392992 0.0392995 0.0393002 0.0393016 0.039301 0.0393026 0.0393021 0.039303 0.0393031 0.0393034 0.0393033 0.039304 0.0393041 0.0393064 0.0393056 0.039306 0.0393051 0.0393066 0.0393063 0.0393068 0.039307 0.0393063 0.0393068 0.0393075 0.0393076 0.0393062 0.0393077 0.0393076 0.039307 0.0392437 0.0392346 0.0392498 0.0392595 0.039265 0.0392695 0.0392724 0.0392743 0.0392768 0.0392792 0.0392801 0.0392816 0.0392828 0.0392837 0.0392846 0.0392858 0.039287 0.0392877 0.0392884 0.0392893 0.0392905 0.0392913 0.0392917 0.0392923 0.0392935 0.039294 0.0392948 0.0392953 0.0392961 0.0392971 0.0392973 0.0392981 0.0392981 0.0392991 0.0392989 0.0393003 0.039301 0.0393006 0.0393016 0.0393015 0.0393028 0.0393031 0.0393031 0.0393031 0.0393033 0.039304 0.0393048 0.039305 0.0393053 0.0393052 0.0393054 0.0393051 0.0393061 0.0393061 0.0393064 0.0393068 0.0393066 0.0393065 0.0393074 0.0393065 0.0393061 0.039307 0.0393063 0.039307 0.0392514 0.0392542 0.0392567 0.0392635 0.0392685 0.0392727 0.0392759 0.0392777 0.03928 0.0392814 0.0392831 0.0392842 0.039285 0.0392872 0.0392873 0.039288 0.039289 0.0392891 0.0392903 0.0392918 0.0392919 0.0392931 0.0392935 0.0392939 0.039295 0.0392953 0.0392964 0.0392963 0.0392969 0.0392983 0.0392975 0.0392988 0.0392994 0.0392999 0.0393 0.0393008 0.0393015 0.0393013 0.0393028 0.0393017 0.0393027 0.0393033 0.0393027 0.0393036 0.0393039 0.0393045 0.0393042 0.0393046 0.0393054 0.039305 0.0393061 0.0393052 0.0393054 0.039306 0.0393066 0.0393071 0.0393063 0.0393066 0.039307 0.0393058 0.0393069 0.0393067 0.0393067 0.0393073 0.039264 0.0392638 0.0392666 0.0392697 0.0392736 0.0392765 0.0392796 0.0392813 0.0392832 0.0392849 0.0392865 0.0392864 0.0392877 0.0392898 0.0392895 0.0392912 0.0392912 0.0392918 0.0392926 0.0392938 0.0392939 0.0392947 0.0392946 0.039296 0.0392967 0.0392971 0.0392973 0.0392972 0.0392979 0.0392996 0.0392986 0.0392998 0.0393007 0.0393006 0.0393015 0.039301 0.0393022 0.0393015 0.0393026 0.0393031 0.0393026 0.039303 0.0393039 0.0393036 0.0393045 0.039305 0.039304 0.0393049 0.0393059 0.0393054 0.0393055 0.0393062 0.039305 0.039306 0.0393065 0.0393069 0.0393054 0.039307 0.0393068 0.0393063 0.0393067 0.0393061 0.0393078 0.0393076 0.0392738 0.0392736 0.0392748 0.0392769 0.0392796 0.0392815 0.0392837 0.0392854 0.0392866 0.0392884 0.0392889 0.0392892 0.0392904 0.0392925 0.0392921 0.0392923 0.039294 0.0392947 0.0392948 0.0392953 0.0392955 0.0392967 0.0392965 0.039298 0.039298 0.0392987 0.0392984 0.0392989 0.0392995 0.0393004 0.0393001 0.0393008 0.0393007 0.0393014 0.0393022 0.0393022 0.0393026 0.0393019 0.0393031 0.0393044 0.0393033 0.0393027 0.0393049 0.0393042 0.0393055 0.0393047 0.0393042 0.0393052 0.0393058 0.0393057 0.0393053 0.0393059 0.0393059 0.0393052 0.0393068 0.0393057 0.0393058 0.0393085 0.0393063 0.0393069 0.0393061 0.0393071 0.0393065 0.0393058 0.0392833 0.0392825 0.0392829 0.039284 0.0392856 0.0392864 0.0392879 0.0392898 0.0392903 0.0392912 0.0392926 0.0392929 0.0392936 0.0392946 0.039295 0.0392952 0.0392965 0.0392966 0.0392971 0.0392967 0.0392979 0.039299 0.0392983 0.0392996 0.0392993 0.0392999 0.0393005 0.0393005 0.0393008 0.0393015 0.039302 0.0393024 0.0393023 0.0393022 0.0393031 0.0393033 0.0393026 0.0393025 0.0393043 0.0393042 0.0393042 0.0393042 0.0393051 0.0393042 0.0393057 0.0393045 0.039306 0.0393052 0.0393057 0.0393052 0.0393063 0.0393056 0.0393066 0.0393056 0.0393075 0.0393059 0.0393054 0.0393072 0.0393066 0.0393065 0.0393059 0.0393071 0.0393061 0.0393062 0.0392927 0.0392911 0.0392906 0.0392906 0.0392916 0.0392918 0.0392926 0.0392933 0.0392943 0.0392946 0.0392959 0.0392964 0.0392965 0.0392973 0.039298 0.0392981 0.0392988 0.0392986 0.0392991 0.0392997 0.0393 0.0392999 0.0393001 0.0393009 0.0393009 0.0393014 0.0393014 0.0393023 0.0393017 0.0393029 0.0393029 0.039303 0.0393032 0.0393028 0.039304 0.0393036 0.0393039 0.0393042 0.0393042 0.0393044 0.0393047 0.039305 0.0393056 0.039304 0.0393056 0.0393047 0.0393065 0.0393054 0.0393062 0.0393051 0.0393065 0.0393059 0.0393065 0.0393064 0.0393064 0.0393062 0.0393062 0.0393064 0.0393066 0.0393067 0.0393071 0.0393065 0.0393063 0.0393071 0.0393011 0.0392988 0.0392985 0.0392969 0.0392974 0.0392971 0.0392976 0.0392976 0.0392982 0.039299 0.0392992 0.0392995 0.0392988 0.0393001 0.0393003 0.0393007 0.0393007 0.0393013 0.039301 0.0393021 0.0393021 0.0393022 0.0393021 0.0393025 0.039303 0.0393034 0.0393036 0.0393037 0.0393035 0.0393037 0.0393043 0.0393037 0.0393044 0.0393039 0.0393045 0.0393041 0.0393051 0.0393046 0.0393049 0.0393058 0.039305 0.0393052 0.0393062 0.0393049 0.0393062 0.0393051 0.0393066 0.0393062 0.0393061 0.0393058 0.039307 0.0393061 0.0393063 0.0393068 0.0393057 0.0393067 0.0393068 0.0393061 0.0393065 0.0393069 0.039307 0.039306 0.0393064 0.0393065 0.03931 0.0393068 0.0393057 0.0393042 0.0393024 0.0393023 0.0393027 0.0393022 0.0393019 0.0393028 0.039303 0.0393024 0.0393027 0.0393032 0.0393027 0.039304 0.0393033 0.0393039 0.0393038 0.0393042 0.0393044 0.039304 0.0393041 0.0393042 0.0393046 0.0393046 0.039305 0.0393049 0.0393055 0.0393048 0.0393054 0.0393047 0.0393054 0.0393052 0.0393055 0.0393057 0.0393058 0.0393052 0.0393049 0.0393062 0.0393049 0.0393061 0.0393061 0.0393059 0.0393063 0.0393054 0.0393071 0.039306 0.0393067 0.0393065 0.0393067 0.0393069 0.0393055 0.039307 0.0393059 0.0393074 0.039306 0.0393063 0.0393073 0.0393067 0.039306 0.0393064 0.0393062 0.0393066 0.0393183 0.0393146 0.0393126 0.0393101 0.0393087 0.0393078 0.0393071 0.0393063 0.0393058 0.0393064 0.0393069 0.0393054 0.0393058 0.0393063 0.039306 0.039306 0.0393057 0.0393059 0.0393064 0.0393069 0.0393062 0.0393062 0.0393061 0.0393062 0.039307 0.0393063 0.0393065 0.0393063 0.0393065 0.0393066 0.0393063 0.0393063 0.0393064 0.039307 0.0393066 0.0393065 0.0393065 0.0393062 0.0393066 0.0393071 0.0393069 0.0393067 0.0393063 0.0393062 0.0393072 0.0393064 0.0393074 0.0393056 0.039307 0.0393065 0.0393068 0.0393071 0.0393056 0.0393071 0.039306 0.0393072 0.0393056 0.0393064 0.039307 0.039307 0.0393066 0.0393067 0.0393065 0.0393072 0.0393266 0.0393222 0.039319 0.0393159 0.0393147 0.0393124 0.0393117 0.0393103 0.0393096 0.0393101 0.03931 0.0393089 0.039309 0.0393094 0.0393084 0.0393087 0.0393089 0.0393086 0.0393085 0.0393086 0.0393082 0.0393084 0.0393078 0.0393085 0.039308 0.0393077 0.0393084 0.0393078 0.0393072 0.0393087 0.0393078 0.0393077 0.0393077 0.0393077 0.0393074 0.0393078 0.0393077 0.0393073 0.0393079 0.039307 0.0393071 0.0393068 0.0393074 0.0393066 0.0393073 0.0393078 0.0393068 0.0393062 0.0393072 0.0393064 0.039307 0.0393074 0.0393061 0.0393068 0.0393071 0.0393066 0.039305 0.0393072 0.0393067 0.0393066 0.039307 0.0393067 0.0393067 0.0393065 0.0393351 0.0393293 0.0393248 0.0393219 0.0393185 0.0393169 0.0393161 0.0393147 0.0393136 0.0393137 0.0393137 0.0393129 0.0393123 0.0393119 0.0393115 0.0393113 0.0393121 0.0393114 0.0393111 0.0393104 0.0393102 0.0393105 0.0393095 0.0393104 0.03931 0.0393098 0.0393095 0.0393097 0.0393088 0.0393091 0.0393091 0.0393082 0.0393096 0.0393085 0.0393082 0.039308 0.0393079 0.039308 0.0393084 0.0393078 0.0393079 0.039307 0.039308 0.0393078 0.0393077 0.0393079 0.0393064 0.0393074 0.0393072 0.0393074 0.0393069 0.0393082 0.0393066 0.0393075 0.0393071 0.039307 0.0393062 0.0393074 0.0393069 0.0393064 0.0393066 0.0393069 0.0393069 0.0393065 0.0393427 0.039336 0.0393303 0.0393267 0.0393236 0.0393218 0.0393197 0.0393192 0.0393175 0.0393173 0.0393164 0.0393165 0.0393158 0.0393141 0.0393143 0.0393143 0.0393138 0.0393135 0.0393131 0.0393128 0.0393128 0.0393126 0.0393118 0.0393124 0.0393122 0.0393116 0.0393107 0.0393113 0.0393105 0.0393102 0.0393107 0.0393101 0.0393101 0.0393099 0.0393089 0.0393093 0.0393088 0.0393092 0.0393091 0.0393089 0.039309 0.0393082 0.0393084 0.0393078 0.0393082 0.0393083 0.0393075 0.0393079 0.039308 0.0393076 0.0393072 0.0393076 0.039307 0.0393077 0.0393072 0.0393066 0.0393069 0.039307 0.0393062 0.0393068 0.0393066 0.039307 0.0393067 0.0393075 0.0393514 0.0393416 0.0393361 0.0393307 0.0393283 0.0393257 0.0393241 0.0393227 0.0393216 0.0393212 0.0393195 0.0393199 0.0393181 0.0393177 0.0393172 0.0393174 0.0393167 0.0393154 0.0393159 0.039316 0.0393149 0.0393143 0.0393136 0.0393143 0.0393134 0.0393135 0.0393121 0.0393127 0.0393127 0.0393116 0.0393119 0.0393118 0.0393103 0.0393115 0.0393104 0.0393107 0.0393103 0.03931 0.0393091 0.039309 0.0393095 0.0393093 0.0393093 0.039308 0.0393086 0.0393082 0.0393076 0.0393083 0.0393076 0.0393067 0.0393081 0.039307 0.0393076 0.039307 0.0393075 0.0393072 0.0393074 0.0393064 0.0393065 0.0393076 0.0393065 0.0393065 0.0393063 0.039306 0.0393552 0.0393506 0.0393386 0.0393347 0.039332 0.0393303 0.0393282 0.0393267 0.0393252 0.0393242 0.0393231 0.0393227 0.0393212 0.0393209 0.03932 0.0393192 0.0393194 0.0393184 0.0393182 0.0393181 0.039317 0.0393165 0.0393158 0.0393162 0.0393157 0.0393156 0.0393138 0.0393139 0.0393143 0.0393133 0.039313 0.0393126 0.0393115 0.0393118 0.0393119 0.0393115 0.0393102 0.0393112 0.0393105 0.0393102 0.0393091 0.0393099 0.0393098 0.0393092 0.0393092 0.039309 0.0393077 0.0393089 0.0393081 0.0393076 0.039308 0.039307 0.039308 0.0393066 0.0393074 0.0393078 0.039307 0.0393064 0.0393074 0.0393071 0.0393066 0.0393065 0.0393066 0.0393061 0.0393949 0.0393468 0.039341 0.0393391 0.039337 0.0393346 0.0393327 0.039331 0.0393291 0.0393283 0.0393268 0.0393256 0.0393245 0.0393243 0.0393232 0.0393222 0.039322 0.0393205 0.0393203 0.0393197 0.0393191 0.0393187 0.0393177 0.0393177 0.0393175 0.0393163 0.0393165 0.0393152 0.0393155 0.0393152 0.0393141 0.0393147 0.039313 0.0393124 0.0393136 0.0393126 0.0393114 0.0393111 0.0393105 0.0393106 0.0393107 0.0393106 0.0393094 0.0393093 0.0393097 0.0393086 0.039308 0.039309 0.0393077 0.0393088 0.0393073 0.0393085 0.0393079 0.0393066 0.0393074 0.0393077 0.0393069 0.0393079 0.0393072 0.0393072 0.0393067 0.0393078 0.0393075 0.0393064 0.0391737 0.039234 0.0392509 0.0392603 0.0392645 0.0392674 0.0392704 0.039272 0.0392738 0.0392758 0.0392765 0.0392787 0.0392805 0.0392808 0.0392829 0.0392831 0.0392842 0.0392856 0.0392861 0.0392873 0.0392885 0.0392896 0.03929 0.0392914 0.0392916 0.0392925 0.0392933 0.0392945 0.039294 0.0392967 0.0392963 0.0392965 0.039298 0.039298 0.0392983 0.0392992 0.0393 0.0393007 0.0393016 0.0393015 0.0393018 0.0393015 0.039303 0.0393035 0.0393031 0.0393039 0.0393039 0.0393051 0.0393053 0.0393041 0.0393055 0.0393056 0.0393068 0.0393063 0.0393059 0.0393073 0.0393071 0.0393069 0.0393066 0.0393079 0.0393062 0.0393067 0.0393072 0.0393068 0.0392435 0.0392348 0.0392505 0.0392598 0.0392653 0.0392691 0.0392728 0.0392747 0.0392768 0.0392791 0.0392801 0.0392814 0.0392824 0.0392831 0.0392851 0.0392862 0.0392867 0.0392878 0.0392882 0.0392896 0.0392897 0.0392912 0.0392921 0.0392925 0.0392935 0.0392941 0.0392949 0.0392949 0.0392955 0.0392968 0.0392973 0.0392979 0.0392979 0.0392994 0.0392991 0.0392998 0.0393006 0.0393011 0.0393018 0.0393012 0.0393018 0.0393027 0.0393033 0.0393035 0.0393036 0.0393041 0.0393048 0.0393051 0.0393047 0.0393045 0.0393058 0.0393049 0.0393068 0.0393059 0.0393066 0.0393056 0.039306 0.0393066 0.0393069 0.0393081 0.0393062 0.0393071 0.0393064 0.0393076 0.0392514 0.0392545 0.0392569 0.0392638 0.0392689 0.0392722 0.0392761 0.0392781 0.0392801 0.0392818 0.0392831 0.0392842 0.039285 0.0392865 0.0392872 0.0392879 0.0392893 0.0392897 0.0392899 0.0392915 0.0392913 0.0392927 0.0392936 0.0392942 0.0392947 0.0392952 0.0392963 0.0392967 0.0392967 0.0392975 0.039298 0.0392988 0.0392995 0.0392995 0.0393 0.0393004 0.0393015 0.0393008 0.0393024 0.0393018 0.0393022 0.0393031 0.0393033 0.0393031 0.0393044 0.0393046 0.0393047 0.0393055 0.0393044 0.0393049 0.0393057 0.0393053 0.0393061 0.0393058 0.039307 0.0393067 0.0393062 0.0393062 0.0393071 0.0393065 0.0393068 0.0393064 0.0393068 0.0393073 0.0392643 0.0392638 0.0392662 0.0392698 0.0392735 0.0392767 0.0392796 0.0392814 0.0392832 0.0392852 0.0392861 0.0392871 0.0392877 0.0392895 0.03929 0.0392908 0.0392914 0.0392919 0.0392925 0.0392937 0.0392938 0.0392946 0.0392947 0.0392964 0.039296 0.0392965 0.0392977 0.0392977 0.0392984 0.0392991 0.0392992 0.0392999 0.0393006 0.0393 0.039301 0.0393014 0.0393023 0.0393014 0.0393031 0.0393035 0.0393023 0.0393031 0.039304 0.0393035 0.0393036 0.0393047 0.0393047 0.0393052 0.039305 0.0393057 0.0393049 0.0393069 0.0393056 0.0393063 0.0393063 0.0393066 0.039306 0.0393059 0.0393066 0.039307 0.0393069 0.039306 0.0393075 0.0393072 0.0392739 0.0392735 0.0392748 0.0392769 0.0392793 0.0392812 0.0392836 0.0392851 0.0392864 0.0392883 0.0392892 0.0392896 0.0392907 0.0392919 0.0392925 0.039293 0.0392935 0.0392947 0.0392952 0.0392953 0.0392959 0.0392964 0.0392963 0.0392979 0.0392979 0.039298 0.0392987 0.0392987 0.0392998 0.0393002 0.0393003 0.0393005 0.039301 0.0393009 0.0393022 0.0393024 0.0393029 0.0393023 0.0393024 0.0393044 0.0393035 0.0393033 0.0393045 0.0393044 0.0393042 0.0393051 0.0393047 0.0393048 0.0393056 0.0393059 0.0393055 0.0393065 0.0393055 0.0393066 0.0393064 0.0393063 0.0393057 0.0393068 0.039307 0.0393069 0.039306 0.0393069 0.0393064 0.0393071 0.0392832 0.0392824 0.039283 0.0392841 0.0392856 0.0392862 0.0392882 0.0392898 0.0392899 0.0392912 0.0392929 0.0392927 0.0392939 0.0392946 0.0392947 0.0392955 0.0392961 0.0392969 0.0392974 0.0392969 0.0392976 0.0392986 0.0392984 0.0392997 0.0392997 0.0393 0.0393005 0.0393002 0.0393009 0.0393014 0.0393013 0.0393015 0.0393027 0.039302 0.0393035 0.0393032 0.0393026 0.0393038 0.0393035 0.0393046 0.0393048 0.0393038 0.0393041 0.0393044 0.0393053 0.0393051 0.039306 0.0393049 0.0393058 0.0393051 0.0393064 0.0393056 0.0393057 0.039306 0.0393064 0.0393073 0.0393061 0.0393058 0.0393065 0.0393067 0.0393056 0.039307 0.0393057 0.0393072 0.0392925 0.0392913 0.0392905 0.0392909 0.0392916 0.0392919 0.0392929 0.0392936 0.039294 0.0392945 0.039296 0.0392963 0.0392966 0.0392975 0.039298 0.0392977 0.0392985 0.0392989 0.0392996 0.0392993 0.0392998 0.0393008 0.0393006 0.0393011 0.0393009 0.0393021 0.0393021 0.0393021 0.0393023 0.0393028 0.0393023 0.0393028 0.0393039 0.039303 0.0393043 0.0393034 0.0393038 0.039305 0.0393043 0.0393048 0.039305 0.0393047 0.0393048 0.039305 0.0393053 0.0393049 0.0393066 0.0393049 0.039306 0.0393048 0.0393064 0.0393055 0.0393059 0.0393062 0.0393061 0.0393074 0.0393069 0.0393063 0.0393061 0.0393067 0.0393061 0.039307 0.039307 0.0393079 0.0393011 0.0392992 0.0392986 0.039297 0.0392975 0.0392971 0.0392976 0.0392979 0.0392985 0.0392986 0.0392995 0.0392995 0.0392992 0.0393006 0.0393003 0.0393007 0.0393006 0.0393013 0.039301 0.0393017 0.0393019 0.0393023 0.039303 0.039303 0.039303 0.0393035 0.0393033 0.0393037 0.0393032 0.0393039 0.0393034 0.0393038 0.0393043 0.0393038 0.0393049 0.0393044 0.0393051 0.0393049 0.0393043 0.0393059 0.0393049 0.0393055 0.0393051 0.0393054 0.0393057 0.0393053 0.0393064 0.0393057 0.0393054 0.0393057 0.0393067 0.0393056 0.0393065 0.0393069 0.039306 0.0393072 0.0393069 0.0393065 0.0393064 0.0393068 0.0393069 0.0393064 0.0393066 0.0393067 0.03931 0.0393075 0.0393055 0.0393037 0.0393032 0.0393026 0.0393021 0.0393016 0.0393024 0.0393022 0.0393025 0.0393025 0.0393031 0.0393035 0.0393024 0.0393038 0.0393035 0.0393038 0.039304 0.0393041 0.0393042 0.0393036 0.0393043 0.0393046 0.0393052 0.039305 0.0393046 0.0393051 0.039305 0.0393047 0.0393051 0.0393054 0.0393057 0.0393055 0.0393057 0.0393059 0.0393059 0.0393055 0.039305 0.0393064 0.0393057 0.0393065 0.0393055 0.0393065 0.0393059 0.0393055 0.039307 0.0393068 0.0393054 0.0393066 0.0393065 0.0393065 0.0393059 0.0393067 0.0393061 0.0393073 0.0393063 0.0393067 0.0393066 0.0393068 0.0393067 0.0393064 0.0393061 0.0393065 0.0393185 0.0393147 0.0393119 0.0393099 0.0393087 0.039308 0.0393067 0.039306 0.0393059 0.0393061 0.0393061 0.0393058 0.0393069 0.0393061 0.039306 0.0393059 0.0393061 0.0393058 0.0393065 0.0393064 0.0393063 0.0393065 0.0393063 0.0393065 0.0393067 0.0393064 0.0393065 0.0393066 0.0393059 0.0393059 0.0393065 0.0393067 0.0393064 0.0393065 0.0393061 0.0393064 0.0393066 0.0393063 0.0393067 0.0393065 0.0393071 0.0393066 0.0393066 0.0393057 0.0393064 0.0393065 0.0393071 0.0393068 0.0393064 0.0393063 0.0393068 0.0393069 0.0393057 0.0393068 0.0393067 0.0393065 0.0393067 0.0393064 0.039306 0.0393067 0.0393069 0.039306 0.0393066 0.0393067 0.0393266 0.0393222 0.0393188 0.0393154 0.0393141 0.0393129 0.0393117 0.0393103 0.0393096 0.0393099 0.0393098 0.0393093 0.0393094 0.0393094 0.039309 0.0393086 0.0393086 0.0393083 0.0393087 0.0393086 0.0393087 0.0393087 0.0393079 0.0393084 0.0393079 0.0393077 0.0393085 0.0393084 0.0393075 0.0393084 0.0393087 0.0393077 0.0393076 0.0393078 0.0393074 0.0393075 0.0393079 0.039307 0.0393079 0.0393072 0.0393076 0.0393069 0.0393075 0.039307 0.0393076 0.0393068 0.0393067 0.039307 0.0393067 0.0393065 0.0393068 0.0393068 0.039307 0.0393067 0.0393063 0.0393061 0.0393067 0.0393067 0.0393068 0.0393067 0.0393073 0.0393059 0.0393066 0.0393057 0.039335 0.0393289 0.039325 0.0393218 0.0393188 0.0393172 0.0393155 0.0393148 0.0393139 0.0393138 0.0393135 0.0393126 0.039312 0.0393118 0.0393115 0.039311 0.0393115 0.0393111 0.0393111 0.0393104 0.0393104 0.0393106 0.0393096 0.0393106 0.03931 0.0393092 0.0393096 0.03931 0.0393092 0.039309 0.0393097 0.0393084 0.0393091 0.0393093 0.0393083 0.039309 0.0393081 0.0393081 0.0393083 0.0393078 0.0393085 0.0393076 0.0393076 0.0393075 0.0393081 0.0393076 0.0393075 0.0393074 0.0393076 0.0393072 0.0393064 0.0393074 0.0393071 0.0393066 0.0393072 0.0393071 0.0393068 0.0393071 0.0393074 0.0393066 0.0393075 0.0393063 0.0393063 0.0393055 0.0393427 0.0393357 0.0393302 0.0393265 0.0393234 0.0393212 0.0393199 0.0393189 0.0393172 0.0393174 0.0393164 0.0393162 0.0393154 0.0393148 0.039315 0.0393142 0.0393142 0.0393141 0.0393132 0.0393128 0.0393125 0.0393127 0.0393122 0.0393128 0.0393119 0.0393112 0.039311 0.0393117 0.0393112 0.0393106 0.0393107 0.0393101 0.0393094 0.0393105 0.0393087 0.03931 0.0393083 0.0393094 0.0393095 0.0393086 0.0393088 0.0393082 0.0393083 0.0393076 0.039308 0.0393081 0.0393083 0.0393077 0.0393081 0.039307 0.0393074 0.0393077 0.0393068 0.0393065 0.0393078 0.0393064 0.0393069 0.0393063 0.0393063 0.0393069 0.0393067 0.039307 0.0393059 0.0393066 0.0393511 0.0393405 0.0393354 0.0393308 0.0393281 0.0393251 0.0393242 0.0393232 0.039321 0.039321 0.03932 0.0393199 0.0393187 0.0393179 0.0393173 0.0393172 0.0393165 0.0393163 0.0393156 0.0393153 0.0393145 0.0393146 0.039314 0.0393145 0.0393135 0.0393129 0.0393126 0.0393126 0.0393126 0.0393118 0.0393121 0.0393116 0.0393105 0.0393111 0.03931 0.0393108 0.0393102 0.0393099 0.0393101 0.039309 0.0393094 0.0393089 0.0393091 0.0393084 0.0393086 0.0393079 0.0393081 0.0393082 0.0393071 0.0393072 0.0393081 0.0393077 0.0393077 0.0393063 0.0393069 0.0393062 0.039308 0.0393065 0.0393065 0.039307 0.0393061 0.0393072 0.0393061 0.0393058 0.039355 0.0393499 0.0393379 0.0393341 0.0393317 0.03933 0.0393279 0.0393268 0.0393252 0.0393238 0.0393231 0.0393226 0.0393215 0.0393204 0.0393205 0.0393197 0.0393188 0.0393183 0.0393183 0.0393178 0.0393173 0.039317 0.0393157 0.0393159 0.0393155 0.0393149 0.0393141 0.0393137 0.039314 0.0393121 0.0393132 0.039313 0.039312 0.0393113 0.0393114 0.0393105 0.0393107 0.0393109 0.039311 0.03931 0.0393093 0.0393097 0.0393092 0.0393085 0.0393098 0.0393082 0.0393083 0.039309 0.0393072 0.0393084 0.0393078 0.0393075 0.0393074 0.0393071 0.0393068 0.0393072 0.0393077 0.0393064 0.0393073 0.0393058 0.0393057 0.0393067 0.0393071 0.0393064 0.0393947 0.0393462 0.0393411 0.0393383 0.0393363 0.0393342 0.0393322 0.0393302 0.0393287 0.0393277 0.0393263 0.039326 0.0393248 0.0393238 0.0393229 0.039322 0.0393216 0.0393207 0.0393207 0.0393199 0.0393195 0.0393192 0.0393176 0.0393169 0.0393172 0.0393164 0.0393165 0.0393148 0.039316 0.0393145 0.039314 0.0393138 0.0393133 0.0393121 0.0393125 0.0393123 0.0393116 0.0393115 0.0393105 0.0393103 0.0393111 0.03931 0.0393099 0.0393094 0.03931 0.0393083 0.0393091 0.0393093 0.0393072 0.0393089 0.0393071 0.0393072 0.0393073 0.0393072 0.0393075 0.0393077 0.0393077 0.0393067 0.0393068 0.039307 0.0393067 0.0393066 0.0393068 0.0393071 0.0391746 0.0392347 0.0392518 0.039261 0.0392652 0.0392681 0.0392709 0.0392722 0.0392744 0.0392758 0.0392768 0.0392784 0.0392803 0.0392809 0.0392824 0.0392833 0.0392845 0.0392859 0.0392868 0.0392877 0.0392883 0.039289 0.0392901 0.0392903 0.0392925 0.0392925 0.0392927 0.0392943 0.0392942 0.0392963 0.0392958 0.0392968 0.0392973 0.0392987 0.0392984 0.0392989 0.0393003 0.0393003 0.0392998 0.039302 0.0393019 0.0393022 0.0393028 0.0393031 0.0393026 0.0393045 0.0393035 0.0393045 0.039305 0.0393048 0.0393052 0.0393062 0.0393057 0.039306 0.0393057 0.0393076 0.0393071 0.0393062 0.039306 0.0393075 0.0393065 0.0393061 0.0393064 0.039307 0.0392439 0.0392353 0.0392511 0.0392599 0.0392657 0.0392701 0.0392735 0.0392753 0.0392771 0.0392791 0.0392802 0.0392814 0.039283 0.0392833 0.0392852 0.0392859 0.0392867 0.0392879 0.0392882 0.0392897 0.03929 0.039291 0.0392919 0.0392924 0.0392934 0.0392937 0.0392943 0.0392956 0.0392961 0.0392965 0.0392972 0.039298 0.0392977 0.0392995 0.0392999 0.0392999 0.0392998 0.0393015 0.0393009 0.0393017 0.0393025 0.0393029 0.0393023 0.039303 0.0393042 0.0393038 0.0393045 0.0393043 0.0393051 0.0393054 0.0393054 0.0393056 0.0393056 0.0393061 0.0393057 0.039306 0.0393064 0.0393066 0.0393066 0.0393072 0.0393074 0.0393069 0.0393062 0.0393068 0.039252 0.0392549 0.0392575 0.0392643 0.0392693 0.0392729 0.0392759 0.0392779 0.03928 0.0392818 0.0392829 0.0392842 0.0392852 0.0392863 0.0392873 0.0392879 0.039289 0.0392896 0.0392905 0.0392918 0.039292 0.0392928 0.0392936 0.0392942 0.0392946 0.0392955 0.0392957 0.0392971 0.0392971 0.0392972 0.039298 0.039299 0.0392991 0.0392995 0.0393001 0.0393006 0.0393012 0.0393017 0.039302 0.0393026 0.0393024 0.0393032 0.0393033 0.0393034 0.0393043 0.0393038 0.0393052 0.039305 0.0393046 0.0393058 0.0393052 0.0393053 0.0393056 0.0393062 0.0393065 0.039307 0.0393068 0.0393064 0.0393076 0.0393063 0.039307 0.0393066 0.0393065 0.0393066 0.0392645 0.0392643 0.0392669 0.0392706 0.0392738 0.0392774 0.0392793 0.0392819 0.0392833 0.039285 0.0392857 0.0392872 0.0392874 0.039289 0.03929 0.0392902 0.0392912 0.0392916 0.0392929 0.0392934 0.0392935 0.0392943 0.0392955 0.0392961 0.0392961 0.0392964 0.0392973 0.039298 0.0392981 0.0392983 0.0392995 0.0392999 0.0393004 0.0393002 0.0393008 0.0393018 0.0393015 0.0393021 0.0393027 0.0393035 0.0393027 0.0393033 0.0393041 0.0393045 0.0393034 0.0393043 0.0393049 0.039305 0.039305 0.0393059 0.0393051 0.0393058 0.0393054 0.0393063 0.0393064 0.0393067 0.0393064 0.0393062 0.0393074 0.0393067 0.039307 0.0393064 0.0393071 0.0393072 0.0392742 0.0392739 0.0392752 0.0392774 0.0392793 0.0392815 0.0392836 0.0392856 0.0392865 0.039288 0.0392889 0.0392897 0.0392909 0.0392915 0.0392925 0.0392927 0.0392933 0.0392946 0.0392956 0.0392951 0.0392957 0.0392964 0.039297 0.0392979 0.0392976 0.0392981 0.0392991 0.0392987 0.0392997 0.0392999 0.0393005 0.0393006 0.0393011 0.0393011 0.039302 0.0393025 0.0393023 0.0393028 0.039302 0.0393045 0.0393039 0.0393037 0.0393045 0.0393049 0.039304 0.0393054 0.0393045 0.0393045 0.0393059 0.039306 0.0393054 0.039306 0.0393048 0.0393068 0.0393068 0.0393058 0.0393059 0.0393063 0.039307 0.0393062 0.0393071 0.0393065 0.0393066 0.0393069 0.0392835 0.0392831 0.0392834 0.0392841 0.0392856 0.0392862 0.0392886 0.0392898 0.0392904 0.0392915 0.0392926 0.0392926 0.0392938 0.039294 0.0392952 0.0392951 0.0392959 0.0392967 0.0392968 0.0392976 0.0392975 0.0392983 0.0392986 0.0392995 0.0392997 0.0392994 0.0393002 0.0393005 0.0393009 0.0393014 0.0393013 0.0393018 0.0393027 0.039302 0.0393029 0.0393029 0.0393028 0.0393038 0.0393032 0.0393051 0.0393047 0.0393043 0.0393044 0.0393041 0.0393052 0.0393054 0.0393049 0.0393049 0.039306 0.0393053 0.0393056 0.0393063 0.0393057 0.0393066 0.0393066 0.0393065 0.0393062 0.0393061 0.0393071 0.0393064 0.0393069 0.0393069 0.0393063 0.0393072 0.0392923 0.0392918 0.0392909 0.0392903 0.0392916 0.0392921 0.0392927 0.0392936 0.0392942 0.0392946 0.0392956 0.0392961 0.039297 0.0392968 0.039298 0.0392982 0.0392982 0.0392988 0.0392991 0.0393 0.0393 0.0393003 0.0393005 0.039301 0.0393007 0.039301 0.0393018 0.0393018 0.0393022 0.0393025 0.0393027 0.0393031 0.0393044 0.0393029 0.0393033 0.0393036 0.039304 0.0393044 0.0393037 0.0393049 0.0393046 0.0393049 0.0393055 0.0393047 0.0393055 0.0393052 0.0393056 0.0393056 0.0393067 0.0393057 0.0393062 0.0393058 0.0393059 0.039306 0.039306 0.039307 0.0393066 0.0393058 0.0393069 0.0393067 0.0393063 0.0393069 0.0393071 0.0393085 0.039301 0.0392999 0.0392985 0.0392967 0.0392975 0.0392975 0.0392975 0.0392979 0.0392983 0.0392985 0.0392992 0.0392992 0.0392996 0.0392999 0.0393006 0.0393008 0.0393005 0.0393013 0.0393013 0.0393018 0.0393017 0.0393018 0.0393025 0.039303 0.0393025 0.0393032 0.0393031 0.0393035 0.0393029 0.0393038 0.0393036 0.0393041 0.039305 0.039304 0.039304 0.0393042 0.0393051 0.039305 0.0393049 0.0393054 0.0393051 0.0393063 0.0393058 0.0393059 0.039305 0.039306 0.0393057 0.0393063 0.0393064 0.0393067 0.0393063 0.0393055 0.0393062 0.0393062 0.0393067 0.0393068 0.0393064 0.0393055 0.0393067 0.0393065 0.0393068 0.0393067 0.0393071 0.0393074 0.0393097 0.0393076 0.0393053 0.0393032 0.0393033 0.0393021 0.0393022 0.039302 0.0393023 0.0393021 0.0393022 0.0393024 0.0393031 0.0393032 0.0393028 0.0393037 0.0393036 0.0393037 0.039304 0.0393036 0.0393041 0.0393041 0.0393043 0.0393046 0.0393047 0.0393051 0.0393045 0.0393048 0.0393048 0.0393048 0.039305 0.0393057 0.0393056 0.0393055 0.0393054 0.0393051 0.0393064 0.0393055 0.0393065 0.0393053 0.0393059 0.0393072 0.0393052 0.0393068 0.0393057 0.0393065 0.0393058 0.0393073 0.0393059 0.0393069 0.039306 0.039307 0.0393058 0.0393064 0.0393067 0.0393062 0.0393062 0.0393065 0.039307 0.0393072 0.0393071 0.0393063 0.039306 0.0393064 0.0393181 0.0393147 0.0393122 0.0393098 0.0393085 0.0393072 0.0393068 0.0393063 0.039306 0.0393062 0.0393059 0.0393052 0.0393062 0.0393058 0.0393055 0.0393062 0.0393065 0.0393061 0.0393068 0.0393061 0.0393059 0.0393065 0.0393059 0.0393064 0.0393063 0.0393062 0.0393063 0.0393063 0.0393064 0.0393058 0.0393065 0.0393073 0.0393064 0.0393066 0.0393066 0.0393057 0.0393071 0.0393063 0.0393072 0.0393056 0.0393064 0.0393066 0.039306 0.0393065 0.0393068 0.0393066 0.0393058 0.0393075 0.0393063 0.0393067 0.0393066 0.0393076 0.0393063 0.0393064 0.0393069 0.0393063 0.0393065 0.0393061 0.0393065 0.0393068 0.0393068 0.0393062 0.0393061 0.0393064 0.0393265 0.0393222 0.039319 0.0393157 0.0393136 0.0393122 0.0393113 0.0393104 0.0393095 0.0393099 0.0393097 0.0393084 0.0393094 0.0393092 0.0393089 0.0393084 0.0393091 0.039309 0.039309 0.0393084 0.039308 0.0393089 0.0393079 0.039308 0.0393082 0.039308 0.0393083 0.0393083 0.0393079 0.0393077 0.0393077 0.0393078 0.0393075 0.039308 0.0393077 0.0393069 0.0393079 0.0393071 0.0393073 0.0393073 0.0393077 0.0393065 0.0393069 0.0393079 0.0393076 0.0393062 0.0393064 0.0393072 0.0393065 0.0393068 0.0393072 0.0393063 0.039307 0.0393063 0.0393066 0.039307 0.0393072 0.0393065 0.0393062 0.0393067 0.0393074 0.0393067 0.0393064 0.0393058 0.0393349 0.0393285 0.0393248 0.0393214 0.0393184 0.0393166 0.039315 0.0393144 0.039314 0.0393135 0.0393133 0.0393123 0.0393126 0.0393115 0.0393116 0.0393113 0.0393111 0.039311 0.0393114 0.0393105 0.0393104 0.039311 0.0393102 0.0393102 0.0393099 0.03931 0.0393093 0.0393093 0.039309 0.0393088 0.0393085 0.0393084 0.0393089 0.0393089 0.0393083 0.0393088 0.0393083 0.039308 0.0393083 0.039308 0.0393079 0.0393072 0.0393072 0.0393073 0.0393081 0.0393067 0.0393075 0.0393066 0.0393072 0.0393078 0.039307 0.0393074 0.0393069 0.039307 0.039307 0.0393075 0.0393061 0.0393066 0.0393066 0.0393065 0.0393068 0.0393061 0.0393064 0.0393059 0.0393425 0.0393354 0.0393299 0.0393262 0.0393238 0.0393214 0.0393196 0.0393186 0.0393176 0.0393171 0.0393166 0.0393154 0.0393156 0.0393152 0.0393146 0.0393148 0.0393141 0.0393137 0.0393137 0.0393128 0.0393124 0.0393128 0.0393127 0.0393121 0.039311 0.0393114 0.0393107 0.0393114 0.0393111 0.0393106 0.0393104 0.0393099 0.0393102 0.0393096 0.039309 0.0393098 0.0393085 0.0393089 0.0393096 0.0393082 0.0393082 0.0393084 0.0393076 0.0393075 0.0393077 0.0393072 0.0393078 0.0393074 0.0393078 0.0393076 0.0393071 0.0393075 0.0393066 0.039307 0.0393073 0.0393059 0.0393068 0.0393066 0.0393075 0.0393066 0.0393062 0.0393069 0.0393064 0.0393061 0.0393511 0.0393405 0.0393349 0.0393305 0.0393272 0.0393252 0.0393239 0.0393228 0.0393212 0.0393209 0.0393197 0.0393192 0.0393189 0.0393184 0.0393168 0.0393172 0.0393164 0.0393165 0.0393155 0.0393151 0.0393151 0.0393151 0.0393149 0.039314 0.039313 0.0393129 0.0393129 0.0393129 0.0393123 0.0393119 0.0393124 0.039311 0.0393108 0.0393107 0.0393104 0.0393104 0.0393104 0.0393098 0.0393102 0.0393091 0.0393092 0.0393088 0.0393091 0.0393089 0.0393087 0.0393079 0.039308 0.0393081 0.0393075 0.0393081 0.0393077 0.0393076 0.0393079 0.0393069 0.0393076 0.039306 0.0393073 0.0393069 0.0393067 0.0393073 0.0393071 0.0393073 0.0393064 0.0393063 0.0393547 0.0393494 0.0393376 0.0393337 0.0393309 0.0393298 0.0393276 0.0393261 0.0393254 0.0393244 0.0393229 0.0393223 0.0393214 0.0393207 0.0393204 0.03932 0.0393192 0.0393187 0.039318 0.0393172 0.0393171 0.0393166 0.0393162 0.0393152 0.039315 0.0393143 0.0393146 0.0393143 0.0393138 0.0393126 0.0393135 0.0393121 0.0393126 0.0393119 0.0393115 0.0393109 0.0393112 0.0393097 0.0393111 0.0393102 0.0393096 0.0393092 0.03931 0.039309 0.0393089 0.0393083 0.0393089 0.0393085 0.0393076 0.0393082 0.0393073 0.0393071 0.0393074 0.0393076 0.0393077 0.0393067 0.0393069 0.0393074 0.0393063 0.0393072 0.0393071 0.0393066 0.0393068 0.0393072 0.0393941 0.0393461 0.0393413 0.0393378 0.0393358 0.0393334 0.0393319 0.0393302 0.0393286 0.0393276 0.0393263 0.0393259 0.0393249 0.0393239 0.0393228 0.0393219 0.0393216 0.039321 0.0393207 0.0393198 0.0393193 0.0393186 0.0393179 0.0393174 0.0393168 0.0393168 0.0393166 0.0393154 0.0393161 0.0393143 0.0393149 0.0393133 0.0393134 0.0393129 0.0393123 0.0393121 0.0393119 0.0393111 0.0393116 0.0393113 0.0393102 0.0393106 0.0393099 0.0393101 0.0393094 0.0393087 0.0393095 0.0393086 0.0393078 0.0393084 0.0393082 0.0393076 0.0393076 0.0393074 0.0393072 0.0393067 0.0393076 0.0393071 0.039306 0.039307 0.0393066 0.0393066 0.0393071 0.0393074 0.0391769 0.039236 0.0392532 0.0392619 0.0392664 0.0392689 0.0392719 0.0392734 0.0392744 0.0392769 0.0392772 0.039279 0.039281 0.0392815 0.0392831 0.0392835 0.0392844 0.0392858 0.0392871 0.0392875 0.0392891 0.039289 0.0392907 0.0392904 0.0392918 0.0392921 0.0392933 0.0392946 0.0392944 0.0392963 0.0392953 0.039297 0.0392972 0.0392989 0.0392987 0.0392992 0.0393004 0.0392998 0.0393007 0.0393022 0.0393021 0.0393021 0.0393034 0.0393032 0.0393026 0.0393042 0.0393044 0.0393043 0.039305 0.0393048 0.0393057 0.0393062 0.0393052 0.0393065 0.0393068 0.039307 0.0393064 0.0393057 0.039306 0.0393064 0.0393072 0.0393065 0.0393065 0.0393063 0.0392446 0.0392366 0.0392523 0.0392606 0.0392671 0.039271 0.0392737 0.0392766 0.0392773 0.0392788 0.0392806 0.0392816 0.0392829 0.0392838 0.0392849 0.0392856 0.0392866 0.0392878 0.0392891 0.039289 0.0392898 0.0392916 0.0392918 0.0392925 0.0392934 0.0392942 0.0392941 0.0392951 0.0392958 0.0392965 0.0392972 0.0392978 0.0392978 0.0392991 0.0393 0.0392999 0.0393 0.0393012 0.0393012 0.0393023 0.0393024 0.0393028 0.039303 0.0393034 0.0393038 0.0393037 0.0393045 0.0393039 0.0393052 0.0393056 0.0393048 0.0393065 0.0393056 0.0393063 0.0393064 0.0393061 0.0393064 0.0393058 0.0393071 0.0393069 0.0393074 0.0393069 0.0393059 0.039306 0.0392522 0.0392552 0.0392585 0.039265 0.0392702 0.0392739 0.0392763 0.0392787 0.039281 0.0392813 0.039283 0.0392841 0.0392851 0.0392865 0.0392873 0.039288 0.0392889 0.0392895 0.039291 0.0392911 0.0392919 0.0392932 0.039293 0.039294 0.0392948 0.0392955 0.0392955 0.0392967 0.039297 0.039297 0.0392988 0.0392986 0.039299 0.0392988 0.0393006 0.0393002 0.0393009 0.0393015 0.0393019 0.0393023 0.0393024 0.0393025 0.0393028 0.0393037 0.0393042 0.0393039 0.0393048 0.0393042 0.0393052 0.0393054 0.0393056 0.0393058 0.0393059 0.0393058 0.0393061 0.0393064 0.0393067 0.0393053 0.0393072 0.0393065 0.039307 0.0393069 0.0393063 0.0393065 0.0392647 0.0392646 0.0392675 0.0392712 0.0392748 0.039278 0.0392799 0.0392821 0.0392842 0.0392846 0.0392862 0.039287 0.0392879 0.0392893 0.0392897 0.0392905 0.0392914 0.0392915 0.0392929 0.0392932 0.0392934 0.0392944 0.039295 0.0392954 0.0392965 0.039297 0.0392973 0.0392979 0.0392985 0.0392982 0.0392993 0.0392991 0.0393001 0.0393005 0.0393015 0.0393014 0.0393013 0.039302 0.0393025 0.0393025 0.039303 0.039303 0.0393029 0.0393043 0.0393039 0.0393043 0.0393049 0.0393047 0.0393051 0.0393052 0.0393062 0.0393057 0.0393059 0.0393061 0.0393059 0.0393066 0.0393064 0.0393061 0.0393065 0.0393065 0.0393066 0.0393069 0.0393071 0.0393067 0.0392742 0.0392747 0.0392757 0.0392782 0.0392803 0.0392826 0.039284 0.0392857 0.0392867 0.0392879 0.0392891 0.0392902 0.0392912 0.0392917 0.0392928 0.0392931 0.0392932 0.0392941 0.0392951 0.0392951 0.0392957 0.0392966 0.0392968 0.0392972 0.0392977 0.0392984 0.0392993 0.0392989 0.0392998 0.0392999 0.0393009 0.0393007 0.0393008 0.0393013 0.0393022 0.0393022 0.0393017 0.0393025 0.0393028 0.0393038 0.0393039 0.0393032 0.0393039 0.0393043 0.0393044 0.039305 0.0393048 0.039305 0.0393054 0.0393056 0.0393061 0.0393061 0.039306 0.0393058 0.0393069 0.0393058 0.0393067 0.0393061 0.0393063 0.039306 0.0393071 0.0393061 0.0393072 0.0393055 0.0392836 0.0392831 0.039284 0.0392846 0.0392863 0.0392874 0.0392884 0.0392897 0.0392909 0.0392915 0.0392927 0.0392935 0.0392946 0.0392943 0.0392947 0.0392955 0.0392961 0.0392969 0.0392971 0.0392967 0.0392974 0.0392982 0.0392987 0.0392994 0.0392993 0.0392996 0.039301 0.0393007 0.0393002 0.0393011 0.0393016 0.0393022 0.039302 0.0393024 0.0393029 0.0393032 0.0393029 0.039303 0.0393041 0.0393046 0.0393042 0.039304 0.0393048 0.039304 0.0393052 0.0393051 0.0393051 0.0393055 0.0393058 0.0393061 0.0393056 0.0393065 0.0393061 0.0393059 0.039307 0.0393059 0.0393064 0.0393058 0.0393068 0.0393061 0.0393071 0.0393066 0.0393069 0.0393056 0.039293 0.0392915 0.0392914 0.0392908 0.0392918 0.0392923 0.0392927 0.039294 0.0392948 0.0392947 0.0392959 0.0392962 0.039297 0.039297 0.0392975 0.0392987 0.0392983 0.0392993 0.0392993 0.0392995 0.0392996 0.0393003 0.0393003 0.0393009 0.0393008 0.0393017 0.0393017 0.0393024 0.0393018 0.0393023 0.0393022 0.039303 0.0393037 0.0393032 0.039303 0.0393043 0.039304 0.0393035 0.0393044 0.0393047 0.0393045 0.0393049 0.039306 0.0393048 0.0393055 0.0393056 0.0393053 0.0393052 0.0393058 0.0393064 0.0393053 0.0393063 0.0393064 0.0393061 0.0393064 0.0393062 0.0393068 0.0393062 0.0393068 0.0393066 0.0393063 0.0393067 0.0393063 0.039307 0.0393015 0.0392998 0.0392984 0.0392975 0.039297 0.0392973 0.0392975 0.0392983 0.0392982 0.0392988 0.0392993 0.0392993 0.0393003 0.0392997 0.0393008 0.0393015 0.0393008 0.0393017 0.0393015 0.039302 0.0393017 0.0393021 0.0393025 0.0393029 0.0393027 0.0393032 0.039303 0.0393037 0.0393033 0.0393034 0.0393037 0.039304 0.0393047 0.0393049 0.0393041 0.0393045 0.0393051 0.0393044 0.0393056 0.0393052 0.0393049 0.0393057 0.0393059 0.0393057 0.039305 0.0393067 0.0393059 0.0393056 0.039306 0.0393064 0.0393056 0.0393066 0.0393066 0.0393056 0.0393066 0.0393066 0.0393075 0.0393061 0.0393067 0.0393063 0.0393059 0.0393066 0.0393064 0.0393062 0.0393099 0.0393079 0.0393053 0.0393037 0.0393033 0.0393022 0.0393019 0.0393026 0.0393023 0.039302 0.0393027 0.0393024 0.0393035 0.0393026 0.0393027 0.0393044 0.0393038 0.039304 0.0393039 0.0393039 0.039304 0.0393042 0.0393042 0.0393046 0.0393044 0.0393051 0.039305 0.039304 0.0393051 0.0393042 0.0393049 0.0393049 0.0393048 0.0393057 0.0393061 0.0393054 0.0393059 0.0393054 0.0393066 0.0393057 0.0393062 0.0393066 0.0393054 0.0393063 0.0393054 0.0393065 0.0393057 0.0393064 0.039306 0.0393059 0.0393056 0.0393066 0.0393059 0.0393062 0.0393069 0.0393069 0.0393067 0.0393066 0.0393071 0.0393065 0.0393063 0.0393065 0.0393067 0.0393068 0.0393182 0.0393148 0.0393127 0.0393099 0.0393083 0.0393073 0.0393069 0.0393065 0.0393065 0.0393059 0.0393062 0.0393056 0.0393062 0.0393059 0.0393049 0.0393066 0.0393063 0.0393062 0.0393066 0.0393064 0.0393056 0.0393065 0.039306 0.0393065 0.0393064 0.0393065 0.0393066 0.0393053 0.0393069 0.0393058 0.0393065 0.0393067 0.0393062 0.0393068 0.039307 0.0393061 0.0393073 0.0393063 0.039307 0.0393058 0.0393069 0.0393067 0.0393059 0.0393069 0.0393071 0.0393061 0.0393059 0.0393075 0.0393072 0.0393063 0.0393063 0.0393071 0.0393065 0.0393063 0.0393073 0.0393067 0.0393067 0.0393069 0.0393067 0.0393057 0.0393066 0.0393065 0.0393067 0.0393072 0.0393264 0.0393216 0.0393182 0.0393154 0.0393132 0.0393123 0.0393113 0.0393105 0.0393098 0.0393098 0.0393098 0.0393091 0.0393097 0.0393094 0.0393089 0.0393091 0.0393087 0.0393089 0.0393089 0.0393083 0.0393084 0.0393088 0.0393078 0.0393082 0.0393079 0.0393079 0.0393085 0.039308 0.0393077 0.0393078 0.0393074 0.0393076 0.0393075 0.0393078 0.0393075 0.0393069 0.0393079 0.0393067 0.0393077 0.0393068 0.0393078 0.0393065 0.0393079 0.0393076 0.0393075 0.0393065 0.0393066 0.0393072 0.0393074 0.0393066 0.0393073 0.0393069 0.0393066 0.0393063 0.0393072 0.0393067 0.0393066 0.0393068 0.0393064 0.0393066 0.0393066 0.0393069 0.0393069 0.0393072 0.0393348 0.0393287 0.039324 0.0393211 0.0393182 0.0393164 0.0393152 0.0393149 0.0393137 0.0393135 0.0393133 0.0393125 0.0393125 0.039312 0.0393118 0.0393116 0.0393107 0.039311 0.0393115 0.0393104 0.039311 0.0393106 0.0393101 0.0393107 0.0393097 0.0393101 0.0393101 0.0393096 0.0393091 0.0393095 0.0393093 0.0393084 0.039309 0.0393086 0.0393085 0.0393083 0.0393088 0.0393079 0.0393086 0.0393075 0.0393084 0.0393067 0.0393083 0.0393071 0.0393075 0.0393071 0.0393075 0.0393065 0.0393074 0.0393077 0.0393075 0.039307 0.0393068 0.0393077 0.0393068 0.0393071 0.0393056 0.0393067 0.0393063 0.0393065 0.0393059 0.0393064 0.0393066 0.0393067 0.0393421 0.0393356 0.0393292 0.0393254 0.0393233 0.0393211 0.0393192 0.0393185 0.0393173 0.039317 0.0393171 0.0393155 0.0393158 0.039315 0.0393149 0.039315 0.039314 0.0393134 0.0393137 0.0393127 0.0393126 0.0393125 0.0393126 0.0393122 0.0393115 0.0393117 0.0393113 0.0393116 0.0393106 0.0393103 0.0393106 0.0393093 0.0393108 0.0393097 0.0393098 0.0393095 0.0393097 0.0393084 0.0393093 0.0393089 0.0393086 0.0393081 0.0393084 0.0393078 0.0393082 0.0393077 0.0393081 0.0393072 0.0393077 0.0393073 0.0393073 0.0393069 0.0393065 0.0393079 0.039307 0.0393066 0.0393064 0.0393065 0.0393073 0.0393063 0.0393065 0.0393065 0.0393066 0.0393068 0.0393508 0.0393407 0.0393349 0.0393296 0.0393268 0.0393251 0.0393234 0.0393222 0.0393211 0.0393203 0.0393195 0.0393188 0.0393185 0.0393179 0.0393175 0.0393172 0.0393168 0.039316 0.0393159 0.0393153 0.0393149 0.0393143 0.0393143 0.0393139 0.0393137 0.0393135 0.0393125 0.0393131 0.0393127 0.0393119 0.039312 0.0393113 0.0393114 0.0393112 0.0393102 0.0393108 0.0393105 0.0393092 0.0393099 0.0393093 0.039309 0.0393091 0.0393092 0.0393085 0.0393087 0.0393081 0.0393084 0.0393073 0.0393079 0.0393083 0.0393077 0.0393081 0.0393071 0.0393076 0.0393071 0.0393069 0.0393067 0.0393067 0.0393069 0.0393068 0.039307 0.039306 0.0393064 0.0393076 0.0393542 0.0393492 0.0393379 0.039333 0.0393307 0.0393292 0.0393274 0.0393266 0.0393249 0.0393245 0.0393227 0.0393225 0.0393214 0.0393209 0.0393205 0.0393198 0.0393194 0.0393187 0.0393185 0.0393169 0.0393169 0.0393163 0.0393162 0.0393159 0.0393151 0.0393148 0.0393141 0.039314 0.0393137 0.0393135 0.0393129 0.0393123 0.0393122 0.039312 0.0393112 0.0393116 0.0393103 0.0393101 0.0393099 0.0393098 0.0393103 0.0393095 0.0393102 0.0393084 0.0393077 0.0393088 0.0393087 0.0393086 0.0393082 0.0393079 0.0393075 0.0393078 0.0393074 0.0393073 0.0393082 0.0393066 0.0393064 0.0393071 0.0393065 0.0393074 0.0393075 0.0393063 0.0393058 0.0393073 0.0393932 0.0393464 0.0393409 0.0393372 0.0393352 0.0393334 0.0393315 0.0393298 0.0393284 0.0393279 0.0393265 0.0393255 0.0393244 0.0393237 0.0393234 0.0393223 0.039322 0.0393209 0.0393206 0.0393196 0.0393193 0.0393189 0.039318 0.0393182 0.039317 0.039317 0.0393159 0.0393155 0.0393155 0.0393143 0.0393146 0.0393143 0.0393139 0.0393127 0.0393129 0.0393125 0.0393121 0.0393109 0.0393113 0.0393112 0.0393099 0.0393105 0.0393096 0.0393095 0.0393088 0.0393089 0.0393088 0.0393082 0.0393081 0.0393085 0.0393083 0.0393089 0.0393071 0.0393075 0.0393081 0.039306 0.0393078 0.039307 0.0393064 0.0393082 0.0393071 0.0393056 0.0393062 0.0393087 0.0391808 0.0392383 0.0392551 0.0392638 0.0392679 0.0392705 0.0392732 0.0392746 0.0392755 0.0392771 0.0392784 0.0392795 0.0392815 0.0392809 0.0392837 0.0392837 0.0392842 0.0392865 0.0392869 0.0392878 0.0392893 0.0392893 0.0392907 0.039291 0.0392918 0.039293 0.0392935 0.0392945 0.039295 0.0392957 0.0392959 0.0392977 0.0392978 0.0392979 0.0392979 0.0392998 0.0393002 0.0392998 0.0393011 0.0393014 0.0393012 0.0393024 0.039303 0.0393033 0.0393033 0.0393039 0.0393046 0.039304 0.0393053 0.0393051 0.0393054 0.0393067 0.0393059 0.0393057 0.0393066 0.0393062 0.0393067 0.039306 0.0393064 0.0393062 0.0393071 0.0393073 0.039307 0.0393073 0.0392459 0.0392387 0.0392536 0.0392625 0.0392684 0.0392722 0.0392746 0.0392766 0.0392779 0.0392797 0.0392807 0.0392822 0.0392826 0.0392839 0.0392852 0.039286 0.0392869 0.0392883 0.0392889 0.0392894 0.0392901 0.0392916 0.0392919 0.0392924 0.0392936 0.0392947 0.039294 0.0392947 0.0392963 0.0392961 0.0392972 0.0392978 0.0392987 0.0392982 0.0393 0.0392999 0.0393004 0.0393005 0.0393014 0.0393016 0.0393022 0.0393024 0.0393029 0.0393032 0.0393034 0.0393043 0.0393047 0.0393046 0.0393051 0.0393056 0.0393053 0.0393063 0.0393052 0.0393058 0.0393074 0.0393058 0.0393066 0.0393061 0.0393067 0.0393069 0.0393069 0.0393064 0.0393065 0.0393066 0.0392533 0.0392568 0.0392598 0.0392665 0.0392708 0.0392747 0.0392775 0.0392793 0.039281 0.0392822 0.0392829 0.0392846 0.0392855 0.0392865 0.0392879 0.0392883 0.0392891 0.0392897 0.0392908 0.0392913 0.0392918 0.0392935 0.0392931 0.0392937 0.0392948 0.0392955 0.0392954 0.0392964 0.0392973 0.0392979 0.0392984 0.0392986 0.0392995 0.0392985 0.039301 0.0393002 0.039301 0.0393012 0.0393022 0.0393021 0.0393029 0.0393027 0.0393034 0.0393039 0.0393031 0.0393049 0.0393049 0.0393046 0.0393052 0.0393052 0.0393062 0.0393053 0.039306 0.0393057 0.0393066 0.039306 0.0393064 0.0393057 0.0393065 0.0393069 0.0393066 0.0393064 0.0393068 0.0393069 0.0392651 0.0392659 0.0392682 0.0392718 0.0392758 0.0392786 0.0392809 0.0392823 0.0392839 0.0392853 0.0392865 0.039287 0.0392883 0.0392895 0.0392902 0.0392902 0.0392914 0.0392921 0.0392927 0.0392933 0.0392936 0.0392949 0.0392947 0.0392958 0.0392964 0.0392971 0.0392969 0.0392981 0.0392985 0.0392981 0.0392993 0.0392998 0.0392999 0.0393001 0.0393016 0.0393008 0.039302 0.0393024 0.0393025 0.0393029 0.0393031 0.0393037 0.0393037 0.0393047 0.0393037 0.0393049 0.0393046 0.0393043 0.0393052 0.0393057 0.0393065 0.0393053 0.0393064 0.0393063 0.0393058 0.039306 0.0393066 0.0393064 0.0393059 0.0393072 0.0393064 0.0393072 0.039307 0.0393071 0.0392745 0.0392755 0.0392761 0.0392784 0.0392806 0.0392825 0.0392846 0.0392863 0.0392871 0.0392885 0.0392893 0.0392903 0.0392908 0.039292 0.0392925 0.0392932 0.0392933 0.0392945 0.0392947 0.0392949 0.0392955 0.0392969 0.0392971 0.0392973 0.0392979 0.039298 0.0392983 0.0392991 0.0392995 0.0392992 0.039301 0.0393007 0.0393005 0.0393008 0.0393023 0.039302 0.0393022 0.039303 0.0393033 0.0393033 0.0393037 0.0393038 0.0393039 0.0393047 0.0393048 0.0393052 0.039305 0.0393051 0.0393051 0.0393061 0.0393056 0.0393062 0.0393063 0.0393055 0.0393066 0.0393056 0.0393073 0.0393065 0.0393063 0.0393072 0.0393068 0.0393066 0.0393071 0.0393065 0.039284 0.0392834 0.0392841 0.039285 0.0392859 0.0392875 0.0392888 0.0392901 0.0392906 0.0392918 0.0392924 0.0392934 0.0392936 0.0392942 0.0392947 0.0392956 0.0392957 0.0392965 0.0392973 0.0392971 0.0392975 0.0392981 0.039299 0.039299 0.0392999 0.0392992 0.0393 0.0393005 0.0393004 0.039301 0.0393015 0.0393023 0.0393019 0.0393019 0.0393031 0.0393037 0.0393036 0.0393035 0.0393038 0.0393039 0.0393043 0.039304 0.0393042 0.0393045 0.0393056 0.0393052 0.0393054 0.039306 0.039305 0.039306 0.0393051 0.0393062 0.039306 0.0393056 0.0393072 0.0393056 0.0393068 0.0393058 0.0393064 0.0393066 0.0393067 0.0393067 0.0393067 0.0393062 0.0392928 0.0392913 0.0392916 0.0392914 0.039292 0.0392927 0.0392938 0.0392938 0.0392941 0.0392951 0.0392962 0.039296 0.0392969 0.0392972 0.0392977 0.0392984 0.0392979 0.039299 0.0392994 0.0392995 0.0392997 0.0393004 0.0393006 0.0393008 0.0393014 0.0393014 0.0393013 0.0393023 0.0393023 0.0393022 0.0393022 0.0393037 0.0393028 0.0393034 0.0393036 0.039304 0.0393043 0.0393037 0.0393042 0.039305 0.0393046 0.0393051 0.0393049 0.0393055 0.0393056 0.0393057 0.0393052 0.0393064 0.039305 0.0393059 0.0393052 0.0393061 0.0393062 0.0393061 0.0393069 0.0393055 0.0393068 0.0393065 0.039307 0.0393067 0.0393065 0.039307 0.0393067 0.0393071 0.0393014 0.0392995 0.0392986 0.039298 0.0392981 0.0392974 0.0392978 0.0392977 0.0392985 0.0392991 0.0392993 0.0392994 0.0393003 0.0393002 0.0393007 0.0393011 0.0393007 0.0393014 0.0393013 0.0393019 0.0393015 0.0393021 0.0393028 0.0393027 0.0393031 0.0393026 0.039303 0.0393037 0.0393037 0.0393033 0.0393047 0.0393043 0.0393041 0.0393048 0.0393043 0.0393048 0.0393054 0.0393043 0.0393051 0.0393058 0.0393048 0.0393054 0.0393054 0.0393067 0.039305 0.0393062 0.0393056 0.0393063 0.0393061 0.0393068 0.0393059 0.0393063 0.0393065 0.0393061 0.039306 0.0393057 0.0393065 0.0393065 0.0393064 0.039306 0.0393067 0.0393067 0.0393064 0.039306 0.0393099 0.0393075 0.0393052 0.039304 0.0393036 0.0393028 0.039302 0.0393024 0.0393023 0.0393023 0.0393027 0.0393026 0.0393035 0.0393031 0.0393034 0.0393039 0.0393033 0.0393038 0.039304 0.0393042 0.0393038 0.0393043 0.0393041 0.0393045 0.0393045 0.0393043 0.0393051 0.0393046 0.0393052 0.0393046 0.0393058 0.0393045 0.0393051 0.0393059 0.0393059 0.0393057 0.039306 0.0393056 0.039306 0.0393062 0.0393057 0.0393058 0.0393056 0.0393064 0.0393059 0.0393065 0.0393058 0.0393064 0.0393066 0.0393066 0.039306 0.039306 0.0393066 0.0393059 0.0393057 0.0393065 0.039306 0.0393063 0.0393069 0.0393059 0.039307 0.0393069 0.0393066 0.0393068 0.0393182 0.0393146 0.0393121 0.03931 0.0393082 0.039307 0.0393065 0.0393065 0.0393059 0.0393059 0.0393065 0.0393055 0.0393064 0.0393062 0.0393059 0.0393065 0.0393058 0.0393066 0.0393065 0.039306 0.0393061 0.0393067 0.0393065 0.0393068 0.0393061 0.0393069 0.0393071 0.0393061 0.039307 0.0393059 0.0393067 0.0393063 0.0393064 0.0393073 0.0393071 0.0393061 0.039307 0.0393069 0.0393067 0.0393062 0.0393069 0.0393062 0.0393064 0.0393061 0.0393066 0.0393064 0.0393065 0.0393072 0.0393065 0.0393065 0.0393062 0.0393069 0.0393071 0.0393063 0.0393068 0.0393066 0.0393063 0.0393063 0.0393069 0.0393062 0.0393068 0.0393061 0.0393066 0.0393067 0.0393261 0.0393218 0.0393176 0.0393148 0.0393134 0.0393121 0.039311 0.0393103 0.0393097 0.0393098 0.0393101 0.0393094 0.0393094 0.0393089 0.0393092 0.0393093 0.0393087 0.0393087 0.0393088 0.0393083 0.0393086 0.0393085 0.039308 0.0393085 0.0393077 0.0393082 0.0393084 0.0393081 0.0393081 0.0393077 0.0393082 0.0393083 0.0393077 0.0393077 0.0393076 0.0393068 0.0393077 0.0393074 0.0393072 0.0393075 0.0393077 0.0393064 0.0393082 0.0393066 0.0393074 0.039307 0.0393069 0.0393069 0.0393076 0.0393066 0.0393067 0.0393072 0.0393068 0.0393063 0.0393068 0.0393064 0.0393063 0.039307 0.0393066 0.0393071 0.0393069 0.0393063 0.0393065 0.0393068 0.0393339 0.0393289 0.0393236 0.0393202 0.0393179 0.0393163 0.0393151 0.0393146 0.0393132 0.0393134 0.0393137 0.0393119 0.0393119 0.039312 0.039312 0.0393117 0.0393111 0.0393109 0.0393114 0.0393106 0.0393109 0.0393109 0.0393104 0.0393104 0.0393101 0.0393102 0.0393099 0.0393091 0.0393094 0.0393093 0.0393097 0.0393088 0.0393087 0.0393087 0.0393082 0.0393084 0.0393087 0.039308 0.039308 0.0393082 0.039308 0.0393069 0.0393088 0.0393077 0.039307 0.0393071 0.0393076 0.0393066 0.0393077 0.0393071 0.0393072 0.0393076 0.0393073 0.0393075 0.0393065 0.039307 0.0393063 0.0393071 0.0393067 0.0393068 0.0393059 0.0393061 0.0393067 0.0393065 0.0393415 0.0393355 0.0393285 0.0393245 0.0393227 0.0393201 0.0393187 0.0393186 0.0393167 0.0393173 0.0393167 0.0393153 0.0393155 0.0393152 0.039315 0.0393145 0.0393141 0.0393133 0.039314 0.0393125 0.0393128 0.0393128 0.0393127 0.0393118 0.0393116 0.0393118 0.039312 0.0393109 0.0393106 0.0393104 0.039311 0.0393098 0.0393098 0.0393104 0.0393095 0.0393096 0.0393094 0.0393087 0.0393088 0.0393086 0.0393084 0.0393083 0.0393078 0.039308 0.0393084 0.0393076 0.0393085 0.0393071 0.0393069 0.0393071 0.0393071 0.0393075 0.0393065 0.0393076 0.0393063 0.0393072 0.0393066 0.0393068 0.0393071 0.0393067 0.0393071 0.0393062 0.039306 0.0393061 0.0393503 0.0393404 0.0393338 0.0393295 0.0393267 0.039324 0.0393231 0.0393219 0.0393202 0.0393204 0.0393196 0.0393189 0.0393186 0.0393182 0.0393176 0.0393171 0.0393168 0.039316 0.0393161 0.039315 0.039315 0.0393142 0.0393144 0.0393138 0.0393132 0.0393133 0.0393129 0.0393123 0.0393126 0.0393117 0.0393113 0.0393117 0.0393113 0.0393123 0.0393101 0.0393112 0.0393105 0.0393097 0.0393104 0.0393093 0.0393088 0.0393094 0.0393083 0.0393083 0.0393086 0.0393081 0.0393085 0.0393075 0.0393074 0.0393073 0.039307 0.039308 0.0393065 0.0393072 0.0393067 0.0393075 0.0393076 0.0393068 0.0393069 0.0393066 0.0393072 0.039306 0.0393061 0.0393075 0.0393537 0.0393486 0.0393369 0.0393324 0.0393301 0.0393283 0.0393268 0.0393256 0.0393243 0.0393243 0.0393226 0.039322 0.0393215 0.0393211 0.0393203 0.0393194 0.0393191 0.0393182 0.0393188 0.0393173 0.0393175 0.0393168 0.0393163 0.0393161 0.0393155 0.0393155 0.0393151 0.0393132 0.0393136 0.0393132 0.0393126 0.0393126 0.0393121 0.0393126 0.0393113 0.0393115 0.0393101 0.0393115 0.0393105 0.0393102 0.0393105 0.0393096 0.0393096 0.039309 0.0393077 0.0393091 0.0393082 0.0393085 0.0393083 0.0393073 0.0393067 0.0393082 0.0393064 0.0393069 0.0393079 0.0393069 0.0393073 0.0393073 0.0393068 0.0393064 0.0393074 0.0393063 0.0393061 0.0393071 0.0393907 0.0393461 0.0393401 0.0393368 0.0393345 0.0393323 0.0393304 0.0393292 0.0393281 0.0393274 0.039326 0.0393252 0.0393244 0.0393241 0.0393231 0.0393221 0.0393216 0.0393209 0.0393205 0.0393203 0.0393199 0.0393189 0.0393177 0.039318 0.0393177 0.0393169 0.0393165 0.0393152 0.0393151 0.0393147 0.0393144 0.0393144 0.0393139 0.0393129 0.0393129 0.0393124 0.0393117 0.0393121 0.0393109 0.0393111 0.0393104 0.0393092 0.0393103 0.0393098 0.0393102 0.0393091 0.0393094 0.0393089 0.0393088 0.0393085 0.0393078 0.0393085 0.0393058 0.0393068 0.0393086 0.0393066 0.039308 0.0393063 0.0393065 0.0393075 0.0393079 0.0393056 0.0393067 0.0393084 0.0391867 0.0392403 0.039257 0.0392652 0.0392693 0.0392726 0.0392742 0.0392759 0.0392771 0.0392774 0.0392788 0.03928 0.0392821 0.039282 0.0392838 0.0392842 0.0392854 0.0392861 0.0392868 0.0392881 0.0392889 0.0392894 0.039291 0.0392914 0.039292 0.0392926 0.0392934 0.0392939 0.0392948 0.0392953 0.039296 0.0392973 0.0392976 0.0392988 0.0392983 0.0393001 0.0392992 0.0393003 0.0393006 0.0393011 0.0393018 0.039303 0.0393023 0.0393039 0.039303 0.0393044 0.0393041 0.0393036 0.039305 0.039305 0.0393046 0.0393059 0.0393061 0.039306 0.0393058 0.039306 0.0393066 0.0393065 0.0393071 0.0393069 0.0393069 0.0393075 0.0393066 0.0393074 0.0392469 0.0392405 0.0392554 0.0392646 0.0392698 0.0392731 0.0392759 0.039277 0.0392791 0.0392809 0.0392813 0.0392824 0.0392825 0.0392846 0.0392851 0.0392863 0.039287 0.0392877 0.0392886 0.0392891 0.0392903 0.039291 0.0392921 0.0392925 0.0392931 0.0392934 0.0392947 0.0392956 0.0392964 0.0392961 0.0392969 0.0392978 0.0392988 0.0392983 0.0392997 0.0393006 0.0393001 0.0393005 0.0393017 0.0393017 0.0393019 0.0393029 0.0393029 0.039303 0.0393034 0.0393044 0.0393038 0.0393043 0.0393052 0.0393051 0.0393049 0.0393056 0.0393049 0.0393056 0.0393066 0.039306 0.0393067 0.039307 0.039307 0.0393065 0.0393067 0.0393066 0.0393065 0.0393073 0.0392542 0.0392574 0.0392611 0.039268 0.039272 0.0392754 0.0392786 0.0392803 0.0392811 0.0392832 0.0392835 0.0392845 0.0392858 0.0392865 0.0392874 0.039288 0.0392886 0.0392896 0.0392905 0.0392915 0.0392919 0.039293 0.0392936 0.0392941 0.0392942 0.0392952 0.0392959 0.0392964 0.0392975 0.039298 0.0392976 0.0392987 0.0392998 0.0392992 0.0393002 0.0393009 0.0393015 0.0393007 0.0393022 0.0393021 0.0393024 0.0393034 0.039303 0.0393037 0.0393032 0.0393047 0.0393042 0.0393048 0.0393054 0.039305 0.0393058 0.0393058 0.0393056 0.0393063 0.0393066 0.0393067 0.0393066 0.0393066 0.0393067 0.0393067 0.0393067 0.0393067 0.0393067 0.0393065 0.0392658 0.0392666 0.0392695 0.0392733 0.0392765 0.0392797 0.0392816 0.0392834 0.0392839 0.0392851 0.0392865 0.0392873 0.0392883 0.0392888 0.0392901 0.0392902 0.0392908 0.0392916 0.0392924 0.0392936 0.0392938 0.0392949 0.0392944 0.0392959 0.0392957 0.0392972 0.039297 0.0392979 0.0392984 0.0392983 0.0392991 0.0392993 0.0393001 0.0393002 0.0393014 0.0393007 0.0393022 0.0393014 0.0393022 0.0393026 0.0393029 0.0393037 0.0393036 0.0393047 0.0393036 0.0393044 0.0393043 0.0393049 0.0393048 0.0393049 0.039306 0.0393058 0.0393059 0.0393067 0.0393061 0.0393066 0.0393071 0.0393063 0.0393067 0.0393073 0.0393062 0.0393069 0.0393068 0.0393064 0.0392751 0.039276 0.0392771 0.0392794 0.0392818 0.0392839 0.0392854 0.0392868 0.0392876 0.0392884 0.0392896 0.0392905 0.0392906 0.0392916 0.0392926 0.0392929 0.0392933 0.0392939 0.0392945 0.0392947 0.0392955 0.0392964 0.0392963 0.0392971 0.0392975 0.0392985 0.0392981 0.0392992 0.0392993 0.0392995 0.0393006 0.0393006 0.0393007 0.0393008 0.0393023 0.0393017 0.0393026 0.0393024 0.0393026 0.039303 0.0393034 0.039304 0.0393043 0.0393047 0.0393043 0.0393048 0.0393043 0.0393056 0.039305 0.0393057 0.0393058 0.0393062 0.0393055 0.0393064 0.0393055 0.0393058 0.0393066 0.0393066 0.0393067 0.0393068 0.0393068 0.0393068 0.0393073 0.0393075 0.0392843 0.0392842 0.0392847 0.0392858 0.0392871 0.0392886 0.0392894 0.03929 0.0392911 0.0392923 0.0392929 0.0392934 0.0392938 0.039294 0.0392953 0.0392955 0.0392965 0.0392965 0.0392969 0.0392971 0.0392975 0.0392979 0.0392983 0.0392986 0.0392999 0.0392997 0.0392997 0.0393009 0.0393006 0.0393011 0.0393011 0.0393021 0.0393021 0.0393014 0.0393034 0.0393031 0.0393027 0.0393035 0.0393038 0.0393029 0.0393044 0.0393043 0.0393043 0.0393049 0.039305 0.0393046 0.0393045 0.0393064 0.0393052 0.0393058 0.0393062 0.0393062 0.0393055 0.0393062 0.0393069 0.0393061 0.0393065 0.039306 0.0393069 0.0393056 0.0393069 0.0393065 0.039307 0.039307 0.0392932 0.0392924 0.0392916 0.039292 0.0392926 0.039293 0.0392945 0.0392937 0.0392946 0.039296 0.0392968 0.0392964 0.0392972 0.0392973 0.0392979 0.0392981 0.0392989 0.0392988 0.0392988 0.0392995 0.0392999 0.0392999 0.0393004 0.0393006 0.0393013 0.0393012 0.0393015 0.039302 0.0393019 0.0393021 0.0393027 0.0393035 0.0393027 0.0393033 0.0393038 0.0393039 0.0393036 0.0393039 0.0393046 0.0393044 0.0393049 0.0393051 0.0393042 0.0393053 0.0393053 0.0393049 0.0393046 0.0393071 0.0393054 0.0393055 0.0393066 0.039306 0.0393061 0.0393058 0.0393071 0.0393055 0.0393067 0.0393066 0.0393074 0.0393063 0.0393067 0.0393066 0.0393071 0.0393066 0.0393019 0.0393 0.0392987 0.0392981 0.0392983 0.0392972 0.0392983 0.0392982 0.0392986 0.0392994 0.0392999 0.0392997 0.0392998 0.0393005 0.0393008 0.0393005 0.0393014 0.0393013 0.0393016 0.0393016 0.0393019 0.039302 0.0393021 0.0393027 0.0393032 0.0393028 0.0393026 0.0393036 0.0393036 0.0393033 0.0393047 0.0393039 0.039304 0.0393047 0.0393041 0.0393044 0.0393054 0.0393047 0.0393045 0.0393057 0.039305 0.0393057 0.039305 0.039306 0.0393056 0.0393055 0.039305 0.0393062 0.0393065 0.0393064 0.0393066 0.0393066 0.0393066 0.039306 0.0393066 0.0393059 0.0393057 0.0393072 0.0393064 0.0393064 0.0393068 0.039306 0.0393064 0.039306 0.0393098 0.0393072 0.0393054 0.0393037 0.0393033 0.0393023 0.0393024 0.0393027 0.0393022 0.0393025 0.0393029 0.0393029 0.039303 0.039303 0.0393037 0.0393037 0.0393033 0.0393037 0.039304 0.0393041 0.039304 0.0393046 0.0393036 0.0393044 0.0393047 0.0393051 0.0393046 0.0393055 0.0393051 0.039305 0.0393063 0.0393047 0.0393052 0.0393054 0.0393058 0.0393052 0.0393059 0.0393055 0.039305 0.0393063 0.0393052 0.039306 0.039306 0.0393063 0.0393063 0.0393064 0.0393055 0.0393062 0.0393068 0.0393063 0.0393063 0.0393068 0.0393066 0.0393061 0.0393066 0.0393067 0.0393057 0.0393074 0.039307 0.0393054 0.039307 0.039307 0.0393059 0.0393059 0.0393181 0.0393145 0.0393117 0.0393094 0.0393088 0.0393071 0.0393066 0.0393066 0.0393054 0.0393063 0.0393069 0.0393058 0.0393058 0.0393058 0.0393066 0.0393068 0.0393058 0.0393065 0.0393058 0.0393062 0.0393062 0.0393067 0.0393059 0.0393064 0.0393054 0.039307 0.0393061 0.0393068 0.0393064 0.0393061 0.0393065 0.0393057 0.039307 0.0393066 0.0393067 0.0393061 0.0393067 0.0393064 0.0393059 0.0393066 0.0393068 0.0393064 0.0393069 0.0393067 0.0393065 0.0393065 0.0393064 0.0393074 0.0393061 0.0393063 0.039307 0.0393067 0.0393067 0.0393069 0.0393066 0.0393066 0.0393069 0.0393074 0.0393068 0.039306 0.0393065 0.0393065 0.0393062 0.0393063 0.0393261 0.0393218 0.0393171 0.0393147 0.0393136 0.0393115 0.0393107 0.0393108 0.0393091 0.0393096 0.0393103 0.0393092 0.0393091 0.039309 0.039309 0.0393091 0.0393088 0.0393089 0.0393084 0.0393086 0.0393082 0.0393085 0.0393082 0.0393081 0.0393076 0.0393088 0.0393077 0.0393082 0.0393079 0.0393081 0.0393077 0.0393075 0.0393073 0.0393075 0.0393072 0.0393069 0.0393075 0.0393078 0.0393069 0.0393073 0.0393078 0.0393072 0.0393078 0.0393066 0.0393068 0.0393072 0.0393069 0.0393064 0.0393077 0.039307 0.0393072 0.0393061 0.0393068 0.0393067 0.0393067 0.0393068 0.039307 0.0393073 0.0393067 0.039307 0.0393067 0.0393063 0.0393063 0.0393064 0.0393334 0.0393282 0.0393236 0.0393199 0.0393178 0.039316 0.0393146 0.0393148 0.0393132 0.0393128 0.0393135 0.0393123 0.0393127 0.039312 0.0393123 0.039312 0.0393114 0.0393112 0.0393114 0.039311 0.0393104 0.0393106 0.0393105 0.0393099 0.03931 0.0393103 0.0393095 0.0393089 0.039309 0.0393094 0.0393089 0.0393087 0.0393077 0.0393085 0.0393086 0.0393086 0.039309 0.0393079 0.0393078 0.0393078 0.0393078 0.0393081 0.0393078 0.0393078 0.039307 0.0393072 0.0393072 0.0393069 0.039308 0.0393072 0.0393073 0.0393069 0.0393075 0.0393068 0.039307 0.0393071 0.0393066 0.0393065 0.0393068 0.0393071 0.0393064 0.0393065 0.0393062 0.0393067 0.0393413 0.0393344 0.0393281 0.0393238 0.039322 0.0393199 0.0393184 0.0393185 0.0393168 0.0393168 0.039316 0.0393153 0.0393156 0.0393154 0.0393149 0.0393148 0.0393141 0.0393136 0.0393143 0.0393129 0.0393126 0.0393124 0.0393127 0.0393118 0.0393116 0.0393118 0.0393118 0.039311 0.0393105 0.0393107 0.0393106 0.0393104 0.0393096 0.03931 0.0393093 0.0393093 0.0393092 0.0393083 0.0393095 0.0393085 0.0393082 0.0393089 0.0393077 0.0393085 0.0393081 0.0393074 0.0393081 0.0393081 0.0393076 0.0393077 0.0393073 0.0393076 0.0393073 0.0393068 0.039307 0.0393068 0.0393072 0.0393066 0.0393067 0.0393069 0.0393072 0.0393064 0.0393063 0.0393067 0.0393496 0.0393394 0.039333 0.0393284 0.0393259 0.0393237 0.0393227 0.0393224 0.0393205 0.0393204 0.0393198 0.0393187 0.0393184 0.0393185 0.0393173 0.039317 0.0393161 0.0393158 0.0393162 0.0393154 0.039315 0.0393143 0.0393152 0.0393138 0.0393132 0.0393133 0.0393131 0.039312 0.0393126 0.039312 0.0393119 0.0393118 0.0393113 0.0393111 0.0393099 0.0393101 0.0393106 0.0393092 0.0393106 0.0393088 0.039309 0.039309 0.0393087 0.0393086 0.0393086 0.0393085 0.0393086 0.0393083 0.0393083 0.0393071 0.0393078 0.0393079 0.0393074 0.0393073 0.0393075 0.0393069 0.0393074 0.0393068 0.0393065 0.0393063 0.0393073 0.0393061 0.0393066 0.0393068 0.0393533 0.0393475 0.0393356 0.0393312 0.0393293 0.0393276 0.0393259 0.0393256 0.0393244 0.0393235 0.0393232 0.0393218 0.0393213 0.0393209 0.0393204 0.0393195 0.0393191 0.0393185 0.0393185 0.0393174 0.0393173 0.039317 0.0393171 0.0393156 0.0393156 0.0393152 0.0393155 0.0393134 0.039314 0.0393132 0.0393135 0.0393126 0.039312 0.0393129 0.0393111 0.0393114 0.0393108 0.0393107 0.0393108 0.0393103 0.0393105 0.0393097 0.0393093 0.0393091 0.0393085 0.0393091 0.0393084 0.0393087 0.0393085 0.039307 0.0393078 0.0393083 0.0393072 0.0393071 0.0393079 0.0393069 0.0393075 0.0393074 0.0393063 0.0393064 0.039307 0.039306 0.0393064 0.0393069 0.0393884 0.0393457 0.039339 0.0393357 0.0393337 0.0393317 0.0393297 0.0393292 0.0393279 0.039327 0.0393263 0.0393254 0.0393249 0.039324 0.039323 0.039322 0.0393215 0.0393211 0.0393204 0.0393196 0.0393196 0.0393185 0.0393178 0.0393174 0.0393169 0.0393164 0.0393168 0.0393154 0.0393156 0.0393149 0.039315 0.039314 0.0393131 0.0393141 0.0393127 0.0393125 0.0393108 0.0393122 0.0393102 0.0393107 0.0393108 0.0393091 0.0393102 0.0393094 0.03931 0.0393089 0.0393092 0.0393085 0.0393089 0.0393085 0.0393088 0.0393084 0.0393076 0.0393077 0.039308 0.0393078 0.0393071 0.0393065 0.0393078 0.0393069 0.039307 0.0393064 0.0393068 0.0393076 0.0391923 0.0392443 0.0392604 0.039268 0.0392721 0.0392746 0.0392759 0.0392773 0.0392784 0.0392793 0.03928 0.0392809 0.039282 0.0392828 0.0392841 0.0392846 0.0392852 0.0392868 0.0392876 0.0392884 0.0392894 0.0392895 0.0392909 0.0392912 0.0392926 0.0392932 0.0392939 0.0392942 0.0392951 0.0392961 0.0392968 0.0392968 0.0392971 0.0392982 0.0392989 0.0393001 0.0392991 0.0393011 0.0392999 0.0393021 0.0393014 0.0393021 0.0393028 0.0393031 0.0393028 0.0393042 0.0393033 0.0393045 0.039305 0.0393048 0.0393059 0.0393054 0.0393053 0.0393062 0.0393068 0.0393063 0.0393064 0.0393062 0.0393071 0.0393071 0.0393071 0.0393069 0.0393073 0.0393071 0.0392467 0.0392437 0.0392587 0.0392669 0.0392716 0.0392746 0.0392772 0.0392783 0.0392794 0.0392808 0.0392817 0.0392823 0.0392831 0.0392841 0.0392856 0.0392866 0.0392863 0.0392877 0.0392892 0.0392898 0.0392904 0.0392905 0.039292 0.0392923 0.0392935 0.0392936 0.0392954 0.0392954 0.0392955 0.0392965 0.0392969 0.0392977 0.0392989 0.0392987 0.0392986 0.0393005 0.0392995 0.0393009 0.039301 0.0393025 0.0393012 0.0393026 0.0393029 0.0393034 0.0393035 0.0393035 0.0393041 0.0393046 0.039305 0.0393054 0.0393055 0.0393045 0.0393059 0.0393063 0.0393057 0.0393059 0.0393064 0.0393066 0.0393067 0.0393064 0.0393065 0.0393066 0.0393067 0.0393072 0.0392541 0.0392591 0.0392633 0.03927 0.0392737 0.0392769 0.0392796 0.0392804 0.0392814 0.0392832 0.0392839 0.0392848 0.0392859 0.0392862 0.0392876 0.0392881 0.0392886 0.0392893 0.0392903 0.0392916 0.0392912 0.0392927 0.0392938 0.0392935 0.0392944 0.039295 0.0392961 0.0392962 0.0392971 0.039298 0.0392978 0.0392981 0.0393 0.0392991 0.0392996 0.0393009 0.0393008 0.0393011 0.0393022 0.0393024 0.0393019 0.0393035 0.0393028 0.0393043 0.0393041 0.0393044 0.0393041 0.0393049 0.0393051 0.039306 0.0393057 0.0393054 0.0393054 0.0393059 0.0393055 0.0393067 0.0393063 0.0393067 0.0393066 0.0393069 0.039307 0.0393067 0.0393065 0.0393069 0.0392659 0.0392685 0.0392708 0.0392747 0.0392777 0.0392804 0.0392821 0.0392837 0.0392851 0.0392853 0.0392862 0.0392879 0.0392881 0.0392891 0.03929 0.0392906 0.0392911 0.0392914 0.0392926 0.0392933 0.0392937 0.0392942 0.0392946 0.0392958 0.0392961 0.0392965 0.0392965 0.0392979 0.0392985 0.0392989 0.0392995 0.0392987 0.0393007 0.0393005 0.0393016 0.039301 0.0393016 0.0393017 0.0393028 0.0393027 0.0393028 0.0393035 0.0393036 0.039305 0.0393042 0.0393043 0.0393044 0.0393053 0.039305 0.0393052 0.0393053 0.0393058 0.0393047 0.0393059 0.039306 0.0393064 0.0393069 0.0393062 0.039306 0.0393072 0.0393061 0.0393064 0.0393063 0.0393073 0.0392751 0.0392774 0.0392783 0.0392806 0.0392825 0.0392848 0.039286 0.0392873 0.0392885 0.0392887 0.0392893 0.0392908 0.0392908 0.0392921 0.0392924 0.0392929 0.0392929 0.0392938 0.0392948 0.0392947 0.039296 0.0392957 0.0392964 0.0392974 0.0392975 0.0392982 0.0392984 0.0392993 0.0392992 0.0392998 0.039301 0.0393009 0.039301 0.0393014 0.039302 0.0393016 0.0393026 0.0393027 0.039303 0.0393031 0.0393035 0.039303 0.0393049 0.0393051 0.0393042 0.0393038 0.0393047 0.0393054 0.039305 0.0393052 0.0393055 0.0393057 0.0393054 0.0393063 0.0393061 0.0393058 0.0393059 0.0393062 0.039307 0.0393064 0.0393062 0.0393064 0.0393071 0.0393077 0.0392845 0.0392855 0.0392859 0.0392871 0.039288 0.0392888 0.03929 0.0392905 0.0392919 0.0392924 0.0392928 0.0392936 0.0392941 0.0392943 0.0392952 0.0392955 0.0392959 0.0392966 0.0392968 0.039297 0.0392984 0.0392985 0.0392985 0.0392987 0.0392994 0.0392997 0.0393 0.0393006 0.0393006 0.0393011 0.0393009 0.0393016 0.0393021 0.0393017 0.0393025 0.0393026 0.0393028 0.0393033 0.0393041 0.0393036 0.0393051 0.0393033 0.039305 0.0393052 0.0393051 0.0393049 0.0393051 0.0393056 0.0393056 0.0393053 0.0393059 0.039306 0.0393062 0.0393063 0.0393069 0.0393059 0.0393062 0.0393062 0.0393069 0.0393054 0.0393068 0.0393062 0.0393068 0.0393072 0.0392932 0.039293 0.039293 0.0392932 0.0392932 0.0392934 0.0392945 0.0392945 0.0392955 0.0392958 0.0392968 0.0392963 0.0392968 0.0392974 0.0392977 0.039298 0.0392985 0.0392988 0.0392989 0.0392996 0.0393003 0.0393003 0.0393008 0.0393007 0.0393012 0.0393012 0.0393017 0.039302 0.039302 0.0393027 0.0393022 0.0393032 0.0393035 0.0393031 0.0393034 0.0393043 0.0393038 0.0393042 0.0393046 0.039304 0.0393057 0.0393042 0.0393048 0.0393052 0.0393055 0.0393056 0.039305 0.0393061 0.0393052 0.0393059 0.0393057 0.0393062 0.0393058 0.0393055 0.0393074 0.0393057 0.0393062 0.0393061 0.0393069 0.0393064 0.0393068 0.0393064 0.0393068 0.0393066 0.0393016 0.0392998 0.0392991 0.0392992 0.0392984 0.0392987 0.0392985 0.0392983 0.0392989 0.0392996 0.0393002 0.0392995 0.0392998 0.0393008 0.0393005 0.0393002 0.0393009 0.0393011 0.0393017 0.0393021 0.0393023 0.0393023 0.0393025 0.0393023 0.0393028 0.0393033 0.039303 0.0393033 0.0393035 0.0393037 0.0393041 0.039304 0.0393046 0.0393045 0.039304 0.0393044 0.039305 0.0393046 0.0393047 0.039305 0.039306 0.0393053 0.0393052 0.0393055 0.0393056 0.0393058 0.0393053 0.0393063 0.0393058 0.039306 0.0393059 0.0393066 0.039306 0.0393057 0.0393071 0.0393062 0.0393065 0.0393073 0.0393067 0.0393068 0.039306 0.0393062 0.0393069 0.0393062 0.0393099 0.0393069 0.0393052 0.0393047 0.0393031 0.0393025 0.0393027 0.0393019 0.0393026 0.0393027 0.0393028 0.0393032 0.0393039 0.0393032 0.0393028 0.0393031 0.0393039 0.0393034 0.0393041 0.0393043 0.0393039 0.0393047 0.0393044 0.0393047 0.0393043 0.0393054 0.0393053 0.0393047 0.039305 0.0393054 0.0393056 0.0393046 0.0393053 0.0393052 0.0393057 0.0393047 0.039306 0.0393061 0.0393059 0.0393061 0.0393058 0.0393056 0.039306 0.0393063 0.0393063 0.0393068 0.0393058 0.0393065 0.0393062 0.039306 0.0393064 0.0393067 0.0393063 0.0393064 0.0393069 0.0393061 0.0393059 0.0393078 0.0393061 0.039306 0.039307 0.0393073 0.0393062 0.0393061 0.0393177 0.0393141 0.0393115 0.0393093 0.0393082 0.039307 0.0393072 0.0393066 0.039306 0.039306 0.0393069 0.0393064 0.0393063 0.039306 0.0393065 0.0393069 0.0393061 0.0393064 0.0393066 0.0393066 0.0393057 0.0393064 0.0393065 0.0393067 0.0393057 0.0393063 0.0393061 0.0393064 0.0393063 0.0393064 0.0393063 0.0393062 0.0393071 0.0393067 0.0393066 0.0393061 0.0393071 0.0393072 0.0393067 0.0393066 0.0393069 0.0393059 0.0393065 0.0393065 0.0393071 0.0393072 0.039306 0.039307 0.0393058 0.0393063 0.0393067 0.0393063 0.0393062 0.0393072 0.0393064 0.0393058 0.0393057 0.0393074 0.0393064 0.0393059 0.0393069 0.0393066 0.0393062 0.0393066 0.0393257 0.0393206 0.0393162 0.0393137 0.0393128 0.0393114 0.0393109 0.0393107 0.0393094 0.0393089 0.03931 0.0393095 0.0393089 0.0393093 0.0393088 0.0393094 0.0393085 0.0393092 0.0393088 0.039309 0.0393085 0.0393082 0.0393084 0.0393082 0.0393078 0.0393084 0.0393079 0.0393083 0.0393079 0.0393078 0.0393075 0.0393082 0.0393075 0.0393087 0.0393073 0.0393069 0.0393076 0.0393073 0.0393077 0.039307 0.0393079 0.0393063 0.0393074 0.039307 0.0393072 0.0393075 0.0393065 0.0393065 0.039307 0.0393071 0.0393076 0.0393062 0.0393067 0.0393069 0.0393071 0.0393066 0.0393067 0.0393063 0.0393064 0.0393069 0.0393064 0.0393066 0.0393066 0.0393061 0.0393338 0.0393273 0.0393226 0.039319 0.0393171 0.0393152 0.0393142 0.0393142 0.0393138 0.0393131 0.0393133 0.039313 0.0393122 0.0393123 0.0393117 0.0393124 0.0393112 0.0393113 0.039311 0.0393109 0.0393107 0.0393109 0.0393108 0.03931 0.0393095 0.0393099 0.03931 0.0393095 0.0393092 0.03931 0.0393089 0.0393092 0.0393087 0.0393092 0.0393085 0.0393085 0.039309 0.0393079 0.0393082 0.0393078 0.0393082 0.0393081 0.0393075 0.0393076 0.0393072 0.0393074 0.0393069 0.0393076 0.0393074 0.0393065 0.0393066 0.039307 0.039307 0.0393065 0.0393072 0.0393068 0.039307 0.0393061 0.0393067 0.0393072 0.039307 0.0393066 0.0393061 0.0393062 0.0393414 0.0393329 0.0393271 0.0393234 0.0393212 0.0393189 0.039318 0.0393176 0.0393166 0.0393166 0.0393164 0.0393162 0.0393154 0.0393151 0.0393147 0.0393146 0.039314 0.039314 0.0393138 0.0393129 0.0393125 0.0393125 0.0393129 0.039312 0.0393117 0.0393121 0.0393118 0.0393112 0.039311 0.0393111 0.0393104 0.0393106 0.0393107 0.03931 0.0393093 0.0393094 0.0393092 0.0393082 0.0393098 0.0393084 0.0393086 0.0393085 0.0393083 0.0393079 0.0393075 0.0393079 0.0393075 0.039308 0.0393073 0.0393078 0.0393074 0.0393075 0.0393071 0.0393068 0.0393072 0.0393074 0.039307 0.0393065 0.0393066 0.0393068 0.0393074 0.039306 0.0393061 0.0393062 0.0393492 0.0393377 0.0393326 0.0393271 0.0393246 0.0393222 0.0393217 0.0393216 0.0393202 0.0393198 0.0393194 0.0393187 0.0393186 0.0393181 0.0393178 0.0393168 0.0393161 0.0393163 0.0393156 0.0393159 0.0393147 0.0393142 0.039315 0.0393138 0.0393135 0.0393135 0.0393132 0.0393128 0.0393123 0.0393114 0.0393121 0.0393118 0.0393116 0.03931 0.0393103 0.0393107 0.0393106 0.0393092 0.0393112 0.0393089 0.0393094 0.039308 0.039309 0.039308 0.0393086 0.039309 0.0393079 0.0393077 0.0393084 0.0393079 0.0393077 0.039307 0.0393073 0.0393072 0.0393074 0.0393068 0.0393066 0.0393072 0.0393067 0.0393066 0.039307 0.0393061 0.0393072 0.0393065 0.039354 0.0393457 0.0393351 0.0393305 0.0393283 0.0393265 0.0393253 0.039325 0.039324 0.0393231 0.0393229 0.0393219 0.0393216 0.0393209 0.0393207 0.0393197 0.0393192 0.039319 0.0393183 0.0393179 0.0393174 0.0393171 0.0393169 0.0393159 0.0393154 0.0393151 0.0393154 0.0393142 0.0393139 0.0393132 0.0393132 0.0393129 0.0393122 0.0393117 0.0393112 0.0393117 0.0393112 0.0393103 0.0393106 0.0393101 0.0393098 0.03931 0.0393095 0.0393087 0.039309 0.0393091 0.0393081 0.0393089 0.0393082 0.0393077 0.0393078 0.0393077 0.0393074 0.0393069 0.0393082 0.0393071 0.0393072 0.0393068 0.0393058 0.0393072 0.0393072 0.0393062 0.0393076 0.0393069 0.0393865 0.039345 0.0393388 0.039334 0.0393323 0.0393304 0.0393293 0.0393283 0.0393273 0.0393268 0.0393262 0.0393254 0.039325 0.0393245 0.0393231 0.0393226 0.0393224 0.0393212 0.039321 0.03932 0.0393199 0.0393188 0.0393186 0.0393179 0.0393169 0.0393173 0.0393168 0.0393151 0.0393155 0.0393155 0.0393142 0.0393138 0.0393134 0.0393134 0.0393129 0.0393122 0.0393118 0.039313 0.0393111 0.0393104 0.0393112 0.0393103 0.0393101 0.0393093 0.0393094 0.0393097 0.0393091 0.0393081 0.0393088 0.0393089 0.039308 0.0393076 0.0393082 0.0393086 0.0393076 0.0393075 0.0393069 0.0393068 0.0393075 0.0393072 0.0393064 0.0393071 0.0393073 0.0393077 0.0392035 0.0392451 0.0392633 0.0392727 0.039276 0.0392774 0.039278 0.0392789 0.0392798 0.0392805 0.0392812 0.0392821 0.0392826 0.0392839 0.0392844 0.0392855 0.0392864 0.039287 0.0392883 0.0392886 0.0392896 0.0392902 0.039291 0.0392917 0.039293 0.0392935 0.0392945 0.0392941 0.0392956 0.0392967 0.0392967 0.0392969 0.0392983 0.0392983 0.0392989 0.0392997 0.0392998 0.0393013 0.0393005 0.0393015 0.0393013 0.0393025 0.0393025 0.0393026 0.039304 0.0393039 0.0393036 0.0393048 0.0393045 0.0393046 0.0393056 0.0393057 0.0393047 0.0393052 0.0393067 0.0393058 0.0393064 0.0393059 0.0393071 0.0393061 0.0393069 0.0393066 0.0393068 0.0393064 0.0392517 0.0392459 0.0392614 0.0392693 0.0392738 0.039277 0.0392779 0.0392791 0.0392799 0.0392812 0.0392817 0.0392824 0.039284 0.0392846 0.0392855 0.0392869 0.039287 0.0392878 0.0392886 0.0392896 0.0392906 0.0392905 0.0392922 0.0392922 0.0392938 0.039294 0.0392949 0.0392952 0.0392959 0.0392965 0.039297 0.0392975 0.0392984 0.0392988 0.039299 0.0393 0.0393004 0.0393014 0.0393011 0.0393026 0.039302 0.0393025 0.0393028 0.0393036 0.0393037 0.0393042 0.0393044 0.0393039 0.0393041 0.0393055 0.0393056 0.0393045 0.0393058 0.0393066 0.0393062 0.0393064 0.039307 0.0393068 0.0393063 0.0393062 0.0393067 0.0393065 0.0393076 0.0393077 0.0392578 0.0392579 0.0392659 0.0392721 0.0392759 0.0392785 0.0392801 0.0392815 0.039282 0.0392835 0.039284 0.0392845 0.0392858 0.0392862 0.0392875 0.0392879 0.0392883 0.039289 0.03929 0.0392911 0.0392917 0.0392922 0.0392928 0.0392938 0.0392945 0.0392947 0.0392962 0.0392963 0.0392966 0.0392978 0.0392981 0.0392977 0.0392991 0.0392997 0.0393001 0.0393008 0.0393007 0.0393011 0.0393015 0.0393026 0.0393023 0.0393029 0.0393026 0.0393043 0.0393035 0.0393048 0.0393042 0.0393044 0.0393044 0.0393058 0.0393054 0.0393049 0.0393058 0.0393063 0.0393067 0.0393059 0.0393058 0.0393069 0.0393064 0.0393071 0.0393065 0.0393062 0.0393069 0.0393074 0.0392688 0.0392671 0.0392727 0.0392766 0.0392799 0.0392818 0.0392832 0.0392847 0.0392857 0.0392859 0.0392866 0.0392876 0.0392884 0.0392888 0.0392904 0.0392903 0.0392907 0.0392917 0.0392922 0.0392926 0.0392938 0.0392942 0.0392942 0.0392958 0.0392963 0.0392958 0.039297 0.0392974 0.0392983 0.0392986 0.0392988 0.0392982 0.0393004 0.0393002 0.0393009 0.0393016 0.039301 0.0393019 0.0393022 0.0393031 0.0393032 0.0393032 0.0393032 0.0393045 0.0393034 0.0393044 0.0393047 0.0393055 0.0393052 0.039306 0.0393054 0.0393059 0.039306 0.0393056 0.0393066 0.0393059 0.0393063 0.0393066 0.0393064 0.039307 0.039306 0.0393066 0.0393068 0.039307 0.0392775 0.0392763 0.0392802 0.0392825 0.0392844 0.0392857 0.0392871 0.0392882 0.039289 0.0392892 0.0392895 0.0392904 0.0392914 0.039292 0.0392922 0.0392929 0.0392934 0.0392942 0.0392943 0.0392948 0.0392954 0.0392956 0.0392966 0.0392974 0.0392976 0.0392979 0.0392984 0.0392985 0.0392995 0.0392997 0.0393001 0.0393003 0.0393012 0.039301 0.039302 0.0393019 0.0393026 0.0393027 0.0393024 0.0393038 0.0393029 0.0393038 0.039304 0.0393047 0.0393043 0.0393044 0.0393057 0.0393051 0.039305 0.0393058 0.0393052 0.039306 0.0393067 0.0393059 0.0393066 0.0393062 0.0393062 0.0393066 0.0393072 0.0393069 0.0393065 0.0393064 0.0393072 0.0393073 0.0392858 0.0392843 0.0392872 0.0392885 0.0392895 0.0392896 0.0392913 0.0392914 0.0392922 0.0392929 0.0392931 0.0392937 0.0392944 0.0392946 0.0392951 0.0392952 0.0392957 0.0392961 0.0392968 0.0392975 0.0392975 0.039298 0.0392982 0.0392989 0.0392996 0.0392996 0.0393004 0.0393001 0.039301 0.039301 0.0393013 0.0393013 0.0393023 0.0393022 0.0393022 0.0393024 0.0393033 0.0393029 0.0393031 0.0393044 0.039304 0.0393041 0.0393047 0.0393047 0.0393049 0.0393044 0.0393056 0.039305 0.0393056 0.0393059 0.0393053 0.0393058 0.0393067 0.0393059 0.0393066 0.0393064 0.0393061 0.0393061 0.0393069 0.0393065 0.039307 0.0393067 0.0393063 0.039307 0.039294 0.0392924 0.0392939 0.0392939 0.0392938 0.0392941 0.0392949 0.0392949 0.0392958 0.0392959 0.0392966 0.0392966 0.0392972 0.0392978 0.039298 0.0392977 0.0392986 0.0392986 0.0392991 0.0392997 0.0392995 0.0393003 0.0393006 0.0393008 0.039301 0.0393007 0.0393021 0.0393018 0.0393022 0.0393021 0.0393027 0.039303 0.0393033 0.039303 0.0393035 0.0393039 0.0393041 0.0393037 0.0393042 0.0393045 0.0393049 0.0393041 0.0393054 0.0393051 0.0393051 0.0393052 0.039305 0.0393057 0.0393056 0.0393063 0.0393051 0.0393068 0.0393058 0.0393052 0.0393062 0.0393068 0.0393065 0.0393057 0.0393067 0.0393068 0.0393071 0.039307 0.0393062 0.0393062 0.0393019 0.0393002 0.0392997 0.0392994 0.0392985 0.0392989 0.0392992 0.039299 0.0392994 0.0392992 0.0393 0.0392997 0.0393003 0.039301 0.0393006 0.0393011 0.0393014 0.0393013 0.0393018 0.0393017 0.039302 0.0393023 0.0393021 0.0393021 0.0393028 0.0393026 0.0393032 0.0393031 0.0393039 0.0393032 0.0393043 0.0393043 0.0393044 0.0393042 0.0393043 0.0393052 0.0393045 0.0393042 0.0393058 0.0393052 0.039306 0.0393049 0.039306 0.0393062 0.0393051 0.0393061 0.0393049 0.0393066 0.039306 0.0393062 0.0393056 0.0393067 0.0393061 0.039306 0.0393061 0.0393063 0.0393067 0.0393067 0.0393064 0.0393066 0.0393066 0.039306 0.0393068 0.039306 0.0393096 0.0393077 0.0393049 0.0393042 0.0393033 0.0393035 0.0393029 0.0393025 0.0393027 0.0393029 0.0393028 0.039303 0.0393034 0.0393035 0.0393033 0.0393033 0.0393042 0.0393041 0.0393041 0.0393038 0.0393045 0.0393048 0.0393045 0.0393045 0.0393046 0.0393044 0.039305 0.0393045 0.0393053 0.0393055 0.039305 0.0393052 0.0393051 0.0393059 0.0393052 0.0393058 0.0393054 0.0393051 0.0393066 0.0393055 0.0393059 0.0393057 0.0393065 0.0393062 0.039306 0.0393067 0.0393057 0.0393071 0.0393067 0.0393065 0.0393063 0.0393065 0.0393062 0.0393066 0.0393069 0.0393062 0.0393063 0.039307 0.0393063 0.039306 0.0393065 0.0393067 0.0393061 0.0393057 0.0393171 0.0393151 0.0393102 0.0393085 0.0393079 0.0393075 0.0393065 0.0393065 0.0393067 0.0393064 0.0393061 0.0393066 0.0393066 0.0393064 0.0393064 0.0393061 0.0393063 0.0393064 0.0393069 0.0393067 0.0393063 0.0393062 0.0393064 0.0393062 0.0393064 0.0393063 0.0393065 0.039306 0.0393067 0.0393066 0.0393061 0.0393063 0.0393063 0.039307 0.0393061 0.0393066 0.0393066 0.0393063 0.0393067 0.0393063 0.0393073 0.0393057 0.0393065 0.0393064 0.0393072 0.0393074 0.0393059 0.0393068 0.0393067 0.0393066 0.0393063 0.0393063 0.0393063 0.0393068 0.0393067 0.0393058 0.0393059 0.0393066 0.0393064 0.0393061 0.0393068 0.0393065 0.0393065 0.0393064 0.0393242 0.0393218 0.0393157 0.0393129 0.0393125 0.0393113 0.0393104 0.0393101 0.0393096 0.0393092 0.0393096 0.0393098 0.0393094 0.0393095 0.0393089 0.0393093 0.0393085 0.0393087 0.0393093 0.0393093 0.0393087 0.0393082 0.0393083 0.0393083 0.0393084 0.0393083 0.0393087 0.039308 0.0393079 0.0393076 0.0393072 0.0393072 0.0393082 0.0393084 0.0393071 0.0393077 0.0393071 0.0393076 0.0393068 0.0393072 0.0393085 0.0393057 0.0393071 0.0393075 0.0393071 0.0393079 0.0393061 0.0393072 0.0393068 0.039307 0.0393072 0.0393069 0.0393072 0.0393071 0.0393073 0.0393062 0.0393064 0.0393067 0.0393067 0.0393069 0.0393063 0.0393065 0.0393064 0.0393066 0.0393315 0.0393284 0.039321 0.0393176 0.0393162 0.0393147 0.0393138 0.0393143 0.0393137 0.039313 0.0393132 0.0393128 0.0393123 0.0393131 0.0393121 0.039312 0.0393116 0.0393114 0.0393113 0.0393113 0.039311 0.0393105 0.0393108 0.0393107 0.03931 0.0393101 0.0393104 0.0393096 0.0393093 0.0393098 0.0393089 0.039309 0.0393094 0.0393089 0.0393083 0.0393092 0.0393082 0.0393084 0.0393075 0.0393088 0.0393085 0.039307 0.039308 0.0393079 0.0393076 0.0393077 0.0393066 0.0393084 0.0393074 0.0393066 0.0393064 0.0393074 0.0393066 0.0393067 0.0393068 0.0393067 0.0393061 0.0393071 0.0393069 0.039306 0.0393066 0.0393062 0.0393069 0.0393073 0.0393386 0.0393345 0.0393254 0.0393224 0.0393205 0.0393187 0.0393177 0.0393175 0.039317 0.0393166 0.0393165 0.0393158 0.0393159 0.0393151 0.0393148 0.0393142 0.039314 0.0393147 0.0393141 0.0393133 0.0393133 0.0393129 0.0393125 0.0393123 0.0393113 0.0393116 0.0393123 0.0393115 0.0393109 0.039311 0.0393105 0.0393104 0.0393099 0.0393098 0.0393098 0.0393096 0.0393094 0.0393081 0.0393088 0.0393091 0.0393087 0.039308 0.0393088 0.0393085 0.0393078 0.039307 0.0393075 0.0393081 0.0393073 0.0393072 0.0393077 0.0393078 0.0393067 0.0393066 0.0393069 0.0393074 0.0393061 0.0393072 0.0393068 0.0393063 0.0393066 0.0393059 0.0393063 0.0393062 0.0393461 0.0393395 0.0393298 0.0393257 0.0393237 0.039322 0.0393209 0.039321 0.0393204 0.0393202 0.0393199 0.0393185 0.039319 0.0393182 0.0393181 0.0393171 0.0393164 0.0393169 0.0393158 0.039316 0.0393147 0.0393145 0.0393155 0.0393145 0.0393134 0.0393134 0.0393133 0.0393133 0.0393122 0.0393118 0.0393122 0.0393114 0.0393111 0.0393106 0.0393108 0.039311 0.039311 0.0393094 0.0393106 0.0393096 0.0393095 0.039308 0.0393091 0.0393084 0.0393087 0.0393081 0.0393082 0.0393081 0.0393082 0.0393078 0.0393075 0.0393076 0.0393072 0.0393069 0.0393074 0.0393072 0.0393063 0.0393071 0.0393071 0.0393073 0.0393073 0.0393067 0.0393064 0.0393061 0.0393499 0.0393467 0.0393331 0.0393289 0.0393266 0.0393258 0.0393242 0.0393247 0.0393242 0.0393229 0.0393226 0.0393217 0.0393216 0.039321 0.0393205 0.0393198 0.0393193 0.039319 0.0393183 0.039318 0.0393172 0.0393174 0.0393175 0.0393163 0.0393148 0.0393148 0.0393154 0.0393144 0.0393133 0.0393136 0.0393133 0.0393131 0.0393124 0.0393114 0.0393119 0.0393117 0.0393114 0.0393104 0.0393102 0.0393102 0.0393094 0.03931 0.0393097 0.0393092 0.0393094 0.0393082 0.0393083 0.0393084 0.0393082 0.0393079 0.0393077 0.0393084 0.0393068 0.0393068 0.0393075 0.0393071 0.0393077 0.0393074 0.0393064 0.0393072 0.0393074 0.0393054 0.0393067 0.0393059 0.0393805 0.039348 0.0393368 0.0393323 0.0393299 0.0393286 0.039328 0.039328 0.0393276 0.0393262 0.0393263 0.039326 0.0393248 0.039324 0.0393237 0.0393229 0.0393221 0.0393214 0.0393212 0.0393202 0.0393198 0.039319 0.0393186 0.0393182 0.0393176 0.0393172 0.0393165 0.0393157 0.039315 0.039315 0.0393138 0.0393145 0.0393144 0.0393127 0.0393134 0.0393119 0.0393122 0.0393133 0.0393117 0.0393108 0.0393106 0.0393111 0.0393101 0.0393094 0.0393096 0.0393101 0.039309 0.039308 0.0393086 0.0393088 0.0393078 0.0393076 0.039307 0.0393082 0.0393074 0.0393068 0.0393076 0.0393074 0.0393067 0.0393069 0.0393058 0.0393058 0.0393066 0.0393062 0.0391763 0.0392556 0.0392723 0.039278 0.0392786 0.0392788 0.0392798 0.0392803 0.0392809 0.0392815 0.039282 0.0392832 0.0392835 0.039285 0.0392853 0.0392864 0.0392874 0.0392879 0.039289 0.0392892 0.0392901 0.0392916 0.0392913 0.0392924 0.0392933 0.0392939 0.0392949 0.0392947 0.0392961 0.0392964 0.0392974 0.0392973 0.0392986 0.039298 0.0393001 0.0392991 0.0393005 0.0393013 0.0393003 0.0393015 0.0393013 0.0393035 0.0393027 0.039303 0.0393035 0.0393049 0.0393041 0.039304 0.0393058 0.0393044 0.0393046 0.0393063 0.0393049 0.0393052 0.0393069 0.0393053 0.0393072 0.0393053 0.0393077 0.0393058 0.0393071 0.0393067 0.0393067 0.0393068 0.0392155 0.0392475 0.0392663 0.0392742 0.0392774 0.0392789 0.0392791 0.0392797 0.0392803 0.0392806 0.0392817 0.039282 0.0392831 0.0392843 0.0392844 0.0392857 0.0392865 0.0392871 0.0392886 0.0392896 0.0392898 0.0392909 0.0392909 0.0392921 0.039293 0.0392933 0.0392945 0.0392944 0.0392964 0.0392957 0.0392966 0.0392976 0.039298 0.0392983 0.0392995 0.0392992 0.0393005 0.0393012 0.0393012 0.0393014 0.0393025 0.0393023 0.0393028 0.0393036 0.0393029 0.0393038 0.0393045 0.0393033 0.0393041 0.0393055 0.0393063 0.0393064 0.0393054 0.0393053 0.0393062 0.0393065 0.0393068 0.039306 0.0393073 0.0393058 0.0393069 0.039307 0.0393077 0.0393081 0.0392304 0.0392615 0.0392699 0.0392761 0.0392792 0.039281 0.0392814 0.039283 0.0392829 0.0392836 0.0392844 0.0392843 0.0392856 0.0392864 0.0392866 0.0392876 0.0392879 0.0392888 0.0392898 0.039291 0.0392917 0.0392919 0.0392926 0.0392936 0.039294 0.0392949 0.0392962 0.0392961 0.0392966 0.0392969 0.0392982 0.039298 0.0392984 0.0392999 0.0393 0.0393 0.0393009 0.0393014 0.0393013 0.0393014 0.0393031 0.0393028 0.0393032 0.0393035 0.0393029 0.0393041 0.039304 0.0393043 0.0393047 0.0393052 0.0393057 0.0393053 0.039306 0.0393062 0.0393067 0.0393059 0.0393065 0.0393055 0.0393066 0.0393075 0.0393067 0.0393061 0.0393067 0.0393073 0.0392475 0.0392711 0.0392763 0.0392804 0.0392827 0.0392838 0.0392848 0.0392864 0.0392859 0.0392867 0.0392871 0.0392878 0.0392888 0.0392887 0.0392899 0.03929 0.0392905 0.0392917 0.0392919 0.039293 0.0392937 0.0392938 0.0392946 0.0392953 0.0392956 0.0392965 0.0392971 0.0392973 0.039298 0.0392978 0.0392991 0.0392988 0.0392998 0.0393004 0.0392999 0.0393011 0.0393012 0.0393021 0.0393025 0.0393025 0.0393039 0.0393029 0.0393034 0.0393045 0.0393031 0.039305 0.0393041 0.0393047 0.0393048 0.0393059 0.0393058 0.0393048 0.0393064 0.0393054 0.0393068 0.0393056 0.0393071 0.0393057 0.0393065 0.0393065 0.0393062 0.0393064 0.0393066 0.0393061 0.0392613 0.0392802 0.0392835 0.039285 0.039287 0.0392877 0.0392883 0.0392894 0.0392899 0.0392897 0.0392904 0.0392907 0.0392916 0.0392912 0.0392928 0.0392928 0.0392931 0.0392943 0.0392939 0.0392957 0.0392953 0.0392959 0.0392965 0.039297 0.0392976 0.0392979 0.0392983 0.0392987 0.0392994 0.0392996 0.0392998 0.0393008 0.0393009 0.0393008 0.0393018 0.039302 0.0393025 0.0393028 0.0393025 0.0393033 0.0393026 0.0393041 0.0393038 0.039305 0.0393038 0.0393046 0.0393045 0.0393052 0.0393048 0.0393059 0.0393056 0.0393052 0.0393059 0.0393056 0.0393064 0.039306 0.0393058 0.0393067 0.0393067 0.0393062 0.0393067 0.0393061 0.0393067 0.039306 0.0392751 0.0392884 0.0392888 0.03929 0.039291 0.0392913 0.0392922 0.0392921 0.0392933 0.0392933 0.039294 0.0392937 0.0392943 0.0392947 0.0392955 0.039296 0.0392955 0.0392961 0.0392964 0.0392978 0.0392975 0.0392976 0.0392986 0.039299 0.0392992 0.0392994 0.0393003 0.0393001 0.0393012 0.0393008 0.0393017 0.0393017 0.0393017 0.0393022 0.039303 0.0393025 0.0393028 0.0393038 0.0393031 0.0393042 0.0393036 0.0393047 0.0393052 0.0393053 0.0393042 0.0393042 0.039305 0.0393057 0.0393051 0.0393057 0.0393063 0.0393058 0.0393055 0.0393057 0.0393066 0.0393061 0.0393058 0.039306 0.0393062 0.0393064 0.0393063 0.0393052 0.0393067 0.0393062 0.0392878 0.0392951 0.0392948 0.0392955 0.0392949 0.0392955 0.0392956 0.0392955 0.0392966 0.0392968 0.039297 0.0392968 0.039297 0.0392979 0.0392976 0.0392983 0.0392988 0.0392986 0.0392994 0.0392998 0.0393004 0.0393005 0.0393004 0.0393009 0.039301 0.039301 0.0393016 0.0393014 0.0393023 0.0393018 0.0393029 0.0393025 0.0393035 0.0393029 0.0393037 0.039304 0.0393034 0.0393039 0.0393041 0.0393044 0.0393047 0.039304 0.0393051 0.0393052 0.039305 0.0393058 0.0393054 0.039306 0.0393058 0.0393056 0.0393063 0.0393065 0.0393056 0.0393058 0.0393064 0.0393061 0.0393064 0.0393065 0.0393067 0.0393065 0.0393068 0.0393054 0.0393069 0.0393068 0.0392993 0.0393011 0.0393002 0.0393 0.0392993 0.0392992 0.0392997 0.0392994 0.0392999 0.0392993 0.0393005 0.0393003 0.0393 0.0393008 0.0393008 0.039301 0.0393016 0.0393013 0.0393016 0.0393017 0.0393025 0.0393025 0.0393015 0.0393029 0.0393034 0.0393028 0.039303 0.0393034 0.0393039 0.0393041 0.039304 0.039304 0.0393045 0.0393041 0.039304 0.0393053 0.0393042 0.039305 0.0393055 0.039305 0.0393057 0.039305 0.039305 0.0393058 0.0393053 0.0393055 0.0393049 0.0393063 0.0393058 0.0393059 0.0393065 0.0393058 0.0393066 0.0393067 0.039306 0.0393064 0.0393068 0.0393066 0.0393068 0.039306 0.0393069 0.0393053 0.0393072 0.039307 0.0393114 0.0393073 0.039305 0.0393045 0.0393035 0.0393034 0.0393031 0.0393029 0.0393028 0.0393028 0.0393036 0.0393038 0.039303 0.0393035 0.0393038 0.0393036 0.0393031 0.0393046 0.0393044 0.0393041 0.0393045 0.0393048 0.0393039 0.0393047 0.0393047 0.0393045 0.0393046 0.0393052 0.0393059 0.0393053 0.0393043 0.0393055 0.0393052 0.0393061 0.0393043 0.0393058 0.039305 0.0393065 0.0393063 0.0393049 0.0393066 0.0393056 0.0393059 0.0393059 0.0393059 0.0393058 0.0393063 0.0393068 0.039306 0.0393069 0.0393078 0.0393052 0.0393064 0.0393062 0.0393069 0.0393057 0.0393067 0.0393061 0.0393064 0.0393072 0.0393076 0.0393066 0.0393062 0.0393065 0.0393229 0.0393129 0.0393099 0.0393087 0.0393077 0.0393074 0.0393068 0.0393066 0.0393069 0.0393068 0.0393064 0.0393065 0.0393064 0.0393073 0.0393068 0.0393068 0.0393063 0.0393068 0.0393066 0.0393064 0.0393057 0.0393065 0.0393066 0.0393062 0.0393069 0.0393065 0.0393062 0.0393062 0.0393071 0.0393063 0.0393071 0.0393064 0.0393065 0.0393068 0.0393059 0.0393067 0.0393062 0.0393068 0.0393073 0.0393059 0.0393074 0.0393057 0.0393063 0.0393072 0.0393067 0.0393067 0.0393069 0.0393066 0.0393059 0.0393072 0.0393065 0.0393057 0.0393062 0.039306 0.0393071 0.0393059 0.0393064 0.0393065 0.0393066 0.0393067 0.0393073 0.0393068 0.0393064 0.0393065 0.0393338 0.0393184 0.0393147 0.0393122 0.0393115 0.0393109 0.0393105 0.0393099 0.0393103 0.0393101 0.0393097 0.0393097 0.0393093 0.0393096 0.0393092 0.0393098 0.0393096 0.0393086 0.0393092 0.0393091 0.0393081 0.0393083 0.0393086 0.0393084 0.0393087 0.0393076 0.0393081 0.039308 0.0393084 0.0393076 0.0393081 0.0393078 0.0393079 0.0393071 0.0393086 0.0393073 0.0393065 0.039308 0.0393075 0.0393067 0.0393078 0.0393064 0.039307 0.0393071 0.0393074 0.0393074 0.0393065 0.0393079 0.039306 0.039307 0.0393067 0.0393074 0.0393063 0.0393068 0.0393074 0.0393065 0.0393069 0.0393066 0.0393075 0.0393064 0.0393068 0.0393066 0.0393067 0.039307 0.0393454 0.0393238 0.0393194 0.0393163 0.0393147 0.0393145 0.0393136 0.0393135 0.0393137 0.0393138 0.0393132 0.0393127 0.039313 0.0393126 0.0393122 0.0393118 0.0393122 0.0393119 0.0393116 0.0393114 0.0393108 0.0393105 0.0393109 0.0393106 0.0393099 0.0393095 0.0393102 0.0393095 0.0393096 0.0393094 0.0393086 0.0393102 0.0393086 0.0393085 0.0393098 0.039308 0.0393077 0.0393087 0.0393084 0.0393083 0.0393078 0.0393076 0.0393079 0.0393071 0.0393082 0.0393075 0.0393071 0.0393079 0.0393063 0.0393075 0.039307 0.0393073 0.0393066 0.0393072 0.0393066 0.0393074 0.0393072 0.0393064 0.0393073 0.0393067 0.0393068 0.0393066 0.0393066 0.0393071 0.0393577 0.0393296 0.039323 0.0393202 0.0393191 0.039318 0.0393174 0.0393173 0.0393171 0.0393167 0.0393165 0.0393154 0.0393161 0.0393155 0.0393152 0.0393145 0.0393142 0.0393146 0.039314 0.0393135 0.0393131 0.0393132 0.0393129 0.0393121 0.039312 0.039312 0.0393123 0.0393114 0.039311 0.0393112 0.0393102 0.0393108 0.0393101 0.0393096 0.0393099 0.039309 0.0393097 0.0393091 0.039309 0.0393091 0.0393079 0.0393085 0.039309 0.0393084 0.0393085 0.039307 0.0393082 0.0393069 0.0393075 0.039308 0.0393078 0.0393069 0.0393075 0.0393071 0.039307 0.0393087 0.0393067 0.0393063 0.0393068 0.0393071 0.0393062 0.0393056 0.0393069 0.0393063 0.03937 0.0393346 0.0393268 0.0393235 0.0393222 0.0393214 0.0393207 0.0393205 0.0393208 0.0393203 0.0393202 0.039319 0.0393187 0.0393187 0.0393183 0.039318 0.0393172 0.0393169 0.0393163 0.0393163 0.0393154 0.0393146 0.0393149 0.0393143 0.0393141 0.0393136 0.0393129 0.0393131 0.0393123 0.0393125 0.0393119 0.0393115 0.039311 0.0393111 0.0393109 0.0393096 0.0393108 0.0393106 0.0393091 0.0393105 0.0393089 0.039309 0.0393099 0.0393081 0.039309 0.0393081 0.0393083 0.0393075 0.0393082 0.0393072 0.0393078 0.0393075 0.0393078 0.0393076 0.0393073 0.0393075 0.0393073 0.0393064 0.0393072 0.0393066 0.0393064 0.0393059 0.0393071 0.0393067 0.03938 0.0393427 0.03933 0.0393269 0.0393254 0.0393254 0.0393245 0.0393243 0.0393241 0.0393231 0.0393228 0.039322 0.0393218 0.0393223 0.0393205 0.0393199 0.03932 0.0393193 0.0393185 0.0393186 0.0393178 0.0393175 0.0393165 0.0393163 0.0393156 0.0393152 0.039315 0.0393149 0.039314 0.039314 0.0393131 0.0393131 0.0393119 0.0393125 0.0393118 0.0393111 0.0393111 0.0393117 0.0393092 0.0393107 0.03931 0.0393099 0.0393094 0.0393092 0.0393095 0.0393088 0.0393077 0.0393083 0.0393088 0.0393088 0.0393075 0.0393086 0.0393079 0.0393068 0.0393074 0.0393069 0.039308 0.0393065 0.0393072 0.0393064 0.0393067 0.0393056 0.0393073 0.0393068 0.0394097 0.0393429 0.0393313 0.0393295 0.0393285 0.0393288 0.0393286 0.0393278 0.0393269 0.0393264 0.0393261 0.0393253 0.0393246 0.0393241 0.0393238 0.0393222 0.0393218 0.0393219 0.0393214 0.0393204 0.0393198 0.0393196 0.0393185 0.0393182 0.0393172 0.0393175 0.0393168 0.0393159 0.0393151 0.0393151 0.0393146 0.039314 0.0393139 0.0393135 0.0393126 0.0393123 0.0393119 0.0393117 0.0393108 0.0393118 0.0393105 0.0393105 0.0393102 0.0393105 0.0393091 0.0393099 0.0393083 0.0393093 0.039309 0.0393084 0.0393078 0.0393089 0.0393074 0.0393077 0.0393078 0.0393067 0.0393085 0.0393071 0.0393068 0.0393069 0.0393065 0.0393062 0.0393071 0.0393071 
