# vtk DataFile Version 5.1
vtk output
ASCII

DATASET UNSTRUCTURED_GRID
POINTS 5212 float
-0.4801 -0.1 0.07
-0.4801 0.2001 0.07
-0.4656 -0.1 0.2163
-0.4656 0.2001 0.2163
-0.46264 -0.0986152 -0.0860761
-0.4656 0.2001 -0.0763
-0.423 -0.1 0.357
-0.423 0.2001 0.357
-0.423 -0.1 -0.217
-0.423 0.2001 -0.217
-0.3536 -0.1 0.4867
-0.3536 0.2001 0.4867
-0.3536 -0.1 -0.3467
-0.3536 0.2001 -0.3467
-0.2604 -0.1 0.6004
-0.2604 0.2001 0.6004
-0.266095 -0.1 -0.453452
-0.2604 0.2001 -0.4604
-0.183027 0.2001 -0.142714
-0.1744 2.2301 0.5994
-0.167087 0.2001 -0.256813
-0.155488 2.23929 0.529696
-0.154028 2.2229 0.667685
-0.1547 0.2205 -0.31
-0.152608 2.23314 0.599629
-0.1467 -0.1 0.6936
-0.1467 0.2001 0.6936
-0.1467 -0.1 -0.5536
-0.1467 0.2001 -0.5536
-0.140594 0.2001 0.0181701
-0.1384 2.5483 0.6375
-0.1376 2.23827 0.575117
-0.136691 2.23236 0.623839
-0.12932 2.54288 0.623138
-0.128587 2.53771 0.649803
-0.128998 2.58788 0.642157
-0.123556 2.57182 0.627767
-0.123239 2.56843 0.652037
-0.106123 2.53683 0.658443
-0.110355 2.54827 0.615453
-0.1072 2.2544 0.479
-0.0967212 2.47955 0.655986
-0.10398 2.22454 0.718183
-0.102007 2.23543 0.638334
-0.104303 2.24469 0.561024
-0.0990997 2.3908 0.615342
-0.101233 2.52403 0.635554
-0.0982813 2.11919 0.584663
-0.0991819 2.52316 0.608724
-0.097012 2.33503 0.611824
-0.0944628 2.40387 0.586057
-0.0959225 2.39188 0.650825
-0.0936985 2.51438 0.658381
-0.0884635 2.30332 0.566667
-0.0903224 2.31385 0.646735
-0.0884818 2.12677 0.545022
-0.0873938 2.44501 0.622381
-0.0868104 2.1146 0.624212
-0.226753 0.2001 0.349145
-0.0836273 2.44873 0.592793
-0.0847912 2.43799 0.654731
-0.0787363 2.51105 0.659725
-0.0763 1.9631 0.5653
-0.0750599 2.25806 0.556423
-0.074459 0.871561 0.06469
-0.0752682 2.24385 0.600963
-0.0736901 2.45613 0.592767
-0.0749448 2.51773 0.604323
-0.0780595 2.26513 0.645087
0.04874 0.68348 -0.0937837
-0.0716 2.5048 0.6311
0.530591 -0.1 0.469584
-0.0698102 2.25038 0.554263
-0.0689923 2.23955 0.644438
-0.0664 1.9694 0.5255
-0.012538 0.0126213 -0.456962
-0.0652965 2.46542 0.626553
-0.0659009 2.45039 0.657393
-0.0647253 2.5126 0.659515
-0.065 1.9598 0.605
-0.0596058 2.45877 0.59254
-0.0596671 2.13186 0.51567
-0.0576633 2.11777 0.653636
-0.0556668 2.52695 0.607608
-0.0538 0.2699 -0.4388
-0.0514109 2.52536 0.658347
-0.0489744 2.52953 0.634589
-0.0474566 0.842178 0.175146
-0.0472 0.9252 -0.0498
-0.0462893 2.55783 0.615651
-0.0465145 1.96737 0.564851
-0.0447071 2.55625 0.657389
-0.0412893 2.45086 0.593913
-0.0435396 2.4466 0.655149
-0.0401152 1.97131 0.540151
-0.0398243 2.58734 0.630297
-0.0385438 2.58007 0.651656
-0.0396752 1.96524 0.58995
-0.0393873 2.60035 0.642143
-0.0378298 2.449 0.621155
-0.0365532 2.26666 0.460813
-0.0379 1.9771 0.4965
-0.03775 0.2001 0.152479
-0.0347424 2.24902 0.605287
-0.0355 1.9603 0.6341
-0.479822 0.0587755 0.0671965
-0.0324186 2.23287 0.738135
-0.0277 2.5654 0.6251
-0.0264655 2.55208 0.650023
-0.0301731 2.48193 0.600017
-0.0223711 0.2001 0.161726
-0.0210259 1.97633 0.521834
-0.0214241 1.96555 0.607965
-0.0205552 2.14134 0.505334
-0.019723 2.5654 0.637552
-0.0178618 2.12197 0.664222
-0.017 -0.1 0.763
-0.017 0.2001 0.763
-0.017 -0.1 -0.623
-0.017 0.2001 -0.623
-0.0157474 2.39378 0.650397
-0.0153681 0.2001 0.115157
-0.0134654 2.40198 0.618045
-0.011791 1.37558 0.179549
-0.00263975 2.26002 0.554432
-0.002044 2.32593 0.568696
-0.25939 0.0444697 0.601228
-0.00104908 2.24906 0.643092
-0.000503238 2.32619 0.646668
-0.000854007 2.28605 0.560164
0.000860663 2.27744 0.645094
-0.00219126 1.98436 0.48692
0.0046008 1.98075 0.514856
0.00357468 2.25503 0.599992
0.00301951 2.32883 0.605954
0.00377721 1.96823 0.614958
0.00837816 1.96531 0.643603
0.00459883 2.28941 0.600071
0.0092 1.7515 0.4509
0.0132064 1.48011 0.281474
0.0104 1.5131 0.1356
0.0104 1.268 0.0769
0.0174143 0.709357 0.254994
0.019242 2.1456 0.515953
0.019107 1.54503 0.489087
0.0215991 2.12891 0.653637
0.0236902 1.82081 0.496103
0.0257478 2.2531 0.640796
0.0325123 2.26388 0.561452
0.0269205 1.98298 0.522287
0.0252926 0.806313 0.270711
0.149825 0.2001 0.528431
0.026449 1.97221 0.608786
0.0314757 0.980515 -0.137835
0.0295 1.648 0.3834
0.0301125 1.09153 0.454629
0.0301274 1.27985 0.0883251
0.0312827 1.07089 0.468504
0.0321009 2.27194 0.480346
0.0315 1.6093 0.2284
0.0315 1.4168 0.0428
0.0325944 1.06648 0.447854
0.0360802 1.07945 0.424931
0.0345448 1.08774 0.480941
0.0337417 1.51239 0.543436
0.0355299 1.10774 0.466254
0.0350799 1.09869 0.428739
0.0371881 2.24512 0.71818
0.0341481 1.8539 0.503545
0.0338899 1.23724 0.0461043
0.70114 0.2001 0.269128
0.0348063 1.10974 0.443722
0.0390106 1.05069 0.468213
-0.00054754 0.718464 -0.249372
0.0358697 1.06622 0.481254
0.0417222 1.10264 0.485132
0.0423083 1.12354 0.453292
0.0398434 1.3547 0.160575
0.0422338 1.98821 0.49732
0.0437959 1.05888 0.422363
0.0413014 1.04812 0.446478
0.0414283 1.38319 0.224951
0.141293 0.760493 -0.156748
0.0434529 1.87088 0.509146
0.0437 1.9715 0.6341
0.0447368 1.12578 0.331612
0.0503148 0.88111 0.173787
0.0473722 1.07498 0.404369
0.0450254 1.14426 0.286194
0.0450553 1.05304 0.48627
0.0467334 1.09821 0.39991
0.0455026 1.98326 0.540868
0.0456237 1.11193 0.318697
0.0458962 1.08742 0.495641
0.0461986 1.97729 0.590114
0.0445551 1.40277 0.206948
0.0444218 1.07032 0.494932
0.0475128 1.14556 0.335007
0.0447191 1.12037 0.418414
0.048489 1.11641 0.36359
0.048079 1.83226 0.503571
0.0499873 1.1088 0.293367
0.0486988 2.13612 0.625984
0.0488118 2.14617 0.54506
0.0503314 1.09905 0.359711
0.0456972 1.11624 0.477535
0.0538506 1.04306 0.427103
0.0485238 1.04134 0.471405
0.0508047 1.03778 0.451306
0.0512547 1.17196 0.295366
0.0521391 0.2001 -0.0147037
0.0523282 1.9812 0.565477
0.0559465 1.10273 0.494492
0.0540315 1.09101 0.327144
0.0572317 1.05997 0.401168
0.0556263 1.09984 0.383936
0.0538768 1.13582 0.367584
0.057734 1.1645 0.339218
0.0601756 1.1395 0.445406
0.0585369 1.43514 0.238145
0.0582583 1.03425 0.462374
0.0579271 1.04045 0.480662
0.0536392 1.12963 0.465511
0.0583848 1.08246 0.358736
0.0569664 1.05623 0.495618
0.0580856 1.89476 0.530426
0.0538635 1.0527 0.299853
0.0533422 1.13551 0.425379
0.0592812 1.08334 0.501222
0.0595366 1.08728 0.306045
0.0576449 1.11958 0.38544
0.0670451 1.06934 0.500155
0.0600999 2.14288 0.58482
0.0571871 1.35212 0.295063
0.061783 1.86874 0.527346
0.063235 1.03288 0.442717
0.0618076 1.90425 0.550483
0.0615359 1.18548 0.309356
0.0596949 1.08121 0.383194
0.0597683 1.12223 0.480672
0.0648475 2.26674 0.574782
0.0676343 1.11208 0.489877
0.0730893 1.0448 0.484367
0.0706765 1.03565 0.471262
0.0660417 0.442149 0.0234411
0.0661148 2.26087 0.623647
0.0681759 1.07171 0.345799
0.0693983 1.09763 0.247925
0.068581 1.14631 0.41939
0.0711728 1.07345 0.315739
0.0718856 1.03799 0.421052
0.0772487 1.06062 0.493491
0.0709 1.9887 0.5255
0.0707399 1.13537 0.463727
0.0690813 1.1436 0.384172
0.0728583 1.03198 0.456482
0.0719833 1.58324 0.341212
0.0723 1.9791 0.605
0.0748378 1.17251 0.356775
-0.28882 0.2001 0.198198
0.0728753 1.05341 0.394856
0.0709997 1.09596 0.497016
0.0800779 1.56744 0.365636
0.0767181 1.62821 0.0956612
0.0813711 1.07744 0.27397
0.0774219 1.14636 0.435146
0.076221 1.19565 0.32046
0.078142 1.07982 0.496673
0.0690971 1.25043 -0.00220287
0.0765951 0.443318 0.0112496
0.34973 0.0218059 -0.500793
0.0762172 1.12473 0.477304
0.0762043 1.03265 0.439457
0.0782641 1.1133 0.203306
0.0739191 1.06972 0.37574
0.0867778 1.60395 0.354726
0.0811098 2.26597 0.599229
0.090807 1.24072 -0.0262562
0.0822 1.9854 0.5653
0.0828685 0.988099 0.149391
0.081683 2.27385 0.528796
0.0837555 1.10922 0.486938
0.084793 0.935608 0.160236
0.087411 0.988733 0.179337
0.0851329 1.03399 0.451699
0.0848759 2.25586 0.668117
0.213891 0.0961839 -0.550982
0.0880114 1.06589 0.305268
0.0833199 0.949886 0.13478
0.0893554 1.15184 0.390151
0.0848954 1.03961 0.163998
0.874821 0.107505 -0.0315269
0.0886266 1.06176 0.341676
0.0871 1.9428 0.5756
0.0914585 1.05049 0.397464
0.0869228 1.23005 0.259561
0.0859219 1.0406 0.466859
0.0891719 1.0688 0.222013
0.0897181 1.09059 0.225169
0.0885854 1.05383 0.480063
0.0848681 1.24469 0.33361
0.109071 0.2001 0.676156
0.0908639 0.923897 0.185517
0.0950295 0.8159 0.164397
0.0896749 1.70218 0.171373
0.0911851 1.5657 0.034803
0.0901752 1.32994 -0.0336731
0.0919459 1.06991 0.484655
0.0919924 1.68976 0.308004
0.0925205 1.06326 0.374073
0.100884 1.2082 0.323948
0.0910485 0.855542 0.13871
0.0942834 0.930224 0.111006
0.0900966 1.07782 0.167694
0.0937011 1.03817 0.191802
0.0927027 1.14998 0.420682
0.33905 0.894788 -0.148489
0.0925354 1.17065 0.371073
0.0967487 0.84315 0.185424
0.0971155 1.11598 0.167858
0.10615 1.06434 0.496642
0.0971483 0.999477 0.200977
0.097 0.303 -0.5249
0.0980633 1.25174 0.214841
0.099977 0.866625 0.073235
0.0984385 1.0688 0.197949
0.267116 0.2001 0.536955
0.102706 0.43085 0.127273
0.0994519 1.09861 0.192247
0.798114 0.2001 0.180865
0.102333 1.3576 0.349121
0.10541 0.750646 0.168884
0.102312 2.26863 0.60175
0.10805 1.06091 0.308613
0.100754 0.774026 0.147023
0.110448 1.23573 0.278154
0.1071 1.14921 0.39419
0.105673 1.16475 0.41762
0.10414 0.898321 0.207289
0.105652 0.842456 0.105573
0.121221 1.62657 0.370516
0.103297 1.06904 0.269248
0.107789 1.05694 0.406869
0.108082 1.06539 0.378606
0.108428 1.05967 0.351817
0.108218 1.51821 0.318183
0.106765 0.781106 0.189894
0.109772 0.758615 0.121812
0.108955 0.841588 0.207852
0.109081 1.43793 0.314104
0.110263 1.49428 0.333477
-0.342093 0.0681984 0.0595948
0.704006 0.2001 0.474223
0.115805 1.49289 0.354719
0.11397 1.54491 0.343908
0.0586076 0.048703 -0.295349
0.411816 0.0839426 -0.311462
0.10847 1.14192 0.414905
0.115012 1.52769 0.359125
0.114178 1.80395 0.485117
0.560023 0.2001 0.437941
0.118003 1.45155 0.34615
0.112162 1.24893 0.248789
0.117062 1.13502 0.400215
0.122603 1.01475 0.228672
0.117232 0.694311 0.164053
0.118817 1.07395 0.387844
0.122371 0.75905 0.207833
0.119547 0.492228 0.0437485
0.121687 0.686665 0.137745
0.126639 1.15647 0.383245
0.114579 1.17571 0.370066
0.119896 1.43594 0.238913
0.119238 1.27519 0.182387
0.125829 1.20837 0.329518
0.118388 1.35855 0.289806
0.121705 0.524773 0.0886039
0.121135 0.550898 0.0591049
0.119813 1.07628 0.406166
0.119141 1.12563 0.410521
0.124843 1.46789 0.364832
0.122545 0.444795 -0.00714182
0.127786 1.26831 0.212822
0.122622 0.43999 0.0385036
0.121896 0.571439 0.0890988
0.127958 0.820704 0.22394
0.125812 0.848433 0.0822395
0.123586 1.57404 0.372004
0.1237 -0.1 0.8056
0.1237 0.2001 0.8056
0.127591 -0.1 -0.665986
0.1237 0.2001 -0.6656
0.126345 1.32843 0.302588
0.126866 1.33316 0.255185
0.121208 0.702132 0.18531
0.124377 1.09859 0.406764
0.126269 1.52998 0.380048
0.130722 1.41278 0.35237
0.132122 1.40361 0.25254
0.128053 1.11443 0.400503
0.127192 1.08735 0.39411
0.125426 1.47498 0.276527
0.124747 1.8748 0.531291
0.126068 0.751146 0.101518
0.124296 0.447033 -0.0287165
0.123962 0.534687 0.0289782
0.1267 0.589 0.1268
0.132833 1.23295 0.292301
0.114034 1.0688 0.217
0.128536 1.06172 0.317365
0.124496 0.913679 0.229419
0.1281 1.0682 0.3668
0.128463 1.74953 0.449615
0.128785 0.2001 -0.0800669
0.127001 0.601434 0.0813636
0.129986 0.481368 0.0925073
0.132032 1.39715 0.20154
0.131833 0.437033 0.0657136
0.130979 0.54167 0.127721
0.131356 0.583886 0.0422252
0.136275 0.594795 0.154444
0.130902 0.292367 -0.0203636
0.134771 0.711938 0.207562
0.13122 0.698344 0.113103
0.126825 1.06816 0.26087
0.136311 1.56607 0.393531
0.141074 1.31021 0.31731
0.138181 1.34851 0.23706
0.132952 1.13196 0.394029
0.137304 0.2001 -0.00871697
0.135486 0.640727 0.144995
0.128377 0.945633 0.0688725
0.137177 0.62422 0.158187
0.132623 0.487301 -0.0280886
0.146149 1.17409 0.359879
0.133468 0.635001 0.100862
0.138623 0.659738 0.123101
0.143028 1.48017 0.388043
0.1375 1.7686 0.2314
0.1375 1.4965 -0.031
0.136325 1.25242 0.25657
0.141551 0.771903 0.226788
0.139613 1.08227 0.376313
0.148969 1.44078 0.243566
0.135151 1.28156 0.285264
0.137996 0.620187 0.0597045
0.14191 1.26324 0.234486
0.136368 0.549799 0.00506727
0.141755 1.53539 0.397872
0.154126 1.39117 0.367206
0.60572 0.263666 -0.0737216
0.141351 1.28913 0.144718
0.138471 0.97729 -0.213823
0.142953 1.1172 0.388751
0.146317 1.8404 0.440194
0.146739 1.91419 0.249922
0.148389 1.28428 0.181819
0.143109 0.24843 -0.0829964
0.142049 1.09948 0.386549
0.144224 1.24145 0.277021
0.144613 0.567417 0.16322
0.143679 0.512049 0.137425
0.145977 0.512906 -0.0345772
0.15037 0.598145 0.0179345
0.142664 0.77198 0.0828289
0.142934 0.434374 0.0899576
0.143299 0.900128 0.0656196
0.146772 0.672026 0.107779
0.147013 1.77437 0.236964
0.146028 1.35255 0.158487
0.151835 1.56894 0.409105
0.157907 1.33139 0.344711
0.147113 1.25841 0.293267
0.161161 1.3596 0.217927
0.13846 0.66151 0.19173
0.141026 0.29828 0.0238795
0.147028 0.247189 -0.0424582
0.148074 0.424034 0.182951
0.148369 1.07006 0.325854
0.140559 1.1911 0.346915
0.154436 0.674442 0.212255
0.14975 0.8403 0.24
0.151415 0.840153 0.0674919
0.1505 1.0688 0.2845
0.141233 1.22115 0.309556
0.146217 0.652525 0.0791936
0.163075 1.90505 0.46387
0.165613 1.81845 0.400315
0.149201 1.95948 0.302742
0.143271 1.84111 0.234739
0.153119 0.201717 0.0407758
0.142387 1.0688 0.236416
0.148456 0.619652 0.181182
0.15559 0.251641 -0.0110074
0.151745 1.61089 0.407546
0.148386 1.01012 0.244353
0.150066 1.14266 0.376606
0.156416 1.27397 0.213329
0.153345 0.93301 0.246692
0.155694 1.19956 0.330434
0.156719 0.680388 0.0942856
0.157418 1.65758 0.389746
0.158487 0.468357 0.129403
0.155195 0.564345 -0.0120494
0.158721 1.9298 0.567158
0.165941 1.47981 0.404037
0.155088 0.983531 0.0555497
0.164263 1.26408 0.315864
0.182773 1.37512 0.378065
0.160378 0.631851 0.200755
0.167417 1.42068 0.226329
0.163242 0.561659 0.1819
0.157448 0.63861 0.0443441
0.198521 0.192699 -0.114409
0.164011 0.766273 0.237517
0.158529 1.70218 0.418813
0.157642 0.432577 0.105399
0.167603 1.65636 0.407844
0.169046 1.17223 0.343498
0.164566 1.0876 0.338474
0.166978 1.2916 0.16073
0.16546 0.260579 0.0134152
0.157645 1.11191 0.371218
0.165746 1.24776 -0.0745161
0.166465 1.2249 0.294309
0.174013 1.56175 0.423626
0.171162 1.31943 0.205667
0.163119 0.513206 0.1593
0.17063 0.60567 0.00401585
0.173662 1.78179 0.207988
0.16686 0.520935 -0.0487431
0.165318 1.04246 0.248662
0.169917 1.60582 0.421528
0.179015 0.701898 0.229959
0.171838 0.691456 0.0871195
0.164402 1.29582 0.128679
0.166905 0.285556 0.0450486
0.168475 1.70893 0.0776248
0.175199 0.741298 0.0751579
0.173844 2.00151 0.613972
0.170103 0.6744 0.0677006
0.173871 0.261686 0.0265084
0.172955 1.10945 0.34703
0.176067 1.69447 0.383147
0.178302 1.13715 0.349176
0.178953 1.28183 0.196288
0.177378 0.2001 0.0825969
0.178259 0.652718 0.216732
0.179656 1.24207 0.31664
0.175563 1.03053 0.0498838
0.1786 1.0021 0.2545
0.182349 1.65659 0.42107
0.189388 1.2926 0.346795
0.183076 0.921785 0.254435
0.179182 1.23855 -0.0822622
0.181271 0.910825 0.0146752
0.1798 0.5947 0.2046
0.182872 0.836085 0.249852
0.185502 0.820739 0.0603523
0.202856 1.95053 0.441628
0.168217 1.75057 0.403789
0.178168 2.00073 0.319074
0.185954 1.82237 0.188605
0.17982 1.75192 0.117366
0.1815 1.6725 0.0381
0.1815 1.2807 -0.0884
0.182529 1.75961 0.33231
0.182725 1.2103 0.299116
0.183176 0.470051 0.145897
0.178414 0.560511 -0.0316231
0.183957 1.74605 0.361657
0.18292 1.0688 0.249729
0.196295 1.43173 0.403078
0.18264 0.547874 0.187583
0.17683 0.645305 0.0322554
0.184877 1.68491 0.407193
0.185033 0.269187 0.0389607
0.195327 1.50303 0.423557
0.186948 1.69832 0.40133
0.1886 1.0688 0.3572
0.192189 1.19555 0.357949
0.188858 1.29178 0.155711
0.187147 1.73295 0.38953
0.189658 1.29576 0.128794
0.192101 0.969928 0.0483845
0.192701 0.698141 0.0802399
0.193562 1.0813 0.0486565
0.186722 1.29791 0.108016
0.202954 1.55776 0.435653
0.194049 1.32015 0.193977
0.185693 0.532204 -0.0535419
0.187819 0.506478 0.169219
0.195741 0.606927 -0.00612761
0.194327 1.80505 0.331242
0.19105 0.772921 0.243803
0.189676 0.678556 0.0587873
0.194462 1.1974 0.298369
0.194091 1.78579 0.368775
0.197931 1.27922 0.186328
0.204687 1.81963 0.303265
0.19776 1.60506 0.43695
0.205641 1.24178 0.329655
0.206426 1.6867 0.425138
0.205913 0.682669 0.228359
0.213493 1.36155 0.384337
0.200988 1.15711 0.0635053
0.200914 0.588153 0.208129
0.204424 1.03296 0.254605
0.204858 0.74941 0.0699327
0.202114 0.2001 0.34748
0.19776 0.630154 0.219484
0.202576 0.430072 0.124214
0.198249 1.79421 0.290021
0.204515 1.64865 0.435778
0.202681 0.272161 0.0476916
0.2052 0.4216 0.2045
0.2052 0.2001 0.09664
0.204807 0.529061 -0.0582054
0.210508 1.78539 0.145857
0.2064 1.6387 0.0056
0.210992 1.45666 -0.0709811
0.207859 0.2001 0.323544
0.2086 0.535651 0.187437
0.211448 0.472078 0.15234
0.2086 0.683029 0.0589732
0.202779 0.648284 0.0261644
0.201321 0.572871 -0.0306722
0.209583 0.2001 0.372245
0.208187 1.28955 0.136969
0.211621 1.96725 0.591609
0.212666 0.700918 0.0808055
0.215512 0.811505 0.247676
0.220255 0.820585 0.060542
0.22071 1.11512 0.0574357
0.213543 0.890076 0.253436
0.21261 0.900481 0.0520927
0.214123 1.03472 0.048135
0.212505 0.965696 0.255411
0.215421 1.27205 0.179821
0.215664 1.81365 0.271627
0.216352 1.85188 0.330377
0.204052 1.40207 0.206279
0.217611 1.72199 0.400482
0.558131 0.767537 0.0680198
0.224938 1.30554 0.365279
0.214041 1.28063 0.160454
0.228981 1.73102 0.379651
0.220001 0.6299 0.219339
0.216969 0.745934 0.239489
0.233395 1.14398 0.0662379
0.220868 1.19862 0.311483
0.22182 0.586775 0.206928
0.226497 1.7162 0.4178
0.227844 0.5151 -0.0671509
0.227292 0.430915 0.122647
0.22694 0.658255 0.0381121
0.241985 1.97654 0.421014
0.230019 1.60644 0.446446
0.216292 2.02869 0.374886
0.222652 1.28421 0.122335
0.22502 1.17766 0.0619372
0.213771 1.0688 0.250357
0.225241 0.271224 0.0376741
0.22839 0.976622 0.0501215
0.224061 0.59907 -0.0112779
0.219435 0.559624 -0.0383757
0.234105 1.6863 0.437349
0.227003 0.2001 0.389301
0.224619 0.2001 0.301984
0.227084 1.80035 0.168686
0.2294 1.45915 0.42135
0.234086 1.27435 0.0830718
0.231412 1.50694 0.434298
0.234132 0.684221 0.223363
0.230398 0.737764 0.0764276
0.236122 1.25529 0.173007
0.235963 0.697934 0.0866086
0.232872 0.541392 0.185029
0.240939 1.5625 0.445253
0.233122 0.2001 0.0825969
0.229331 1.27388 0.14567
0.232138 0.488702 0.157752
0.237031 0.457978 0.13692
0.236492 1.27464 0.100982
0.235326 1.02297 0.250627
0.239446 1.19112 0.0612446
0.231677 0.682211 0.0645488
0.23735 1.23435 0.3356
0.239446 1.29578 0.177211
0.237285 1.17728 0.0782431
0.24074 0.635085 0.211776
0.237751 0.2001 -0.0838
0.244384 1.25822 0.0749395
0.244524 0.623768 0.0173179
0.246628 1.80316 0.161353
0.241786 1.38973 0.194388
0.244972 0.543809 -0.0385919
0.24701 1.26 0.108289
0.2436 1.6162 -0.0162
0.247131 1.64475 0.448434
0.244329 0.59267 0.199251
0.244513 1.81454 0.243219
0.235442 1.88441 0.307108
0.240507 0.845339 0.245838
0.252585 0.834734 0.0682318
0.240615 0.49116 -0.0744421
0.23323 0.2001 -0.261164
0.247893 0.432055 0.112775
0.245682 0.265408 0.00528276
0.243392 1.3634 0.391468
0.247653 1.21839 0.0651664
0.247639 1.24877 0.151521
0.240094 0.917631 0.249855
0.245578 0.923223 0.0568679
0.24675 1.03418 0.0548987
0.247318 0.966783 0.24842
0.253223 0.973087 0.0580797
0.247797 1.1974 0.0765381
0.246622 1.7354 0.401606
0.24779 0.7629 0.233481
0.248992 0.2001 -0.102667
0.248785 1.24236 0.0701644
0.244731 1.0688 0.246015
0.250392 0.6638 0.0597026
0.253369 0.690956 0.0978033
0.25227 0.2001 0.294876
0.255135 0.663781 0.204314
0.254174 1.2431 0.0933492
0.26815 0.3103 0.0276463
0.253666 0.2001 0.395269
0.2544 1.712 0.4315
0.254532 1.1974 0.0972314
0.253618 1.24626 0.120145
0.256103 0.55722 0.17839
0.254796 0.2001 -0.127365
0.254323 1.8901 0.292477
0.255527 1.22182 0.0854631
0.251628 0.713379 0.221794
0.254534 0.452258 -0.0845602
0.263886 1.19865 0.320321
0.25602 1.23252 0.14081
0.256199 0.22303 -0.0838
0.26526 0.600087 0.0174923
0.258968 1.13019 0.0737193
0.254996 0.512678 0.158405
0.260484 0.755038 0.0856733
0.257648 0.2001 0.041784
-0.358707 -0.1 0.0202822
0.255731 0.466172 0.1302
0.255707 0.567964 -0.0156685
0.251744 1.72825 0.416241
0.259335 1.21542 0.112144
0.267123 1.68218 0.444532
0.261295 0.613698 0.190015
0.2624 0.4232 0.1833
0.26194 0.255469 -0.0517652
0.269866 0.658646 0.182814
0.266608 1.59983 0.451153
0.265898 1.21745 0.165188
0.267975 1.21698 0.136131
0.267323 0.68067 0.11446
0.26923 0.656066 0.0799342
0.265717 1.74092 0.384371
0.26798 0.432547 0.0938613
0.267607 0.936708 0.238644
0.266475 1.01648 0.0636157
0.267987 0.246717 -0.0838
0.277438 0.301965 -0.0202395
0.266756 0.241697 -0.123344
0.267957 1.0688 0.23392
0.269026 1.1974 0.112967
0.27 -0.1 0.82
0.27 0.2001 0.82
0.27 -0.1 -0.6801
0.27 0.2001 -0.6801
0.266967 0.498605 -0.0465875
0.273623 0.489531 0.124381
0.277276 0.561946 0.0074532
0.268261 0.875342 0.234712
0.270372 0.7742 0.22131
0.273714 0.558146 0.157778
0.27278 0.287733 -0.117066
0.274019 1.06818 0.0724102
0.274701 0.656565 0.162091
0.277542 1.82141 0.24038
0.276891 0.616684 0.166268
0.270944 2.02118 0.626766
0.275 1.98053 0.600249
0.272415 1.98231 0.48043
0.278557 2.0369 0.426364
0.275 1.89279 0.286282
0.274429 1.98657 0.247515
0.283839 1.804 0.159348
0.275 1.25747 0.0668025
0.275 2.066 0.0625
0.275 0.8649 -0.0198
0.275 0.451797 -0.0898201
0.275 1.23954 -0.101349
0.275 0.2001 -0.132482
0.279415 1.0051 -0.227596
0.275 0.3146 -0.5552
0.275372 0.2001 -0.0213905
0.275495 0.66791 0.13486
0.275739 0.710207 0.199996
0.276242 0.2001 0.300909
0.276773 1.72938 0.420327
0.273151 0.449164 -0.0644321
0.273852 0.201787 0.389645
0.278182 0.288634 -0.0870847
0.279962 0.648217 0.102071
0.278153 1.1974 0.163847
0.275937 1.55713 0.447783
0.26735 1.50695 0.43837
0.269363 1.43049 0.416657
0.279539 1.73959 0.403463
0.277846 1.31706 0.376337
0.281373 1.2432 0.343905
0.278984 0.465594 0.198212
0.275278 1.26445 0.169565
0.278379 0.294549 -0.0571107
0.279144 1.19749 0.138574
0.274786 1.38599 0.190769
0.279952 0.59829 0.0404004
0.283754 0.710503 0.125465
0.278632 0.828215 0.0854571
0.288996 1.7066 0.435473
0.282099 0.2001 -0.0838
0.282434 1.74105 0.388762
0.28602 0.505288 0.110178
0.283862 0.629429 0.141141
0.278525 0.527897 -0.0119106
0.284872 0.435326 0.0656636
0.286953 0.702568 0.173368
0.280816 0.920375 0.0766618
0.289379 0.7968 0.206317
0.279927 0.758224 0.101529
0.288331 0.701806 0.149563
0.287872 0.584547 0.134987
0.28684 0.612844 0.0767587
0.287021 1.03268 0.222803
0.286939 1.01897 0.0784572
0.288109 1.0688 0.21654
0.285122 0.633828 0.117936
0.289137 1.76424 0.377801
0.2876 1.825 0.2858
0.250623 1.30696 0.114547
0.2876 1.7404 0.0683
0.2876 1.6082 -0.0239
0.285474 1.43964 -0.0850321
0.30313 1.22873 -0.101455
0.2876 1.2616 -0.1068
0.291048 1.88936 0.288272
0.2883 1.0688 0.378
0.292435 1.1974 0.377137
0.2883 1.0688 0.0676
0.2883 1.1974 0.0676
0.288431 0.445943 -0.0349252
0.289282 0.463814 0.287963
0.289338 0.465503 0.0883943
0.285225 1.63339 0.450966
0.286366 0.477163 -0.0254311
0.291816 0.543516 0.0287736
0.291927 0.599274 0.105508
0.291175 0.917013 0.218952
0.294004 0.565156 0.104649
0.297464 0.439236 0.0271109
0.295653 0.2001 0.31606
0.290599 0.858719 0.214286
0.295817 0.443171 -0.00978846
0.0359746 1.23916 0.271896
0.296655 0.544867 0.0632745
0.306155 1.73774 0.386886
0.296394 0.2001 0.36841
0.296713 0.509447 0.0744315
0.295976 0.464425 0.00921342
0.296456 0.7624 0.184039
0.297108 0.762903 0.128424
0.296395 0.498148 0.0267956
0.301569 1.72932 0.416353
0.299886 1.0688 0.0983411
0.301293 0.857332 0.108178
0.302855 0.930981 0.0999077
0.30001 1.03948 0.093245
0.300217 0.427732 0.136264
0.301859 1.0688 0.199336
0.297532 0.981155 0.0899233
0.302796 0.766299 0.154892
0.302382 0.431368 0.101463
0.302451 0.2001 0.343055
0.304304 1.00907 0.20426
0.302168 0.966539 0.20748
0.305464 1.81897 0.246592
0.295129 1.19951 0.320589
0.304442 0.839262 0.191987
0.307687 0.971265 0.239538
0.304759 0.940176 0.202445
0.303077 1.67562 0.444172
0.301088 1.5863 0.449249
0.307017 1.88745 0.301187
0.312574 1.38906 0.193729
0.308888 0.888881 0.229952
0.309183 0.41537 0.101155
0.31175 1.73481 0.401068
0.309566 0.859215 0.270729
0.30931 1.04481 0.192606
0.314612 1.01567 0.231687
0.311107 0.919156 0.19454
0.301096 1.37767 0.398115
0.309716 0.83411 0.133403
0.298542 1.47859 0.430456
0.313189 0.855735 0.302949
0.315218 0.836151 0.259329
0.312836 1.0688 0.175347
0.312644 0.943985 0.270421
0.297687 1.23815 0.167797
0.313842 0.861977 0.163752
0.313709 1.06647 0.124229
0.315187 0.910481 0.12901
0.315083 1.03467 0.122645
0.313377 1.70481 0.431552
0.316891 0.928079 0.174989
0.314404 1.1974 0.165788
0.318256 0.999855 0.12802
0.314979 1.30057 0.177607
0.318887 0.912941 0.154002
0.319898 0.946868 0.155555
0.319786 0.793451 0.313929
0.325188 0.465162 0.392952
0.3221 0.4652 -0.0055
0.324898 1.06832 0.0974738
0.319565 0.817398 0.327054
0.326196 0.869723 0.201812
0.324602 0.876678 0.322971
0.326135 0.830693 0.235239
0.323844 1.8699 0.319887
0.324216 1.63316 0.446157
0.000730885 0.2001 0.615876
0.32274 1.97139 0.494044
0.331695 2.02984 0.346483
0.326616 1.80775 0.167681
0.328085 0.44042 0.0127081
0.331501 0.798082 0.359481
0.328157 0.770074 0.295505
0.328982 0.519795 0.275564
0.330457 1.01897 0.254628
0.322638 1.81747 0.260614
0.329787 0.465086 0.259884
0.3298 0.507 0.3032
0.347132 1.80464 0.182885
0.329685 1.71314 0.420095
0.333313 0.570659 0.338459
0.3325 0.954737 0.295662
0.330169 0.5607 0.304695
0.330568 1.6097 -0.0186789
0.3344 1.72932 0.383672
0.322682 1.23704 0.336124
0.331199 0.465042 0.227892
0.334154 0.417061 0.0286699
0.337708 0.617618 0.330201
0.332848 0.465068 0.285901
0.332981 0.511554 0.245158
0.338191 1.8142 0.280074
0.33959 0.610617 0.362936
0.339303 0.532727 0.35041
0.336178 0.579146 0.278879
0.343275 1.82865 0.348205
0.334843 0.934876 0.143107
0.336529 1.09385 0.0776619
0.332591 1.6793 0.436236
0.332121 1.1974 0.313803
0.335477 0.740246 0.366675
0.341368 1.71545 0.408396
0.3382 0.7189 0.3518
0.338379 1.96725 0.591609
0.338595 1.0688 0.0780927
0.315794 1.55026 0.443909
0.330099 1.30221 0.364097
0.329543 1.0688 0.219075
0.343483 0.580531 0.375999
0.340788 0.464996 0.313066
0.340329 1.13828 0.0784545
0.339055 0.329084 0.163283
0.341745 0.908689 0.329796
0.346275 0.827476 0.210942
0.336826 1.49493 0.429003
0.342593 0.755086 0.384736
0.348346 0.707576 0.33114
0.346192 0.649536 0.371265
0.345393 1.39603 0.200457
0.343646 0.52301 0.220249
0.345036 0.774242 0.259539
0.347207 0.646522 0.324205
0.342551 0.464916 0.189019
0.339016 1.59859 0.443179
0.344211 0.2001 0.190136
0.347161 0.30491 0.20043
0.349353 1.28422 0.0926042
0.351013 0.634151 0.395964
0.348364 0.316617 0.127542
0.349693 0.444917 -0.020737
0.345605 1.1974 0.177148
0.349143 0.818177 0.376923
0.353531 1.79775 0.297836
0.351769 0.2001 0.275107
0.351867 0.2001 0.102087
0.345171 1.33619 0.19055
0.352724 0.448941 -0.0705501
0.353956 0.464836 0.338542
0.355907 0.558559 0.39092
0.354944 1.79141 0.367019
0.354366 1.64629 0.43494
0.353071 1.12485 0.0574105
0.339285 0.337108 0.254256
0.3547 1.0345 0.2682
0.351362 0.932238 0.129572
0.355745 0.680718 0.363486
0.354438 0.519198 0.372057
0.355406 0.505298 0.190023
0.355037 0.253167 0.131743
0.360503 1.0688 0.248427
0.354837 0.984346 0.298848
0.354375 0.681183 0.388295
0.357248 0.620717 0.268548
0.352852 1.2742 0.183748
0.356622 0.273116 0.101515
0.354439 0.982056 0.0970682
0.356744 1.8029 0.331729
0.359745 0.713135 0.305351
0.361018 1.75402 0.381236
0.353722 1.68634 0.423036
0.36215 0.684784 0.33962
0.359602 0.604157 0.409155
0.358552 1.1974 0.300507
0.3524 0.713735 0.401125
0.361119 1.18179 0.082792
0.360833 0.239084 0.145036
0.362301 0.75131 0.409546
0.362855 0.229162 0.100859
0.363631 1.70065 0.400956
0.364317 1.1974 0.0834591
0.364481 1.75066 0.364695
0.361548 0.316987 0.0931342
0.361033 0.666321 0.312228
0.365031 0.261966 0.18585
0.365454 0.675804 0.416479
0.363732 1.77139 0.333427
0.364463 0.738017 0.273818
0.357232 1.55364 0.433932
0.363732 0.877575 0.158887
0.366506 1.24422 0.32349
0.365127 0.464711 0.156837
0.368 0.5657 0.2128
0.367273 0.223869 0.0746906
0.367318 0.495099 0.372794
0.367563 1.70344 0.388111
0.366434 0.26575 0.225885
0.368651 1.78609 0.147686
0.3688 1.6387 0.0056
0.367763 1.4548 -0.071277
0.373794 0.906769 0.352666
0.385423 1.99173 0.355833
0.372633 0.818358 0.198493
0.367381 0.65178 0.42458
0.372024 0.281872 0.0735827
0.371432 1.68321 0.409244
0.3691 1.9408 0.506
0.382759 1.72518 0.408599
0.368349 0.2001 0.344786
0.372114 0.2001 0.0247008
0.374696 0.614042 0.242927
0.363856 0.317699 0.297976
0.368395 0.873547 0.0058294
0.370453 0.464603 -0.0634097
0.369257 0.464647 0.356085
0.3706 0.4646 0.4496
0.363478 1.39865 0.390981
0.370493 0.707511 0.42379
0.367676 1.48465 0.416577
0.379623 1.79265 0.208516
0.37726 0.838128 0.387077
0.37977 1.0227 0.288207
0.367854 1.1974 0.189498
0.378896 0.586942 0.423133
0.374429 0.4999 0.16755
0.373779 2.00199 0.614285
0.374146 0.270653 0.260362
0.368268 1.31948 0.358609
0.372871 1.66286 0.419488
0.380338 1.62671 0.422809
0.369335 1.60662 0.431825
0.371125 1.30662 0.196448
0.369414 1.00679 0.0771308
0.378661 0.244764 0.0595055
0.379585 0.684034 0.435727
0.375945 1.04643 0.0578991
0.387997 0.774868 0.417011
0.375045 0.687925 0.318198
0.378051 0.633433 0.433788
0.383592 1.674 0.400456
0.384419 1.6979 0.415344
0.385316 0.464864 0.367879
0.385673 0.464442 -0.0595835
0.385808 1.23105 -0.0832637
0.377877 0.648527 0.270154
0.380679 1.1974 0.284531
0.386142 0.452169 -0.0615425
0.387759 0.708505 0.435465
0.385315 0.96241 0.326472
0.392073 1.0688 0.354026
0.388714 1.1974 0.355314
0.385436 0.280822 0.291441
0.389392 1.19773 0.209681
0.389533 0.464439 0.138885
0.383529 1.5837 0.423977
0.378027 1.36339 0.208424
0.392384 1.64466 0.411663
0.391285 1.9298 0.567175
0.395505 0.270129 0.0517185
0.396112 0.717946 0.2757
0.391152 1.75566 0.118335
0.3937 1.6725 0.0381
0.395988 1.27593 -0.0863838
0.389536 0.301936 0.064578
0.392214 0.307629 0.325713
0.39475 0.67545 0.4483
0.394181 1.61824 0.414632
0.393834 0.2001 -0.102275
0.390908 1.53231 0.415183
0.391985 1.37196 0.366856
0.39615 0.68455 0.2942
0.396178 1.1974 0.22142
0.392029 1.27103 0.205791
0.396292 0.2001 0.397201
0.395128 0.201984 -0.0155677
0.396476 0.286326 0.310583
0.39651 1.1974 0.259111
0.405418 1.2261 -0.074748
0.38694 1.97072 0.274144
0.394054 1.85446 0.218971
0.393433 0.918233 0.118588
0.388606 1.89685 0.455979
0.384053 1.79803 0.399515
0.397973 0.691039 0.301413
0.398063 1.0688 0.263247
0.390725 1.45604 0.397155
0.39398 0.8569 0.160867
0.404062 0.96217 0.0891474
0.400792 1.00465 0.0659465
0.411813 1.66208 0.392662
0.402 0.908822 0.360606
0.404123 0.806784 0.196463
0.400087 0.642658 0.447621
0.399593 1.1974 0.242931
0.386792 1.41971 0.223261
0.389143 1.1974 0.130468
0.40079 0.505067 0.397956
0.398006 0.508253 0.159825
0.398848 0.701884 0.446557
0.400542 0.640865 0.249906
0.402347 0.839581 0.394675
0.405646 1.62163 0.417902
0.400644 1.71678 0.0805638
0.402747 1.34866 0.154725
0.401934 0.591303 0.436063
0.40438 1.2025 0.119216
0.402433 0.7308 0.434599
0.407576 1.90546 0.255148
0.396354 1.84632 0.428569
0.412056 0.29341 0.326015
0.410721 0.673259 0.453438
0.405814 1.00108 -0.203911
0.409079 0.464196 0.374838
0.406357 1.57722 0.407677
0.398285 1.33171 0.34519
0.396771 1.24314 0.30029
0.40408 1.34805 0.222541
0.404873 1.25321 0.220129
0.410178 1.0212 0.296062
0.410006 1.78466 0.243975
0.409067 0.300329 0.0565515
0.413404 0.779603 0.420467
0.416688 0.719552 0.444961
0.414306 0.464551 0.132566
0.4146 0.7026 0.4514
0.415438 -0.0993392 0.805685
0.4163 0.2001 0.8056
0.4163 -0.1 -0.6656
0.4163 0.2001 -0.6656
0.412171 1.5216 0.398627
0.414597 1.39991 0.360704
0.409621 1.39794 0.236066
0.418951 1.59344 0.390721
0.420324 0.743874 0.433054
0.416325 1.26351 0.282663
0.417366 1.27018 0.238368
0.411658 1.44525 0.247841
0.412883 0.546532 0.420217
0.426995 0.507537 0.400208
0.417344 0.66169 0.265955
0.424443 0.541747 0.178009
0.414892 1.3926 0.197156
0.419251 1.1974 0.132202
0.416983 1.46461 0.380968
0.416695 0.693141 0.295518
0.419938 1.25934 0.25865
0.42613 0.717929 0.271679
0.426441 0.856247 0.15799
0.423982 0.911866 0.119339
0.422996 0.832964 0.399454
0.420089 0.970935 0.327821
0.417909 1.74429 0.446212
0.428369 0.666343 0.452379
0.423228 1.55159 0.389467
0.41587 1.32422 0.324996
0.422342 1.34915 0.24164
0.422661 0.627607 0.447477
0.422582 1.87913 0.53411
0.425423 0.2984 0.329983
0.427813 1.46924 0.270929
0.421927 0.406951 -0.0374083
0.439549 1.74237 0.281813
0.428062 1.06727 0.266024
0.435156 0.724684 0.437582
0.427717 0.464001 0.470769
0.4279 0.2001 0.414315
0.4279 0.302627 0.0508972
0.42993 0.2001 -0.035672
0.432813 0.701901 0.448478
0.430569 1.43234 0.238515
0.431583 0.46396 0.374012
0.427669 0.906068 0.363394
0.429735 1.51479 0.378786
0.42855 1.38189 0.336164
0.432795 0.58377 0.433541
0.432989 0.675413 0.281796
0.432632 1.33892 0.303282
0.42864 1.31849 0.254959
0.435282 1.56591 0.366378
0.434989 1.4256 0.270708
0.437572 0.542714 0.415463
0.429368 0.634879 0.243932
0.434434 1.47405 0.363863
0.435039 1.81467 0.492111
0.444068 0.500739 0.158118
0.68237 0.510995 -0.0453895
0.436705 1.34295 0.283085
0.4376 1.7686 0.2314
0.442162 1.50073 -0.0255987
0.438399 1.433 0.345006
0.632911 0.347233 0.102278
0.442448 1.1974 0.176997
0.444051 0.844246 0.391424
0.450749 0.67279 0.441447
0.438212 0.964374 0.0878526
0.441542 0.689658 0.301741
0.442017 1.51207 0.35555
0.437393 0.463899 0.135076
0.442566 1.41265 0.319277
0.437168 0.79744 0.203531
0.449385 0.510626 0.395039
0.442246 1.54615 0.345114
0.446112 1.51102 0.311216
0.445076 1.39592 0.300908
0.450923 0.870601 0.151729
0.443797 1.47727 0.344848
0.44225 1.02736 0.291214
0.444362 0.772551 0.420686
0.450099 1.48536 0.320081
0.447839 0.633666 0.440748
0.448114 0.463787 0.368105
0.449478 1.36626 0.346231
0.453176 0.295752 0.315957
0.447605 0.642451 0.257016
0.45254 0.870311 0.078862
0.4518 0.2987 0.0629
0.449846 0.580451 0.210247
0.452123 1.0688 0.260695
0.453 0.303 -0.5249
0.456492 0.587618 0.423478
0.452969 0.670434 0.288666
0.46142 0.927256 0.116489
0.450036 0.984434 0.31577
0.459993 1.28267 0.339009
0.457979 0.551772 0.409483
0.4575 0.705 0.435
0.466851 0.520372 0.184296
0.459408 0.2001 0.397201
0.46205 0.2001 -0.0147595
0.459435 0.463697 0.146557
0.458033 0.728682 0.269535
0.459214 1.1974 0.209359
0.4609 1.0688 0.3004
0.4609 1.1974 0.3004
0.470841 1.46866 0.272185
0.4629 1.9428 0.5756
0.457417 0.898249 0.361561
0.468133 0.644098 0.276721
0.46258 0.685095 0.317197
0.467917 0.46358 0.354097
0.465738 1.70264 0.315573
0.468597 0.512432 0.382589
0.46776 0.648327 0.425242
0.469972 0.58756 0.231209
0.470365 0.708362 0.29812
0.46857 0.835543 0.386471
0.468292 0.28778 0.289058
0.463573 0.384358 -0.00852297
0.469959 1.1974 0.274072
0.466846 0.611589 0.421416
0.472234 0.276828 0.0854178
0.470883 0.817968 0.199516
0.471895 0.760787 0.412781
0.476954 0.682902 0.336734
0.476778 0.662482 0.408547
0.484355 0.893044 0.148476
0.476 0.2984 0.0931
0.474585 0.86014 0.169378
0.478171 1.11664 0.250203
0.476935 0.561569 0.396398
0.474351 0.690989 0.422133
0.472685 1.03157 0.278184
0.480729 0.46345 0.168179
0.478451 1.21784 -0.0262437
0.478559 1.0688 0.249077
0.482917 0.612329 0.269447
0.485609 0.611363 0.394412
0.482828 0.261905 0.109252
0.484038 0.506747 0.360321
0.480357 0.536297 0.209062
0.480662 0.464554 0.0231214
0.482857 0.27683 0.235544
0.483226 0.671435 0.372373
0.481978 1.07921 0.239141
0.4836 1.6909 0.307
0.4836 1.7062 0.1712
0.4836 1.5589 0.0292
0.482014 1.34086 -0.0356345
0.484516 0.645501 0.308469
0.485991 0.748967 0.270454
0.486967 0.38716 0.0151084
0.483364 0.46343 0.334681
0.485 0.4634 0.4496
0.48595 0.68205 0.3997
0.486118 0.2001 0.34826
0.486118 0.2001 0.0293404
0.486423 0.274936 0.195391
0.491219 0.712716 0.318848
0.47839 0.97193 0.311662
0.487275 0.290684 0.135272
0.49215 0.553703 0.367399
0.489304 1.60045 0.352421
0.486655 1.37545 0.300578
0.494425 0.603293 0.288513
0.484723 0.882736 0.355348
0.492739 0.628553 0.371902
0.490778 0.646859 0.340441
0.491394 0.828736 0.374072
0.489871 0.564536 0.243335
0.493127 0.463302 0.19019
0.494404 1.43033 0.233509
0.4954 0.7457 0.39315
0.496311 0.495998 0.330421
0.495868 0.463325 0.309073
0.498407 1.00476 0.277155
0.501413 0.597615 0.33764
0.498868 0.578669 0.355379
0.497861 0.2001 -0.0147037
0.508517 0.323522 0.176823
0.492343 1.20153 -0.01559
0.500531 0.533296 0.338351
0.4997 1.5646 0.3629
0.498591 1.63767 0.105092
0.49513 0.793784 0.238695
0.501718 0.715128 0.345994
0.502521 0.2001 0.280913
0.502955 0.874917 0.180107
0.502315 0.55227 0.270698
0.504029 0.378589 0.0450355
0.510799 0.816516 0.354481
0.505108 0.768897 0.276179
0.504925 0.2001 0.115905
0.503704 0.465351 0.224328
0.505056 0.972889 0.29082
0.505132 0.463207 0.2703
0.5054 0.8524 0.1745
0.505282 0.501802 0.301739
0.506145 0.553216 0.310342
0.506613 0.506617 0.270333
0.5075 1.3952 0.2229
0.508291 1.19135 0.00303038
0.51022 0.2001 0.189464
0.50605 0.2001 -0.256928
0.514992 1.24255 0.0523683
0.511775 0.463136 0.0844528
0.507532 0.87951 0.335884
0.515452 0.773356 0.297316
0.51792 0.828418 0.241024
0.517638 0.934484 0.296477
0.5193 0.7949 0.3401
0.519969 1.28489 0.0931694
0.519047 0.776127 0.320533
0.521251 1.85117 0.515904
0.519723 1.65105 0.385388
0.521172 0.969999 -0.141345
0.520279 0.815702 0.259997
0.523717 0.81707 0.271656
0.525691 0.8861 0.303719
0.530152 0.739623 0.25998
0.526415 0.841785 0.312653
0.53035 0.960988 0.259177
0.53051 0.846479 0.262535
0.530065 0.838058 0.28801
0.535249 0.462878 0.384199
0.528755 0.387135 0.0948914
0.539199 0.906273 0.249552
0.539474 0.462792 0.135708
0.540696 1.75203 0.451247
0.5437 1.6093 0.2284
0.5437 1.4168 0.0428
0.545384 0.409626 0.132834
0.551836 0.462684 0.20941
0.551268 0.411241 0.18042
0.555313 0.419372 0.202123
0.557 -0.1 0.763
0.557 0.2001 0.763
0.557 -0.1 -0.623
0.557 0.2001 -0.623
0.560349 0.462588 0.203968
0.566185 0.436652 0.194791
0.5648 1.4763 0.2778
0.5648 1.5131 0.1356
0.562863 1.26537 0.0743681
0.561809 0.201653 0.108739
0.566512 0.462494 0.29193
0.572387 0.2001 0.161714
0.576276 0.462408 0.18314
0.586159 1.36875 0.171822
0.58775 0.2001 0.152479
0.594826 0.848024 0.180907
0.59823 0.923504 -0.0453853
0.6038 0.2699 -0.4388
0.6238 0.8814 0.0642
0.689547 -0.1 0.691266
0.6867 0.2001 0.6936
0.6867 -0.1 -0.5536
0.686483 0.2001 -0.553716
0.690594 0.2001 0.0181701
0.7047 0.2205 -0.31
0.717052 0.2001 -0.256813
0.733392 0.2001 -0.149458
0.8004 -0.1 0.6004
0.8004 0.2001 0.6004
0.8004 -0.1 -0.4604
0.797917 0.2001 -0.462435
0.8936 -0.1 0.4867
0.8936 0.2001 0.4867
0.8936 -0.1 -0.3467
0.8936 0.2001 -0.3467
0.963 -0.1 0.357
0.963 0.2001 0.357
0.963 -0.1 -0.217
0.963 0.2001 -0.217
1.00517 -0.1 0.217735
1.0056 0.2001 0.2163
1.00457 -0.1 -0.0796951
1.0056 0.2001 -0.0763
1.02 -0.1 0.07
1.02 0.2001 0.07
0.612002 0.255329 -0.17495
-0.182884 0.00615238 0.513466
-0.185429 -0.0199489 0.277699
-0.163656 0.0246505 0.0607768
-0.161986 0.00884961 -0.387703
0.138484 0.851978 -0.274123
0.53809 0.823303 -0.205072
0.0580902 1.62146 0.520273
0.0335382 0.0120582 0.291735
-0.0325748 0.205391 -0.148028
0.0133155 0.0270217 0.110416
0.00374748 0.678405 0.0103163
0.00664202 0.936406 0.06008
0.0558973 1.17694 0.107262
0.0556376 0.00847273 -0.148972
0.0698047 0.141476 -0.157198
0.175978 0.483174 -0.0700404
0.248656 0.0150634 0.494154
0.523673 0.44591 -0.195086
0.260126 1.34348 0.290897
0.20514 1.64603 0.390256
0.250065 0.0216419 0.0648619
0.229287 1.33945 0.0352275
0.239883 1.54175 0.0683415
0.27016 0.00917244 -0.147302
0.260045 0.475221 -0.151247
0.277573 0.596791 -0.170295
0.609563 0.288146 0.0128802
0.643597 0.758929 0.0264256
0.420595 0.0479893 0.458872
0.512679 0.0372713 0.245719
0.404979 0.429826 0.332129
0.49029 0.843112 0.266545
0.370733 1.07228 0.0985077
0.469779 0.028231 -0.159932
0.898846 0.2001 0.118611
1.0189 0.0501551 0.0588271
0.519388 0.622408 -0.139097
0.524666 -0.00545663 -0.376827
0.687413 0.00352185 0.281688
0.750532 0.0167118 0.0385986
0.742493 0.0397803 -0.133073
0.716162 0.00546234 -0.382214
0.278903 0.698862 -0.234686
0.0396612 0.783099 0.165439
-0.16584 -0.1 -0.168152
-0.186727 -0.1 -0.332608
-0.0170939 -0.1 -0.314686
0.29171 -0.1 -0.36565
0.338533 0.971058 0.116679
0.39484 0.620255 -0.228418
0.178423 0.563239 0.346423
0.103425 0.485479 -0.286657
0.304607 0.927512 0.245696
0.341124 1.03041 0.0841325
0.267688 0.63701 0.0529064
0.0293893 0.670376 0.155009
0.0578361 0.577321 0.0754031
0.0559156 0.655724 0.100092
0.0901806 1.03959 0.426356
0.24553 1.09331 0.0597264
0.122914 0.560266 -0.00575548
0.877447 0.100377 0.113341
0.277283 0.102952 0.617702
0.0253745 0.577755 -0.184081
0.816841 -0.1 0.25918
0.75113 0.0665661 0.431376
0.352625 0.2001 0.667462
-0.0219032 2.41665 0.586621
0.469955 -0.0208522 0.551087
0.617485 0.703683 0.142085
0.0572284 0.250682 -0.388682
0.458508 0.2001 0.515323
0.785478 0.2001 0.35629
0.434468 0.351747 -0.170583
0.0641688 0.333126 -0.335696
0.883622 0.093017 -0.151124
0.113904 0.098571 0.668645
0.857729 0.0547666 0.280451
0.454807 0.0715663 0.645695
-0.332501 0.0704363 -0.125696
-0.305583 0.0830272 0.257881
0.336273 -0.1 0.204241
0.172891 0.895016 -0.137018
0.90162 -0.0095174 0.134821
0.500174 0.0367969 -0.00601923
0.885239 -0.00605167 -0.011469
0.214767 -0.000448547 0.672172
0.337252 -0.00976079 0.703669
-0.341424 -0.0132611 0.162114
0.416813 0.859221 -0.26964
0.110418 0.888483 0.45164
-0.0408898 -0.1 0.514964
0.195514 -0.1 0.1056
0.267562 -0.1 0.610048
0.236694 -0.1 0.331506
-0.327565 -0.0143224 -0.0488224
0.379489 0.460477 -0.0937102
0.438015 -0.1 -0.112667
0.440421 -0.1 -0.301196
0.398926 0.0249781 0.121721
0.0109947 1.73694 0.492622
0.221994 0.2001 0.676182
0.525518 0.833333 0.00011558
0.12317 0.0578635 0.186695
0.619091 0.0520212 -0.0673718
0.673477 0.320494 0.0464275
0.547293 0.713594 -0.015505
0.35256 0.2001 -0.502004
0.843159 0.2001 -0.219598
0.641038 0.104545 -0.319496
-0.0309699 0.134249 -0.0699225
0.596952 0.120394 0.277913
0.851224 -0.1 0.0694196
0.16577 0.618898 -0.240309
-0.328437 0.2001 0.0437783
0.0719498 1.28952 0.522517
0.584637 0.0628121 0.521716
-0.260298 0.0784005 0.379469
0.821103 0.047932 -0.250959
0.139002 1.00472 0.394718
-0.244956 0.0567821 -0.242936
-0.0306295 0.321095 -0.069828
0.187842 0.544528 -0.121465
0.482138 0.2001 -0.399624
-0.0757886 0.0930818 -0.323039
0.180736 0.739612 0.362866
0.285078 0.0192064 0.366038
0.246009 0.264853 0.303622
-0.281829 0.2001 -0.060738
0.211032 0.49353 0.331267
0.161731 0.117947 0.429728
0.140415 0.83629 -0.0409089
0.219375 0.408117 0.321707
0.18774 0.659262 0.351821
0.306014 0.425556 -0.377427
-0.112414 -0.1 -0.00807979
-0.0123932 0.0328892 0.57347
0.550425 0.0714076 -0.485793
0.857581 -0.1 -0.117675
0.450369 -0.1 -0.482736
0.590586 0.126328 -0.181341
0.10059 1.10451 0.501646
0.0900089 1.09074 0.488205
-0.241775 0.2001 0.475502
0.109053 0.971641 0.475674
0.37208 0.2001 -0.257569
-0.356645 -0.1 0.158442
0.459845 -0.1 0.199358
0.05335 0.05005 -0.6443
0.562855 -0.1 -0.441574
0.768469 -0.1 -0.229967
0.85005 0.2001 0.0200999
0.614518 -0.0142824 0.041264
0.312035 0.576208 -0.303656
-0.122219 0.111608 0.566895
-0.228657 -0.1 0.132281
-0.162535 -0.1 0.289689
0.0395122 -0.1 -0.160488
0.402641 0.735086 -0.142115
0.261835 0.0666144 -0.317697
0.465129 1.44558 0.307714
-0.067118 0.102004 -0.190132
0.159483 0.2001 -0.471672
0.251651 2.05118 0.188972
0.138612 1.02601 0.497408
-0.0977771 0.2001 0.290254
0.195094 0.796102 0.461022
0.195399 0.616026 0.4468
0.617475 0.2001 0.594581
0.158993 0.0585281 -0.418352
0.234816 0.366403 -0.0602032
0.262998 0.335944 -0.334483
0.352132 1.97013 0.331982
0.275 1.03385 0.0174715
0.502364 0.2001 0.643411
0.527597 0.577629 0.143621
0.886027 0.2001 0.242255
0.711316 0.11347 0.240923
0.378751 -0.0198309 -0.369534
0.0489926 2.3617 0.611618
0.332891 0.288092 -0.174718
0.336979 0.121224 -0.593377
0.282184 0.75016 -0.118716
0.0185524 -0.1 0.0919342
0.179036 -0.1 -0.115301
0.361185 1.09065 0.0537388
0.524666 0.219893 -0.149416
-0.180954 0.114198 0.462938
0.307558 0.025241 0.244046
0.0955446 1.50749 0.465081
0.160176 1.03491 0.404723
0.166706 0.973442 0.396578
0.237675 -0.1 0.444922
-0.0835119 0.293015 -0.16509
-0.0934294 -0.00330849 -0.219924
0.0965293 1.61937 0.495321
0.59649 1.24127e-05 -0.166808
0.03924 0.927635 0.284908
-0.133915 0.128023 0.37276
0.447909 0.113365 -0.560914
-0.0853438 -0.1 -0.420191
0.271913 0.536445 -0.449832
0.17414 0.779463 -0.00737822
-0.270373 -0.1 -0.0168984
0.175937 0.0701981 -0.201946
0.323543 -0.1 -0.515638
0.33223 1.37912 0.00590132
0.0615715 0.300169 -0.00348856
0.172541 0.642117 -0.0315812
-0.250942 -0.0254354 0.0272832
-0.0303909 1.06736 0.126243
-0.244964 0.124022 0.0490191
0.463666 0.758169 -0.0316633
0.183912 0.300283 -0.300492
0.175279 1.1974 0.320444
0.686943 -0.1 0.266143
0.372488 1.72001 0.249152
0.349922 1.85748 0.169608
0.319692 1.94795 0.124999
0.335575 0.544178 -0.0587668
-0.182358 -0.1 0.507745
-0.0393106 -0.1 0.341399
0.554489 0.0149367 0.368572
0.105619 1.54699 0.485284
0.198105 0.89661 0.405685
0.159586 1.21551 0.468598
0.25573 0.530544 0.387629
0.484523 0.552271 -0.243123
0.216016 0.772268 0.391864
0.0475045 1.29758 0.482197
0.118314 1.46819 0.478543
0.180257 1.009 0.417613
0.188457 0.951444 0.410583
0.595317 -0.1 0.114378
0.151924 1.20453 0.441027
0.164301 1.14463 0.440308
0.0833401 1.7164 0.508996
0.169863 1.10444 0.435008
0.246533 0.555455 0.365148
0.232754 0.642678 0.373175
0.236182 0.604367 0.366508
0.225582 0.698412 0.380735
0.422493 1.815 0.255275
0.21651 1.29189 0.100012
0.571609 0.0871713 0.658576
-0.128106 2.36324 0.591618
0.469146 -0.1 0.0712838
0.706502 -0.1 -0.0600461
0.684054 -0.1 -0.345093
0.707057 -0.1 0.121912
0.500143 0.600701 0.313213
0.70929 0.0159254 -0.264845
0.340374 0.894544 0.165222
0.270389 0.992182 0.237253
0.101586 1.9523 0.53603
0.26444 0.317828 -0.241746
-0.0929345 0.697269 -0.0622534
0.275 2.05749 0.171736
-0.143885 0.0208168 0.383852
0.277727 1.55445 0.266196
0.0440816 0.118847 0.457961
0.612531 0.277436 -0.26893
0.238096 0.61129 0.420879
0.0772324 0.394835 -0.0735001
0.129128 1.43528 0.497502
0.17105 1.13143 0.462902
0.260334 0.454064 0.401245
0.1095 1.57429 0.514429
-0.0417321 0.0748202 0.413601
0.185166 1.02982 0.443597
-0.0383462 0.00734989 -0.0079449
0.374963 0.744193 -0.0149283
0.24613 0.600559 0.392649
0.0967143 1.66518 0.526448
0.202298 0.908261 0.42868
0.158637 0.00758579 -0.0508531
0.218015 0.411412 -0.264649
0.362666 0.0283042 -0.0285081
0.0134236 1.58797 0.543368
0.0375926 1.54778 0.556447
-0.0270368 1.87575 0.57906
0.638935 0.0429287 0.160851
0.178742 0.431002 0.117901
0.461305 -0.1 0.333272
0.149712 -0.1 -0.238975
0.321524 -0.1 -0.0373448
0.099341 -0.1 0.241618
0.569673 -0.1 -0.219529
0.297999 -0.1 -0.207899
-0.0547828 -0.1 0.204913
0.576933 -0.1 0.222776
0.534711 0.0214996 0.10994
0.0695967 0.782645 -0.264873
-0.00395463 0.349979 -0.208267
0.417317 0.485751 -0.305344
0.741974 0.118925 -0.0233225
-0.136743 0.0827763 0.250272
-0.207354 0.0833706 0.154617
0.228406 0.0925166 0.194855
0.443429 0.245581 -0.375412
0.0887941 0.2001 -0.263055
0.116576 1.51802 0.504325
0.424002 0.390548 0.253213
0.174109 0.11611 -0.0203923
0.204632 -0.1 -0.521892
0.627705 0.103753 0.0350907
0.404 0.10794 0.198927
0.313002 0.106961 0.427086
0.204489 0.841423 0.397497
0.139544 0.120845 0.311123
0.549008 0.435532 -0.0452145
0.205711 1.89451 0.158273
-0.4656 0.05005 0.2163
0.151234 1.27813 0.478057
-0.466438 0.0516139 -0.0678443
-0.423 0.05005 0.357
-0.423 0.05005 -0.217
-0.349713 0.0458013 0.491442
-0.350403 0.0474547 -0.3506
-0.2604 0.05005 -0.4604
-0.147925 0.0626347 0.692596
-0.1467 0.05005 -0.5536
-0.017 0.05005 0.763
-0.017 0.05005 -0.623
0.1237 0.05005 0.8056
0.1237 0.05005 -0.6656
0.4163 0.05005 0.8056
0.408868 0.0630271 -0.666337
0.545829 0.0278935 0.766382
0.557 0.05005 -0.623
0.6867 0.05005 0.6936
0.6867 0.05005 -0.5536
0.8004 0.05005 0.6004
0.798588 0.0250896 -0.461885
0.8936 0.05005 0.4867
0.898122 0.0513828 -0.338248
0.963 0.05005 0.357
0.963 0.05005 -0.217
1.0056 0.05005 0.2163
1.0056 0.05005 -0.0763
0.269839 0.848059 -0.30228
-0.0699061 0.112409 0.11108
0.116866 -0.1 -0.383992
0.521618 0.340636 -0.109407
0.208005 0.267464 -0.432325
0.576493 -0.1 0.616223
0.163482 0.00875633 0.383316
0.471218 0.121216 -0.0312136
0.149396 1.12042 -0.138013
0.382772 1.02636 -0.060197
0.0497481 1.07728 0.469151
0.292019 1.99176 0.238594
0.28431 2.00057 0.249916
0.300145 1.97406 0.267589
0.166896 1.60051 0.0767394
0.0763803 1.0753 0.48286
0.0362398 -0.1 -0.507127
0.25983 1.98062 0.251886
0.0482339 1.07718 0.482452
0.431616 0.111537 -0.438468
0.490741 1.07965 0.305889
0.617664 0.792399 -0.0974833
0.256725 2.00706 0.0909272
0.26484 1.98675 0.235924
0.0654478 0.297675 -0.0781919
-0.133985 0.356292 -0.259861
0.115469 1.41318 -0.0337009
0.453299 1.64799 0.237176
0.272345 2.00105 0.0866035
0.2385 1.58897 0.175008
-0.0977307 -0.1 0.0998786
0.772525 0.126771 -0.366998
0.26975 2.00091 0.246652
0.290956 0.434035 -0.197847
0.121819 0.726031 -0.0465075
-0.0842572 0.115987 -0.475786
0.295977 0.350913 -0.159284
0.675817 0.114024 -0.449547
0.0932612 0.2001 0.259178
0.30806 2.02991 0.114507
0.201927 1.94718 0.159656
0.360415 1.91963 0.174235
0.386091 0.200801 -0.172393
0.223742 1.97032 0.513799
-0.0224065 0.116001 0.251597
-0.0610631 0.458214 0.0467232
0.0455184 0.477124 -0.0375124
0.288248 2.01551 0.085319
0.248895 2.0242 0.0974011
0.300682 2.04648 0.121087
0.142951 1.07588 -0.0897659
0.253726 1.91537 0.164538
0.392522 0.422592 -0.112858
0.0118032 1.49661 0.208537
0.26906 1.97349 0.255546
0.0363879 0.852993 0.048509
0.114676 0.118822 0.0011464
0.127138 0.601611 -0.163891
-0.0389304 0.66649 0.0728922
0.187141 0.564739 -0.176051
0.334202 1.96524 0.139877
0.127759 1.02836 -0.0534307
0.227622 2.03463 0.190454
0.282329 2.06135 0.1022
0.00655514 0.634918 0.0898333
0.0920712 -0.1 0.637088
0.180789 1.94017 0.504393
0.00715548 0.945725 0.141716
0.440975 1.86667 0.304168
0.0805229 1.27407 0.138707
0.157301 1.68894 0.169071
0.281499 1.12723 0.320189
-0.295892 -0.1 -0.142309
0.276591 1.97409 0.252601
0.194509 2.01074 0.271466
0.584321 0.239874 0.0670684
0.555899 0.210537 -0.0327153
0.202004 0.319932 0.0984121
0.517489 0.745837 -0.111216
-0.322997 -0.1 0.267082
0.45817 0.354086 -0.326714
0.67387 0.433637 0.0105261
0.0223532 1.54471 0.254937
0.302397 1.93327 0.117756
0.118593 -0.1 0.466021
0.285329 1.9829 0.284449
0.569219 1.05539 0.00173254
0.255276 2.04868 0.0986687
0.330091 1.5364 0.178328
0.269173 1.96396 0.247461
0.0652893 1.07958 0.490762
0.486364 0.512483 -0.0303805
0.287386 1.98466 0.25149
0.0904201 0.163014 0.0115099
0.0480443 0.909245 -0.00303165
0.239343 1.88319 0.137283
0.310434 1.70846 0.277853
0.210178 0.989106 -0.0299869
0.287685 1.97111 0.249907
0.544943 0.11123 0.0629393
0.279519 1.98522 0.259963
0.231276 1.50211 0.298896
0.281062 0.119069 -0.00645808
0.27651 1.99403 0.258271
0.207298 1.98657 0.162288
0.364669 1.96371 0.198217
0.0574871 1.20368 0.263009
0.0503645 1.06468 0.482262
0.660297 0.588305 -0.0972814
0.445435 1.77757 0.385654
0.522038 0.435706 -0.320727
0.221376 1.93197 0.136748
0.126686 0.154424 0.37101
0.466354 0.440371 -0.0367191
0.283308 0.102684 0.355785
0.224789 1.97857 0.242716
0.303079 2.04748 0.223551
0.194495 2.01488 0.498871
0.140188 1.30872 0.456795
0.867672 0.2001 -0.12354
0.196359 1.50935 0.219417
0.626925 0.634765 0.127266
0.0646719 1.35511 0.53255
0.236143 1.96679 0.150977
0.211034 2.02344 0.234355
0.337527 2.02505 0.236995
0.586641 0.394441 -0.387823
0.0685876 1.30892 0.250718
0.413917 1.97493 0.441796
0.379806 1.08771 0.187507
0.329336 1.935 0.260646
0.206793 2.0074 0.189138
0.343288 2.00766 0.190689
0.199634 0.2001 -0.36
0.271296 2.05324 0.216224
0.141829 0.14954 0.0546683
-0.151674 0.2001 0.168319
0.217676 1.9829 0.346128
0.0484859 0.130363 0.552853
0.107357 1.09733 -0.0490969
0.130516 0.805775 0.0349693
0.446889 0.2001 -0.0581877
0.0821742 0.707832 -0.0167004
0.298312 0.2001 -0.381823
0.305642 2.00212 0.175011
0.348289 -0.00563695 -0.243582
0.465599 0.982497 -0.0352055
0.275 1.11762 -0.167474
0.200299 1.85617 0.169842
0.129677 0.0524318 0.521872
-0.0466244 0.622923 0.0900413
0.0556413 1.08649 0.48844
0.269372 1.98241 0.256521
0.29744 2.05171 0.177168
0.0714082 1.37082 -0.00702678
0.0718262 1.51653 0.254604
0.396473 1.1004 -0.151948
0.27917 1.97981 0.242171
0.494868 0.2001 -0.507106
0.722144 0.119807 0.100252
0.280162 1.97924 0.253904
0.313892 1.97047 0.166908
0.18053 0.370316 0.0473527
0.413555 0.48095 -0.0649411
0.448609 -0.1 0.652167
0.0834103 0.2001 0.0595951
0.448707 0.121993 0.345604
0.506656 0.543603 0.0943161
0.220925 0.2001 0.211654
0.228201 0.526823 -0.164022
0.339211 0.123568 -0.137848
0.214578 1.96891 0.318165
0.28731 2.02567 0.163133
0.200945 0.6063 -0.142742
0.336275 1.51783 0.307504
0.271716 0.774741 -0.0342502
0.470782 0.130875 0.0600621
0.219785 1.84797 0.302842
0.290786 1.64233 0.281586
0.04571 -0.00882199 0.425798
0.528393 0.523122 0.00679286
0.234517 0.571439 -0.0249349
-0.109749 2.47453 0.602627
0.774681 0.0225376 0.171699
0.567373 0.264486 0.17358
0.0900896 1.42535 0.257621
0.0452207 1.20074 0.284705
0.169142 0.391166 -0.348959
0.454103 0.496607 -0.0835397
0.607754 0.366222 -0.166192
0.525937 0.635832 0.158961
-0.166877 0.29971 -0.111778
0.234532 1.99625 0.209671
0.0414577 0.112584 0.0325765
0.294806 0.125903 0.115723
-0.035684 0.902523 0.187203
0.134836 1.48754 0.197722
0.248621 1.92408 0.119724
0.331217 1.41355 0.405516
0.10592 0.341668 -0.0333298
0.303092 1.77358 0.262246
0.33845 1.54616 0.255302
0.562204 0.330878 0.185815
0.617887 0.364715 0.0299125
0.68421 0.354818 -0.260405
0.43454 0.463929 0.0882303
0.239888 1.99999 0.178957
0.025449 1.49179 0.525923
0.0487792 1.33417 0.510686
0.20136 0.374231 0.409752
-0.0986567 0.233207 -0.0912564
0.247793 1.99713 0.239535
0.53369 1.13385 0.250038
-0.0303734 1.85172 0.550921
0.152525 1.2193 0.244849
0.124158 0.796573 0.396925
0.260402 0.953664 0.115863
0.357671 1.43495 0.139099
0.658331 0.41346 0.0730403
0.45863 0.67259 -0.0639741
0.328407 1.99642 0.307673
0.0296546 1.42459 0.497949
0.0201706 0.530485 0.00396357
0.0651066 1.1765 0.465023
-0.14803 0.278153 -0.0337825
0.449036 1.33586 0.268636
0.0559428 1.07365 0.490938
0.10245 0.988433 -0.012071
0.19411 -0.1 -0.014665
0.275 0.694468 -0.0486879
0.00581145 0.584556 0.23152
0.28949 1.97193 0.271224
0.386757 0.115679 0.565646
0.0384012 0.343569 0.0501174
-0.0962158 0.739298 0.0224297
0.554068 0.2001 0.239249
0.102922 1.12687 -0.101319
0.141204 0.555044 -0.0485791
0.384146 1.1309 0.358004
0.343343 1.05925 -0.12882
0.569261 0.35212 -0.293671
0.058203 1.6963 0.414901
0.063807 1.65198 0.271523
0.137075 1.37993 0.0325296
0.246734 0.432008 0.0649167
0.513327 1.64635 0.271211
0.0453882 0.143094 0.338303
0.356999 1.50788 0.0589678
0.511837 0.110627 0.148341
0.26933 1.6649 0.36748
0.228158 0.149606 -0.0565306
0.506743 1.33636 0.253942
0.596122 0.2001 0.334663
0.0193326 1.53747 0.532713
0.348565 0.381684 -0.246923
0.08693 1.73048 0.53152
-0.218245 0.2001 0.107844
0.463867 -0.00326401 -0.568559
0.147718 1.31847 0.146682
0.0956697 0.261576 -0.0399948
0.333463 -0.1 0.0798343
-0.0453138 0.0415081 0.199154
0.207101 1.05534 -0.079354
0.2594 1.00793 -0.0336896
0.272902 1.98671 0.257763
-0.0391167 0.474752 0.101681
0.0085728 0.2001 0.368365
0.525413 0.211124 -0.0809362
0.400625 0.444603 -0.023627
0.0428359 0.121501 0.124891
0.287933 1.979 0.275592
0.528936 0.66928 0.202334
0.288426 1.13222 0.377974
0.0757039 1.1428 0.487021
0.14907 1.75061 0.16957
0.295876 0.120144 -0.416552
0.0893229 0.2001 0.415119
-0.0814437 0.2001 0.493258
0.377868 1.86984 0.297656
0.7305 0.0908254 -0.298155
0.227944 0.819752 -0.0904231
0.0310042 0.865681 0.276251
0.526143 0.0968821 0.437905
0.140246 1.97777 0.444712
0.176675 1.80421 0.360203
0.482099 0.234927 -0.0660686
0.355174 0.445089 -0.154943
0.0706024 1.43288 0.275694
0.426222 0.347288 0.371519
-0.0591584 0.488182 -0.118488
0.427923 1.4775 0.201949
0.425862 0.394469 0.412015
0.445479 0.285936 -0.0429028
0.384635 0.2001 -0.374181
0.303845 1.77698 0.12185
0.39168 0.306309 -0.131875
-0.0406069 0.581815 0.171581
-0.0741306 0.0178729 0.323061
0.32603 0.0881826 0.306286
0.0552924 1.07239 0.498982
0.196032 1.92641 0.3943
0.260887 2.02339 0.175058
0.205277 0.369749 0.149712
0.0131864 1.90129 0.505857
0.245228 1.97334 0.259685
-0.050474 0.981714 0.0973663
-0.0837387 0.0972636 0.00839294
0.628784 0.445878 -0.292239
0.320071 0.109782 0.514613
0.217045 0.605584 -0.04908
0.25054 0.469198 0.094694
0.130046 1.91708 0.301945
0.236984 1.1407 0.367294
0.557073 0.235 -0.347863
0.144939 0.784195 0.37451
0.478152 1.89141 0.439748
0.70208 0.10077 0.56602
0.226824 1.20348 0.111752
-0.287262 0.2001 -0.202771
0.0748682 0.66097 -0.00514626
0.227699 1.36937 0.231889
0.234304 0.15573 0.427031
0.155575 0.2365 -0.351679
0.348697 0.301515 -0.317266
0.435713 0.952871 0.155293
0.467199 0.379585 0.384331
0.2463 0.998115 -0.127725
0.463638 1.42353 0.186517
0.163299 1.43275 0.155865
0.0963886 1.55141 0.214645
-0.176607 0.2001 0.239662
0.153587 1.75109 0.343613
0.352517 0.477365 -0.0947216
0.158862 0.182698 -0.1921
0.328297 2.00382 0.14148
0.052787 0.2001 0.136367
-0.0654409 0.805639 -0.0939424
0.240585 0.136258 0.335384
0.845008 0.124233 -0.405183
0.15249 0.115331 -0.290812
0.276295 2.04535 0.324049
0.271559 1.19891 -0.0731106
0.0519508 0.956603 0.227294
0.101171 1.20214 0.287141
0.366056 0.0786349 0.363109
0.38721 0.244419 -0.137948
0.14821 1.84422 0.348695
0.699621 0.276837 -0.0395005
0.769932 -0.1 0.419183
0.601135 0.981536 0.0951242
0.199357 0.942335 0.096455
0.184368 0.868567 0.114869
0.254292 1.99107 0.118892
0.212604 0.420932 -0.0876663
0.342289 0.263925 -0.42313
0.158039 1.72328 0.201702
0.283264 0.408233 0.0727228
0.208507 0.133706 0.0705125
0.15623 -0.0212435 0.0573576
0.515391 0.305604 -0.21564
0.528114 1.02064 0.260306
0.0990097 1.47015 0.545955
0.0255615 1.31575 0.202014
0.294339 1.66731 0.211985
-0.0126889 0.478483 -0.0701279
0.487348 1.59756 0.263778
0.237154 1.06359 -0.0118733
0.341871 1.86695 0.264889
0.33338 0.822789 -0.0770104
0.250709 0.0523395 -0.0551855
0.671383 -0.03847 -0.210673
0.152368 1.80865 0.328224
0.519419 0.361141 0.268276
0.233589 1.3411 0.11646
0.0282293 2.38264 0.593143
0.426769 1.52922 0.123827
0.0897381 1.41551 0.282049
-0.0341426 0.229229 -0.0435521
0.575174 0.953565 0.199326
0.21174 1.66411 0.196616
0.326378 0.217165 -0.165465
0.233754 1.00113 0.0934121
0.429437 1.12818 -0.11327
0.587122 0.488228 0.0376522
0.17924 0.0393569 0.12062
0.55329 0.304182 0.119808
0.461787 1.0234 0.145821
0.0285197 1.21016 0.263297
0.40726 1.78573 0.317346
0.223174 1.98564 0.29535
0.647935 0.311229 -0.344116
0.310545 1.20579 0.0644314
0.253666 0.145655 -0.116653
0.506558 1.05716 0.0909254
0.116427 1.7941 0.383263
-0.0801146 2.06714 0.537624
0.344183 0.445354 0.0973877
0.123248 1.19349 0.269466
0.601975 0.13589 0.117043
0.278009 1.33054 -0.00609508
0.272469 1.45501 0.220792
0.376723 1.03318 0.224669
0.445457 1.26377 -0.0528009
0.0369497 0.617091 0.0414762
0.181031 1.20828 0.267462
0.157623 1.27092 0.146536
0.382251 0.382843 0.38557
-0.0407372 0.258734 0.0239955
0.0279648 1.12482 0.0659302
0.131333 0.747253 0.0229969
0.154007 0.366991 0.123582
0.520486 0.97523 0.152589
-0.00912605 2.10309 0.539782
0.12513 1.22342 0.0502249
0.253245 2.015 0.212856
0.323869 0.142678 0.356936
0.543704 1.02617 -0.0622701
0.446015 1.58549 0.193122
0.294315 1.99302 0.278196
0.257152 0.109028 -0.211433
0.0792922 0.0802258 0.380122
0.401036 1.82256 0.359127
-0.0074247 1.73625 0.56176
0.0906112 0.943767 0.0369945
0.510072 0.389838 0.339427
0.0590491 1.60067 0.298403
0.28069 1.32599 0.17888
0.630027 0.122074 -0.583925
0.0840626 1.26023 0.308658
0.353789 2.01446 0.288819
0.396456 1.27382 -0.044744
0.0920179 0.335959 -0.123597
0.450288 0.149188 -0.176396
0.578132 0.287413 0.170265
0.315316 0.491953 -0.169519
0.251089 0.383954 0.14638
0.200078 1.23462 0.104302
-0.0938912 0.0159157 0.13951
0.177235 1.95395 0.209823
0.324476 1.74247 0.162898
0.274625 0.410962 0.0371347
0.253266 1.7785 0.126936
0.233613 1.96321 0.119741
0.52737 0.100294 -0.337272
0.191945 0.197844 -0.0499311
0.0450854 1.01438 0.0470472
0.0718127 0.422373 -0.144348
0.0887687 1.26349 0.279972
0.0238334 1.06254 0.26162
0.552462 0.536735 -0.0767649
0.249982 0.367182 -0.116168
0.0251511 1.29724 0.155761
0.215948 0.2001 0.45617
0.346507 1.22073 0.0769073
0.0799894 0.0607891 -0.0472614
0.167692 1.51585 0.288643
-0.0815369 0.2001 0.382684
-0.0625742 0.41849 -0.0393485
0.610076 4.334e-05 -0.284818
0.569164 0.0636312 -0.244502
0.689897 0.2001 0.158448
0.0330893 0.269529 -0.176803
0.387789 1.12072 -0.0803292
0.14914 1.80876 0.356552
-0.028202 0.302302 0.171064
0.332025 1.06975 -0.0252948
0.0379551 0.84307 0.22118
0.502021 1.82674 0.430101
0.469566 0.243412 -0.0305381
0.537126 0.155463 0.0953709
-0.261477 -0.1 0.384096
0.32137 0.164647 0.00602643
0.383256 1.11069 -0.0264426
0.168173 1.12615 -0.0843889
0.257878 0.34647 0.405694
0.802636 0.131643 -0.105551
0.159368 0.968839 -0.00502443
0.738874 0.129918 -0.510833
0.238247 0.5001 0.422756
0.0882705 1.2769 0.0336499
0.226388 0.829968 -0.0134119
0.410932 0.289603 -0.255568
0.447705 1.32657 0.0525376
0.508016 1.0481 -0.104571
0.334546 0.164105 0.394471
0.22464 0.576541 0.43513
0.213858 0.851584 0.192377
0.0363418 1.73184 0.533839
0.0376031 1.37401 0.494829
0.171648 1.89616 0.199385
0.112642 0.659763 -0.0485391
0.335498 1.97238 0.299952
0.613699 0.2001 -0.256869
-0.027236 0.662528 0.193863
4.59386e-05 1.44933 0.15458
0.493189 1.05305 -0.00305868
0.0713096 1.66719 0.57039
0.579924 0.628357 -0.0484817
0.36228 1.33022 0.0406871
0.0583073 1.76525 0.581759
0.65425 0.2452 -0.3744
0.315156 0.665356 -0.13192
0.0085533 1.3843 0.110847
0.428486 0.530264 -0.0104122
0.494441 1.24751 0.222094
0.154092 0.346826 -0.0570819
0.174857 1.32232 0.0903418
0.302563 0.512241 -0.113588
0.0748774 1.14428 0.0487337
0.112773 1.64925 0.262627
0.260051 0.520488 -0.222669
0.243044 0.954878 0.200596
0.173384 1.85471 0.199044
0.10872 0.2001 -0.368933
0.0295719 0.362892 -0.448817
0.44179 0.21112 -0.143279
0.322406 0.439661 0.084511
0.430198 0.407787 0.0662082
0.268217 0.400372 0.393327
0.00866793 0.777401 0.0518143
0.208417 1.05953 0.108712
0.0198338 1.68893 0.574476
-0.00677416 0.878439 0.228142
0.103304 1.06796 0.0126113
0.363051 0.412646 -0.00651551
-0.0938401 0.323473 -0.343089
0.0446105 1.28937 0.281356
0.0864197 1.35053 0.0566589
0.34489 1.89352 0.2286
0.413015 1.40166 0.0258825
0.450444 0.572486 -0.0682104
0.245748 0.0649213 0.133575
0.341103 1.62633 0.114847
0.17334 1.74061 0.308293
0.309281 0.422198 -0.0304587
0.189805 1.04534 -0.000841631
0.462337 0.143953 0.430676
0.202521 0.902745 -0.0433556
0.293003 0.140421 0.307656
0.189496 1.70783 0.350494
0.24526 0.547934 0.414786
0.229017 0.64482 0.429455
0.135619 0.927577 0.420581
0.187355 0.494602 -0.20094
0.0561591 0.852597 -0.0545453
-0.0183276 2.01234 0.556145
0.501346 0.101957 -0.242471
0.168627 1.78169 0.398805
0.255511 1.93277 0.277771
0.0380038 0.2001 0.481703
0.0482822 1.1529 0.168146
0.320279 0.473138 -0.125186
0.00146069 0.411403 -0.107734
0.0736961 0.0101661 0.0393303
0.603851 0.511709 0.150046
0.317244 0.2001 0.448914
0.249413 1.72529 0.146688
0.396972 0.491801 -0.0623329
0.122723 1.32522 0.276782
-0.159652 0.2001 0.424638
0.156466 1.42045 0.350586
0.271035 0.231694 -0.339123
0.456652 0.770351 0.059901
0.933556 0.115891 -0.272027
0.223395 0.645108 -0.0439884
0.267226 2.01883 0.249434
0.423715 1.20595 -0.0114623
0.132102 1.13924 0.0824808
0.355683 0.978217 0.236956
0.380287 0.464521 0.0462167
0.0613121 1.08358 0.429446
0.307349 1.45966 0.344232
0.0165877 0.459022 -0.211185
-0.121994 0.327083 0.0500413
0.207488 -0.0165381 -0.284164
0.154179 1.073 0.409286
0.708197 0.109633 -0.221757
0.208336 1.04643 0.161278
0.457754 0.258842 -0.112545
0.23685 0.125007 0.493753
0.145247 1.5463 0.133742
0.33876 0.153691 0.305027
0.634575 0.2001 0.150275
0.333258 1.58977 0.329031
0.292204 1.97644 0.0989659
0.648984 0.0497762 -0.221619
0.398436 0.00599109 0.302345
0.20432 0.913602 0.194712
0.431301 1.30914 -0.0654582
-0.151912 -0.0213638 0.174129
0.221352 0.505185 0.367436
0.526651 0.286935 0.0639898
0.717953 0.294071 -0.116947
0.0515118 1.08854 0.025297
0.232807 0.561502 -0.130172
0.0968661 1.28825 0.249513
0.372879 1.35728 0.0902544
0.348373 0.2001 0.546775
0.269802 0.520243 0.095215
0.326885 1.12563 -0.086555
0.201609 0.807165 0.153003
0.290834 1.05576 -0.0739582
0.385273 0.144459 0.474573
0.220062 -0.1 0.228509
0.130819 1.50445 0.30418
0.619379 0.791856 0.108134
0.301076 1.78712 0.210195
0.361317 0.988767 0.0294652
0.366073 1.56077 0.287122
0.561676 0.2001 -0.346493
0.208834 1.33431 0.140878
0.378504 1.47597 0.302577
0.113481 0.53841 -0.181959
0.0212119 0.483545 -0.110483
0.161728 1.99184 0.382776
0.426078 1.60032 0.3471
0.315774 2.0393 0.175847
0.0361488 0.522193 -0.0641967
0.083171 -0.1 -0.0194441
-0.143249 -0.1 0.404938
0.563617 -0.1 -0.0266239
0.370445 -0.1 0.454564
0.317509 0.963022 -0.0653746
0.269255 1.98553 0.147772
0.533427 0.134549 0.354113
0.136513 1.14933 -0.0544289
0.155082 1.20273 0.494093
0.178216 0.729207 0.415479
0.450255 1.04954 -0.14499
0.589527 0.143097 0.187971
0.184345 1.10205 -0.0358593
0.513057 0.916452 0.0520302
0.303916 0.0516963 0.159273
0.218977 0.403524 -0.168372
0.18513 0.987865 0.467606
0.395874 1.31564 -0.00693326
0.459269 0.864245 -0.0741861
0.24333 1.89714 0.226489
0.0636506 0.370876 0.00894008
0.176711 0.702528 -0.0815364
0.140818 1.02251 0.142888
0.573 0.575767 0.0270228
0.293712 1.93682 0.275904
0.443013 1.57863 0.279729
-0.0730083 -0.1 -0.130749
0.322868 0.444692 -0.0271135
0.457435 0.407448 -0.097105
0.0582431 1.25503 0.299622
0.583384 0.2001 -0.527138
0.03247 1.06819 0.207092
0.0579863 0.599937 -0.0128819
0.643302 0.116105 0.376195
0.312927 0.40378 0.271552
0.509933 0.008274 -0.267033
-0.04879 2.08328 0.508478
0.299532 0.465409 0.0587274
0.0815398 1.56516 0.28941
0.16204 1.19839 0.160128
0.269361 1.29848 0.2581
-0.135313 0.500504 -0.0531727
0.190472 1.3283 0.111571
0.120735 0.551215 -0.0299319
0.116846 0.355968 -0.21785
0.261746 0.0581428 -0.679282
0.191349 1.90892 0.284472
0.269975 0.081218 0.819997
0.791478 0.2001 -0.320586
0.241855 0.568962 -0.0615688
0.0937049 1.20233 0.00985979
0.797181 0.2001 -0.0665257
0.311704 0.139128 -0.299891
0.157119 1.79455 0.373891
0.145755 1.1367 -0.00738516
-0.0613764 0.366033 0.131559
0.0837782 1.60601 0.251153
0.427193 1.05458 0.210175
0.354887 0.511537 -0.216923
0.121445 1.80694 0.330086
-0.0839099 -0.0101323 0.248474
0.409736 1.3666 0.30094
0.273703 -0.0349644 0.16166
0.0289368 0.763209 0.21611
0.467692 0.565111 0.0298094
0.133139 0.918031 0.144976
0.562636 1.01004 0.215923
0.224978 1.15877 0.24752
0.280001 0.31579 0.383241
0.311372 2.04097 0.284551
0.252431 1.62144 0.32736
-0.00978528 0.586865 0.107876
0.708318 0.269897 -0.218468
-0.0728817 2.48528 0.658788
0.0897388 -0.00596865 -0.543491
0.0710198 0.108491 -0.540796
0.325433 0.690849 -0.0365009
0.500869 0.13321 0.242878
0.0779667 0.544406 0.0295352
-0.104374 2.49976 0.621281
0.11995 1.38596 0.27159
0.479637 0.853685 0.125382
0.315404 0.423243 -0.00174504
-0.0138232 0.815346 0.220492
0.315876 0.0799033 -0.237158
0.323539 1.10458 0.00929375
0.171179 1.73547 0.332317
0.26977 1.43524 0.0491125
0.273317 0.361439 0.339314
0.444421 1.63465 0.374753
-0.080506 0.0942757 0.319311
0.0328159 1.45035 0.475856
0.0151782 0.913075 0.188183
-0.11034 0.410419 0.0688646
0.178899 0.508393 -0.0337657
0.274358 0.484467 0.0358996
0.152844 1.88866 0.341885
0.196704 1.76644 0.27697
0.604939 0.204699 0.0132369
0.255947 0.494835 0.401243
0.219984 0.593117 -0.0745752
0.352209 1.0804 0.144706
-0.0290609 1.01162 -0.0122596
0.114576 1.16503 0.129155
0.327047 1.98316 0.265971
0.375057 0.422799 0.0862066
0.218772 0.749692 0.437908
0.109615 0.613312 -0.0295776
0.313354 2.00072 0.112629
0.208562 0.829687 0.443933
0.451286 0.187687 0.077924
0.0918262 1.18237 0.318667
0.348335 0.464886 -0.00750916
0.226652 1.47572 0.363647
0.454381 0.254686 0.351363
0.145221 1.51184 0.341147
0.431246 0.963754 -0.119911
0.475506 1.26655 0.0361608
0.101192 1.59129 0.539509
0.26177 0.49968 -0.110276
-0.0108667 0.347678 0.18893
0.11706 0.0233433 0.105031
0.016956 0.997591 0.254764
0.3744 1.16793 0.131062
0.127893 0.865831 0.148434
0.316246 0.421426 0.310853
0.458172 0.480807 0.262295
0.147112 1.98325 0.556417
0.243299 0.311345 -0.169929
-0.0690109 0.397965 -0.150655
-0.0403479 0.145303 0.334124
0.459013 1.13069 0.013267
-0.0405649 0.504627 -0.00884157
0.334625 0.41919 0.359273
0.0117874 0.637916 0.242226
0.249303 1.09436 0.184543
0.174374 1.25245 0.282299
0.36266 1.08149 -0.0750371
0.208293 0.513676 -0.32834
0.178355 1.07889 0.188653
0.603096 0.166213 -0.0732403
0.137 1.41553 0.280056
0.446199 1.41657 0.112645
0.101804 1.1905 0.349574
0.200902 1.28067 0.0671483
0.282703 1.11485 -0.0229514
0.255198 1.97713 0.219316
0.120747 1.44695 0.524381
0.0877704 0.65983 -0.169903
0.143613 0.2001 0.171911
0.151445 0.643263 -0.114037
0.249464 0.372369 0.00233802
0.346883 2.02016 0.425638
-0.0220051 0.636984 0.135029
0.275466 1.96329 0.0998513
0.434873 0.25137 -0.191821
0.710746 0.2001 -0.436551
0.575299 0.611789 0.105379
0.0449803 0.833638 0.170039
-0.0973461 0.635573 0.0496253
-0.00847415 1.03229 0.219747
0.162513 1.12478 0.487995
0.309964 1.16154 0.0154469
0.397107 0.615083 -0.136117
0.0830961 1.71516 0.557433
0.092156 1.30282 0.101195
0.552949 1.12088 0.0238019
0.213063 0.2001 0.154147
0.308164 1.30454 -0.056062
0.203096 1.71388 0.381546
0.581933 0.168292 0.0614905
0.232139 1.85559 0.232663
0.573282 0.462434 0.228506
0.14237 0.517183 -0.120103
0.549762 0.341462 -0.0140105
0.165063 1.57293 0.269321
0.0843747 1.69692 0.372031
0.466779 0.913519 -0.208281
0.168737 1.82002 0.341939
0.0796703 1.22767 0.306361
0.311649 1.28843 0.0315354
-0.0515639 0.05386 0.271757
0.0558579 1.76409 0.370065
0.0931875 1.05512 -0.137119
0.193933 1.41291 0.319725
0.17771 1.80439 0.300068
0.423772 0.274977 0.239005
0.324519 1.18839 -0.118957
0.0933637 1.64454 0.547398
0.218463 1.72292 0.349635
0.133487 1.22468 0.266567
0.17954 0.753145 0.19437
0.233387 1.11198 0.00479982
0.046337 0.226175 -0.0885154
0.493878 0.287034 0.000945488
0.0325561 0.731079 0.169396
0.152358 0.393335 -0.124381
0.522774 0.117396 -0.0960182
0.266335 1.96242 0.260748
0.174394 1.97482 0.243504
0.789952 0.133094 -0.18583
0.247297 1.9142 0.289365
0.377167 0.464542 -0.00287655
0.164103 0.120536 -0.110205
0.408533 1.26965 0.0895118
0.335901 0.0764229 0.0508528
0.531699 0.915042 0.107977
0.201881 1.55586 0.318972
0.228587 0.884539 -0.00367602
-0.025783 0.384808 0.0371329
0.0893475 1.32285 0.161106
0.147155 1.11709 0.260933
0.290784 2.05598 0.147348
0.467765 0.419244 0.11945
0.0652686 0.76559 -0.0422961
0.137066 1.85687 0.478269
0.0943173 -0.0404314 0.121587
0.141252 0.896231 0.0453169
0.25875 1.29438 0.0478877
0.226112 1.66146 0.2631
0.425491 1.31578 0.109052
0.0677719 1.28468 0.310827
0.197243 0.904848 0.456082
0.243282 0.408954 0.325905
0.225488 1.12017 0.131976
0.279195 1.95841 0.259709
0.344647 1.13279 -0.144998
0.484767 0.788276 0.117736
0.217858 1.36602 0.128435
0.471786 0.174826 -0.0896603
0.341049 1.2704 -0.0254459
0.396968 0.939863 -0.0627816
0.239043 2.0413 0.155791
0.101108 0.37039 0.0200265
0.372736 1.06496 0.0136021
-0.00938313 0.441677 0.0110963
0.238425 0.978362 0.141104
0.382785 0.374666 0.00545173
-0.00591124 0.081027 0.322174
0.337623 1.07056 -0.180185
0.175026 -0.0258714 0.154059
0.23843 1.96798 0.343025
0.387205 0.92399 0.174541
0.172944 1.81255 0.320294
0.0904368 0.874983 0.0239551
0.180228 0.399743 0.395067
0.183315 1.19582 0.114906
0.190388 1.76062 0.379322
0.089162 1.2719 0.337865
-0.00201789 0.475408 0.0635871
0.100052 1.38497 0.118698
0.306653 2.01043 0.297544
0.391814 0.554792 -0.10078
0.303835 1.95685 0.255659
0.0398363 0.910538 0.121939
0.646398 0.505359 0.0928263
0.53981 0.141848 5.35303e-06
0.475262 1.18176 0.322565
0.449914 1.37742 0.319736
0.411056 1.25244 0.0295201
0.259599 1.69807 0.314205
0.380836 1.4307 0.343786
0.161317 1.45544 0.0470342
0.429333 1.16332 0.324996
-0.00285764 0.889228 0.153645
0.352015 0.988784 -0.125183
0.262315 1.84378 0.14517
0.209912 0.93819 0.149099
0.487254 0.386908 0.225994
0.356607 1.02365 0.160831
0.507898 1.15219 0.14235
-0.0384335 0.170787 0.0259911
-0.00362089 2.05667 0.539628
-0.00835044 2.04535 0.600374
0.338066 1.31557 -0.0108888
0.416877 1.44605 0.304663
0.259042 1.18045 -0.0173861
0.649998 0.259809 0.0747444
0.117889 1.4114 0.276739
0.250229 0.337004 -0.0171403
0.344308 0.474836 -0.0682966
0.23882 1.74028 0.276225
0.272923 2.05015 0.260325
0.399657 0.345943 0.168717
0.374196 0.444495 -0.0189128
0.17923 0.583217 -0.0162438
0.143357 0.567307 -0.0218742
0.290317 0.370668 0.0745933
0.270954 0.381885 0.118638
0.0904706 1.92438 0.477883
0.255897 1.44923 0.140796
0.278585 1.73264 0.241101
0.127184 1.13876 0.206364
0.158849 0.562723 0.0879084
0.163095 1.61861 0.364329
0.272975 1.74083 0.196859
0.125512 1.2062 0.294807
0.84686 0.13446 -0.299495
0.350001 0.541096 -0.150341
0.529628 0.333491 0.0822045
0.45279 0.53935 0.301831
0.0604085 1.03233 0.244549
0.0819897 1.63669 0.324503
0.160434 0.635404 0.359631
0.268272 1.23635 0.0169309
0.121094 0.998616 0.455916
0.271102 0.946118 -0.000887309
0.305305 1.3896 0.0995406
0.41863 1.6804 0.27467
0.302225 0.470978 -0.28097
0.0512491 1.0963 0.133948
0.117653 0.468121 -0.0884267
-0.00596854 0.442021 -0.039722
0.243861 1.04391 0.134118
0.574677 0.44032 0.0940164
-0.0300917 2.08563 0.61331
0.0260053 0.379253 -0.0299192
0.2298 0.0237918 0.172889
0.488328 0.702692 0.10168
0.430329 0.337145 -0.0459761
0.0205037 2.08882 0.578154
0.616824 0.2001 0.205478
0.163917 1.19235 0.218353
0.314417 0.465246 0.132347
0.19564 1.14041 0.00862045
0.210225 1.33576 0.114487
0.311665 1.97943 0.293819
0.0275621 2.42531 0.619716
0.322628 0.107321 0.226216
0.312735 0.367099 -0.0945775
0.0650098 0.451644 -0.0881083
0.227333 1.01489 0.143287
0.183237 1.13177 0.217672
0.169859 1.19853 -0.0361933
-0.0246251 0.591295 0.0380627
0.0127944 1.58804 0.495415
0.540342 0.611339 0.237514
0.2348 1.30747 -0.033957
0.126508 1.86164 0.378901
0.37187 1.17443 -0.0200241
0.155988 0.2001 0.230796
0.14147 0.530375 -0.0535308
0.21056 0.32379 -0.0371751
0.476627 1.3325 0.139383
0.129716 1.38315 0.516469
0.214455 0.984276 0.172012
0.59161 0.294599 0.0838648
0.516082 0.28071 -0.0614063
0.142008 1.42428 0.329684
0.460333 0.362505 0.102944
0.186078 0.473026 -0.133873
0.0828234 1.18661 0.2998
0.440927 1.40321 0.27999
0.578921 0.518653 0.183041
0.312569 0.256927 -0.242213
0.0425964 1.2769 0.0328267
-0.0215318 0.42237 0.0831313
0.208158 1.27278 0.244901
0.118418 1.07881 0.452902
0.543182 0.845897 0.131089
0.204491 1.02145 0.207229
0.197961 0.590307 -0.0695583
0.0455081 0.974598 -0.0302655
0.451331 0.307267 0.207147
0.272682 0.428905 0.127988
0.545001 0.247088 0.0886161
0.322751 0.2001 0.0403126
-0.089045 2.4263 0.589425
0.40813 1.3043 0.14917
-0.0883033 2.48971 0.620475
0.491277 1.23081 0.300904
0.537146 0.518159 0.150846
0.400111 1.07923 -0.104101
0.149264 1.0074 -0.126245
0.382796 1.5925 0.372561
0.00152377 1.84076 0.553688
0.222123 1.92244 0.200259
0.451533 1.37279 0.174687
0.522344 1.02838 0.19492
0.200679 0.513883 0.395647
0.427698 1.11186 0.326269
0.208292 0.499691 0.0289339
0.0268323 1.63977 0.568402
0.399088 0.321872 0.249067
0.459165 0.336847 0.257096
0.265621 1.8284 0.18792
0.10412 1.44287 0.456569
0.258861 0.0370217 -0.236043
0.325182 1.22053 0.012824
0.297522 1.11133 0.247899
-0.00995077 0.573508 -0.0738983
0.132045 1.44549 0.324827
0.319599 0.443946 0.111361
0.405115 1.23954 -0.0280753
0.43922 1.61683 0.389549
0.166516 0.548301 -0.0453245
0.2876 1.35085 -0.09605
0.328262 1.19264 -0.0655077
0.159199 1.76394 0.318494
0.335396 0.2001 -0.11713
0.410006 1.12672 0.177328
0.124853 1.15082 0.414343
0.350733 1.10979 0.229108
0.289376 0.246471 0.375644
0.196246 1.36868 -0.0796906
0.156128 1.83271 0.3077
0.0821198 1.22375 0.515268
0.447269 1.01107 0.0390078
0.496744 0.315993 0.260377
0.219257 0.255214 0.396136
0.457396 0.334265 0.0344967
0.425513 0.4465 -0.179152
0.0921493 1.51895 0.552007
0.223444 1.3207 0.104131
0.377929 0.107851 -0.224313
0.383668 1.08658 0.229171
0.400856 0.303872 0.202131
0.157115 1.1923 0.297262
0.234307 0.906222 0.102081
0.187753 1.25783 0.0431343
0.298491 0.2001 0.0900955
0.0848323 0.389143 -0.00620138
0.123046 0.298754 -0.0561856
-0.0760418 0.269972 0.106659
0.105073 1.14908 0.36512
0.554884 0.357051 0.155606
0.170617 0.435674 -0.015847
0.390934 0.540279 0.255755
0.25522 0.558972 0.100137
0.146562 0.952262 0.388159
0.204536 1.70067 0.272917
0.27747 0.498867 -0.0812135
0.114479 1.0945 0.477935
-0.0206404 2.47134 0.624993
0.0419759 0.894051 0.233297
0.260787 2.05696 0.136321
0.239375 2.04329 0.241573
0.0979282 1.07345 0.455519
0.359963 0.969585 -0.0244643
0.508161 0.608626 -0.0172953
0.336213 1.9116 0.147393
0.146166 1.78375 0.330884
0.106379 1.17654 0.300487
0.0355793 0.0280586 0.198518
0.302417 0.417826 0.0483704
0.182729 1.86881 0.310138
0.111276 1.46167 0.312974
-0.0514705 2.50164 0.602497
0.283567 1.05624 -0.0202665
-0.118462 2.49171 0.632837
0.381753 1.35441 -0.0813263
0.225017 0.706861 -0.0339322
0.136925 1.79841 0.446588
0.0837695 0.143981 -0.0535196
0.0579374 0.545007 -0.0315257
0.0351388 0.5647 0.0360089
0.498168 1.02756 0.297976
0.325873 1.73492 0.218419
0.127581 0.454661 -0.178742
0.0660063 1.70917 0.335776
0.264794 1.02527 0.180792
0.0449143 1.6811 0.478745
0.179872 1.71967 0.37238
0.186251 1.53005 0.380332
0.190578 1.93017 0.318399
0.125571 1.96895 0.592693
0.219199 1.18357 -0.120276
0.165218 0.463928 0.065806
0.106928 1.016 0.440166
0.213411 1.76608 0.342373
0.25347 1.25509 0.227326
0.155286 1.29284 0.0197454
0.383639 0.539058 0.31812
0.421645 0.753672 0.334977
0.377594 0.482214 0.266627
0.0870671 1.3756 0.440661
0.112775 1.19741 0.41873
0.130374 0.2001 0.105202
0.301724 1.98374 0.252705
0.459375 1.20617 0.0387355
0.233732 1.95818 0.330662
0.337192 0.420227 -0.0165982
0.129474 1.04392 0.400712
0.441739 0.542699 -0.15657
0.207102 0.407884 0.0871631
0.204175 1.0688 0.288642
0.201738 1.27365 0.117015
0.297571 0.501872 0.0534286
0.441206 0.349945 0.19949
0.408775 1.18375 0.0319398
0.0760743 0.862936 0.117508
0.513399 0.162 -0.046728
0.00215493 1.79095 0.500695
0.225213 0.557602 0.345037
0.0221871 0.688053 0.208209
0.0843739 0.4365 0.075357
0.197448 0.590189 0.343255
0.411383 1.46689 0.335486
0.420453 0.209583 0.231964
0.150936 1.23946 0.198395
0.0741576 1.41813 0.48586
0.174559 1.26516 -0.0215172
0.414256 1.49521 0.302929
0.355263 0.375928 -0.150643
0.554569 0.66903 0.0689467
0.320866 1.78042 0.338903
0.0487136 1.00128 0.293227
-0.0847068 0.587796 0.112059
-0.113103 2.50483 0.653693
0.0547263 1.07879 0.449351
0.235753 1.98188 0.329911
0.442382 0.489309 0.311153
0.0862446 0.935753 -0.0919433
0.234651 0.66952 -0.123712
0.519323 0.84987 0.0783937
0.197328 1.36211 0.167737
0.284814 1.93657 0.144493
0.14698 0.0634629 0.0411276
0.100384 1.19052 0.0685724
0.126943 1.24236 0.429428
0.172022 0.2001 0.400344
0.313456 1.18064 -0.0227671
0.274795 2.00351 0.267498
0.2876 1.79475 0.33195
0.157222 1.39581 -0.0573922
0.178962 1.3345 -0.0160284
0.382694 1.83356 0.319449
0.0831884 1.78527 0.32681
0.201165 1.1592 -0.0543401
0.263023 1.91267 0.280479
0.227969 0.446783 -0.0426068
0.16225 0.144479 0.23041
0.0978258 1.08058 0.424378
0.341894 0.928907 0.220929
0.424445 1.09785 0.225955
0.485356 1.29757 0.211489
0.781042 0.138588 -0.266868
0.341997 0.432116 0.00216435
0.390146 1.6955 0.183752
0.281172 1.84424 0.144204
-0.104345 2.46957 0.631041
0.558204 0.877985 0.226337
0.255434 1.54322 0.378576
0.190565 0.489369 0.426239
0.124162 0.395316 -0.0317513
0.174033 1.77523 0.181035
0.177161 1.76559 0.302066
0.202732 1.34276 0.237383
0.173748 0.580079 0.125372
-0.100787 2.45431 0.612172
0.0677942 1.24697 0.282335
0.00421537 0.2001 0.261143
0.146754 1.02557 0.0192213
0.0578441 0.954368 0.0903458
0.15427 1.17477 0.257563
0.138106 1.61859 0.204086
0.236831 1.88028 0.189694
0.195671 0.807721 0.380041
0.47223 0.974675 0.122788
0.217892 0.591213 0.0913823
0.383805 0.539271 -0.0467884
0.413351 1.05376 0.0565489
0.313687 0.367844 -0.0566495
0.146834 1.34588 0.0825216
0.206233 0.0858235 0.342296
0.469972 0.253831 0.0539417
0.170654 1.78681 0.317617
-0.00214309 0.392822 0.162621
0.505276 1.27458 0.281942
0.230382 1.99305 0.121705
0.344578 1.73911 0.295342
0.210846 0.674491 0.360042
0.514844 0.348096 0.125221
0.262058 1.69811 0.264047
-0.0427792 2.06764 0.564263
0.0937471 1.79869 0.432952
0.269151 0.448239 0.0553727
0.243713 1.32381 0.0807243
0.184367 1.6033 0.385406
0.269049 1.94023 0.267685
0.0761827 1.63235 0.478789
0.275002 2.01772 0.12218
0.415162 0.22268 0.113206
0.323288 1.06122 0.0357745
0.258641 0.338394 0.318908
0.227772 1.3872 -0.00322106
0.086741 1.37723 0.183712
0.159893 0.135127 0.14247
0.429798 0.706837 0.332734
0.276952 1.99939 0.228499
0.238481 0.46125 0.333023
0.0796892 1.12515 0.440878
0.34065 1.27115 -0.0976
0.131531 1.39149 0.345002
0.488813 0.33233 0.308181
0.521813 0.740878 0.205302
0.108699 1.22234 0.303013
0.11043 1.71121 0.424639
0.283737 0.465549 0.162852
0.185366 0.519589 0.34078
0.342003 1.16322 0.118692
0.420361 0.496933 0.227439
0.239045 1.09604 -0.043893
0.0824524 1.1898 0.338398
0.234008 1.21305 0.202949
0.173704 1.47482 0.31099
0.212109 1.65279 0.122559
0.420084 1.39716 -0.0560908
0.428074 1.09793 0.0925373
0.3479 0.419371 0.175177
0.108798 1.83784 0.405921
0.490218 1.14146 0.198243
0.460188 0.337668 0.350144
0.0943751 1.30378 0.343947
0.0836995 1.23674 0.28799
0.279983 0.534585 -0.149071
0.28087 1.98516 0.272947
0.141511 1.16767 0.421182
0.0892684 1.14456 -0.00814676
0.597233 0.921247 0.137816
0.442422 1.35953 0.247142
0.160072 1.23944 0.261295
0.458542 1.08179 0.0490807
0.111872 1.07084 0.471973
0.212081 1.40354 0.143066
0.188028 1.83408 0.28376
0.137111 1.96241 0.382355
0.170974 0.608895 0.0840501
0.633838 0.2001 0.09228
-0.0891721 0.2001 0.0853245
0.06178 1.49597 0.296759
-0.0759178 0.13575 0.197086
0.108596 1.46697 0.334205
0.448586 1.09646 0.158358
0.275161 0.489153 0.0608062
0.296646 0.480925 0.0473994
0.315563 0.493512 -0.0724314
0.0952061 1.75006 0.40523
0.190767 1.77781 0.31001
0.434053 0.555032 0.367642
0.316217 1.84896 0.150572
0.265547 0.237647 -0.17609
0.123978 1.42194 0.26533
0.48578 1.06439 0.19515
0.45544 0.331866 0.145721
0.0251414 1.14837 -0.00183825
0.200266 1.71667 0.319214
0.209915 1.26057 0.144828
0.396628 0.283282 -0.0850725
0.142234 1.1627 0.507824
-0.0204839 0.748041 0.207779
0.0554953 1.04637 -0.0230677
-0.0135189 2.08451 0.49855
0.236786 0.0940521 0.404099
0.0688955 1.10503 0.427136
0.373365 1.33321 0.294973
0.2342 0.303785 0.0684752
0.333477 1.31255 0.297398
0.23036 1.77028 0.2968
0.0664124 0.116565 0.260099
0.32133 1.22223 0.226251
0.30023 2.00126 0.326605
0.0680442 1.35145 0.444013
-0.00961113 0.7101 0.117668
0.266351 0.464967 0.0743673
-0.0597389 0.751787 0.156696
0.4606 1.4159 -0.0334
-0.111776 2.54405 0.63903
0.408551 0.924785 0.240893
0.372866 0.132224 0.338461
0.183588 0.555961 -0.0489829
0.146211 1.28073 0.305871
0.202329 0.17532 0.0246032
0.136542 0.848537 0.0380437
0.379245 0.117737 0.0844322
0.566907 0.412478 0.0417145
0.549797 0.357469 0.128068
0.0803282 1.21317 0.288839
0.174314 0.510518 0.0883869
0.258195 1.97283 0.0997413
0.118445 1.2231 0.110616
0.331268 0.389911 0.0751511
0.195091 0.164262 0.275823
0.111789 1.51718 0.34119
-0.0506596 0.914143 0.129277
0.10847 1.06058 0.0808841
0.278498 1.35284 0.0381111
0.527234 0.244961 0.0538548
-0.00463083 1.15677 0.0969937
0.398988 1.10064 0.0425458
0.109056 1.02103 0.406502
0.21998 1.30877 0.25555
0.185567 1.3439 0.0483522
-0.0116697 0.0919858 0.171607
0.391796 1.30032 0.0628364
0.0424721 1.34075 0.249091
0.296549 0.168705 -0.204296
0.47071 0.420395 0.282175
0.381078 0.49035 0.317744
0.0737699 1.29207 0.196923
-0.0968612 2.49878 0.603896
0.476476 0.384724 0.168841
0.403572 1.52547 0.259966
0.0330482 2.04292 0.577174
0.106543 1.43555 0.188692
0.247054 0.856385 0.124225
0.0327143 1.46322 0.226731
0.421268 0.163032 -0.0545993
0.115191 1.09096 0.371075
0.320014 2.02734 0.146149
-0.131446 2.46207 0.643024
0.0874305 0.805205 0.00700457
0.188952 1.36357 0.203098
0.394511 0.614482 0.32842
0.12626 0.909534 -0.0189633
0.191491 1.27824 0.0964356
0.145607 1.77736 0.425887
0.156666 1.27417 0.255123
0.377215 0.432743 0.205834
0.510301 1.1037 0.220301
0.424709 1.05074 -0.00441085
0.216073 0.773602 0.109442
0.368134 1.29921 -0.055776
0.336209 0.421546 0.0921595
0.14503 1.10656 0.142911
-0.0104574 1.16055 0.150984
0.0307106 1.28184 0.236394
-0.141208 2.47253 0.627279
0.0812355 1.5106 0.310863
0.0647395 2.07637 0.594211
0.120253 0.835792 0.4493
0.478041 0.248192 0.308809
0.452664 1.29366 -0.00212252
0.0713801 1.06606 0.203424
0.262275 1.99264 0.256836
0.00897328 0.850757 0.116716
0.365676 0.12405 0.0116848
0.10826 1.73672 0.350152
0.20751 0.624487 -0.0816308
-0.138892 2.40774 0.610647
0.284707 1.96901 0.232521
0.167991 1.78677 0.343472
0.166832 0.962673 -0.0746495
0.37531 1.31555 0.122804
0.117343 0.980484 0.398844
0.454593 0.336579 -0.0846931
0.24901 0.630324 0.118734
0.462046 0.523697 0.249492
0.155245 0.728706 0.366912
0.202427 0.536961 -0.0287663
0.427371 0.24001 0.17485
0.263435 0.820546 0.16535
0.149783 1.21327 0.277853
0.180656 0.288608 -0.0520291
0.214116 0.288835 0.313572
0.228199 2.02418 0.14743
0.0183866 2.40698 0.637479
0.341362 1.16156 0.256993
0.159585 0.535629 -0.0611694
0.161863 0.466942 0.0156876
0.425473 1.67397 0.338922
0.0745403 1.25974 0.320113
0.0637365 1.72088 0.489764
0.223066 0.385444 0.365543
0.457192 1.28925 0.188998
0.202907 0.371864 0.323393
0.417907 0.847267 0.284806
0.205585 1.74547 0.340744
0.194569 0.507423 -0.0635991
0.56624 0.138898 -0.27447
0.0659748 1.19734 0.290721
0.0642773 1.66336 0.342208
0.408035 0.424743 0.121956
0.191975 0.992361 0.0294259
-0.0945792 2.46231 0.596848
0.119499 0.239811 -0.152002
0.125389 0.923252 0.391749
0.222787 0.536485 -0.0522178
0.18027 0.803446 0.10283
0.042579 1.50146 0.464977
0.335588 0.46283 -0.0202062
0.257531 1.37336 0.113669
0.228142 1.75582 0.36464
0.130652 0.576802 -0.0636966
0.0945539 0.587851 -0.0925975
0.413007 0.815344 0.031262
-0.0138432 0.532327 0.084452
0.0437342 1.05311 -0.103699
0.310841 0.585561 -0.0580303
0.0823208 1.47184 0.136254
0.231378 1.14095 -0.0217777
0.17571 1.18115 0.0187026
0.418354 1.7396 0.402618
0.0219534 1.87245 0.570221
0.362038 1.0155 -0.00570717
0.122183 0.625232 0.00736539
0.156971 1.09349 0.360971
0.492888 1.53027 0.248084
0.201951 1.44903 0.271134
0.501151 0.992853 0.234615
0.487757 1.55483 0.30099
0.271576 0.2001 0.146752
0.305691 0.464507 0.338531
0.162657 0.411033 0.0684511
0.0938971 1.19421 0.175913
0.406185 0.576373 0.399405
0.24819 1.34268 0.149005
0.245173 0.476707 0.055285
-0.0178051 1.76229 0.53983
0.036279 1.00129 0.126399
0.555702 0.428034 0.237524
0.128798 1.80943 0.41577
0.157704 1.72331 0.238438
0.118909 1.196 -0.0722288
0.288205 1.99328 0.262657
0.300699 1.9398 0.181257
0.46843 1.22422 0.33
0.204877 1.29288 0.11777
0.281813 1.17369 0.274074
0.0524622 0.391758 0.0360147
0.16083 0.765062 0.401562
0.426704 0.453469 0.204126
0.46701 0.434098 0.220133
0.417434 0.088174 0.0232407
0.0992892 1.49032 0.314266
0.292114 1.16282 -0.0624271
0.193402 0.159714 0.3177
0.198876 1.39702 0.0797439
0.403519 1.04839 0.152913
0.0437569 1.68378 0.57968
0.501703 0.986107 0.0708716
0.123237 1.36092 -0.0462047
0.58676 0.577199 0.176291
0.129694 1.0404 0.458074
-0.0628617 0.432798 0.133615
0.38026 0.464499 -0.0328996
0.174489 0.594193 0.438902
0.346026 0.429096 0.0662682
0.190725 1.29888 0.082524
0.259132 1.99538 0.298738
0.34868 0.622451 -0.0869511
0.21163 0.434328 0.037994
0.360704 0.453134 -0.0425086
0.253385 0.719981 0.151537
0.39243 0.357244 0.111272
0.136996 0.828131 0.465489
0.0221412 1.47805 0.504579
0.229832 0.33724 0.383411
0.192814 1.32078 0.0731395
0.405357 0.936873 0.0526996
0.00357718 0.48515 -0.024396
0.194451 1.74156 0.321294
0.517549 0.344158 0.215555
0.271417 0.416715 0.367753
0.3886 0.340625 0.352925
0.10262 1.30339 0.225446
0.154789 1.18938 0.0646665
0.455056 1.68088 0.365063
0.112711 0.384887 0.0843711
0.314577 1.96557 0.218517
-0.0474873 2.04542 0.644659
0.0693371 2.06667 0.569968
0.0602343 2.05209 0.53163
-0.00202997 2.03753 0.49344
-0.0874196 2.04206 0.575095
-0.00919241 2.03328 0.652268
0.0602 2.0492 0.615951
0.036372 2.02814 0.640496
0.0280527 2.07407 0.506796
0.205096 0.550276 -0.0554167
-0.01836 2.1392 0.587141
-0.0700702 2.01274 0.528435
0.0744047 0.510606 -0.12704
0.177817 0.546123 -0.0651562
-0.0744793 2.04464 0.617958
-0.0416458 2.03353 0.502284
0.312617 1.8867 0.192565
0.219557 0.321844 0.35448
-0.0132877 2.43035 0.649605
0.0710729 0.492869 -0.0765697
0.160684 0.964094 0.190786
0.165624 0.313614 0.0765526
0.398527 0.124648 0.27874
0.0226943 1.77304 0.519664
0.549752 0.254966 0.00157104
0.182447 1.79594 0.380854
0.373252 1.41142 0.281831
0.096308 1.30829 0.533053
0.28056 1.92648 0.273355
0.0464633 1.83226 0.44129
0.449021 1.63338 0.306296
0.385697 0.409242 -0.0689236
0.191158 1.25563 0.10296
0.13689 1.16552 0.307125
0.274363 1.88363 0.128782
0.147273 0.734373 0.154907
0.310507 1.89184 0.134722
0.134505 0.611965 -0.056525
0.445658 1.24578 -0.00797309
0.253495 1.26714 0.0761317
0.281321 2.02615 0.207725
0.0604657 1.22953 0.131267
0.206825 1.3104 0.117859
0.19146 1.73275 0.340301
0.230885 0.466525 -0.112035
0.0306688 1.79568 0.546407
0.599956 0.2001 -0.423573
0.69025 0.2001 -0.354417
0.312229 1.31968 0.231723
0.427255 0.357438 0.0549255
0.436501 1.16156 -0.0194053
0.293318 0.448818 0.117307
0.103768 1.40869 0.50554
0.407985 0.979918 0.271475
0.56074 0.260306 0.126647
0.108489 1.92064 0.368914
0.213391 0.503516 -0.0321502
0.269958 1.07637 0.120783
0.111068 0.532944 -0.0576287
0.387444 1.69119 0.363854
-0.0344803 0.32567 0.0662285
0.169542 1.11017 0.0225143
0.11188 0.0993199 0.100054
0.581949 0.78358 0.194903
-0.150512 2.28201 0.605339
0.374994 0.734463 0.347362
0.575941 0.652124 0.194906
0.193607 1.38684 0.258426
0.142616 1.72501 0.37922
0.312937 0.465259 0.0794331
0.105622 1.39111 0.290729
0.266131 1.40353 0.265842
-0.0113465 2.17798 0.641217
0.206639 1.24332 -0.0390911
0.182046 1.2569 0.166569
0.210007 1.23895 0.284926
0.225059 1.31711 0.124349
0.174953 0.865375 0.432016
0.0349854 1.31728 0.12445
0.478757 1.64984 0.335574
-0.11409 2.27684 0.604477
0.360894 1.27772 0.0268061
0.168648 1.92545 0.353927
-0.0943225 2.35909 0.577779
0.493524 0.512528 0.218011
0.0325509 1.1957 0.0213848
0.2113 0.569569 -0.0752072
0.479405 1.20609 0.11345
0.301863 0.44989 0.0729236
-0.023428 0.353403 0.180356
0.555682 0.753833 0.138424
0.393962 1.58768 0.310205
0.350245 0.448833 0.00753271
0.287114 0.977605 0.224657
0.198072 1.14953 0.157979
0.599154 0.416713 0.150508
0.139953 1.4477 0.34774
0.371114 1.20625 0.0490057
0.503871 1.04234 0.229026
0.146606 1.07697 0.353986
0.136105 1.26855 0.113946
0.346301 1.90533 0.288847
0.351208 0.446929 -0.0456435
-0.0830486 2.21074 0.545699
0.424657 0.846246 0.340246
0.372144 1.61641 0.250545
0.415931 1.14429 -0.0635385
0.295923 0.417915 -0.133724
0.171603 1.28997 0.278761
0.17397 0.317747 -0.127014
0.337334 1.53615 0.377942
0.392136 0.78431 0.359772
0.267862 1.70773 0.398443
0.412716 0.444271 0.273754
0.340514 0.2001 0.39273
-0.188713 0.040957 -0.0740719
0.374056 0.96987 0.146958
0.348491 0.418768 0.124889
0.273651 1.2293 0.291655
0.572699 0.513924 0.106891
-0.098571 2.49986 0.639005
0.362574 1.15049 0.165309
0.316481 1.95989 0.281222
0.143258 0.961873 0.455487
0.551034 1.13947 0.194054
0.229408 0.78791 0.201473
0.17462 0.805452 0.203106
0.322616 0.390114 -0.0206136
-0.0168201 1.80976 0.571792
0.219197 1.28485 0.210832
-0.0255062 2.23218 0.573172
0.0341853 1.45603 0.258265
0.457307 0.929317 0.0137373
0.123825 1.88425 0.423881
0.390674 0.810387 0.255708
0.233058 0.981309 0.016551
0.00665582 0.858105 0.185837
0.409048 0.99361 0.195953
0.531525 0.371901 0.17351
0.278775 0.418203 -0.505522
0.615065 0.269 0.120907
0.105506 1.31574 0.0164341
0.233039 0.516808 -0.118193
0.225711 1.68337 0.351318
0.127784 0.72118 -0.333709
0.115172 0.583106 -0.39632
0.125344 1.16884 0.0299347
0.16528 1.38177 0.186714
0.307157 1.26754 0.286067
0.0699828 1.23565 0.315039
0.161632 0.59986 -0.0791011
0.0805873 1.21976 0.328904
0.403986 0.46425 -0.0440029
0.408831 1.79627 0.438481
0.0791862 1.4256 0.306993
0.101968 0.146101 0.176963
0.544787 0.490534 0.182171
0.416984 0.161977 0.139963
0.492106 1.12749 -0.0698445
0.105177 1.1348 0.256671
0.117348 1.42739 0.335302
0.194419 1.24454 0.132152
0.0870779 0.723615 0.0584484
0.262037 0.921394 -0.0767323
0.0562127 1.32038 0.0127525
0.52266 1.29882 0.0185642
0.0421177 1.39103 0.519924
0.328932 0.151868 0.056594
0.214628 0.259892 -0.135527
0.185646 1.65146 0.322843
0.231277 1.24459 0.101365
0.0190906 1.33337 0.0638322
0.0863526 1.16403 -0.0682591
0.0967129 1.42962 0.328219
0.337392 0.874275 0.28496
0.275856 2.00462 0.309051
0.381475 0.415216 0.0422844
0.356667 0.422967 0.391977
0.435574 0.492953 0.188145
-0.0104514 2.43978 0.624836
0.111889 0.993922 0.0398725
0.160195 1.64733 0.273646
0.384452 1.14471 0.0506538
0.505747 1.14527 0.285027
-0.00203425 1.90899 0.551704
0.11042 1.39982 0.267537
-0.0879448 2.46899 0.617483
0.377398 0.532181 0.18526
0.0197093 0.264781 0.0649817
-0.0058642 1.67733 0.529293
0.0038905 1.60792 0.520685
0.127362 1.35513 -0.00688012
0.484213 0.335333 -0.000323391
0.304269 1.65645 0.409058
0.212125 1.58432 0.402206
0.167032 1.08975 0.0865525
0.0298637 2.07006 0.646332
0.295091 0.457244 0.0423134
0.344378 0.253017 -0.105865
0.243094 1.2817 0.299168
0.188251 0.279709 -0.210095
0.112351 1.39416 0.533841
0.18849 1.77189 0.354236
0.486289 0.231522 0.0775651
-0.00217971 1.83076 0.591544
0.245772 1.39492 0.350468
0.699936 -0.1 0.525516
0.665715 -0.1 0.378225
0.251004 1.37087 0.0670336
0.156593 0.425158 0.0289396
0.0282299 0.436669 -0.0675228
0.156005 0.427004 -0.068172
0.0517852 0.731234 0.128249
-0.0483259 2.4756 0.614982
0.303431 0.354771 -0.00120809
0.319543 1.33693 0.143468
0.121815 1.18103 -0.021834
0.239591 1.19137 0.140531
0.146792 1.21402 0.0084661
0.173162 1.78033 0.368169
0.260887 1.97243 0.241948
0.299243 2.01433 0.254381
0.285928 1.97008 0.261937
0.193185 0.755031 0.151133
-0.0140896 1.90299 0.514978
-0.0191722 1.81284 0.52465
0.426621 1.16311 0.265179
0.340452 0.46498 0.114816
0.427481 0.20577 0.351305
0.444928 0.792065 0.362965
0.230611 1.05553 0.0335565
0.0384814 0.487869 0.0886197
0.402699 0.621962 0.395091
0.208358 0.360193 -0.0186451
0.000380546 1.42623 0.229557
0.797674 0.1218 -0.462635
0.0459222 1.67747 0.528411
0.276524 1.98749 0.194502
0.0479098 1.48706 0.549366
0.275922 0.468437 0.0535428
0.072423 1.78131 0.514084
0.335785 1.83713 0.21402
0.0718425 1.53845 0.520043
0.458334 1.69559 0.414482
0.400992 1.54422 0.353434
0.348607 0.0035752 0.575766
0.506193 0.328601 0.0357931
0.0551353 1.8716 0.46415
0.0794443 1.83516 0.348955
0.383103 1.64736 0.343248
0.204312 1.31661 0.093614
0.187791 1.81925 0.349417
0.309773 0.984729 0.107875
0.288888 1.93302 0.242631
0.20186 1.29927 0.0244361
0.256029 1.33019 0.224383
0.408236 0.980592 -4.92511e-05
0.414089 1.72665 0.362898
0.290657 1.98182 0.322868
0.289116 1.27519 -0.0139663
0.14676 1.79379 0.299071
0.4317 0.583882 0.254952
0.203254 0.347009 -0.0801227
0.321191 0.391899 0.0138975
-0.043816 2.47088 0.634492
0.26859 0.273121 0.396192
0.312613 1.66082 0.345913
0.382318 1.23787 0.109152
0.379685 0.38965 0.16041
0.300617 1.29979 0.10763
0.289567 0.249685 0.327452
0.350865 1.22543 0.273238
0.572078 0.721195 0.20408
0.199562 0.0928473 0.114682
0.193104 1.34348 0.314564
-0.134754 2.32742 0.631662
0.23845 1.0688 0.3676
0.134847 1.274 0.252868
0.0933405 1.49333 0.294217
0.180259 1.76811 0.157128
0.20812 1.74014 0.369402
0.512043 0.241877 -0.0356554
0.483313 1.13174 0.313803
0.244709 1.98486 0.29651
-0.0820403 2.49305 0.642391
0.461667 1.09173 0.215821
0.291018 1.91442 0.281707
0.305173 1.94096 0.289113
0.394214 0.483022 -0.0487268
0.0709163 1.24165 0.299481
-0.00817698 1.74191 0.512018
0.372341 1.11087 -0.113903
0.426571 0.201807 0.300249
0.267773 1.8703 0.175701
0.100307 0.2001 0.335974
0.280009 0.2001 0.240882
0.475764 1.34305 0.317322
0.194844 1.10887 0.276999
0.113587 1.73539 0.201386
0.241796 0.785343 0.0726122
0.115974 1.34948 0.530989
0.317401 1.1974 0.107826
-0.0816262 2.47093 0.637965
0.509128 0.777231 0.161551
0.152798 1.26267 0.273017
0.493607 1.64757 0.315831
0.174751 0.903702 0.450101
0.167078 1.45587 0.348063
0.32657 1.37642 0.33095
0.532195 0.95238 -0.00725395
0.040494 1.79023 0.407268
0.272254 1.00817 0.120821
0.240817 0.591047 -0.0995743
0.389876 1.17534 0.0698249
0.167679 1.42777 0.388542
0.182424 1.13476 0.100326
0.112824 1.42074 0.271833
-0.0198712 2.45034 0.594903
0.212342 0.464036 0.100586
0.341942 0.464959 0.0670343
0.417709 0.464106 0.03155
0.311649 1.01298 -0.0231478
0.479308 1.15791 0.298519
0.339791 1.12828 0.313944
0.228631 0.179835 -0.175025
0.382158 0.482533 -0.0758036
0.167412 1.76139 0.361815
0.259047 1.98129 0.317858
0.0904892 0.854378 0.162938
0.307773 0.434325 0.0783305
0.538692 0.406916 0.286627
0.177296 1.78355 0.288586
0.106101 1.93413 0.433041
0.161583 0.534154 0.412669
0.163075 1.14492 0.0377085
0.184281 0.709871 0.141204
0.318673 1.7298 0.335604
0.517631 1.08159 0.158872
0.625472 0.463265 0.118921
0.287068 0.465523 0.111399
0.180301 0.62856 0.127391
0.402593 1.21737 0.0739382
0.186409 1.27365 0.141663
0.207807 1.59456 0.357525
0.526486 1.57527 0.293222
0.392401 1.13869 0.301252
-0.0233139 2.26234 0.510632
0.17575 0.540795 -0.0414347
0.057848 1.2483 0.18467
0.208728 0.543122 0.0574198
0.288314 1.15141 0.133752
0.123817 1.24489 -0.0468844
0.069056 2.30214 0.604036
0.266802 1.86368 0.223161
0.491006 0.805255 0.293513
0.131341 1.0649 0.344573
0.197725 0.15932 0.175203
0.376832 1.75964 0.279034
0.207919 0.317093 0.0427973
0.111464 1.38928 0.449741
0.303473 1.0772 -0.0002392
0.115137 1.03668 0.434767
0.271781 0.46378 0.110967
0.0352497 1.45089 0.528856
0.146253 0.632072 0.380393
0.0767685 1.52741 0.293078
0.285829 0.483284 0.0975858
0.185495 0.784923 0.43249
0.0397026 0.125949 0.196424
0.202931 1.75281 0.35792
0.535885 0.667308 0.24724
0.107608 1.67048 0.398118
0.141917 0.799671 0.15253
0.00868199 1.18457 0.20631
0.0187683 0.632116 0.191637
0.00273706 1.67675 0.556128
0.355257 0.150767 -0.0481423
0.847 0.2001 -0.40355
0.431437 0.380611 0.143024
0.458712 0.612094 0.334039
0.306801 1.04656 0.00324795
0.263829 1.97686 0.265488
0.000209965 1.31432 0.12162
0.129141 1.11186 0.0387173
0.244302 1.16357 0.182666
0.339671 1.22877 -0.0939596
0.201549 0.156509 0.370088
0.137822 0.96329 0.123242
0.24626 0.25095 0.354661
0.371252 0.43654 0.0127078
0.544978 0.900159 0.167018
0.0666565 1.17936 0.225467
0.0512292 0.411405 -0.00330608
0.575541 1.02798 0.162161
0.435674 1.18746 -0.0740262
0.216595 1.60829 0.249019
0.426465 0.616124 0.287747
0.377509 0.240461 0.31985
0.386738 0.49121 -0.135952
0.530052 0.2001 0.047247
0.265644 0.154919 0.190629
0.34909 1.67565 0.295303
0.0600597 1.21549 0.475839
0.221323 1.25717 0.118689
0.0875093 0.903712 0.136168
0.141959 0.679702 0.379472
0.25864 0.081483 0.29733
0.0492444 0.91339 0.203082
0.60021 0.466511 0.152116
0.0951563 1.07383 0.391244
0.00173716 1.97845 0.567168
0.198939 0.549518 -0.0447727
0.0241591 0.606207 0.147883
0.0546119 1.79053 0.476357
0.536537 0.436569 0.165243
0.0551587 0.2001 0.201879
0.217659 0.561979 0.00335591
0.0641262 0.401768 0.0163021
0.0187014 1.68794 0.486313
0.248431 1.20137 0.0271927
0.336617 0.415461 -0.0481881
0.0943969 0.802118 0.0654248
0.342702 0.422556 -0.111747
0.208874 1.88014 0.216801
0.127572 1.40251 0.470502
-0.0451486 2.22005 0.536756
0.112221 1.62296 0.331697
0.209036 0.460403 0.368186
0.456096 1.28323 0.26466
0.194209 0.598952 0.0402886
0.376485 0.464672 0.104864
0.464679 1.03246 -0.0717878
0.174196 0.667463 0.404286
0.0771855 1.06841 0.464444
-0.0451564 0.498898 0.160691
0.29664 0.243908 0.349787
0.219784 0.588975 0.157915
0.0596551 1.39877 0.270821
0.076687 1.31756 0.477255
0.402082 1.0688 0.298481
0.0383791 2.28452 0.601231
0.233468 0.432149 0.381567
0.494225 1.32809 0.294386
0.321171 1.13708 0.0519715
0.0221344 1.22589 0.233406
0.00746481 1.17713 0.0487562
0.155302 0.559441 -0.0335969
0.243574 1.95799 0.299823
0.251011 0.392121 0.0922322
0.414697 0.291603 0.148162
0.149319 0.355108 -0.00541449
0.203989 0.627585 0.388893
0.172025 0.709418 -0.0190434
0.407765 1.15334 0.122302
0.407351 0.496038 -0.0350217
0.453274 1.76357 0.295823
0.0352333 2.21899 0.601013
0.0996025 1.08871 0.338345
0.508876 0.935156 0.20338
0.205377 0.713378 0.172107
0.125076 1.08103 0.35529
0.173899 0.764123 0.120217
0.196089 1.75913 0.345211
0.188664 0.349894 0.338227
0.295383 1.27907 0.214703
0.576046 1.4249 0.228277
0.45339 0.698918 0.376148
0.16659 1.27613 0.0836773
0.0778947 1.44086 0.448755
0.46225 1.23328 0.257178
0.215683 0.256541 -0.0408384
0.159887 0.2001 0.284542
0.55327 0.791924 0.232887
0.602927 0.323981 0.140041
0.114544 0.882174 0.403519
0.0582571 1.77406 0.498311
0.15479 0.903806 0.432438
0.215129 1.95778 0.279388
0.2953 1.89316 0.230682
0.199736 0.569604 -0.0507799
0.0526965 1.48192 0.248619
0.472899 1.34954 0.213798
0.451084 0.963032 0.231211
0.335802 0.908804 0.260041
0.0325841 2.29538 0.635237
0.177285 0.42278 0.348412
-0.000996522 2.20089 0.554552
0.0957907 1.11363 0.306006
0.17004 0.491739 0.354485
0.182946 0.950087 0.0231803
-0.0625343 2.17568 0.572502
0.0902586 0.408326 0.0516842
0.112284 0.576839 -0.0367743
0.606372 0.775081 0.162483
0.228682 1.13913 0.316008
0.514668 0.804452 0.202474
0.298516 1.87044 0.164347
0.0255447 1.8136 0.595771
0.351272 1.22169 -0.0295965
0.303521 1.99404 0.102056
0.229402 0.312984 -0.117617
0.0934586 1.29906 0.28322
0.273433 1.98592 0.305637
0.554394 1.54216 0.252396
0.19566 0.248106 0.349595
0.0802522 1.58466 0.504481
0.285044 1.97987 0.265725
0.340714 1.46283 0.240699
0.420214 0.103885 -0.0728329
0.768813 0.2001 -0.385006
0.130437 0.756 0.38974
0.0942133 1.84819 0.445156
0.0241563 1.68023 0.402647
0.154313 0.526042 -0.0319524
0.134968 1.26975 0.267036
0.117602 1.02352 0.462502
0.380408 0.484128 -0.0575833
0.242413 0.22467 -0.0506738
0.213877 0.943898 0.0131643
0.0724392 1.33914 0.210586
0.603363 0.229629 0.133836
0.153967 0.577347 -0.121538
0.186707 1.2426 0.236988
0.206355 1.75628 0.323799
0.178332 1.36106 0.119841
0.0774416 0.413076 0.00470734
0.0190238 1.26108 0.128852
0.376713 1.924 0.327304
0.314161 0.4266 -0.0616312
0.24037 1.1956 0.367948
0.472361 1.00445 0.194013
0.32613 0.158603 0.247213
0.414839 0.727913 0.394639
0.417165 0.455249 -0.0814959
0.210625 0.115407 0.279943
0.209182 1.34735 0.0869599
0.411654 0.421563 0.00361107
0.125569 1.43258 0.353105
0.199817 0.524615 -0.0761674
0.232615 0.290299 -0.0778467
0.170499 0.422417 0.37366
0.198866 1.77161 0.296844
0.434444 1.0415 0.100021
0.0869312 1.01704 0.447405
0.374517 0.488214 0.223836
0.285403 0.451202 0.0756384
0.0931789 1.01895 0.423435
0.0750764 0.489294 0.0213932
0.135712 1.10984 0.449142
0.0784707 0.585669 0.0380225
0.363086 0.873577 0.243639
0.122308 1.47849 0.505749
0.446845 0.795648 0.263647
0.314069 1.01163 0.0224923
0.23457 2.01815 0.121578
0.283644 1.18899 0.208135
-0.0530885 2.45557 0.640715
0.166495 1.22458 0.0405961
0.143339 0.973445 0.491517
0.237394 0.808476 0.113122
0.532866 0.8691 0.279919
0.382794 1.03081 0.101879
0.439353 1.22408 -0.0524127
-0.0751588 2.45733 0.610686
0.457596 1.26197 0.0895498
0.114869 0.898154 0.0866393
0.200318 0.261914 0.328039
0.19506 0.656 0.377783
0.149882 1.25399 0.0139157
0.171509 0.671445 0.12908
0.184855 0.393719 -0.0392033
0.249756 1.0688 0.298894
0.188228 1.78362 0.33238
0.158081 0.687464 0.44933
0.197127 1.27899 0.310053
0.138537 1.06463 0.469354
0.348584 0.86826 0.354778
0.385538 1.716 0.316839
0.205583 0.401474 0.00405621
0.261492 0.516151 0.0561944
0.196522 0.285644 0.381848
0.21422 1.07974 0.0193312
0.56645 0.803514 0.157261
0.179202 0.852992 0.00243866
0.141444 0.856715 0.429256
0.331155 0.312288 -0.0991822
0.576979 0.461286 0.135893
0.427073 1.22867 0.158554
0.32743 1.36851 0.250371
0.482842 0.331868 0.0670408
0.256409 0.326291 -0.0872183
0.19751 1.20026 0.192507
0.175253 0.527759 -0.0320534
0.0557105 0.938522 0.184011
0.0961694 1.34758 0.464851
0.0637 1.21002 0.307826
0.0733986 1.23635 0.0859509
0.160998 1.76054 0.278655
0.250796 1.94817 0.280235
0.360843 1.27187 0.263814
0.109821 1.27485 0.00548765
-0.0560401 0.2001 0.215078
0.187023 1.96609 0.359561
0.463377 0.768503 0.237507
-0.00611163 0.497618 0.115029
0.275521 0.248063 -0.12422
0.200139 0.510671 -0.0978498
0.317657 0.963889 0.0128722
0.444566 0.652679 0.358646
0.131099 1.22107 -0.0260589
0.421094 1.55066 0.31719
0.145853 0.398281 0.00346646
0.316217 1.92407 0.216448
0.0913647 0.545941 -0.0161447
0.111468 1.64749 0.301673
0.10392 0.520401 0.00278229
0.340335 1.04016 0.009325
0.242948 0.89406 0.209334
0.116571 1.31106 0.200431
0.157343 1.8628 0.278748
0.338889 0.442669 -0.00401442
0.501674 1.61009 0.324826
0.1003 0.9878 0.0944537
0.431055 1.09038 -0.0577511
0.295724 0.40171 -0.0487984
0.332076 0.406754 -0.0829446
0.15506 1.38251 0.282644
0.292002 0.501212 0.0919317
0.529667 1.52577 0.322389
0.195097 0.285817 0.00585319
0.308454 2.00078 0.221169
0.275 1.17858 -0.134412
0.562742 0.437979 0.158961
0.361798 0.417092 0.265929
0.193874 0.835636 0.422256
0.139014 1.65207 0.330124
0.325465 0.447187 -0.0509877
0.0695746 1.04299 0.454909
0.153276 0.2001 0.330313
0.425222 0.260147 0.318114
0.280209 0.946736 0.162325
0.274944 1.11248 0.0348321
0.301939 0.251288 -0.14666
0.39188 0.503152 -0.089277
0.318911 1.10856 0.124836
0.350993 1.24973 0.0852791
0.391481 1.17004 -0.115198
0.500993 0.621794 0.104357
0.530439 0.921248 0.276922
0.129176 0.672055 0.0103942
0.389438 1.14203 0.22416
-0.0697607 2.48324 0.618991
0.161188 0.792913 0.071409
0.349634 1.67629 0.39093
0.279399 1.95021 0.211802
0.13931 1.2593 0.276781
0.247452 1.28687 0.0951539
0.253067 0.423696 -0.1129
0.352006 1.1974 0.118999
0.276289 2.01432 0.355242
0.118192 0.83842 0.402423
0.0120992 1.86814 0.532191
0.166567 0.646124 0.094308
0.230533 1.76678 0.226117
0.027786 1.49909 0.480056
0.295982 0.448381 0.0940007
0.2706 1.98574 0.266635
0.197697 1.80695 0.361729
0.0843149 1.68791 0.236612
-0.116722 2.27399 0.635092
0.280692 1.60412 0.403067
0.0909379 1.66785 0.505821
0.452912 1.32535 0.17831
-0.0860832 2.51392 0.626161
0.441955 1.14021 0.214967
0.393954 0.142555 0.397639
0.295393 1.958 0.275856
0.210859 1.18703 -0.0159245
0.274268 0.359824 0.38698
0.203786 0.556226 0.379348
0.151496 1.39408 0.322385
0.0205673 1.17105 0.254359
0.0923724 1.45728 0.317224
0.205752 1.76056 0.162597
-0.0625897 2.48145 0.639479
0.204579 0.539444 0.336962
0.156403 1.18649 -0.104038
0.131426 1.75052 0.31302
0.244354 1.22131 -0.0262978
0.584944 0.381809 0.104483
0.235951 1.76424 0.176093
0.304053 1.91582 0.290477
0.149032 1.07918 -0.00551959
0.369345 0.807822 0.319682
0.494398 1.2664 -0.0185987
0.418761 1.27511 -0.0175054
0.433784 1.30225 0.197963
0.205437 0.657142 0.0835359
0.139182 1.77283 0.36034
0.00502727 0.409393 0.131976
0.423795 0.39671 0.195047
0.356044 0.46478 -0.0478421
0.116046 1.17515 0.516367
0.0386813 0.403981 0.0657623
0.40211 0.170251 0.0628579
0.306308 0.804866 0.17259
0.349069 1.58538 0.401493
0.547399 0.520906 0.220839
0.192348 1.78252 0.165025
0.0551082 1.24943 0.473141
0.0311881 1.59335 0.562098
0.430421 0.248114 0.0056536
0.419171 0.660051 0.312399
0.218886 0.72984 0.200614
0.223173 0.350644 0.0241701
0.362678 1.12434 0.117323
0.295568 0.332826 -0.0405311
0.157092 0.534031 -0.0400143
0.476653 0.758688 0.333203
0.230439 1.01973 0.025697
0.0931554 2.27164 0.567235
0.206306 0.626198 0.18325
0.064023 1.89201 0.485727
0.166784 0.558432 0.0318321
0.321018 0.574707 -0.111407
0.075749 1.43758 0.548488
0.115771 1.58908 0.386508
0.0670994 2.19706 0.647442
0.412491 0.497679 0.350174
0.0513181 1.45012 0.457065
0.42821 0.939491 0.300225
0.0888641 1.18306 0.423957
-0.120809 2.17828 0.54217
0.060504 1.25355 0.501953
-0.029096 2.17709 0.700472
-0.122852 2.17299 0.645646
-0.0293276 2.20392 0.482867
0.079951 0.42017 -0.0245533
-0.0843584 2.19364 0.498604
-0.147859 2.19236 0.596108
0.0702663 1.18397 0.442819
0.0285995 2.1868 0.686718
0.422156 0.347183 0.0124401
0.0456583 1.359 0.464527
0.0294229 2.21551 0.499288
0.580337 0.28477 0.135055
0.168915 1.23442 0.0801221
0.0659708 2.2104 0.537495
0.264184 1.98363 0.300652
0.0569329 1.19783 0.0592866
0.109346 1.43782 0.341312
0.217315 1.11535 0.0885297
-0.0843634 2.173 0.684381
-0.0821669 2.51022 0.644828
0.0640966 1.19283 -0.0326868
0.0828523 2.21247 0.597342
0.196532 1.73168 0.178128
0.280789 1.73426 0.291879
0.110869 1.87105 0.302125
0.4778 1.26522 0.160527
0.159312 0.513476 0.0254674
0.439499 0.538842 0.219548
0.228172 1.83569 0.19701
0.334082 1.13926 -0.0323843
0.422868 1.14168 0.0645665
0.0497516 1.42962 0.178186
0.189561 1.70424 0.219666
0.19196 1.79016 0.350533
0.51376 0.426889 0.235255
0.2288 0.154879 0.242082
0.112703 1.26431 0.0706916
0.0457194 1.52428 0.324041
0.0743174 1.30452 0.0560422
0.460837 0.896499 0.208878
0.303917 1.96007 0.295289
0.144237 0.511824 -0.0714403
-0.0595533 2.21565 0.584186
0.566158 0.343244 0.0662713
0.0360475 0.551399 0.110323
0.539642 0.388349 0.208548
0.445287 1.15843 0.150493
-0.0629029 2.46238 0.60937
0.234617 0.511392 0.340647
0.0361939 1.89809 0.599786
0.229302 0.148755 0.131453
0.255232 1.97652 0.297462
0.0779805 1.46708 0.269927
0.249289 1.95569 0.183335
0.137972 1.32758 0.507907
0.134375 1.68668 0.289086
0.0705674 0.808554 0.1129
0.400592 0.899495 0.307201
0.0569433 2.29469 0.624669
0.412214 1.40549 0.310771
0.199775 0.534231 0.135036
0.12124 1.67951 0.359751
0.111887 1.88907 0.465055
0.0550164 1.45098 0.545403
0.266368 1.74581 0.334259
0.199952 0.23623 0.00395511
0.251052 0.377724 0.322874
0.370343 1.16764 -0.0719177
0.341371 1.24392 0.0492351
0.114219 1.44684 0.32913
0.148747 0.552585 -0.0784058
0.236431 0.360914 0.342065
0.219141 1.20629 -0.062901
0.241928 0.643379 0.171444
0.0575859 1.27834 0.453929
0.310575 1.7624 0.307201
0.24491 0.298376 0.338
0.16494 0.534692 -0.0388672
0.218536 1.77642 0.261796
0.0740459 1.8236 0.547581
0.341185 0.2001 -0.0368878
0.162705 1.5652 0.371908
0.29813 1.97211 0.29745
0.0853884 2.24105 0.570206
0.188051 1.78686 0.25095
0.193436 1.76043 0.313161
0.36162 1.31435 0.234264
0.566049 0.232002 0.142032
0.423243 1.1974 0.329052
0.2316 0.335206 0.312106
0.0567954 0.512882 0.0601403
0.238189 1.80474 0.294555
0.413843 0.519021 -0.0631142
0.167346 0.977582 0.485127
-0.0666538 2.17703 0.626152
0.243263 0.952062 0.0849293
0.0355629 1.55108 0.47117
0.409854 1.39386 0.274609
0.134944 1.38923 0.494352
0.358883 0.352728 0.056371
0.268939 0.153583 0.388967
0.445794 0.250733 0.277721
0.402634 0.759194 0.235968
0.219147 0.23925 0.309398
0.0781247 1.23536 0.0410751
0.0798028 1.28047 0.434703
-0.0282127 1.88108 0.53104
0.268613 0.490372 0.0872634
0.497327 0.925802 0.323335
0.166394 1.71336 0.286096
0.255498 0.529801 0.0224841
-0.0169283 0.269919 0.174597
0.227174 1.16958 0.0242173
0.4279 0.246314 0.374822
0.453769 0.38006 0.317285
0.545287 0.831701 0.18827
0.244716 1.12936 -0.0825776
0.24817 0.246242 0.400708
0.393883 0.762426 0.304039
0.00384469 2.45188 0.641635
0.391319 0.335073 0.034275
0.174024 0.2001 0.131787
0.124705 1.3085 0.0573873
0.335203 1.89849 0.332252
0.190037 0.996963 0.126876
0.521912 0.778843 0.232705
0.380279 0.362399 0.216529
0.10125 0.808393 0.124056
0.164989 1.11664 0.0595383
0.454708 0.252514 0.024645
0.299561 1.32899 0.0796686
0.222125 0.544874 -0.0886102
0.416537 0.726012 0.30099
0.535274 0.588028 0.187393
0.128388 1.25929 -0.0168258
0.4609 1.1331 0.3004
0.440516 0.244318 -0.0551372
0.476789 0.162089 0.00172863
0.108574 0.414059 0.00561298
0.193795 1.86407 0.256594
0.457622 0.225475 0.00271594
0.290596 1.1674 0.0680789
0.309983 0.817194 0.154042
-0.148042 2.33631 0.611897
0.3848 1.37754 0.328591
0.229569 0.461832 -0.00190507
0.115333 1.12349 0.373521
0.257168 1.25334 -0.0513131
0.249098 1.79324 0.196976
0.206774 1.10858 0.0276083
0.127121 1.60102 0.285787
0.0344988 1.74965 0.48705
0.378501 1.21813 0.00686617
0.505439 0.886874 0.247746
-0.117873 2.21797 0.511445
0.137148 0.707956 0.434225
0.0775975 1.39516 0.515257
0.144163 0.658057 0.428036
0.224704 1.22014 0.0829203
0.41292 0.685394 0.423103
0.254933 0.327668 -0.0523957
0.31304 0.390131 0.165168
0.0826317 1.49246 0.523618
0.471089 1.37217 0.255029
-0.0233128 1.84429 0.527498
0.216985 0.474672 0.396409
0.070549 1.28225 0.487748
0.394779 1.29277 0.257873
0.290911 0.41068 -0.0844337
0.456933 1.59053 0.38791
0.460822 1.57225 0.326042
0.345722 0.96579 0.179775
0.11344 1.40197 0.304083
0.269451 0.419192 -0.00643089
0.0750606 1.77192 0.564684
0.165895 0.647146 0.164234
0.372866 1.22538 0.233953
0.102577 1.62123 0.51904
0.118942 1.14117 0.439939
0.40268 0.250215 0.0184752
0.359597 1.1974 0.149711
-0.133976 2.30845 0.585294
0.117333 1.0603 0.434114
0.14018 1.55852 0.320417
0.519405 1.08257 0.26955
0.56967 0.234996 0.168145
0.0892302 1.83467 0.505144
0.101223 1.12567 0.473018
0.427511 0.464003 -0.0213566
0.394205 0.594296 0.216375
0.315234 0.435894 0.0570858
0.319216 1.0688 0.293217
0.0404175 0.448239 0.0742774
0.399541 1.14321 0.0150497
0.0870256 1.47796 0.217659
0.351277 0.519197 -0.0994372
0.256584 0.493784 0.0090468
0.412353 1.30789 0.228376
0.272896 0.259392 0.312198
0.104777 0.930013 0.45752
0.368419 0.860033 0.320839
0.101223 1.6571 0.34157
0.216776 1.22942 0.160044
0.425377 1.0235 0.251438
0.256158 1.15211 0.0485041
0.00508854 1.22866 0.169279
0.205065 0.481602 0.350693
0.355315 0.895799 0.293986
0.595826 0.365772 0.151831
0.193085 0.2001 0.254576
0.0166338 1.72007 0.4304
0.281138 0.461875 0.09333
0.0831229 1.23276 0.429761
0.0848486 1.40024 0.225306
0.422723 0.155089 -0.00448076
0.268255 0.814665 0.228588
0.0633705 0.905256 0.0730939
0.430077 1.0688 0.324185
0.245409 0.383326 0.0476569
0.221537 0.237755 -0.089252
0.376719 1.25783 -0.010437
0.141864 0.47141 0.110226
0.123578 1.24183 0.486405
0.00532287 1.94048 0.584135
0.157556 1.07103 0.0344991
0.0892057 0.505068 -0.0347388
0.558837 0.374122 0.193784
-0.100835 2.20743 0.59642
0.186285 0.490099 0.33805
0.0721898 0.902921 0.139386
-0.0115804 0.153429 0.172215
0.552979 0.162307 0.14276
0.380399 1.53151 0.318983
0.382983 0.62273 -0.0314432
0.405765 0.437875 0.162926
0.276982 0.518281 0.135265
0.438929 1.25716 0.191684
0.378764 0.580657 0.368187
-0.116238 2.43413 0.622923
0.284041 0.464705 0.242222
0.213546 0.495099 0.431471
0.123465 0.477788 0.066912
0.105347 0.579019 0.0128466
0.158065 0.565113 0.417321
0.416382 1.22867 0.137908
0.428368 0.230504 0.0614452
0.101868 1.38492 0.310777
0.105113 0.885421 0.429986
0.198783 1.82155 0.22657
0.269136 0.372323 -0.0339135
-0.0344569 2.006 0.602111
0.493239 1.50227 0.3028
0.0311556 1.79735 0.443124
0.357589 1.12618 0.0194428
0.0662869 1.48393 0.496614
0.00914825 1.75016 0.581547
0.229264 0.2001 0.261065
0.163152 1.33735 0.274119
0.261977 0.762472 0.191223
0.19321 1.42012 0.361786
0.0549381 1.4168 0.539162
0.313899 1.2426 -0.063285
0.410691 0.277173 0.0941711
0.0216338 0.483056 0.0103081
0.110333 1.03661 0.493276
0.122483 1.73767 0.267447
0.163059 0.872443 0.193487
0.236412 0.506243 0.101887
0.1195 1.21453 0.234043
0.467023 0.579563 0.305149
-0.0392377 1.91578 0.559385
0.254559 1.04276 0.0943684
0.183031 1.74664 0.21014
0.179778 0.475158 -0.0270027
0.23226 1.13099 0.0497973
-0.0620767 2.48598 0.598221
0.0825991 1.63773 0.376744
0.44176 0.421726 0.161315
0.0998397 1.36193 0.499532
0.296102 1.21863 -0.0300647
0.0116376 0.557647 0.186758
0.0583201 1.39475 0.450997
0.271768 0.121343 0.250491
0.178502 0.535243 -0.00663108
0.372629 0.770437 0.238655
0.40309 0.998011 0.120744
0.0807453 1.8604 0.485503
0.0546659 0.465548 0.0515497
0.404419 0.268165 0.34345
0.433067 0.200332 0.0196513
0.196172 0.430323 0.372965
0.216597 0.454008 0.427157
0.148145 0.927912 0.485468
0.429455 0.222553 -0.0167288
0.301465 0.174675 0.286142
0.100396 1.2261 0.461572
0.23779 0.764836 0.153634
0.144471 1.30458 0.0988026
0.0872694 0.894822 0.161619
0.134799 1.01591 0.0760501
0.40378 1.16531 0.188012
0.5498 0.832699 0.238247
0.136362 1.08183 0.431866
0.405018 1.11492 0.259521
0.118887 0.989176 0.430061
0.153 1.70708 0.338
0.154282 0.722443 0.2246
0.0934656 1.08012 0.36486
0.249418 1.85232 0.267848
0.00302202 0.466074 0.179739
0.0265017 0.40198 0.0183291
-0.0484896 2.17771 0.531512
0.164004 0.580073 -0.0370664
0.149682 1.43337 0.299278
-0.137516 2.27951 0.624999
0.568513 0.374727 0.18805
0.00878663 1.62925 0.549626
0.119544 0.994545 0.488889
0.146979 0.8326 0.111617
0.266502 0.166879 0.274567
0.0705479 1.74822 0.448762
0.127778 1.2449 0.156824
0.051319 1.56858 0.517918
0.254303 1.96807 0.281728
0.0706678 1.52337 0.539213
0.105925 1.82159 0.296374
0.342233 1.94398 0.295099
0.139517 1.87163 0.250351
0.321303 1.10301 0.0444882
0.531971 0.435859 0.198782
0.113579 1.17519 0.446611
0.178318 0.54586 0.432096
0.243002 1.77626 0.340131
0.38514 1.49849 0.362041
0.447943 0.949717 0.336231
0.0846364 1.74662 0.31272
0.0911007 1.28409 -0.0298635
0.233456 1.09766 0.0422516
0.538814 0.549485 0.183863
0.110377 1.24185 0.0165353
0.422899 0.85657 0.222446
0.186757 1.8342 0.37035
0.066562 1.52152 0.559556
0.129468 1.1455 0.477713
-0.0361427 0.447895 0.169409
0.151468 0.716937 0.0900713
-0.143772 2.43019 0.623235
0.047434 1.5883 0.494114
0.0317115 1.58958 0.474354
0.137007 1.30182 -0.0617197
0.238144 1.21032 0.259183
0.0522748 1.93807 0.53682
0.39343 0.632398 0.286239
0.127014 0.338272 0.0487025
0.087245 1.46577 0.298425
0.267842 0.894526 0.159043
0.135695 1.36095 0.33588
0.453492 1.26038 0.224515
0.129788 1.07167 0.503762
0.160782 0.814637 0.420469
-0.0271186 2.46561 0.6538
0.241497 0.297836 0.406941
0.565349 0.488946 0.154644
0.233678 1.26005 0.0494469
0.0552568 1.59283 0.567961
0.436967 0.749201 0.244067
0.23116 1.26418 -0.000702772
0.0901335 1.3952 0.327837
0.134461 1.04413 0.188489
0.217154 0.44793 0.325693
0.582941 0.243757 0.161372
0.577992 0.334903 0.173283
0.347191 0.827471 0.286192
-0.0100636 0.2578 0.120407
-0.00344051 0.333833 0.129768
0.411412 0.760651 0.273923
0.199732 0.219979 0.0432601
0.468579 0.908399 0.290762
0.130832 1.01722 0.434317
0.121346 0.772319 0.417135
0.290735 0.397029 0.110332
0.290443 1.19846 0.00476566
0.174309 0.685086 0.183047
0.171274 1.30416 0.0572791
0.186917 1.74499 0.24944
0.377589 1.25252 0.0669643
0.379715 1.11865 0.0820397
0.130676 1.35561 0.459747
0.070825 1.36849 0.479586
0.285768 0.321233 0.359377
0.21928 0.670128 0.14389
0.089535 1.09773 0.454904
0.448342 1.23334 0.139012
0.115038 0.333258 -2.53322e-05
0.39309 0.370023 0.302363
0.183273 0.691606 0.456605
0.421674 1.17039 0.220107
0.544001 0.564454 0.228869
0.232207 1.71617 0.220663
-0.0196357 0.532546 0.196031
0.246374 0.737014 0.195823
0.236708 1.68066 0.403043
0.345138 1.69858 0.354631
0.150583 1.68055 0.232586
0.248408 1.78641 0.270626
0.174309 0.759452 0.464856
0.447742 0.53786 0.182288
0.159519 0.981548 0.0907595
0.205006 1.24975 0.199999
0.159745 1.0418 0.099503
0.480116 1.53134 0.33082
0.0547808 1.29319 0.50649
0.100629 1.3382 0.271465
0.495869 0.243567 -0.00687911
0.434038 1.36239 0.264228
0.182589 0.344185 0.359919
0.0481342 1.67974 0.35904
0.396805 1.41748 0.380868
0.425752 1.35297 0.200686
0.105881 1.41002 0.343178
0.0507417 1.61562 0.362306
0.342988 0.741403 0.297547
0.203774 0.534197 0.436712
0.111947 1.31717 0.486497
0.139678 0.59475 -0.0134513
0.248703 0.265254 -0.102345
0.238602 0.527008 -0.00780056
0.147685 1.31315 0.274719
0.116004 1.53977 0.281109
0.228602 1.84273 0.278853
0.362912 0.755043 0.312966
0.135294 1.14377 0.34416
0.201572 1.74616 0.296685
0.353597 0.464843 0.025146
0.0743909 1.07375 0.40988
0.252833 0.513034 0.361128
0.040324 1.40346 0.469114
0.46271 0.489183 0.212909
0.159286 0.839859 0.474237
0.184356 0.166693 0.113315
0.505057 0.421557 0.188286
0.0243096 2.01612 0.533642
-0.007208 2.52385 0.634582
0.231327 1.3427 0.186698
0.199411 1.76961 0.33072
0.47897 1.13457 0.0910815
0.36573 0.708833 0.364325
0.48155 0.463473 0.120511
0.485414 1.41029 0.276137
0.357271 0.500444 -0.0606787
0.376676 0.431358 0.147485
0.231316 0.398306 -0.0332972
0.179667 1.305 0.236258
0.377148 0.589145 0.293341
0.0812575 1.17881 0.271815
0.413097 1.36212 0.346176
0.254888 1.79558 0.31599
0.00269634 1.94035 0.51211
0.2052 0.231012 0.0753871
0.104036 1.36743 0.278878
0.0506808 1.3193 0.461699
0.0625753 1.8359 0.3989
0.416997 0.794642 0.309078
0.38972 1.37065 0.256847
0.192707 1.102 0.319998
0.10566 1.56046 0.314871
0.226213 0.385587 0.418671
0.111267 0.801541 0.107247
0.0930215 1.61801 0.290604
-0.109523 2.44035 0.650375
0.256394 0.301808 0.368378
0.000652963 1.6965 0.503911
0.253324 0.338708 0.360093
0.141495 1.43415 0.372007
0.124955 0.948274 0.482875
0.270452 2.02018 0.284883
0.163769 0.538031 0.359986
0.201981 0.67096 0.420675
0.107328 1.22504 0.522284
0.387484 1.55712 0.386954
0.136169 1.20567 0.425892
0.122611 1.12878 0.510601
0.0242898 0.427528 0.0997654
0.217009 1.30729 0.0639574
0.364374 1.11123 0.266906
0.0341401 1.75498 0.588398
0.185539 1.50037 0.346224
0.125334 0.402533 0.0407322
0.495536 0.939086 0.253224
0.464622 1.0332 0.234517
0.0638083 1.66381 0.393731
0.0642042 1.22709 0.448167
0.010335 0.491488 0.148896
0.134743 1.30468 -0.0151576
0.247043 1.99792 0.273596
0.297416 1.85542 0.268519
0.242458 0.571756 0.0427081
0.394121 1.20675 -0.0462306
0.395274 1.28288 0.323462
0.263971 0.270985 -0.150104
0.30055 1.83981 0.192301
0.396175 1.02409 0.0260913
0.184589 0.385844 0.341694
0.0965948 0.810175 0.141734
0.0529165 1.92943 0.584218
0.158906 0.884086 0.479707
0.383999 0.5032 -0.053445
0.0033983 0.529744 0.222013
0.126966 1.34893 0.193981
0.20159 0.633949 0.418471
0.240176 0.189806 0.351921
0.121366 1.51153 0.252894
0.090649 0.994684 0.446792
0.193785 1.03738 0.0389047
0.330405 1.23284 0.173138
0.06347 1.85436 0.574908
0.275 1.86204 0.266222
0.152195 1.11239 0.311973
0.0606512 1.71399 0.57736
0.148564 1.3945 0.234231
0.22251 0.771167 0.41518
0.396742 0.517127 0.202581
0.133932 0.963433 0.423911
0.2325 0.287968 0.377022
-0.00752976 0.390484 0.196821
0.407057 0.471386 0.167082
0.0657599 1.26191 0.232114
0.1789 0.698512 0.383118
0.152755 0.605236 0.116382
0.290563 0.506729 0.00244329
0.165678 1.81159 0.266232
0.170058 1.08838 0.481024
0.176484 0.885377 0.055208
0.545593 0.777513 0.187546
0.217367 1.16861 0.103659
0.352386 0.776044 0.338969
0.25689 0.412307 -0.0656612
0.230988 0.16349 0.291729
0.0853166 1.38808 0.543006
0.196246 1.93145 0.243087
0.032277 0.427824 -0.0249312
0.24787 1.15724 0.104886
0.274884 0.168312 0.349849
0.0177859 1.77516 0.493914
0.261517 0.174523 0.316195
0.37996 0.649375 0.357397
0.317399 1.12842 0.197316
0.201738 0.239316 0.371316
-0.17523 0.2001 -0.354334
0.194244 0.414159 0.3314
0.474352 1.15419 0.261302
0.306969 0.890994 0.268657
0.357914 1.05372 0.0429388
0.228257 0.23593 0.0604159
0.335199 1.17439 0.206868
0.39966 0.232659 0.370538
0.172447 1.32185 0.128828
0.421175 0.505226 0.155133
0.192476 1.09009 0.00415016
0.0530263 1.80464 0.586168
0.26652 0.300805 0.31679
-0.145919 2.38298 0.617534
0.0960814 0.993052 0.422989
0.368866 1.24788 -0.056422
-0.0810596 2.25311 0.519334
0.282608 0.757619 0.206253
0.394629 0.689314 0.364315
0.0628145 0.440724 -0.0478253
-0.0348595 1.92974 0.536772
-0.0162706 1.94605 0.565581
0.404468 0.665324 0.389237
-0.018654 0.404504 0.189649
0.0164451 1.78616 0.473501
0.0690973 1.39552 0.301411
0.19003 0.236131 0.0651442
0.216089 1.96765 0.20784
0.271227 1.77542 0.298539
0.0320599 1.93644 0.516145
0.308127 1.85969 0.235349
0.280343 1.16969 0.094172
0.208072 0.676079 0.448209
0.125138 0.805236 0.0901032
0.16124 1.16674 0.485496
0.0324919 0.466337 0.0372152
0.363003 2.00996 0.520298
0.358866 1.16827 0.0301052
-0.0346957 2.52165 0.609709
0.294757 0.32735 -0.0740416
0.396989 1.10017 0.134272
0.100379 1.21899 -0.0457371
0.0996593 0.88892 0.108377
0.415079 1.50548 0.334398
0.413513 1.25995 0.143614
0.356552 0.93923 0.325589
0.175625 0.230893 0.0545526
0.153099 1.31585 0.218721
0.178191 0.326318 0.00899597
0.0348396 1.78124 0.492167
0.152854 1.32903 0.0267303
0.0978311 1.27302 0.490879
0.315825 0.910963 0.29159
0.418952 0.296018 0.284379
0.430531 1.18369 0.0918158
0.199599 1.20122 0.0499494
0.366024 0.934006 0.278688
0.32914 0.842329 0.342009
0.0897108 1.31942 0.435174
0.136021 1.09884 0.343708
0.142127 1.30238 0.230582
-0.132549 2.42384 0.639905
-0.130983 2.50655 0.646568
0.149145 0.909125 0.38379
0.498539 1.37849 0.262307
0.0199257 0.380714 0.0956226
0.235919 0.622872 0.0588302
0.46363 0.55284 0.201883
0.326301 0.776262 0.345
0.38834 1.33523 0.250523
-0.0244281 1.80942 0.545674
0.198564 0.583395 -0.101023
0.310013 0.390164 0.0478009
0.241268 0.691003 0.183156
0.152321 0.925782 0.0950746
0.237126 0.294974 -0.0282707
0.261819 0.453484 0.0287691
0.50843 0.419704 0.143523
0.502236 0.501999 0.238065
0.311965 1.1705 0.0570053
0.319926 1.84851 0.28253
0.0756988 2.03173 0.571047
0.385544 1.16 0.259575
0.12491 1.81052 0.258675
0.124447 1.84296 0.269145
0.0500726 2.00682 0.593258
0.461273 0.168783 -0.0358455
0.156239 0.99441 0.433365
0.077415 1.35988 0.25008
0.435723 1.36725 0.312738
0.31256 1.69547 0.397702
0.0166057 0.432005 0.0480779
0.400732 0.2001 -0.0558147
0.0981831 0.433906 -0.0545355
0.132859 0.745941 0.439961
0.389256 0.725018 0.312055
0.117916 0.961555 0.160217
0.21836 0.428547 0.350302
0.206801 0.331717 0.320197
0.427975 1.30071 0.278282
0.328885 0.754656 0.334398
0.422462 1.1974 0.285986
0.115229 1.39978 0.234921
0.160399 0.948064 0.0553136
-0.115541 2.35013 0.641222
0.0900169 0.467911 -0.0494385
0.189752 0.458712 0.335121
0.0231683 1.947 0.55503
0.444627 0.746328 0.301511
0.100609 0.473696 -0.00338274
0.122994 0.555696 0.106351
0.165583 1.17222 0.462899
0.437889 1.11185 0.273123
0.124616 0.526322 -0.0137389
0.197685 0.577327 0.442054
0.317582 0.980556 0.258402
0.273472 0.265062 -0.103294
0.702514 0.388042 -0.0844365
0.662513 0.638149 -0.0147989
0.083123 0.451242 -0.0262994
0.115179 1.28126 0.464865
0.067922 1.26722 0.0643195
0.0564483 1.13331 -0.0646251
0.262775 0.534726 -0.0292168
0.393582 0.484071 0.191933
0.274991 0.994255 0.00874011
0.108891 1.58056 0.342713
0.305927 1.2713 0.0801487
0.430256 0.600696 -0.388957
0.425715 1.38425 0.250928
0.149274 1.59865 0.332201
0.129881 1.31237 0.175212
0.275252 1.073 0.0261784
0.13312 0.864062 0.471056
0.14707 0.787738 0.462852
0.499248 1.18864 0.292008
0.47297 0.936629 0.333495
0.213931 0.788553 0.440388
0.173587 0.727831 0.108847
0.0657441 1.28214 0.00120113
0.0624842 1.53085 0.487774
0.061592 1.55341 0.563235
0.00704649 0.508057 0.18246
0.240904 2.00511 0.318861
0.439373 0.651292 0.409707
0.438991 0.603679 0.400982
0.472551 0.842651 0.318891
-0.0227227 2.20779 0.605818
0.321743 0.417343 0.0631106
0.173813 0.603076 0.162446
0.311863 0.450342 -0.0796495
0.0177153 1.86907 0.602661
-0.070542 1.99913 0.609882
0.108654 0.735006 0.14436
0.0855146 0.402205 0.025026
0.264866 1.90594 0.253729
0.293843 0.330505 -0.105586
0.130787 1.32771 0.127139
0.066652 1.82957 0.521462
0.0988747 1.26246 0.526393
0.0908398 1.34878 0.538132
0.334697 0.740773 0.322096
0.185053 1.83834 0.332716
0.00227903 2.00432 0.612888
0.191845 0.582867 0.407437
0.37938 0.707252 0.294428
0.0662938 1.2718 0.270602
0.275523 1.21868 0.0583779
0.261555 1.98068 0.283541
0.327424 1.758 0.370135
0.289474 1.9036 0.165458
0.327169 0.438068 0.158001
0.00893022 0.2001 -0.421079
0.320132 1.16639 0.0742409
0.298966 0.41998 0.204707
0.262346 0.215963 0.335916
-0.0969922 2.27297 0.643084
0.542302 0.519006 0.185643
0.167782 0.801329 0.470234
0.0578485 1.93911 0.561749
0.216097 0.661778 0.194388
-0.0354142 0.424457 -0.373556
0.220248 0.321412 0.00140605
0.313832 0.828696 0.292139
0.145898 0.515894 0.0621196
-0.11327 0.492085 -0.209721
-0.108198 2.43296 0.59485
0.190807 0.948612 0.462578
0.209982 1.25846 0.0855498
-0.0936429 0.625333 -0.155953
0.0726701 1.05699 0.442166
0.0411479 1.52512 0.507142
0.526935 0.778347 0.265818
0.229926 1.91309 0.265741
0.252629 0.135388 0.289843
0.307592 0.23328 -0.118568
0.0969956 0.439938 0.0414635
0.294594 0.533906 0.0966585
0.159325 0.942241 0.0414594
0.310855 0.465277 0.162848
0.326661 0.80209 0.263939
0.133369 1.47181 0.325133
0.246343 0.600806 -0.0573077
0.124742 0.949735 0.394149
0.294727 1.97258 0.284022
0.226143 1.74527 0.323027
0.490349 1.04268 0.259889
-0.0897487 2.29517 0.603551
-0.00686633 1.95173 0.541448
0.30376 1.90107 0.262099
0.305333 0.268625 -0.113151
0.271356 1.91145 0.205895
0.326308 1.1974 0.0755295
0.253515 1.94504 0.241163
0.272849 1.76778 0.165272
0.252669 0.396958 0.410043
0.456679 0.79491 0.313796
0.104285 1.16771 0.335825
-0.0928305 2.34888 0.648572
0.119489 1.19161 0.481755
0.223267 0.63592 0.0172331
0.338585 1.19659 0.0458076
0.272969 1.98617 0.287634
0.362899 1.23344 0.186093
0.224962 1.22955 0.126964
0.275949 1.28537 0.0937204
0.0902498 1.11974 0.410645
-0.0816411 2.47589 0.597532
0.227453 0.376689 0.316777
0.107739 0.910019 0.0775628
0.0960336 1.09708 0.390654
0.149785 0.684445 0.154048
0.0138306 0.854584 -0.189079
-0.0113995 0.593689 -0.304763
0.398316 1.1974 0.164069
0.202913 0.706566 0.427969
0.434776 1.1974 0.258502
0.0202849 0.45721 -0.0132922
0.160312 0.705425 0.119565
0.406823 0.248188 0.282618
0.509364 0.798429 0.253879
0.401039 1.62725 0.381715
0.261009 1.14727 0.0139201
0.107269 0.91802 0.41129
0.483494 0.494794 0.189028
0.205674 1.82562 0.349852
-0.13984 2.51664 0.633677
0.102611 1.27279 0.428187
0.407885 1.23144 0.233761
0.130977 1.06935 0.404299
-0.128086 2.46471 0.60926
0.302318 1.24416 0.0432062
0.275756 0.363348 -0.0723827
-0.0852112 2.28342 0.624517
-0.00803368 2.36314 0.57623
0.0331379 1.90813 0.566716
0.197601 1.11866 0.0558783
0.249551 1.81786 0.275278
0.00679349 1.45317 0.255516
0.0679184 1.31772 0.4427
0.127125 1.28181 0.436957
0.150017 1.01371 0.463977
0.43089 0.264819 0.0548021
0.188834 0.65611 0.451022
0.0299843 0.440236 0.0109057
0.439151 1.36879 0.295348
0.346276 0.464901 -0.0344549
0.566235 0.499214 0.198461
0.0665963 1.52126 0.458725
0.0558323 1.59785 0.468224
0.161541 0.596662 0.19174
0.363636 1.21041 -0.0658461
0.229579 0.541415 0.430773
0.205059 1.19215 0.0780448
0.0131889 1.85992 0.502364
0.17129 0.601929 0.351706
0.156874 0.76911 0.433758
0.144228 0.54141 -0.0275994
0.189966 0.600456 0.374591
0.375767 1.15198 0.0927895
0.173994 0.457674 0.351106
0.545873 0.462733 0.177904
0.388361 1.24557 0.258662
0.394533 1.77468 0.365985
0.30393 1.80342 0.311405
0.222824 0.589294 0.34948
0.359265 1.20373 -0.103523
0.0381199 1.83843 0.550511
0.289435 0.444716 0.170125
0.183241 1.15604 0.30144
0.0262618 0.515468 0.120929
0.266074 0.742171 0.218113
0.129596 0.513316 -0.00128995
0.114666 1.32581 0.439638
0.0232438 2.00576 0.578628
0.0519396 2.01223 0.557934
0.187961 0.595877 -0.043335
0.419115 1.29471 0.302142
0.149924 1.24592 0.496006
-0.0406067 1.99656 0.638598
0.287934 0.544211 0.124699
0.200851 0.765853 0.455749
0.287937 1.98226 0.30156
-0.00453575 2.36123 0.619375
0.319299 0.806367 0.283996
0.391769 1.2291 0.208094
0.080742 1.44994 0.517333
0.0773591 1.16032 0.313433
0.0853349 1.53697 0.336272
-0.0953893 2.35969 0.632229
0.0354466 1.93513 0.601793
0.0421812 1.84656 0.471212
0.161998 1.28911 0.327267
0.179112 0.567679 -0.0739172
0.46692 1.00477 0.297812
0.427923 0.332848 0.305512
-0.0307731 1.92423 0.588074
0.00128724 0.433725 0.16854
0.069417 1.10604 0.342323
0.360541 1.02189 0.0365824
0.460963 0.984142 0.271184
0.433353 0.323129 0.0875229
0.156416 1.17341 0.437281
0.129665 1.25968 0.518736
0.0728436 1.47878 0.554175
0.1346 0.719758 0.388738
0.00993445 1.56491 0.515351
0.058127 1.10688 0.459587
0.216781 0.279205 0.354736
0.228762 0.548124 -0.0617858
0.186031 0.825198 0.46701
0.473782 1.19555 0.298141
0.0900405 0.896482 0.1026
0.507323 0.740682 0.320928
0.437417 1.35059 0.222348
0.369352 1.16616 0.209633
0.134488 0.887917 0.386183
0.132029 1.29665 0.250639
0.10082 1.42371 0.541543
0.239401 0.299055 0.30741
0.365042 1.19026 0.236987
0.100073 1.59551 0.317414
0.195412 0.545118 -0.081448
0.138831 1.26822 0.043958
0.121496 0.829266 0.13223
0.2831 1.71437 0.361826
0.193968 0.304125 0.333696
0.172872 0.623444 0.409399
0.124292 0.856481 0.458646
-0.0184173 0.441043 0.192145
0.187837 0.625479 0.348943
0.524444 0.805387 0.303374
0.169456 1.25681 0.120168
0.121851 1.37534 0.319643
0.173377 0.526724 -0.0816315
0.43321 1.60492 0.401782
0.163503 0.503309 -0.00685265
0.0813157 1.13504 0.346086
0.559706 0.308173 0.153337
-0.0163952 1.93084 0.603808
0.292761 0.474311 0.068841
0.108051 1.54484 0.533411
0.203388 0.230724 0.327957
0.0299611 1.89998 0.537589
0.275 2.02848 0.544168
0.197718 0.690267 0.111716
0.51211 0.750192 0.340362
0.178558 1.07794 0.456315
0.352735 1.05811 0.067793
0.0545207 1.22602 0.295747
0.237405 1.87934 0.257712
-0.0535261 2.47754 0.657202
0.0450323 1.51864 0.553675
0.124253 1.77805 0.262586
-0.019396 1.93682 0.519732
-0.133058 2.43026 0.605636
0.155456 1.2481 0.474332
-0.138671 2.36827 0.602504
-0.055781 1.99784 0.567758
0.429341 1.22684 0.10613
0.22378 0.714075 0.433491
0.427247 1.35356 0.32443
0.264728 1.16474 0.0725177
0.275776 1.1461 0.0424367
0.0657741 1.09006 0.476812
-0.0428856 2.49696 0.63125
0.308969 0.465274 0.19973
0.388645 1.20054 -0.0992307
0.404849 1.22788 0.273923
0.0150682 1.83499 0.524936
0.224374 0.224514 0.340111
0.129524 1.43904 0.26242
0.214651 0.727547 0.114506
0.164673 0.46742 0.377402
0.223183 0.171489 0.329812
0.163094 0.235205 0.0301829
0.107935 1.41195 0.296294
0.202097 1.79167 0.18707
0.467988 0.494063 0.169698
0.219886 1.89793 0.323026
0.0962921 1.15469 0.469845
0.115457 0.816679 0.423934
0.428962 0.274588 0.0275011
0.513594 0.463084 0.161918
0.187853 0.298936 0.358346
0.10039 0.921277 0.435528
-0.0357359 2.49816 0.655743
0.486629 1.08073 0.272137
0.409884 1.22868 0.251913
0.229967 1.84532 0.15404
0.156675 1.81099 0.222371
0.565061 0.294184 0.179053
0.370894 0.660725 0.290433
0.161138 0.544867 -0.0298091
0.14899 1.04361 0.434543
0.104604 1.05155 0.461886
0.129605 0.658182 0.170296
0.295955 1.7157 0.407199
0.21364 1.78204 0.318151
0.472331 1.40974 0.310095
0.421098 1.63317 0.397144
0.216681 0.579538 -0.0534024
0.276976 0.331437 0.335645
0.266091 0.388815 0.339399
0.0631361 1.06959 0.481486
0.383954 1.17927 0.102563
-0.00192726 0.462352 0.210069
0.146112 1.30709 0.485594
0.0577582 1.05536 0.46762
0.407648 1.33399 0.27912
0.0548038 0.451237 -0.00630363
0.446074 1.37021 0.282377
-0.128775 2.40215 0.598912
0.00467839 1.93784 0.610341
0.104561 1.41198 0.319175
0.0964118 1.35177 0.312656
0.110822 0.855132 0.431588
0.300294 1.23501 0.0682735
0.331973 1.18902 0.066193
0.449045 0.280876 0.0437956
0.352609 1.19433 0.0726361
0.043258 1.33533 0.482975
0.092946 1.13385 0.502344
0.450532 1.35299 0.295617
0.141766 0.53115 -0.0151618
0.121548 0.482184 0.010891
0.0775509 1.10381 0.365948
0.549758 0.490686 0.215267
0.420946 0.297496 0.309497
0.516313 0.701996 0.155223
-0.0926585 2.42316 0.621515
0.573349 0.526401 -0.33048
0.105633 0.943925 0.0895511
0.530834 1.29365 0.194128
0.38271 0.526051 0.402735
0.160782 0.68084 0.36132
0.156549 0.582596 0.36648
0.102505 1.78177 0.290758
0.285003 0.463503 0.137104
0.240722 1.26725 0.12859
0.541238 1.18557 0.0532651
-0.073347 0.665366 0.131519
0.246753 0.338966 0.0976178
0.32348 0.375958 0.123421
0.323582 1.95186 0.341648
0.314116 1.94955 0.311455
0.328132 1.96114 0.393933
0.303411 1.97093 0.316854
0.311671 1.96924 0.34775
0.293792 1.98133 0.353774
0.301467 1.97864 0.408229
0.358781 1.85727 0.364174
0.318385 1.92079 0.307724
0.0866219 0.63665 0.0399898
0.0175629 1.23467 0.07519
0.638994 0.679807 0.0678868
-0.0222588 0.965504 0.203764
0.00645944 1.10696 0.235948
0.347528 0.370231 0.326343
0.0155617 1.52487 0.510385
0.181541 0.923973 0.0511638
0.374687 0.956081 0.100899
0.475529 1.82388 0.354091
0.106571 0.953396 0.410288
-0.0128682 1.08478 0.0131097
0.352156 0.582151 0.244916
0.0966069 0.955284 0.436073
-0.00433639 0.430608 0.203767
0.000252557 0.490315 0.215223
0.00477267 1.64981 0.500594
0.362796 1.7195 0.394029
0.153706 0.545144 0.387203
0.126708 0.736188 0.413723
0.146504 0.597057 0.393296
0.139146 0.645506 0.401328
0.132185 0.695038 0.40747
0.176204 0.382046 0.368536
0.245056 1.9686 0.315766
0.227894 1.96407 0.376505
0.385251 0.366315 -0.0763047
-0.151911 0.398305 -0.0850218
-0.120634 0.591781 -0.0252791
0.137337 0.838269 0.381213
0.352101 0.635741 0.293696
0.0259717 1.63041 0.479416
-0.00422957 1.84523 0.506047
-0.0726021 0.2001 -0.256842
0.117863 1.40385 0.327136
0.505511 0.733792 0.369
0.323025 0.3634 0.205993
-0.131611 2.50504 0.617724
0.211146 1.22106 0.0167566
0.275 1.18063 0.0498524
0.355173 1.16319 0.0664024
0.574448 1.09624 0.125026
0.523971 1.19791 0.260497
0.272421 0.544952 -0.0733774
0.279128 0.626428 -0.0591703
0.397466 0.556046 0.18953
0.0455151 2.32411 0.582058
0.0115856 2.47273 0.625753
-0.00989038 2.50714 0.615189
0.0109436 2.44117 0.604227
0.0116705 0.456179 0.131725
0.356364 1.63006 0.396338
0.0869253 1.57686 0.47479
0.282879 0.297463 0.333474
0.258472 0.469527 0.353987
0.261022 0.429373 0.345047
0.22889 2.03662 0.296621
0.205472 0.722663 0.367383
0.213539 0.628768 0.353444
0.174465 0.912979 0.388898
0.139603 1.13108 0.414891
0.146834 1.1009 0.411893
0.197318 0.770713 0.371971
0.185181 0.857047 0.382673
0.423715 0.596262 0.213425
-0.0970609 0.504921 0.09045
0.309727 0.465315 0.0290606
0.0772093 1.87432 0.40332
0.109942 1.36387 0.235379
0.114049 1.44263 0.285615
0.550802 0.699009 -0.258988
0.632259 0.676262 -0.146315
0.660595 0.509478 -0.203334
0.129664 1.29219 0.267178
-0.133332 2.38249 0.636574
0.103102 0.441007 -0.459607
0.27035 0.656357 -0.3929
0.549169 1.20838 0.160464
0.126184 0.605269 0.108555
0.236874 0.642769 0.413106
0.112407 1.50913 0.530582
0.0688106 1.81734 0.569805
0.178384 1.0418 0.471584
0.143453 1.27942 0.504461
0.277957 0.977477 0.0719856
0.435804 1.92783 0.361097
0.331765 1.92697 0.33467
0.359732 1.89793 0.378812
0.349604 1.93149 0.388017
-0.0111025 0.473857 0.203339
0.0707737 1.18884 0.495069
0.367732 0.920356 0.12734
0.376756 0.431794 -0.0409487
0.1886 1.12286 0.3572
0.273477 1.98548 0.328627
0.272057 1.98405 0.386958
0.252832 1.97958 0.355806
0.0651004 1.01342 0.194149
0.442584 0.446592 -0.459218
0.425126 0.731443 -0.32828
0.508926 1.3756 0.180768
0.548785 1.07386 0.232667
0.484055 1.71214 0.336371
0.0759207 1.89772 0.444226
0.211056 0.313562 0.403373
0.195415 0.430616 0.418095
0.151703 0.735864 0.455749
0.166382 0.649704 0.44571
0.128074 0.903646 0.476459
0.0930522 1.16485 0.509367
-0.0114912 1.89702 0.599761
0.0111084 1.90703 0.607047
0.163888 1.52551 0.413237
0.290192 1.12983 0.0679831
0.63732 0.572437 0.106833
0.0915192 1.31317 0.310254
0.436509 1.38673 0.23385
0.456214 1.32835 0.309847
0.444612 1.31366 0.222962
0.469382 1.23082 0.303046
0.16892 0.793179 0.36843
0.181545 0.703339 0.357288
0.158195 0.869486 0.377893
0.220309 1.94586 0.349693
0.0155534 0.540502 0.148609
-0.0116558 2.49799 0.646137
0.0427972 2.32763 0.630668
0.175689 1.87782 0.396985
0.235641 1.92677 0.302011
0.230165 1.9429 0.319707
0.203611 1.87774 0.347101
0.21317 1.92152 0.342449
0.147959 1.1023 0.501123
0.16326 1.01188 0.489171
0.157383 1.05383 0.494368
0.123826 1.29845 0.523975
0.135196 1.21276 0.514033
0.228126 0.678422 0.429744
0.215687 0.640228 0.443028
0.085969 1.57257 0.557283
0.202869 0.719994 0.453379
0.185187 0.865215 0.469786
0.172774 0.93383 0.479908
0.243778 0.440417 0.418248
0.0544787 1.89211 0.583318
0.044212 1.84837 0.593325
0.466621 0.656864 0.0476743
0.0718457 1.6822 0.487583
0.155031 1.12784 0.424
0.0590057 1.90811 0.569942
0.141786 1.34533 0.486391
0.280082 0.361677 0.364393
0.195065 0.961498 0.436223
0.237089 0.661139 0.398205
0.0682753 1.86021 0.554466
0.215977 0.810936 0.416592
0.0794221 1.78616 0.539619
0.264899 0.468063 0.376744
0.21026 0.858298 0.425987
0.291298 0.281899 0.354499
0.152483 0.597025 0.419504
0.128278 0.784113 0.44546
0.0976296 0.979565 0.463
0.0933386 1.01928 0.472693
0.188363 0.341265 0.387496
0.172859 0.453956 0.402723
0.192671 0.0204798 0.264325
0.174181 1.06749 0.427214
0.229886 0.714504 0.405944
0.148454 1.2499 0.449499

CELLS 20254 81012
OFFSETS vtktypeint64
0 4 8 12 16 20 24 28 32 36 40 44 48 52 56 60 64 68 72 76 80 84 88 92 96 100 104 108 112 116 120 124 128 132 136 140 144 148 152 156 160 164 168 172 176 180 184 188 192 196 200 204 208 212 216 220 224 228 232 236 240 244 248 252 256 260 264 268 272 276 280 284 288 292 296 300 304 308 312 316 320 324 328 332 336 340 344 348 352 356 360 364 368 372 376 380 384 388 392 396 400 404 408 412 416 420 424 428 432 436 440 444 448 452 456 460 464 468 472 476 480 484 488 492 496 500 504 508 512 516 520 524 528 532 536 540 544 548 552 556 560 564 568 572 576 580 584 588 592 596 600 604 608 612 616 620 624 628 632 636 640 644 648 652 656 660 664 668 672 676 680 684 688 692 696 700 704 708 712 716 720 724 728 732 736 740 744 748 752 756 760 764 768 772 776 780 784 788 792 796 800 804 808 812 816 820 824 828 832 836 840 844 848 852 856 860 864 868 872 876 880 884 888 892 896 900 904 908 912 916 920 924 928 932 936 940 944 948 952 956 960 964 968 972 976 980 984 988 992 996 1000 1004 1008 1012 1016 1020 1024 1028 1032 1036 1040 1044 1048 1052 1056 1060 1064 1068 1072 1076 1080 1084 1088 1092 1096 1100 1104 1108 1112 1116 1120 1124 1128 1132 1136 1140 1144 1148 1152 1156 1160 1164 1168 1172 1176 1180 1184 1188 1192 1196 1200 1204 1208 1212 1216 1220 1224 1228 1232 1236 1240 1244 1248 1252 1256 1260 1264 1268 1272 1276 1280 1284 1288 1292 1296 1300 1304 1308 1312 1316 1320 1324 1328 1332 1336 1340 1344 1348 1352 1356 1360 1364 1368 1372 1376 1380 1384 1388 1392 1396 1400 1404 1408 1412 1416 1420 1424 1428 1432 1436 1440 1444 1448 1452 1456 1460 1464 1468 1472 1476 1480 1484 1488 1492 1496 1500 1504 1508 1512 1516 1520 1524 1528 1532 1536 1540 1544 1548 1552 1556 1560 1564 1568 1572 1576 1580 1584 1588 1592 1596 1600 1604 1608 1612 1616 1620 1624 1628 1632 1636 1640 1644 1648 1652 1656 1660 1664 1668 1672 1676 1680 1684 1688 1692 1696 1700 1704 1708 1712 1716 1720 1724 1728 1732 1736 1740 1744 1748 1752 1756 1760 1764 1768 1772 1776 1780 1784 1788 1792 1796 1800 1804 1808 1812 1816 1820 1824 1828 1832 1836 1840 1844 1848 1852 1856 1860 1864 1868 1872 1876 1880 1884 1888 1892 1896 1900 1904 1908 1912 1916 1920 1924 1928 1932 1936 1940 1944 1948 1952 1956 1960 1964 1968 1972 1976 1980 1984 1988 1992 1996 2000 2004 2008 2012 2016 2020 2024 2028 2032 2036 2040 2044 2048 2052 2056 2060 2064 2068 2072 2076 2080 2084 2088 2092 2096 2100 2104 2108 2112 2116 2120 2124 2128 2132 2136 2140 2144 2148 2152 2156 2160 2164 2168 2172 2176 2180 2184 2188 2192 2196 2200 2204 2208 2212 2216 2220 2224 2228 2232 2236 2240 2244 2248 2252 2256 2260 2264 2268 2272 2276 2280 2284 2288 2292 2296 2300 2304 2308 2312 2316 2320 2324 2328 2332 2336 2340 2344 2348 2352 2356 2360 2364 2368 2372 2376 2380 2384 2388 2392 2396 2400 2404 2408 2412 2416 2420 2424 2428 2432 2436 2440 2444 2448 2452 2456 2460 2464 2468 2472 2476 2480 2484 2488 2492 2496 2500 2504 2508 2512 2516 2520 2524 2528 2532 2536 2540 2544 2548 2552 2556 2560 2564 2568 2572 2576 2580 2584 2588 2592 2596 2600 2604 2608 2612 2616 2620 2624 2628 2632 2636 2640 2644 2648 2652 2656 2660 2664 2668 2672 2676 2680 2684 2688 2692 2696 2700 2704 2708 2712 2716 2720 2724 2728 2732 2736 2740 2744 2748 2752 2756 2760 2764 2768 2772 2776 2780 2784 2788 2792 2796 2800 2804 2808 2812 2816 2820 2824 2828 2832 2836 2840 2844 2848 2852 2856 2860 2864 2868 2872 2876 2880 2884 2888 2892 2896 2900 2904 2908 2912 2916 2920 2924 2928 2932 2936 2940 2944 2948 2952 2956 2960 2964 2968 2972 2976 2980 2984 2988 2992 2996 3000 3004 3008 3012 3016 3020 3024 3028 3032 3036 3040 3044 3048 3052 3056 3060 3064 3068 3072 3076 3080 3084 3088 3092 3096 3100 3104 3108 3112 3116 3120 3124 3128 3132 3136 3140 3144 3148 3152 3156 3160 3164 3168 3172 3176 3180 3184 3188 3192 3196 3200 3204 3208 3212 3216 3220 3224 3228 3232 3236 3240 3244 3248 3252 3256 3260 3264 3268 3272 3276 3280 3284 3288 3292 3296 3300 3304 3308 3312 3316 3320 3324 3328 3332 3336 3340 3344 3348 3352 3356 3360 3364 3368 3372 3376 3380 3384 3388 3392 3396 3400 3404 3408 3412 3416 3420 3424 3428 3432 3436 3440 3444 3448 3452 3456 3460 3464 3468 3472 3476 3480 3484 3488 3492 3496 3500 3504 3508 3512 3516 3520 3524 3528 3532 3536 3540 3544 3548 3552 3556 3560 3564 3568 3572 3576 3580 3584 3588 3592 3596 3600 3604 3608 3612 3616 3620 3624 3628 3632 3636 3640 3644 3648 3652 3656 3660 3664 3668 3672 3676 3680 3684 3688 3692 3696 3700 3704 3708 3712 3716 3720 3724 3728 3732 3736 3740 3744 3748 3752 3756 3760 3764 3768 3772 3776 3780 3784 3788 3792 3796 3800 3804 3808 3812 3816 3820 3824 3828 3832 3836 3840 3844 3848 3852 3856 3860 3864 3868 3872 3876 3880 3884 3888 3892 3896 3900 3904 3908 3912 3916 3920 3924 3928 3932 3936 3940 3944 3948 3952 3956 3960 3964 3968 3972 3976 3980 3984 3988 3992 3996 4000 4004 4008 4012 4016 4020 4024 4028 4032 4036 4040 4044 4048 4052 4056 4060 4064 4068 4072 4076 4080 4084 4088 4092 4096 4100 4104 4108 4112 4116 4120 4124 4128 4132 4136 4140 4144 4148 4152 4156 4160 4164 4168 4172 4176 4180 4184 4188 4192 4196 4200 4204 4208 4212 4216 4220 4224 4228 4232 4236 4240 4244 4248 4252 4256 4260 4264 4268 4272 4276 4280 4284 4288 4292 4296 4300 4304 4308 4312 4316 4320 4324 4328 4332 4336 4340 4344 4348 4352 4356 4360 4364 4368 4372 4376 4380 4384 4388 4392 4396 4400 4404 4408 4412 4416 4420 4424 4428 4432 4436 4440 4444 4448 4452 4456 4460 4464 4468 4472 4476 4480 4484 4488 4492 4496 4500 4504 4508 4512 4516 4520 4524 4528 4532 4536 4540 4544 4548 4552 4556 4560 4564 4568 4572 4576 4580 4584 4588 4592 4596 4600 4604 4608 4612 4616 4620 4624 4628 4632 4636 4640 4644 4648 4652 4656 4660 4664 4668 4672 4676 4680 4684 4688 4692 4696 4700 4704 4708 4712 4716 4720 4724 4728 4732 4736 4740 4744 4748 4752 4756 4760 4764 4768 4772 4776 4780 4784 4788 4792 4796 4800 4804 4808 4812 4816 4820 4824 4828 4832 4836 4840 4844 4848 4852 4856 4860 4864 4868 4872 4876 4880 4884 4888 4892 4896 4900 4904 4908 4912 4916 4920 4924 4928 4932 4936 4940 4944 4948 4952 4956 4960 4964 4968 4972 4976 4980 4984 4988 4992 4996 5000 5004 5008 5012 5016 5020 5024 5028 5032 5036 5040 5044 5048 5052 5056 5060 5064 5068 5072 5076 5080 5084 5088 5092 5096 5100 5104 5108 5112 5116 5120 5124 5128 5132 5136 5140 5144 5148 5152 5156 5160 5164 5168 5172 5176 5180 5184 5188 5192 5196 5200 5204 5208 5212 5216 5220 5224 5228 5232 5236 5240 5244 5248 5252 5256 5260 5264 5268 5272 5276 5280 5284 5288 5292 5296 5300 5304 5308 5312 5316 5320 5324 5328 5332 5336 5340 5344 5348 5352 5356 5360 5364 5368 5372 5376 5380 5384 5388 5392 5396 5400 5404 5408 5412 5416 5420 5424 5428 5432 5436 5440 5444 5448 5452 5456 5460 5464 5468 5472 5476 5480 5484 5488 5492 5496 5500 5504 5508 5512 5516 5520 5524 5528 5532 5536 5540 5544 5548 5552 5556 5560 5564 5568 5572 5576 5580 5584 5588 5592 5596 5600 5604 5608 5612 5616 5620 5624 5628 5632 5636 5640 5644 5648 5652 5656 5660 5664 5668 5672 5676 5680 5684 5688 5692 5696 5700 5704 5708 5712 5716 5720 5724 5728 5732 5736 5740 5744 5748 5752 5756 5760 5764 5768 5772 5776 5780 5784 5788 5792 5796 5800 5804 5808 5812 5816 5820 5824 5828 5832 5836 5840 5844 5848 5852 5856 5860 5864 5868 5872 5876 5880 5884 5888 5892 5896 5900 5904 5908 5912 5916 5920 5924 5928 5932 5936 5940 5944 5948 5952 5956 5960 5964 5968 5972 5976 5980 5984 5988 5992 5996 6000 6004 6008 6012 6016 6020 6024 6028 6032 6036 6040 6044 6048 6052 6056 6060 6064 6068 6072 6076 6080 6084 6088 6092 6096 6100 6104 6108 6112 6116 6120 6124 6128 6132 6136 6140 6144 6148 6152 6156 6160 6164 6168 6172 6176 6180 6184 6188 6192 6196 6200 6204 6208 6212 6216 6220 6224 6228 6232 6236 6240 6244 6248 6252 6256 6260 6264 6268 6272 6276 6280 6284 6288 6292 6296 6300 6304 6308 6312 6316 6320 6324 6328 6332 6336 6340 6344 6348 6352 6356 6360 6364 6368 6372 6376 6380 6384 6388 6392 6396 6400 6404 6408 6412 6416 6420 6424 6428 6432 6436 6440 6444 6448 6452 6456 6460 6464 6468 6472 6476 6480 6484 6488 6492 6496 6500 6504 6508 6512 6516 6520 6524 6528 6532 6536 6540 6544 6548 6552 6556 6560 6564 6568 6572 6576 6580 6584 6588 6592 6596 6600 6604 6608 6612 6616 6620 6624 6628 6632 6636 6640 6644 6648 6652 6656 6660 6664 6668 6672 6676 6680 6684 6688 6692 6696 6700 6704 6708 6712 6716 6720 6724 6728 6732 6736 6740 6744 6748 6752 6756 6760 6764 6768 6772 6776 6780 6784 6788 6792 6796 6800 6804 6808 6812 6816 6820 6824 6828 6832 6836 6840 6844 6848 6852 6856 6860 6864 6868 6872 6876 6880 6884 6888 6892 6896 6900 6904 6908 6912 6916 6920 6924 6928 6932 6936 6940 6944 6948 6952 6956 6960 6964 6968 6972 6976 6980 6984 6988 6992 6996 7000 7004 7008 7012 7016 7020 7024 7028 7032 7036 7040 7044 7048 7052 7056 7060 7064 7068 7072 7076 7080 7084 7088 7092 7096 7100 7104 7108 7112 7116 7120 7124 7128 7132 7136 7140 7144 7148 7152 7156 7160 7164 7168 7172 7176 7180 7184 7188 7192 7196 7200 7204 7208 7212 7216 7220 7224 7228 7232 7236 7240 7244 7248 7252 7256 7260 7264 7268 7272 7276 7280 7284 7288 7292 7296 7300 7304 7308 7312 7316 7320 7324 7328 7332 7336 7340 7344 7348 7352 7356 7360 7364 7368 7372 7376 7380 7384 7388 7392 7396 7400 7404 7408 7412 7416 7420 7424 7428 7432 7436 7440 7444 7448 7452 7456 7460 7464 7468 7472 7476 7480 7484 7488 7492 7496 7500 7504 7508 7512 7516 7520 7524 7528 7532 7536 7540 7544 7548 7552 7556 7560 7564 7568 7572 7576 7580 7584 7588 7592 7596 7600 7604 7608 7612 7616 7620 7624 7628 7632 7636 7640 7644 7648 7652 7656 7660 7664 7668 7672 7676 7680 7684 7688 7692 7696 7700 7704 7708 7712 7716 7720 7724 7728 7732 7736 7740 7744 7748 7752 7756 7760 7764 7768 7772 7776 7780 7784 7788 7792 7796 7800 7804 7808 7812 7816 7820 7824 7828 7832 7836 7840 7844 7848 7852 7856 7860 7864 7868 7872 7876 7880 7884 7888 7892 7896 7900 7904 7908 7912 7916 7920 7924 7928 7932 7936 7940 7944 7948 7952 7956 7960 7964 7968 7972 7976 7980 7984 7988 7992 7996 8000 8004 8008 8012 8016 8020 8024 8028 8032 8036 8040 8044 8048 8052 8056 8060 8064 8068 8072 8076 8080 8084 8088 8092 8096 8100 8104 8108 8112 8116 8120 8124 8128 8132 8136 8140 8144 8148 8152 8156 8160 8164 8168 8172 8176 8180 8184 8188 8192 8196 8200 8204 8208 8212 8216 8220 8224 8228 8232 8236 8240 8244 8248 8252 8256 8260 8264 8268 8272 8276 8280 8284 8288 8292 8296 8300 8304 8308 8312 8316 8320 8324 8328 8332 8336 8340 8344 8348 8352 8356 8360 8364 8368 8372 8376 8380 8384 8388 8392 8396 8400 8404 8408 8412 8416 8420 8424 8428 8432 8436 8440 8444 8448 8452 8456 8460 8464 8468 8472 8476 8480 8484 8488 8492 8496 8500 8504 8508 8512 8516 8520 8524 8528 8532 8536 8540 8544 8548 8552 8556 8560 8564 8568 8572 8576 8580 8584 8588 8592 8596 8600 8604 8608 8612 8616 8620 8624 8628 8632 8636 8640 8644 8648 8652 8656 8660 8664 8668 8672 8676 8680 8684 8688 8692 8696 8700 8704 8708 8712 8716 8720 8724 8728 8732 8736 8740 8744 8748 8752 8756 8760 8764 8768 8772 8776 8780 8784 8788 8792 8796 8800 8804 8808 8812 8816 8820 8824 8828 8832 8836 8840 8844 8848 8852 8856 8860 8864 8868 8872 8876 8880 8884 8888 8892 8896 8900 8904 8908 8912 8916 8920 8924 8928 8932 8936 8940 8944 8948 8952 8956 8960 8964 8968 8972 8976 8980 8984 8988 8992 8996 9000 9004 9008 9012 9016 9020 9024 9028 9032 9036 9040 9044 9048 9052 9056 9060 9064 9068 9072 9076 9080 9084 9088 9092 9096 9100 9104 9108 9112 9116 9120 9124 9128 9132 9136 9140 9144 9148 9152 9156 9160 9164 9168 9172 9176 9180 9184 9188 9192 9196 9200 9204 9208 9212 9216 9220 9224 9228 9232 9236 9240 9244 9248 9252 9256 9260 9264 9268 9272 9276 9280 9284 9288 9292 9296 9300 9304 9308 9312 9316 9320 9324 9328 9332 9336 9340 9344 9348 9352 9356 9360 9364 9368 9372 9376 9380 9384 9388 9392 9396 9400 9404 9408 9412 9416 9420 9424 9428 9432 9436 9440 9444 9448 9452 9456 9460 9464 9468 9472 9476 9480 9484 9488 9492 9496 9500 9504 9508 9512 9516 9520 9524 9528 9532 9536 9540 9544 9548 9552 9556 9560 9564 9568 9572 9576 9580 9584 9588 9592 9596 9600 9604 9608 9612 9616 9620 9624 9628 9632 9636 9640 9644 9648 9652 9656 9660 9664 9668 9672 9676 9680 9684 9688 9692 9696 9700 9704 9708 9712 9716 9720 9724 9728 9732 9736 9740 9744 9748 9752 9756 9760 9764 9768 9772 9776 9780 9784 9788 9792 9796 9800 9804 9808 9812 9816 9820 9824 9828 9832 9836 9840 9844 9848 9852 9856 9860 9864 9868 9872 9876 9880 9884 9888 9892 9896 9900 9904 9908 9912 9916 9920 9924 9928 9932 9936 9940 9944 9948 9952 9956 9960 9964 9968 9972 9976 9980 9984 9988 9992 9996 10000 10004 10008 10012 10016 10020 10024 10028 10032 10036 10040 10044 10048 10052 10056 10060 10064 10068 10072 10076 10080 10084 10088 10092 10096 10100 10104 10108 10112 10116 10120 10124 10128 10132 10136 10140 10144 10148 10152 10156 10160 10164 10168 10172 10176 10180 10184 10188 10192 10196 10200 10204 10208 10212 10216 10220 10224 10228 10232 10236 10240 10244 10248 10252 10256 10260 10264 10268 10272 10276 10280 10284 10288 10292 10296 10300 10304 10308 10312 10316 10320 10324 10328 10332 10336 10340 10344 10348 10352 10356 10360 10364 10368 10372 10376 10380 10384 10388 10392 10396 10400 10404 10408 10412 10416 10420 10424 10428 10432 10436 10440 10444 10448 10452 10456 10460 10464 10468 10472 10476 10480 10484 10488 10492 10496 10500 10504 10508 10512 10516 10520 10524 10528 10532 10536 10540 10544 10548 10552 10556 10560 10564 10568 10572 10576 10580 10584 10588 10592 10596 10600 10604 10608 10612 10616 10620 10624 10628 10632 10636 10640 10644 10648 10652 10656 10660 10664 10668 10672 10676 10680 10684 10688 10692 10696 10700 10704 10708 10712 10716 10720 10724 10728 10732 10736 10740 10744 10748 10752 10756 10760 10764 10768 10772 10776 10780 10784 10788 10792 10796 10800 10804 10808 10812 10816 10820 10824 10828 10832 10836 10840 10844 10848 10852 10856 10860 10864 10868 10872 10876 10880 10884 10888 10892 10896 10900 10904 10908 10912 10916 10920 10924 10928 10932 10936 10940 10944 10948 10952 10956 10960 10964 10968 10972 10976 10980 10984 10988 10992 10996 11000 11004 11008 11012 11016 11020 11024 11028 11032 11036 11040 11044 11048 11052 11056 11060 11064 11068 11072 11076 11080 11084 11088 11092 11096 11100 11104 11108 11112 11116 11120 11124 11128 11132 11136 11140 11144 11148 11152 11156 11160 11164 11168 11172 11176 11180 11184 11188 11192 11196 11200 11204 11208 11212 11216 11220 11224 11228 11232 11236 11240 11244 11248 11252 11256 11260 11264 11268 11272 11276 11280 11284 11288 11292 11296 11300 11304 11308 11312 11316 11320 11324 11328 11332 11336 11340 11344 11348 11352 11356 11360 11364 11368 11372 11376 11380 11384 11388 11392 11396 11400 11404 11408 11412 11416 11420 11424 11428 11432 11436 11440 11444 11448 11452 11456 11460 11464 11468 11472 11476 11480 11484 11488 11492 11496 11500 11504 11508 11512 11516 11520 11524 11528 11532 11536 11540 11544 11548 11552 11556 11560 11564 11568 11572 11576 11580 11584 11588 11592 11596 11600 11604 11608 11612 11616 11620 11624 11628 11632 11636 11640 11644 11648 11652 11656 11660 11664 11668 11672 11676 11680 11684 11688 11692 11696 11700 11704 11708 11712 11716 11720 11724 11728 11732 11736 11740 11744 11748 11752 11756 11760 11764 11768 11772 11776 11780 11784 11788 11792 11796 11800 11804 11808 11812 11816 11820 11824 11828 11832 11836 11840 11844 11848 11852 11856 11860 11864 11868 11872 11876 11880 11884 11888 11892 11896 11900 11904 11908 11912 11916 11920 11924 11928 11932 11936 11940 11944 11948 11952 11956 11960 11964 11968 11972 11976 11980 11984 11988 11992 11996 12000 12004 12008 12012 12016 12020 12024 12028 12032 12036 12040 12044 12048 12052 12056 12060 12064 12068 12072 12076 12080 12084 12088 12092 12096 12100 12104 12108 12112 12116 12120 12124 12128 12132 12136 12140 12144 12148 12152 12156 12160 12164 12168 12172 12176 12180 12184 12188 12192 12196 12200 12204 12208 12212 12216 12220 12224 12228 12232 12236 12240 12244 12248 12252 12256 12260 12264 12268 12272 12276 12280 12284 12288 12292 12296 12300 12304 12308 12312 12316 12320 12324 12328 12332 12336 12340 12344 12348 12352 12356 12360 12364 12368 12372 12376 12380 12384 12388 12392 12396 12400 12404 12408 12412 12416 12420 12424 12428 12432 12436 12440 12444 12448 12452 12456 12460 12464 12468 12472 12476 12480 12484 12488 12492 12496 12500 12504 12508 12512 12516 12520 12524 12528 12532 12536 12540 12544 12548 12552 12556 12560 12564 12568 12572 12576 12580 12584 12588 12592 12596 12600 12604 12608 12612 12616 12620 12624 12628 12632 12636 12640 12644 12648 12652 12656 12660 12664 12668 12672 12676 12680 12684 12688 12692 12696 12700 12704 12708 12712 12716 12720 12724 12728 12732 12736 12740 12744 12748 12752 12756 12760 12764 12768 12772 12776 12780 12784 12788 12792 12796 12800 12804 12808 12812 12816 12820 12824 12828 12832 12836 12840 12844 12848 12852 12856 12860 12864 12868 12872 12876 12880 12884 12888 12892 12896 12900 12904 12908 12912 12916 12920 12924 12928 12932 12936 12940 12944 12948 12952 12956 12960 12964 12968 12972 12976 12980 12984 12988 12992 12996 13000 13004 13008 13012 13016 13020 13024 13028 13032 13036 13040 13044 13048 13052 13056 13060 13064 13068 13072 13076 13080 13084 13088 13092 13096 13100 13104 13108 13112 13116 13120 13124 13128 13132 13136 13140 13144 13148 13152 13156 13160 13164 13168 13172 13176 13180 13184 13188 13192 13196 13200 13204 13208 13212 13216 13220 13224 13228 13232 13236 13240 13244 13248 13252 13256 13260 13264 13268 13272 13276 13280 13284 13288 13292 13296 13300 13304 13308 13312 13316 13320 13324 13328 13332 13336 13340 13344 13348 13352 13356 13360 13364 13368 13372 13376 13380 13384 13388 13392 13396 13400 13404 13408 13412 13416 13420 13424 13428 13432 13436 13440 13444 13448 13452 13456 13460 13464 13468 13472 13476 13480 13484 13488 13492 13496 13500 13504 13508 13512 13516 13520 13524 13528 13532 13536 13540 13544 13548 13552 13556 13560 13564 13568 13572 13576 13580 13584 13588 13592 13596 13600 13604 13608 13612 13616 13620 13624 13628 13632 13636 13640 13644 13648 13652 13656 13660 13664 13668 13672 13676 13680 13684 13688 13692 13696 13700 13704 13708 13712 13716 13720 13724 13728 13732 13736 13740 13744 13748 13752 13756 13760 13764 13768 13772 13776 13780 13784 13788 13792 13796 13800 13804 13808 13812 13816 13820 13824 13828 13832 13836 13840 13844 13848 13852 13856 13860 13864 13868 13872 13876 13880 13884 13888 13892 13896 13900 13904 13908 13912 13916 13920 13924 13928 13932 13936 13940 13944 13948 13952 13956 13960 13964 13968 13972 13976 13980 13984 13988 13992 13996 14000 14004 14008 14012 14016 14020 14024 14028 14032 14036 14040 14044 14048 14052 14056 14060 14064 14068 14072 14076 14080 14084 14088 14092 14096 14100 14104 14108 14112 14116 14120 14124 14128 14132 14136 14140 14144 14148 14152 14156 14160 14164 14168 14172 14176 14180 14184 14188 14192 14196 14200 14204 14208 14212 14216 14220 14224 14228 14232 14236 14240 14244 14248 14252 14256 14260 14264 14268 14272 14276 14280 14284 14288 14292 14296 14300 14304 14308 14312 14316 14320 14324 14328 14332 14336 14340 14344 14348 14352 14356 14360 14364 14368 14372 14376 14380 14384 14388 14392 14396 14400 14404 14408 14412 14416 14420 14424 14428 14432 14436 14440 14444 14448 14452 14456 14460 14464 14468 14472 14476 14480 14484 14488 14492 14496 14500 14504 14508 14512 14516 14520 14524 14528 14532 14536 14540 14544 14548 14552 14556 14560 14564 14568 14572 14576 14580 14584 14588 14592 14596 14600 14604 14608 14612 14616 14620 14624 14628 14632 14636 14640 14644 14648 14652 14656 14660 14664 14668 14672 14676 14680 14684 14688 14692 14696 14700 14704 14708 14712 14716 14720 14724 14728 14732 14736 14740 14744 14748 14752 14756 14760 14764 14768 14772 14776 14780 14784 14788 14792 14796 14800 14804 14808 14812 14816 14820 14824 14828 14832 14836 14840 14844 14848 14852 14856 14860 14864 14868 14872 14876 14880 14884 14888 14892 14896 14900 14904 14908 14912 14916 14920 14924 14928 14932 14936 14940 14944 14948 14952 14956 14960 14964 14968 14972 14976 14980 14984 14988 14992 14996 15000 15004 15008 15012 15016 15020 15024 15028 15032 15036 15040 15044 15048 15052 15056 15060 15064 15068 15072 15076 15080 15084 15088 15092 15096 15100 15104 15108 15112 15116 15120 15124 15128 15132 15136 15140 15144 15148 15152 15156 15160 15164 15168 15172 15176 15180 15184 15188 15192 15196 15200 15204 15208 15212 15216 15220 15224 15228 15232 15236 15240 15244 15248 15252 15256 15260 15264 15268 15272 15276 15280 15284 15288 15292 15296 15300 15304 15308 15312 15316 15320 15324 15328 15332 15336 15340 15344 15348 15352 15356 15360 15364 15368 15372 15376 15380 15384 15388 15392 15396 15400 15404 15408 15412 15416 15420 15424 15428 15432 15436 15440 15444 15448 15452 15456 15460 15464 15468 15472 15476 15480 15484 15488 15492 15496 15500 15504 15508 15512 15516 15520 15524 15528 15532 15536 15540 15544 15548 15552 15556 15560 15564 15568 15572 15576 15580 15584 15588 15592 15596 15600 15604 15608 15612 15616 15620 15624 15628 15632 15636 15640 15644 15648 15652 15656 15660 15664 15668 15672 15676 15680 15684 15688 15692 15696 15700 15704 15708 15712 15716 15720 15724 15728 15732 15736 15740 15744 15748 15752 15756 15760 15764 15768 15772 15776 15780 15784 15788 15792 15796 15800 15804 15808 15812 15816 15820 15824 15828 15832 15836 15840 15844 15848 15852 15856 15860 15864 15868 15872 15876 15880 15884 15888 15892 15896 15900 15904 15908 15912 15916 15920 15924 15928 15932 15936 15940 15944 15948 15952 15956 15960 15964 15968 15972 15976 15980 15984 15988 15992 15996 16000 16004 16008 16012 16016 16020 16024 16028 16032 16036 16040 16044 16048 16052 16056 16060 16064 16068 16072 16076 16080 16084 16088 16092 16096 16100 16104 16108 16112 16116 16120 16124 16128 16132 16136 16140 16144 16148 16152 16156 16160 16164 16168 16172 16176 16180 16184 16188 16192 16196 16200 16204 16208 16212 16216 16220 16224 16228 16232 16236 16240 16244 16248 16252 16256 16260 16264 16268 16272 16276 16280 16284 16288 16292 16296 16300 16304 16308 16312 16316 16320 16324 16328 16332 16336 16340 16344 16348 16352 16356 16360 16364 16368 16372 16376 16380 16384 16388 16392 16396 16400 16404 16408 16412 16416 16420 16424 16428 16432 16436 16440 16444 16448 16452 16456 16460 16464 16468 16472 16476 16480 16484 16488 16492 16496 16500 16504 16508 16512 16516 16520 16524 16528 16532 16536 16540 16544 16548 16552 16556 16560 16564 16568 16572 16576 16580 16584 16588 16592 16596 16600 16604 16608 16612 16616 16620 16624 16628 16632 16636 16640 16644 16648 16652 16656 16660 16664 16668 16672 16676 16680 16684 16688 16692 16696 16700 16704 16708 16712 16716 16720 16724 16728 16732 16736 16740 16744 16748 16752 16756 16760 16764 16768 16772 16776 16780 16784 16788 16792 16796 16800 16804 16808 16812 16816 16820 16824 16828 16832 16836 16840 16844 16848 16852 16856 16860 16864 16868 16872 16876 16880 16884 16888 16892 16896 16900 16904 16908 16912 16916 16920 16924 16928 16932 16936 16940 16944 16948 16952 16956 16960 16964 16968 16972 16976 16980 16984 16988 16992 16996 17000 17004 17008 17012 17016 17020 17024 17028 17032 17036 17040 17044 17048 17052 17056 17060 17064 17068 17072 17076 17080 17084 17088 17092 17096 17100 17104 17108 17112 17116 17120 17124 17128 17132 17136 17140 17144 17148 17152 17156 17160 17164 17168 17172 17176 17180 17184 17188 17192 17196 17200 17204 17208 17212 17216 17220 17224 17228 17232 17236 17240 17244 17248 17252 17256 17260 17264 17268 17272 17276 17280 17284 17288 17292 17296 17300 17304 17308 17312 17316 17320 17324 17328 17332 17336 17340 17344 17348 17352 17356 17360 17364 17368 17372 17376 17380 17384 17388 17392 17396 17400 17404 17408 17412 17416 17420 17424 17428 17432 17436 17440 17444 17448 17452 17456 17460 17464 17468 17472 17476 17480 17484 17488 17492 17496 17500 17504 17508 17512 17516 17520 17524 17528 17532 17536 17540 17544 17548 17552 17556 17560 17564 17568 17572 17576 17580 17584 17588 17592 17596 17600 17604 17608 17612 17616 17620 17624 17628 17632 17636 17640 17644 17648 17652 17656 17660 17664 17668 17672 17676 17680 17684 17688 17692 17696 17700 17704 17708 17712 17716 17720 17724 17728 17732 17736 17740 17744 17748 17752 17756 17760 17764 17768 17772 17776 17780 17784 17788 17792 17796 17800 17804 17808 17812 17816 17820 17824 17828 17832 17836 17840 17844 17848 17852 17856 17860 17864 17868 17872 17876 17880 17884 17888 17892 17896 17900 17904 17908 17912 17916 17920 17924 17928 17932 17936 17940 17944 17948 17952 17956 17960 17964 17968 17972 17976 17980 17984 17988 17992 17996 18000 18004 18008 18012 18016 18020 18024 18028 18032 18036 18040 18044 18048 18052 18056 18060 18064 18068 18072 18076 18080 18084 18088 18092 18096 18100 18104 18108 18112 18116 18120 18124 18128 18132 18136 18140 18144 18148 18152 18156 18160 18164 18168 18172 18176 18180 18184 18188 18192 18196 18200 18204 18208 18212 18216 18220 18224 18228 18232 18236 18240 18244 18248 18252 18256 18260 18264 18268 18272 18276 18280 18284 18288 18292 18296 18300 18304 18308 18312 18316 18320 18324 18328 18332 18336 18340 18344 18348 18352 18356 18360 18364 18368 18372 18376 18380 18384 18388 18392 18396 18400 18404 18408 18412 18416 18420 18424 18428 18432 18436 18440 18444 18448 18452 18456 18460 18464 18468 18472 18476 18480 18484 18488 18492 18496 18500 18504 18508 18512 18516 18520 18524 18528 18532 18536 18540 18544 18548 18552 18556 18560 18564 18568 18572 18576 18580 18584 18588 18592 18596 18600 18604 18608 18612 18616 18620 18624 18628 18632 18636 18640 18644 18648 18652 18656 18660 18664 18668 18672 18676 18680 18684 18688 18692 18696 18700 18704 18708 18712 18716 18720 18724 18728 18732 18736 18740 18744 18748 18752 18756 18760 18764 18768 18772 18776 18780 18784 18788 18792 18796 18800 18804 18808 18812 18816 18820 18824 18828 18832 18836 18840 18844 18848 18852 18856 18860 18864 18868 18872 18876 18880 18884 18888 18892 18896 18900 18904 18908 18912 18916 18920 18924 18928 18932 18936 18940 18944 18948 18952 18956 18960 18964 18968 18972 18976 18980 18984 18988 18992 18996 19000 19004 19008 19012 19016 19020 19024 19028 19032 19036 19040 19044 19048 19052 19056 19060 19064 19068 19072 19076 19080 19084 19088 19092 19096 19100 19104 19108 19112 19116 19120 19124 19128 19132 19136 19140 19144 19148 19152 19156 19160 19164 19168 19172 19176 19180 19184 19188 19192 19196 19200 19204 19208 19212 19216 19220 19224 19228 19232 19236 19240 19244 19248 19252 19256 19260 19264 19268 19272 19276 19280 19284 19288 19292 19296 19300 19304 19308 19312 19316 19320 19324 19328 19332 19336 19340 19344 19348 19352 19356 19360 19364 19368 19372 19376 19380 19384 19388 19392 19396 19400 19404 19408 19412 19416 19420 19424 19428 19432 19436 19440 19444 19448 19452 19456 19460 19464 19468 19472 19476 19480 19484 19488 19492 19496 19500 19504 19508 19512 19516 19520 19524 19528 19532 19536 19540 19544 19548 19552 19556 19560 19564 19568 19572 19576 19580 19584 19588 19592 19596 19600 19604 19608 19612 19616 19620 19624 19628 19632 19636 19640 19644 19648 19652 19656 19660 19664 19668 19672 19676 19680 19684 19688 19692 19696 19700 19704 19708 19712 19716 19720 19724 19728 19732 19736 19740 19744 19748 19752 19756 19760 19764 19768 19772 19776 19780 19784 19788 19792 19796 19800 19804 19808 19812 19816 19820 19824 19828 19832 19836 19840 19844 19848 19852 19856 19860 19864 19868 19872 19876 19880 19884 19888 19892 19896 19900 19904 19908 19912 19916 19920 19924 19928 19932 19936 19940 19944 19948 19952 19956 19960 19964 19968 19972 19976 19980 19984 19988 19992 19996 20000 20004 20008 20012 20016 20020 20024 20028 20032 20036 20040 20044 20048 20052 20056 20060 20064 20068 20072 20076 20080 20084 20088 20092 20096 20100 20104 20108 20112 20116 20120 20124 20128 20132 20136 20140 20144 20148 20152 20156 20160 20164 20168 20172 20176 20180 20184 20188 20192 20196 20200 20204 20208 20212 20216 20220 20224 20228 20232 20236 20240 20244 20248 20252 20256 20260 20264 20268 20272 20276 20280 20284 20288 20292 20296 20300 20304 20308 20312 20316 20320 20324 20328 20332 20336 20340 20344 20348 20352 20356 20360 20364 20368 20372 20376 20380 20384 20388 20392 20396 20400 20404 20408 20412 20416 20420 20424 20428 20432 20436 20440 20444 20448 20452 20456 20460 20464 20468 20472 20476 20480 20484 20488 20492 20496 20500 20504 20508 20512 20516 20520 20524 20528 20532 20536 20540 20544 20548 20552 20556 20560 20564 20568 20572 20576 20580 20584 20588 20592 20596 20600 20604 20608 20612 20616 20620 20624 20628 20632 20636 20640 20644 20648 20652 20656 20660 20664 20668 20672 20676 20680 20684 20688 20692 20696 20700 20704 20708 20712 20716 20720 20724 20728 20732 20736 20740 20744 20748 20752 20756 20760 20764 20768 20772 20776 20780 20784 20788 20792 20796 20800 20804 20808 20812 20816 20820 20824 20828 20832 20836 20840 20844 20848 20852 20856 20860 20864 20868 20872 20876 20880 20884 20888 20892 20896 20900 20904 20908 20912 20916 20920 20924 20928 20932 20936 20940 20944 20948 20952 20956 20960 20964 20968 20972 20976 20980 20984 20988 20992 20996 21000 21004 21008 21012 21016 21020 21024 21028 21032 21036 21040 21044 21048 21052 21056 21060 21064 21068 21072 21076 21080 21084 21088 21092 21096 21100 21104 21108 21112 21116 21120 21124 21128 21132 21136 21140 21144 21148 21152 21156 21160 21164 21168 21172 21176 21180 21184 21188 21192 21196 21200 21204 21208 21212 21216 21220 21224 21228 21232 21236 21240 21244 21248 21252 21256 21260 21264 21268 21272 21276 21280 21284 21288 21292 21296 21300 21304 21308 21312 21316 21320 21324 21328 21332 21336 21340 21344 21348 21352 21356 21360 21364 21368 21372 21376 21380 21384 21388 21392 21396 21400 21404 21408 21412 21416 21420 21424 21428 21432 21436 21440 21444 21448 21452 21456 21460 21464 21468 21472 21476 21480 21484 21488 21492 21496 21500 21504 21508 21512 21516 21520 21524 21528 21532 21536 21540 21544 21548 21552 21556 21560 21564 21568 21572 21576 21580 21584 21588 21592 21596 21600 21604 21608 21612 21616 21620 21624 21628 21632 21636 21640 21644 21648 21652 21656 21660 21664 21668 21672 21676 21680 21684 21688 21692 21696 21700 21704 21708 21712 21716 21720 21724 21728 21732 21736 21740 21744 21748 21752 21756 21760 21764 21768 21772 21776 21780 21784 21788 21792 21796 21800 21804 21808 21812 21816 21820 21824 21828 21832 21836 21840 21844 21848 21852 21856 21860 21864 21868 21872 21876 21880 21884 21888 21892 21896 21900 21904 21908 21912 21916 21920 21924 21928 21932 21936 21940 21944 21948 21952 21956 21960 21964 21968 21972 21976 21980 21984 21988 21992 21996 22000 22004 22008 22012 22016 22020 22024 22028 22032 22036 22040 22044 22048 22052 22056 22060 22064 22068 22072 22076 22080 22084 22088 22092 22096 22100 22104 22108 22112 22116 22120 22124 22128 22132 22136 22140 22144 22148 22152 22156 22160 22164 22168 22172 22176 22180 22184 22188 22192 22196 22200 22204 22208 22212 22216 22220 22224 22228 22232 22236 22240 22244 22248 22252 22256 22260 22264 22268 22272 22276 22280 22284 22288 22292 22296 22300 22304 22308 22312 22316 22320 22324 22328 22332 22336 22340 22344 22348 22352 22356 22360 22364 22368 22372 22376 22380 22384 22388 22392 22396 22400 22404 22408 22412 22416 22420 22424 22428 22432 22436 22440 22444 22448 22452 22456 22460 22464 22468 22472 22476 22480 22484 22488 22492 22496 22500 22504 22508 22512 22516 22520 22524 22528 22532 22536 22540 22544 22548 22552 22556 22560 22564 22568 22572 22576 22580 22584 22588 22592 22596 22600 22604 22608 22612 22616 22620 22624 22628 22632 22636 22640 22644 22648 22652 22656 22660 22664 22668 22672 22676 22680 22684 22688 22692 22696 22700 22704 22708 22712 22716 22720 22724 22728 22732 22736 22740 22744 22748 22752 22756 22760 22764 22768 22772 22776 22780 22784 22788 22792 22796 22800 22804 22808 22812 22816 22820 22824 22828 22832 22836 22840 22844 22848 22852 22856 22860 22864 22868 22872 22876 22880 22884 22888 22892 22896 22900 22904 22908 22912 22916 22920 22924 22928 22932 22936 22940 22944 22948 22952 22956 22960 22964 22968 22972 22976 22980 22984 22988 22992 22996 23000 23004 23008 23012 23016 23020 23024 23028 23032 23036 23040 23044 23048 23052 23056 23060 23064 23068 23072 23076 23080 23084 23088 23092 23096 23100 23104 23108 23112 23116 23120 23124 23128 23132 23136 23140 23144 23148 23152 23156 23160 23164 23168 23172 23176 23180 23184 23188 23192 23196 23200 23204 23208 23212 23216 23220 23224 23228 23232 23236 23240 23244 23248 23252 23256 23260 23264 23268 23272 23276 23280 23284 23288 23292 23296 23300 23304 23308 23312 23316 23320 23324 23328 23332 23336 23340 23344 23348 23352 23356 23360 23364 23368 23372 23376 23380 23384 23388 23392 23396 23400 23404 23408 23412 23416 23420 23424 23428 23432 23436 23440 23444 23448 23452 23456 23460 23464 23468 23472 23476 23480 23484 23488 23492 23496 23500 23504 23508 23512 23516 23520 23524 23528 23532 23536 23540 23544 23548 23552 23556 23560 23564 23568 23572 23576 23580 23584 23588 23592 23596 23600 23604 23608 23612 23616 23620 23624 23628 23632 23636 23640 23644 23648 23652 23656 23660 23664 23668 23672 23676 23680 23684 23688 23692 23696 23700 23704 23708 23712 23716 23720 23724 23728 23732 23736 23740 23744 23748 23752 23756 23760 23764 23768 23772 23776 23780 23784 23788 23792 23796 23800 23804 23808 23812 23816 23820 23824 23828 23832 23836 23840 23844 23848 23852 23856 23860 23864 23868 23872 23876 23880 23884 23888 23892 23896 23900 23904 23908 23912 23916 23920 23924 23928 23932 23936 23940 23944 23948 23952 23956 23960 23964 23968 23972 23976 23980 23984 23988 23992 23996 24000 24004 24008 24012 24016 24020 24024 24028 24032 24036 24040 24044 24048 24052 24056 24060 24064 24068 24072 24076 24080 24084 24088 24092 24096 24100 24104 24108 24112 24116 24120 24124 24128 24132 24136 24140 24144 24148 24152 24156 24160 24164 24168 24172 24176 24180 24184 24188 24192 24196 24200 24204 24208 24212 24216 24220 24224 24228 24232 24236 24240 24244 24248 24252 24256 24260 24264 24268 24272 24276 24280 24284 24288 24292 24296 24300 24304 24308 24312 24316 24320 24324 24328 24332 24336 24340 24344 24348 24352 24356 24360 24364 24368 24372 24376 24380 24384 24388 24392 24396 24400 24404 24408 24412 24416 24420 24424 24428 24432 24436 24440 24444 24448 24452 24456 24460 24464 24468 24472 24476 24480 24484 24488 24492 24496 24500 24504 24508 24512 24516 24520 24524 24528 24532 24536 24540 24544 24548 24552 24556 24560 24564 24568 24572 24576 24580 24584 24588 24592 24596 24600 24604 24608 24612 24616 24620 24624 24628 24632 24636 24640 24644 24648 24652 24656 24660 24664 24668 24672 24676 24680 24684 24688 24692 24696 24700 24704 24708 24712 24716 24720 24724 24728 24732 24736 24740 24744 24748 24752 24756 24760 24764 24768 24772 24776 24780 24784 24788 24792 24796 24800 24804 24808 24812 24816 24820 24824 24828 24832 24836 24840 24844 24848 24852 24856 24860 24864 24868 24872 24876 24880 24884 24888 24892 24896 24900 24904 24908 24912 24916 24920 24924 24928 24932 24936 24940 24944 24948 24952 24956 24960 24964 24968 24972 24976 24980 24984 24988 24992 24996 25000 25004 25008 25012 25016 25020 25024 25028 25032 25036 25040 25044 25048 25052 25056 25060 25064 25068 25072 25076 25080 25084 25088 25092 25096 25100 25104 25108 25112 25116 25120 25124 25128 25132 25136 25140 25144 25148 25152 25156 25160 25164 25168 25172 25176 25180 25184 25188 25192 25196 25200 25204 25208 25212 25216 25220 25224 25228 25232 25236 25240 25244 25248 25252 25256 25260 25264 25268 25272 25276 25280 25284 25288 25292 25296 25300 25304 25308 25312 25316 25320 25324 25328 25332 25336 25340 25344 25348 25352 25356 25360 25364 25368 25372 25376 25380 25384 25388 25392 25396 25400 25404 25408 25412 25416 25420 25424 25428 25432 25436 25440 25444 25448 25452 25456 25460 25464 25468 25472 25476 25480 25484 25488 25492 25496 25500 25504 25508 25512 25516 25520 25524 25528 25532 25536 25540 25544 25548 25552 25556 25560 25564 25568 25572 25576 25580 25584 25588 25592 25596 25600 25604 25608 25612 25616 25620 25624 25628 25632 25636 25640 25644 25648 25652 25656 25660 25664 25668 25672 25676 25680 25684 25688 25692 25696 25700 25704 25708 25712 25716 25720 25724 25728 25732 25736 25740 25744 25748 25752 25756 25760 25764 25768 25772 25776 25780 25784 25788 25792 25796 25800 25804 25808 25812 25816 25820 25824 25828 25832 25836 25840 25844 25848 25852 25856 25860 25864 25868 25872 25876 25880 25884 25888 25892 25896 25900 25904 25908 25912 25916 25920 25924 25928 25932 25936 25940 25944 25948 25952 25956 25960 25964 25968 25972 25976 25980 25984 25988 25992 25996 26000 26004 26008 26012 26016 26020 26024 26028 26032 26036 26040 26044 26048 26052 26056 26060 26064 26068 26072 26076 26080 26084 26088 26092 26096 26100 26104 26108 26112 26116 26120 26124 26128 26132 26136 26140 26144 26148 26152 26156 26160 26164 26168 26172 26176 26180 26184 26188 26192 26196 26200 26204 26208 26212 26216 26220 26224 26228 26232 26236 26240 26244 26248 26252 26256 26260 26264 26268 26272 26276 26280 26284 26288 26292 26296 26300 26304 26308 26312 26316 26320 26324 26328 26332 26336 26340 26344 26348 26352 26356 26360 26364 26368 26372 26376 26380 26384 26388 26392 26396 26400 26404 26408 26412 26416 26420 26424 26428 26432 26436 26440 26444 26448 26452 26456 26460 26464 26468 26472 26476 26480 26484 26488 26492 26496 26500 26504 26508 26512 26516 26520 26524 26528 26532 26536 26540 26544 26548 26552 26556 26560 26564 26568 26572 26576 26580 26584 26588 26592 26596 26600 26604 26608 26612 26616 26620 26624 26628 26632 26636 26640 26644 26648 26652 26656 26660 26664 26668 26672 26676 26680 26684 26688 26692 26696 26700 26704 26708 26712 26716 26720 26724 26728 26732 26736 26740 26744 26748 26752 26756 26760 26764 26768 26772 26776 26780 26784 26788 26792 26796 26800 26804 26808 26812 26816 26820 26824 26828 26832 26836 26840 26844 26848 26852 26856 26860 26864 26868 26872 26876 26880 26884 26888 26892 26896 26900 26904 26908 26912 26916 26920 26924 26928 26932 26936 26940 26944 26948 26952 26956 26960 26964 26968 26972 26976 26980 26984 26988 26992 26996 27000 27004 27008 27012 27016 27020 27024 27028 27032 27036 27040 27044 27048 27052 27056 27060 27064 27068 27072 27076 27080 27084 27088 27092 27096 27100 27104 27108 27112 27116 27120 27124 27128 27132 27136 27140 27144 27148 27152 27156 27160 27164 27168 27172 27176 27180 27184 27188 27192 27196 27200 27204 27208 27212 27216 27220 27224 27228 27232 27236 27240 27244 27248 27252 27256 27260 27264 27268 27272 27276 27280 27284 27288 27292 27296 27300 27304 27308 27312 27316 27320 27324 27328 27332 27336 27340 27344 27348 27352 27356 27360 27364 27368 27372 27376 27380 27384 27388 27392 27396 27400 27404 27408 27412 27416 27420 27424 27428 27432 27436 27440 27444 27448 27452 27456 27460 27464 27468 27472 27476 27480 27484 27488 27492 27496 27500 27504 27508 27512 27516 27520 27524 27528 27532 27536 27540 27544 27548 27552 27556 27560 27564 27568 27572 27576 27580 27584 27588 27592 27596 27600 27604 27608 27612 27616 27620 27624 27628 27632 27636 27640 27644 27648 27652 27656 27660 27664 27668 27672 27676 27680 27684 27688 27692 27696 27700 27704 27708 27712 27716 27720 27724 27728 27732 27736 27740 27744 27748 27752 27756 27760 27764 27768 27772 27776 27780 27784 27788 27792 27796 27800 27804 27808 27812 27816 27820 27824 27828 27832 27836 27840 27844 27848 27852 27856 27860 27864 27868 27872 27876 27880 27884 27888 27892 27896 27900 27904 27908 27912 27916 27920 27924 27928 27932 27936 27940 27944 27948 27952 27956 27960 27964 27968 27972 27976 27980 27984 27988 27992 27996 28000 28004 28008 28012 28016 28020 28024 28028 28032 28036 28040 28044 28048 28052 28056 28060 28064 28068 28072 28076 28080 28084 28088 28092 28096 28100 28104 28108 28112 28116 28120 28124 28128 28132 28136 28140 28144 28148 28152 28156 28160 28164 28168 28172 28176 28180 28184 28188 28192 28196 28200 28204 28208 28212 28216 28220 28224 28228 28232 28236 28240 28244 28248 28252 28256 28260 28264 28268 28272 28276 28280 28284 28288 28292 28296 28300 28304 28308 28312 28316 28320 28324 28328 28332 28336 28340 28344 28348 28352 28356 28360 28364 28368 28372 28376 28380 28384 28388 28392 28396 28400 28404 28408 28412 28416 28420 28424 28428 28432 28436 28440 28444 28448 28452 28456 28460 28464 28468 28472 28476 28480 28484 28488 28492 28496 28500 28504 28508 28512 28516 28520 28524 28528 28532 28536 28540 28544 28548 28552 28556 28560 28564 28568 28572 28576 28580 28584 28588 28592 28596 28600 28604 28608 28612 28616 28620 28624 28628 28632 28636 28640 28644 28648 28652 28656 28660 28664 28668 28672 28676 28680 28684 28688 28692 28696 28700 28704 28708 28712 28716 28720 28724 28728 28732 28736 28740 28744 28748 28752 28756 28760 28764 28768 28772 28776 28780 28784 28788 28792 28796 28800 28804 28808 28812 28816 28820 28824 28828 28832 28836 28840 28844 28848 28852 28856 28860 28864 28868 28872 28876 28880 28884 28888 28892 28896 28900 28904 28908 28912 28916 28920 28924 28928 28932 28936 28940 28944 28948 28952 28956 28960 28964 28968 28972 28976 28980 28984 28988 28992 28996 29000 29004 29008 29012 29016 29020 29024 29028 29032 29036 29040 29044 29048 29052 29056 29060 29064 29068 29072 29076 29080 29084 29088 29092 29096 29100 29104 29108 29112 29116 29120 29124 29128 29132 29136 29140 29144 29148 29152 29156 29160 29164 29168 29172 29176 29180 29184 29188 29192 29196 29200 29204 29208 29212 29216 29220 29224 29228 29232 29236 29240 29244 29248 29252 29256 29260 29264 29268 29272 29276 29280 29284 29288 29292 29296 29300 29304 29308 29312 29316 29320 29324 29328 29332 29336 29340 29344 29348 29352 29356 29360 29364 29368 29372 29376 29380 29384 29388 29392 29396 29400 29404 29408 29412 29416 29420 29424 29428 29432 29436 29440 29444 29448 29452 29456 29460 29464 29468 29472 29476 29480 29484 29488 29492 29496 29500 29504 29508 29512 29516 29520 29524 29528 29532 29536 29540 29544 29548 29552 29556 29560 29564 29568 29572 29576 29580 29584 29588 29592 29596 29600 29604 29608 29612 29616 29620 29624 29628 29632 29636 29640 29644 29648 29652 29656 29660 29664 29668 29672 29676 29680 29684 29688 29692 29696 29700 29704 29708 29712 29716 29720 29724 29728 29732 29736 29740 29744 29748 29752 29756 29760 29764 29768 29772 29776 29780 29784 29788 29792 29796 29800 29804 29808 29812 29816 29820 29824 29828 29832 29836 29840 29844 29848 29852 29856 29860 29864 29868 29872 29876 29880 29884 29888 29892 29896 29900 29904 29908 29912 29916 29920 29924 29928 29932 29936 29940 29944 29948 29952 29956 29960 29964 29968 29972 29976 29980 29984 29988 29992 29996 30000 30004 30008 30012 30016 30020 30024 30028 30032 30036 30040 30044 30048 30052 30056 30060 30064 30068 30072 30076 30080 30084 30088 30092 30096 30100 30104 30108 30112 30116 30120 30124 30128 30132 30136 30140 30144 30148 30152 30156 30160 30164 30168 30172 30176 30180 30184 30188 30192 30196 30200 30204 30208 30212 30216 30220 30224 30228 30232 30236 30240 30244 30248 30252 30256 30260 30264 30268 30272 30276 30280 30284 30288 30292 30296 30300 30304 30308 30312 30316 30320 30324 30328 30332 30336 30340 30344 30348 30352 30356 30360 30364 30368 30372 30376 30380 30384 30388 30392 30396 30400 30404 30408 30412 30416 30420 30424 30428 30432 30436 30440 30444 30448 30452 30456 30460 30464 30468 30472 30476 30480 30484 30488 30492 30496 30500 30504 30508 30512 30516 30520 30524 30528 30532 30536 30540 30544 30548 30552 30556 30560 30564 30568 30572 30576 30580 30584 30588 30592 30596 30600 30604 30608 30612 30616 30620 30624 30628 30632 30636 30640 30644 30648 30652 30656 30660 30664 30668 30672 30676 30680 30684 30688 30692 30696 30700 30704 30708 30712 30716 30720 30724 30728 30732 30736 30740 30744 30748 30752 30756 30760 30764 30768 30772 30776 30780 30784 30788 30792 30796 30800 30804 30808 30812 30816 30820 30824 30828 30832 30836 30840 30844 30848 30852 30856 30860 30864 30868 30872 30876 30880 30884 30888 30892 30896 30900 30904 30908 30912 30916 30920 30924 30928 30932 30936 30940 30944 30948 30952 30956 30960 30964 30968 30972 30976 30980 30984 30988 30992 30996 31000 31004 31008 31012 31016 31020 31024 31028 31032 31036 31040 31044 31048 31052 31056 31060 31064 31068 31072 31076 31080 31084 31088 31092 31096 31100 31104 31108 31112 31116 31120 31124 31128 31132 31136 31140 31144 31148 31152 31156 31160 31164 31168 31172 31176 31180 31184 31188 31192 31196 31200 31204 31208 31212 31216 31220 31224 31228 31232 31236 31240 31244 31248 31252 31256 31260 31264 31268 31272 31276 31280 31284 31288 31292 31296 31300 31304 31308 31312 31316 31320 31324 31328 31332 31336 31340 31344 31348 31352 31356 31360 31364 31368 31372 31376 31380 31384 31388 31392 31396 31400 31404 31408 31412 31416 31420 31424 31428 31432 31436 31440 31444 31448 31452 31456 31460 31464 31468 31472 31476 31480 31484 31488 31492 31496 31500 31504 31508 31512 31516 31520 31524 31528 31532 31536 31540 31544 31548 31552 31556 31560 31564 31568 31572 31576 31580 31584 31588 31592 31596 31600 31604 31608 31612 31616 31620 31624 31628 31632 31636 31640 31644 31648 31652 31656 31660 31664 31668 31672 31676 31680 31684 31688 31692 31696 31700 31704 31708 31712 31716 31720 31724 31728 31732 31736 31740 31744 31748 31752 31756 31760 31764 31768 31772 31776 31780 31784 31788 31792 31796 31800 31804 31808 31812 31816 31820 31824 31828 31832 31836 31840 31844 31848 31852 31856 31860 31864 31868 31872 31876 31880 31884 31888 31892 31896 31900 31904 31908 31912 31916 31920 31924 31928 31932 31936 31940 31944 31948 31952 31956 31960 31964 31968 31972 31976 31980 31984 31988 31992 31996 32000 32004 32008 32012 32016 32020 32024 32028 32032 32036 32040 32044 32048 32052 32056 32060 32064 32068 32072 32076 32080 32084 32088 32092 32096 32100 32104 32108 32112 32116 32120 32124 32128 32132 32136 32140 32144 32148 32152 32156 32160 32164 32168 32172 32176 32180 32184 32188 32192 32196 32200 32204 32208 32212 32216 32220 32224 32228 32232 32236 32240 32244 32248 32252 32256 32260 32264 32268 32272 32276 32280 32284 32288 32292 32296 32300 32304 32308 32312 32316 32320 32324 32328 32332 32336 32340 32344 32348 32352 32356 32360 32364 32368 32372 32376 32380 32384 32388 32392 32396 32400 32404 32408 32412 32416 32420 32424 32428 32432 32436 32440 32444 32448 32452 32456 32460 32464 32468 32472 32476 32480 32484 32488 32492 32496 32500 32504 32508 32512 32516 32520 32524 32528 32532 32536 32540 32544 32548 32552 32556 32560 32564 32568 32572 32576 32580 32584 32588 32592 32596 32600 32604 32608 32612 32616 32620 32624 32628 32632 32636 32640 32644 32648 32652 32656 32660 32664 32668 32672 32676 32680 32684 32688 32692 32696 32700 32704 32708 32712 32716 32720 32724 32728 32732 32736 32740 32744 32748 32752 32756 32760 32764 32768 32772 32776 32780 32784 32788 32792 32796 32800 32804 32808 32812 32816 32820 32824 32828 32832 32836 32840 32844 32848 32852 32856 32860 32864 32868 32872 32876 32880 32884 32888 32892 32896 32900 32904 32908 32912 32916 32920 32924 32928 32932 32936 32940 32944 32948 32952 32956 32960 32964 32968 32972 32976 32980 32984 32988 32992 32996 33000 33004 33008 33012 33016 33020 33024 33028 33032 33036 33040 33044 33048 33052 33056 33060 33064 33068 33072 33076 33080 33084 33088 33092 33096 33100 33104 33108 33112 33116 33120 33124 33128 33132 33136 33140 33144 33148 33152 33156 33160 33164 33168 33172 33176 33180 33184 33188 33192 33196 33200 33204 33208 33212 33216 33220 33224 33228 33232 33236 33240 33244 33248 33252 33256 33260 33264 33268 33272 33276 33280 33284 33288 33292 33296 33300 33304 33308 33312 33316 33320 33324 33328 33332 33336 33340 33344 33348 33352 33356 33360 33364 33368 33372 33376 33380 33384 33388 33392 33396 33400 33404 33408 33412 33416 33420 33424 33428 33432 33436 33440 33444 33448 33452 33456 33460 33464 33468 33472 33476 33480 33484 33488 33492 33496 33500 33504 33508 33512 33516 33520 33524 33528 33532 33536 33540 33544 33548 33552 33556 33560 33564 33568 33572 33576 33580 33584 33588 33592 33596 33600 33604 33608 33612 33616 33620 33624 33628 33632 33636 33640 33644 33648 33652 33656 33660 33664 33668 33672 33676 33680 33684 33688 33692 33696 33700 33704 33708 33712 33716 33720 33724 33728 33732 33736 33740 33744 33748 33752 33756 33760 33764 33768 33772 33776 33780 33784 33788 33792 33796 33800 33804 33808 33812 33816 33820 33824 33828 33832 33836 33840 33844 33848 33852 33856 33860 33864 33868 33872 33876 33880 33884 33888 33892 33896 33900 33904 33908 33912 33916 33920 33924 33928 33932 33936 33940 33944 33948 33952 33956 33960 33964 33968 33972 33976 33980 33984 33988 33992 33996 34000 34004 34008 34012 34016 34020 34024 34028 34032 34036 34040 34044 34048 34052 34056 34060 34064 34068 34072 34076 34080 34084 34088 34092 34096 34100 34104 34108 34112 34116 34120 34124 34128 34132 34136 34140 34144 34148 34152 34156 34160 34164 34168 34172 34176 34180 34184 34188 34192 34196 34200 34204 34208 34212 34216 34220 34224 34228 34232 34236 34240 34244 34248 34252 34256 34260 34264 34268 34272 34276 34280 34284 34288 34292 34296 34300 34304 34308 34312 34316 34320 34324 34328 34332 34336 34340 34344 34348 34352 34356 34360 34364 34368 34372 34376 34380 34384 34388 34392 34396 34400 34404 34408 34412 34416 34420 34424 34428 34432 34436 34440 34444 34448 34452 34456 34460 34464 34468 34472 34476 34480 34484 34488 34492 34496 34500 34504 34508 34512 34516 34520 34524 34528 34532 34536 34540 34544 34548 34552 34556 34560 34564 34568 34572 34576 34580 34584 34588 34592 34596 34600 34604 34608 34612 34616 34620 34624 34628 34632 34636 34640 34644 34648 34652 34656 34660 34664 34668 34672 34676 34680 34684 34688 34692 34696 34700 34704 34708 34712 34716 34720 34724 34728 34732 34736 34740 34744 34748 34752 34756 34760 34764 34768 34772 34776 34780 34784 34788 34792 34796 34800 34804 34808 34812 34816 34820 34824 34828 34832 34836 34840 34844 34848 34852 34856 34860 34864 34868 34872 34876 34880 34884 34888 34892 34896 34900 34904 34908 34912 34916 34920 34924 34928 34932 34936 34940 34944 34948 34952 34956 34960 34964 34968 34972 34976 34980 34984 34988 34992 34996 35000 35004 35008 35012 35016 35020 35024 35028 35032 35036 35040 35044 35048 35052 35056 35060 35064 35068 35072 35076 35080 35084 35088 35092 35096 35100 35104 35108 35112 35116 35120 35124 35128 35132 35136 35140 35144 35148 35152 35156 35160 35164 35168 35172 35176 35180 35184 35188 35192 35196 35200 35204 35208 35212 35216 35220 35224 35228 35232 35236 35240 35244 35248 35252 35256 35260 35264 35268 35272 35276 35280 35284 35288 35292 35296 35300 35304 35308 35312 35316 35320 35324 35328 35332 35336 35340 35344 35348 35352 35356 35360 35364 35368 35372 35376 35380 35384 35388 35392 35396 35400 35404 35408 35412 35416 35420 35424 35428 35432 35436 35440 35444 35448 35452 35456 35460 35464 35468 35472 35476 35480 35484 35488 35492 35496 35500 35504 35508 35512 35516 35520 35524 35528 35532 35536 35540 35544 35548 35552 35556 35560 35564 35568 35572 35576 35580 35584 35588 35592 35596 35600 35604 35608 35612 35616 35620 35624 35628 35632 35636 35640 35644 35648 35652 35656 35660 35664 35668 35672 35676 35680 35684 35688 35692 35696 35700 35704 35708 35712 35716 35720 35724 35728 35732 35736 35740 35744 35748 35752 35756 35760 35764 35768 35772 35776 35780 35784 35788 35792 35796 35800 35804 35808 35812 35816 35820 35824 35828 35832 35836 35840 35844 35848 35852 35856 35860 35864 35868 35872 35876 35880 35884 35888 35892 35896 35900 35904 35908 35912 35916 35920 35924 35928 35932 35936 35940 35944 35948 35952 35956 35960 35964 35968 35972 35976 35980 35984 35988 35992 35996 36000 36004 36008 36012 36016 36020 36024 36028 36032 36036 36040 36044 36048 36052 36056 36060 36064 36068 36072 36076 36080 36084 36088 36092 36096 36100 36104 36108 36112 36116 36120 36124 36128 36132 36136 36140 36144 36148 36152 36156 36160 36164 36168 36172 36176 36180 36184 36188 36192 36196 36200 36204 36208 36212 36216 36220 36224 36228 36232 36236 36240 36244 36248 36252 36256 36260 36264 36268 36272 36276 36280 36284 36288 36292 36296 36300 36304 36308 36312 36316 36320 36324 36328 36332 36336 36340 36344 36348 36352 36356 36360 36364 36368 36372 36376 36380 36384 36388 36392 36396 36400 36404 36408 36412 36416 36420 36424 36428 36432 36436 36440 36444 36448 36452 36456 36460 36464 36468 36472 36476 36480 36484 36488 36492 36496 36500 36504 36508 36512 36516 36520 36524 36528 36532 36536 36540 36544 36548 36552 36556 36560 36564 36568 36572 36576 36580 36584 36588 36592 36596 36600 36604 36608 36612 36616 36620 36624 36628 36632 36636 36640 36644 36648 36652 36656 36660 36664 36668 36672 36676 36680 36684 36688 36692 36696 36700 36704 36708 36712 36716 36720 36724 36728 36732 36736 36740 36744 36748 36752 36756 36760 36764 36768 36772 36776 36780 36784 36788 36792 36796 36800 36804 36808 36812 36816 36820 36824 36828 36832 36836 36840 36844 36848 36852 36856 36860 36864 36868 36872 36876 36880 36884 36888 36892 36896 36900 36904 36908 36912 36916 36920 36924 36928 36932 36936 36940 36944 36948 36952 36956 36960 36964 36968 36972 36976 36980 36984 36988 36992 36996 37000 37004 37008 37012 37016 37020 37024 37028 37032 37036 37040 37044 37048 37052 37056 37060 37064 37068 37072 37076 37080 37084 37088 37092 37096 37100 37104 37108 37112 37116 37120 37124 37128 37132 37136 37140 37144 37148 37152 37156 37160 37164 37168 37172 37176 37180 37184 37188 37192 37196 37200 37204 37208 37212 37216 37220 37224 37228 37232 37236 37240 37244 37248 37252 37256 37260 37264 37268 37272 37276 37280 37284 37288 37292 37296 37300 37304 37308 37312 37316 37320 37324 37328 37332 37336 37340 37344 37348 37352 37356 37360 37364 37368 37372 37376 37380 37384 37388 37392 37396 37400 37404 37408 37412 37416 37420 37424 37428 37432 37436 37440 37444 37448 37452 37456 37460 37464 37468 37472 37476 37480 37484 37488 37492 37496 37500 37504 37508 37512 37516 37520 37524 37528 37532 37536 37540 37544 37548 37552 37556 37560 37564 37568 37572 37576 37580 37584 37588 37592 37596 37600 37604 37608 37612 37616 37620 37624 37628 37632 37636 37640 37644 37648 37652 37656 37660 37664 37668 37672 37676 37680 37684 37688 37692 37696 37700 37704 37708 37712 37716 37720 37724 37728 37732 37736 37740 37744 37748 37752 37756 37760 37764 37768 37772 37776 37780 37784 37788 37792 37796 37800 37804 37808 37812 37816 37820 37824 37828 37832 37836 37840 37844 37848 37852 37856 37860 37864 37868 37872 37876 37880 37884 37888 37892 37896 37900 37904 37908 37912 37916 37920 37924 37928 37932 37936 37940 37944 37948 37952 37956 37960 37964 37968 37972 37976 37980 37984 37988 37992 37996 38000 38004 38008 38012 38016 38020 38024 38028 38032 38036 38040 38044 38048 38052 38056 38060 38064 38068 38072 38076 38080 38084 38088 38092 38096 38100 38104 38108 38112 38116 38120 38124 38128 38132 38136 38140 38144 38148 38152 38156 38160 38164 38168 38172 38176 38180 38184 38188 38192 38196 38200 38204 38208 38212 38216 38220 38224 38228 38232 38236 38240 38244 38248 38252 38256 38260 38264 38268 38272 38276 38280 38284 38288 38292 38296 38300 38304 38308 38312 38316 38320 38324 38328 38332 38336 38340 38344 38348 38352 38356 38360 38364 38368 38372 38376 38380 38384 38388 38392 38396 38400 38404 38408 38412 38416 38420 38424 38428 38432 38436 38440 38444 38448 38452 38456 38460 38464 38468 38472 38476 38480 38484 38488 38492 38496 38500 38504 38508 38512 38516 38520 38524 38528 38532 38536 38540 38544 38548 38552 38556 38560 38564 38568 38572 38576 38580 38584 38588 38592 38596 38600 38604 38608 38612 38616 38620 38624 38628 38632 38636 38640 38644 38648 38652 38656 38660 38664 38668 38672 38676 38680 38684 38688 38692 38696 38700 38704 38708 38712 38716 38720 38724 38728 38732 38736 38740 38744 38748 38752 38756 38760 38764 38768 38772 38776 38780 38784 38788 38792 38796 38800 38804 38808 38812 38816 38820 38824 38828 38832 38836 38840 38844 38848 38852 38856 38860 38864 38868 38872 38876 38880 38884 38888 38892 38896 38900 38904 38908 38912 38916 38920 38924 38928 38932 38936 38940 38944 38948 38952 38956 38960 38964 38968 38972 38976 38980 38984 38988 38992 38996 39000 39004 39008 39012 39016 39020 39024 39028 39032 39036 39040 39044 39048 39052 39056 39060 39064 39068 39072 39076 39080 39084 39088 39092 39096 39100 39104 39108 39112 39116 39120 39124 39128 39132 39136 39140 39144 39148 39152 39156 39160 39164 39168 39172 39176 39180 39184 39188 39192 39196 39200 39204 39208 39212 39216 39220 39224 39228 39232 39236 39240 39244 39248 39252 39256 39260 39264 39268 39272 39276 39280 39284 39288 39292 39296 39300 39304 39308 39312 39316 39320 39324 39328 39332 39336 39340 39344 39348 39352 39356 39360 39364 39368 39372 39376 39380 39384 39388 39392 39396 39400 39404 39408 39412 39416 39420 39424 39428 39432 39436 39440 39444 39448 39452 39456 39460 39464 39468 39472 39476 39480 39484 39488 39492 39496 39500 39504 39508 39512 39516 39520 39524 39528 39532 39536 39540 39544 39548 39552 39556 39560 39564 39568 39572 39576 39580 39584 39588 39592 39596 39600 39604 39608 39612 39616 39620 39624 39628 39632 39636 39640 39644 39648 39652 39656 39660 39664 39668 39672 39676 39680 39684 39688 39692 39696 39700 39704 39708 39712 39716 39720 39724 39728 39732 39736 39740 39744 39748 39752 39756 39760 39764 39768 39772 39776 39780 39784 39788 39792 39796 39800 39804 39808 39812 39816 39820 39824 39828 39832 39836 39840 39844 39848 39852 39856 39860 39864 39868 39872 39876 39880 39884 39888 39892 39896 39900 39904 39908 39912 39916 39920 39924 39928 39932 39936 39940 39944 39948 39952 39956 39960 39964 39968 39972 39976 39980 39984 39988 39992 39996 40000 40004 40008 40012 40016 40020 40024 40028 40032 40036 40040 40044 40048 40052 40056 40060 40064 40068 40072 40076 40080 40084 40088 40092 40096 40100 40104 40108 40112 40116 40120 40124 40128 40132 40136 40140 40144 40148 40152 40156 40160 40164 40168 40172 40176 40180 40184 40188 40192 40196 40200 40204 40208 40212 40216 40220 40224 40228 40232 40236 40240 40244 40248 40252 40256 40260 40264 40268 40272 40276 40280 40284 40288 40292 40296 40300 40304 40308 40312 40316 40320 40324 40328 40332 40336 40340 40344 40348 40352 40356 40360 40364 40368 40372 40376 40380 40384 40388 40392 40396 40400 40404 40408 40412 40416 40420 40424 40428 40432 40436 40440 40444 40448 40452 40456 40460 40464 40468 40472 40476 40480 40484 40488 40492 40496 40500 40504 40508 40512 40516 40520 40524 40528 40532 40536 40540 40544 40548 40552 40556 40560 40564 40568 40572 40576 40580 40584 40588 40592 40596 40600 40604 40608 40612 40616 40620 40624 40628 40632 40636 40640 40644 40648 40652 40656 40660 40664 40668 40672 40676 40680 40684 40688 40692 40696 40700 40704 40708 40712 40716 40720 40724 40728 40732 40736 40740 40744 40748 40752 40756 40760 40764 40768 40772 40776 40780 40784 40788 40792 40796 40800 40804 40808 40812 40816 40820 40824 40828 40832 40836 40840 40844 40848 40852 40856 40860 40864 40868 40872 40876 40880 40884 40888 40892 40896 40900 40904 40908 40912 40916 40920 40924 40928 40932 40936 40940 40944 40948 40952 40956 40960 40964 40968 40972 40976 40980 40984 40988 40992 40996 41000 41004 41008 41012 41016 41020 41024 41028 41032 41036 41040 41044 41048 41052 41056 41060 41064 41068 41072 41076 41080 41084 41088 41092 41096 41100 41104 41108 41112 41116 41120 41124 41128 41132 41136 41140 41144 41148 41152 41156 41160 41164 41168 41172 41176 41180 41184 41188 41192 41196 41200 41204 41208 41212 41216 41220 41224 41228 41232 41236 41240 41244 41248 41252 41256 41260 41264 41268 41272 41276 41280 41284 41288 41292 41296 41300 41304 41308 41312 41316 41320 41324 41328 41332 41336 41340 41344 41348 41352 41356 41360 41364 41368 41372 41376 41380 41384 41388 41392 41396 41400 41404 41408 41412 41416 41420 41424 41428 41432 41436 41440 41444 41448 41452 41456 41460 41464 41468 41472 41476 41480 41484 41488 41492 41496 41500 41504 41508 41512 41516 41520 41524 41528 41532 41536 41540 41544 41548 41552 41556 41560 41564 41568 41572 41576 41580 41584 41588 41592 41596 41600 41604 41608 41612 41616 41620 41624 41628 41632 41636 41640 41644 41648 41652 41656 41660 41664 41668 41672 41676 41680 41684 41688 41692 41696 41700 41704 41708 41712 41716 41720 41724 41728 41732 41736 41740 41744 41748 41752 41756 41760 41764 41768 41772 41776 41780 41784 41788 41792 41796 41800 41804 41808 41812 41816 41820 41824 41828 41832 41836 41840 41844 41848 41852 41856 41860 41864 41868 41872 41876 41880 41884 41888 41892 41896 41900 41904 41908 41912 41916 41920 41924 41928 41932 41936 41940 41944 41948 41952 41956 41960 41964 41968 41972 41976 41980 41984 41988 41992 41996 42000 42004 42008 42012 42016 42020 42024 42028 42032 42036 42040 42044 42048 42052 42056 42060 42064 42068 42072 42076 42080 42084 42088 42092 42096 42100 42104 42108 42112 42116 42120 42124 42128 42132 42136 42140 42144 42148 42152 42156 42160 42164 42168 42172 42176 42180 42184 42188 42192 42196 42200 42204 42208 42212 42216 42220 42224 42228 42232 42236 42240 42244 42248 42252 42256 42260 42264 42268 42272 42276 42280 42284 42288 42292 42296 42300 42304 42308 42312 42316 42320 42324 42328 42332 42336 42340 42344 42348 42352 42356 42360 42364 42368 42372 42376 42380 42384 42388 42392 42396 42400 42404 42408 42412 42416 42420 42424 42428 42432 42436 42440 42444 42448 42452 42456 42460 42464 42468 42472 42476 42480 42484 42488 42492 42496 42500 42504 42508 42512 42516 42520 42524 42528 42532 42536 42540 42544 42548 42552 42556 42560 42564 42568 42572 42576 42580 42584 42588 42592 42596 42600 42604 42608 42612 42616 42620 42624 42628 42632 42636 42640 42644 42648 42652 42656 42660 42664 42668 42672 42676 42680 42684 42688 42692 42696 42700 42704 42708 42712 42716 42720 42724 42728 42732 42736 42740 42744 42748 42752 42756 42760 42764 42768 42772 42776 42780 42784 42788 42792 42796 42800 42804 42808 42812 42816 42820 42824 42828 42832 42836 42840 42844 42848 42852 42856 42860 42864 42868 42872 42876 42880 42884 42888 42892 42896 42900 42904 42908 42912 42916 42920 42924 42928 42932 42936 42940 42944 42948 42952 42956 42960 42964 42968 42972 42976 42980 42984 42988 42992 42996 43000 43004 43008 43012 43016 43020 43024 43028 43032 43036 43040 43044 43048 43052 43056 43060 43064 43068 43072 43076 43080 43084 43088 43092 43096 43100 43104 43108 43112 43116 43120 43124 43128 43132 43136 43140 43144 43148 43152 43156 43160 43164 43168 43172 43176 43180 43184 43188 43192 43196 43200 43204 43208 43212 43216 43220 43224 43228 43232 43236 43240 43244 43248 43252 43256 43260 43264 43268 43272 43276 43280 43284 43288 43292 43296 43300 43304 43308 43312 43316 43320 43324 43328 43332 43336 43340 43344 43348 43352 43356 43360 43364 43368 43372 43376 43380 43384 43388 43392 43396 43400 43404 43408 43412 43416 43420 43424 43428 43432 43436 43440 43444 43448 43452 43456 43460 43464 43468 43472 43476 43480 43484 43488 43492 43496 43500 43504 43508 43512 43516 43520 43524 43528 43532 43536 43540 43544 43548 43552 43556 43560 43564 43568 43572 43576 43580 43584 43588 43592 43596 43600 43604 43608 43612 43616 43620 43624 43628 43632 43636 43640 43644 43648 43652 43656 43660 43664 43668 43672 43676 43680 43684 43688 43692 43696 43700 43704 43708 43712 43716 43720 43724 43728 43732 43736 43740 43744 43748 43752 43756 43760 43764 43768 43772 43776 43780 43784 43788 43792 43796 43800 43804 43808 43812 43816 43820 43824 43828 43832 43836 43840 43844 43848 43852 43856 43860 43864 43868 43872 43876 43880 43884 43888 43892 43896 43900 43904 43908 43912 43916 43920 43924 43928 43932 43936 43940 43944 43948 43952 43956 43960 43964 43968 43972 43976 43980 43984 43988 43992 43996 44000 44004 44008 44012 44016 44020 44024 44028 44032 44036 44040 44044 44048 44052 44056 44060 44064 44068 44072 44076 44080 44084 44088 44092 44096 44100 44104 44108 44112 44116 44120 44124 44128 44132 44136 44140 44144 44148 44152 44156 44160 44164 44168 44172 44176 44180 44184 44188 44192 44196 44200 44204 44208 44212 44216 44220 44224 44228 44232 44236 44240 44244 44248 44252 44256 44260 44264 44268 44272 44276 44280 44284 44288 44292 44296 44300 44304 44308 44312 44316 44320 44324 44328 44332 44336 44340 44344 44348 44352 44356 44360 44364 44368 44372 44376 44380 44384 44388 44392 44396 44400 44404 44408 44412 44416 44420 44424 44428 44432 44436 44440 44444 44448 44452 44456 44460 44464 44468 44472 44476 44480 44484 44488 44492 44496 44500 44504 44508 44512 44516 44520 44524 44528 44532 44536 44540 44544 44548 44552 44556 44560 44564 44568 44572 44576 44580 44584 44588 44592 44596 44600 44604 44608 44612 44616 44620 44624 44628 44632 44636 44640 44644 44648 44652 44656 44660 44664 44668 44672 44676 44680 44684 44688 44692 44696 44700 44704 44708 44712 44716 44720 44724 44728 44732 44736 44740 44744 44748 44752 44756 44760 44764 44768 44772 44776 44780 44784 44788 44792 44796 44800 44804 44808 44812 44816 44820 44824 44828 44832 44836 44840 44844 44848 44852 44856 44860 44864 44868 44872 44876 44880 44884 44888 44892 44896 44900 44904 44908 44912 44916 44920 44924 44928 44932 44936 44940 44944 44948 44952 44956 44960 44964 44968 44972 44976 44980 44984 44988 44992 44996 45000 45004 45008 45012 45016 45020 45024 45028 45032 45036 45040 45044 45048 45052 45056 45060 45064 45068 45072 45076 45080 45084 45088 45092 45096 45100 45104 45108 45112 45116 45120 45124 45128 45132 45136 45140 45144 45148 45152 45156 45160 45164 45168 45172 45176 45180 45184 45188 45192 45196 45200 45204 45208 45212 45216 45220 45224 45228 45232 45236 45240 45244 45248 45252 45256 45260 45264 45268 45272 45276 45280 45284 45288 45292 45296 45300 45304 45308 45312 45316 45320 45324 45328 45332 45336 45340 45344 45348 45352 45356 45360 45364 45368 45372 45376 45380 45384 45388 45392 45396 45400 45404 45408 45412 45416 45420 45424 45428 45432 45436 45440 45444 45448 45452 45456 45460 45464 45468 45472 45476 45480 45484 45488 45492 45496 45500 45504 45508 45512 45516 45520 45524 45528 45532 45536 45540 45544 45548 45552 45556 45560 45564 45568 45572 45576 45580 45584 45588 45592 45596 45600 45604 45608 45612 45616 45620 45624 45628 45632 45636 45640 45644 45648 45652 45656 45660 45664 45668 45672 45676 45680 45684 45688 45692 45696 45700 45704 45708 45712 45716 45720 45724 45728 45732 45736 45740 45744 45748 45752 45756 45760 45764 45768 45772 45776 45780 45784 45788 45792 45796 45800 45804 45808 45812 45816 45820 45824 45828 45832 45836 45840 45844 45848 45852 45856 45860 45864 45868 45872 45876 45880 45884 45888 45892 45896 45900 45904 45908 45912 45916 45920 45924 45928 45932 45936 45940 45944 45948 45952 45956 45960 45964 45968 45972 45976 45980 45984 45988 45992 45996 46000 46004 46008 46012 46016 46020 46024 46028 46032 46036 46040 46044 46048 46052 46056 46060 46064 46068 46072 46076 46080 46084 46088 46092 46096 46100 46104 46108 46112 46116 46120 46124 46128 46132 46136 46140 46144 46148 46152 46156 46160 46164 46168 46172 46176 46180 46184 46188 46192 46196 46200 46204 46208 46212 46216 46220 46224 46228 46232 46236 46240 46244 46248 46252 46256 46260 46264 46268 46272 46276 46280 46284 46288 46292 46296 46300 46304 46308 46312 46316 46320 46324 46328 46332 46336 46340 46344 46348 46352 46356 46360 46364 46368 46372 46376 46380 46384 46388 46392 46396 46400 46404 46408 46412 46416 46420 46424 46428 46432 46436 46440 46444 46448 46452 46456 46460 46464 46468 46472 46476 46480 46484 46488 46492 46496 46500 46504 46508 46512 46516 46520 46524 46528 46532 46536 46540 46544 46548 46552 46556 46560 46564 46568 46572 46576 46580 46584 46588 46592 46596 46600 46604 46608 46612 46616 46620 46624 46628 46632 46636 46640 46644 46648 46652 46656 46660 46664 46668 46672 46676 46680 46684 46688 46692 46696 46700 46704 46708 46712 46716 46720 46724 46728 46732 46736 46740 46744 46748 46752 46756 46760 46764 46768 46772 46776 46780 46784 46788 46792 46796 46800 46804 46808 46812 46816 46820 46824 46828 46832 46836 46840 46844 46848 46852 46856 46860 46864 46868 46872 46876 46880 46884 46888 46892 46896 46900 46904 46908 46912 46916 46920 46924 46928 46932 46936 46940 46944 46948 46952 46956 46960 46964 46968 46972 46976 46980 46984 46988 46992 46996 47000 47004 47008 47012 47016 47020 47024 47028 47032 47036 47040 47044 47048 47052 47056 47060 47064 47068 47072 47076 47080 47084 47088 47092 47096 47100 47104 47108 47112 47116 47120 47124 47128 47132 47136 47140 47144 47148 47152 47156 47160 47164 47168 47172 47176 47180 47184 47188 47192 47196 47200 47204 47208 47212 47216 47220 47224 47228 47232 47236 47240 47244 47248 47252 47256 47260 47264 47268 47272 47276 47280 47284 47288 47292 47296 47300 47304 47308 47312 47316 47320 47324 47328 47332 47336 47340 47344 47348 47352 47356 47360 47364 47368 47372 47376 47380 47384 47388 47392 47396 47400 47404 47408 47412 47416 47420 47424 47428 47432 47436 47440 47444 47448 47452 47456 47460 47464 47468 47472 47476 47480 47484 47488 47492 47496 47500 47504 47508 47512 47516 47520 47524 47528 47532 47536 47540 47544 47548 47552 47556 47560 47564 47568 47572 47576 47580 47584 47588 47592 47596 47600 47604 47608 47612 47616 47620 47624 47628 47632 47636 47640 47644 47648 47652 47656 47660 47664 47668 47672 47676 47680 47684 47688 47692 47696 47700 47704 47708 47712 47716 47720 47724 47728 47732 47736 47740 47744 47748 47752 47756 47760 47764 47768 47772 47776 47780 47784 47788 47792 47796 47800 47804 47808 47812 47816 47820 47824 47828 47832 47836 47840 47844 47848 47852 47856 47860 47864 47868 47872 47876 47880 47884 47888 47892 47896 47900 47904 47908 47912 47916 47920 47924 47928 47932 47936 47940 47944 47948 47952 47956 47960 47964 47968 47972 47976 47980 47984 47988 47992 47996 48000 48004 48008 48012 48016 48020 48024 48028 48032 48036 48040 48044 48048 48052 48056 48060 48064 48068 48072 48076 48080 48084 48088 48092 48096 48100 48104 48108 48112 48116 48120 48124 48128 48132 48136 48140 48144 48148 48152 48156 48160 48164 48168 48172 48176 48180 48184 48188 48192 48196 48200 48204 48208 48212 48216 48220 48224 48228 48232 48236 48240 48244 48248 48252 48256 48260 48264 48268 48272 48276 48280 48284 48288 48292 48296 48300 48304 48308 48312 48316 48320 48324 48328 48332 48336 48340 48344 48348 48352 48356 48360 48364 48368 48372 48376 48380 48384 48388 48392 48396 48400 48404 48408 48412 48416 48420 48424 48428 48432 48436 48440 48444 48448 48452 48456 48460 48464 48468 48472 48476 48480 48484 48488 48492 48496 48500 48504 48508 48512 48516 48520 48524 48528 48532 48536 48540 48544 48548 48552 48556 48560 48564 48568 48572 48576 48580 48584 48588 48592 48596 48600 48604 48608 48612 48616 48620 48624 48628 48632 48636 48640 48644 48648 48652 48656 48660 48664 48668 48672 48676 48680 48684 48688 48692 48696 48700 48704 48708 48712 48716 48720 48724 48728 48732 48736 48740 48744 48748 48752 48756 48760 48764 48768 48772 48776 48780 48784 48788 48792 48796 48800 48804 48808 48812 48816 48820 48824 48828 48832 48836 48840 48844 48848 48852 48856 48860 48864 48868 48872 48876 48880 48884 48888 48892 48896 48900 48904 48908 48912 48916 48920 48924 48928 48932 48936 48940 48944 48948 48952 48956 48960 48964 48968 48972 48976 48980 48984 48988 48992 48996 49000 49004 49008 49012 49016 49020 49024 49028 49032 49036 49040 49044 49048 49052 49056 49060 49064 49068 49072 49076 49080 49084 49088 49092 49096 49100 49104 49108 49112 49116 49120 49124 49128 49132 49136 49140 49144 49148 49152 49156 49160 49164 49168 49172 49176 49180 49184 49188 49192 49196 49200 49204 49208 49212 49216 49220 49224 49228 49232 49236 49240 49244 49248 49252 49256 49260 49264 49268 49272 49276 49280 49284 49288 49292 49296 49300 49304 49308 49312 49316 49320 49324 49328 49332 49336 49340 49344 49348 49352 49356 49360 49364 49368 49372 49376 49380 49384 49388 49392 49396 49400 49404 49408 49412 49416 49420 49424 49428 49432 49436 49440 49444 49448 49452 49456 49460 49464 49468 49472 49476 49480 49484 49488 49492 49496 49500 49504 49508 49512 49516 49520 49524 49528 49532 49536 49540 49544 49548 49552 49556 49560 49564 49568 49572 49576 49580 49584 49588 49592 49596 49600 49604 49608 49612 49616 49620 49624 49628 49632 49636 49640 49644 49648 49652 49656 49660 49664 49668 49672 49676 49680 49684 49688 49692 49696 49700 49704 49708 49712 49716 49720 49724 49728 49732 49736 49740 49744 49748 49752 49756 49760 49764 49768 49772 49776 49780 49784 49788 49792 49796 49800 49804 49808 49812 49816 49820 49824 49828 49832 49836 49840 49844 49848 49852 49856 49860 49864 49868 49872 49876 49880 49884 49888 49892 49896 49900 49904 49908 49912 49916 49920 49924 49928 49932 49936 49940 49944 49948 49952 49956 49960 49964 49968 49972 49976 49980 49984 49988 49992 49996 50000 50004 50008 50012 50016 50020 50024 50028 50032 50036 50040 50044 50048 50052 50056 50060 50064 50068 50072 50076 50080 50084 50088 50092 50096 50100 50104 50108 50112 50116 50120 50124 50128 50132 50136 50140 50144 50148 50152 50156 50160 50164 50168 50172 50176 50180 50184 50188 50192 50196 50200 50204 50208 50212 50216 50220 50224 50228 50232 50236 50240 50244 50248 50252 50256 50260 50264 50268 50272 50276 50280 50284 50288 50292 50296 50300 50304 50308 50312 50316 50320 50324 50328 50332 50336 50340 50344 50348 50352 50356 50360 50364 50368 50372 50376 50380 50384 50388 50392 50396 50400 50404 50408 50412 50416 50420 50424 50428 50432 50436 50440 50444 50448 50452 50456 50460 50464 50468 50472 50476 50480 50484 50488 50492 50496 50500 50504 50508 50512 50516 50520 50524 50528 50532 50536 50540 50544 50548 50552 50556 50560 50564 50568 50572 50576 50580 50584 50588 50592 50596 50600 50604 50608 50612 50616 50620 50624 50628 50632 50636 50640 50644 50648 50652 50656 50660 50664 50668 50672 50676 50680 50684 50688 50692 50696 50700 50704 50708 50712 50716 50720 50724 50728 50732 50736 50740 50744 50748 50752 50756 50760 50764 50768 50772 50776 50780 50784 50788 50792 50796 50800 50804 50808 50812 50816 50820 50824 50828 50832 50836 50840 50844 50848 50852 50856 50860 50864 50868 50872 50876 50880 50884 50888 50892 50896 50900 50904 50908 50912 50916 50920 50924 50928 50932 50936 50940 50944 50948 50952 50956 50960 50964 50968 50972 50976 50980 50984 50988 50992 50996 51000 51004 51008 51012 51016 51020 51024 51028 51032 51036 51040 51044 51048 51052 51056 51060 51064 51068 51072 51076 51080 51084 51088 51092 51096 51100 51104 51108 51112 51116 51120 51124 51128 51132 51136 51140 51144 51148 51152 51156 51160 51164 51168 51172 51176 51180 51184 51188 51192 51196 51200 51204 51208 51212 51216 51220 51224 51228 51232 51236 51240 51244 51248 51252 51256 51260 51264 51268 51272 51276 51280 51284 51288 51292 51296 51300 51304 51308 51312 51316 51320 51324 51328 51332 51336 51340 51344 51348 51352 51356 51360 51364 51368 51372 51376 51380 51384 51388 51392 51396 51400 51404 51408 51412 51416 51420 51424 51428 51432 51436 51440 51444 51448 51452 51456 51460 51464 51468 51472 51476 51480 51484 51488 51492 51496 51500 51504 51508 51512 51516 51520 51524 51528 51532 51536 51540 51544 51548 51552 51556 51560 51564 51568 51572 51576 51580 51584 51588 51592 51596 51600 51604 51608 51612 51616 51620 51624 51628 51632 51636 51640 51644 51648 51652 51656 51660 51664 51668 51672 51676 51680 51684 51688 51692 51696 51700 51704 51708 51712 51716 51720 51724 51728 51732 51736 51740 51744 51748 51752 51756 51760 51764 51768 51772 51776 51780 51784 51788 51792 51796 51800 51804 51808 51812 51816 51820 51824 51828 51832 51836 51840 51844 51848 51852 51856 51860 51864 51868 51872 51876 51880 51884 51888 51892 51896 51900 51904 51908 51912 51916 51920 51924 51928 51932 51936 51940 51944 51948 51952 51956 51960 51964 51968 51972 51976 51980 51984 51988 51992 51996 52000 52004 52008 52012 52016 52020 52024 52028 52032 52036 52040 52044 52048 52052 52056 52060 52064 52068 52072 52076 52080 52084 52088 52092 52096 52100 52104 52108 52112 52116 52120 52124 52128 52132 52136 52140 52144 52148 52152 52156 52160 52164 52168 52172 52176 52180 52184 52188 52192 52196 52200 52204 52208 52212 52216 52220 52224 52228 52232 52236 52240 52244 52248 52252 52256 52260 52264 52268 52272 52276 52280 52284 52288 52292 52296 52300 52304 52308 52312 52316 52320 52324 52328 52332 52336 52340 52344 52348 52352 52356 52360 52364 52368 52372 52376 52380 52384 52388 52392 52396 52400 52404 52408 52412 52416 52420 52424 52428 52432 52436 52440 52444 52448 52452 52456 52460 52464 52468 52472 52476 52480 52484 52488 52492 52496 52500 52504 52508 52512 52516 52520 52524 52528 52532 52536 52540 52544 52548 52552 52556 52560 52564 52568 52572 52576 52580 52584 52588 52592 52596 52600 52604 52608 52612 52616 52620 52624 52628 52632 52636 52640 52644 52648 52652 52656 52660 52664 52668 52672 52676 52680 52684 52688 52692 52696 52700 52704 52708 52712 52716 52720 52724 52728 52732 52736 52740 52744 52748 52752 52756 52760 52764 52768 52772 52776 52780 52784 52788 52792 52796 52800 52804 52808 52812 52816 52820 52824 52828 52832 52836 52840 52844 52848 52852 52856 52860 52864 52868 52872 52876 52880 52884 52888 52892 52896 52900 52904 52908 52912 52916 52920 52924 52928 52932 52936 52940 52944 52948 52952 52956 52960 52964 52968 52972 52976 52980 52984 52988 52992 52996 53000 53004 53008 53012 53016 53020 53024 53028 53032 53036 53040 53044 53048 53052 53056 53060 53064 53068 53072 53076 53080 53084 53088 53092 53096 53100 53104 53108 53112 53116 53120 53124 53128 53132 53136 53140 53144 53148 53152 53156 53160 53164 53168 53172 53176 53180 53184 53188 53192 53196 53200 53204 53208 53212 53216 53220 53224 53228 53232 53236 53240 53244 53248 53252 53256 53260 53264 53268 53272 53276 53280 53284 53288 53292 53296 53300 53304 53308 53312 53316 53320 53324 53328 53332 53336 53340 53344 53348 53352 53356 53360 53364 53368 53372 53376 53380 53384 53388 53392 53396 53400 53404 53408 53412 53416 53420 53424 53428 53432 53436 53440 53444 53448 53452 53456 53460 53464 53468 53472 53476 53480 53484 53488 53492 53496 53500 53504 53508 53512 53516 53520 53524 53528 53532 53536 53540 53544 53548 53552 53556 53560 53564 53568 53572 53576 53580 53584 53588 53592 53596 53600 53604 53608 53612 53616 53620 53624 53628 53632 53636 53640 53644 53648 53652 53656 53660 53664 53668 53672 53676 53680 53684 53688 53692 53696 53700 53704 53708 53712 53716 53720 53724 53728 53732 53736 53740 53744 53748 53752 53756 53760 53764 53768 53772 53776 53780 53784 53788 53792 53796 53800 53804 53808 53812 53816 53820 53824 53828 53832 53836 53840 53844 53848 53852 53856 53860 53864 53868 53872 53876 53880 53884 53888 53892 53896 53900 53904 53908 53912 53916 53920 53924 53928 53932 53936 53940 53944 53948 53952 53956 53960 53964 53968 53972 53976 53980 53984 53988 53992 53996 54000 54004 54008 54012 54016 54020 54024 54028 54032 54036 54040 54044 54048 54052 54056 54060 54064 54068 54072 54076 54080 54084 54088 54092 54096 54100 54104 54108 54112 54116 54120 54124 54128 54132 54136 54140 54144 54148 54152 54156 54160 54164 54168 54172 54176 54180 54184 54188 54192 54196 54200 54204 54208 54212 54216 54220 54224 54228 54232 54236 54240 54244 54248 54252 54256 54260 54264 54268 54272 54276 54280 54284 54288 54292 54296 54300 54304 54308 54312 54316 54320 54324 54328 54332 54336 54340 54344 54348 54352 54356 54360 54364 54368 54372 54376 54380 54384 54388 54392 54396 54400 54404 54408 54412 54416 54420 54424 54428 54432 54436 54440 54444 54448 54452 54456 54460 54464 54468 54472 54476 54480 54484 54488 54492 54496 54500 54504 54508 54512 54516 54520 54524 54528 54532 54536 54540 54544 54548 54552 54556 54560 54564 54568 54572 54576 54580 54584 54588 54592 54596 54600 54604 54608 54612 54616 54620 54624 54628 54632 54636 54640 54644 54648 54652 54656 54660 54664 54668 54672 54676 54680 54684 54688 54692 54696 54700 54704 54708 54712 54716 54720 54724 54728 54732 54736 54740 54744 54748 54752 54756 54760 54764 54768 54772 54776 54780 54784 54788 54792 54796 54800 54804 54808 54812 54816 54820 54824 54828 54832 54836 54840 54844 54848 54852 54856 54860 54864 54868 54872 54876 54880 54884 54888 54892 54896 54900 54904 54908 54912 54916 54920 54924 54928 54932 54936 54940 54944 54948 54952 54956 54960 54964 54968 54972 54976 54980 54984 54988 54992 54996 55000 55004 55008 55012 55016 55020 55024 55028 55032 55036 55040 55044 55048 55052 55056 55060 55064 55068 55072 55076 55080 55084 55088 55092 55096 55100 55104 55108 55112 55116 55120 55124 55128 55132 55136 55140 55144 55148 55152 55156 55160 55164 55168 55172 55176 55180 55184 55188 55192 55196 55200 55204 55208 55212 55216 55220 55224 55228 55232 55236 55240 55244 55248 55252 55256 55260 55264 55268 55272 55276 55280 55284 55288 55292 55296 55300 55304 55308 55312 55316 55320 55324 55328 55332 55336 55340 55344 55348 55352 55356 55360 55364 55368 55372 55376 55380 55384 55388 55392 55396 55400 55404 55408 55412 55416 55420 55424 55428 55432 55436 55440 55444 55448 55452 55456 55460 55464 55468 55472 55476 55480 55484 55488 55492 55496 55500 55504 55508 55512 55516 55520 55524 55528 55532 55536 55540 55544 55548 55552 55556 55560 55564 55568 55572 55576 55580 55584 55588 55592 55596 55600 55604 55608 55612 55616 55620 55624 55628 55632 55636 55640 55644 55648 55652 55656 55660 55664 55668 55672 55676 55680 55684 55688 55692 55696 55700 55704 55708 55712 55716 55720 55724 55728 55732 55736 55740 55744 55748 55752 55756 55760 55764 55768 55772 55776 55780 55784 55788 55792 55796 55800 55804 55808 55812 55816 55820 55824 55828 55832 55836 55840 55844 55848 55852 55856 55860 55864 55868 55872 55876 55880 55884 55888 55892 55896 55900 55904 55908 55912 55916 55920 55924 55928 55932 55936 55940 55944 55948 55952 55956 55960 55964 55968 55972 55976 55980 55984 55988 55992 55996 56000 56004 56008 56012 56016 56020 56024 56028 56032 56036 56040 56044 56048 56052 56056 56060 56064 56068 56072 56076 56080 56084 56088 56092 56096 56100 56104 56108 56112 56116 56120 56124 56128 56132 56136 56140 56144 56148 56152 56156 56160 56164 56168 56172 56176 56180 56184 56188 56192 56196 56200 56204 56208 56212 56216 56220 56224 56228 56232 56236 56240 56244 56248 56252 56256 56260 56264 56268 56272 56276 56280 56284 56288 56292 56296 56300 56304 56308 56312 56316 56320 56324 56328 56332 56336 56340 56344 56348 56352 56356 56360 56364 56368 56372 56376 56380 56384 56388 56392 56396 56400 56404 56408 56412 56416 56420 56424 56428 56432 56436 56440 56444 56448 56452 56456 56460 56464 56468 56472 56476 56480 56484 56488 56492 56496 56500 56504 56508 56512 56516 56520 56524 56528 56532 56536 56540 56544 56548 56552 56556 56560 56564 56568 56572 56576 56580 56584 56588 56592 56596 56600 56604 56608 56612 56616 56620 56624 56628 56632 56636 56640 56644 56648 56652 56656 56660 56664 56668 56672 56676 56680 56684 56688 56692 56696 56700 56704 56708 56712 56716 56720 56724 56728 56732 56736 56740 56744 56748 56752 56756 56760 56764 56768 56772 56776 56780 56784 56788 56792 56796 56800 56804 56808 56812 56816 56820 56824 56828 56832 56836 56840 56844 56848 56852 56856 56860 56864 56868 56872 56876 56880 56884 56888 56892 56896 56900 56904 56908 56912 56916 56920 56924 56928 56932 56936 56940 56944 56948 56952 56956 56960 56964 56968 56972 56976 56980 56984 56988 56992 56996 57000 57004 57008 57012 57016 57020 57024 57028 57032 57036 57040 57044 57048 57052 57056 57060 57064 57068 57072 57076 57080 57084 57088 57092 57096 57100 57104 57108 57112 57116 57120 57124 57128 57132 57136 57140 57144 57148 57152 57156 57160 57164 57168 57172 57176 57180 57184 57188 57192 57196 57200 57204 57208 57212 57216 57220 57224 57228 57232 57236 57240 57244 57248 57252 57256 57260 57264 57268 57272 57276 57280 57284 57288 57292 57296 57300 57304 57308 57312 57316 57320 57324 57328 57332 57336 57340 57344 57348 57352 57356 57360 57364 57368 57372 57376 57380 57384 57388 57392 57396 57400 57404 57408 57412 57416 57420 57424 57428 57432 57436 57440 57444 57448 57452 57456 57460 57464 57468 57472 57476 57480 57484 57488 57492 57496 57500 57504 57508 57512 57516 57520 57524 57528 57532 57536 57540 57544 57548 57552 57556 57560 57564 57568 57572 57576 57580 57584 57588 57592 57596 57600 57604 57608 57612 57616 57620 57624 57628 57632 57636 57640 57644 57648 57652 57656 57660 57664 57668 57672 57676 57680 57684 57688 57692 57696 57700 57704 57708 57712 57716 57720 57724 57728 57732 57736 57740 57744 57748 57752 57756 57760 57764 57768 57772 57776 57780 57784 57788 57792 57796 57800 57804 57808 57812 57816 57820 57824 57828 57832 57836 57840 57844 57848 57852 57856 57860 57864 57868 57872 57876 57880 57884 57888 57892 57896 57900 57904 57908 57912 57916 57920 57924 57928 57932 57936 57940 57944 57948 57952 57956 57960 57964 57968 57972 57976 57980 57984 57988 57992 57996 58000 58004 58008 58012 58016 58020 58024 58028 58032 58036 58040 58044 58048 58052 58056 58060 58064 58068 58072 58076 58080 58084 58088 58092 58096 58100 58104 58108 58112 58116 58120 58124 58128 58132 58136 58140 58144 58148 58152 58156 58160 58164 58168 58172 58176 58180 58184 58188 58192 58196 58200 58204 58208 58212 58216 58220 58224 58228 58232 58236 58240 58244 58248 58252 58256 58260 58264 58268 58272 58276 58280 58284 58288 58292 58296 58300 58304 58308 58312 58316 58320 58324 58328 58332 58336 58340 58344 58348 58352 58356 58360 58364 58368 58372 58376 58380 58384 58388 58392 58396 58400 58404 58408 58412 58416 58420 58424 58428 58432 58436 58440 58444 58448 58452 58456 58460 58464 58468 58472 58476 58480 58484 58488 58492 58496 58500 58504 58508 58512 58516 58520 58524 58528 58532 58536 58540 58544 58548 58552 58556 58560 58564 58568 58572 58576 58580 58584 58588 58592 58596 58600 58604 58608 58612 58616 58620 58624 58628 58632 58636 58640 58644 58648 58652 58656 58660 58664 58668 58672 58676 58680 58684 58688 58692 58696 58700 58704 58708 58712 58716 58720 58724 58728 58732 58736 58740 58744 58748 58752 58756 58760 58764 58768 58772 58776 58780 58784 58788 58792 58796 58800 58804 58808 58812 58816 58820 58824 58828 58832 58836 58840 58844 58848 58852 58856 58860 58864 58868 58872 58876 58880 58884 58888 58892 58896 58900 58904 58908 58912 58916 58920 58924 58928 58932 58936 58940 58944 58948 58952 58956 58960 58964 58968 58972 58976 58980 58984 58988 58992 58996 59000 59004 59008 59012 59016 59020 59024 59028 59032 59036 59040 59044 59048 59052 59056 59060 59064 59068 59072 59076 59080 59084 59088 59092 59096 59100 59104 59108 59112 59116 59120 59124 59128 59132 59136 59140 59144 59148 59152 59156 59160 59164 59168 59172 59176 59180 59184 59188 59192 59196 59200 59204 59208 59212 59216 59220 59224 59228 59232 59236 59240 59244 59248 59252 59256 59260 59264 59268 59272 59276 59280 59284 59288 59292 59296 59300 59304 59308 59312 59316 59320 59324 59328 59332 59336 59340 59344 59348 59352 59356 59360 59364 59368 59372 59376 59380 59384 59388 59392 59396 59400 59404 59408 59412 59416 59420 59424 59428 59432 59436 59440 59444 59448 59452 59456 59460 59464 59468 59472 59476 59480 59484 59488 59492 59496 59500 59504 59508 59512 59516 59520 59524 59528 59532 59536 59540 59544 59548 59552 59556 59560 59564 59568 59572 59576 59580 59584 59588 59592 59596 59600 59604 59608 59612 59616 59620 59624 59628 59632 59636 59640 59644 59648 59652 59656 59660 59664 59668 59672 59676 59680 59684 59688 59692 59696 59700 59704 59708 59712 59716 59720 59724 59728 59732 59736 59740 59744 59748 59752 59756 59760 59764 59768 59772 59776 59780 59784 59788 59792 59796 59800 59804 59808 59812 59816 59820 59824 59828 59832 59836 59840 59844 59848 59852 59856 59860 59864 59868 59872 59876 59880 59884 59888 59892 59896 59900 59904 59908 59912 59916 59920 59924 59928 59932 59936 59940 59944 59948 59952 59956 59960 59964 59968 59972 59976 59980 59984 59988 59992 59996 60000 60004 60008 60012 60016 60020 60024 60028 60032 60036 60040 60044 60048 60052 60056 60060 60064 60068 60072 60076 60080 60084 60088 60092 60096 60100 60104 60108 60112 60116 60120 60124 60128 60132 60136 60140 60144 60148 60152 60156 60160 60164 60168 60172 60176 60180 60184 60188 60192 60196 60200 60204 60208 60212 60216 60220 60224 60228 60232 60236 60240 60244 60248 60252 60256 60260 60264 60268 60272 60276 60280 60284 60288 60292 60296 60300 60304 60308 60312 60316 60320 60324 60328 60332 60336 60340 60344 60348 60352 60356 60360 60364 60368 60372 60376 60380 60384 60388 60392 60396 60400 60404 60408 60412 60416 60420 60424 60428 60432 60436 60440 60444 60448 60452 60456 60460 60464 60468 60472 60476 60480 60484 60488 60492 60496 60500 60504 60508 60512 60516 60520 60524 60528 60532 60536 60540 60544 60548 60552 60556 60560 60564 60568 60572 60576 60580 60584 60588 60592 60596 60600 60604 60608 60612 60616 60620 60624 60628 60632 60636 60640 60644 60648 60652 60656 60660 60664 60668 60672 60676 60680 60684 60688 60692 60696 60700 60704 60708 60712 60716 60720 60724 60728 60732 60736 60740 60744 60748 60752 60756 60760 60764 60768 60772 60776 60780 60784 60788 60792 60796 60800 60804 60808 60812 60816 60820 60824 60828 60832 60836 60840 60844 60848 60852 60856 60860 60864 60868 60872 60876 60880 60884 60888 60892 60896 60900 60904 60908 60912 60916 60920 60924 60928 60932 60936 60940 60944 60948 60952 60956 60960 60964 60968 60972 60976 60980 60984 60988 60992 60996 61000 61004 61008 61012 61016 61020 61024 61028 61032 61036 61040 61044 61048 61052 61056 61060 61064 61068 61072 61076 61080 61084 61088 61092 61096 61100 61104 61108 61112 61116 61120 61124 61128 61132 61136 61140 61144 61148 61152 61156 61160 61164 61168 61172 61176 61180 61184 61188 61192 61196 61200 61204 61208 61212 61216 61220 61224 61228 61232 61236 61240 61244 61248 61252 61256 61260 61264 61268 61272 61276 61280 61284 61288 61292 61296 61300 61304 61308 61312 61316 61320 61324 61328 61332 61336 61340 61344 61348 61352 61356 61360 61364 61368 61372 61376 61380 61384 61388 61392 61396 61400 61404 61408 61412 61416 61420 61424 61428 61432 61436 61440 61444 61448 61452 61456 61460 61464 61468 61472 61476 61480 61484 61488 61492 61496 61500 61504 61508 61512 61516 61520 61524 61528 61532 61536 61540 61544 61548 61552 61556 61560 61564 61568 61572 61576 61580 61584 61588 61592 61596 61600 61604 61608 61612 61616 61620 61624 61628 61632 61636 61640 61644 61648 61652 61656 61660 61664 61668 61672 61676 61680 61684 61688 61692 61696 61700 61704 61708 61712 61716 61720 61724 61728 61732 61736 61740 61744 61748 61752 61756 61760 61764 61768 61772 61776 61780 61784 61788 61792 61796 61800 61804 61808 61812 61816 61820 61824 61828 61832 61836 61840 61844 61848 61852 61856 61860 61864 61868 61872 61876 61880 61884 61888 61892 61896 61900 61904 61908 61912 61916 61920 61924 61928 61932 61936 61940 61944 61948 61952 61956 61960 61964 61968 61972 61976 61980 61984 61988 61992 61996 62000 62004 62008 62012 62016 62020 62024 62028 62032 62036 62040 62044 62048 62052 62056 62060 62064 62068 62072 62076 62080 62084 62088 62092 62096 62100 62104 62108 62112 62116 62120 62124 62128 62132 62136 62140 62144 62148 62152 62156 62160 62164 62168 62172 62176 62180 62184 62188 62192 62196 62200 62204 62208 62212 62216 62220 62224 62228 62232 62236 62240 62244 62248 62252 62256 62260 62264 62268 62272 62276 62280 62284 62288 62292 62296 62300 62304 62308 62312 62316 62320 62324 62328 62332 62336 62340 62344 62348 62352 62356 62360 62364 62368 62372 62376 62380 62384 62388 62392 62396 62400 62404 62408 62412 62416 62420 62424 62428 62432 62436 62440 62444 62448 62452 62456 62460 62464 62468 62472 62476 62480 62484 62488 62492 62496 62500 62504 62508 62512 62516 62520 62524 62528 62532 62536 62540 62544 62548 62552 62556 62560 62564 62568 62572 62576 62580 62584 62588 62592 62596 62600 62604 62608 62612 62616 62620 62624 62628 62632 62636 62640 62644 62648 62652 62656 62660 62664 62668 62672 62676 62680 62684 62688 62692 62696 62700 62704 62708 62712 62716 62720 62724 62728 62732 62736 62740 62744 62748 62752 62756 62760 62764 62768 62772 62776 62780 62784 62788 62792 62796 62800 62804 62808 62812 62816 62820 62824 62828 62832 62836 62840 62844 62848 62852 62856 62860 62864 62868 62872 62876 62880 62884 62888 62892 62896 62900 62904 62908 62912 62916 62920 62924 62928 62932 62936 62940 62944 62948 62952 62956 62960 62964 62968 62972 62976 62980 62984 62988 62992 62996 63000 63004 63008 63012 63016 63020 63024 63028 63032 63036 63040 63044 63048 63052 63056 63060 63064 63068 63072 63076 63080 63084 63088 63092 63096 63100 63104 63108 63112 63116 63120 63124 63128 63132 63136 63140 63144 63148 63152 63156 63160 63164 63168 63172 63176 63180 63184 63188 63192 63196 63200 63204 63208 63212 63216 63220 63224 63228 63232 63236 63240 63244 63248 63252 63256 63260 63264 63268 63272 63276 63280 63284 63288 63292 63296 63300 63304 63308 63312 63316 63320 63324 63328 63332 63336 63340 63344 63348 63352 63356 63360 63364 63368 63372 63376 63380 63384 63388 63392 63396 63400 63404 63408 63412 63416 63420 63424 63428 63432 63436 63440 63444 63448 63452 63456 63460 63464 63468 63472 63476 63480 63484 63488 63492 63496 63500 63504 63508 63512 63516 63520 63524 63528 63532 63536 63540 63544 63548 63552 63556 63560 63564 63568 63572 63576 63580 63584 63588 63592 63596 63600 63604 63608 63612 63616 63620 63624 63628 63632 63636 63640 63644 63648 63652 63656 63660 63664 63668 63672 63676 63680 63684 63688 63692 63696 63700 63704 63708 63712 63716 63720 63724 63728 63732 63736 63740 63744 63748 63752 63756 63760 63764 63768 63772 63776 63780 63784 63788 63792 63796 63800 63804 63808 63812 63816 63820 63824 63828 63832 63836 63840 63844 63848 63852 63856 63860 63864 63868 63872 63876 63880 63884 63888 63892 63896 63900 63904 63908 63912 63916 63920 63924 63928 63932 63936 63940 63944 63948 63952 63956 63960 63964 63968 63972 63976 63980 63984 63988 63992 63996 64000 64004 64008 64012 64016 64020 64024 64028 64032 64036 64040 64044 64048 64052 64056 64060 64064 64068 64072 64076 64080 64084 64088 64092 64096 64100 64104 64108 64112 64116 64120 64124 64128 64132 64136 64140 64144 64148 64152 64156 64160 64164 64168 64172 64176 64180 64184 64188 64192 64196 64200 64204 64208 64212 64216 64220 64224 64228 64232 64236 64240 64244 64248 64252 64256 64260 64264 64268 64272 64276 64280 64284 64288 64292 64296 64300 64304 64308 64312 64316 64320 64324 64328 64332 64336 64340 64344 64348 64352 64356 64360 64364 64368 64372 64376 64380 64384 64388 64392 64396 64400 64404 64408 64412 64416 64420 64424 64428 64432 64436 64440 64444 64448 64452 64456 64460 64464 64468 64472 64476 64480 64484 64488 64492 64496 64500 64504 64508 64512 64516 64520 64524 64528 64532 64536 64540 64544 64548 64552 64556 64560 64564 64568 64572 64576 64580 64584 64588 64592 64596 64600 64604 64608 64612 64616 64620 64624 64628 64632 64636 64640 64644 64648 64652 64656 64660 64664 64668 64672 64676 64680 64684 64688 64692 64696 64700 64704 64708 64712 64716 64720 64724 64728 64732 64736 64740 64744 64748 64752 64756 64760 64764 64768 64772 64776 64780 64784 64788 64792 64796 64800 64804 64808 64812 64816 64820 64824 64828 64832 64836 64840 64844 64848 64852 64856 64860 64864 64868 64872 64876 64880 64884 64888 64892 64896 64900 64904 64908 64912 64916 64920 64924 64928 64932 64936 64940 64944 64948 64952 64956 64960 64964 64968 64972 64976 64980 64984 64988 64992 64996 65000 65004 65008 65012 65016 65020 65024 65028 65032 65036 65040 65044 65048 65052 65056 65060 65064 65068 65072 65076 65080 65084 65088 65092 65096 65100 65104 65108 65112 65116 65120 65124 65128 65132 65136 65140 65144 65148 65152 65156 65160 65164 65168 65172 65176 65180 65184 65188 65192 65196 65200 65204 65208 65212 65216 65220 65224 65228 65232 65236 65240 65244 65248 65252 65256 65260 65264 65268 65272 65276 65280 65284 65288 65292 65296 65300 65304 65308 65312 65316 65320 65324 65328 65332 65336 65340 65344 65348 65352 65356 65360 65364 65368 65372 65376 65380 65384 65388 65392 65396 65400 65404 65408 65412 65416 65420 65424 65428 65432 65436 65440 65444 65448 65452 65456 65460 65464 65468 65472 65476 65480 65484 65488 65492 65496 65500 65504 65508 65512 65516 65520 65524 65528 65532 65536 65540 65544 65548 65552 65556 65560 65564 65568 65572 65576 65580 65584 65588 65592 65596 65600 65604 65608 65612 65616 65620 65624 65628 65632 65636 65640 65644 65648 65652 65656 65660 65664 65668 65672 65676 65680 65684 65688 65692 65696 65700 65704 65708 65712 65716 65720 65724 65728 65732 65736 65740 65744 65748 65752 65756 65760 65764 65768 65772 65776 65780 65784 65788 65792 65796 65800 65804 65808 65812 65816 65820 65824 65828 65832 65836 65840 65844 65848 65852 65856 65860 65864 65868 65872 65876 65880 65884 65888 65892 65896 65900 65904 65908 65912 65916 65920 65924 65928 65932 65936 65940 65944 65948 65952 65956 65960 65964 65968 65972 65976 65980 65984 65988 65992 65996 66000 66004 66008 66012 66016 66020 66024 66028 66032 66036 66040 66044 66048 66052 66056 66060 66064 66068 66072 66076 66080 66084 66088 66092 66096 66100 66104 66108 66112 66116 66120 66124 66128 66132 66136 66140 66144 66148 66152 66156 66160 66164 66168 66172 66176 66180 66184 66188 66192 66196 66200 66204 66208 66212 66216 66220 66224 66228 66232 66236 66240 66244 66248 66252 66256 66260 66264 66268 66272 66276 66280 66284 66288 66292 66296 66300 66304 66308 66312 66316 66320 66324 66328 66332 66336 66340 66344 66348 66352 66356 66360 66364 66368 66372 66376 66380 66384 66388 66392 66396 66400 66404 66408 66412 66416 66420 66424 66428 66432 66436 66440 66444 66448 66452 66456 66460 66464 66468 66472 66476 66480 66484 66488 66492 66496 66500 66504 66508 66512 66516 66520 66524 66528 66532 66536 66540 66544 66548 66552 66556 66560 66564 66568 66572 66576 66580 66584 66588 66592 66596 66600 66604 66608 66612 66616 66620 66624 66628 66632 66636 66640 66644 66648 66652 66656 66660 66664 66668 66672 66676 66680 66684 66688 66692 66696 66700 66704 66708 66712 66716 66720 66724 66728 66732 66736 66740 66744 66748 66752 66756 66760 66764 66768 66772 66776 66780 66784 66788 66792 66796 66800 66804 66808 66812 66816 66820 66824 66828 66832 66836 66840 66844 66848 66852 66856 66860 66864 66868 66872 66876 66880 66884 66888 66892 66896 66900 66904 66908 66912 66916 66920 66924 66928 66932 66936 66940 66944 66948 66952 66956 66960 66964 66968 66972 66976 66980 66984 66988 66992 66996 67000 67004 67008 67012 67016 67020 67024 67028 67032 67036 67040 67044 67048 67052 67056 67060 67064 67068 67072 67076 67080 67084 67088 67092 67096 67100 67104 67108 67112 67116 67120 67124 67128 67132 67136 67140 67144 67148 67152 67156 67160 67164 67168 67172 67176 67180 67184 67188 67192 67196 67200 67204 67208 67212 67216 67220 67224 67228 67232 67236 67240 67244 67248 67252 67256 67260 67264 67268 67272 67276 67280 67284 67288 67292 67296 67300 67304 67308 67312 67316 67320 67324 67328 67332 67336 67340 67344 67348 67352 67356 67360 67364 67368 67372 67376 67380 67384 67388 67392 67396 67400 67404 67408 67412 67416 67420 67424 67428 67432 67436 67440 67444 67448 67452 67456 67460 67464 67468 67472 67476 67480 67484 67488 67492 67496 67500 67504 67508 67512 67516 67520 67524 67528 67532 67536 67540 67544 67548 67552 67556 67560 67564 67568 67572 67576 67580 67584 67588 67592 67596 67600 67604 67608 67612 67616 67620 67624 67628 67632 67636 67640 67644 67648 67652 67656 67660 67664 67668 67672 67676 67680 67684 67688 67692 67696 67700 67704 67708 67712 67716 67720 67724 67728 67732 67736 67740 67744 67748 67752 67756 67760 67764 67768 67772 67776 67780 67784 67788 67792 67796 67800 67804 67808 67812 67816 67820 67824 67828 67832 67836 67840 67844 67848 67852 67856 67860 67864 67868 67872 67876 67880 67884 67888 67892 67896 67900 67904 67908 67912 67916 67920 67924 67928 67932 67936 67940 67944 67948 67952 67956 67960 67964 67968 67972 67976 67980 67984 67988 67992 67996 68000 68004 68008 68012 68016 68020 68024 68028 68032 68036 68040 68044 68048 68052 68056 68060 68064 68068 68072 68076 68080 68084 68088 68092 68096 68100 68104 68108 68112 68116 68120 68124 68128 68132 68136 68140 68144 68148 68152 68156 68160 68164 68168 68172 68176 68180 68184 68188 68192 68196 68200 68204 68208 68212 68216 68220 68224 68228 68232 68236 68240 68244 68248 68252 68256 68260 68264 68268 68272 68276 68280 68284 68288 68292 68296 68300 68304 68308 68312 68316 68320 68324 68328 68332 68336 68340 68344 68348 68352 68356 68360 68364 68368 68372 68376 68380 68384 68388 68392 68396 68400 68404 68408 68412 68416 68420 68424 68428 68432 68436 68440 68444 68448 68452 68456 68460 68464 68468 68472 68476 68480 68484 68488 68492 68496 68500 68504 68508 68512 68516 68520 68524 68528 68532 68536 68540 68544 68548 68552 68556 68560 68564 68568 68572 68576 68580 68584 68588 68592 68596 68600 68604 68608 68612 68616 68620 68624 68628 68632 68636 68640 68644 68648 68652 68656 68660 68664 68668 68672 68676 68680 68684 68688 68692 68696 68700 68704 68708 68712 68716 68720 68724 68728 68732 68736 68740 68744 68748 68752 68756 68760 68764 68768 68772 68776 68780 68784 68788 68792 68796 68800 68804 68808 68812 68816 68820 68824 68828 68832 68836 68840 68844 68848 68852 68856 68860 68864 68868 68872 68876 68880 68884 68888 68892 68896 68900 68904 68908 68912 68916 68920 68924 68928 68932 68936 68940 68944 68948 68952 68956 68960 68964 68968 68972 68976 68980 68984 68988 68992 68996 69000 69004 69008 69012 69016 69020 69024 69028 69032 69036 69040 69044 69048 69052 69056 69060 69064 69068 69072 69076 69080 69084 69088 69092 69096 69100 69104 69108 69112 69116 69120 69124 69128 69132 69136 69140 69144 69148 69152 69156 69160 69164 69168 69172 69176 69180 69184 69188 69192 69196 69200 69204 69208 69212 69216 69220 69224 69228 69232 69236 69240 69244 69248 69252 69256 69260 69264 69268 69272 69276 69280 69284 69288 69292 69296 69300 69304 69308 69312 69316 69320 69324 69328 69332 69336 69340 69344 69348 69352 69356 69360 69364 69368 69372 69376 69380 69384 69388 69392 69396 69400 69404 69408 69412 69416 69420 69424 69428 69432 69436 69440 69444 69448 69452 69456 69460 69464 69468 69472 69476 69480 69484 69488 69492 69496 69500 69504 69508 69512 69516 69520 69524 69528 69532 69536 69540 69544 69548 69552 69556 69560 69564 69568 69572 69576 69580 69584 69588 69592 69596 69600 69604 69608 69612 69616 69620 69624 69628 69632 69636 69640 69644 69648 69652 69656 69660 69664 69668 69672 69676 69680 69684 69688 69692 69696 69700 69704 69708 69712 69716 69720 69724 69728 69732 69736 69740 69744 69748 69752 69756 69760 69764 69768 69772 69776 69780 69784 69788 69792 69796 69800 69804 69808 69812 69816 69820 69824 69828 69832 69836 69840 69844 69848 69852 69856 69860 69864 69868 69872 69876 69880 69884 69888 69892 69896 69900 69904 69908 69912 69916 69920 69924 69928 69932 69936 69940 69944 69948 69952 69956 69960 69964 69968 69972 69976 69980 69984 69988 69992 69996 70000 70004 70008 70012 70016 70020 70024 70028 70032 70036 70040 70044 70048 70052 70056 70060 70064 70068 70072 70076 70080 70084 70088 70092 70096 70100 70104 70108 70112 70116 70120 70124 70128 70132 70136 70140 70144 70148 70152 70156 70160 70164 70168 70172 70176 70180 70184 70188 70192 70196 70200 70204 70208 70212 70216 70220 70224 70228 70232 70236 70240 70244 70248 70252 70256 70260 70264 70268 70272 70276 70280 70284 70288 70292 70296 70300 70304 70308 70312 70316 70320 70324 70328 70332 70336 70340 70344 70348 70352 70356 70360 70364 70368 70372 70376 70380 70384 70388 70392 70396 70400 70404 70408 70412 70416 70420 70424 70428 70432 70436 70440 70444 70448 70452 70456 70460 70464 70468 70472 70476 70480 70484 70488 70492 70496 70500 70504 70508 70512 70516 70520 70524 70528 70532 70536 70540 70544 70548 70552 70556 70560 70564 70568 70572 70576 70580 70584 70588 70592 70596 70600 70604 70608 70612 70616 70620 70624 70628 70632 70636 70640 70644 70648 70652 70656 70660 70664 70668 70672 70676 70680 70684 70688 70692 70696 70700 70704 70708 70712 70716 70720 70724 70728 70732 70736 70740 70744 70748 70752 70756 70760 70764 70768 70772 70776 70780 70784 70788 70792 70796 70800 70804 70808 70812 70816 70820 70824 70828 70832 70836 70840 70844 70848 70852 70856 70860 70864 70868 70872 70876 70880 70884 70888 70892 70896 70900 70904 70908 70912 70916 70920 70924 70928 70932 70936 70940 70944 70948 70952 70956 70960 70964 70968 70972 70976 70980 70984 70988 70992 70996 71000 71004 71008 71012 71016 71020 71024 71028 71032 71036 71040 71044 71048 71052 71056 71060 71064 71068 71072 71076 71080 71084 71088 71092 71096 71100 71104 71108 71112 71116 71120 71124 71128 71132 71136 71140 71144 71148 71152 71156 71160 71164 71168 71172 71176 71180 71184 71188 71192 71196 71200 71204 71208 71212 71216 71220 71224 71228 71232 71236 71240 71244 71248 71252 71256 71260 71264 71268 71272 71276 71280 71284 71288 71292 71296 71300 71304 71308 71312 71316 71320 71324 71328 71332 71336 71340 71344 71348 71352 71356 71360 71364 71368 71372 71376 71380 71384 71388 71392 71396 71400 71404 71408 71412 71416 71420 71424 71428 71432 71436 71440 71444 71448 71452 71456 71460 71464 71468 71472 71476 71480 71484 71488 71492 71496 71500 71504 71508 71512 71516 71520 71524 71528 71532 71536 71540 71544 71548 71552 71556 71560 71564 71568 71572 71576 71580 71584 71588 71592 71596 71600 71604 71608 71612 71616 71620 71624 71628 71632 71636 71640 71644 71648 71652 71656 71660 71664 71668 71672 71676 71680 71684 71688 71692 71696 71700 71704 71708 71712 71716 71720 71724 71728 71732 71736 71740 71744 71748 71752 71756 71760 71764 71768 71772 71776 71780 71784 71788 71792 71796 71800 71804 71808 71812 71816 71820 71824 71828 71832 71836 71840 71844 71848 71852 71856 71860 71864 71868 71872 71876 71880 71884 71888 71892 71896 71900 71904 71908 71912 71916 71920 71924 71928 71932 71936 71940 71944 71948 71952 71956 71960 71964 71968 71972 71976 71980 71984 71988 71992 71996 72000 72004 72008 72012 72016 72020 72024 72028 72032 72036 72040 72044 72048 72052 72056 72060 72064 72068 72072 72076 72080 72084 72088 72092 72096 72100 72104 72108 72112 72116 72120 72124 72128 72132 72136 72140 72144 72148 72152 72156 72160 72164 72168 72172 72176 72180 72184 72188 72192 72196 72200 72204 72208 72212 72216 72220 72224 72228 72232 72236 72240 72244 72248 72252 72256 72260 72264 72268 72272 72276 72280 72284 72288 72292 72296 72300 72304 72308 72312 72316 72320 72324 72328 72332 72336 72340 72344 72348 72352 72356 72360 72364 72368 72372 72376 72380 72384 72388 72392 72396 72400 72404 72408 72412 72416 72420 72424 72428 72432 72436 72440 72444 72448 72452 72456 72460 72464 72468 72472 72476 72480 72484 72488 72492 72496 72500 72504 72508 72512 72516 72520 72524 72528 72532 72536 72540 72544 72548 72552 72556 72560 72564 72568 72572 72576 72580 72584 72588 72592 72596 72600 72604 72608 72612 72616 72620 72624 72628 72632 72636 72640 72644 72648 72652 72656 72660 72664 72668 72672 72676 72680 72684 72688 72692 72696 72700 72704 72708 72712 72716 72720 72724 72728 72732 72736 72740 72744 72748 72752 72756 72760 72764 72768 72772 72776 72780 72784 72788 72792 72796 72800 72804 72808 72812 72816 72820 72824 72828 72832 72836 72840 72844 72848 72852 72856 72860 72864 72868 72872 72876 72880 72884 72888 72892 72896 72900 72904 72908 72912 72916 72920 72924 72928 72932 72936 72940 72944 72948 72952 72956 72960 72964 72968 72972 72976 72980 72984 72988 72992 72996 73000 73004 73008 73012 73016 73020 73024 73028 73032 73036 73040 73044 73048 73052 73056 73060 73064 73068 73072 73076 73080 73084 73088 73092 73096 73100 73104 73108 73112 73116 73120 73124 73128 73132 73136 73140 73144 73148 73152 73156 73160 73164 73168 73172 73176 73180 73184 73188 73192 73196 73200 73204 73208 73212 73216 73220 73224 73228 73232 73236 73240 73244 73248 73252 73256 73260 73264 73268 73272 73276 73280 73284 73288 73292 73296 73300 73304 73308 73312 73316 73320 73324 73328 73332 73336 73340 73344 73348 73352 73356 73360 73364 73368 73372 73376 73380 73384 73388 73392 73396 73400 73404 73408 73412 73416 73420 73424 73428 73432 73436 73440 73444 73448 73452 73456 73460 73464 73468 73472 73476 73480 73484 73488 73492 73496 73500 73504 73508 73512 73516 73520 73524 73528 73532 73536 73540 73544 73548 73552 73556 73560 73564 73568 73572 73576 73580 73584 73588 73592 73596 73600 73604 73608 73612 73616 73620 73624 73628 73632 73636 73640 73644 73648 73652 73656 73660 73664 73668 73672 73676 73680 73684 73688 73692 73696 73700 73704 73708 73712 73716 73720 73724 73728 73732 73736 73740 73744 73748 73752 73756 73760 73764 73768 73772 73776 73780 73784 73788 73792 73796 73800 73804 73808 73812 73816 73820 73824 73828 73832 73836 73840 73844 73848 73852 73856 73860 73864 73868 73872 73876 73880 73884 73888 73892 73896 73900 73904 73908 73912 73916 73920 73924 73928 73932 73936 73940 73944 73948 73952 73956 73960 73964 73968 73972 73976 73980 73984 73988 73992 73996 74000 74004 74008 74012 74016 74020 74024 74028 74032 74036 74040 74044 74048 74052 74056 74060 74064 74068 74072 74076 74080 74084 74088 74092 74096 74100 74104 74108 74112 74116 74120 74124 74128 74132 74136 74140 74144 74148 74152 74156 74160 74164 74168 74172 74176 74180 74184 74188 74192 74196 74200 74204 74208 74212 74216 74220 74224 74228 74232 74236 74240 74244 74248 74252 74256 74260 74264 74268 74272 74276 74280 74284 74288 74292 74296 74300 74304 74308 74312 74316 74320 74324 74328 74332 74336 74340 74344 74348 74352 74356 74360 74364 74368 74372 74376 74380 74384 74388 74392 74396 74400 74404 74408 74412 74416 74420 74424 74428 74432 74436 74440 74444 74448 74452 74456 74460 74464 74468 74472 74476 74480 74484 74488 74492 74496 74500 74504 74508 74512 74516 74520 74524 74528 74532 74536 74540 74544 74548 74552 74556 74560 74564 74568 74572 74576 74580 74584 74588 74592 74596 74600 74604 74608 74612 74616 74620 74624 74628 74632 74636 74640 74644 74648 74652 74656 74660 74664 74668 74672 74676 74680 74684 74688 74692 74696 74700 74704 74708 74712 74716 74720 74724 74728 74732 74736 74740 74744 74748 74752 74756 74760 74764 74768 74772 74776 74780 74784 74788 74792 74796 74800 74804 74808 74812 74816 74820 74824 74828 74832 74836 74840 74844 74848 74852 74856 74860 74864 74868 74872 74876 74880 74884 74888 74892 74896 74900 74904 74908 74912 74916 74920 74924 74928 74932 74936 74940 74944 74948 74952 74956 74960 74964 74968 74972 74976 74980 74984 74988 74992 74996 75000 75004 75008 75012 75016 75020 75024 75028 75032 75036 75040 75044 75048 75052 75056 75060 75064 75068 75072 75076 75080 75084 75088 75092 75096 75100 75104 75108 75112 75116 75120 75124 75128 75132 75136 75140 75144 75148 75152 75156 75160 75164 75168 75172 75176 75180 75184 75188 75192 75196 75200 75204 75208 75212 75216 75220 75224 75228 75232 75236 75240 75244 75248 75252 75256 75260 75264 75268 75272 75276 75280 75284 75288 75292 75296 75300 75304 75308 75312 75316 75320 75324 75328 75332 75336 75340 75344 75348 75352 75356 75360 75364 75368 75372 75376 75380 75384 75388 75392 75396 75400 75404 75408 75412 75416 75420 75424 75428 75432 75436 75440 75444 75448 75452 75456 75460 75464 75468 75472 75476 75480 75484 75488 75492 75496 75500 75504 75508 75512 75516 75520 75524 75528 75532 75536 75540 75544 75548 75552 75556 75560 75564 75568 75572 75576 75580 75584 75588 75592 75596 75600 75604 75608 75612 75616 75620 75624 75628 75632 75636 75640 75644 75648 75652 75656 75660 75664 75668 75672 75676 75680 75684 75688 75692 75696 75700 75704 75708 75712 75716 75720 75724 75728 75732 75736 75740 75744 75748 75752 75756 75760 75764 75768 75772 75776 75780 75784 75788 75792 75796 75800 75804 75808 75812 75816 75820 75824 75828 75832 75836 75840 75844 75848 75852 75856 75860 75864 75868 75872 75876 75880 75884 75888 75892 75896 75900 75904 75908 75912 75916 75920 75924 75928 75932 75936 75940 75944 75948 75952 75956 75960 75964 75968 75972 75976 75980 75984 75988 75992 75996 76000 76004 76008 76012 76016 76020 76024 76028 76032 76036 76040 76044 76048 76052 76056 76060 76064 76068 76072 76076 76080 76084 76088 76092 76096 76100 76104 76108 76112 76116 76120 76124 76128 76132 76136 76140 76144 76148 76152 76156 76160 76164 76168 76172 76176 76180 76184 76188 76192 76196 76200 76204 76208 76212 76216 76220 76224 76228 76232 76236 76240 76244 76248 76252 76256 76260 76264 76268 76272 76276 76280 76284 76288 76292 76296 76300 76304 76308 76312 76316 76320 76324 76328 76332 76336 76340 76344 76348 76352 76356 76360 76364 76368 76372 76376 76380 76384 76388 76392 76396 76400 76404 76408 76412 76416 76420 76424 76428 76432 76436 76440 76444 76448 76452 76456 76460 76464 76468 76472 76476 76480 76484 76488 76492 76496 76500 76504 76508 76512 76516 76520 76524 76528 76532 76536 76540 76544 76548 76552 76556 76560 76564 76568 76572 76576 76580 76584 76588 76592 76596 76600 76604 76608 76612 76616 76620 76624 76628 76632 76636 76640 76644 76648 76652 76656 76660 76664 76668 76672 76676 76680 76684 76688 76692 76696 76700 76704 76708 76712 76716 76720 76724 76728 76732 76736 76740 76744 76748 76752 76756 76760 76764 76768 76772 76776 76780 76784 76788 76792 76796 76800 76804 76808 76812 76816 76820 76824 76828 76832 76836 76840 76844 76848 76852 76856 76860 76864 76868 76872 76876 76880 76884 76888 76892 76896 76900 76904 76908 76912 76916 76920 76924 76928 76932 76936 76940 76944 76948 76952 76956 76960 76964 76968 76972 76976 76980 76984 76988 76992 76996 77000 77004 77008 77012 77016 77020 77024 77028 77032 77036 77040 77044 77048 77052 77056 77060 77064 77068 77072 77076 77080 77084 77088 77092 77096 77100 77104 77108 77112 77116 77120 77124 77128 77132 77136 77140 77144 77148 77152 77156 77160 77164 77168 77172 77176 77180 77184 77188 77192 77196 77200 77204 77208 77212 77216 77220 77224 77228 77232 77236 77240 77244 77248 77252 77256 77260 77264 77268 77272 77276 77280 77284 77288 77292 77296 77300 77304 77308 77312 77316 77320 77324 77328 77332 77336 77340 77344 77348 77352 77356 77360 77364 77368 77372 77376 77380 77384 77388 77392 77396 77400 77404 77408 77412 77416 77420 77424 77428 77432 77436 77440 77444 77448 77452 77456 77460 77464 77468 77472 77476 77480 77484 77488 77492 77496 77500 77504 77508 77512 77516 77520 77524 77528 77532 77536 77540 77544 77548 77552 77556 77560 77564 77568 77572 77576 77580 77584 77588 77592 77596 77600 77604 77608 77612 77616 77620 77624 77628 77632 77636 77640 77644 77648 77652 77656 77660 77664 77668 77672 77676 77680 77684 77688 77692 77696 77700 77704 77708 77712 77716 77720 77724 77728 77732 77736 77740 77744 77748 77752 77756 77760 77764 77768 77772 77776 77780 77784 77788 77792 77796 77800 77804 77808 77812 77816 77820 77824 77828 77832 77836 77840 77844 77848 77852 77856 77860 77864 77868 77872 77876 77880 77884 77888 77892 77896 77900 77904 77908 77912 77916 77920 77924 77928 77932 77936 77940 77944 77948 77952 77956 77960 77964 77968 77972 77976 77980 77984 77988 77992 77996 78000 78004 78008 78012 78016 78020 78024 78028 78032 78036 78040 78044 78048 78052 78056 78060 78064 78068 78072 78076 78080 78084 78088 78092 78096 78100 78104 78108 78112 78116 78120 78124 78128 78132 78136 78140 78144 78148 78152 78156 78160 78164 78168 78172 78176 78180 78184 78188 78192 78196 78200 78204 78208 78212 78216 78220 78224 78228 78232 78236 78240 78244 78248 78252 78256 78260 78264 78268 78272 78276 78280 78284 78288 78292 78296 78300 78304 78308 78312 78316 78320 78324 78328 78332 78336 78340 78344 78348 78352 78356 78360 78364 78368 78372 78376 78380 78384 78388 78392 78396 78400 78404 78408 78412 78416 78420 78424 78428 78432 78436 78440 78444 78448 78452 78456 78460 78464 78468 78472 78476 78480 78484 78488 78492 78496 78500 78504 78508 78512 78516 78520 78524 78528 78532 78536 78540 78544 78548 78552 78556 78560 78564 78568 78572 78576 78580 78584 78588 78592 78596 78600 78604 78608 78612 78616 78620 78624 78628 78632 78636 78640 78644 78648 78652 78656 78660 78664 78668 78672 78676 78680 78684 78688 78692 78696 78700 78704 78708 78712 78716 78720 78724 78728 78732 78736 78740 78744 78748 78752 78756 78760 78764 78768 78772 78776 78780 78784 78788 78792 78796 78800 78804 78808 78812 78816 78820 78824 78828 78832 78836 78840 78844 78848 78852 78856 78860 78864 78868 78872 78876 78880 78884 78888 78892 78896 78900 78904 78908 78912 78916 78920 78924 78928 78932 78936 78940 78944 78948 78952 78956 78960 78964 78968 78972 78976 78980 78984 78988 78992 78996 79000 79004 79008 79012 79016 79020 79024 79028 79032 79036 79040 79044 79048 79052 79056 79060 79064 79068 79072 79076 79080 79084 79088 79092 79096 79100 79104 79108 79112 79116 79120 79124 79128 79132 79136 79140 79144 79148 79152 79156 79160 79164 79168 79172 79176 79180 79184 79188 79192 79196 79200 79204 79208 79212 79216 79220 79224 79228 79232 79236 79240 79244 79248 79252 79256 79260 79264 79268 79272 79276 79280 79284 79288 79292 79296 79300 79304 79308 79312 79316 79320 79324 79328 79332 79336 79340 79344 79348 79352 79356 79360 79364 79368 79372 79376 79380 79384 79388 79392 79396 79400 79404 79408 79412 79416 79420 79424 79428 79432 79436 79440 79444 79448 79452 79456 79460 79464 79468 79472 79476 79480 79484 79488 79492 79496 79500 79504 79508 79512 79516 79520 79524 79528 79532 79536 79540 79544 79548 79552 79556 79560 79564 79568 79572 79576 79580 79584 79588 79592 79596 79600 79604 79608 79612 79616 79620 79624 79628 79632 79636 79640 79644 79648 79652 79656 79660 79664 79668 79672 79676 79680 79684 79688 79692 79696 79700 79704 79708 79712 79716 79720 79724 79728 79732 79736 79740 79744 79748 79752 79756 79760 79764 79768 79772 79776 79780 79784 79788 79792 79796 79800 79804 79808 79812 79816 79820 79824 79828 79832 79836 79840 79844 79848 79852 79856 79860 79864 79868 79872 79876 79880 79884 79888 79892 79896 79900 79904 79908 79912 79916 79920 79924 79928 79932 79936 79940 79944 79948 79952 79956 79960 79964 79968 79972 79976 79980 79984 79988 79992 79996 80000 80004 80008 80012 80016 80020 80024 80028 80032 80036 80040 80044 80048 80052 80056 80060 80064 80068 80072 80076 80080 80084 80088 80092 80096 80100 80104 80108 80112 80116 80120 80124 80128 80132 80136 80140 80144 80148 80152 80156 80160 80164 80168 80172 80176 80180 80184 80188 80192 80196 80200 80204 80208 80212 80216 80220 80224 80228 80232 80236 80240 80244 80248 80252 80256 80260 80264 80268 80272 80276 80280 80284 80288 80292 80296 80300 80304 80308 80312 80316 80320 80324 80328 80332 80336 80340 80344 80348 80352 80356 80360 80364 80368 80372 80376 80380 80384 80388 80392 80396 80400 80404 80408 80412 80416 80420 80424 80428 80432 80436 80440 80444 80448 80452 80456 80460 80464 80468 80472 80476 80480 80484 80488 80492 80496 80500 80504 80508 80512 80516 80520 80524 80528 80532 80536 80540 80544 80548 80552 80556 80560 80564 80568 80572 80576 80580 80584 80588 80592 80596 80600 80604 80608 80612 80616 80620 80624 80628 80632 80636 80640 80644 80648 80652 80656 80660 80664 80668 80672 80676 80680 80684 80688 80692 80696 80700 80704 80708 80712 80716 80720 80724 80728 80732 80736 80740 80744 80748 80752 80756 80760 80764 80768 80772 80776 80780 80784 80788 80792 80796 80800 80804 80808 80812 80816 80820 80824 80828 80832 80836 80840 80844 80848 80852 80856 80860 80864 80868 80872 80876 80880 80884 80888 80892 80896 80900 80904 80908 80912 80916 80920 80924 80928 80932 80936 80940 80944 80948 80952 80956 80960 80964 80968 80972 80976 80980 80984 80988 80992 80996 81000 81004 81008 81012 
CONNECTIVITY vtktypeint64
2085 1921 1599 2229 
1497 1585 1691 2091 
2339 4254 2679 2987 
1603 3426 1813 5117 
1628 2383 1638 1516 
269 4999 3812 244 
1675 2514 2056 1058 
1531 1547 1556 3532 
2679 2987 4254 1688 
2689 160 2677 3216 
2122 2049 2199 1440 
2028 2866 2339 1505 
1750 2207 1968 1774 
4419 2188 2172 2646 
2172 1728 1838 1897 
2038 1651 2310 2940 
263 2138 2982 159 
1479 3090 2328 2043 
953 2056 2341 847 
3889 658 2423 559 
5139 3160 290 2737 
2623 2471 3396 2240 
2965 1685 2172 3392 
1737 1469 1623 1656 
2608 2665 2106 1476 
2171 4226 3635 3153 
2270 3202 2240 1833 
2381 2421 1532 3299 
2965 1836 2226 1334 
4687 2584 2931 2450 
5046 2359 3678 273 
1638 286 2501 2502 
2326 1329 1339 1306 
2409 3748 3148 3510 
3519 1031 1062 997 
2816 3610 4505 3184 
3666 3519 3066 4714 
4374 3898 4508 1971 
3120 1853 3655 4251 
2787 661 684 722 
1812 1779 1306 2601 
3665 2915 2710 3071 
391 1617 2502 119 
4258 4566 962 997 
1317 2021 3146 3038 
3737 475 421 4617 
4092 4110 3011 3304 
2054 3908 3317 2174 
4398 4017 3769 3095 
391 2502 1617 1794 
2466 3448 3361 4223 
3851 2291 2770 1399 
2502 75 1792 2501 
976 815 907 3595 
891 945 2415 3528 
716 5126 765 2190 
2455 1219 5068 3172 
4060 3745 4509 4174 
457 2620 3202 413 
3284 1299 5144 3366 
3819 4005 3015 2900 
3180 2769 2314 4617 
2397 3159 3982 2211 
3091 763 2119 2053 
1058 2056 847 1491 
3324 3210 4333 3779 
1360 1356 1378 3516 
493 476 3180 4086 
2352 1745 1520 2565 
4549 406 430 5120 
2845 2025 4376 833 
1377 2601 3102 4064 
3826 2769 3180 4644 
4597 3085 4085 4353 
1352 1324 1357 4290 
912 2562 884 4567 
3335 3875 4107 1005 
5082 4648 4790 4606 
2528 912 3931 916 
2719 491 298 328 
2174 3908 2452 3227 
4824 3471 3220 5153 
3271 981 5032 998 
881 833 880 4376 
5130 1937 1065 1140 
2594 3643 4142 4460 
498 3307 4287 410 
4365 2994 3261 3986 
313 3151 2737 319 
4758 2145 69 173 
4707 464 403 3748 
3419 3596 2440 1571 
3889 559 5067 658 
1590 2042 2216 1676 
588 3481 2890 525 
1213 1173 2488 3082 
3652 3057 1891 1964 
4572 3837 900 3770 
2936 1819 4896 155 
4393 3421 990 933 
4934 4807 3856 3622 
2149 2678 3088 3462 
2773 3760 1249 4064 
2335 1936 3788 4735 
2699 2463 3001 2221 
2785 4203 2864 2959 
2857 4405 4053 3239 
4467 1030 1015 986 
4852 1918 2230 1141 
4758 173 69 1532 
2853 4166 3865 2957 
2832 3906 4551 4653 
1853 2517 1765 2608 
2085 2055 2075 3581 
4102 425 494 387 
1038 1054 1098 3940 
2553 1381 4458 4647 
4758 173 1532 4802 
2445 1474 1439 1830 
1470 1586 2279 1727 
3268 2808 4166 3186 
4299 3587 3314 4444 
5062 4733 5060 5025 
443 372 4215 3131 
764 712 715 2320 
1474 1403 2445 1439 
4398 4129 4705 1353 
2288 4059 4690 4057 
2460 1646 1507 1580 
4800 369 365 3322 
4248 73 4063 65 
977 2816 1019 2829 
2077 1219 5134 3439 
4049 1957 562 2321 
3178 834 867 4236 
2530 2719 3231 319 
743 5155 4600 3637 
303 311 4913 4524 
4078 1230 1149 3391 
4018 2903 4351 337 
227 254 248 4795 
4051 3600 3469 4848 
2923 4919 4844 4847 
4180 1097 1151 1124 
483 4538 478 4485 
4304 4010 2712 503 
1360 3516 3819 1311 
1958 1605 1874 1545 
4733 4352 3620 3966 
4299 4408 4444 3881 
1239 3066 1259 1197 
2032 5132 2082 4969 
4187 4020 3996 4620 
972 4669 3352 4730 
1014 2669 1048 5133 
3719 5064 4548 3692 
2911 707 3605 654 
1511 5141 1627 1518 
4665 3674 2492 288 
5064 4894 2436 4548 
217 197 4876 4926 
3476 2296 2231 3662 
1946 5138 658 5067 
3074 638 3361 4223 
1154 4994 1164 3740 
3338 883 887 2819 
4591 4180 1062 3519 
1697 5104 3247 2984 
4493 3011 4097 3304 
4998 4484 1214 4638 
3683 1069 1158 3548 
4740 883 2750 2819 
4974 2351 1559 4812 
4450 2598 4160 4939 
3234 4166 2808 4217 
1234 1254 1203 3999 
1133 4310 1068 4235 
4498 4804 4416 4601 
198 171 166 4896 
3954 4814 3538 4362 
3247 4400 3797 5061 
689 4842 685 660 
4401 3735 707 763 
4286 3974 3884 4942 
2327 3728 3280 3190 
1104 4197 4851 1135 
4543 1660 1588 4656 
4081 2855 780 744 
4870 3654 2533 2436 
215 230 4799 5015 
5024 3854 2730 1602 
689 731 4555 4562 
218 3018 227 248 
3359 115 82 3297 
2230 965 2953 1026 
4389 2787 2449 2566 
4345 5122 3529 4930 
4962 4311 3772 4849 
4192 920 2960 895 
1631 286 2502 391 
4606 4648 2589 3730 
5124 2443 5175 4830 
3151 2719 319 328 
3761 3203 2351 4905 
2283 4493 3190 3965 
2967 2876 1991 4819 
291 1928 1620 1465 
4978 2983 1904 1780 
4543 2351 3410 4220 
1504 1554 291 1808 
1789 126 1469 14 
5205 2895 3802 2732 
5111 2873 349 2818 
3480 896 3399 752 
4695 340 3713 275 
4493 2515 4092 5193 
1156 4542 1083 4693 
4969 2082 4208 5011 
1786 1469 126 14 
4351 4501 1703 3044 
2137 416 3131 2677 
4436 3750 3190 3304 
671 2571 4757 1712 
1097 1031 3519 1082 
3017 4227 4390 3714 
4306 1146 1147 1253 
4180 3519 1097 1062 
3543 4522 1147 2834 
4150 4266 4831 3998 
3892 768 3068 798 
3334 1578 1846 1840 
3931 967 1501 929 
3270 783 832 4642 
2287 2806 4186 4261 
1738 1700 5194 4656 
175 163 165 4896 
173 4801 182 1761 
863 3927 890 895 
4312 5147 4186 3728 
492 4718 4196 509 
3142 2571 3754 3265 
3697 149 4676 132 
623 568 4081 3605 
287 3774 264 249 
1100 4015 1171 1499 
1197 1196 3066 1155 
516 2894 465 502 
4350 1421 1428 1422 
215 4455 190 238 
4490 60 5019 56 
1752 1497 71 1691 
2923 4847 1519 3966 
440 4289 362 446 
743 3344 5155 3637 
3066 1300 1327 1318 
4197 3886 4851 1176 
4772 4543 5052 2351 
1603 3426 2163 1813 
4548 3692 5024 3719 
2430 1497 71 1752 
4543 3171 5052 4325 
4102 4699 4204 387 
805 814 878 4986 
3714 4675 4849 3775 
909 907 813 2380 
3519 1082 1163 1151 
208 4997 4759 180 
215 4455 238 4799 
4412 281 1611 2859 
3362 596 4371 650 
3984 585 4934 630 
28 1790 119 1844 
1748 4345 3529 4710 
3349 2193 2548 2944 
4741 1844 28 119 
3909 279 288 3674 
3909 288 279 3236 
1179 4890 4283 1225 
5052 4325 4583 5055 
3134 1133 4235 1226 
3777 47 55 3297 
4167 289 254 4795 
4874 1176 1131 4197 
3752 5142 1430 1436 
1318 3066 1300 1283 
1029 971 1038 3940 
4080 1232 2488 4658 
1352 1324 3666 1337 
1209 1265 3340 1177 
575 1488 578 602 
574 3984 512 3716 
2566 491 531 571 
1265 4889 1281 3340 
2229 1815 1958 1988 
3723 651 4008 606 
3774 3744 4167 4926 
1469 1560 1737 1605 
3999 1129 4373 4981 
4824 4879 4676 4244 
342 3648 3117 2909 
890 4192 895 925 
494 501 517 1488 
129 148 125 137 
1183 4180 1169 1124 
4150 4161 1344 4310 
2669 920 2960 4192 
1715 1760 1553 1568 
4081 744 733 677 
3605 748 681 682 
399 363 4795 379 
4983 4936 5209 4323 
1385 2727 1369 1386 
1467 1465 291 1620 
4748 4676 4824 4525 
4544 4491 4382 3552 
1372 3641 1338 1379 
3641 1372 1338 3839 
3999 1042 1096 4981 
4774 3209 4085 4353 
1103 4373 1069 1158 
130 133 147 127 
926 4393 3980 942 
5116 3562 4582 4946 
4757 671 683 692 
3739 1677 2299 2448 
2903 2946 4316 4501 
4546 1182 1112 1156 
970 3352 4467 972 
1033 970 985 3352 
4562 4555 3504 731 
5036 1641 3088 5037 
3173 783 785 829 
986 1027 3352 1030 
3271 1122 3336 4890 
313 325 290 4389 
1234 1272 3999 1198 
212 4953 4896 241 
1100 5023 4015 1053 
2551 2492 302 338 
2745 1575 643 2931 
2745 3377 643 2654 
5117 3426 1813 322 
1041 3271 4283 1122 
3999 1198 1272 3683 
2727 1327 1361 1369 
592 2712 626 3703 
1543 5117 1813 322 
2132 1603 1889 2163 
461 4081 502 3105 
3842 3671 810 3637 
3819 1033 3352 4467 
5140 1889 1763 1603 
2163 5140 1889 1277 
4180 1319 3819 1284 
452 4801 1473 1551 
1570 151 1545 301 
1379 4005 1395 3641 
3352 4467 4587 3819 
1534 1546 2157 1507 
1313 1342 3753 1319 
1507 1546 2157 1533 
3421 933 3837 983 
762 843 827 4914 
1500 1411 3641 1405 
2156 450 4686 2401 
3402 18 1589 1548 
1630 1589 3402 18 
859 935 3480 896 
1579 3402 18 1630 
1449 1573 2567 1609 
1468 450 1812 1655 
2471 3202 3487 3396 
1446 450 2525 1495 
1575 1830 1496 4687 
5029 1392 3374 1399 
1496 1575 4687 5044 
643 2414 1538 5044 
1496 1575 1571 1830 
1451 1534 352 1455 
974 967 929 1501 
847 1491 620 848 
1543 1520 2381 2471 
747 0 351 1783 
747 1564 1881 4 
1646 1750 1968 1992 
1992 1530 329 1546 
897 757 3957 811 
2567 1573 2624 1609 
2422 2426 3299 2817 
3299 2421 3211 2600 
450 2774 1812 1655 
1455 1459 1534 1541 
2099 1430 2184 2226 
1541 1459 1534 1546 
1455 1459 1803 1534 
1534 1459 1803 1546 
43 65 4822 68 
117 936 1789 26 
117 1791 1789 936 
1538 5018 3559 3377 
5044 2931 1538 643 
4403 480 474 509 
1543 1539 322 1813 
1543 84 322 1539 
188 3774 185 192 
1098 3940 1087 1064 
128 137 147 130 
1668 1606 1426 1967 
1828 1606 1668 1967 
35 30 36 37 
2229 1988 1958 1729 
301 1545 117 936 
936 117 1791 1545 
829 837 785 3173 
182 1582 173 3431 
2575 1582 173 182 
1533 1458 1546 2157 
2562 841 884 2816 
168 3534 183 4307 
4587 3819 1033 1044 
3055 2704 1446 2525 
1029 1038 1064 3940 
1608 1674 270 1186 
3999 1129 1142 1203 
1535 772 1570 2474 
151 1545 1531 1570 
986 3352 972 4467 
4538 4628 478 519 
931 933 3837 900 
2940 1511 1494 1582 
1494 1582 1511 1622 
4635 822 4517 742 
2954 3985 3164 3974 
1495 1446 2704 2525 
2135 3169 2071 2800 
1729 1737 1605 2086 
1468 1655 1812 2168 
2013 2499 1468 1730 
972 970 3352 4669 
165 175 4896 205 
4288 4256 744 776 
2601 1495 4064 2400 
3532 1547 1497 2041 
4981 3999 1129 1096 
1036 985 3398 3352 
303 4524 3659 334 
329 1503 1530 1620 
1532 1520 4802 1582 
2565 2319 2736 1622 
173 1582 4802 3431 
1511 182 3431 1582 
1477 2186 1590 2019 
1477 5075 1630 18 
1477 1630 1579 18 
2270 1662 5075 1477 
2270 1590 1662 1477 
2414 643 1496 5044 
4397 541 576 4086 
502 568 4081 527 
2485 1518 1696 1763 
1566 1746 1553 1502 
4255 1050 4546 1112 
2861 2331 1666 5045 
1497 1585 1537 71 
394 3322 365 331 
71 1585 1537 1814 
1814 1537 71 1973 
2745 3377 5018 2931 
5018 3377 2654 3590 
2341 2056 1897 1491 
5053 2254 1679 2114 
1762 2471 2381 2255 
3299 2255 2422 2381 
847 848 1058 1491 
58 1612 11 1586 
1551 4801 1473 182 
412 4341 3064 3024 
270 1576 1650 286 
270 1796 2472 1650 
286 2472 1650 270 
2781 1649 2290 2063 
1646 329 170 1541 
2075 1737 2086 2265 
2075 1729 2086 1737 
1646 2269 1968 1750 
1646 2269 2748 170 
1497 1585 1547 1537 
1537 1547 1497 3532 
1637 1424 1799 1443 
3886 3558 1174 1049 
1218 1293 1261 1267 
1116 1294 1216 1065 
2117 3532 1497 2041 
1535 1643 1185 1547 
1795 1185 1547 1535 
747 351 1564 1783 
844 961 2009 945 
1678 351 1564 747 
1564 1548 351 3402 
1678 351 3402 1564 
891 945 844 2009 
3299 3211 2426 3345 
1716 2179 1619 1756 
1178 1220 3644 1685 
1190 1238 1195 3313 
4681 1291 1276 1317 
2965 1246 1078 1685 
3543 2658 2865 1818 
2658 3419 2445 1955 
1057 953 2056 2341 
1532 1582 4802 173 
1494 2319 1582 1622 
2620 2186 1590 1477 
1483 1630 1579 1477 
1762 1662 5075 2270 
1762 1590 1662 2270 
389 2474 1570 772 
1545 2474 1570 389 
1058 2056 953 847 
4405 529 438 468 
1441 643 2941 1571 
1441 1571 3596 1439 
3596 2445 1439 1571 
5188 2931 1575 2745 
944 905 977 2210 
2717 1491 2056 2514 
1495 1446 1574 2704 
173 1582 2575 1532 
793 2731 710 4384 
1814 1423 1797 1973 
1814 1797 1423 1799 
1571 2445 1439 1830 
2627 2963 1577 1587 
1454 3493 1450 1803 
1801 3493 1534 1803 
1803 3493 1450 1801 
2157 1803 3493 1454 
3600 4623 3628 4994 
1534 2157 1803 3493 
1627 1474 1558 2604 
5188 2866 1575 2931 
1612 1786 11 1586 
1368 1322 2906 3981 
4389 314 325 290 
1958 1988 1605 1729 
1575 5113 1830 4687 
1575 1830 1887 1571 
1740 2445 1071 3212 
1887 1830 2445 1571 
1887 1830 1575 5113 
747 0 1783 4 
747 1783 1564 4 
1783 1548 1564 4 
2887 3344 2562 912 
1619 1720 1717 2179 
1091 1025 5050 4306 
722 3858 2494 661 
4752 4873 4393 926 
2157 1458 1803 1454 
1546 1646 1541 329 
2887 904 912 884 
2736 1603 1763 2063 
1745 2736 2063 1603 
1750 1508 1621 1774 
1750 1774 1621 1760 
1718 1508 1621 1750 
1718 1621 1702 1750 
1142 1129 3999 1096 
2887 922 918 904 
1504 1808 1466 1554 
1552 1504 1807 1466 
1552 1466 1554 1504 
4361 3421 1150 1258 
2377 913 4684 894 
2724 2372 1577 1587 
4279 875 803 3270 
1589 12 1514 1881 
2190 5126 765 840 
3224 1430 2226 1417 
1080 2377 1020 1013 
2887 904 884 839 
759 751 3504 740 
3931 2528 3408 4567 
1530 1554 291 1504 
1467 1504 1530 291 
1546 1463 1645 1459 
936 1623 1789 26 
936 1605 1789 1623 
1789 1623 1469 15 
1469 1623 1789 1605 
15 1623 26 1789 
4046 2313 5119 5022 
2471 3487 3202 1769 
1682 2131 1813 2370 
1130 4874 4197 1176 
1130 4197 1111 4909 
1762 2471 2240 2270 
884 977 912 4567 
463 445 419 3716 
4407 967 1011 1654 
3623 4085 4044 2687 
1624 1888 1557 1615 
1624 1557 747 1615 
3245 969 892 1880 
1503 1467 1530 1620 
1638 1811 355 75 
1546 1645 1541 1459 
4306 1091 1147 1146 
1302 4048 1275 4636 
1615 1888 1557 2 
1615 1557 0 2 
868 4194 865 874 
3211 1866 2575 2577 
352 2061 1541 2460 
2208 1490 3012 2764 
351 1548 1564 1783 
1562 1973 1556 1184 
1562 1556 771 1184 
1041 1063 4283 1024 
3548 1275 4048 5106 
1657 2755 1775 2441 
534 500 540 3984 
3804 766 741 4240 
830 4447 4217 4131 
592 3716 625 574 
900 931 2960 3837 
2509 957 940 865 
3555 3404 4182 3036 
513 691 720 4240 
384 2720 4549 406 
1589 1513 1514 1663 
1515 1663 1513 2453 
1942 2479 1628 2084 
2810 1070 1110 4622 
5068 1542 2455 3172 
2110 2432 2015 2659 
25 1789 1469 14 
2326 1306 3336 3823 
3324 4333 3210 3437 
691 4240 741 720 
1466 1554 1808 1464 
1647 1608 1516 270 
3549 3787 3826 3396 
1669 1825 27 75 
1669 1514 1472 27 
75 27 1669 1472 
1518 1505 1696 5112 
1638 2501 75 2502 
2623 3396 3549 2314 
1546 329 1541 1645 
4209 3823 1922 1329 
1562 1555 1874 388 
1562 771 1555 388 
1534 1546 1803 2157 
1324 4290 3683 3548 
1653 1492 1754 1757 
4283 4266 1052 1092 
3009 1326 3177 1380 
1996 1603 1813 5117 
1622 2736 2565 1603 
1530 291 1508 1764 
2999 3128 3425 4646 
1063 1117 4283 1092 
1516 1674 270 1608 
1845 1724 2063 1649 
3009 3490 1326 1380 
1315 1326 4283 1309 
4211 865 940 957 
1640 1603 2163 1813 
1996 1603 1640 1813 
1682 1996 1640 1813 
1813 2163 1640 2370 
5072 1022 4981 4373 
3856 4800 436 430 
4376 880 917 908 
1157 1093 1106 4180 
3404 5032 3555 4182 
3998 4310 4161 4150 
1415 1419 4646 1393 
1947 936 1605 1545 
3128 2776 2640 2999 
1671 1600 2289 2089 
3371 4458 3174 1328 
2353 1551 3141 1600 
3465 4546 4693 4578 
3148 2409 3205 3748 
3270 835 876 823 
1897 3129 2099 2226 
1324 3683 1296 3548 
3140 3999 4981 1042 
4376 880 908 3178 
3148 2409 3846 3205 
903 4393 3837 3461 
823 802 3270 760 
880 908 3178 876 
1562 1555 1485 1874 
1958 1874 1485 1555 
1562 1874 1485 1893 
1958 1893 1485 1874 
3178 908 915 4163 
3178 3992 4163 915 
3402 1513 1663 2453 
1663 1589 1513 3402 
1158 1129 1103 4373 
2430 1562 1485 1661 
1662 18 5075 1477 
1662 1590 2019 1477 
1834 5075 1662 18 
1834 1662 5069 2000 
1243 3465 4578 4546 
5069 1662 1590 2000 
1612 1656 1786 1586 
1586 1469 1656 1786 
58 1656 1612 1586 
1737 1469 1656 1727 
1667 1727 1737 1656 
3336 1306 1339 2837 
4542 1156 1199 4578 
1339 3336 2837 1377 
5018 2931 1999 3934 
1795 1535 1547 1531 
1657 1568 1550 2489 
1535 1531 1795 2474 
1657 1568 2395 1550 
3935 4174 4509 1414 
2489 5208 2412 1657 
1556 1795 1547 1531 
1795 1531 1556 2474 
2584 3406 2450 5156 
1583 259 3 351 
1 1781 351 3 
1684 1507 1533 1718 
1583 3 1 351 
351 1549 259 3 
3641 1405 1411 4920 
3494 1507 1533 1684 
1275 4048 1199 4427 
351 1781 1549 3 
2786 1438 1441 3046 
1425 1798 1606 1800 
1425 1798 2066 1606 
1425 1606 2066 1608 
942 4393 990 4769 
1230 1295 3391 4078 
1787 12 1589 8 
1787 1785 8 1589 
1589 8 1548 1785 
1589 12 1881 8 
1500 4174 3847 1410 
1589 8 1881 1548 
1685 1220 3864 2735 
1078 1178 3644 1685 
1500 1410 1396 4174 
1500 1410 1405 1404 
3641 4920 1411 1408 
1622 1518 2485 1763 
1486 1696 5020 1763 
1500 1410 1404 1396 
1543 1539 5075 84 
3999 1129 1203 1198 
1272 3999 1296 1279 
1192 3819 1222 1181 
1234 3999 1272 1279 
1234 1203 1198 3999 
4373 1022 1103 1069 
930 3980 4626 941 
4451 3352 986 1027 
1180 1266 1192 3819 
1500 4174 1406 3847 
4174 2968 3745 1414 
1500 1405 1410 1411 
4355 4017 1347 4398 
1396 1410 2968 4174 
1165 1180 3819 1095 
4180 1183 1181 1157 
1157 1165 4180 1106 
1106 1076 4180 1093 
3095 4078 3193 4398 
900 906 2960 931 
1001 4626 3980 941 
944 2210 1019 1013 
4556 985 970 3352 
3352 3398 4556 985 
1836 1334 2965 1246 
2511 3123 1979 2841 
880 824 835 3178 
880 3178 835 876 
886 876 3178 908 
1614 2241 1979 2841 
893 3178 915 3992 
2387 1812 1655 2168 
3178 4376 867 893 
3178 3132 4376 880 
4389 321 408 314 
1198 4373 3999 1129 
3494 1534 1585 3493 
3494 71 3493 1585 
4664 1027 1096 3352 
1103 1129 4981 4373 
3999 3015 1297 1254 
784 2009 891 844 
945 961 1078 1138 
1279 3999 1296 1297 
1129 1198 4373 1158 
1198 4373 1158 3683 
4254 2590 2679 3267 
3683 4373 1158 1069 
1240 3548 1158 5106 
1690 1476 1755 1758 
1279 3999 1254 1234 
1215 1163 1151 3519 
3066 1155 5023 4015 
1027 1030 1096 3352 
4015 1100 1155 5023 
1100 3464 1073 1499 
2387 1812 2774 1655 
286 1773 270 1638 
1327 1298 4015 2938 
1792 1790 75 1844 
2502 1844 1792 75 
75 2502 1844 4741 
1498 2057 1568 1775 
1621 1508 1573 1774 
1269 4015 1259 1300 
1621 1508 1718 1716 
1651 1511 1809 1627 
5141 1511 1627 1809 
5141 1627 1558 1809 
1558 1627 316 1809 
1651 316 1627 1809 
3548 1302 1272 1296 
1498 3309 1975 2504 
3548 3683 1296 1272 
1327 2938 1340 1298 
2100 1171 1229 1499 
3532 1497 2430 1485 
2938 1340 1362 1361 
4015 3066 1327 2938 
1385 2727 1386 1387 
2460 1580 170 1646 
1552 1554 1530 1504 
3124 2938 1340 1362 
1499 1340 2938 1298 
1499 1007 1073 4015 
1171 1499 2100 2215 
1016 1053 1007 4015 
3232 5023 3066 1196 
942 926 4393 4873 
4795 4455 4799 2959 
3464 1100 1171 1499 
4134 1132 3515 1224 
1229 1499 4015 1269 
3819 1076 1044 4180 
1053 4015 1100 1073 
4015 3066 1259 1300 
1008 5023 1016 4258 
1197 1155 3066 4015 
1269 1298 4015 1300 
4015 1298 1327 1300 
272 255 3924 235 
1327 1300 3066 4015 
1053 4015 1073 1007 
286 1576 774 1631 
1197 4015 1229 1171 
1155 1171 1100 4015 
286 774 391 1631 
3819 1036 1076 1106 
1587 2372 1577 1544 
1928 1544 1577 1461 
1100 1499 1073 4015 
1349 1365 1369 3066 
1197 1155 4015 1171 
2134 2100 1229 1499 
4015 1259 3066 1197 
1259 3066 1239 1283 
2134 1499 1269 1298 
2134 1229 1269 1499 
3352 4664 3015 1096 
1124 4180 1097 1062 
1278 1318 1283 4714 
1033 1036 1076 3819 
970 4467 3352 1033 
1079 4221 3980 1001 
3245 1880 892 739 
1690 1988 1560 1893 
370 4452 371 434 
1157 1124 4180 1183 
4180 1076 1106 3819 
1106 1036 1095 3819 
1222 3819 1192 1266 
1157 1093 4180 1124 
1227 1211 1183 4180 
1211 1169 1183 4180 
1165 3819 4180 1106 
4180 1252 1227 1211 
4180 3819 1319 3753 
1284 1266 3819 1222 
1311 1266 3819 1284 
1062 1124 4180 1093 
4713 1268 1211 1215 
4180 1169 1124 1151 
4713 1215 1211 1151 
1311 3819 1360 1319 
1151 1211 4180 1169 
286 2501 1773 1638 
1811 75 2501 1825 
1311 3819 1319 1284 
1609 1578 2394 2268 
2394 2268 1665 1609 
4715 1500 1408 3641 
1301 1319 1313 4713 
4715 1408 1378 3641 
1222 1181 4180 1227 
613 1488 657 600 
3426 1603 1670 5117 
1379 1405 1404 3641 
4005 1346 1379 4902 
4785 4005 1378 3516 
1098 4810 3536 1148 
2939 1870 3169 2800 
2939 452 1551 4801 
58 1586 1667 1656 
1233 3232 3066 1196 
2265 2368 1667 2086 
2368 1656 1667 2086 
1187 1668 1426 1967 
1576 1668 1187 1967 
1576 1650 1187 1668 
1668 1187 1426 1798 
1668 1187 1798 1796 
1650 1796 1187 1668 
355 1630 1663 1482 
1515 355 1663 1482 
0 1781 351 105 
351 0 105 1783 
351 1557 1781 0 
1010 993 935 5093 
678 811 3957 757 
4909 4197 1152 1130 
3993 2801 2392 5093 
1502 2241 2841 1979 
1587 1577 2627 1544 
1928 1544 2627 1577 
976 3595 907 2007 
3536 3553 5093 3940 
1678 1564 1672 747 
1678 1564 3402 1672 
678 757 3957 657 
1678 3402 1604 1672 
4817 1176 4197 4851 
3631 3908 2174 3227 
2276 1416 1242 1210 
3399 825 4986 805 
1905 4044 2687 3623 
948 3528 1078 1686 
1141 1028 1009 4852 
1212 1188 3531 1231 
3937 3408 4904 4321 
4398 1406 1500 4174 
5050 1091 4306 1146 
88 1480 2114 64 
1248 2924 1241 1264 
4668 4998 1235 1245 
2345 1497 1975 2091 
1218 1228 2099 1293 
4866 4998 1235 4668 
1612 15 11 1786 
1612 1656 15 1786 
1786 1469 1656 15 
2488 4435 2779 4834 
4998 1236 1245 4668 
1238 1257 4080 1262 
1238 1262 4080 2779 
1228 2099 1293 1359 
2415 2248 939 948 
3937 1152 3513 4417 
1131 4197 1176 3886 
3513 4417 3961 3937 
4851 4817 4977 4197 
3937 4321 4904 1130 
4188 3886 1131 1176 
1080 1013 1143 2210 
4681 1317 4156 1291 
4681 4156 1317 4571 
1332 1323 1317 1276 
1220 1246 1685 1178 
3335 899 3875 1005 
2529 2254 5053 2114 
1195 3313 1153 1190 
1246 2735 1685 2965 
1220 1685 1246 2735 
1897 2056 2026 2717 
3307 321 364 4389 
1032 3610 969 3184 
977 2210 1019 944 
969 3184 3087 3558 
4932 4824 236 4372 
1637 360 352 1585 
701 4269 4169 3950 
4107 4638 1114 3875 
1228 1359 1293 1238 
1218 1293 1238 1228 
1810 3056 1945 102 
1810 1945 1765 3058 
1945 2139 1766 1765 
2065 259 1766 1945 
1810 1945 1766 1765 
1166 2087 1138 1711 
2983 1957 4049 3710 
2087 961 2176 1138 
2611 3354 3358 1487 
5038 5039 938 3946 
3864 1299 1220 3544 
5035 1060 2579 1937 
4190 1370 1237 1350 
1098 4810 5093 3536 
1218 1267 1629 1293 
4354 1255 3531 1231 
1992 1530 1552 1508 
1581 1552 1508 1992 
812 909 2380 3397 
1718 1992 1508 1750 
2743 2042 1590 1676 
2197 1711 1220 1178 
1828 1606 270 1668 
1220 2197 1178 3644 
1828 1606 1967 1592 
4986 825 878 805 
843 871 4914 3623 
1088 1010 1087 5093 
814 871 902 4986 
285 4028 147 4014 
871 827 3399 814 
3940 971 1054 954 
1087 3940 1098 5093 
1089 1125 5093 1088 
814 871 4986 3399 
2276 1242 1416 1401 
878 814 902 4986 
1140 2124 1242 1167 
2953 5040 934 965 
3533 2601 4064 2400 
3284 3366 5144 1402 
240 3743 4034 4104 
4750 3432 4802 1520 
1116 1065 4605 1294 
1216 2124 1140 1937 
1216 2124 1242 1140 
1216 1937 1140 1065 
937 973 1116 4605 
937 1065 4605 1116 
4307 225 183 234 
1089 1010 1088 5093 
1624 351 1678 747 
1624 747 1678 1672 
1624 1678 1604 1672 
1624 1471 1604 1678 
878 4986 919 825 
1678 351 1624 1471 
678 2969 3957 811 
3480 968 935 1010 
1834 2556 5069 1662 
5069 2556 1590 1662 
1834 5075 1762 1662 
1088 1125 1115 1160 
2987 4254 2312 2339 
355 1753 2383 1673 
355 1482 1753 1673 
1089 5093 993 1010 
4354 4612 3531 1255 
678 657 3957 3481 
1115 4810 1125 5093 
1115 1125 1088 5093 
1212 3531 1188 4500 
909 2007 907 2380 
3993 1113 2801 1125 
1212 3531 4500 1237 
1188 3531 1231 4354 
1844 1790 75 1472 
4102 387 358 396 
750 805 730 3399 
2721 501 3922 340 
1992 1552 1530 1546 
813 909 2380 812 
772 1535 1185 1795 
588 657 3481 600 
588 678 3481 657 
2474 1556 1795 771 
2364 3962 2411 1776 
4102 387 396 425 
1687 3323 2943 1892 
3494 1507 2157 1533 
402 234 236 225 
168 183 234 4307 
29 1680 1583 1597 
2065 259 1583 1680 
29 3402 1680 1597 
1680 259 1766 2065 
29 1471 1680 3402 
4933 629 787 786 
4422 666 730 652 
1286 1975 1343 2433 
130 137 147 133 
95 114 98 96 
2084 1942 1952 1631 
1631 1638 1942 2322 
1681 1575 1887 1571 
1627 1681 2445 1740 
1740 1681 2445 3212 
1627 1887 2445 1681 
1543 2131 1813 1682 
1543 1996 1682 1813 
148 280 240 4034 
4031 143 203 3773 
3487 1745 1724 1682 
1543 1769 1682 2471 
1543 1996 2471 1682 
652 3399 730 4422 
1530 1467 291 1620 
2009 4096 4597 4044 
543 1488 2596 578 
1286 2345 1975 2433 
750 805 3399 814 
291 1544 1928 1465 
1554 1544 291 1808 
1465 1544 1928 1461 
301 117 1545 389 
1570 301 1545 389 
1791 1793 1545 389 
117 389 1791 1545 
1555 771 1556 2474 
1555 2474 1793 771 
1546 1807 1463 1805 
1546 1463 1459 1805 
1680 351 1583 1597 
1552 1530 1807 1504 
1680 259 1583 351 
1680 3402 351 1597 
351 259 1766 1680 
1680 1471 351 3402 
1547 1424 1185 1797 
1471 351 1766 1680 
578 543 501 515 
1548 18 2127 1597 
1548 9 1785 5 
1606 1668 1426 1798 
105 1781 351 1 
3 7 1784 1549 
3278 3194 3073 4774 
494 2721 387 340 
1774 1446 3055 1968 
575 501 1488 517 
494 517 551 1488 
1774 1508 1764 1968 
494 470 4102 532 
4102 387 354 358 
4896 175 212 205 
1533 1552 1992 1546 
1874 1555 1958 1545 
1893 1605 1874 1958 
1557 1888 1470 1549 
1766 1470 1549 1557 
551 613 532 1488 
1881 4 1564 1548 
438 4286 4405 468 
2098 2468 2817 4758 
4334 4770 5111 2818 
392 4377 426 4278 
2542 396 4102 358 
2183 5088 134 4823 
149 4598 191 4676 
4271 79 4947 97 
1638 1516 1811 1773 
2700 2354 4732 4271 
4932 4372 236 225 
4244 4824 3471 4676 
4732 3294 136 152 
2501 1825 390 1773 
2501 1825 118 390 
97 79 112 4271 
37 33 30 36 
129 137 124 148 
1622 4697 1518 1763 
1511 5141 5118 1809 
1809 1511 3431 5118 
133 137 148 124 
4332 3297 113 3773 
44 72 63 65 
44 53 65 63 
4019 81 4025 4332 
53 4776 3367 65 
3094 34 46 38 
1624 351 747 1557 
1643 1424 1713 1637 
1643 1424 1547 1713 
1713 1424 1799 1637 
1713 1424 1547 1797 
1713 1424 1797 1799 
5208 1572 1778 2958 
747 1557 0 1615 
747 351 0 1557 
2700 3483 3294 3130 
77 3589 76 60 
3843 4940 93 4381 
3589 76 60 56 
4022 4115 4039 82 
4819 4259 2967 3154 
136 152 3294 184 
1668 1606 270 2066 
1592 1606 1967 3333 
145 3359 3297 115 
1609 3196 1578 2268 
1643 1713 1585 1637 
1643 1713 1547 1585 
1585 1713 1799 1637 
210 1676 2620 2186 
1486 5114 5020 1696 
4984 2864 4759 3720 
2433 1374 2504 1975 
4179 731 4555 689 
174 4997 172 157 
242 299 4993 251 
212 239 4896 205 
1586 11 7 1786 
1846 2236 1606 2457 
644 709 3492 604 
644 552 604 3561 
1840 2088 1510 1587 
1804 1587 2372 2724 
13 20 2127 1589 
4750 1762 1834 2334 
23 84 2334 5075 
1762 4750 2381 1543 
2556 4754 5069 2098 
175 1960 163 4953 
5075 4569 1593 20 
212 241 261 4953 
242 4997 243 221 
4997 189 221 224 
1787 13 4569 17 
1787 1589 1472 4569 
1787 13 1589 4569 
1787 17 4569 1788 
1787 4569 1472 1788 
1555 2474 1556 1531 
2502 1631 119 4741 
1631 2502 119 391 
1691 1534 1585 3494 
1691 71 3494 1585 
1690 1470 1625 2428 
2 1784 1888 1781 
1557 1888 1781 2 
187 162 179 2379 
229 201 247 226 
188 192 201 3774 
601 3362 687 650 
213 249 229 3774 
1853 3086 1476 2870 
862 842 838 3173 
5015 215 204 238 
223 274 5015 238 
223 204 238 5015 
223 213 204 4887 
2460 170 1541 1646 
1546 1459 1803 1805 
1587 2372 1544 1806 
1804 1806 2372 1587 
677 3723 4081 622 
1947 1605 936 2086 
1702 1621 1760 1750 
936 1789 1605 1791 
4538 3774 483 409 
1702 1750 1760 1759 
936 1545 1791 1605 
936 1605 1623 2086 
1702 2429 1715 1621 
1689 14 1469 10 
1549 7 1784 1586 
1589 2127 18 20 
2002 3349 2078 1478 
1589 18 2127 1548 
756 4642 832 783 
1716 1508 1581 1554 
4455 274 214 238 
4799 2959 4455 3696 
4455 260 214 274 
4167 458 453 399 
4455 238 214 187 
190 162 187 2379 
2548 2193 1572 2667 
509 556 4718 4008 
4010 419 3716 463 
991 5072 1042 3140 
4799 238 5015 274 
1605 116 1560 1874 
1605 25 1560 116 
1791 1874 116 1605 
1789 25 1605 116 
1791 1789 1605 116 
5103 4323 5209 1706 
3774 409 4538 4628 
518 3320 479 499 
4567 884 977 2816 
2213 2494 596 4858 
4795 363 399 4167 
1749 3220 5152 3491 
4505 4324 2842 3937 
3610 3245 969 3184 
3610 3726 4505 3632 
4419 2708 2718 3950 
2816 3610 3245 1880 
601 3362 567 548 
4538 409 483 478 
1586 1786 7 1784 
2279 10 1786 6 
1789 1605 25 1469 
75 118 27 1790 
604 3561 3492 644 
3967 4334 2611 3913 
328 298 2719 273 
1814 1799 1423 1442 
1425 1444 1800 1618 
1798 2236 1606 1800 
4926 5015 4887 3744 
1634 1765 2517 1667 
1802 1510 1840 1846 
10 1469 1786 14 
12 1787 1472 16 
3144 3395 444 3591 
1595 5208 1657 1563 
1661 1815 1595 1563 
209 4876 197 188 
1788 4569 1472 1844 
1442 1450 3493 1801 
247 264 3446 3774 
1800 1846 1510 1802 
4389 290 283 314 
1548 1785 1783 5 
1548 8 4 1785 
254 4926 5015 216 
1606 1668 1798 2066 
1425 1798 1186 2066 
4799 399 395 400 
2502 1617 1792 119 
1617 2501 118 390 
1547 1797 1185 1795 
1973 1423 1797 1184 
363 399 4167 428 
363 370 428 4167 
1460 1806 1607 1464 
116 388 1874 1791 
2890 5154 505 577 
2851 4786 4452 4926 
3 1784 1781 1549 
1888 1784 2 6 
5015 223 246 274 
5015 4799 4328 3135 
5015 204 4887 223 
378 4799 400 366 
4795 395 399 379 
229 249 264 3774 
3744 3135 5015 4328 
3774 192 213 4887 
197 188 4876 185 
4167 254 4926 5015 
1530 1620 291 1764 
365 369 4722 3322 
5208 1815 2991 1778 
5045 2519 2004 1876 
527 591 568 4081 
347 3659 4148 334 
4488 347 3659 4148 
403 4488 347 3659 
664 3716 693 4789 
4317 3270 4421 4000 
270 1796 773 2472 
1674 773 270 1186 
1773 773 270 1674 
270 773 1796 1186 
4010 528 463 3716 
4425 2009 701 844 
3748 4602 464 403 
367 394 3322 422 
3659 4602 403 4488 
1758 1470 1625 1690 
463 528 512 3716 
355 1482 1515 1753 
3322 423 403 4807 
3322 4707 4807 403 
321 283 314 4389 
4642 3270 4000 4421 
88 4801 2939 2353 
2061 2748 1580 2044 
534 500 4934 4807 
723 676 3984 724 
585 540 595 3984 
585 3984 534 540 
756 832 4642 803 
574 3984 595 540 
622 3723 651 677 
595 625 3984 574 
3723 733 780 753 
760 809 3173 761 
761 838 809 3173 
500 3949 467 485 
4635 1523 693 723 
610 547 4008 556 
595 624 3984 625 
4635 3984 761 723 
690 4008 4094 753 
540 3984 512 574 
654 682 707 3605 
4081 591 568 623 
4008 556 606 610 
2720 418 406 4679 
511 573 3723 556 
753 3723 785 780 
4753 376 2720 377 
611 654 615 2111 
700 733 3723 753 
611 568 623 3605 
2472 1794 1773 286 
568 611 1751 3605 
1593 1589 1663 1630 
286 1773 2472 270 
5075 1593 1630 20 
5075 18 20 1630 
461 502 4081 527 
654 611 623 3605 
4081 744 780 733 
622 681 4081 677 
647 610 4008 606 
700 4008 647 690 
700 4008 651 647 
4008 606 651 647 
291 2478 1764 1620 
477 615 2111 611 
780 733 3723 4081 
576 3916 4086 541 
4397 4086 576 614 
2111 654 615 754 
4288 3605 4081 3105 
1751 2219 516 2911 
4447 830 777 4131 
4288 748 744 681 
2407 4766 828 3914 
460 461 4081 511 
655 4635 693 723 
461 511 527 4081 
622 573 606 3723 
3723 700 677 733 
3723 606 4008 556 
3723 606 556 573 
3703 4517 4131 777 
2002 3349 2362 2944 
1589 1514 12 1472 
4086 662 614 4574 
1516 1757 1567 1954 
1513 1589 1881 3402 
3757 4644 3916 708 
4240 513 734 720 
351 105 1 1783 
1589 1514 1472 1663 
1589 1514 1513 1881 
1476 1737 2106 1690 
1758 2487 1690 1476 
2322 1631 1638 4741 
27 1472 1788 16 
1790 1788 1472 1844 
1652 2362 1739 1478 
755 819 766 3826 
766 808 3826 819 
1905 3000 2687 4044 
614 576 536 3916 
2253 457 513 413 
626 665 664 3703 
3916 536 541 576 
541 521 536 3916 
662 746 4574 4086 
4751 3645 4617 3916 
746 662 708 4086 
766 734 4240 768 
4086 3916 521 541 
614 4086 576 3916 
766 3826 808 4446 
3804 4086 801 708 
755 826 3804 766 
3804 766 826 741 
4999 4688 1855 4678 
2201 1673 2228 1492 
1673 1753 2383 1492 
364 491 495 4389 
2008 2849 2314 421 
269 383 4159 381 
1587 2385 1720 1509 
1619 1720 1509 1587 
1525 5042 2212 1526 
1600 3141 2346 1551 
584 4672 5049 2159 
634 2295 703 631 
2551 338 318 348 
364 4389 495 3307 
338 4287 410 348 
553 4287 481 498 
325 328 298 408 
4389 364 408 321 
491 298 328 408 
297 408 298 424 
247 298 3446 264 
3446 424 341 298 
2844 3320 518 499 
1887 1474 2445 1830 
410 385 4287 481 
410 4287 385 348 
2028 1575 5188 2866 
5113 5112 1887 1830 
1887 5112 1474 1830 
491 298 408 424 
298 2719 273 3446 
3307 495 498 550 
550 531 2787 495 
498 4287 481 410 
550 498 3307 553 
4419 2708 3950 4405 
2492 3674 4643 312 
288 312 3909 3674 
634 557 2295 631 
495 410 3307 498 
5021 3852 4643 312 
4881 3561 3861 3395 
495 3307 2787 550 
3144 3395 4906 5115 
3395 426 4448 444 
497 3144 4629 446 
3591 444 472 3395 
495 4389 491 531 
635 713 663 2159 
3362 567 650 601 
740 758 4223 3504 
581 645 598 3361 
4212 2816 769 722 
769 977 841 2816 
1567 1608 1516 1647 
1567 1506 1647 356 
1567 1506 1608 1647 
3842 2897 3031 4371 
770 751 731 3504 
2651 2562 3344 3637 
2195 2133 4306 1253 
3504 810 758 3671 
3927 890 2320 863 
1473 4801 1761 182 
2466 3107 2530 3231 
770 855 4600 731 
554 2760 3360 523 
2592 451 4318 4726 
3218 5080 2760 3505 
4384 692 4757 4179 
727 4179 692 721 
4179 4842 685 689 
736 721 710 4179 
727 721 736 4179 
710 717 4179 685 
736 710 717 4179 
731 855 4600 689 
758 3504 820 810 
770 4562 3504 731 
3344 3931 5155 3637 
731 689 717 855 
4793 3504 751 740 
3504 2673 2466 4223 
2138 1964 4215 4532 
2370 1682 1640 1813 
2471 1745 3487 1682 
2132 1724 2063 1640 
1606 1608 1618 1506 
443 2005 4215 401 
2279 1786 1784 6 
2279 1784 1888 6 
2279 1786 1586 1784 
4089 4820 2607 2815 
3395 3486 3861 3362 
4652 5026 4942 3547 
3580 4978 1904 3321 
2803 4074 1920 1849 
401 5111 4334 4770 
2380 2611 3225 3358 
2486 3547 3974 5026 
909 2007 2380 984 
2380 3595 3492 3358 
1609 2355 1502 2241 
3131 2677 4052 3216 
443 4215 372 401 
263 564 537 3033 
1725 69 4758 2145 
286 2084 1576 1631 
1727 1469 1656 1586 
1667 1586 1727 1656 
1573 1509 1716 1665 
1599 1729 1958 151 
2085 1599 151 1729 
1947 1729 1605 2086 
2075 2358 2086 1729 
1958 1729 1605 1947 
1656 1469 1623 15 
1730 2499 1468 2301 
3090 5030 3092 2043 
2757 2255 1732 2361 
1514 1472 27 16 
1514 12 1472 16 
1739 1482 2427 2453 
2132 1603 2163 1640 
1745 1603 2063 1640 
1724 1745 2063 1640 
1640 2163 2132 2370 
2369 4494 3601 3594 
4548 3175 5163 5024 
1730 2049 2013 2199 
2013 1468 1998 1730 
294 3696 260 4455 
2926 3878 4429 3809 
3497 1732 2743 2361 
1732 2361 2240 1590 
532 4102 3005 3481 
3481 2890 525 4102 
5145 3420 4083 3798 
4021 4115 3359 82 
1998 1730 2049 2013 
2116 2049 1919 1935 
2116 1486 1919 2049 
2013 2049 1935 2199 
773 1794 1773 2472 
2472 1773 773 270 
2212 3836 2882 2459 
1470 2279 1586 1549 
2279 1784 1586 1549 
406 432 4549 430 
4549 384 406 5120 
4858 2494 596 650 
4333 3437 1677 4865 
1587 2088 1510 1720 
1619 1510 1720 1587 
1720 1510 2267 1578 
1717 1510 1720 1619 
2953 965 934 1026 
789 938 2579 5039 
4196 4008 509 4718 
610 647 4008 4749 
229 201 213 3774 
185 192 3774 4887 
280 4104 240 4034 
1038 1054 1066 1099 
1528 782 4292 714 
1812 2455 1486 1542 
4967 3465 1288 1321 
3774 341 3446 424 
3774 264 3446 341 
2430 71 1537 1973 
2430 1497 1537 71 
13 9 1787 1589 
1589 9 1785 1548 
1787 9 1785 1589 
13 2127 9 1589 
1589 2127 9 1548 
698 1491 847 846 
1814 1713 1585 1547 
1814 1585 1713 1799 
1823 619 1491 305 
305 2389 1491 1823 
1823 564 305 263 
305 564 1823 619 
263 1823 2389 305 
3532 1562 1485 2430 
1555 3532 1485 1531 
1973 1547 3532 1556 
1895 5083 2202 2158 
2593 5083 2202 1895 
1653 2427 1482 1626 
1717 1506 1618 1756 
2427 1739 1604 1652 
2202 2593 4466 5083 
4466 5083 3624 2202 
2071 2800 1817 2135 
565 2764 850 2823 
1881 3402 1604 1513 
1470 2279 1549 1888 
2554 1926 1875 2092 
2279 1784 1549 1888 
2071 1859 1817 2800 
2800 1859 1817 2610 
2439 1948 2282 1859 
2439 1859 2282 2071 
2045 1859 1948 2610 
2761 1873 1479 1867 
2586 1867 1479 2043 
2761 2586 1867 1479 
1867 1873 1479 3090 
1479 1867 3090 2043 
2071 3169 1870 2800 
2071 1870 1859 2800 
2071 1906 1870 3169 
2554 1926 1852 1875 
1819 2936 157 155 
1819 157 163 155 
2905 1820 3508 3917 
2905 3167 1820 3917 
2905 1821 3508 1820 
2905 3167 1901 1820 
2905 1901 1821 1820 
2949 1841 2374 1821 
2374 1841 3016 1821 
3241 1901 1821 2905 
3241 1912 2949 1821 
1820 791 1821 3016 
2905 2531 1822 2680 
3509 2905 1822 2680 
2410 2135 2071 1956 
1819 4997 157 2936 
2410 4137 1956 2071 
1819 174 163 157 
4997 1819 157 174 
1824 4412 1611 307 
1824 307 3720 4412 
1824 1611 267 307 
3624 5083 5143 3680 
3161 1832 1826 2020 
3668 1826 3161 1961 
1832 2020 3507 1826 
2258 2866 1900 1989 
2866 4254 2339 2491 
2866 2491 1900 1989 
2625 3507 1826 1863 
2002 1944 2944 1865 
2880 1865 1902 2002 
1944 1902 1865 2002 
1865 2002 2263 2944 
1865 2002 2880 2263 
3668 2625 1826 1863 
1827 1819 163 4953 
1827 174 163 1819 
163 193 196 1827 
163 1827 196 174 
4953 1827 1960 163 
619 698 846 1491 
3033 2365 2341 846 
1973 1797 1795 1184 
1556 1184 1973 1795 
537 846 3033 564 
619 3033 846 564 
846 1491 847 2341 
619 3033 1491 846 
4976 2883 4205 1829 
3033 846 2341 1491 
2337 1850 1166 1138 
1914 1850 1166 2337 
1553 1502 1746 3795 
1553 3795 1746 3250 
1553 1816 3795 3250 
3016 3167 1966 1832 
2838 1889 1486 1542 
1889 2063 1542 2838 
88 1864 64 2328 
88 2145 2353 2328 
64 2145 88 2328 
88 2353 1864 2328 
3507 3167 1832 1966 
4137 1817 2893 1956 
1686 2337 1138 1850 
1921 1778 2229 2055 
1921 1778 2055 3581 
1900 1922 4209 1997 
1329 1306 1922 1779 
1779 1997 1922 1900 
2949 1912 1841 1821 
5161 3715 5159 2995 
5159 2995 1282 5161 
1841 791 3016 1821 
3463 2532 4120 2326 
2532 3271 4120 2326 
1841 1832 2020 3016 
3161 1832 2020 1841 
2192 2450 5156 1244 
3161 2949 1912 1841 
4275 4709 4837 3206 
1553 1621 2429 1573 
2353 3141 2671 1600 
2178 1746 1979 1911 
1746 3795 1502 1979 
1911 3663 1746 1979 
1746 1979 1502 1492 
3663 3795 1746 1979 
2178 1492 1979 1746 
2338 2026 1675 2405 
2026 1675 2056 2338 
1675 2514 2026 2056 
2405 2734 2026 1675 
2734 2514 2026 1675 
2201 1911 826 2059 
2201 2059 2178 1911 
2683 1774 1553 1573 
1774 1621 1760 1553 
1553 1760 1774 1908 
1908 1774 1553 2683 
1621 1774 1573 1553 
3008 794 1848 2535 
807 4531 3675 4744 
2188 2172 3033 2365 
2535 1856 3008 794 
3033 2172 2341 2365 
1910 1728 2969 2380 
2634 1728 2969 1910 
1750 1774 1760 2207 
2207 1774 1760 1908 
3090 3499 1526 2328 
1479 1526 2328 3090 
5119 5029 5083 2697 
5029 5083 4466 2593 
3321 2006 2943 2581 
3321 2943 1892 2581 
1865 1944 2944 1772 
2880 1772 429 1865 
1944 429 1772 1865 
1772 1865 2263 2944 
1772 1865 2880 2263 
2947 1599 151 2085 
1831 2996 3008 1857 
3106 3008 1837 1831 
623 3605 681 682 
1872 3008 794 1858 
1512 3092 87 3162 
3092 3162 64 87 
870 2855 861 3866 
822 861 838 2855 
838 2855 861 870 
2048 799 2135 1956 
2855 4517 861 3866 
2135 1817 1956 799 
4517 2855 861 822 
1837 3008 2393 1856 
3563 2081 1880 2121 
2878 2448 1671 2089 
2089 1651 2878 2448 
2878 2089 1671 1984 
1984 1651 2878 2089 
387 340 4013 494 
2036 2789 3078 1870 
2332 3467 2036 2979 
2332 2036 3078 1870 
3394 1845 2442 1842 
1845 2063 1724 1842 
3136 1848 3008 1858 
5080 710 4179 685 
1137 1914 2531 1941 
1137 2531 1934 1941 
3794 2010 1897 1728 
3794 2010 1728 1983 
3392 1897 2010 1728 
1983 2392 2010 1728 
3392 2392 1728 2010 
1837 3008 1856 794 
3786 1856 3008 2535 
1831 1857 3008 794 
3668 1863 1826 1961 
3841 1896 3008 1857 
1863 1882 1898 3507 
2639 3008 1872 1858 
3720 299 307 1824 
1824 307 251 299 
307 251 267 1824 
3099 2253 2059 1772 
2059 1911 3099 1772 
691 2059 801 2253 
2855 4256 780 744 
69 2641 182 4801 
173 4801 69 182 
173 4801 2145 69 
2145 2641 69 4801 
1837 3008 794 1831 
1902 2002 1944 1974 
210 2002 2880 1902 
4256 744 2855 4288 
210 2002 1902 1974 
1485 1776 1595 3080 
1776 2153 1595 1923 
1923 1595 1776 3080 
1776 2153 1497 1595 
1776 1497 1485 1595 
2249 3268 2053 4645 
3268 4194 3865 4166 
3268 2053 4239 2249 
3268 4194 4239 3865 
2227 2905 2531 1822 
1511 1622 1582 5118 
1511 1582 3431 5118 
5118 1582 3431 3432 
5118 1582 2565 1622 
3432 1582 2565 5118 
2862 794 1872 3008 
1687 1970 1850 1869 
1580 1374 2044 2504 
846 2341 847 953 
1580 1374 2061 2044 
4953 261 281 241 
2862 3008 1896 794 
1940 2001 1871 1933 
2227 3793 2905 1822 
3509 1822 2905 3793 
3467 2036 2979 2285 
1892 2943 2393 2581 
2145 1725 1479 2043 
2947 1921 2085 3581 
2145 1479 1725 69 
1479 69 2145 2641 
2641 2328 2145 1479 
2145 1479 2328 2043 
1858 1848 3008 794 
2880 1865 429 1902 
1944 429 1865 1902 
429 1902 1944 1974 
210 1902 2880 429 
513 457 3202 413 
4240 457 513 2253 
2626 3764 1883 561 
210 1902 429 1974 
2410 2048 2135 1956 
3161 791 1826 1832 
3099 2253 801 2059 
801 1911 3099 2059 
1841 791 1832 3016 
3161 791 1832 1841 
2504 2925 3309 1374 
2504 3309 1975 1374 
1772 2630 2253 2059 
2059 2178 1911 1772 
2059 2630 2178 1772 
1925 1934 3917 2425 
504 2554 1875 1723 
1875 2554 2092 1723 
1941 1934 2425 3917 
1882 1966 3167 3507 
1969 1882 1907 3509 
1760 1621 1715 1553 
1498 1760 1568 2057 
1702 1621 1715 1760 
1702 1760 1715 1759 
1687 1892 2943 2393 
3033 619 1491 1823 
1823 2389 1491 3033 
3033 564 1823 263 
1823 564 3033 619 
263 3033 2389 1823 
2012 2601 3102 1779 
1779 3102 2012 1890 
1838 3682 2982 1929 
2389 1838 2982 1929 
2068 1676 1833 2620 
1676 1833 2008 2068 
1833 1590 2270 2620 
691 2059 826 801 
1833 2240 2008 2849 
691 2201 826 2059 
3678 295 3731 1915 
1835 2052 1963 3478 
2052 2951 3478 1835 
1941 1970 3286 1953 
3392 2965 2735 1836 
2054 1334 1417 1836 
1836 2226 1334 1417 
2965 1246 2735 1836 
1941 1914 3286 1970 
1827 193 196 2035 
4993 2035 1960 1827 
2035 1899 4993 1960 
2108 2035 228 231 
1894 2227 4773 2079 
4791 3043 2227 1894 
1860 1904 2006 3321 
3682 1728 1929 1838 
1838 1897 1929 1491 
1838 1491 1929 2389 
1904 1860 2006 1780 
4851 1176 4188 1194 
2365 2248 2341 846 
2722 2172 2365 2248 
2365 2172 2341 2248 
3394 2095 2930 1842 
2442 2352 1493 1842 
3781 580 544 5135 
2352 1493 1842 2319 
1843 182 69 2641 
580 5135 3781 2121 
2218 1843 1951 2641 
1843 2448 69 182 
2432 2535 2143 1970 
1843 2299 69 2448 
1673 1492 2630 1744 
2934 2105 3213 2498 
1687 1970 1869 2535 
2630 2178 1744 1492 
1970 2535 2143 1869 
2630 1744 2178 1772 
2555 1724 1845 1649 
2259 1845 2442 3394 
263 2389 2138 140 
2259 2555 2442 1845 
3138 1949 1600 3100 
2389 3216 2138 140 
1863 1882 2652 1898 
1512 3092 3162 2328 
159 140 2138 1862 
2138 140 3216 1862 
263 2138 159 140 
5119 3374 5029 2697 
4077 2328 1512 3162 
1512 3499 2328 4077 
2625 1898 2652 4782 
2189 2154 1851 1649 
2625 1863 2652 1898 
1851 2582 2324 2241 
3374 2697 4466 5029 
1851 2324 2582 2154 
3033 2172 2188 1838 
906 895 920 3927 
906 863 895 3927 
3033 2188 2982 1838 
1926 629 1852 788 
2035 231 1899 228 
3487 1745 2471 2442 
1724 2555 2442 3487 
1896 794 3008 1857 
2466 3361 2926 3878 
267 1899 231 228 
1901 3167 1966 1820 
1901 791 1821 1820 
2307 1675 2338 2444 
2338 2405 1675 2307 
2926 3361 4429 3878 
2727 3548 3683 4290 
3241 1912 1821 1901 
1921 1778 1599 2229 
1921 1599 1778 3673 
1599 1815 2229 1778 
3673 1599 1778 2991 
2991 1815 1599 1778 
1914 1970 1869 1850 
2520 1854 2266 2468 
2266 2559 1854 2662 
1583 351 1 5 
1597 351 1583 5 
1597 1548 351 5 
351 1548 1783 5 
1621 2429 1715 1553 
351 1783 1 5 
2266 1854 2559 2468 
1915 4938 3104 295 
4137 1817 1956 2071 
3241 1909 1901 3793 
2071 1817 1956 2135 
1969 3509 1907 1901 
3509 3793 1901 1969 
2206 335 4289 295 
3446 4289 4475 2206 
2206 4289 4475 295 
2081 969 853 1109 
1357 1302 1328 4048 
3548 4048 1275 1302 
1966 1882 3167 1907 
1966 1907 3167 1901 
1278 1233 4714 1283 
2253 513 691 2059 
1901 1907 3167 2905 
2573 1924 2001 4596 
1907 2680 3167 2905 
4557 4472 4194 2957 
2573 4596 2001 4074 
750 3399 718 814 
652 718 750 3399 
1604 1739 2427 2453 
3043 1912 3241 1909 
1758 1478 1652 1839 
2943 1860 2006 3321 
1687 2432 1970 2535 
4074 1932 2006 1920 
2838 1861 2455 3820 
1861 1542 2930 2838 
1687 2432 3242 1970 
1625 2279 1470 1888 
1687 2393 2432 3786 
173 1761 182 3431 
313 2737 3151 3112 
2838 1542 2455 1861 
1687 2432 2535 3786 
1861 2930 2095 2838 
1473 1761 3431 182 
1687 2943 2432 2393 
2432 3242 2943 1687 
1912 1909 3043 3953 
1913 2996 1932 1849 
3195 705 3893 653 
1484 3331 2777 3893 
1920 1849 1932 2251 
2251 1849 1932 2996 
3610 1108 852 4212 
3521 3133 4052 1862 
852 1108 3610 2047 
1649 2582 1542 2104 
2104 1649 2582 2154 
705 3893 3331 1484 
2154 1851 1649 2582 
4074 1932 1920 1849 
2290 1649 2582 1542 
4074 1913 1932 1849 
1903 2671 1864 2353 
2872 4160 702 1986 
1632 1726 1943 3327 
504 2554 1852 1875 
2554 504 629 539 
1925 1943 1726 3327 
1779 1329 1306 1339 
504 2554 629 1852 
1866 1582 2575 2577 
1532 1582 2575 1866 
1866 2421 1532 1582 
3402 1663 1630 1739 
1663 1630 1739 1482 
1663 1739 2453 1482 
1663 1739 3402 2453 
561 4712 658 1946 
1906 2346 3169 3450 
1946 561 3889 658 
2473 2872 4160 702 
1906 2285 1870 3169 
4450 4939 4160 702 
1750 2207 2057 2438 
5066 4712 1980 2937 
2380 2969 1983 1728 
2380 3397 1983 2969 
3397 4354 1983 4253 
4160 702 1986 4450 
2473 702 4160 4762 
2438 1434 4252 1390 
2652 1898 3167 4782 
976 1086 3595 1075 
1682 1724 706 2370 
706 1724 2781 2370 
3487 1724 706 1682 
2652 1882 3167 1898 
4939 4762 4160 702 
1647 1954 1567 356 
1628 1954 1647 356 
1866 1582 1982 1868 
1868 2421 1866 1582 
1982 1866 2577 1582 
2253 4240 457 476 
1494 1868 1582 2319 
1868 2352 2421 1582 
1582 1868 2352 2319 
1724 1745 3487 2442 
1643 1424 1185 1547 
2555 1724 2442 1845 
1554 1509 291 1544 
1607 1509 1554 1544 
1508 1509 291 1554 
1716 1509 1508 1554 
1845 1724 2442 1842 
1842 2442 1745 1724 
2063 2736 2485 1763 
1882 2652 3167 1907 
1907 2680 2652 3167 
1970 3524 3286 1953 
2652 3167 3540 4782 
3167 2652 3540 2680 
1912 791 1841 1821 
1941 2143 1953 3136 
3161 1912 791 1841 
1941 1953 2425 3136 
2073 1909 1912 3953 
1941 3286 3917 1953 
1959 1873 1867 2580 
2761 1525 2212 1873 
1873 2212 1526 1525 
4978 1957 562 4049 
3710 4269 2321 4049 
3161 2073 1912 3953 
4194 4239 2249 3268 
2114 1876 3111 1480 
3236 1876 2114 1480 
1876 2681 3111 1480 
3880 2681 1876 288 
1711 2087 1877 1166 
1877 5040 5127 2087 
1916 174 1827 1819 
2592 451 2637 1878 
1878 3635 2260 3813 
1878 3635 3813 3328 
304 1879 2982 263 
304 1879 537 563 
304 537 1879 263 
304 4424 2982 1879 
1560 1605 1874 1893 
1893 1988 1560 1605 
4194 2249 4645 3268 
2164 4424 1879 4053 
1711 1002 2953 2087 
1009 965 5040 2230 
1711 1002 2197 2953 
2953 934 5040 2087 
1485 1815 3080 1595 
1923 2991 3080 2146 
1595 2991 1815 3080 
2146 1923 4121 3080 
1580 1750 1498 2438 
1498 1580 2438 2504 
1925 3327 1726 1962 
1580 2044 2438 2504 
1925 3327 1962 2425 
1333 1334 1836 1246 
4997 1916 1819 174 
1827 1916 196 174 
1220 2735 1246 1333 
4166 4645 3268 4194 
2569 1162 2026 2405 
1913 2996 2432 1932 
1333 2735 1246 1836 
2338 2569 2026 2405 
1913 2432 3182 2015 
1913 3841 2432 2996 
1913 2432 3841 3182 
4074 2432 1913 2015 
1661 1562 1485 1893 
1329 1922 4209 1900 
1779 1900 1922 1329 
2400 2773 2194 2792 
4209 2312 1329 1900 
4074 1913 2432 1932 
1941 2143 1970 1953 
1953 2143 1970 2432 
1914 1970 2143 1869 
1941 2143 1914 1970 
450 2076 1655 2567 
450 2076 2774 1655 
2525 1885 450 2567 
450 2774 1885 3311 
2525 450 1885 3311 
1463 1530 1645 1503 
2044 1390 2438 2504 
1463 1530 1503 1467 
1546 1530 1645 1463 
1546 1530 1463 1807 
1981 3524 2432 1953 
189 196 1916 174 
1463 1530 1467 1807 
4997 174 189 1916 
1953 1981 2425 3136 
2044 1374 1390 2504 
3439 3741 4209 1972 
1972 3930 3820 3612 
2366 4113 3741 1972 
3078 4691 3214 5053 
1972 4113 3930 2366 
4209 3820 3439 1972 
1981 2432 3524 2110 
93 122 99 3466 
1750 2269 2207 2438 
2207 2391 2438 2269 
2891 488 561 3764 
1980 5165 2907 1946 
5165 1946 1980 3889 
1891 1862 1964 139 
93 120 122 3305 
1691 1585 1497 71 
122 3466 93 3305 
2207 2391 1437 2438 
1860 4074 2006 1920 
4074 1860 2006 2943 
3242 1860 4074 2943 
1585 1799 3493 2125 
4278 392 3913 375 
2125 1585 1534 3493 
1814 1799 3493 1585 
71 1814 3493 1585 
392 3913 4377 4278 
1904 2983 1860 1780 
1537 1585 1547 1814 
1814 1547 1537 1973 
3580 1904 1860 3321 
2983 3580 1904 1860 
4922 392 375 3913 
3349 3014 1944 2904 
259 1549 7 3 
1974 3349 1944 2904 
2049 1889 1919 1935 
1919 1889 5140 1935 
4922 392 3913 4377 
5140 1763 1889 1919 
2187 3677 3046 1438 
665 1990 664 3703 
749 664 1990 3703 
2187 1438 2968 3677 
2142 3611 513 2630 
559 1926 2423 2092 
656 559 1926 658 
1673 3611 2142 2630 
2651 2562 2566 2329 
658 789 1926 656 
2934 2105 2580 5030 
2580 2105 2302 5030 
2638 3774 4538 3320 
3925 1778 1921 3581 
2638 4538 4858 3320 
3673 1778 1921 3925 
3320 3774 4538 4452 
3320 4538 4858 4452 
1657 1568 1775 2395 
1550 2395 1563 1752 
2258 2339 1900 2866 
856 4194 868 860 
2339 2491 1900 2866 
2312 2491 1329 1900 
860 874 4194 868 
3001 2204 55 81 
874 4194 4166 860 
4194 856 2957 860 
3001 3302 2204 2463 
1883 4515 3764 1924 
2125 1443 1801 1451 
1451 2125 1534 1801 
2059 1911 826 801 
4194 2957 4166 860 
1883 4515 5098 2198 
2198 5098 1883 561 
5111 372 3603 1994 
372 219 4234 1994 
4073 1994 372 5111 
4073 1994 219 372 
3472 372 4234 1994 
2196 1995 3968 1915 
2458 2737 5046 273 
1679 2458 2737 5046 
3660 3152 4226 2359 
1879 3033 537 563 
1879 4043 3033 563 
1809 1551 1473 182 
563 4043 3033 2365 
1647 1506 270 356 
1647 1506 1608 270 
356 1506 270 1828 
270 1608 1606 1506 
1828 1506 270 1606 
1946 561 1980 3889 
1679 5046 2737 3152 
561 2891 3889 488 
1480 4237 1864 1903 
88 1480 1864 1903 
3141 2232 1903 2671 
2232 3141 1903 2789 
1480 2789 1903 88 
1980 4712 561 1946 
1824 251 267 231 
1824 1899 267 4953 
1980 4712 2198 561 
2020 1924 1933 2001 
1924 4596 1933 2001 
1481 2737 2317 2376 
2001 2015 1940 1871 
2001 2223 3524 2015 
1834 1662 2000 18 
2000 1662 1590 2019 
2001 2223 2020 2573 
4596 2001 1940 1933 
73 68 65 43 
2997 4096 1905 3623 
3359 4028 145 202 
1685 2172 1905 2884 
2997 1905 3688 3623 
3688 1987 3553 1905 
4021 4028 127 167 
4021 127 106 167 
2072 2135 3450 1906 
1824 1899 231 267 
2071 2175 2439 2344 
2553 1385 1383 1387 
1493 2319 2243 1842 
1327 1340 2938 1361 
1493 2243 2360 1842 
2278 3686 2597 1908 
1908 2597 2683 3686 
5140 1889 1277 1935 
1913 2015 3182 1940 
2319 3042 1493 2243 
1842 2319 2485 2736 
1940 2015 3182 2659 
4596 2015 1913 1940 
3033 846 537 563 
3033 563 2365 846 
2264 2634 4507 1910 
1910 1728 2209 1929 
3225 1910 2209 1929 
1929 1728 2634 1910 
3032 2264 1910 3225 
1671 182 2641 1600 
2365 563 2250 846 
1600 1949 1671 3870 
1600 3138 1671 1949 
3138 1671 2641 1600 
2089 1551 1809 182 
182 1511 1809 1651 
182 3431 1809 1511 
3594 4507 3032 2542 
1628 356 1647 270 
1628 1647 1516 270 
4770 2542 3594 3032 
437 2542 4507 3594 
2084 356 1628 270 
1628 2084 270 1638 
1984 2089 2289 795 
3953 3043 2949 4791 
795 2177 1740 1984 
795 2177 1984 2089 
1645 1530 329 1503 
1641 1060 5035 5130 
1546 1530 329 1645 
4515 3953 2949 4791 
2542 4770 3594 380 
3606 957 4211 940 
4454 940 957 3606 
5108 940 4454 3606 
5108 940 3606 4211 
3440 1918 2276 1210 
2276 1918 1416 1210 
4496 2949 2227 4791 
3016 1832 2020 2573 
4794 3943 845 3004 
4515 2374 2020 2863 
2949 3043 2227 4791 
845 4151 4794 3004 
4515 2949 4496 4791 
3509 2680 3963 2652 
2652 2451 2680 3963 
3858 1880 4212 2816 
3858 852 4212 1880 
1873 1526 1479 3090 
440 2023 4289 446 
2567 1885 2076 2918 
1603 5140 1889 2163 
3426 5140 1603 2163 
1873 1524 1526 3090 
1873 1526 1524 3699 
2567 2683 1885 2918 
446 2023 4289 2926 
2926 446 2023 3809 
4215 2138 3216 1862 
2023 446 3048 3809 
2107 2395 1595 1657 
938 1641 2029 2238 
2107 3693 1657 1595 
2238 2678 2531 2029 
175 193 163 1960 
3624 2195 2220 2805 
938 2678 2238 2029 
2029 2238 2300 2531 
2074 2676 2783 1854 
3261 2074 2783 1854 
3216 2303 1862 140 
2783 3261 1854 2520 
1576 1828 1668 1967 
1576 1828 270 1668 
1576 1650 1668 270 
2731 4387 5080 4384 
1960 1827 193 163 
2775 4334 3594 2611 
1576 1828 1967 1592 
2369 2775 3594 2611 
1960 2035 193 1827 
1579 1739 1630 1482 
3688 2172 1987 1905 
3688 3392 1987 2172 
1579 3402 1630 1739 
2378 957 3606 4454 
3606 4211 957 3264 
957 3264 3463 2378 
967 974 929 854 
2509 3414 3550 4194 
3550 3414 3501 4194 
1515 1482 1626 1753 
1626 1515 2453 1482 
193 212 1960 175 
3414 3911 4194 2343 
3414 4270 3501 4194 
2343 3414 2509 4194 
1603 1745 2565 1996 
1520 2471 1996 1745 
2137 1929 510 641 
1806 1465 1544 1808 
1520 2565 1745 1996 
1806 1544 1465 1461 
641 1929 2717 2137 
641 2209 2717 1929 
510 1929 3225 641 
641 3225 2209 1929 
2067 451 4700 4726 
1526 3499 3449 2328 
1479 3449 2328 1526 
4700 451 2637 4726 
2067 535 4726 4577 
1875 1723 2092 2716 
2201 826 1979 798 
2000 2019 1590 2033 
5044 2584 1930 1538 
798 826 1979 2826 
2201 1979 826 1911 
1804 1456 1587 1510 
1804 1456 1510 1802 
1456 1510 1619 1587 
1456 1510 1802 1452 
1452 1456 1510 1717 
1717 1510 1619 1456 
696 705 3343 653 
2282 1948 2045 1859 
2803 4782 4596 4560 
696 775 3343 705 
212 1960 228 193 
2282 1859 1817 2071 
2282 1948 2434 2045 
2450 1917 4687 1244 
2306 4687 1917 5113 
2282 3973 2893 1817 
2282 1817 4137 2071 
3561 1487 644 3486 
815 1487 3486 644 
1481 2376 2317 2945 
1970 3242 3524 2432 
2530 2737 1481 2376 
1961 1826 3161 791 
2743 1732 1833 1590 
2743 1590 1833 1676 
1732 2240 1833 1590 
3151 2530 2376 2737 
1671 2089 2289 1984 
1961 1863 1826 791 
1477 1579 2019 18 
1662 2019 18 1477 
2000 1662 2019 18 
259 7 1549 58 
2000 18 2019 2033 
2033 18 2019 29 
2019 1579 29 18 
58 1586 7 1549 
58 7 1586 11 
3953 3161 2073 1961 
2335 3788 2648 4735 
1936 3788 4433 233 
977 2696 1938 2210 
2528 3408 4567 1938 
2210 2696 1938 3255 
2528 3408 1938 4609 
1510 1846 1800 1606 
1846 1510 1578 1606 
1510 1606 1618 1506 
1578 1510 1506 1606 
2484 3255 1938 3060 
1510 1606 1800 1618 
3016 1966 791 1832 
2939 2036 3169 1870 
1137 1939 2531 1914 
3409 4347 3574 1939 
1137 1166 1939 1914 
5041 4347 3388 1939 
1715 2429 1566 1553 
1566 1754 1715 1746 
1566 1746 1715 1553 
1616 2395 1752 1498 
1498 2395 1568 1616 
1498 1568 1760 1616 
1870 2789 2939 2036 
2285 2036 1870 3169 
487 5169 2155 2765 
182 3431 1473 1809 
4560 4596 2247 2626 
3099 2166 1944 1772 
2990 3254 2052 2677 
2677 3254 2052 2689 
2689 2137 2677 3254 
3811 3254 2990 2677 
2137 3811 2677 3254 
5029 2906 1392 1389 
3459 3240 2434 2045 
1901 1966 791 1820 
3979 1948 2481 2439 
3459 3240 3503 2434 
151 1545 301 936 
151 936 1947 1545 
151 1947 936 2358 
1627 5112 1474 1887 
1518 5141 1627 5112 
1474 5112 1627 1558 
1558 5141 5112 1627 
487 2155 4362 2272 
1126 2656 2387 1950 
2155 2272 487 2203 
3936 2299 1843 3739 
452 1551 1473 1809 
1551 799 1809 452 
1715 1553 1746 1568 
2069 1754 1746 1715 
1479 2128 1951 3449 
1568 2069 1746 1715 
2765 2155 487 2203 
487 5169 4362 2155 
2128 1951 3449 3936 
3640 2983 2598 2446 
1653 1482 1753 1626 
1951 1843 69 2641 
4741 355 1769 1593 
1951 2299 69 1843 
5075 1769 1593 4741 
1769 1593 1630 5075 
355 1630 1769 1593 
1534 1546 1507 1646 
1534 1646 1541 1546 
1534 1646 1507 2460 
1534 2460 1541 1646 
2046 3779 3345 2470 
1951 69 1479 2641 
2046 3210 4091 3345 
4091 2768 2046 3345 
3345 4846 2046 2470 
1518 1511 5141 1622 
3408 4201 1081 4803 
1511 5118 5141 1622 
1518 1622 5141 4697 
1622 5118 5141 4697 
2046 3210 3345 3779 
3345 2768 2046 4846 
1820 1966 791 3016 
2954 2486 3974 5026 
1989 1976 1329 2192 
1057 1247 1335 2056 
2184 2569 2026 2056 
2056 1335 2341 2184 
1057 1335 2341 2056 
2450 1976 1989 2192 
4424 4130 3239 4286 
360 352 1585 2460 
2761 1873 1867 1959 
3355 3658 501 515 
2761 2586 1959 1867 
2498 2580 1873 1959 
2934 2586 1959 2761 
1976 3406 1393 2192 
2450 3406 1976 2192 
1976 1393 1329 2192 
3550 4194 3501 2249 
4194 865 2249 3550 
2249 4194 3501 4239 
2559 2676 1854 2662 
3640 4780 2983 2446 
1854 2676 2783 2662 
2053 2249 4645 3003 
1835 2052 160 1963 
160 2336 3451 1963 
1671 1600 3870 2289 
791 1882 1966 1969 
3091 3234 3003 2053 
1690 1737 1727 1560 
2243 2316 1493 2360 
1690 1727 2428 1560 
2053 3234 3003 4645 
1962 1981 1726 2639 
4209 1219 2077 3439 
3042 2316 1493 2243 
2808 3605 3234 4288 
1962 1981 2639 2425 
1219 4209 2077 3823 
4209 2629 3262 2077 
4209 2077 3262 3439 
1759 1752 1691 1498 
3494 1759 1691 1507 
2445 1474 1627 2604 
2604 316 1627 2445 
3494 1752 1691 1759 
4209 2629 2077 3823 
3236 2737 290 3112 
3909 3112 3236 290 
3091 2053 3003 763 
763 2911 3605 2053 
356 1506 1828 2252 
356 2252 1828 1592 
4547 295 323 2404 
4735 295 4547 2404 
2002 1944 3349 2944 
4735 295 2404 2256 
4105 701 639 4099 
3688 3392 2735 3536 
3392 2226 2341 2965 
791 1969 1966 1901 
1969 3793 1901 1909 
5075 1477 1630 1769 
1630 1483 355 1769 
701 4425 639 4099 
1477 1483 1630 1769 
101 3298 111 3302 
210 2002 1974 121 
3509 1822 3963 2680 
3963 4773 1822 2040 
2926 3809 2023 2749 
2749 2023 2926 4289 
1880 2081 892 739 
707 2111 2244 754 
883 2791 2244 754 
2403 1591 1868 1978 
4105 639 701 4269 
654 754 2111 707 
1591 3429 1978 2403 
2084 1952 1576 1631 
3968 209 4475 1915 
3968 1915 4475 3678 
3968 3678 4475 188 
1558 316 1170 799 
1809 316 1558 799 
3968 209 188 4475 
1494 1868 1982 1582 
2403 1591 1982 1868 
1779 4686 5114 1244 
1494 1982 2940 1582 
4640 1982 3599 2403 
5114 4686 1779 1998 
2258 5114 1917 1244 
1982 2940 3599 1494 
2584 1538 3353 1930 
1880 2121 2081 739 
2420 2380 1983 3794 
2420 4253 1983 4354 
2817 1479 69 1725 
2817 5070 1479 1725 
624 625 655 3984 
2263 2944 2362 1744 
1653 1744 1482 2427 
2144 3442 2904 2576 
692 4179 3457 4757 
1638 2084 270 286 
683 4757 1712 671 
2078 3442 2904 2144 
261 212 1960 228 
261 267 228 1899 
1520 3432 2565 5117 
1632 1726 2110 2862 
1632 2110 2659 2862 
2172 1728 1987 3682 
1987 1728 2497 3682 
3316 146 3700 4880 
1779 1989 1900 1329 
1989 2491 1900 1329 
1779 1989 1329 2192 
1779 1989 2258 1900 
261 1960 1899 228 
1622 2565 5118 1670 
3563 852 1880 2081 
4307 402 2716 225 
4307 4009 2716 5145 
3610 852 2081 1880 
1551 316 2089 1809 
3809 3048 2563 3144 
3362 3809 3395 2784 
316 799 1809 1551 
3144 3395 2563 3809 
3395 3809 3362 2563 
1935 1889 1277 1440 
1440 1277 1768 1889 
2049 1889 1935 1440 
1440 1768 2122 1889 
2122 1889 2049 1440 
4473 3395 3809 2784 
3144 3809 4473 3395 
224 1916 4997 189 
1999 3353 2763 4154 
1999 2584 3259 1644 
1999 3934 2584 1644 
530 2521 462 1484 
433 4062 462 1484 
530 462 4062 1484 
2667 5208 2412 2489 
439 2689 1491 305 
439 305 1491 619 
1491 2689 2389 305 
1105 1219 3318 3820 
1885 2683 1366 2918 
3354 2129 3139 641 
3439 1219 5134 1105 
2093 2272 3168 2480 
2004 2691 87 3111 
3354 3358 2129 641 
3506 2093 3168 2480 
2389 2137 1929 2005 
2480 3168 3506 3985 
2480 2272 3168 3985 
2096 2185 1994 5111 
2096 3724 219 1994 
2276 1167 2124 5051 
2124 1401 1216 1242 
3820 1219 3439 1105 
3441 2185 2096 5111 
5069 2000 1590 2033 
3397 2380 1983 4354 
2420 4354 1983 2380 
2012 1574 2027 1249 
1574 2012 2027 1890 
1495 1574 2012 2773 
2014 2640 1393 4468 
1518 5112 1627 1505 
1505 5112 1627 1887 
1627 1887 2028 1505 
1518 2590 1505 1627 
3241 1912 1901 1909 
2590 2028 1505 1627 
1595 2991 3080 1923 
2863 1943 3327 1632 
1595 2991 1923 3693 
3274 5206 5146 2018 
3102 2012 2027 3976 
2012 3102 2027 1890 
3274 5146 4487 2018 
4758 69 2817 1532 
2808 3703 4304 3636 
1969 1909 1901 791 
4304 3703 4010 3636 
2466 4223 3361 3878 
1863 3507 1826 791 
3947 2024 5071 4380 
791 1832 3507 1826 
3947 4380 4970 2024 
2857 3073 2708 4453 
2857 2708 4405 4453 
2025 4116 2159 2190 
1718 1507 1750 1759 
1863 791 1882 3507 
1716 1621 1508 1573 
1716 1621 1573 2429 
3507 1966 1832 791 
1882 791 1966 3507 
3052 1986 599 4450 
3052 4450 599 639 
3038 1250 1290 5119 
1250 1290 5119 4046 
1717 2267 1506 1756 
1720 2267 1717 2179 
5119 1250 4046 3374 
5119 2697 3038 1250 
5119 3374 2697 1250 
2254 2036 2232 2789 
2254 2232 2980 1480 
1480 2254 2232 2789 
3467 2232 3909 2254 
3467 2232 2254 2036 
2872 3052 1986 599 
2056 1675 1058 2338 
2026 2717 2056 2514 
4555 3504 2126 2673 
938 2678 2029 3088 
1847 1778 3086 2958 
1057 953 1247 2056 
1498 1759 1507 1691 
1058 1247 953 2056 
2126 3504 4793 2673 
1496 1830 1571 1439 
1580 1498 1507 1691 
2958 1778 3086 1572 
3088 938 5038 5037 
1632 2110 1871 2659 
1653 1492 1757 1753 
1602 5024 3854 4548 
731 2126 4555 3504 
1804 1510 1587 1840 
1804 1510 1840 1802 
751 4793 2126 3504 
1810 29 1766 1945 
1471 1680 1766 29 
29 2065 1766 1945 
1680 2065 1766 29 
1471 1810 29 1766 
2061 170 1541 2460 
1632 1726 3327 2110 
3553 2392 2497 1987 
1653 1482 1673 1753 
1653 1673 1482 1744 
1653 1673 1492 1753 
1653 1492 1673 1744 
2969 2392 1728 2497 
1984 2503 2038 1651 
1984 1651 2038 2878 
1057 2341 846 953 
5043 1481 4036 3883 
1341 1412 2134 1298 
2134 1412 1340 1298 
2233 1412 1340 2134 
2209 1897 1728 3794 
3794 1983 1728 2380 
2209 1728 2380 3794 
3794 3129 1897 2010 
1477 1579 2186 2019 
2620 1579 2186 1477 
210 2186 2620 1579 
210 2698 2186 1579 
2186 1579 29 2019 
2698 2186 1579 29 
3794 3129 2010 1983 
2148 2383 355 1638 
355 2383 2148 1673 
1750 1760 2057 2207 
1968 3055 2207 2269 
1774 3055 2207 1968 
3504 731 2126 751 
4687 2450 2306 1917 
2532 3271 3404 3108 
3150 3404 3108 2532 
2838 1997 3820 2455 
2838 1997 2455 1486 
1997 2910 1486 2838 
3685 2910 1997 2838 
1983 2392 2417 2010 
3392 2392 2010 2417 
3378 3392 2417 2392 
3378 2392 2417 4253 
1983 2417 2392 4253 
3820 3685 1997 2838 
3799 2050 2603 2609 
2438 4252 2057 1390 
1775 1390 2057 3444 
2438 1390 2057 2504 
1390 2057 1380 4252 
2318 4489 2483 4171 
3507 1924 4782 2113 
2504 1390 2057 1775 
4344 3885 2113 2625 
3444 1390 2057 1380 
1441 1496 1571 1439 
4344 2113 4515 3668 
3885 4782 2113 2625 
1333 1334 2054 1836 
3631 3908 2054 2174 
1485 1497 2430 1595 
2118 3165 4865 2373 
1485 1595 2430 1661 
2430 1497 2395 1595 
1661 1595 2430 1563 
2870 1478 1652 1758 
196 2035 193 228 
1652 1478 2870 2643 
1478 1572 2870 2643 
4771 3165 2118 2373 
2056 1247 1335 2569 
2184 1335 2569 2056 
2569 1247 2338 2056 
2838 1696 1486 1763 
1627 1474 2445 1887 
2497 2687 3430 2058 
3553 2497 2058 2687 
256 4058 2234 2465 
3553 2058 4914 2687 
3234 2119 3605 2053 
2910 1696 1486 2838 
2119 3605 4288 3234 
2567 1764 1449 1446 
1774 1764 2567 1446 
486 1875 2092 2716 
402 2716 1875 486 
2252 3333 1606 1592 
1705 3523 1742 2064 
2252 1578 1606 3333 
3523 2591 1742 2064 
4485 544 542 5135 
1875 2092 559 486 
1573 1764 1449 2567 
3124 1340 2233 1362 
2335 4735 2648 2456 
1499 1340 2134 4135 
2134 4135 1340 2233 
2863 2223 1933 1871 
2001 1871 2223 2015 
457 2068 1833 2620 
2068 1833 2008 2849 
2001 1933 2020 2223 
2223 2001 1933 1871 
2863 2020 1933 2223 
2035 228 1960 193 
2135 2072 2071 1906 
2072 2071 2410 2135 
2863 2223 1871 1632 
2223 2015 1871 2110 
2049 1486 1919 1889 
1763 1889 1919 1486 
2168 1542 1486 1889 
1486 2168 1889 2049 
1763 1889 1486 2838 
1765 1470 1586 1549 
1765 1586 1667 58 
2626 1924 1933 1883 
58 1765 1586 1549 
1765 1586 1470 1727 
1765 1586 1727 1667 
4596 1924 1933 2626 
1827 2035 196 1916 
2072 2431 3608 2733 
1696 2910 1486 1505 
2910 2258 1486 1505 
2225 3596 1955 1403 
2110 1726 3327 1981 
3445 2225 3718 2292 
3355 3985 2140 3164 
2868 2825 2140 3974 
3164 3985 2140 3974 
2225 1439 3596 1403 
3963 2040 1822 3509 
2386 2787 2449 4145 
3718 2225 1955 1403 
2449 2787 2386 2566 
2562 2386 2787 2566 
360 352 2460 2061 
2758 2386 4145 2787 
3509 2040 1822 3793 
5092 2074 3891 2676 
2382 2216 29 2033 
5080 4179 4384 2846 
2033 2186 29 2019 
2216 2033 2186 29 
4179 4757 2846 4033 
5080 4624 4179 2846 
439 160 2689 305 
3309 1003 2925 3818 
1003 994 2925 3818 
3663 1126 3795 1979 
1979 2241 1126 3795 
3795 2241 1126 2656 
3795 2656 1126 3134 
3663 1126 3134 3795 
2387 2656 2076 2094 
2387 2774 2094 2076 
1885 3568 2774 2076 
2656 2624 2076 2918 
2204 47 3291 3001 
1931 4729 4299 4559 
4384 2846 4179 4757 
4624 4033 4179 2846 
2778 2152 3104 310 
335 3104 2152 3023 
2206 295 4475 2152 
2251 2996 2161 1831 
3106 2161 1831 2251 
3106 2432 2251 2006 
1936 3806 3126 3153 
3806 3122 4657 181 
1765 2139 1549 58 
1634 2139 1765 58 
1634 1765 1667 58 
1751 2219 611 477 
477 2219 516 1751 
327 516 477 2219 
143 3079 2221 113 
2080 3657 2763 3353 
3297 143 2221 113 
2080 3353 2763 1999 
1574 2012 1890 4686 
4686 2601 2012 1779 
1779 2012 4686 1890 
224 2035 2108 231 
1495 2601 2012 4686 
1574 1495 2012 4686 
5135 2121 3563 3781 
4293 4043 2164 2083 
2972 4043 2083 3566 
224 2035 1916 196 
1877 2087 5127 1166 
439 2689 160 1835 
1468 2401 2013 1998 
4686 1998 2013 2401 
4686 1998 5114 2013 
5127 2087 3814 1166 
4144 2087 3388 3814 
2068 2620 210 1676 
1573 1509 1665 1609 
1509 2394 1665 1609 
1509 2394 1609 2385 
1449 1509 1573 1609 
1833 1676 1590 2620 
2781 1649 1614 2290 
2132 1614 2290 2781 
2582 1649 2290 1614 
2290 1889 2063 1542 
2290 2063 1889 2132 
1390 4252 1432 1434 
3364 5101 3763 1693 
1679 2217 2737 2402 
1679 2402 2737 2254 
1074 1171 2215 3464 
2254 2529 5053 3078 
3177 3009 1380 3444 
2100 1074 1171 2215 
2258 2450 2306 2866 
1505 1917 2306 2258 
1917 2450 2306 2258 
3177 1380 1390 3444 
1505 5114 1917 2258 
3354 1487 2974 2129 
1505 5114 2258 1486 
4239 2249 2053 2165 
2129 1487 2974 3542 
2124 1216 1401 1294 
2158 2220 3680 2202 
1764 2478 1446 1620 
4401 2165 3735 763 
2184 1430 1335 1371 
2226 1430 2184 1371 
2158 3257 2220 2202 
3189 1705 2296 3523 
2053 3735 4239 2165 
3624 2195 2202 2220 
1543 2131 1539 1813 
1579 29 2115 2698 
3257 2195 2220 2202 
2202 2220 3680 3624 
29 2115 1471 3402 
2002 1579 1739 2115 
1579 2115 2002 2698 
1471 2115 1739 3402 
2094 2774 3568 2076 
2094 2101 4157 2277 
2774 2101 2094 2277 
1842 2485 2095 2063 
2063 2485 2095 2838 
2095 2485 3685 2838 
2243 2485 3685 2095 
5075 1543 2270 1769 
1834 4754 5069 2556 
1625 1470 1758 1624 
1625 1470 1624 1888 
1624 1470 1557 1888 
1624 1470 1766 1557 
1624 1470 2398 1766 
1600 182 2641 2353 
4801 2353 182 1551 
2353 1551 1600 182 
2641 2353 182 4801 
3686 1884 3114 2792 
1138 1002 1078 1178 
23 5075 1834 20 
23 2334 1834 5075 
2097 2215 4415 3281 
1078 961 1002 1138 
2087 961 1138 1002 
2087 1002 1138 1711 
2601 1495 2012 4064 
1495 2773 2012 4064 
1711 1138 1178 1002 
2110 2015 1871 2659 
3524 2015 2223 2110 
4596 2015 1940 2001 
4074 2001 3524 2015 
821 2235 3542 4464 
1940 2015 2659 1871 
1834 5075 18 20 
2467 3751 2897 3542 
1401 1242 2124 2276 
2272 2180 3168 2868 
1446 450 2156 1449 
2155 2832 2605 2180 
3985 3168 2868 2272 
1764 1449 1446 2478 
2180 2670 3547 2832 
3004 3208 3822 2182 
2258 5114 1244 1779 
3946 2149 658 789 
2930 1649 1542 2104 
2689 2052 160 1835 
2052 2951 1835 2689 
2104 2930 1649 3872 
2419 3363 2182 3233 
789 938 3946 2149 
845 3208 2182 3233 
1391 1614 356 2241 
1614 2102 1391 356 
1651 2177 1627 316 
1970 3242 3286 3524 
1953 1970 3524 2432 
846 2341 1057 1120 
1120 2341 1161 846 
2248 2884 2722 2172 
1627 2177 2445 316 
2248 2965 2172 2341 
351 1549 1766 259 
5156 2450 4687 1244 
1759 1750 1760 1498 
1498 1580 1507 1750 
1759 1498 1507 1750 
1498 1750 1760 2057 
3560 1489 2166 2003 
2438 1750 1498 2057 
1497 2117 2411 1776 
1553 1502 3795 2624 
1497 1776 2411 3962 
1553 3795 1816 2624 
3795 2241 2656 2624 
1614 2132 1768 2163 
1614 2132 2290 1768 
1614 1851 2582 1649 
1614 2582 1391 2290 
1502 2241 3795 2624 
2107 2153 1923 1595 
2107 4303 2755 1657 
2107 3309 2395 1657 
2398 2246 1471 1766 
1597 1548 18 3402 
29 18 3402 1597 
1912 791 1821 1901 
2292 2225 3718 1403 
2107 1657 2755 3309 
2107 4303 1657 3693 
2107 3693 1595 1923 
2096 3724 1994 2185 
2292 2437 1403 3718 
1922 1306 2455 1779 
3441 3724 2096 2185 
1779 1997 2455 1922 
2185 1994 3472 3724 
2037 1744 2427 2167 
1653 1744 2427 2037 
2427 2167 1561 2037 
486 559 2109 3053 
1912 791 1901 1909 
3715 2995 2313 2962 
2962 3715 2995 2060 
2962 4378 2313 3715 
869 1995 2196 1915 
4515 3953 4791 4737 
869 3731 1915 2196 
3309 1975 2153 2395 
1497 1975 2395 2153 
2146 4121 1923 4563 
1673 1492 2201 2630 
1581 1992 1718 1533 
1507 1533 1992 1546 
1497 2153 2395 1595 
1562 2430 3532 1973 
2430 1537 3532 1973 
2737 2530 2359 319 
1581 1554 1466 1464 
1607 1554 1581 1464 
1551 316 799 2135 
2295 2409 2160 3132 
2160 2409 3846 3132 
1883 4515 2198 3764 
799 1551 2135 452 
3764 2198 1883 561 
4686 450 1998 2401 
1980 2198 3764 561 
2401 450 1998 1468 
177 2311 4052 2677 
119 1790 1792 1844 
2502 1844 119 1792 
4447 3343 2808 4304 
1631 1638 4741 2502 
4447 3343 3176 696 
4160 1986 3052 4450 
4160 4450 3052 639 
2258 1917 2450 1244 
1505 2306 1917 5113 
2584 3934 1976 1644 
2866 1505 1575 2306 
1644 3406 1976 2584 
3906 4160 3052 4551 
1575 1505 5113 2306 
2258 2306 1505 2866 
2580 2302 1524 3090 
2580 1524 1873 3090 
2258 2866 1505 2339 
2532 3150 3404 2205 
3717 2532 3404 2205 
3264 2325 2205 3606 
3717 2532 2205 3606 
2309 2122 2199 1440 
75 1472 1515 1593 
1494 2940 2310 1511 
1494 1511 2310 1518 
2590 1518 1494 2310 
1227 1284 1252 4180 
1561 2069 1754 1489 
4011 2590 1494 2310 
2458 2587 2728 2257 
4758 2817 69 1725 
2728 2549 2257 2587 
4758 5070 2817 1725 
552 3861 548 507 
552 3861 601 548 
2353 1864 3138 2671 
3138 1864 3708 2671 
3446 2869 2206 4475 
3374 2906 1392 5029 
791 1909 1912 2073 
3161 791 1912 2073 
559 1926 658 2423 
5114 1998 1779 1486 
2723 2869 2152 2206 
4795 3018 227 3081 
2258 5114 1779 1486 
1998 1779 1486 1812 
2503 1627 2310 1651 
2503 1627 3267 2310 
1486 1812 1779 2455 
4475 2869 2206 2152 
2023 3179 2617 2206 
739 2121 2081 853 
2446 2803 4762 4782 
2073 3161 791 1961 
4234 5110 3806 3013 
2263 1772 2944 1744 
2382 2216 2033 1590 
1716 1508 1718 1581 
1607 1554 1716 1581 
3962 2153 3096 1975 
3327 3524 1981 1953 
2153 3096 1975 3309 
3710 2803 4762 2446 
1580 1646 2748 170 
1750 1774 1968 1508 
433 3345 462 4062 
1754 1746 2178 1489 
2069 1489 1746 1754 
1489 1746 1911 2632 
1911 1489 2178 1746 
4682 433 4246 3345 
1493 3429 2546 3042 
4682 433 3345 462 
3042 2316 2546 1493 
4071 3560 2166 2003 
2171 3635 4226 2260 
3247 2123 4380 5162 
705 3331 2546 796 
2546 3429 3331 705 
433 4062 2738 3345 
433 2738 4246 3345 
2156 4686 450 1495 
1495 4686 450 2601 
2156 1495 1574 4686 
2048 2410 2135 2692 
1966 1882 1907 1969 
1580 2438 1646 1750 
1914 3242 1970 1850 
1507 1750 1580 1646 
88 1903 1864 2353 
64 1480 1864 88 
4371 2213 2494 596 
3677 2786 1438 4136 
64 3162 2328 1864 
64 1480 3162 1864 
2494 2213 2981 4858 
1970 1914 3286 3242 
2213 567 596 3362 
75 1515 355 1593 
1593 1515 355 1663 
1479 69 1951 2128 
69 1951 2128 2299 
1479 69 2128 2459 
1966 1969 1907 1901 
3362 2213 4371 596 
2299 3936 3222 1677 
2213 596 567 2844 
4342 456 3361 2214 
2433 1374 1580 2504 
4342 451 456 2214 
2214 456 3361 520 
456 2214 451 520 
1691 1498 2433 1580 
2504 1580 2433 1498 
4993 231 1899 2035 
1842 2095 2930 2063 
1455 352 1541 1534 
1842 2736 2485 2063 
4121 2130 1776 2364 
1515 1663 1514 1513 
1776 4121 3080 2130 
2130 2388 1776 2364 
3080 1776 2130 2388 
1773 1794 773 390 
4077 3162 1512 2585 
2057 2278 1908 1985 
2863 2374 2020 2223 
2253 513 2059 2630 
1985 1380 2057 2278 
2582 1542 2168 2290 
1908 1985 1760 2057 
1760 1985 1568 2057 
3444 2057 1568 1985 
3444 1380 2057 1985 
3327 2374 2863 2223 
2863 3327 2223 1632 
5020 5140 1763 4697 
5053 2402 3078 4691 
5053 3072 2402 4691 
2402 1948 3078 4691 
2099 1430 1359 2136 
1359 2099 2136 1228 
1672 1564 1881 747 
2402 3072 3045 4691 
5158 1359 5142 2136 
2136 1359 5142 1430 
2402 3045 1948 4691 
4696 793 2645 2607 
2227 2905 3508 2531 
4496 4791 2227 3462 
2227 2949 4496 3508 
2227 1822 2531 4773 
4871 2227 4773 1894 
2607 4696 4151 2645 
2519 2004 2331 5045 
1824 4993 231 1899 
1894 2227 2079 3043 
3440 2276 1242 1210 
1167 1242 2276 2124 
1167 5051 2276 1918 
2374 1841 2020 3016 
3138 2328 3449 3708 
3449 2218 3138 3708 
2338 2056 1247 1058 
2479 1952 2084 1942 
1779 3102 1890 2192 
1779 2192 1890 1244 
1690 1988 1893 1755 
1774 2567 2525 1446 
1689 25 1469 14 
1774 1764 1573 2567 
2189 2826 1851 2154 
3327 3016 2374 2223 
4953 212 4896 175 
3043 2227 2079 3793 
2192 2258 1244 1779 
1080 1143 1177 4224 
4814 5172 4731 4362 
3693 1767 1657 5208 
2035 228 1899 1960 
3078 3214 2529 5053 
1756 2429 1665 1502 
1716 2179 1756 1665 
4362 2272 2605 2093 
1665 2462 1756 1502 
2179 2267 1756 1665 
2167 1489 2193 2667 
2744 2667 2193 1489 
1870 153 2789 3214 
2744 2340 2193 1767 
2358 1947 936 2086 
2358 1729 1947 2086 
1958 1729 1947 151 
2944 3560 2193 1489 
151 1947 1958 1545 
1767 2193 3560 2340 
3824 4494 3383 380 
4494 3594 3383 380 
1627 2445 2177 1740 
2061 2460 1580 170 
3107 4921 4033 3387 
4057 3107 4033 3387 
3317 1836 2174 2452 
5029 2558 1389 2593 
2800 1870 1859 2610 
4179 2245 4757 4033 
1389 2558 5029 2906 
4179 2673 2245 4033 
2673 4921 2245 4033 
2245 4921 3319 4033 
4194 865 4645 2249 
4645 2249 865 3003 
224 196 1916 189 
4101 3663 1133 1068 
3138 1600 2671 3100 
1619 2179 1717 1756 
3944 2442 2162 3331 
2777 2442 2162 2623 
2179 2267 1717 1756 
4881 552 507 3861 
304 2083 1879 563 
304 4424 1879 3585 
438 2164 3585 2083 
2083 3585 304 1879 
2925 3444 1390 1775 
3060 4466 3624 2202 
3624 3060 2697 4466 
2479 706 1952 1942 
2115 29 1810 2698 
1834 2334 1762 5075 
2977 3041 2256 2237 
2227 3793 1822 2079 
2169 2883 1363 1382 
2040 2079 1822 3793 
994 1035 3177 3444 
1954 1567 356 1502 
1599 1958 1485 2388 
1730 2168 2122 1391 
1815 1958 1485 1599 
2168 2049 1730 2122 
1485 1815 1599 3080 
2722 2172 2884 2718 
1035 994 1004 3444 
2361 2422 2173 3497 
29 3402 18 1579 
2422 2173 2817 2098 
2361 2173 2266 2739 
2817 2173 2559 2098 
2739 2266 2559 2173 
1417 3631 2054 2174 
3224 2226 2174 1417 
326 151 1531 1570 
2054 1836 1417 2174 
2174 2226 1836 1417 
1417 3631 2174 3224 
224 4993 2035 231 
1817 1859 2045 2610 
2344 4006 4534 3200 
224 231 251 4993 
2282 2045 1817 1859 
1906 4006 2344 3200 
2282 2045 3973 1817 
4649 2176 945 4516 
945 2009 1078 961 
2085 1599 1921 2947 
643 2414 1441 2786 
945 1078 2009 2415 
934 961 4649 2176 
4778 2337 4599 3765 
4649 945 2176 961 
961 2009 1078 1002 
1776 2293 2364 3962 
196 2035 228 2108 
1628 1942 2084 1638 
224 2035 196 2108 
1449 1573 1509 1764 
2714 4239 2165 2249 
4717 4641 2165 2871 
0 2 1557 1781 
1548 1785 4 1783 
2279 1786 10 1469 
846 2365 2103 2250 
4209 3823 1219 1922 
1787 1589 12 1472 
2103 846 2248 2365 
2365 4043 3977 3970 
1322 1368 3337 3445 
1789 15 1469 126 
1786 1469 15 126 
3337 3445 3681 1322 
1967 1606 2457 3333 
1787 1788 1472 16 
1737 2086 1623 1605 
1219 3823 1306 1922 
1790 27 75 1472 
27 1788 1472 1790 
883 3404 5032 901 
1791 1545 1874 1605 
1968 1446 3055 2269 
75 118 1790 1792 
3404 4182 4740 883 
1791 388 1874 1793 
1555 1793 388 771 
1794 2501 1617 390 
771 1184 1556 1795 
5032 883 4182 3404 
2066 1796 1798 1186 
1814 1442 3493 1799 
1442 3493 1799 1801 
2683 3686 1885 1366 
1510 1800 1444 1618 
1879 2188 2982 3033 
4362 2155 2605 2272 
1879 2188 3033 4043 
4043 4419 2188 2365 
1366 1885 3311 3686 
1532 2422 3299 2817 
2422 2381 2098 1532 
1546 1805 1803 1458 
1532 2098 2422 2817 
3299 2381 2422 1532 
2155 2180 2605 2272 
2155 2486 2180 2272 
1552 1466 1807 1462 
1554 1607 1808 1464 
1806 1808 1607 1464 
3144 4473 4629 3395 
2155 2486 2272 2203 
4906 4448 3395 4629 
934 961 2176 2087 
3388 1166 2087 2176 
2191 3910 2799 2437 
2148 706 1942 1769 
1682 1769 2131 706 
1769 2142 2148 706 
3487 1769 1682 706 
3487 706 2142 1769 
102 121 1810 3056 
2520 2266 2382 5069 
2520 2266 5069 2468 
4448 3395 4629 4278 
3144 4629 4906 3395 
1705 3523 2064 2296 
3044 4199 5190 1704 
391 2502 1794 286 
2501 1773 390 1794 
4199 3835 5190 1704 
1953 3327 2425 1981 
1929 1897 1728 2209 
2264 2634 2542 4507 
1811 1515 75 1825 
355 1753 1515 1811 
75 1811 355 1515 
2380 1728 2209 1910 
3225 2380 2209 1910 
1845 2063 2930 1649 
1845 2063 1842 2930 
3136 1981 2425 1858 
3544 2197 4852 1918 
1755 2870 1652 1758 
4629 4278 3395 4473 
1628 356 2084 2479 
1671 182 1843 2641 
2290 2168 1391 1889 
2122 2168 1889 1391 
2168 1889 2049 2122 
2290 1768 1889 1391 
3449 2218 1951 2641 
2122 1768 1391 1889 
1671 2448 1843 182 
3936 3739 1843 2218 
1430 1359 1429 3224 
1671 3739 1843 2448 
1429 1359 1293 3224 
2511 1492 1954 1979 
3613 3985 560 3506 
572 2540 505 577 
2540 2890 505 577 
3910 2437 3445 3718 
2540 4280 3594 2611 
3985 560 3355 3613 
1449 2499 2301 1468 
1449 2301 1448 2385 
2385 1578 2301 1448 
364 3307 410 321 
322 800 3426 1813 
2815 4820 2200 4089 
2203 3985 2356 560 
3307 364 410 495 
1769 1483 355 2148 
1483 1673 355 2148 
3442 2958 3014 2576 
2085 1729 2075 2055 
3349 1572 3442 2078 
3349 1572 3014 3442 
2085 1921 2229 2055 
88 2353 2145 4801 
2177 1651 1984 2089 
2203 3985 560 3355 
4473 497 545 3809 
3985 2356 560 3506 
1778 1815 2229 1476 
2926 3809 545 497 
2784 545 3416 4429 
3086 1778 1476 1572 
1778 1476 2229 3086 
5208 1476 1815 1778 
5208 1476 1778 1572 
2029 2238 1641 2300 
1690 1476 1737 1988 
2229 1815 1988 1476 
1690 1737 1560 1988 
1516 1773 270 1674 
1603 2565 1670 5117 
1622 2565 1670 1603 
2068 2620 413 210 
1670 2565 3432 5117 
5118 2565 3432 1670 
1641 2238 1137 2300 
1466 1552 1581 1462 
1581 1552 1992 1533 
2347 2224 1923 2107 
1718 1507 1992 1750 
2107 2153 1595 2395 
2601 1779 1998 1812 
1812 2601 450 1998 
4347 5034 1641 2300 
4347 1641 1137 2300 
2753 2029 5036 2300 
3858 1880 2816 3781 
2520 5107 1854 2468 
486 3053 2109 5169 
1745 1603 1640 1996 
1682 1745 1640 1996 
2471 1745 1682 1996 
2753 5036 5034 2300 
2057 4252 2438 2207 
2816 1880 3245 3781 
3663 1133 1068 4235 
2438 2269 2391 2748 
2053 831 763 2165 
763 3735 2053 2165 
3735 763 2053 2911 
3275 4404 3265 2315 
795 2177 1071 1740 
2070 1765 1810 2246 
327 3285 465 516 
2307 4151 2405 1675 
3170 2405 3502 1162 
2569 1162 2405 2647 
327 516 2219 3285 
4404 3119 2990 2315 
1425 1800 1606 1618 
1675 3113 3012 2208 
2607 1675 2208 3113 
1675 3012 2823 2208 
1425 1606 1608 1618 
2595 1675 2823 2208 
2444 3982 4241 2239 
3982 2820 4241 2239 
2148 1673 706 2142 
1673 3611 706 2142 
2589 4952 5081 4811 
706 1673 2228 3611 
2212 5042 1479 1526 
2709 2374 4496 2863 
1479 5042 2212 2459 
1838 2172 1897 2341 
2761 2212 1479 1873 
2584 5156 4687 5044 
1838 2341 1897 1491 
1873 1479 1526 2212 
1479 2459 2212 2761 
1880 969 892 2081 
2189 1614 1851 1979 
2189 1851 1614 1649 
3610 1880 2081 969 
5098 2709 4496 2863 
2081 969 892 853 
1614 2241 1851 1979 
1614 2582 1851 2241 
3678 2359 3231 273 
247 3678 273 5046 
1724 3068 2555 3487 
2781 1649 1724 3068 
2555 3068 1724 1649 
656 559 1852 1926 
3976 2741 2027 3102 
1926 1852 656 788 
1607 1544 1808 1806 
1431 1418 3452 1399 
1607 1544 1554 1808 
2741 3976 1413 3102 
3115 1481 2737 2217 
1679 2737 2217 3115 
2217 2317 3072 3732 
3115 1481 2217 3732 
2189 2826 798 1979 
1973 1797 1547 1795 
1556 1795 1973 1547 
3123 2189 798 1979 
3138 2218 1671 1949 
2511 1954 2841 1979 
1954 2841 1979 1502 
3299 2255 2757 2422 
2925 1390 1345 1330 
2218 1671 1843 2641 
2218 3739 1843 1671 
2255 2422 2361 2757 
2361 2422 2098 2173 
2925 1345 1390 3177 
2218 1671 2641 3138 
2177 1627 1740 1651 
1651 1627 1740 2503 
2580 2105 3661 2302 
1425 2066 1186 1608 
2925 1345 2613 1330 
2925 2613 1345 3177 
151 2388 2261 326 
1599 2261 151 2388 
3463 3264 2532 2378 
3982 3325 2686 2820 
1946 4712 658 5138 
3614 4712 2937 5138 
3264 3150 2205 2325 
2205 3356 2325 2819 
2205 2819 3514 3356 
2636 1590 3347 2382 
1825 118 27 75 
1627 2028 1681 1740 
2934 3721 3213 2105 
1627 1887 1681 2028 
2325 4717 3264 3150 
2347 2146 1923 4563 
1067 2224 3962 2293 
2224 1776 3962 2293 
3721 2105 5166 3213 
2329 2386 2449 4145 
1724 1745 1842 2063 
1599 1815 1958 2229 
1599 2229 1958 1729 
2085 1599 1729 2229 
1745 1842 2063 2736 
2449 2386 2329 2566 
2459 5042 2212 3836 
2562 2329 2386 2566 
1745 1842 2736 2319 
2758 2329 4145 2386 
1774 2525 3055 1446 
2562 2740 2887 2386 
2887 2740 2758 2386 
3598 3927 2887 2663 
2663 2025 2159 2190 
3574 1939 5041 3978 
4145 2663 2159 2190 
450 2567 1655 1468 
2758 2663 4145 2190 
1973 1547 1537 3532 
2089 316 3450 2177 
2089 795 3450 2346 
1009 965 2230 1026 
1009 2230 5040 1141 
1779 2192 1329 3102 
572 2540 577 670 
577 2540 672 670 
1652 1739 1839 1478 
1739 1839 1604 1652 
1779 2258 1989 2192 
1604 3402 2453 1513 
672 577 2969 2540 
2448 182 1671 2089 
2089 1651 2448 182 
2448 1651 2940 182 
2230 5040 1167 5127 
2230 5040 1141 1167 
2230 5040 5127 1877 
2232 1480 1903 4237 
3676 3463 957 2333 
1480 2232 1903 2789 
5021 2980 2232 4237 
2438 2391 1437 2748 
2483 1891 159 2138 
1754 2178 2037 1489 
1653 1492 2037 1754 
2037 1489 1561 1754 
2274 2564 2408 2281 
2483 4489 2465 4171 
2803 4780 1860 4074 
2274 2661 2281 2512 
3335 2235 3751 3542 
1590 1676 2216 2186 
2216 1676 3475 210 
1531 2041 1547 3532 
326 2364 2117 2388 
2301 1609 1468 1391 
1531 1535 1547 2041 
1730 2301 1468 1391 
3335 923 3751 2235 
1730 1468 2168 1391 
2727 3683 3140 4290 
3463 2664 957 2333 
1776 1497 2153 3962 
1604 1471 1624 1839 
2398 1471 1839 1624 
3088 1641 5036 2029 
2727 3066 4290 3140 
2045 3973 2434 2282 
2383 1753 1811 1516 
1638 2383 355 1811 
2444 2397 3982 2239 
2383 1753 355 1811 
3334 1840 3796 2475 
2727 2899 3066 3140 
1804 1840 1587 2724 
1802 1840 2147 3522 
1804 1840 2147 1802 
2239 2657 2444 3149 
2257 226 247 201 
2339 1505 2258 2910 
5144 5051 1918 1416 
2720 3054 2975 2986 
1451 1803 1534 1455 
1799 1443 1801 2125 
3493 1799 1801 2125 
490 546 1944 3099 
4569 13 1589 20 
1788 17 4569 28 
1790 1788 1844 28 
546 2166 1944 3099 
1802 2286 1846 3522 
1846 2236 1800 1606 
3333 1846 1606 2457 
1800 2286 1846 1802 
3333 1846 2583 3334 
247 2728 2257 2458 
1170 316 2692 799 
799 2692 2135 316 
4780 3242 4074 3941 
1965 2048 2666 1170 
3723 4081 2986 2855 
1696 5114 5112 1505 
5112 5113 1505 5114 
1696 5114 5020 5112 
3327 1981 3524 2110 
1600 1949 3870 3100 
4780 3242 1860 4074 
3524 2432 2015 2110 
1740 1627 4254 2503 
2503 1627 4254 3267 
1627 1740 4254 2028 
1396 1375 1372 1500 
2974 3542 1487 3118 
4254 2590 3267 1627 
1600 3141 3100 3870 
2590 4254 2028 1627 
3118 3561 3486 1487 
1553 1760 1908 1985 
1500 1372 1310 1375 
2974 3561 3118 1487 
3494 1752 71 1691 
1568 1760 1553 1985 
2070 2608 1853 1765 
2052 3119 3012 3254 
1548 1597 9 5 
3071 3736 1348 1345 
2790 3071 1345 3736 
1942 1628 706 2148 
706 2479 1628 1942 
3257 2304 2834 2202 
706 2148 1628 1673 
706 1673 1628 2228 
706 1628 2479 2228 
4561 4024 2743 1732 
5086 2503 2310 2038 
2038 2503 2310 1651 
2055 1853 2978 3086 
2055 2665 2557 1853 
695 2209 2717 641 
4326 3073 2342 2513 
2250 2365 3977 618 
2365 563 618 2250 
2513 2342 4326 3974 
2825 2342 3974 3884 
2248 846 2103 1119 
2343 3911 4194 856 
2343 856 4194 868 
2328 3092 64 2043 
3092 2328 64 3162 
1576 1187 1650 774 
1650 1576 774 286 
429 2253 1772 413 
429 2253 3099 1772 
2908 2454 3907 999 
2878 2038 2373 2940 
1838 1728 1929 1897 
2188 2172 3682 1838 
469 2067 4700 4726 
1687 3242 1850 1970 
4700 4726 2637 469 
1530 291 1554 1508 
1552 1508 1530 1554 
2761 5107 2559 3213 
29 2065 1583 1680 
1581 1554 1508 1552 
1555 1556 1562 3532 
1562 3532 1485 1555 
1881 1548 1564 3402 
3213 1854 2559 2676 
2761 3213 2559 2031 
1624 1471 351 1766 
2031 3213 2559 2676 
2559 3213 5107 1854 
1431 1418 1399 1436 
2259 2756 4821 4725 
2259 3394 2756 1845 
2259 3549 3396 3787 
4160 4560 3710 2298 
2348 543 3456 3430 
3456 2348 4326 543 
2637 2260 177 3365 
1804 2724 2372 1457 
2028 2339 2590 1505 
1878 373 2637 3126 
2171 3126 2260 2637 
2028 2339 4254 2590 
1937 1060 5130 5035 
1804 1840 1457 2147 
5130 1060 1937 5127 
1804 1840 2724 1457 
937 4605 1065 2579 
4790 2200 2262 4089 
159 1862 2138 1891 
2203 3985 2480 2356 
2203 2356 487 3143 
1561 1550 2069 2489 
1550 2069 1568 1715 
1550 2489 1568 2069 
1478 2070 1810 2246 
3120 2870 1853 2070 
3985 2480 2356 3506 
2815 4089 3384 4173 
1478 2070 1758 2870 
2467 3435 3751 3335 
1929 2634 2264 1910 
2264 1929 1910 3225 
3118 2467 3486 2897 
3542 2897 2467 3118 
3216 160 2311 2303 
2138 2602 4532 1929 
3335 3542 3751 2467 
3257 1895 2304 2202 
2602 2634 2264 1929 
3486 2467 3435 2897 
1891 1862 2138 1964 
2694 2025 2159 2663 
4145 2694 2159 2663 
1964 2138 4215 1862 
2206 3320 3446 2981 
5080 2760 3360 3964 
4858 3320 2981 2638 
2261 2388 2364 326 
3212 1571 2445 1273 
3944 1493 3394 2442 
3212 2445 1071 1273 
3123 2228 1979 2201 
2939 2353 1551 3141 
1273 3419 2445 1071 
1273 2445 3419 1571 
4006 1906 3422 3200 
3216 2311 4052 2303 
3611 2228 3123 2201 
3611 3123 798 2201 
979 3400 2901 3125 
2255 2361 2240 1732 
2844 3320 2981 4858 
1499 3125 3400 979 
1757 1567 1954 1566 
1566 1756 1567 1502 
2677 2311 4052 3216 
2981 3320 3446 2638 
1844 1472 75 1593 
1844 4741 1593 75 
2206 2981 2844 3320 
2005 2138 3216 4215 
1493 2360 3394 1842 
2389 3216 2005 2138 
2442 1493 3394 1842 
2630 2263 1482 1744 
2360 2095 2141 3709 
2581 2006 2432 3106 
3123 1979 798 2201 
1436 1418 5142 1430 
1399 1418 5142 1436 
1581 1552 1533 1462 
5142 1418 1399 2770 
5142 2569 1418 2770 
2581 2432 2393 3008 
2943 2006 2432 2581 
2569 1430 5142 1418 
1367 3071 1348 1345 
2408 3578 3933 2271 
2564 3578 2408 2271 
123 3521 195 4052 
1367 3071 1345 2790 
2943 2432 2393 2581 
1685 3392 2735 3688 
2145 2353 2641 4801 
3864 3688 1685 2735 
2581 3106 2432 3008 
1336 2291 2338 2444 
2291 2307 2338 2444 
2075 1737 2557 2055 
2915 1367 2790 3071 
637 2396 634 553 
637 712 634 2396 
2275 2510 150 2331 
2275 2331 2090 2861 
1484 2777 3498 2738 
1484 2777 2162 3498 
2774 2277 2094 3568 
3575 2366 3741 1972 
1972 2366 3930 3612 
3575 4527 3741 2366 
1846 1445 2236 2457 
1846 1445 1800 2236 
3333 1846 2457 1445 
1646 1968 329 1992 
1646 2438 2269 1750 
2366 4527 3930 3612 
3001 2463 2204 81 
2084 1942 1631 1638 
286 2084 1631 1638 
1576 1828 2084 270 
2084 1576 270 286 
1457 1461 1577 2372 
2163 1277 1889 1768 
2463 3079 81 2221 
1638 2501 1811 75 
355 1638 75 4741 
1844 2502 119 4741 
1638 75 4741 2502 
2774 2277 3568 2621 
1840 1578 1510 2088 
2088 1578 1510 1720 
1720 2385 1578 2394 
182 1651 1809 2089 
2192 2450 2258 1989 
2258 2450 2866 1989 
1779 1900 2258 1997 
2258 2339 1997 1900 
1638 1773 1811 2501 
286 1773 2501 1794 
2091 1585 1691 2460 
2345 2091 1975 2433 
3790 1429 3224 1430 
4278 393 2367 375 
4278 2367 392 375 
2388 1776 2117 1485 
1776 2117 1485 1497 
449 4494 3601 2369 
1487 3435 2467 3335 
2207 2278 1908 2057 
1968 1508 1764 1530 
3118 1487 3486 2467 
1750 1968 1992 1508 
1968 1620 329 1530 
2057 1380 4252 2278 
3080 1485 1776 2388 
3542 2467 1487 3118 
3335 3542 2467 1487 
3486 1487 3435 2467 
449 2369 397 4494 
4280 449 2369 2611 
2280 4101 1068 3663 
2280 3663 1068 3163 
2793 3454 2280 1068 
2793 4101 1068 2280 
449 2369 3601 4280 
1441 643 1496 2414 
449 3967 2369 2611 
2289 2089 2346 795 
3826 2769 3549 3180 
2280 3163 1068 3454 
2104 2582 1542 2387 
2635 795 2289 2346 
2104 3075 2154 2387 
2817 2468 5070 4758 
2556 2098 5069 2266 
1532 2098 2817 4758 
1765 1727 2517 1667 
1812 2774 3479 3172 
3172 2101 2387 2774 
1649 3485 2154 2104 
2104 3872 1649 3485 
3444 3177 2925 1390 
3075 3485 2104 2154 
3309 2755 3818 1775 
3872 3485 2104 3075 
2099 1430 2136 2569 
2102 1828 1576 1592 
1952 2102 2084 1576 
2084 1828 1576 2102 
2584 5156 2450 4687 
2630 1482 1483 1673 
1516 1954 1567 1647 
1628 1954 1516 1647 
5166 2105 4301 3699 
2114 5045 3111 1876 
2106 1737 1727 1690 
1758 1470 1690 2487 
3236 5045 2114 1876 
1765 2517 1727 2106 
2374 3016 3327 3508 
2487 1470 2106 1765 
5045 2004 3111 1876 
2519 1876 5045 3880 
3880 1876 5045 3236 
4515 4496 2949 2374 
2261 1599 151 2947 
2525 1885 2567 2683 
4496 2949 2374 3508 
5151 5132 4969 2082 
2683 3686 2525 1885 
1885 2525 3311 3686 
4055 4461 3249 1381 
3736 2710 2843 2915 
2102 1592 1391 356 
1391 1592 2418 2252 
1391 1592 2252 356 
995 2710 3736 981 
1893 1988 1815 1755 
5208 1476 1755 1815 
1937 1216 2124 1294 
355 1769 2322 4741 
2322 1638 2148 355 
4767 2285 555 3141 
355 2148 2322 1769 
355 2322 1638 4741 
3736 995 2843 2710 
1828 356 2084 270 
2102 356 1828 1592 
2084 356 1828 2102 
1614 1768 2290 1391 
4939 3710 4160 4762 
2379 4896 166 2936 
1911 801 2280 3663 
1568 3250 1985 1553 
3783 2966 3323 3067 
4759 179 2379 4455 
2379 4412 4896 2936 
1727 1586 2279 1469 
2966 939 4521 792 
1560 1737 1727 1469 
2428 1727 2279 1469 
4057 4360 2222 4125 
3883 4057 4690 2592 
1128 1075 3595 1086 
1840 1448 2088 2963 
2475 1448 1840 2963 
1840 1448 1578 2088 
3334 1578 1840 1448 
3334 1840 2475 1448 
4173 4518 2375 2766 
2598 3710 4160 4939 
3450 2177 316 1071 
2379 162 166 190 
4939 2446 2598 3710 
2744 1489 2193 2340 
795 3450 1071 2177 
2177 1071 2445 316 
316 1071 2445 2658 
2658 316 1071 2431 
316 2431 3450 1071 
2340 2193 3560 1489 
2340 1489 2003 2441 
1612 2086 15 1656 
1656 1623 2086 15 
15 2086 26 1623 
1489 2744 2441 2340 
2340 1489 3560 2003 
1449 1448 2301 2499 
1780 2983 1957 4978 
3195 1484 3893 705 
3343 1484 3195 705 
1957 2983 4049 4978 
2885 1745 1520 2352 
2983 3580 4978 1904 
3432 1582 1520 2565 
1812 2774 3172 2387 
2286 1445 2583 1453 
1565 1006 2141 3709 
1006 4719 2141 3709 
3063 4719 2141 2707 
3033 2341 2172 1838 
1491 2137 1929 2389 
1468 2567 1655 1609 
2567 2624 1655 1609 
2593 2304 1895 2202 
3445 1895 2593 2304 
3445 2225 1895 2304 
2013 2049 2116 1935 
2013 1998 2116 2049 
1998 5114 2013 2116 
2388 2117 1531 1485 
1531 2041 3532 2117 
326 2117 2406 1531 
1485 1531 3532 2117 
2384 4983 1659 5209 
3991 1985 4310 2537 
1776 4121 2364 2293 
1067 2224 2293 872 
2224 1776 2293 4121 
3401 2293 1067 1132 
2293 3401 2364 1132 
4933 1926 629 539 
3450 795 1071 2733 
891 945 2009 2415 
316 2431 2135 3450 
2297 4409 5010 4030 
4599 3528 945 891 
69 2459 2817 3211 
2534 2459 3211 3779 
2299 2459 3211 2534 
3739 2299 1843 2448 
69 2128 2459 2299 
1951 3936 2128 2299 
69 2459 3211 2299 
2299 2577 69 2448 
2434 2282 3973 2955 
2902 3646 3881 4862 
2134 1340 1499 1298 
2299 3211 69 2577 
3936 2299 1951 1843 
3941 3242 3286 3899 
291 2478 1620 1928 
2138 2005 4532 4215 
1637 1443 2125 1451 
1451 1637 352 2125 
1799 1443 2125 1637 
1585 1799 2125 1637 
1637 1585 352 2125 
2110 1871 2223 1632 
2223 3327 2110 1632 
1879 3033 2982 263 
1475 5189 3007 2888 
2540 1910 2969 2380 
3941 4780 3242 3899 
1486 2455 1779 1997 
1486 1997 1779 2258 
2910 1997 1486 2258 
2719 2466 2749 2759 
3878 2466 2759 2749 
210 121 2216 2698 
210 2698 2002 121 
2216 3475 121 210 
1543 1769 2131 1682 
570 2140 2513 4326 
1543 1769 1539 2131 
1948 3459 2434 2045 
2405 3121 2307 2291 
3866 4288 2407 2855 
3045 3459 3503 2434 
2291 3121 2307 2444 
4691 3459 1948 2045 
2132 2290 2063 2781 
2063 1603 2132 1640 
1724 2132 2063 2781 
2151 2549 1666 2933 
2151 2549 2728 5139 
1630 1593 355 1663 
2192 2682 1890 1244 
1441 2440 2633 2158 
1818 2410 2274 2564 
2207 1908 1760 2057 
1818 2048 2410 2564 
1878 373 3126 3635 
2048 1818 2410 2692 
2410 1818 2274 3608 
4074 2432 2006 1932 
1982 3808 2577 1866 
1494 1978 1868 2319 
772 2474 1535 1795 
901 4717 2714 2165 
2171 3126 3635 2260 
1868 1978 2352 2319 
391 1794 2472 286 
391 2472 774 286 
2669 1207 1139 2133 
1650 1187 1796 774 
1650 1796 1668 270 
323 3635 4342 3231 
4342 3328 3107 3231 
4064 2194 3760 3103 
1467 1465 1808 291 
4449 345 2413 4204 
1808 1544 291 1465 
1570 2474 1531 1535 
1545 2474 1531 1570 
1545 389 1793 2474 
1711 2197 5051 1877 
4046 1290 5119 2313 
3715 2995 3756 2313 
2714 901 2165 4401 
5051 2230 1877 2197 
2313 4378 3756 3715 
2202 5083 3680 2158 
5021 2980 312 3909 
431 3909 5021 3674 
3202 2142 3455 513 
2158 1895 3257 2202 
3680 5083 2202 3624 
2887 2320 2787 2772 
1953 2143 2432 3008 
2220 2805 3680 3624 
110 3702 4251 2144 
4251 2144 121 110 
2887 2320 2772 2663 
1918 1416 1210 3530 
4046 4378 1290 2313 
4532 2413 401 2264 
5144 1918 3530 1416 
5144 1918 3544 3530 
1769 2142 1483 2148 
1918 3219 3544 3530 
2569 2647 2405 2291 
1767 2340 2003 2441 
3880 5045 2151 5139 
2326 1329 1393 1377 
2326 1329 2014 1393 
2787 2320 3307 2772 
3307 2320 2694 2772 
2725 4216 2360 3685 
2758 2887 2787 2772 
2772 2320 2694 2663 
2758 2887 2772 2663 
2217 2317 1481 2737 
345 3652 3155 4877 
1546 1992 1646 329 
1446 2156 450 1495 
1446 1495 1574 2156 
345 2465 3652 4877 
3955 2051 159 2483 
3955 308 2051 2318 
2187 2220 3046 3677 
2318 3955 2483 2051 
3955 4076 2318 4424 
513 734 3455 4240 
3670 3621 3433 2376 
720 741 734 4240 
2318 3955 4424 2982 
3621 3433 2481 3670 
4555 3381 3504 2673 
2422 2173 2426 2817 
1599 151 1958 2388 
4597 2708 4085 3085 
3085 2708 4085 4774 
4597 4425 2708 3085 
3307 553 637 550 
2190 4116 2159 663 
815 3486 816 687 
3362 687 3486 601 
3486 3362 2897 3405 
815 644 3486 687 
553 481 4287 557 
4333 3210 4091 2046 
4091 2822 4333 2046 
4333 4091 3210 3437 
4333 3437 4882 4091 
2446 2983 3710 2803 
4882 2822 4333 4091 
4939 3640 2598 2446 
2397 2211 3982 2239 
2408 4137 3918 1956 
2338 2444 3034 1336 
1336 2444 3034 2397 
1336 3159 2444 2397 
2812 2693 3580 2966 
2636 2482 4634 2783 
3580 4978 2693 2812 
1063 4283 1117 1122 
3202 2630 513 413 
2783 2482 4634 3986 
3202 413 1483 2630 
4283 1117 1122 1179 
3019 2595 2823 850 
2343 856 868 2454 
2037 1744 2167 1489 
2167 1489 1561 2037 
2167 1744 2944 1489 
1561 1489 2167 2667 
699 1488 657 613 
1851 2324 1126 2241 
5130 5035 1065 1937 
1812 1542 1486 2168 
3445 2304 3718 2225 
4605 787 973 1084 
5098 658 4712 2149 
3923 2454 2343 3707 
4712 3946 2149 658 
3537 2752 3822 2469 
1447 1448 2499 2301 
643 3377 2414 2786 
4605 1116 1084 973 
4376 2160 3132 2295 
2634 1910 2969 2540 
3682 2634 1929 1728 
2469 2752 3822 3811 
2648 2237 3188 2456 
2634 1728 2497 2969 
2845 2160 3132 4376 
3682 2497 2634 1728 
2648 4735 2237 2456 
1224 3962 1286 2345 
2469 3822 2315 3811 
2816 4567 2829 977 
2845 2160 4376 2694 
640 2872 702 1986 
1019 2816 4505 2829 
1975 3579 1343 1374 
1975 3579 3309 1067 
2872 4968 640 702 
207 172 4997 180 
3357 3724 4480 4594 
1759 1752 1498 1616 
1550 2395 1752 1616 
233 4480 3724 4594 
4965 2185 3357 4594 
2595 3546 2764 4168 
797 4168 850 565 
2636 1590 2382 2266 
2636 1590 2266 2743 
3392 1897 1728 2172 
2636 1854 2662 2266 
2341 3392 2172 1897 
5139 5045 2549 2587 
3441 4594 2185 4965 
5139 1679 5045 2587 
4052 2311 123 2303 
2520 2636 2382 2266 
2636 2520 1854 2266 
3130 3483 2747 2700 
2699 2747 3001 2700 
2699 2747 2700 3130 
3442 1572 3014 2958 
3176 3343 4447 4304 
2700 3483 2747 2742 
1767 1572 2958 3014 
4304 3343 2808 4925 
2464 4211 3606 3356 
4304 3343 4925 2521 
3176 2521 3343 4304 
4179 692 721 4384 
2700 2742 2747 3001 
845 3208 3004 2182 
710 4384 4179 721 
3688 3392 2392 1987 
2752 2840 3822 2182 
2011 4336 4392 2852 
3624 3060 2202 2195 
1077 2380 1075 2007 
3060 2195 3829 2202 
1077 1144 1075 2380 
3788 5157 4433 233 
1716 1509 1619 2179 
3122 3806 1936 3153 
1716 1509 2179 1665 
233 3788 2648 2335 
2394 2268 2267 1665 
1619 1509 1720 2179 
2394 1578 1720 2267 
3451 3428 2288 4708 
3035 2202 3060 3829 
528 2712 3716 4010 
1944 2166 3349 2944 
708 801 746 4086 
2712 4010 3703 3716 
160 2677 2336 2052 
3458 4059 2782 3451 
4466 2202 3060 3035 
592 3716 2712 3703 
2781 3068 1724 706 
706 1724 3487 3068 
3068 3487 706 3611 
2336 2677 2990 2052 
528 503 2712 4010 
706 2781 3068 3123 
2592 3107 1878 3883 
706 3123 3068 3611 
2592 3387 1878 3107 
4519 3082 3084 1086 
2713 3779 2470 1529 
2059 513 691 2201 
1057 1120 2341 1335 
2470 4846 2713 1529 
2184 2056 2026 1897 
2099 2569 2026 2184 
1529 3900 3779 2470 
2341 1120 1371 1335 
1529 4682 3900 2470 
2337 2176 1138 1166 
1679 5139 3236 2737 
3499 3449 2328 3708 
2737 5139 3236 290 
3134 1133 3663 4235 
2337 3388 2176 1166 
936 2086 1623 26 
1911 3663 2280 3163 
3991 3250 4235 1985 
2593 2558 2304 3049 
1939 1166 2337 1914 
2470 4846 1529 4682 
3147 2304 2558 3049 
3718 3147 2304 3910 
2360 2243 3685 2095 
4310 4158 1344 1985 
1923 2224 4563 4121 
3445 3718 2304 3910 
4990 3373 2527 2476 
1842 2243 2360 2095 
2232 2036 3141 2789 
2243 2725 2360 3685 
4990 4898 3373 2476 
3312 2093 597 3506 
487 2272 2093 2480 
2203 2480 487 2356 
2169 1363 3226 1382 
2169 1409 1382 3226 
3226 1363 4889 1382 
3123 1614 2189 1979 
2781 2189 1614 1649 
4779 3929 1649 3485 
3485 4764 4779 3929 
4569 1589 1593 20 
1409 4509 3226 3745 
3745 3226 3769 4509 
2272 2480 487 2203 
1224 3962 1132 3515 
2449 4145 3674 4428 
3820 1219 4209 3439 
1840 2963 2088 1587 
1061 1145 1048 3837 
1145 3837 1061 4361 
1048 3837 1145 2669 
3837 2669 4361 1145 
2240 3202 3396 457 
3396 3455 457 3202 
1580 2044 2748 2438 
1498 2438 2057 2504 
3546 2208 2764 2645 
4151 3113 1675 2607 
1578 3196 2252 2268 
3406 2798 1393 1415 
2484 3817 3424 2195 
3565 401 2413 3251 
2663 3927 2887 2320 
4449 345 3565 2413 
2147 1840 1457 3664 
3037 3535 2765 2203 
2475 1840 3664 1457 
2429 1502 1566 1553 
1756 2429 1716 1665 
3002 2879 3238 454 
2450 3934 2866 2491 
1457 2475 1840 2724 
2429 1502 1756 1566 
1286 1540 2345 360 
1224 2345 1286 1540 
1676 2620 2186 1590 
3251 401 2413 4770 
4579 2344 3979 2439 
2439 2175 4579 2344 
1567 1608 1506 1618 
2433 1343 1374 1975 
2433 1343 2061 1374 
1581 1508 1718 1992 
1581 1466 1554 1552 
977 1938 2829 2842 
4466 2558 2593 3049 
1938 4567 977 2829 
1019 2842 2829 4505 
3424 2133 4306 2195 
2133 4306 3403 3424 
1603 1996 2565 5117 
1520 1543 5117 1996 
1520 2565 1996 5117 
1716 1619 1509 1607 
3172 2101 2774 3479 
2199 2049 1935 1440 
335 295 2152 3104 
1944 4460 3014 2166 
870 877 2914 3866 
2202 3257 3829 2834 
870 3866 861 877 
3058 2070 1810 3120 
3058 1765 1810 2070 
3120 1810 3058 4251 
3081 2379 4896 166 
3817 2195 2805 2220 
3941 3524 3286 3242 
2351 1559 3763 5150 
4074 3242 3524 3941 
2585 3423 2275 186 
1039 3588 4781 1034 
994 3228 1004 2003 
2585 3423 186 3162 
2755 2003 994 1775 
4189 2756 4821 2259 
1037 3009 1018 1035 
1018 4283 1037 1024 
1037 3009 4283 1018 
4074 3242 2432 3524 
2006 1932 2251 1920 
835 824 3846 3178 
4474 5072 4373 1022 
1329 2192 1393 3102 
835 3178 4317 876 
1361 2727 1385 2938 
1327 2727 1361 2938 
1385 2727 1361 1369 
5086 3165 4771 2373 
2500 77 3971 4940 
3455 3202 3487 2142 
3735 2911 5031 2111 
768 734 3068 798 
4555 2126 4179 2673 
2843 2710 4147 2915 
2843 995 4147 2710 
2613 2810 2843 1055 
3358 3595 3492 1487 
2810 2843 1055 995 
2790 2810 2843 2613 
5044 2584 5156 1930 
3595 3358 3313 3875 
2584 1930 3259 5156 
2790 2843 2810 2915 
3090 3499 2328 1512 
3090 3092 1512 2328 
3090 2622 3499 1512 
3090 3077 2622 1512 
1512 3090 3077 3092 
2291 2686 3121 2444 
273 3231 319 2359 
4179 2126 4793 2673 
5046 2737 3152 2359 
2737 2359 273 319 
273 2737 5046 2359 
3553 2497 2687 1987 
731 4179 4555 2126 
751 4793 4179 2126 
1498 2504 2057 1775 
2857 2646 3456 3468 
2126 731 4179 751 
2844 1683 596 567 
3225 2380 1910 2540 
1139 5050 5133 2669 
2844 4858 596 1683 
4331 2042 2743 2447 
3468 3456 2857 4130 
1842 2485 2243 2095 
796 1493 2360 3394 
1842 2095 2360 3394 
2725 2316 2243 2360 
3468 3456 4130 4076 
524 567 1683 2844 
2364 1776 2117 2388 
2071 2344 2439 1870 
1607 1509 1544 1587 
1607 1619 1509 1587 
1587 1806 1607 1460 
1607 1619 1587 1460 
1587 1544 1607 1806 
729 2261 2130 2364 
2439 2344 3979 1870 
3721 5166 2105 4420 
2137 510 1929 443 
3979 1948 2439 1870 
637 553 3307 2396 
2439 1948 1859 1870 
2787 2772 3307 4145 
1387 2727 1386 1376 
3307 637 2396 2320 
2439 1870 1859 2071 
2722 4419 2365 2172 
2216 2042 3475 1676 
2382 2850 29 2216 
3347 2850 2382 2216 
2722 4419 2172 2718 
2876 46 2506 5079 
46 5079 48 2506 
2414 1438 1441 2786 
1495 1884 2704 2773 
2786 1438 3869 2414 
1512 3423 2275 2585 
629 788 4933 787 
2773 2704 3427 1884 
1495 2525 2704 1884 
1512 3423 2585 3162 
2414 3869 3780 1438 
4646 1393 1419 1413 
2220 1280 3257 2633 
2158 2220 3257 2633 
2338 2405 2307 2291 
1812 3479 1306 3172 
3172 2101 3479 2746 
2717 1897 2056 1491 
884 2816 4567 2562 
1950 2656 2387 2094 
2387 2101 4157 2094 
2185 3724 3357 4594 
705 2546 2858 796 
2493 1409 3745 2187 
2601 3479 1306 1812 
1507 1750 1646 1992 
1507 1992 1646 1546 
1718 1992 1507 1533 
3441 4594 3724 2185 
2947 2130 667 2261 
667 3673 2130 2947 
2185 3724 3472 3357 
351 1549 1781 1557 
3673 4121 2130 3080 
4531 2146 4121 3673 
1685 1246 1078 1178 
2248 2415 2884 1078 
1608 270 2066 1186 
2066 270 1796 1186 
1546 1530 1807 1552 
868 4194 2509 865 
2111 2911 2219 611 
1545 1555 1531 2474 
1545 2474 1793 1555 
5140 1603 4697 1670 
1874 1793 388 1555 
1622 1670 4697 1603 
4697 1763 1622 1603 
5140 1603 1763 4697 
3779 3345 3900 2881 
1417 2226 1334 1371 
2226 1897 2341 2184 
1479 69 2459 2817 
2459 2817 2761 1479 
1429 1359 1430 3752 
2513 3073 2342 3278 
2153 1497 1975 3962 
3962 2345 1497 1975 
5047 2552 3920 2461 
2825 2342 2513 3974 
2865 2658 2431 1818 
1025 5050 4306 3403 
2513 3073 3278 3330 
3894 3608 2865 2431 
477 2111 2219 611 
2140 2825 2513 3974 
570 2140 566 2513 
3894 2865 1071 2431 
3608 1818 2865 2431 
2865 2658 1071 2431 
2228 1673 1628 2814 
2160 2551 4339 3659 
3123 2511 1979 2228 
3020 449 2369 397 
2228 2511 1979 1492 
3659 4287 2409 2160 
2160 2551 3659 4287 
1451 352 1534 2125 
352 1585 1534 2125 
3659 4339 2160 3205 
1964 4073 4215 4532 
449 2369 3967 3020 
2099 2184 2026 1897 
2917 324 4077 1864 
3527 1705 2296 3762 
3624 4466 2697 5083 
2962 2995 2313 5022 
3659 3205 2160 2409 
2783 2520 1854 2636 
5022 5084 2313 5119 
1853 2070 3058 3120 
2078 4251 3655 2144 
1853 1765 3058 2070 
1392 1399 1431 3452 
2521 3879 3800 4304 
4304 2521 4925 3800 
2085 2229 1729 2055 
2055 3086 2665 1853 
3086 1476 2665 1853 
988 1200 1162 2026 
565 4168 850 2764 
2710 3555 3271 981 
2301 2418 3334 1578 
4217 877 3866 2522 
3665 2710 3555 3271 
3334 2301 1578 1448 
3347 2216 2382 1590 
2522 3062 3526 3484 
1862 4215 1964 3767 
3062 2522 3526 3061 
4217 874 877 2522 
2252 1506 1606 1578 
2309 2301 1730 2122 
2252 2418 3333 1592 
1725 5070 1479 2043 
2803 2983 1860 4780 
2524 2708 4099 3085 
5070 2586 1479 2043 
5068 2104 1542 3172 
2595 4168 2764 850 
2524 4105 3884 3618 
650 3781 2494 3245 
2686 2820 3325 2375 
2524 4453 2708 3085 
2803 2446 2983 4780 
986 4467 972 1015 
2375 2686 2906 3325 
2803 2446 4780 4782 
1322 3681 2375 3849 
3959 5160 2962 3768 
2906 2916 2375 3337 
1798 1426 1606 2236 
2770 3959 2962 3768 
2770 2962 5022 3768 
2278 3686 1908 1985 
1985 1380 2278 3686 
2527 3165 2788 2118 
4640 3165 2527 3599 
4865 2118 2788 3165 
4771 3165 2527 2118 
1721 3837 931 983 
983 931 933 3837 
931 920 2960 1721 
734 3611 2201 513 
2527 3165 4771 3599 
734 513 2201 720 
691 2201 513 720 
4081 681 4288 744 
1931 4299 2017 4177 
2059 2630 513 2201 
681 3605 4081 4288 
3611 2201 513 2630 
4534 3200 2979 2344 
1016 963 2899 3125 
5031 3735 4239 2911 
1016 4258 963 1008 
2380 3595 907 3492 
3595 3492 1487 815 
2899 4258 963 1016 
1732 2240 2008 1833 
2197 2230 2953 1026 
2197 1026 4852 2230 
2240 1590 2270 1833 
1502 2355 356 2241 
1614 1391 2582 2241 
1885 2076 450 2567 
2387 2656 1655 2076 
2387 2774 2076 1655 
2567 2076 1655 2624 
1885 2076 2774 450 
2656 2624 1655 2076 
3673 2130 1599 3080 
3080 2991 1599 3673 
3740 4623 1201 4067 
2636 2482 3347 4634 
2636 3347 2042 4634 
2408 1956 3918 2653 
2524 3085 4099 612 
2524 4453 3085 3828 
3002 3143 3238 2879 
2070 1765 2246 2487 
1478 2070 2246 1758 
2398 1765 2246 1766 
1839 2246 1471 2398 
1758 1478 1839 2246 
3002 412 2879 359 
266 3030 2538 310 
890 2377 894 2960 
4254 5188 2491 2866 
846 1161 1119 2248 
1019 1013 2210 1143 
2248 2103 1056 1119 
3915 1370 3227 4431 
2248 2341 846 1161 
1944 2166 2944 1772 
4254 2491 2312 2339 
3968 1995 209 1915 
2387 2656 2324 1655 
1905 2687 3553 3623 
2275 2331 150 2090 
1905 3000 1987 2687 
310 2538 4786 3030 
310 2869 4786 2538 
5000 1351 4184 4469 
4105 3950 701 4099 
1512 2510 2490 2275 
3379 2539 928 4454 
2490 2510 150 2275 
3950 4425 701 4099 
2006 1932 2432 2251 
999 2539 3907 3379 
2462 2355 356 1502 
1828 1506 1606 2252 
1828 2252 1606 1592 
1506 2252 356 2462 
1121 2877 3019 3149 
999 4835 3207 2539 
3019 2877 2823 2595 
3019 2877 2595 3149 
4287 553 557 634 
4287 2295 634 557 
1126 2656 2324 2387 
2101 3075 2746 3172 
2488 3313 4484 3082 
4165 3313 2488 3082 
4165 3082 3595 3313 
2413 345 2542 4204 
2677 3365 2311 3458 
2381 1520 2885 2471 
3367 65 4822 43 
3313 3082 3875 4484 
2381 2471 2885 2255 
2240 2471 3396 3202 
3595 3082 3875 3313 
3498 2777 2623 2738 
138 3597 4341 4231 
2646 3682 3456 3468 
2413 350 2542 345 
3456 2497 2634 3682 
2646 3682 2497 3456 
1542 1649 2063 2290 
2347 2390 2224 2107 
2347 2107 2755 2390 
1897 3129 2226 3392 
1447 2309 1730 2199 
1897 3392 2226 2341 
1447 1730 2013 2199 
145 3483 3297 202 
2190 2159 584 663 
3367 4776 4822 65 
2347 3818 2390 2755 
1447 2499 2013 1730 
1730 1447 2499 2301 
1447 2301 1730 2309 
2225 3596 1895 2304 
1814 1797 1713 1547 
714 2190 663 716 
2747 202 3297 3483 
3596 1895 2304 3257 
115 145 3483 3297 
2304 3596 1955 2225 
3718 2304 1955 2225 
1955 2304 3257 3596 
2075 2055 2978 1847 
3581 2055 2075 1847 
3483 115 3297 2742 
3400 3145 1771 3920 
3248 3145 1771 3400 
2099 1897 2226 2184 
2141 3612 1565 3930 
2488 4476 4950 1232 
2540 572 505 3594 
4470 3612 2141 3930 
1213 1173 4476 2488 
2488 4118 3313 4080 
4470 3063 2141 2707 
1483 1579 1482 2263 
2002 2263 1739 1579 
2880 1579 2263 2002 
1579 1739 1482 2263 
2397 2239 2444 3149 
1767 3014 3643 4071 
2075 1737 2265 2557 
2397 2444 2877 3149 
2557 1667 1737 2265 
2361 2098 2266 2173 
2266 2739 2743 2361 
801 1911 826 3663 
1717 1510 1506 2267 
1720 1510 1717 2267 
2394 1578 2267 2268 
2179 2394 2267 1665 
2179 2394 1720 2267 
2267 1578 1506 2252 
1609 2268 1665 1502 
1609 2355 2268 1502 
2268 2355 2462 1502 
1665 2268 2462 1502 
2267 2252 1506 2462 
2267 2268 2252 2462 
2803 4780 4074 4782 
4780 3941 4074 4782 
1911 1979 826 3663 
3981 3325 1322 2906 
4782 3941 4074 2573 
1646 329 2269 170 
1968 1446 2269 329 
3775 4497 2806 3026 
2399 1598 4069 3017 
1646 2269 329 1968 
3017 4069 2399 5096 
2803 4596 4782 4074 
3663 1979 826 2826 
826 2826 4101 3663 
4782 4596 2573 4074 
2270 1590 1477 2620 
2270 2471 2240 3202 
2270 2471 3202 1769 
2270 1769 1477 5075 
457 1833 3202 2620 
3663 801 4101 826 
643 3377 1538 2414 
643 2931 1538 3377 
2024 2123 5071 4380 
2024 4380 4970 4400 
2402 2217 2317 3072 
2332 2254 2402 3078 
1460 1456 1619 1587 
1494 2403 1868 1978 
1804 1456 1460 1587 
2403 3042 1978 1494 
1494 2403 1982 1868 
2634 2497 3630 2969 
2403 1982 3599 1494 
3599 5085 2403 1494 
2547 4132 2273 4395 
1499 2560 2552 5047 
4551 4942 468 3884 
3042 2403 5085 1494 
4105 4551 468 3884 
4105 4551 3884 3618 
2265 1667 1737 2086 
3884 4942 3547 4551 
3048 2563 2213 3809 
1499 979 2552 2560 
2563 3809 3362 2213 
2363 3406 5156 2682 
2248 2884 2172 2965 
2226 2965 1334 1371 
4551 3547 3884 3618 
1161 1334 2965 1371 
4237 1864 2917 3162 
2420 1983 3129 3794 
988 1200 2026 1153 
2081 2047 3610 1109 
102 121 110 4251 
102 1810 121 4251 
3610 1109 969 2081 
1109 2047 3610 3632 
1032 969 3610 1109 
1032 1109 3610 3632 
1757 2383 1516 1753 
1757 2383 1753 1492 
4122 1305 3158 1330 
2690 3632 4156 2807 
2786 3869 3377 2414 
2392 3536 2801 3378 
2075 2557 1634 2978 
2075 2557 2265 1634 
2414 3377 3780 3869 
3528 2415 939 948 
3553 5093 2392 3536 
2705 2568 3069 5111 
4521 939 2415 792 
2392 5093 2801 3536 
2801 2424 3378 3536 
3536 3392 3378 2392 
3553 2392 3688 3536 
4193 2568 3913 2507 
2507 3913 398 2568 
1273 2508 2941 1314 
2508 2786 2941 1314 
2508 2786 1314 1384 
2097 2215 1499 4415 
1499 4415 4135 2097 
2100 2215 1499 2097 
3635 4226 2260 3813 
2100 2097 1499 2134 
291 2284 1764 2478 
291 2284 2478 1928 
291 1544 2284 1928 
1499 2097 4135 2134 
2110 1726 1981 3008 
2862 1872 1726 3008 
2639 1726 1872 3008 
3655 3442 2144 3702 
3317 3392 1836 2452 
2735 3392 3317 3536 
3392 2735 3317 1836 
2639 1981 1726 3008 
3688 2392 3392 3536 
2155 2872 2832 4045 
2110 1726 3008 2862 
2155 5169 2523 2765 
2155 4045 2832 2486 
2235 899 3335 923 
291 1509 2284 1544 
1764 1509 2284 291 
1508 1509 1764 291 
3889 561 2423 658 
2155 4045 2486 3535 
2286 1445 1846 2583 
1800 1445 1846 2286 
5067 1946 3889 658 
2514 848 1491 1058 
3030 2570 4786 310 
3113 3012 2514 1675 
3796 1840 1453 3664 
313 328 4389 3151 
310 374 2570 4786 
3378 3531 3897 2424 
328 3151 2719 2566 
2424 1237 3531 3897 
2160 2295 4376 2396 
2422 3306 3299 2426 
2338 2569 2405 2291 
3096 2153 3962 2224 
3451 4708 2288 2782 
3299 2426 3306 3345 
2846 2571 4404 3754 
3277 2173 2559 2426 
2426 2559 3277 2031 
2426 4246 3345 2881 
3541 4404 2846 2571 
2291 2770 1399 1418 
2449 4389 3307 2787 
2449 4145 3307 3674 
2512 2281 4050 4274 
1218 1261 1293 3129 
2028 4254 2339 2866 
1218 2099 3129 1293 
1293 1261 3224 3129 
4491 4493 4991 4097 
1293 2099 3129 3224 
4493 4991 2515 5193 
2694 2160 4376 2396 
2694 2492 2160 2396 
2175 2439 3029 2071 
2618 441 3413 367 
3659 367 2618 3413 
2396 4287 2160 2295 
2492 4287 2160 2396 
2376 2673 2530 3151 
2455 1219 1922 3820 
1997 2455 1922 3820 
3124 4135 2181 2233 
5018 3353 2080 1999 
3265 4504 2571 4404 
2396 553 4287 634 
2571 3265 4404 3754 
3602 2673 2376 3151 
3602 3151 3381 2673 
2673 3381 2466 3151 
2295 2409 3132 3178 
4376 3178 3904 2295 
2673 3151 2466 2530 
821 899 3875 3335 
3335 821 2235 3542 
3507 4782 1924 2573 
1479 2128 5042 2459 
821 899 3335 2235 
1948 2434 2481 2439 
3480 2058 4422 3399 
4422 3480 3399 752 
2812 2693 694 4978 
2436 4498 5210 4804 
2573 2223 3016 3524 
2436 5210 1710 1697 
1634 1853 1765 3058 
4263 3836 5042 2459 
1634 2517 1765 1853 
2978 2557 1634 1853 
1634 2557 2517 1853 
2298 2803 1780 1849 
2247 1849 2803 2298 
1710 2436 5099 4548 
3719 5149 4416 3860 
2978 1853 1634 3888 
1634 1853 3058 3888 
2812 2693 792 694 
3676 2711 3823 2333 
2333 999 3676 2711 
3303 3242 1850 2867 
2301 3196 1578 1609 
3303 3899 1850 3242 
3242 3303 4739 2867 
1575 2931 4687 5044 
2866 2306 1575 2931 
2931 2866 2306 2450 
2720 4010 3716 3636 
3190 5206 2018 2672 
746 3454 1911 2280 
746 801 2280 1911 
3163 4235 1068 3991 
2203 3985 3164 2954 
3582 3228 994 3687 
3535 2954 2486 2203 
1977 3228 3582 3687 
2188 3682 2982 1838 
2602 3682 2634 1929 
2609 3164 4356 2954 
778 863 867 4376 
3307 2772 2694 4145 
2863 2709 2374 3327 
637 712 2396 2320 
2320 712 715 637 
2407 3866 870 873 
2407 2855 870 3866 
957 3264 3108 3463 
3102 1377 1393 1329 
2530 3231 2359 319 
2640 1377 1393 1413 
3102 1393 1377 1413 
957 4717 3264 4211 
3606 957 2378 3264 
3216 2137 2689 2389 
326 2388 1531 151 
3426 1277 2163 800 
4099 3085 4425 612 
3468 3456 2602 3682 
4099 4425 639 612 
3682 3456 2602 2634 
5046 2257 247 201 
2766 3785 2815 4173 
4241 3368 2686 2444 
2008 3737 2660 4414 
4241 3368 2815 4173 
3468 3456 4171 2602 
3792 1664 1692 5094 
2602 3456 4171 4699 
2212 2459 2882 2761 
2031 2459 2882 2505 
1954 1567 1502 1566 
2602 3456 4699 2634 
1690 1476 1988 1755 
2594 1977 3643 3687 
1988 1476 1815 1755 
4071 3014 3643 4460 
2348 543 3430 2596 
4147 5078 3920 3145 
3333 1846 1578 1606 
3145 5078 3920 4743 
1488 4422 3430 2596 
703 3412 631 2295 
2125 3493 1534 1801 
2461 4743 3920 5078 
2803 1920 1780 1849 
1860 2803 1920 1780 
4307 402 4083 2716 
4307 2716 4083 5145 
1860 1920 2006 1780 
2823 1058 848 1675 
1675 848 2514 1058 
5022 2060 3768 2962 
5186 4824 4525 5191 
4046 2962 2313 5022 
2651 3151 3482 2329 
3151 2651 2566 2329 
2329 4430 2449 3151 
2329 3151 2449 2566 
1816 4158 4235 1985 
1553 1816 3250 1985 
2565 2352 1745 2319 
1816 1553 2683 1985 
1816 2683 4158 1985 
3250 1816 4235 1985 
3546 4168 2731 4387 
748 776 3649 2119 
2119 4288 748 776 
2605 2832 2670 2180 
4362 2605 3538 2093 
2093 2605 593 3168 
2605 2670 593 3168 
4362 4731 3538 2605 
2605 4731 2670 2832 
2021 5143 3146 3411 
3736 1326 1345 3177 
4205 5143 3146 2021 
2758 2772 2787 4145 
2719 2749 2981 2759 
2160 2409 3205 3846 
2719 2638 2759 2981 
3584 4858 2759 2638 
2494 2749 2759 2981 
4858 2494 3584 2759 
2494 3878 2759 2749 
1444 1510 1452 1802 
1444 1800 1510 1802 
1386 2727 1369 1365 
1487 3875 3335 3542 
2572 3029 4137 2410 
3335 3875 821 3542 
4496 2374 4515 2863 
2727 1365 1386 4290 
3297 2221 81 113 
2410 3029 4137 2071 
2221 3079 81 113 
2458 2587 2257 5046 
2458 1679 2587 5046 
2458 247 273 5046 
3253 3673 1778 2991 
2580 2302 3661 1524 
3596 1955 3419 3257 
2991 3253 3821 1778 
2553 2727 2938 1385 
2651 2562 3381 2566 
2251 2996 2432 2161 
2738 3498 1732 2623 
1491 2137 2717 1929 
443 416 372 3131 
2738 2623 1732 2255 
3106 2432 2161 2251 
2326 1393 2640 1377 
734 2201 3611 798 
3611 1673 2228 2201 
3477 5058 1475 2762 
2251 1932 2432 2996 
2511 2841 2479 3123 
599 593 2612 612 
1915 295 3731 869 
1228 1153 1195 2099 
5073 5058 2762 1475 
3808 4091 2600 1591 
2600 1868 3808 1591 
4091 1591 3808 4882 
869 4938 1915 295 
1593 20 1589 1630 
869 295 4547 4735 
1630 20 1589 18 
869 295 4735 2977 
869 295 2977 4938 
3155 3652 4058 4877 
4910 4486 2465 4171 
531 550 2787 607 
2787 531 4389 495 
1782 4996 1927 4689 
1679 2254 5053 2402 
3769 3340 4889 4224 
4510 3226 3769 3817 
2616 3430 4914 646 
494 501 2721 340 
4102 2721 387 494 
494 501 1488 2721 
4102 3005 2721 494 
2460 1691 1580 1507 
1534 1691 1507 3494 
3297 3773 3743 232 
2931 5018 2745 3934 
2616 2596 3430 646 
1451 1801 1534 1803 
3567 2596 2616 646 
202 3297 3359 3743 
3359 3743 3297 4716 
3743 3297 4716 3773 
3334 1846 2583 1840 
202 232 3297 3743 
1628 2383 2148 1638 
1802 1846 1840 3522 
270 1773 1516 1638 
1788 28 4569 1844 
1508 1764 1573 1774 
3053 559 2423 2092 
2562 2386 2887 2787 
2887 2386 2758 2787 
2887 2740 3598 2758 
3344 2740 3598 2887 
2617 3179 2723 2206 
2740 3344 2562 2887 
1475 1736 2545 4343 
2627 2385 1587 1509 
1587 1544 2627 1509 
1868 1591 2352 1978 
1587 2385 2088 1720 
1336 3093 3034 2338 
2394 1578 1609 2385 
1591 2777 2352 1978 
2777 2352 2600 1591 
1418 2291 2338 1336 
1418 2338 3093 1336 
2777 3429 1978 1591 
5053 2217 2402 3072 
2600 2352 1868 1591 
763 3605 707 748 
3045 2317 2477 3372 
5053 2402 2217 1679 
748 763 3605 2119 
4505 3726 1143 4324 
4212 1143 4505 3726 
2617 2206 335 4289 
2259 1845 2756 4725 
1845 3872 2756 4725 
459 335 2617 407 
3910 3147 1818 3718 
2157 1507 3494 1534 
1515 1825 1669 75 
1515 1514 1472 1669 
75 1669 1515 1472 
2719 2638 2981 3446 
2473 488 455 2120 
2473 455 3906 2120 
3445 2191 3393 3681 
2473 4160 3906 455 
1244 2450 2258 2192 
2682 5156 1244 2192 
3445 3910 2191 2437 
4477 3085 4597 4353 
2341 1161 1371 1120 
5170 2891 3764 2473 
4389 328 491 2566 
661 2787 571 2566 
2566 2759 571 661 
2566 2759 491 571 
4466 2558 5029 2593 
3498 2162 3549 2623 
5029 2558 4466 2906 
4358 4295 3928 2619 
4466 2906 3374 5029 
2162 3549 3857 3498 
1228 1200 1153 2099 
4790 5007 5082 5009 
3857 3498 3549 2314 
3794 2099 2026 1897 
3498 2623 3549 2314 
5082 4790 4648 5007 
3718 1955 2304 3147 
2026 1200 2099 1153 
4477 3085 4353 4987 
748 763 2119 3649 
2409 3413 2295 4287 
1955 2304 2834 3257 
2409 4287 2295 2160 
1540 2091 2345 360 
2625 2652 3006 4782 
3962 2411 1497 2345 
2285 3141 2232 2036 
2450 2491 1989 1976 
1330 2790 2811 3279 
1330 2811 2835 3279 
2098 4754 2468 4758 
2098 5069 2468 4754 
1330 1367 2790 3279 
2562 2329 2740 2386 
2740 2329 2758 2386 
3632 2047 1108 2807 
2740 2329 2190 2758 
1897 2056 2341 2184 
847 2056 2341 1491 
1861 3820 3318 2455 
3820 1219 3318 2455 
2183 2754 5091 122 
1861 1105 3318 3820 
3288 232 203 2747 
3344 2329 4292 2740 
2190 2329 2740 4292 
2329 3344 2562 2740 
2982 3955 159 2483 
725 804 4340 3582 
702 2628 735 4762 
3818 2755 4303 3687 
2329 2449 4430 4145 
1468 1609 1655 1391 
1468 1655 2168 1391 
2582 2168 1655 1391 
2582 2241 1391 1655 
1609 2241 1655 1391 
159 2051 2234 2483 
5170 702 4762 2628 
1891 2483 2465 2138 
2138 2483 2982 159 
2483 2318 2982 3955 
2699 2747 3295 2221 
1814 1713 1797 1799 
143 2221 3295 203 
5098 4496 4515 2863 
2157 1458 1546 1803 
4177 1931 4299 4559 
2279 1586 1786 1469 
4947 94 3298 2354 
3645 1971 1886 5031 
4060 4361 4398 3095 
5031 4001 3645 1971 
1717 1618 1510 1444 
2355 1391 356 2241 
486 3053 3420 3619 
2252 1391 356 2355 
1609 1391 3196 2355 
1469 1737 1623 1605 
3196 1391 2252 2355 
1605 1560 25 1469 
1689 1560 1469 25 
741 826 3804 691 
1080 4224 1177 3340 
5031 4239 4001 1971 
1971 4239 2911 5031 
3053 3342 3420 3619 
2029 2678 2753 5036 
4050 4274 2281 2766 
639 701 4160 4450 
3004 3822 4504 3537 
4389 2787 2566 531 
3537 3275 3822 4504 
3822 3119 4504 3275 
491 2759 2638 571 
2085 151 2358 1729 
151 1729 1947 2358 
3822 1490 4504 3119 
661 2759 571 3584 
486 3619 4083 2716 
3004 4504 3822 1490 
2430 2395 1752 1563 
2205 2325 3356 3606 
1752 1497 1691 2395 
142 3077 150 2490 
3077 2622 2921 2302 
2205 3356 3514 3606 
3717 2205 3514 3606 
1738 4830 5124 4983 
4983 4830 5124 3862 
4983 4399 4830 3260 
2899 2727 4474 3140 
2727 4474 3140 3683 
3307 553 4287 2396 
2899 2854 4474 2727 
2255 1762 2361 2381 
2361 2255 2240 1762 
2361 2240 1590 1762 
2361 1762 2556 2381 
3548 2854 2727 4474 
2727 3548 4474 3683 
3308 1886 1971 2219 
5124 3862 4830 5176 
3802 1633 4830 3260 
3141 1903 2353 2671 
4767 2232 3141 2644 
2553 3174 3028 2854 
3141 2671 1600 3100 
2854 4542 3028 3831 
2901 2854 3028 3831 
4048 3174 2854 3028 
3349 2944 2548 2362 
2167 2944 2548 2193 
2427 2362 1652 2643 
2576 2767 2958 1977 
5176 3862 4830 1633 
3303 2337 3528 1686 
2576 1977 2958 3643 
4735 2256 3788 2237 
3788 5157 2648 2237 
2576 1977 3643 2594 
2427 2362 1739 1652 
3159 3981 3325 2211 
2648 3788 2237 4735 
3680 2493 2220 2187 
3981 1322 3325 2211 
2630 1744 1482 1673 
3982 2686 4241 2820 
2686 4241 2444 3982 
2493 1409 3226 3745 
5188 1575 1681 2371 
2028 1575 1681 5188 
2117 2364 2411 1776 
3303 2337 4599 3528 
3303 3528 4521 1686 
2116 1919 5020 1935 
2238 3508 2496 1934 
210 2216 1676 2186 
1590 2186 2033 2019 
5020 1919 5140 1935 
5140 1763 1919 5020 
938 2678 2149 2496 
2761 2498 1873 1959 
2934 2498 2761 1959 
3693 5208 1657 1595 
2761 1525 1873 2498 
2005 3216 2137 3131 
3213 1525 2761 2498 
3213 2498 2761 2934 
3710 2598 4160 4269 
4160 2598 701 4269 
2146 4121 4563 4531 
2598 701 4269 4049 
3151 313 2449 4389 
3151 3112 2449 313 
4049 2598 3710 4269 
2847 3228 2003 1004 
746 3454 2003 1911 
2845 2694 2025 2159 
2003 2632 1911 3454 
2845 2160 2694 2159 
1776 2153 1923 2224 
4376 3904 778 863 
2371 1575 643 2745 
2654 3377 5018 2745 
5188 2745 1575 2371 
487 2272 4362 2093 
2371 643 2654 2745 
2265 58 1667 2368 
58 1656 1667 2368 
58 2368 1612 1656 
4697 1696 5020 5112 
2370 1614 2781 706 
2941 2371 1273 1571 
2371 1571 3212 1273 
1740 2371 1681 3212 
3045 2477 4041 3372 
2589 4274 4050 2766 
2589 2512 4050 4274 
4606 4648 4790 2589 
3595 3358 3875 1487 
3595 3082 3084 3875 
2301 1391 1730 2122 
3072 2317 2402 3045 
3195 2521 530 1484 
4062 4923 530 1484 
2402 2317 2332 3045 
2332 2317 3670 3045 
1968 1620 1446 329 
1968 1620 1764 1446 
4923 1484 3195 530 
1578 1510 1846 1840 
2669 1721 1048 3837 
2669 3837 4361 3095 
2562 2566 2787 661 
2562 2787 2887 722 
2562 2759 2566 661 
3837 3095 2669 2960 
210 1579 2002 2698 
210 2880 2002 1579 
2960 1721 2669 3837 
2450 2491 2866 1989 
784 2009 2415 891 
1344 3686 1985 2683 
2312 2491 1900 2339 
3350 4554 3759 4136 
5084 2021 3038 3411 
5084 2021 4571 3038 
5084 3411 3038 5119 
5084 1290 3038 4571 
5084 5119 3038 1290 
3196 2418 1578 2252 
2252 1578 3333 2418 
310 374 4786 2869 
2869 3320 2723 374 
2002 2362 1478 1739 
691 826 2201 720 
1946 5165 2907 2668 
4697 1518 1696 5112 
1518 4697 1696 1763 
4118 2488 2779 4080 
3614 5138 2937 2668 
4484 4118 3313 2488 
1486 1812 2168 1998 
1998 1486 2116 2049 
1486 5114 1998 2116 
5180 2294 1636 4530 
2381 1520 1532 2421 
2255 2381 2361 2422 
2361 2381 2098 2422 
2098 2381 4754 1532 
2148 2383 1628 1673 
2869 374 2723 310 
1673 2383 1628 2814 
270 1516 1628 1638 
1638 2383 1811 1516 
1954 1628 1516 2383 
1954 1628 2383 2814 
1690 1727 1470 2428 
2106 1727 1470 1690 
1765 1727 1470 2106 
4140 2860 5089 3466 
3416 3118 2784 2897 
2784 3118 3486 2897 
2180 2993 3547 2670 
3362 3809 2784 2897 
2605 2670 3168 2180 
1593 1472 1589 4569 
2787 3307 637 550 
637 715 2787 684 
2787 684 607 637 
607 637 550 2787 
1593 1472 4569 1844 
2784 4429 3416 2897 
2784 3486 3362 2897 
2605 4731 593 2670 
637 2320 3307 2787 
2723 2152 2869 310 
2320 637 715 2787 
2812 2966 4521 792 
2670 2993 3547 2612 
3067 939 4521 2966 
3067 4521 939 1686 
2627 2963 1587 2385 
1587 2963 2088 2385 
1218 1195 2099 1228 
3129 1897 2099 3794 
4786 374 3320 2869 
3226 3745 2220 2493 
2169 1409 3226 2493 
1548 2127 9 1597 
2952 2764 565 2831 
3045 2317 3433 2477 
3045 3503 4041 2477 
2135 452 1817 799 
565 2952 2928 2764 
1389 1392 2544 2906 
1389 3981 1368 2906 
3873 3406 4383 2363 
3017 2399 3714 5096 
1512 87 2510 3423 
2484 2195 3070 3817 
3423 87 2510 2331 
3077 87 2510 1512 
326 2117 1531 2388 
2484 3060 3070 2195 
3221 3894 3608 2865 
263 2389 140 305 
2787 4389 3307 495 
2316 1688 5085 3063 
4011 1688 2316 4216 
2725 4011 2316 4216 
2689 2677 2137 3216 
1688 3063 2316 4216 
4011 1688 5085 2316 
2648 3188 2237 2675 
2733 1906 3450 2346 
3572 3070 2484 3060 
775 2957 3343 705 
2733 1906 2346 3805 
3392 1897 3129 2010 
705 2957 3343 1484 
1983 2417 3129 2010 
2543 2445 1403 1955 
3392 2417 2010 3129 
2542 2634 2890 4507 
3931 916 929 2528 
1039 5082 5009 3384 
4790 5009 5082 3384 
2450 3934 2491 1976 
3343 705 3195 653 
2951 2689 620 439 
4475 295 4289 3678 
2733 2346 795 2635 
2206 2152 335 295 
3151 2376 3602 3482 
295 3104 4475 2152 
3621 3670 2481 3348 
2385 2394 1720 1509 
2088 2385 1578 1720 
1509 2394 2179 1665 
1509 2394 1720 2179 
1499 4415 3920 1771 
2396 2295 634 4287 
2733 2346 2635 3805 
2733 3450 795 2346 
1915 3104 4475 295 
2516 1402 3284 3530 
2396 2295 4376 3904 
1441 1571 2941 2440 
2519 2691 2004 1876 
2389 2005 1929 2138 
1624 1470 1758 2398 
1758 2398 1839 1624 
2487 1765 2246 2398 
1839 2246 2398 1758 
2487 2398 1470 1765 
2004 2691 3111 1876 
2843 3177 2613 1043 
2925 2613 1043 1055 
186 2691 2519 2681 
2569 2026 1162 1200 
3177 2843 3736 1043 
3694 2519 2861 2151 
3694 2519 2151 3880 
3449 1951 1479 2641 
3449 2641 1479 2328 
1566 1492 1754 1746 
1492 1757 1954 1566 
1757 1492 1754 1566 
2449 3151 4389 2566 
2614 2824 4855 3672 
4858 2844 3320 518 
2621 2601 3533 2400 
3320 4452 4858 518 
2401 1468 2013 2499 
2466 2749 3231 2719 
2774 2101 2387 2094 
2719 4289 2749 3231 
2774 2101 2277 2621 
2905 2531 2680 3286 
2811 4622 2810 2613 
2719 2981 2749 4289 
1822 2531 3409 2680 
2835 2811 2181 3279 
2795 2770 2647 1162 
3286 2531 2680 1939 
2810 2790 2811 2613 
4519 3084 1049 1086 
3886 1049 4519 3084 
2045 1948 4691 2610 
3435 3084 1049 3886 
1542 2168 1812 2387 
3116 2281 3147 2661 
4145 2449 3307 2787 
437 2890 4507 2542 
2542 396 437 2890 
2155 2523 4045 2765 
4045 2765 3535 2155 
3083 728 662 3645 
2938 3400 3124 1499 
490 2904 1974 1944 
2408 2271 3933 4088 
429 1944 490 1974 
3598 885 2025 5126 
2938 2553 3124 3400 
2159 2492 2160 2694 
55 47 2204 3001 
2416 3221 3543 2865 
3647 2875 4701 2572 
2742 57 47 3301 
3271 4283 998 1041 
2815 3546 2731 2607 
2368 2086 1612 1656 
2816 4567 3184 2829 
2364 1224 1540 2411 
2406 2411 1540 2041 
2816 4567 2494 3245 
2411 1540 2345 1224 
503 569 2712 4304 
2406 2364 1540 2411 
1755 5208 2412 2667 
3851 2686 2291 2544 
2544 2291 3851 1399 
3159 3452 2544 3981 
2699 2747 3130 3289 
2291 1399 2544 3452 
3981 3159 3325 2544 
5069 2033 1590 2382 
507 3861 548 2563 
1955 3147 3543 2834 
3295 2747 3289 203 
3632 1108 3726 2807 
3501 4270 4003 2706 
3610 1108 3726 3632 
2696 912 977 1938 
3255 2528 1938 4609 
901 4717 2165 3616 
2563 524 548 507 
3060 3255 1938 4609 
2531 1939 3286 1914 
4147 3920 1771 3145 
716 2190 765 714 
3987 3555 4147 3145 
3409 5034 3574 4347 
3835 4412 2785 2859 
2531 1914 3286 1941 
2531 3917 1934 1941 
5036 2753 5034 4061 
3196 2418 2301 1578 
2136 2099 2569 1200 
3835 4412 395 4323 
2332 2979 2036 1870 
2099 2026 2569 1200 
2804 2136 5142 2569 
4323 4412 2959 2785 
2979 2036 1870 2285 
2885 1520 2381 2421 
2421 1520 1532 1582 
2421 2352 1520 1582 
2885 2352 1520 2421 
2014 3463 2326 2532 
2028 5188 4254 2866 
3311 1495 2400 1884 
3311 2525 1495 1884 
4384 2645 3326 793 
4323 2959 4203 2785 
1906 2285 3169 2346 
2285 3141 3169 2346 
4323 4412 395 2959 
86 85 5167 108 
2299 3222 2534 1677 
3324 2534 3211 3779 
2299 2534 3211 3324 
3222 2128 2299 2459 
3933 4088 4855 2614 
4282 2824 3672 4840 
2128 5042 2459 3222 
3805 2285 2346 555 
440 2023 2617 4289 
440 3048 459 2617 
2460 1534 1585 1691 
1906 3805 2285 2346 
555 3141 2285 2346 
1953 2432 1981 3008 
3465 1256 1243 1288 
462 4294 1484 2521 
462 433 1484 4294 
4515 2020 2113 1924 
2521 4925 462 4294 
1985 1380 2537 3444 
1985 2537 3991 3444 
4135 3021 2181 2233 
4294 4925 462 433 
4326 570 2140 3355 
3230 516 465 3285 
2219 3230 516 2911 
3285 516 2219 3230 
570 4326 2889 3355 
2743 1732 2008 1833 
2743 1833 2008 1676 
2848 2743 2008 2447 
2848 1732 2008 2743 
2447 2743 2008 1676 
3740 4466 3060 3035 
2697 4466 3060 4067 
3410 2351 3763 5150 
2351 5101 2856 1660 
2372 1461 1577 1544 
2372 1461 1544 1806 
4067 4466 3060 3740 
2347 2146 4563 4565 
2674 582 560 570 
1923 2347 4563 2224 
3327 3016 2223 3524 
570 582 3355 2889 
2140 570 3613 3355 
2296 3256 2330 3523 
2296 3662 3523 2330 
3613 2674 560 570 
1925 2709 1943 3327 
925 3927 922 917 
3927 3539 922 917 
3594 380 437 2542 
1286 2433 1343 360 
1286 2345 2433 360 
2345 2091 2433 360 
2091 1691 2433 2460 
2433 1580 2460 1691 
1492 1954 1502 1566 
1566 1492 1746 1502 
1492 1954 1979 1502 
3873 3406 2363 3625 
3060 1938 2827 4609 
4762 2446 4939 3710 
2446 2983 2598 3710 
3060 2827 3740 4609 
437 396 2542 380 
3368 2701 2307 2444 
3060 2827 4067 3740 
2307 2701 1675 2444 
964 2854 960 989 
2657 2701 3368 2444 
380 2542 353 396 
5167 5090 4954 86 
3368 4089 2815 4173 
1767 2003 4071 3687 
2594 4071 3687 3643 
1314 1280 2133 2220 
2854 5054 989 964 
3057 139 1891 1964 
3155 3652 3057 4058 
4954 5090 4607 86 
2833 4316 4020 4620 
4243 4499 4728 2833 
2833 4316 4620 4243 
1441 2941 2633 2440 
2440 1273 1280 1253 
1657 2441 1775 1568 
2441 1489 2003 1568 
2441 2003 1775 1568 
3114 1884 2400 2792 
2048 1956 2408 2653 
2048 2666 1956 2653 
2623 2442 2259 3396 
3114 3311 2400 1884 
3114 3311 4434 2621 
402 1723 236 293 
402 1723 293 504 
3777 4248 4019 47 
4022 4026 4248 47 
5161 1282 2797 2995 
4026 4019 4248 47 
5161 3756 2797 1307 
3851 2686 2544 2906 
1392 2544 3851 1399 
1071 2733 3894 2431 
2544 3452 1389 3981 
29 1810 1471 2115 
2544 1399 1392 3452 
3307 302 338 321 
2697 3624 3038 3060 
29 2115 3402 1579 
1998 1812 2168 1468 
3981 2544 3325 2906 
2388 1958 1531 151 
2388 1958 1485 1531 
151 1958 1531 1545 
1958 1555 1531 1545 
1958 1555 1485 1531 
410 3307 338 321 
2974 3118 4278 4473 
4193 2705 2568 2507 
4473 2784 3118 3395 
2492 302 338 3307 
3416 3118 4473 2784 
4353 3085 4085 4774 
2507 2568 398 2705 
3332 3491 3415 4276 
2834 1147 1253 3829 
1568 1489 1746 2069 
4470 2707 2141 1072 
2707 1006 2141 1072 
2026 2209 1897 2717 
3174 4647 4458 3371 
4201 4803 3408 2550 
3027 3408 4002 2550 
1762 4750 1834 2381 
1834 4750 4754 2381 
2613 2790 2811 1330 
1974 3349 2904 2078 
2427 2263 1739 2362 
2427 2263 1482 1739 
1499 3124 1340 4135 
1340 4135 3124 2233 
5139 2458 3160 2737 
5139 2549 2728 2587 
5139 2587 2728 2458 
3224 2226 2452 2174 
3392 3129 2226 2452 
2452 3392 3129 3378 
5139 1679 2587 2458 
3160 5139 2728 2458 
3782 3759 4136 1396 
1449 1509 1609 2385 
539 2554 504 2892 
592 528 2712 3716 
679 616 2166 4071 
2898 4404 4619 4143 
4071 3560 3014 2166 
4619 3541 4404 2898 
2439 2282 2955 4137 
781 2555 1845 1649 
1963 2336 3451 3428 
2555 2259 3396 3787 
2555 3787 3396 3455 
4520 3068 2555 1649 
2457 2236 1606 1426 
1967 1606 1426 2457 
2457 1445 2236 1426 
2560 1007 979 3229 
3464 2215 2560 1499 
469 2067 4726 4577 
2713 3779 2046 2470 
2046 4846 2713 2470 
4445 3779 2713 1529 
3811 469 4577 2942 
3811 4577 469 4726 
4287 2492 338 3307 
4726 3811 4577 2990 
1699 3838 4275 4875 
3838 2574 4183 4875 
335 2723 2152 2206 
2617 2723 335 2206 
335 2723 2617 407 
335 2152 2723 3023 
3023 2723 335 407 
4287 3307 338 410 
3354 3913 3225 443 
1534 1691 2460 1507 
443 3913 3225 4334 
2279 1689 1469 10 
3168 566 2140 2825 
3613 566 2140 3168 
2274 1818 2564 2281 
2462 2252 356 2355 
2267 2268 2462 1665 
2462 2268 2252 2355 
356 1567 2462 1502 
1756 2462 1567 1502 
1756 2267 2462 1665 
3029 2439 4137 2071 
2848 2971 2008 1732 
1855 4999 4588 4688 
2008 2971 2314 1732 
2799 1965 3578 2191 
1818 3910 2564 2281 
2341 1335 1371 2184 
3744 4167 5015 3135 
2025 3927 3598 2663 
3598 2740 2190 2758 
3774 4167 3744 4628 
3598 2663 2758 2190 
2011 4336 2852 4247 
4338 2732 1613 5205 
2799 2048 3578 1965 
1613 5204 2732 3410 
4338 3410 1613 2732 
285 245 332 4014 
3002 412 3143 2879 
701 2415 784 2009 
1613 5204 5205 2732 
3135 4628 3744 4167 
3190 4992 2650 5097 
4038 1528 2329 586 
2428 1470 1625 2279 
2787 684 715 1722 
2727 2553 3174 1387 
2428 1469 1689 1560 
1515 1514 1663 1472 
1515 1663 2453 1482 
329 1992 1968 1530 
1722 2320 715 2787 
3463 3607 2378 2014 
1652 2643 1755 1561 
1755 5208 1563 2412 
3717 1182 3199 2014 
1992 1968 1530 1508 
3002 412 3064 3143 
1387 1376 3174 2727 
2427 1744 2362 2167 
2266 5069 2468 2098 
4251 1853 3655 2978 
3086 3655 2978 3702 
2978 1853 3655 3086 
3702 3655 2978 4251 
1757 1954 1516 2383 
1479 2128 3449 5042 
2128 3449 5042 3936 
1399 2770 4046 5022 
2420 2929 4253 4612 
5042 3449 1479 1526 
818 675 758 2897 
1814 1797 1547 1973 
3959 5160 3191 2962 
3382 2027 1249 3976 
2021 3146 3038 3411 
2519 2331 2861 5045 
2519 5045 2861 2151 
3038 3146 3070 3624 
3411 3146 3038 3624 
3976 4229 1249 3382 
2584 3259 3406 5156 
2584 2931 2450 3934 
2931 3934 5188 2866 
2408 2653 3918 2614 
2085 2358 2075 1729 
232 3773 203 3297 
1762 2471 2255 2240 
2255 2471 2623 2240 
758 2897 675 3031 
711 758 675 4223 
675 4223 758 3031 
3313 1153 988 3794 
3313 988 3875 3794 
2110 1981 2432 3008 
3313 3875 988 4484 
3313 988 1153 4484 
2724 1577 2963 1587 
2110 2432 2659 3008 
2724 2963 1840 1587 
2863 2709 3327 1943 
1219 2077 5134 3823 
3262 3439 5134 1105 
188 4475 3774 3446 
4760 4343 144 4895 
2564 2410 2274 2408 
188 3678 4475 3446 
2919 3310 146 3512 
2410 4137 2408 1956 
2274 2410 2572 2408 
2410 2572 2408 4137 
3858 2816 2494 3781 
2410 2048 1956 2408 
2564 2048 2410 2408 
2816 3610 1880 4212 
1771 2811 3124 4135 
2284 1449 1764 2478 
4135 2811 3124 2181 
2284 1449 2478 1928 
1530 1620 1764 1968 
1774 1764 1446 1968 
2811 3124 2181 2695 
1952 1614 2479 2102 
3123 1614 1979 2841 
706 1614 2479 1952 
2479 356 2102 1614 
2479 2841 1614 3123 
2811 1771 3124 2695 
2077 2711 3262 5134 
3267 3215 5086 4011 
486 559 3053 2092 
3404 3555 3271 3199 
3095 3193 4361 4398 
3095 3193 3837 4361 
2895 2732 4325 4399 
2895 5205 4533 2732 
4254 3215 5086 3267 
4876 4475 3774 188 
5086 5085 4011 3215 
2760 3503 2481 3218 
1815 1893 1485 1958 
1893 1755 1815 1563 
5208 1755 1563 1815 
4876 209 4475 188 
2810 4147 4415 1771 
3301 3001 47 2742 
1718 1750 1702 1759 
1718 1716 2429 1621 
3001 3301 47 3291 
2810 4147 1012 4415 
3187 1299 3864 3544 
2735 3864 3187 1299 
2209 1897 2717 1929 
874 4217 4550 860 
1947 1605 1958 1545 
4147 3920 4415 1771 
5046 188 247 3678 
188 3446 247 3678 
1883 4515 1924 1933 
4515 2020 1924 1933 
5098 4515 1883 1933 
3287 82 115 2742 
3287 2742 115 3292 
3199 3555 4255 4471 
4471 3555 4255 3145 
4328 292 344 309 
3910 3147 2304 2558 
4515 2020 1933 2863 
5098 4515 1933 2863 
2712 569 626 3703 
569 4304 3176 3703 
226 2549 2257 2728 
3176 626 569 3703 
2725 2910 3685 2485 
247 226 2257 2728 
2485 1696 2838 1763 
2063 2485 2838 1763 
3424 3817 3769 2133 
2133 4060 3769 3095 
4001 1971 4239 3865 
3817 3769 2133 3745 
3865 4194 4239 2578 
1690 1470 2106 2487 
2070 2487 2246 1758 
1758 2487 2246 2398 
1758 2398 1470 2487 
1690 2106 1476 2487 
2070 2487 1758 1476 
2578 4472 3865 4194 
2498 3699 1873 2580 
2530 3283 3107 2673 
4060 2133 3769 3745 
3283 2530 2376 2673 
3095 3424 3769 2133 
3699 2580 3661 1524 
2498 2105 3699 2580 
2530 3283 2945 3107 
3699 2105 3661 2580 
2580 1873 1524 3699 
1517 922 966 4192 
1657 1568 2489 2441 
3829 1253 4306 1147 
2744 5208 2489 1657 
2667 5208 2489 2744 
1561 2489 2069 1489 
2489 1489 1568 2069 
346 3659 303 318 
2872 4160 1986 3052 
5021 3674 312 4643 
312 3852 4643 2492 
1860 2803 4074 1920 
2959 4412 3081 2379 
4412 2959 3081 4795 
3373 3599 2527 2476 
4152 3599 3373 2476 
4640 2527 3373 3599 
4152 4640 3373 3599 
1487 3875 3542 3358 
3034 2444 2877 2397 
4209 2312 1900 1997 
2312 2339 1900 1997 
2476 2527 4771 3599 
720 2201 734 826 
734 798 826 2201 
1336 3981 3159 2211 
1660 2351 1701 4543 
3741 4113 2312 1997 
4113 2339 2312 1997 
349 2775 5076 4334 
3542 3875 821 3358 
4287 2551 348 338 
4778 3540 3765 4724 
3741 2312 4209 1997 
2826 1126 1851 2154 
4338 4495 1613 3410 
4759 2379 4412 2959 
1644 1976 3406 2798 
2826 1851 1126 1979 
4338 4495 3410 3845 
1701 1660 5101 2351 
4282 4168 2595 850 
4359 2780 3994 4746 
2274 2410 2875 2572 
2029 2678 2531 2753 
2077 2629 3262 2711 
2139 259 1766 1549 
2139 259 1549 58 
1945 259 1766 2139 
2594 616 3228 4071 
2875 2175 2572 2410 
2753 2029 2300 2531 
3676 2629 3823 2711 
2711 999 3676 2629 
2701 3149 2595 2877 
3546 2208 2595 2764 
2516 3284 3366 3187 
3933 2408 4088 2614 
177 2311 123 4052 
370 371 2851 336 
2735 3187 3317 1299 
3366 3317 2516 3187 
177 123 195 4052 
2207 2597 1774 1908 
1908 1774 2683 2597 
4884 3021 2811 4135 
4884 2810 2811 4622 
4884 3039 4135 2097 
2401 1468 2499 1449 
2077 2629 2711 3823 
1774 2207 3055 2597 
3544 3284 3187 1299 
1774 2683 2597 2525 
1218 3129 1195 2420 
3659 3413 2409 4287 
4622 1070 4884 2810 
4287 2551 3659 348 
3129 1195 2099 1218 
2207 2597 1908 2278 
2702 2420 1195 3313 
3659 385 3413 4287 
4994 4848 3740 2550 
3549 2769 2314 3180 
385 3659 348 4287 
2314 3549 3180 3396 
371 2851 4452 370 
317 336 2851 371 
4786 371 317 2851 
2851 371 4452 4786 
4049 2983 3580 4978 
702 4939 735 4329 
4438 1075 1144 2688 
2688 1075 1144 2380 
1525 2882 4111 3213 
1988 1560 1605 1737 
2882 2505 1525 4111 
2229 1737 1988 1729 
1988 1737 1605 1729 
1525 2761 2882 3213 
2354 2700 4732 4863 
3762 3189 2296 4172 
3762 3189 1705 2296 
1485 1815 1595 1661 
1893 1485 1661 1815 
2334 84 4750 1543 
1575 2306 5113 4687 
1887 5113 1575 1505 
1505 5112 1887 5113 
3703 4010 2712 4304 
2439 1948 2434 2282 
4304 569 2712 3703 
5086 2503 4254 3267 
2777 2352 2885 2600 
4091 3185 2046 2768 
2738 2885 3299 2600 
4532 2602 2264 1929 
2982 3682 2602 1929 
4444 4996 1927 5192 
4449 4204 2413 2264 
2050 4511 2603 3658 
530 462 2768 4062 
2768 4091 3185 4062 
2768 4004 4846 462 
3297 57 47 2742 
4195 2308 5123 3332 
2416 3543 1071 2865 
3391 4483 3980 3193 
2695 2915 3987 3128 
3675 2830 5201 4491 
1587 1804 1806 1460 
2695 3987 3249 3128 
3441 4267 4388 4594 
2811 2915 1771 2695 
486 2092 3619 2716 
3441 4267 4594 4965 
1628 2479 2511 356 
1628 2814 1954 2511 
635 632 704 2160 
1628 1954 356 2511 
2545 1475 2615 4198 
2228 1628 2511 2814 
1628 2511 2479 2228 
2145 2328 64 2043 
2328 3090 3092 2043 
3132 2409 3846 3178 
3809 3031 2494 3878 
4371 3809 2494 2213 
2613 1055 1085 2810 
2226 2184 2341 1371 
4003 4270 3501 2989 
2494 4371 3031 3809 
2213 2494 2981 2749 
3809 2494 2749 3878 
2494 3809 2749 2213 
2514 1491 848 620 
4243 1782 4689 5125 
3737 1971 4617 3520 
2369 3383 3594 2775 
3928 4811 2572 2619 
2517 1737 2106 2665 
2557 2517 1737 1667 
2517 1727 1737 1667 
2517 1737 1727 2106 
2557 2665 2517 1853 
2665 1737 2106 1476 
2607 2208 3546 2645 
4275 2518 3951 4016 
3124 3249 2695 1771 
3020 2775 3967 5076 
2634 3456 3630 2497 
2890 2634 4102 3630 
2731 3546 2645 2607 
2890 2634 3630 2969 
2760 3896 3503 3505 
2481 3433 3218 3503 
3927 2025 2694 2663 
1128 1075 2688 3595 
3595 1075 2688 2380 
5138 3946 4712 658 
5138 5136 4712 3946 
443 2568 398 3913 
4712 5136 5138 3614 
304 2982 159 263 
4960 2568 398 443 
3069 5111 2568 4960 
2525 450 3311 1495 
1774 2683 2567 1573 
1774 2567 2683 2525 
3348 2481 2751 2439 
1813 3426 2163 800 
302 4319 2551 318 
4064 3760 1249 3976 
2400 2773 4064 2194 
4323 4936 5209 1706 
4014 245 332 4042 
703 3178 778 4236 
2190 4116 663 716 
4376 3178 778 3904 
1286 3515 1343 1975 
778 4376 867 3178 
3904 3178 778 703 
778 867 4236 3178 
237 266 217 4876 
2747 3483 3297 2742 
3297 2742 3001 2747 
2562 2651 3381 3671 
2651 3504 3381 3671 
3835 1706 4936 4323 
2081 853 892 739 
88 1480 2529 2114 
2254 2789 3078 2036 
1870 3214 2789 3078 
1880 3781 2121 739 
3837 983 1048 1061 
983 3837 1048 1721 
3324 3211 3210 3779 
3324 3210 3211 3437 
3923 2454 856 2343 
648 603 533 4000 
3210 3211 4091 3345 
1688 2679 3267 4254 
3210 4091 3211 3437 
3210 3211 3345 3779 
3501 4270 2706 2578 
3923 856 3815 2343 
4579 2175 2439 2619 
2343 856 3815 3911 
2788 2527 4640 3165 
4579 2751 2619 2439 
2619 4811 2572 3217 
4882 3437 2788 4640 
2619 3217 4133 4811 
2432 3008 2143 2535 
2788 4990 3766 3373 
4640 3437 2788 3165 
3748 3622 4961 3510 
2788 4990 3373 2527 
1050 3514 4740 2750 
4040 3571 70 78 
2067 451 4726 535 
4613 2631 3170 2647 
3268 2894 3605 2808 
451 4318 4726 535 
3329 2419 2752 2469 
2469 2419 2752 3811 
2419 3363 2752 2182 
3329 3363 2752 2419 
2749 2926 3878 2466 
3361 4223 4429 3878 
758 2897 3031 3842 
2419 2655 2752 3811 
758 818 2897 914 
2861 2331 2090 1666 
3257 1253 2985 2195 
1253 2985 1280 3257 
4495 5150 3410 4313 
3842 2897 914 758 
2253 3757 4240 476 
4647 1381 4458 3371 
1383 1381 2553 1387 
2419 2182 2752 2655 
3957 2058 1488 4422 
1488 3957 4422 699 
2791 707 2244 754 
1977 2594 3228 3687 
2959 4799 395 378 
4255 3555 3987 3145 
4634 2482 3347 4395 
4990 2527 2788 2118 
2636 2482 2520 2382 
2791 707 2715 2244 
1360 1356 3516 1311 
3516 4005 1378 1360 
2604 2445 1403 2543 
2437 1170 1403 2543 
3757 4240 476 3180 
2604 316 2445 2543 
1043 3177 2613 2925 
2613 2843 1043 1055 
2321 4160 3710 2298 
3077 1512 2490 2622 
2843 1043 1055 995 
2791 4401 2715 707 
2791 4401 707 763 
2027 3102 2192 1890 
2192 3102 2027 2741 
3625 3406 2682 2192 
3406 3873 2741 3625 
1435 1427 1428 2599 
3279 2915 2695 3128 
1478 2548 1572 2643 
2002 3349 1478 2362 
1561 2667 2167 2643 
3349 2548 1478 2362 
2643 2362 1478 2548 
2811 2790 2915 3279 
2790 1367 2915 3279 
2959 4799 4795 395 
3279 1367 2915 3128 
2811 2915 2695 3279 
3232 1082 5023 1163 
4258 1008 5023 1082 
3084 1049 1086 976 
4714 3519 3232 1163 
3002 4482 2203 3597 
3519 1082 4258 3232 
3597 3064 2203 3002 
4258 1082 5023 3232 
2202 3829 3257 2195 
1771 2810 4147 2915 
2915 3987 2710 4147 
801 1911 746 3099 
2135 2431 2072 3450 
3894 2733 3608 2431 
3099 746 2166 1911 
4086 801 746 3099 
2288 4125 4360 4057 
3177 1390 1380 1345 
2178 1744 2037 1489 
1653 1744 2037 1492 
3177 1326 1345 1380 
3571 3960 70 2796 
2037 1492 1744 2178 
3589 3938 76 3473 
3151 2466 2719 2759 
3589 76 3938 3971 
3151 2759 2719 2566 
2631 3628 4406 2686 
2631 2686 3121 2291 
2631 3628 2686 3851 
4231 3064 2050 2609 
4231 3064 4341 2050 
1834 1762 2556 1662 
2556 1762 1590 1662 
2381 4754 2556 2098 
1834 4754 2556 2381 
2381 2098 2556 2361 
2556 2361 1590 1762 
2631 3851 2686 2291 
1634 1667 2557 2265 
1634 2517 2557 1667 
3971 3938 4954 3500 
2817 2559 2426 2031 
4284 2559 3277 2662 
3238 2879 487 454 
2162 2442 2259 2623 
2957 4472 3857 2162 
3238 3143 487 2879 
454 3037 487 3238 
487 3037 2203 3238 
3238 3143 2203 487 
3406 1393 2741 1415 
5091 3604 2860 109 
2927 2030 3453 3650 
1393 2741 1413 3102 
99 109 2860 3604 
3239 4405 438 4286 
438 3239 3585 2164 
3585 3239 438 4286 
4384 4504 671 2645 
714 2329 4292 1528 
4384 2645 671 3326 
3870 2635 2346 555 
2810 2790 2915 2811 
3289 4462 178 252 
2359 3231 2530 1481 
3115 2737 1481 3152 
2359 2737 3152 1481 
3151 2651 3381 2566 
417 465 327 3285 
3602 3151 3482 2651 
2737 1481 2359 2530 
3602 3151 2651 3381 
3326 671 3943 2645 
2359 3152 4226 1481 
5208 2991 3821 1778 
4115 4248 3777 47 
3660 2359 3231 3678 
3990 4331 3246 2042 
868 2509 940 865 
1582 1520 4802 3432 
1878 2637 3365 2260 
2171 2637 2260 177 
1344 1985 3686 1380 
2537 1380 1985 1344 
2352 2565 1520 1582 
1582 2319 2565 1622 
2537 1344 3490 1380 
1582 2352 2565 2319 
4726 2637 2677 2592 
2151 2549 2933 2728 
2509 2908 3414 2343 
2717 899 2209 821 
1657 2395 1595 1563 
695 2209 821 2717 
2430 2395 1563 1595 
491 424 2638 298 
2638 424 3446 298 
3774 424 3446 2638 
3584 2638 571 483 
2638 483 4538 3774 
3090 3077 2302 2622 
1446 450 1449 2567 
728 2578 4239 3501 
1449 2567 450 1468 
1446 2525 450 2567 
5031 728 4239 2714 
728 4001 4239 2578 
5031 4239 728 4001 
4884 2097 4415 3281 
2787 684 661 607 
963 4258 978 1008 
1722 2787 684 722 
2466 3231 2530 2719 
497 456 545 2926 
728 3501 4239 2714 
2899 4258 950 963 
2190 2025 3598 2663 
2538 2778 2869 4876 
1568 2003 1775 3444 
2755 2003 1775 2441 
2249 831 2053 2165 
2190 5126 3598 2025 
4307 402 359 2642 
1418 1430 1335 2569 
4307 2642 359 3798 
2288 3451 2782 4059 
2026 1897 2209 3794 
2465 1964 1891 2138 
2416 3221 2865 3894 
2416 2865 1071 3894 
3676 2629 4454 2378 
4449 2138 1964 2465 
3221 2416 3840 3894 
4858 2981 2759 2638 
237 2778 3197 266 
2981 2494 4858 2759 
3403 4306 2696 3424 
266 237 2778 4876 
3378 2424 3317 3536 
5046 3968 188 3678 
5046 3968 3678 3660 
2333 2711 3823 5134 
4646 2640 2999 3128 
4641 2249 2165 2871 
3378 2424 2452 3317 
5135 3563 4485 3781 
2177 2445 1071 1740 
3317 3392 2452 3378 
1886 1971 2911 5031 
1886 2911 1971 2219 
2219 2111 1886 2911 
4415 4884 1070 2810 
1070 4415 2810 1012 
2911 2053 4239 3268 
3141 3870 2644 3100 
2911 1886 5031 2111 
1971 4239 3268 2911 
2325 3616 3375 4211 
69 2575 173 182 
2819 887 2325 901 
173 2575 69 1532 
2413 2542 3032 2264 
2166 2003 746 679 
531 607 2787 571 
661 607 571 2787 
4699 4204 4171 2602 
3150 901 3404 2819 
3977 2722 4419 2365 
2819 883 887 901 
901 883 3404 2819 
4323 4412 2785 3835 
2884 2415 2722 2718 
4323 3835 2785 3862 
2851 317 289 336 
254 317 289 2851 
3950 2718 4419 2722 
4926 317 254 2851 
4786 2851 317 4926 
2486 3547 5026 4346 
1982 2577 2940 1582 
2577 1582 2575 182 
1677 2577 2299 2448 
2577 2448 1677 3165 
2577 2575 69 182 
2954 2486 5026 4346 
4521 4599 3528 3303 
3303 3640 4521 4599 
3862 2785 4984 3050 
2661 4573 3903 4888 
2320 4376 3904 2396 
3904 863 4376 2320 
3050 2785 4984 2864 
2163 1614 2132 2370 
1768 2132 1889 2163 
2290 2132 1889 1768 
2387 2324 2582 1655 
3640 3580 3303 4521 
3640 4599 3303 3765 
1542 2168 2387 2582 
4091 3185 2822 2046 
3300 3185 2822 4091 
4820 2815 2731 2607 
2542 354 358 4102 
3478 3258 306 1835 
2133 5050 3403 4306 
2133 1253 1207 1146 
1139 5050 2669 2133 
4306 1253 2133 1146 
1558 316 2604 1170 
1170 2604 1403 2543 
1170 316 2604 2543 
3430 2646 2497 3456 
5044 2931 2584 1538 
2857 2646 3468 4424 
3000 1987 2687 2646 
2687 1987 2497 2646 
1555 1556 3532 1531 
2188 2646 4053 4424 
883 2791 2715 2244 
351 1766 1549 1557 
1624 1766 351 1557 
883 4401 2715 2791 
1368 2906 3337 2558 
918 3344 912 916 
3344 2562 912 3931 
2995 3729 2060 3715 
2586 5030 1867 2043 
5107 2586 2934 2761 
402 2716 1723 1875 
2647 2631 3121 2291 
2647 3851 2631 2291 
2647 2405 3170 1162 
2647 2770 2569 1162 
3851 2291 2647 2770 
345 2542 354 3110 
233 3788 2335 1936 
3110 2542 354 358 
2291 2770 1418 2569 
233 3040 5157 330 
4191 1350 2424 1237 
1389 2906 1368 2558 
2326 2532 3199 2014 
2679 2910 3685 2725 
3463 2378 2532 2014 
2688 2702 2420 2924 
2378 2532 2014 3717 
1543 4750 2381 1520 
2381 1520 4802 1532 
2381 4750 4802 1520 
641 3358 2129 695 
3139 2129 4464 641 
641 2129 4464 695 
2973 2342 2825 3884 
566 2342 2513 2825 
2078 1810 3120 4251 
2140 566 2513 2825 
1540 1643 1547 1585 
2825 3547 2973 3884 
1540 1585 2091 360 
371 2570 4786 317 
868 2343 2509 4194 
2887 2663 2758 3598 
554 523 3360 565 
565 2928 3360 2764 
3360 2928 5080 4387 
2461 5078 3920 1012 
4147 5078 1012 3920 
1011 3730 4606 4274 
4147 3920 1012 4415 
5047 3920 4415 1012 
5047 2461 3920 1012 
2948 4050 2766 2589 
4300 3785 2948 2824 
1772 3099 2166 1911 
2166 2003 1911 746 
2389 2137 2005 3216 
2270 1769 1483 1477 
450 1812 2774 2601 
1495 450 3311 2601 
4166 2957 3343 775 
2445 2604 1403 1474 
775 3343 4217 4447 
830 4447 775 4217 
2140 3613 3985 3355 
2074 1854 3213 2676 
1543 1769 5075 1539 
2323 84 322 1543 
3346 1148 3536 3187 
3233 695 2655 2942 
3346 3536 3864 3187 
2655 3254 3051 3208 
1853 2665 2517 2608 
2070 1476 1853 2608 
1853 2665 2608 1476 
2487 2106 1476 2608 
2070 2608 2487 1476 
3049 2202 3829 2834 
3049 2202 3035 3829 
2800 1870 2610 153 
2610 1948 4691 3214 
4224 1276 4510 2484 
4280 2369 3594 2611 
2274 1818 2281 2661 
2313 5084 2995 3756 
3002 4341 3597 3064 
5022 5084 2995 2313 
2995 2797 3756 5084 
3681 4088 3393 2766 
3681 2766 4518 4088 
2375 3681 2766 4518 
3337 3681 2766 2375 
3393 2766 3337 3681 
4755 2794 5019 50 
1163 5023 3232 1196 
2634 3456 4699 3630 
1561 2643 2427 1652 
2409 3412 3413 2618 
3630 3456 2721 1488 
2618 3412 4317 2409 
1233 1163 3232 1196 
1665 1573 1609 1502 
2429 1573 1665 1502 
2429 1502 1553 1573 
1716 2429 1573 1665 
3630 3456 4699 2721 
3922 340 4699 2721 
3232 4714 1163 1233 
3851 2906 2544 1392 
3981 2544 2906 1389 
1641 1060 938 5035 
938 1060 1641 2238 
3158 1343 2541 3515 
3515 3158 1343 3579 
4422 2596 1488 578 
3826 3877 4181 819 
3916 4644 3180 2769 
1997 2679 3685 3930 
2679 1997 3685 2910 
2339 1997 2679 2910 
3515 3579 1343 1975 
4237 324 1864 2671 
1997 4113 2679 3930 
3120 3058 1853 4251 
3120 4251 3655 2078 
1997 2339 2679 4113 
3141 2232 2671 2644 
1483 1579 2620 1477 
210 2620 2880 1579 
2620 2880 413 210 
457 2620 413 2068 
2270 2620 1477 1483 
3202 2620 2270 1483 
3395 3861 507 2563 
3395 3098 472 507 
2601 2621 3479 2774 
472 507 2563 3395 
2672 5065 3190 5206 
4881 3861 507 3395 
3395 4881 3098 507 
3447 2775 5076 349 
2818 3594 4770 3383 
2428 1470 2279 1727 
1689 2428 2279 1469 
1678 1471 1604 3402 
1672 1564 3402 1881 
1604 1471 1739 3402 
2002 3349 1974 2078 
2002 3349 1944 1974 
1974 2078 121 2002 
1739 1471 1604 1839 
957 4120 3463 3108 
4320 3112 2449 4430 
2254 3467 3112 3909 
4717 3264 3108 957 
2812 2966 792 2693 
3193 4483 4785 3391 
3498 2623 2314 1732 
1482 2427 2453 1626 
1609 2624 1655 2241 
1561 2167 2427 2643 
1609 2241 1502 2624 
1573 1502 2624 1609 
1757 1954 2383 1492 
2678 4496 2149 2496 
5038 3946 938 3088 
5036 3088 3545 5038 
1496 643 1575 5044 
643 2931 1575 5044 
2141 2095 1565 3709 
2141 3685 1565 2095 
2142 1673 1483 2148 
1483 1673 1482 355 
1449 1448 1577 2627 
2627 1928 2284 1544 
1449 2385 2627 1509 
2627 1544 2284 1509 
1449 1448 2627 2385 
3709 3394 2930 2756 
1691 1498 2395 1975 
1691 1498 1975 2433 
1876 2691 3111 2681 
186 2681 2519 3880 
3111 2691 3162 2681 
2681 4250 288 3880 
1691 1498 1752 2395 
288 2681 312 4250 
4237 324 4901 2917 
41 3137 2967 4490 
3154 2967 2876 3137 
2216 1590 2186 2033 
3867 4544 2836 4897 
1483 2263 1482 2630 
2775 3594 2818 3383 
2880 2263 2630 1772 
4334 3594 2818 2775 
1109 3632 2690 2047 
3824 2818 3447 361 
1489 1568 2632 2003 
3101 3250 1985 1568 
2003 1568 2632 3101 
2553 4458 3028 3174 
1881 3402 1589 1548 
1630 1589 1663 3402 
4167 2851 4452 4926 
4032 4391 3341 3427 
3824 3383 2818 361 
2553 3400 3248 3249 
960 956 989 3831 
4051 2558 4466 3049 
2866 5188 2491 3934 
3774 4167 4452 4926 
2195 4306 3829 1253 
3147 2558 3116 3049 
2519 186 3423 2691 
2020 1924 2001 2573 
2519 3423 2004 2691 
326 1535 1570 1531 
3862 4984 3260 4285 
326 2406 1535 1531 
1531 2406 1535 2041 
2691 186 3162 2681 
2691 186 3423 3162 
2573 2001 2223 3524 
4325 1588 3117 4399 
4325 4656 1588 4399 
1659 1588 4983 2909 
1588 4656 1659 4983 
2902 2927 4409 3646 
1672 3402 1604 1881 
4302 2927 3755 4016 
1604 1739 2453 3402 
1588 4399 2909 3117 
1633 3862 3260 4285 
4285 320 4379 3862 
1893 1958 1988 1605 
471 3561 508 552 
2636 1590 2743 2042 
508 552 3561 604 
1633 4379 3862 4285 
3862 320 4984 4285 
3022 1407 3657 3559 
1540 1637 1585 360 
1540 1643 1585 1637 
2639 1981 1858 2425 
4884 2810 1771 2811 
2080 3022 3657 3559 
2290 1542 2168 1889 
1759 1507 1684 1718 
3236 3909 288 2980 
2681 2980 1876 288 
2566 2719 328 491 
2980 1876 288 3236 
288 2980 312 2681 
288 3909 312 2980 
3617 3124 2181 2233 
375 4193 3913 2507 
320 1611 2859 307 
643 1571 1575 2371 
3151 2566 328 4389 
2371 1575 1681 1571 
2556 1762 1834 2381 
2885 2471 1520 1745 
2634 4102 2542 2890 
2335 4735 2456 869 
4754 2381 4802 1532 
2634 4699 4102 3630 
375 4193 4922 3913 
4204 4171 4910 4699 
1543 1996 1813 5117 
3673 667 2130 4121 
531 2787 2566 571 
2335 3153 4735 869 
3366 3284 1299 3187 
1652 2870 1755 2643 
1572 2548 2667 2643 
2643 2548 2167 2362 
2643 1478 2362 1652 
4389 491 531 2566 
2643 2167 2427 2362 
5117 2323 322 1543 
1299 3317 3366 3187 
99 109 3500 2860 
3147 3116 2661 2988 
3500 109 4954 2860 
3271 3336 2776 4890 
3037 4482 2203 3002 
1995 4938 3197 1915 
2295 3178 703 3412 
2295 2409 3178 3412 
3037 3535 2203 4482 
1962 3327 1726 1981 
1962 3327 1981 2425 
1887 1571 2445 1681 
2862 3008 2659 1896 
3008 1848 2143 2535 
2581 3008 2393 1837 
1887 1575 1681 2028 
2701 1675 2208 2607 
1887 1575 2028 1505 
2567 1573 2683 2624 
1764 1509 1449 2284 
2701 1675 2595 2208 
2639 3008 1858 1981 
2161 2996 3008 1831 
3106 3008 1831 2161 
1729 1737 2075 2055 
2604 316 1558 1627 
1675 2701 2595 2877 
1729 2229 1737 2055 
1675 2701 2877 2444 
2581 3106 3008 1837 
3136 2143 3008 1848 
2406 1540 1535 2041 
3136 3008 1981 1858 
1925 3917 3327 2425 
1540 1643 1535 1547 
2041 1535 1547 1540 
3182 3008 1896 2659 
3786 2393 3008 1856 
4203 1527 4759 2959 
3841 1857 3008 2996 
3841 3008 1896 3182 
4203 4759 4984 2864 
2864 2959 4759 4412 
4984 284 4759 1527 
2723 374 3320 2844 
2196 3731 1915 3968 
3968 3731 1915 3678 
3320 374 499 2844 
2723 374 2844 484 
2844 374 499 484 
3313 2688 4080 2702 
2702 4080 3313 1238 
1650 1796 2472 774 
286 2472 774 1650 
1238 1257 2702 4080 
2235 818 3751 688 
3751 2235 688 3542 
3751 818 2897 688 
2402 2332 3078 1948 
2332 2481 1948 3045 
2402 3045 2332 1948 
1682 2131 2370 706 
2132 1724 1640 2370 
1467 1808 1504 291 
1807 1467 1504 1530 
2868 2993 3547 2180 
2868 2993 2825 3547 
2868 3547 3974 2486 
2868 2180 3547 2486 
2868 2825 3974 3547 
1553 1573 2624 2683 
4145 2772 2694 2663 
3501 2706 767 728 
4173 4089 3384 2686 
3501 2706 728 2578 
3645 4751 4617 4001 
3377 3869 2786 3590 
2466 3448 4921 3361 
4241 3368 4173 2686 
3368 4089 4173 2686 
816 815 976 3486 
3405 3486 3435 2897 
4193 4334 3967 3913 
4984 296 5205 299 
2246 1810 1471 1766 
1810 2246 1471 1739 
3358 2209 3225 2380 
3700 3798 359 3002 
3700 3798 4307 359 
47 2742 3001 3297 
2246 1739 1810 1478 
1441 643 1571 1496 
3967 4922 3913 4377 
4342 2214 3361 4921 
3446 3320 2206 2869 
2869 3320 2206 2723 
1926 2554 629 539 
2875 2175 2410 2072 
2554 1926 629 1852 
1875 1926 1852 559 
1875 1926 559 2092 
2072 2410 2875 3608 
1642 2175 4701 2875 
4921 2214 3361 3629 
4921 3629 3361 3448 
4342 4921 3361 2466 
2658 2692 2431 1818 
4922 4193 5076 3967 
3213 2676 2031 4111 
3249 3400 3248 1771 
2658 2692 1818 2543 
3518 3213 4111 2676 
2543 316 2445 2658 
3920 1771 3400 1499 
1495 2601 3311 2400 
4065 4111 3518 3213 
3937 1152 4651 3513 
2601 2774 3479 1812 
3311 2601 2621 2400 
2882 2031 4111 3213 
4065 1525 4111 3213 
4569 4741 1844 28 
2015 2432 3182 2659 
4419 3000 2718 2708 
1307 3513 1292 4670 
3540 3941 3286 3899 
3379 2629 2539 4454 
4973 3750 3304 4915 
3333 1846 1445 2583 
532 3005 1488 3481 
3005 1488 2721 494 
3630 2721 3005 1488 
3597 3535 2203 2609 
3481 3630 3005 1488 
1657 5208 2412 1563 
4922 4193 3967 3913 
3597 2203 3064 2609 
1550 2395 1657 1563 
494 3005 1488 532 
2746 3075 5068 3172 
5068 3075 2104 3172 
5068 3872 2104 3075 
4193 4334 5076 3967 
4415 2810 1771 4884 
1999 2931 2584 3934 
4135 4415 1771 4884 
1999 1538 3353 2584 
2931 1999 2584 1538 
590 3343 617 3176 
590 617 3343 3195 
2752 3363 2840 2182 
3329 3363 2840 2752 
2055 1737 2557 2665 
2055 2229 1737 2665 
2229 1476 1737 2665 
2608 2517 2106 2665 
2557 1737 2517 2665 
2048 799 1956 2666 
2666 2048 799 1170 
845 3004 2840 2182 
3354 2974 1487 3561 
1310 1375 1316 4060 
1263 4060 4361 1310 
2974 3561 3354 4278 
3329 1712 2840 3363 
2564 2271 2408 2281 
2564 2048 2408 3578 
2281 2271 3910 2564 
1263 4060 1310 1316 
2548 2193 2667 2167 
2643 2548 2667 2167 
2643 2667 1755 1561 
828 2407 4128 776 
2407 4288 4128 776 
4376 3132 3178 2295 
2384 4818 1659 4983 
2249 865 2871 3550 
3550 865 2871 957 
2715 2714 3735 4401 
4401 2714 3735 2165 
2909 4983 1659 4818 
4717 957 2871 4211 
2774 3479 2101 2621 
4410 5201 2495 5095 
913 894 2377 2960 
966 1721 2669 920 
4717 4211 2871 3616 
1048 2669 1139 5133 
349 4375 3969 2873 
3114 3311 2621 2400 
3433 3045 2481 3670 
3258 306 4370 4514 
3478 3258 4514 306 
1905 2718 3000 4044 
2009 2718 1905 4044 
1505 1917 5114 5113 
2248 2884 2415 2722 
1036 3398 1001 1079 
3354 3225 641 510 
3354 3225 3358 641 
1036 985 1001 3398 
3407 46 2506 2876 
2967 2506 1991 2876 
5032 4120 3271 1041 
1041 998 3271 5032 
901 2165 763 3616 
75 1825 118 2501 
1617 118 2501 1792 
2502 1617 1794 2501 
2501 118 75 1792 
2502 1792 1617 2501 
1631 286 1638 2502 
1794 286 2502 2501 
1765 2139 1766 1549 
1765 1766 1470 1549 
446 3144 4629 4906 
1759 1760 1715 1616 
2165 901 763 4401 
1760 1759 1498 1616 
698 439 1491 619 
698 1491 439 620 
1377 4064 1413 2726 
2726 4064 3103 2194 
2689 1491 2717 2514 
901 3616 763 887 
4284 2676 2559 2662 
3640 4599 3765 4537 
5092 2676 4213 4503 
560 582 3355 570 
3736 1326 3177 3009 
4283 3009 1326 3736 
3736 1348 1345 1326 
2729 4441 256 275 
3765 4599 4778 4537 
3630 2497 1488 3957 
3481 3630 1488 3957 
3481 657 3957 1488 
699 1488 3957 657 
2497 2058 1488 3957 
3613 560 3355 570 
1929 1897 2717 1491 
3033 2341 1838 1491 
3033 1491 1838 2389 
1491 2137 2389 2689 
2689 2717 1491 2137 
4216 2987 2679 1688 
4011 4216 2725 2679 
3372 4036 4125 169 
3732 4036 3372 169 
3336 1122 3271 4120 
1122 4120 1041 3271 
4120 3271 3336 2326 
1299 1220 1333 2735 
2864 4412 4759 3720 
2859 2785 2864 4412 
4203 2959 4759 2864 
2864 4412 3720 307 
4606 4790 5082 3384 
185 188 4876 3774 
2409 3205 3748 3659 
2785 2959 2864 4412 
3572 3146 1332 3070 
4876 185 3774 4926 
3146 5143 1332 3070 
1332 3070 5143 3385 
2859 2864 307 4412 
1562 771 1556 1555 
4326 543 2348 2889 
2324 2656 2241 1655 
2889 543 2348 2596 
2324 2241 2582 1655 
2889 582 3355 543 
2889 4326 543 3355 
439 1491 2689 620 
2361 2173 2739 3497 
3277 2739 2559 2173 
2739 3497 2743 2361 
2739 2559 2662 3277 
1644 3406 3259 2798 
4383 2798 3406 1415 
2363 2798 3259 3406 
1170 799 2692 2048 
2048 2692 2135 799 
316 2692 2135 2431 
2543 316 2692 1170 
2658 316 2431 2692 
2658 316 2692 2543 
2192 2741 1393 3102 
3297 82 57 2742 
82 3287 3301 2742 
4533 2732 4325 2895 
554 565 4168 797 
3830 5205 4533 2895 
3648 2895 4399 3802 
3830 4583 3833 2895 
5199 1735 4186 3728 
1219 2746 5068 3172 
3830 4533 4583 2895 
1219 2746 3172 1306 
1170 2692 2437 2048 
2437 2048 1965 1170 
2543 2692 2437 1170 
1818 2692 2437 2543 
1965 2799 2048 2437 
2896 4774 4353 3209 
3194 4774 2896 3209 
2976 4755 1991 3201 
3146 5143 3070 3624 
3411 2697 3624 3038 
2159 4643 2160 2492 
56 5019 4755 2794 
2698 3056 1810 121 
3637 3408 3027 921 
121 2216 2698 3056 
232 203 2747 3297 
3348 2481 3621 2751 
1565 3930 3685 2141 
2201 1911 2178 1979 
3298 111 2354 94 
2266 1590 2382 5069 
635 558 632 2160 
2227 3241 3508 2905 
2227 2079 1822 4773 
3167 2905 2680 3286 
182 1551 1600 2089 
2089 182 1671 1600 
3285 1971 3230 2219 
635 558 2160 4553 
1820 3016 3508 3917 
3817 3070 3385 2805 
2905 3286 3167 3917 
2482 4592 3376 2994 
3662 4276 2296 2231 
4510 3070 3385 3817 
4510 3385 1332 4775 
4380 4459 3871 3272 
4412 3720 2936 4759 
3304 4544 3274 5146 
2379 4412 2936 4759 
1980 2907 5066 2937 
2937 2907 5066 2668 
1737 1623 2086 1656 
5171 2907 5066 1980 
1667 1656 1737 2086 
3430 2646 3456 2857 
4953 3720 2936 4412 
703 719 631 3412 
2543 2658 2445 1955 
3777 81 4019 4332 
1955 2445 3596 3419 
2939 1551 2353 4801 
3497 2757 1732 2361 
1903 3141 2353 2939 
3299 2757 3306 2422 
3141 2789 2939 1903 
2757 2422 2361 3497 
4674 2738 4662 2757 
2738 2757 3306 3299 
703 3412 4236 719 
3777 3390 3712 4332 
4019 3390 3777 4332 
2901 946 960 956 
2901 943 946 947 
4997 4759 2936 3720 
3535 2155 2765 2203 
2390 888 1067 1003 
3720 1819 4953 2936 
888 1003 2390 866 
2547 3376 4592 2994 
2989 2756 4189 3912 
2964 999 2908 3907 
2719 491 2759 2638 
3584 2638 2759 571 
2719 491 2638 298 
2967 3589 60 56 
41 3589 60 2967 
41 4490 2967 60 
181 3806 2171 177 
2171 3122 3806 181 
1495 2704 1574 2773 
1948 3459 3045 2434 
4691 3459 3045 1948 
2967 4490 56 60 
1948 3045 2481 2434 
3477 2762 1475 4343 
4793 3448 3074 3690 
5075 1543 1762 2270 
1762 1543 2471 2270 
4045 2765 2523 3342 
2765 3342 3535 5109 
683 2913 1712 4757 
3037 5109 2765 3535 
5208 2667 1572 2744 
4045 3342 3535 2765 
3244 659 2913 1712 
4066 4055 3617 3237 
3075 3485 2154 1126 
2426 2173 2559 2817 
2173 2266 2559 2098 
4157 1126 3075 2387 
2559 2468 5070 2817 
4617 3520 2314 3737 
3075 1126 2154 2387 
2569 1430 1335 2184 
2769 1639 2706 4181 
2569 2338 2026 2056 
2769 4181 3826 3549 
2469 3537 587 2315 
650 4858 2494 3781 
2469 2315 587 4577 
1336 2291 2444 3159 
2291 3452 2544 3159 
3159 2291 2686 2544 
2469 3822 3537 2315 
2291 3452 3159 1336 
1737 2229 1988 1476 
2444 2291 2686 3159 
640 2872 1986 599 
2400 1495 2773 1884 
2741 3976 1419 1413 
2400 1495 4064 2773 
5058 3523 3477 1475 
3477 1475 3523 4337 
2636 2266 2662 2743 
2743 2662 4331 4561 
3348 3979 2481 2439 
549 2979 4534 3200 
2091 1585 2460 360 
352 1534 1585 2460 
3893 2777 2600 1591 
2738 2777 2885 2600 
3331 1493 2442 2777 
2091 2460 2433 360 
2433 1580 2061 2460 
2623 2442 2885 2777 
2609 2203 3164 2954 
2633 1280 1273 1314 
2220 1314 1280 2633 
3535 2954 2203 2609 
2633 1273 1280 2440 
2743 2739 2662 4561 
2743 2266 2662 2739 
2609 2203 3064 3164 
4331 2636 2662 2743 
599 640 2872 4731 
4383 2798 2363 3406 
2348 3073 2513 3330 
4713 3753 1319 1313 
3753 3895 1313 4713 
4713 3753 4180 1319 
4326 2348 3073 2513 
476 457 2253 413 
2210 1080 1013 2377 
3285 1971 2219 4374 
2696 4192 922 1517 
1673 2201 3611 2630 
5208 1476 1572 1755 
1755 1572 5208 2667 
2870 1572 1755 2643 
1572 2667 1755 2643 
4762 4782 3764 3885 
2689 1491 2514 620 
3885 2357 4762 4782 
2874 3938 3500 4954 
2874 70 4954 83 
5170 4762 3764 3885 
2054 1836 2174 3317 
2444 3121 2307 3368 
3712 4023 3633 3773 
3773 3633 4031 4023 
2452 2226 1836 2174 
2444 2686 3121 3368 
124 3712 3633 3773 
5170 2357 4762 3885 
1568 1489 2632 1746 
124 3633 4031 3773 
2289 1600 3870 2346 
2625 3507 1898 4782 
2788 3766 4882 3373 
3766 3296 4882 3373 
4865 3766 4882 2788 
1991 2976 2967 4819 
2379 2936 179 4759 
2936 161 155 162 
2937 4712 1980 1946 
2976 4259 4819 4755 
1330 2790 1367 1345 
1457 1577 2475 2724 
1457 2372 1577 2724 
2330 3256 2809 3523 
2330 3662 3523 2809 
2937 4712 1946 5138 
2792 2773 2194 3341 
2937 5138 1946 2668 
2976 4259 2967 4819 
746 3454 2280 2793 
4011 2590 2725 1494 
746 801 2793 2280 
1946 2907 2937 2668 
2847 1004 3454 2793 
3070 2195 3624 2805 
2466 2926 3231 2749 
2913 4921 587 3142 
323 2926 3231 4342 
4289 3231 323 2926 
2749 4289 2926 3231 
2466 2926 4342 3231 
3754 4921 587 535 
3142 4921 587 3754 
2027 2192 2682 1890 
2192 3625 2027 2682 
3382 3625 2027 2741 
583 587 4921 535 
4921 2913 587 583 
5161 3243 2684 2797 
4900 2797 4704 1307 
959 2901 947 979 
959 2901 946 947 
4746 2780 3994 3443 
2798 2363 2780 4383 
2271 2799 3910 2564 
1818 2799 2564 3910 
1818 2048 2564 2799 
3910 1818 2799 2437 
2437 1818 2048 2692 
2799 1818 2048 2437 
3397 3531 2392 2801 
2392 2801 3531 3378 
3927 4376 863 2320 
3135 458 400 442 
522 3135 4628 442 
2802 3471 2022 1749 
3220 1749 2802 3491 
458 3135 522 442 
2804 1162 2569 2770 
2804 2569 1162 1200 
3680 2805 2220 2493 
2805 3226 2220 2493 
4791 1894 2227 4871 
2805 2169 3226 2493 
2227 3241 2949 3508 
2957 2162 3857 3498 
2957 4294 3498 2853 
2733 2072 3450 1906 
2072 2431 2733 3450 
1695 2526 2349 2806 
2957 2853 3498 3857 
2287 2806 2349 2526 
1484 4294 3498 2957 
2957 2162 3498 1484 
4151 3113 2734 1675 
1291 4681 1221 3726 
3113 2514 2734 1675 
4151 2734 3495 3208 
2514 3208 2734 2717 
3495 3208 2734 2514 
2949 1821 2374 3508 
4342 3361 2926 2466 
4342 456 2926 3361 
4634 2482 4395 3986 
2994 4592 3261 2482 
3986 2482 3261 2783 
3986 2994 3261 2482 
5091 2860 3466 5089 
2656 4655 2918 1366 
3466 2860 4381 4140 
4049 4978 2812 694 
1385 2553 2727 1387 
1622 1603 1763 2736 
1745 2565 2736 1603 
1745 2319 2736 2565 
2736 1622 2485 1763 
2319 1622 2485 2736 
2343 2454 868 2509 
3907 2509 940 868 
2509 3907 2454 868 
1679 2737 3236 2254 
2254 2737 3236 3112 
790 2956 4724 735 
735 2956 4724 4762 
2927 3646 4299 4409 
2927 3646 2813 3711 
4299 3646 2927 3711 
4439 3959 1162 2804 
2211 1322 3325 3849 
2820 4518 2375 4173 
3325 3849 1322 2375 
3785 4518 2820 4173 
3983 4439 3959 1162 
2743 1732 1590 2361 
2266 2743 1590 2361 
1160 2821 4810 4989 
4924 4190 1191 2821 
2408 2614 3252 2824 
2441 2744 2489 1657 
1561 2667 2489 1489 
2744 2489 2667 1489 
2744 2667 1572 2193 
2441 2744 1657 1767 
2744 2193 1572 1767 
3555 3036 5078 3145 
4182 5078 3036 4743 
5078 4743 3145 3036 
2614 2150 3252 2824 
5078 3555 4182 3036 
2150 2614 849 2824 
3128 2915 3665 3071 
693 3703 664 749 
3271 3555 5032 981 
749 3703 742 693 
693 3716 664 3703 
2459 2761 2817 2031 
2761 2817 5070 1479 
2934 2498 1959 2580 
2934 2105 2498 2580 
4517 3703 693 742 
693 3716 3703 4517 
2489 2412 1550 1657 
1561 2412 1550 2489 
3767 3133 4215 219 
1657 2412 1550 1563 
2438 2269 2748 1646 
1580 2438 2748 1646 
170 2748 1580 2061 
3767 3133 219 3418 
3113 3004 3495 1490 
934 3388 2176 898 
934 3388 898 5041 
4151 845 3208 3004 
3004 3113 2645 1490 
4827 3418 3521 3133 
4215 3133 4052 219 
3236 3909 2980 2254 
2681 1480 1876 2980 
2808 3605 4288 3105 
1480 1876 2980 3236 
378 2959 342 4203 
4759 4455 2959 1527 
1390 4252 1380 1432 
3736 1315 1326 4283 
1315 1348 3736 1326 
4767 3141 2232 2285 
3200 506 2979 2285 
4344 2625 2113 3668 
2625 4782 2113 3507 
3506 3312 2674 597 
4890 3071 3271 3736 
1638 1628 1942 2148 
2322 1638 1942 2148 
2148 1942 2322 1769 
870 2914 873 3866 
1315 1348 3071 3736 
3736 3271 4890 4283 
1553 2624 1816 2683 
2683 2624 1816 2918 
4432 1584 4020 4187 
1657 1767 2755 2441 
1767 2003 3687 2755 
1767 2003 2755 2441 
873 2914 3061 3866 
3340 2377 1080 2210 
3340 2210 3424 2377 
1955 2304 3147 2834 
1330 1305 2835 2811 
1928 2627 1449 1577 
2627 1928 1449 2284 
2627 2284 1449 1509 
4544 4138 4382 2836 
1274 4890 2837 1225 
2091 1691 1975 2433 
1975 2504 2433 1498 
1497 1691 1975 2091 
2395 1497 1691 1975 
2839 4893 4345 4183 
873 2914 4929 3061 
2313 5084 1290 5119 
2999 2776 1377 3876 
2313 5084 3756 1290 
1290 5084 3756 1307 
3616 2871 2165 831 
977 1938 2842 2210 
5084 1290 4571 1307 
2210 977 1019 2842 
1143 1019 2842 2210 
2871 2249 2165 831 
4144 2087 934 3388 
934 3388 2087 2176 
1642 2175 2875 2072 
2072 2875 1642 3608 
2875 2274 3667 3608 
2964 957 940 2509 
4374 4617 3308 475 
4374 4617 475 3737 
2964 2333 3676 957 
2845 713 635 2159 
635 2160 2845 2159 
635 2160 704 2845 
2882 2459 2031 2761 
635 704 713 2845 
1959 2586 5030 1867 
1959 2580 1867 5030 
2761 5070 2586 1479 
2964 957 3379 940 
2964 957 3676 3379 
3216 2303 4052 1862 
2595 2764 2823 850 
2831 2764 565 2823 
3360 2928 2760 5080 
2731 3975 5080 4387 
679 3228 2003 2847 
746 2847 3454 2793 
746 2847 2003 3454 
828 4869 2407 4256 
4024 2971 2848 1732 
4723 2848 4159 2660 
2766 2589 2815 2948 
828 4869 4766 2407 
4024 1732 2848 2743 
2849 3180 2314 421 
1833 2240 2849 457 
2068 1833 2849 457 
2849 2314 3396 2240 
2567 2918 2076 2624 
57 47 4022 4115 
3589 2796 3938 3473 
2567 2683 2918 2624 
2719 491 2566 2759 
4115 4022 4248 47 
1654 4274 3116 2661 
4115 73 4063 4248 
3096 3309 2153 2107 
2107 3309 2153 2395 
1657 2395 1775 3309 
2390 2107 2755 3309 
2002 2115 1739 1810 
2002 1810 1478 2078 
2115 1810 2002 2698 
2002 1739 1478 1810 
2002 1810 2078 121 
2698 1810 2002 121 
3959 3768 2804 4439 
5142 2804 2569 2770 
5142 2136 2804 5158 
5160 3959 4439 3768 
2512 2661 4274 1654 
1654 3010 2512 2661 
56 3589 76 3473 
2512 1654 4349 3010 
2935 2876 41 3137 
3521 4827 3133 1862 
3240 4041 3459 3503 
2719 2638 3446 298 
3455 457 3202 513 
4240 457 3455 513 
2342 4453 2973 4106 
3186 2894 3268 2808 
566 2342 2825 2973 
2825 3547 2993 2973 
3618 3547 2993 2612 
342 1527 3648 4203 
1885 2774 3568 3311 
3311 2774 3568 2621 
4419 2646 3000 2857 
2857 2708 4419 4405 
4621 932 3461 4228 
932 4221 3461 4228 
932 910 3461 4221 
932 4626 910 4221 
3290 178 3295 4462 
932 3461 910 4621 
2162 1639 3857 3549 
3295 4462 178 3289 
608 538 3205 558 
558 3205 3939 538 
3048 3591 2563 3144 
2023 446 440 3048 
1275 1272 1240 3548 
1110 2613 1085 2810 
1275 3548 1302 1272 
4145 584 549 2190 
4428 4145 584 549 
2023 440 2617 3048 
4430 549 4145 4428 
1686 3303 1850 2867 
4914 646 4085 2616 
2113 1924 4782 3764 
2616 646 4085 3209 
2573 4782 1924 4596 
3567 2616 3209 646 
2456 4735 2977 869 
2834 3147 3543 4522 
3257 2834 3419 1253 
1147 2834 3276 3543 
661 2494 3584 3858 
2452 4191 3317 2424 
2514 1491 2056 1058 
2456 2237 2977 4735 
2237 4735 2256 2977 
1980 2907 2937 1946 
4753 415 3105 376 
4921 2913 583 3629 
4921 3629 583 535 
3163 3250 1746 3795 
2832 2670 2612 599 
2941 2786 1441 2633 
3834 1855 4284 2031 
643 2786 1441 2941 
2881 1855 3834 2031 
2832 3052 2612 4551 
3406 1976 1393 2798 
599 2872 3052 2832 
3586 3846 704 632 
2160 3846 632 704 
745 3846 704 3586 
3748 4602 403 3659 
640 5172 2872 4731 
3322 3748 403 3659 
3055 3807 1884 1432 
1432 4108 3807 3341 
3341 1884 3807 1432 
1437 3807 3055 1432 
2553 3028 2901 2854 
2901 2854 2938 2553 
2553 3248 2901 3028 
3400 2901 2553 3248 
2980 1480 2232 4237 
2878 2448 1677 3739 
599 4731 2872 2832 
2938 2901 2553 3400 
2373 3165 1677 2448 
3909 2232 2980 2254 
3906 2832 4551 3052 
599 4731 2832 2670 
2789 153 88 3214 
1480 88 2529 2789 
2789 3214 88 2529 
1903 2939 2353 88 
2789 88 2939 1903 
158 4034 280 148 
124 158 148 4031 
4282 3546 2595 4168 
158 4031 4034 148 
2180 3168 2993 2670 
3068 2189 798 3123 
3068 3123 798 3611 
2389 2982 2138 1929 
2138 2982 2602 1929 
3168 593 2993 2670 
2795 2647 3170 1162 
3045 3433 3503 2477 
2993 3168 3859 593 
1987 2392 2497 1728 
1987 3392 1728 2172 
1987 2392 1728 3392 
2459 2881 2505 2031 
2612 593 3065 612 
4093 2893 554 797 
2881 3834 2505 2031 
2459 2031 2817 2881 
2817 2426 2881 2031 
4430 3112 2449 3151 
5002 4879 5153 4244 
665 696 3176 3204 
1561 2667 2412 2489 
1755 2667 2412 1561 
3204 696 3343 653 
2884 1905 2718 2172 
2884 1685 2172 2965 
3003 2053 831 763 
2965 2884 1685 1078 
4232 3091 3832 763 
2135 1551 2800 452 
2939 2800 1551 452 
452 2800 2610 153 
452 2800 1817 2610 
2135 2800 1817 452 
2473 4762 4160 4560 
4814 640 593 4731 
2737 3112 2317 2376 
3636 4517 3703 3716 
4925 4047 3186 2808 
2891 488 2473 2120 
3255 2696 2528 1501 
2809 1747 1475 3997 
2809 4385 3997 1475 
2891 488 2120 3369 
1012 2810 1055 995 
2696 4306 3848 3255 
3016 2020 2374 2223 
349 4334 5076 4193 
2116 1486 5020 1919 
1763 1919 5020 1486 
2892 2554 504 293 
443 1929 2005 401 
879 3931 3344 916 
2138 1929 4532 2005 
3931 929 1501 2528 
443 2005 1929 2137 
3345 4246 3900 2881 
3779 2881 3211 3345 
2228 1673 2814 1492 
1673 2383 2814 1492 
1954 2814 2383 1492 
2814 1492 1954 2511 
2228 2814 2511 1492 
2174 3631 3227 3224 
4191 1261 1260 3897 
465 417 415 2894 
5094 4117 4838 4837 
3498 2777 2162 2623 
2374 1821 3016 3508 
3016 2020 2223 2573 
2738 2623 2885 2777 
1484 2162 2777 3331 
999 2333 3676 2964 
3018 253 4208 4969 
3018 4969 265 253 
2694 2159 2492 3674 
947 952 950 2899 
2899 947 963 950 
3674 4145 2694 2159 
2492 2159 4643 3674 
3307 2694 2492 3674 
3674 4145 3307 2694 
2678 2238 3508 2496 
218 253 4896 3018 
2496 1934 3508 1925 
218 253 3018 265 
2798 3259 2780 2363 
1644 3259 4359 2798 
2798 3259 4359 2780 
3020 2369 2775 397 
2689 160 3216 305 
3959 3191 4046 2962 
2795 3191 4257 4046 
4257 3191 4378 4046 
2309 2122 1730 2199 
490 546 2904 1944 
3959 3191 2795 4046 
1944 3014 4460 2904 
4046 4378 2962 3191 
2904 3014 4142 2576 
3381 2759 2466 3151 
429 2253 413 476 
2253 429 4086 476 
4017 3340 3769 3095 
2904 3442 3014 2576 
4017 3095 4625 3340 
4017 3340 4889 3769 
3349 3442 3014 2904 
2551 302 318 338 
2041 1547 1497 1540 
1540 1497 2345 2091 
2411 2041 1497 1540 
2411 1540 1497 2345 
2600 3345 4062 4091 
1540 1585 1497 2091 
1540 1585 1547 1497 
5001 50 4755 45 
4259 45 5001 4755 
1735 5199 4186 2526 
3186 2894 2808 4047 
3023 3104 2152 310 
2223 3327 3524 2110 
3023 2152 2723 310 
1011 4274 4606 3469 
3917 3286 3167 3524 
3327 3016 3524 3917 
2912 3858 3584 4485 
3928 4701 2572 2512 
3928 4701 2512 4349 
2217 2402 2317 2737 
3112 2254 2402 2332 
3430 4914 2687 2616 
2402 2332 2317 3112 
2687 4914 4085 2616 
2103 939 2248 1056 
2737 3112 2254 2402 
2402 3112 2317 2737 
984 2380 1077 2007 
2687 2616 4085 4774 
2699 2221 3001 2747 
2855 3636 4517 3866 
4606 3384 5082 3600 
5082 3469 4606 3600 
2766 4173 2916 2375 
3297 2221 2747 3001 
3025 4857 4768 817 
1779 1812 1306 2455 
186 2681 2917 3162 
56 4755 2976 59 
56 4259 2976 4755 
3116 4051 4407 3035 
56 4259 2967 2976 
4051 4407 3469 3116 
56 2976 3473 3850 
56 2967 3473 2976 
3574 2680 1939 2451 
142 3077 2921 2302 
2561 2302 142 2921 
3077 2490 142 2921 
258 2570 4786 3030 
258 217 3030 4786 
3030 4876 217 266 
1003 4808 3579 2925 
417 2922 3778 3285 
2648 2237 5157 2675 
3579 4808 1003 3684 
3309 3579 2925 1003 
2218 3936 1951 1843 
3449 3936 1951 2218 
3309 3579 1003 1067 
3684 1003 3579 1067 
1202 1248 2924 1241 
1079 3863 4221 1001 
2420 4612 4253 4354 
2688 1202 1248 2924 
1542 2063 2930 2838 
2485 2910 3685 2838 
2063 2095 2930 2838 
4406 2686 3628 3384 
4613 4948 2631 3851 
2221 2747 3295 203 
4613 3851 2631 2647 
1241 1264 2924 4612 
1218 1261 2929 1267 
4612 2924 1267 1264 
1218 1261 3129 2929 
2420 2702 2929 2924 
3129 2420 1218 2929 
3459 4041 3045 3503 
2977 295 2256 3041 
3079 3295 143 2221 
2854 2901 943 960 
2977 2256 295 4735 
2511 2479 2841 356 
1614 2241 2841 356 
1502 2241 356 2841 
2511 1954 356 2841 
1954 356 2841 1502 
2479 1614 2841 356 
2266 2559 2662 2739 
4938 3104 295 3041 
4085 2932 4096 2950 
4085 843 3623 2932 
2314 2623 2240 1732 
2623 2255 2240 1732 
4938 3041 295 2977 
3168 566 2825 2993 
5086 2310 4011 1494 
5086 2310 1494 2940 
5086 1494 5085 3599 
5086 1494 3599 2940 
3267 4011 5086 2310 
5086 5085 1494 4011 
2825 2993 566 2973 
2524 3884 2973 3618 
2997 3623 3688 3864 
3532 1497 1485 2117 
3688 3623 3553 4423 
4423 3553 3688 3536 
3536 3864 3688 4423 
3871 1559 4702 3763 
3864 3623 3688 4423 
3364 3871 4702 3763 
4453 2973 3884 2342 
4294 2853 2957 4166 
4453 2973 2524 3884 
2949 3241 2227 3043 
236 234 5196 4824 
3659 3510 2409 2618 
2850 2273 4394 4395 
2850 121 102 3056 
1974 2078 2904 2144 
3556 845 3502 4151 
951 1020 2377 944 
3344 3931 912 916 
2655 3254 3811 3051 
2432 4074 2006 2943 
2441 1568 2489 1489 
1489 2744 2489 2441 
2340 2744 2441 1767 
83 70 4954 86 
3502 845 3233 3208 
4151 845 3502 3208 
2773 1574 2012 1249 
2773 1249 2012 4064 
4954 86 4607 83 
2773 2704 1574 1249 
459 2563 524 3048 
3591 3395 2563 3144 
1357 1376 2727 3174 
3471 5153 5152 3220 
960 3831 989 2854 
2213 2023 3179 3048 
1918 1210 3219 3530 
3094 34 33 46 
419 3716 2720 4010 
3052 599 612 639 
3906 4160 2872 3052 
1210 3219 1099 1066 
3670 2376 3433 2317 
3665 2776 2640 3128 
5127 5040 3814 2087 
3665 2776 3128 3071 
599 612 2612 3052 
2832 599 2612 3052 
4947 3298 62 3291 
2947 1599 2130 2261 
3673 1599 2130 2947 
3906 2832 3052 2872 
2703 3252 2948 2572 
2703 2572 2948 2589 
4300 3252 2824 2948 
2948 2589 2815 4402 
39 33 46 3094 
39 5079 46 33 
3291 4721 62 4947 
3795 2624 2656 1816 
2656 1816 2624 2918 
2201 2178 2630 1492 
34 46 4815 33 
2201 2630 2178 2059 
3795 2656 3134 1816 
4085 2932 2950 843 
3134 1816 2656 4655 
2656 1816 2918 4655 
1772 1744 2178 1489 
33 46 4815 5079 
877 2522 2914 3866 
4128 3234 3866 3061 
2159 584 4145 2190 
873 4128 3866 3061 
1842 2930 3394 1845 
2522 3234 3061 3866 
2402 2254 5053 3078 
4428 2159 584 4145 
3124 3617 2181 2695 
1711 2953 1877 2087 
1877 5040 2087 2953 
2230 5040 1877 2953 
1711 2953 2197 1877 
2197 2230 1877 2953 
1025 4306 3848 2696 
3617 4066 2695 4055 
2306 4687 1575 2931 
2028 1575 2866 1505 
2181 4066 2695 3617 
2931 2306 4687 2450 
1683 2844 518 499 
2760 3964 2955 4093 
2760 2751 2955 3964 
4093 2893 2150 2955 
2955 3973 4093 2893 
2434 3973 2760 2955 
3124 4055 3617 2695 
2768 462 3345 4062 
4377 471 3561 449 
3561 471 508 449 
449 2611 508 3561 
3967 449 3561 2611 
3967 4377 3561 449 
2796 3127 67 4796 
4858 1683 2844 518 
2973 4453 3828 4106 
2973 2993 566 3065 
266 2778 3104 310 
2705 2568 398 3069 
4560 2626 455 488 
2808 3234 3605 3268 
4217 2522 3866 3234 
398 3069 2568 4960 
2870 1476 1853 2070 
2870 2070 1758 1476 
1755 1476 2870 1758 
2870 1755 1572 1476 
2870 1853 3086 3655 
2413 4204 2542 2264 
2869 2778 2538 310 
3480 2058 3957 4422 
4510 1332 3385 3070 
699 3480 4422 752 
4204 2634 2542 2264 
2634 4102 4204 2542 
2542 4204 354 4102 
345 4204 354 2542 
3698 590 617 3176 
4214 2281 4274 2766 
3636 4288 4081 3105 
2855 4288 4081 3636 
4166 4194 3865 2957 
4785 1378 4715 3516 
4715 3391 4785 3516 
2848 2008 2971 2660 
2189 1851 2826 1979 
1851 2241 1126 1979 
1378 1356 4715 3516 
4274 2281 3116 2661 
2512 2661 2281 4274 
4627 3725 4444 3881 
3663 1979 2826 1126 
1126 2656 2241 2324 
3233 3208 2655 695 
695 821 3233 3208 
4158 1344 1985 2683 
1985 1908 1553 2683 
2597 2683 3686 2525 
2808 2894 3605 3105 
996 2405 3502 3170 
996 3556 3502 4151 
996 2405 4151 3502 
524 499 484 2844 
1321 1288 4298 3248 
3987 3128 4298 3249 
3249 3128 4298 1321 
2484 2961 1221 1276 
3249 4298 3987 3248 
1321 3248 3249 4458 
3572 3961 1317 3038 
3060 3572 3038 3961 
2484 1938 2961 3060 
1321 4298 3249 3248 
5170 2473 3764 4762 
3502 2026 899 988 
3533 2621 3479 2601 
675 638 3074 4223 
680 628 3074 645 
2685 5159 3583 1270 
4793 711 3074 4223 
5159 1282 3583 1270 
2685 3583 1351 1270 
2172 1728 3682 1838 
5027 883 3338 2750 
1952 2102 2479 2084 
2479 356 2084 2102 
2980 4237 312 2681 
1675 2823 1058 2877 
190 2379 3081 166 
2853 3496 3268 3186 
3081 227 4795 198 
3081 190 166 198 
2894 3268 3496 3186 
3268 3186 4166 2853 
2853 3268 3865 4166 
745 3270 724 835 
4455 2959 3081 2379 
4795 265 248 3018 
2406 2117 2411 2041 
4795 4412 3018 3081 
2970 2806 5207 3620 
1531 2117 2406 2041 
2620 2880 1483 413 
1483 1579 2263 2880 
2620 1483 2880 1579 
1772 2880 413 2630 
1483 2263 2630 2880 
2784 3809 545 4429 
3498 2314 2971 1732 
2853 3857 3898 2971 
3498 2314 3857 2971 
4819 1991 2976 4755 
3944 2442 2259 2162 
2162 2623 2259 3549 
4557 2259 1639 2162 
2162 2259 1639 3549 
4557 3944 2259 2162 
4078 982 4625 4228 
2103 2365 4783 2250 
4293 4043 2083 2972 
2442 1745 2885 2352 
2255 2885 2738 2623 
2255 2885 2381 3299 
3299 2885 2381 2421 
2600 2352 2885 2421 
2442 2471 2885 1745 
489 4160 2321 2298 
4348 2298 4160 489 
353 2542 358 396 
2645 671 3943 4504 
3943 4504 3004 2645 
589 526 2974 3139 
420 418 2975 460 
4718 492 4196 432 
4718 2975 3627 3723 
5183 3593 2649 3364 
2649 3593 1743 3364 
3364 3593 4526 5183 
3763 3593 4526 3364 
4519 1174 1049 3886 
3004 4504 3943 1712 
3943 1712 4504 671 
3886 3084 4519 3082 
1150 4305 3421 1061 
4245 2979 2332 3979 
1174 4519 4866 3886 
1094 3116 1501 2988 
3979 2979 2332 1870 
1302 4048 1357 3548 
1094 2988 1501 3848 
2159 584 663 635 
5049 635 584 2159 
2901 3831 3145 956 
3066 4015 2899 2938 
3248 3831 3145 2901 
2901 3145 3400 3920 
3248 3145 3400 2901 
1906 2285 2344 1870 
2344 2285 2979 1870 
2983 2803 1860 1780 
2901 956 3145 3920 
1906 3200 2344 2285 
2344 3200 2979 2285 
3723 2986 3173 2855 
2985 1253 2133 2195 
1253 2133 1280 2985 
2986 3173 2855 838 
2985 2133 2220 2195 
1985 1908 2683 3686 
2220 1280 2133 2985 
1003 866 804 4315 
3973 2893 554 4093 
4137 1817 2282 2893 
3173 837 3723 2855 
2734 2717 2026 2514 
1003 3582 4315 804 
2734 899 2026 2717 
2689 3254 2717 2137 
2689 2717 3254 2514 
2137 3254 2717 3051 
3085 4453 2708 4774 
1622 1494 2319 2485 
3193 3421 4361 3839 
3193 3839 4361 1500 
4560 2247 2803 2298 
2990 4318 4726 2592 
4361 3421 1258 3839 
1258 4361 3839 1310 
3862 4936 4983 4323 
4936 4983 1738 5124 
3811 3822 2990 3254 
1310 3839 1500 4361 
2677 4726 2592 2990 
2776 3336 1377 3876 
1568 2395 1498 1775 
1616 2395 1568 1550 
1616 1760 1715 1568 
1616 1568 1715 1550 
2326 1377 2640 2776 
3336 2326 2776 1377 
3731 295 4547 869 
2707 4719 2141 1006 
4266 4831 1309 2992 
4150 2992 4831 4266 
3329 2752 3537 2469 
3448 3074 3629 3361 
3293 3130 3483 2747 
306 3451 4357 3428 
4384 3541 4387 2846 
2466 4921 3448 2673 
4619 3541 2898 2952 
3537 1712 2840 3329 
3688 1905 3553 3623 
3257 1955 3419 2834 
3257 2985 2220 2195 
3088 3946 938 2149 
1131 4107 1175 1090 
3864 2997 3644 1685 
2758 2772 4145 2663 
1131 4107 4218 1175 
5036 2678 4871 3088 
2758 2329 2190 4145 
1905 2172 3000 2718 
3462 4871 2678 3088 
4419 3000 2172 2718 
1905 2172 1987 3000 
4419 2646 2172 3000 
2172 1987 3000 2646 
3329 2840 3537 2752 
3297 3001 55 81 
2149 3088 3946 3462 
47 3001 55 3297 
2926 3361 545 4429 
3862 2785 3050 2859 
2859 2785 3050 2864 
3753 1342 5077 1360 
3002 2879 454 359 
359 4341 3002 412 
320 3050 307 2859 
320 3050 2859 3862 
3898 3865 2853 3496 
3865 3857 2853 2957 
3605 2911 654 611 
109 3604 99 92 
2911 2219 611 1751 
5091 3604 3466 2860 
2859 3050 307 2864 
2776 2999 1377 2640 
2837 3336 3876 1377 
1413 2640 1377 2999 
2522 877 3062 3484 
877 2522 3062 2914 
2201 1979 2178 1492 
1419 1413 2999 4646 
3013 177 4052 2677 
4646 2640 1413 2999 
2590 1505 2910 1518 
2119 763 3605 2053 
760 835 3270 823 
3091 2053 2119 3234 
3526 3832 3091 3003 
3091 2119 4128 3234 
3894 2733 4694 3608 
39 33 3094 37 
3094 34 38 37 
34 37 3094 33 
3083 614 3645 662 
4325 3410 4656 2732 
2914 2522 3062 3061 
2424 1237 3897 4191 
1398 4005 4935 5077 
1171 4015 1229 1499 
3961 4571 3038 1290 
3097 4882 3300 2822 
4805 1307 3513 1290 
1522 918 2696 1501 
1025 3848 1522 2696 
918 922 1522 2696 
2696 1517 922 1522 
2855 4081 2986 3636 
3636 2855 4517 2986 
2986 822 2855 4517 
39 33 37 36 
3235 3415 2231 3332 
3360 2764 4168 565 
3332 3415 2231 4276 
1025 2696 1522 1517 
3848 1501 1522 2696 
4334 5111 349 2818 
2988 3147 4522 2661 
1250 2697 3038 4067 
1250 3374 2697 4067 
4522 1094 1147 2988 
3848 2988 1147 1094 
2384 4818 4983 4323 
2384 5209 4323 4983 
4884 1305 2811 3021 
2811 2835 2181 3021 
5111 4375 2873 401 
3395 426 3098 4881 
444 426 3098 3395 
4047 2894 2808 3105 
2380 3313 2420 2688 
2008 2314 2849 2240 
2688 2380 3313 3595 
3313 3358 2380 3794 
3313 2380 2420 3794 
3595 2380 3313 3358 
5111 4375 349 2873 
2818 2873 349 4090 
4635 625 3716 3984 
742 3703 749 777 
512 574 3716 528 
776 828 3653 4128 
3622 4807 3856 4800 
412 3024 560 515 
3024 3658 3355 515 
4852 1918 1141 3219 
3219 4852 1066 1141 
1028 1141 1066 4852 
4707 4807 3622 3322 
4938 3882 3104 2606 
160 2677 3458 2336 
1055 1003 994 2925 
2426 1855 2881 2031 
2426 3277 1855 2031 
2099 1430 2569 2184 
2226 1430 1371 1417 
1598 2399 3972 3026 
3637 3408 921 4567 
1034 3027 4994 3945 
2031 3277 1855 4284 
4567 3637 3408 3931 
3945 3027 3588 1034 
3197 4938 3882 3104 
1325 3895 3666 4714 
2609 3164 2603 2886 
1325 3666 3066 4714 
3895 4713 4714 1325 
3164 3355 3064 2603 
2609 2603 3064 2050 
1486 2168 2049 1998 
1468 2168 1998 1730 
3332 4958 4856 200 
1998 2168 2049 1730 
2619 2572 3029 3217 
2063 1649 1542 2930 
2619 2439 3029 2175 
612 3085 4425 4112 
639 4112 612 4425 
5044 2584 2931 4687 
3809 2926 3878 2749 
3031 2897 4429 3809 
4223 3504 758 3031 
2466 3504 4223 3878 
4507 2264 1910 3032 
4770 2413 2542 3032 
4334 4770 3032 401 
2542 2264 4507 3032 
4334 4770 3594 3032 
3781 650 4858 580 
3085 4112 612 4987 
3116 2558 4051 3049 
650 580 3781 739 
3740 3035 3060 4609 
4407 4051 3740 3035 
580 2121 3781 739 
3781 4858 544 580 
4770 361 380 3059 
4471 3036 3555 3145 
4770 3594 380 3383 
2802 3220 3471 1749 
3036 4743 992 4740 
2934 2586 5030 1959 
2934 2580 1959 5030 
3036 4740 992 1050 
454 3037 3238 3002 
3238 3037 2203 3002 
3798 3037 3002 4482 
454 487 3037 2765 
3420 5109 2765 3037 
3798 5109 3037 4482 
2938 2854 2899 2727 
934 961 2087 1002 
4884 3021 4135 3039 
1889 2063 2838 1763 
1889 2063 1763 1603 
2063 1603 1889 2132 
3054 2986 3984 3627 
3054 2986 3627 2975 
413 513 2253 2630 
1772 413 2253 2630 
1421 4336 2852 3382 
1421 2852 1419 3382 
2852 3382 4229 3976 
2852 4336 4229 3382 
153 1870 2939 2800 
153 452 2939 4801 
153 2800 2939 452 
182 1511 2940 1582 
2940 182 1651 1511 
2940 2577 182 1582 
2577 2448 3165 2940 
2878 1651 2940 2448 
2373 2940 3165 2448 
2941 2654 1273 2371 
2941 2633 1273 1314 
2941 1571 1273 2440 
2941 1273 2633 2440 
1273 2654 2941 2508 
2654 2786 2941 2508 
397 3824 2369 2775 
3742 2197 3544 1918 
3382 2852 1419 3976 
3219 1918 1141 1210 
3186 4166 4294 2808 
5144 1918 3742 3544 
3429 1493 1978 3042 
2546 3429 5085 3042 
2485 3042 2243 2725 
1210 3219 1066 1141 
2319 3042 2243 2485 
2944 2193 2167 1489 
2944 2167 2362 1744 
2944 1772 1489 1744 
2944 2166 3560 1489 
4494 2369 397 3824 
2944 2166 1489 1772 
2944 2167 2548 2362 
3042 4011 2316 2725 
3042 4011 5085 2316 
1978 1493 2319 3042 
1141 1210 1918 3440 
813 2540 3492 670 
709 813 3492 670 
604 670 3492 572 
604 3492 670 709 
3471 1749 3220 5152 
781 2555 2259 1845 
2555 2259 3787 781 
2259 3877 3787 781 
2259 1845 4725 781 
2097 3281 4884 1217 
2259 4725 3877 781 
4884 1123 1217 3281 
1712 3004 2840 845 
3537 3004 2840 1712 
3047 4184 2779 5000 
5158 2779 3047 4184 
2854 943 952 964 
943 952 2899 2854 
2901 943 2899 2854 
2593 3049 2304 2202 
777 3703 4447 4131 
4466 3049 2593 2202 
3035 3049 4466 2202 
4115 43 73 4248 
4248 4115 43 4022 
2249 2871 865 831 
2802 3948 2022 3471 
2601 1779 4686 1998 
4856 3220 2802 3491 
2802 3948 3471 3220 
1998 450 1812 1468 
1998 2601 450 4686 
65 43 4248 73 
3051 2137 2942 641 
2952 3119 3012 2052 
2655 3051 2942 695 
2655 3051 695 3208 
2137 3051 2717 641 
2052 2952 3478 2951 
4933 1926 788 629 
3051 3208 2717 695 
2952 565 4370 2831 
2671 4798 4237 324 
4370 2952 2928 565 
3552 807 3675 2830 
4798 4237 2232 2671 
3960 3127 2506 48 
4211 865 2871 831 
2506 5079 48 3127 
2720 414 4549 3054 
3003 2249 865 831 
3484 3003 865 831 
2254 3236 1679 2114 
2529 1480 2254 2114 
3723 2975 2986 4081 
3767 4073 4215 1964 
4388 4267 5003 4440 
4081 3105 2720 3636 
4081 2720 2986 3636 
4388 4267 4440 330 
2002 2263 2362 1739 
4223 4793 3448 3074 
3542 688 2897 3416 
3751 688 2897 3542 
818 3751 2897 914 
2673 4793 3448 4223 
4553 2160 2159 4643 
4553 635 2159 2160 
4398 4361 4060 1500 
4553 2160 4643 466 
4466 4623 4051 3740 
1496 643 1571 1575 
1310 4361 1500 4060 
3035 4051 3740 4466 
3740 4466 4623 4067 
2405 996 2307 3121 
3172 2746 3479 1306 
2044 1434 2438 1390 
3121 3170 2405 996 
2748 1434 2438 2044 
3696 343 3135 366 
2728 2549 2933 226 
343 4328 3696 3135 
344 4328 3135 3744 
3913 3967 3561 2611 
2492 2160 2551 3852 
3913 4377 3561 3967 
2492 2160 3852 4643 
2958 4056 3643 1977 
2160 3852 386 2551 
2958 3109 1778 3821 
1778 5208 2958 3821 
2160 466 386 3852 
4643 2160 3852 466 
245 4014 285 147 
4022 43 42 4039 
3663 3163 1746 3795 
3163 3663 4235 3795 
73 42 43 4039 
1393 1413 4646 2640 
4022 43 4039 4115 
73 4039 43 4115 
1393 2741 1419 1413 
784 4521 4599 891 
1972 3741 4209 1997 
1393 1415 1419 2741 
1997 3930 3820 1972 
1972 4113 3741 1997 
950 3140 4258 2899 
1997 4113 3930 1972 
366 411 3135 442 
4209 3820 1972 1997 
1367 3071 2999 1348 
2387 4157 1126 1950 
2669 1721 2960 920 
510 3139 641 3354 
438 4405 3239 4293 
438 3239 2164 4293 
2927 2813 1699 3711 
3446 4475 3774 2869 
3051 641 2942 695 
641 3051 2717 695 
4947 3001 4271 2354 
3298 3001 4947 2354 
4786 2869 3774 4876 
2064 2296 5198 3527 
2562 2887 769 722 
2296 2591 5198 4195 
3774 4786 4452 3320 
4757 1712 2571 3142 
3527 2296 5198 3332 
5198 4195 3332 2296 
2296 2591 2064 5198 
784 2415 4521 891 
701 2415 3950 4169 
918 2528 916 912 
3950 2415 2722 4169 
2627 1448 1577 2963 
2627 1448 2963 2385 
2963 1448 2088 2385 
2475 1577 1448 2963 
4455 4759 206 250 
206 214 179 4455 
1599 3080 2130 2388 
918 916 2528 929 
99 2860 3551 4381 
1599 1485 3080 2388 
2146 4121 3673 3080 
206 4455 179 4759 
3644 1685 2009 1078 
4455 206 214 260 
1685 2884 1905 2009 
2884 2009 1685 1078 
2884 1905 2009 2718 
2997 2009 3644 1685 
1685 2009 1905 2997 
250 206 4455 260 
2071 2072 2175 1906 
2248 1161 1119 2965 
2965 2341 2248 1161 
1119 1161 1334 2965 
2965 1371 2341 1161 
3809 3048 3144 446 
3564 3144 5115 3801 
3391 4715 3193 4398 
3193 3391 4785 4715 
3564 3144 4906 5115 
497 4473 4629 3144 
3048 440 3144 446 
2162 738 705 2957 
3595 3084 1487 3875 
3335 3084 3875 1487 
1487 3084 3435 3335 
738 2162 705 3331 
3337 1368 2558 3445 
4864 3289 252 4462 
4276 3332 3491 3784 
2969 3397 2392 3957 
2540 2634 2890 2969 
1323 1317 1276 1291 
497 3809 4473 3144 
2137 3434 2942 641 
3254 2137 3811 3051 
950 4258 978 963 
4258 3140 4566 3519 
2137 3434 641 510 
901 3404 3108 3150 
2137 416 3434 510 
469 2677 416 2137 
2850 121 3056 2216 
978 4258 950 962 
3150 2819 3404 2205 
1499 2560 5047 2215 
4717 3616 2325 4211 
3030 4876 4786 217 
3155 345 3565 3652 
3753 4591 4180 3819 
2328 2145 2353 2641 
2407 3866 873 4128 
4766 2855 870 2407 
3270 745 4317 835 
3329 2419 2469 4577 
3329 2469 587 4577 
1315 3071 4890 3736 
3736 4890 1315 4283 
3303 3580 4739 3783 
3303 3580 3783 4521 
1315 3071 2776 4890 
4739 3783 3323 3303 
4713 1215 1151 3519 
4180 1151 3519 4713 
2901 2854 2899 2938 
2938 3125 2899 2901 
1989 2491 1329 1976 
4180 1211 1151 4713 
1418 2569 1247 2338 
1418 1247 2569 1335 
1418 2569 2338 2291 
4921 3629 3448 2913 
628 3629 645 581 
2811 1305 2613 1330 
1330 1305 2613 4122 
4326 2889 2348 570 
3424 2377 3095 3340 
4326 2348 2513 570 
3095 2669 2960 2377 
2669 3095 4361 4060 
3962 3096 1067 1975 
3096 1067 1975 3309 
1067 3096 3962 2224 
2390 1067 3096 3309 
269 4024 4159 3812 
4613 2647 3170 2795 
3812 4024 2848 3679 
3679 4833 244 4999 
360 1343 2061 2433 
2433 2061 360 2460 
4331 4833 244 3679 
3704 3679 2848 2447 
2408 2271 4088 2281 
3681 2191 3393 3933 
4088 2281 2766 4050 
2318 3901 4489 4171 
3704 4331 3679 2447 
2360 3685 2141 2095 
570 2889 2348 2596 
1712 2913 587 3142 
4517 3703 4131 3636 
3087 4792 4197 1081 
3099 2166 616 546 
4757 2913 1712 3142 
2348 3330 2513 570 
3099 616 2166 679 
4792 4874 4197 1081 
3099 2166 746 679 
1369 1327 3066 2727 
1327 3066 2727 2938 
4231 2050 3799 2609 
445 419 3716 3054 
4113 2987 2679 3930 
2679 3930 2987 4216 
3741 2987 2312 4113 
1724 1745 1640 1682 
3141 2671 3100 2644 
2370 1724 1640 1682 
665 696 3703 3176 
2146 3673 3253 2991 
3080 2991 3673 2146 
3080 2991 1815 1599 
701 4425 3950 2009 
3950 2708 2009 4425 
701 2009 3950 2415 
3950 2009 2718 2415 
2718 2708 2009 3950 
2852 3103 1419 3976 
86 85 4954 5167 
1419 1413 3976 3103 
4975 4954 85 5167 
4419 2188 2365 2172 
4954 85 78 4975 
3492 4280 2540 2611 
3032 1910 2540 3225 
782 1528 4292 3344 
882 782 3344 879 
3339 2574 3488 2771 
2109 3369 5173 5169 
2771 3339 2574 1733 
882 4292 782 840 
3109 3253 1778 3821 
3758 668 3109 4230 
78 85 4954 86 
3758 3253 1778 3109 
2161 2996 2432 3008 
4230 4277 4056 1977 
3109 4558 3821 4056 
5153 3471 5152 4244 
5172 5169 5173 3369 
3725 4095 4828 4126 
1067 888 2224 872 
266 2778 2538 4876 
1067 888 2390 2224 
1067 2390 3096 2224 
3064 3143 2203 3002 
3002 4341 3064 412 
2290 2582 1391 2168 
501 543 1488 3456 
501 543 3456 4326 
3456 543 1488 3430 
3073 2348 3456 3430 
3456 3073 4326 2348 
957 4120 2664 3463 
2538 2778 266 310 
3113 1490 3012 2208 
2607 3113 2208 2645 
4151 2645 3113 2607 
305 3216 2689 2389 
1490 3012 3495 3113 
4151 3495 2734 3113 
305 3216 2389 140 
3495 2514 2734 3113 
305 160 3216 140 
4086 3804 801 2253 
3535 2486 2954 4346 
288 282 2492 4665 
2203 3985 2954 2486 
4984 1527 4759 4203 
215 230 190 4795 
230 4799 4795 215 
2823 1675 848 3012 
2831 848 620 3012 
2831 3012 2823 848 
3012 848 2514 1675 
3648 4203 1527 4984 
3012 2514 848 620 
4354 1127 1144 1188 
1127 1077 4354 1144 
3147 3116 2988 3049 
2777 2442 2885 2352 
3331 2162 2777 2442 
1654 1011 4407 3116 
3349 1944 3014 2166 
3645 1886 1971 3308 
3382 3873 1435 3695 
3695 3873 1435 2363 
3645 1971 4617 3308 
3119 3541 4404 4619 
3119 3541 4619 2952 
3121 2291 2405 2647 
1486 5114 1696 1505 
1518 2910 1696 1505 
2631 2686 4406 3121 
2647 3121 3170 2405 
2930 2095 3709 1861 
3121 996 2307 3368 
3121 2686 4406 3368 
3446 2869 3774 3320 
4786 3320 3774 2869 
399 458 400 3135 
3806 3282 5110 4657 
400 399 3135 4799 
1898 3507 3167 4782 
233 3122 1936 2335 
2938 3124 1340 1499 
1226 4310 4314 1133 
4782 3167 3941 2573 
4055 1381 3249 1383 
3148 4317 3510 4961 
1383 2553 3249 3124 
3013 4529 5110 3806 
636 2329 549 2190 
2329 4145 549 2190 
2329 4430 549 4145 
4374 2660 3285 4508 
2329 3482 549 4430 
586 636 2329 549 
2329 3482 586 549 
3637 2562 4567 3671 
810 3504 820 3637 
597 2093 4054 3506 
3125 1016 963 1007 
3125 947 963 2899 
3066 1016 2899 4015 
3125 979 963 947 
901 3150 3108 4717 
3015 4587 3753 3819 
1007 963 3125 979 
2325 3616 4717 901 
3753 4587 4591 3819 
3506 597 3489 4054 
3126 3635 373 323 
1003 1085 4808 2925 
4808 1085 1003 3684 
5110 3806 3905 3282 
3686 3311 4434 3114 
3706 2703 5080 2731 
2703 3706 5080 4133 
710 5080 3706 685 
4717 901 3150 2325 
3706 2731 5080 710 
4194 4270 4557 3911 
4133 3706 5080 685 
1366 3311 4434 3686 
2955 3973 2760 4093 
3973 4093 554 2760 
2465 4489 4910 4171 
2234 4910 256 2465 
2465 4489 2234 4910 
1006 3389 3923 3707 
1006 3815 3912 3707 
1449 2301 1609 1468 
1449 1609 2301 2385 
571 2912 3584 483 
2137 416 443 3131 
3131 416 372 4234 
4113 2339 2679 2987 
2987 2339 2312 4113 
2339 2258 1997 2910 
2005 3131 443 4215 
713 2845 4116 2159 
713 4116 2845 833 
2008 3737 2971 2660 
713 2845 704 833 
4252 2278 2207 2057 
2154 2582 2387 2324 
1432 2597 2207 2278 
2845 2160 704 3132 
2845 3132 704 833 
3343 4166 4294 2957 
833 3132 704 824 
3132 3178 3846 824 
3088 2678 2029 5036 
3028 3465 3248 4693 
938 2678 2496 2238 
3465 4458 3028 3248 
1126 3134 2656 1950 
5080 2846 2928 3855 
3034 1247 1058 2338 
2338 1675 1058 3034 
3034 1675 1058 2877 
1950 3134 1226 4661 
4661 1133 3663 3134 
3390 3712 4063 3777 
4661 1226 1133 3134 
4910 3713 2729 275 
4780 3303 4739 3242 
4699 3922 2721 3456 
3922 340 3713 4699 
4780 3242 3899 3303 
3713 340 4297 275 
3161 1826 2113 2020 
4780 4739 1860 3242 
3161 1841 2020 2374 
484 3179 524 2844 
2206 2844 3179 2723 
459 2617 3179 407 
2723 2206 2844 3320 
3161 2949 1841 2374 
4732 3292 136 3294 
4868 136 4732 3292 
3668 2113 3161 1826 
3161 1912 2949 3953 
3953 3161 1961 3668 
380 353 2542 4770 
4172 3189 2296 2888 
3722 3557 888 4744 
3722 2830 4744 888 
2142 2630 513 3202 
1673 2630 2142 1483 
56 2794 4755 59 
247 3160 2728 2458 
3160 247 273 2458 
362 335 295 4289 
3185 530 4004 2768 
2768 3185 530 4062 
3266 3570 4072 3614 
5098 4496 2149 4712 
3185 530 2822 4004 
2477 2317 2945 4036 
3045 3670 3433 2317 
4882 3300 2822 4091 
3946 5136 4712 3462 
3364 2649 5183 2536 
2477 3433 2945 2317 
674 3148 632 608 
674 3148 3586 632 
745 3148 3586 674 
2317 3372 3045 3072 
3185 4923 530 4062 
745 4317 3148 4961 
4584 3149 3019 2657 
3158 1305 4122 1271 
3019 3149 2595 2657 
3364 5200 2649 2536 
2701 2657 2595 3149 
2701 2657 3149 2444 
4923 3300 4882 4091 
3158 1271 4122 3926 
3835 2859 2785 3862 
3153 4226 3635 3731 
4735 3153 4547 869 
3445 2593 1389 2558 
3046 2158 1441 2633 
3445 2304 2593 2558 
3046 3677 2786 1438 
3445 3393 3337 3681 
3445 3910 2304 2558 
3445 1389 1368 2558 
4323 2785 4203 3862 
3862 4203 4984 2785 
3188 2237 300 3436 
4693 3145 3831 992 
4693 1050 3145 992 
2314 3520 3857 3737 
404 433 3498 2738 
3188 300 2237 2675 
2894 3268 3230 3496 
1484 433 2738 3498 
2979 506 3467 2285 
946 4260 956 2461 
2332 3467 2254 2036 
4320 2979 3112 549 
3112 3467 2254 2332 
2188 3682 2172 2646 
2484 3255 3060 2195 
2829 4505 3937 3184 
4260 4743 956 2461 
2188 3682 2646 4424 
3709 1861 1565 1006 
946 956 3920 2461 
2461 956 3920 4743 
3157 4970 3871 4380 
3871 3157 4380 3272 
5165 1946 3889 5067 
133 103 124 3417 
4716 133 3417 103 
133 3417 124 3773 
1750 2269 1968 2207 
2207 3055 2391 2269 
1810 29 1945 3056 
3099 429 1772 1944 
4716 133 3773 3417 
2444 3159 2686 3982 
1810 1945 3058 102 
273 290 3160 2737 
3160 2458 273 2737 
2361 2098 2556 2266 
2556 2266 1590 2361 
3278 3330 3073 3194 
2524 2973 3828 3618 
3038 3070 3572 3060 
3656 3194 2896 3209 
3330 3073 3194 2616 
566 3749 3194 4465 
3567 3194 3209 2616 
3749 3194 4465 2896 
3825 3893 653 3195 
2209 3794 2380 3358 
2026 899 988 3794 
2026 899 2209 2717 
3893 3195 3825 4923 
2026 3794 2209 899 
4328 292 309 274 
4923 3195 3825 590 
3299 2817 2426 3211 
2459 2881 2817 3211 
1483 1482 1579 1630 
246 4328 274 292 
5027 883 4768 4857 
3648 3117 4399 2895 
2895 4583 3833 3117 
2817 2426 3211 2881 
1630 1483 1482 355 
1915 295 4475 3678 
1995 3197 209 1915 
1159 3398 1095 1079 
5027 4857 4768 3025 
1159 1079 3391 3398 
1079 3398 3980 3391 
1915 209 4475 3197 
237 209 3197 2778 
3767 3133 3418 139 
4475 3197 3104 1915 
4827 139 3418 3133 
5027 883 2750 4768 
2342 3073 4453 3278 
3734 1980 2198 3764 
4344 3764 2198 4515 
3487 2555 3455 3068 
3068 2781 1649 2189 
3355 2140 4326 3164 
308 4326 3164 4082 
5171 3764 1980 3734 
2609 3064 2603 3164 
4082 308 2603 3164 
886 875 3270 832 
3270 876 886 836 
4029 3336 1225 2837 
4630 4259 3166 4367 
4944 3166 4259 4367 
4453 3073 2708 4774 
3278 3073 4453 4774 
413 2880 1483 2630 
2986 2720 3716 3636 
2191 3578 2271 3933 
3910 2799 2271 2191 
3744 409 333 3774 
3744 344 292 333 
2315 4404 3265 3754 
4619 4404 2990 4143 
2990 3119 4404 4619 
4577 2315 587 4318 
344 333 3744 409 
4770 3059 380 353 
3176 3879 2521 4304 
2101 4157 3075 2387 
3176 617 3204 3343 
3204 696 3176 3343 
3092 3090 3077 5030 
3077 2510 2490 1512 
2197 1045 1026 1002 
1948 4691 3214 3078 
3891 5092 3721 2074 
5092 3721 2074 3261 
2332 2254 3078 2036 
4024 4662 2971 1732 
2848 2971 4159 2660 
78 2500 3571 3971 
78 70 4954 3971 
5092 4365 3721 3261 
4513 3891 5092 3721 
999 2711 4835 2629 
4000 3270 3746 4317 
4513 5092 4330 3721 
5092 4330 3721 4365 
999 3269 4835 2711 
603 648 673 4000 
4290 1364 1365 1386 
1313 1331 3753 1342 
3753 1331 1313 3895 
1369 2727 3066 1365 
2727 3066 1365 4290 
1386 4290 1364 1719 
476 421 3180 457 
2314 3180 2849 3396 
210 2698 2216 2186 
2698 2216 2186 29 
2407 3914 828 4128 
3914 2407 873 4128 
3865 4472 3857 2957 
5066 4712 3570 2198 
2887 722 1722 769 
433 4861 5014 4925 
2678 3088 938 2149 
3186 368 383 2894 
4294 3186 2853 4166 
4299 2771 3587 4075 
3505 5080 2760 2928 
4610 277 4041 2477 
3718 3147 1818 1955 
2055 1778 2229 3086 
2055 1778 3086 1847 
1955 2658 1818 2543 
1847 2958 3086 3442 
1955 2658 3543 1818 
1818 2543 3718 1955 
5159 3715 3729 2995 
2276 5051 1416 1918 
4275 4760 4709 3951 
2077 5134 3262 3439 
3262 1101 3439 1105 
3439 1105 1101 3820 
2563 3861 548 3362 
1181 4180 1227 1183 
1181 1165 4180 1157 
4180 1222 1284 3819 
3729 2995 1282 5159 
1227 1222 1284 4180 
5111 1994 3603 2185 
4060 4174 4398 1500 
1181 3819 4180 1165 
1500 4060 4174 1375 
4060 1310 1375 1500 
4644 728 3916 708 
1994 219 4234 3724 
3916 728 662 708 
3916 4751 728 4644 
728 662 3645 3916 
4073 2096 1994 5111 
1847 3758 2958 2767 
4073 2096 219 1994 
728 3645 4751 3916 
3472 1994 4234 3724 
87 1512 3077 3092 
3362 524 548 2563 
2958 3442 1847 2576 
789 2579 937 5039 
1847 3758 1778 2958 
2900 3516 3398 3819 
5039 5035 2579 937 
2579 5035 1937 1065 
1847 2767 2958 2576 
1381 1358 4350 4461 
522 4628 3223 442 
2984 1777 4380 1697 
4380 3247 1697 3654 
4628 3223 3386 519 
5197 3654 4380 1697 
1777 4380 1697 5197 
3247 1697 2984 4380 
997 4258 4566 3519 
4232 763 2119 3091 
3093 1247 3034 2338 
1418 2338 1247 3093 
2930 5068 3709 2756 
2930 5068 2756 3872 
3709 5068 3912 2756 
2296 3577 3235 3310 
1360 1398 4005 1378 
5077 4005 1360 1398 
3310 2296 3577 1569 
3931 5155 929 879 
3457 4793 3690 2245 
3931 929 5155 967 
2960 3770 913 1521 
2603 3198 4437 2886 
3770 4625 2960 913 
5155 967 929 854 
3770 3837 2960 4625 
2523 2891 2120 3369 
2523 3369 5172 2891 
2523 2120 4045 3342 
5155 854 929 879 
2523 5169 5172 3369 
2951 3012 620 2689 
2133 1139 5050 1146 
2951 3012 2831 620 
2689 2514 3012 620 
4183 4893 4345 3525 
443 4334 2568 3913 
443 3913 398 4540 
3913 3354 4540 443 
3895 3140 3666 3519 
2302 2622 2921 1524 
3090 2302 1524 2622 
132 3290 131 3302 
111 101 3302 132 
132 3290 3302 2354 
111 3302 2354 132 
3224 1429 3790 3915 
3776 2285 3805 555 
555 4767 3776 2285 
3444 3101 3991 1985 
3101 3250 3163 3991 
1568 3101 3444 1985 
3101 1568 2632 3250 
3101 2632 3163 3250 
132 101 3302 131 
3077 2510 150 2490 
2601 2012 3102 4064 
3004 3537 4504 1712 
2160 482 558 3205 
3205 4602 464 3748 
4275 3206 4837 4016 
4275 3951 3206 4016 
2786 1441 2633 3046 
2941 2786 2633 1314 
4876 2869 3774 4475 
3046 3677 2633 2786 
418 3105 4081 461 
2638 3320 3446 3774 
677 4081 744 681 
4289 2206 3446 2981 
4000 4317 3746 2618 
3106 2432 3008 2161 
2976 4755 3201 59 
2496 3508 2709 1925 
3510 4317 3746 4961 
3107 4921 4342 2466 
3107 4057 2592 3387 
1772 1911 2166 1489 
2166 1489 1911 2003 
1489 2632 1911 2003 
1964 3565 4073 4532 
2976 3201 3473 3850 
1772 2178 1911 1489 
4532 3565 4073 401 
2578 3520 3865 4472 
2578 4270 3520 4472 
3138 3449 2328 2641 
2270 1543 2471 1769 
2381 1543 2471 1762 
886 832 3270 836 
3473 3201 4796 3850 
2240 1590 1762 2270 
4766 2407 870 873 
2812 2966 3580 4521 
1048 1139 2669 1145 
2693 3321 3580 2966 
352 1534 2460 1541 
3783 3067 4521 2966 
4532 2602 4449 2264 
2138 4449 4532 2602 
2677 469 416 3013 
88 4801 153 2939 
1870 2789 153 2939 
2789 88 153 2939 
469 2637 3013 2677 
4766 2407 873 3914 
3111 2691 87 3162 
2114 3111 64 1480 
3267 1688 3215 4011 
4254 1688 3215 3267 
3215 5085 4011 1688 
3112 2979 2332 4245 
4399 3648 2909 3117 
2310 2940 1651 1511 
2909 4983 4399 1588 
2310 1651 1627 1511 
4073 4375 401 3565 
2909 3648 4399 4983 
3115 1481 4226 3152 
1679 2217 5053 3115 
5092 4365 3261 3986 
2619 2439 2751 3217 
3217 2439 4137 3029 
2619 3217 3029 2439 
2955 2439 4137 3217 
5092 3261 2074 2783 
5092 3986 3261 2783 
2917 1864 4077 3162 
4624 5080 3218 3844 
3218 3433 2481 3621 
2481 3218 3621 2751 
4077 3708 1864 324 
2975 2720 2986 4081 
460 2975 4081 418 
3649 2119 4128 4232 
748 3605 4288 2119 
3649 776 4128 2119 
4128 4288 2119 776 
3485 2826 2154 1126 
1478 2870 3120 2070 
3120 2070 1810 1478 
1478 2870 1572 2078 
1818 3221 3608 2865 
2078 1478 3120 1810 
1478 3120 2870 2078 
3221 1818 3543 2865 
4522 3147 3221 2661 
1818 2661 2274 3221 
4522 3147 3543 3221 
1677 3222 2534 4445 
2459 3222 2534 2299 
2128 3936 3222 2299 
999 3207 3907 2539 
2787 661 722 2562 
957 2964 3550 2509 
706 1614 2781 3123 
342 1527 3117 3648 
706 2479 3123 2228 
2511 3123 2479 2228 
2479 3123 1614 706 
4171 2318 2982 2483 
2824 849 2150 4282 
2150 4282 4300 2824 
2380 3397 984 1077 
1983 2969 2392 1728 
1983 3397 2392 2969 
4333 3779 2046 2713 
2046 4846 3733 2713 
4333 3210 2046 3779 
2046 2822 3733 4846 
711 680 3074 675 
2720 414 384 4549 
4359 3259 4418 2780 
4650 3156 3130 3293 
3409 2753 2531 4773 
1320 1363 4889 4510 
990 933 3421 983 
4305 3421 983 990 
3227 4191 2452 1261 
3224 3915 3227 4272 
3915 4431 3227 4272 
3227 1261 2452 3224 
4641 2249 3501 2714 
3409 2753 2300 2531 
3409 2531 2300 4347 
3544 1148 3187 3284 
2552 3229 979 857 
3897 4253 4612 3531 
1099 3346 1148 1098 
3346 3187 3544 1148 
3287 4271 2700 3292 
124 4031 148 3773 
3287 2742 3292 2700 
2742 3301 2700 3287 
3130 2354 2699 4462 
2354 4462 3130 4863 
4031 3773 4034 148 
3302 3290 2699 2354 
417 465 3285 3230 
3230 2911 3268 2894 
3565 3251 2413 345 
3001 2463 81 2221 
5107 3213 2074 1854 
3261 5107 2074 1854 
3907 2539 928 3379 
2230 1009 4852 1141 
2097 1217 4884 3039 
2197 1918 2230 4852 
3544 1918 4852 3219 
3219 3544 1066 4852 
1028 4852 1066 3544 
3907 3207 928 2539 
4174 1414 3847 1410 
4174 1410 2968 1414 
3135 4628 442 3747 
3107 2466 2673 4921 
3747 4628 3744 3135 
1099 3219 1210 3530 
1099 3544 1148 3346 
440 2617 335 4289 
3136 2143 1953 3008 
3136 1953 1981 3008 
4391 4108 3341 3807 
3502 3233 821 3208 
440 2617 459 335 
1099 3544 3219 3530 
2353 2328 3138 1864 
3138 1600 2353 2671 
2353 3138 2328 2641 
3138 1600 2641 2353 
440 362 4289 335 
2380 3492 2611 3358 
4983 3260 4830 3862 
443 1929 3225 510 
1099 3530 1148 3544 
3260 1633 4830 3862 
3862 4203 3260 4984 
4474 991 958 3140 
3862 4203 4983 3260 
4654 184 3294 152 
2700 3294 4732 4863 
229 264 247 3774 
1362 3124 3617 2233 
2939 3141 3169 2036 
2036 2789 2939 3141 
5134 3269 3262 1072 
3926 3158 1271 2541 
2205 3264 2532 3150 
1428 1420 4350 3237 
4350 1422 1428 3237 
2283 4491 2495 3552 
4491 2283 4382 3552 
3108 3150 2532 3264 
3606 3264 2532 2205 
2874 4296 3938 67 
1712 3265 3142 587 
2571 1712 3265 3142 
3938 2796 67 4796 
4296 67 4796 3938 
1584 4299 3725 2017 
4712 3570 3266 3614 
4620 3314 4444 1584 
4444 3314 4299 1584 
2611 3354 1487 3561 
4712 3570 3614 5066 
4299 3314 4729 1931 
3561 2611 3492 1487 
2405 2026 3502 1162 
2405 2026 2734 3502 
4712 3462 3614 3266 
3714 4666 3728 4311 
3725 1584 4444 4299 
4712 4515 4496 3266 
1051 3474 5087 4542 
1017 4542 3474 1051 
3462 5136 4712 3614 
70 2796 67 3938 
2874 3938 70 67 
2023 2213 2981 2749 
2749 2981 2023 4289 
3242 4074 2432 2943 
2387 2168 1655 2582 
5161 1282 3243 2797 
3811 3822 2315 2990 
3320 374 479 499 
4961 745 4317 3270 
3115 2737 3152 1679 
4672 2159 584 4428 
506 4428 584 549 
1006 3923 3815 3707 
3923 3815 4719 1006 
3610 3245 1880 969 
2816 4567 3245 3184 
3322 347 369 4722 
2816 3184 3245 3610 
3322 347 423 369 
3130 3156 4650 3288 
4762 2803 4560 4782 
3301 3287 4721 4271 
2661 3116 1094 2988 
4271 4721 4868 3287 
3301 4721 3291 4271 
101 74 111 3298 
2988 2661 4522 1094 
53 3367 44 65 
31 32 3367 3351 
3710 2803 4560 4762 
122 2754 1648 2183 
2183 4872 1648 122 
3797 3247 3175 2123 
2699 2747 3289 3295 
3175 2123 3247 5162 
3764 4560 2626 1924 
4560 4782 1924 3764 
4762 4560 3764 4782 
2695 3249 4461 3128 
3124 4055 2695 3249 
3249 4458 3248 2553 
3241 1821 3508 2905 
1383 2553 1381 3249 
3290 4462 3295 2699 
3241 1821 2949 3508 
3301 3001 2700 4271 
3985 2868 3974 2486 
2954 3985 3974 2486 
2949 1912 3241 3043 
469 4529 416 3013 
4529 2637 3013 469 
3241 1901 2905 3793 
3827 5207 4311 4962 
3772 4311 4962 3827 
3044 4891 4199 1704 
4074 2001 2573 3524 
4515 2113 3764 1924 
3043 3241 3793 1909 
53 3367 4202 44 
1704 1734 4680 4364 
2572 3252 2408 4137 
2408 3918 3252 2614 
44 3367 4202 31 
3641 4785 1338 4005 
2408 3918 4137 3252 
4785 3641 1338 3839 
1218 2420 1195 2702 
1218 2702 1195 1238 
3109 4558 3253 3821 
3758 668 3253 3109 
3758 621 3253 668 
3822 3275 3537 2315 
3119 3822 2990 2315 
2913 3244 587 583 
3822 3119 3275 2315 
5159 1282 3729 3583 
583 628 2913 3244 
3810 3194 3278 4774 
3424 2696 2210 3255 
2696 2528 1938 3255 
2342 3278 4453 4106 
2513 3278 2342 566 
3424 2696 3255 4306 
3225 2540 3032 2611 
1911 3163 2280 3454 
3810 3278 4453 4774 
2632 3163 1911 3454 
3101 2632 3454 3163 
1911 1746 3163 2632 
2363 3259 5156 3406 
594 514 2618 533 
648 533 594 2618 
2618 4327 533 514 
41 3571 52 61 
3746 4403 533 2618 
2088 1448 1578 2385 
648 4000 533 2618 
2385 1578 1609 2301 
2500 3571 41 61 
237 209 1995 3197 
4000 3746 533 2618 
5046 201 247 188 
4753 415 2894 3105 
4509 3226 4889 1382 
1382 4889 4509 4398 
4640 2577 3165 1982 
1288 1256 4298 3248 
1288 4298 1256 2640 
2577 2940 3165 1982 
2373 5086 3165 2940 
3599 5085 4152 2403 
266 3030 4876 2538 
4359 2780 4418 3994 
2538 4876 4786 3030 
70 67 83 2874 
2783 2676 4660 2662 
869 4938 1995 1915 
4660 2783 2662 2636 
257 4654 184 3294 
2689 2677 160 2052 
3216 160 2303 140 
2456 2977 4938 869 
3647 2512 4701 3010 
2135 1551 3169 2800 
2939 3169 1551 2800 
3141 3169 2346 1551 
2939 3141 1551 3169 
2135 3450 3169 1551 
3748 3322 3510 3659 
2618 4317 3746 3510 
4567 3408 4904 3937 
2484 3572 1276 4510 
3510 3322 3746 2618 
5027 3338 3626 2750 
3204 665 3698 3176 
271 253 4208 4412 
3018 4412 4208 253 
3637 3027 3408 3931 
3018 4412 253 4896 
3018 4199 4208 4412 
2455 1306 3172 1812 
3172 2387 1542 1812 
4896 271 4412 253 
3172 1542 2455 1812 
3716 3984 512 3054 
802 3173 809 842 
951 4621 4625 982 
2727 3548 3174 2854 
4033 3107 4057 2222 
4625 4614 951 982 
3637 3504 4562 2651 
2329 1528 3344 4292 
4179 2673 4793 2245 
2144 2078 121 1974 
2673 4921 3448 2245 
4398 3193 4361 1500 
1362 3124 1383 3617 
3444 994 2925 3177 
1043 994 3177 2925 
1055 2925 994 1043 
1449 2567 1468 1609 
617 3296 4911 590 
2156 450 2401 1449 
2401 450 1468 1449 
4283 998 3736 3271 
3097 4882 3296 3300 
3736 2710 3271 981 
2129 3358 3542 695 
3354 3358 1487 2129 
4882 4911 3296 3300 
2822 3185 590 530 
3300 590 2822 3185 
4923 590 3300 3185 
3185 4923 590 530 
3666 1354 3895 1325 
1313 1325 3895 1354 
1313 1325 4713 3895 
4333 4882 4865 3097 
351 1597 3402 1548 
3182 2432 3008 2659 
2283 4487 3190 3274 
5134 999 2711 3269 
2616 2348 3430 2596 
5134 999 2333 2711 
2409 3748 3510 3659 
977 841 2816 884 
2409 3510 4317 2618 
3001 2742 3301 2700 
2354 3001 4271 2700 
3291 3001 4271 4947 
3301 4271 3291 3001 
1855 2173 3277 2426 
4284 3277 4806 2662 
1855 2739 3277 2173 
2739 3277 2662 4806 
3649 763 2119 4232 
1332 3385 5143 4205 
3070 5143 3385 2805 
1332 4775 3385 4205 
4875 1733 3838 2574 
1733 1699 4875 3838 
1365 1354 3666 1325 
3066 3140 3666 4290 
695 2209 641 3358 
3304 5206 5146 3274 
1099 3544 3346 1054 
3544 3284 3530 1148 
34 38 2935 46 
1317 3146 1332 3572 
788 789 656 1926 
789 4933 788 937 
2327 3190 3280 5193 
4395 2482 3347 2850 
2471 1769 1682 3487 
4205 5143 1332 3146 
3202 3487 2142 1769 
1317 4205 1332 3146 
5075 84 2334 1543 
4884 3281 4415 1070 
1762 2334 1543 5075 
2301 1391 3196 1609 
1391 2418 3196 2252 
1391 2418 2301 3196 
487 2093 3312 2480 
3033 2982 2389 1838 
3467 431 506 3909 
431 506 3909 4428 
3282 3126 373 323 
2480 487 2356 3312 
4842 2673 4179 4033 
487 4362 3312 2093 
2579 937 4605 789 
3298 2204 3291 3001 
2509 4194 3550 865 
605 3283 2376 2673 
605 2376 3621 4149 
3465 4546 1243 1256 
4298 3555 3199 3665 
1939 4778 3540 3899 
3602 2376 605 4149 
605 2673 2376 3602 
2531 3286 3917 1941 
3621 605 3283 2376 
1820 3167 3016 3917 
4334 2818 349 2775 
3917 3167 3016 3524 
1953 3286 3917 3524 
1901 3509 1907 2905 
2573 3524 3167 3941 
4211 957 2871 865 
3279 2695 3425 3128 
3190 2672 5147 4311 
3190 3728 4311 5147 
3190 2018 4487 5147 
3975 3360 5080 4387 
703 3178 4236 3412 
779 3412 4236 834 
2280 801 4101 3663 
2793 801 4101 2280 
3190 2672 2018 5147 
2916 2686 2906 2375 
4487 5147 3728 3190 
2696 3848 1501 3255 
2775 2818 349 3447 
4066 3425 3279 2695 
2810 1055 1085 1012 
3255 3848 1501 3829 
1964 1862 3767 139 
3057 139 1964 3767 
874 3484 2522 4645 
4645 3484 865 874 
2245 3319 4757 4033 
4757 3319 2913 3142 
4793 3448 3690 2245 
3447 2818 349 4090 
680 3074 628 659 
3074 2913 628 659 
3202 1483 2142 2630 
3202 2142 1483 1769 
413 2620 3202 1483 
457 1833 2240 3202 
2270 3202 1833 2620 
2270 3202 1483 1769 
321 283 4389 3307 
1471 1810 1739 2115 
3326 692 671 4384 
3326 3943 4794 2645 
122 3305 120 3183 
3249 4461 1321 1358 
3249 1358 4458 1381 
3553 1905 1987 2687 
3337 3681 2375 1322 
2172 1987 2646 3682 
2906 3337 2375 1322 
1368 2906 1322 3337 
4068 76 3500 3938 
3306 2426 4246 3345 
2188 4424 2982 3682 
2738 2757 4674 3306 
3682 3468 4424 2982 
3306 4246 2738 3345 
2857 3456 3430 3073 
3499 3708 2328 4077 
3565 4375 401 3251 
3140 4981 5072 1042 
3057 3652 3565 1964 
3090 1524 3499 2622 
3090 1524 1526 3499 
2972 4043 3566 3970 
3809 2784 2897 4429 
3566 4043 563 3970 
3882 266 3104 2606 
3637 3931 980 3027 
5155 967 980 3931 
2734 821 899 2717 
2405 2734 4151 3502 
3208 821 2734 2717 
3762 3310 4618 4172 
4564 1569 4172 3310 
3882 2606 3438 266 
3027 4742 980 3637 
5155 980 4742 3637 
1791 1874 1545 1793 
1545 1793 1874 1555 
2854 952 2899 4474 
1546 1462 1805 1458 
1546 1462 1807 1805 
1533 1462 1546 1458 
1533 1552 1546 1462 
4474 964 5054 2854 
1546 1552 1807 1462 
2811 2695 2181 3279 
3537 3004 3822 2840 
2513 3330 566 570 
1548 8 1881 4 
1668 1796 1798 2066 
566 570 3330 3194 
76 3473 3938 3850 
76 3938 4068 3850 
3324 3211 2299 2577 
1608 270 1606 2066 
1668 270 1796 2066 
1532 2575 69 3211 
1781 1784 1888 1549 
3211 2575 69 2577 
1532 69 2817 3211 
1557 1888 1549 1781 
4114 3410 4830 2443 
3845 3410 4830 4114 
5175 4114 3845 4830 
5175 2443 4114 4830 
2859 3835 5174 3862 
5092 3891 3518 2676 
2498 3699 5166 4065 
5166 4859 4513 3891 
4379 2859 5174 3862 
2200 2815 5081 4736 
2610 1870 3214 153 
2815 2589 5081 4402 
3550 2249 3501 4641 
2249 2871 4641 3550 
4697 1622 5118 1670 
2589 2815 5081 2200 
5081 4402 2731 2815 
3435 955 3405 969 
5081 2815 2731 4736 
3317 1350 3592 3366 
1299 2735 1333 3317 
2735 3536 3317 3187 
366 4799 400 3135 
4803 4321 1111 1081 
3135 400 366 442 
3260 4984 3802 4285 
4285 5205 4984 3802 
4285 4338 3802 1633 
2854 964 952 4474 
1633 3260 3802 4285 
4338 3802 5205 4285 
3863 4221 932 982 
3863 982 1059 4221 
3395 3118 3486 2784 
1879 537 3033 263 
1879 4424 2982 2188 
2628 2956 735 4762 
3514 2750 3356 2819 
1677 3324 4333 4445 
1677 4333 3324 3437 
3583 2685 1351 5012 
1677 2534 3324 4445 
2299 2534 3324 1677 
1677 3324 2299 2577 
5159 2685 3583 5012 
3159 3325 2686 3982 
3130 3289 4462 2699 
4462 2699 3289 3295 
3325 3159 2686 2544 
3325 2544 2686 2906 
4993 4997 1819 3720 
3381 2562 2759 2566 
3151 3381 2759 2566 
4993 1819 1827 4953 
4993 1916 1827 1819 
4170 3868 2619 4358 
586 3517 3868 4358 
3868 3517 586 2344 
4579 3868 586 2344 
3298 3001 3291 4947 
4170 3868 4579 2619 
3186 5014 381 383 
4997 4993 1819 1916 
3690 683 659 5028 
3107 3328 1878 3883 
2699 3290 3302 3079 
5043 3328 3883 156 
4342 3635 1878 3328 
3635 3328 4342 3231 
3231 3328 3107 1481 
5043 3328 1481 3883 
1250 4257 4413 3874 
1250 4413 4257 4046 
3224 3915 3631 3227 
4038 649 743 1528 
4272 1429 3224 3915 
4413 3874 1201 1250 
3042 2316 2243 2725 
3042 2316 5085 2546 
406 2975 4549 420 
2329 1528 4038 3344 
2962 3715 2060 5160 
4271 4732 2700 3292 
3893 3429 2777 1591 
2700 3292 4732 3294 
2962 5160 2060 3768 
2060 5160 2034 3768 
2700 3130 3294 4863 
4863 2700 3130 2354 
2060 3715 2034 5160 
3004 3208 3495 3822 
3822 3254 2655 3208 
4867 5125 1782 4243 
3495 3254 3822 3208 
2678 2227 3508 2531 
237 3197 3882 266 
2531 2905 3508 3917 
679 616 4071 3228 
2177 1740 1984 1651 
1651 2503 1740 1984 
2182 3208 3822 2655 
2160 558 632 3205 
608 558 3205 632 
3445 3910 2558 3337 
3910 2281 2558 3337 
2916 3337 2766 2375 
2281 2766 4214 3337 
3617 1383 1362 1433 
3617 1412 1433 1362 
3197 3104 3882 266 
957 2509 3550 865 
3678 3660 3635 3231 
3550 2871 4641 957 
903 4393 3461 910 
4326 3073 4130 2342 
1733 3711 2927 1699 
3456 4326 3073 4130 
910 3461 4572 4621 
4299 2927 3339 3711 
2857 3456 3073 4130 
4572 903 3461 910 
2857 3073 4453 4130 
507 2563 524 472 
3111 3162 87 64 
3111 3162 64 1480 
2464 4211 3356 3375 
3356 2325 3375 4211 
2792 1884 3341 1432 
3472 3724 4480 3357 
3999 3895 4566 3140 
3895 3519 4566 3140 
3666 3895 3999 3140 
4965 2185 3472 3357 
1261 3129 2452 3224 
3915 1370 3631 3227 
3310 3235 3332 3512 
1238 4469 5158 1359 
1238 1359 5158 1228 
2254 1480 3236 2114 
3880 3236 279 288 
2023 2981 2206 4289 
1827 4993 2035 1916 
4149 2376 3621 3670 
4953 4993 1960 1827 
4579 3348 2751 2439 
4825 3621 605 2751 
4579 3979 3348 2439 
3835 4795 395 4412 
2023 2981 3179 2206 
3665 3555 3199 3271 
3548 2854 4474 1069 
2326 3665 3199 3271 
3192 4092 4797 3190 
2854 943 964 960 
4092 3190 3750 3304 
1484 2777 2600 3893 
2600 4923 1484 3893 
2867 3242 1850 1687 
3242 2867 2943 1687 
2943 2867 3323 1687 
3893 1484 3195 4923 
523 3896 3240 2760 
3240 3973 2434 2045 
4323 2959 395 378 
56 2976 3850 59 
1494 1518 2485 1622 
1494 1511 1518 1622 
1494 1518 2725 2485 
2590 1518 2725 1494 
2310 1511 1627 1518 
2590 1518 2310 1627 
3064 560 3143 412 
3064 3355 2203 560 
2203 560 2356 3143 
2484 3070 4510 3817 
3064 560 2203 3143 
2976 3201 3850 59 
2288 3451 4059 3428 
3850 3201 4796 59 
3363 845 2182 3233 
488 3764 2626 561 
3363 845 2840 2182 
1712 845 2840 3363 
3773 3712 3777 4063 
225 402 2716 1723 
236 402 225 1723 
1771 4135 3124 1499 
1499 4415 1771 4135 
4127 2022 3948 3471 
493 429 4086 4964 
955 892 3405 969 
969 3405 3435 3087 
4757 3319 3142 3754 
955 3405 816 3435 
955 892 816 3405 
4757 3319 3754 4033 
2846 4757 2571 3754 
4757 3142 2571 3754 
4757 3754 2846 4033 
1409 2187 1414 3745 
4203 342 1527 2959 
3059 4770 3251 350 
3095 4078 3837 3193 
2703 3975 5080 2731 
4405 4453 3884 4130 
4405 4453 2708 2524 
4405 4453 2524 3884 
4444 4996 5192 4075 
3405 969 892 3245 
4768 883 4740 4857 
1568 1746 3250 1553 
4866 1193 1174 3886 
2632 1746 3250 1568 
3163 1746 3250 2632 
4188 1193 4866 3886 
3714 4227 4675 3775 
2819 4740 3404 3514 
2788 3373 4882 4640 
2788 3373 4640 2527 
4880 4307 200 3700 
3719 5195 4498 4530 
4631 3154 2876 3137 
2818 4770 4090 361 
3700 4307 200 359 
3969 4090 2873 3059 
4444 1927 4996 4689 
4880 3700 3316 4307 
4882 3373 4911 4640 
4152 4640 4911 3373 
3969 4090 349 2873 
1481 2376 2945 2530 
3822 3119 2990 3254 
3310 3577 3235 3512 
3254 3012 2052 2689 
2689 3254 3012 2514 
3254 2514 2717 3208 
3360 2760 554 4093 
523 2928 2760 3360 
2150 4093 4168 797 
421 3180 4617 3916 
378 2959 4203 4323 
4412 2959 4795 395 
475 3916 421 4617 
3180 3757 3916 4086 
2325 887 3952 3616 
476 3757 3180 4086 
2448 2577 69 182 
421 493 3916 475 
4558 3821 4763 2146 
2577 182 2448 2940 
3512 3310 3577 2919 
263 2389 2982 2138 
4584 3019 4282 2657 
263 2389 3033 2982 
4282 3019 2595 2657 
2464 3375 3356 858 
3356 3952 858 3375 
841 2887 769 2562 
2146 3253 4558 3821 
2991 2146 3821 3253 
506 4767 431 3467 
361 4770 4090 3059 
506 4767 3467 2285 
3436 2606 300 3438 
3436 2237 300 2606 
3467 4767 431 2232 
3467 4767 2232 2285 
2220 1280 2985 3257 
2633 1280 3257 2440 
3257 2440 1280 1253 
4166 3234 3268 4645 
688 3416 675 2897 
3031 2897 675 4429 
4429 3416 2897 675 
2584 3259 3353 1999 
1878 2260 3365 156 
4154 3353 2763 3259 
671 4504 4384 2571 
3365 156 3669 3458 
4330 5131 4365 4918 
4384 2846 2571 3541 
2009 961 844 4853 
3257 3596 2440 3419 
628 659 2913 3244 
3317 3366 1333 1299 
999 2629 3379 3676 
999 2964 3379 3907 
999 2964 3676 3379 
3643 4071 3687 1767 
2958 4056 1767 3643 
133 3743 3773 148 
4056 3643 3687 1767 
3267 2590 4011 2310 
5086 2503 3267 2310 
3267 2590 2310 1627 
148 4034 3743 3773 
133 3727 3743 148 
2379 2936 166 162 
1428 1435 3382 3919 
3382 3919 1421 1428 
3351 4335 3367 3562 
3367 3562 3956 54 
3382 1419 1421 3919 
3919 3873 1435 3382 
1419 3873 3919 3382 
2607 4089 2815 3368 
2120 3342 3369 488 
2523 3342 3369 2120 
2523 5169 3369 3342 
3053 488 3369 3342 
3053 3342 3369 5169 
3364 4380 1777 3921 
2735 1220 3864 1299 
3921 3364 4380 2536 
3921 2536 5200 3364 
3864 3536 2735 3187 
1357 3371 3174 1328 
3969 4037 349 4090 
162 2936 166 155 
1376 3371 3174 1357 
3364 5200 3921 1777 
3173 838 809 842 
2986 4517 4635 822 
3715 5161 3756 2995 
2872 5172 640 4968 
349 4037 3460 4440 
2559 2266 2468 2098 
3824 3383 361 380 
3824 2818 3383 2775 
2975 2720 418 406 
3468 3456 3922 4171 
3460 4037 349 3969 
4171 3922 4699 3456 
3922 3713 4171 4699 
4770 3383 380 361 
3923 2343 3815 3707 
856 3815 4719 3923 
2058 4422 3399 3430 
3399 3430 4422 646 
2709 2374 3327 3508 
4678 4999 3834 1855 
3765 3303 3640 4780 
4066 4350 4461 4055 
3917 3016 3508 3327 
3864 3544 1045 1040 
4780 3303 3580 4739 
3864 3544 2197 1045 
3640 4780 3303 3580 
4702 4526 4459 3364 
2482 3376 2273 4395 
2547 2273 3376 4395 
2801 3531 3378 2424 
3378 3392 3129 2417 
4780 3303 3899 3765 
857 4260 946 2461 
3378 2392 4253 3531 
3570 4072 3614 5066 
1736 4930 3529 1770 
3266 3462 3614 3789 
4275 4709 3529 1692 
4275 1692 1770 1699 
1699 4275 1692 1658 
1147 3276 2416 3543 
4275 3529 4183 1770 
4709 1692 4275 1658 
318 3615 2551 303 
3615 311 2551 303 
3642 478 4628 3386 
1484 2777 2738 2600 
2738 3345 4062 2600 
4628 3386 442 3747 
3391 4398 3193 4078 
1600 3141 3870 2346 
2135 1906 3169 3450 
3954 4362 3538 2093 
4814 4731 3538 4362 
3312 4362 3954 2093 
2759 3671 3878 2494 
969 1049 3435 955 
2815 3785 4300 2657 
2657 4282 4300 3546 
2657 3546 4300 2815 
3174 4048 4458 3028 
1050 4546 4693 3145 
4546 4255 3145 1050 
4300 3785 4282 2657 
2492 282 3691 4319 
2466 4342 3107 3231 
2916 2686 3628 2906 
4319 282 302 2492 
2766 2815 4606 4173 
2766 4173 4606 2916 
3628 3384 2686 2916 
1820 1821 3508 3016 
714 663 2190 636 
2404 3282 323 4547 
417 327 2922 3285 
2226 1371 2341 2965 
3126 323 3282 4547 
636 2329 2190 714 
1820 3167 1966 3016 
3016 3167 1832 2573 
3387 451 535 4318 
490 4086 4397 3099 
3388 1137 1166 1939 
3130 3156 3288 2747 
3130 2747 3288 3289 
429 3099 4086 490 
3388 2087 1166 3814 
3388 1939 1166 2337 
3388 3814 1166 1137 
4210 1051 5087 2854 
3548 5087 4210 5106 
2854 4048 5087 3548 
5087 4048 5106 3548 
2854 3548 5087 4210 
2742 3292 2700 3483 
2700 3483 3292 3294 
284 3830 1527 2895 
3293 3156 3130 2747 
3293 3130 3294 3483 
65 72 4063 44 
2238 3508 1934 2531 
3167 3524 3286 3941 
2678 3508 2238 2531 
3290 3295 3079 2699 
4074 3941 3524 2573 
3167 3941 3286 3540 
2531 2238 1137 1934 
3066 1196 5023 1155 
3713 275 4297 2729 
3393 2271 2281 4088 
3393 4088 2281 2766 
4019 44 4248 3390 
57 47 4115 3297 
3910 2271 2281 3393 
3910 2281 3337 3393 
2281 2766 3337 3393 
1002 1026 2953 934 
2197 1002 1026 2953 
2255 2885 3299 2738 
2600 2885 3299 2421 
65 44 4063 4248 
2700 3287 3301 4271 
3709 4189 3394 2756 
3944 2442 3394 2259 
2699 3302 2463 3079 
1159 3398 1180 1095 
406 2720 4549 2975 
3398 1180 1208 1159 
1493 2316 2546 796 
1208 3391 3398 1159 
3400 1771 3124 1499 
2316 796 1493 2360 
2546 2316 2858 796 
4316 4233 4095 4126 
3996 4316 4095 4620 
3124 2553 3249 3400 
2316 3063 2858 796 
3063 796 2316 2360 
2860 5090 109 4954 
3596 1571 1441 2440 
872 2293 1067 3401 
2293 872 2364 3401 
283 290 2449 279 
3403 2669 966 1014 
2669 3403 2133 5050 
2669 1014 3403 5050 
4192 2377 2669 3424 
3424 2669 4192 3403 
3571 4040 70 3960 
41 3407 2967 2876 
3199 3404 3555 4471 
4471 3404 3555 3036 
41 2935 3407 2876 
2935 52 41 3407 
1043 3177 994 1035 
3404 4740 3036 1050 
2811 1305 2835 3021 
816 3486 3405 687 
1498 1775 3309 2504 
2390 3818 3309 2755 
2504 1775 3309 2925 
816 3486 3435 3405 
2395 3309 1498 1775 
816 3405 739 687 
3686 3311 3114 1884 
3686 2525 3311 1884 
3574 4347 5041 1939 
3574 5034 5041 4347 
3574 3409 1939 2680 
820 770 3588 3637 
3963 1822 4773 3409 
2261 2388 2130 2364 
1822 3409 3963 2680 
3151 319 2719 2530 
3151 2737 2376 3112 
4061 2753 5034 3409 
2737 3151 2530 319 
2790 3177 1345 2613 
3048 3179 524 459 
3179 2023 2617 3048 
3048 3179 459 2617 
1730 2049 2199 2122 
3947 4380 5071 3871 
3947 3871 4970 4380 
2370 1614 2132 2781 
1724 2370 2132 2781 
2195 4306 3255 3829 
3060 2195 3255 3829 
3035 3829 3060 4609 
3147 3049 2988 2834 
2834 3147 4522 2988 
3725 4620 4095 4126 
4020 4316 3996 4620 
2732 4656 4399 4830 
1675 2595 2823 2877 
3412 4317 4421 4000 
486 3053 5169 3420 
1248 4988 1270 1257 
3463 3108 4120 2532 
3774 3744 409 4628 
3747 4628 3642 3744 
3413 481 514 557 
3413 557 514 594 
4287 3413 2295 557 
3108 3271 4120 2532 
4287 557 481 3413 
3413 557 594 631 
2295 557 3413 631 
1256 4255 4298 3248 
4334 3594 4770 2818 
1288 1256 3248 3465 
3354 2611 3225 3913 
4334 3032 3594 2611 
3465 1256 3248 4546 
3225 3032 4334 2611 
4546 1256 3248 4255 
3550 2908 3414 2509 
589 688 3416 598 
445 485 435 3949 
3949 435 467 485 
3054 3627 3949 435 
3054 3949 445 435 
3856 3627 436 3949 
436 3856 3949 467 
3642 4628 409 3744 
3642 344 3744 409 
3642 478 409 4628 
2408 2653 2614 3933 
3578 2653 3933 1965 
2408 2653 3933 3578 
565 2928 523 3360 
554 3360 4168 565 
2592 451 1878 3387 
3387 2214 4342 4921 
807 4563 4744 872 
2830 807 4744 872 
451 4342 1878 3387 
3780 3377 3350 3869 
3559 3377 3350 3780 
1347 4398 4889 1382 
486 3619 3420 4083 
4889 1382 1363 1347 
3441 2096 4073 5111 
2343 2454 2509 2908 
3707 2908 2454 2343 
2578 4194 4239 3501 
2714 2249 3501 4239 
481 3413 441 385 
3413 441 514 481 
481 3413 385 4287 
3422 1906 2733 3805 
3422 2072 2733 1906 
3351 31 4202 3367 
3423 87 2331 2004 
1512 2510 2275 3423 
3423 2510 2275 2331 
2004 3423 87 2691 
2691 3423 87 3162 
1512 87 3423 3162 
1321 2640 4298 1288 
3558 3886 3087 3435 
3335 1005 1023 923 
1321 4468 2640 1288 
1090 4107 1005 1023 
4890 1225 3336 2837 
4551 3547 3618 2612 
2742 115 3297 82 
3346 3536 3940 4423 
3346 3536 1148 1098 
3346 3940 3536 1098 
4411 3723 3627 3173 
3428 2898 4912 3887 
4514 3428 3887 2898 
4912 3428 4143 2898 
3428 2898 4619 4143 
3429 3042 1978 2403 
3331 1493 2777 3429 
2274 2875 3647 2572 
2274 2512 3647 3010 
3042 3429 5085 2403 
2497 3430 1488 2058 
2274 2875 3667 3647 
3430 2497 1488 3456 
3340 1209 1177 1107 
3340 1265 1209 1281 
2377 1020 3340 1080 
3340 2210 1080 4224 
2274 3010 3647 3667 
3647 2274 2572 2512 
3716 512 445 3054 
3949 485 512 445 
3054 3949 512 445 
3575 3741 3439 1972 
3439 3820 1101 1972 
4294 2808 4166 3343 
3055 2704 2525 1884 
3433 3283 2945 2376 
1774 2597 3055 2525 
2698 29 1810 3056 
3056 2216 2698 29 
2850 3056 29 2216 
2760 3505 3503 3218 
3433 3505 3218 3503 
3211 3345 3299 2600 
3345 4091 2768 4062 
3299 3345 2738 2600 
2137 416 469 3434 
2042 3475 3347 2216 
2042 2216 3347 1590 
4634 3347 2042 4395 
2636 1590 2042 3347 
4395 3347 2042 3475 
3324 3437 3211 2577 
3437 2577 1677 3165 
1677 3437 3324 2577 
3437 3808 3211 2577 
4640 2577 3437 3165 
3108 4120 3271 5032 
3108 3271 3404 5032 
901 3404 5032 3108 
4338 3410 2732 4830 
3349 1572 2078 1478 
3560 1572 3349 2193 
3349 2166 3560 2944 
3349 3014 3560 2166 
3349 3442 2904 2078 
3349 1572 1478 2548 
4830 3802 4338 1633 
4338 2732 5205 3802 
2857 3073 2687 2708 
2857 3000 4419 2708 
2133 2669 3424 3403 
4954 83 4607 2874 
2465 3652 1891 1964 
1035 3009 3177 3444 
3009 1035 1004 3444 
4877 2465 3652 4058 
4377 449 3967 3020 
2465 4058 1891 3652 
3083 1886 3645 614 
1095 1036 3398 3819 
4556 3398 3980 941 
1167 1918 2276 3440 
1141 3440 1918 1167 
1167 2276 1242 3440 
5018 3559 3353 1538 
5018 1538 3353 1999 
2584 1930 3353 3259 
3308 1886 614 3645 
232 202 3297 2747 
3293 2747 3483 202 
3156 232 2747 202 
3293 3156 2747 202 
3164 308 2603 2886 
2117 2041 1497 2411 
4202 3367 49 3562 
4107 3335 1005 1023 
3084 3082 3886 4107 
4461 4055 4350 1381 
996 2607 2307 3368 
996 4696 2607 4089 
2798 2780 3443 4383 
4850 1420 1427 3443 
1427 3443 1435 4850 
1435 3443 2780 4383 
3594 2540 2611 3032 
5030 2302 2580 3090 
2607 996 4089 3368 
5030 2580 1867 3090 
695 3358 821 2209 
996 4151 2307 2607 
996 4696 4151 2607 
641 2209 3225 3358 
1219 3823 5134 2664 
2326 3463 3823 2664 
2415 891 3528 4521 
2873 4375 3969 3251 
1078 948 2248 2415 
945 1078 2415 3528 
3969 4037 4090 3059 
73 127 3359 4716 
3359 4021 82 115 
2872 2473 3906 2120 
4474 5072 3140 4373 
4794 3943 3004 2645 
2155 2523 2872 4045 
964 5054 1022 4474 
3074 645 3361 638 
675 645 3074 638 
2872 2120 4045 2523 
2872 4160 3906 2473 
2191 2799 1965 2437 
3074 680 645 675 
2799 3578 2271 2191 
2419 2182 2655 3233 
2272 2486 2180 2868 
2155 2832 2180 2486 
3985 2272 2868 2486 
2486 2180 3547 2832 
3572 3038 3146 3070 
1317 3038 3146 3572 
5016 3994 4836 3443 
1333 1836 2054 3317 
1551 316 2135 3450 
2089 1651 1809 316 
2054 3908 3592 3317 
2089 2177 1651 316 
1600 2089 1551 2346 
1551 3450 3169 2346 
2390 1067 3309 1003 
2390 3096 2107 3309 
1333 2735 1836 3317 
3908 3317 1350 3592 
2455 1219 3172 1306 
3523 4337 1475 2809 
2897 3405 4371 3087 
2773 2704 1249 3427 
2875 3667 1642 3608 
3667 2875 1642 4701 
3667 3010 4701 1642 
3667 3840 1642 3608 
3667 3840 3010 1642 
177 3365 3669 2311 
4872 3183 120 128 
5122 2574 4183 3838 
4071 3014 4460 2166 
4071 3643 2594 4460 
3824 397 3447 2775 
2818 3824 3447 2775 
4077 3162 2585 2917 
3536 4810 2801 2424 
3447 2818 4090 361 
3536 5093 2801 4810 
1698 4095 4481 3725 
3089 3725 4409 4030 
2927 2030 2297 3453 
636 2190 549 584 
2190 584 636 663 
1179 3336 1225 4029 
4141 3336 1179 4029 
3921 4380 1777 5197 
5197 3921 4380 2536 
5108 4211 3606 2464 
1538 3377 3559 3780 
2414 3377 1538 3780 
4554 3590 3782 4136 
1428 2599 1427 1420 
1528 743 4038 3344 
743 2651 3344 3637 
3448 3074 3361 4223 
2466 3448 4223 2673 
4067 4466 3374 2697 
4038 743 2651 3344 
1854 5107 2559 2468 
2673 3448 4793 2245 
3020 4922 3967 4377 
2347 4563 888 4565 
4354 3531 4253 3397 
2347 888 866 4565 
2224 888 2347 4563 
3827 5065 4311 2672 
2390 888 2347 2224 
888 2390 2347 866 
1302 4048 4636 1328 
2915 2790 3736 3071 
2477 4125 268 3372 
2160 386 466 482 
4553 466 482 2160 
4627 3881 4444 4862 
4862 2902 4627 3881 
3676 957 2378 4454 
2378 3463 957 3676 
2725 1518 2910 2485 
2590 1518 2910 2725 
2910 1518 1696 2485 
2485 1696 2910 2838 
2850 2482 2273 4395 
4648 5081 2200 2589 
3487 2442 2471 3396 
2063 1649 1724 2781 
1126 4661 3663 3134 
4961 3622 3746 3510 
692 3457 683 4757 
3823 2333 2664 3463 
2333 3823 2664 5134 
1074 1100 3464 927 
927 1073 2560 1007 
927 3464 2560 1073 
1100 3464 927 1073 
1355 1354 3666 1364 
1354 1364 1365 3666 
692 3457 727 697 
732 4793 3690 3457 
3457 732 727 697 
4293 4419 4053 4043 
122 3466 3305 3183 
4381 93 99 3466 
4419 2722 3977 3950 
4405 4419 4053 4293 
4293 4419 3950 4405 
3689 2032 4512 4316 
3467 4320 3112 3909 
3689 5132 2032 4316 
3112 4320 3467 2979 
2089 795 2177 3450 
2602 4171 3468 2982 
2318 3901 4171 3468 
4171 2318 3468 2982 
3441 3460 349 3969 
4051 2558 2916 2906 
349 3460 3441 5003 
820 3637 921 810 
1159 3391 1079 1149 
4606 4274 2766 4214 
4606 4214 2766 2916 
4051 3740 4848 4407 
3740 3600 4051 4848 
3637 921 810 3842 
5110 4234 3472 4671 
1685 2735 3392 2965 
2341 2965 2172 3392 
3392 2452 2226 1836 
3536 3392 3317 3378 
3553 2392 1987 3688 
2071 2175 2344 1906 
2071 1906 2344 1870 
4105 701 3950 4269 
4341 2050 3064 3024 
639 4269 4160 701 
3395 3561 3486 3118 
2325 887 3616 901 
3396 3455 3202 3487 
2623 2240 3396 2314 
2555 3455 3396 3487 
2623 2442 3396 2471 
3397 984 975 909 
3713 340 4222 4297 
1641 938 3088 5037 
3713 4222 340 3922 
5093 3480 3940 3553 
1835 3478 1963 306 
1963 3428 3451 306 
306 3428 3478 1963 
4619 2952 2898 4514 
2843 3736 1043 995 
4058 139 1891 3057 
4514 2898 4619 3428 
1377 3479 1339 2601 
2601 3479 1339 1306 
3399 2058 4659 3480 
2008 2314 2240 1732 
3480 2058 4659 3553 
3481 2890 4102 3630 
3088 938 1641 2029 
3481 2890 3630 2969 
2537 1380 3009 3444 
313 328 3151 319 
3406 5156 2682 2192 
4038 3482 586 2329 
2149 3462 4712 4496 
2450 2192 5156 3406 
4151 3004 3208 3495 
4496 3462 4712 3266 
2227 4871 2678 3462 
2149 4496 2678 3462 
4791 4871 2227 3462 
2737 319 273 313 
4496 3462 3266 4791 
2876 2967 41 3137 
3482 3112 4245 549 
4631 2876 2935 3137 
4261 4443 2806 2970 
56 3473 76 3850 
4317 3270 3746 4961 
667 4531 4121 3673 
667 4531 3673 627 
2242 3427 4032 3760 
4428 431 4643 3674 
3395 3561 3861 3486 
345 3251 2413 350 
3561 3492 644 1487 
815 3492 1487 644 
3251 2413 350 4770 
4643 4672 431 4428 
506 431 4672 4428 
2410 2274 2875 3608 
3647 2875 3667 4701 
2274 3903 3667 3608 
5119 2697 3411 3038 
4664 4139 4451 3352 
3647 3010 4701 3667 
2274 3903 3010 3667 
2636 4331 3990 2042 
742 777 4517 3703 
3636 3703 4010 3716 
3990 2783 4660 2636 
4266 1326 3490 1309 
2537 3490 3009 1380 
4266 3490 3009 2537 
2783 2636 3990 4634 
4634 2636 3990 2042 
640 5172 4731 4814 
72 3712 4063 3390 
44 4063 3390 72 
3919 1419 3701 1415 
4646 1419 1415 3701 
4972 1415 4850 3701 
2209 899 3875 821 
3875 2209 821 3358 
4972 1415 3701 4646 
3919 1415 3701 4850 
1885 1366 2076 2918 
2094 2656 2076 1366 
2656 2918 2076 1366 
1885 1366 3568 2076 
2094 3568 1366 2076 
3812 3679 2848 3704 
4151 3004 3495 3113 
3012 2514 3495 3113 
643 3377 2745 2931 
244 4331 3679 3704 
2931 5018 1538 3377 
2931 5018 1999 1538 
4331 3704 244 3246 
4152 3893 653 3825 
4152 3893 3429 653 
2440 3419 1273 1253 
3822 1490 3119 3254 
1490 3254 3822 3495 
4159 2660 3898 4508 
4561 1732 2743 3497 
1253 3419 1273 3276 
3004 3495 1490 3822 
3497 2173 2739 1855 
769 2816 2562 722 
2739 4561 2743 3497 
1855 2757 4588 3497 
2738 4662 1732 3498 
4662 3498 2971 1732 
2853 3498 3857 2971 
3884 3547 2973 3618 
838 870 862 2855 
862 2855 870 864 
3837 983 1061 3421 
2838 1542 1486 2455 
320 4984 307 3050 
2760 3896 3240 3503 
3484 4645 865 3003 
3413 441 385 367 
4483 4396 4139 3421 
2852 4927 2194 3760 
4591 4180 1044 1062 
5068 1542 2930 1861 
1861 1542 2455 5068 
1044 1062 997 4591 
4591 1044 4566 997 
3671 3504 810 3637 
3063 2141 2360 4216 
3218 5080 3505 3844 
3855 5080 3505 2928 
3505 2222 3433 3283 
3855 2928 3505 4155 
393 427 2507 3913 
4278 473 427 3913 
4540 3913 398 427 
1223 1074 1171 2100 
1229 2100 1223 1171 
393 4278 427 3913 
1341 1223 1229 2100 
2121 1880 3563 3781 
2507 427 398 3913 
1054 3346 3940 4423 
4038 1528 586 633 
1054 3940 3346 1098 
3344 879 5155 3931 
5155 782 854 879 
3748 3322 3622 3510 
782 879 5155 3344 
3622 3322 3746 3510 
4707 3322 3622 3748 
3622 4411 3746 4403 
3886 3751 3435 3335 
3435 976 955 1049 
3435 1049 3084 976 
3435 3087 3558 969 
3926 2541 1217 4134 
3515 1067 3579 1975 
4453 2342 3884 4130 
3962 1975 1067 3515 
3501 4270 2578 4194 
3962 1067 1132 3515 
3414 4270 4194 3911 
1217 3926 4134 4309 
4983 3862 5124 4936 
4936 5209 1738 4983 
4027 4018 4316 4351 
3950 3977 4419 4043 
4095 4316 4512 4233 
4043 4419 3950 4293 
4966 4043 3950 4293 
2945 2222 3107 3283 
3516 1251 1208 1266 
3516 1304 1251 1266 
3283 3107 4033 2222 
3391 1251 1208 3516 
3516 3391 1251 1304 
4358 4701 2619 3928 
2578 4270 4472 4194 
2769 3549 2314 3520 
2769 1639 3520 2706 
2928 2898 4514 3855 
2314 3549 3857 3520 
3520 4472 3857 3865 
2761 2559 2817 2031 
2559 2817 5070 2761 
751 732 727 3457 
732 3457 751 4793 
1475 1742 3523 2615 
5189 1705 3523 3958 
2078 2144 3655 3442 
3442 3086 3702 3655 
3442 2958 3086 1572 
3057 3155 3565 3652 
1705 3958 1742 3523 
3523 2888 1475 5073 
1475 5073 5058 3523 
1475 2305 2615 3523 
3256 2305 1475 3523 
3523 3256 2809 1475 
3523 3662 4337 2809 
345 4449 3652 2465 
5189 3523 2888 1475 
3652 345 3565 4449 
4551 3052 612 639 
4160 4551 639 3052 
4160 4269 639 4551 
2948 2766 2824 3785 
2948 4050 2824 2766 
2255 2885 2623 2471 
2824 3785 2766 4840 
2623 2471 2885 2442 
4521 939 3528 2415 
4840 2766 2824 4088 
4088 2766 2824 4050 
4063 73 103 65 
1770 3529 1692 4275 
72 3712 3417 4063 
3773 3712 4063 3417 
2247 4596 2803 1849 
4716 4063 73 103 
65 103 4063 72 
4551 639 4105 4269 
1939 2337 4778 3899 
407 3023 2723 484 
3899 1850 2337 3303 
1377 3533 3479 2601 
5105 2984 4380 5162 
2617 2723 3179 407 
1775 2057 1568 3444 
484 3179 2844 2723 
1568 3101 2003 3444 
4703 3272 4459 4380 
4572 3770 900 1521 
2960 3770 1521 900 
4572 3770 1521 4621 
92 4068 3500 80 
4358 4701 2175 2619 
99 4068 3500 92 
113 3297 143 3773 
2619 2175 2572 4701 
298 247 3446 273 
2709 3327 1925 3508 
1925 3917 3508 3327 
383 2894 3496 3186 
383 2894 417 3496 
3270 4411 4642 3746 
3315 2652 3540 3006 
2901 960 3831 956 
4196 3856 4403 4411 
2451 2652 3540 3315 
4461 1421 4350 4066 
4384 4387 5080 2846 
4387 2928 5080 2846 
2764 2952 2928 3541 
1490 2764 2645 3541 
1071 2431 3450 2733 
2130 729 667 2261 
1551 316 3450 2089 
1551 2089 3450 2346 
4121 729 667 2130 
3087 3842 914 921 
1389 2544 1392 3452 
3087 4575 3842 921 
3087 4575 921 1000 
3341 4032 4927 1993 
1387 4647 2553 3174 
2793 1004 3454 1068 
2847 1004 2003 3454 
2003 3101 3454 1004 
3454 3991 1068 1004 
3101 3991 3454 1004 
768 4240 3455 734 
5105 5162 4380 5164 
5164 3364 4380 5105 
768 3455 3068 734 
4380 5164 5071 3871 
5162 5164 5071 4380 
5164 3364 3871 4380 
821 3542 695 4464 
2974 589 3118 4473 
2974 3542 4464 2129 
796 3331 3944 738 
796 1493 3944 3331 
2546 1493 796 3331 
4326 3922 3456 501 
705 3331 796 738 
2150 849 797 4282 
1430 1359 3224 2099 
3224 1359 1293 2099 
2150 4282 4168 4300 
4300 4168 2731 3546 
2657 3546 2595 4282 
2657 2701 2595 3546 
4300 3546 2731 2815 
3489 3506 2674 597 
4495 1613 3410 4220 
4054 2093 3168 3506 
2480 2093 3312 3506 
3506 2480 2356 3312 
3506 2356 2674 3312 
3506 4054 3489 3168 
141 3458 3669 156 
1826 2020 3507 2113 
1832 3507 2020 2573 
2141 4719 2360 3709 
2625 1863 1898 3507 
2259 1639 3549 3877 
2625 3507 2113 1826 
1898 1882 3167 3507 
3507 3167 4782 2573 
3336 1377 1339 2326 
4824 3471 4932 3220 
2040 4773 1822 2079 
3784 4856 3491 3220 
4856 3784 5187 3220 
3990 4331 244 3246 
1882 2652 1907 3509 
3990 4660 4213 244 
4331 4660 3990 244 
4613 3554 3170 2631 
2205 2819 3404 3514 
2531 3409 2680 1939 
3717 2205 3404 3514 
3639 3727 245 4079 
4079 3771 3727 245 
2158 2633 3257 2440 
3009 1035 1037 1004 
2680 1939 2451 3540 
760 4411 3270 724 
724 3270 760 835 
5035 1060 938 2579 
2424 1350 4190 1237 
2424 1191 1237 4190 
2756 4189 4821 2989 
845 3556 4794 4151 
3698 665 626 3176 
3675 4219 3557 4744 
1032 3558 1049 1104 
1049 3886 3558 3435 
3435 3558 1049 969 
969 3558 1049 1032 
3698 626 569 3176 
4693 3248 3831 3145 
3091 3234 3061 3526 
4048 4542 3465 3028 
4491 2830 5201 2495 
1480 2789 2529 2254 
3234 3526 3091 3003 
3552 2830 4491 2495 
4128 3234 3061 3091 
3234 2522 3526 4645 
2522 3234 3526 3061 
3234 3526 3003 4645 
4464 3542 589 688 
2974 589 3542 3118 
4177 4409 4299 2017 
3881 3725 4444 4299 
4177 2927 4875 3339 
589 3416 3542 3118 
589 688 3542 3416 
3519 3140 3666 3066 
2974 3542 589 4464 
124 72 3712 3417 
4797 2650 3190 4092 
3190 4092 2650 4992 
1584 4299 2017 1931 
4299 3314 1931 1584 
4785 4677 1338 4005 
4677 4785 1338 3839 
1189 4438 1202 2688 
2688 1202 1189 1248 
1749 3471 2022 4291 
1712 3537 587 3329 
3537 1712 587 3265 
3858 3563 3781 4485 
313 3112 2449 290 
160 2052 2336 1963 
1004 1037 3009 1052 
1963 2052 2336 3428 
3478 3428 2052 1963 
2336 4143 2052 2990 
2537 3009 3991 3444 
1712 3265 3537 4504 
5192 4299 3711 4408 
506 4672 584 4428 
4408 3646 4862 3881 
4299 3646 3711 4408 
1306 1779 1339 2601 
3954 4814 593 3538 
375 2507 3913 393 
2986 3173 3984 3627 
4278 3913 393 375 
3538 2605 593 2093 
2986 4635 3716 3984 
3538 4731 593 2605 
597 3954 4054 2093 
3590 1384 3782 4136 
3475 121 2850 2216 
4395 2850 3475 4394 
4814 4731 593 3538 
362 4289 323 382 
2654 3590 2786 1384 
446 4289 362 382 
3281 1070 5047 4415 
5047 4415 1070 1012 
4317 876 3270 835 
2849 457 3180 421 
2849 3396 457 2240 
3396 3180 2849 457 
3396 3455 3180 457 
2664 3336 4029 3823 
4548 3175 3692 4894 
2664 2326 3336 3823 
3568 2277 2094 1366 
3568 2277 4434 2621 
3154 2876 4819 5079 
3311 3568 4434 2621 
981 1018 3736 995 
461 460 4081 418 
502 4242 3105 2894 
418 4081 3105 2720 
2618 422 3322 4403 
4877 4058 262 256 
4451 4139 3398 3352 
3980 4483 3398 4139 
3398 4139 2900 3352 
3398 4483 2900 4139 
790 3315 4724 2956 
2209 3794 3875 899 
3794 988 3875 899 
139 3418 3767 3057 
4362 5169 5172 2155 
2155 5169 5172 2523 
2155 2523 5172 2872 
4731 5172 2155 4362 
2588 4364 4603 1734 
572 3492 2540 670 
4731 5172 2872 2155 
3835 5174 2588 4364 
2540 812 672 813 
672 2540 2969 812 
3055 1884 2597 1432 
5036 3088 4871 3545 
3487 2142 706 3611 
2207 1432 3055 2597 
3611 3068 3487 3455 
2597 1884 3055 2525 
2484 2961 1276 3572 
4396 4305 1118 1046 
4177 4281 4012 4875 
4281 4559 4177 4012 
4123 1118 4396 4305 
2484 3572 4510 3070 
3011 4092 2515 4992 
4797 4087 4092 3011 
3011 3304 4493 4092 
4092 3011 4087 4992 
3107 3883 2222 2945 
2222 4125 3883 4057 
3107 2222 3883 4057 
2222 3883 4125 2945 
233 5157 2648 3788 
2404 3788 4433 1936 
5136 4871 3088 3545 
2218 1949 3138 3708 
4235 3134 1816 3795 
2380 2540 2611 3492 
508 2611 4280 3492 
508 572 604 3492 
2369 4494 3383 3824 
1308 1278 4714 1318 
1283 3066 4714 1318 
1325 1308 4714 1318 
813 907 3492 2380 
907 813 3492 815 
815 813 3492 709 
3843 4940 4381 3551 
4494 3594 2369 3383 
3760 4032 2194 2773 
2194 2773 4032 3341 
99 3500 76 3551 
3551 99 4381 3843 
1971 4374 3285 4508 
3578 1965 3933 2191 
3971 4954 4940 3551 
1609 3196 2268 2355 
2268 3196 2252 2355 
2048 2653 3578 1965 
203 2221 3297 143 
3819 4005 3516 1360 
1360 4005 3753 3819 
2755 994 3818 1775 
3818 2755 3687 994 
2755 1767 4303 3687 
4094 3173 785 3723 
753 4094 785 3723 
753 4094 756 785 
2477 2945 2222 4125 
2477 2222 4360 4125 
2477 3433 2222 2945 
3505 4360 2477 2222 
5029 2697 4466 5083 
3433 2222 3505 2477 
3163 4235 3250 3795 
962 950 958 3140 
2094 2277 1950 1366 
962 3140 958 4566 
1950 2656 2094 1366 
1950 4655 2656 1366 
4099 2708 4425 3085 
4405 4099 4105 2524 
4493 3304 4097 4491 
4405 2708 4099 2524 
3585 2164 1879 2083 
3585 4424 1879 2164 
304 4424 3585 3955 
1366 4655 1287 1950 
3502 2026 988 1162 
3502 2026 2734 899 
3502 821 899 2734 
3502 2734 3208 821 
3740 1154 4803 1201 
2550 1154 4803 3740 
2550 4803 3408 3740 
3387 451 4342 2214 
4067 4803 1201 3740 
4321 3408 4803 3740 
3488 2771 3587 4299 
4299 3488 4559 3587 
4727 5196 4856 4100 
4100 5123 5196 4856 
1016 2899 4015 3125 
1016 4015 1007 3125 
4562 2651 3504 4555 
520 2214 451 535 
2214 451 535 3387 
2777 1493 2352 1978 
2442 1842 1745 2352 
2352 1842 1745 2319 
2777 1493 2442 2352 
2777 1493 1978 3429 
1978 1493 2352 2319 
756 4094 783 785 
4276 3256 2330 2296 
4642 756 4094 783 
4008 4749 4094 4411 
3462 4871 3088 5136 
4405 3950 529 4105 
529 4105 3950 4269 
4405 3950 4105 4099 
4066 3425 4461 1421 
2518 2030 2927 4275 
3273 4275 3650 2030 
2518 3273 2030 4275 
3394 2930 2756 1845 
4275 3650 2030 2927 
2833 4620 4020 1584 
2833 4620 1584 4728 
4259 4630 45 51 
3763 5101 1701 1693 
4108 1434 1432 1437 
5194 3763 1701 1743 
3329 3537 587 2469 
1434 1437 4108 4391 
1743 1693 3763 1701 
4206 4391 4108 1993 
3537 3265 587 2315 
3632 2690 3513 1104 
1291 4156 4681 2807 
3317 3592 1333 3366 
3925 1921 2947 3581 
2947 1599 1921 3673 
72 3417 103 4063 
695 2717 821 3208 
3822 3254 3811 2655 
3254 3208 2717 3051 
4716 3417 4063 103 
3863 4626 932 4221 
124 72 3417 103 
3763 5101 2351 1701 
5184 4313 3845 3410 
3148 3205 632 608 
3148 3205 3846 632 
2234 4058 1891 2465 
2160 3205 632 3846 
3870 3141 555 2346 
4877 2465 4058 256 
446 3144 3564 440 
446 3144 4906 3564 
5166 4065 4859 3213 
3783 3321 3323 2966 
3296 617 4911 4152 
4521 3528 939 1686 
3323 3067 1686 3783 
3323 3303 3783 1686 
3296 4152 4898 617 
2190 5126 840 3598 
2025 885 3598 3539 
882 840 885 3598 
882 885 3539 3598 
3165 3599 1982 2940 
5086 2940 3599 3165 
3522 2286 1846 2583 
3522 1846 1840 2583 
3165 3599 4640 1982 
4771 3165 5086 3599 
3754 4921 535 3387 
4318 3754 587 535 
4318 3754 535 3387 
2646 1987 2497 3682 
3173 862 837 2855 
5122 4183 2839 4345 
1695 2399 5199 2526 
5199 1695 4456 2399 
4869 837 2855 780 
4869 837 864 2855 
2855 837 864 862 
1238 4698 4118 1190 
1238 4118 3313 1190 
3527 3762 3332 200 
3656 3194 3209 3567 
3266 4515 4737 3570 
3570 4712 4515 2198 
3346 3187 3864 3544 
3346 3864 3536 4423 
3346 3544 3864 1040 
3346 3864 4423 1040 
5165 2109 5067 3889 
4712 4515 3266 3570 
2916 3628 4623 2906 
4623 4051 2916 2906 
3740 4623 4051 3600 
3628 3600 3384 2916 
4344 2198 3570 4515 
4515 4737 4791 3266 
996 4151 2405 2307 
3570 4515 4737 4344 
2747 3156 3288 232 
1878 3126 2637 2260 
3556 996 4696 4151 
3397 4253 2392 3531 
1878 3126 2260 3635 
3897 3378 4253 3531 
3897 4612 1260 3531 
1054 3544 3346 1040 
1054 3346 4423 1040 
1231 3531 1237 1255 
41 52 3571 3407 
41 3407 3571 2967 
4049 4966 562 669 
4049 4966 669 4169 
3864 3536 3688 2735 
3616 2165 763 831 
4038 2651 3482 2329 
3544 5144 3530 3284 
4038 3602 3482 2651 
605 3602 4555 2673 
3770 3461 3837 4228 
3461 3837 4572 3770 
2694 3927 2320 4376 
4625 3770 3837 4228 
2187 2158 3046 2220 
3046 2158 2633 2220 
2775 4334 3967 5076 
2326 1329 3607 2014 
3607 1329 3823 4209 
3717 3404 3199 4471 
3978 3573 4778 851 
2072 3608 4694 2733 
3894 4694 3840 3608 
3903 3221 3840 3608 
862 838 2855 3173 
3963 3409 3574 2680 
3900 3834 2505 2881 
4246 3834 3900 2881 
4061 5034 3574 3409 
912 2528 4567 1938 
912 4567 977 1938 
3963 2680 3574 2451 
2829 4567 3184 3937 
2272 3985 2480 2203 
3037 2765 487 2203 
3706 2731 710 5081 
3706 2703 2731 5081 
1296 1337 1297 3999 
1101 2366 3575 1972 
2658 1071 2445 3419 
3543 2658 1071 2865 
3543 3276 2416 1071 
3419 3543 2658 1071 
2834 3543 3419 3276 
269 3812 4765 244 
244 3679 3812 3704 
4999 4024 3812 3679 
1432 1437 3807 4108 
244 3812 4765 4723 
3803 4527 3575 2366 
4391 1437 4108 3807 
1101 3575 3439 1972 
3148 3748 4961 3510 
4371 2897 3809 3362 
2509 2908 2454 3907 
2022 3471 4127 4291 
2843 4147 2810 2915 
2710 3987 3555 4147 
1553 1502 2624 1573 
995 4147 2710 981 
4147 981 3555 2710 
2843 995 2810 4147 
3576 2237 3436 2606 
3576 2606 3041 2237 
2456 2237 3436 3576 
3576 2237 2977 2456 
2237 2977 3041 3576 
3617 3237 1383 1433 
258 317 4786 2570 
3996 4020 3689 4316 
4048 4542 1199 3465 
3552 2830 3675 4491 
383 3186 3496 381 
4823 5088 134 125 
433 381 2853 3186 
486 3053 3619 2092 
179 187 2379 4455 
2969 975 3957 811 
2392 3993 5093 3957 
993 975 897 3957 
2379 2936 162 179 
2516 1148 3187 3536 
3187 3317 2516 3536 
2555 2442 3396 2259 
3536 4810 2424 2516 
2623 3549 3396 2259 
3396 3787 3826 3455 
2442 2555 3396 3487 
3536 2516 2424 3317 
4991 5095 2495 4491 
1148 4810 3536 2516 
161 179 162 2936 
2516 1148 3284 3187 
3621 3218 605 2751 
3218 3283 3621 605 
3391 1230 1159 1208 
5018 3022 3559 3377 
4715 4398 1500 3193 
5018 3022 2080 3559 
3022 4554 3759 3559 
4696 793 4794 2645 
1767 1572 3560 2193 
2708 2687 4044 4085 
1767 1572 3014 3560 
3349 1572 2548 2193 
3349 3560 2193 2944 
3349 3014 1572 3560 
2645 4696 4151 4794 
3952 887 2325 2819 
3625 3406 2363 2682 
3406 3625 2741 2192 
1046 4139 990 4451 
3625 2192 2027 2741 
3980 4139 990 3421 
3356 2819 3952 2325 
3980 4451 990 4139 
1046 4396 990 4139 
4139 4396 990 3421 
49 3562 3367 54 
2819 883 3404 4740 
3338 2819 3952 3626 
3338 2819 3626 2750 
3013 416 3131 4234 
5119 5083 3411 2697 
2720 3054 4549 2975 
3054 3627 4549 2975 
4008 3723 4718 3627 
4718 3627 4196 4008 
3063 4719 2360 2141 
3748 538 3205 608 
3148 608 3748 3205 
2647 4046 3851 2770 
2451 1939 3978 4778 
1399 2770 5022 5142 
5174 4552 3862 3835 
4778 3978 898 3388 
3978 3388 4778 1939 
4531 609 3673 627 
2829 1938 3937 2842 
1938 3408 4567 3937 
4948 1164 3554 3628 
2631 4948 3628 3851 
3554 3628 1164 1039 
1938 3408 3937 2827 
3628 3851 4948 2906 
1938 4567 2829 3937 
2842 1938 3937 2961 
2961 1938 3937 2827 
3980 3421 4483 4139 
3352 1027 4451 4664 
3630 2497 3957 2969 
3630 3456 1488 2497 
3630 2721 4102 3005 
3481 3630 4102 3005 
3481 3630 3957 2969 
565 2928 4370 523 
2760 2928 523 3896 
3505 2928 2760 3896 
3316 3798 3700 3002 
2233 1412 3617 1362 
77 41 3589 60 
3372 4041 268 2477 
4041 2477 277 268 
3633 4023 158 4031 
1634 58 1667 2265 
2500 3589 41 3571 
2171 3635 3126 3153 
4824 4070 3220 5186 
3678 3635 323 3231 
41 3571 3589 2967 
4538 4452 3774 4628 
4858 580 1683 518 
77 3589 41 2500 
3144 3591 444 3801 
3048 440 3591 3144 
459 440 3591 3048 
5115 3801 3144 444 
524 567 3362 548 
3105 4047 3636 2808 
4500 1127 4354 1188 
1127 4354 3397 4500 
4500 4354 3531 1188 
4354 3397 4500 3531 
2808 4304 4047 3636 
2213 3362 524 567 
2563 2213 3362 524 
1256 4546 1243 1182 
3638 3896 3240 523 
523 2928 3638 3896 
4370 2928 4155 3638 
4371 2897 3362 3405 
459 3942 472 3591 
459 3591 2563 3048 
4178 5063 4916 5202 
4856 2802 3332 3491 
3332 2802 3415 3491 
1351 2685 1270 4988 
4916 4178 5202 5149 
3758 1778 3581 1847 
3581 1778 2055 1847 
3361 545 456 2926 
4555 3381 2651 3504 
3858 852 1880 3563 
1528 743 3344 782 
4329 735 4537 4939 
4329 784 3640 4537 
701 2598 3640 4049 
701 4049 3640 2812 
4056 1977 3687 3643 
701 2812 3640 784 
4056 1767 3687 4303 
743 782 5155 3344 
2208 3012 2823 2764 
2831 3012 2764 2823 
3245 3087 3405 969 
2840 3004 3822 2182 
3755 2813 4275 2927 
4275 2813 1699 2927 
4275 1699 4875 2927 
2927 4275 3650 4875 
4016 2518 2927 4275 
3755 2927 4275 4016 
124 72 3633 3712 
3633 4585 3712 72 
4146 3759 3782 1396 
2752 2655 3822 3811 
1767 3014 2958 3643 
2958 3014 2576 3643 
2504 2925 1390 1775 
4089 5006 2262 3932 
4577 2419 2469 3811 
2752 2182 3822 2655 
1178 2197 1002 3644 
1078 1178 1002 3644 
1045 2997 1002 3644 
3907 2964 940 2509 
1002 3644 2009 1078 
2997 2009 1002 3644 
3702 3442 2576 1847 
2964 3907 2908 2509 
1569 2888 2296 3705 
614 3645 662 3916 
519 4538 542 4485 
3584 661 2912 571 
542 4485 4538 544 
2912 4485 3584 483 
4598 183 225 4932 
183 2112 4932 4598 
3977 4419 4043 2365 
3095 2133 2669 3424 
1105 1072 3262 1101 
2810 1012 1085 1070 
4153 1142 1118 1203 
4153 4664 1118 1142 
5018 3590 3022 3377 
4153 4664 4139 1118 
627 2836 667 3675 
1205 4396 1118 4153 
627 3675 667 4531 
4568 3675 627 4959 
4577 2469 2315 3811 
3675 4531 627 4959 
4568 3675 2836 627 
4845 5203 4663 5148 
37 30 33 34 
2779 4469 5158 1238 
1220 3864 3644 1685 
30 34 4815 33 
1220 3864 2197 3644 
5158 4184 4469 2779 
2197 1045 1002 3644 
3237 4055 1420 4350 
1381 1358 1420 4350 
4350 4055 1420 1381 
4161 1287 1344 4310 
667 3675 729 4531 
2007 976 3595 1075 
3675 729 4138 667 
3675 667 4138 2836 
2688 3313 4165 3595 
2380 3595 1075 2007 
3871 3763 5164 4905 
4856 3332 4580 3784 
3763 4632 5101 5164 
3038 3961 1317 4571 
4580 4856 5123 3332 
5101 5164 3364 3763 
3763 4632 5164 4905 
3470 2021 1317 4571 
2428 1727 1469 1560 
3763 3364 3871 5164 
1714 45 49 3370 
4742 4162 4600 855 
4600 4162 4951 855 
2545 5181 1475 4343 
4385 4343 1475 5181 
1475 2305 5181 2615 
4385 5181 1475 2305 
5181 2615 2545 1475 
3882 1995 4938 3197 
1895 1439 3596 2225 
3817 2220 2133 2195 
1273 3419 2440 1571 
2795 3983 3959 1162 
1895 1439 2158 3596 
3596 1439 2445 1403 
4961 724 3270 4411 
4703 3654 4747 4426 
4426 5148 4703 4845 
4341 3597 3064 4231 
4426 3654 2436 4845 
5210 4541 2436 2533 
5189 3958 3523 1475 
3958 1475 1742 3523 
1742 1475 3958 1664 
1664 3958 5189 1475 
3186 381 2853 3496 
3661 2302 2039 2561 
3661 2302 2561 2921 
4715 3193 1500 3839 
1192 3819 1165 1180 
2354 2699 2700 3130 
462 4925 4861 433 
3297 3001 81 2221 
3001 3302 2463 2699 
1173 1086 4165 3082 
2699 3079 2463 2221 
3603 372 3472 1994 
3603 1994 3472 2185 
3603 2185 3472 4965 
2588 4552 3835 1734 
1734 1706 4936 3835 
4552 4936 3835 1734 
3135 343 344 411 
1171 1074 1100 3464 
3665 3987 3555 2710 
343 4328 3135 344 
3681 4518 1136 4956 
3299 2421 1532 3211 
1532 1866 2575 3211 
3211 2421 1532 1866 
1136 4840 1102 4956 
3681 4088 4518 4956 
1532 2817 3299 3211 
2020 1924 3507 2113 
2398 1766 1470 1765 
3139 2974 473 526 
3622 4807 4800 3322 
2020 3507 1924 2573 
3622 4403 3746 3322 
2246 1765 1810 1766 
1733 2927 4875 1699 
1766 1471 2398 1624 
4875 1733 3339 2927 
3322 4807 4800 423 
1765 2517 2106 2608 
2487 2106 2608 1765 
3622 4800 4403 3322 
4411 3173 3627 3984 
4411 3723 4008 3627 
3775 3026 2806 2399 
3414 3911 3707 2989 
586 3868 4170 4358 
586 3868 4579 4170 
982 4228 4078 4221 
3979 3670 2481 2332 
2317 3112 2332 3670 
2894 3605 502 516 
3670 3045 2481 2332 
4245 3670 3979 2332 
3670 3112 2332 4245 
2409 3148 4317 3510 
4470 1072 2141 3612 
3707 2343 3911 3414 
1072 3803 3612 4470 
4474 5054 1022 1069 
570 3613 566 2140 
3489 566 570 3613 
3381 3671 3878 2759 
3031 3671 3842 2494 
4900 5161 2797 1307 
4007 276 240 4104 
3878 3671 3031 2494 
3276 3419 1273 1071 
3276 3543 3419 1071 
2614 2824 3672 849 
4212 4505 3610 3726 
3610 852 1880 4212 
3312 3954 597 2093 
609 2947 3673 627 
2947 3673 1921 3925 
734 3611 3068 798 
706 2228 3123 3611 
2803 4596 4074 1849 
4780 3765 3899 3540 
1050 3404 3514 3717 
4968 2872 2473 702 
4968 2891 2473 2872 
436 3627 435 3949 
3607 2629 3823 3676 
435 436 3949 467 
4209 3607 2629 3823 
3856 3627 4196 430 
3722 2830 3675 4744 
3557 3675 4744 3722 
586 3348 4170 4579 
586 3348 4825 4170 
586 4825 4358 4170 
2475 1577 2963 2724 
2475 2963 1840 2724 
4118 1238 3313 4080 
4560 488 455 2473 
1238 4118 2779 4080 
4085 2950 4353 843 
2779 4698 4118 1238 
4353 3209 4085 843 
3402 351 1678 1471 
1579 2115 3402 1739 
2246 1839 1471 1739 
1839 1739 2246 1478 
4551 2612 3618 612 
3418 4073 3767 3057 
3418 4073 219 3767 
3618 2612 3065 612 
1770 5122 4183 3838 
5022 2962 2995 2060 
1685 2172 3688 1905 
1685 3392 3688 2172 
1685 1905 3688 2997 
1685 2997 3688 3864 
1396 1372 4809 1500 
871 4914 3623 954 
3553 3623 4914 4423 
3070 3624 5143 2805 
3411 5143 3146 3624 
3629 628 583 581 
2677 160 2311 3216 
2303 3521 4052 1862 
3629 645 3074 628 
1179 4200 4831 1117 
1179 4971 4831 4200 
2311 3365 3669 3458 
2093 2605 3168 2272 
2605 2180 3168 2272 
994 2003 1004 3444 
994 1775 2003 3444 
994 1775 3444 2925 
2492 4319 3691 2551 
2003 3101 1004 3444 
4622 2810 2613 1110 
3579 4808 3926 4122 
4808 2613 1085 1110 
3142 3265 3754 587 
3275 3265 3537 2315 
160 2336 3458 3451 
3451 3428 2336 4059 
2315 3265 587 3754 
3754 4318 587 2315 
2965 1056 1246 1119 
3626 3952 858 3356 
2965 2248 1056 1119 
1246 1334 2965 1119 
1050 3036 3145 992 
1173 4165 2488 3082 
1050 4471 4255 3145 
1050 3036 4471 3145 
2406 2364 2411 2117 
1189 4476 1128 4165 
326 2364 2406 2117 
1589 1663 1472 1593 
1515 1663 1593 1472 
186 2519 2861 3694 
186 2519 3694 3880 
4491 5201 3675 5095 
4491 3675 4097 5095 
3909 2232 5021 2980 
3467 2232 431 3909 
2551 318 303 3659 
3675 4219 5095 3557 
5201 5095 3557 3675 
4097 4219 5095 3675 
2326 1393 2014 2640 
3119 1490 4504 3541 
1490 3541 2645 4504 
3395 3861 2563 3362 
4782 3540 3941 3167 
3727 245 3743 276 
3743 276 245 4042 
3006 2652 3540 4782 
4780 3540 3941 4782 
3227 4191 3908 2452 
3633 100 4023 4585 
4432 1584 4187 3725 
1032 3632 1104 1109 
164 3650 4275 3525 
2016 164 3650 4275 
4275 4760 164 3529 
3632 4156 3513 2690 
4212 1019 4505 1143 
1698 3725 4187 4095 
164 4275 4183 3525 
3725 1584 4187 4620 
1698 4432 4187 3725 
3725 4187 4095 4620 
4275 3529 164 4183 
3006 3540 4724 4782 
2016 4760 164 4275 
2902 3646 4409 3881 
4724 3540 4780 4782 
4777 3697 4676 132 
3881 4409 3725 4299 
3091 3526 3061 4929 
3697 132 4777 111 
94 3697 2354 90 
4128 3091 3061 4929 
873 4128 3061 4929 
4299 3646 3881 4409 
3213 1525 2498 4065 
3213 2498 5166 4065 
4232 3091 4128 4929 
3387 4921 4033 3754 
3448 4921 3319 2245 
146 3700 4880 200 
2790 2843 3736 3177 
5121 3738 5195 1741 
3344 3637 2562 3931 
1741 1708 3738 5195 
3919 1419 1421 3701 
3707 2908 2343 3414 
1419 3873 1415 3919 
3455 513 3611 734 
3068 3455 3611 734 
3455 2142 3611 513 
3455 3487 3611 2142 
5174 4364 4502 3076 
3076 2588 5174 4364 
4444 3725 4620 1584 
947 979 2901 3125 
1153 2026 988 3794 
4689 3725 4620 4444 
2901 943 947 2899 
3125 947 2899 2901 
4459 3364 4899 4380 
2296 2888 3523 3705 
3523 3705 5058 4492 
2900 4005 3015 4677 
4069 4456 2399 5096 
2433 1374 2061 1580 
4069 1707 2920 2399 
4858 3584 2494 3781 
2151 5045 1666 2549 
1480 4237 3162 1864 
2926 4429 545 3809 
2681 1480 4237 3162 
2151 5045 2549 5139 
3912 4189 3709 2756 
4719 3394 2360 3709 
2900 3819 4005 3516 
4005 1398 3641 1378 
2413 350 4770 2542 
3709 1861 3318 5068 
3710 2803 1780 2298 
2321 3710 1780 2298 
1780 2803 3710 2983 
3710 1780 1957 2321 
234 3220 3948 4856 
995 1018 3736 1043 
4958 2802 3332 4856 
1043 1035 1018 3736 
3361 598 545 4429 
2242 4391 4032 3427 
4391 2242 4032 1993 
739 3405 892 3245 
4032 2242 4927 1993 
583 535 3629 581 
1014 1025 1517 3403 
3629 2913 583 628 
3629 628 3074 2913 
1014 1517 966 3403 
1054 4423 954 1040 
1014 3403 5050 1025 
3629 645 3361 3074 
520 3361 3629 581 
2927 4875 3650 4281 
4799 378 3696 366 
3696 378 342 366 
3916 536 4617 475 
475 536 521 3916 
475 493 3916 521 
2648 2675 5157 3040 
4311 4675 3772 4849 
4962 4311 4849 3714 
5207 4311 4962 3714 
3714 4962 5207 4186 
404 269 4024 4159 
269 381 4159 404 
310 374 2723 3023 
269 4688 404 4024 
269 404 4688 4678 
4979 4652 468 4551 
3123 2189 1614 2781 
3068 3123 2781 2189 
4498 3719 4416 2436 
2436 3175 4548 4894 
3719 5195 3738 3854 
3634 3879 3176 4304 
3634 3879 4304 4982 
4295 2619 4170 2751 
4170 4825 4295 2751 
3425 3128 4461 4646 
2379 190 3081 4455 
4508 2660 4723 4159 
4508 2660 3285 3778 
3334 2583 3796 1840 
190 4795 3081 4455 
3522 2286 2583 1453 
2959 4455 3081 4795 
4455 215 190 4795 
215 4799 4795 4455 
70 2796 3960 67 
3960 3127 48 67 
3004 3943 845 1712 
4281 4012 4875 4084 
2870 3086 1476 1572 
2870 3655 1572 2078 
2870 3655 3086 1572 
2078 3655 1572 3442 
3442 3086 3655 1572 
3120 3655 2870 2078 
2012 3976 3102 4064 
4000 3270 4642 3746 
603 4000 673 4642 
790 4778 3573 851 
3355 2603 3164 4082 
1291 2807 3726 4238 
3659 367 385 348 
385 3659 3413 367 
2551 4339 3659 4913 
1782 4689 1927 5211 
3708 3138 2671 3100 
3727 276 3743 240 
4829 4689 5211 1927 
2060 2034 4184 3768 
3660 2359 4226 3231 
3731 4226 3635 3660 
3768 4184 3047 2034 
5160 3768 3047 2034 
2327 1735 3280 3728 
3260 4203 3648 4984 
4399 3648 3802 3260 
4203 3648 4983 3260 
2522 877 3484 874 
5082 3730 4606 1011 
3730 3928 2589 2512 
3526 2522 3484 4645 
3153 3731 4547 869 
3968 3731 3678 3660 
1434 4391 4108 4206 
2592 3387 4318 451 
3526 3484 3003 4645 
4101 4661 1133 3663 
4161 4310 3998 4314 
3747 3642 4628 3386 
156 169 4690 3883 
5043 3883 169 156 
2796 1991 2506 3127 
2967 2506 2796 1991 
2876 2506 1991 5079 
2147 1840 3664 1453 
2475 1840 3796 3664 
2506 5079 3127 1991 
4733 3966 5060 5025 
4733 4847 3966 5025 
4511 154 3198 4297 
3735 2053 4239 2911 
2165 3735 4239 2714 
981 3736 998 3271 
4511 3198 154 4437 
3271 3071 2710 3736 
883 4401 2791 763 
3735 707 763 2911 
2008 2314 3737 421 
3865 1971 3737 3520 
2008 2314 2971 3737 
421 3180 2314 4617 
2291 2647 2770 2569 
2971 3857 3737 2314 
2603 4511 2050 3799 
4613 4046 2647 2795 
4381 4954 4975 5167 
2952 3012 2951 2052 
2952 3012 2831 2951 
755 4644 767 819 
3916 4644 3757 3180 
2868 3168 2993 2180 
2669 4060 2133 3095 
2669 2377 3095 3424 
4638 4998 1236 1214 
2993 2868 2825 3168 
5109 3534 3316 3798 
5145 5109 3798 3534 
320 1611 1610 2859 
4169 2415 4783 792 
320 2859 1610 4379 
2248 2415 792 4783 
1722 722 2887 2787 
4628 3223 442 3386 
2964 2908 3550 2509 
4256 4869 2855 780 
769 841 2562 2816 
1527 2895 3648 284 
1527 3117 3648 2895 
2595 2208 2823 2764 
4826 844 4112 4425 
3640 3765 4724 4537 
766 4240 3826 4446 
4527 2987 3741 4113 
4544 2836 4382 5146 
2534 3222 2459 4263 
3222 5042 2459 4263 
1374 2925 3309 3579 
2504 1374 1390 2925 
2786 1314 1384 1375 
2187 2968 3745 3677 
1314 2786 3677 1375 
2786 3677 2633 1314 
2220 1314 2633 3677 
2187 2968 1414 3745 
5046 3152 3660 2359 
320 3862 2859 4379 
1050 4768 4740 992 
3352 4664 2900 3015 
3151 2719 2466 2530 
2187 3680 2158 2220 
3680 5143 2805 2493 
1815 1893 1958 1988 
4312 5185 4186 2287 
3015 4664 2900 4153 
4677 2900 4153 3015 
3681 3393 4088 3933 
3895 4566 3519 4591 
1735 2287 4186 5185 
3895 3999 4566 4587 
3895 4566 4591 4587 
1648 2183 134 4872 
4749 4411 4403 3746 
603 3746 533 4000 
1851 1126 2324 2154 
2154 2324 2387 1126 
3373 4898 4152 2476 
3054 3627 3984 3949 
3373 3296 4911 4152 
4411 3627 4008 4196 
3373 4152 4898 3296 
4126 4689 4627 3725 
4799 2959 3696 378 
4444 4689 4627 4862 
4126 4816 4627 4689 
4689 4816 4627 4862 
3696 2959 342 378 
4186 2806 2526 2399 
3696 366 342 343 
1073 1499 2560 1007 
571 483 2638 491 
4364 3835 2859 4208 
4364 2859 3835 5174 
3464 1499 2560 1073 
2694 4376 2320 2396 
1302 1324 3548 1357 
2845 4376 2025 2694 
3666 3140 3683 4290 
3683 1324 1337 3666 
2070 1765 2487 2608 
3120 1853 2870 3655 
2025 4376 3927 2694 
2524 4099 4105 612 
4551 4105 639 612 
4105 4099 639 612 
395 3835 4323 5103 
4707 3622 4961 3748 
2415 2009 2884 1078 
2524 4105 3618 612 
2415 2884 2009 2718 
3687 2003 3228 994 
3687 2003 994 2755 
4105 4551 3618 612 
3818 3687 3582 994 
907 3492 3595 815 
818 3751 914 923 
976 1487 815 3595 
3751 1023 923 3335 
1023 914 3751 923 
3027 4002 3408 3931 
3806 2637 2171 177 
3509 2680 1907 2905 
2288 268 4125 2782 
3073 3430 2687 2616 
3073 2687 4774 2616 
3073 2348 3430 2616 
3013 177 181 195 
1936 3282 2404 4547 
3330 2348 3073 2616 
3126 4547 3282 1936 
3194 3073 4774 2616 
5172 3369 5173 2891 
3126 3635 323 4547 
3714 2399 4227 3775 
3775 3026 2399 4227 
4909 1152 4197 1135 
4909 4197 1111 1081 
1598 2399 3026 4227 
1107 1020 4625 4614 
4625 4228 3837 4078 
4227 1598 2399 3017 
3017 2399 4227 3714 
1341 2100 1229 2134 
1341 2134 1269 1298 
1341 1229 1269 2134 
3678 3660 2359 5046 
776 3653 3649 4128 
4912 4143 4404 2898 
2592 4057 4318 3387 
2846 4404 2898 4912 
2002 2944 2362 2263 
2630 2263 1744 1772 
2427 1744 2263 2362 
1285 1243 3465 4427 
2427 1744 1482 2263 
4427 3465 1199 1243 
4724 4780 3640 2446 
4598 3471 4932 4676 
3368 2607 2307 2701 
2307 2607 1675 2701 
4824 4932 3471 4676 
2657 2607 3368 2701 
3449 2218 2641 3138 
2347 4303 2107 3693 
2347 3693 2107 1923 
3693 2146 4763 3821 
1923 3693 2146 2347 
4346 3547 5026 4652 
2960 3837 3770 900 
726 756 4094 4642 
3671 4567 2494 2562 
2562 4567 2494 2816 
2494 2759 2562 661 
2832 2670 3547 2612 
1031 997 3519 4258 
722 2562 2494 2816 
661 2562 2494 722 
2562 3671 2759 2494 
2562 3671 3381 2759 
753 726 756 4094 
2313 4378 1290 3756 
2832 2612 3547 4551 
3066 2899 2727 2938 
3668 2625 2113 1826 
4644 3757 3180 3826 
3372 4125 268 169 
2679 2590 2725 4011 
1688 4216 4011 2679 
2782 169 268 4125 
3267 2590 2679 4011 
1688 2679 4011 3267 
4392 4336 4229 2852 
4818 378 342 4203 
4983 2909 3648 4203 
2852 3760 2194 3103 
2887 841 769 839 
976 3435 3486 1487 
4089 996 3932 4406 
976 1487 3084 3435 
4371 2897 3031 3809 
4923 590 3825 4911 
1520 1996 2471 1543 
5015 254 230 4799 
3851 1392 3374 2906 
4233 4018 2903 4316 
2588 4552 5174 3835 
1304 3516 1356 1311 
3516 1304 1356 4715 
3391 1230 1149 1159 
3391 1251 1230 1208 
3516 1311 1304 1266 
3410 2351 1701 3763 
5088 3727 240 3639 
148 3727 240 5088 
2782 169 4125 4690 
2288 2782 4125 4690 
3079 3295 2221 2699 
3466 1536 99 3604 
38 52 2935 46 
3838 4275 4183 1770 
3237 2599 1383 1433 
4264 3620 5060 4733 
3838 4275 1770 1699 
1972 3612 3820 1101 
1972 2366 3612 1101 
2366 4527 3612 3803 
3612 3803 4527 4470 
3925 1778 3581 3758 
4759 2379 2959 4455 
3870 2635 2289 2346 
3767 1862 4215 3133 
3768 5142 2804 5158 
3768 2770 2804 5142 
4515 3161 2113 2020 
4515 3161 2020 2374 
4515 2949 3161 2374 
5022 3768 1388 5142 
2770 3768 5022 5142 
3668 2113 4515 3161 
4737 4515 3953 3668 
692 4179 727 3457 
669 618 3977 4966 
669 3977 4169 4966 
594 648 2618 3412 
5080 3844 4624 2846 
3412 648 631 594 
4320 3112 3909 2449 
3572 1332 1276 4510 
3070 3572 4510 1332 
4317 4000 3412 2618 
3264 2532 3108 3463 
807 3552 3675 4138 
4138 4544 4382 3552 
540 485 512 3949 
3984 3949 540 512 
4749 4403 4411 4008 
4008 4403 4411 4196 
4749 547 4403 4008 
134 128 137 3771 
137 3771 128 147 
5168 128 134 3771 
4770 353 350 3059 
3138 2328 3708 1864 
3708 1949 3138 3100 
4008 547 4403 509 
4008 4403 4196 509 
3900 3902 2505 3834 
2192 3406 1393 2741 
4246 3902 3900 3834 
2936 161 157 155 
3420 3342 2765 5109 
4997 161 157 2936 
4092 3190 3192 3750 
4667 4092 3192 3750 
3313 1153 1190 4484 
4110 4092 3192 4667 
2829 2816 4505 3184 
4128 3914 4929 873 
5199 2399 3714 4186 
4107 3082 4638 3875 
5096 2399 5199 4456 
4299 2927 4177 3339 
5096 3714 5199 2399 
5199 2399 4186 2526 
417 2922 4765 3778 
4508 2660 3778 4723 
1099 3346 1098 1054 
4437 4511 3799 154 
805 814 4986 3399 
4445 3779 4333 2713 
4445 4263 3779 1529 
1714 50 5001 45 
2424 1350 2516 2821 
1350 1402 3366 2516 
3366 3317 1350 2516 
3716 2986 3054 2720 
3775 3026 4227 4249 
1598 4227 3026 4249 
3707 3911 3912 2989 
3690 3074 680 659 
3718 2543 1403 1955 
3317 1350 2516 2424 
2109 559 5067 3889 
3690 2913 683 4757 
3458 2677 2592 2336 
2677 2592 3365 3458 
4233 4316 4027 4018 
3458 2336 4059 3451 
3707 3815 3912 3911 
3181 4097 3675 1596 
1596 3181 4124 3675 
4097 3181 3675 4897 
3675 3853 4897 3181 
3853 3181 3675 4124 
5107 3721 3213 2934 
3213 2074 3721 5107 
2074 3721 5107 3261 
4300 3785 2824 4282 
2824 4282 3785 4840 
4241 2820 2686 4173 
3825 4911 3893 4923 
4911 3825 3893 4152 
3690 2913 3074 659 
2213 2844 567 524 
3179 2213 524 2844 
2080 3657 3353 3559 
4493 4991 2495 4491 
3011 4493 2515 4092 
2023 2981 2213 3179 
3179 2213 2844 2981 
3707 2343 3815 3911 
4751 4644 3916 2769 
2254 2789 2529 3078 
3078 3214 2789 2529 
4751 2769 3916 4617 
880 3132 833 824 
3178 824 3132 880 
3052 612 2612 4551 
3791 3675 4568 4959 
3791 3675 4959 3853 
2060 1351 4184 2034 
3729 1351 2060 2034 
2034 1351 4184 5000 
3729 5012 1351 2034 
5012 2034 5000 1351 
2521 530 462 3800 
281 4208 1610 2859 
3800 2521 4925 462 
3792 4343 4368 5094 
1475 1664 3792 5094 
5094 4368 4117 4343 
1736 1664 3792 1475 
1736 3792 4343 1475 
2158 3596 2440 3257 
2211 3849 3325 2820 
3596 1895 3257 2158 
3325 2820 3849 2375 
2375 3325 2906 1322 
5132 4316 4020 2833 
3240 2760 3503 2434 
3800 462 4925 5013 
3115 1481 3732 5043 
4193 5111 2568 2705 
4530 5195 3738 3719 
4193 5111 4334 2568 
2243 2319 2485 1842 
4412 4208 281 2859 
4023 4025 81 4332 
4023 113 3773 4332 
21 4175 44 4019 
755 3826 766 4240 
3798 454 359 3002 
454 3037 3002 3798 
3420 5109 3037 3798 
4489 2729 4910 3713 
4489 3901 2729 3713 
4171 3713 4489 4910 
4171 3713 3901 4489 
3072 4041 3372 3045 
31 4026 21 4019 
31 21 44 4019 
2354 2699 3001 2700 
4264 4352 3620 4733 
4770 2873 2818 4090 
3410 1613 5204 4220 
2878 2448 3739 1671 
294 343 309 3696 
3696 343 342 294 
4413 4265 1201 3874 
1201 4265 4948 1164 
22 32 43 4022 
4948 4265 1201 4413 
4022 22 32 4026 
22 43 42 4022 
569 3634 3698 3176 
996 4406 3554 3932 
3170 3554 996 2631 
232 202 4014 3743 
4976 1829 4205 3569 
4775 2883 4205 4976 
4938 3576 3436 2606 
4938 2606 3041 3576 
1297 3999 3895 3015 
3015 4587 3895 3753 
1297 3015 3895 1312 
801 826 691 3804 
4240 755 3804 766 
4240 741 3804 691 
755 826 801 3804 
4973 3867 4897 3304 
4742 5155 4600 4162 
3304 4544 5146 3867 
1034 4781 4742 3588 
3588 770 4600 3637 
3895 3999 4587 3015 
5155 4742 4600 3637 
3459 4041 4691 3045 
4691 3045 4041 3072 
2859 1611 4412 307 
1289 4396 4386 1205 
236 4824 5196 5191 
3805 2346 2635 555 
3200 2285 3805 3776 
1258 3839 3890 1310 
1855 3834 4246 2881 
4953 4412 1611 1824 
5196 5186 5191 4824 
2171 3153 3806 3122 
4678 3834 4246 1855 
3742 5051 1711 2197 
1711 1220 3742 2197 
2854 1051 989 5054 
2171 3126 3806 3153 
3806 2637 177 3013 
3806 3126 2171 2637 
1051 5087 2854 4542 
1203 1118 4153 1205 
1203 4153 1254 1205 
2854 4210 1051 1069 
3359 3297 4115 4716 
3359 127 3743 4716 
1254 1203 3015 4153 
4509 4174 3745 1414 
2220 3745 3677 2187 
3343 617 3204 653 
2220 3745 2133 1314 
4174 4060 3745 1375 
4620 4689 4316 4126 
3725 4689 4620 4126 
590 2521 3343 3176 
2129 2974 3139 4464 
2129 3542 4464 695 
590 3343 2521 3195 
3343 3195 617 653 
4115 3777 3297 47 
4039 4021 82 4115 
4716 3297 4115 3777 
3089 4627 2902 3881 
1866 1868 1982 3808 
3808 2421 1866 1868 
3211 1866 2577 3808 
3808 2421 3211 1866 
3521 219 195 4052 
3521 219 4052 3133 
3359 4115 73 4716 
3335 4107 3084 3886 
3023 374 2723 484 
4034 4104 3743 4042 
284 5205 2895 3802 
3648 2895 3802 284 
4411 3622 3746 4961 
3802 3648 284 4984 
4961 3270 3746 4411 
1973 3532 1562 1556 
5205 4984 3802 284 
2878 2373 1677 2448 
2878 2940 2373 2448 
4411 3856 4403 3622 
2399 3775 3714 4186 
4186 2806 2399 3775 
3714 3775 4962 4186 
4186 4962 2806 3775 
510 3354 473 3139 
4726 3811 2990 2677 
1359 5142 1430 3752 
3811 2137 469 2942 
2137 469 2677 3811 
2644 4798 2671 324 
2644 2671 3100 324 
4938 2606 3104 3041 
2038 1651 2940 2878 
5086 2038 2310 2940 
3885 2357 4782 2625 
2038 5086 2373 2940 
1153 3794 3313 1195 
2357 2625 3006 4782 
2810 1085 1110 1070 
1878 3813 2260 156 
1931 4177 3453 4281 
3328 3813 1878 156 
5043 3813 3328 156 
4281 1931 4177 4559 
1779 1890 4686 1244 
3559 3377 4554 3350 
2744 5208 1657 1767 
3559 3350 4554 3759 
3559 3022 1407 3759 
3309 2755 1775 1657 
210 2880 413 429 
413 1772 429 2880 
4265 1164 3554 4948 
3758 3109 2958 4230 
3758 3109 1778 2958 
3721 4711 5166 4420 
4984 2864 3720 307 
3022 4554 3782 3759 
3022 3782 4146 3759 
4953 1824 3720 4412 
2967 3137 4259 4490 
2806 3026 3966 2399 
1695 3966 1707 2399 
3972 3966 3026 2399 
3817 2133 3424 2195 
3817 3226 3745 2220 
299 3720 307 4984 
3817 2805 3226 2220 
3817 2195 3070 2805 
2920 3966 2399 1707 
3309 3818 2925 1775 
4315 3818 4340 3582 
2390 1003 3309 3818 
3972 2920 3966 2399 
3818 994 2925 1775 
1003 3818 3582 994 
1824 4993 4953 3720 
3720 299 1824 4993 
2806 3966 1695 2399 
4266 3490 1326 3009 
285 167 147 4028 
127 167 4028 147 
3823 2326 1306 1329 
2626 3764 1924 1883 
2803 4596 2247 4560 
2014 3607 2326 3463 
3607 1329 2326 3823 
2037 1492 2178 1754 
1754 1492 2178 1746 
2326 3607 3823 3463 
5171 2891 1980 3764 
3991 3250 1985 3101 
2003 2632 3454 3101 
5171 5170 2891 3764 
5193 3190 4992 4092 
522 4167 4628 3135 
2327 3728 3190 4784 
945 1078 3528 1138 
5060 2806 4497 3966 
2176 1138 945 3528 
4253 4354 4612 3531 
2337 1138 3528 1686 
1421 1428 1422 4336 
1078 1138 1686 3528 
5060 3966 4497 5025 
458 4167 522 3135 
2868 3168 2140 2825 
3466 4381 3305 4140 
3516 1266 1208 1180 
3398 3516 1208 1180 
3391 3516 1208 3398 
4141 4120 3336 2664 
3382 1428 1421 4336 
3985 3613 2140 3168 
3489 566 3613 3168 
833 881 2025 4376 
5147 4186 2970 4312 
5147 4186 5207 2970 
2868 3985 2140 3168 
3769 3340 4224 3424 
2187 2493 2220 3745 
4376 2845 833 3132 
1150 4123 3421 4305 
880 4376 833 3132 
2055 2229 2665 3086 
2229 1476 2665 3086 
2530 3283 2376 2945 
2420 1218 2929 2702 
2929 1218 1267 2702 
2046 3733 4333 2713 
4234 4657 5110 3472 
4234 3724 4657 3472 
3362 567 596 650 
2046 2822 4333 3733 
1374 3309 1975 3579 
4254 2339 2679 2590 
3734 3764 2198 4344 
3734 3885 3764 4344 
3734 2198 5066 3570 
2640 3199 4298 1256 
1256 2014 3199 1182 
1256 3199 4255 1182 
1256 3199 4298 4255 
695 3358 3542 821 
2014 3199 2640 1256 
1475 1664 3007 5189 
5013 447 4304 503 
5013 503 4304 4982 
2854 4048 3028 4542 
2901 2854 3831 960 
1017 3831 989 992 
2768 4004 2046 4846 
2046 4004 2822 4846 
3185 4004 2046 2768 
3185 4004 2822 2046 
2975 406 418 420 
2975 2720 4081 418 
460 511 4081 4718 
3089 3881 2902 4409 
3089 3881 4409 3725 
4828 4627 3089 3725 
921 3637 820 3588 
2961 3937 4324 3961 
2562 3637 2651 3671 
2842 3937 4324 2961 
544 4858 3781 4485 
3781 544 4485 5135 
3858 1880 3781 3563 
3858 3781 3584 4485 
4554 4136 3782 3759 
3540 3899 4778 3765 
4778 3899 2337 3765 
2339 1505 2910 2590 
2339 2910 2679 2590 
3184 4505 3937 4651 
3184 1104 1032 3632 
2827 2961 3961 3937 
134 3727 137 125 
125 134 3727 5088 
3506 2356 560 2674 
4506 3332 4276 3784 
4724 3540 3765 4780 
1709 1708 3738 1741 
4724 3765 3640 4780 
3786 2393 2432 3008 
3786 2432 2535 3008 
570 3613 2674 3489 
3815 856 4189 3911 
856 3815 4189 4719 
4189 806 856 796 
4557 806 856 4189 
4557 4189 856 3911 
4719 856 796 4189 
3774 409 424 483 
197 209 217 4876 
2226 1430 3224 2099 
3224 1417 3790 1430 
3224 3790 1417 3631 
2590 2910 2679 2725 
2365 3970 3977 618 
2972 3970 3566 3995 
3566 3970 563 618 
2972 4966 3970 3995 
3555 5032 981 4182 
563 3970 2365 618 
401 1929 2264 3225 
401 2264 3032 3225 
4334 3032 3225 401 
443 3225 1929 401 
3977 618 3970 4966 
2498 2105 5166 3699 
4334 401 3225 443 
3588 855 4600 770 
4958 2802 4185 3512 
2802 2022 4185 3512 
3512 4185 4958 5074 
1195 3794 2099 1153 
1153 2099 2026 3794 
1911 3663 3163 1746 
3663 3134 4235 3795 
4127 3948 5074 3511 
2031 3834 4111 4284 
3511 5074 4843 3948 
921 3027 3637 3588 
2459 3836 2882 2505 
4263 2505 3836 2459 
921 3027 3588 3945 
2217 1481 2317 3732 
3945 3027 4201 921 
1248 1267 2924 1264 
1248 1267 2702 2924 
3732 1481 2317 4036 
678 812 2969 811 
975 2969 3397 812 
1629 1267 2702 1248 
672 2969 678 812 
898 3978 4778 851 
1336 2291 3452 1418 
899 3335 923 1005 
3397 4500 3531 2801 
3531 2801 1237 2424 
2351 4632 4905 3203 
4397 3099 616 546 
3135 3747 442 411 
4397 679 4479 616 
4397 616 4479 546 
4299 3587 4729 3314 
344 3747 3744 3135 
4397 616 3099 679 
3747 3386 442 411 
344 3747 3642 3744 
2532 3199 3404 3271 
2795 3983 4257 3191 
3236 290 279 3909 
3236 5139 279 290 
279 3236 3880 5139 
411 3642 3747 3386 
3717 2532 2014 3199 
3959 3983 2795 3191 
2532 3199 3271 2326 
2274 2661 3010 3903 
2532 3404 3199 3717 
2914 2522 3061 3866 
3966 1741 1695 1707 
169 141 156 2782 
2897 3087 4371 3842 
156 169 2782 4690 
3245 4567 2494 3842 
3221 4888 3903 3840 
1946 5165 2668 5067 
1818 3221 2274 3608 
2668 5138 1946 5067 
1701 1660 4543 4656 
566 570 3194 3749 
4521 3580 3783 2966 
3398 3819 1180 1095 
3855 4912 2846 2898 
570 3194 3749 3656 
3640 3580 4521 2812 
3283 3844 3505 2222 
3855 3844 3505 5080 
3844 4033 4624 2846 
3362 3809 4371 2213 
3344 2740 4292 3598 
2190 2740 3598 4292 
882 3598 4292 840 
2321 4160 489 4269 
4160 489 4269 4551 
4413 4046 3374 3851 
3148 745 3846 4317 
5119 4046 1399 3374 
3846 4317 745 835 
4413 3374 4948 3851 
1500 1411 3847 1408 
1500 3847 1406 1408 
395 4795 3835 379 
4199 4795 379 3835 
2211 3849 2820 1136 
2820 1136 3849 4518 
1610 4208 4502 2859 
3995 3970 3566 618 
3995 4966 3970 618 
1611 281 1610 2859 
2927 3650 3453 4281 
1072 1101 3612 3803 
4785 1378 3641 4715 
3474 1083 1156 4542 
3839 3193 4785 4715 
3618 2612 2993 3065 
3744 4328 246 292 
4328 344 343 309 
5127 3814 1137 1166 
5128 3814 3388 4347 
4328 344 292 3744 
4703 5203 4845 5148 
4296 3500 109 2874 
4847 3738 3651 4916 
5203 4970 3157 4380 
4916 4733 5062 4847 
2129 3358 1487 3542 
4916 3738 4733 4847 
4916 5062 3651 4847 
319 273 328 2719 
273 2719 319 3231 
4648 4952 2589 3730 
2913 659 683 1712 
3457 3690 4757 2245 
3690 3319 4757 2245 
4056 4303 4763 3821 
3693 3821 4763 4303 
5208 3821 3693 1767 
3690 3319 2913 4757 
683 4757 3457 3690 
3457 4757 4179 2245 
2869 2152 2778 310 
1982 1591 3808 1868 
4640 3808 2577 1982 
4089 3932 2262 4406 
4640 3808 3437 2577 
5024 4548 1602 5163 
3719 5195 3854 1710 
5024 3854 4548 3719 
5195 1708 3854 1710 
2222 3855 3505 4360 
3855 2898 3887 4912 
2222 3844 3505 3855 
4475 2152 3104 2778 
3193 3421 3837 4361 
3980 3421 4393 3193 
3097 4882 3766 3296 
4865 4882 3766 3097 
3666 1364 1365 4290 
3066 4290 3666 1365 
2636 2382 3347 2482 
2482 2382 3347 2850 
3682 2602 3468 2982 
3017 3728 3714 4666 
3017 3728 4666 5097 
3549 3826 3180 3396 
3150 901 2819 2325 
1741 3738 1731 5121 
3150 2819 2205 2325 
3918 2893 4137 2150 
2430 1497 1752 2395 
2053 2249 3003 831 
4847 4733 3966 1741 
2436 3860 4416 5148 
4176 2436 5148 3860 
4057 2222 4912 4033 
552 3561 644 3861 
3861 3561 644 3486 
552 644 601 3861 
812 909 3397 975 
812 2969 811 975 
1629 1248 1257 4988 
370 2851 4167 336 
2851 4167 4452 370 
2818 3383 4770 361 
4770 3059 2873 4090 
797 2150 4093 2893 
3867 4897 4568 3791 
2896 4774 4987 4353 
769 4212 1019 2816 
827 762 3399 814 
769 1019 977 2816 
4212 4505 1019 2816 
3522 1840 2147 1453 
3522 2583 1840 1453 
3796 2583 1453 1840 
3852 339 2551 4611 
3157 5203 4380 3272 
4702 1559 5150 3763 
2321 489 4979 4269 
489 4979 4269 4551 
3810 4774 4987 2896 
4987 4453 3085 4774 
3810 4453 4987 4774 
4916 5149 3263 1636 
3737 3520 3857 3865 
3737 3857 3898 3865 
5149 5202 4916 3263 
3909 4428 2449 3674 
3909 3112 290 2449 
3234 2119 4128 4288 
829 802 3173 783 
4411 3173 4094 3723 
4836 3994 2780 3443 
4680 4364 4199 1704 
4891 4680 4199 1704 
4680 4364 4351 4199 
4353 3085 4774 4987 
4351 4680 4199 4891 
3513 4156 1307 1292 
4275 1699 2813 1658 
3629 2214 3361 520 
3350 3869 4554 4136 
3869 1438 2786 4136 
520 3629 2214 535 
3780 3869 3350 1438 
3869 3590 4554 4136 
3220 4070 4720 5187 
3220 4070 5187 5186 
3765 2337 4599 3303 
3157 4970 5005 3871 
4917 3157 3871 3272 
3765 3899 2337 3303 
3382 3873 3695 3625 
3873 3382 2741 3625 
2873 4770 3251 3059 
3110 2542 358 353 
4614 4078 1059 982 
2999 2776 3876 1315 
1080 1107 1020 3340 
4614 4078 1107 1059 
4890 3876 1315 1274 
1107 4625 1020 3340 
345 2542 3110 350 
781 808 3877 3826 
2259 4821 3877 4725 
4725 4608 4821 3877 
3877 781 3826 3787 
4429 3031 3878 4223 
2759 3381 2466 3878 
3381 3504 2466 3878 
4223 3504 3031 3878 
2206 2844 2981 3179 
2023 2206 2617 4289 
2542 4770 353 350 
1287 4310 4314 1226 
490 429 3099 1944 
2296 4195 2308 2591 
436 3627 430 435 
432 3627 4549 430 
3266 3789 4035 4791 
4791 4871 3462 3789 
643 2786 2941 2654 
3462 3789 3266 4791 
3883 4036 2945 1481 
5043 3732 4036 1481 
1395 1400 4920 3641 
2227 3241 2905 3793 
1258 3421 4123 3839 
3043 2227 3793 3241 
4483 4396 3421 3839 
3509 3793 2905 1901 
3839 3421 4123 4396 
4956 4518 1136 4840 
3884 3974 3547 4942 
4956 4518 4840 4088 
3841 3008 2432 2996 
3841 2432 3008 3182 
1718 2429 1702 1621 
2991 2146 3693 3821 
1923 2991 2146 3693 
4121 1923 1776 3080 
4934 3856 4411 3622 
3800 4982 4304 3879 
2928 4514 4155 3855 
3728 5096 3714 5199 
4186 3728 3714 5199 
2928 4155 4514 4370 
77 76 3589 3971 
70 78 3571 3971 
789 938 5039 3946 
5137 3946 658 789 
412 3064 560 3024 
3064 2603 3355 3024 
3564 3144 3801 440 
3144 3591 3801 440 
2603 3658 3355 3024 
3801 3942 3591 444 
2827 3937 3961 4321 
4067 2697 3038 3060 
1879 4424 2188 4053 
4743 992 956 3145 
3036 4743 3145 992 
3053 559 3889 2423 
3889 561 3053 2423 
2267 1578 2252 2268 
356 1567 1506 2462 
2109 559 3889 3053 
1756 1506 1567 2462 
1756 2267 1506 2462 
1289 1338 3890 3839 
4386 3839 1289 3890 
3071 2915 2710 3736 
3521 3418 219 3133 
3891 2074 3213 2676 
3213 3891 3721 2074 
3891 3213 3518 2676 
5166 4859 3891 3213 
5166 3213 3891 3721 
975 984 3397 1047 
984 1047 1077 3397 
2806 4443 4352 2970 
5190 3835 5103 1706 
2654 3377 643 2786 
2654 3377 2786 3590 
3761 3871 5005 3947 
2895 4399 3802 2732 
3606 3264 2378 2532 
2970 2806 3620 4352 
1392 3851 3374 1399 
4446 3826 3455 4240 
4520 768 3068 3892 
3396 3826 3180 3455 
704 824 3846 745 
3132 2160 704 3846 
3132 3846 704 824 
2104 2582 2387 2154 
1101 3803 3575 2366 
1971 2911 3268 3230 
2366 3803 3612 1101 
2230 1918 5051 1167 
3221 3894 3840 3608 
3742 5051 2197 1918 
2967 2796 3473 1991 
3473 1991 2796 4796 
2796 1991 3127 4796 
1297 1337 3895 3999 
1297 1312 3895 1337 
3896 277 2477 4360 
3896 277 4610 2477 
3896 4610 3240 3503 
3505 2928 3896 4155 
3638 4610 3240 3896 
3896 2928 3638 4155 
4412 4953 4896 2936 
4953 4896 281 4412 
4985 369 365 4800 
281 1611 4953 4412 
5015 4799 3135 4167 
4795 4199 265 3018 
3016 3524 3167 2573 
2626 4596 1940 1933 
4596 4560 1924 2626 
3018 4199 4412 4795 
3378 3897 2452 2424 
2452 3129 1261 3897 
2452 3378 3129 3897 
2452 1261 4191 3897 
2452 2424 3897 4191 
3507 3167 2573 1832 
3856 4403 4800 4196 
4352 3966 4733 4443 
4352 4733 4683 4443 
4733 2349 2294 4443 
4159 3898 2660 2971 
4733 2294 4683 4443 
2660 3898 4374 3737 
3898 1971 4374 3737 
3966 2349 4733 4443 
2971 3898 2660 3737 
1939 3899 3286 1914 
3286 3242 1914 3899 
3899 1914 1850 3242 
1939 2337 3899 1914 
1914 1850 2337 3899 
2459 3900 2505 2881 
4263 2505 2459 3900 
4263 3902 2505 3900 
2318 308 2051 3901 
2051 308 2729 3901 
2318 308 3901 4076 
3468 4171 3922 3901 
4212 2816 722 3858 
722 3858 2816 2494 
2267 1510 1506 1578 
1717 1506 1510 1618 
1529 4682 3902 3900 
3171 1588 3117 4325 
4473 545 3416 2784 
3010 4573 4888 3903 
2661 4573 3010 3903 
3221 2661 2274 3903 
3221 3903 2274 3608 
566 3194 3278 3810 
3904 2295 703 634 
3904 703 712 634 
2396 2295 3904 634 
4106 3278 4453 3810 
2396 3904 712 634 
3905 373 3126 2637 
566 3194 3810 4465 
3905 3126 373 3282 
2637 469 4529 4700 
5174 5176 4379 3862 
4275 4875 4183 3525 
4875 4084 4893 3525 
3650 4084 4875 3525 
2120 3906 4045 455 
3650 4875 4275 3525 
2872 3906 4045 2120 
4183 4875 4893 3525 
4045 4348 3906 4653 
2028 5188 1681 1740 
1740 5188 1681 2371 
2028 1740 4254 5188 
3648 2909 342 4203 
3696 274 4799 4328 
2909 342 4203 4818 
2664 3336 4141 4029 
746 679 2003 2847 
601 687 3486 644 
3537 3265 3275 4504 
4973 4897 3867 3791 
3867 4544 5146 2836 
3861 3486 644 601 
3978 2451 4778 3573 
2098 2559 2817 2468 
4944 4367 4259 3154 
3414 4270 3911 2989 
3414 2989 3501 4270 
2989 3912 4189 3911 
1006 4719 3709 3912 
2289 1600 2346 2089 
3709 5068 3318 3912 
4719 4189 3709 3912 
2646 3682 3468 4424 
1156 5087 4542 1199 
2930 3872 2756 1845 
3872 2930 1649 1845 
2055 2557 2978 1853 
2075 2557 2978 2055 
5093 3957 3480 3553 
3553 5093 3957 2392 
3553 2497 3957 2058 
3553 3957 2497 2392 
3480 3957 2058 3553 
3553 4659 4914 2058 
1079 3980 3398 1001 
3875 1005 988 1114 
1095 1036 1079 3398 
3313 3794 3875 3358 
350 2542 3110 353 
2197 5051 2230 1918 
2967 2506 3407 2796 
468 529 4979 4105 
1925 3508 3917 1934 
4105 529 4979 4269 
2967 3571 3589 2796 
3327 2425 3917 1953 
1941 2425 1953 3917 
4405 4105 529 468 
2519 5045 2151 3880 
433 5014 381 3186 
3779 4263 2459 3900 
1529 3902 4263 3900 
4343 4368 4117 2762 
4613 2795 4257 4046 
2770 2795 2647 4046 
5066 4712 2937 3614 
5066 2937 2668 3614 
2860 5167 4140 5089 
2329 3482 4430 3151 
2860 5167 4381 4140 
5167 5089 2860 5090 
1276 2961 4681 1317 
4890 3336 3876 2837 
2837 4890 1274 3876 
4168 554 797 4093 
1276 2961 1317 3572 
1317 2961 4681 3961 
1317 2961 3961 3572 
5169 3342 2765 3420 
454 487 2765 5169 
454 3420 5169 2765 
617 3825 653 3195 
4152 3825 653 617 
2806 5060 3620 3966 
4076 3922 308 3901 
4911 617 3825 4152 
3474 1156 5087 4542 
2524 3828 3085 612 
2673 3504 2466 3381 
612 3828 3085 4987 
5062 4847 4733 5025 
5202 4733 5060 5062 
4311 3728 3714 5147 
5147 3714 4186 3728 
5207 5147 3714 4186 
4311 5147 3714 5207 
2524 3828 612 3618 
3618 3828 612 3065 
3065 3828 612 4987 
975 3957 3397 2969 
897 3957 975 811 
3253 1778 3673 3925 
2652 2451 3540 2680 
3253 1778 3925 3758 
3335 1023 3886 3751 
1384 4136 1375 3782 
102 1945 3058 3888 
3888 1853 3058 4251 
284 5205 3830 2895 
3703 3176 4447 4304 
2967 3407 2506 2876 
2967 3407 3571 2796 
1818 2437 3718 2543 
3718 2437 1403 2543 
3720 1819 2936 4997 
3832 3003 831 763 
4520 3068 1649 3929 
3929 798 3892 3068 
3929 3892 4520 3068 
3929 3068 1649 2189 
5134 1072 3262 1105 
2189 798 3929 3068 
3830 3833 1527 2895 
4733 4530 4916 1636 
2895 3833 1527 3117 
3623 4914 4085 2687 
762 843 4914 4085 
2157 3494 3493 1534 
3654 3247 2436 4845 
3618 2993 2973 3065 
1350 4190 2821 2424 
3618 3828 3065 2973 
2983 1780 1957 3710 
3472 4657 5110 4480 
4216 4470 2987 1688 
4113 2987 3930 4527 
3930 4470 2987 4216 
1484 2957 3343 4294 
1101 1565 1105 1072 
3472 3724 4657 4480 
1565 1101 3612 1072 
3661 2302 2921 1524 
5091 5089 3466 2754 
3820 3612 1565 1101 
3820 1105 1101 1565 
2146 3253 3673 4963 
893 867 3178 834 
2947 3673 3925 609 
886 3270 875 4317 
893 875 834 3178 
609 3253 3673 3925 
621 3253 3925 3758 
4324 3937 4505 4651 
4882 3296 4911 3373 
3828 4453 3085 4987 
431 3852 466 4643 
4197 3558 4851 3886 
3935 1406 4398 4174 
2580 1873 1867 3090 
1397 4398 3935 1406 
4264 3263 4352 4733 
3335 4107 3875 3084 
2806 3966 3620 4352 
4187 1584 4020 4620 
4465 4106 3065 4987 
4620 4243 4689 5125 
3392 1836 2226 2965 
161 4759 179 2936 
4997 4759 161 2936 
4759 161 179 180 
4997 161 4759 180 
2952 3012 2764 2831 
4899 3364 2536 4380 
2371 1571 1681 3212 
1681 1571 2445 3212 
4380 2536 4899 3654 
3643 3014 2576 4142 
4899 3364 5183 2536 
3643 4142 2576 2594 
558 3205 482 3939 
3939 482 464 3205 
4071 2166 679 2003 
4071 2003 679 3228 
3536 3553 3940 4423 
3940 971 4659 1029 
3940 3480 4659 3553 
5127 1140 2124 1937 
3512 146 3332 3310 
5036 2678 2753 4871 
2678 2227 2531 2753 
4871 2678 2753 2227 
2687 2646 2497 3430 
2687 2646 3430 2857 
2857 3430 2687 3073 
1716 1573 1508 1509 
3697 152 4244 194 
1508 1764 1509 1573 
4244 194 4676 3697 
1716 1509 1554 1607 
4762 4724 4939 2446 
3478 2951 3258 1835 
4762 4782 4724 2446 
707 2911 3735 2111 
1712 4504 2571 3265 
707 2111 3735 2244 
4933 787 937 4605 
4933 539 629 786 
2715 707 3735 2244 
2295 3412 631 3413 
3569 3609 2684 3470 
3413 3412 631 594 
3569 3470 4571 3609 
671 4504 2571 1712 
3908 2452 4191 3317 
2174 3908 3317 2452 
2295 3413 2409 3412 
570 3194 3567 2616 
1045 4096 1002 2997 
2254 1480 2980 3236 
2254 3112 3236 3909 
4665 3307 2449 283 
570 3194 3656 3567 
4096 1045 1002 2932 
4717 2871 2165 3616 
3909 2449 290 279 
2449 283 4389 290 
1127 1077 1047 3397 
796 1493 3394 3944 
4323 4203 4983 3862 
5074 146 4843 4958 
1818 2437 3910 3718 
1741 3966 1709 1707 
3738 4847 1709 1741 
4201 2550 3945 1154 
4986 902 4659 871 
524 1683 499 2844 
3851 4613 4948 4413 
1045 2997 3644 3864 
2197 1045 3644 3864 
5136 3545 3088 5038 
411 3747 344 3135 
411 3747 3642 344 
3102 1377 1329 1779 
3946 3462 3088 5136 
692 3457 697 683 
4391 4032 3341 1993 
697 683 3457 3690 
3341 4032 2194 4927 
5069 2266 1590 2556 
4108 4391 3341 1993 
2174 3227 2452 3224 
99 76 3500 4068 
431 2232 2644 4798 
431 2232 4767 2644 
3003 3484 3832 831 
1287 4310 4161 4314 
3971 4940 3843 3551 
3551 99 3843 76 
4940 77 3971 3843 
2930 2104 1542 5068 
4469 1238 4988 1629 
5068 2930 2104 3872 
797 2150 2893 3918 
797 849 2150 3918 
1257 1238 1629 4988 
3513 4156 4571 1307 
4788 4499 2833 3989 
3773 3297 4716 3777 
1499 2552 3920 5047 
3920 959 2901 946 
979 3920 2901 3400 
3850 66 59 4796 
3948 4932 3471 3220 
3000 2687 4044 2708 
3000 2646 2687 2857 
2857 2687 3000 2708 
980 1011 5082 4407 
3740 1154 1201 1164 
5176 3862 4552 5124 
4936 3862 5124 4552 
349 4193 5111 4334 
4798 2232 2644 2671 
2342 4130 4453 3073 
2540 3492 2380 813 
1701 2351 3410 4543 
2380 2540 3225 2611 
5052 3171 4583 4325 
2297 4409 4177 2017 
4177 2297 2017 3453 
3077 2490 2921 2622 
3140 4474 4373 3683 
4362 4731 2605 2155 
3906 2872 4045 2832 
3746 3322 4403 2618 
4808 3579 3926 3684 
1168 4309 1134 3926 
4122 3926 3579 3158 
2840 3822 3537 2752 
2965 2248 2884 1078 
1078 948 1056 2248 
1056 2248 948 939 
917 3927 881 4376 
2592 2637 3365 1878 
2677 2637 3365 2592 
3013 2637 177 2677 
2677 3365 177 2311 
3616 4211 2871 831 
2677 2637 177 3365 
2032 4351 265 4027 
4027 4316 2032 4351 
2032 4316 4788 4351 
3446 4289 3678 4475 
273 3678 2719 3231 
3446 4289 2719 3678 
1362 2938 1361 1385 
4351 2032 4969 4788 
265 2032 4969 4351 
3367 4822 3956 43 
3367 3562 4335 3956 
80 3500 109 4296 
92 3500 109 80 
3087 4197 3886 3558 
2995 5161 3756 2797 
3555 5078 4147 3145 
3637 4567 2562 3931 
904 977 2696 912 
3931 980 4002 967 
904 2696 918 912 
1006 1105 1861 1565 
1565 1105 1861 3820 
1105 1565 1006 1072 
2993 3168 566 3859 
3859 2993 3065 566 
4811 2572 2589 3928 
3168 3489 566 3859 
2563 459 524 472 
2584 3934 2450 1976 
472 2563 459 3591 
2770 3959 4046 2962 
3959 2770 1162 2804 
3959 2770 2804 3768 
2770 3959 2795 4046 
2795 3959 2770 1162 
2770 4046 5022 2962 
4120 3336 2664 2326 
3058 1945 1765 1634 
3888 1945 3058 1634 
1945 2139 1765 1634 
2338 1675 3034 2444 
2444 1675 3034 2877 
3936 1677 2299 3739 
2128 3936 5042 3222 
2711 3262 4835 2629 
5105 5101 5164 3364 
2711 3269 4835 3262 
1771 3987 4147 3145 
3248 3987 1771 3145 
2915 1771 3987 4147 
3513 1290 4571 3961 
2369 3824 3383 2775 
1859 1870 1948 2610 
1317 3961 4681 4571 
3060 3961 3038 4067 
2610 1870 1948 3214 
3078 2332 1870 1948 
1870 1948 3214 3078 
3961 1250 1290 3038 
2052 3012 2951 2689 
97 90 2354 3697 
1835 2689 2951 439 
2451 1939 3574 3978 
3174 3548 4048 2854 
3544 1299 5144 3284 
4049 4978 3580 2812 
4474 4373 1069 1022 
3530 3284 5144 1402 
4474 2854 5054 1069 
4345 5122 4183 3529 
3529 1748 2062 164 
3167 2680 3540 3286 
2521 530 3800 3879 
4299 3587 4559 4729 
590 530 2521 3879 
3634 530 590 3879 
3634 4098 3879 4982 
3800 4982 3879 4098 
3217 3964 4133 2703 
4093 2703 2955 2150 
3964 3217 2955 2703 
3964 3975 5080 2703 
4133 5080 2703 3964 
3965 5193 2495 4493 
1330 2790 1345 2613 
3177 2790 2843 2613 
3362 3486 3861 601 
2696 2528 918 912 
2696 918 2528 1501 
2528 4567 3931 912 
4207 402 359 4307 
402 225 4307 234 
2913 3319 4921 3142 
3142 3319 4921 3754 
1641 1060 1137 2238 
2300 2238 1137 2531 
3256 4539 3523 2296 
2528 3931 3408 4002 
2827 1938 3408 4609 
3097 3300 590 2822 
3097 3300 3296 590 
3300 4911 3296 590 
3300 4911 590 4923 
4188 4107 3886 3082 
1131 3886 4107 1023 
3188 2237 3436 2456 
5149 4530 4916 3719 
4919 1602 2730 3854 
3734 5170 3764 3885 
1502 2241 1979 3795 
1279 1297 1254 3999 
4522 2988 1147 2834 
2778 4475 2869 4876 
2152 2778 4475 2869 
4475 3197 2778 3104 
209 4475 3197 2778 
2778 209 4475 4876 
3944 1493 2442 3331 
2618 3413 514 594 
2618 441 514 3413 
304 3955 2982 4424 
304 3955 159 2982 
2140 2513 4326 3974 
3164 2140 4326 3974 
4076 3974 4130 4286 
3266 3570 4737 4072 
3266 4791 4035 4072 
3964 2760 3360 4093 
2150 3975 4168 4093 
4093 2150 3975 2703 
3360 4093 3975 3964 
3266 4737 4791 4072 
2703 3975 4300 2150 
4121 872 2364 2293 
2224 4121 2293 872 
4563 4121 2224 872 
4121 872 807 2364 
2852 3103 3976 3760 
1304 1295 1353 3391 
1304 1356 4715 1353 
1251 1295 1304 3391 
3907 3379 928 940 
3907 2964 3379 940 
34 46 4631 4815 
1056 1246 1078 2965 
4815 46 4631 2876 
1056 2248 2965 1078 
4299 3339 3488 2771 
2365 3977 4783 2250 
4783 2722 3977 2365 
3950 4169 2722 3977 
2969 3957 2392 2497 
859 3957 757 699 
2332 1948 2481 3979 
4245 2344 2979 3979 
3979 2344 2979 1870 
755 4240 3757 3826 
2332 1948 3979 1870 
3757 4240 3180 3826 
3348 3670 2481 3979 
4245 3670 3348 3979 
1336 2211 3159 2397 
2701 3149 2877 2444 
2211 2820 3982 2239 
2444 3159 3982 2397 
3159 3325 3982 2211 
2978 1853 3888 4251 
2434 2955 2481 2439 
2481 2760 2955 2434 
2439 2481 2751 2955 
2439 2955 2751 3217 
2760 2481 2955 2751 
2485 2725 2243 3685 
3394 2095 3709 2930 
4465 3810 4987 2896 
4465 4106 4987 3810 
917 881 880 4376 
906 863 4376 867 
906 4376 863 3927 
3194 3810 4465 2896 
4923 3195 590 530 
590 3879 2521 3176 
590 2521 530 3195 
1415 3406 4383 3873 
3634 3879 590 3176 
2364 1224 2411 3962 
3962 2364 1224 1132 
3962 1975 3515 1286 
3962 2345 1975 1286 
3962 2411 2345 1224 
4128 828 3653 3914 
617 3204 3698 3176 
4266 2992 1309 3490 
3895 4587 4591 3753 
2686 3851 3628 2906 
3989 4499 5178 4788 
1092 1117 4266 4200 
56 5019 4259 4755 
3916 3645 536 614 
614 3645 536 3308 
3091 3003 3832 763 
207 208 4997 220 
4997 220 208 3924 
3178 875 886 3992 
893 3178 3992 875 
3924 4997 4759 208 
4708 3887 2288 268 
3397 2801 2392 3993 
70 78 4954 86 
2392 3397 3993 3957 
1047 975 993 3993 
975 3993 3957 993 
1047 3397 3993 4500 
1779 1339 1377 1329 
2601 1779 1339 1377 
1779 2601 3102 1377 
1893 1661 1563 1815 
3707 999 2454 2908 
3923 3389 2454 3707 
2430 1497 3532 1537 
1527 250 4455 294 
4455 4759 250 1527 
207 220 4997 221 
4997 220 3924 243 
224 242 4997 4993 
283 2449 4389 3307 
599 4731 2670 593 
599 640 4731 593 
1618 1506 1567 1756 
3997 1747 4343 1748 
3997 4385 1748 4343 
4284 2662 4806 4833 
4284 2676 2662 4604 
3834 1855 4999 4284 
4111 4284 4604 2676 
3102 4064 3976 1413 
3760 3427 4032 2773 
2551 348 318 3659 
3659 348 318 346 
348 346 3659 367 
237 1995 3882 3197 
1854 3261 5107 2520 
2783 2482 2520 2636 
2783 2482 3261 2520 
3240 523 2760 3973 
1747 1475 3477 4337 
3973 554 523 2760 
2778 3197 266 3104 
737 4000 648 719 
3571 70 3938 2796 
3412 4000 719 648 
4000 648 3412 2618 
3571 3938 70 3971 
664 3716 592 3703 
3971 70 4954 3938 
2874 70 3938 4954 
2578 2706 728 4001 
3645 4751 4001 728 
5031 728 3645 4001 
4848 4002 4407 3740 
4002 3931 967 1501 
3027 980 4002 3931 
2550 4002 4848 3740 
4181 4270 2706 4003 
3589 2796 3473 2967 
56 3589 3473 2967 
3463 4120 2664 2326 
459 3942 3591 440 
3801 440 3591 3942 
2175 1642 3517 4006 
2072 1642 2175 4006 
4200 3998 4266 4310 
2546 2316 5085 2858 
2316 3063 5085 2858 
705 2546 5085 2858 
3648 1527 284 4984 
1004 3991 1068 1052 
4266 3991 4310 2537 
1004 3991 1052 3009 
4266 3009 3991 2537 
3506 3489 3613 3168 
2612 593 2993 3065 
5066 4712 2198 1980 
296 299 3720 4997 
3734 1980 5066 2198 
4307 225 2716 4009 
4009 4307 225 183 
4010 419 405 377 
447 405 4010 419 
387 340 275 4013 
3163 3991 1068 3454 
3444 3101 1004 3991 
3101 3991 3163 3454 
99 2860 3500 3551 
3500 2860 4954 3551 
82 3301 57 2742 
3095 4625 4078 4017 
1209 4355 4017 1281 
4017 1209 1281 3340 
4705 1295 4355 4398 
3448 3319 3690 2245 
3448 3319 2913 3690 
2742 3292 3483 115 
672 678 2969 588 
224 4993 1916 2035 
672 2969 577 588 
3338 883 2819 2750 
570 2348 2616 2596 
570 3330 3194 2616 
570 2348 3330 2616 
570 2596 2616 3567 
3389 999 2454 3707 
2325 3952 3356 3375 
1698 4187 3996 4095 
1912 3043 2949 3953 
4561 3679 2743 4024 
4588 4999 4024 4688 
3700 4273 3002 4341 
3679 4024 2848 2743 
4515 3161 2949 3953 
3976 4064 3103 1413 
3825 3195 617 590 
3825 590 617 4911 
3013 177 195 4052 
3131 3013 4234 4052 
2138 4449 1964 4532 
3057 3565 4073 1964 
1964 4449 3565 4532 
3224 4272 1293 1429 
712 764 778 3904 
2320 3904 712 2396 
712 764 3904 2320 
3666 3140 3999 3683 
3999 1296 1337 3683 
1045 3544 4852 1040 
3283 2673 4033 3107 
4033 4921 3107 2673 
3844 2222 4033 4912 
3844 3283 4033 2222 
5208 1572 2958 1767 
2958 4056 3821 1767 
3821 5208 2958 1767 
5043 4226 3328 3813 
4223 4793 711 740 
4824 4525 4879 5186 
732 740 711 4793 
4244 4879 5153 4824 
4676 4879 4824 4525 
2095 3685 1565 1861 
2838 1861 3820 3685 
1861 2095 3685 2838 
3709 2095 1565 1861 
5043 3732 169 4036 
2317 4036 2477 3372 
3732 4036 2317 3372 
3690 659 683 2913 
5043 4036 169 3883 
2377 889 890 894 
605 4825 633 4038 
944 1013 2377 2210 
2377 944 2210 905 
605 649 4038 633 
4005 4902 1395 1400 
1379 1346 4005 1338 
649 4038 4555 605 
3641 1338 1379 4005 
605 3602 4825 4038 
605 3602 4038 4555 
3918 2150 4137 3252 
547 556 509 4008 
816 3405 892 739 
3928 2619 4295 4811 
3960 2506 46 48 
3960 2796 2506 3127 
3960 2796 3127 67 
732 3690 697 3457 
732 3690 5028 697 
1355 1331 1312 3895 
3966 2349 2806 1695 
3623 4085 4096 4044 
1905 4096 4044 3623 
4014 4028 3743 202 
1229 1259 4015 1197 
3953 4515 3161 3668 
3125 2899 4015 2938 
1499 1298 2938 4015 
4015 5023 1016 1053 
2718 4044 2009 2708 
447 4047 4861 5013 
4047 4010 447 405 
4047 4304 4010 3636 
4753 377 2720 4010 
4047 368 405 5014 
3613 3506 560 2674 
3613 3506 2674 3489 
3105 4753 4010 4047 
3091 4929 4232 3832 
4948 3851 3374 2906 
1228 1359 5158 2136 
1200 2136 2804 2569 
5158 2136 2804 1200 
4439 5158 2804 1200 
2750 2819 3626 3356 
3942 444 472 3591 
106 73 127 4021 
3448 2913 3074 3690 
3742 1220 3544 2197 
2572 2274 2408 4050 
2572 2512 2274 4050 
2589 2512 2572 4050 
3252 2408 4050 2572 
2948 2572 4050 2589 
1318 1325 1349 3066 
3895 3519 3666 4714 
1349 1365 3066 1325 
3666 1365 1325 3066 
1325 4714 3066 1318 
4466 2906 2558 4051 
3035 3049 4051 4466 
4019 4175 3390 4025 
32 24 4026 19 
19 31 24 4026 
4021 145 3359 4028 
3116 3049 4051 3035 
2558 4051 4214 3116 
4051 2916 2558 4214 
3823 3336 4029 1306 
4455 2959 342 3696 
4455 3696 342 294 
1499 5047 4415 2215 
1527 4455 2959 342 
1499 5047 3920 4415 
4455 294 342 1527 
4135 2097 4415 4884 
3500 4954 3971 3551 
76 3971 3843 3551 
3971 77 76 3843 
4052 123 3521 2303 
2164 4053 1879 4043 
4293 4053 2164 4043 
1879 4053 2188 4043 
4043 4419 4053 2188 
3690 5028 659 680 
761 724 3173 760 
711 5028 3690 680 
4055 1383 1420 1381 
5187 5196 5123 4856 
3332 4856 3491 3784 
4856 4580 5187 3784 
4055 1420 1383 3237 
951 2377 1020 4625 
4625 2377 2960 913 
4625 2377 1020 3340 
3095 2377 4625 3340 
5207 3620 2806 4962 
4031 203 4034 3773 
4625 3095 2960 2377 
4057 3387 4033 3754 
146 4273 3316 3700 
711 3690 3074 680 
3883 4125 4690 4057 
4059 4143 2336 2592 
3458 2336 2592 4059 
4546 3465 4693 3248 
3269 1072 3988 3262 
3971 3938 3500 76 
73 4039 4021 42 
76 3500 3971 3551 
3406 1415 2741 3873 
4132 4394 2273 4395 
2600 4923 3893 1591 
2738 4062 1484 2600 
3763 3410 5184 5194 
1701 3763 5194 3410 
3595 3082 1086 3084 
3595 3084 1086 976 
3084 3886 3435 3335 
976 1487 3595 3084 
4715 1356 1394 1353 
3343 4925 2521 4294 
189 4997 172 174 
4294 4925 3186 2808 
4294 4925 2808 3343 
2972 4966 4043 3970 
2137 469 2942 3434 
999 2629 2539 3379 
999 4835 2539 2629 
3289 3288 203 2747 
535 520 3629 581 
5172 2891 2872 2523 
719 648 631 3412 
4046 1399 3851 2770 
3983 5160 4257 3191 
4257 5160 4378 3191 
2144 3442 2576 3702 
2485 1494 3042 2725 
3211 3345 2600 4091 
2319 1494 3042 2485 
1494 4011 3042 2725 
1494 4011 5085 3042 
3055 3427 2704 1884 
367 3322 394 346 
3252 2408 2824 4050 
4088 2281 4050 2408 
4088 4050 2824 2408 
998 4283 3736 1018 
2873 3251 3969 3059 
2560 3229 979 2552 
2109 3053 3369 5169 
2109 3369 3889 5165 
3889 3369 2891 5165 
2551 4319 302 2492 
3307 302 4665 2492 
4582 4630 3166 4367 
4630 5116 45 51 
2768 530 4004 462 
5181 2839 4710 4345 
4067 3961 3038 1250 
2670 593 2993 2612 
3974 5026 3547 4942 
2670 593 2612 599 
2141 1006 1565 1072 
1215 4714 3519 4713 
1097 3519 1031 1062 
2141 1072 1565 3612 
2958 4230 4056 1977 
4558 4056 4763 3821 
2958 3109 3821 4056 
3509 2680 2652 1907 
472 2563 3591 3395 
3496 2894 417 3230 
3871 3364 4459 4380 
4060 1375 1316 1314 
4509 3769 4060 4398 
1314 1263 4060 2133 
1314 2133 4060 3745 
2669 1206 1145 1207 
1263 1314 4060 1316 
1263 2133 2669 4060 
983 1061 3421 4305 
2347 2107 4303 2755 
2347 3818 2755 4303 
3818 4303 4340 3582 
3048 2563 524 2213 
459 407 3179 524 
2213 3179 524 3048 
2233 1340 1412 1362 
4299 4075 5192 2771 
2524 2973 4453 3828 
3955 308 2318 4076 
308 3922 4076 4326 
3266 3789 3614 4035 
3266 4035 3614 4072 
3381 3504 3878 3671 
1731 4733 1741 2349 
3503 4610 3240 4041 
1741 2349 4733 3966 
3738 4733 4847 1741 
485 500 3949 540 
1731 3738 1741 4733 
3571 3938 3589 2796 
3571 4040 52 61 
3533 4064 2726 2400 
3407 52 4040 46 
2400 4064 2726 2194 
1377 4064 3102 1413 
4080 4165 2488 1232 
2488 4080 3313 4165 
2688 4165 3313 4080 
4080 1257 2702 1248 
1248 1257 1232 4080 
650 3781 3245 739 
3571 52 4040 3407 
2494 2816 3245 3781 
5134 2711 3262 3269 
4082 4297 4222 340 
4326 3922 501 4082 
340 3658 4082 4297 
340 501 4082 3658 
3245 4567 3842 3184 
4575 3408 1000 1081 
3904 3178 703 2295 
5145 3420 3619 4083 
294 309 260 3696 
309 274 260 3696 
4083 402 486 2716 
3407 2935 46 2876 
4083 2716 3619 5145 
34 46 2935 4631 
4083 402 2642 486 
3420 486 2642 454 
2935 46 2876 4631 
753 4008 4094 3723 
2876 4815 46 5079 
3723 651 700 4008 
2342 4106 2973 566 
2973 4106 3065 566 
2660 3898 4508 4374 
566 4465 4106 3065 
2342 3278 4106 566 
566 3278 4106 3810 
3496 4159 3898 4508 
566 3810 4106 4465 
3172 2104 1542 2387 
2101 3075 3172 2387 
3172 3075 2104 2387 
4088 2824 4855 2614 
4088 2408 2824 2614 
2500 3971 3589 3571 
77 3971 3589 2500 
4089 4696 3932 996 
4824 4879 5153 4070 
4089 4406 3384 2686 
3368 4406 4089 2686 
3159 3452 3981 1336 
4290 1364 1719 3666 
4674 404 4662 2738 
4674 2738 433 404 
2757 2738 1732 2255 
3299 3306 2738 3345 
2738 2255 2757 3299 
4290 3666 1719 1352 
343 411 3135 366 
1767 2340 3560 2003 
1767 3560 4071 2003 
1767 3560 3014 4071 
4215 4073 372 401 
1519 4847 4844 5025 
3407 46 3960 2506 
3407 2506 3960 2796 
3571 3407 3960 2796 
4054 2093 593 3168 
3168 4054 3859 593 
2600 4091 4923 1591 
2093 3954 593 3538 
3211 4091 2600 3808 
3696 3135 4799 366 
3135 4328 3696 4799 
4077 2328 3162 1864 
4077 3708 2328 1864 
1059 4221 982 4078 
4017 4078 1107 4625 
343 309 3696 4328 
4228 4221 3837 4078 
3245 3842 3087 3184 
3087 3184 3842 4575 
80 3850 4796 66 
3850 3473 3938 4796 
3938 3473 2796 4796 
4068 3938 4796 3850 
3321 2943 3323 1892 
80 4068 4796 3850 
323 3635 373 4342 
323 382 2926 373 
5036 2753 4061 4103 
3409 4061 2753 4773 
4296 4068 3500 3938 
3237 2599 1428 1420 
80 4068 3500 4296 
4296 4796 4068 3938 
1063 1041 4283 1122 
80 4796 4068 4296 
5210 1697 2436 4541 
3723 511 4081 573 
527 4081 511 573 
3528 1078 2415 948 
2337 1138 2176 3528 
1274 1309 1315 4283 
309 274 3696 4328 
3698 3634 590 3176 
4093 3964 2955 2703 
3360 4093 554 4168 
1339 1377 1329 2326 
3975 4093 3360 4168 
4093 2703 3975 3964 
5143 2169 2805 2493 
2513 3330 3278 566 
3278 566 3330 3194 
2380 984 3397 909 
812 2380 2969 3397 
2380 2007 907 3595 
4997 4993 242 299 
3720 296 4997 4759 
299 296 242 4997 
3360 3975 5080 3964 
4085 4096 4597 2950 
3333 1578 1846 3334 
4085 2932 3623 4096 
429 2253 4086 3099 
2009 1002 961 4853 
4096 1002 2009 4853 
4991 4097 3011 5095 
4219 4581 1596 4097 
4581 4219 5095 4097 
2523 3342 2765 5169 
1722 2887 2320 2787 
2320 3380 1722 764 
1811 2501 1773 1825 
4502 3989 3076 4364 
4821 4557 2259 1639 
4967 1243 1288 3465 
796 3944 3394 4189 
3476 3235 2231 2296 
2296 3476 3235 3577 
243 3924 4997 296 
2055 3086 2978 1847 
242 4997 296 243 
1847 3086 2978 3702 
3702 3086 3442 1847 
4007 332 276 4104 
4104 332 276 4042 
296 4997 4759 3924 
625 664 3716 592 
2834 3419 1253 3276 
3656 3194 3749 2896 
3084 3082 4107 3875 
3105 502 2894 3605 
568 3605 1751 502 
3859 2993 593 3065 
4072 3570 4737 4344 
3963 4773 4061 3409 
3963 4061 3574 3409 
2181 4066 3279 2695 
3425 2695 4461 3128 
3189 5189 1705 3523 
3411 5143 3624 5083 
2325 3616 3952 3375 
207 4997 172 189 
1109 1104 2690 3632 
1109 4109 2690 1104 
4296 3500 2874 3938 
3255 4306 3848 3829 
3060 3255 4609 3829 
1059 4078 1107 1149 
4017 1107 4078 1149 
3407 4040 3960 46 
2555 3068 4520 3455 
3068 4520 3455 768 
4446 781 3455 3826 
2555 781 3787 3455 
3787 781 3826 3455 
2072 2410 3608 2431 
2692 2410 2135 2431 
2135 2410 2072 2431 
2692 1818 2410 2431 
2410 1818 3608 2431 
5119 3374 1399 5029 
4324 3513 3961 3937 
2656 2624 2241 1655 
4128 3653 4929 3914 
3626 2819 3952 3356 
3674 4665 2492 3307 
279 2449 3674 3909 
3620 5060 2806 4962 
3385 2169 5143 4205 
1258 3839 4386 3890 
387 4699 4695 340 
732 4793 711 3690 
2890 396 437 448 
73 4716 4115 4063 
2845 4116 2025 833 
5126 885 2025 833 
4116 716 833 713 
716 833 5126 4116 
5126 2025 4116 833 
4212 3726 3610 1108 
250 294 260 4455 
493 429 476 4086 
4119 4299 3339 3711 
4119 4299 2771 3339 
3526 4929 3832 3484 
450 2774 3311 2601 
2601 2774 3311 2621 
3526 4929 3091 3832 
816 976 955 3435 
3435 3405 2897 3087 
2283 4493 2495 4491 
2283 3965 2495 4493 
205 176 222 4896 
3829 3257 1253 2834 
3829 1253 3257 2195 
3829 2834 1147 2988 
3922 2721 3456 501 
3922 340 501 4082 
340 3922 4222 4082 
2351 4220 5055 4974 
3761 3763 3871 4905 
5192 4299 4119 3711 
4398 3095 4078 4017 
729 2130 4121 2364 
2031 2505 4111 3834 
3690 697 683 5028 
4111 2031 4284 2676 
3518 2676 4111 4604 
729 2364 4121 807 
4938 2606 3436 3882 
3436 2606 3438 3882 
2968 1396 4322 1410 
2846 2898 2928 3855 
3541 2928 2846 2898 
2925 4122 1374 1330 
148 133 124 3773 
3954 593 4054 2093 
643 2371 2941 1571 
2941 643 2654 2371 
4081 733 3723 677 
3634 530 3879 4098 
3800 4098 3879 530 
606 651 622 3723 
2081 852 3610 2047 
3610 2047 1108 3632 
3924 220 208 235 
4821 4189 3911 2989 
4194 4557 856 3911 
235 3924 4759 208 
3777 4332 3712 3773 
4023 3712 4332 3773 
1369 3066 1327 1349 
4326 4082 501 3355 
3380 2887 839 889 
4082 4326 3164 3355 
3571 3407 4040 3960 
3937 4651 4324 3513 
4103 2753 4061 4773 
4103 2753 4773 4871 
3819 1266 3516 1180 
4192 895 2960 890 
4106 4453 3828 4987 
2960 906 895 920 
4106 4453 4987 3810 
4329 4939 4450 702 
4123 4396 3421 4305 
3712 4585 4025 3390 
524 407 3179 484 
407 3179 484 2723 
1374 3579 3158 4122 
3842 3184 4567 4575 
4197 3558 3087 4909 
4122 3158 1374 1330 
896 825 4659 3399 
718 3399 762 814 
2913 1712 587 3244 
3399 730 752 825 
4959 4744 4124 3675 
1596 4124 4744 3675 
2365 2188 4043 3033 
4001 3865 4239 2578 
2911 1751 3605 516 
2578 3520 4001 3865 
4597 4425 2009 2708 
2708 4044 4597 4085 
2009 844 4425 4597 
3734 2198 3570 4344 
247 3678 3446 273 
2719 2981 4289 3446 
273 3446 2719 3678 
3745 1375 1314 3677 
4060 1375 1314 3745 
4344 3734 4072 3570 
4188 1204 1193 4851 
4668 4998 1236 4188 
3397 1983 2392 4253 
3937 3408 4321 2827 
2009 844 784 701 
2477 4036 4125 3372 
3883 169 4125 4036 
4690 169 4125 3883 
3926 1134 4808 3684 
5017 1134 3926 1168 
3926 3684 4309 1134 
3677 2220 3046 2633 
4106 3828 3065 4987 
2220 3745 1314 3677 
2988 3116 1501 3035 
3116 1501 1654 1094 
2988 3035 1501 3829 
3829 2988 3848 1501 
3297 3359 145 202 
115 145 3359 4021 
3447 397 5076 2775 
3512 146 4958 3332 
2369 2775 3967 3020 
3020 2775 5076 397 
4727 3527 3332 200 
3527 3332 5198 4727 
4958 2802 3948 4185 
431 5021 2232 4798 
3909 2232 431 5021 
4128 3653 4232 4929 
4130 4405 3239 4286 
4424 3468 2857 4130 
830 4131 4550 861 
877 4131 861 4550 
3866 4131 861 877 
2914 3062 4929 3061 
2773 1884 3427 3341 
3475 2850 3347 2216 
4395 3347 3475 2850 
3671 810 758 3842 
3031 3671 758 3842 
3503 3896 2477 3505 
2481 3433 3503 3045 
3433 3505 3503 2477 
243 220 3924 255 
4133 685 4624 660 
4295 2751 605 4133 
2751 3218 605 4133 
4624 5080 4133 3218 
4135 3021 2811 2181 
4135 3039 2233 2134 
4135 3021 2233 3039 
1441 1439 3596 2158 
688 675 3416 638 
2158 1441 2440 3596 
3809 4473 2784 545 
577 2890 2969 2540 
2890 448 5154 525 
448 505 2890 5154 
2969 2890 577 588 
588 2890 577 525 
3773 143 113 4031 
3773 4023 4031 113 
2424 1191 2821 4810 
3168 4054 3489 3859 
3350 1438 4136 3759 
3350 3869 4136 1438 
1679 5045 2114 3236 
3869 3590 4136 2786 
4136 4322 3759 1438 
255 220 3924 235 
3111 2681 3162 1480 
4993 1899 4953 1960 
3926 4576 3515 4134 
3352 4664 4139 2900 
78 2500 61 3571 
61 3571 4040 78 
3466 4140 3305 3183 
3328 3635 3813 4226 
1122 3336 1179 4141 
1122 4120 3336 4141 
127 147 3743 133 
3571 3589 3938 3971 
3643 3014 4142 4460 
3918 4137 2893 1956 
2973 3828 3065 4106 
1876 3880 288 3236 
3998 4150 4266 4310 
4057 4059 2592 4143 
4143 2990 2336 2592 
3385 5143 2169 2805 
4143 4318 2990 2592 
4057 2592 4318 4143 
3154 4259 2967 3137 
4490 4630 4259 51 
2876 1991 4819 5079 
4259 51 5019 4490 
4490 51 5019 60 
3991 3009 1004 3444 
4144 5040 2087 3814 
4144 5040 934 2087 
3814 5129 4144 5040 
2754 4140 5089 3466 
2459 3779 3900 2881 
4240 3826 3455 3180 
1529 3900 4263 3779 
5137 658 656 789 
2459 2881 3211 3779 
4567 912 2562 3931 
5078 3555 981 4182 
981 3555 5078 4147 
4147 981 995 5078 
3864 3544 1220 2197 
4148 3659 4524 334 
4148 3659 4913 4524 
3804 691 801 2253 
691 3804 4240 2253 
3819 3516 3398 1180 
3819 1311 3516 1266 
605 4149 3621 4825 
2307 4151 1675 2607 
2405 4151 2734 1675 
3482 3670 4245 3112 
3602 4149 605 4825 
4149 3482 3670 4245 
4640 4152 1591 2403 
2220 3745 3817 2133 
3424 4510 3769 3817 
1173 3082 4519 1086 
3429 1591 4152 2403 
4990 3296 3766 3373 
313 2737 3112 290 
3748 3205 4602 3659 
290 2737 273 313 
1999 3259 4154 1644 
1999 3353 4154 3259 
3513 4681 4571 4156 
4370 4155 4357 3638 
1018 3009 3736 1035 
4155 3887 277 4360 
4155 4357 4514 4370 
4360 4155 3896 277 
3896 4155 3638 277 
2094 4157 1950 2277 
2387 4157 1950 2094 
1287 1344 4158 1366 
4158 4235 4655 1816 
4082 3658 3355 2603 
404 381 4159 3898 
2971 3857 3898 3737 
3415 2802 2022 1749 
2802 1749 3415 3491 
3297 2747 2221 203 
4310 1287 1344 4158 
1816 3134 4235 4655 
4235 1287 4310 4158 
1500 3847 1411 1410 
3826 4446 781 808 
766 4240 734 741 
4419 2646 4053 2188 
2646 2857 4419 4053 
4405 4419 2857 4053 
3928 2512 2572 2589 
3928 2512 3730 4349 
3175 3247 4894 2436 
4663 2436 4176 5061 
3178 908 4163 886 
3178 3992 886 4163 
725 4277 3582 4340 
4277 1977 3582 4056 
661 3858 3584 2912 
1258 3421 1150 4123 
4168 4282 797 850 
3916 4617 536 3645 
2887 884 841 839 
3645 4617 536 3308 
475 4617 3308 536 
4165 1189 2688 1128 
2688 4165 1128 3595 
463 445 3716 512 
4217 3234 3866 2808 
4645 2053 3234 3268 
4166 3343 2808 4217 
3872 1845 1649 781 
1040 3544 1028 1054 
3872 4779 1649 3485 
2449 4430 4145 4428 
2812 694 792 4169 
2812 2415 4169 792 
4169 2415 2722 4783 
4169 694 792 4783 
3245 3781 1880 739 
3248 4255 3987 3145 
1230 1295 1251 3391 
1127 4500 1047 1113 
3993 3397 2801 4500 
4500 2801 3993 1113 
1127 3397 1047 4500 
2808 3866 4288 3234 
4128 4288 3866 3234 
3762 2296 3310 4172 
3310 1569 4172 2296 
2829 2842 3937 4505 
2816 3610 4212 4505 
2686 2820 2375 4173 
4173 2686 2916 2375 
4173 2686 3384 2916 
2690 3632 2807 2047 
770 4562 3637 3504 
4600 5155 4951 4162 
3671 3637 3842 4567 
3736 1043 1035 3177 
1035 3736 3177 3009 
3435 3751 2897 2467 
2530 2466 2673 3107 
21 4585 44 4175 
4175 40 4585 4025 
4389 328 408 491 
247 2257 5046 2458 
2439 2434 2955 2282 
2439 2282 4137 2071 
4076 3922 3456 4326 
751 3457 727 4179 
3456 4326 4130 4076 
4130 4326 3974 4076 
3985 2140 3974 2868 
3618 3547 2973 2993 
4286 3974 4130 3884 
1922 1219 4209 3820 
1044 1033 1076 3819 
4281 2927 4177 3453 
4177 2927 4281 4875 
4587 1021 1044 1033 
1182 3199 1112 3717 
1112 3717 3199 4471 
2891 2473 2872 2120 
2891 2120 2872 2523 
863 3904 778 764 
3904 764 863 2320 
2767 3758 2958 4230 
1150 4361 1258 1206 
1283 1259 3066 1300 
4017 3340 4625 1107 
4017 1149 4078 1230 
501 543 3355 515 
4082 501 3355 3658 
551 1488 532 494 
4370 2928 3638 523 
3853 4124 3675 4959 
2109 5173 3369 5165 
3501 4003 767 2706 
4644 4181 767 819 
4644 4181 2706 767 
4644 819 3826 4181 
767 4181 2706 4003 
767 4003 819 4181 
4469 2779 1262 1238 
4413 3851 4613 4046 
3254 3495 2514 3208 
3254 3495 1490 3012 
3119 1490 3012 3254 
3398 3819 1036 3352 
889 890 4192 2377 
2060 4633 1388 4184 
2060 4184 1388 3768 
2526 4186 2287 2806 
1214 4638 1175 4218 
2658 3419 1955 3543 
3419 3596 1571 2445 
2025 2845 2159 4116 
4116 713 2159 663 
4116 713 663 716 
3054 3984 512 3949 
2986 3716 3054 3984 
3631 1370 3908 3227 
1370 4191 1350 3908 
4191 1350 1237 1370 
1370 4431 1260 4191 
3227 1370 4191 4431 
3227 1370 3908 4191 
1370 4191 1260 1237 
4374 1971 2219 3308 
4135 4884 1771 2811 
2219 2911 1971 3230 
1255 3531 1237 1260 
1212 1231 3531 1237 
4191 3897 1260 1237 
3897 1237 3531 1260 
3952 3338 887 2819 
4136 2786 1384 1375 
3677 2786 4136 1375 
3677 2968 1375 4136 
2853 433 404 381 
3633 100 158 4023 
432 4985 492 4196 
432 3627 430 4196 
4121 1776 1923 2224 
2224 2153 1923 2107 
4180 1076 1044 1093 
3998 4310 4200 4314 
2224 3096 2153 2107 
2224 3096 2107 2390 
1736 2545 4198 1475 
1475 1736 1664 4198 
3064 560 3024 3355 
5018 2080 3353 3559 
53 49 4202 3367 
1189 1248 1232 4080 
2534 4263 2459 3779 
4589 3471 4127 3511 
232 4034 203 3773 
3773 4034 3743 232 
315 4018 265 4351 
315 4351 265 4199 
4364 2859 4502 4208 
3441 4965 5111 349 
5111 2185 3603 4965 
4210 3548 1158 1069 
5106 1240 3548 1275 
3225 443 510 3354 
3240 2760 2434 3973 
4947 97 2354 4271 
753 700 4008 3723 
4947 74 62 3298 
4598 2112 3471 4478 
4215 3216 3131 4052 
4215 1862 3216 4052 
5111 4770 401 2873 
493 521 4086 3916 
3976 2012 2027 1249 
2955 2893 2150 4137 
4137 2282 2955 2893 
2012 1249 3976 4064 
3087 3405 4371 3245 
3671 3842 2494 4567 
3976 4064 3760 3103 
2602 2264 4204 4449 
2634 2264 4204 2602 
4381 99 93 3843 
4954 2860 5167 4381 
3354 3561 2611 3913 
3354 4278 3561 3913 
2974 3561 4278 3118 
32 31 4026 24 
748 4288 744 776 
573 591 4081 622 
3340 4224 3424 2210 
100 40 4023 4585 
4023 40 4025 4585 
234 402 4207 4307 
234 4207 200 4307 
4718 4081 3723 511 
4412 271 281 4208 
1217 3926 1168 5017 
1168 1217 4309 3926 
4969 4199 3018 265 
4969 4364 5151 5011 
2419 3233 2655 2942 
3107 4057 3883 2592 
4514 4357 306 4370 
306 3428 4357 4514 
306 4514 3478 3428 
3606 2325 3356 4211 
2190 4292 714 2329 
716 4116 5126 2190 
3511 3948 4843 2112 
5092 2676 3518 4213 
823 836 876 3270 
4213 2676 3518 4604 
4885 3471 1749 4291 
738 3944 2162 3331 
738 3944 4557 2162 
2285 3141 2036 3169 
4620 4316 4095 4126 
2916 2558 4214 3337 
4969 4788 5132 5151 
2558 2281 3116 4214 
2916 3337 4214 2766 
2281 4214 2558 3337 
3469 3116 4214 4051 
3469 4051 4214 2916 
2537 1985 4310 1344 
213 3774 201 192 
3685 3930 2679 4216 
4216 3685 2725 2679 
874 4166 4217 860 
775 830 4217 860 
922 904 2887 889 
4188 1176 4218 1194 
922 3598 918 3539 
3906 4348 4160 489 
3031 3504 758 3671 
2359 4226 3231 1481 
2600 2421 3808 1868 
3875 899 988 1005 
3875 3794 2209 3358 
2600 2352 2421 1868 
2600 2421 3211 3808 
323 373 2926 4342 
3163 4235 3991 3250 
3163 3663 1068 4235 
3394 4189 2259 2756 
3526 3062 4929 3484 
31 19 21 4026 
4167 2851 289 336 
4795 363 336 357 
4167 4799 399 4795 
4626 3980 4393 4221 
3980 3193 4393 4221 
3391 4221 3193 3980 
3624 3680 5143 2805 
224 4993 4997 1916 
2810 995 1012 4147 
3901 4222 308 2729 
3901 308 4222 3922 
995 5078 1012 4147 
4222 2729 3198 308 
144 4343 4117 2762 
3809 4429 3031 3878 
4223 3504 4793 740 
4223 711 3074 675 
1143 1221 1177 4224 
1080 4224 2210 1143 
3340 1177 1265 4224 
5178 4499 4892 4243 
112 3697 4590 97 
3471 4590 4676 4777 
4590 4244 3471 4676 
4224 1265 1221 1177 
4885 1749 3471 5152 
4423 3623 4914 954 
4914 4659 3399 2058 
3128 2915 3987 3665 
3920 946 2461 959 
3665 2710 3271 3071 
3665 2710 2915 3987 
2234 1891 159 2483 
1891 2483 2234 2465 
4544 5146 4382 3274 
3332 3235 4639 3512 
134 3771 137 3727 
5168 3771 134 3727 
3071 1315 2999 1348 
3128 2776 2999 3071 
127 4028 3743 147 
3359 202 3743 4028 
982 932 4228 4221 
3304 3750 4667 4915 
471 3561 552 4881 
3913 4278 3561 4377 
4022 32 4248 4026 
4248 31 4026 32 
31 4026 4019 4248 
3760 4229 3976 2852 
2078 1810 4251 121 
2078 4251 2144 121 
4251 102 1810 3058 
110 3888 102 4251 
3888 4251 3058 102 
763 707 3605 2911 
4034 4042 3743 232 
4230 4277 3109 4056 
3743 4014 232 4042 
4230 3109 2958 4056 
2767 4230 2958 1977 
181 3724 4234 219 
4234 195 181 219 
712 778 703 3904 
4148 4913 311 4524 
4182 4743 4740 883 
3129 2099 2226 3224 
3129 2226 2452 3224 
918 922 2696 904 
3403 1025 1517 2696 
4237 2671 1864 1903 
2232 4237 1903 2671 
4237 324 2917 1864 
5021 4798 312 4237 
3482 3112 4430 3151 
2409 2618 3413 3659 
1233 1239 3066 1283 
1731 4530 5121 3738 
3874 4257 4413 4613 
3959 5160 3983 3191 
1250 4257 1290 4046 
4238 2807 3726 1108 
2048 2653 2408 3578 
2048 2666 2653 1965 
2696 1938 2528 912 
2683 2918 1816 4158 
1816 2918 4655 4158 
1377 2601 4064 3533 
1377 4064 2726 3533 
3410 4543 5204 4325 
2657 3368 4241 2444 
2239 4241 2657 4584 
4241 2657 2444 2239 
2657 4584 4241 3785 
4831 4266 1309 4283 
586 4149 3348 4245 
1052 4266 1068 1092 
1052 3991 1068 4266 
1052 3009 3991 4266 
586 2344 4245 4579 
586 4245 3348 4579 
3441 4965 2185 5111 
2426 1855 4246 2881 
3306 2426 1855 4246 
3306 4674 2738 4246 
433 2738 4674 4246 
4247 4336 1421 1422 
2293 3962 1067 1132 
3962 3515 1224 1286 
2153 1776 3962 2224 
43 3367 65 4248 
65 3367 44 4248 
3677 2968 4136 1438 
1052 1037 4283 1024 
998 4283 1018 1024 
1018 3009 4283 3736 
1052 3009 4283 1037 
2016 2062 164 4760 
4464 2235 3542 688 
3523 2305 2615 2591 
4658 1232 1257 4080 
2681 2917 4250 186 
1055 2925 2613 1085 
2925 4808 3579 4122 
2613 2925 4808 1085 
1055 1003 2925 1085 
882 879 3344 916 
4252 1437 2438 2207 
2207 1432 4252 1437 
1437 1432 4252 1434 
3858 2494 3584 3781 
661 3584 2494 2759 
2929 1261 3129 3897 
3897 3129 2929 4253 
3378 2417 3129 4253 
2420 4253 3129 1983 
1983 3129 2417 4253 
3897 3378 3129 4253 
3129 2420 2929 4253 
3060 2961 3961 2827 
3060 2827 3961 4067 
2961 1938 2827 3060 
5085 4152 3429 653 
1978 3042 2319 1494 
3429 4152 5085 2403 
4298 3199 3555 4255 
3601 572 4280 3594 
3601 505 572 3594 
3601 437 505 3594 
2009 4044 1905 4096 
4096 4085 4597 4044 
1122 3271 4283 4890 
998 1041 4283 1024 
802 783 836 3270 
3066 4258 1016 5023 
1181 4180 3819 1222 
4630 45 3166 4259 
4944 3166 5001 4259 
979 959 3920 2552 
959 3920 2901 979 
4582 4630 45 3166 
579 478 519 4485 
519 4485 542 579 
2912 579 4485 483 
2912 3858 4485 579 
102 110 121 4394 
2850 2273 102 4394 
2850 102 121 4394 
4132 102 2273 4394 
4132 110 102 4394 
2287 4443 2806 4261 
3985 3506 3613 3168 
470 425 4102 448 
425 396 4102 448 
2890 4102 396 448 
470 448 4102 525 
2890 448 525 4102 
525 5154 2890 577 
701 4269 4049 4169 
2861 5045 1666 2151 
2531 3508 1934 3917 
2531 3286 2905 3917 
3128 2915 3071 1367 
3128 3071 2999 1367 
3279 1367 3128 3425 
1367 3128 3425 2999 
4590 3471 4291 4589 
4291 3471 4127 4589 
4021 3359 127 4028 
127 3359 3743 4028 
4269 529 4979 562 
4240 513 691 2253 
4240 457 3180 3455 
2110 3008 2659 2862 
5098 2149 4496 2709 
4270 1639 4181 2706 
73 4115 3359 4021 
4003 4821 4270 2989 
73 4021 4039 4115 
4270 4821 3911 2989 
4181 1639 4821 3877 
4863 194 152 3697 
2354 4732 3697 4863 
3224 4272 1261 1293 
3700 138 4273 4341 
146 4593 4273 3700 
4273 138 3597 4341 
3926 3515 2541 4134 
3926 4309 4576 4134 
2589 2512 4274 3730 
3730 2589 4606 4274 
5082 1011 4606 3469 
3469 1011 4274 3116 
4681 3513 4571 3961 
156 2782 141 3458 
3109 4558 4056 4277 
4558 4277 4340 4056 
4230 668 3109 4277 
4177 3488 4299 3339 
4448 4278 426 3395 
3118 3395 3561 4278 
4278 3395 3561 426 
2810 2915 1771 2811 
5014 3186 4047 368 
4753 2894 4047 3105 
834 4279 3412 3178 
834 875 4586 4279 
779 834 4586 4279 
875 4279 834 3178 
2540 572 3594 4280 
3492 572 2540 4280 
797 4282 4168 2150 
508 4280 572 3492 
4282 3019 849 850 
4282 2824 849 3672 
4282 3672 849 3019 
797 4282 849 850 
4376 906 920 3927 
924 3927 925 917 
3405 650 739 687 
650 3245 3405 739 
4462 191 149 178 
4462 191 178 252 
2808 4288 3866 3636 
2808 4288 3636 3105 
1031 4258 3519 1082 
3636 2808 4131 3866 
3519 3232 4258 3066 
3636 3703 4131 2808 
2422 2173 1855 2426 
2422 1855 3306 2426 
3306 2757 1855 2422 
3497 2422 2173 1855 
2757 2422 3497 1855 
4303 1767 2755 1657 
4303 1767 1657 3693 
4056 1767 4303 3821 
3693 3821 4303 1767 
890 3927 2320 2887 
922 3539 3927 3598 
4017 4078 1295 1230 
4017 1295 4078 4398 
2031 2559 3277 4284 
2031 2676 2559 4284 
2834 2304 3049 2202 
3147 2304 3049 2834 
2988 3049 3829 2834 
3774 247 229 201 
3636 4288 3866 2855 
3866 4288 4128 2407 
4256 2407 828 776 
1091 1025 4306 3848 
3424 4306 3255 2195 
3513 1307 4571 1290 
1025 3403 4306 2696 
4307 168 200 234 
5085 3429 705 653 
5085 3429 2546 705 
4307 4009 5145 3534 
2546 3429 1493 3331 
3893 705 3429 653 
3637 3504 2651 3671 
1376 4290 1719 1352 
4290 1719 1386 1376 
3842 2897 3087 914 
914 3751 2897 3087 
24 31 3351 32 
4200 4310 1068 1133 
3617 4055 1383 3237 
4761 3759 4146 1396 
4761 3759 1396 1404 
1150 1145 4361 1206 
4361 1150 1061 1145 
2669 4361 1145 1206 
1263 4361 2669 1206 
1263 4060 2669 4361 
840 2190 4292 765 
782 4292 882 3344 
3344 4292 882 3598 
2190 4292 3598 840 
782 4292 765 840 
532 4102 3481 525 
532 525 3481 600 
2969 678 3481 588 
2618 3412 3413 594 
438 4293 2164 2083 
438 4293 2083 2972 
438 529 4293 2972 
3239 4405 4053 4293 
3239 4053 2164 4293 
529 4405 438 4293 
2891 488 3764 2473 
2553 4458 3248 3028 
3028 4542 3465 4693 
2901 3028 3248 3831 
4048 4458 3028 3465 
433 3186 2853 4294 
433 4925 3186 4294 
451 373 2637 1878 
1062 3519 997 4591 
3910 2191 3393 3445 
4295 4825 605 2751 
3910 3393 3337 3445 
4295 4133 605 660 
4753 2720 3105 4010 
3105 4010 2720 3636 
874 4166 4645 4217 
3062 3526 4929 3061 
4217 874 2522 4645 
2894 465 417 3230 
3230 2911 2894 516 
516 3230 465 2894 
3871 1559 3763 3761 
1559 2351 3763 3761 
4816 4233 2903 4316 
4126 4233 4816 4316 
4816 4316 2903 2946 
4297 3658 2603 4511 
2603 4511 3198 4297 
4266 3009 1326 4283 
4283 1326 4266 1309 
1052 4266 4283 3009 
3984 500 540 3949 
3128 3987 4298 3665 
3665 4298 3555 3987 
2640 3128 4298 3665 
3975 4168 2731 4300 
2815 4402 2731 4300 
4301 2105 3661 3699 
4301 4420 2039 2105 
2726 4064 1413 3103 
1500 4174 1396 1375 
4136 1396 4322 2968 
3515 1224 1286 4134 
3515 1286 2541 4134 
1286 3515 2541 1343 
5031 1886 3645 3083 
5031 728 3083 3645 
1405 4322 1404 1410 
1404 3759 4322 1405 
4914 843 827 871 
3553 3623 2687 4914 
4302 3089 4409 4030 
3089 2902 4302 4409 
4537 735 4724 4939 
4920 1408 3641 1398 
4424 2857 3239 4130 
4005 1398 1400 3641 
3239 4424 3585 2164 
3955 4424 3585 4286 
1151 1097 3519 1082 
3519 1097 1151 4180 
3519 4713 4714 3895 
2572 2703 3252 4137 
2703 3217 4137 2572 
2572 3217 4137 3029 
2955 2703 4137 2150 
2955 3217 4137 2703 
3252 2150 4137 2703 
4356 3974 5026 2954 
4326 501 543 3355 
2097 3039 4135 2134 
2990 3119 2052 3254 
1092 1117 4283 4266 
4200 4266 1068 4310 
1092 4266 1068 4200 
3605 2911 2894 3268 
738 796 806 4557 
2326 2014 3199 2640 
796 3944 4557 738 
4189 796 3944 4557 
4189 4557 806 796 
4304 4925 2808 4047 
5013 4982 4304 3800 
4304 3800 4925 5013 
4014 4028 147 3743 
3584 4858 2638 4538 
3235 4639 3415 3332 
701 2812 784 2415 
701 4049 2812 4169 
701 2415 4169 2812 
4188 1176 1131 4218 
1131 4188 4218 4107 
1922 3823 1306 1329 
1922 1306 1219 2455 
4308 3518 4111 4604 
4213 3518 4308 4604 
2611 3225 3358 3354 
3865 4472 2957 4194 
4080 2688 1248 2702 
2688 1189 4165 4080 
4775 2883 2169 4205 
3408 4002 3740 4609 
2528 3931 4002 1501 
3408 2528 4002 4609 
1379 4902 1395 4005 
3839 1372 1338 3890 
2378 2629 3607 3676 
3641 1500 1405 1404 
3607 2378 3676 3463 
401 4334 4960 443 
4311 4666 3772 4675 
4311 4675 3714 4666 
3772 3190 4311 5065 
2396 2492 4287 3307 
2492 2551 4287 338 
2492 2160 4287 2551 
2904 3014 4460 4142 
4882 3437 4333 4865 
2808 4166 3234 3268 
3866 4131 4217 2808 
2691 1876 2519 2681 
2519 2681 1876 3880 
3541 2928 4387 2846 
3541 2952 2928 2898 
4393 3837 3421 933 
57 4115 4022 82 
57 4115 82 3297 
3359 3297 82 4115 
382 323 2926 4289 
3809 2749 2213 2023 
3382 2741 2027 3976 
3476 3523 2296 3662 
2741 3382 1419 3976 
2109 3369 3053 3889 
3053 3369 488 3889 
561 3889 3053 488 
3002 4273 3597 4341 
4231 3597 3064 2609 
3689 4020 5132 4316 
2032 4316 4027 4512 
3352 4467 1030 4587 
4343 1736 2545 3529 
1748 2062 1747 4343 
2545 5181 4343 3529 
1736 1692 3529 4343 
3529 4709 4343 1692 
2899 4258 1016 3066 
1023 3886 4107 3335 
4371 596 2494 650 
755 767 4644 708 
4644 819 755 3826 
3804 3757 4086 708 
4315 1003 2390 3818 
1003 3818 4315 3582 
2854 4542 5087 4048 
3465 4578 1199 1243 
4542 5087 4048 1199 
1131 3886 4188 4107 
2274 2281 2408 4050 
2274 2512 2281 4050 
4447 4304 2808 3703 
4166 775 3343 4217 
4131 3703 4447 2808 
4597 4477 4353 2950 
4279 3412 779 834 
4317 3412 3178 2409 
2409 3846 3178 4317 
3178 835 4317 3846 
2409 3148 3846 4317 
886 4317 875 3178 
3178 886 4317 876 
875 4317 4279 3178 
4279 3412 3178 4317 
3937 4417 4321 1130 
1152 4417 3937 1130 
4318 535 587 4577 
2990 2315 4577 4318 
4404 2315 2990 4318 
759 3504 758 740 
3754 4318 2315 4404 
3511 3471 4478 4943 
1150 3421 4361 1061 
3837 3421 1061 4361 
3486 3362 3405 687 
5204 5055 4325 4543 
3362 3405 687 650 
4428 4320 2449 4430 
506 2979 4320 549 
3467 506 4320 3909 
4320 506 3467 2979 
4428 4320 3909 2449 
3735 5031 4239 2714 
502 4081 568 3605 
4081 3105 3605 502 
419 4010 2720 377 
1250 4321 1111 4803 
4321 3408 1081 4803 
4321 1250 1111 1130 
4067 4321 3961 1250 
4321 3740 4803 4067 
4244 3471 5152 4885 
4244 5153 4928 5152 
4417 1290 1250 1130 
4417 1250 1290 3961 
1263 4361 1258 1310 
4566 958 962 987 
1263 1258 4361 1206 
1015 987 958 4566 
991 4566 1015 958 
4566 958 991 3140 
4411 802 3270 783 
3388 898 4778 2176 
4411 783 3270 4642 
802 783 4411 3173 
3139 2974 2129 3354 
863 3380 2320 764 
2320 3380 2887 1722 
2961 1143 1221 4324 
4681 3513 3961 4324 
4019 55 81 3777 
4332 3297 3773 3777 
3777 3297 55 81 
2360 2095 3709 3394 
3927 920 925 895 
2988 3116 3035 3049 
2988 3049 3035 3829 
3974 3547 2825 3884 
2834 3276 1253 1147 
3257 3419 2440 1253 
2681 186 4250 3880 
1599 2130 2261 2388 
3757 2253 4086 476 
2253 3804 3757 4086 
4624 4179 4842 685 
3757 3916 4086 708 
3351 3367 4202 3562 
701 4329 3640 2598 
701 784 3640 4329 
5131 5057 4995 4330 
4331 2447 3246 2042 
4331 2662 4833 4561 
2636 2743 4331 2042 
4331 2447 3704 3246 
2282 3973 2955 2893 
1228 2099 2136 1200 
1200 1228 5158 2136 
1976 3406 2450 2584 
2584 1644 3406 3259 
2951 2952 4370 2831 
4370 4514 2928 2952 
3837 4625 3095 2960 
323 3678 3231 4289 
2719 3678 4289 3231 
3883 3328 1481 3107 
3937 4321 4417 3961 
3785 4518 4173 2766 
2906 2558 2916 3337 
4221 3193 3837 4078 
506 3200 2979 549 
3112 2979 3467 2332 
1240 3548 1272 3683 
1240 3683 1272 1198 
3683 1158 1198 1240 
3999 1272 1296 3683 
4373 1198 3999 3683 
81 3297 113 4332 
4023 113 4332 81 
3390 4025 3712 4332 
4023 3712 4025 4332 
81 3297 4332 3777 
2930 1861 3709 5068 
3687 2003 4071 3228 
2594 4071 3228 3687 
4881 3561 426 471 
1997 1922 4209 3820 
2021 4205 3470 1317 
1352 3666 1324 4290 
4073 4375 5111 401 
2873 401 4375 3251 
4317 886 3270 876 
5054 2854 1051 1069 
4393 3421 3837 3193 
915 908 4376 917 
915 4376 908 3178 
3178 915 4376 893 
4393 3193 3837 4221 
3726 4324 1221 1143 
3726 4681 1221 4324 
2807 4156 4681 3632 
4681 4156 3513 3632 
3632 3513 4681 4324 
4324 2961 4681 1221 
3351 32 3367 4335 
3367 4335 32 3956 
4623 1164 4994 3740 
3962 2293 2364 1132 
3740 4994 4623 3600 
1039 3600 3384 3628 
3045 3503 2481 2434 
3503 2760 2481 2434 
4174 1375 3745 2968 
2968 1375 3745 3677 
3991 4235 1068 4310 
4235 4158 4310 1985 
4266 3991 1068 4310 
4235 4310 3991 1985 
4958 200 3332 146 
1396 2968 1375 4174 
4424 3468 4130 4076 
4337 1747 1475 2809 
4257 4378 1290 4046 
5160 4378 2962 3715 
3191 4378 2962 5160 
1209 1230 4017 4355 
4628 4452 3774 4167 
4355 4017 1295 1230 
916 3931 929 879 
3205 482 464 4602 
1396 4322 1410 1404 
4339 482 2160 3205 
3759 4322 1396 1404 
2160 386 482 4339 
3895 1354 3666 1355 
1337 3895 3999 3666 
1355 1331 3895 1354 
4678 3902 433 4246 
3691 4319 311 2551 
4056 4303 4340 4763 
1480 4237 2980 2681 
3818 4303 2347 4340 
725 4277 4340 4558 
4315 4340 2347 4565 
1171 2215 3464 1499 
456 373 2926 382 
3725 4095 4481 4828 
4556 942 926 3980 
3089 4828 3725 4030 
793 2731 4384 2645 
793 692 3326 4384 
3546 2764 4387 2645 
4344 3885 3764 2113 
4384 3541 4504 2645 
4072 3734 5066 3570 
1499 3400 3920 979 
313 4389 328 325 
1499 979 2560 1007 
1499 979 3920 2552 
313 290 2449 4389 
4345 3525 4363 4941 
164 3525 4345 4941 
1748 4345 164 3529 
875 3270 4279 4317 
3270 832 803 4642 
2486 2832 4346 4045 
3535 2486 4346 4045 
4045 3906 2832 4653 
4045 2832 4346 4653 
2050 3658 2603 3024 
2531 1137 4347 1939 
4347 1137 3388 1939 
4347 3814 3388 1137 
3409 5034 2300 2753 
4347 5128 3814 1641 
455 2298 4160 4348 
4045 455 3906 4348 
364 491 4389 408 
3906 455 4160 4348 
3674 2449 4665 3307 
3635 4226 3328 3231 
3913 2611 3225 4334 
4768 883 2750 4740 
4349 1654 2512 4274 
4461 1358 4972 1321 
4646 1419 3701 1421 
926 930 3980 4393 
4393 4626 4221 910 
4240 457 476 3180 
4351 4018 265 4027 
1415 4646 4468 1393 
1373 5077 4935 4005 
4468 1393 4646 2640 
1321 4646 4972 4461 
4972 4461 3701 4350 
4394 2850 3475 121 
3837 933 911 900 
3151 2376 3482 3112 
2317 3112 3670 2376 
3482 2376 3670 3112 
4393 933 911 3837 
2376 3482 3670 4149 
3480 935 968 896 
896 825 3399 752 
1010 5093 935 3480 
1188 1144 4354 1202 
2420 2688 2924 4354 
2380 2420 4354 2688 
1144 4354 2380 1077 
4509 3769 3745 4060 
4509 3935 4398 4174 
1397 4398 4509 3935 
3237 1420 1383 2599 
3745 3817 3769 3226 
4060 4509 4398 4174 
1609 1391 2355 2241 
1347 4705 4355 4398 
2609 3164 2886 4356 
4325 3410 2732 5204 
2732 3410 4656 4830 
4357 277 3887 268 
2636 4660 3990 4331 
1644 3259 4154 4359 
2397 2211 2239 1121 
2239 2657 3149 4584 
2397 2239 3149 1121 
2397 3149 2877 1121 
3416 3542 3118 2897 
3147 2281 3910 1818 
2661 2281 3147 1818 
3147 1818 1955 3543 
3147 1818 3221 2661 
3147 1818 3543 3221 
2477 4360 277 268 
3928 4811 4295 4225 
3887 268 277 4360 
4952 5081 4811 4225 
1385 2553 1383 1362 
2938 2553 1385 1362 
2938 2553 1362 3124 
2553 3124 1383 1362 
4749 610 547 4008 
4971 3998 4831 4200 
603 4642 673 4749 
4356 5026 3974 4286 
3504 770 820 3637 
759 3504 820 758 
3076 4603 2588 4364 
4405 4286 3884 468 
4405 4130 3884 4286 
444 3098 472 3395 
4015 3066 1016 5023 
3125 4015 1007 1499 
5201 2830 3675 3722 
4721 79 4947 4271 
2654 2786 2508 1384 
1032 3610 3184 3632 
5092 4365 3986 4886 
3398 1001 941 985 
3398 1001 3980 941 
1024 1092 1063 4283 
1024 4283 1052 1092 
4066 4461 2695 4055 
4066 4350 4055 3237 
3391 4078 3193 4221 
1033 1036 3819 3352 
1036 1033 985 3352 
750 3399 730 652 
4367 3137 4259 3154 
3535 2486 2155 2203 
2272 2486 3985 2203 
1130 4909 4904 3937 
3937 4909 1152 1130 
3184 3937 4904 4909 
4651 3184 4909 3937 
4486 4171 4910 4204 
3937 1152 4909 4651 
3792 4343 1475 4368 
5094 1475 4368 3792 
4343 1475 4368 2762 
2762 1475 4368 5073 
5073 4368 4838 1475 
1499 3125 4015 2938 
4838 5094 1475 4368 
2762 4368 4117 4369 
4369 4117 4838 4368 
4056 1977 3582 3687 
2144 3702 4251 3655 
2296 4539 3523 2591 
3702 4251 2978 110 
2064 2296 3523 2591 
2978 4251 3888 110 
1321 3465 1288 3248 
4350 3701 1428 1421 
2640 4298 3199 3665 
2799 3578 2564 2271 
2799 2048 2564 3578 
3632 4681 3726 4324 
3842 4371 3031 2494 
650 2494 4371 3245 
4371 3245 2494 3842 
4371 3087 3245 3842 
4015 1499 1298 1269 
1229 1269 4015 1259 
4598 4932 4372 4676 
2826 1126 4101 3663 
4414 4374 3737 2660 
4374 1971 3308 4617 
2447 2042 2743 1676 
3661 2105 2039 2302 
4301 2105 2039 3661 
922 2887 918 3598 
922 3598 3927 2887 
3344 3598 918 2887 
581 3361 545 520 
4151 2734 3208 3502 
3760 4229 1249 3976 
4177 3488 4559 4299 
4424 2857 2646 4053 
3239 2857 4405 4130 
4420 5166 2105 4301 
5166 4711 4301 4420 
2087 1166 1138 2176 
4452 4167 4628 522 
399 458 3135 4167 
3467 2232 2036 2285 
362 295 323 4289 
295 3678 323 4289 
4676 194 4244 4879 
4275 3951 4709 3206 
4302 4409 2927 4457 
966 920 2669 4192 
1252 1319 4180 1284 
2318 4076 3468 4424 
3468 2318 4424 2982 
4424 4130 4286 4076 
3955 4424 4286 4076 
4110 4908 4097 3181 
5065 4436 3190 5206 
247 3774 3446 188 
247 201 3774 188 
4494 380 437 3594 
3999 1096 3015 1142 
3190 4666 5097 2650 
1285 3465 4048 4427 
4427 4048 1199 3465 
3839 1372 3890 1310 
3978 5041 898 3388 
1394 4129 4398 1353 
898 2176 4516 4778 
1394 1397 4398 4129 
898 4778 4516 851 
4026 22 32 19 
650 4371 3405 3245 
4371 3405 3362 650 
2211 3325 3982 2820 
3873 4383 1435 2363 
1435 3443 4383 4850 
1435 2780 2363 4383 
4850 4383 1435 3873 
4357 4155 277 3638 
4155 277 3887 4357 
4386 1258 4123 3839 
3839 4123 4386 4396 
2731 2645 4387 4384 
3360 2928 4387 2764 
3546 4168 4387 2764 
4168 3360 4387 2764 
4384 2645 4387 3541 
2764 2928 4387 3541 
4388 4267 330 233 
4390 3714 4675 4666 
905 2696 904 977 
905 889 904 2696 
905 2696 2377 889 
905 2210 2696 977 
2377 905 2210 2696 
4927 4392 3760 2852 
2011 4392 4927 2852 
4603 4364 4680 1734 
1694 4603 2435 4788 
1771 3987 3248 3249 
2695 2915 1771 3987 
2695 1771 3249 3987 
1698 4432 4020 4187 
4409 5010 4030 3725 
4396 1118 4123 1205 
4386 4396 4123 1205 
4623 2906 3374 4466 
3374 4623 4067 1201 
1201 3374 1250 4067 
1201 4948 3374 4623 
4623 4466 3374 4067 
4595 4397 576 614 
490 4615 546 4397 
490 4397 546 3099 
3498 433 404 2853 
2715 3735 707 4401 
4401 901 763 883 
4694 2072 2733 3422 
1906 2072 2175 4006 
4694 2072 3422 4006 
3178 834 4236 3412 
779 719 4236 3412 
483 2638 491 424 
2638 424 483 3774 
3768 5158 1388 5142 
5158 1359 1388 5142 
4576 1067 3515 1132 
4576 1132 3515 4134 
900 911 3837 903 
4188 4638 4107 3082 
4638 4107 1175 4218 
4402 2589 5081 2703 
2948 2589 4402 2703 
4402 2703 2731 4300 
3122 3153 1936 2335 
4052 4234 3131 219 
4234 195 219 4052 
4403 394 422 3322 
603 4403 533 3746 
2618 4403 4327 422 
547 533 603 4403 
4403 533 480 547 
4998 4484 2488 4435 
3505 3283 3433 3218 
3218 3844 3505 3283 
3898 3865 1971 3737 
1971 3898 3496 3865 
4788 4316 1694 1703 
4788 4316 1703 4351 
3170 2631 996 3121 
3121 4406 996 3368 
3368 996 4089 4406 
4407 1654 3116 1501 
980 967 4407 4002 
1654 1501 4407 967 
2585 3162 186 2917 
1378 1408 1398 3641 
5145 3798 4083 4307 
3420 2642 486 4083 
2435 1694 4788 4243 
4316 1694 4243 4788 
109 2860 5091 5090 
99 2860 3466 3604 
3466 2860 99 4381 
5193 4410 2495 4991 
4411 802 3173 760 
802 760 4411 3270 
2701 2208 3546 2607 
2701 2208 2595 3546 
3224 4272 3227 1261 
2175 4006 3517 2344 
1906 4006 2175 2344 
1250 4046 3374 4413 
4257 4413 4613 4046 
4896 227 3081 198 
2952 1490 2764 3012 
2952 1490 3012 3119 
1490 2952 2764 3541 
3119 1490 3541 2952 
4340 4277 3582 4056 
2212 3836 1525 2882 
2212 5042 1525 3836 
2294 4530 5180 1731 
2212 2882 1525 2761 
2882 3836 1525 2505 
3709 1861 1006 3318 
3709 3318 1006 3912 
3318 1105 1861 1006 
2008 3737 4414 421 
4414 475 421 3737 
379 357 4795 4199 
1709 4847 3738 5100 
1709 4847 5100 4854 
4417 1152 3513 1290 
3513 1290 3961 4417 
4417 1250 4321 1130 
1152 1290 4417 1130 
4417 4321 1250 3961 
2436 1710 5210 4498 
1710 3719 4498 2436 
1710 5195 4498 3719 
4498 5210 5195 1710 
4154 3259 2763 4418 
3823 1306 4029 1219 
2664 3823 4029 1219 
2854 2727 2938 2553 
779 4279 719 3412 
737 4421 4000 719 
719 4860 4279 779 
3412 4421 719 4000 
4279 3412 4317 4421 
5180 4530 2350 1731 
2058 3430 1488 4422 
575 501 578 1488 
602 1488 551 575 
666 4422 613 602 
699 4422 613 666 
4423 954 4914 4659 
3864 3623 4423 1040 
1054 4423 3940 954 
3940 4659 954 4423 
4325 4583 3117 3171 
3125 3400 2901 2938 
1007 3125 1499 979 
1499 2938 3400 3125 
3782 4136 1375 1396 
1375 1396 4136 2968 
3909 431 4428 3674 
506 4320 4428 549 
506 4320 3909 4428 
4223 675 638 4429 
4429 638 3416 675 
4429 675 3031 4223 
3482 3112 549 4430 
4320 3112 4430 549 
4428 4320 4430 549 
3256 2296 4276 4506 
4272 4431 3227 1261 
4760 144 4343 4117 
4275 4760 3529 4709 
4760 4117 4343 4709 
2702 3313 1195 1238 
4574 746 679 4397 
4397 3099 746 679 
2017 1584 4432 3725 
2017 4432 1698 3725 
2592 3883 1878 156 
3883 3328 1878 156 
3623 4738 2932 843 
3282 4433 5110 4657 
4480 4657 5110 4433 
3256 2305 3523 4539 
2725 2316 2360 4216 
3063 2360 2316 4216 
950 2899 952 4474 
952 958 950 4474 
964 4474 958 952 
303 331 334 3659 
4444 4075 5177 5125 
3568 2277 1366 4434 
3586 3148 3846 632 
745 3148 3846 3586 
4998 1236 4435 1245 
1214 1236 4435 4998 
3019 4282 2595 850 
5065 3750 3190 4436 
3112 549 2979 4245 
5197 2536 5200 3921 
4474 1069 4373 3683 
4474 3548 1069 3683 
2603 3198 4511 4437 
896 859 752 3480 
2377 2210 3424 2696 
4192 2377 3424 2696 
3424 3403 4192 2696 
889 4192 2696 2377 
4136 4322 1438 2968 
627 3673 667 2947 
1096 1042 4566 1030 
3015 3999 4587 1096 
1096 3999 4566 1042 
2688 1189 4438 1128 
1128 1075 4438 2688 
4439 2804 1162 1200 
4439 3768 2804 5158 
3433 2376 2945 2317 
179 187 4455 214 
4872 3183 5168 1648 
4872 3183 128 5168 
2729 4297 4441 275 
2812 4521 2415 792 
4442 4451 986 1027 
986 4442 4730 4451 
2288 3887 4360 268 
790 4724 4537 735 
3339 1733 4875 2574 
419 2720 3054 414 
3716 3054 419 2720 
4299 3646 4408 3881 
4299 4444 5192 4075 
3881 4408 4444 4862 
2708 3073 2687 4774 
4445 4263 2534 3779 
766 4446 808 4685 
766 4240 4446 768 
768 4446 3455 4240 
4446 4685 781 808 
5158 4469 1388 1359 
4217 3343 2808 4447 
4131 4447 4217 2808 
775 3343 4447 696 
775 4692 696 4447 
830 4692 775 4447 
4448 393 5115 2367 
4448 5115 392 2367 
4448 392 4278 2367 
4448 4278 393 2367 
2317 1481 2945 4036 
3652 4449 1964 2465 
4532 2413 3565 401 
1964 3652 3565 4449 
3590 4136 2786 1384 
4890 3071 2776 3271 
3665 3271 2326 2776 
3665 3271 2776 3071 
4442 990 942 4451 
4451 1027 4442 1046 
3002 3143 2203 3238 
518 479 4452 434 
4858 4452 544 518 
4452 479 518 3320 
4587 1096 1030 3352 
3999 1096 4566 4587 
4587 1030 1096 4566 
4587 1096 3352 3015 
4473 3395 3118 4278 
3379 4454 928 940 
5108 4454 940 928 
190 4455 2379 187 
4455 187 190 238 
3889 3369 488 2891 
1980 2891 3889 561 
4275 4875 3838 4183 
2655 3051 3811 2942 
3051 2137 3811 2942 
3753 4005 3015 3819 
3753 1346 1373 1331 
3753 1312 3015 1346 
3753 1346 4005 1373 
1331 1312 3753 1346 
4198 1475 2615 1742 
1031 978 4258 1008 
1031 1008 4258 1082 
4258 3232 5023 3066 
4234 3013 195 4052 
198 3081 190 4795 
4197 1104 3558 4909 
3184 1104 3558 1032 
4016 4457 2927 2518 
2927 4457 2030 2518 
1387 4647 1381 2553 
3249 3128 1321 4461 
3249 1381 4458 2553 
890 889 922 2887 
922 890 2887 3927 
890 922 4192 925 
889 922 4192 890 
925 890 922 3927 
1569 3310 4564 2919 
2919 3310 3577 1569 
4174 1414 1406 3847 
3935 1406 4174 1414 
702 4762 735 4939 
5170 702 2473 4762 
2438 1437 1434 2748 
2438 1437 4252 1434 
3623 843 4085 4914 
4341 359 3002 3700 
3316 3798 4307 3700 
4073 3441 5111 4375 
4460 616 2166 546 
4071 4460 616 2166 
4071 4460 2594 616 
4142 616 4460 546 
2594 4460 4142 616 
349 4375 3441 3969 
1714 45 3370 50 
4350 1421 1422 4066 
3625 3873 3695 2363 
361 4090 4037 3059 
4580 3332 2308 4506 
3332 4506 4580 3784 
3621 3283 3433 2376 
3218 3433 3621 3283 
132 4598 149 4676 
3130 4863 4462 4864 
4864 3130 3289 4462 
3674 4145 2159 4428 
3250 4235 1816 3795 
755 3804 801 708 
755 3757 3804 708 
4463 5090 86 114 
5167 108 4463 86 
2530 3107 1481 3231 
1481 2530 2945 3107 
3107 3883 2945 1481 
4538 544 4452 542 
4393 926 930 4752 
4197 1104 4851 3558 
3770 4621 913 1521 
4621 4625 3770 913 
4889 1363 3226 4510 
3769 4224 4510 3424 
4224 2484 3424 2210 
3886 3087 3435 3751 
3435 3087 2897 3751 
1415 4646 4972 4468 
970 4467 1021 972 
3819 1033 4467 4587 
4467 1021 972 1015 
970 1021 4467 1033 
2014 2640 4468 1256 
4468 2640 1288 1256 
1281 4017 3340 4889 
3424 3769 3340 3095 
4398 3095 3769 4060 
4398 4017 4889 3769 
2779 5000 4184 4469 
4184 4633 1388 4469 
2492 2396 2694 3307 
3930 4527 2987 4470 
4470 2141 4216 3930 
1050 3404 4471 3036 
4357 3451 4708 3428 
4357 4708 268 3887 
4557 4270 4194 4472 
4472 1639 3857 2162 
2162 1639 4557 4472 
3520 1639 3857 4472 
589 4473 526 545 
589 2974 526 4473 
589 3416 4473 545 
589 3416 3118 4473 
3190 5206 3274 2018 
3190 3274 4487 2018 
3304 5206 3274 3190 
1971 4239 3865 3268 
1971 3268 3496 3230 
395 4323 4818 5103 
4630 3137 4259 4367 
4385 2305 1475 3256 
122 3466 3183 2754 
2754 3466 5091 122 
3164 3355 2203 3064 
2203 3985 3355 3164 
964 991 958 4474 
964 5072 4474 1022 
964 5072 991 4474 
4349 1654 4274 1011 
1011 4274 3116 1654 
2488 4165 4476 1232 
1861 3318 5068 2455 
3318 1219 5068 2455 
4119 3339 1733 3711 
4119 3339 2771 1733 
5100 1602 4919 3854 
2721 501 1488 3456 
4425 844 4112 4597 
4597 844 4112 4477 
4085 4597 4353 2950 
4598 4478 3471 4676 
4397 679 4574 4479 
4397 4479 614 4595 
3357 4594 4480 4267 
4267 233 4480 5004 
233 4480 4594 4267 
4785 4715 3641 3839 
4483 3516 3398 2900 
1304 3391 4715 3516 
3193 4483 3980 3421 
3839 3421 4483 3193 
5010 4481 4030 3725 
3725 4481 4030 4828 
3798 4482 3002 3316 
3002 4482 3597 3316 
3798 5109 4482 3316 
3769 4889 3226 4510 
4889 1320 4883 1363 
2900 4677 4139 4483 
4677 4396 4483 3839 
3391 3398 3980 4483 
3839 4483 4785 3193 
3678 295 4547 3731 
918 929 2528 1501 
918 929 1501 1522 
1238 1359 1293 4469 
4435 4118 4484 2488 
1214 4484 1190 1175 
4118 4698 4484 1190 
5135 3563 579 4485 
3858 3563 4485 579 
4485 542 579 5135 
4877 345 2465 4486 
4449 4486 345 4204 
4486 4877 345 354 
345 4486 354 4204 
2465 345 4449 4486 
4913 4488 3659 4148 
2058 2687 3430 4914 
2031 2505 2882 4111 
2882 2761 2031 3213 
2318 2051 2483 4489 
2483 2051 2234 4489 
2318 3901 2051 4489 
2051 3901 2729 4489 
2234 2051 2729 4489 
1086 3595 4165 3082 
1128 1086 3595 4165 
3137 4630 4259 4490 
2967 4490 4259 56 
3932 4406 3554 2262 
4516 4599 945 891 
4311 5065 3190 2672 
4225 4133 4295 660 
3458 4059 156 2782 
4690 2782 156 4059 
3274 4382 4544 4491 
3274 4544 3304 4491 
3274 4491 2283 4382 
3577 2296 4492 1569 
4492 2296 3577 3476 
4590 3471 4589 4777 
134 4872 5168 1648 
134 4872 128 5168 
2283 3190 4493 3274 
2283 3274 4493 4491 
4494 437 3601 3594 
3826 3877 3549 4181 
2769 1639 3549 3520 
3549 1639 3857 3520 
3266 4515 4496 4791 
4496 2227 2678 3462 
3789 4871 3462 5136 
5060 2806 3775 4497 
1315 2999 2776 3071 
3719 4498 4416 5149 
5182 4601 4804 5179 
4832 4498 5149 4416 
5210 4498 5179 4804 
4252 1380 1432 2278 
1432 2278 2207 4252 
2801 1113 4500 1172 
4500 1113 1127 1172 
4316 2946 1703 4501 
152 3697 4244 135 
4732 3697 152 135 
4121 807 872 4563 
3286 2680 3540 1939 
3327 3917 3524 1953 
4503 2783 3990 4634 
4503 4660 4213 3990 
2783 4660 4503 3990 
3015 1297 1346 1312 
1254 1303 3015 1297 
3015 1303 1346 1297 
1175 4107 1114 1090 
5150 4220 2351 1559 
3871 5164 5071 4905 
4504 3541 4384 2571 
671 2571 4384 4757 
5003 4267 4388 3441 
5200 3364 1743 1693 
233 5157 5004 330 
1743 1693 3364 3763 
3070 3060 3624 2195 
3751 923 818 2235 
3700 4273 3316 3002 
3316 4273 3597 3002 
3379 2629 4454 3676 
3379 957 4454 940 
3379 957 3676 4454 
3632 4505 3610 3184 
288 282 3691 2492 
288 3691 312 2492 
3140 991 4566 1042 
1042 1030 991 4566 
4596 4074 1913 2015 
1913 4596 1940 2247 
2247 1913 4596 1849 
4596 1913 4074 1849 
1910 2634 4507 2540 
505 2890 2540 4507 
505 4507 2540 3594 
4507 2634 2890 2540 
4507 1910 2540 3032 
3594 2540 3032 4507 
104 136 135 4868 
4916 5149 1636 4530 
818 688 675 2897 
2354 111 3697 94 
383 4508 3496 417 
3230 4508 3285 417 
3496 4508 3230 417 
417 4508 4765 383 
417 4508 3285 3778 
417 4508 3778 4765 
2811 1305 4884 4622 
1409 1382 3226 4509 
4509 3226 3769 4889 
3424 2484 4510 3817 
4510 4224 2484 3424 
4484 1114 1190 1175 
3124 3400 3249 1771 
3590 3782 3022 4554 
3258 2952 4370 2951 
3478 2952 3258 2951 
2952 3258 4370 4514 
3478 2952 4514 3258 
4513 3518 5092 3891 
3855 3887 2898 4514 
4514 2898 2928 2952 
2191 2271 3393 3933 
3393 2271 4088 3933 
3910 2271 3393 2191 
3636 2986 4517 3716 
3866 4517 4131 3636 
3716 4635 2986 4517 
3866 4517 861 4131 
3541 2898 2846 4404 
4421 4860 4279 719 
4860 4586 803 4279 
719 4421 3412 4279 
2820 3849 2375 4518 
2766 3785 4518 4840 
1158 3548 4210 5106 
4840 4518 2766 4088 
2375 3681 4518 3849 
808 3877 3826 819 
4608 2756 4821 2989 
4218 4638 1236 1214 
2779 1262 2488 4834 
4519 1173 1213 3082 
781 4520 2555 1649 
781 4520 1649 3929 
3929 3892 781 4520 
2555 4520 781 3455 
2855 744 4081 4288 
3649 3653 4232 4128 
4256 4288 2407 776 
2461 946 857 959 
979 959 2552 857 
3721 5131 4711 4420 
5131 5057 4711 4420 
5131 5057 4330 4711 
4711 4330 5131 3721 
1944 546 4460 2166 
1944 4460 546 2904 
2904 4460 546 4142 
3433 3283 2222 2945 
784 4521 2415 2812 
3640 4521 784 2812 
3640 784 4521 4599 
3543 2416 1147 4522 
4573 1094 4888 2661 
4522 2661 4888 1094 
4522 3221 2416 4888 
2416 4888 1147 4522 
4522 3221 3543 2416 
3060 2484 3572 2961 
4351 337 315 4018 
508 449 4280 2611 
3601 572 508 4280 
449 4280 3601 508 
4868 4271 3287 3292 
4868 4732 4271 3292 
4913 2551 303 3659 
4913 2551 311 303 
1195 3129 3794 2420 
3129 3794 2099 1195 
1195 2420 3794 3313 
4553 482 558 2160 
4525 4824 4748 5191 
4676 194 4879 4525 
508 2611 3492 3561 
508 3492 604 3561 
111 3298 2354 3302 
31 4248 4019 44 
4786 374 479 3320 
479 4786 371 374 
4452 479 4786 371 
4786 479 4452 3320 
2366 4527 3741 4113 
4113 4527 3930 2366 
3930 3612 4527 4470 
4420 4528 4301 2039 
2016 2062 4760 5048 
1407 3759 4146 4761 
3022 4146 1407 3759 
1885 3568 1366 3311 
3311 3568 1366 4434 
3719 4530 4498 5149 
1636 4530 4832 5180 
3256 4385 2809 1475 
3815 3912 4719 1006 
3783 3580 4739 3321 
3783 3580 3321 2966 
3067 4521 1686 3783 
4532 4073 4215 401 
4532 2264 401 1929 
4532 2005 401 4215 
4532 1929 401 2005 
4532 4449 2413 2264 
4532 4449 3565 2413 
586 4534 4245 2344 
549 4245 586 4534 
2344 3517 586 4534 
346 3659 331 303 
1031 978 997 4258 
1305 4622 4122 1271 
5123 4536 5196 5187 
94 111 74 3298 
2769 4181 3549 1639 
3877 1639 3549 4181 
3584 4538 483 4485 
4858 4538 4485 544 
2638 483 3584 4538 
4858 4538 544 4452 
3584 4858 4538 4485 
4484 3875 988 1114 
4484 3082 3875 4638 
988 1114 1153 4484 
4539 2591 2305 3523 
3866 877 4217 4131 
4217 4645 2522 3234 
4621 3461 3770 4228 
3461 4221 3837 4228 
3461 4393 3837 4221 
4109 4670 1292 2690 
2690 1292 3513 4670 
2690 4156 3513 1292 
4397 4086 614 4574 
4397 4574 614 4479 
4541 1697 3654 5197 
4541 5197 3654 4706 
4307 183 4009 3534 
4139 1118 1046 4396 
3465 4542 4578 4693 
3028 3831 4693 3248 
4542 4693 3028 3831 
4542 989 1017 3831 
2609 2603 3799 4437 
3064 2050 2603 3024 
1660 4543 2856 2351 
4543 4220 5204 5055 
1588 4543 4656 4325 
4543 1701 4656 3410 
4545 2547 4592 2994 
4547 3635 323 3678 
3678 295 323 4547 
2998 3854 4548 1602 
1594 3175 4548 2436 
3719 2436 1710 4548 
4548 1710 3854 2998 
4548 3854 1710 3719 
4548 3175 1594 5163 
2731 4168 3975 4387 
4168 3360 3975 4387 
2703 4300 3975 2731 
3189 5189 3523 2888 
4549 435 430 3627 
4549 435 5120 430 
4549 4718 432 420 
406 4549 432 420 
94 74 4947 3298 
4549 4718 420 2975 
1997 3685 3820 3930 
2141 3930 3685 4216 
3831 992 3145 956 
3831 989 992 956 
830 4217 860 4550 
877 4217 4550 874 
777 4517 861 822 
742 822 4517 777 
693 3716 4517 4635 
430 369 4985 4800 
369 4800 436 423 
3906 4160 4551 489 
4653 4551 4652 489 
489 4652 4979 4551 
3806 4657 5110 4234 
4884 3281 1070 1123 
2619 2751 4295 4133 
4295 2619 4358 4170 
5176 3862 5174 4552 
1312 1355 3895 1337 
1355 3895 1337 3666 
4177 4907 3339 4875 
3350 3377 4554 3869 
3377 3590 4554 3869 
3022 3377 4554 3559 
3590 4554 3022 3377 
882 3598 918 3344 
882 3344 918 916 
689 4555 605 649 
4179 4555 4842 689 
4842 4555 4179 2673 
930 4556 926 3980 
930 941 4556 3980 
4556 4637 970 941 
3715 3729 2060 2034 
5159 2034 3729 3715 
2899 3140 4258 3066 
978 962 997 4258 
806 2957 738 4557 
2162 4557 738 2957 
4933 788 937 787 
787 973 937 4605 
1980 5165 3889 2891 
4565 4763 2347 2146 
2146 3253 4963 4558 
3109 668 3253 4558 
455 2298 4560 4160 
4560 2626 488 3764 
4560 2247 455 2626 
455 2473 4160 4560 
455 2247 4560 2298 
3764 2473 488 4560 
1855 4999 4561 4588 
4561 2662 4833 4806 
4561 2739 2662 4806 
1855 4588 4561 3497 
2739 1855 4561 3497 
4588 4999 4561 4024 
2326 2776 2640 3665 
3336 2326 3271 2776 
2640 2326 3665 3199 
743 689 4562 4951 
689 4562 649 743 
770 4600 4562 731 
207 180 4997 208 
3637 4562 743 2651 
770 4600 3637 4562 
4562 649 743 4038 
758 810 914 3842 
284 272 4759 1527 
4022 32 43 4248 
1354 1331 3895 1313 
1079 1149 4221 1059 
1079 3391 3980 4221 
4221 1149 4078 1059 
3391 4078 4221 1149 
4896 3081 166 198 
2936 4896 166 155 
4896 166 155 171 
603 4749 4403 3746 
547 4403 603 4749 
2498 1525 1873 3699 
3699 1873 1526 1525 
4065 1525 2498 3699 
824 3846 745 835 
2297 4030 4457 4409 
2927 2297 4177 3453 
888 4563 2224 872 
4563 872 888 4744 
4863 3294 152 4654 
4863 3130 3294 4654 
3579 3158 1343 1374 
2598 2983 4049 3710 
4049 2598 3640 2983 
4618 4564 4172 3310 
4564 3310 146 2919 
4701 3647 2572 2512 
2512 4349 4701 3010 
2518 3951 3273 4275 
4744 4565 804 866 
725 4744 668 4565 
725 4340 4565 4558 
4565 4531 4744 668 
1931 4177 2017 3453 
4403 480 533 4327 
2618 4403 533 4327 
4038 649 1528 633 
2651 4562 743 4038 
3784 3220 3491 4720 
3220 5152 3491 4720 
3999 4566 1042 3140 
991 1030 1015 4566 
4567 3408 4575 4904 
4422 642 646 2596 
4422 642 2596 578 
2596 4422 3430 646 
3480 3957 859 699 
3480 699 859 752 
4321 4803 1250 4067 
2688 1144 1202 4354 
2380 2688 4354 1144 
3252 2150 2703 4300 
2703 3252 4300 2948 
3975 4168 4300 2150 
4402 2948 2703 4300 
3190 4570 1601 3192 
2054 3592 1333 3317 
4066 4461 3425 2695 
468 4105 4979 4551 
4282 4168 4300 3546 
1383 3249 4055 3124 
3124 1383 3617 4055 
1939 3899 3540 3286 
3540 4780 3941 3899 
3609 3470 4571 4704 
454 3420 2765 3037 
454 3420 3037 3798 
2207 3055 1437 2391 
2207 1432 1437 3055 
3461 3770 4572 4621 
4748 194 4676 4525 
4067 4803 1250 1201 
2853 4294 3498 433 
1484 4294 433 3498 
4086 746 4574 4397 
2645 2208 2764 1490 
2645 2764 4387 3541 
2645 3113 2208 1490 
4151 3004 3113 2645 
3354 2974 473 3139 
2482 2994 3376 4395 
2547 3376 2994 4395 
2482 2994 4395 3986 
4096 2009 1002 2997 
2997 2009 1905 4096 
2681 4237 312 4901 
2917 2681 4237 3162 
240 3743 4104 276 
4104 276 3743 4042 
3999 1203 1142 3015 
3015 1142 4153 1203 
3015 4664 4153 1142 
3980 990 4393 3421 
942 990 4393 3980 
990 4451 3980 942 
2021 1317 4571 3038 
1731 4530 3738 4733 
3116 2281 2558 3147 
2558 2281 3910 3147 
2415 939 2248 792 
2365 2248 4783 2722 
2103 939 792 2248 
4783 2103 2248 2365 
2248 2415 4783 2722 
1182 4546 4578 1156 
1182 1243 4578 4546 
3391 3516 3398 4483 
4170 3348 2751 4579 
4580 3332 5123 2308 
4581 3011 4908 4097 
3011 4581 5095 4097 
2532 3606 3717 2378 
2948 3252 4050 2572 
2948 3252 2824 4050 
497 4616 4629 4473 
526 4473 4616 497 
526 2974 473 4473 
4473 473 427 4278 
473 4473 2974 4278 
181 3806 177 3013 
4584 1136 2820 4518 
3390 4025 4175 4585 
3928 2619 2572 4701 
2619 3029 2572 2175 
4586 875 803 4279 
1030 4467 1015 4587 
4588 4024 1732 4662 
4662 2738 1732 2757 
4588 2757 1732 3497 
4588 4662 1732 2757 
4588 4024 4561 1732 
4588 1732 4561 3497 
4943 3471 4589 3511 
3313 2702 2420 2688 
90 97 4590 3697 
112 4244 4590 3697 
4885 4590 3471 4291 
4885 3471 4590 4244 
813 672 2540 670 
3217 2955 2751 3964 
2481 2760 3218 2751 
2751 2760 3218 3964 
282 279 283 4665 
4665 302 282 2492 
282 283 302 4665 
723 3984 655 4635 
2891 561 1980 3764 
4591 3895 4713 3519 
3519 4591 4180 4713 
4587 4591 1044 4566 
4593 138 4273 3700 
4594 4267 4388 233 
724 4934 676 3984 
3173 4411 760 724 
4615 4397 576 4595 
4397 4479 4595 546 
474 4403 4800 394 
4403 3322 4800 394 
4315 866 2390 1003 
4234 3013 181 195 
3877 3787 3826 3549 
2259 3877 3549 3787 
4596 4074 2015 2001 
4596 1940 2247 2626 
4003 2989 4608 4821 
4181 4608 819 3877 
2009 4853 844 4597 
4597 4853 844 2950 
4597 4096 2009 4853 
4597 2708 2009 4044 
4425 3085 4597 4112 
4597 844 4477 2950 
4599 784 891 4537 
4535 4792 1023 3087 
914 1023 3087 4535 
1023 1131 3886 4197 
3087 4792 1081 1000 
1023 4792 1131 4197 
3751 1023 3886 3087 
1023 914 3087 3751 
4516 2176 945 4599 
2176 3528 945 4599 
4599 2337 2176 3528 
4742 4600 3588 855 
4600 4742 3588 3637 
191 278 252 4864 
2175 3029 2410 2071 
2072 2175 2410 2071 
4701 2175 2572 2875 
2175 3029 2572 2410 
4049 2983 3640 3580 
4049 3580 3640 2812 
3584 3781 4858 4485 
518 580 544 4858 
3659 4339 3205 4602 
3659 4339 4602 4913 
1394 4398 4715 1353 
3391 1295 4398 4078 
4398 1295 3391 1353 
2986 3723 3627 2975 
3173 3723 3627 2986 
4284 4604 2662 4833 
4111 4284 3834 4604 
4660 4604 4213 244 
4833 4604 4660 244 
4308 4604 4111 3834 
2288 4360 4125 268 
2288 4690 4125 4057 
3580 4978 3321 2693 
4654 4650 4864 3130 
4191 4431 1260 1261 
3227 4191 1261 4431 
3126 3282 3806 1936 
4606 2589 2815 2766 
4606 2589 2766 4274 
4173 2815 4606 3384 
4606 4274 4214 3469 
4173 3384 4606 2916 
4606 3469 4214 2916 
518 496 4452 544 
434 496 4452 518 
2231 4276 2296 3332 
3235 3332 2231 2296 
4654 4650 3130 3293 
5049 4553 2159 4643 
5049 635 2159 4553 
3727 245 3771 147 
2970 4186 4261 4312 
4347 2300 1137 2531 
4347 1641 3814 1137 
4607 107 89 86 
4607 5090 107 86 
4795 230 190 198 
445 419 3054 414 
4492 2296 3705 1569 
3523 2296 4492 3476 
2894 415 465 4242 
3105 4242 415 2894 
3482 4245 586 549 
3482 4149 586 4245 
808 4608 3877 819 
4609 3255 2528 1501 
3740 3035 4609 4407 
3035 3829 4609 1501 
4609 3255 1501 3829 
4609 4002 3740 4407 
4609 2528 4002 1501 
2618 4327 514 441 
950 2899 4474 3140 
4474 958 950 3140 
4258 950 962 3140 
3896 2477 4610 3503 
3638 277 4610 3896 
3503 2477 4610 4041 
1081 4575 4904 4909 
4567 4904 3184 3937 
4567 4904 4575 3184 
2262 3384 3628 1039 
2262 3628 3554 1039 
3852 4611 2551 2492 
2488 4950 1213 1235 
426 471 3561 4377 
4278 426 3561 4377 
2929 1261 4612 1267 
4612 2929 1267 2924 
4612 1255 1267 1260 
1261 1267 1260 4612 
1267 1255 4612 1264 
4270 1639 4557 4821 
2706 1639 3520 4270 
4557 1639 4270 4472 
3520 1639 4472 4270 
4625 4078 1107 4614 
4186 1735 2526 2287 
3523 3705 4492 2296 
4615 541 576 4397 
4964 541 4615 4397 
4616 473 427 4473 
526 4473 473 4616 
1265 1320 4883 4889 
1265 4224 1320 4889 
969 3184 3558 1032 
4755 50 5019 45 
4259 45 4755 5019 
4001 3645 1971 4617 
1710 2436 1697 5099 
1594 3247 5104 5162 
2436 1594 3247 5104 
2436 5099 1594 5104 
146 4564 4618 3310 
1281 4017 4889 1347 
1487 2611 3492 3358 
1281 4355 4017 1347 
505 2890 4507 437 
505 437 4507 3594 
2369 3594 3601 4280 
437 448 505 2890 
4707 4807 403 4366 
4247 4336 2852 1421 
510 2137 416 443 
4619 2990 2052 4143 
2052 3119 2990 4619 
2052 3119 4619 2952 
2052 2952 4619 3478 
3478 4619 2052 3428 
3428 4619 2052 4143 
2833 4620 4728 4243 
4243 5125 4620 4892 
4444 4620 4689 5125 
671 4384 692 4757 
5022 2060 1388 3768 
857 959 2552 2461 
913 4625 951 4621 
4622 4808 4122 3926 
3740 4623 1164 1201 
4948 2906 3374 4623 
1250 4413 3374 1201 
363 4167 4795 336 
453 496 4167 428 
605 4624 3218 3283 
4624 4842 4179 4033 
4133 4624 605 660 
605 4624 4133 3218 
3135 399 4167 4799 
4842 685 660 4624 
2377 4684 905 894 
4684 905 944 2377 
3659 4602 4488 4913 
497 3809 446 2926 
4625 982 4621 4228 
4625 1020 951 4614 
4538 4628 519 542 
4538 4452 4628 542 
3038 3070 3060 3624 
5079 3154 2876 4815 
2619 3217 2751 4133 
3217 3964 2751 4133 
2751 3964 3218 4133 
4622 1070 1110 1123 
1123 1070 4884 4622 
2351 2856 5101 4632 
2351 2856 4632 3203 
2400 1884 2773 2792 
2792 1884 2773 3341 
3540 1939 2451 4778 
2060 1351 4633 4184 
4184 1351 4633 4469 
3398 4556 4451 3352 
3980 3398 4451 4139 
4556 4451 3980 3398 
4010 447 463 503 
447 419 4010 463 
4684 951 2377 944 
3835 4323 4936 3862 
4636 4048 4427 1285 
4636 4048 1285 1328 
4637 4556 926 930 
4556 930 4637 941 
2121 580 3816 739 
1090 4107 1114 1005 
3875 1114 4107 1005 
4638 4107 1114 1175 
4484 1114 1175 4638 
4484 4638 3875 1114 
3332 4639 2802 3512 
4639 2802 3415 3332 
1591 1982 4640 2403 
4640 3599 4152 2403 
1591 3808 4640 1982 
1591 3808 4882 4640 
4882 3437 4865 2788 
4865 4990 3766 2788 
4717 957 4641 2871 
1209 1107 4017 1149 
1209 3340 4017 1107 
1209 1149 4017 1230 
5185 2327 3728 1735 
673 4642 4000 737 
4000 4642 603 3746 
4642 4749 603 3746 
737 4642 726 673 
2618 3322 367 3659 
2618 3322 422 367 
2618 422 4327 441 
3659 3322 3510 2618 
441 422 367 2618 
4788 4680 4351 1703 
1694 4788 1703 4680 
1276 3572 1317 1332 
885 833 881 2025 
3539 3598 2025 3927 
881 3927 3539 2025 
881 885 2025 3539 
3757 755 4644 708 
767 728 4644 708 
4644 2769 2706 4181 
4644 4181 3826 2769 
4644 2706 728 767 
4644 755 3757 3826 
4194 865 874 4645 
4194 4645 874 4166 
4551 4105 4979 4269 
2296 2308 3332 4506 
3527 3762 2296 3332 
2296 3235 3332 3310 
2296 2308 4195 3332 
3332 2296 3310 3762 
2296 4276 4506 3332 
2999 4646 3425 1419 
4350 3701 1421 4461 
3425 4646 1421 1419 
914 3842 810 921 
1387 1376 4647 3174 
3174 4647 3371 1376 
2456 3576 3436 4938 
4866 3886 4519 3082 
4866 4519 1213 3082 
1342 1331 3753 1373 
5077 4005 1373 3753 
3753 1342 1373 5077 
898 2176 4649 4516 
4865 3437 1677 3165 
2788 3437 4865 3165 
4865 4990 2788 2118 
3352 1030 4467 986 
4467 1021 1015 4587 
3060 3572 3961 2961 
3607 3463 3676 3823 
3513 1135 4651 1104 
3184 3632 4651 1104 
4651 1104 3632 3513 
1104 3184 4909 4651 
4651 1135 4909 1104 
4003 4608 819 4181 
4653 3906 4551 489 
1360 3819 3753 1319 
934 4649 898 2176 
4653 4348 3906 489 
2538 2869 4786 4876 
538 3939 464 3205 
538 3205 464 3748 
211 257 278 4654 
194 4654 257 211 
257 4650 278 4654 
257 4650 4654 3293 
257 4654 3294 3293 
3388 5128 5041 4144 
4158 1287 1366 4655 
2683 2918 4158 1366 
4655 2918 1366 4158 
4866 3082 1213 4998 
4188 3886 4866 3082 
3410 5194 4656 2443 
1588 3171 2856 4543 
4656 1659 1700 1660 
1588 1660 1659 4656 
1660 1588 2856 4543 
3122 1936 4657 233 
3122 233 4657 3724 
1936 4433 4657 233 
4480 233 4657 4433 
233 4657 3724 4480 
1262 4658 2488 4834 
1271 1305 4884 3021 
4884 1305 1271 4622 
4659 1029 971 949 
968 4659 1029 3480 
1029 949 4659 968 
5041 3388 3978 1939 
4778 3388 2176 2337 
4160 4269 2321 3710 
2321 4269 562 4049 
4049 4269 562 4966 
4016 4302 2927 4457 
4660 2676 4213 4604 
2662 2676 4660 4604 
4503 2676 4213 4660 
2783 2676 4503 4660 
546 4397 4615 4595 
4101 1126 4661 3663 
689 4562 4555 649 
649 4038 4562 4555 
383 4159 381 3496 
4159 3898 381 3496 
4810 2821 2424 2516 
1017 4542 1083 3474 
1051 1017 4542 989 
4339 482 3205 4602 
4339 386 4602 339 
2738 404 4662 3498 
404 3498 2971 4662 
4505 1143 1019 2842 
977 1019 2842 2829 
4734 1027 1096 4664 
3015 4664 1142 1096 
1046 4139 4451 4664 
4664 1027 4451 1046 
2900 4664 4139 4153 
1523 822 4635 742 
838 4635 1523 822 
4635 693 1523 742 
2032 4788 4316 5132 
4316 4788 2833 5132 
2407 4288 4256 2855 
1044 4587 3819 4591 
4587 1033 4467 1021 
279 4665 2449 283 
3674 2449 279 4665 
2634 4204 4699 2602 
2634 4102 4699 4204 
3630 2721 4699 4102 
2419 2942 2655 3811 
3811 4577 2419 2942 
4311 3190 3772 4666 
4311 4666 3728 3190 
3728 4666 5097 3190 
3190 4666 2650 1601 
3190 4570 3772 4666 
3190 4666 1601 4570 
132 3290 4462 178 
2695 3249 4055 4461 
3249 4461 1358 1381 
4715 3839 1500 3641 
4669 4556 3352 4451 
4669 970 3352 4556 
3806 3905 3126 2637 
3806 3126 3905 3282 
4966 3977 4169 3950 
669 694 3977 618 
3691 311 4611 2551 
1104 3513 1135 4670 
4109 1104 4670 2690 
2690 4670 3513 1104 
4269 3950 4966 4169 
4049 694 2812 4169 
4005 1346 4902 1373 
2718 3000 4044 2708 
4312 5185 4487 3728 
4671 4234 3472 372 
372 4671 4234 416 
5049 4672 4643 2159 
1113 1047 1089 3993 
3993 1047 1089 993 
4500 3993 1047 1113 
1705 2296 2064 3527 
3226 4510 1363 4775 
4775 2169 1363 3226 
1320 1363 4510 4775 
4531 4121 807 729 
4121 807 4563 4531 
3181 4908 4097 1596 
4581 4908 1596 4097 
2815 2766 2948 3785 
2815 3785 2948 4300 
2815 2948 4402 4300 
49 4673 3562 54 
49 4787 4673 54 
44 3390 4585 72 
4019 4175 44 3390 
4175 4585 44 3390 
4019 3390 4248 3777 
1855 4674 4588 2757 
4674 2757 1855 3306 
1855 4688 4588 4674 
1855 4674 4678 4688 
3306 1855 4674 4246 
4678 4674 1855 4246 
5076 4922 3967 3020 
1939 3388 4778 2337 
4824 4748 236 4372 
4676 3697 211 191 
3685 4216 2360 2141 
3730 4349 4274 1011 
4349 2512 3730 4274 
4530 5195 4498 5121 
609 3253 3925 621 
3385 2805 2169 3226 
3817 3385 3226 2805 
1303 4677 1346 1338 
1289 4677 1338 3839 
4005 1346 4677 1338 
4677 1338 1303 1289 
1051 4542 2854 989 
2854 4542 3831 989 
3209 762 4085 843 
646 762 4914 4085 
4312 4487 5147 3728 
2210 1938 2842 2484 
2842 1938 2961 2484 
2210 3255 1938 2484 
2484 3424 2210 3255 
2169 4775 1363 2883 
164 3525 4183 4345 
4345 4183 164 3529 
3105 4010 3636 4047 
177 3669 123 2311 
1079 1059 4221 3863 
1079 3391 4221 1149 
2703 5081 3706 4133 
710 3706 5081 685 
3471 4676 4478 4777 
4676 211 4372 191 
4056 4303 3582 4340 
4056 3687 3582 4303 
3818 3687 4303 3582 
2318 4076 3901 3468 
3468 3922 4076 3901 
148 4034 240 3743 
276 3727 245 3639 
3727 240 3743 148 
4603 4788 1694 4680 
4505 1143 2842 4324 
2842 4324 1143 2961 
4505 3632 3726 4324 
1291 4681 3726 2807 
2807 4681 3726 3632 
3015 4677 1346 1303 
3753 4005 1346 3015 
4005 1346 3015 4677 
1658 4275 3755 2813 
451 373 4342 456 
3332 2802 4958 3512 
3275 3119 4404 2315 
3119 3541 4504 4404 
3275 3119 4504 4404 
913 951 2377 4684 
766 4446 4685 768 
5058 3523 3476 3477 
3476 4337 3523 3662 
3476 3477 3523 4337 
4808 1085 3684 1110 
4808 2613 1110 4622 
4808 2613 4622 4122 
2925 2613 4808 4122 
3865 3520 4001 1971 
2578 2706 4001 3520 
4617 3520 1971 4001 
4751 2769 3520 2706 
4617 2769 3520 4751 
404 4024 2971 4159 
4688 4024 4662 404 
4688 404 4662 4674 
4688 4674 4678 404 
3604 1536 99 92 
5091 1536 3466 3604 
371 374 4786 2570 
2946 4316 4689 4816 
4829 4689 4862 4816 
3883 4690 156 2592 
2592 1878 3365 156 
2592 156 3365 3458 
3458 2592 156 4059 
4690 4059 156 2592 
4339 386 482 4602 
2288 2782 4690 4059 
4057 2288 4059 4143 
4057 4059 4690 2592 
921 3408 3027 4201 
921 4201 1000 3408 
921 3408 1000 4575 
4567 3408 921 4575 
3234 2053 3605 3268 
4625 2377 913 951 
4078 4614 4625 982 
3712 4585 3390 72 
90 4590 94 3697 
94 3697 4590 4777 
94 4590 4589 4777 
4590 94 4589 90 
4584 4518 4840 1136 
1102 4584 4840 1136 
4712 3462 2149 3946 
5098 4515 4496 4712 
3462 5136 3614 3789 
4692 749 696 4447 
830 749 4692 4447 
3767 1862 3133 139 
4693 1050 1017 1083 
4693 4542 1083 1017 
595 630 585 3984 
3767 4073 1964 3057 
1642 2072 4694 4006 
2072 3608 1642 4694 
3840 4694 1642 3608 
793 2731 2645 2607 
2731 4387 2645 3546 
669 3977 694 4169 
4049 4169 669 694 
4699 4171 4910 3713 
2721 4699 387 340 
387 4695 275 340 
548 3861 601 3362 
4696 793 2607 4820 
4820 793 5006 4696 
3556 4696 4794 4151 
2357 3006 2956 4724 
4939 735 4724 4762 
2956 2357 4724 4762 
3054 435 445 414 
4998 4484 4435 1214 
4698 1214 4484 1190 
354 387 4204 4695 
354 387 4102 4204 
2721 387 4699 4102 
387 4699 4204 4695 
2637 4700 3905 373 
4700 373 2637 451 
4292 782 765 714 
2190 765 714 4292 
4862 4689 4829 1927 
4627 3725 4689 4444 
4444 1927 4689 4862 
3517 1642 2175 4701 
3272 4917 4702 3871 
3871 4459 4702 3272 
3272 5203 4380 4703 
132 178 4462 149 
4327 422 4403 480 
4403 480 422 474 
4900 2797 2684 4704 
4900 5161 2684 2797 
3609 4704 2684 3470 
4398 4705 1295 1353 
4355 4017 4398 1295 
4509 3745 1409 1414 
4509 1397 1409 1382 
1409 3935 4509 1414 
1397 4509 1409 3935 
4677 4139 4153 2900 
4153 4396 4677 1205 
4677 4153 4139 4396 
4153 4396 1118 4139 
3456 3922 4076 3468 
1127 1077 3397 4354 
2380 4354 3397 1077 
538 4707 4366 534 
538 3748 464 4707 
538 4707 464 4366 
3260 3648 3802 4984 
2785 4203 4984 2864 
4708 268 2288 2782 
4709 4117 4837 3206 
4760 144 4117 3951 
4709 3951 4117 3206 
5094 1692 4709 1658 
1378 1406 4715 1394 
1406 1500 1408 4715 
1406 1408 1378 4715 
1394 4715 4398 1406 
1406 4398 1500 4715 
1748 4345 4710 4363 
4420 5057 4711 4528 
5098 4515 4712 2198 
2198 4712 5098 561 
4712 658 5098 561 
1313 1325 1301 4713 
1301 4713 1252 1319 
4591 3895 3753 4713 
4713 4591 4180 3753 
2631 3628 3554 4406 
2262 4406 3628 3384 
2512 3010 2274 2661 
3010 4573 2661 1654 
4629 4616 427 4473 
1283 4714 3066 1233 
1268 4714 1308 1278 
1233 4714 1268 1278 
1352 3666 1719 1337 
579 478 4485 483 
478 4538 519 4485 
1356 1378 4715 1394 
3391 1353 4715 4398 
1353 3391 4715 1304 
73 127 4716 103 
4716 3773 3777 4063 
4716 127 3743 133 
4716 3777 4115 4063 
4716 3743 3773 133 
3150 3264 3108 4717 
4717 2325 3264 4211 
3606 4211 3264 2325 
4422 3957 3480 699 
699 752 4422 666 
492 4839 4718 509 
460 4718 4839 511 
460 420 4718 2975 
460 2975 4718 4081 
420 4718 492 460 
4081 2975 4718 3723 
4735 2404 3788 2256 
3063 4719 796 2360 
4719 796 2360 3394 
4719 796 3394 4189 
934 1002 2087 2953 
3220 3784 5187 4720 
3291 4721 4947 4271 
433 4925 5014 3186 
4047 2894 368 3186 
3198 154 4441 4297 
5158 3047 3768 4184 
331 3322 334 3659 
3659 347 3322 334 
1654 2661 1094 4573 
1654 2661 3116 1094 
3496 3268 3865 2853 
3496 3268 1971 3865 
4153 4677 1254 1205 
1254 4153 3015 4677 
1254 4677 1289 1205 
4677 1289 1303 1254 
1254 1303 4677 3015 
4765 4723 3778 244 
3315 3540 4724 3006 
4724 4782 4780 2446 
2956 3315 4724 3006 
4934 500 3856 4807 
4707 534 4807 4366 
4732 4271 3697 135 
4732 2354 3697 4271 
4732 3294 152 4863 
1845 3872 4725 781 
781 808 4725 3877 
4258 3140 962 4566 
2677 469 4726 3811 
469 4726 2637 2677 
4856 4727 3332 200 
1202 1241 4354 1231 
1188 4354 1231 1202 
2924 1241 4354 1202 
4407 1011 3469 3116 
2857 4453 4405 4130 
4470 3063 4216 2141 
4620 4728 3314 1584 
3198 4441 2729 4297 
673 4000 648 737 
279 3674 4665 288 
288 282 4665 279 
4730 4669 3352 4451 
2155 4731 2605 2832 
2155 4731 2832 2872 
2609 2603 4437 2886 
4733 4530 1636 2294 
97 90 4947 2354 
4947 2354 90 94 
90 74 62 4947 
94 74 90 4947 
3585 4424 3239 4286 
1046 1027 4734 4664 
3013 4529 3806 2637 
2637 4529 3806 3905 
191 4864 252 4462 
4864 3130 4650 3289 
2957 860 806 775 
860 856 2957 806 
775 4166 2957 860 
4166 775 4217 860 
4159 3898 2971 404 
211 4654 278 4864 
191 278 4864 211 
4654 4650 278 4864 
186 3423 2861 2519 
3423 2004 2331 2519 
186 3423 2275 2861 
3423 2331 2275 2861 
3423 2331 2861 2519 
3145 4743 3920 956 
3920 946 2901 956 
1271 4622 4122 3926 
891 4599 3528 4521 
784 4599 3640 4537 
891 4516 4599 4537 
1936 4547 2404 4735 
1936 2404 3788 4735 
2335 3153 1936 4735 
1936 3153 4547 4735 
2200 2815 4736 4820 
4736 2815 2731 4820 
4736 2731 710 793 
2647 2631 3170 3121 
4133 4225 685 660 
5080 4133 685 4624 
3811 2315 4577 2990 
4405 3884 4105 468 
3834 4999 244 4604 
4308 4604 3834 244 
4126 4627 4828 3725 
4546 1050 4693 1083 
3145 4546 4693 3248 
4344 3764 4515 2113 
4737 4515 3668 4344 
3254 3012 2514 3495 
954 4738 3623 871 
3619 3342 3420 5145 
5145 5109 3342 3420 
4739 1860 3242 2943 
4739 1860 2943 3321 
2943 3321 3323 4739 
4954 4975 4940 4381 
4839 556 511 4718 
3723 511 556 4718 
2336 3428 2052 4143 
2288 4059 4143 3428 
4059 3428 2336 4143 
1111 4874 1081 4197 
3404 4182 3036 4740 
3514 4740 2750 2819 
4623 1164 3628 4994 
3628 2906 4948 4623 
3997 1747 1475 4343 
3997 4385 4343 1475 
3351 4202 4164 3562 
4214 2281 3116 4274 
3469 3116 4274 4214 
804 4744 866 4219 
3557 4744 866 888 
4744 4219 3557 866 
947 943 952 2899 
43 4822 4745 68 
3956 4822 4745 43 
2929 2702 1267 2924 
4074 2015 3524 2432 
4333 4882 3097 2822 
3158 2541 3926 3515 
3515 3926 3158 3579 
4484 1114 1153 1190 
4359 2780 4746 2798 
2798 2780 4746 3443 
4818 378 4203 4323 
2420 2929 4612 2924 
2924 1241 4612 4354 
2420 2924 4612 4354 
4676 211 4748 4372 
3219 3544 1099 1066 
4315 3818 2390 2347 
3818 2347 4315 4340 
3218 5080 4133 3964 
603 647 4749 673 
726 4094 4749 4642 
726 690 673 4749 
690 673 4749 647 
4190 2424 1191 2821 
4751 3520 4001 2706 
4751 2769 2706 4644 
4751 3520 4617 4001 
4751 2706 728 4644 
4751 2706 4001 728 
4298 3555 3987 4255 
569 3634 3176 4304 
569 3634 4304 4982 
3017 5096 3714 3728 
3017 3714 4390 4666 
838 4635 3173 761 
838 3173 4635 2986 
3173 2986 3984 4635 
3984 761 3173 4635 
903 911 4393 4752 
903 4752 4393 910 
4393 930 4626 910 
807 4531 4744 4563 
5201 3675 3557 3722 
3719 3860 4416 2436 
3761 4812 4268 1559 
4812 3203 2351 3761 
368 376 4753 377 
368 4753 405 377 
4262 415 2894 4753 
368 405 4753 4047 
368 2894 4047 4753 
1404 4761 3759 1405 
4057 3754 4318 3387 
3754 4057 4318 4143 
4969 4208 4364 5011 
4969 2032 253 2082 
5184 2443 4756 5194 
3448 4921 2913 3319 
4304 447 4010 503 
4010 4304 4047 447 
4459 4526 5183 3364 
5183 5184 2649 3593 
1501 3116 4407 3035 
967 4002 1501 4407 
4407 3035 4609 1501 
4609 4002 4407 1501 
3785 4241 2815 4173 
4241 2820 4173 3785 
1321 4646 3128 2640 
1321 4468 4646 2640 
4760 4117 4709 3951 
144 5048 3951 4760 
2062 3529 164 4760 
4760 4343 3529 4709 
3015 1312 3753 3895 
1321 4646 4461 3128 
4850 1358 4350 1420 
2399 1598 3972 4069 
3896 4360 2477 3505 
3855 4155 3505 4360 
3505 4155 3896 4360 
367 346 3659 3322 
334 331 4722 3322 
346 3322 331 3659 
3659 3322 347 403 
4707 403 464 4366 
3322 4707 403 3748 
334 4722 347 3322 
3693 2146 2347 4763 
4056 4340 4558 4763 
3693 4763 2347 4303 
4558 4340 4565 4763 
1125 1113 2801 1172 
1191 2801 1172 1125 
4810 1125 2801 1191 
3848 1147 4306 1091 
1147 3848 4306 3829 
3829 2988 1147 3848 
1091 3848 1147 1094 
4764 798 3892 3929 
2826 798 4764 2189 
2189 798 4764 3929 
4826 4425 701 844 
4792 1131 4197 4874 
2483 4171 2465 2138 
2465 4449 2138 4171 
2982 2602 4171 2138 
2138 4171 2982 2483 
2602 4449 4171 2138 
4149 3670 3348 4245 
1686 3323 3303 2867 
4739 3303 3323 2867 
4739 3321 3323 3783 
3783 3303 4521 1686 
3697 191 149 4462 
4478 4777 4676 132 
132 3697 149 4462 
4598 4676 4372 191 
4765 2922 244 3778 
526 545 4473 497 
466 431 4643 4672 
5049 4672 466 4643 
562 2321 4979 4269 
3710 1957 4049 2321 
3701 4646 1421 4461 
3425 4461 1421 4646 
2486 2832 3547 4346 
4346 2832 3547 4653 
3263 4733 1636 4683 
5202 4916 3263 4733 
1357 4048 1328 3174 
4048 3174 1357 3548 
2560 927 1007 3229 
3806 4657 4234 181 
181 4234 3806 3013 
4657 3724 4234 181 
1601 2650 3190 4797 
3192 4797 1601 3190 
864 2855 870 4766 
3944 2259 3394 4189 
4189 3944 2259 4557 
3410 3763 4313 5150 
5184 3763 4313 3410 
2827 4321 3961 4067 
4321 3740 4067 2827 
451 373 1878 4342 
3107 3387 4342 4921 
2830 807 3675 4744 
2830 872 4744 888 
4669 926 4556 942 
4669 970 4556 4637 
3898 3857 2853 3865 
1015 1030 4587 4566 
1023 1131 1090 4107 
4131 830 777 861 
4131 4517 861 777 
3139 2974 589 4464 
3371 1358 4458 4813 
4458 1381 1358 3371 
4768 4740 992 4955 
4678 3834 3902 4246 
4424 2857 4053 3239 
4424 4053 2164 3239 
2259 4821 1639 3877 
4868 136 135 4732 
804 1596 4744 4219 
4769 4393 990 933 
4393 4769 911 933 
4771 2527 4990 2118 
4990 2527 4771 2476 
2476 3599 4771 5085 
5177 4444 4620 3314 
4243 4892 4620 4728 
4841 2294 2349 4443 
1536 122 4823 2183 
4872 2183 134 4823 
4543 3171 4772 5052 
2578 2706 3520 4270 
5036 2753 4103 4871 
3409 4773 2531 1822 
3153 3731 3635 4547 
4547 3731 3635 3678 
4155 3887 4360 3855 
4695 4877 262 256 
5021 3674 4643 431 
2708 2687 4085 4774 
646 762 4085 3209 
4380 4899 4459 4747 
4747 4703 4459 4380 
5192 4299 4408 4444 
4049 4269 4966 4169 
4669 4637 4556 926 
3385 4775 2169 4205 
4225 5081 4133 685 
4133 5081 3706 685 
53 49 3367 4776 
3367 49 54 4776 
3646 2813 3755 2927 
2811 1305 4622 2613 
2613 1305 4622 4122 
3471 4589 4777 4943 
94 3697 4777 111 
4063 4115 4248 3777 
4228 982 4621 932 
2451 3315 4778 3573 
790 4778 3315 3573 
4537 4516 4778 851 
4537 4778 790 851 
2924 2688 1202 4354 
1565 3685 3820 1861 
3820 3930 1565 3612 
3820 3685 1565 3930 
3872 781 1649 4779 
4642 4094 4411 783 
4094 3173 783 785 
4411 4094 3173 783 
4782 1924 4596 4560 
3885 4782 3764 2113 
4191 1350 3317 2424 
5049 4553 4643 466 
2250 4783 792 694 
2103 4783 792 2250 
4783 3977 4169 694 
4169 2722 3977 4783 
792 2103 2248 4783 
2327 4784 3190 2283 
3190 4487 2283 4784 
790 4778 4537 4724 
790 3315 4778 4724 
4785 2900 4677 4005 
2900 4005 4785 3516 
4785 4483 2900 3516 
2484 3424 3255 2195 
4909 3087 1081 4575 
3087 4197 4909 1081 
3107 4342 1878 3328 
373 3635 1878 4342 
3387 4342 1878 3107 
4403 422 394 474 
509 4403 480 547 
2296 4539 2308 4506 
4878 51 4673 4787 
3324 3779 4333 4445 
3324 2534 3779 4445 
1104 3558 1049 1174 
2435 4243 4788 5178 
5178 2435 3076 4788 
1213 3082 2488 4998 
4789 3716 693 4635 
4635 3716 625 4789 
1289 4677 4396 1205 
4790 2589 2815 4606 
2815 2200 4790 4089 
4790 2815 2589 2200 
2815 4089 4790 3384 
4606 2815 4790 3384 
4790 4648 2200 2589 
4535 1000 4792 3087 
3950 2718 2722 2415 
3798 3534 3316 4307 
5145 3798 4307 3534 
1321 3128 4298 2640 
3055 3427 1884 3807 
3341 1884 3427 3807 
4063 3390 3777 4248 
4718 420 492 432 
4718 4549 432 3627 
4590 112 97 4885 
4244 4885 5152 4928 
4730 986 4451 3352 
473 3354 510 4540 
4540 3354 510 443 
4810 2424 1191 2801 
793 3326 4794 2645 
394 3322 331 346 
5184 4756 2649 5194 
227 3018 4896 3081 
652 4422 666 602 
4422 652 578 602 
2477 2945 4125 4036 
3883 4036 4125 2945 
4266 2992 3490 1344 
4150 1344 2992 4266 
4266 1344 3490 2537 
4266 2537 4310 1344 
4150 4310 1344 4266 
97 4590 4291 90 
4590 4589 4291 90 
4788 4603 2435 3076 
4798 324 4901 4237 
4799 215 5015 238 
4753 405 377 4010 
4753 405 4010 4047 
394 3322 4800 365 
4196 4985 492 474 
5197 4380 3654 2536 
2536 1635 3654 4706 
2404 4433 3282 1936 
4788 4969 4351 4364 
2436 4498 4804 4416 
5182 4416 4804 4601 
4832 4498 4601 5180 
2436 4416 4804 5182 
1152 4805 1135 3513 
1152 4805 3513 1290 
3200 2285 1906 3805 
3776 4767 3200 2285 
475 4374 3737 4414 
4284 3277 1855 4806 
2739 3277 4806 1855 
4284 4806 1855 4999 
4561 4806 4999 1855 
4561 2739 4806 1855 
4707 4961 3622 4934 
4807 423 4366 500 
4807 534 500 4366 
2574 4907 2170 4875 
3488 3339 4907 2574 
4143 4404 2990 4318 
3754 4318 4404 4143 
4703 4845 3654 4426 
3654 1635 4747 4426 
4809 3641 1372 1379 
1404 1379 3641 4809 
4810 1115 1160 1148 
1160 4989 4810 1148 
4799 4455 238 274 
2994 4592 4886 4365 
2994 4365 4886 3986 
4365 4592 3261 2994 
5056 4592 4886 2994 
2016 4275 3650 3273 
4398 1347 4705 4129 
2589 4811 5081 2703 
4811 2703 2572 3217 
2703 2572 2589 4811 
4811 3217 4133 2703 
4811 2703 4133 5081 
4811 5081 4133 4225 
4448 426 392 444 
392 4278 426 4448 
5115 4448 392 444 
1017 4693 3831 992 
1017 1050 4693 992 
4542 3831 1017 4693 
1358 4458 4813 1321 
4967 1321 4458 3465 
2234 2729 256 4910 
2483 4489 2234 2465 
3732 3372 2317 3072 
5184 3410 4114 2443 
1233 1163 1215 4714 
3066 4714 3232 1233 
4714 1215 1233 1268 
1121 4584 3019 1102 
1121 3149 3019 4584 
2239 4584 3149 1121 
2657 3368 2815 4241 
3785 2657 2815 4241 
4669 4556 4451 942 
4730 4669 4451 942 
4730 4442 942 4451 
4653 4551 3547 4652 
4795 399 395 4799 
4185 2022 3948 4127 
4185 3948 5074 4127 
3996 4512 4095 4316 
1698 4020 3996 4187 
4187 3996 4095 4620 
1130 1176 4197 4817 
4817 1130 1152 4197 
4458 4967 4813 1321 
3249 4458 1358 1321 
1307 3513 4670 4805 
1307 3756 2797 5084 
1307 2797 4704 5084 
2986 838 2855 822 
3763 4526 5150 4702 
4193 4334 3913 2568 
2802 2022 3948 4185 
2802 4639 2022 3512 
4639 2022 3415 2802 
603 647 610 4749 
4749 603 547 610 
2521 4294 1484 3343 
3760 4392 4229 2852 
4186 2287 4261 4312 
2349 2806 4443 3966 
2287 4443 2349 2806 
3466 4140 3183 2754 
2916 4623 3628 3600 
4466 2906 4051 4623 
3600 2916 4051 3469 
4623 2916 4051 3600 
4357 3428 3887 4514 
3242 4739 2943 2867 
2943 4739 3323 2867 
2495 5201 4491 5095 
4154 3259 4418 4359 
3519 1082 3232 1163 
44 4063 4248 3390 
4713 1301 1308 1325 
1301 1268 4713 1308 
1252 1268 4713 1301 
4713 1308 4714 1325 
1308 1268 4713 4714 
1194 4188 1236 4218 
4089 4696 2607 4820 
4820 4696 5006 4089 
793 4820 2731 2607 
5006 4820 4736 793 
4736 4820 2731 793 
4181 1639 4270 4821 
3798 2642 359 454 
3420 2642 4083 3798 
3798 3420 2642 454 
4745 4822 54 68 
3956 4822 54 4745 
3367 4776 54 4822 
3956 3367 54 4822 
236 4932 234 4824 
5186 4879 4824 4070 
4781 855 4742 3588 
1692 4343 3792 5094 
4628 409 4538 478 
4170 3348 4825 2751 
4825 586 633 4038 
4825 3482 586 4038 
4825 4149 3348 586 
3482 4149 4825 586 
393 4629 427 4278 
4629 4278 4473 427 
639 4826 4112 4425 
4425 639 4826 701 
3302 3001 2354 2699 
3001 3302 3298 2204 
3001 3298 3302 2354 
4531 729 667 4121 
4329 4939 3640 2598 
3640 4939 4724 2446 
4827 139 3133 1862 
3089 4627 3881 3725 
1182 4255 4546 1112 
1112 3199 4255 4471 
4546 4255 3248 3145 
544 4452 542 522 
522 4452 496 544 
2451 3540 4778 3315 
2946 4689 4829 4816 
2946 5211 4829 4689 
830 4131 4217 4550 
877 4131 4550 4217 
403 3322 347 423 
4807 423 403 4366 
780 4081 3723 2855 
3723 780 2855 837 
3772 4311 3827 5065 
3967 4334 2775 2611 
2369 3967 2775 2611 
1265 1276 1320 4224 
1221 4224 1276 1265 
1083 4546 1112 1156 
4546 1050 1083 1112 
655 625 4635 3984 
4789 4635 693 655 
655 4635 625 4789 
3410 4656 4830 2443 
4338 3410 4830 3845 
2443 1738 5194 4656 
1738 4830 2443 5124 
4971 3998 4150 4831 
4890 1179 3336 1225 
4283 4831 4266 1117 
5180 4498 4601 5179 
1636 4530 5149 4832 
3898 2853 381 3496 
2662 4660 4833 4604 
2636 4660 4331 2662 
2662 4660 4331 4833 
2743 4331 3679 4561 
4331 4833 3679 4561 
1936 3126 4547 3153 
3126 3635 4547 3153 
4763 4303 4340 2347 
4565 4340 2347 4763 
3654 2436 3247 1697 
2436 1697 5104 3247 
3247 2984 5162 4380 
2488 4658 4950 1235 
2488 4834 1235 1245 
3676 3463 2333 3823 
4790 4089 2262 3384 
4089 4406 2262 3384 
3471 4777 4478 4943 
211 4863 3697 194 
1427 4836 1435 3443 
1435 4836 2780 3443 
4555 3602 3381 2673 
4555 3602 2651 3381 
2083 4043 1879 563 
563 4043 2365 3970 
2083 4043 2164 1879 
2083 4043 563 3566 
4536 5186 5196 5187 
4345 2839 4363 4893 
4345 5122 4930 2839 
4612 1264 1255 1241 
4354 1241 1255 1231 
4354 1241 4612 1255 
5021 4237 2232 4798 
3087 1023 3886 4197 
3087 1023 4197 4792 
2344 4006 3517 4534 
856 4557 4194 2957 
806 4557 856 2957 
509 556 4839 4718 
1236 4218 4188 4638 
4188 4218 4107 4638 
4638 4484 1214 1175 
3408 1000 1081 4201 
383 4159 3496 4508 
3395 426 4881 3561 
2824 4840 4855 3672 
4088 4840 4855 2824 
2287 4841 2349 4443 
4778 2176 4599 2337 
3036 4743 4740 4182 
4743 883 4857 4740 
456 545 3361 520 
4584 1102 3672 3019 
4584 4840 3672 1102 
2413 3032 401 2264 
401 2413 4770 3032 
3251 2873 401 4770 
689 605 4842 660 
605 2673 4842 3283 
4842 4555 605 689 
605 4555 4842 2673 
4624 605 4842 3283 
605 4842 660 4624 
3797 3247 4894 3175 
3633 4585 4023 3712 
4023 4585 4025 3712 
4493 3190 5193 4092 
4797 4087 2650 4092 
3304 4092 4667 3750 
4092 3304 4493 3190 
3192 4110 4797 4092 
2650 4092 4087 4992 
4092 2515 4992 5193 
2603 3198 4222 4297 
4297 2729 3198 4222 
3950 2708 4425 4099 
1519 2923 4844 4847 
4426 4845 2436 5148 
3654 4703 4747 4380 
4703 5203 4380 4845 
4380 3247 3654 4845 
4805 3513 4670 1135 
761 3984 3173 724 
3173 4411 724 3984 
5167 5090 2860 4954 
5167 4463 5090 86 
1001 3980 4626 4221 
5180 4530 4498 2350 
2350 4498 5180 5179 
4598 4478 4676 132 
5074 146 4958 3512 
4185 3948 4958 5074 
4843 146 168 4958 
3345 2768 4846 462 
3651 5025 4847 5062 
4854 2923 3966 4847 
4847 3651 2730 5025 
980 4407 5082 4848 
1034 980 4848 3027 
1034 980 5082 4848 
980 4002 4407 4848 
3027 4002 980 4848 
4496 2374 2709 3508 
2678 2227 4496 3508 
2678 3508 4496 2496 
2496 3508 4496 2709 
3315 3540 4778 4724 
931 1721 2960 3837 
4421 4279 803 3270 
4849 4311 4675 3714 
4476 1173 4165 2488 
4476 1173 1128 4165 
3701 4972 4350 4850 
3417 3712 124 3773 
4752 930 4393 910 
2900 4677 4483 4785 
4785 4483 3516 3391 
4243 4499 2833 4788 
4788 4316 2833 4243 
5178 4499 4243 4788 
4851 3886 1174 1193 
1104 4851 1174 4957 
4851 3558 1174 3886 
1174 4851 1193 4957 
4851 1104 1174 3558 
5063 4178 3719 5064 
3692 5063 3651 3719 
4176 3719 4178 5064 
3719 3692 5063 5064 
4852 1028 1009 1045 
2197 1026 1045 4852 
4852 1040 3544 1028 
1009 1045 1026 4852 
4767 506 3200 2285 
4606 3384 3600 2916 
3600 3469 4606 2916 
1331 3895 3753 1312 
4096 1002 4853 2932 
4096 2932 4853 2950 
4597 4096 4853 2950 
5092 4330 4365 4886 
46 5079 39 48 
1212 4500 1172 1191 
1212 4500 1191 1237 
2801 1191 4500 1237 
2801 2424 1191 1237 
2801 4500 1191 1172 
3933 4088 4956 4855 
4855 4840 1102 3672 
4956 4840 1102 4855 
1142 4664 4734 1096 
1142 4664 1118 4734 
3515 3684 3579 1067 
3684 1067 3515 4576 
3926 4576 4309 3684 
3684 3579 3926 3515 
3629 4921 2214 535 
4921 2214 535 3387 
3184 3632 4505 4651 
3632 4324 4505 4651 
4324 4651 3632 3513 
1415 3873 1419 2741 
1428 1435 3919 4850 
3919 4850 3701 1428 
3919 3701 1421 1428 
4850 3873 1435 3919 
3873 1419 2741 3382 
4541 3654 2436 2533 
4541 1697 2436 3654 
124 3633 158 4031 
4856 168 234 200 
3948 234 4856 168 
3220 5196 5187 4856 
234 4727 4856 200 
234 5196 4856 4727 
292 287 249 3744 
3744 292 287 333 
3744 333 287 3774 
287 3744 3774 249 
2783 1854 2662 2636 
4177 2927 4299 4409 
2297 2927 4177 4409 
2213 2023 3048 3809 
4768 4857 4955 817 
4743 4857 817 4955 
2901 946 943 960 
1683 4858 596 650 
3948 3220 2802 4856 
3948 2802 4958 4856 
4859 3518 4513 3891 
4859 4065 3518 3213 
4859 3518 3891 3213 
719 737 4421 4860 
4421 737 803 4860 
4421 4860 803 4279 
4579 2344 4245 3979 
4579 4245 3348 3979 
447 4047 405 4861 
4861 405 5014 4047 
3802 2732 4399 4830 
4830 3802 2732 4338 
3727 245 147 3743 
245 3743 4014 147 
3743 245 4014 4042 
3926 2541 1271 1217 
191 3697 211 4863 
4863 4864 3130 4654 
252 4650 4864 278 
252 4864 4650 3289 
4863 191 4864 211 
4617 2769 2314 3520 
2715 2714 5031 3735 
4865 3165 1677 2373 
4261 2806 4186 2970 
4201 1154 4803 2550 
4668 4866 4998 4188 
421 3916 493 3180 
5056 4545 4592 2994 
421 493 476 3180 
493 3180 3916 4086 
4977 4817 1152 4197 
234 3220 5196 4824 
5196 5186 4824 3220 
668 4963 4531 621 
3253 621 4963 668 
4963 3253 668 4558 
4565 4963 4531 668 
668 4558 4565 4963 
3283 4624 3218 3844 
4560 2803 3710 2298 
4877 354 4486 4695 
4204 4486 354 4695 
4699 4910 4204 4695 
4486 4910 4695 4204 
1081 3408 4904 4575 
4575 3087 1081 1000 
2657 2701 3546 2607 
2657 2607 2815 3368 
2815 2657 3546 2607 
4533 5204 4325 2732 
2895 4533 4583 4325 
5205 5204 4533 2732 
3252 2150 4300 2824 
3918 2150 3252 2614 
2150 3918 849 2614 
3654 1635 4899 4747 
4845 4703 3654 4380 
4940 77 3843 93 
4830 3260 4399 3802 
1046 4396 4305 990 
3421 4305 4396 990 
4572 903 3837 3461 
2435 4867 4243 5178 
2435 1694 4243 4867 
2211 1136 2239 1121 
2211 1136 2820 2239 
4202 3562 49 4946 
941 985 970 4556 
4556 3398 941 985 
1522 3848 1091 1094 
1025 1091 1522 3848 
4600 855 4951 689 
4600 743 3637 4562 
1116 4605 1084 1294 
2242 4392 3760 4927 
2011 4392 2242 4927 
86 83 89 4607 
2407 4869 2855 4256 
4766 4869 864 2855 
5013 4925 4861 462 
5207 4962 2806 4186 
4139 1046 1118 4664 
4664 1046 1118 4734 
4572 903 900 3837 
997 4566 962 987 
1523 4635 761 723 
4635 761 838 1523 
2603 308 3198 2886 
2603 3198 308 4222 
4082 2603 308 4222 
4725 808 4608 3877 
328 325 4389 408 
2753 2227 2531 4773 
4871 2753 4773 2227 
4622 4808 3926 1134 
1134 1110 1123 4622 
881 2025 4376 3927 
1704 1734 3835 1706 
122 2183 4872 4823 
3927 924 925 920 
1125 4810 1115 1160 
3893 3331 2777 3429 
705 3429 3331 3893 
4752 911 4393 4873 
942 4873 4393 4769 
3761 2351 3763 4905 
2351 4632 5101 3763 
2351 4632 3763 4905 
3593 3364 3763 1743 
1743 5194 3763 3593 
4953 2936 1819 4896 
4953 1819 163 4896 
3452 2291 1399 1418 
2927 1733 3339 3711 
3839 4396 4386 1289 
3839 4677 4396 1289 
1287 4655 1226 1950 
5158 1388 4469 4184 
3852 386 2551 339 
2160 2551 386 4339 
2551 386 4339 339 
3926 3515 4576 3684 
4405 4105 3884 2524 
4405 2708 3950 4099 
4445 3222 2534 4263 
49 4878 4673 4787 
4878 4946 5116 45 
4946 4878 5116 4673 
3855 4155 3887 4514 
4155 4357 3887 4514 
4769 4873 4393 911 
3482 2376 3602 4149 
3602 3482 4825 4038 
3482 4149 3602 4825 
4543 4220 5055 2351 
3719 3692 5024 2730 
276 240 3727 3639 
608 538 585 4961 
585 534 4707 538 
3148 608 4961 3748 
4489 2729 2234 4910 
256 4910 2729 275 
3480 896 968 4659 
949 968 919 4659 
4659 968 919 896 
194 152 4244 4879 
4364 5151 4502 3989 
3989 4788 4364 5151 
5151 4502 5011 4364 
4374 1971 4617 3737 
4258 3140 3519 3066 
3519 3232 3066 4714 
3190 5097 3280 4992 
4880 146 200 168 
168 4880 3534 4307 
168 200 4880 4307 
1034 3027 4848 4994 
2550 4002 3027 4848 
1344 3686 2683 1366 
1366 1344 4158 2683 
3686 1884 2792 1432 
3686 2597 1884 1432 
2597 1884 2525 3686 
1432 3686 2597 2278 
2278 1380 1432 3686 
3561 552 4881 3861 
4196 4800 3856 430 
3304 4110 4097 3181 
4110 4092 4667 3304 
4351 2903 4316 4501 
4512 4316 4027 4233 
3996 3689 4512 4316 
183 2112 3948 4932 
168 2112 3948 183 
4932 234 3948 183 
3948 234 168 183 
3948 2112 3511 3471 
4091 3808 3211 3437 
4882 3437 3808 4091 
1591 4923 4882 4091 
3808 3437 4882 4640 
4882 4911 3300 4923 
4535 1000 3087 921 
1215 1268 4714 4713 
4719 4189 3394 3709 
4495 4313 3410 3845 
4082 2603 4222 4297 
4297 3658 4082 2603 
4451 4442 990 1046 
4831 1274 1309 2992 
4150 2992 5008 4831 
1274 4831 1309 4283 
1225 4831 1274 4283 
4831 4283 1225 1179 
4893 3525 4363 4345 
4884 1217 5017 1271 
3039 1271 1217 4884 
4884 1271 3021 3039 
1271 4622 5017 4884 
337 2903 4351 2828 
4999 4604 4833 244 
3940 5093 3536 1098 
4589 94 4777 111 
4728 5177 4620 3314 
4675 1598 4227 4390 
1694 4243 5211 4316 
4945 1694 4867 4243 
2531 4347 3409 1939 
3409 2300 5034 4347 
135 4732 136 152 
5081 2731 710 4736 
5081 2703 2731 4402 
97 4590 4885 4291 
112 4885 4590 4244 
4949 5182 4804 5179 
2436 5182 4804 2533 
122 2754 3183 1648 
1648 4872 3183 122 
4302 4409 4457 4030 
4409 2902 4302 2927 
1179 4831 4283 1117 
3908 4191 1350 3317 
3744 5015 4167 4926 
4887 192 213 204 
185 192 4887 204 
4778 2176 4516 4599 
4716 127 133 103 
4716 3417 3773 4063 
3221 4888 3840 2416 
2661 4888 3903 3221 
4522 2661 3221 4888 
4406 3628 3554 2262 
1347 4398 4017 4889 
4032 2773 3427 3341 
3760 3427 2773 1249 
2773 2194 3760 4064 
4824 4372 4932 4676 
4824 4372 4676 4748 
236 4748 4824 5191 
4188 4638 4998 1236 
4998 4638 4188 3082 
4484 4118 4435 4698 
3082 4484 4998 4638 
1214 4484 4435 4698 
3812 4159 2848 4024 
244 4999 3812 3679 
3623 3864 2997 1045 
1045 3623 4096 2997 
3623 1045 2932 4738 
3623 4738 1040 1045 
3623 1040 3864 1045 
3623 1045 4096 2932 
2210 2842 1143 2484 
2842 2961 1143 2484 
21 40 4585 4175 
1193 4851 1204 4957 
4851 1194 4188 1204 
4851 3886 1193 4188 
4732 4863 152 3697 
5055 5052 2351 4812 
4753 3105 2720 376 
377 384 376 2720 
2720 418 376 3105 
2720 418 4679 376 
4679 384 2720 376 
4890 2776 1315 3876 
4890 3336 2776 3876 
1225 4890 4283 1274 
4890 1274 1315 4283 
4680 4891 4351 1703 
4351 1703 4891 3044 
3541 4404 2571 4504 
3621 3670 3348 4149 
4825 3348 3621 2751 
3621 4149 3348 4825 
1950 3134 4661 1126 
4176 5061 2436 5064 
4678 4674 433 404 
433 4674 4678 4246 
433 1484 2738 4062 
5158 4184 3768 1388 
5193 3190 3965 2327 
4024 4159 2848 2971 
4024 404 2971 4662 
3812 2848 4159 4723 
1747 3477 4343 4895 
155 165 4896 171 
194 184 4654 152 
257 194 184 4654 
4863 4654 152 194 
3465 4542 1199 4578 
2783 2074 5092 2676 
5092 2783 4503 3986 
2783 2676 5092 4503 
4889 4224 1320 4510 
3769 4889 4510 4224 
1321 3465 3248 4458 
3076 3989 4788 4364 
4710 1748 4343 3529 
3319 4921 3754 4033 
4282 2657 3785 4584 
5121 4530 2350 4498 
4897 3867 4544 3304 
4897 3675 4568 3791 
4897 4568 2836 3867 
4897 3675 3791 3853 
2902 3646 3755 2927 
2902 2927 3755 4302 
1225 4971 4831 1179 
4080 1189 4165 1232 
4165 1189 4476 1232 
3485 2189 1649 2154 
3485 2189 2154 2826 
2826 4764 3485 2189 
3485 3929 1649 2189 
2189 4764 3485 3929 
1221 1291 1276 4681 
1276 2961 1221 4681 
4898 653 4152 5085 
233 2648 5157 3040 
3609 4900 4704 1307 
3609 4900 2684 4704 
4799 4795 254 230 
2681 4901 312 4250 
4798 4901 312 4237 
3461 910 4393 4221 
1001 4626 3863 4221 
4439 3768 5158 4903 
5158 3047 4903 3768 
4493 3304 3274 3190 
4892 4499 4728 4243 
2981 2844 4858 2213 
2213 4858 596 2844 
4890 1122 3336 1179 
1122 4890 4283 1179 
2983 4780 3580 1860 
4739 3580 1860 3321 
1748 3529 2062 4343 
3220 5153 4070 4824 
3220 4070 5153 4720 
3651 3719 3738 2730 
3738 3651 2730 4847 
4959 668 4531 621 
621 668 4124 4959 
724 4934 4961 676 
676 4961 724 745 
4006 2072 3422 1906 
2688 1248 1189 4080 
2688 1248 2702 2924 
2828 2903 4351 3044 
4321 4904 1111 1081 
4904 3408 1081 4321 
3184 4904 4575 4909 
4904 4909 1111 1081 
3871 4905 5071 3761 
1860 4780 3580 4739 
4906 3395 4448 5115 
756 4642 726 803 
3428 3887 2288 4708 
4357 3428 4708 3887 
4907 3339 4875 2574 
3679 2743 2848 2447 
3679 4331 2743 2447 
1212 4500 1188 1172 
1172 1127 4500 1188 
3852 4611 2492 312 
3691 4611 312 2492 
3697 191 4676 149 
191 3697 4863 4462 
132 4462 2354 3697 
2354 3697 4462 4863 
4864 4863 4462 191 
4566 987 1021 1015 
3819 4180 1044 4591 
1015 4587 1021 4566 
2329 4038 2651 3344 
3478 2952 4619 4514 
4514 4619 3478 3428 
3422 1906 3805 3200 
3791 3853 4959 4931 
538 4707 585 4961 
4961 630 585 608 
674 4961 3148 608 
538 4707 4961 3748 
3748 4961 538 608 
630 674 608 4961 
4909 3558 3087 3184 
4909 1104 3558 3184 
3087 4909 3184 4575 
4699 3713 4910 4695 
4699 3713 4695 340 
3922 4326 308 4082 
4222 3922 308 4082 
4461 4350 4972 1358 
4972 1358 4350 4850 
3893 4911 1591 4923 
4990 3373 4898 3296 
4911 3893 1591 4152 
1591 4640 4911 4152 
4882 1591 4911 4923 
4882 4911 1591 4640 
3352 3819 3015 2900 
3352 3819 2900 3398 
4057 4912 2222 4360 
3855 4912 4360 2222 
3844 4912 3855 2222 
4360 2288 4057 4912 
4033 4057 3754 4912 
2551 4339 4913 339 
339 4148 4913 311 
339 2551 311 4913 
339 4488 4913 4148 
4913 4339 4602 339 
4913 4602 4488 339 
1971 4508 3285 3230 
3496 4508 1971 3230 
1143 1221 4224 2484 
4224 2484 2210 1143 
1221 2961 2484 1143 
1256 4255 4546 1182 
4298 4255 3987 3248 
3849 3681 4518 1136 
3681 4088 4956 3933 
501 543 578 1488 
575 501 515 578 
575 1488 551 517 
3399 827 871 4914 
762 827 3399 4914 
871 3399 4914 4659 
1488 600 613 532 
2671 1864 3708 324 
3708 3100 2671 324 
717 689 4179 685 
2250 3977 694 618 
4783 3977 694 2250 
521 4964 4086 541 
4964 541 4397 4086 
4964 4086 4397 490 
429 490 4086 4964 
493 4086 521 4964 
775 2957 705 738 
775 2957 738 806 
1484 2162 705 2957 
2162 1484 705 3331 
4391 3807 3341 3427 
2488 4484 4998 3082 
4118 4435 4698 2779 
3948 168 4843 2112 
3948 5074 4843 4958 
3651 5063 5062 4916 
3719 5063 3651 4916 
234 4856 5196 3220 
1559 3157 3871 4917 
4917 1559 4702 3871 
729 4531 3675 807 
807 4138 3675 729 
4886 4918 4365 4592 
4918 5056 4592 4886 
578 652 4422 642 
3486 815 976 1487 
582 3355 543 515 
582 560 3355 515 
473 3354 4540 3913 
4540 427 473 3913 
2176 945 1138 961 
473 2974 3354 4278 
473 4278 3354 3913 
4200 4266 4831 1117 
3998 4266 4831 4200 
4571 5084 4704 3470 
4571 1307 4704 5084 
2058 3430 3399 4914 
3399 4914 3430 646 
2730 3854 3738 4919 
1400 4920 3641 1398 
5141 1518 4697 5112 
5150 4220 3410 2351 
4543 3410 5204 4220 
194 4863 4654 211 
2827 3408 3740 4609 
2827 3408 4321 3740 
2550 3408 4002 3740 
357 337 4199 2828 
2828 4351 4199 3044 
4351 4969 265 4199 
4411 3627 3856 3984 
4411 3627 4196 3856 
3903 3840 3667 3608 
3903 3010 3667 3840 
3157 5005 1559 3871 
3761 1559 5005 3871 
3761 4268 5005 1559 
4860 779 4586 4279 
4215 1862 4052 3133 
4215 4052 3131 219 
3767 4073 219 4215 
2600 4062 1484 4923 
2600 4091 4062 4923 
4091 4923 3185 4062 
1160 4924 1191 2821 
875 832 803 3270 
4677 4396 4139 4483 
4925 4861 5014 4047 
4925 5014 3186 4047 
3916 2769 3180 4617 
3737 4617 421 2314 
4926 197 199 216 
4926 197 216 217 
199 4926 185 197 
4876 4786 4926 3774 
3845 3410 4114 5184 
4980 2242 4927 2011 
4718 2975 4549 3627 
432 3627 4196 4718 
4714 3519 1163 1215 
135 3697 4244 112 
4271 3697 135 112 
4543 4772 2856 2351 
4543 3171 2856 4772 
2856 2351 4772 3203 
4244 5153 5002 4928 
4244 4885 4928 112 
5181 4930 3529 2545 
4931 4124 3853 4959 
4991 4410 2495 5095 
4493 3011 4991 4097 
4189 4557 2259 4821 
4304 4047 5013 4925 
5013 4047 4861 4925 
3410 1701 4656 5194 
4656 1700 5194 1701 
236 225 234 4932 
4824 4932 234 3220 
3948 234 4932 3220 
4932 183 225 234 
585 4934 534 3984 
3984 724 4934 4411 
3972 3966 1519 3026 
2806 4497 3966 3026 
3972 3966 2923 1519 
4364 3835 1704 1734 
4364 1704 3835 4199 
1398 4005 1400 4935 
4902 4935 1400 4005 
4351 337 4199 315 
5150 4495 3410 4220 
4428 4643 2159 3674 
4643 2159 4672 4428 
4770 2873 5111 2818 
4421 737 4642 803 
4421 3270 803 4642 
1501 1094 1522 4937 
1501 4937 1522 974 
3909 312 5021 3674 
4181 3877 4821 4608 
4003 4181 4270 4821 
5106 1199 1275 4048 
4048 5087 5106 1199 
404 2853 381 3898 
404 3498 2853 2971 
4888 1094 1147 4522 
3197 4938 3104 1915 
4450 4329 701 2598 
107 96 114 95 
2927 2297 2030 4457 
78 2500 3971 4940 
3842 4567 3637 921 
3842 4575 4567 921 
4245 4534 2979 2344 
549 2979 4245 4534 
4205 1317 4976 3569 
492 460 4718 4839 
4345 4941 4363 1748 
164 4941 4345 1748 
4286 4942 3884 468 
4652 4942 4551 3547 
2465 4486 4449 4171 
1098 1038 3940 1064 
1038 971 1054 3940 
4384 2846 4757 2571 
3868 2175 2619 4358 
3868 3517 2175 4358 
2175 3517 3868 2344 
4579 2175 3868 2344 
3868 2175 4579 2619 
4943 4589 4777 111 
4943 4777 4478 111 
4129 1397 4398 1382 
4398 1397 4509 1382 
1382 1347 4398 4129 
4889 3769 4509 4398 
237 217 209 4876 
209 237 4876 2778 
4295 2619 4133 4811 
4295 4811 4133 4225 
3675 4491 4544 3552 
3675 4138 4544 2836 
4138 3675 4544 3552 
4544 3675 4097 4491 
417 415 2894 4262 
4909 1135 4197 1104 
3871 4459 3364 4702 
3797 2024 3247 2123 
4380 5203 4400 4845 
4380 4400 3247 4845 
4565 4563 888 4744 
4565 4531 4563 4744 
4329 2598 4450 4939 
3109 668 4558 4277 
668 4277 725 4558 
725 4558 4565 668 
3195 3343 2521 1484 
4562 4038 2651 4555 
4555 3602 4038 2651 
2542 4102 396 2890 
4316 5211 4689 4243 
200 3332 146 3762 
3332 3310 146 3762 
3762 3310 146 4618 
1045 3544 2197 4852 
4852 1045 1040 1028 
1633 4338 4830 3845 
4674 4662 4588 2757 
4688 4024 4588 4662 
4688 4662 4588 4674 
3587 4075 5177 4444 
4299 4075 3587 4444 
4444 3587 3314 5177 
4503 2783 4634 3986 
1287 4655 4235 1226 
1633 3845 4830 5175 
4775 3385 2169 3226 
4510 3385 3226 3817 
4947 79 62 97 
62 97 90 4947 
4721 79 62 4947 
4358 4825 4295 4170 
3999 3015 1254 1203 
725 4565 804 4744 
4812 2351 1559 3761 
331 365 4722 3322 
4727 4100 4856 3332 
3332 5123 4100 4856 
2631 3554 3628 4948 
1201 1164 4948 4623 
3628 4948 1164 4623 
4497 1519 3966 3026 
676 630 4961 674 
676 4961 745 674 
674 745 3148 4961 
2533 5182 4804 4949 
2533 4804 5210 4949 
1770 4183 5122 3529 
4658 1232 2488 4950 
4834 4658 2488 1235 
4777 132 4478 111 
2354 111 132 3697 
4733 2349 1731 2294 
4733 1636 4683 2294 
5024 2730 3854 3719 
3719 3738 2730 3854 
4916 3738 3651 3719 
4420 4528 4711 4301 
4878 49 4946 45 
49 4878 4946 4673 
4741 355 1593 75 
49 4946 3562 4673 
4926 254 217 216 
4741 1844 1593 4569 
254 4926 217 258 
2801 1237 4500 3531 
419 377 2720 414 
377 414 384 2720 
998 1018 3736 981 
108 114 4463 86 
2488 4435 4834 1245 
4549 414 435 3054 
4549 414 5120 435 
586 636 1528 2329 
714 1528 636 2329 
4584 4518 2820 3785 
4840 4584 3785 4518 
732 4793 751 740 
3457 4179 751 4793 
3856 3627 3949 3984 
500 3984 4934 3856 
3949 3856 500 467 
500 3949 3984 3856 
3984 4934 3856 4411 
1500 1404 4809 1396 
1500 3641 1372 4809 
1404 4809 3641 1500 
4993 3720 1819 4953 
503 528 463 4010 
4600 4951 743 4562 
4600 5155 743 4951 
1104 4851 4957 1135 
3901 3713 4222 2729 
3901 3922 3713 4171 
3901 4222 3713 3922 
2589 3928 4952 4811 
3928 4952 4811 4225 
4952 3928 2589 3730 
4438 1144 1202 2688 
4483 4677 3839 4785 
155 165 163 4896 
4896 155 1819 163 
4895 2062 4343 1747 
4642 4094 4749 4411 
726 690 4749 4094 
3551 4954 4940 4381 
78 3971 4954 4940 
4956 4088 4840 4855 
254 317 4926 258 
4786 4926 317 258 
4957 4851 1204 4977 
4750 5117 3432 1520 
133 137 147 3727 
137 3727 3771 147 
3951 4760 3273 4275 
2016 4760 4275 3273 
4408 1927 4444 4862 
1927 5192 4408 4444 
2552 959 3920 2461 
3723 785 780 837 
3386 478 4628 519 
4988 2685 1270 1257 
1257 1262 4988 2685 
4958 168 4856 200 
3948 4856 4958 168 
168 200 4958 146 
3948 4958 4843 168 
1708 5100 3854 2998 
1708 5100 3738 3854 
4510 3226 3385 4775 
4863 4864 4654 211 
4653 4652 3547 4346 
3637 3931 5155 980 
4959 621 4531 609 
4959 4531 627 609 
668 4744 4124 4959 
4931 4959 609 621 
4931 4124 4959 621 
4960 4334 2568 443 
2927 4409 2297 4457 
2568 5111 4334 4960 
3912 3815 4189 3911 
3815 3912 4189 4719 
3774 4887 4926 185 
199 4887 204 185 
4887 199 4926 185 
725 804 4565 4340 
4413 3374 1201 4948 
3640 2983 4780 3580 
4636 4048 1275 4427 
4652 4942 468 4551 
4358 3517 2175 4701 
688 638 3416 598 
4223 638 3361 4429 
4429 545 3416 598 
4196 4800 430 4985 
4985 4196 432 430 
4196 4800 4985 474 
4876 4926 4786 217 
217 258 4926 4786 
387 275 262 4013 
387 4695 262 275 
4057 2288 4143 4912 
4057 4143 3754 4912 
3744 246 213 249 
249 3744 246 292 
3774 249 3744 213 
4271 97 3697 112 
112 4271 104 135 
4868 4271 135 104 
4868 4271 4732 135 
5187 4856 5123 4580 
4727 4100 3332 5198 
5198 5123 4100 3332 
4110 4908 3011 4097 
3304 4110 3011 4097 
3304 4667 4110 3181 
630 4934 676 4961 
630 585 4934 4961 
534 4707 4934 585 
4867 4243 1782 4945 
4620 4316 4689 4243 
2990 4577 4726 4318 
535 4318 4726 4577 
4603 4364 4788 4680 
1950 3134 2656 4655 
4724 3765 4778 4537 
4599 4516 4778 4537 
3609 4704 4571 1307 
4938 3576 3041 2977 
2470 3900 3779 3345 
2470 4682 3900 3345 
3345 4846 2470 4682 
2351 5052 3203 4812 
4772 2351 5052 3203 
280 4007 240 4104 
621 4963 4531 609 
3253 609 4963 621 
768 781 3455 4446 
781 768 4520 3892 
4520 781 3455 768 
4446 768 781 4685 
2239 4241 4584 2820 
4584 2820 4241 3785 
4774 2616 4085 3209 
3194 4774 3209 2616 
3666 3999 1337 3683 
4097 3181 4897 3304 
3247 2436 4845 4663 
3247 5061 3797 4894 
4364 4199 3835 4208 
3696 274 260 4455 
3696 4455 4799 274 
737 4642 4000 4421 
4711 4513 4330 3721 
2832 4551 3547 4653 
3122 3724 4657 181 
4343 3477 2762 4895 
4895 2062 4760 4343 
5001 1714 45 4946 
474 4196 509 492 
4196 4403 474 509 
2972 4293 4043 4966 
3551 2860 4954 4381 
109 2874 3500 4954 
3844 4912 2846 3855 
2846 3855 5080 3844 
2961 4324 4681 3961 
4842 2673 4033 3283 
4624 4842 4033 3283 
4624 3283 4033 3844 
4158 1287 4655 4235 
3134 1226 4235 4655 
4965 4594 3357 4267 
5003 4267 3441 4965 
4269 4966 3950 529 
4966 4043 3977 3950 
562 4966 4269 529 
308 4326 3974 3164 
308 3974 4356 3164 
3164 308 2886 4356 
4546 4693 4578 1156 
4546 1083 4693 1156 
4566 997 1044 1021 
987 4566 1021 997 
4587 1021 4566 1044 
4591 997 4566 3519 
4076 4326 3974 308 
3955 4076 4286 308 
1285 1243 4967 3465 
543 1488 3430 2596 
602 1488 578 4422 
3367 31 44 4248 
3367 31 4248 32 
135 152 4879 4244 
2637 4529 3905 4700 
4788 4364 4351 4680 
3176 665 626 3703 
5170 4968 2473 702 
5170 2891 2473 4968 
5170 2891 4968 5173 
2602 4204 4171 4449 
4449 4171 4486 4204 
4568 4959 627 609 
3791 4959 4568 609 
3791 4959 609 4931 
265 2032 253 4969 
1351 1262 4469 5000 
2685 5000 1262 1351 
5008 4971 4150 4831 
4461 4646 4972 3701 
4972 4646 1321 4468 
4196 4403 4800 474 
4549 435 3627 3054 
4282 4584 3672 3019 
4282 4840 3672 4584 
3697 4244 4590 4676 
740 758 711 4223 
4003 4821 4608 4181 
4608 2756 4725 4821 
3951 5048 3273 4760 
2929 1261 3897 4612 
3897 4253 2929 4612 
3897 1261 1260 4612 
1395 4920 1405 3641 
4452 4628 542 522 
522 4628 542 3223 
4628 542 3223 519 
3717 3404 4471 1050 
4471 1050 1112 3717 
4255 1112 4471 1050 
1182 3199 4255 1112 
3010 4888 3840 3903 
3371 4813 4458 1328 
4813 4458 1285 4967 
1099 1054 1066 3544 
133 137 3727 148 
4659 954 971 3940 
871 4659 4914 954 
871 4659 954 902 
133 3727 147 3743 
1373 4935 4902 4005 
4812 4974 4268 1559 
2182 3208 2655 3233 
404 2853 3898 2971 
4800 4807 3856 423 
4707 4807 4934 3622 
4961 4934 4411 3622 
3622 3856 4403 4800 
3441 5003 3460 4388 
349 4440 3460 5003 
4388 5003 3460 4440 
4854 1707 3966 2920 
4973 5206 3304 4436 
5065 4523 3190 3750 
3750 4523 3190 3192 
4973 4436 3304 3750 
3105 461 418 415 
376 415 3105 418 
4788 4603 3076 4364 
5002 135 4244 112 
218 222 4896 253 
4244 5002 112 4928 
4954 78 4940 4975 
1695 2806 2399 2526 
4456 1695 1707 2399 
3977 3970 4043 4966 
4271 3697 97 2354 
490 4964 4615 4397 
125 137 148 3727 
4744 1596 804 725 
4744 725 668 1596 
1596 4124 668 4744 
3697 194 4676 211 
4676 194 4748 211 
2631 4406 996 3121 
2631 3554 996 4406 
954 1040 3623 4738 
4423 3623 954 1040 
1332 4205 1317 4976 
1332 4775 4205 4976 
4510 1323 1276 1320 
4224 1276 1320 4510 
4510 1332 1323 4775 
4762 2473 3764 4560 
3081 4412 4896 2379 
4896 271 281 4412 
3469 4848 5082 4407 
3469 4051 4848 4407 
4994 4848 1034 3600 
4994 4848 3600 3740 
4848 3600 3469 5082 
4887 246 213 3744 
223 246 213 4887 
3774 3744 4887 213 
4800 394 4985 474 
394 365 4800 4985 
3666 1364 1719 1355 
3666 1355 1719 1337 
4642 4411 4749 3746 
1194 1204 1236 4188 
4188 1236 4668 1204 
1193 4866 4668 4188 
1193 1204 4188 4668 
43 32 3367 4248 
370 496 4167 4452 
3654 4380 4747 4899 
1582 3432 4802 3431 
3345 4846 4682 462 
1218 1267 2702 1629 
2702 1629 1238 1218 
3673 4963 609 4531 
2146 4963 3673 4531 
1010 1029 3480 968 
1087 3940 1010 1029 
5093 3940 1010 1087 
3480 3940 1010 5093 
4750 1543 84 2323 
1029 3940 1064 1087 
1010 3480 1029 3940 
4220 2351 1559 4974 
3856 423 467 436 
500 467 3856 423 
4800 436 423 3856 
4807 500 3856 423 
4750 1762 2334 1543 
3652 4058 1891 3057 
4754 4750 4802 2381 
4508 4723 4765 4159 
4508 4723 3778 4765 
3806 1936 3282 4657 
3122 1936 3806 4657 
1936 4433 3282 4657 
383 2894 368 4262 
4578 4542 1156 4693 
1500 3641 3839 1372 
4779 781 1649 3929 
3929 3892 4779 781 
4625 4621 3770 4228 
3763 4526 4702 3364 
4788 3989 2833 5151 
5151 5132 2833 4788 
393 4448 4629 4278 
4906 4448 393 5115 
4906 393 4448 4629 
4205 3470 1317 3569 
4491 4097 4991 5095 
4544 4097 3304 4491 
3488 4177 4907 3339 
4177 4559 3488 4907 
4728 4620 5177 4892 
5177 4620 5125 4892 
4977 1194 4851 1204 
4851 3886 4188 1176 
4817 1176 4851 1194 
1194 4817 4977 4851 
4508 3898 3496 1971 
4012 2170 4875 4893 
4084 4012 4875 4893 
4177 4907 4875 4012 
4012 4907 4875 2170 
4197 1152 4977 1135 
3194 4774 3810 2896 
4851 4197 4977 1135 
4957 4851 4977 1135 
4444 5125 4689 4996 
1782 4996 4689 5125 
4444 5125 4996 4075 
4314 4310 4200 1133 
4651 1152 1135 3513 
4651 1152 4909 1135 
4600 689 4562 731 
689 4951 4600 4562 
4963 3253 3673 609 
3190 3280 5193 4992 
4351 4501 4316 1703 
3280 5199 5097 3728 
112 79 104 4271 
4271 79 104 4721 
4271 4721 104 4868 
1265 4883 1281 4889 
1735 5199 3280 3728 
3728 5097 3280 3190 
1281 4889 4883 1347 
1993 2242 4927 4980 
1500 1372 3839 1310 
3480 4659 1029 3940 
3553 4914 4659 4423 
3940 3553 4659 4423 
1709 1707 3966 4854 
4923 3185 3300 4091 
4170 2751 2619 4579 
4795 315 265 4199 
4682 4246 3900 3345 
4246 3900 3902 4682 
2162 4557 2957 4472 
2024 4400 3797 3247 
4845 5203 4400 4663 
5061 3247 4663 2436 
4557 4189 3911 4821 
4544 3675 2836 4897 
4897 4544 3675 4097 
4897 4568 3675 2836 
4707 4961 4934 585 
3855 4912 3887 4360 
569 4982 4304 503 
3428 4912 2288 3887 
2288 3428 4143 4912 
1121 2239 4584 1136 
2239 2820 4584 1136 
1738 4656 4830 4983 
1659 4656 1700 4983 
3260 3648 4983 4399 
3650 4281 4875 4084 
4710 2839 4363 4345 
4343 5181 4710 3529 
4345 4930 5181 2839 
589 598 3416 545 
598 638 3416 4429 
3834 269 244 4999 
3834 4999 4604 4284 
4284 4833 4999 4604 
4458 3174 1328 4048 
4813 4458 1328 1285 
1285 4048 4458 1328 
320 4984 299 307 
320 4984 3050 3862 
3720 4759 4984 296 
3050 4984 307 2864 
430 436 369 4800 
3290 4462 2354 132 
1225 5008 1274 4831 
1225 4971 5008 4831 
4565 2146 4531 4963 
4565 2146 4563 4531 
3761 3947 5071 3871 
5005 3871 4970 3947 
2024 3247 2123 4380 
2024 4380 4400 3247 
878 4986 902 949 
949 902 4659 4986 
878 949 919 4986 
949 4659 919 4986 
4659 919 4986 825 
4285 299 320 4984 
4997 172 157 161 
4997 172 161 180 
4565 888 866 4744 
3131 4234 372 219 
4215 3131 372 219 
4215 219 372 4073 
3860 4176 2436 3719 
2288 4912 4360 3887 
4437 2603 3799 4511 
2488 4476 1213 4950 
1262 1351 4469 4988 
2779 5000 4469 1262 
250 272 1527 4759 
4759 180 179 206 
2477 4360 268 4125 
3410 4543 4325 4656 
4533 4325 5055 4583 
4316 5211 2946 4689 
1694 5211 4243 4945 
1694 4316 5211 1703 
5211 2946 1703 4316 
4840 4282 3785 4584 
4590 3697 4676 4777 
4989 2516 2821 4810 
1160 2821 1191 4810 
32 3367 3956 43 
5088 1648 5168 3639 
5088 3727 3639 5168 
3835 4323 5103 1706 
3754 4143 4404 4912 
2846 4404 4912 3754 
4413 4613 4265 3874 
4948 4613 4265 4413 
4799 4795 4167 254 
4493 3011 2515 4991 
4832 4498 4416 4601 
414 384 4549 5120 
4541 4706 3654 2533 
2342 4130 4326 3974 
2342 4130 3974 3884 
244 4604 4213 4308 
690 4094 726 753 
3085 4477 4112 4987 
4597 4112 3085 4477 
3569 3470 1317 4571 
4152 1591 3429 3893 
4898 653 617 4152 
3004 4151 4794 2645 
1154 1039 1164 4994 
3945 4994 1034 1039 
3628 1164 1039 4994 
4994 1039 3628 3600 
3600 5082 1034 1039 
4994 1039 3600 1034 
3945 4994 1039 1154 
5017 3926 1134 4622 
1134 4808 3684 1110 
4622 1110 4808 1134 
4270 4821 4557 3911 
5011 2082 4208 281 
534 4807 4934 4707 
500 3984 534 4934 
5105 1777 3364 4380 
5105 2984 1777 4380 
4329 4939 4537 3640 
4537 4939 4724 3640 
357 4199 379 2828 
5131 4995 5056 4330 
4033 3754 2846 4912 
3844 4912 4033 2846 
3399 642 646 4422 
3399 718 762 646 
646 3399 718 642 
646 762 3399 4914 
4613 4265 3554 4948 
4613 3554 2631 4948 
5125 4444 4620 5177 
308 3974 4076 4286 
308 4356 3974 4286 
5185 4186 1735 3728 
4695 3713 4910 275 
4997 207 221 189 
4412 4208 2859 3835 
1610 4502 4379 2859 
2970 2806 4186 5207 
4443 2806 4352 3966 
4299 4409 3725 2017 
254 198 230 4795 
4351 4891 4199 3044 
4351 4364 4969 4199 
379 357 363 4795 
395 378 4799 400 
4866 1213 1235 4998 
1213 4998 2488 1235 
1235 4998 2488 1245 
269 4999 4024 3812 
4999 269 4024 4688 
4999 3679 4561 4024 
4561 4833 3679 4999 
4259 51 45 5019 
1475 5073 2888 4838 
4530 3738 4916 3719 
3047 4184 5000 2034 
4945 5211 4243 1782 
2488 4998 4435 1245 
4733 3620 5060 3966 
227 254 4795 198 
4259 5001 45 3166 
3719 5064 2436 4548 
379 2828 4199 5102 
1130 1111 4197 4874 
135 4879 5002 4244 
3017 5096 3728 5097 
3443 1420 1427 5016 
1427 5016 4836 3443 
4177 4559 4907 4012 
1610 4208 5011 4502 
4897 4544 4097 3304 
3856 3627 430 436 
3441 5003 4965 349 
233 5004 4267 330 
4089 5006 2200 2262 
4820 5006 2200 4089 
2200 4820 4736 5006 
4790 2200 5007 2262 
5007 4790 4648 2200 
4330 4918 4365 4886 
4918 5056 4886 4330 
4666 3017 5097 2650 
256 4877 2465 4486 
4486 256 4877 4695 
4910 256 4486 4695 
256 4486 2465 4910 
434 479 4452 371 
370 496 4452 434 
3729 3583 1351 5012 
4364 4199 4208 4969 
4343 2762 144 4895 
5008 2992 1274 4831 
3719 2730 3651 3692 
2681 4237 4901 2917 
2681 4901 4250 2917 
171 4896 176 165 
198 176 4896 227 
3247 4663 4845 4400 
3247 5061 4894 2436 
3247 4400 5061 4663 
5180 4530 4832 4498 
4530 4498 5149 4832 
2909 4203 4983 4818 
3835 4795 4412 4199 
4412 4199 4208 3835 
3018 265 248 218 
4523 4570 3190 3192 
5004 233 4480 4433 
4293 3950 529 4405 
2972 529 4293 4966 
4966 4293 3950 529 
4793 3690 3074 711 
3629 3361 645 581 
4768 4857 4740 4955 
4743 4857 4955 4740 
4779 4764 3892 3929 
4790 5007 5009 2262 
1039 5009 2262 3384 
4790 2262 5009 3384 
5015 254 4799 4167 
274 5015 4799 4328 
4510 4775 1323 1320 
2839 2170 4893 4183 
4875 2170 4183 4893 
256 4695 4910 275 
275 262 256 4695 
2895 3117 4399 4325 
4325 4583 2895 3117 
5102 4199 379 3835 
1257 1262 4658 4080 
4080 4658 2488 1262 
1379 1395 1405 3641 
3529 2062 4343 4760 
5048 4895 2062 4760 
5048 144 4895 4760 
1285 4967 4458 3465 
4262 415 4753 376 
4656 2732 4399 4325 
4383 3443 2798 1415 
4850 3443 4383 1415 
1415 4383 4850 3873 
1415 3873 4850 3919 
368 4262 2894 4753 
417 4262 2894 383 
368 4262 4753 376 
2628 2357 2956 4762 
5170 2628 4762 2357 
673 726 4749 4642 
726 4642 737 803 
3966 1741 2349 1695 
5159 5012 3729 2034 
4304 5013 4047 447 
5014 383 3186 368 
4178 4176 3860 3719 
215 5015 204 199 
223 246 4887 5015 
199 5015 204 4887 
4887 199 5015 4926 
2399 3972 2920 4069 
4069 1707 2399 4456 
3775 4249 4227 4675 
1598 4227 4249 4675 
4227 1598 3017 4390 
4390 4227 4675 3714 
4866 3082 4998 4188 
4904 4321 1111 1130 
1130 4909 1111 4904 
2407 4869 4766 2855 
4422 652 3399 642 
3399 642 652 718 
2017 1698 5010 3725 
1698 4481 5010 3725 
4350 3237 4066 1422 
4850 4350 1428 1420 
4323 4203 4818 4983 
4323 378 395 4818 
281 271 4896 241 
4896 241 239 212 
4959 4744 4531 668 
3675 4744 4531 4959 
1635 4426 3654 4870 
4706 4870 3654 2533 
2436 4870 4426 5182 
2533 4870 2436 5182 
5182 4416 4426 2436 
4426 3654 4870 2436 
5015 4926 199 216 
230 5015 199 216 
4884 1217 1123 5017 
5017 4622 1123 4884 
1168 1123 1217 5017 
1168 1134 1123 5017 
4315 4340 4565 804 
4315 866 804 4565 
269 4688 4999 4678 
4678 269 3834 4999 
4997 221 242 224 
4089 5006 3932 4696 
1731 2294 4530 4733 
5121 1731 2350 4530 
4927 4032 2194 3760 
2242 4032 4927 3760 
4260 817 4955 4743 
3654 4870 4706 1635 
1226 4655 3134 1950 
1148 2516 3284 3530 
4989 2516 4810 1148 
269 4765 3812 4159 
4765 3812 4159 4723 
4508 4765 383 4159 
269 383 4765 4159 
4847 3966 1709 1741 
1709 4854 3966 4847 
4953 1611 267 1824 
4993 1824 251 299 
1824 251 231 4993 
1824 4993 1899 4953 
4883 4889 1363 1347 
5021 3852 431 4643 
3263 4733 4683 4352 
5202 3263 4264 4733 
5202 4264 5060 4733 
3945 3027 2550 4201 
4201 3408 3027 2550 
446 382 497 2926 
2297 2017 5010 4409 
2017 5010 4409 3725 
254 289 4167 2851 
4926 2851 254 4167 
4844 4919 2730 4847 
4844 4847 2730 5025 
2730 4919 3738 4847 
2456 2977 3576 4938 
1121 1136 4584 1102 
4666 4390 1601 4570 
871 4738 3623 843 
3027 4848 4994 2550 
1034 4848 5082 3600 
4897 4915 3304 3181 
3304 4915 4667 3181 
5015 246 4887 3744 
3744 5015 246 4328 
246 5015 274 4328 
4561 4806 4833 4999 
4963 4558 4565 2146 
4565 4558 4763 2146 
1635 3654 4899 2536 
4767 3141 555 2644 
3141 3870 555 2644 
4666 4390 3017 2650 
1601 4390 4666 2650 
4284 4806 4999 4833 
4243 4892 4867 5125 
2550 4994 3027 3945 
2550 4994 3945 1154 
4331 4660 244 4833 
2357 4782 3006 4724 
2123 5071 4380 5162 
2920 2923 3972 3966 
2762 4368 4369 5073 
2663 3927 2320 2694 
890 2320 3380 2887 
2554 1723 504 293 
1926 789 4933 788 
5140 1603 1670 3426 
1696 4697 5020 1763 
45 1714 49 4946 
3140 3999 4373 4981 
4981 3140 5072 4373 
4208 4969 253 2082 
176 171 198 4896 
1374 1330 1390 2925 
4978 4049 562 669 
4978 4049 669 694 
975 3397 3993 1047 
1125 3993 1089 5093 
4771 3599 5086 5085 
2476 4898 4152 5085 
4758 4802 1532 4754 
1532 4754 2098 4758 
4750 2323 5117 1543 
4750 5117 1520 1543 
5139 3880 5045 3236 
406 384 2720 4679 
3705 2888 3523 5073 
1521 913 2960 894 
3361 598 638 645 
1197 1239 3066 1196 
125 3727 148 5088 
3466 1536 122 99 
109 5090 4607 4954 
4954 2874 4607 109 
681 4081 623 622 
4081 573 527 591 
622 3723 4081 573 
3395 3486 3362 2784 
677 651 700 3723 
622 4081 623 591 
4192 1517 3403 966 
4192 2960 2669 2377 
1486 5114 2116 5020 
5021 4237 312 2980 
3361 598 581 545 
3957 5093 935 993 
318 4319 2551 3615 
4319 311 2551 3615 
4744 1596 3675 4219 
4973 4897 3791 3853 
4543 5055 5052 2351 
3966 4847 1519 5025 
4311 2672 5147 5207 
5100 1708 3738 1709 
4666 4570 3772 4675 
4399 1588 4983 4656 
4286 5026 3974 4942 
3480 896 4659 3399 
902 971 4659 954 
896 825 919 4659 
4659 4986 3399 825 
3710 4560 4160 4762 
1396 4322 3759 4136 
4290 1324 3683 3666 
2887 839 889 904 
3344 2887 918 912 
882 3539 918 3598 
4279 4421 4317 3270 
3265 4404 3275 4504 
4152 3599 2476 5085 
802 836 823 3270 
3837 4078 3095 4625 
1633 4379 5176 3862 
4379 4502 5174 2859 
522 4167 496 4452 
3763 4526 4313 5150 
4571 3470 2021 5084 
49 1714 4202 4946 
4164 3562 4946 4582 
4582 45 4946 3166 
4946 5116 3562 4673 
235 272 4759 3924 
759 751 770 3504 
4447 3176 3703 696 
5107 3213 2761 2934 
5107 2559 5070 2761 
3426 5140 2163 1277 
1345 3177 2790 3736 
5034 1641 5033 5128 
5137 789 656 788 
789 788 5039 937 
5082 1011 3469 4407 
3660 3635 3231 4226 
5139 2458 2737 1679 
2677 3458 2311 160 
5043 1481 4226 3115 
3088 5038 3946 5136 
938 5037 5035 5038 
5039 789 5137 788 
5039 5035 938 2579 
5137 658 5138 656 
5035 938 5038 5039 
2887 2562 841 884 
2329 2651 2562 3344 
769 839 1722 2887 
1009 4852 1026 2230 
5128 4144 3388 3814 
1137 1641 3814 1060 
1060 3814 1137 5127 
4474 5072 991 3140 
5053 2217 3072 3732 
1389 3452 1392 1431 
2931 2745 5188 3934 
3374 1399 3851 4046 
2694 3307 2396 2320 
1287 4235 4310 1226 
261 212 4953 1960 
759 770 820 3504 
3307 283 302 321 
3691 4611 2492 2551 
498 553 4287 3307 
3236 1679 5045 5139 
4415 2215 5047 3281 
1302 1324 1296 3548 
3683 1296 1337 1324 
582 543 578 515 
815 3492 644 709 
915 906 920 4376 
4376 920 924 3927 
915 906 4376 893 
2053 2911 3605 3268 
2677 2990 2592 2336 
261 267 1899 4953 
1960 212 4953 175 
2230 5040 2953 965 
5041 4144 934 3388 
1594 5099 4548 5163 
4915 3181 4897 3853 
3837 911 4393 903 
2677 416 3131 3013 
2005 3216 3131 4215 
4246 3902 433 4682 
4160 2598 4450 701 
4854 4847 5100 2923 
5207 3827 4311 2672 
5063 4178 4916 3719 
5065 3772 3190 4523 
4436 3304 3190 5206 
206 4759 180 208 
1376 2727 4290 1357 
3140 4373 3999 3683 
4793 3504 4223 2673 
5131 5056 4918 4330 
243 255 3924 296 
220 243 4997 221 
255 3924 296 284 
3477 1475 1747 4343 
4689 4816 4316 4126 
91 86 108 85 
89 107 95 96 
86 96 114 107 
1452 1510 1444 1717 
5059 1054 1066 1038 
1054 1028 1066 3544 
3983 5160 3959 4439 
3027 1034 980 4742 
4523 3772 3190 4570 
4533 5204 5055 4325 
5064 4894 4548 3692 
4178 5149 4916 3719 
5064 5061 2436 4894 
5138 658 5067 656 
5138 5137 3946 658 
3526 3832 3003 3484 
614 3916 662 4086 
4192 889 2696 922 
925 920 966 4192 
3927 925 890 895 
1501 974 967 1654 
5050 1146 4306 2133 
1240 3683 1158 3548 
2925 3579 1374 4122 
2613 2925 1330 4122 
3523 5073 5058 3705 
3512 5074 146 2919 
3290 2699 2354 4462 
4932 2112 3471 4598 
3511 3471 4127 3948 
5058 3523 4492 3476 
3993 5093 3957 993 
5093 3993 1089 993 
494 4102 3005 532 
470 425 494 4102 
470 525 4102 532 
3481 600 525 588 
532 3481 1488 600 
2121 3816 853 739 
2135 1906 2071 3169 
5075 1593 4569 4741 
592 528 3716 574 
574 625 3984 3716 
3403 1517 4192 2696 
4192 890 2960 2377 
4192 3403 2669 966 
2854 3548 4210 1069 
3878 3504 3031 3671 
1319 3753 1360 1342 
4932 2112 3948 3471 
3511 3471 2112 4478 
3115 2217 5053 3732 
3231 4226 3328 1481 
5043 4226 1481 3328 
3731 3660 3635 3678 
4260 4955 956 4743 
4713 1252 1211 1268 
1688 3063 4216 4470 
1629 1257 1248 2702 
2516 1402 3366 3284 
261 4953 1611 267 
4164 4202 4946 3562 
5001 4946 45 3166 
4944 4819 3154 4259 
47 55 4019 3777 
4019 4025 3390 4332 
497 382 456 2926 
2926 373 456 4342 
5081 4952 2589 4648 
5082 4648 4606 3730 
5080 4624 685 4179 
5080 4179 710 4384 
4384 793 692 721 
3851 2647 4613 4046 
5119 4046 5022 1399 
2887 918 912 904 
281 4953 241 4896 
3018 218 227 4896 
4199 4969 3018 4208 
176 4896 227 218 
3081 4412 3018 4896 
2418 3333 3334 1578 
515 560 3355 3024 
902 949 4659 971 
871 3399 4659 4986 
2550 3740 4994 1154 
3637 4742 3588 3027 
3027 4742 3588 1034 
1428 1427 1435 4850 
3340 1080 1107 1177 
1721 1014 2669 1048 
1721 2669 1014 966 
3269 3988 4835 3262 
1722 764 715 2320 
890 3380 2320 863 
1722 3380 2887 839 
859 3957 3480 935 
3957 699 657 757 
859 897 3957 935 
859 3957 897 757 
4876 197 185 4926 
3774 4452 4786 4926 
4167 522 453 458 
428 496 4167 370 
428 4167 453 399 
453 496 522 4167 
363 370 4167 336 
86 114 5090 107 
1536 122 2183 5091 
5091 1536 122 3466 
1648 5088 134 2183 
3639 3727 4079 5168 
99 3500 109 92 
4850 4350 3701 1428 
4850 1420 1428 1427 
5093 1125 2801 4810 
1089 1125 1113 3993 
5093 1115 4810 1098 
1125 1191 4810 1160 
5093 1098 1087 1115 
2903 4501 4351 3044 
4973 3867 3304 5206 
4666 4675 4390 4570 
3007 1664 1475 5094 
1738 1700 4983 5209 
5094 4343 4117 4709 
4487 3728 5185 4784 
4656 4983 1738 1700 
4199 3044 5190 5102 
4880 3316 3534 4307 
5190 1706 1704 3835 
4493 3274 3304 4491 
4974 5055 2351 4812 
4663 5148 4176 2436 
2496 4496 2149 2709 
4896 253 222 239 
2016 5048 4760 3273 
4517 693 4635 742 
698 1491 620 847 
4854 3966 2923 2920 
1475 5094 4838 3007 
3738 4530 5121 5195 
3738 3854 5100 4919 
3692 3175 4548 5024 
3190 2283 3965 2327 
2828 3044 4199 5102 
4016 4275 3755 4837 
5073 4369 4838 4368 
4838 5094 4368 4117 
3304 4915 4897 4973 
4838 1475 3007 2888 
3274 5146 4382 4487 
4847 4919 5100 2923 
5100 3738 4919 4847 
3448 3629 3074 2913 
4118 4484 3313 1190 
1376 1357 4290 1352 
2727 4290 1386 1376 
4290 3548 1357 2727 
4290 3548 1324 1357 
5030 3077 2302 3090 
5107 5070 2586 2761 
2105 2498 5166 3213 
2468 5107 2559 5070 
1867 5030 3090 2043 
935 993 897 3957 
5144 3544 1220 1299 
4645 4166 3234 4217 
3131 3013 4052 2677 
443 3131 2005 2137 
3131 2137 2677 3216 
3441 349 5111 4375 
5111 372 4073 401 
1044 1062 4180 1093 
1252 4180 1319 4713 
4713 1252 4180 1211 
3218 5080 3964 2760 
5115 3144 3395 444 
5115 3395 4448 444 
4944 4755 4259 5001 
51 4878 5116 45 
2976 1991 3473 3201 
4259 4490 5019 56 
3473 1991 4796 3201 
2976 2967 3473 1991 
4944 4819 4259 4755 
4969 2032 5132 4788 
2790 3736 2843 2915 
3404 3555 5032 3271 
1394 1397 1406 4398 
5080 710 2731 4384 
2779 4435 2488 4118 
1128 1173 1086 4165 
3411 5083 3624 2697 
1039 5082 3384 3600 
838 2986 4635 822 
862 829 3173 837 
665 696 1990 3703 
592 3703 626 664 
912 2887 884 2562 
497 3144 446 3809 
2926 382 4289 446 
4376 3927 924 917 
890 889 2887 3380 
2696 922 889 904 
1233 1196 3066 1239 
867 4376 906 893 
4376 920 915 924 
4376 924 915 917 
4167 336 289 4795 
2801 5093 3993 1125 
3397 975 3993 3957 
4762 4782 2357 4724 
4788 5151 4969 4364 
2308 2591 4539 2296 
5198 5123 3332 4195 
3965 4493 3190 5193 
4493 5193 2495 4991 
5122 2574 2170 4183 
4399 4983 4830 4656 
1770 3529 5122 4930 
2649 5194 1743 3593 
4962 5060 2806 3775 
5096 3728 5097 5199 
4733 4530 3738 4916 
2350 5121 4498 5179 
1777 1693 3364 5200 
1742 3523 2615 2591 
3190 4487 4784 3728 
5121 5195 4498 5179 
5062 5063 5202 4916 
4962 3714 4849 3775 
4733 4916 3263 1636 
4916 5062 4733 5202 
5025 1519 3966 4497 
1736 1664 1692 3792 
1475 4198 1664 1742 
5194 5184 3763 3593 
5192 4299 2771 4119 
4345 4930 3529 5181 
1054 1066 1028 5059 
53 49 1714 4202 
3224 3915 3790 3631 
4968 2891 2872 5172 
3806 4529 5110 3905 
2377 905 889 894 
2124 1167 5127 5051 
5127 2124 1140 1167 
5051 2230 1167 5127 
1918 2230 1141 1167 
5051 2230 5127 1877 
1265 4224 4889 3340 
5133 1014 2669 5050 
2960 906 920 931 
1522 1501 3848 1094 
751 727 736 4179 
4179 731 689 717 
1711 1002 1178 2197 
5144 5051 3742 1918 
3742 1220 5144 3544 
5144 1416 3530 1402 
1332 1323 1276 4510 
2960 900 895 906 
944 1020 2377 1013 
4008 4094 3723 4411 
3723 3173 785 837 
369 3322 4800 423 
1167 5127 5129 1140 
5128 3814 5130 5129 
3814 5129 5128 4144 
4347 5034 5041 5128 
5036 2029 1641 2300 
5130 3814 5127 5129 
5130 1060 5127 3814 
1065 1216 1937 1294 
5034 1641 5036 5033 
5037 1641 5033 5036 
938 1641 5035 5037 
5035 5033 1641 5130 
5130 5128 5033 1641 
5041 5128 3388 4347 
5036 1641 5034 2300 
1060 3814 5130 1641 
5130 3814 5128 1641 
5036 3088 5038 5037 
5035 5037 1641 5033 
5040 5129 1167 5127 
3946 5038 5137 5136 
5127 3814 5040 5129 
5128 5034 1641 4347 
5130 5127 1937 1140 
5130 5129 5127 1140 
5166 4513 4711 3721 
3270 836 832 783 
4411 724 4934 4961 
2201 2228 1979 1492 
4641 2249 2714 2165 
248 4795 289 265 
3723 4718 556 4008 
724 3984 723 761 
4961 3270 724 745 
723 3984 676 686 
723 655 3984 686 
3984 630 4934 676 
2931 3934 2866 2450 
4451 4556 3980 942 
4393 4626 930 3980 
4172 1569 2888 2296 
5103 4818 2384 4323 
4310 4235 1133 1226 
1165 3819 1192 1181 
3819 4587 3352 3015 
1095 1106 3819 1165 
165 205 4896 176 
222 176 218 4896 
4896 271 239 241 
4953 1611 281 261 
3445 2437 2292 3718 
287 333 341 3774 
3305 3466 93 4381 
2077 2711 5134 3823 
1050 2750 4740 4768 
5038 5137 5039 3946 
5138 5136 3946 5137 
5137 789 5039 3946 
4665 283 302 3307 
4726 451 2637 2592 
416 3013 4529 5110 
1349 3066 1327 1318 
3465 4048 4458 1285 
2669 1207 1145 1139 
1280 2133 1207 1263 
1314 1263 2133 1280 
1263 2669 1207 1206 
3404 4740 1050 3514 
4232 2119 4128 3091 
3399 805 730 825 
816 3435 3486 976 
1686 3303 2337 1850 
96 108 91 86 
96 89 107 86 
96 86 114 108 
1955 3596 2445 1403 
2834 1955 3419 3543 
1317 4205 3146 2021 
4858 580 650 1683 
1683 499 518 580 
341 3446 298 264 
2253 4240 3757 3804 
3757 3804 4240 755 
4086 801 3099 2253 
4086 3916 662 708 
4086 3099 746 4397 
2894 2911 3605 516 
623 682 654 3605 
2111 2911 611 654 
134 1648 5168 5088 
4872 3183 122 120 
5088 134 3727 5168 
332 245 276 4042 
5089 5090 5091 2860 
4422 699 613 1488 
752 3399 4422 730 
613 1488 602 4422 
261 4953 1899 1960 
2967 2876 4819 3154 
4896 239 271 253 
4896 205 239 222 
325 4389 408 314 
486 3420 5169 454 
4984 296 284 5205 
2082 281 271 4208 
4276 3662 2296 2330 
4385 1748 4343 4710 
5176 4830 5124 5175 
4824 5153 4244 3471 
3220 5152 4720 5153 
5011 4502 4208 4364 
4208 2082 253 271 
4183 2170 5122 2839 
4343 5181 4385 4710 
5151 2082 4969 5011 
2727 3548 1357 3174 
2553 4647 4458 3174 
3494 1507 1684 1759 
2540 813 2380 812 
3481 678 2969 3957 
690 4008 4749 4094 
690 753 700 4008 
690 4749 4008 647 
980 1011 4407 967 
2935 52 3407 46 
4630 4582 45 5116 
4631 4815 2876 3154 
4878 51 5116 4673 
830 777 749 4447 
4447 749 696 3703 
749 1990 696 3703 
777 749 4447 3703 
2553 2727 3174 2854 
2540 2969 812 2380 
3481 657 1488 600 
2969 3481 2890 588 
4671 5110 4234 416 
5110 416 3013 4234 
5004 233 4433 5157 
4110 4797 4092 3011 
3087 3184 969 3245 
914 3087 921 4535 
802 829 3173 842 
802 760 809 3173 
842 3173 862 829 
901 887 763 883 
3735 2111 5031 2244 
2715 3735 5031 2244 
1714 3370 49 53 
337 4199 315 357 
502 1751 516 3605 
681 748 3605 4288 
623 681 3605 4081 
461 3105 502 4242 
461 3105 4242 415 
502 2894 465 4242 
2111 707 2911 654 
2911 611 3605 1751 
736 4179 731 751 
736 4179 717 731 
624 655 686 3984 
686 3984 676 630 
624 686 630 3984 
630 624 3984 595 
710 4384 721 793 
4504 3004 2645 1490 
5126 3598 885 840 
5126 2025 2190 4116 
4795 315 357 336 
3531 1255 4612 1260 
45 5116 4582 4946 
3713 2729 4297 4222 
1395 4005 1400 3641 
4005 3753 5077 1360 
1064 1038 1099 1098 
3480 5093 935 3957 
1098 1115 4810 1148 
5093 1115 1087 1088 
1098 1054 1038 1099 
4759 250 235 206 
4543 4325 5052 5055 
250 272 4759 235 
206 235 4759 208 
925 922 4192 966 
895 4192 920 925 
341 287 3774 264 
424 341 333 3774 
3774 333 424 409 
2203 3535 3597 4482 
3420 3798 5145 5109 
2569 2136 5142 1430 
1257 1238 2702 1629 
4988 1238 4469 1262 
1257 1262 1238 4988 
4988 1262 1351 2685 
4439 3768 4903 5160 
4903 3047 5160 3768 
1238 4469 1293 1629 
1629 1293 1238 1218 
4795 248 289 254 
289 4795 336 315 
315 4199 4795 357 
248 3018 227 4795 
289 315 265 4795 
1378 4785 3641 4005 
3336 2326 1339 1306 
4029 3336 2837 1306 
1501 1094 4937 1654 
1501 1654 4937 974 
1501 974 1522 929 
1221 2484 1276 4224 
2133 1263 2669 1207 
1521 890 894 2960 
895 1521 2960 890 
895 900 2960 1521 
2685 5012 5000 1351 
5017 1123 4622 1134 
3926 5017 1217 1271 
3926 4622 5017 1271 
5208 2991 3693 3821 
666 730 752 4422 
288 3674 2492 312 
2551 4611 339 311 
303 4913 3659 4524 
4046 4378 2313 2962 
163 175 4953 4896 
3528 948 939 1686 
732 711 5028 3690 
1103 4373 4981 1022 
4960 5111 4334 401 
3774 3744 4926 4887 
3641 1500 1408 1411 
4598 4932 225 4372 
132 178 131 3290 
4789 3716 625 664 
5159 3583 3729 5012 
1039 3945 3588 1034 
3171 4543 1588 4325 
4743 4740 4955 992 
4743 992 4955 956 
4548 5163 2998 1602 
4219 4097 1596 3675 
5104 5099 1697 2436 
2436 4845 4663 5148 
3189 2296 2888 3523 
5162 3175 1594 3247 
4837 4275 3755 1658 
4018 2903 4316 4351 
4897 3853 4973 4915 
5206 3304 5146 3867 
5103 5209 4323 2384 
3364 1693 5105 5101 
4199 5102 5190 3835 
2436 1594 3175 3247 
5190 3835 5102 5103 
5102 5103 3835 379 
2133 1207 1139 1146 
1253 2133 1207 1280 
73 4021 106 42 
4021 73 127 3359 
3211 2426 3345 2881 
972 3352 986 4730 
3369 5173 2891 5165 
5171 1980 5066 3734 
5067 656 658 559 
5171 5165 2907 1980 
4330 5131 3721 4365 
5166 3891 4513 3721 
4933 787 4605 1084 
4933 787 1084 786 
4605 937 4933 789 
2579 4605 1065 1937 
5035 2579 937 1065 
1937 4605 1065 1294 
5168 3771 3727 4079 
5167 4463 5089 5090 
3927 881 3539 917 
3605 707 748 682 
5171 5170 3764 3734 
5165 5173 2891 5171 
5173 5171 5170 2891 
3053 3342 5169 3420 
5165 1980 5171 2891 
4968 2891 5172 5173 
3457 2245 4179 4793 
1488 551 613 602 
598 3361 638 4429 
4717 4641 2714 2165 
408 325 297 298 
298 297 424 341 
2536 3654 5197 4706 
2436 4426 5148 4416 
4949 4804 5210 5179 
5179 4804 4498 4601 
5185 4312 4186 3728 
4459 3364 5183 4899 
2649 3364 1743 5200 
2283 4487 3274 4382 
2327 5185 3728 4784 
3763 4526 5184 4313 
3593 5184 4526 5183 
3763 5184 4526 3593 
2649 5184 5194 3593 
1701 1700 1660 4656 
4984 5205 4285 299 
1633 4830 5176 5175 
4364 4502 2859 5174 
5181 4345 4710 3529 
3076 3989 5178 4788 
4243 4892 5178 4867 
387 354 262 4695 
4695 262 4877 354 
2779 4080 2488 1262 
230 254 5015 216 
230 215 199 5015 
3921 5200 5197 1777 
379 5103 3835 395 
4709 4275 4837 1658 
4552 4936 3862 3835 
4830 1738 2443 4656 
5194 3410 5184 2443 
281 4208 5011 1610 
5196 5186 3220 5187 
5195 1708 3738 3854 
1693 1777 3364 5105 
1770 1736 1692 3529 
2588 1734 3835 4364 
3256 4539 2296 4506 
5210 5195 5179 4498 
1736 1692 4343 3792 
2574 4875 2170 4183 
5203 4970 4380 4400 
3854 2998 1710 1708 
2436 5099 4548 1594 
4548 2998 5163 5099 
1595 5208 1815 2991 
3854 2998 5100 1602 
2436 4804 5210 2533 
5149 4178 3860 3719 
4176 5064 2436 3719 
299 296 3720 4984 
242 4993 224 251 
2085 1921 2055 3581 
4997 299 3720 4993 
296 4759 4984 284 
284 3924 296 4759 
5208 2744 1572 1767 
1595 1815 5208 1563 
4759 284 3924 272 
284 255 3924 272 
1595 5208 2991 3693 
4207 359 200 4307 
4315 866 4565 2347 
4315 3582 4340 804 
4307 402 2642 4083 
4307 4083 2642 3798 
2954 3164 4356 3974 
4343 4709 5094 1692 
3247 5104 5162 2984 
1659 4983 1700 5209 
5094 4709 4117 4837 
1782 5211 4243 4689 
3037 5109 3535 4482 
1658 4709 5094 4837 
4351 4199 337 2828 
1710 5099 2998 4548 
3130 3288 4650 3289 
402 1875 1723 504 
4654 3130 3294 3293 
3297 203 143 3773 
1736 2545 3529 4930 
2347 866 2390 4315 
2395 1975 1498 3309 
CELL_TYPES 20253
10 10 10 10 10 10 10 10 10 10 10 10 10 10 10 10 10 10 10 10 10 10 10 10 10 10 10 10 10 10 10 10 10 10 10 10 10 10 10 10 10 10 10 10 10 10 10 10 10 10 10 10 10 10 10 10 10 10 10 10 10 10 10 10 10 10 10 10 10 10 10 10 10 10 10 10 10 10 10 10 10 10 10 10 10 10 10 10 10 10 10 10 10 10 10 10 10 10 10 10 10 10 10 10 10 10 10 10 10 10 10 10 10 10 10 10 10 10 10 10 10 10 10 10 10 10 10 10 10 10 10 10 10 10 10 10 10 10 10 10 10 10 10 10 10 10 10 10 10 10 10 10 10 10 10 10 10 10 10 10 10 10 10 10 10 10 10 10 10 10 10 10 10 10 10 10 10 10 10 10 10 10 10 10 10 10 10 10 10 10 10 10 10 10 10 10 10 10 10 10 10 10 10 10 10 10 10 10 10 10 10 10 10 10 10 10 10 10 10 10 10 10 10 10 10 10 10 10 10 10 10 10 10 10 10 10 10 10 10 10 10 10 10 10 10 10 10 10 10 10 10 10 10 10 10 10 10 10 10 10 10 10 10 10 10 10 10 10 10 10 10 10 10 10 10 10 10 10 10 10 10 10 10 10 10 10 10 10 10 10 10 10 10 10 10 10 10 10 10 10 10 10 10 10 10 10 10 10 10 10 10 10 10 10 10 10 10 10 10 10 10 10 10 10 10 10 10 10 10 10 10 10 10 10 10 10 10 10 10 10 10 10 10 10 10 10 10 10 10 10 10 10 10 10 10 10 10 10 10 10 10 10 10 10 10 10 10 10 10 10 10 10 10 10 10 10 10 10 10 10 10 10 10 10 10 10 10 10 10 10 10 10 10 10 10 10 10 10 10 10 10 10 10 10 10 10 10 10 10 10 10 10 10 10 10 10 10 10 10 10 10 10 10 10 10 10 10 10 10 10 10 10 10 10 10 10 10 10 10 10 10 10 10 10 10 10 10 10 10 10 10 10 10 10 10 10 10 10 10 10 10 10 10 10 10 10 10 10 10 10 10 10 10 10 10 10 10 10 10 10 10 10 10 10 10 10 10 10 10 10 10 10 10 10 10 10 10 10 10 10 10 10 10 10 10 10 10 10 10 10 10 10 10 10 10 10 10 10 10 10 10 10 10 10 10 10 10 10 10 10 10 10 10 10 10 10 10 10 10 10 10 10 10 10 10 10 10 10 10 10 10 10 10 10 10 10 10 10 10 10 10 10 10 10 10 10 10 10 10 10 10 10 10 10 10 10 10 10 10 10 10 10 10 10 10 10 10 10 10 10 10 10 10 10 10 10 10 10 10 10 10 10 10 10 10 10 10 10 10 10 10 10 10 10 10 10 10 10 10 10 10 10 10 10 10 10 10 10 10 10 10 10 10 10 10 10 10 10 10 10 10 10 10 10 10 10 10 10 10 10 10 10 10 10 10 10 10 10 10 10 10 10 10 10 10 10 10 10 10 10 10 10 10 10 10 10 10 10 10 10 10 10 10 10 10 10 10 10 10 10 10 10 10 10 10 10 10 10 10 10 10 10 10 10 10 10 10 10 10 10 10 10 10 10 10 10 10 10 10 10 10 10 10 10 10 10 10 10 10 10 10 10 10 10 10 10 10 10 10 10 10 10 10 10 10 10 10 10 10 10 10 10 10 10 10 10 10 10 10 10 10 10 10 10 10 10 10 10 10 10 10 10 10 10 10 10 10 10 10 10 10 10 10 10 10 10 10 10 10 10 10 10 10 10 10 10 10 10 10 10 10 10 10 10 10 10 10 10 10 10 10 10 10 10 10 10 10 10 10 10 10 10 10 10 10 10 10 10 10 10 10 10 10 10 10 10 10 10 10 10 10 10 10 10 10 10 10 10 10 10 10 10 10 10 10 10 10 10 10 10 10 10 10 10 10 10 10 10 10 10 10 10 10 10 10 10 10 10 10 10 10 10 10 10 10 10 10 10 10 10 10 10 10 10 10 10 10 10 10 10 10 10 10 10 10 10 10 10 10 10 10 10 10 10 10 10 10 10 10 10 10 10 10 10 10 10 10 10 10 10 10 10 10 10 10 10 10 10 10 10 10 10 10 10 10 10 10 10 10 10 10 10 10 10 10 10 10 10 10 10 10 10 10 10 10 10 10 10 10 10 10 10 10 10 10 10 10 10 10 10 10 10 10 10 10 10 10 10 10 10 10 10 10 10 10 10 10 10 10 10 10 10 10 10 10 10 10 10 10 10 10 10 10 10 10 10 10 10 10 10 10 10 10 10 10 10 10 10 10 10 10 10 10 10 10 10 10 10 10 10 10 10 10 10 10 10 10 10 10 10 10 10 10 10 10 10 10 10 10 10 10 10 10 10 10 10 10 10 10 10 10 10 10 10 10 10 10 10 10 10 10 10 10 10 10 10 10 10 10 10 10 10 10 10 10 10 10 10 10 10 10 10 10 10 10 10 10 10 10 10 10 10 10 10 10 10 10 10 10 10 10 10 10 10 10 10 10 10 10 10 10 10 10 10 10 10 10 10 10 10 10 10 10 10 10 10 10 10 10 10 10 10 10 10 10 10 10 10 10 10 10 10 10 10 10 10 10 10 10 10 10 10 10 10 10 10 10 10 10 10 10 10 10 10 10 10 10 10 10 10 10 10 10 10 10 10 10 10 10 10 10 10 10 10 10 10 10 10 10 10 10 10 10 10 10 10 10 10 10 10 10 10 10 10 10 10 10 10 10 10 10 10 10 10 10 10 10 10 10 10 10 10 10 10 10 10 10 10 10 10 10 10 10 10 10 10 10 10 10 10 10 10 10 10 10 10 10 10 10 10 10 10 10 10 10 10 10 10 10 10 10 10 10 10 10 10 10 10 10 10 10 10 10 10 10 10 10 10 10 10 10 10 10 10 10 10 10 10 10 10 10 10 10 10 10 10 10 10 10 10 10 10 10 10 10 10 10 10 10 10 10 10 10 10 10 10 10 10 10 10 10 10 10 10 10 10 10 10 10 10 10 10 10 10 10 10 10 10 10 10 10 10 10 10 10 10 10 10 10 10 10 10 10 10 10 10 10 10 10 10 10 10 10 10 10 10 10 10 10 10 10 10 10 10 10 10 10 10 10 10 10 10 10 10 10 10 10 10 10 10 10 10 10 10 10 10 10 10 10 10 10 10 10 10 10 10 10 10 10 10 10 10 10 10 10 10 10 10 10 10 10 10 10 10 10 10 10 10 10 10 10 10 10 10 10 10 10 10 10 10 10 10 10 10 10 10 10 10 10 10 10 10 10 10 10 10 10 10 10 10 10 10 10 10 10 10 10 10 10 10 10 10 10 10 10 10 10 10 10 10 10 10 10 10 10 10 10 10 10 10 10 10 10 10 10 10 10 10 10 10 10 10 10 10 10 10 10 10 10 10 10 10 10 10 10 10 10 10 10 10 10 10 10 10 10 10 10 10 10 10 10 10 10 10 10 10 10 10 10 10 10 10 10 10 10 10 10 10 10 10 10 10 10 10 10 10 10 10 10 10 10 10 10 10 10 10 10 10 10 10 10 10 10 10 10 10 10 10 10 10 10 10 10 10 10 10 10 10 10 10 10 10 10 10 10 10 10 10 10 10 10 10 10 10 10 10 10 10 10 10 10 10 10 10 10 10 10 10 10 10 10 10 10 10 10 10 10 10 10 10 10 10 10 10 10 10 10 10 10 10 10 10 10 10 10 10 10 10 10 10 10 10 10 10 10 10 10 10 10 10 10 10 10 10 10 10 10 10 10 10 10 10 10 10 10 10 10 10 10 10 10 10 10 10 10 10 10 10 10 10 10 10 10 10 10 10 10 10 10 10 10 10 10 10 10 10 10 10 10 10 10 10 10 10 10 10 10 10 10 10 10 10 10 10 10 10 10 10 10 10 10 10 10 10 10 10 10 10 10 10 10 10 10 10 10 10 10 10 10 10 10 10 10 10 10 10 10 10 10 10 10 10 10 10 10 10 10 10 10 10 10 10 10 10 10 10 10 10 10 10 10 10 10 10 10 10 10 10 10 10 10 10 10 10 10 10 10 10 10 10 10 10 10 10 10 10 10 10 10 10 10 10 10 10 10 10 10 10 10 10 10 10 10 10 10 10 10 10 10 10 10 10 10 10 10 10 10 10 10 10 10 10 10 10 10 10 10 10 10 10 10 10 10 10 10 10 10 10 10 10 10 10 10 10 10 10 10 10 10 10 10 10 10 10 10 10 10 10 10 10 10 10 10 10 10 10 10 10 10 10 10 10 10 10 10 10 10 10 10 10 10 10 10 10 10 10 10 10 10 10 10 10 10 10 10 10 10 10 10 10 10 10 10 10 10 10 10 10 10 10 10 10 10 10 10 10 10 10 10 10 10 10 10 10 10 10 10 10 10 10 10 10 10 10 10 10 10 10 10 10 10 10 10 10 10 10 10 10 10 10 10 10 10 10 10 10 10 10 10 10 10 10 10 10 10 10 10 10 10 10 10 10 10 10 10 10 10 10 10 10 10 10 10 10 10 10 10 10 10 10 10 10 10 10 10 10 10 10 10 10 10 10 10 10 10 10 10 10 10 10 10 10 10 10 10 10 10 10 10 10 10 10 10 10 10 10 10 10 10 10 10 10 10 10 10 10 10 10 10 10 10 10 10 10 10 10 10 10 10 10 10 10 10 10 10 10 10 10 10 10 10 10 10 10 10 10 10 10 10 10 10 10 10 10 10 10 10 10 10 10 10 10 10 10 10 10 10 10 10 10 10 10 10 10 10 10 10 10 10 10 10 10 10 10 10 10 10 10 10 10 10 10 10 10 10 10 10 10 10 10 10 10 10 10 10 10 10 10 10 10 10 10 10 10 10 10 10 10 10 10 10 10 10 10 10 10 10 10 10 10 10 10 10 10 10 10 10 10 10 10 10 10 10 10 10 10 10 10 10 10 10 10 10 10 10 10 10 10 10 10 10 10 10 10 10 10 10 10 10 10 10 10 10 10 10 10 10 10 10 10 10 10 10 10 10 10 10 10 10 10 10 10 10 10 10 10 10 10 10 10 10 10 10 10 10 10 10 10 10 10 10 10 10 10 10 10 10 10 10 10 10 10 10 10 10 10 10 10 10 10 10 10 10 10 10 10 10 10 10 10 10 10 10 10 10 10 10 10 10 10 10 10 10 10 10 10 10 10 10 10 10 10 10 10 10 10 10 10 10 10 10 10 10 10 10 10 10 10 10 10 10 10 10 10 10 10 10 10 10 10 10 10 10 10 10 10 10 10 10 10 10 10 10 10 10 10 10 10 10 10 10 10 10 10 10 10 10 10 10 10 10 10 10 10 10 10 10 10 10 10 10 10 10 10 10 10 10 10 10 10 10 10 10 10 10 10 10 10 10 10 10 10 10 10 10 10 10 10 10 10 10 10 10 10 10 10 10 10 10 10 10 10 10 10 10 10 10 10 10 10 10 10 10 10 10 10 10 10 10 10 10 10 10 10 10 10 10 10 10 10 10 10 10 10 10 10 10 10 10 10 10 10 10 10 10 10 10 10 10 10 10 10 10 10 10 10 10 10 10 10 10 10 10 10 10 10 10 10 10 10 10 10 10 10 10 10 10 10 10 10 10 10 10 10 10 10 10 10 10 10 10 10 10 10 10 10 10 10 10 10 10 10 10 10 10 10 10 10 10 10 10 10 10 10 10 10 10 10 10 10 10 10 10 10 10 10 10 10 10 10 10 10 10 10 10 10 10 10 10 10 10 10 10 10 10 10 10 10 10 10 10 10 10 10 10 10 10 10 10 10 10 10 10 10 10 10 10 10 10 10 10 10 10 10 10 10 10 10 10 10 10 10 10 10 10 10 10 10 10 10 10 10 10 10 10 10 10 10 10 10 10 10 10 10 10 10 10 10 10 10 10 10 10 10 10 10 10 10 10 10 10 10 10 10 10 10 10 10 10 10 10 10 10 10 10 10 10 10 10 10 10 10 10 10 10 10 10 10 10 10 10 10 10 10 10 10 10 10 10 10 10 10 10 10 10 10 10 10 10 10 10 10 10 10 10 10 10 10 10 10 10 10 10 10 10 10 10 10 10 10 10 10 10 10 10 10 10 10 10 10 10 10 10 10 10 10 10 10 10 10 10 10 10 10 10 10 10 10 10 10 10 10 10 10 10 10 10 10 10 10 10 10 10 10 10 10 10 10 10 10 10 10 10 10 10 10 10 10 10 10 10 10 10 10 10 10 10 10 10 10 10 10 10 10 10 10 10 10 10 10 10 10 10 10 10 10 10 10 10 10 10 10 10 10 10 10 10 10 10 10 10 10 10 10 10 10 10 10 10 10 10 10 10 10 10 10 10 10 10 10 10 10 10 10 10 10 10 10 10 10 10 10 10 10 10 10 10 10 10 10 10 10 10 10 10 10 10 10 10 10 10 10 10 10 10 10 10 10 10 10 10 10 10 10 10 10 10 10 10 10 10 10 10 10 10 10 10 10 10 10 10 10 10 10 10 10 10 10 10 10 10 10 10 10 10 10 10 10 10 10 10 10 10 10 10 10 10 10 10 10 10 10 10 10 10 10 10 10 10 10 10 10 10 10 10 10 10 10 10 10 10 10 10 10 10 10 10 10 10 10 10 10 10 10 10 10 10 10 10 10 10 10 10 10 10 10 10 10 10 10 10 10 10 10 10 10 10 10 10 10 10 10 10 10 10 10 10 10 10 10 10 10 10 10 10 10 10 10 10 10 10 10 10 10 10 10 10 10 10 10 10 10 10 10 10 10 10 10 10 10 10 10 10 10 10 10 10 10 10 10 10 10 10 10 10 10 10 10 10 10 10 10 10 10 10 10 10 10 10 10 10 10 10 10 10 10 10 10 10 10 10 10 10 10 10 10 10 10 10 10 10 10 10 10 10 10 10 10 10 10 10 10 10 10 10 10 10 10 10 10 10 10 10 10 10 10 10 10 10 10 10 10 10 10 10 10 10 10 10 10 10 10 10 10 10 10 10 10 10 10 10 10 10 10 10 10 10 10 10 10 10 10 10 10 10 10 10 10 10 10 10 10 10 10 10 10 10 10 10 10 10 10 10 10 10 10 10 10 10 10 10 10 10 10 10 10 10 10 10 10 10 10 10 10 10 10 10 10 10 10 10 10 10 10 10 10 10 10 10 10 10 10 10 10 10 10 10 10 10 10 10 10 10 10 10 10 10 10 10 10 10 10 10 10 10 10 10 10 10 10 10 10 10 10 10 10 10 10 10 10 10 10 10 10 10 10 10 10 10 10 10 10 10 10 10 10 10 10 10 10 10 10 10 10 10 10 10 10 10 10 10 10 10 10 10 10 10 10 10 10 10 10 10 10 10 10 10 10 10 10 10 10 10 10 10 10 10 10 10 10 10 10 10 10 10 10 10 10 10 10 10 10 10 10 10 10 10 10 10 10 10 10 10 10 10 10 10 10 10 10 10 10 10 10 10 10 10 10 10 10 10 10 10 10 10 10 10 10 10 10 10 10 10 10 10 10 10 10 10 10 10 10 10 10 10 10 10 10 10 10 10 10 10 10 10 10 10 10 10 10 10 10 10 10 10 10 10 10 10 10 10 10 10 10 10 10 10 10 10 10 10 10 10 10 10 10 10 10 10 10 10 10 10 10 10 10 10 10 10 10 10 10 10 10 10 10 10 10 10 10 10 10 10 10 10 10 10 10 10 10 10 10 10 10 10 10 10 10 10 10 10 10 10 10 10 10 10 10 10 10 10 10 10 10 10 10 10 10 10 10 10 10 10 10 10 10 10 10 10 10 10 10 10 10 10 10 10 10 10 10 10 10 10 10 10 10 10 10 10 10 10 10 10 10 10 10 10 10 10 10 10 10 10 10 10 10 10 10 10 10 10 10 10 10 10 10 10 10 10 10 10 10 10 10 10 10 10 10 10 10 10 10 10 10 10 10 10 10 10 10 10 10 10 10 10 10 10 10 10 10 10 10 10 10 10 10 10 10 10 10 10 10 10 10 10 10 10 10 10 10 10 10 10 10 10 10 10 10 10 10 10 10 10 10 10 10 10 10 10 10 10 10 10 10 10 10 10 10 10 10 10 10 10 10 10 10 10 10 10 10 10 10 10 10 10 10 10 10 10 10 10 10 10 10 10 10 10 10 10 10 10 10 10 10 10 10 10 10 10 10 10 10 10 10 10 10 10 10 10 10 10 10 10 10 10 10 10 10 10 10 10 10 10 10 10 10 10 10 10 10 10 10 10 10 10 10 10 10 10 10 10 10 10 10 10 10 10 10 10 10 10 10 10 10 10 10 10 10 10 10 10 10 10 10 10 10 10 10 10 10 10 10 10 10 10 10 10 10 10 10 10 10 10 10 10 10 10 10 10 10 10 10 10 10 10 10 10 10 10 10 10 10 10 10 10 10 10 10 10 10 10 10 10 10 10 10 10 10 10 10 10 10 10 10 10 10 10 10 10 10 10 10 10 10 10 10 10 10 10 10 10 10 10 10 10 10 10 10 10 10 10 10 10 10 10 10 10 10 10 10 10 10 10 10 10 10 10 10 10 10 10 10 10 10 10 10 10 10 10 10 10 10 10 10 10 10 10 10 10 10 10 10 10 10 10 10 10 10 10 10 10 10 10 10 10 10 10 10 10 10 10 10 10 10 10 10 10 10 10 10 10 10 10 10 10 10 10 10 10 10 10 10 10 10 10 10 10 10 10 10 10 10 10 10 10 10 10 10 10 10 10 10 10 10 10 10 10 10 10 10 10 10 10 10 10 10 10 10 10 10 10 10 10 10 10 10 10 10 10 10 10 10 10 10 10 10 10 10 10 10 10 10 10 10 10 10 10 10 10 10 10 10 10 10 10 10 10 10 10 10 10 10 10 10 10 10 10 10 10 10 10 10 10 10 10 10 10 10 10 10 10 10 10 10 10 10 10 10 10 10 10 10 10 10 10 10 10 10 10 10 10 10 10 10 10 10 10 10 10 10 10 10 10 10 10 10 10 10 10 10 10 10 10 10 10 10 10 10 10 10 10 10 10 10 10 10 10 10 10 10 10 10 10 10 10 10 10 10 10 10 10 10 10 10 10 10 10 10 10 10 10 10 10 10 10 10 10 10 10 10 10 10 10 10 10 10 10 10 10 10 10 10 10 10 10 10 10 10 10 10 10 10 10 10 10 10 10 10 10 10 10 10 10 10 10 10 10 10 10 10 10 10 10 10 10 10 10 10 10 10 10 10 10 10 10 10 10 10 10 10 10 10 10 10 10 10 10 10 10 10 10 10 10 10 10 10 10 10 10 10 10 10 10 10 10 10 10 10 10 10 10 10 10 10 10 10 10 10 10 10 10 10 10 10 10 10 10 10 10 10 10 10 10 10 10 10 10 10 10 10 10 10 10 10 10 10 10 10 10 10 10 10 10 10 10 10 10 10 10 10 10 10 10 10 10 10 10 10 10 10 10 10 10 10 10 10 10 10 10 10 10 10 10 10 10 10 10 10 10 10 10 10 10 10 10 10 10 10 10 10 10 10 10 10 10 10 10 10 10 10 10 10 10 10 10 10 10 10 10 10 10 10 10 10 10 10 10 10 10 10 10 10 10 10 10 10 10 10 10 10 10 10 10 10 10 10 10 10 10 10 10 10 10 10 10 10 10 10 10 10 10 10 10 10 10 10 10 10 10 10 10 10 10 10 10 10 10 10 10 10 10 10 10 10 10 10 10 10 10 10 10 10 10 10 10 10 10 10 10 10 10 10 10 10 10 10 10 10 10 10 10 10 10 10 10 10 10 10 10 10 10 10 10 10 10 10 10 10 10 10 10 10 10 10 10 10 10 10 10 10 10 10 10 10 10 10 10 10 10 10 10 10 10 10 10 10 10 10 10 10 10 10 10 10 10 10 10 10 10 10 10 10 10 10 10 10 10 10 10 10 10 10 10 10 10 10 10 10 10 10 10 10 10 10 10 10 10 10 10 10 10 10 10 10 10 10 10 10 10 10 10 10 10 10 10 10 10 10 10 10 10 10 10 10 10 10 10 10 10 10 10 10 10 10 10 10 10 10 10 10 10 10 10 10 10 10 10 10 10 10 10 10 10 10 10 10 10 10 10 10 10 10 10 10 10 10 10 10 10 10 10 10 10 10 10 10 10 10 10 10 10 10 10 10 10 10 10 10 10 10 10 10 10 10 10 10 10 10 10 10 10 10 10 10 10 10 10 10 10 10 10 10 10 10 10 10 10 10 10 10 10 10 10 10 10 10 10 10 10 10 10 10 10 10 10 10 10 10 10 10 10 10 10 10 10 10 10 10 10 10 10 10 10 10 10 10 10 10 10 10 10 10 10 10 10 10 10 10 10 10 10 10 10 10 10 10 10 10 10 10 10 10 10 10 10 10 10 10 10 10 10 10 10 10 10 10 10 10 10 10 10 10 10 10 10 10 10 10 10 10 10 10 10 10 10 10 10 10 10 10 10 10 10 10 10 10 10 10 10 10 10 10 10 10 10 10 10 10 10 10 10 10 10 10 10 10 10 10 10 10 10 10 10 10 10 10 10 10 10 10 10 10 10 10 10 10 10 10 10 10 10 10 10 10 10 10 10 10 10 10 10 10 10 10 10 10 10 10 10 10 10 10 10 10 10 10 10 10 10 10 10 10 10 10 10 10 10 10 10 10 10 10 10 10 10 10 10 10 10 10 10 10 10 10 10 10 10 10 10 10 10 10 10 10 10 10 10 10 10 10 10 10 10 10 10 10 10 10 10 10 10 10 10 10 10 10 10 10 10 10 10 10 10 10 10 10 10 10 10 10 10 10 10 10 10 10 10 10 10 10 10 10 10 10 10 10 10 10 10 10 10 10 10 10 10 10 10 10 10 10 10 10 10 10 10 10 10 10 10 10 10 10 10 10 10 10 10 10 10 10 10 10 10 10 10 10 10 10 10 10 10 10 10 10 10 10 10 10 10 10 10 10 10 10 10 10 10 10 10 10 10 10 10 10 10 10 10 10 10 10 10 10 10 10 10 10 10 10 10 10 10 10 10 10 10 10 10 10 10 10 10 10 10 10 10 10 10 10 10 10 10 10 10 10 10 10 10 10 10 10 10 10 10 10 10 10 10 10 10 10 10 10 10 10 10 10 10 10 10 10 10 10 10 10 10 10 10 10 10 10 10 10 10 10 10 10 10 10 10 10 10 10 10 10 10 10 10 10 10 10 10 10 10 10 10 10 10 10 10 10 10 10 10 10 10 10 10 10 10 10 10 10 10 10 10 10 10 10 10 10 10 10 10 10 10 10 10 10 10 10 10 10 10 10 10 10 10 10 10 10 10 10 10 10 10 10 10 10 10 10 10 10 10 10 10 10 10 10 10 10 10 10 10 10 10 10 10 10 10 10 10 10 10 10 10 10 10 10 10 10 10 10 10 10 10 10 10 10 10 10 10 10 10 10 10 10 10 10 10 10 10 10 10 10 10 10 10 10 10 10 10 10 10 10 10 10 10 10 10 10 10 10 10 10 10 10 10 10 10 10 10 10 10 10 10 10 10 10 10 10 10 10 10 10 10 10 10 10 10 10 10 10 10 10 10 10 10 10 10 10 10 10 10 10 10 10 10 10 10 10 10 10 10 10 10 10 10 10 10 10 10 10 10 10 10 10 10 10 10 10 10 10 10 10 10 10 10 10 10 10 10 10 10 10 10 10 10 10 10 10 10 10 10 10 10 10 10 10 10 10 10 10 10 10 10 10 10 10 10 10 10 10 10 10 10 10 10 10 10 10 10 10 10 10 10 10 10 10 10 10 10 10 10 10 10 10 10 10 10 10 10 10 10 10 10 10 10 10 10 10 10 10 10 10 10 10 10 10 10 10 10 10 10 10 10 10 10 10 10 10 10 10 10 10 10 10 10 10 10 10 10 10 10 10 10 10 10 10 10 10 10 10 10 10 10 10 10 10 10 10 10 10 10 10 10 10 10 10 10 10 10 10 10 10 10 10 10 10 10 10 10 10 10 10 10 10 10 10 10 10 10 10 10 10 10 10 10 10 10 10 10 10 10 10 10 10 10 10 10 10 10 10 10 10 10 10 10 10 10 10 10 10 10 10 10 10 10 10 10 10 10 10 10 10 10 10 10 10 10 10 10 10 10 10 10 10 10 10 10 10 10 10 10 10 10 10 10 10 10 10 10 10 10 10 10 10 10 10 10 10 10 10 10 10 10 10 10 10 10 10 10 10 10 10 10 10 10 10 10 10 10 10 10 10 10 10 10 10 10 10 10 10 10 10 10 10 10 10 10 10 10 10 10 10 10 10 10 10 10 10 10 10 10 10 10 10 10 10 10 10 10 10 10 10 10 10 10 10 10 10 10 10 10 10 10 10 10 10 10 10 10 10 10 10 10 10 10 10 10 10 10 10 10 10 10 10 10 10 10 10 10 10 10 10 10 10 10 10 10 10 10 10 10 10 10 10 10 10 10 10 10 10 10 10 10 10 10 10 10 10 10 10 10 10 10 10 10 10 10 10 10 10 10 10 10 10 10 10 10 10 10 10 10 10 10 10 10 10 10 10 10 10 10 10 10 10 10 10 10 10 10 10 10 10 10 10 10 10 10 10 10 10 10 10 10 10 10 10 10 10 10 10 10 10 10 10 10 10 10 10 10 10 10 10 10 10 10 10 10 10 10 10 10 10 10 10 10 10 10 10 10 10 10 10 10 10 10 10 10 10 10 10 10 10 10 10 10 10 10 10 10 10 10 10 10 10 10 10 10 10 10 10 10 10 10 10 10 10 10 10 10 10 10 10 10 10 10 10 10 10 10 10 10 10 10 10 10 10 10 10 10 10 10 10 10 10 10 10 10 10 10 10 10 10 10 10 10 10 10 10 10 10 10 10 10 10 10 10 10 10 10 10 10 10 10 10 10 10 10 10 10 10 10 10 10 10 10 10 10 10 10 10 10 10 10 10 10 10 10 10 10 10 10 10 10 10 10 10 10 10 10 10 10 10 10 10 10 10 10 10 10 10 10 10 10 10 10 10 10 10 10 10 10 10 10 10 10 10 10 10 10 10 10 10 10 10 10 10 10 10 10 10 10 10 10 10 10 10 10 10 10 10 10 10 10 10 10 10 10 10 10 10 10 10 10 10 10 10 10 10 10 10 10 10 10 10 10 10 10 10 10 10 10 10 10 10 10 10 10 10 10 10 10 10 10 10 10 10 10 10 10 10 10 10 10 10 10 10 10 10 10 10 10 10 10 10 10 10 10 10 10 10 10 10 10 10 10 10 10 10 10 10 10 10 10 10 10 10 10 10 10 10 10 10 10 10 10 10 10 10 10 10 10 10 10 10 10 10 10 10 10 10 10 10 10 10 10 10 10 10 10 10 10 10 10 10 10 10 10 10 10 10 10 10 10 10 10 10 10 10 10 10 10 10 10 10 10 10 10 10 10 10 10 10 10 10 10 10 10 10 10 10 10 10 10 10 10 10 10 10 10 10 10 10 10 10 10 10 10 10 10 10 10 10 10 10 10 10 10 10 10 10 10 10 10 10 10 10 10 10 10 10 10 10 10 10 10 10 10 10 10 10 10 10 10 10 10 10 10 10 10 10 10 10 10 10 10 10 10 10 10 10 10 10 10 10 10 10 10 10 10 10 10 10 10 10 10 10 10 10 10 10 10 10 10 10 10 10 10 10 10 10 10 10 10 10 10 10 10 10 10 10 10 10 10 10 10 10 10 10 10 10 10 10 10 10 10 10 10 10 10 10 10 10 10 10 10 10 10 10 10 10 10 10 10 10 10 10 10 10 10 10 10 10 10 10 10 10 10 10 10 10 10 10 10 10 10 10 10 10 10 10 10 10 10 10 10 10 10 10 10 10 10 10 10 10 10 10 10 10 10 10 10 10 10 10 10 10 10 10 10 10 10 10 10 10 10 10 10 10 10 10 10 10 10 10 10 10 10 10 10 10 10 10 10 10 10 10 10 10 10 10 10 10 10 10 10 10 10 10 10 10 10 10 10 10 10 10 10 10 10 10 10 10 10 10 10 10 10 10 10 10 10 10 10 10 10 10 10 10 10 10 10 10 10 10 10 10 10 10 10 10 10 10 10 10 10 10 10 10 10 10 10 10 10 10 10 10 10 10 10 10 10 10 10 10 10 10 10 10 10 10 10 10 10 10 10 10 10 10 10 10 10 10 10 10 10 10 10 10 10 10 10 10 10 10 10 10 10 10 10 10 10 10 10 10 10 10 10 10 10 10 10 10 10 10 10 10 10 10 10 10 10 10 10 10 10 10 10 10 10 10 10 10 10 10 10 10 10 10 10 10 10 10 10 10 10 10 10 10 10 10 10 10 10 10 10 10 10 10 10 10 10 10 10 10 10 10 10 10 10 10 10 10 10 10 10 10 10 10 10 10 10 10 10 10 10 10 10 10 10 10 10 10 10 10 10 10 10 10 10 10 10 10 10 10 10 10 10 10 10 10 10 10 10 10 10 10 10 10 10 10 10 10 10 10 10 10 10 10 10 10 10 10 10 10 10 10 10 10 10 10 10 10 10 10 10 10 10 10 10 10 10 10 10 10 10 10 10 10 10 10 10 10 10 10 10 10 10 10 10 10 10 10 10 10 10 10 10 10 10 10 10 10 10 10 10 10 10 10 10 10 10 10 10 10 10 10 10 10 10 10 10 10 10 10 10 10 10 10 10 10 10 10 10 10 10 10 10 10 10 10 10 10 10 10 10 10 10 10 10 10 10 10 10 10 10 10 10 10 10 10 10 10 10 10 10 10 10 10 10 10 10 10 10 10 10 10 10 10 10 10 10 10 10 10 10 10 10 10 10 10 10 10 10 10 10 10 10 10 10 10 10 10 10 10 10 10 10 10 10 10 10 10 10 10 10 10 10 10 10 10 10 10 10 10 10 10 10 10 10 10 10 10 10 10 10 10 10 10 10 10 10 10 10 10 10 10 10 10 10 10 10 10 10 10 10 10 10 10 10 10 10 10 10 10 10 10 10 10 10 10 10 10 10 10 10 10 10 10 10 10 10 10 10 10 10 10 10 10 10 10 10 10 10 10 10 10 10 10 10 10 10 10 10 10 10 10 10 10 10 10 10 10 10 10 10 10 10 10 10 10 10 10 10 10 10 10 10 10 10 10 10 10 10 10 10 10 10 10 10 10 10 10 10 10 10 10 10 10 10 10 10 10 10 10 10 10 10 10 10 10 10 10 10 10 10 10 10 10 10 10 10 10 10 10 10 10 10 10 10 10 10 10 10 10 10 10 10 10 10 10 10 10 10 10 10 10 10 10 10 10 10 10 10 10 10 10 10 10 10 10 10 10 10 10 10 10 10 10 10 10 10 10 10 10 10 10 10 10 10 10 10 10 10 10 10 10 10 10 10 10 10 10 10 10 10 10 10 10 10 10 10 10 10 10 10 10 10 10 10 10 10 10 10 10 10 10 10 10 10 10 10 10 10 10 10 10 10 10 10 10 10 10 10 10 10 10 10 10 10 10 10 10 10 10 10 10 10 10 10 10 10 10 10 10 10 10 10 10 10 10 10 10 10 10 10 10 10 10 10 10 10 10 10 10 10 10 10 10 10 10 10 10 10 10 10 10 10 10 10 10 10 10 10 10 10 10 10 10 10 10 10 10 10 10 10 10 10 10 10 10 10 10 10 10 10 10 10 10 10 10 10 10 10 10 10 10 10 10 10 10 10 10 10 10 10 10 10 10 10 10 10 10 10 10 10 10 10 10 10 10 10 10 10 10 10 10 10 10 10 10 10 10 10 10 10 10 10 10 10 10 10 10 10 10 10 10 10 10 10 10 10 10 10 10 10 10 10 10 10 10 10 10 10 10 10 10 10 10 10 10 10 10 10 10 10 10 10 10 10 10 10 10 10 10 10 10 10 10 10 10 10 10 10 10 10 10 10 10 10 10 10 10 10 10 10 10 10 10 10 10 10 10 10 10 10 10 10 10 10 10 10 10 10 10 10 10 10 10 10 10 10 10 10 10 10 10 10 10 10 10 10 10 10 10 10 10 10 10 10 10 10 10 10 10 10 10 10 10 10 10 10 10 10 10 10 10 10 10 10 10 10 10 10 10 10 10 10 10 10 10 10 10 10 10 10 10 10 10 10 10 10 10 10 10 10 10 10 10 10 10 10 10 10 10 10 10 10 10 10 10 10 10 10 10 10 10 10 10 10 10 10 10 10 10 10 10 10 10 10 10 10 10 10 10 10 10 10 10 10 10 10 10 10 10 10 10 10 10 10 10 10 10 10 10 10 10 10 10 10 10 10 10 10 10 10 10 10 10 10 10 10 10 10 10 10 10 10 10 10 10 10 10 10 10 10 10 10 10 10 10 10 10 10 10 10 10 10 10 10 10 10 10 10 10 10 10 10 10 10 10 10 10 10 10 10 10 10 10 10 10 10 10 10 10 10 10 10 10 10 10 10 10 10 10 10 10 10 10 10 10 10 10 10 10 10 10 10 10 10 10 10 10 10 10 10 10 10 10 10 10 10 10 10 10 10 10 10 10 10 10 10 10 10 10 10 10 10 10 10 10 10 10 10 10 10 10 10 10 10 10 10 10 10 10 10 10 10 10 10 10 10 10 10 10 10 10 10 10 10 10 10 10 10 10 10 10 10 10 10 10 10 10 10 10 10 10 10 10 10 10 10 10 10 10 10 10 10 10 10 10 10 10 10 10 10 10 10 10 10 10 10 10 10 10 10 10 10 10 10 10 10 10 10 10 10 10 10 10 10 10 10 10 10 10 10 10 10 10 10 10 10 10 10 10 10 10 10 10 10 10 10 10 10 10 10 10 10 10 10 10 10 10 10 10 10 10 10 10 10 10 10 10 10 10 10 10 10 10 10 10 10 10 10 10 10 10 10 10 10 10 10 10 10 10 10 10 10 10 10 10 10 10 10 10 10 10 10 10 10 10 10 10 10 10 10 10 10 10 10 10 10 10 10 10 10 10 10 10 10 10 10 10 10 10 10 10 10 10 10 10 10 10 10 10 10 10 10 10 10 10 10 10 10 10 10 10 10 10 10 10 10 10 10 10 10 10 10 10 10 10 10 10 10 10 10 10 10 10 10 10 10 10 10 10 10 10 10 10 10 10 10 10 10 10 10 10 10 10 10 10 10 10 10 10 10 10 10 10 10 10 10 10 10 10 10 10 10 10 10 10 10 10 10 10 10 10 10 10 10 10 10 10 10 10 10 10 10 10 10 10 10 10 10 10 10 10 10 10 10 10 10 10 10 10 10 10 10 10 10 10 10 10 10 10 10 10 10 10 10 10 10 10 10 10 10 10 10 10 10 10 10 10 10 10 10 10 10 10 10 10 10 10 10 10 10 10 10 10 10 10 10 10 10 10 10 10 10 10 10 10 10 10 10 10 10 10 10 10 10 10 10 10 10 10 10 10 10 10 10 10 10 10 10 10 10 10 10 10 10 10 10 10 10 10 10 10 10 10 10 10 10 10 10 10 10 10 10 10 10 10 10 10 10 10 10 10 10 10 10 10 10 10 10 10 10 10 10 10 10 10 10 10 10 10 10 10 10 10 10 10 10 10 10 10 10 10 10 10 10 10 10 10 10 10 10 10 10 10 10 10 10 10 10 10 10 10 10 10 10 10 10 10 10 10 10 10 10 10 10 10 10 10 10 10 10 10 10 10 10 10 10 10 10 10 10 10 10 10 10 10 10 10 10 10 10 10 10 10 10 10 10 10 10 10 10 10 10 10 10 10 10 10 10 10 10 10 10 10 10 10 10 10 10 10 10 10 10 10 10 10 10 10 10 10 10 10 10 10 10 10 10 10 10 10 10 10 10 10 10 10 10 10 10 10 10 10 10 10 10 10 10 10 10 10 10 10 10 10 10 10 10 10 10 10 10 10 10 10 10 10 10 10 10 10 10 10 10 10 10 10 10 10 10 10 10 10 10 10 10 10 10 10 10 10 10 10 10 10 10 10 10 10 10 10 10 10 10 10 10 10 10 10 10 10 10 10 10 10 10 10 10 10 10 10 10 10 10 10 10 10 10 10 10 10 10 10 10 10 10 10 10 10 10 10 10 10 10 10 10 10 10 10 10 10 10 10 10 10 10 10 10 10 10 10 10 10 10 10 10 10 10 10 10 10 10 10 10 10 10 10 10 10 10 10 10 10 10 10 10 10 10 10 10 10 10 10 10 10 10 10 10 10 10 10 10 10 10 10 10 10 10 10 10 10 10 10 10 10 10 10 10 10 10 10 10 10 10 10 10 10 10 10 10 10 10 10 10 10 10 10 10 10 10 10 10 10 10 10 10 10 10 10 10 10 10 10 10 10 10 10 10 10 10 10 10 10 10 10 10 10 10 10 10 10 10 10 10 10 10 10 10 10 10 10 10 10 10 10 10 10 10 10 10 10 10 10 10 10 10 10 10 10 10 10 10 10 10 10 10 10 10 10 10 10 10 10 10 10 10 10 10 10 10 10 10 10 10 10 10 10 10 10 10 10 10 10 10 10 10 10 10 10 10 10 10 10 10 10 10 10 10 10 10 10 10 10 10 10 10 10 10 10 10 10 10 10 10 10 10 10 10 10 10 10 10 10 10 10 10 10 10 10 10 10 10 10 10 10 10 10 10 10 10 10 10 10 10 10 10 10 10 10 10 10 10 10 10 10 10 10 10 10 10 10 10 10 10 10 10 10 10 10 10 10 10 10 10 10 10 10 10 10 10 10 10 10 10 10 10 10 10 10 10 10 10 10 10 10 10 10 10 10 10 10 10 10 10 10 10 10 10 10 10 10 10 10 10 10 10 10 10 10 10 10 10 10 10 10 10 10 10 10 10 10 10 10 10 10 10 10 10 10 10 10 10 10 10 10 10 10 10 10 10 10 10 10 10 10 10 10 10 10 10 10 10 10 10 10 10 10 10 10 10 10 10 10 10 10 10 10 10 10 10 10 10 10 10 10 10 10 10 10 10 10 10 10 10 10 10 10 10 10 10 10 10 10 10 10 10 10 10 10 10 10 10 10 10 10 10 10 10 10 10 10 10 10 10 10 10 10 10 10 10 10 10 10 10 10 10 10 10 10 10 10 10 10 10 10 10 10 10 10 10 10 10 10 10 10 10 10 10 10 10 10 10 10 10 10 10 10 10 10 10 10 10 10 10 10 10 10 10 10 10 10 10 10 10 10 10 10 10 10 10 10 10 10 10 10 10 10 10 10 10 10 10 10 10 10 10 10 10 10 10 10 10 10 10 10 10 10 10 10 10 10 10 10 10 10 10 10 10 10 10 10 10 10 10 10 10 10 10 10 10 10 10 10 10 10 10 10 10 10 10 10 10 10 10 10 10 10 10 10 10 10 10 10 10 10 10 10 10 10 10 10 10 10 10 10 10 10 10 10 10 10 10 10 10 10 10 10 10 10 10 10 10 10 10 10 10 10 10 10 10 10 10 10 10 10 10 10 10 10 10 10 10 10 10 10 10 10 10 10 10 10 10 10 10 10 10 10 10 10 10 10 10 10 10 10 10 10 10 10 10 10 10 10 10 10 10 10 10 10 10 10 10 10 10 10 10 10 10 10 10 10 10 10 10 10 10 10 10 10 10 10 10 10 10 10 10 10 10 10 10 10 10 10 10 10 10 10 10 10 10 10 10 10 10 10 10 10 10 10 10 10 10 10 10 10 10 10 10 10 10 10 10 10 10 10 10 10 10 10 10 10 10 10 10 10 10 10 10 10 10 10 10 10 10 10 10 10 10 10 10 10 10 10 10 10 10 10 10 10 10 10 10 10 10 10 10 10 10 10 10 10 10 10 10 10 10 10 10 10 10 10 10 10 10 10 10 10 10 10 10 10 10 10 10 10 10 10 10 10 10 10 10 10 10 10 10 10 10 10 10 10 10 10 10 10 10 10 10 10 10 10 10 10 10 10 10 10 10 10 10 10 10 10 10 10 10 10 10 10 10 10 10 10 10 10 10 10 10 10 10 10 10 10 10 10 10 10 10 10 10 10 10 10 10 10 10 10 10 10 10 10 10 10 10 10 10 10 10 10 10 10 10 10 10 10 10 10 10 10 10 10 10 10 10 10 10 10 10 10 10 10 10 10 10 10 10 10 10 10 10 10 10 10 10 10 10 10 10 10 10 10 10 10 10 10 10 10 10 10 10 10 10 10 10 10 10 10 10 10 10 10 10 10 10 10 10 10 10 10 10 10 10 10 10 10 10 10 10 10 10 10 10 10 10 10 10 10 10 10 10 10 10 10 10 10 10 10 10 10 10 10 10 10 10 10 10 10 10 10 10 10 10 10 10 10 10 10 10 10 10 10 10 10 10 10 10 10 10 10 10 10 10 10 10 10 10 10 10 10 10 10 10 10 10 10 10 10 10 10 10 10 10 10 10 10 10 10 10 10 10 10 10 10 10 10 10 10 10 10 10 10 10 10 10 10 10 10 10 10 10 10 10 10 10 10 10 10 10 10 10 10 10 10 10 10 10 10 10 10 10 10 10 10 10 10 10 10 10 10 10 10 10 10 10 10 10 10 10 10 10 10 10 10 10 10 10 10 10 10 10 10 10 10 10 10 10 10 10 10 10 10 10 10 10 10 10 10 10 10 10 10 10 10 10 10 10 10 10 10 10 10 10 10 10 10 10 10 10 10 10 10 10 10 10 10 10 10 10 10 10 10 10 10 10 10 10 10 10 10 10 10 10 10 10 10 10 10 10 10 10 10 10 10 10 10 10 10 10 10 10 10 10 10 10 10 10 10 10 10 10 10 10 10 10 10 10 10 10 10 10 10 10 10 10 10 10 10 10 10 10 10 10 10 10 10 10 10 10 10 10 10 10 10 10 10 10 10 10 10 10 10 10 10 10 10 10 10 10 10 10 10 10 10 10 10 10 10 10 10 10 10 10 10 10 10 10 10 10 10 10 10 10 10 10 10 10 10 10 10 10 10 10 10 10 10 10 10 10 10 10 10 10 10 10 10 10 10 10 10 10 10 10 10 10 10 10 10 10 10 10 10 10 10 10 10 10 10 10 10 10 10 10 10 10 10 10 10 10 10 10 10 10 10 10 10 10 10 10 10 10 10 10 10 10 10 10 10 10 10 10 10 10 10 10 10 10 10 10 10 10 10 10 10 10 10 10 10 10 10 10 10 10 10 10 10 10 10 10 10 10 10 10 10 10 10 10 10 10 10 10 10 10 10 10 10 10 10 10 10 10 10 10 10 10 10 10 10 10 10 10 10 10 10 10 10 10 10 10 10 10 10 10 10 10 10 10 10 10 10 10 10 10 10 10 10 10 10 10 10 10 10 10 10 10 10 10 10 10 10 10 10 10 10 10 10 10 10 10 10 10 10 10 10 10 10 10 10 10 10 10 10 10 10 10 10 10 10 10 10 10 10 10 10 10 10 10 10 10 10 10 10 10 10 10 10 10 10 10 10 10 10 10 10 10 10 10 10 10 10 10 10 10 10 10 10 10 10 10 10 10 10 10 10 10 10 10 10 10 10 10 10 10 10 10 10 10 10 10 10 10 10 10 10 10 10 10 10 10 10 10 10 10 10 10 10 10 10 10 10 10 10 10 10 10 10 10 10 10 10 10 10 10 10 10 10 10 10 10 10 10 10 10 10 10 10 10 10 10 10 10 10 10 10 10 10 10 10 10 10 10 10 10 10 10 10 10 10 10 10 10 10 10 10 10 10 10 10 10 10 10 10 10 10 10 10 10 10 10 10 10 10 10 10 10 10 10 10 10 10 10 10 10 10 10 10 10 10 10 10 10 10 10 10 10 10 10 10 10 10 10 10 10 10 10 10 10 10 10 10 10 10 10 10 10 10 10 10 10 10 10 10 10 10 10 10 10 10 10 10 10 10 10 10 10 10 10 10 10 10 10 10 10 10 10 10 10 10 10 10 10 10 10 10 10 10 10 10 10 10 10 10 10 10 10 10 10 10 10 10 10 10 10 10 10 10 10 10 10 10 10 10 10 10 10 10 10 10 10 10 10 10 10 10 10 10 10 10 10 10 10 10 10 10 10 10 10 10 10 10 10 10 10 10 10 10 10 10 10 10 10 10 10 10 10 10 10 10 10 10 10 10 10 10 10 10 10 10 10 10 10 10 10 10 10 10 10 10 10 10 10 10 10 10 10 10 10 10 10 10 10 10 10 10 10 10 10 10 10 10 10 10 10 10 10 10 10 10 10 10 10 10 10 10 10 10 10 10 10 10 10 10 10 10 10 10 10 10 10 10 10 10 10 10 10 10 10 10 10 10 10 10 10 10 10 10 10 10 10 10 10 10 10 10 10 10 10 10 10 10 10 10 10 10 10 10 10 10 10 10 10 10 10 10 10 10 10 10 10 10 10 10 10 10 10 10 10 10 10 10 10 10 10 10 10 10 10 10 10 10 10 10 10 10 10 10 10 10 10 10 10 10 10 10 10 10 10 10 10 10 10 10 10 10 10 10 10 10 10 10 10 10 10 10 10 10 10 10 10 10 10 10 10 10 10 10 10 10 10 10 10 10 10 10 10 10 10 10 10 10 10 10 10 10 10 10 10 10 10 10 10 10 10 10 10 10 10 10 10 10 10 10 10 10 10 10 10 10 10 10 10 10 10 10 10 10 10 10 10 10 10 10 10 10 10 10 10 10 10 10 10 10 10 10 10 10 10 10 10 10 10 10 10 10 10 10 10 10 10 10 10 10 10 10 10 10 10 10 10 10 10 10 10 10 10 10 10 10 10 10 10 10 10 10 10 10 10 10 10 10 10 10 10 10 10 10 10 10 10 10 10 10 10 10 10 10 10 10 10 10 10 10 10 10 10 10 10 10 10 10 10 10 10 10 10 10 10 10 10 10 10 10 10 10 10 10 10 10 10 10 10 10 10 10 10 10 10 10 10 10 10 10 10 10 10 10 10 10 10 10 10 10 10 10 10 10 10 10 10 10 10 10 10 10 10 10 10 10 10 10 10 10 10 10 10 10 10 10 10 10 10 10 10 10 10 10 10 10 10 10 10 10 10 10 10 10 10 10 10 10 10 10 10 10 10 10 10 10 10 10 10 10 10 10 10 10 10 10 10 10 10 10 10 10 10 10 10 10 10 10 10 10 10 10 10 10 10 10 10 10 10 10 10 10 10 10 10 10 10 10 10 10 10 10 10 10 10 10 10 10 10 10 10 10 10 10 10 10 10 10 10 10 10 10 10 10 10 10 10 10 10 10 10 10 10 10 10 10 10 10 10 10 10 10 10 10 10 10 10 10 10 10 10 10 10 10 10 10 10 10 10 10 10 10 10 10 10 10 10 10 10 10 10 10 10 10 10 10 10 10 10 10 10 10 10 10 10 10 10 10 10 10 10 10 10 10 10 10 10 10 10 10 10 10 10 10 10 10 10 10 10 10 10 10 10 10 10 10 10 10 10 10 10 10 10 10 10 10 10 10 10 10 10 10 10 10 10 10 10 10 10 10 10 10 10 10 10 10 10 10 10 10 10 10 10 10 10 10 10 10 10 10 10 10 10 10 10 10 10 10 10 10 10 10 10 10 10 10 10 10 10 10 10 10 10 10 10 10 10 10 10 10 10 10 10 10 10 10 10 10 10 10 10 10 10 10 10 10 10 10 10 10 10 10 10 10 10 10 10 10 10 10 10 10 10 10 10 10 10 10 10 10 10 10 10 10 10 10 10 10 10 10 10 10 10 10 10 10 10 10 10 10 10 10 10 10 10 10 10 10 10 10 10 10 10 10 10 10 10 10 10 10 10 10 10 10 10 10 10 10 10 10 10 10 10 10 10 10 10 10 10 10 10 10 10 10 10 10 10 10 10 10 10 10 10 10 10 10 10 10 10 10 10 10 10 10 10 10 10 10 10 10 10 10 10 10 10 10 10 10 10 10 10 10 10 10 10 10 10 10 10 10 10 10 10 10 10 10 10 10 10 10 10 10 10 10 10 10 10 10 10 10 10 10 10 10 10 10 10 10 10 10 10 10 10 10 10 10 10 10 10 10 10 10 10 10 10 10 10 10 10 10 10 10 10 10 10 10 10 10 10 10 10 10 10 10 10 10 10 10 10 10 10 10 10 10 10 10 10 10 10 10 10 10 10 10 10 10 10 10 10 10 10 10 10 10 10 10 10 10 10 10 10 10 10 10 10 10 10 10 10 10 10 10 10 10 10 10 10 10 10 10 10 10 10 10 10 10 10 10 10 10 10 10 10 10 10 10 10 10 10 10 10 10 10 10 10 10 10 10 10 10 10 10 10 10 10 10 10 10 10 10 10 10 10 10 10 10 10 10 10 10 10 10 10 10 10 10 10 10 10 10 10 10 10 10 10 10 10 10 10 10 10 10 10 10 10 10 10 10 10 10 10 10 10 10 10 10 10 10 10 10 10 10 10 10 10 10 10 10 10 10 10 10 10 10 10 10 10 10 10 10 10 10 10 10 10 10 10 10 10 10 10 10 10 10 10 10 10 10 10 10 10 10 10 10 10 10 10 10 10 10 10 10 10 10 10 10 10 10 10 10 10 10 10 10 10 10 10 10 10 10 10 10 10 10 10 10 10 10 10 10 10 10 10 10 10 10 10 10 10 10 10 10 10 10 10 10 10 10 10 10 10 10 10 10 10 10 10 10 10 10 10 10 10 10 10 10 10 10 10 10 10 10 10 10 10 10 10 10 10 10 10 10 10 10 10 10 10 10 10 10 10 10 10 10 10 10 10 10 10 10 10 10 10 10 10 10 10 10 10 10 10 10 10 10 10 10 10 10 10 10 10 10 10 10 10 10 10 10 10 10 10 10 10 10 10 10 10 10 10 10 10 10 10 10 10 10 10 10 10 10 10 10 10 10 10 10 10 10 10 10 10 10 10 10 10 10 10 10 10 10 10 10 10 10 10 10 10 10 10 10 10 10 10 10 10 10 10 10 10 10 10 10 10 10 10 10 10 10 10 10 10 10 10 10 10 10 10 10 10 10 10 10 10 10 10 10 10 10 10 10 10 10 10 10 10 10 10 10 10 10 10 10 10 10 10 10 10 10 10 10 10 10 10 10 10 10 10 10 10 10 10 10 10 10 10 10 10 10 10 10 10 10 10 10 10 10 10 10 10 10 10 10 10 10 10 10 10 10 10 10 10 10 10 10 10 10 10 10 10 10 10 10 10 10 10 10 10 10 10 10 10 10 10 10 10 10 10 10 10 10 10 10 10 10 10 10 10 10 10 10 10 10 10 10 10 10 10 10 10 10 10 10 10 10 10 10 10 10 10 10 10 10 10 10 10 10 10 10 10 10 10 10 10 10 10 10 10 10 10 10 10 10 10 10 10 10 10 10 10 10 10 10 10 10 10 10 10 10 10 10 10 10 10 10 10 10 10 10 10 10 10 10 10 10 10 10 10 10 10 10 10 10 10 10 10 10 10 10 10 10 10 10 10 10 10 10 10 10 10 10 10 10 10 10 10 10 10 10 10 10 10 10 10 10 10 10 10 10 10 10 10 10 10 10 10 10 10 10 10 10 10 10 10 10 10 10 10 10 10 10 10 10 10 10 10 10 10 10 10 10 10 10 10 10 10 10 10 10 10 10 10 10 10 10 10 10 10 10 10 10 10 10 10 10 10 10 10 10 10 10 10 10 10 10 10 10 10 10 10 10 10 10 10 10 10 10 10 10 10 10 10 10 10 10 10 10 10 10 10 10 10 10 10 10 10 10 10 10 10 10 10 10 10 10 10 10 10 10 10 10 10 10 10 10 10 10 10 10 10 10 10 10 10 10 10 10 10 10 10 10 10 10 10 10 10 10 10 10 10 10 10 10 10 10 10 10 10 10 10 10 10 10 10 10 10 10 10 10 10 10 10 10 10 10 10 10 10 10 10 10 10 10 10 10 10 10 10 10 10 10 10 10 10 10 10 10 10 10 10 10 10 10 10 10 10 10 10 10 10 10 10 10 10 10 10 10 10 10 10 10 10 10 10 10 10 10 10 10 10 10 10 10 10 10 10 10 10 10 10 10 10 10 10 10 10 10 10 10 10 10 10 10 10 10 10 10 10 10 10 10 10 10 10 10 10 10 10 10 10 10 10 10 10 10 10 10 10 10 10 10 10 10 10 10 10 10 10 10 10 10 10 10 10 10 10 10 10 10 10 10 10 10 10 10 10 10 10 10 10 10 10 10 10 10 10 10 10 10 10 10 10 10 10 10 10 10 10 10 10 10 10 10 10 10 10 10 10 10 10 10 10 10 10 10 10 10 10 10 10 10 10 10 10 10 10 10 10 10 10 10 10 10 10 10 10 10 10 10 10 10 10 10 10 10 10 10 10 10 10 10 10 10 10 10 10 10 10 10 10 10 10 10 10 10 10 10 10 10 10 10 10 10 10 10 10 10 10 10 10 10 10 10 10 10 10 10 10 10 10 10 10 10 10 10 10 10 10 10 10 10 10 10 10 10 10 10 10 10 10 10 10 10 10 10 10 10 10 10 10 10 10 10 10 10 10 10 10 10 10 10 10 10 10 10 10 10 10 10 10 10 10 10 10 10 10 10 10 10 10 10 10 10 10 10 10 10 10 10 10 10 10 10 10 10 10 10 10 10 10 10 10 10 10 10 10 10 10 10 10 10 10 10 10 10 10 10 10 10 10 10 10 10 10 10 10 10 10 10 10 10 10 10 10 10 10 10 10 10 10 10 10 10 10 10 10 10 10 10 10 10 10 10 10 10 10 10 10 10 10 10 10 10 10 10 10 10 10 10 10 10 10 10 10 10 10 10 10 10 10 10 10 10 10 10 10 10 10 10 10 10 10 10 10 10 10 10 10 10 10 10 10 10 10 10 10 10 10 10 10 10 10 10 10 10 10 10 10 10 10 10 10 10 10 10 10 10 10 10 10 10 10 10 10 10 10 10 10 10 10 10 10 10 10 10 10 10 10 10 10 10 10 10 10 10 10 10 10 10 10 10 10 10 10 10 10 10 10 10 10 10 10 10 10 10 10 10 10 10 10 10 10 10 10 10 10 10 10 10 10 10 10 10 10 10 10 10 10 10 10 10 10 10 10 10 10 10 10 10 10 10 10 10 10 10 10 10 10 10 10 10 10 10 10 10 10 10 10 10 10 10 10 10 10 10 10 10 10 10 10 10 10 10 10 10 10 10 10 10 10 10 10 10 10 10 10 10 10 10 10 10 10 10 10 10 10 10 10 10 10 10 10 10 10 10 10 10 10 10 10 10 10 10 10 10 10 10 10 10 10 10 10 10 10 10 10 10 10 10 10 10 10 10 10 10 10 10 10 10 10 10 10 10 10 10 10 10 10 10 10 10 10 10 10 10 10 10 10 10 10 10 10 10 10 10 10 10 10 10 10 10 10 10 10 10 10 10 10 10 10 10 10 10 10 10 10 10 10 10 10 10 10 10 10 10 10 10 10 10 10 10 10 10 10 10 10 10 10 10 10 10 10 10 10 10 10 10 10 10 10 10 10 10 10 10 10 10 10 10 10 10 10 10 10 10 10 10 10 10 10 10 10 10 10 10 10 10 10 10 10 10 10 10 10 10 10 10 10 10 10 10 10 10 10 10 10 10 10 10 10 10 10 10 10 10 10 10 10 10 10 10 10 10 10 10 10 10 10 10 10 10 10 10 10 10 10 10 10 10 10 10 10 10 10 10 10 10 10 10 10 10 10 10 10 10 10 10 10 10 10 10 10 10 10 10 10 10 10 10 10 10 10 10 10 10 10 10 10 10 10 10 10 10 10 10 10 10 10 10 10 10 10 10 10 10 10 10 10 10 10 10 10 10 10 10 10 10 10 10 10 10 10 10 10 10 10 10 10 10 10 10 10 10 10 10 10 10 10 10 10 10 10 10 10 10 10 10 10 10 10 10 10 10 10 10 10 10 10 10 10 10 10 10 10 10 10 10 10 10 10 10 10 10 10 10 10 10 10 10 10 10 10 10 10 10 10 10 10 10 10 10 10 10 10 10 10 10 10 10 10 10 10 10 10 10 10 10 10 10 10 10 10 10 10 10 10 10 10 10 10 10 10 10 10 10 10 10 10 10 10 10 10 10 10 10 10 10 10 10 10 10 10 10 10 10 10 10 10 10 10 10 10 10 10 10 10 10 10 10 10 10 10 10 10 10 10 10 10 10 10 10 10 10 10 10 10 10 10 10 10 10 10 10 10 10 10 10 10 10 10 10 10 10 10 10 10 10 10 10 10 10 10 10 10 10 10 10 10 10 10 10 10 10 10 10 10 10 10 10 10 10 10 10 10 10 10 10 10 10 10 10 10 10 10 10 10 10 10 10 10 10 10 10 10 10 10 10 10 10 10 10 10 10 10 10 10 10 10 10 10 10 10 10 10 10 10 10 10 10 10 10 10 10 10 10 10 10 10 10 10 10 10 10 10 10 10 10 10 10 10 10 10 10 10 10 10 10 10 10 10 10 10 10 10 10 10 10 10 10 10 10 10 10 10 10 10 10 10 10 10 10 10 10 10 10 10 10 10 10 10 10 10 10 10 10 10 10 10 10 10 10 10 10 10 10 10 10 10 10 10 10 10 10 10 10 10 10 10 10 10 10 10 10 10 10 10 10 10 10 10 10 10 10 10 10 10 10 10 10 10 10 10 10 10 10 10 10 10 10 10 10 10 10 10 10 10 10 10 10 10 10 10 10 10 10 10 10 10 10 10 10 10 10 10 10 10 10 10 10 10 10 10 10 10 10 10 10 10 10 10 10 10 10 10 10 10 10 10 10 10 10 10 10 10 10 10 10 10 10 10 10 10 10 10 10 10 10 10 10 10 10 10 10 10 10 10 10 10 10 10 10 10 10 10 10 10 10 10 10 10 10 10 10 10 10 10 10 10 10 10 10 10 10 10 10 10 10 10 10 10 10 10 10 10 10 10 10 10 10 10 10 10 10 10 10 10 10 10 10 10 10 10 10 10 10 10 10 10 10 10 10 10 10 10 10 10 10 10 10 10 10 10 10 10 10 10 10 10 10 10 10 10 10 10 10 10 10 10 10 10 10 10 10 10 10 10 10 10 10 10 10 10 10 10 10 10 10 10 10 10 10 10 10 10 10 10 10 10 10 10 10 10 10 10 10 10 10 10 10 10 10 10 10 10 10 10 10 10 10 10 10 10 10 10 10 10 10 10 10 10 10 10 10 10 10 10 10 10 10 10 10 10 10 10 10 10 10 10 10 10 10 10 10 10 10 10 10 10 10 10 10 10 10 10 10 10 10 10 10 10 10 10 10 10 10 10 10 10 10 10 10 10 10 10 10 10 10 10 10 10 10 10 10 10 10 10 10 10 10 10 10 10 10 10 10 10 10 10 10 10 10 10 10 10 10 10 10 10 10 10 10 10 10 10 10 10 10 10 10 10 10 10 10 10 10 10 10 10 10 10 10 10 10 10 10 10 10 10 10 10 10 10 10 10 10 10 10 10 10 10 10 10 10 10 10 10 10 10 10 10 10 10 10 10 10 10 10 10 10 10 10 10 10 10 10 10 10 10 10 10 10 10 10 10 10 10 10 10 10 10 10 10 10 10 10 10 10 10 10 10 10 10 10 10 10 10 10 10 10 10 10 10 10 10 10 10 10 10 10 10 10 10 10 10 10 10 10 10 10 10 10 10 10 10 10 10 10 10 10 10 10 10 10 10 10 10 10 10 10 10 10 10 10 10 10 10 10 10 10 10 10 10 10 10 10 10 10 10 10 10 10 10 10 10 10 10 10 10 10 10 10 10 10 10 10 10 10 10 10 10 10 10 10 10 10 10 10 10 10 10 10 10 10 10 10 10 10 10 10 10 10 10 10 10 10 10 10 10 10 10 10 10 10 10 10 10 10 10 10 10 10 10 10 10 10 10 10 10 10 10 10 10 10 10 10 10 10 10 10 10 10 10 10 10 10 10 10 10 10 10 10 10 10 10 10 10 10 10 10 10 10 10 10 10 10 10 10 10 10 10 10 10 10 10 10 10 10 10 10 10 10 10 10 10 10 10 10 10 10 10 10 10 10 10 10 10 10 10 10 10 10 10 10 10 10 10 10 10 10 10 10 10 10 10 10 10 10 10 10 10 10 10 10 10 10 10 10 10 10 10 10 10 10 10 10 10 10 10 10 10 10 10 10 10 10 10 10 10 10 10 10 10 10 10 10 10 10 10 10 10 10 10 10 10 10 10 10 10 10 10 10 10 10 10 10 10 10 10 10 10 10 10 10 10 10 10 10 10 10 10 10 10 10 10 10 10 10 10 10 10 10 10 10 10 10 10 10 10 10 10 10 10 10 10 10 10 10 10 10 10 10 10 10 10 10 10 10 10 10 10 10 10 10 10 10 10 10 10 10 10 10 10 10 10 10 10 10 10 10 10 10 10 10 10 10 10 10 10 10 10 10 10 10 10 10 10 10 10 10 10 10 10 10 10 10 10 10 10 10 10 10 10 10 10 10 10 10 10 10 10 10 10 10 10 10 10 10 10 10 10 10 10 10 10 10 10 10 10 10 10 10 10 10 10 10 10 10 10 10 10 10 10 10 10 10 10 10 10 10 10 10 10 10 10 10 10 10 10 10 10 10 10 10 10 10 10 10 10 10 10 10 10 10 10 10 10 10 10 10 10 10 10 10 10 10 10 10 10 10 10 10 10 10 10 10 10 10 10 10 10 10 10 10 10 10 10 10 10 10 10 10 10 10 10 10 10 10 10 10 10 10 10 10 10 10 10 10 10 10 10 10 10 10 10 10 10 10 10 10 10 10 10 10 10 10 10 10 10 10 10 10 10 10 10 10 10 10 10 10 10 10 10 10 10 10 10 10 10 10 10 10 10 10 10 10 10 10 10 10 10 10 10 10 10 10 10 10 10 10 10 10 10 10 10 10 10 10 10 10 10 10 10 10 10 10 10 10 10 10 10 10 10 10 10 10 10 10 10 10 10 10 10 10 10 10 10 10 10 10 10 10 10 10 10 10 10 10 10 10 10 10 10 10 10 10 10 10 10 10 10 10 10 10 10 10 10 10 10 10 10 10 10 10 10 10 10 10 10 10 10 10 10 10 10 10 10 10 10 10 10 10 10 10 10 10 10 10 10 10 10 10 10 10 10 10 10 10 10 10 10 10 10 10 10 10 10 10 10 10 10 10 10 10 10 10 10 10 10 10 10 10 10 10 10 10 10 10 10 10 10 10 10 10 10 10 10 10 10 10 10 10 10 10 10 10 10 10 10 10 10 10 10 10 10 10 10 10 10 10 10 10 10 10 10 10 10 10 10 10 10 10 10 10 10 10 10 10 10 10 10 10 10 10 10 10 10 10 10 10 10 10 10 10 10 10 10 10 10 10 10 10 10 10 10 10 10 10 10 10 10 10 10 10 10 10 10 10 10 10 10 10 10 10 10 10 10 10 10 10 10 10 10 10 10 10 10 10 10 10 10 10 10 10 10 10 10 10 10 10 10 10 10 10 10 10 10 10 10 10 10 10 10 10 10 10 10 10 10 10 10 10 10 10 10 10 10 10 10 10 10 10 10 10 10 10 10 10 10 10 10 10 10 10 10 10 10 10 10 10 10 10 10 10 10 10 10 10 10 10 10 10 10 10 10 10 10 10 10 10 10 10 10 10 10 10 10 10 10 10 10 10 10 10 10 10 10 10 10 10 10 10 10 10 10 10 10 10 10 10 10 10 10 10 10 10 10 10 10 10 10 10 10 10 10 10 10 10 10 10 10 10 10 10 10 10 10 10 10 10 10 10 10 10 10 10 10 10 10 10 10 10 10 10 10 10 10 10 10 10 10 10 10 10 10 10 10 10 10 10 10 10 10 10 10 10 10 10 10 10 10 10 10 10 10 10 10 10 10 10 10 10 10 10 10 10 10 10 10 10 10 10 10 10 10 10 10 10 10 10 10 10 10 10 10 10 10 10 10 10 10 10 10 10 10 10 10 10 10 10 10 10 10 10 10 10 10 10 10 10 10 10 10 10 10 10 10 10 10 10 10 10 10 10 10 10 10 10 10 10 10 10 10 10 10 10 10 10 10 10 10 10 10 10 10 10 10 10 10 10 10 10 10 10 10 10 10 10 10 10 10 10 10 10 10 10 10 10 10 10 10 10 10 10 10 10 10 10 10 10 10 10 10 10 10 10 10 10 10 10 10 10 10 10 10 10 10 10 10 10 10 10 10 10 10 10 10 10 10 10 10 10 10 10 10 10 10 10 10 10 10 10 10 10 10 10 10 10 10 10 10 10 10 10 10 10 10 10 10 10 10 10 10 10 10 10 10 10 10 10 10 10 10 10 10 10 10 10 10 10 10 10 10 10 10 10 10 10 10 10 10 10 10 10 10 10 10 10 10 10 10 10 10 10 10 10 10 10 10 10 10 10 10 10 10 10 10 10 10 10 10 10 10 10 10 10 10 10 10 10 10 10 10 10 10 10 10 10 10 10 10 10 10 10 10 10 10 10 10 10 10 10 10 10 10 10 10 10 10 10 10 10 10 10 10 10 10 10 10 10 10 10 10 10 10 10 10 10 10 10 10 10 10 10 10 10 10 10 10 10 10 10 10 10 10 10 10 10 10 10 10 10 10 10 10 10 10 10 10 10 10 10 10 10 10 10 10 10 10 10 10 10 10 10 10 10 10 10 10 10 10 10 10 10 10 10 10 10 10 10 10 10 10 10 10 10 10 10 10 10 10 10 10 10 10 10 10 10 10 10 10 10 10 10 10 10 10 10 10 10 10 10 10 10 10 10 10 10 10 10 10 10 10 10 10 10 10 10 10 10 10 10 10 10 10 10 10 10 10 10 10 10 10 10 10 10 10 10 10 10 10 10 10 10 10 10 10 10 10 10 10 10 10 10 10 10 10 10 10 10 10 10 10 10 10 10 10 10 10 10 10 10 10 10 10 10 10 10 10 10 10 10 10 10 10 10 10 10 10 10 10 10 10 10 10 10 10 10 10 10 10 10 10 10 10 10 10 10 10 10 10 10 10 10 10 10 10 10 10 10 10 10 10 10 10 10 10 10 10 10 10 10 10 10 10 10 10 10 10 10 10 10 10 10 10 10 10 10 10 10 10 10 10 10 10 10 10 10 10 10 10 10 10 10 10 10 10 10 10 10 10 10 10 10 10 10 10 10 10 10 10 10 10 10 10 10 10 10 10 10 10 10 10 10 10 10 10 10 10 10 10 10 10 10 10 10 10 10 10 10 10 10 10 10 10 10 10 10 10 10 10 10 10 10 10 10 10 10 10 10 10 10 10 10 10 10 10 10 10 10 10 10 10 10 10 10 10 10 10 10 10 10 10 10 10 10 10 10 10 10 10 10 10 10 10 10 10 10 10 10 10 10 10 10 10 10 10 10 10 10 10 10 10 10 10 10 10 10 10 10 10 10 10 10 10 10 10 10 10 10 10 10 10 10 10 10 10 10 10 10 10 10 10 10 10 10 10 10 10 10 10 10 10 10 10 10 10 10 10 10 10 10 10 10 10 10 10 10 10 10 10 10 10 10 10 10 10 10 10 10 10 10 10 10 10 10 10 10 10 10 10 10 10 10 10 10 10 10 10 10 10 10 10 10 10 10 10 10 10 10 10 10 10 10 10 10 10 10 10 10 10 10 10 10 10 10 10 10 10 10 10 10 10 10 10 10 10 10 10 10 10 10 10 10 10 10 10 10 10 10 10 10 10 10 10 10 10 10 10 10 10 10 10 10 10 10 10 10 10 10 10 10 10 10 10 10 10 10 10 10 10 10 10 10 10 10 10 10 10 10 10 10 10 10 10 10 10 10 10 10 10 10 10 10 10 10 10 10 10 10 10 10 10 10 10 10 10 10 10 10 10 10 10 10 10 10 10 10 10 10 10 10 10 10 10 10 10 10 10 10 10 10 10 10 10 10 10 10 10 10 10 10 10 10 10 10 10 10 10 10 10 10 10 10 10 10 10 10 10 10 10 10 10 10 10 10 10 10 10 10 10 10 10 10 10 10 10 10 10 10 10 10 10 10 10 10 10 10 10 10 10 10 10 10 10 10 10 10 10 10 10 10 10 10 10 10 10 10 10 10 10 10 10 10 10 10 10 10 10 10 10 10 10 10 10 10 10 10 10 10 10 10 10 10 10 10 10 10 10 10 10 10 10 10 10 10 10 10 10 10 10 10 10 10 10 10 10 10 10 10 10 10 10 10 10 10 10 10 10 10 10 10 10 10 10 10 10 10 10 10 10 10 10 10 10 10 10 10 10 10 10 10 10 10 10 10 10 10 10 10 10 10 10 10 10 10 10 10 10 10 10 10 10 10 10 10 10 10 10 10 10 10 10 10 10 10 10 10 10 10 10 10 10 10 10 10 10 10 10 10 10 10 10 10 10 10 10 10 10 10 10 10 10 10 10 10 10 10 10 10 10 10 10 10 10 10 10 10 10 10 10 10 10 10 10 10 10 10 10 10 10 10 10 10 10 10 10 10 10 10 10 10 10 10 10 10 10 10 10 10 10 10 10 10 10 10 10 10 10 10 10 10 10 10 10 10 10 10 10 10 10 10 10 10 10 10 10 10 10 10 10 10 10 10 10 10 10 10 10 10 10 10 10 10 10 10 10 10 10 10 10 10 10 10 10 10 10 10 10 10 10 10 10 10 10 10 10 10 10 10 10 10 10 10 10 10 10 10 10 10 10 10 10 10 10 10 10 10 10 10 10 10 10 10 10 10 10 10 10 10 10 10 10 10 10 10 10 10 10 10 10 10 10 10 10 10 10 10 10 10 10 10 10 10 10 10 10 10 10 10 10 10 10 10 10 10 10 10 10 10 10 10 10 10 10 10 10 10 10 10 10 10 10 10 10 10 10 10 10 10 10 10 10 10 10 10 10 10 10 10 10 10 10 10 10 10 10 10 10 10 10 10 10 10 10 10 10 10 10 10 10 10 10 10 10 10 10 10 10 10 10 10 10 10 10 10 10 10 10 10 10 10 10 10 10 10 10 10 10 10 10 10 10 10 10 10 10 10 10 10 10 10 10 10 10 10 10 10 10 10 10 10 10 10 10 10 10 10 10 10 10 10 10 10 10 10 10 10 10 10 10 10 10 10 10 10 10 10 10 10 10 10 10 10 10 10 10 10 10 10 10 10 10 10 10 10 10 10 10 10 10 10 10 10 10 10 10 10 10 10 10 10 10 10 10 10 10 10 10 10 10 10 10 10 10 10 10 10 10 10 10 10 10 10 10 10 10 10 10 10 10 10 10 10 10 10 10 10 10 10 10 10 10 10 10 10 10 10 10 10 10 10 10 10 10 10 10 10 10 10 10 10 10 10 10 10 10 10 10 10 10 10 10 10 10 10 10 10 10 10 10 10 10 10 10 10 10 10 10 10 10 10 10 10 10 10 10 10 10 10 10 10 10 10 10 10 10 10 10 10 10 10 10 10 10 10 10 10 10 10 10 10 10 10 10 10 10 10 10 10 10 10 10 10 10 10 10 10 10 10 10 10 10 10 10 10 10 10 10 10 10 10 10 10 10 10 10 10 10 10 10 10 10 10 10 10 10 10 10 10 10 10 10 10 10 10 10 10 10 10 10 10 10 10 10 10 10 10 10 10 10 10 10 10 10 10 10 10 10 10 10 10 10 10 10 10 10 10 10 10 10 10 10 10 10 10 10 10 10 10 10 10 10 10 10 10 10 10 10 10 10 10 10 10 10 10 10 10 10 10 10 10 10 10 10 10 10 10 10 10 10 10 10 10 10 10 10 10 10 10 10 10 10 10 10 10 10 10 10 10 10 10 10 10 10 10 10 10 10 10 10 10 10 10 10 10 10 10 10 10 10 10 10 10 10 10 10 10 10 10 10 10 10 10 10 10 10 10 10 10 10 10 10 10 10 10 10 10 10 10 10 10 10 10 10 10 10 10 10 10 10 10 10 10 10 10 10 10 10 10 10 10 10 10 10 10 10 10 10 10 10 10 10 10 10 10 10 10 10 10 10 10 10 10 10 10 10 10 10 10 10 10 10 10 10 10 10 10 10 10 10 10 10 10 10 10 10 10 10 10 10 10 10 10 10 10 10 10 10 10 10 10 10 10 10 10 10 10 10 10 10 10 10 10 10 10 10 10 10 10 10 10 10 10 10 10 10 10 10 10 10 10 10 10 10 10 10 10 10 10 10 10 10 10 10 10 10 10 10 10 10 10 10 10 10 10 10 10 10 10 10 10 10 10 10 10 10 10 10 10 10 10 10 10 10 10 10 10 10 10 10 10 10 10 10 10 10 10 10 10 10 10 10 10 10 10 10 10 10 10 10 10 10 10 10 10 10 10 10 10 10 10 10 10 10 10 10 10 10 10 10 10 10 10 10 10 10 10 10 10 10 10 10 10 10 10 10 10 10 10 10 10 10 10 10 10 10 10 10 10 10 10 10 10 10 10 10 10 10 10 10 10 10 10 10 10 10 10 10 10 10 10 10 10 10 10 10 10 10 10 10 10 10 10 10 10 10 10 10 10 10 10 10 10 10 10 10 10 10 10 10 10 10 10 10 10 10 10 10 10 10 10 10 10 10 10 10 10 10 10 10 10 10 10 10 10 10 10 10 10 10 10 10 10 10 10 10 10 10 10 10 10 10 10 10 10 10 10 10 10 10 10 10 10 10 10 10 10 10 10 10 10 10 10 10 10 10 10 10 10 10 10 10 10 10 10 10 10 10 10 10 10 10 10 10 10 10 10 10 10 10 10 10 10 10 10 10 10 10 10 10 10 10 10 10 10 10 10 10 10 10 10 10 10 10 10 10 10 10 10 10 10 10 10 10 10 10 10 10 10 10 10 10 10 10 10 10 10 10 10 10 10 10 10 10 10 10 10 10 10 10 10 10 10 10 10 10 10 10 10 10 10 10 10 10 10 10 10 10 10 10 10 10 10 10 10 10 10 10 10 10 10 10 10 10 10 10 10 10 10 10 10 10 10 10 10 10 10 10 10 10 10 10 10 10 10 10 10 10 10 10 10 10 10 10 10 10 10 10 10 10 10 10 10 10 10 10 10 10 10 10 10 10 10 10 10 10 10 10 10 10 10 10 10 10 10 10 10 10 10 10 10 10 10 10 10 10 10 10 10 10 10 10 10 10 10 10 10 10 10 10 10 10 10 10 10 10 10 10 10 10 10 10 10 10 10 10 10 10 10 10 10 10 10 10 10 10 10 10 10 10 10 10 10 10 10 10 10 10 10 10 10 10 10 10 10 10 10 10 10 10 10 10 10 10 10 10 10 10 10 10 10 10 10 10 10 10 10 10 10 10 10 10 10 10 10 10 10 10 10 10 10 10 10 10 10 10 10 10 10 10 10 10 10 10 10 10 10 10 10 10 10 10 10 10 10 10 10 10 10 10 10 10 10 10 10 10 10 10 10 10 10 10 10 10 10 10 10 10 10 10 10 10 10 10 10 10 10 10 10 10 10 10 10 10 10 10 10 10 10 10 10 10 10 10 10 10 10 10 10 10 10 10 10 10 10 10 10 10 10 10 10 10 10 10 10 10 10 10 10 10 10 10 10 10 10 10 10 10 10 10 10 10 10 10 10 10 10 10 10 10 10 10 10 10 10 10 10 10 10 10 10 10 10 10 10 10 10 10 10 10 10 10 10 10 10 10 10 10 10 10 10 10 10 10 10 10 10 10 10 10 10 10 10 10 10 10 10 10 10 10 10 10 10 10 10 10 10 10 10 10 10 10 10 10 10 10 10 10 10 10 10 10 10 10 10 10 10 10 10 10 10 10 10 10 10 10 10 10 10 10 10 10 10 10 10 10 10 10 10 10 10 10 10 10 10 10 10 10 10 10 10 10 10 10 10 10 10 10 10 10 10 10 10 10 10 10 10 10 10 10 10 10 10 10 10 10 10 10 10 10 10 10 10 10 10 10 10 10 10 10 10 10 10 10 10 10 10 10 10 10 10 10 10 10 10 10 10 10 10 10 10 10 10 10 10 10 10 10 10 10 10 10 10 10 10 10 10 10 10 10 10 10 10 10 10 10 10 10 10 10 10 10 10 10 10 10 10 10 10 10 10 10 10 10 10 10 10 10 10 10 10 10 10 10 10 10 10 10 10 10 10 10 10 10 10 10 10 10 10 10 10 10 10 10 10 10 10 10 10 10 10 10 10 10 10 10 10 10 10 10 10 10 10 10 10 10 10 10 10 10 10 10 10 10 10 10 10 10 10 10 10 10 10 10 10 10 10 10 10 10 10 10 10 10 10 10 10 10 10 10 10 10 10 10 10 10 10 10 10 10 10 10 10 10 10 10 10 10 10 10 10 10 10 10 10 10 10 10 10 10 10 10 10 10 10 10 10 10 10 10 10 10 10 10 10 10 10 10 10 10 10 10 10 10 10 10 10 10 10 10 10 10 10 10 10 10 10 10 10 10 10 10 10 10 10 10 10 10 10 10 10 10 10 10 10 10 10 10 10 10 10 10 10 10 10 10 10 10 10 10 10 10 10 10 10 10 10 10 10 10 10 10 10 10 10 10 10 10 10 10 10 10 10 10 10 10 10 10 10 10 10 10 10 10 10 10 10 10 10 10 10 10 10 10 10 10 10 10 10 10 10 10 10 10 10 10 10 10 10 10 10 10 10 10 10 10 10 10 10 10 10 10 10 10 10 10 10 10 10 10 10 10 10 10 10 10 10 10 10 10 10 10 10 10 10 10 10 10 10 10 10 10 10 10 10 10 10 10 10 10 10 10 10 10 10 10 10 10 10 10 10 10 10 10 10 10 10 10 10 10 10 10 10 10 10 10 10 10 10 10 10 10 10 10 10 10 10 10 10 10 10 10 10 10 10 10 10 10 10 10 10 10 10 10 10 10 10 10 10 10 10 10 10 10 10 10 10 10 10 10 10 10 10 10 10 10 10 10 10 10 10 10 10 10 10 10 10 10 10 10 10 10 10 10 10 10 10 10 10 10 10 10 10 10 10 10 10 10 10 10 10 10 10 10 10 10 10 10 10 10 10 10 10 10 10 10 10 10 10 10 10 10 10 10 10 10 10 10 10 10 10 10 10 10 10 10 10 10 10 10 10 10 10 10 10 10 10 10 10 10 10 10 10 10 10 10 10 10 10 10 10 10 10 10 10 10 10 10 10 10 10 10 10 10 10 10 10 10 10 10 10 10 10 10 10 10 10 10 10 10 10 10 10 10 10 10 10 10 10 10 10 10 10 10 10 10 10 10 10 10 10 10 10 10 10 10 10 10 10 10 10 10 10 10 10 10 10 10 10 10 10 10 10 10 10 10 10 10 10 10 10 10 10 10 10 10 10 10 10 10 10 10 10 10 10 10 10 10 10 10 10 10 10 10 10 10 10 10 10 10 10 10 10 10 10 10 10 10 10 10 10 10 10 10 10 10 10 10 10 10 10 10 10 10 10 10 10 10 10 10 10 10 10 10 10 10 10 10 10 10 10 10 10 10 10 10 10 10 10 10 10 10 10 10 10 10 10 10 10 10 10 10 10 10 10 10 10 10 10 10 10 10 10 10 10 10 10 10 10 10 10 10 10 10 10 10 10 10 10 10 10 10 10 10 10 10 10 10 10 10 10 10 10 10 10 10 10 10 10 10 10 10 10 10 10 10 10 10 10 10 10 10 10 10 10 10 10 10 10 10 10 10 10 10 10 10 10 10 10 10 10 10 10 10 10 10 10 10 10 10 10 10 10 10 10 10 10 10 10 10 10 10 10 10 10 10 10 10 10 10 10 10 10 10 10 10 10 10 10 10 10 10 10 10 10 10 10 10 10 10 10 10 10 10 10 10 10 10 10 10 10 10 10 10 10 10 10 10 10 10 10 10 10 10 10 10 10 10 10 10 10 10 10 10 10 10 10 10 10 10 10 10 10 10 10 10 10 10 10 10 10 10 10 10 10 10 10 10 10 10 10 10 10 10 10 10 10 10 10 10 10 10 10 10 10 10 10 10 10 10 10 10 10 10 10 10 10 10 10 10 10 10 10 10 10 10 10 10 10 10 10 10 10 10 10 10 10 10 10 10 10 10 10 10 10 10 10 10 10 10 10 10 10 10 10 10 10 10 10 10 10 10 10 10 10 10 10 10 10 10 10 10 10 10 10 10 10 10 10 10 10 10 10 10 10 10 10 10 10 10 10 10 10 10 10 10 10 10 10 10 10 10 10 10 10 10 10 10 10 10 10 10 10 10 10 10 10 10 10 10 10 10 10 10 10 10 10 10 10 10 10 10 10 10 10 10 10 10 10 10 10 10 10 10 10 10 10 10 10 10 10 10 10 10 10 10 10 10 10 10 10 10 10 10 10 10 10 10 10 10 10 10 10 10 10 10 10 10 10 10 10 10 10 10 10 10 10 10 10 10 10 10 10 10 10 10 10 10 10 10 10 10 10 10 10 10 10 10 10 10 10 10 10 10 10 10 10 10 10 10 10 10 10 10 10 10 10 10 10 10 10 10 10 10 10 10 10 10 10 10 10 10 10 10 10 10 10 10 10 10 10 10 10 10 10 10 10 10 10 10 10 10 10 10 10 10 10 10 10 10 10 10 10 10 10 10 10 10 10 10 10 10 10 10 10 10 10 10 10 10 10 10 10 10 10 10 10 10 10 10 10 10 10 10 10 10 10 10 10 10 10 10 10 10 10 10 10 10 10 10 10 10 10 10 10 10 10 10 10 10 10 10 10 10 10 10 10 10 10 10 10 10 10 10 10 10 10 10 10 10 10 10 10 10 10 10 10 10 10 10 10 10 10 10 10 10 10 10 10 10 10 10 10 10 10 10 10 10 10 10 10 10 10 10 10 10 10 10 10 10 10 10 10 10 10 10 10 10 10 10 10 10 10 10 10 10 10 10 10 10 10 10 10 10 10 10 10 10 10 10 10 10 10 10 10 10 10 10 10 10 10 10 10 10 10 10 10 10 10 10 10 10 10 10 10 10 10 10 10 10 10 10 10 10 10 10 10 10 10 10 10 10 10 10 10 10 10 10 10 10 10 10 10 10 10 10 10 10 10 10 10 10 10 10 10 10 10 10 10 10 10 10 10 10 10 10 10 10 10 10 10 10 10 10 10 10 10 10 10 10 10 10 10 10 10 10 10 10 10 10 10 10 10 10 10 10 10 10 10 10 10 10 10 10 10 10 10 10 10 10 10 10 10 10 10 10 10 10 10 10 10 10 10 10 10 10 10 10 10 10 10 10 10 10 10 10 10 10 10 10 10 10 10 10 10 10 10 10 10 10 10 10 10 10 10 10 10 10 10 10 10 10 10 10 10 10 10 10 10 10 10 10 10 10 10 10 10 10 10 10 10 10 10 10 10 10 10 10 10 10 10 10 10 10 10 10 10 10 10 10 10 10 10 10 10 10 10 10 10 10 10 10 10 10 10 10 10 10 10 10 10 10 10 10 10 10 10 10 10 10 10 10 10 10 10 10 10 10 10 10 10 10 10 10 10 10 10 10 10 10 10 10 10 10 10 10 10 10 10 10 10 10 10 10 10 10 10 10 10 10 10 10 10 10 10 10 10 10 10 10 10 10 10 10 10 10 10 10 10 10 10 10 10 10 10 10 10 10 10 10 10 10 10 10 10 10 10 10 10 10 10 10 10 10 10 10 10 10 10 10 10 10 10 10 10 10 10 10 10 10 10 10 10 10 10 10 10 10 10 10 10 10 10 10 10 10 10 10 10 10 10 10 10 10 10 10 10 10 10 10 10 10 10 10 10 10 10 10 10 10 10 10 10 10 10 10 10 10 10 10 10 10 10 10 10 10 10 10 10 10 10 10 10 10 10 10 10 10 10 10 10 10 10 10 10 10 10 10 10 10 10 10 10 10 10 10 10 10 10 10 10 10 10 10 10 10 10 10 10 10 10 10 10 10 10 10 10 10 10 10 10 10 10 10 10 10 10 10 10 10 10 10 10 10 10 10 10 10 10 10 10 10 10 10 10 10 10 10 10 10 10 10 10 10 10 10 10 10 10 10 10 10 10 10 10 10 10 10 10 10 10 10 10 10 10 10 10 10 10 10 10 10 10 10 10 10 10 10 10 10 10 10 10 10 10 10 10 10 10 10 10 10 10 10 10 10 10 10 10 10 10 10 10 10 10 10 10 10 10 10 10 10 10 10 10 10 10 10 10 10 10 10 10 10 10 10 10 10 10 10 10 10 10 10 10 10 10 10 10 10 10 10 10 10 10 10 10 10 10 10 10 10 10 10 10 10 10 10 10 10 10 10 10 10 10 10 10 10 10 10 10 10 10 10 10 10 10 10 10 10 10 10 10 10 10 10 10 10 10 10 10 10 10 10 10 10 10 10 10 10 10 10 10 10 10 10 10 10 10 10 10 10 10 10 10 10 10 10 10 10 10 10 10 10 10 10 10 10 10 10 10 10 10 10 10 10 10 10 10 10 10 10 10 10 10 10 10 10 10 10 10 10 10 10 10 10 10 10 10 10 10 10 10 10 10 10 10 10 10 10 10 10 10 10 10 10 10 10 10 10 10 10 10 10 10 10 10 10 10 10 10 10 10 10 10 10 10 10 10 10 10 10 10 10 10 10 10 10 10 10 10 10 10 10 10 10 10 10 10 10 10 10 10 10 10 10 10 10 10 10 10 10 10 10 10 10 10 10 10 10 10 10 10 10 10 10 10 10 10 10 10 10 10 10 10 10 10 10 10 10 10 10 10 10 10 10 10 10 10 10 10 10 10 10 10 10 10 10 10 10 10 10 10 10 10 10 10 10 10 10 10 10 10 10 10 10 10 10 10 10 10 10 10 10 10 10 10 10 10 10 10 10 10 10 10 10 10 10 10 10 10 10 10 10 10 10 10 10 10 10 10 10 10 10 10 10 10 10 10 10 10 10 10 10 10 10 10 10 10 10 10 10 10 10 10 10 10 10 10 10 10 10 10 10 10 10 10 10 10 10 10 10 10 10 10 10 10 10 10 10 10 10 10 10 10 10 10 10 10 10 10 10 10 10 10 10 10 10 10 10 10 10 10 10 10 10 10 10 10 10 10 10 10 10 10 10 10 10 10 10 10 10 10 10 10 10 10 10 10 10 10 10 10 10 10 10 10 10 10 10 10 10 10 10 10 10 10 10 10 10 10 10 10 10 10 10 10 10 10 10 10 10 10 10 10 10 10 10 10 10 10 10 10 10 10 10 10 10 10 10 10 10 10 10 10 10 10 10 10 10 10 10 10 10 10 10 10 10 10 10 10 10 10 10 10 10 10 10 10 10 10 10 10 10 10 10 10 10 10 10 10 10 10 10 10 10 10 10 10 10 10 10 10 10 10 10 10 10 10 10 10 10 10 10 10 10 10 10 10 10 10 10 10 10 10 10 10 10 10 10 10 10 10 10 10 10 10 10 10 10 10 10 10 10 10 10 10 10 10 10 10 10 10 10 10 10 10 10 10 10 10 10 10 10 10 10 10 10 10 10 10 10 10 10 10 10 10 10 10 10 10 10 10 10 10 10 10 10 10 10 10 10 10 10 10 10 10 10 10 10 10 10 10 10 10 10 10 10 10 10 10 10 10 10 10 10 10 10 10 10 10 10 10 10 10 10 10 10 10 10 10 10 10 10 10 10 10 10 10 10 10 10 10 10 10 10 10 10 10 10 10 10 10 10 10 10 10 10 10 10 10 10 10 10 10 10 10 10 10 10 10 10 10 10 10 10 10 10 10 10 10 10 10 10 10 10 10 10 10 10 10 10 10 10 10 10 10 10 10 10 10 10 10 10 10 10 10 10 10 10 10 10 10 10 10 10 10 10 10 10 10 10 10 10 10 10 10 10 10 10 10 10 10 10 10 10 10 10 10 10 10 10 10 10 10 10 10 10 10 10 10 10 10 10 10 10 10 10 10 10 10 10 10 10 10 10 10 10 10 10 10 10 10 10 10 10 10 10 10 10 10 10 10 10 10 10 10 10 10 10 10 10 10 10 10 10 10 10 10 10 10 10 10 10 10 10 10 10 10 10 10 10 10 10 10 10 10 10 10 10 10 10 10 10 10 10 10 10 10 10 10 10 10 10 10 10 10 10 10 10 10 10 10 10 10 10 10 10 10 10 10 10 10 10 10 10 10 10 10 10 10 10 10 10 10 10 10 10 10 10 10 10 10 10 10 10 10 10 10 10 10 10 10 10 10 10 10 10 10 10 10 10 10 10 10 10 10 10 10 10 10 10 10 10 10 10 10 10 10 10 10 10 10 10 10 10 10 10 10 10 10 10 10 10 10 10 10 10 10 10 10 10 10 10 10 10 10 10 10 10 10 10 10 10 10 10 10 10 10 10 10 10 10 10 10 10 10 10 10 10 10 10 10 10 10 10 10 10 10 10 10 10 10 10 10 10 10 10 10 10 10 10 10 10 10 10 10 10 10 10 10 10 10 10 10 10 10 10 10 10 10 10 10 10 10 10 10 10 10 10 10 10 10 10 10 10 10 10 10 10 10 10 10 10 10 10 10 10 10 10 10 10 10 10 10 10 10 10 10 10 10 10 10 10 10 10 10 10 10 10 10 10 10 10 10 10 10 10 10 10 10 10 10 10 10 10 10 10 10 10 10 10 10 10 10 10 10 10 10 10 10 10 10 10 10 10 10 10 10 10 10 10 10 10 10 10 10 10 10 10 10 10 10 10 10 10 10 10 10 10 10 10 10 10 10 10 10 10 10 10 10 10 10 10 10 10 10 10 10 10 10 10 10 10 10 10 10 10 10 10 10 10 10 10 10 10 10 10 10 10 10 10 10 10 10 10 10 10 10 10 10 10 10 10 10 10 10 10 10 10 10 10 10 10 10 10 10 10 10 10 10 10 10 10 10 10 10 10 10 10 10 10 10 10 10 10 10 10 10 10 10 10 10 10 10 10 10 10 10 10 10 10 10 10 10 10 10 10 10 10 10 10 10 10 10 10 10 10 10 10 10 10 10 10 10 10 10 10 10 10 10 10 10 10 10 10 10 10 10 10 10 10 10 10 10 10 10 10 10 10 10 10 10 10 10 10 10 10 10 10 10 10 10 10 10 10 10 10 10 10 10 10 10 10 10 10 10 10 10 10 10 10 10 10 10 10 10 10 10 10 10 10 10 10 10 10 10 10 10 10 10 10 10 10 10 10 10 10 10 10 10 10 10 10 10 10 10 10 10 10 10 10 10 10 10 10 10 10 10 10 10 10 10 10 10 10 10 10 10 10 10 10 10 10 10 10 10 10 10 10 10 10 10 10 10 10 10 10 10 10 10 10 10 10 10 10 10 10 10 10 10 10 10 10 10 10 10 10 10 10 10 10 10 10 10 10 10 10 10 10 10 10 10 10 10 10 10 10 10 10 10 10 10 10 10 10 10 10 10 10 10 10 10 10 10 10 10 10 10 10 10 10 10 10 10 10 10 10 10 10 10 10 10 10 10 10 10 10 10 10 10 10 10 10 10 10 10 10 10 10 10 10 10 10 10 10 10 10 10 10 10 10 10 10 10 10 10 10 10 10 10 10 10 10 10 10 10 10 

POINT_DATA 5212
SCALARS weights float 1
LOOKUP_TABLE default
1.01443 0.725589 0.540522 1.15907 0.785776 1.04466 0.45886 1.02374 0.909829 0.948818 0.500033 0.489126 0.963003 0.725999 0.574101 1.108 0.515294 0.367643 1.8598 0.00924625 0.868871 0.0260866 0.0219615 0.142203 0.00471428 1.0317 0.503746 0.997256 0.688708 1.63535 0.00144917 0.0482733 0.0451497 0.00619818 0.00551738 0.000399819 0.00126534 0.00323643 0.00210816 0.00342576 0.0231281 0.00995341 0.0507205 0.0747963 0.0641849 0.0308505 0.0131517 0.135084 0.00365654 0.0397966 0.00623453 0.0122286 0.00285688 0.0261512 0.0153915 0.0509296 0.0102206 0.0501297 1.16358 0.00240867 0.00777378 0.00134409 0.0145068 0.00349643 0.520115 0.0397224 0.000405139 0.00568767 0.00463428 1.58957 0.00908975 1.41669 0.0333858 0.128804 0.00950287 3.20674 0.00631101 0.00478099 0.0066915 0.01302 0.00248792 0.0871031 0.0859136 0.00450568 0.551993 0.00517462 0.020697 0.163818 0.78468 0.0031063 0.0169182 0.00110603 0.00356162 0.00761716 0.0226009 0.000992729 0.00393776 0.0230165 0.000293491 0.0146647 0.0240955 0.00954271 0.166051 0.0279118 0.0115158 0.48943 0.0467372 0.00596401 0.00564071 0.0119192 0.0464649 0.0298203 0.0192708 0.0673002 0.0053948 0.0655033 0.926495 0.618757 0.764955 0.88993 0.00795458 0.432221 0.0353914 0.0546133 0.0542852 0.0164301 0.41387 0.113481 0.0190254 0.00352123 0.00518812 0.00784158 0.0452707 0.0499739 0.0382744 0.0228528 0.019344 0.0276123 0.0158758 0.0381346 0.351177 0.00847145 0.0300882 0.0534251 0.0105229 0.0453052 0.0335915 0.0701214 0.0881291 0.0124977 0.0372403 1.20933 0.0283944 0.353738 0.00966367 0.00574195 0.093829 0.00314868 0.0444639 0.247557 0.473612 0.00560827 0.00435081 0.00422311 0.0229528 0.00204287 0.00764218 0.0437546 0.0195441 0.0394943 0.413641 0.00215508 0.00152375 1.25424 0.00183493 0.00229172 0.0028657 0.124737 0.0231157 0.00716813 0.0033317 0.0441939 2.5212 0.0157085 0.00986249 0.0171671 0.0711501 0.00371876 0.072495 0.00128713 0.010876 0.0236148 0.00834562 0.00093498 0.0229625 0.0339728 0.00106829 0.0085136 0.00974659 0.00714713 0.0369891 0.0267705 0.104898 0.0928024 0.00473161 0.00168801 0.00457411 0.00103381 0.00229236 0.0154803 0.479825 0.0186619 0.00249304 0.0110069 0.00277254 0.0082919 0.00614341 0.0125703 0.003615 0.0686102 0.00116697 0.00117096 0.0015616 0.00364422 0.00217427 0.038515 0.0214008 0.00846335 0.000922053 0.00950649 0.00864418 0.00110671 0.0991611 0.0589229 0.0377185 0.00168155 0.0194622 0.00446472 0.0065317 0.00175043 0.0331584 0.00213502 0.00223783 0.0012407 0.0365117 0.0406697 0.00852836 0.10297 0.00449833 0.00932474 0.00434366 0.00146636 0.0156795 0.0103252 0.023795 0.000612413 0.0314155 0.0133468 0.00714226 1.21384 0.00382948 0.0018491 0.0110748 0.541251 0.0164172 0.0168371 0.00680792 0.00145953 0.0452152 0.0214962 4.10497 0.00434716 0.00146469 0.121684 0.00882753 0.0232012 0.0208153 0.02937 0.0106596 0.0646084 0.0186926 0.0086953 0.0170243 0.0509252 0.00719057 0.0296257 2.45848 0.00879595 0.0821342 0.00764385 0.113152 1.8466 0.00624396 0.0242752 0.00397374 0.0639466 0.00476005 0.00266681 0.0433788 0.00556021 0.00135176 0.356868 0.04571 0.0231899 0.182951 0.586979 0.0423526 0.00724276 0.101655 0.00283221 0.0121694 0.0172287 0.0551848 0.0720682 0.00882304 0.00702945 1.94986 0.00847156 0.0255272 0.0689616 0.00897981 0.042969 0.656171 0.0795364 0.0603487 0.00853675 0.408526 0.0292572 0.0557593 1.16952 0.0104229 0.0188373 0.0119961 0.011887 0.0163526 0.0147565 0.00655321 0.00451882 0.0652863 0.020452 0.0533039 0.0171964 0.0105394 0.00382924 0.00817975 0.0297092 0.0247421 0.022936 0.0486831 0.0156719 0.00841901 4.24986 1.19432 0.00839639 0.0237035 3.0289 2.19299 0.0035211 0.00957666 0.0632892 0.752508 0.0042266 0.00885886 0.00394394 0.0343397 0.0115762 0.00370974 0.0523189 0.0313341 0.0159802 0.00895619 0.0115903 0.0490843 0.0536894 0.0188279 0.0143876 0.0258268 0.0250194 0.00711531 0.00816438 0.0192423 0.0316358 0.0130315 0.0341298 0.0118553 0.0458117 0.0326239 0.0417833 0.785669 0.756173 0.54985 0.815056 0.0177194 0.0161849 0.0251748 0.0168041 0.0242822 0.00460836 0.0108145 0.00798125 0.00359498 0.123487 0.118208 0.0417246 0.0587182 0.0211819 0.0184813 0.00503713 0.0170846 0.0241606 0.0605514 0.00284609 0.0393498 0.311029 0.0200713 0.0261472 0.0800195 0.0399956 0.0468294 0.0356981 0.0154264 0.0679858 0.0305507 0.0231573 0.0343488 0.00664801 0.0299566 0.0232978 0.00257622 0.209754 0.0233309 0.0554051 0.0159697 0.0870926 0.00551462 0.0217332 0.0155896 0.0360925 0.031632 0.372355 0.0117687 0.0206613 0.00523802 0.12498 0.0101239 0.0206709 0.0231765 0.0181137 0.0173792 0.0384352 1.03062 0.0509018 0.743647 0.00271389 0.0628353 0.0637298 0.0206102 0.247384 0.00402519 0.00691535 0.0269633 0.0302549 0.0225208 0.0173484 0.0228956 0.0192144 0.0290739 0.00581915 0.026899 0.0870252 0.00699649 0.0210711 0.00729856 0.0400527 0.0174207 0.0367914 0.0722816 0.0419031 0.0138055 0.0146738 0.0109291 0.0413595 0.0374351 0.0541018 0.00698407 0.0062723 0.137655 0.0534486 0.0864707 0.0378156 0.0585252 0.0791042 0.0110075 0.0326545 0.0340796 0.05187 0.0110587 0.0214562 0.0423351 0.00997848 0.0171702 0.0763957 0.0460441 0.0127279 0.0704028 0.0483637 0.0542762 0.0124216 0.0575401 0.0235801 0.0678713 0.0273177 0.029074 0.243222 0.023052 0.0276751 0.0625618 0.00545317 0.0243081 0.00894255 0.00787856 0.00980539 0.0152181 0.0499167 0.0175636 0.0295827 0.0126735 0.0150848 0.0147528 0.0346152 0.0123243 0.034603 0.0284856 0.0395197 0.0121701 0.021678 0.0217466 0.150112 0.0306752 0.0559003 0.0120997 0.00899528 0.0153745 0.048243 0.0351905 0.0357245 0.0588496 0.0214049 0.0135759 0.112955 0.0403814 0.0100021 0.0327695 0.0679491 0.0579952 0.0596959 0.0229111 0.0538469 0.0393645 0.151066 0.0512041 0.0774689 0.0197778 0.148573 0.146808 0.143233 0.015021 0.0108157 0.0221886 0.0093777 0.0246649 0.0535016 0.0617249 0.0208468 0.0173413 0.00588257 0.00945714 0.0588138 0.0165281 0.025233 0.050577 0.00666327 0.010153 0.00531395 0.0586921 0.0169362 0.0694093 0.0185057 0.0426562 0.0396081 0.0122712 0.0117983 0.0158094 0.013789 0.0337131 0.00698568 0.0276392 0.0023405 0.01008 0.0198112 0.0185771 0.0304905 0.0129425 0.033886 0.0451508 0.0848768 0.0147443 0.0178973 0.0367927 0.0289846 0.0103192 0.0530279 0.0242405 0.0217576 0.0299974 0.0258947 0.0538691 0.00962269 0.0237681 0.294132 0.44157 0.0187618 0.0247237 0.0228322 0.00582791 0.0245142 0.00843764 0.0212038 0.00480915 0.125087 0.0132466 0.0455195 0.0575287 0.00698976 0.0668193 0.0687878 0.0376114 0.0825825 0.0121522 0.0346349 0.0140428 0.196315 0.00829101 0.599532 0.106744 0.00667339 0.0320627 0.0129879 0.0357159 0.0150492 0.0832825 0.013554 0.0105157 0.0224473 0.0328561 0.0128762 0.0939604 0.0431446 0.155157 0.00487797 0.0108367 0.0937076 0.0325904 0.0338044 0.0189052 0.00735972 0.0102288 0.048147 0.0459368 0.0145587 0.0503996 0.0136851 0.0461691 0.0182692 0.0184048 0.0353458 0.0157364 0.021312 0.0493034 0.0937737 0.0048 0.0313837 0.00696743 0.0075258 0.0214618 0.0236004 0.00564113 0.0506993 0.0488402 0.0205442 0.0146874 0.0581503 0.00907804 0.0320214 0.0265385 0.104831 0.0220705 0.00302892 0.193564 0.0526532 0.0161576 0.0922255 0.0374961 0.0600503 0.0768581 0.0717418 1.00486 0.0459307 0.0657483 0.0315922 0.0299732 0.011653 0.037455 0.0339242 0.0312343 0.0264257 0.0160849 0.00361659 0.00484836 0.0283899 0.0154165 0.00452639 0.0954081 0.0161012 0.0544545 0.0218534 0.0164389 0.00542591 0.098991 0.0408796 0.0101432 0.0205936 0.0072685 0.0199912 0.0635386 0.0118369 0.00391692 0.0181551 0.0284923 0.0929188 0.0108637 0.00940618 0.0196918 0.0525757 0.0400521 0.0534306 0.204104 1.12101 0.0218281 0.0165957 0.00330088 0.0155097 0.0258808 0.0248355 0.0256386 0.0449464 0.0117666 0.0178669 0.0496213 0.00440304 0.023021 0.0268056 0.0146557 0.0402253 0.0225425 0.0126884 0.0264755 0.0290924 0.0317626 0.0405858 0.0214126 0.975434 0.432691 0.992489 0.778263 0.0472561 0.0149443 0.0252468 0.0424419 0.00969683 0.0436262 0.115186 0.0260078 0.0338002 0.0424047 0.0302168 0.0393155 0.106682 0.135349 0.193016 0.00734961 0.00226669 0.0499226 0.0333655 0.0186508 0.231732 0.0733666 0.0646638 0.117092 0.952923 0.298627 0.1981 0.0225978 0.0258255 0.0247094 0.00462296 0.0181305 0.0397196 0.0171721 0.00738491 0.0252345 0.0319066 0.122584 0.109904 0.00539703 0.140122 0.062922 0.00603186 0.0306389 0.028466 0.0151822 0.151887 0.0382037 0.0107372 0.0492276 0.01064 0.180718 0.00446447 0.00507093 0.0101866 0.0197043 0.0123689 0.0187074 0.0793488 0.026404 0.0600439 0.0126385 0.0365875 0.0493755 0.0156868 0.0187533 0.0183769 0.00707131 0.0318925 0.0352295 0.0426932 0.632833 0.498213 0.423658 0.0317578 0.090958 0.00434925 0.0986519 0.0379945 0.00708908 0.0135843 0.036564 0.017893 0.00106757 0.0253636 0.0374021 0.0400305 0.0209785 0.0493745 0.00881484 0.0283753 0.0294906 0.0334777 0.0109075 0.0285618 0.0275678 0.017969 0.0557352 0.0107553 0.0277996 0.0376549 0.0389228 0.0193488 0.00255509 0.0210039 0.0668372 0.040135 0.0245523 0.0371859 0.0334167 0.0179951 0.0335632 0.00441347 0.0586764 0.061603 0.0806554 0.0268978 0.0472625 0.0290652 0.0200455 0.0212304 0.0208396 0.0183703 0.0177459 0.170323 0.0345846 0.025722 0.00501973 0.0190463 0.04269 0.0412386 0.0310963 0.0994215 0.0312338 0.0696716 0.0215456 0.0158097 0.109882 0.030527 0.0608613 0.0332347 0.0228274 0.0366219 0.0810248 0.00556056 0.0398082 0.0818774 0.102066 0.0368426 0.0122272 0.0260941 0.0162344 0.021581 0.00386759 0.0317741 0.018316 0.0281599 0.0183164 0.0370681 0.0495676 0.0337512 1.52884 0.164477 0.1096 0.0474929 0.0157359 0.0235907 0.025535 0.0412205 0.0275649 0.0587538 0.0369709 0.0431994 0.0299442 0.00602217 0.0507864 0.0272208 0.037947 0.238681 0.0288608 0.036215 0.0727299 0.0532159 0.0316809 0.0301041 0.0333428 0.0604797 0.0272301 0.0376733 0.0384073 0.0166268 0.0254762 0.0361627 0.012719 0.15831 0.0159008 0.00840118 0.00931641 0.0513769 0.00711451 0.0843076 0.164706 0.0852837 0.0124724 0.0822008 0.0467915 0.0998417 0.0352136 0.0370487 0.0512247 0.0259518 0.0112927 0.0084743 0.119315 0.0393467 0.06068 0.0217786 0.0466834 0.0359338 0.361653 0.0862054 0.11351 0.0351625 0.054536 0.011049 0.0205601 0.0361042 0.135829 0.178538 0.189899 0.0476283 0.0307985 0.0408902 0.0136583 0.0215372 0.0223856 0.0271139 0.103181 0.0214603 0.0198749 0.0141422 0.0566037 0.0201001 0.0598536 0.0514088 0.0415247 0.0170972 0.0142815 0.091767 0.020358 0.0366688 0.0321165 0.0135221 0.0180368 0.0150465 0.0158391 0.0180057 0.0436773 0.0306643 0.0203979 0.0800282 0.0441904 0.0201287 0.00394535 0.0200777 0.0451406 0.0336359 0.0199209 0.0832915 0.034692 0.071916 0.0230213 0.0402062 0.0394894 0.0804049 0.0501406 0.0277023 0.0473122 0.00956974 0.0256654 0.075303 0.0688543 0.272538 0.638568 0.0273971 0.119451 0.0472084 0.0193422 0.00996205 0.00224062 0.191216 0.0276301 0.195692 0.141412 0.0468576 0.0575277 0.63928 0.00841191 0.0260003 0.0483634 0.0852445 0.0117481 0.0755444 0.210809 0.065225 0.0465791 0.0399539 0.0249411 0.011646 0.0772196 0.0585426 0.0738199 0.00865916 0.00496117 0.013349 0.0139962 0.0181334 0.0232651 0.00472093 0.0418263 0.0272444 0.0354722 0.0134336 0.0264535 0.0337493 0.0306911 0.00681048 0.0141725 0.00607439 0.0704982 0.020078 0.0116509 0.0544491 0.0765802 0.0874684 0.0259354 0.0135791 0.0160876 0.0176334 0.0408951 0.00865906 0.0815089 0.0171802 0.0206359 0.117113 0.18066 0.0365443 0.041118 0.0154278 0.00593266 0.0204946 0.294527 0.0344211 0.0366838 0.011281 0.0239335 0.03907 0.0527537 0.0526512 0.0142898 0.0173986 0.0320252 0.12255 0.127822 0.0298577 0.186215 0.0600578 0.01202 0.0613348 0.0554008 0.0602556 0.0288468 0.0813678 0.0554401 0.0527788 0.0338881 0.0222036 0.0265915 0.0944571 0.0128017 0.0168251 0.0140958 0.00338392 0.0237636 0.0285373 0.00597782 0.274322 0.179002 0.02167 0.0219461 0.00977044 0.149452 0.24378 0.00317326 0.00277401 0.440305 0.0766728 0.0115437 0.0236007 0.0274469 0.0207459 0.0187465 0.0237571 0.0653637 0.0207114 0.036885 0.00636458 0.0171265 0.00342285 0.643514 0.720278 0.851344 0.593444 0.0221798 0.0252776 0.0241747 0.0232497 0.00648285 0.0150509 0.00938287 0.0842995 0.0188742 0.0175137 0.0174686 0.0224537 0.129413 0.0402797 0.0315482 0.0111236 0.00948709 0.017325 0.033837 0.0412287 0.0357784 0.0285973 0.120093 0.011744 0.0101393 0.0193402 0.0143604 0.0200241 0.195171 0.0241027 0.0646327 0.109389 0.109018 0.0339017 0.0103979 0.0368615 0.120176 0.0196519 0.0260527 0.00524184 0.0568369 0.0694027 0.0364126 0.0162728 0.0141394 0.0223156 0.00535044 0.00899518 0.0164973 0.0441646 0.0695835 0.00974779 0.0143065 0.0151073 0.178657 0.0124057 0.726712 0.00706235 0.202514 0.477649 0.0395753 0.112372 0.138342 0.0230853 0.0113633 0.179531 0.0190009 0.0182721 0.0420817 0.0226287 0.0550697 0.0167836 0.02421 0.0909243 0.0186845 0.0823046 0.00750306 0.0294159 0.0334459 0.032952 0.013065 0.0334068 0.00950269 0.0329667 0.0228785 0.334082 0.022145 0.0181814 0.0468334 0.852512 0.00673329 0.00614035 0.119321 0.0244128 0.0164937 0.0157847 0.0179902 0.014771 0.172349 0.0290404 0.0234867 0.0244936 0.160201 0.0277501 0.0156985 0.117999 0.171072 0.0548205 0.0244868 0.024058 0.0727403 0.0687698 0.0211915 0.00816137 0.0213515 0.0138905 0.0409573 0.0519802 0.26467 0.046064 0.0114034 0.0232325 0.0786121 0.0362881 0.0219226 0.0236167 0.154378 0.0644486 0.0122828 0.0834851 0.0224705 0.0392591 0.0219881 0.0711242 0.0613727 0.00682059 0.0354797 0.0548812 0.108525 0.0525322 0.0191244 0.365711 0.119327 0.0210227 0.040051 0.10128 0.296153 0.713506 0.220341 0.0421315 0.0478443 0.0830021 0.106122 0.06429 0.0135717 0.159149 0.103455 0.137565 0.0411648 0.0312391 0.0417703 0.0153341 0.0516307 0.0334538 0.0138501 0.0436351 0.0218606 0.0198515 0.0317982 0.0483458 0.0246007 0.275868 0.0724704 0.020398 0.0837792 0.0257184 0.0140806 0.0482504 0.11961 0.0713081 0.0472033 0.0304117 0.0353626 0.602483 0.0403572 0.0190708 0.368214 0.117414 0.0325504 0.254238 0.0637964 0.0177452 0.264282 0.0449092 0.0417625 0.0792185 0.0379408 0.0369317 0.0285224 0.0356451 0.0462513 0.10546 0.384349 1.36605 0.0969523 0.249505 0.0297794 0.010693 0.0573134 0.0224451 0.0220729 0.383486 0.0104434 0.104869 0.0601873 0.535506 0.0107773 0.0110833 0.0521916 0.019793 0.0288175 0.0526236 0.0183537 0.00974382 0.073705 0.11879 0.0403786 0.0660973 0.191248 0.276329 0.740902 0.087784 0.0241423 0.0400091 0.00516695 0.421478 0.800277 0.935653 0.511184 0.00559406 0.0206809 0.140632 0.962135 0.0686934 0.122197 0.0333999 0.0420574 0.0256258 0.174692 0.0607354 0.134782 0.655012 0.546628 0.513518 0.455665 0.411824 0.705591 0.309332 0.89997 0.16708 0.525868 1.45734 0.339074 0.827267 0.385468 0.149524 0.356389 0.657899 0.954377 0.299959 0.965227 1.05372 0.699313 0.366904 0.976958 0.835644 0.650861 0.716837 0.841743 0.950061 1.05977 3.14997 1.95955 1.68847 3.00122 0.613932 0.839165 0.145365 1.58818 0.921547 1.10005 1.06465 0.507065 0.268124 2.61518 1.40155 0.130576 2.33691 1.99833 0.345517 0.180537 1.67904 0.117594 1.83472 2.151 0.220854 0.836492 0.501683 0.46662 2.65832 2.00957 0.328524 0.17383 0.132283 2.69274 0.292526 1.0701 1.78024 2.19019 2.52713 2.35731 2.59246 2.85245 2.09899 0.261319 1.02571 1.32778 2.05225 1.84042 0.0289924 1.68411 0.0132869 1.95927 0.0184153 0.0420691 0.0102296 0.0929479 0.120949 0.201063 0.0142137 0.0510103 0.0108166 2.52271 2.49984 1.46287 1.56753 3.84247 1.41072 0.012409 1.08845 0.265549 0.423497 1.21288 1.36006 0.857454 2.54404 1.71372 2.9436 4.16448 3.07729 2.78697 3.00536 0.973655 1.73296 1.80795 1.82183 2.27365 2.26809 1.62802 1.71983 0.946765 0.0272141 1.82316 0.783687 1.55515 1.271 1.02394 0.0403169 1.59818 1.45213 2.30904 0.0179194 0.995448 1.04559 1.07187 1.9964 0.220432 1.17873 1.35655 0.614293 1.60243 1.67616 1.02635 1.36489 2.44779 0.78869 0.0352772 3.84997 2.28856 2.19559 0.0235088 4.38736 1.40921 0.113289 0.697975 2.36634 0.0174399 1.39288 0.02752 1.3347 0.0103889 0.830852 0.48669 0.0103823 0.00922056 2.60381 1.22914 3.64907 3.07802 1.76286 1.43811 1.55715 0.00732288 0.00544969 0.595532 0.00816762 1.03461 0.288979 0.901479 0.464593 1.47893 1.34885 0.912226 1.33722 1.74177 1.33959 1.58871 0.354098 0.412534 2.8749 1.68737 0.0306507 2.283 1.38642 0.0150347 0.0164531 0.537295 0.00668113 0.0167293 1.20902 3.40542 0.0764645 0.700388 0.0913303 0.0447931 0.851075 0.0886513 0.622001 1.63231 1.04769 0.025319 0.57844 0.905849 1.17349 0.858431 0.956104 0.0435172 0.757094 1.30388 1.15142 0.0224895 0.0134808 0.020441 0.629256 0.859427 2.23898 0.0199579 1.23824 0.0458308 0.804286 1.29513 0.556708 1.02188 0.344654 0.503354 1.61761 0.52113 0.721766 0.317403 0.124689 0.795868 0.395474 0.969702 0.569663 0.880152 0.0131438 0.27173 0.260853 0.0646025 0.0383362 0.0928654 0.480593 1.37087 2.42507 0.0353548 0.0178794 0.0216505 0.0269096 1.31862 0.0408453 0.0102385 0.0355341 0.0139443 0.0360593 0.51019 0.0235049 0.0152453 0.0235812 0.0111855 0.0188882 0.0126525 0.0164025 0.0360151 0.104907 0.020147 1.16303 0.0163919 1.44974 1.90674 1.10217 1.43903 0.015784 0.786556 0.0437399 0.052596 0.0990431 0.715039 0.474741 0.0189734 1.46215 0.69009 1.07188 0.660482 0.0204224 0.327188 0.0214676 0.0156163 0.0154072 0.0251155 2.11114 0.0202336 2.52795 0.689303 0.0374269 0.0228222 0.016762 1.23337 1.12384 1.99681 0.0212059 0.0180442 0.0249881 1.9638 0.0254087 1.37741 1.33018 1.12714 1.63654 1.41205 0.868937 1.12181 1.39282 1.44215 0.235608 1.36153 1.68473 1.3889 1.65404 1.99724 0.570284 0.61882 1.97138 0.0244246 0.220074 0.644922 2.13918 1.18781 0.912441 0.599883 0.020952 0.786119 1.48673 0.0427492 1.54339 0.0114916 1.31428 1.54863 0.924455 1.7577 1.59404 1.17942 1.79579 1.04903 1.72078 0.842624 1.18817 1.05256 1.64919 1.07417 1.38006 0.849006 1.79817 1.24548 1.11585 0.79299 2.02725 0.868751 0.687971 0.969049 1.153 1.24828 2.36702 1.30662 1.59263 0.836652 1.49537 1.76175 1.67172 0.232486 0.40506 0.442951 0.00627167 0.00371851 0.00337833 0.00406961 0.239696 0.00404524 0.795537 0.00187377 0.00183176 1.23541 0.0049134 0.804986 0.00895577 0.00318752 0.314162 1.04022 0.128304 0.326743 0.00781516 0.597988 0.73258 1.21065 0.00243567 0.49401 0.226046 1.88059 0.29868 1.24671 0.273116 0.0081482 0.0367433 0.0744218 0.222814 0.0678683 0.614673 0.284462 0.130222 0.0067594 0.00644258 0.0109245 0.133571 0.0615003 0.162564 0.192225 0.000630824 0.407901 0.156544 0.20128 0.171042 0.2241 0.0125287 0.461174 0.0171044 0.00839701 0.176625 2.40126 0.149596 0.170448 0.123253 0.134537 0.25491 0.188205 1.71707 0.00111456 0.0340798 0.197689 0.184302 0.0674308 1.02866 1.39115 2.46375 0.332437 0.107027 0.00902969 1.62523 0.000461356 0.318919 0.010029 1.10864 0.00153357 0.00136481 0.248113 0.00181843 0.0996133 0.261405 0.0212495 0.15285 0.268547 0.00164876 0.298696 0.000406454 0.254839 0.765224 0.00124288 0.0330629 0.103633 0.0341796 0.00167884 0.466349 0.293374 0.661298 0.0232017 0.192395 0.15229 0.204926 0.0470134 0.0236158 0.230067 0.0153268 0.53571 0.86309 0.060521 0.0197087 0.0216952 0.0395562 0.0344812 0.6945 0.0619838 0.28945 0.163413 0.0999937 0.0228216 0.0497777 0.689413 0.00785733 0.293662 0.590358 0.030922 0.7032 0.251024 0.0464598 0.0625304 0.153192 0.310551 0.0421784 1.56159 0.451542 0.38572 0.0196742 2.20801 0.0828897 0.00210969 0.000310914 0.00639263 0.078476 0.100681 0.0800143 0.00160026 0.627967 1.32143 0.0003439 0.0597865 0.20179 0.020504 1.68128 0.236429 0.897762 0.232883 0.0926587 0.12037 1.23925 0.0318421 0.0295474 0.181744 0.227956 0.224952 0.649222 0.0152371 0.25037 1.4964 0.24477 0.00386753 0.00800639 1.82479 0.00702305 0.0241287 0.00660069 1.07234 0.482493 1.41321 0.156258 0.309185 0.0261387 0.98986 0.866179 0.0568057 0.181485 0.0408693 0.0732458 0.147913 0.194448 0.139149 0.00458934 0.390305 0.646213 0.0922234 0.0365579 0.0102384 0.0308776 0.0189859 0.468019 0.0208996 0.0575601 0.0194205 0.0343316 0.0159737 0.101649 0.804154 0.193837 0.658813 0.0209644 0.0217091 0.226106 0.0258141 0.392592 0.0432565 0.00134364 0.217542 0.706733 0.130821 0.0299304 0.000301712 0.67357 0.227097 0.529474 0.154207 0.0853659 0.0158728 0.0739474 0.404459 0.938492 0.047142 0.0441512 0.317973 0.0554954 0.0880599 0.530241 1.32163 0.781612 0.102213 0.24039 0.0800411 0.475342 0.0162122 1.22797 0.0211557 0.28887 1.00454 0.00542964 0.0800505 0.788195 0.548768 0.414078 0.210505 0.000181305 0.100817 0.436118 0.215223 0.0148931 0.520289 0.000484209 0.0442956 0.13123 0.00786654 0.0471849 1.42536 0.327725 1.28688 0.169845 0.378716 0.983469 0.0169745 0.629929 0.12361 0.0122958 0.0768984 0.220222 0.00995837 0.0823267 0.795085 0.620719 0.104775 0.0916883 0.574385 0.0636903 0.22927 0.162168 0.504241 0.315873 0.000216295 0.0533091 0.0328308 0.0999706 0.0167155 0.0120815 0.307392 0.612477 0.521608 0.653842 0.0085229 0.0252605 0.0685185 0.0754174 0.558197 0.0148292 0.29435 1.38302 0.0156159 0.693998 0.135146 0.0593059 0.192997 0.298477 0.739868 0.270379 0.151034 0.908896 0.175403 0.544746 0.529415 0.484725 0.0269755 0.0571142 0.523863 0.0261563 0.159087 1.11148 0.131251 0.168176 1.00123 0.0556252 0.139493 0.0786653 0.0149621 0.38234 0.152836 0.0957919 0.260077 1.60851 0.432008 0.164478 0.33976 0.00704842 0.184278 1.36339 0.0425416 0.0349867 0.416679 0.568943 1.0574 0.0475572 0.0124749 0.0634459 0.710024 0.15811 0.131193 0.15185 0.091086 0.620606 0.948202 0.756378 0.0136297 0.0865392 0.0194944 0.0272385 0.764041 0.0130209 0.526248 0.127747 0.238423 0.221441 0.130373 0.0838319 0.638608 0.280785 0.0551043 0.256679 0.00487706 0.180646 0.0280085 0.272998 0.0293822 0.504308 0.480691 0.154771 0.0322822 0.0187834 0.0441581 0.480145 0.157331 0.492154 0.149787 0.0556032 0.109275 0.0644199 0.0171541 0.0879159 0.62758 0.143094 0.116867 0.121843 0.398261 0.0909774 0.0827774 0.0313872 0.173474 0.214159 0.877076 0.0133529 0.457308 0.763366 0.165473 0.0260498 0.241459 0.104193 0.0507289 0.0498217 0.412814 0.0118772 0.0494125 0.0553378 0.594234 0.980682 0.0123168 0.131086 0.029435 0.0208924 0.81307 0.0361069 0.374043 0.061404 0.0470422 0.0136376 1.10745 0.239903 0.508004 0.414274 0.00651155 0.0493405 1.08454 0.225417 0.0637607 0.171971 0.0245384 0.939827 0.133186 0.285541 0.667811 0.90062 0.459824 0.463538 1.01163 0.0720249 0.0249074 0.0541773 0.156646 0.0647287 0.211769 0.0340265 0.123314 1.85898 0.107674 0.223101 0.143382 0.0314313 0.423535 0.199523 0.21578 0.0191561 0.0558494 0.108515 0.681214 0.47747 0.0516376 0.100611 0.0178354 0.174403 0.15122 0.0199477 0.0599333 0.225721 0.0235655 0.76033 0.142704 0.114067 0.397383 0.0295086 0.472906 0.155937 0.0211508 0.123013 0.53453 0.176725 0.10975 0.128255 0.223336 0.0292955 0.107593 0.231265 0.0851175 0.601709 0.177451 0.037194 0.533921 0.263619 0.132043 0.0129165 0.255174 0.020445 1.09031 0.222562 0.0168332 0.0770873 0.220862 0.0212543 0.646974 0.0252337 0.153631 0.121495 0.658839 0.458499 0.123193 1.58298 0.0220372 0.0198831 0.153636 0.34771 0.345354 0.136658 0.0305364 0.038523 0.00452434 0.0596674 0.59807 0.935109 0.104951 0.479217 0.0151769 0.00703226 0.271645 0.173829 0.127179 0.510783 0.719943 0.0652856 0.394429 0.331992 0.00599581 0.00593354 0.187122 0.0241447 0.470875 0.370461 0.449907 0.0764133 0.0211133 0.0896997 0.211114 0.189173 0.0443073 0.0155513 0.730543 1.64829 0.505492 1.43374 0.00593132 0.747567 0.0810474 0.435774 0.69445 0.821821 0.136869 0.0481037 0.396601 0.0156512 0.445853 2.05837 0.174998 0.0804166 0.638586 0.0642021 0.13741 0.421051 0.281735 0.0924517 0.0196826 0.313353 0.339894 0.0271691 0.280778 0.162325 0.404458 0.405581 0.505251 0.0439693 0.197924 0.156586 0.0692445 0.0582895 0.306865 0.015617 0.160266 0.458195 0.294659 0.0629035 0.09884 0.0247741 0.161789 1.28152 0.603885 1.33335 1.67546 0.398963 0.108455 0.683021 0.116896 0.0116763 0.123191 0.29928 0.558282 0.200423 0.315195 0.409342 0.613795 0.02351 0.290593 1.80779 0.035284 0.0369377 0.43021 0.245033 0.722937 0.00918993 0.203685 1.12456 0.0091934 0.447462 0.00806637 0.397152 0.127862 0.355842 1.49149 0.0723676 0.791886 0.0318326 0.00337049 0.103422 0.199813 0.0655764 0.552804 0.011362 0.010742 1.36661 1.31315 0.0870937 1.83654 0.231638 0.012572 0.116538 0.293858 0.660352 0.0124042 0.134729 0.222347 0.120725 0.147563 0.788567 0.0682813 0.548993 0.057877 0.741102 0.058707 0.248331 0.183227 0.0830037 0.32036 0.0191771 0.0280982 0.326857 0.143009 0.296607 0.00409199 1.72265 1.84187 0.260483 0.559286 0.0618246 0.00726198 0.0121534 0.04124 0.0204844 0.079265 0.391331 0.0922363 0.0152352 0.711533 0.00623854 0.0768472 0.357884 0.0162919 0.0939465 0.291403 0.0187199 0.0180059 0.0791966 0.0194772 0.378027 0.0203672 0.0130719 0.106177 0.24758 0.187697 0.0822439 0.100847 0.0170726 0.0529856 0.0222348 0.0231342 0.108074 0.00534937 0.00391978 0.293853 0.0309415 0.0967944 0.502402 0.129395 0.0205685 0.0461343 0.00827848 0.256184 0.0733456 0.0292879 0.129055 0.0617808 0.15719 0.105105 0.233648 0.687847 0.352594 0.335254 0.521677 0.0603064 0.0173165 0.31945 0.0280333 0.106617 1.56896 0.216597 1.02184 0.0150924 1.01781 0.00462418 0.0255802 0.193013 0.0251594 0.0187531 0.448433 0.145371 0.433587 0.0608633 0.142399 0.153085 0.0204088 0.499967 0.316382 0.396012 0.0422098 0.218119 0.09149 0.0122356 0.120817 0.560885 0.032636 0.183245 0.252368 0.0608857 0.184686 0.0258868 0.170733 0.0389814 0.0114219 0.226262 0.696754 0.216437 0.105491 0.636785 0.0133122 0.00408112 0.172036 0.204823 0.096411 0.179919 0.226758 0.0154495 0.147674 0.0742284 0.0246329 0.0420772 0.0124989 0.137496 0.0802378 0.61118 0.0879279 0.0734272 0.394927 0.704918 0.00417356 0.0542952 0.536232 0.00321733 0.0224392 0.925984 0.0940165 0.329622 0.271016 0.312222 0.0367139 0.392258 0.151532 0.122404 0.00830668 0.170716 0.798568 0.0441671 0.6706 0.0649571 0.13992 0.191142 0.155871 0.0182899 0.0154021 0.0164057 0.166835 0.00707538 0.083773 0.164175 0.0489076 0.28256 0.117583 0.382275 0.0196576 0.0451102 0.116373 0.154013 0.0808346 0.0619773 0.324017 0.0684166 0.63166 0.0037621 0.243076 0.0114199 0.19236 0.0185522 0.166095 0.005293 0.00297103 0.158177 0.522209 0.0392903 0.221811 0.0166074 0.146851 0.134622 0.500041 0.00589685 0.0118235 0.194329 0.168097 0.155415 0.954463 0.0524354 0.0766383 0.453447 0.0126744 0.174418 0.145836 0.219073 0.219233 0.482877 0.0896163 0.102358 0.118516 0.0699201 0.149654 0.130988 0.00259277 0.0636552 0.00567988 0.110222 0.0265614 0.10525 0.0140508 0.022765 0.00656027 0.0513074 0.0164762 0.107933 0.711181 0.0939461 0.207463 0.117273 0.0655219 0.0979033 0.0198529 0.373988 0.276328 0.0261485 0.209289 0.0655501 0.0392693 0.0218703 0.127083 0.0211363 0.184408 0.240008 0.232367 0.545491 0.504922 0.246184 0.0955358 0.0529988 0.172885 0.125088 0.315354 0.316695 0.215343 0.0414226 0.1588 0.229693 0.106875 0.0140006 0.0958338 0.0112303 0.0102346 0.013493 0.357502 0.101892 0.104965 0.0558541 0.224832 0.150222 0.523926 0.0237873 0.0296964 0.284625 0.105701 0.162925 0.0364849 0.00828986 0.070846 0.322071 0.014375 0.0583134 0.176339 0.306722 0.0209795 0.131363 0.244483 0.0112956 0.0224438 0.0354121 0.420144 0.0422571 0.173491 0.0550302 0.0120442 0.327619 0.245986 0.0146244 0.436617 0.115371 0.0138504 0.0342247 0.0485765 0.00178854 0.0562382 0.00931019 0.0248505 0.0738286 0.0910088 0.415924 0.097773 0.0425206 0.090705 0.0903237 0.113876 0.082144 0.0444536 0.161066 0.0258884 0.160138 0.182887 0.0594629 0.0211702 0.243809 0.150884 0.233585 1.05124 0.0122024 0.0226621 0.0601143 0.0147167 0.00750583 0.30908 0.0999966 0.0155739 0.123449 0.0769949 0.00568873 0.0571665 0.0264159 0.164648 0.0581104 0.0345152 0.221562 0.0215867 0.0225202 0.0285811 0.80763 0.0101879 0.00943367 0.471834 0.0569934 0.0977847 0.0347302 0.110505 0.0902511 0.0643369 0.0453617 0.0971288 0.264395 0.0152441 0.0482877 0.0987828 0.219552 0.16215 0.0127434 0.121191 0.0157746 0.0318575 0.0216164 0.06992 0.0144681 0.0323939 0.0102318 0.125355 0.601224 0.0303894 0.0159364 0.0374996 0.824107 0.0155698 0.0918411 0.0109001 0.00698694 0.0610078 0.0130034 0.188517 0.192642 0.0169825 0.439625 0.128176 0.0848772 0.0113906 0.143989 0.553889 0.0252488 0.224068 0.0385841 0.00965262 0.132909 0.0851139 0.0101551 0.134643 0.12322 0.0132352 0.00501367 0.20446 0.0602007 0.182924 0.0748074 0.172185 0.0192196 0.0171523 0.182509 0.0117404 0.266938 0.00357348 0.00805454 0.0120098 0.650156 0.157233 0.0250086 0.0160998 0.00736697 0.159175 0.115284 0.0754311 0.12462 0.00840054 0.0125986 0.0524822 0.0122 0.0129916 0.0438121 0.49718 0.101773 0.104699 0.160198 0.0432032 0.343048 0.577163 0.0296047 0.0176256 0.161273 0.00555708 0.0150472 0.00559137 0.183914 0.704763 0.62362 0.281818 0.0532104 0.0580481 0.530326 0.102546 0.0159319 0.160437 0.072882 0.00691359 0.0234849 0.188143 0.209834 0.0787981 0.0535448 0.151811 0.00476689 0.142758 0.441716 0.0272381 0.122411 0.0866286 0.0980999 0.335941 0.00680593 0.67199 0.0232347 0.019039 0.0923852 0.435715 0.0186881 0.104162 0.0157271 0.0113814 0.0844677 0.0670152 0.00700222 0.00916173 0.314629 0.12782 0.115798 0.101185 0.616547 0.0572014 0.0183991 0.0473567 0.146097 0.0715022 0.0910587 0.031805 0.126008 0.341661 0.0181872 0.0129918 0.044302 0.0903963 0.0155569 0.0755241 0.0112733 0.106423 0.0861751 0.180896 0.117572 0.0146427 0.0663446 0.0241346 0.00579098 0.014951 0.078977 0.193881 0.0409309 0.0200033 0.498922 0.113589 0.275171 0.107764 0.0169872 0.0230961 0.0180417 0.0803621 0.00759405 0.0538512 0.0716667 0.00504458 0.049322 0.00145123 0.0216058 0.0717151 0.0656012 0.0724957 0.00609792 0.0928854 0.0897953 0.817871 0.179322 0.137063 0.0559853 0.0625773 0.214792 0.0368033 0.00633848 0.0041847 0.168912 0.00112598 0.0104771 0.175991 0.140868 0.0131633 0.017635 0.190662 0.00499927 0.0859764 0.0291536 0.132999 0.0693117 0.285992 0.215855 0.03261 0.352527 0.00570045 0.272233 0.0109944 0.00356561 0.0424713 0.130337 0.00669478 0.237825 0.0129327 0.291945 0.00141784 0.112409 0.148758 0.091836 0.0637232 0.0200957 0.115456 0.015278 0.158718 0.263829 0.0312091 0.388222 0.0171572 0.143333 0.0149309 0.167784 0.0351317 0.56938 0.229108 0.0316865 0.0137535 0.420225 0.0130075 0.339616 0.0847781 0.00282012 0.235414 0.110831 0.00423684 0.00520302 0.254569 0.0767828 0.260675 0.337988 0.0401505 0.013879 0.128761 0.0119661 0.17711 0.0503934 0.0723057 0.0037983 0.15637 0.360114 0.131643 0.0354974 0.114276 0.134237 0.0124979 0.103655 0.0958089 0.22808 0.100558 0.03395 0.406065 0.207568 0.0871393 0.0832961 0.00420341 0.159488 0.380463 0.0816358 0.141052 0.123598 0.0417679 0.0937293 0.0207968 0.0138819 0.00891858 0.245423 0.0291421 0.178265 0.401668 0.00979393 0.0329115 0.024811 0.190195 0.0692632 0.238782 0.068382 0.0824559 0.0145604 0.311206 0.12146 0.0623822 0.00793844 0.00499788 0.0210214 0.0118628 0.0622377 0.114072 0.0328564 0.00426432 0.412749 0.257071 0.103078 0.121043 0.0072336 0.0220252 0.0203119 0.353778 0.0630016 0.0090303 0.27298 0.137793 0.083074 0.0215658 0.0243811 0.276214 0.222282 0.018238 0.178271 0.0260636 0.0170273 0.0234874 0.165867 0.00717647 0.0888738 0.0919537 0.00187212 0.0194889 0.128818 0.0280722 0.0137688 0.195393 0.0104922 0.0182126 0.29718 0.00835727 0.0294487 0.107501 0.0551715 0.00234535 0.68675 0.00713452 0.00540973 0.105545 0.0100794 0.000908677 0.182225 0.0177275 0.0245327 0.49876 0.234685 0.331285 0.244166 0.0389911 0.621463 0.0759846 0.0894584 0.0506832 0.0617514 0.0952014 0.0547177 0.00278099 0.450908 0.294792 0.120486 0.0842783 0.131871 0.0152366 0.0706349 0.248016 0.0366303 0.0378877 0.0648957 0.033013 0.357414 0.0399225 0.0212143 0.0494936 0.0567617 0.00220218 0.0886483 0.00256254 0.00153188 0.20596 0.00977076 0.0624982 0.138885 0.140646 0.37341 0.0115758 0.102514 0.0995864 0.301752 0.14818 0.0353335 0.43338 0.0352104 0.159858 0.0146375 0.128438 0.00885698 0.0125955 0.0284351 0.0126118 0.0061524 0.223012 0.148985 0.00300273 0.121041 0.238402 0.0132057 0.0155452 0.0405423 0.00903608 0.100052 0.0520018 0.00733032 0.0819965 0.0197502 0.0371167 0.0366735 0.112177 0.0707026 0.0693482 0.0655103 0.0380182 0.0251314 0.0575303 0.0411397 0.0451575 0.0504657 0.0345425 0.0522989 0.058573 0.00769609 0.330233 0.0475585 0.368081 0.00628986 0.0617093 0.0577319 0.0884559 0.0630063 0.00858807 0.0614325 0.306007 0.0515269 0.636749 0.0389794 0.235863 0.00556657 0.256509 0.022091 0.00727079 0.043154 0.210509 0.0460137 0.0112294 0.0842006 0.0368662 0.123313 0.0268729 0.0597006 0.072422 0.00644585 0.0498853 0.116609 0.00573132 0.00671609 0.0857277 0.123553 0.706011 0.413705 0.163193 0.140434 0.153762 0.00419396 0.0311297 0.146275 0.0486507 0.104839 0.0852962 0.174685 0.133112 0.055237 0.29684 0.0483558 0.497262 0.0416242 0.0143939 0.0967924 0.130107 0.143975 0.10103 0.0119443 0.00732187 0.358018 0.160358 0.0867374 0.0632326 0.0981898 0.00570194 0.0748718 0.105956 0.0501051 0.0753166 0.105886 0.0866738 0.00740117 0.0167232 0.0701042 0.0159286 0.257377 0.00246857 0.0214529 0.267984 0.136866 0.00856261 0.0226279 0.136728 0.0944362 0.00929371 0.0592606 0.0519187 0.00353274 0.058104 0.0870562 0.00256392 0.0582009 0.187216 0.660887 0.0921989 0.179202 0.0941254 0.427487 0.266471 0.147692 0.0673282 0.14853 0.017808 3.72242 0.0787101 0.101218 0.139041 0.29445 0.00668083 0.15775 0.0117799 0.0779456 0.107126 0.124604 0.120071 0.0295859 0.0247682 0.0507683 0.031417 0.0134401 0.409591 0.113661 0.153125 0.0292195 0.111841 0.233227 0.0540025 1.19375 0.0618405 0.105103 0.0837097 0.130117 1.28629 1.13362 0.100858 0.0229577 0.220884 0.00304432 0.0721431 0.00096359 0.0168021 0.0589547 0.0165558 0.329901 0.0185718 0.612473 0.276599 0.13712 0.00340437 0.0298841 0.263988 0.549962 0.0642782 0.161693 0.0173653 0.201403 0.299082 0.257407 0.0146628 0.139863 0.0508249 0.00312814 0.0339704 0.0201745 0.0918525 0.0473686 0.0570222 0.024661 0.128557 0.136399 0.0402856 0.0267288 0.075964 0.0238636 0.00608727 0.00705244 0.175019 0.0346753 0.0296785 0.0737702 0.122285 0.108383 0.0984254 0.118461 0.0907383 0.00926207 0.0861639 0.21687 0.71159 0.01304 0.00447272 0.0458496 0.0323619 0.307468 2.28032 1.54611 0.0934959 0.0715132 0.0767516 0.199525 0.123076 0.0102779 0.0809007 0.170894 0.0890475 0.112816 0.0828702 0.0116493 0.00701681 0.0463537 0.0016883 0.0599376 0.0142303 0.029637 0.107435 0.0190101 0.14323 0.153813 0.0262078 0.0453221 0.121876 0.0929048 0.0465812 0.222948 0.127831 0.0584181 0.018174 0.00888478 0.0222721 0.0891675 0.0585815 0.150657 0.0906796 1.62303 0.0447607 0.018593 0.0907188 0.232517 0.0143401 0.00436625 0.0317143 0.0383654 0.100914 0.164121 0.21166 0.183132 0.00162053 0.128647 0.052637 0.137825 0.15703 0.0279378 0.00647477 0.0229966 0.220102 0.0408811 0.146551 0.016561 0.0150203 0.0755815 0.116048 0.268167 0.226335 0.0289871 0.0747029 0.0017174 0.0309846 0.00951754 0.00415551 0.0531408 0.0155009 0.00583183 0.00807069 0.0644439 0.00207325 0.00819447 0.00225672 0.00280062 0.0205409 0.0658836 0.216351 0.0635383 0.135432 0.10961 0.011892 0.0985283 0.0568791 0.0153413 0.0167285 0.0397921 0.00994714 0.0741279 0.0069792 0.0147234 0.0201348 0.0880501 0.337796 0.639365 0.0761306 0.100196 0.107803 0.0447525 0.020527 0.0784334 0.00400006 0.00776075 0.146053 0.0324862 0.0534974 0.143089 0.00834112 0.253361 0.353253 0.0124291 0.0141864 0.00574173 0.00607129 0.00844751 0.104898 0.0135336 0.0511316 0.0234987 0.0555671 0.0490697 0.130085 0.256782 0.0877462 0.00391059 0.103475 0.0891481 0.0147794 0.128417 0.066469 0.146685 0.0680144 0.0035085 0.161934 0.140417 0.209554 0.0282208 0.0114822 0.0792617 0.0809023 0.00555273 0.135169 0.0952579 0.0826567 0.0293911 0.0220085 0.0151763 0.0047366 0.0312426 0.0206336 0.0352452 0.00295874 0.0516382 0.288615 0.00137815 0.0254655 0.0403682 0.211406 0.0863481 0.0700127 0.0239422 0.36694 0.093054 0.10562 0.126409 0.028566 0.00212186 0.0266139 0.109346 0.150612 0.0271219 0.206148 0.123191 0.108078 0.0314851 0.15944 0.21297 0.0271957 0.152285 0.0897726 0.378089 0.0977072 0.0552855 0.214638 0.204642 0.241663 0.21285 0.0100251 0.0181051 0.0186712 0.0154774 0.277067 0.00924671 0.00900037 0.0102076 0.0711894 0.00303668 0.0938744 0.0597799 0.0244122 0.150579 0.0976454 0.00710045 0.0186408 0.0268503 0.017578 0.135923 0.105709 0.0709954 0.0282789 0.0744851 0.0401914 0.0476835 0.068765 0.131253 0.0431019 0.279937 0.0801327 0.0106246 0.149611 0.0106103 0.165297 0.0401282 0.0629207 0.0833701 0.0618997 0.0656071 0.0322861 0.031493 0.0617531 0.0760263 0.00138708 0.00822153 0.0624465 0.251945 0.107138 0.0498066 0.0821985 0.137616 0.020536 0.0739731 0.210167 0.0395021 0.224088 0.0845796 0.00525713 0.0802874 0.00112362 0.0194546 0.131101 0.0953316 0.112258 0.056414 0.0267864 0.0513 0.080378 0.095944 0.05775 0.0774856 0.0232551 0.0274936 0.0902097 0.0908315 0.0362668 0.00452598 0.0369888 0.106825 0.17262 0.0368346 0.0180883 0.0164423 0.214493 0.153563 0.0288664 0.00836225 0.113472 0.0178616 0.0644159 0.0485227 0.189502 0.0324774 0.026822 0.0251403 0.074985 0.0081982 0.0626536 0.0279677 0.00138513 0.0750777 0.0124759 0.0153495 0.00121101 0.466937 0.635274 0.0872236 0.00878353 0.0943616 0.0245001 0.00534606 0.00203115 0.0172424 0.00193577 0.061302 0.0585155 0.0993874 0.039407 0.122626 0.121053 0.00489609 0.106613 0.0131547 0.0410005 0.142044 0.0178515 0.0119385 0.135856 0.208882 0.193812 0.12199 0.206088 0.0673022 0.133345 0.00523694 0.00696312 0.11515 0.00633531 0.00631831 0.193991 0.00248197 0.0676704 0.00471912 0.00181183 0.0784012 0.0624991 0.0317459 0.238506 0.0185139 0.154286 0.0329962 0.0112146 0.161171 0.00411725 0.0433011 0.0138471 0.107077 0.0132179 0.0676883 0.0282572 0.00353417 0.199238 0.0524744 0.0143675 0.0314986 0.0514926 0.0538981 0.106949 0.139664 0.00306416 0.0166329 0.0528383 0.0499889 0.0165176 0.17393 0.120627 0.0782542 0.0172702 0.020292 0.0727147 0.0890795 0.0560012 0.125543 0.0595806 0.00768192 0.26306 0.0386775 0.0556035 0.111699 0.00422914 0.101828 0.0288249 0.00368624 0.107087 0.0510281 0.0110291 0.168889 0.0440601 0.135822 0.0939893 0.0177803 0.0528832 0.013595 0.0520239 0.0803422 0.12969 0.0591654 0.0672309 0.0776116 0.0615169 0.0482257 0.0483376 0.0176207 0.0305798 0.08368 0.0247265 0.0623506 0.00520699 0.0596592 0.180098 0.241337 0.0431554 0.031944 0.109047 0.00372532 0.0513396 0.104325 0.0454463 0.100167 0.0237811 0.228647 0.00922428 0.0895747 0.00810481 0.00273 0.0778254 0.0767006 0.138677 0.0483019 0.0494374 0.0575988 0.141721 0.0126523 0.0735731 0.218606 0.0226345 0.0918788 0.118572 0.0108065 0.00891062 0.063591 0.0308959 0.00105008 0.0127499 0.0718473 0.0165711 0.0735514 0.0126563 0.044098 0.0334904 0.12883 0.0187145 0.00445837 0.0017724 0.00312869 0.121748 0.011821 0.31648 0.0141104 0.0609031 0.0043658 0.120809 0.351618 0.00276309 0.0672415 0.0119414 0.0928397 0.0423797 0.0387955 0.00427558 0.0230931 0.009722 0.0145947 0.0965677 0.0968262 0.0617669 0.155499 0.0610683 0.010229 0.0902732 0.131682 0.0652444 0.0451246 0.0147593 0.131141 0.0493779 0.0640922 0.117383 0.000513185 0.0146209 0.0481158 0.215824 0.0110555 0.087963 0.00797977 0.00227061 0.0152844 0.0143408 0.016028 0.106821 0.0629392 0.07303 0.0652987 0.0276161 0.00256526 0.139437 0.0507853 0.00327679 0.0790553 0.00947752 0.0855581 0.211823 0.0110996 0.00431786 0.061153 0.122312 0.0212692 0.116694 0.0114856 0.0890207 0.0211012 0.145312 0.086473 0.099503 0.0534502 0.0502097 0.0517882 0.0123285 0.101894 0.0364931 0.012139 0.0869064 0.0291624 0.0931786 0.0893334 0.000396477 0.07041 0.00155188 0.0748485 0.0633419 0.00178172 0.060016 0.0368446 0.130509 0.055516 0.0881565 0.250248 0.0744986 0.0819555 0.0707254 0.109895 0.121103 0.217737 0.0693991 0.00338088 0.0716539 0.142527 0.0883847 0.0376976 0.0691156 0.211778 0.00200813 0.0373616 0.068235 0.213269 0.0424897 0.04616 0.126639 0.00356892 0.010945 0.00908318 0.171363 0.00141307 0.0553299 0.0871662 0.0135489 0.094284 0.116742 0.150856 0.0043801 0.0514014 0.21129 0.065229 0.0558929 0.00624791 0.0900442 0.165989 0.00368232 0.105422 0.0732085 0.00374805 0.0596678 0.0344568 0.107091 0.0483978 0.0246965 0.061839 0.0443609 0.000488745 0.0282549 0.00977184 0.0683444 0.100053 0.000618196 0.020178 0.0522613 0.00532099 0.0983208 0.0112479 0.00865791 0.0153392 0.0847574 0.0143209 0.0469676 0.00906261 0.163112 0.0384047 0.027903 0.0235782 0.00930811 0.0940922 0.160767 0.0895866 0.0330478 0.0192347 0.0698063 0.0254668 0.0143605 0.023765 0.0173883 0.089991 0.0519337 0.0113552 0.0772643 0.0255638 0.18068 0.110563 0.309645 0.0177483 0.0696875 0.00817204 0.0151448 0.0364709 0.0857571 0.0287584 0.170746 0.0117254 0.174412 0.0105799 0.0375918 0.0217361 0.190123 0.0443904 0.0278 0.0365449 0.0449563 0.0426867 0.0381935 0.0818946 0.0452939 0.130005 0.00942966 0.00412528 0.00783753 0.00336092 0.072042 0.111275 0.0500567 0.143087 0.0627181 0.0211851 0.144532 0.0167385 0.0844599 0.0988609 0.0307812 0.0182739 0.0437906 0.0149991 0.0688488 0.0729452 0.0554248 0.0469916 0.0373135 0.0459542 0.00966435 0.0577374 0.0138202 0.0560231 0.0735458 0.0128715 0.0694045 0.108848 0.0198088 0.138507 0.0171883 0.0489329 0.0684543 0.0104186 0.0441188 0.0339651 0.0214496 0.0314705 0.0220121 0.0880877 0.054278 0.00104354 0.010918 0.0258472 0.0905498 0.0250403 0.0174345 0.128679 0.0258867 0.0695524 0.162485 0.0897742 0.0654395 0.0193013 0.0199396 0.0219017 0.125728 0.0366554 0.0614072 0.0941633 0.0120358 0.145829 0.0146172 0.0381764 0.0237542 0.037042 0.0377077 0.00539171 0.0142169 0.0795708 0.193935 0.0290132 0.14108 0.00586708 0.136236 0.122167 0.0598095 0.0125963 0.0513908 0.0396234 0.0788185 0.0710216 0.00182662 0.125595 0.00247873 0.0180118 0.259609 0.0975573 0.0951445 0.473402 0.0521772 0.0175647 0.0370971 0.109305 0.0247572 0.0217556 0.00897642 0.0124811 0.040913 0.00697834 0.00889203 0.131693 0.0156078 0.00135009 0.0869561 0.0718841 0.0849594 0.0404204 0.0311124 0.0846915 0.115306 0.035016 0.0326451 0.0894455 0.0411115 0.0491397 0.0184014 0.102261 0.152565 0.0709261 0.0132689 0.0838023 0.239057 0.108041 0.114159 0.0908163 0.0156503 0.0509475 0.0522778 0.0695743 0.0316905 0.00398585 0.0390343 0.0795568 0.0899468 0.098605 0.0370049 0.0151059 0.182483 0.0635837 0.0271021 0.127286 0.0978448 0.00840819 0.0100002 0.118796 0.0371263 0.0161846 0.0144538 0.0117874 0.0428566 0.106726 0.132525 0.0520695 0.0173376 0.0581159 0.0637706 0.0192445 0.0303029 0.0630309 0.0266868 0.109927 0.0170755 0.0106577 0.01656 0.0242329 0.069253 0.0787481 0.0315586 0.0746571 0.00555872 0.0150784 0.0208991 0.0168679 0.0413171 0.0594961 0.0671397 0.112884 0.0847252 0.00729373 0.0221835 0.0286566 0.04128 0.0215027 0.0181047 0.0357233 0.0528727 0.018396 0.0230763 0.15182 0.0231562 0.0306683 0.0375387 0.0237184 0.0272379 0.0537612 0.231299 0.0231494 0.00435003 0.0576083 0.0381834 0.0111705 0.00384554 0.0230723 0.0043597 0.0813086 0.116287 0.0139367 0.0397196 0.0736159 0.0119271 0.252261 0.0360798 0.0400255 0.0128841 0.120239 0.0125764 0.0202594 0.0327162 0.0653036 0.0294924 0.0183681 0.0979482 0.00767338 0.141079 0.0112794 0.0146779 0.0117465 0.0973129 0.0650451 0.14104 0.0638458 0.0542321 0.267557 0.020953 0.0179628 0.0181664 0.0314767 0.0988277 0.0561728 0.0856749 0.0523829 0.0677608 0.0192479 0.0473361 0.00154809 0.138478 0.045899 0.047127 0.0159062 0.171078 0.0261159 0.0310369 0.0162111 0.149514 0.0338249 0.0307109 0.0931123 0.0823609 0.201779 0.0450202 0.0225816 0.00983071 0.0855531 0.0534239 0.0797495 0.0202323 0.00651121 0.0271594 0.027181 0.0174766 0.0121641 0.0200105 0.0129149 0.0267683 0.0024975 0.0103561 0.00760133 0.0277254 0.0613758 0.022676 0.0208341 0.0504711 0.0170936 0.0824013 0.0217544 0.0466877 0.0686017 0.0372055 0.0154896 0.0270638 0.0078916 0.0148274 0.0696157 0.0239448 0.0759749 0.0707313 0.0696037 0.00544895 0.0367081 0.00213916 0.354942 0.0218993 0.0308109 0.0455928 0.0228373 0.0335402 0.0574256 0.0648911 0.12245 0.0668428 0.0110804 0.0106371 0.0159821 0.00793374 0.0230727 0.00578084 0.0432364 0.0862093 0.0736479 0.0818396 0.0302403 0.0343539 0.0113307 0.0391571 0.0111465 0.0453617 0.0180915 0.0372185 0.0114717 0.00883892 0.0410167 0.0165221 0.0402112 0.0130578 0.0516066 0.00947748 0.0169731 0.0302244 0.0468659 0.0999916 0.0244973 0.0734083 0.0604173 0.0885006 0.0937574 0.0202814 0.0107181 0.0246924 0.0774648 0.0464589 0.0174845 0.0837258 0.0563634 0.0482811 0.0388882 0.076662 0.0562192 0.00860473 0.0069887 0.0084178 0.0208484 0.00810765 0.00626648 0.0319131 0.0373492 0.0660783 0.110301 0.006793 0.0221851 0.0149344 0.00100682 0.0308019 0.0754033 0.0201291 0.0178277 0.0147662 0.0622035 0.0386129 0.0341574 0.00163678 0.0371596 0.06817 0.0414849 0.0372259 0.0115592 0.0724935 0.01541 0.0397485 0.0549648 0.0619194 0.0383896 0.0823898 0.0506248 0.0141555 0.102744 0.0563134 0.0434763 0.0596945 0.00408427 0.0539063 0.09151 0.262526 0.0147395 1.94462 0.0120779 0.0913578 0.0169732 0.00838928 0.0178514 0.0556922 0.021806 0.0285954 0.0145486 0.0424409 0.014309 0.00602587 0.00654199 0.00686089 0.0642574 0.0641691 0.0050746 0.0797559 0.0349186 0.0145996 0.0287761 0.0569415 0.0200533 0.00405414 0.0139606 0.0045838 0.0650588 0.0533328 0.021798 0.055386 0.0359723 0.00691879 0.038626 0.0129487 0.0457995 0.21721 0.0766624 0.00730042 0.0195267 0.106349 0.0199192 0.0178107 0.0456021 0.0666889 0.0216799 0.00662077 0.00621636 0.111599 0.00359091 0.0618906 0.0658198 0.0267816 0.0653256 0.0963137 0.0499966 0.124584 0.0281794 0.0215214 0.0389138 0.0211937 0.0121465 0.00412064 0.0103913 0.00797913 0.0916259 0.0743726 0.00596288 0.00533261 0.0427936 0.0116143 0.0600575 0.0149786 0.0585907 0.076322 0.0732693 0.0437262 0.0984098 0.0192653 0.0188711 0.00811815 0.0242919 0.0425533 0.0196762 0.0277754 0.0371857 0.0530012 0.0503435 0.0577764 0.00657631 0.064774 0.0577228 0.0272507 0.0456401 0.014604 0.0336446 0.0502612 0.0317563 0.0107701 0.0110644 0.0133732 0.0179961 0.00665833 0.0234449 0.0115661 0.0445586 0.0143832 0.0542321 0.0743019 0.0311762 0.00601221 0.0234984 0.0807741 0.0165339 0.007528 0.0106224 0.00316049 0.997357 0.57975 0.0216371 0.0564378 0.0400633 0.145494 0.0047065 0.0463853 0.0296293 0.0341375 0.041834 1.45089 0.00779145 0.0993941 0.0174011 0.0563048 0.0202069 0.0174574 0.0165999 0.0138625 0.00687714 0.0382452 0.0180594 0.0372434 0.0122671 0.0247836 0.0625454 0.0702051 0.0737301 0.133628 0.0989223 0.0152641 0.059294 0.0473358 0.0100794 0.0227878 0.00934032 0.0116918 0.0443983 0.0383627 0.0655997 0.0154479 0.0147651 0.0067291 0.00806816 0.0261627 0.0500032 0.0785938 0.00439536 0.03612 0.0209502 0.00192426 0.0142008 0.0363158 0.0469158 1.97543 0.0322755 0.0883075 0.0693868 0.00293742 0.00634936 0.0117621 0.00952744 0.0479191 1.37607 0.0394958 0.00746687 0.0457987 0.869578 0.0117335 0.001554 0.033666 0.987176 0.0255225 0.0341407 0.00546779 0.0651946 0.0476513 0.0184061 0.0174246 0.00930436 0.0579911 0.0140349 0.00740194 0.0412033 0.019911 0.00528811 0.00361583 0.0370409 0.0290745 0.0083593 0.0215891 0.0561378 0.0235135 0.0748274 0.00419521 0.0705974 0.0549093 0.0138384 0.0871737 0.0437926 0.0023591 0.0728402 0.00982742 0.0302468 0.00587262 0.0222399 0.0334994 0.022089 0.0482758 0.00617219 0.00984454 0.0345577 0.0273901 0.0427994 1.2888 1.27925 0.0380529 0.0168639 0.0100561 0.021424 0.0290495 0.0736266 0.00694054 0.0418561 0.0520346 0.00880586 0.00691522 0.00545079 0.00534637 0.0181377 0.00631145 0.00868427 0.00797939 0.0317476 0.0596106 0.0129102 0.0145306 0.0401187 0.0365837 0.00504527 0.00745941 0.00781924 0.00729353 0.0465192 0.0351456 0.00789937 0.0270564 0.00496636 0.0034161 0.00511023 0.0209234 0.0211173 0.00569178 0.0440589 0.00108922 0.0291575 0.00702746 0.00541856 0.0274438 0.00817602 0.0476295 0.0354033 0.00716997 0.0228624 0.0356683 0.0645791 0.0236802 0.0109773 0.019962 0.0535982 0.0129163 0.128722 0.0167862 0.00720378 0.0110641 0.0195125 0.0483439 0.0289058 0.0216767 0.0325317 0.00777263 0.0222778 0.0118935 0.0114685 0.00696309 0.0283914 0.00567714 0.00757056 0.0606576 0.0363735 0.0248064 0.0105517 0.0170149 0.0146611 0.0209338 0.0335374 0.00764141 0.120909 0.0159263 0.0140885 0.0166685 0.0246361 0.09534 0.0851572 0.00766396 0.0119805 0.0124304 0.0173842 0.0126219 0.024973 0.0317437 0.00681671 0.0185077 0.0057413 0.0171683 0.00890518 0.00534147 0.036676 0.0163029 0.00641117 0.0140941 0.00617768 0.0514909 0.0385652 0.0166903 0.0646608 0.0244245 0.0898868 0.00994375 0.0398261 0.00309312 0.00610806 0.0103249 0.00819944 0.0653864 0.0120679 0.0304884 0.00101981 0.0397064 0.0463855 0.0188676 0.00443361 0.00758726 0.0129097 0.00389563 0.031352 0.194292 0.0399959 0.00708765 0.0235356 0.00530636 0.0121348 0.0381674 0.00653974 0.00231243 0.0236797 0.00662273 0.00398283 0.00405355 0.0226073 0.0504706 0.0629967 0.00340148 0.0041233 0.00735459 0.0127655 0.0107192 0.0257393 0.0183734 0.0205504 0.0061549 0.0255345 0.0275271 0.00670502 0.0967978 0.0272265 0.0264333 0.0149062 0.00785936 0.044551 0.00887297 0.0187586 0.0324631 0.0145147 0.0062454 0.0217775 0.0133631 0.00539083 0.00393133 0.0142472 0.00651421 0.0331692 0.0236379 0.00107075 0.0163536 0.00360829 0.0468049 0.0213595 0.0112761 0.00975791 0.0126521 0.0170736 0.00328532 0.00640484 0.014263 0.0156261 0.00482081 0.0286373 0.000880572 0.00969413 0.0121477 0.0385691 0.0437102 0.0160204 0.00789878 0.00452962 0.004255 0.0105631 0.00753402 0.012113 0.00379478 0.00447863 0.00464528 0.00935447 0.00942221 0.0108911 0.0103192 0.0229121 0.0275752 0.00206946 0.00989061 0.176234 0.00897191 0.980324 0.0371908 0.151503 0.0438999 0.0134414 0.0219455 0.0267241 0.00480422 0.00312684 0.229942 0.16997 0.099356 0.0662836 0.00990157 0.0127412 0.127474 0.0145152 0.0177674 0.0224216 0.0797793 0.120108 0.0140295 0.112209 0.0788054 0.289804 0.251682 0.190736 0.0909903 0.00644084 0.0183819 0.0423094 0.232487 0.0101348 0.24211 0.0246509 0.013505 0.00458828 0.00403739 0.0252124 0.000680903 0.0299253 0.014729 0.0173018 0.0133471 0.0220533 0.0172939 0.0065092 0.0343529 0.197476 0.710445 0.53903 0.0226125 0.0185914 0.0272789 0.0107316 1.85337 0.00964945 0.0203162 0.104438 0.00859684 0.135642 0.0598108 0.0276776 0.273007 0.152721 0.140425 0.216528 0.0375298 0.03168 0.00867526 0.0166577 0.0167608 0.0904537 0.131526 0.0338268 0.0211843 0.016218 0.0209552 0.044628 0.0176404 0.0139011 0.0266137 0.00556682 0.00944368 0.0156228 0.0236663 0.0205017 0.339358 0.00720838 0.050929 0.0392161 0.035183 1.68977 0.681611 1.63519 0.00691915 0.0126473 1.72759 1.34806 0.283269 0.00571421 0.00980987 0.0141925 0.0167847 0.0186232 0.0201185 0.0289448 0.322247 0.0281868 0.0590117 0.132226 0.0135021 0.0242029 0.00850687 0.0210452 0.0311458 0.0123077 0.0438279 0.0293903 0.207402 1.54571 1.35981 0.426999 0.105749 0.159018 0.0394396 0.0204015 0.0367717 0.017533 0.0227625 0.0241234 0.0187843 0.0193397 0.0186989 0.00908814 0.0632872 0.307844 0.0181427 0.0835921 0.0320888 0.0453764 0.0271193 0.0262802 0.00702512 0.0357407 0.0227475 0.0885376 0.015394 0.029594 0.114558 0.0235176 0.0110546 0.0471804 0.0193119 0.0241384 0.0076967 0.0121383 0.0161163 0.0138331 0.0100858 0.0102314 0.0327537 0.0138333 0.0145212 0.0303233 0.0156631 0.011094 0.0188354 0.415454 0.0204672 0.00712014 0.00392174 0.0166376 0.0211898 0.0367728 0.0252065 0.0216154 0.0171504 0.0246704 0.0264917 0.0117854 0.0149621 0.0149915 0.0161925 0.0144207 0.0113446 0.0273188 0.0260348 1.34062 0.0125211 0.0234371 0.0228407 
VECTORS u float
-2.98023e-08 0 0  -0.00149456 -0.000530958 -0.000136867  0 0 0  -0.00098595 -0.000388071 4.32581e-05  0 0 7.45058e-09  -0.00111109 -0.000457332 -0.000507995  -2.98023e-08 0 0  -0.000968516 -0.000323132 0.000438631  -2.98023e-08 0 0  -0.000430852 -0.000527382 -0.000946149  -2.98023e-08 0 0  -0.000808865 -0.000377044 0.000645608  -2.98023e-08 0 0  0.000808746 2.59429e-05 -0.000125289  0 0 0  -0.000801414 -0.000442386 0.000785947  -2.98023e-08 0 0  0.00119177 0.00081639 0.000464082  -0.000501335 -0.000980601 -0.00283587  0.135468 -1.43313 0.61512  0.00236756 0.00322109 -0.000763476  0.0559646 -1.41665 0.716268  0.186312 -1.43552 0.550248  0.00256412 0.0144797 0.00374216  0.119939 -1.42897 0.634776  -1.49012e-08 0 0  -0.000584841 -0.000297397 0.000806093  -1.49012e-08 0 0  0.000794351 0.000138342 0.000766993  -0.00365701 -0.00627762 -0.000929929  0.090801 -2.02156 0.750782  0.0857031 -1.42299 0.678449  0.131504 -1.42916 0.619987  0.0714763 -2.00384 0.772984  0.0969446 -2.00077 0.739632  0.0826334 -2.09267 0.772249  0.0674635 -2.05659 0.786274  0.0907216 -2.05647 0.756245  0.0891264 -1.99166 0.748301  0.0498212 -2.00373 0.800914  -0.0276995 -1.40407 0.822847  0.0882663 -1.88032 0.731635  0.197729 -1.43437 0.535986  0.120037 -1.42456 0.634376  0.048289 -1.41512 0.726208  0.0650004 -1.70447 0.73665  0.0657936 -1.95974 0.773376  0.0948998 -1.19272 0.638886  0.0391085 -1.95025 0.806484  0.0703118 -1.59759 0.717298  0.0321901 -1.71899 0.781246  0.0960289 -1.71512 0.697493  0.0833444 -1.94438 0.748279  0.0290863 -1.51949 0.762338  0.102487 -1.56643 0.672475  0.0500614 -1.18735 0.696535  0.0548398 -1.80323 0.762813  0.124764 -1.19409 0.600792  -0.00124869 6.11544e-05 0.000809342  0.0235053 -1.80049 0.802796  0.0846831 -1.79753 0.723253  0.0743493 -1.93191 0.757992  0.099292 -0.899974 0.593267  0.0208088 -1.42514 0.762238  -0.00272292 -0.0882306 0.14709  0.0649544 -1.41498 0.70408  0.0154177 -1.80978 0.814714  0.0183434 -1.92809 0.829797  0.102788 -1.47088 0.661663  -0.000994671 -0.0226815 0.0921838  0.0431201 -1.9096 0.794781  0 0 0  0.0166393 -1.40749 0.765737  0.101747 -1.41963 0.657378  0.0546084 -0.888987 0.649475  0.000354351 -3.71393e-05 0.000669658  0.0400795 -1.83232 0.786301  0.071874 -1.81274 0.742235  0.0639077 -1.92841 0.771008  0.130069 -0.904761 0.556141  0.00508106 -1.80806 0.828012  0.00229149 -1.17229 0.756881  0.131278 -1.19689 0.593177  0.00621825 -1.93732 0.846825  0.00321701 0.0431926 0.0137638  0.0513842 -1.94584 0.789989  0.0265504 -1.94621 0.822095  -0.00528283 -0.129677 0.132374  3.7957e-05 -0.052806 0.172554  0.00244102 -1.99267 0.860497  0.0773034 -0.893654 0.621515  0.0410802 -2.00009 0.81196  -0.00545836 -1.78511 0.837915  0.0541147 -1.79466 0.761966  0.0501349 -0.885409 0.655488  0.00728811 -2.04864 0.863239  0.0276801 -2.04018 0.835624  0.0964377 -0.897053 0.597514  0.0162948 -2.07575 0.856041  0.0178337 -1.78748 0.807944  -0.0962125 -1.38761 0.90903  0.00879501 -0.874975 0.709296  -0.00184856 -0.00884844 0.00322843  0.039625 -1.40732 0.735722  0.137214 -0.901788 0.548222  -0.00115818 -0.000369031 -0.000206783  0.164465 -1.42453 0.577698  -0.00311692 -2.0011 0.86894  0.0216 -1.98235 0.834168  -0.0125175 -1.83987 0.8552  -0.000454972 -0.00736341 0.00259119  0.0209623 -0.874591 0.69316  0.101394 -0.894464 0.593162  -0.0360611 -1.16781 0.805768  0.00293322 -2.00089 0.86109  0.112349 -1.18983 0.616818  -3.72529e-09 0 0  -0.000398071 -0.000244588 0.000885487  -3.72529e-09 0 0  0.000443446 8.70824e-05 0.00103933  0.038603 -1.6816 0.766585  -0.000304549 -0.00915074 0.0023357  0.00532801 -1.6868 0.810341  -0.0067062 -0.262495 0.380531  -0.0321462 -1.39465 0.826591  -0.0336673 -1.52265 0.842694  -0.000196338 -0.000316262 0.000180602  0.0510679 -1.40568 0.720675  0.0374661 -1.54774 0.753771  -0.0337477 -1.44432 0.834244  0.0452569 -1.45735 0.733438  -0.0240224 -0.864974 0.751515  -0.00199653 -0.865278 0.722743  0.00667181 -1.39917 0.776899  -0.00352241 -1.53817 0.805138  0.0905866 -0.887079 0.606047  0.11477 -0.890282 0.576141  -0.00175736 -1.46211 0.794473  0.0139146 -0.56866 0.553906  -0.00260887 -0.352331 0.422596  -0.0197211 -0.266994 0.477045  -0.00830647 -0.171507 0.334746  -0.00916657 -0.143025 0.0904114  -0.0548177 -1.16121 0.828617  0.146876 -0.535003 0.394053  0.0734484 -1.18023 0.66539  0.033725 -0.634802 0.581931  0.0293051 -1.4003 0.747923  -0.0509452 -1.38908 0.850111  -0.0105894 -0.860136 0.73047  -0.00482653 -0.169861 0.11634  -0.000481084 0.000276878 0.00130683  0.0682894 -0.878231 0.631655  -0.00237939 -0.0267888 0.204447  -0.000492111 -0.472308 0.50041  0.0460932 -0.352456 0.188062  -0.00834625 -0.178674 0.339412  0.0377817 -0.355008 0.170125  -0.126895 -1.37395 0.946865  -0.0168516 -0.349176 0.517913  -0.0215032 -0.183807 0.433032  0.0306804 -0.337245 0.174757  0.0316912 -0.325764 0.187874  0.0494128 -0.372276 0.173114  0.177177 -0.541549 0.368413  0.0568777 -0.369392 0.189594  0.0424036 -0.336389 0.19803  0.0946553 -1.40814 0.665223  0.0244227 -0.654094 0.609945  -0.00816516 -0.144781 0.320481  0.00166148 -0.000422701 0.000854313  0.0524392 -0.352785 0.199117  0.0249613 -0.348102 0.154836  0.00117588 0.0161775 0.108474  0.0371668 -0.364016 0.160243  0.0572652 -0.383285 0.175857  0.0605845 -0.367389 0.199732  -0.00682619 -0.239173 0.371382  -0.0446997 -0.853745 0.77551  0.0195083 -0.31639 0.17299  0.0186806 -0.330246 0.160369  -0.00269055 -0.285479 0.377335  -0.00115585 -0.0086953 0.119568  0.0209465 -0.664552 0.622766  0.0790988 -0.878007 0.617425  0.0248596 -0.284326 0.224474  0.00175514 -0.142835 0.143248  0.0238214 -0.310583 0.185176  0.0164444 -0.26036 0.241202  0.0291008 -0.364528 0.145722  0.0334865 -0.316833 0.200115  -0.00746907 -0.859296 0.723536  0.0214303 -0.27266 0.218935  0.0502813 -0.386077 0.160793  0.0360718 -0.868158 0.668995  -0.0053312 -0.27941 0.391081  0.0408675 -0.37821 0.15232  0.026356 -0.291608 0.234885  0.0488866 -0.33927 0.209122  0.0298331 -0.300777 0.213747  0.027314 -0.631422 0.588449  0.0170205 -0.255628 0.221091  0.0271906 -1.17082 0.723214  -0.0489773 -1.15946 0.820213  0.0255711 -0.293526 0.203738  0.062375 -0.383914 0.18438  0.00985556 -0.315312 0.157774  0.0187091 -0.348649 0.143098  0.01212 -0.33148 0.147564  0.0179204 -0.27303 0.253871  0.000118308 -0.00692651 0.0010466  0.00930498 -0.861602 0.700566  0.0567361 -0.393801 0.16413  0.0206291 -0.27191 0.202953  0.0154852 -0.304326 0.172692  0.0297035 -0.307633 0.200731  0.0349547 -0.309901 0.223344  0.0277006 -0.298492 0.242838  0.0635047 -0.371845 0.202285  -0.00415532 -0.305907 0.403951  0.0109143 -0.340462 0.137332  0.0183818 -0.357506 0.133591  0.0651025 -0.381978 0.192285  0.021494 -0.287995 0.19072  0.0306284 -0.375735 0.136895  0.0218892 -0.686916 0.632946  0.0153988 -0.245256 0.194668  0.0566268 -0.352578 0.21156  0.0465627 -0.391726 0.148712  0.0188615 -0.257886 0.204885  0.0355525 -0.315884 0.211424  0.037024 -0.386775 0.136907  -0.0199434 -1.1629 0.782776  0.00610859 -0.318579 0.347138  0.0251029 -0.664683 0.61027  0.00558332 -0.325256 0.14169  0.0252846 -0.708897 0.629284  0.0202475 -0.284259 0.257767  0.0224374 -0.301185 0.187618  0.0636979 -0.392387 0.178613  -0.0619997 -1.38516 0.863331  0.0586692 -0.396932 0.164402  0.0188321 -0.365514 0.126261  0.0112579 -0.350577 0.127879  -0.00138286 -0.0345251 0.0330524  -0.0167268 -1.391 0.805544  0.0188946 -0.277771 0.183677  0.0125181 -0.224807 0.220009  0.0568102 -0.354829 0.213088  0.0189718 -0.260681 0.191003  0.00268869 -0.31234 0.14794  0.0289189 -0.380173 0.129118  -0.0397394 -0.851084 0.764244  0.0644969 -0.387885 0.18692  0.0404719 -0.324129 0.221832  0.00581537 -0.337734 0.130792  -0.00202929 -0.413944 0.470513  0.0305859 -0.865415 0.675688  0.0315175 -0.311079 0.241509  -0.00168806 0.000106335 0.000369102  0.00870679 -0.300156 0.162685  0.050525 -0.396388 0.15072  0.00234176 -0.42547 0.453871  -0.0330898 -0.263593 0.558395  0.0157525 -0.236065 0.202028  0.0611492 -0.370878 0.201956  0.0217521 -0.292312 0.259935  0.0402015 -0.39085 0.137867  -0.011849 -0.119582 0.334248  -0.000926718 -0.0326294 0.0334167  -0.000121176 -0.000142537 0.00087148  0.0613207 -0.395217 0.172107  0.00222088 -0.325201 0.136077  0.00837729 -0.20201 0.233735  0.0174616 -0.294008 0.176834  -0.00142875 -0.427846 0.479336  -0.0508551 -1.38538 0.848628  -0.012877 -0.104109 0.331075  -0.012521 -0.855829 0.727847  0.00667282 -0.150224 0.183233  -0.117466 -1.37316 0.933666  0.0536552 -0.397475 0.154642  0.00900277 -0.146529 0.163855  0.0083819 -0.163638 0.180947  0.00374384 -0.336104 0.128801  0.0125577 -1.38874 0.768035  -3.46005e-05 -0.000110924 0.00113767  0.0185057 -0.252395 0.186163  0.00617382 -0.137813 0.16987  0.0418332 -0.332085 0.219525  0.00643521 -0.165276 0.20332  0.00117064 -0.000191025 -0.000651058  0.0180546 -0.273682 0.174026  0.0260025 -0.718209 0.645366  0.00448783 -0.303455 0.151486  0.0107966 -0.262259 0.286167  0.0102397 -0.351686 0.125344  0.0111758 -0.203661 0.205704  0.00998343 -0.210044 0.21768  0.0206034 -0.369022 0.124779  0.0169943 -0.31234 0.281644  -0.000330046 -7.0557e-05 0.00102597  0.010672 -0.154534 0.159589  0.0107555 -0.133086 0.130549  -0.0308992 -0.330667 0.590463  -0.0346304 -0.208754 0.52959  -0.0212376 -0.116032 0.389554  0.0297782 -0.380116 0.129276  -0.0144033 -0.419918 0.549486  0.0152221 -0.292713 0.16587  0.0211869 -0.294639 0.264055  0.00984956 -0.128487 0.141014  0.00598401 -0.124692 0.164373  0.00601202 -0.173644 0.220204  0.00851209 -0.178406 0.199197  0.0543884 -0.361935 0.202463  -0.00798613 -0.00994176 0.161395  0.0342359 -0.319758 0.234759  0.0122657 -0.143202 0.136706  0.00573119 -0.181549 0.238365  0.0264107 -0.390315 0.112167  0.0101568 -0.174841 0.182872  0.00100744 0.0649216 0.0222189  0.00466915 -0.239545 0.303242  0.0024519 -0.0979602 0.143572  0.00840385 -0.187574 0.210972  -0.000253886 0.000274181 0.00140834  0.00493832 -0.0643335 0.0300276  0.00765937 -0.191257 0.226526  0.00211 -3.07113e-05 0.000353649  0.0119826 -0.350195 0.338216  0.0104081 -0.127256 0.115312  -0.0640699 -1.38165 0.864973  0.0196746 -0.252819 0.180009  0.00918625 -0.122909 0.121116  0.0121713 -0.27178 0.284978  0.0411365 -0.334821 0.211268  0.0607364 -0.369826 0.204797  0.0132925 -0.158676 0.15037  0.00874797 -0.115368 0.138444  -0.0002857 -0.439437 0.488831  0.0159277 -0.230465 0.196163  0.00559764 -0.315167 0.145646  0.0158315 -0.298029 0.16114  0.018682 -0.279183 0.166533  -0.000161923 -0.375013 0.435401  0.012399 -0.137139 0.12178  0.00747198 -0.113005 0.117643  0.014273 -0.15034 0.135333  0.00460831 -0.350253 0.389304  0.00368117 -0.378264 0.418397  -0.00134087 -0.000238076 -0.000170667  0.00162601 -2.02656e-05 0.00150904  0.00659434 -0.391247 0.412788  0.00150844 -0.399192 0.445545  0.000332054 0.00181912 0.000579238  -0.000422925 0.00198492 0.000608236  0.0466668 -0.354484 0.193008  0.00487869 -0.404099 0.432252  0.0181963 -0.586428 0.571118  0.00158948 -0.000465915 0.00235301  0.00785816 -0.373977 0.389958  0.0082195 -0.256728 0.296272  0.038237 -0.336885 0.195469  0.0128023 -0.189675 0.18564  0.009252 -0.119642 0.101889  0.0179118 -0.308972 0.158207  0.0140055 -0.140105 0.115616  -8.93325e-06 -0.0466758 0.0439059  0.00678635 -0.110091 0.100464  0.0346147 -0.323216 0.216499  0.0318021 -0.318359 0.234473  -0.00350791 -0.299986 0.402103  0.000463501 -0.224282 0.319372  0.0214129 -0.296105 0.260891  0.00605936 -0.313992 0.347932  0.00108818 -0.065818 0.0520927  0.000868537 -0.0577853 0.0607302  0.0148008 -0.32519 0.150827  0.0375926 -0.345938 0.180159  0.00956479 -0.38987 0.395126  -6.12438e-05 -0.0290723 0.0340838  0.00339186 -0.238366 0.310807  0.000705115 -0.0408697 0.0325469  0.00195248 -0.0717012 0.0664264  0.0160799 -0.152498 0.12919  0.00795865 -0.106996 0.140547  0.00338084 -0.424864 0.45694  7.45058e-09 0 0  -0.000255361 -0.000326037 0.000949025  0 0 0  0.000157118 -1.42157e-05 0.00104576  0.00939797 -0.31362 0.327371  0.0031427 -0.284277 0.340037  0.0113656 -0.127109 0.102987  0.0242539 -0.334265 0.162063  0.00772329 -0.416891 0.428904  0.0111565 -0.366386 0.365168  -0.000776008 -0.299557 0.381263  0.0297004 -0.33222 0.177635  0.0218901 -0.318992 0.161976  -0.00193033 -0.33373 0.418172  0.0174086 -0.648857 0.609006  0.00643645 -0.104903 0.115446  -0.000209309 -0.0246086 0.0347352  -0.000199966 -0.0457191 0.0561513  0.00424767 -0.0893573 0.0707568  0.0141849 -0.278083 0.279445  0.0105013 -0.196742 0.20761  0.0213669 -0.257496 0.176125  0.0155661 -0.16916 0.153216  0.0210972 -0.291209 0.163665  0.00915544 -0.537923 0.543601  -2.42591e-05 -0.00398272 -0.000850074  0.00200249 -0.0726678 0.0758577  0.00124253 -0.0618626 0.0397335  -0.00488819 -0.265439 0.385338  0.00198488 -0.0486357 0.0313264  0.00323841 -0.0827768 0.0557434  0.000731006 -0.0553138 0.0711838  0.00654209 -0.10157 0.0712817  7.05868e-05 -0.0151191 0.00740664  0.0136853 -0.135001 0.103842  0.00543952 -0.102186 0.103409  0.0156955 -0.223689 0.196096  0.00708264 -0.434444 0.447636  0.012486 -0.316507 0.313227  2.5183e-05 -0.275023 0.352172  0.0332882 -0.328251 0.193823  -0.000171825 -0.00586449 0.000283138  0.00685264 -0.105102 0.086438  0.00453211 -0.107514 0.172641  0.00765496 -0.107622 0.0807312  -0.000199705 -0.0271444 0.0431875  0.0278059 -0.307843 0.231906  0.00332843 -0.0858335 0.0860148  0.00586572 -0.0994818 0.0925607  0.0121888 -0.405954 0.396451  -0.030794 -0.385459 0.621021  -0.0367521 -0.147693 0.495539  0.00866222 -0.261117 0.294302  0.0163819 -0.147055 0.117184  0.0239774 -0.300541 0.168201  -0.00356904 -0.300757 0.403221  0.00966181 -0.288933 0.30411  0.00146469 -0.0663612 0.0827071  0.00572439 -0.249569 0.303339  -0.000426859 -0.0395207 0.0605132  0.00988908 -0.427791 0.427719  0.0147699 -0.36746 0.348238  0.00262266 -0.00233015 0.00161463  -0.00397021 -0.203591 0.331649  -0.00719538 -0.000133038 0.206438  0.0294374 -0.320203 0.185493  -0.00117365 -0.560403 0.612879  -0.0427875 -0.449033 0.722705  -0.000271529 -0.222119 0.323425  0.000663176 -0.00550488 0.00185478  0.0268062 -0.313953 0.17434  0.0117835 -0.270649 0.284354  0.00671062 -0.101015 0.0618517  0.00367483 -0.0821266 0.0468346  -0.000102758 -0.0271935 0.0495124  -3.30359e-05 -0.0477729 0.0760183  0.00664452 -0.100762 0.11971  0.00313176 -0.0557203 0.030089  0.00627126 -0.104788 0.156155  0.00489224 -0.0952022 0.0957845  -0.0312616 -0.390198 0.623476  -0.0062166 -0.227027 0.36601  0.00930442 -0.443019 0.445378  0.015244 -0.3373 0.318637  0.0121101 -0.286573 0.289623  -0.00269829 -0.262769 0.361145  0.011434 -0.124882 0.0907948  0.00163427 -0.0243755 0.00748422  0.000580341 -0.0084528 0.00156409  0.00919795 -0.0741473 0.0267845  0.0236611 -0.263136 0.177747  0.0249711 -0.30297 0.245906  0.013863 -0.13261 0.0925318  0.0183111 -0.159753 0.132595  0.00743844 -0.101132 0.137577  0.0194753 -0.237064 0.187626  0.0172475 -0.285205 0.269873  0.00278956 -0.0790465 0.0913528  -0.00271247 -0.598255 0.651198  -0.00871575 -0.518219 0.608061  -0.0382461 -0.501427 0.74005  -0.0381359 -0.413241 0.67382  0.00032714 -0.00600125 0.000766903  0.0138372 -0.205315 0.202876  0.00962308 -0.115642 0.0777899  0.000116512 -0.011611 0.00176238  0.00610727 -0.454265 0.471657  0.0159084 -0.19548 0.18088  0.0308804 -0.3143 0.206702  0.00292684 -0.237834 0.31247  0.018658 -0.178593 0.157018  0.0214299 -0.292296 0.253112  0.00451624 -0.0908657 0.0980654  0.000984535 -0.45579 0.503134  0.00350976 -0.0726886 0.0356867  -0.00100274 -0.0347275 0.0654512  0.0206971 -0.6833 0.632932  0.0146085 -0.413051 0.391668  0.0032075 -0.104956 0.187808  0.0150376 -0.300762 0.287067  0.0176078 -0.366522 0.335272  0.0118442 -0.124218 0.0799759  -0.00416887 -0.282857 0.393786  0.00845103 -0.107841 0.0586756  0.00121772 -0.0621125 0.0882347  0.000878766 -0.00181054 -0.00197659  0.0180537 -0.149365 0.114331  0.00315271 -0.493341 0.522512  0.00462304 -0.0598326 0.0287474  0.00337981 -0.465008 0.499179  0.0241238 -0.293902 0.233805  0.0259553 -0.273621 0.18443  -0.00288571 -0.209427 0.329912  0.00148639 -0.0153143 0.00287108  0.0283563 -0.303026 0.188319  -0.0185437 -0.0755755 0.340333  0.0149559 -0.27579 0.271276  0.0120255 -0.447081 0.43684  -0.00135666 -0.24342 0.339604  0.00560558 -0.0913416 0.0456309  -0.00028646 -0.0433185 0.078037  -0.035855 -0.368458 0.634611  2.8789e-05 -0.0241863 0.0513796  0.0169974 -0.203642 0.189943  0.00867257 -0.458777 0.464842  0.0165728 -0.140521 0.0977364  0.00508524 -0.0895882 0.100204  -0.00602183 -0.193601 0.336897  0.00418662 -0.0266871 0.00535929  -0.0433842 -0.261807 0.613771  0.00630151 -0.0934395 0.110996  0.0184222 -0.736387 0.66978  0.00293383 -0.0767154 0.0965591  0.00310087 -0.0172247 0.00271253  0.0270249 -0.282711 0.194706  -0.0029732 -0.459126 0.528811  0.0267049 -0.289023 0.210923  0.000572592 -0.226978 0.318538  0.000244245 -0.00480787 0.00117055  0.0140769 -0.131711 0.0845819  0.0169567 -0.293519 0.27473  0.00199854 -0.107014 0.207625  0.0196843 -0.19505 0.176917  0.00544055 -0.471085 0.496359  0.018421 -0.324495 0.294756  0.0214116 -0.177678 0.151724  -0.018801 -0.0697365 0.335146  0.00203395 -0.0775086 0.162077  0.01151 -0.1209 0.0668083  0.0207708 -0.161794 0.129102  0.00748606 -0.0968052 0.130624  -0.0130093 -0.588007 0.687528  -0.00243126 -0.495749 0.559112  -0.0403418 -0.521443 0.762676  -0.0433351 -0.36729 0.66939  -0.0428116 -0.297534 0.633697  -0.0453005 -0.225979 0.597107  -0.0234617 -0.0716039 0.363678  -0.0166674 -0.444595 0.585834  0.0163645 -0.273684 0.261306  0.00563994 -0.0792556 0.0343467  -0.00140378 -0.028782 0.0639786  -0.0104968 -0.459791 0.568534  0.0175318 -0.208615 0.197958  0.0178189 -0.395234 0.361872  0.00931565 -0.108133 0.0530954  0.000974387 -0.0574107 0.0904063  0.00198865 -0.470463 0.516964  0.00541398 -0.0196701 0.00310702  0.0162212 -0.427704 0.399853  0.000322759 -0.470232 0.52703  0.0319825 -0.277092 0.169051  0.0246146 -0.30408 0.242498  -0.00355865 -0.204046 0.329696  -0.00412239 -0.475253 0.5517  -0.00607871 -0.190401 0.336022  0.00373517 -0.100741 0.180899  0.0059244 -0.0877798 0.100836  -0.000552624 -0.111254 0.230904  -0.00826856 -0.180393 0.340165  0.0142085 -0.449384 0.430445  -0.00269189 -0.233432 0.340829  -5.82784e-05 -0.0232675 0.0542375  0.00733685 -0.0944811 0.0423478  -0.000950545 -0.0390422 0.0779843  -0.0204832 -0.458923 0.617339  0.0197945 -0.151853 0.113836  0.00336969 -0.0727264 0.0973363  0.0172376 -0.268931 0.253825  -0.0116477 -0.478257 0.592888  -0.000307739 -0.218228 0.317665  -0.0265575 -0.442597 0.63466  0.0111203 -0.464063 0.459927  0.0191465 -0.298613 0.269941  0.0039091 -0.478086 0.51464  0.0166141 -0.137923 0.0907679  0.0197981 -0.362627 0.324627  -0.00341955 -0.128345 0.266954  0.0122063 -0.121345 0.0634256  0.0204688 -0.200546 0.186176  0.00726812 -0.0919982 0.111034  0.000483185 -0.00612319 0.000594527  0.0140319 -0.13022 0.0763143  0.00686239 -0.0631835 0.0266145  -0.0264098 -0.424656 0.620596  0.0082197 -0.474305 0.48724  0.00745597 -0.0209331 0.00374304  0.01025 -0.0696258 0.0241606  0.000565305 -0.00499153 0.0011569  0.00023894 -0.0215807 0.0531085  -0.0438318 -0.321654 0.64964  -0.0470636 -0.194095 0.580171  -0.0398793 -0.108128 0.473948  0.000717849 -0.00760326 -0.00032267  0.0101471 -0.106184 0.048085  0.00764798 -0.0815333 0.0336098  0.00436406 -0.0732635 0.0975298  0.00106585 -0.0546752 0.0902431  -0.00164123 -0.0288897 0.0670596  0.000141799 -0.00403178 0.00151953  -0.00515537 -0.191124 0.330235  0.0172543 -0.698236 0.650246  0.00704703 -0.0877842 0.100637  0.0218442 -0.157191 0.121138  0.00824316 -0.0960303 0.128671  -0.00169975 -0.117435 0.244626  0.0233721 -0.170388 0.14118  0.00680736 -0.0986515 0.154188  0.00195633 -0.10491 0.207095  0.0229083 -0.184525 0.162732  -0.000408635 -0.21067 0.313832  -0.0310777 -0.415554 0.637988  -0.0247862 -0.471143 0.649367  -0.00534466 -0.261083 0.385172  -0.0035525 -0.469293 0.542682  0.0177691 -0.0502322 0.0919074  0.0208841 -0.334515 0.296431  -0.00274049 -0.201675 0.321508  -0.00724527 -0.456675 0.553173  0.0145964 -0.13001 0.0748517  0.0198416 -0.147152 0.105631  -0.00298169 -0.124229 0.257871  0.0191273 -0.274026 0.250021  0.0128289 -0.120532 0.0619428  -0.000566795 -0.47707 0.534496  0.000520512 -0.0184493 0.0494224  0.00737154 -0.0598719 0.026072  0.00305185 -0.0600942 0.0913578  -0.0207562 -0.572943 0.710076  0.0126065 -0.465354 0.457388  -0.0346124 -0.562692 0.763443  -0.00633188 -0.180367 0.328584  -0.00510964 -0.128887 0.276744  0.0192294 -0.206621 0.195897  0.00878698 -0.0186733 0.00319596  0.00411253 -0.101621 0.180998  -0.00101221 -0.0355347 0.0744049  -0.001895 -0.0252239 0.0621723  0.00532261 -0.480128 0.510303  9.66042e-05 -0.000693902 0.00179356  0.00153141 -0.0072438 -0.000865698  -0.0441466 -0.33871 0.655123  0.0190779 -0.409348 0.372232  -0.00957596 -0.156808 0.327705  0.017789 -0.430149 0.398094  0.0171753 -0.136241 0.0896717  0.00837596 -0.0925131 0.106326  1.86414e-05 -0.200558 0.304218  0.00858702 -0.0892471 0.0981834  0.0113158 -0.105282 0.0485913  0.0154973 -0.4508 0.429541  0.0012598 -0.00568324 0.00109226  -0.00369504 -0.189966 0.319113  0.0092469 -0.0856613 0.0361321  0.00975214 -0.0714989 0.0313965  -0.00756414 -0.165799 0.325334  0.0223997 -0.193824 0.180309  -0.00621662 -0.129434 0.283225  0.00615671 -0.0747595 0.0958323  0.0208163 -0.296123 0.263316  -0.00293267 -0.211712 0.327007  -0.0037944 -0.135327 0.274085  0.0149983 -0.127692 0.0756589  0.00147398 -0.00384498 -0.00171349  -0.00941303 -0.148256 0.319115  0.000902921 -0.0472754 0.0800834  -0.0459722 -0.33135 0.65816  -0.00605425 -0.245719 0.378366  -0.00122115 -0.0227391 0.0563656  -0.00605293 -0.165141 0.315463  -0.0489206 -0.170761 0.567738  0.00996365 -0.474039 0.480544  0.013363 -0.118085 0.0629523  -0.0354425 -0.391059 0.644249  -0.031957 -0.462512 0.677838  0.0234616 -0.160318 0.12763  0.00929236 -0.098685 0.130569  0.000922516 -0.015471 0.0437  0.000430092 0.00850151 -0.000725269  0.00792038 -0.0545735 0.0263355  0.00801246 -0.0144367 0.00138584  0.0212428 -0.363393 0.322484  -0.00777473 -0.135327 0.297572  -0.0015513 -0.185648 0.303183  0.0247066 -0.172236 0.147052  0.00699455 -0.100201 0.15979  0.0024032 -0.10589 0.20402  0.0245568 -0.179935 0.161102  0.00507668 -0.103257 0.177059  -0.00541072 -0.13666 0.284708  -0.00474758 -0.468355 0.550173  0.0210104 -0.146504 0.107405  0.0013295 -0.00263566 -0.00188618  -0.00893413 -0.142242 0.310464  0.0200277 -0.201226 0.193308  0.00597906 -0.0693012 0.0896422  0.00996971 -0.0924966 0.0948335  0.00121161 -0.0043889 -6.87838e-05  0.0157606 -0.127948 0.0834592  -0.00658214 -0.153327 0.307711  0.0114842 -0.0231125 0.00705249  -0.000602543 0.0015575 0.0014542  0.00170997 -0.479774 0.527492  -0.00345108 -0.146355 0.281516  -0.00425044 -0.167669 0.30582  0.0122423 -0.104095 0.0523698  0.000999391 -0.0010867 -0.00204751  -0.0352028 -0.450659 0.684384  -0.00584522 -0.144907 0.296742  0.0185956 -0.1382 0.0956965  0.0017907 -0.0117108 0.0353675  0.0204243 -0.273052 0.246175  -0.00152141 -0.175441 0.295044  0.00235263 -0.00457363 -0.00114134  0.00142643 -0.0438645 0.0715123  -0.00165755 -0.123187 0.247914  0.0109744 -0.0890092 0.0411621  0.0103405 -0.0971038 0.108283  0.00233206 -0.00604698 0.000346307  0 0 0  0.0104856 -0.0687176 0.0321327  -0.000802666 -0.029941 0.0625452  -0.0019787 -0.474828 0.541729  -0.00322127 -0.156845 0.289282  0.00633135 -0.478072 0.504519  0.0139141 -0.116999 0.0689826  0.00987148 -0.0582004 0.0231253  0.00503352 -0.00814435 0.000814486  0.0149876 -0.119912 0.0820527  0.0138275 -0.460382 0.450366  0.00160688 -0.184313 0.282223  -0.00107902 -0.16826 0.286282  0.0116196 -0.0971659 0.0905342  0.00832322 -0.0770597 0.0844188  -0.00754368 -0.455821 0.557057  0.00808969 -0.047354 0.0262138  0.0254081 -0.169683 0.15037  0.00388384 -0.107367 0.193737  0.00387087 -0.00568977 0.000223793  0.00831097 -0.0156171 0.00619389  0.00153872 -0.00206889 0.00145939  0.0192713 -0.192909 0.194198  -0.00215691 -0.152353 0.2784  0 0 0  -0.00013715 -0.000476792 0.0011335  0 0 0  -0.000141561 -0.000101104 0.000873625  0.0010789 -0.0180472 0.0438653  0.0111521 -0.070109 0.035832  0.00107825 -0.0357645 0.0589549  0.0241288 -0.159157 0.133319  0.0210887 -0.143372 0.108471  0.0119033 -0.0950582 0.0526283  0.00244573 -0.00312909 0.00687961  0.00219974 -0.114099 0.215573  0.0139436 -0.111918 0.081977  -0.0368857 -0.385295 0.64779  0.0133049 -0.107385 0.0699198  0.0144634 -0.725437 0.676795  0.014657 -0.692274 0.655417  -0.0106401 -0.609308 0.694382  -0.028266 -0.587728 0.749845  -0.0367977 -0.443202 0.686477  -0.0539725 -0.447161 0.76763  -0.0472449 -0.323901 0.657435  -0.0105975 -0.140851 0.318109  -0.0959047 -0.342086 0.882807  0.00229153 -0.0545633 0.145288  0.00217488 -0.0104604 0.0351142  -0.0247217 -0.0523332 0.335023  0.0010798 -0.000409663 -0.0020197  -0.0144704 0.00773668 0.215031  -0.00262094 0.0728121 0.0248412  0.00285399 -0.00588904 -0.0010986  0.0128986 -0.103083 0.0859382  0.0179845 -0.131075 0.0939401  0.000819027 -0.00160287 0.00114441  -0.00153145 -0.473417 0.540459  0.00239494 -0.0137763 0.0337848  -0.00149199 0.00323454 0.00100088  0.00417665 -0.00662079 0.00585488  0.0103244 -0.0851202 0.0808632  0.00273201 -0.178363 0.270794  0.0163528 -0.445359 0.423814  0.0186104 -0.427371 0.395564  0.0207858 -0.393011 0.354482  -0.00477538 -0.464925 0.551099  0.0226948 -0.336897 0.297186  0.0223145 -0.297299 0.263798  0.0194252 -0.0151433 0.0385636  -0.00157362 -0.195216 0.308327  0.00586799 -0.0102591 0.00584625  -1.32322e-05 -0.164495 0.274432  -0.00648957 -0.238037 0.375119  0.00407529 -0.0522218 0.0686212  0.0136527 -0.105982 0.0953721  0.0111504 -0.103451 0.12619  0.00272158 -0.475004 0.521486  0.00168791 -0.0029763 -0.002207  -0.00692141 -0.455782 0.555333  0.0104545 -0.0662873 0.0395121  0.0123618 -0.0989193 0.0741415  0.000686288 -0.0267267 0.0497447  0.00699943 -0.0372216 0.026246  0.016376 -0.121275 0.0922227  0.00917166 -0.106286 0.154954  0.0208262 -0.14037 0.112591  0.0123011 -0.103334 0.106774  0.0150495 -0.113384 0.0926305  0.0117509 -0.0891886 0.0607241  0.00739673 -0.0683622 0.0712129  0.0209374 -0.176351 0.182014  0.00514308 -0.112631 0.191611  0.0166687 -0.179421 0.19582  0.0110681 -0.0894657 0.0760811  -0.0104701 -0.453955 0.573087  -0.0301377 -0.412999 0.637822  -0.00869572 -0.180582 0.341104  -0.0509174 -0.247538 0.631532  -0.050623 -0.158706 0.561761  -0.0425992 -0.0875363 0.461774  -0.0254891 -0.0487628 0.326151  -0.0287465 -0.0501901 0.349765  -0.036287 -0.439996 0.68242  0.0383297 -0.274791 0.161768  0.026675 -0.298994 0.233967  0.00170925 -0.10969 0.216293  -0.00746965 -0.126326 0.282893  0.00342122 -0.0181644 0.0318052  0.0225025 -0.0308813 0.0432386  0.0066025 -0.0236605 0.031301  0.0112407 -0.466202 0.470771  0.00261587 -0.0207047 0.0370967  0.0034917 -0.0399525 0.0523049  0.00979981 -0.0782834 0.0659564  0.0256122 -0.157593 0.14401  0.00969869 -0.0727285 0.0558464  0.0064702 -0.0275169 0.028165  -0.00106111 -0.000762343 0.00233248  0.0228296 -0.149257 0.127943  0.00504777 -0.0214942 0.0298266  0.00980923 -0.276663 0.291618  0.00658661 -0.05282 0.0510338  -0.00692043 -0.44979 0.552369  -0.00205171 0.00186303 0.00236118  0.00833249 -0.0519332 0.041372  0.00482634 -0.0263697 0.0328625  0.0186382 -0.130083 0.104358  0.0145692 -0.11255 0.105706  0.00449619 -0.0341645 0.0398403  -0.00208411 -0.466745 0.540139  0.00460956 -0.123283 0.211115  0.013269 -0.11239 0.131793  0.0116916 -0.114424 0.155588  0.00554246 -0.118631 0.197888  0.00825733 -0.0198186 0.0287646  0.0147325 -0.167649 0.197765  0.00838497 -0.11407 0.174081  0.0166056 -0.121217 0.105351  0.00575817 -0.0233518 0.0280688  -0.00164863 0.000665918 0.00267234  0.0194498 -0.161076 0.174046  0.0228982 -0.158118 0.15939  -0.0358551 -0.3835 0.642839  0.0206885 -0.268577 0.244979  0.0207323 -0.138961 0.122739  0.025622 -0.165315 0.160278  0.0246722 -0.15367 0.152251  0.00674784 -0.470111 0.49868  0.0145281 -0.449969 0.440494  -0.0340962 -0.44487 0.67669  -0.00648153 -0.235567 0.373922  0.0374051 -0.155401 0.142632  0.00709033 -0.0196441 0.026921  -0.00469661 -0.45689 0.546877  0.0453221 -0.157868 0.141441  0.0150906 -0.159893 0.187825  0.0199144 -0.169549 0.175268  0.0257151 -0.14835 0.146518  0.0220567 -0.362925 0.325914  0.0155093 -0.119184 0.12318  0.0197674 -0.409892 0.378343  0.048626 -0.158617 0.14268  0.0480556 -0.153444 0.138376  0.0123676 -0.155346 0.199583  0.031894 -0.167587 0.154067  -5.427e-05 -0.184819 0.291862  0.0186736 -0.131557 0.129705  0.00747412 -0.133158 0.205538  0.0157418 -0.123134 0.14679  0.00961336 -0.129638 0.190814  0.00229618 -0.46804 0.519903  0.0236861 -0.141905 0.150183  0.00219408 -0.172547 0.268108  0.0130446 -0.128735 0.175879  -0.00296804 -0.202382 0.325547  0.0191384 -0.13225 0.146407  0.0197429 -0.135617 0.156179  0.0567973 -0.149413 0.139466  0.0245973 -0.0712538 0.0428038  0.00286895 -0.0155271 0.0315557  0.004599 -0.119976 0.209914  0.0560358 -0.152828 0.141729  0.0381539 -0.144582 0.139139  0.0477566 -0.16108 0.145422  0.0471859 -0.148452 0.136196  -0.0291124 -0.448053 0.658125  0.0104885 -0.456683 0.469581  -0.000518289 -5.1856e-05 0.000939429  -0.00803271 -0.602974 0.680276  -0.0434847 -0.51741 0.766071  -0.0474851 -0.323348 0.655798  0.00353524 -0.016164 0.0285931  0.0627504 -0.14879 0.142766  0.0568864 -0.144769 0.136017  0.0314982 -0.045122 0.0648474  0.0217606 -0.17399 0.174706  -0.0335402 -0.389311 0.63719  0.0209327 -0.0305799 0.0421127  0.0287809 -0.0529377 0.059403  -0.0452263 -0.328763 0.648036  -0.000108033 -0.46031 0.527091  0.0432995 -0.0835234 0.0854403  0.0327685 -0.170016 0.155991  0.0395158 -0.0649406 0.0817412  -0.0514632 -0.156082 0.559389  -0.00675771 -0.441041 0.545985  0.022685 -0.28462 0.260551  0.0203648 -0.0222104 0.0411854  0.00561747 -0.0146648 0.026375  0.0517814 -0.0934685 0.106328  0.0211067 -0.0395764 0.0424541  0.029397 -0.0337994 0.0607199  -0.0302547 -0.398524 0.628906  0.0537709 -0.107373 0.101748  0.0357271 -0.0805533 0.0683507  0.0428152 -0.0577631 0.0902536  -0.020473 -0.449644 0.620753  0.0214013 -0.128555 0.153858  0.000565141 -0.112071 0.224872  0.00523636 -0.461188 0.501144  0.0203306 -0.257811 0.243573  0.06708 -0.14153 0.140627  -0.00189507 -0.451747 0.530671  0.0643017 -0.136936 0.13758  0.0122356 -0.666273 0.646258  0.00271156 -0.109459 0.212474  0.016411 -0.434716 0.418311  0.0229727 -0.317736 0.288571  0.0173851 -0.17138 0.193173  0.0492922 -0.106539 0.0876741  0.0210075 -0.0503777 0.0425488  -0.0024882 -0.117059 0.246726  0.00218874 -0.0100926 0.0137478  0.0442874 -0.163386 0.1491  0.0454922 -0.142067 0.133028  0.0184781 -0.40712 0.386463  0.0694726 -0.144036 0.141197  0.0613573 -0.131924 0.133742  0.0622172 -0.12291 0.118045  -0.00632486 -0.236474 0.375219  0.0316182 -0.0281084 0.0654244  0.0549078 -0.142534 0.13219  0.0553032 -0.10002 0.11717  0.0185277 -0.0161961 0.0384928  0.0127131 -0.443249 0.447534  -0.00197661 -0.00623345 -0.00103244  -0.000729471 -0.0121388 0.00853145  -0.0115257 -0.150689 0.325373  0.0627504 -0.129647 0.109938  0.00191346 -0.00844234 0.0114779  0.00364688 -0.0120382 0.0300127  0.00357917 -0.174346 0.264535  0.0640469 -0.149925 0.142602  -0.0257919 -0.402459 0.611777  -0.00279954 -0.00862896 0.000891775  -0.000449479 -0.00434849 -0.00118521  -0.00307015 -0.214933 0.34201  0.00390354 -0.011257 0.0329177  0.021213 -0.0622836 0.0420704  0.0450456 -0.110263 0.0766664  -0.0139553 -0.447557 0.589579  0.0076921 -0.448164 0.478801  -0.00335807 -0.104648 0.24176  0.000952661 -0.0208502 0.013023  0.0232481 -0.176578 0.179105  0.0213196 -0.121424 0.153658  0.0653898 -0.129657 0.128974  0.0338681 -0.0899444 0.0615382  0.0264497 -0.0206784 0.0567092  -0.00162068 -0.00681651 0.000782326  0.0216409 -0.17974 0.188146  0.0303907 -0.172441 0.163224  0.0699337 -0.135714 0.129079  0.0499789 -0.0655759 0.106855  -0.000228018 -0.193999 0.306892  -0.000157863 -0.00578731 0.00363168  0.0124486 -0.11042 0.171685  -0.020898 -0.426787 0.606567  0.0590501 -0.129999 0.130066  -0.00861987 -0.443973 0.560709  0.00260809 -0.451267 0.507406  0.064357 -0.123877 0.129523  0.0585734 -0.130455 0.0942677  0.0188097 -0.245505 0.244721  0.0735845 -0.141701 0.135045  -0.00511467 -0.123682 0.267375  -0.00173923 -0.00689764 -0.000557855  0.0752337 -0.145784 0.138536  -0.00116843 -0.00540201 -0.00102114  -0.00158256 -0.440071 0.520923  -0.00624105 -0.126249 0.275471  -0.0110743 -0.430884 0.562508  0.0023776 -0.00742456 0.0113976  0.0581012 -0.103955 0.121922  -0.00217009 -0.0104216 0.00106451  0.0735122 -0.143794 0.122943  -0.0179658 -0.416472 0.584288  0.0579149 -0.13547 0.128851  0.0147811 -0.4224 0.420314  0.0321565 -0.128718 0.13974  0.021577 -0.272008 0.2631  0.0158607 -0.0144983 0.0366666  0.0372719 -0.0333826 0.0833309  -0.00038147 -0.00380555 -0.0013213  0.0286434 -0.0860949 0.0517443  -0.00366083 -0.432092 0.525486  -0.00386265 -0.0134194 0.000205949  -0.0484342 -0.298154 0.641097  -0.0522437 -0.172152 0.571562  -0.0454494 -0.0877066 0.465164  0.0494272 -0.159784 0.147459  -0.0386322 -0.499206 0.733371  0.0451537 -0.134379 0.12978  0.0688564 -0.144168 0.112509  0.000351876 -0.00506836 0.00465894  0.00103563 -0.439258 0.507023  -0.00299871 -0.590148 0.653074  -0.00162342 -0.449989 0.533012  -0.00262761 -0.00657076 0.0036464  0.000790566 -0.0020415 -0.0015946  0.0476975 -0.0542936 0.103249  -0.00251368 -0.0289936 0.00869569  0.00449088 -0.0571017 0.142872  0.00409624 -0.0119611 0.0347929  0.0217113 -0.0709864 0.0412442  0.0248396 -0.0966936 0.038705  0.0204303 -0.3541 0.335856  0.0779064 -0.148325 0.129398  0.0175341 -0.391666 0.38118  -0.0407054 -0.336258 0.630903  0.0646884 -0.150157 0.141118  0.0277238 -0.175135 0.173102  0.00508961 -0.177612 0.26143  0.0563757 -0.135558 0.0831659  0.0231724 -0.0184819 0.0529293  0.0108185 -0.684432 0.663045  -0.0033434 -0.0169368 0.000269443  0.0215843 -0.312863 0.296983  0.00399575 -0.439783 0.49157  0.00744647 -0.430937 0.467327  0.010379 -0.433051 0.453271  -0.000250071 -0.20724 0.322397  0.00790575 -0.100665 0.183808  0.000421107 -0.00364397 0.000349734  0.0776336 -0.151152 0.12136  0.00192192 -0.0932119 0.202937  0.0760599 -0.147297 0.136068  0.0633661 -0.11883 0.128884  0.0674725 -0.145839 0.102069  0.000383019 -0.429164 0.50196  0.00144634 -0.446208 0.513231  0.0223078 -0.0782675 0.0400141  0.00460148 -0.0116528 0.0342071  -0.0286379 -0.0477519 0.320331  0.0542431 -0.0762994 0.115576  0.0173213 -0.231627 0.246462  0.0046047 -0.0112731 0.0323058  0.0793872 -0.151554 0.126188  0.0389584 -0.16585 0.156609  0.038007 -0.241439 0.163797  0.02435 -0.269784 0.236822  -0.00323507 -0.0220608 0.00114453  0.00813407 -0.18516 0.257659  0.0144483 -0.0147948 0.0356915  0.0110517 -0.419705 0.439739  -0.00227144 -0.227977 0.352772  0.00444314 -0.426787 0.480443  0.0104088 -0.624109 0.625246  0.000772387 -0.00439242 0.00258549  0.0600902 -0.128222 0.123683  -0.0499202 -0.267761 0.62509  -0.0520814 -0.196433 0.585986  -0.0336821 -0.0487063 0.349847  0.00209564 -0.00653416 0.0083757  -0.00307178 -0.035766 0.0042617  0.077745 -0.155987 0.113545  0.00692555 -0.421161 0.46285  0.00110787 -0.000787228 -0.000860736  0.0136265 -0.399355 0.409334  0.0192948 -0.327563 0.323899  0.060651 -0.104247 0.124829  0.00980958 -0.19043 0.255501  0.00342688 -0.200941 0.298716  -0.000573397 -0.00318795 0.00305924  0.000908583 -0.00160845 -0.00130879  -0.00230181 -0.0271191 0.00147247  0.014455 -0.213058 0.249873  -0.0281898 -0.0486693 0.314332  -0.0505784 -0.436036 0.742236  -0.0468598 -0.359414 0.67293  0.0217116 -0.110615 0.148556  -0.00800899 -0.536794 0.636077  -0.00903296 -0.466706 0.583703  0.0640844 -0.116081 0.126261  0.0256464 -0.178519 0.185181  0.0169827 -0.368353 0.366949  0.035098 -0.123944 0.134206  0.0130858 -0.0981383 0.163854  0.00557223 -0.0896991 0.183412  0.000235885 -0.416244 0.49394  0.0519653 -0.156544 0.145565  0.0460355 -0.129328 0.126547  0.0711679 -0.153613 0.099822  0.0125046 -0.202488 0.252203  -0.00510874 -0.25018 0.38247  -0.00150689 -0.144886 0.268096  0.0341358 -0.1077 0.0498693  0.0234 -0.0195795 0.0554663  0.0806274 -0.154888 0.121203  0.0527899 -0.0664402 0.111614  0.0668708 -0.148471 0.138546  0.00718579 -0.422369 0.463364  -0.0511027 -0.232492 0.606377  -0.00962511 -0.191073 0.350481  0.0590324 -0.144838 0.0807091  -0.00264147 -0.139036 0.271089  0.0797633 -0.151213 0.127742  -0.0467813 -0.397348 0.699225  -0.00816703 -0.499781 0.608059  -0.00149971 -0.0308076 0.00152549  0.0775312 -0.158327 0.109506  -0.0186646 0.0077157 0.204165  0.0232191 -0.0847239 0.0378281  0.00907001 -0.403698 0.437841  0.0191502 -0.302901 0.304841  0.0190155 -0.25223 0.264805  0.00098595 -0.229081 0.339658  0.00666028 -0.20346 0.284627  0.0307189 -0.169958 0.171918  -0.0348142 -0.351905 0.614285  0.00216058 -0.00605312 0.00700056  0.0765137 -0.147485 0.131844  0.0802106 -0.154378 0.122164  0.0142876 -0.015869 0.0352091  0.0806889 -0.156709 0.118096  0 0 0  6.85453e-06 -0.0003829 0.0010621  0 0 0  -0.000275671 -0.000199914 0.000628889  0.0120076 -0.382474 0.40519  0.0163062 -0.326825 0.340139  -0.00138986 -0.248941 0.365948  0.00525498 -0.395099 0.450781  0.0793415 -0.15039 0.126599  0.0153105 -0.243915 0.277602  0.00835741 -0.217603 0.290026  -0.00425154 -0.267318 0.391546  0.0461799 -0.12987 0.0617761  0.0361497 -0.113695 0.0475333  0.0577175 -0.0832809 0.116466  0.0288674 -0.0273839 0.0675911  -0.00730437 -0.224121 0.368584  -0.000756502 -0.142118 0.265706  0.0139742 -0.355823 0.374251  0.0648763 -0.115048 0.123914  0.0121209 -0.227232 0.27977  0.0606936 -0.125307 0.119904  0.0342789 -0.117195 0.131588  0.0221593 -0.10609 0.144855  0.0691167 -0.147039 0.135453  0.0403404 -0.162137 0.15663  0.00445247 -0.476264 0.531461  0.0758337 -0.158979 0.104532  0.00831619 -0.382529 0.424979  0.0170093 -0.285653 0.303531  0.00355265 -0.238685 0.335347  0.0677852 -0.154848 0.0911895  0.00882277 -0.577571 0.598421  -0.000915885 -0.033446 0.00174099  -0.00291044 -0.285063 0.400254  0.00527102 -0.0103403 0.0242466  -0.0252521 -0.360036 0.573857  0.0272874 -0.174279 0.183392  0.079393 -0.152531 0.121117  0.0257132 -0.105312 0.0345453  0.000310034 -0.00232394 0.00345367  0.00271168 -0.00655222 0.00703857  0.00104633 -0.00159642 -0.000832073  0.0793041 -0.156234 0.114979  -0.00473779 -0.255528 0.384124  0.0239133 -0.0880011 0.0358163  0.0540381 -0.15318 0.142629  0.00966418 -0.365158 0.404418  0.0141639 -0.3046 0.333962  0.0566962 -0.14614 0.0727718  0.0633783 -0.0981358 0.11592  0.0130035 -0.273178 0.315574  0.00770333 -0.238535 0.314008  0.0037443 -0.369421 0.438043  0.0006212 -0.27295 0.373576  0.0457833 -0.130184 0.0575825  0.0511607 -0.0668308 0.105242  0.0106926 -0.344379 0.382752  0.00664428 -0.525857 0.564979  0.020356 -0.0237963 0.048769  0.00953853 -0.0079329 0.0274896  0.00984016 -0.260853 0.322017  -0.0361318 -0.334954 0.603951  -0.0465987 -0.112387 0.481509  0.0112434 -0.321089 0.362068  0.0129912 -0.0225504 0.0107766  0.00511023 -0.16073 0.258586  0.0670936 -0.145506 0.133269  0.0751223 -0.156019 0.104488  0.0110486 -0.0899978 0.163806  0.0670959 -0.116803 0.118613  0.00637922 -0.347466 0.407195  0.0150426 -0.0173307 0.0342948  0.00895211 -0.298726 0.355324  0.0474116 -0.125124 0.122939  0.0377147 -0.115309 0.0461317  0.00207567 -0.349522 0.430135  -0.000358522 -0.318029 0.415844  0.0077399 -0.282562 0.349254  0.0307342 -0.110653 0.131737  0.00758022 -0.331372 0.388419  0.0325288 -0.165305 0.17174  0.0772195 -0.146072 0.127417  0.003144 -0.316393 0.398449  0.0680466 -0.15578 0.0907833  0.0245669 -0.0884309 0.0345415  0.0177161 -0.301702 0.323716  0.00237778 -0.032259 0.000380933  0.0537343 -0.0770355 0.105075  0.0135615 -0.0743256 0.132639  0.00328788 -0.00808451 0.00546823  0.037421 -0.0450858 0.0805183  0.0276793 -0.168827 0.183984  -0.00598064 0.0637008 0.0214937  0.0569642 -0.144712 0.0721942  0.0632479 -0.102696 0.11047  0.017527 -0.0948557 0.14715  0.0396734 -0.159574 0.15833  0.0234775 -0.273066 0.279027  0.0480492 -0.132219 0.0582834  0.0778912 -0.152537 0.113906  0.0246974 -0.0324282 0.0541213  0.00105709 -0.00342782 0.00386596  0.00133988 -0.00231668 -0.000968973  0.0159439 -0.0211577 0.0341492  0.0620429 -0.124735 0.118331  0.00987253 -0.17467 0.253484  0.0328356 -0.194502 0.175731  0.0191956 -0.223272 0.242844  -0.00306016 -0.278721 0.396379  0.00801578 -0.616631 0.629191  0.0563853 -0.148628 0.138591  0.0563522 -0.0904534 0.100453  0.0671787 -0.122023 0.114869  0.0251355 -0.0851834 0.0333178  -0.0164929 -0.366702 0.536803  0.0385064 -0.112677 0.0451888  0.0685497 -0.151844 0.0951585  0.0402554 -0.0573964 0.0795656  0.0676654 -0.122507 0.116153  0.06754 -0.142527 0.128621  0.00362849 -0.027532 -0.000306308  0.00627884 -0.0114988 0.0195026  0.0179874 -0.207995 0.245169  0.0619984 -0.148364 0.0809914  0.00312448 -0.00890863 0.00190888  0.0432566 -0.118673 0.120947  0.0763024 -0.144204 0.12197  0.0683821 -0.128096 0.111709  0.0698433 -0.147308 0.100974  0.0251127 -0.10017 0.133297  0.00425005 -0.0111928 0.00481544  0.0330154 -0.109641 0.12755  0.0227208 -0.1733 0.207728  0.0495008 -0.130357 0.0603606  0.0750919 -0.150079 0.10929  0.0341481 -0.160086 0.171519  0.0177273 -0.0266986 0.0333336  -0.0249787 -0.0598869 0.29596  0.0277592 -0.159901 0.18511  0.0495067 -0.0819843 0.0855406  0.0603398 -0.139946 0.0802558  0.00285065 -0.00980946 0.000300005  0.0368099 -0.102202 0.043045  0.0294334 -0.0431303 0.0578199  0.0100224 -0.0180343 0.0312755  0.00561643 -0.020393 -0.000892788  0.0691699 -0.137329 0.106341  0.0255784 -0.157725 0.190586  -0.017464 -0.354754 0.52989  -0.0397 -0.272802 0.572547  -0.045746 -0.150636 0.506072  -0.0365147 -0.0706155 0.376665  0.060735 -0.109055 0.0964977  0.0604124 -0.124074 0.115203  0.00750336 -0.0137181 0.019295  0.0260602 -0.0796255 0.032813  0.0260904 -0.10783 0.0324414  0.0716945 -0.14505 0.107184  0.00209051 -0.00686568 0.00260991  0.00154108 -0.00409099 -0.00108352  0.00426349 -0.0165757 -7.49528e-05  0.0695809 -0.126156 0.114952  0.0425414 -0.152558 0.152378  0.0051769 -0.0140877 0.00291386  0.046492 -0.116741 0.0572631  -0.00167862 -0.360397 0.459358  0.00981879 -0.26878 0.335327  0.0496413 -0.0903503 0.0796908  0.0583527 -0.143161 0.132327  0.0611298 -0.133729 0.0874884  0.0625017 -0.123998 0.0965779  0.0665944 -0.13925 0.124411  0.0371304 -0.0612879 0.0664744  0.0194874 -0.0326465 0.0326587  -0.00588349 -0.24173 0.379074  0.0739731 -0.140573 0.117108  0.0332112 -0.0874482 0.0390562  0.0253643 -0.0707537 0.0322054  0.0363697 -0.15291 0.160691  0.0528228 -0.113622 0.0744318  0.0506966 -0.117602 0.0664186  0.00162867 -0.00353813 -0.000785531  0.00946903 -0.0233136 0.0059582  -0.0227178 -0.0613513 0.283018  0.040481 -0.099656 0.0499808  0.00281727 -0.356107 0.433142  -0.0429455 -0.212471 0.54101  0.0505705 -0.122611 0.115299  0.0704985 -0.131912 0.114049  0.00368369 -0.00935172 0.00105962  0.0309341 -0.106885 0.126036  0.0378938 -0.0719664 0.0590022  0.00845158 -0.0159909 0.0175912  0.0651181 -0.135389 0.120316  0.0589178 -0.124572 0.11456  0.00191206 -0.00669317 -0.00182603  0.0220445 -0.0428074 0.0326413  0.0414438 -0.148631 0.149379  0.0242954 -0.0573777 0.03223  0.0301903 -0.100867 0.119744  0.0327612 -0.0766383 0.0408505  0.0420789 -0.0911728 0.0571458  0.0302007 -0.0643563 0.0429214  -0.00417155 -0.223926 0.359388  -0.0200154 -0.0662551 0.272661  0.00239307 -0.00945517 -0.000762731  -0.00175369 0.00856626 -0.00106797  -0.016884 -0.0957721 0.295659  0.0143282 -0.0258494 0.0302383  0.0561798 -0.138896 0.127683  0.0612829 -0.126317 0.114357  0.0454233 -0.118116 0.114606  0.046369 -0.141673 0.13781  0.0654137 -0.131356 0.116904  -0.0148522 -0.122824 0.314315  0.0641365 -0.128393 0.11514  0.00569654 -0.534679 0.578553  4.12464e-05 -0.389209 0.479614  -0.0173409 -0.00197738 0.176246  0.049651 -0.121774 0.112072  0.0513901 -0.123918 0.112664  0.0512184 -0.135315 0.125438  0.0480537 -0.108032 0.0862118  0.0565412 -0.131803 0.119156  0.0395411 -0.13624 0.143878  0.0477027 -0.123892 0.116583  0.0521815 -0.127974 0.116306  0.0272441 -0.0962505 0.0305524  0.0107095 -0.0223174 0.0188634  0.0414971 -0.125428 0.12797  0.0191262 -0.0343038 0.0294973  0.00246567 -0.456979 0.527815  -0.0228819 -0.274083 0.491118  -0.0339805 -0.118416 0.406472  0.0142541 -0.0290511 0.0214686  0.0222777 -0.0457747 0.0308054  0.0166115 -0.0364224 0.0215714  0.017845 -0.0416592 0.0225952  0 0 0  0.000405014 -0.000411496 0.00162041  0 0 0  -0.000453651 8.69036e-05 0.000289738  0.0229692 -0.0471015 0.0298854  0.0197542 -0.0435493 0.0251652  -0.00365269 -0.269329 0.39316  -0.0287921 -0.1904 0.447923  -0.0171287 -0.101116 0.303108  0.0023669 -0.00670591 4.01288e-05  0.0237797 -0.0669422 0.0308434  0.00202376 -0.00655192 0.000612199  0.0236518 -0.0462045 0.0279639  -0.0114784 -0.175979 0.347365  0.00240773 -0.00712191 0.000933871  0.032715 -0.090094 0.106597  -0.00609452 -0.0222254 0.142351  -0.00825006 0.0423223 0.0113514  0.0118545 -0.0516287 0.119444  0 0 0  0.00088197 -0.000332087 0.00156635  0 0 0  -0.000622392 -6.80983e-05 0.000214279  0.00349009 -0.00338428 -0.001531  -0.00714839 0.0127741 0.00179717  -0.00324589 0.00396074 -0.00122645  -7.96914e-05 0.000345215 -0.00244208  0 0 0  0.00122422 -0.000526622 0.00118607  0 0 0  -0.00092715 0.000297606 -0.000140607  0 0 0  0.00118262 -0.000540733 0.000659466  0 0 0  -0.00141996 0.000753582 -0.000464618  0 0 0  0.00134945 -0.000399843 0.000376225  0 0 0  -0.000477135 -8.37445e-05 -0.00111835  0 0 0  0.00146544 -0.000655681 0.000149414  0 0 -7.45058e-09  0.000781655 -0.000377774 -0.00105976  0 0 0  0.00176191 -0.000617683 -0.000388779  -0.000172377 0.0033952 0.0017066  0 0 0  1.49012e-08 0 0  -0.000949219 -0.00137901 0.000209808  0 0 0  -0.00471707 0.0214962 0.155905  -0.0136172 0.0170158 0.124972  0.129678 -0.544124 0.417637  -0.000395052 -4.39184e-05 0.00111392  -4.87566e-05 1.62572e-05 -0.000972569  0.000146586 -0.00154712 0.000831537  -0.00342431 -0.0515943 0.0860986  0.000975374 -0.0991388 0.172257  -0.00135848 -0.163647 0.279258  7.45058e-09 0 0  -1.72257e-05 0.000941828 -0.00324892  0.000224724 -0.0172475 0.0427436  -0.000518754 -8.47839e-05 0.000615269  -0.000115335 0.0106463 0.0303305  0.00887483 -0.291221 0.331993  0.00213207 -0.444061 0.495799  0.000354409 -0.00125175 -0.000654265  -0.0192427 -0.143741 0.376611  -0.032333 -0.205331 0.499996  0 0 0  0.000725955 -0.000614971 0.0420206  -0.000457704 0.00130767 0.0709458  0.0061608 -0.00880736 0.00423826  0.012526 -0.0318806 0.0818921  2.22027e-05 -0.000430088 0.00132427  0.00116819 -0.00215913 0.000845566  0.017144 -0.0617259 0.0303175  0.0491785 -0.129778 0.122311  0.00424749 -0.114487 0.209463  -2.14577e-06 0.00061577 -0.00185443  0.00187415 -0.000196427 -0.000191651  0.000629783 -0.00058173 -0.000186369  0.000203729 0.00316823 0.0643278  0 0 0  0 0 0  0.000825763 -0.000708336 -0.000374496  2.12789e-05 0.000213802 -0.00140151  0 0 0  -0.00388509 0.0153461 0.101991  -0.00327767 -0.121454 0.112328  0 0 0  1.49012e-08 0 0  0 0 0  0 0 0  0.015277 -0.120086 0.166533  -0.00373495 0.0165662 0.0746547  -0.218362 -0.167618 -0.0984603  0.000220902 0.0227776 0.0493304  0.0317979 -0.163011 0.150151  0.00689057 -0.108947 0.193147  0.00525624 -0.0623986 0.0804293  -0.00524456 -0.098726 0.0813003  -0.00324643 -0.0623139 0.0606354  -0.00354489 -0.0794001 0.0777771  0.00122167 -0.319105 0.138626  -0.000497952 -0.113821 0.231467  -0.000280894 -0.0391546 0.0587015  0.00142246 4.38839e-05 -4.36082e-05  -0.000136316 5.46351e-05 0.000872672  -1.56965e-05 0.0035215 0.0651045  0 0 0  0.00111723 -0.000183515 0.000731081  -5.71907e-05 -5.20051e-05 0.00123811  -0.0203524 -1.70934 0.846611  0 0 0  0.0302981 -0.0620216 0.0669813  0.00254263 0.0370547 0.010966  0.000533909 -0.000197038 0.00244373  0.00163239 0.000162527 0.000832558  0.00105423 0.00415754 0.0172706  0.00168808 0.0262304 0.0228297  0.000106096 -4.33996e-05 -0.00082469  -0.000222668 -3.34382e-05 0.000655174  0.000824749 -0.000184342 0.000438988  0.000178695 -0.000169836 0.000825167  -0.000548482 -0.000259906 -0.000580087  -0.000848711 -4.99114e-05 0.000314265  0 0 -1.49012e-08  -0.00335389 -0.0203779 0.166306  0 0 0  0.000734627 -0.00103467 -0.00198546  0 0 1.86265e-09  0 0 0  0 0 0  -2.98023e-08 0 0  -0.0145912 0.0277358 0.14898  -0.11181 -0.260852 0.0520563  1.11759e-08 0 0  0 0 0  0 0 0  0 0 0  0 0 0  0.00354373 -0.00723037 0.0349649  0 0 0  0 0 0  0.000319332 -0.00219316 -0.00107243  0.0783535 -0.596021 0.503831  -0.000175327 -7.63834e-05 0.00114757  0.00612074 -0.0376762 0.117893  -0.000173971 -0.000671647 0.0011822  0.000964999 -0.000438619 -0.00175296  0.0107744 -0.0137793 0.0047488  0.00835955 -0.0252594 0.081346  -0.000212312 -8.81702e-05 0.000693738  -0.000869215 0.00017269 -0.00103256  -0.00148368 0.0012859 0.000545859  -0.000283763 -0.00167434 -0.00211417  0.00259775 -0.0018961 0.00162378  0 0 0  -0.00101857 0.0152206 0.0802982  -0.00178564 -0.000144094 -0.000745118  0.156899 -0.489242 0.251179  0.000905693 -0.000171281 0.00172329  -0.000763923 -0.000151336 0.00045085  -0.000619531 0.000493981 -0.000687361  -0.0445432 -0.285628 0.106349  3.70741e-05 0.000278536 -0.000815973  -0.00236832 -0.00833571 0.00993145  0.000202835 -0.00924724 0.0573545  -0.000419796 0.000714302 0.00064373  0.000601128 0.00106337 0.000447124  -0.261961 -0.161451 -0.0327314  -2.10106e-05 -0.000876585 0.00112399  -0.00605741 -0.0135955 -0.0117467  -0.0016807 -0.000423282 -0.00206463  -0.166924 -0.130765 -0.09431  -0.000686541 -7.32169e-05 0.00141621  0.000309721 -0.0499238 0.139029  -0.0942841 -0.0839773 -0.0659819  -0.275273 -0.160307 -0.0752212  -0.00225359 0.0400215 0.0414388  0 0 -1.86265e-09  -0.000251889 -1.55717e-05 0.000402212  -0.000345051 -2.07275e-05 0.000423133  0 0 -7.45058e-09  0 0 0  -0.000751853 0.00252114 -0.00286843  0.0517099 -0.410319 0.135367  0.0425107 -0.391644 0.140262  -0.000841647 -0.000201717 0.000732869  -0.041475 -0.327393 0.075366  -0.000292212 0.00918312 -0.00063774  -2.98023e-08 0 0  0 0 -1.49012e-08  9.60864e-05 0.000263013 0.000419199  0 0 0  0 0 0  0.00216371 -0.000289947 -0.000644421  0 0 0  -0.00360188 0.0297217 0.0703435  -0.000460908 3.00035e-05 0.000610173  0 0 0  -1.49012e-08 0 0  -7.45058e-09 0 -1.49012e-08  -0.00245452 -0.00387532 0.102603  9.00328e-05 0.00171925 0.00139168  0.00443414 -0.295827 0.376198  0.000385202 0.000765942 -0.00245097  -3.12924e-07 0.000255689 0.000989169  -0.0709458 -0.431074 0.833591  -0.00632632 -0.38095 0.0695819  -0.00127377 0.000114307 0.00113976  -0.19946 -0.244705 -0.0470087  -0.237592 -0.175623 -0.0965899  0.000978112 -0.000185326 0.00170517  0.00028494 0.000401102 0.0012483  0.00364053 -0.0125805 0.0186714  -0.0011436 0.0293593 0.0233509  -0.0394649 -0.483528 0.72635  -0.00133014 -0.0851938 0.208809  0.000537813 -0.000136286 0.0018152  0.0263005 -0.052058 0.0505833  0.00168926 -0.000245541 0.000384927  0.00191933 -0.00019566 0.000791579  0 0 0  -0.0377275 -1.58305 0.853231  0.00093025 0.00339255 0.00798285  -0.00018388 -0.000150032 0.000813127  -0.000354469 -0.0163383 0.111976  3.72529e-09 0 0  0 0 7.45058e-09  -0.00159958 -0.0978751 0.225108  0.00029254 0.00199801 -0.0003822  -0.000587657 7.22706e-07 0.000515789  -0.00087288 -0.00131102 0.000333905  0.138726 -0.488639 0.362098  -0.0267861 -0.315105 0.102791  -0.0790921 -0.277823 0.0721926  0 0 0  -0.000558518 0.00142875 0.00746155  -7.45058e-09 0 -1.49012e-08  0.112807 -0.514999 0.414722  0 0 0  0.0047909 -0.204566 0.153309  -0.000785798 0.000226915 0.000958979  -0.000189394 -0.000161439 0.000576377  0 0 0  -0.00444087 0.0540984 0.0670046  0.0014281 -0.0562474 0.118623  0 0 0  0.000361338 0.00082846 -0.00156486  0 0 0  -0.0287509 -0.122684 0.401755  0.000343774 -0.0155994 0.00939808  0.00130083 -0.037683 0.0794292  0 0 -1.86265e-09  0.00142915 -0.151458 0.225713  -0.0027741 -0.00180653 -0.000230934  0.00512251 -0.0293131 0.101201  9.9197e-05 0.0207588 0.0161499  0.0197586 -0.283895 0.252166  0 0 0  -0.0268353 -0.344274 0.570674  -0.0549027 -0.334999 0.692488  -0.0724858 -0.338765 0.775209  0.00422943 -0.0193046 0.0536877  0 0 0  1.11759e-08 0 0  0.000861406 -0.00102906 0.00148365  0.135289 -0.49629 0.375249  -0.150925 -0.250959 0.0133025  0.0919451 -0.436712 0.181624  -0.213121 -0.10225 -0.109491  -0.00286087 0.0201731 0.0560375  -0.24339 -0.185447 -0.045633  0.144636 -0.467478 0.280866  0.148944 -0.482973 0.334794  -0.0514616 -0.318073 0.0701675  -0.102252 -0.283386 0.0405494  0 0 0  0.0799825 -0.412056 0.190138  0.0461006 -0.38928 0.149617  0.0771417 -0.550787 0.475702  0.0218903 -0.371061 0.12464  -0.229512 -0.120795 -0.110295  -0.270257 -0.14957 -0.100103  -0.257572 -0.140209 -0.106811  -0.270519 -0.159852 -0.0780784  -0.0368192 -0.366232 0.632805  -0.00891192 -0.171478 0.336294  0.000516355 -0.000151612 0.00137222  0.0680705 -1.65705 0.727196  0 0 0  0 0 0  0 0 0  0 0 0  0.0515742 -0.102363 0.076997  -0.000430107 0.000539899 -0.000447005  0.0302268 -0.134006 0.143312  0.0243017 -0.1789 0.167843  0.0111432 -0.688102 0.665118  0.0003995 0.0116515 0.0155141  -0.00208379 -0.0286972 0.0926818  -0.0752765 -0.416201 0.842418  -0.000276834 -2.96608e-05 0.000296772  -0.00912064 -0.326786 0.463273  -0.000633489 0.000214696 0.00104016  -0.00440961 0.0127372 0.00701827  -0.24503 -0.146339 -0.104625  -0.00105703 -0.0128064 0.0237591  0.158023 -0.485491 0.311706  0.0427455 -0.403448 0.127447  -0.164481 -0.0579193 -0.0900329  0.136883 -0.507909 0.383493  -0.000445921 0.000102617 0.000793874  -0.0313983 -0.350381 0.0656583  -3.72529e-09 0 -3.72529e-09  0.00634563 -0.0405785 0.101945  -0.250515 -0.133727 -0.109974  0.106751 -0.535483 0.434582  -0.137539 -0.277857 0.00345933  0 0 0  0.000147313 0.0180372 0.0342889  0.000738084 -0.000602357 -0.00194497  0.159579 -0.569562 0.4054  0.174396 -0.551726 0.380711  0.0981006 -0.772035 0.561654  0.00164676 -0.00114712 2.45422e-05  0.00582564 -0.0623713 0.0275168  0 0 0  0 0 0  0 0 -3.72529e-09  0 0 0  0 0 0  0 0 0  7.45058e-09 0 -1.49012e-08  0 0 -1.49012e-08  0.000690401 -0.00152911 -0.000442639  -3.618e-05 0.0182121 0.130904  -0.000333996 0.00670829 0.0181756  -0.00330576 0.0288767 0.0475366  0.00194162 -0.00116269 -0.00163496  -0.00111996 -0.000123248 0.00138921  -0.00139768 -0.00037352 0.00076057  -0.000624537 -0.00115449 0.000569165  -0.0042108 0.0363087 0.00973991  0.000604063 0.00749616 -0.000391394  0.148487 -0.49694 0.3544  0.0114095 -0.0317039 0.0198259  0.000249147 -0.0029797 -0.00151898  0 0 0  0.00222272 -0.00225793 -0.00151741  -0.000379205 -0.00460808 -0.000851214  -0.000789911 -0.000556916 0.00208142  -0.196821 -0.215587 -0.0102616  -0.00102925 -0.000385299 0.00117442  0.0076648 -0.00870577 0.0236686  -0.0576217 -0.367382 0.73119  -0.000537783 -0.000369094 9.66936e-05  0.123493 -0.458376 0.22005  -0.00064382 -0.000324972 -0.000564843  -0.000672877 -0.000198361 0.000257552  -0.000218302 -0.000205733 -0.00069575  -0.000458598 -0.000307053 0.000363797  0.000246406 0.000130735 -0.000842601  0.000433832 0.000496272 -2.64049e-05  -0.000323296 -0.000202116 0.000405669  0.000549987 0.00014006 0.000488579  -0.000189735 -0.000151623 0.000423431  0.000226879 0.000123866 0.00056988  -9.31248e-05 -0.0002634 0.000393987  7.41184e-05 0.000189856 0.000439107  6.99162e-05 -0.000331346 0.000496686  -0.000276595 -9.52557e-05 0.000593543  0.000245929 -0.00026927 0.000733495  -3.70145e-05 9.42461e-05 0.000198185  0.000679076 -0.000179216 0.00114334  -0.000355482 2.87294e-05 0.000217795  0.000748217 -0.000348095 0.000792861  -0.000200093 0.000181293 -8.06451e-05  0.00100571 -0.000258319 0.000621736  -0.000607371 0.000479721 -0.000580311  0.000881612 -0.000264436 0.000401348  -0.000351369 -4.76092e-06 -0.000822395  0.000651002 -0.000481993 5.71758e-05  0.000118613 -0.000311952 -0.00056953  -0.00981238 0.0309021 0.153909  -0.00205731 -0.00453534 0.00110709  0 0 0  0.00275671 -0.0002307 0.0123112  1.49459e-05 0.0480021 0.0141064  0 0 0  0 0 0  0.000695616 -0.00166644 -0.00266303  -0.0110949 -0.0349209 0.271558  -0.0089463 -0.0430971 0.206728  0.0381165 -0.361986 0.1636  -0.0566683 -0.438824 0.773207  -0.055434 -0.451294 0.776551  -0.0497617 -0.451727 0.750962  -0.0345494 -0.234097 0.540644  0.0352001 -0.377714 0.142049  -3.72529e-09 0 0  -0.0520878 -0.451282 0.76283  0.0412399 -0.372074 0.159017  -0.000153929 0.000265472 0.000594884  0.0358554 -0.190684 0.186268  -0.00367826 -0.00404012 0.100809  -0.083817 -0.34688 0.831897  -0.0557594 -0.440937 0.771835  -0.000611968 -0.00745952 0.00835682  0.00146188 0.0125535 0.0173932  -0.0296189 -0.130315 0.44284  -0.0234178 -0.304574 0.520405  -0.0842882 -0.338654 0.828204  -0.0234854 -0.283319 0.50802  7.45058e-09 0 0  -0.00122297 0.000436068 0.000271916  -0.0555949 -0.452111 0.778558  0.000374407 0.00782654 0.0350458  0.000265911 -0.0401786 0.10385  0.00054501 9.47714e-05 0.000844538  0.00176337 0.00175485 0.0182744  -0.000720501 -5.84573e-05 0.00051567  -0.000559472 -8.38339e-05 0.00105432  -0.0832451 -0.360221 0.838792  -0.0633921 -0.386711 0.769502  -0.0615055 -0.355897 0.736801  0.000611007 0.00327961 -0.000753194  -0.000817373 -0.641087 0.677364  -0.000694338 -0.000697903 0.00206968  -0.00846541 -0.0364538 0.0322429  -0.00205516 -0.0238535 0.0391653  -0.0864834 -0.339128 0.838394  -0.0843721 -0.358574 0.842666  -0.0837328 -0.371734 0.849108  -0.00697573 -0.0516772 0.244601  -0.0599775 -0.369428 0.742069  0.00321984 -0.00351486 0.0280364  -0.0115235 -0.308892 0.450406  -0.0508886 -0.449637 0.755953  -0.00015736 -0.084297 0.141639  0.000266582 -0.00309656 -0.00043145  -0.000590384 -0.00225616 0.0728681  -0.00702418 -0.0680838 0.0808401  -5.47767e-05 0.00179392 0.064264  -0.0721277 -0.351943 0.78252  -0.00347962 -0.0629838 0.218795  -0.0682383 -0.431689 0.82235  -0.0883786 -0.367017 0.866656  -0.00584776 -0.0716788 0.0730794  7.45058e-09 0 0  0.00258443 -0.635391 0.660982  0.00208334 -0.137109 0.170421  -0.0342456 -0.411253 0.655448  -0.00385685 -0.202336 0.327062  -0.0313149 -0.316856 0.579719  0.026141 -0.254764 0.206511  -2.98023e-08 0 0  -0.0517067 -0.446223 0.756815  -0.0502634 -0.487729 0.782592  0.00434595 -0.0085963 0.00187001  0.00208217 -0.00343767 -0.000704166  0.0125527 -0.0454884 0.00861851  -0.00150049 -0.00560844 0.0960851  -2.98023e-08 0 0  -0.00308031 0.0283987 0.0245754  0.01274 -0.0150109 0.0154583  -0.00967311 -0.350635 0.470023  -0.0716705 -0.332412 0.767581  7.45058e-09 0 0  -0.047391 -0.469668 0.753195  -0.00955945 -0.04734 0.19607  -0.0870072 -0.366023 0.859765  -0.0201833 -0.259119 0.46842  -0.0512765 -0.440762 0.751438  0.0411312 -0.383357 0.147425  0.0088692 -0.0144318 0.0400605  -0.0534412 -0.446627 0.764338  0.00018809 -0.00480489 0.000902105  0.000232138 -0.0708613 0.16509  -0.0606931 -0.342681 0.727594  -0.0206767 -0.37057 0.558944  -0.00211206 -0.0651694 0.196713  -0.0521696 -0.440981 0.754871  0.00148433 -0.00363603 -0.00156316  -0.0517952 -0.454474 0.762577  -0.000509843 -0.341021 0.425628  0.00150257 -0.00316884 -0.00183345  -0.0529906 -0.456752 0.769647  -0.0674691 -0.400449 0.797062  -0.0624823 -0.385849 0.761693  0.0121677 -0.260367 0.273632  0.0337999 -0.367305 0.151043  0.00359744 -0.000908613 0.0449442  -0.0105401 -0.438847 0.570126  -0.00425905 0.0290428 0.0346445  -0.0661031 -0.361779 0.764516  -0.000682727 9.39816e-05 0.00133634  0.00692287 -0.0109961 0.0278072  -0.00102904 -0.00140915 0.00204688  -0.0525073 -0.450979 0.766123  -0.0657221 -0.443723 0.817766  -0.00869487 -0.653225 0.716078  0.128154 -0.45098 0.249963  0.000367522 -0.000227883 -0.00104756  -0.011386 -0.296667 0.448928  0.02841 -0.0510463 0.0513574  0.176355 -0.505651 0.286809  -0.0678598 -0.380255 0.784793  -0.0585855 -0.462351 0.801806  -0.0618685 -0.438555 0.795762  -0.00598949 0.0364665 0.0286422  0.00470101 -0.278835 0.330245  -0.0210711 -0.546119 0.694544  0.013764 -0.153111 0.20408  -0.0472922 -0.427581 0.722868  -0.0649498 -0.426103 0.804075  -0.0681418 -0.39941 0.79716  0.000281632 0.00184327 0.000852913  -0.0668079 -0.44687 0.8257  -0.000165179 -0.00365914 0.000994012  -0.00272883 -0.00166482 0.000641361  -0.0350016 -0.52723 0.739259  -0.00040669 0.000117198 0.000874817  -0.00528889 -0.0727963 0.252692  0.00124359 -0.0753682 0.125189  0.00123847 -0.00211574 -0.000444148  -0.000817828 -0.0475604 0.0972131  9.38773e-05 0.000930622 0.000332505  -0.0693202 -0.394448 0.799757  0 0 0  -0.00572804 -0.0414968 0.178928  -0.0184033 -0.0170077 0.267739  -0.0511538 -0.363375 0.699845  -0.000485927 -1.80453e-05 0.000613153  -0.00811101 -0.0678788 0.0696078  0.0463598 -0.382262 0.157705  -0.0517685 -0.453234 0.762179  -0.07421 -0.413595 0.835513  -0.0224323 -0.140849 0.411552  -0.00788892 -0.337164 0.45024  -0.0233715 -0.0130713 0.2496  -0.0542928 -0.440156 0.764084  -0.000419915 0.000121117 0.000444293  0.0028559 -0.00167329 -0.000176072  -0.0521791 -0.448073 0.759987  -0.0674109 -0.376827 0.778791  0.0051931 -0.03598 0.018973  0.00492835 -0.0102081 0.0371405  0 0 0  0.000190474 -0.00326869 0.00107431  0.000856936 -0.00326039 0.00290444  0.0197299 -0.0375257 0.0459838  -0.000506952 -0.00144622 0.000262722  0.00017716 0.000416934 0.0544985  0.000731796 0.000615984 -0.00390503  -0.0382281 -0.503334 0.737713  -0.0735959 -0.397464 0.821461  0.000127628 -0.0068863 0.073615  -0.00075686 -0.334754 0.42821  0.00314614 -0.0429899 0.115799  0.000886112 -0.00357325 -0.00217269  -0.0291047 -0.449775 0.654057  -0.0142266 -0.358015 0.515941  3.72529e-09 0 0  0.0124956 -0.0200482 0.0397277  -0.00146879 -0.029049 0.065069  0.0477339 -1.86256 0.781171  0.000998139 -0.000264753 0.000370905  0.00571477 -0.0198862 0.00965619  -0.000917889 -0.312235 0.393478  0.0145533 -0.274143 0.269691  -6.27935e-05 0.032101 0.0343742  0.00504526 -0.00664586 0.039038  0.000741124 0.00533688 0.0137  0.0294646 -0.0638435 0.0629692  -0.00407916 -0.00315857 0.00583869  -0.0606742 -0.431448 0.788363  0.000135552 -0.00391712 0.00036069  1.84774e-06 -0.00285023 -0.000624344  -0.00131094 -0.147538 0.152763  -0.0116634 -0.285399 0.442095  -0.0688305 -0.34189 0.762613  0.0210065 -0.372129 0.343298  0.000238955 -0.0160115 0.0150589  -0.0288814 -0.380331 0.607135  -0.0104589 -0.308365 0.457475  0.0105796 -0.0299338 0.0150812  0.00980949 -0.014697 0.0116801  -0.0042066 0.0137626 0.0123971  0.0119505 -0.0146929 0.0314047  -0.0667618 -0.40996 0.800163  0.173296 -0.533793 0.365496  0.164917 -0.492848 0.289444  -0.0867973 -0.0607875 -0.0568967  -0.00219703 -0.00356129 -1.59517e-05  -0.0557624 -0.45025 0.779248  0.0232723 -0.167896 0.211491  0.0826383 -0.73141 0.564503  0.00955731 -0.245311 0.27787  -0.202091 -0.184154 0.0219333  0.0124137 -0.124234 0.164556  -0.0176772 -0.207492 0.410288  0.0157429 -0.0245026 0.0143585  0.00480077 -0.017275 0.079235  -0.0461839 -0.480675 0.75368  0.167987 -0.508653 0.340821  -0.00359772 -0.0367887 0.0495236  0.087609 -0.409059 0.21396  -0.00689088 -0.00822064 0.0024333  0.00776452 -0.246228 0.320727  0.0396159 -0.378979 0.14931  -0.00111861 -0.0758768 0.198054  0 0 2.79397e-09  0.00330478 -0.0331401 0.0926546  -0.0101667 -0.110635 0.0619141  -0.0485358 -0.455889 0.748812  8.02875e-05 1.27107e-05 0.001306  -0.00185241 -0.0250316 0.0164563  -0.00533935 -0.0571491 0.102209  0.00269943 -0.00527999 0.00032407  -0.00828773 -0.0537629 0.272914  -0.000123471 -0.0272726 0.0583485  0.0312152 -0.258566 0.198361  -0.0159222 -0.0235535 0.231098  -0.00342709 0.0208091 0.0194319  0.00344122 -0.507846 0.521809  -0.0152382 -0.38641 0.534154  -0.0209029 -0.15981 0.407287  0.00608712 -0.0424312 0.0269123  -0.0189487 -0.315496 0.507344  -0.000658013 0.000426292 0.00145826  -0.033857 -0.176501 0.473286  0.00120419 -0.00440682 -0.000549272  -0.00328675 -0.423554 0.511331  0.0012258 -0.00357987 -0.00251973  0.00591499 -0.226817 0.319679  0.00143725 -0.00157642 0.00162506  0.16801 -0.549022 0.384469  -0.000513166 0.0150352 0.0265562  0.080729 -0.562132 0.478865  -0.00240195 -0.0018063 -0.000222519  0 0 0  -0.00523366 -0.211637 0.347974  0.00127542 -0.00988477 0.0045914  0 0 0  -9.31174e-05 -0.00106755 0.00110751  -0.00727019 -0.0511887 0.231813  -0.00375244 -0.062318 0.203038  -0.0521585 -0.454803 0.764732  -0.0101821 -0.0517723 0.0371096  -0.000831687 0.000471428 0.00132975  0.00155658 -0.0012304 -0.00049939  0.00540534 -0.0117333 0.0299488  0.000150166 -0.00310256 0.00180815  -0.0485956 -0.461637 0.752802  0.0357249 -0.0796446 0.0700821  0.0326677 -0.28828 0.19828  0.0739927 -0.411966 0.178283  -0.0362227 -0.335796 0.621965  -0.000204891 0.000507154 0.00121075  -0.000658013 0.000245348 0.00134131  -0.000749215 0.000172451 0.0009498  -0.034284 -0.421206 0.662705  -0.00105399 0.00112355 -0.000418335  -0.000782773 -0.0294977 0.135079  0.00110243 -0.186262 0.133947  0.00144309 -0.00093098 0.00267693  -0.0134481 -0.615721 0.711391  -0.0149733 -0.482181 0.609586  0.00177205 -0.00234352 0.00197863  0.00145772 0.00201881 0.0346249  -0.000147864 -0.327434 0.395608  0.00710317 -0.0665684 0.0103895  -0.00231102 -0.00674036 0.0397336  -0.013595 -0.244513 0.419745  0.0148259 -0.0896717 0.019903  0.00254074 -0.00643086 0.00795794  -0.000124842 0.00107969 0.000502944  -0.048668 -0.289619 0.644977  0.00154251 -0.000247985 0.0102656  -0.0114175 -0.0869527 0.0606553  -0.000372991 -0.000109181 0.000431061  -0.00132635 -0.00224974 0.00173509  0.0407115 -0.384596 0.145667  -0.0198839 -0.547238 0.685632  -0.0705772 -0.410524 0.817313  0.0147765 -0.0631821 0.0155874  0.0184748 -0.725408 0.657646  -0.0495013 -0.457284 0.756025  0.000326782 -0.12017 0.18972  -0.00114323 -0.00290839 -0.000887063  -0.00474507 0.0237983 0.029488  -0.00033775 8.50186e-05 0.00149083  0.00186446 -0.0299208 0.0702654  0.00687847 -0.054727 0.0337072  -0.0340332 -0.489971 0.711739  0.0299098 -0.291845 0.207078  -0.00579196 0.0272183 0.00576651  -0.224457 -0.169239 0.0115418  -0.0127787 -0.504149 0.632135  0.000996709 -0.000197068 0.00118423  -0.00213951 -0.158475 0.28448  4.66406e-05 2.32607e-05 -0.00179213  -0.00118348 -0.0467592 0.0830921  -0.000381932 -0.265588 0.3603  -0.000515163 0.000181451 0.00147536  0.000450507 0.0309228 0.00843555  -0.00138265 0.0249785 0.0161861  0.0208874 -0.118259 0.153122  0.0149456 -0.084218 0.0147306  -0.0085452 -0.0265177 0.207153  -0.0120362 -0.216799 0.386697  -0.0124122 -0.242686 0.414841  -0.0146547 -0.31741 0.480688  -0.00183159 -0.000265747 0.00111698  -0.0139774 -0.455589 0.578366  0.00311792 -0.00822297 0.0392491  0.000459418 0.00309181 -0.00253537  -0.0759957 -0.366655 0.810454  -0.000447284 -0.00273114 0.00126648  -0.000243165 -0.026599 0.129649  -0.000440031 -0.00185217 0.00173554  -0.0011186 0.000458471 9.53674e-07  0.000234812 0.00374717 0.000528038  -0.0473366 -0.519171 0.786796  -0.0187491 -0.061583 0.304981  0.00596961 -0.182413 0.165175  0.0159014 -0.271407 0.266622  -0.000473499 -0.00117277 0.00192431  0.000961959 0.000901252 0.0031639  -0.0204109 -0.494171 0.644212  0.00481164 -0.00329229 -0.000187848  0 0 0  0.0102304 -0.0712573 0.153581  0.0085779 -0.11794 0.165544  0.0110508 -0.118329 0.141979  -0.0768657 -0.361911 0.811631  0.00143558 -0.010748 0.029696  -0.00295135 0.0465448 0.0138078  -0.030269 -0.348034 0.595388  0.0105695 -0.0360761 0.0230538  0.000116542 -0.00413221 0.000152811  0 0 0  -0.000856221 0.00822884 0.0109821  0.0354624 -0.147661 0.162822  0.177366 -0.51423 0.328681  -0.00145232 -0.254718 0.343931  -0.0261686 -0.318998 0.548585  -0.00291702 -0.016079 0.038353  -0.0154073 -0.302883 0.479203  -0.00423832 -0.0782089 0.227841  -0.0389533 -0.405069 0.671372  -0.000452965 -0.0294206 0.131914  0.000463575 -0.00083575 -0.0012291  0 0 0  -0.0211222 -0.465582 0.623907  0.0141116 -0.0475405 0.00941288  -0.0107246 -0.190732 0.362615  -0.0440451 -1.62554 0.866448  -0.0288231 -0.209622 0.469742  0.00205407 -0.324865 0.383552  -0.00185416 -0.00621317 0.00117648  0.0298407 -0.109885 0.1389  -0.0265932 -0.320635 0.554057  0.000815064 0.00239202 0.000105143  0.00732884 -0.120727 0.185702  -0.0241646 -0.025695 0.258191  0.0152521 -0.022989 0.0289722  -8.79616e-05 -0.00112092 0.000248998  0.00676352 -0.0180566 0.0103082  0.0147218 -0.115482 0.177691  0.0106259 -0.264377 0.278975  -0.0225223 -0.402099 0.596026  -0.0441863 -0.490878 0.755774  -0.00609469 0.0250067 0.0129486  -0.00788257 -0.126148 0.286209  0.000790119 -0.000802934 -0.00375999  0.00435024 -0.0901037 0.194442  -0.00929669 -0.507024 0.599823  0.051266 -1.07326 0.680281  0.00808856 -0.0154217 0.0298397  0.013793 -0.257297 0.262774  0.00235391 -0.00436929 -0.000184484  -0.0240629 -0.1143 0.375861  -0.00761604 -0.273264 0.411459  0.02168 -0.160978 0.176583  -0.0312234 -0.0570294 0.332691  -0.00342376 -0.0559474 0.0697231  0.0128061 -0.253801 0.266104  -0.00265047 -0.198731 0.320567  0.0100444 -0.0720749 0.0193539  -0.00307004 -0.0125827 0.00394292  -0.00142545 -0.132876 0.257364  0.000634894 -0.0644198 0.107291  0.00939187 -0.0598963 0.0172698  0.0201277 -0.103384 0.154772  -0.00322183 -1.10509 0.755326  -0.00773993 -0.139001 0.308725  -0.0626767 -0.436016 0.799979  -0.00165004 -0.00170371 0.0028407  -0.0143657 -0.0267495 0.191738  -0.0241548 -0.262526 0.490111  -0.0499337 -0.466662 0.761887  0.000240147 0.00273159 -0.00258628  -0.000438675 0.000188701 0.00112456  -0.0186364 -0.443337 0.610723  0.121981 -0.644277 0.481639  0.00183389 -0.0921072 0.17574  0.0184271 -0.0738375 0.0147783  -0.00857138 -0.390616 0.493936  -0.00478041 -0.214221 0.341932  -0.000377715 8.03173e-06 0.000306606  0.0134047 -0.300719 0.293844  -0.052185 -0.467742 0.771243  -0.0284841 -0.0694417 0.340102  -0.000270806 -0.00409019 0.0146575  6.4522e-05 0.00343479 -0.00345369  0.00813144 -0.0230922 0.0107955  0.00028035 0.00345618 0.0456162  0.0162531 -0.0536591 0.0175279  -0.00467463 -0.163608 0.304062  -0.00015527 -0.00197856 0.000709444  -0.0545782 -0.428813 0.760836  -0.0407236 -0.302525 0.610043  0.00851035 -0.0315611 0.0236283  -0.0466036 -0.300863 0.647423  -0.0730252 -0.357726 0.791974  -0.000949562 0.00117898 0.000976562  0.000801653 -0.0063926 -0.00176357  0.000608191 -0.105272 0.205856  -0.000768945 -0.00195482 0.0300161  0.0107852 -0.283284 0.300142  0.0107868 -0.224606 0.207138  0.00595111 -0.00581682 0.0422451  0.00213616 -0.00428236 0.0198851  -0.00438979 -0.222418 0.340382  -0.000544935 0.000151187 0.00142661  -0.0083603 -0.130366 0.290804  7.3418e-05 -0.00116457 -0.0011517  -0.00300169 -0.346814 0.439028  -0.000890642 0.000280693 0.0011645  -0.00496755 -0.0175114 0.0247358  0 0 0  -0.00084579 0.00118535 -0.00054501  0.00288665 -0.0020557 0.000214174  0.000235513 0.00177881 0.00474276  -0.0181334 -0.0411004 0.254649  -0.0159571 -0.486529 0.615917  -0.00945227 -0.0376338 0.017842  -0.00754806 -0.0650908 0.226427  -0.000719067 -0.156957 0.12873  -0.00802249 -0.472545 0.588032  0.00179642 -0.0051953 0.00368666  0.00195795 -0.005486 -0.00106718  0 0 0  0.00194868 -0.00281379 -0.00135286  -0.0120173 -0.0627173 0.243359  -0.00990731 -0.057247 0.26883  -0.0846 -0.00621203 -0.0459102  0.000478685 2.90722e-05 -0.0016272  -1.63019e-05 -0.0758191 0.187435  -0.000714839 -1.74791e-05 0.000327826  -0.18925 -0.0963868 -0.09879  -0.0122579 -0.143088 0.344426  0.00248633 -0.0567117 0.133975  -0.000918537 0.0135229 0.0113738  -0.0224517 -0.121672 0.352703  -0.01959 -0.0171728 0.209844  -0.00144929 -0.000931308 0.00271505  -0.227758 -0.143028 -0.103359  0.0180874 -0.143353 0.132431  0.0954156 -0.5971 0.484586  0.163468 -0.49433 0.316668  -0.0501091 -0.402891 0.722161  8.20905e-05 -0.034125 0.0842329  -0.0449105 -0.465873 0.738241  -0.00284463 0.0067949 -0.000743747  -0.00968833 -0.108922 0.0788548  -0.0137226 -0.263632 0.432242  -0.00777104 -0.0545239 0.203377  0.134344 -0.568316 0.429223  0.0075689 -0.0133143 0.0582589  -0.0217591 -0.128881 0.362525  0.103457 -0.619932 0.490077  -0.00794262 0.0285862 0.00615627  6.77109e-05 -0.00819141 0.0864511  -0.0133298 -0.219649 0.399725  0.00855258 -0.0208927 0.0469429  0.00829366 -0.187905 0.276184  0.00122511 -0.0126441 0.0158796  -0.0114288 -0.176905 0.358607  0.00197369 -0.00763839 0.0487054  -0.003052 -0.126397 0.267362  -0.0163429 -0.373524 0.53258  -0.00102115 0.0126336 0.054518  0.0204026 -0.158942 0.15939  -0.0456782 -0.387961 0.691692  0.00013946 0.00211285 0.00109693  0.00144664 0.0476133 0.0308799  0.000755936 0.00165872 0.000397071  0.00606942 -0.0187422 0.0288662  0.00772285 -0.0115687 0.0247342  -0.125637 -0.0251318 -0.0693459  -0.00300893 -0.0753567 0.114949  0.00602156 -0.135093 0.211486  0.139052 -0.609572 0.44784  -0.00126874 -0.162787 0.141894  -0.00148521 -0.0966094 0.231941  0.00433075 -0.0105821 0.0262267  0.00334081 0.0239041 0.0186062  0.00779353 -0.294524 0.315943  -0.0159266 -0.171926 0.385928  -0.0483762 -0.388292 0.701387  -0.0308158 -0.126809 0.408087  0.00596404 -0.0123777 0.0551829  -0.000105381 -0.00146088 2.28584e-05  -0.0364163 -0.240376 0.541068  -0.0187475 -0.423776 0.579775  0.00526953 -0.0169895 0.0274341  -0.00230217 -0.0840695 0.219998  0.000812352 -0.00199264 0.0028536  -0.000356972 -0.0529047 0.162906  -0.00111926 -0.00247376 0.00208944  -0.00908965 -0.438902 0.545689  -0.220002 -0.115877 -0.108807  -0.250225 -0.164673 -0.0981151  -0.0982439 -0.263576 0.0646309  -0.000251815 0.00768903 0.0485332  -7.98628e-05 -0.046518 0.146465  0.0406384 -0.951916 0.677827  -0.000584126 0.00344142 -0.00170523  -0.00551414 -0.503186 0.58232  -0.0421685 -0.454464 0.720174  -0.000640959 0.00025259 0.00113133  0.00373782 -0.192552 0.260038  0.00188506 -0.00388044 0.0399466  -0.00191493 -0.00657248 0.0257326  2.18302e-06 -0.00125222 -0.000287484  0.0280122 -0.0464391 0.0316402  -0.00081116 2.64645e-05 0.00162062  -0.0389996 -0.299013 0.605636  0.00492528 -0.0122721 0.0403322  0.00620408 -0.296619 0.33122  -0.000975206 0.000167519 0.000863582  0.0108789 -0.363756 0.368836  -0.0011259 0.0285575 0.0072313  0.015241 -0.0564545 0.102973  -0.000785053 0.000235133 -0.000898451  0.00239173 -0.033964 0.0801405  -0.0570348 -0.460267 0.790798  -0.0193521 -0.0733867 0.290484  -0.000733107 -0.139723 0.25858  0.0261475 -0.158983 0.15946  0.00656301 -0.0130019 0.0305167  0.03087 -0.335189 0.176051  0.00883368 -0.347797 0.386192  -0.000300882 0.00906101 0.0388385  -0.0106673 -0.0218243 0.00932334  0 0 0  0.00266662 -0.334832 0.126012  -0.00150383 0.00153628 -0.00181888  0.0110318 -0.158047 0.198901  0.00153267 -0.000754029 0.00413042  -0.000531703 0.000199288 0.00135836  -0.0235872 -0.258678 0.493394  -0.00192356 -0.00462329 0.00234011  0.00322551 -0.00354572 0.000577867  -0.00333622 -0.367925 0.468558  -0.0797265 -0.335296 0.805553  -0.000707746 0.000414021 -0.000442401  0 0 0  0.0177281 -0.152365 0.149859  -0.0357133 -0.0583036 0.365188  1.49012e-08 0 0  -0.184648 -0.121187 -0.100453  0.00432569 -0.0120941 0.00787063  0.00146377 -0.000846237 0.000805102  -0.00170438 -0.106772 0.242586  0.000681415 -0.00757098 0.0616939  0.00648592 -0.270327 0.317538  -0.0180739 -0.160953 0.369631  -2.66731e-05 0.000258848 0.00154996  0.00811726 -0.0628392 0.0451344  -0.0165908 -0.044591 0.262022  0.0139493 -0.125048 0.123426  -0.00974622 -0.0475637 0.227488  -0.000278264 -0.000161424 0.00241652  0 0 -1.49012e-08  -0.000477165 -0.358901 0.429798  0.0233545 -0.0589576 0.0899379  -0.0383072 -0.349869 0.63043  0.00199333 -0.0771437 0.183908  -0.00728753 -0.328213 0.457866  -0.00109547 0.00149834 0.000166893  -0.00727946 -0.206464 0.355039  0.00153005 -0.314496 0.400951  -0.000242546 0.0033229 0.0576113  -0.00157733 -0.00874585 0.0409032  -0.0275777 -0.569014 0.739116  -0.00205457 -0.367398 0.464913  -0.0735143 -0.404874 0.82606  -0.00193085 -0.0208389 0.0489933  7.45058e-09 0 -1.86265e-09  0 0 0  0 0 0  0 0 0  -0.00475913 -0.0425979 0.183887  -0.0713758 -0.377396 0.797899  0.00225252 -0.00346506 0.0031389  -0.00886987 -0.0752541 0.279595  0.0933491 -0.450725 0.165838  -0.244836 -0.187595 -0.0510289  -0.0206693 -0.00912476 0.218978  0.00281471 -0.00384496 0.000718832  -0.00677723 -0.0752487 0.250966  0.00888669 -0.0624194 0.143647  -0.000394195 -0.00172092 -0.000414059  0.000714496 0.00249696 0.0282105  -0.0590404 -0.349125 0.0315627  -0.0273548 -0.0956728 0.359963  -0.002873 -0.0235296 0.138235  -0.0468699 -0.408743 0.710333  -0.000761494 -0.0241257 0.0204469  0.00121449 -0.0273272 0.0981093  0.00776581 -0.150077 0.194543  0.0157286 -0.0259769 0.0464625  -0.0437959 -0.446602 0.721229  -0.0107279 -0.315599 0.466111  0 0 -1.49012e-08  0.00379235 -0.0155472 0.030314  0.00359344 -0.00371572 0.0235443  0.0120466 -0.296098 0.293991  -0.000499547 0.000115037 0.000182331  0.00791413 -0.195418 0.215147  -0.00171488 -0.0394073 0.0667597  0.00198132 -0.00061921 0.00176942  0.0106976 -0.0257893 0.0277485  0 0 0  0.000464693 -1.07606 0.74758  0.00467253 -0.022269 0.0307417  -0.00707968 -0.372036 0.47245  0.00255954 -0.190443 0.278523  0.00738665 -0.258263 0.311962  -0.00556155 -0.0177803 0.0382835  -0.00981928 -0.189256 0.357857  -0.000516593 -0.031876 0.0569058  0.000554532 0.00855622 0.02112  -6.62506e-05 -2.24859e-05 0.000768781  -0.037275 -0.463357 0.705663  -6.09457e-05 -0.000435725 0.000631988  -0.00151813 0.0011602 -0.000430346  0.00218362 -0.0239515 0.061492  -0.00839805 -0.115909 0.303158  0.00124967 -0.000241727 -0.00158088  0.000240207 0.00457612 0.000687271  -0.0116248 -0.492288 0.599771  -0.00614586 -0.0946957 0.267294  -0.0131567 -0.0410565 0.0199517  -0.0142782 -0.357499 0.507854  0.0203316 -0.14975 0.184387  -0.00103483 0.0127472 0.0508488  -0.0203451 -0.472067 0.624999  0 0 0  0.0104124 -0.281697 0.334003  0 0 0  -0.00530667 -0.138553 0.104618  0.0129539 -0.0298406 0.0526005  0.00995934 -0.136346 0.15696  0.0288809 -0.124275 0.158298  0.0138089 -0.225218 0.241081  -0.061839 0.00998688 -0.03037  -0.0547011 -0.482556 0.793827  -0.00557752 -0.388072 0.493153  -0.00765592 -0.0702628 0.0619684  -0.00353813 0.00538543 0.0017872  0.0730106 -1.88114 0.751535  0 0 0  0.000199564 -4.34294e-05 0.000991046  0.00446227 -0.0340032 0.0898502  0.00179887 -0.00643079 0.00105049  -0.00213762 -0.0460225 0.053795  0.0580121 -1.91213 0.775868  0.00235786 -0.308934 0.367695  0.021347 -0.0868837 0.124224  0.00661874 -0.0193686 0.0265415  -0.00552617 -0.14664 0.121862  0.00013873 0.0021051 -0.000873908  -0.00655633 -0.0842977 0.240007  -0.0145275 -0.438893 0.569795  -0.0262737 -0.167598 0.432812  -0.0823422 -0.0173818 -0.0462023  -0.000620335 -0.391469 0.478616  -0.000820249 4.18797e-05 0.00124919  0.156416 -0.502794 0.354024  0.00145367 -0.153069 0.154997  -0.0129469 -0.0332627 0.0223458  0.00010033 -0.0259333 0.0484861  0.004794 -0.0374089 0.0373316  -0.0251302 -0.504478 0.677895  -0.025543 -0.406727 0.604566  0.0025748 -0.00509222 -0.000928326  -0.190383 -0.0831728 -0.100407  0.00143375 -0.0223555 0.0679817  0.00850806 -0.137847 0.207682  -0.00142754 -0.0795463 0.2102  0.00129014 -0.17016 0.267543  -0.0518662 -0.447595 0.756759  0.00918081 -0.0112451 0.0280907  -0.232228 -0.209533 -0.0694952  -0.000450805 -0.0362874 0.0714049  -0.08045 -0.348416 0.817941  -0.190125 -0.249056 -0.0381454  0.00091216 -0.00478394 -0.00164082  0.0217158 -0.28727 0.251554  0.00339535 -0.0130156 0.031241  0.00991847 -0.376382 0.395608  0.00350606 -0.0126977 0.0047673  0.00393482 -0.383279 0.425752  -0.0119532 -0.0154027 0.179903  -0.0200138 -0.0974927 0.316176  0.142651 -0.523036 0.389614  0.00141269 -0.00903177 0.0462443  -0.0103685 -0.0517466 0.0249743  -0.000215456 -0.000666404 0.00036791  0.00759716 -0.204088 0.181208  0.000722706 -0.142106 0.253463  0.0111605 -0.131781 0.142072  0.0132658 -0.0397309 0.032467  0.0245602 -0.0516788 0.039551  0.00979526 -0.697489 0.676376  0.00106686 0.00271976 0.0121059  -0.00215102 0.000164956 0.0226115  -0.00090462 0.000321537 0.001257  -0.0107675 -0.071456 0.242752  -0.00568882 -0.0292528 0.0424783  0.0136949 -0.0596521 0.0307615  -0.00851524 -0.12518 0.0739221  0.0116166 -0.172306 0.215534  0.0121022 -0.274163 0.287283  -0.0137712 -0.0429899 0.235756  -0.00144476 0.0314893 0.0577187  0.0109361 -0.178763 0.211911  0.00104487 -0.00169113 -0.00217345  0.00213055 -0.319405 0.382158  -0.0218744 -0.174495 0.398054  0.0274234 -0.30784 0.249136  -0.0112094 -0.152601 0.335994  -0.00908807 -0.0747308 0.251595  -0.0574002 -0.427969 0.77047  0.169009 -0.498792 0.314739  -0.000230514 -0.00263429 0.0890333  -0.000520602 -0.000716299 0.000813439  0.000268415 -0.0153719 0.0824643  0.00733212 -0.0232293 0.018658  -0.0283529 -0.565558 0.734815  -0.00804546 -0.0845752 0.073064  -0.0776743 -0.335106 0.796452  0.000159472 0.00524059 0.00379637  -0.000951827 0.000245035 -7.29859e-05  0.0239015 -0.0451494 0.0528902  -0.000312004 -0.132865 0.128177  -0.00835357 -0.0547778 0.0717751  0.00558686 -0.192587 0.201253  0.0466397 -0.419298 0.116903  -0.00965831 -0.0953152 0.2694  0.000766397 -0.00231475 0.0704673  0.103264 -0.569341 0.460541  -0.0088226 -0.186204 0.348728  -0.011498 -0.0629188 0.227048  -0.000298172 -0.00163256 0.000555456  -0.0286626 -0.0792688 0.367089  -0.00500326 -0.45832 0.541753  0.00253612 -0.00521325 -0.000924964  -0.0412466 -0.400738 0.678422  0.022639 -0.0512037 0.0304785  -2.14577e-05 -0.00921071 0.0506689  0.00580645 -0.00931096 0.0120337  -0.00968246 -0.349949 0.479332  -0.00508961 -0.47061 0.535923  -0.0158803 0.0133376 0.162564  -0.0197749 -0.476464 0.626931  0.0159276 -0.291175 0.277922  -0.0177301 -0.123062 0.340838  -0.000660338 -0.000206377 0.00114012  -0.00830023 -0.499088 0.588649  -0.00593355 -0.032061 0.238958  0.0078149 -0.336634 0.369517  -0.0255697 -0.439506 0.626716  0.000496179 -0.0177912 0.000822216  -0.0241651 -0.0362514 0.301697  0.126358 -0.540506 0.417708  -0.0106762 -0.437009 0.555456  0.0113872 -0.26148 0.278602  0.0151207 -0.13398 0.111329  -0.00578605 -0.0915152 0.249733  -0.000135262 -0.00387388 0.00105915  0.00322765 -0.00853699 0.00767398  -0.00449859 -0.114175 0.0975998  0.000106171 -0.00453705 0.0251654  0.000406325 -0.000332899 -0.00327118  -0.0486316 -0.450221 0.746404  -0.0506979 -0.459875 0.766243  -0.000711501 0.000208333 -0.00180794  -0.0381513 -0.457844 0.703559  0.00479627 -0.01115 0.0311507  0.000206113 -0.000489511 -0.00339811  -0.0118862 -0.136672 0.313488  0.000686467 -0.00200687 -0.00113592  0.0173774 -0.0804548 0.137457  -0.00166975 -0.372445 0.455686  0.00227521 -0.0652837 0.152609  -0.00652516 -0.0274985 0.0207179  -0.00441775 -0.226457 0.350908  0.0155343 -0.232797 0.22259  -0.0798465 -0.395318 0.84824  0.0108086 -0.0179394 0.0259839  -0.000241011 -0.0443432 0.116598  0.00711438 -0.597616 0.612729  0 0 0  0.00275952 -0.0896474 0.155202  -0.0150755 -0.139071 0.344632  -0.0179959 -0.361267 0.535794  -0.0134479 -0.154469 0.337181  0.0114659 -0.309841 0.307168  -0.131748 -0.297898 -0.00806993  -0.105183 -0.0645277 -0.0669285  0.00486195 -0.153866 0.236935  -0.0487273 -0.445503 0.742902  -0.021888 -0.0211762 0.270735  0.0228806 -0.073779 0.104237  -0.0110601 -0.205073 0.376513  0.0011273 -0.000845611 -0.00188851  -0.0234714 -0.0865157 0.337595  -0.00485259 -0.0359344 0.169436  -0.0755236 -0.407169 0.83731  0.000554152 -0.0309781 0.0196514  -0.00411141 -0.0764935 0.217183  -0.00480631 -0.0286357 0.0304482  0.0134481 -0.138076 0.171991  0.00435346 -0.00882652 0.0202781  -0.000592587 7.93934e-05 0.00152037  -0.0193081 -0.00719309 0.241001  0 0 0  -0.0344936 -0.515911 0.728144  0.026453 -0.130532 0.147007  -0.0228456 -0.457624 0.62739  0.000785545 -0.0780283 0.149626  -0.0929223 -0.0965237 -0.0664013  -0.00121634 -0.163147 0.282046  -0.00771505 -0.477133 0.572823  0.0154644 -0.321904 0.294605  -0.00624443 -0.0443436 0.0377641  -0.012666 -0.215149 0.39531  -0.0489208 -0.483022 0.76798  0.00311288 -0.00808716 0.0550848  -0.0499744 -0.436869 0.741782  0.00227888 -0.123704 0.157741  0.0218734 -0.0342631 0.0273867  0.00120854 -0.00320508 -0.00218013  0.0285057 -0.232002 0.22933  0.0124741 -0.28831 0.334877  -0.0179074 -0.101663 0.312734  -0.0138876 -0.399674 0.546073  0.0112874 -0.329024 0.3644  -0.025817 -0.18229 0.451786  0.0247855 -0.235921 0.222795  -0.000264228 -0.131983 0.148669  -0.0112744 -0.020548 0.197956  -0.05482 -0.330553 0.694535  0.013883 -0.137761 0.159431  0.0138569 -0.0331126 0.0169261  0.0142237 -0.138247 0.179591  0.00416815 -0.124318 0.234092  -0.00147691 -0.00714207 -0.000128828  0.00463251 -1.01778 0.733779  0.0655632 -1.02389 0.656217  -0.0255574 -0.101898 0.36388  0.00413355 -0.302208 0.379949  -0.0127791 -0.0868878 0.287344  0.00770688 -0.0104536 0.00332011  0.00169323 -0.318779 0.381428  0.00728533 -0.0175716 0.0129495  0.0036023 -0.0135721 0.0387337  -0.0232834 -0.390644 0.584475  -0.058757 -0.476617 0.809776  0.00531077 -0.0138788 0.0142908  0.00447547 -0.011056 0.0296775  -0.00122373 -0.0343015 0.0707741  0.00014174 -0.0351061 0.0608005  0.0135346 -0.0335644 0.0180952  0.0154122 -0.0407771 0.0192191  0.00115122 -0.638178 0.666855  -0.0169425 -0.22588 0.424206  -0.0278743 -0.358363 0.585967  0.00877711 -0.206331 0.243278  0.00268164 -0.0698969 0.0619157  -2.23517e-05 -0.426293 0.485107  -0.0349558 -0.332354 0.603212  0.0164217 -0.274794 0.265423  -0.00137919 0.000600591 -0.000456482  0.00105128 0.000219226 0.0550394  0.00691289 -0.0168777 0.0129908  0.0375908 -0.0775627 0.0594595  0.0115057 -0.208515 0.192607  -0.00809896 -0.416229 0.509372  -0.261544 -0.172178 -0.0793022  -0.0139099 -0.111343 0.313874  -0.0303007 -0.328698 0.0877997  0.000991613 -0.0692537 0.174247  -0.0177225 -0.182454 0.39235  -0.0201846 -0.342823 0.535107  -0.00128832 0.0229119 0.0464996  0.00301167 -0.161037 0.234986  -0.00036744 -0.0134736 0.0392875  -0.00345904 -0.0196025 0.0308051  0.00946128 -0.141543 0.19851  0.0156505 -0.0281564 0.0234114  0.082607 -1.1115 0.645192  -0.00270495 -0.0176982 0.0202144  -0.000288427 -0.000557147 8.2016e-05  0.0208718 -0.0587934 0.0822401  0.00383505 -0.00797808 0.0148562  0.0146932 -1.07967 0.728206  0.00256753 -0.00282112 0.000452682  0.00809346 -0.222166 0.267262  0.0101258 -0.0194622 0.0313833  -0.00660096 -0.0996559 0.265267  -0.0102153 -0.190923 0.360896  -0.0461419 -0.469339 0.746342  -0.0267468 -1.71432 0.854406  -0.000882566 -0.00349107 0.000420004  0.0032208 -0.00696069 0.0197222  -0.00117089 -0.012465 0.0347414  0.0111985 -0.14357 0.186039  0.0113425 -0.205725 0.23455  -0.0124537 -0.0874542 0.304005  -0.00564948 -0.0498036 0.0626927  0.137999 -0.550197 0.41306  0.0387637 -0.0810113 0.0568847  -0.0234939 -0.0994444 0.368167  -0.0158037 -0.527239 0.65014  -0.015808 -0.0725173 0.277245  -0.00055708 -0.00062789 0.000736326  -0.00023663 -0.0242409 0.0527985  0.00419512 -0.0133843 0.0112387  -0.0114111 -0.166302 0.338588  0.164961 -0.492213 0.279268  0.0149964 -0.153489 0.172391  0.0075863 -0.0147021 0.00724489  0.00274473 -0.00329363 0.00534343  0.00775544 -0.35303 0.376417  0.00772846 -0.0136608 0.0160462  0.000414476 -0.00497964 0.0414684  0.01857 -0.277439 0.257658  0.00410056 -0.271999 0.358032  0.0302655 -0.0534225 0.0358618  -0.000159591 0.0092172 0.00555603  -0.0119884 -0.145469 0.346298  -0.00835764 -0.0409948 0.0279387  0.00664088 -0.251563 0.303347  0.0225294 -0.363873 0.131842  0.0246031 -0.0798086 0.1143  0.0160551 -0.175706 0.182888  0.001068 -0.023847 0.0673099  -0.00116131 -0.0675207 0.194062  0.00383931 -0.018124 0.00481062  0.00831765 -0.0398949 0.0256787  0.00284177 -0.0104439 0.00417126  0.00103709 -0.00243655 -0.00096336  0.0277027 -1.75995 0.791992  -0.00704533 -0.177364 0.324956  0.0471843 -1.88621 0.78573  0.0221028 -0.229243 0.256267  0.0240153 -0.0454625 0.0398167  -0.0175735 -0.0289801 0.234037  -0.00567323 -0.032182 0.214336  0.00261301 -0.388882 0.457164  0.0767935 -0.698228 0.56031  -0.0537374 -0.402993 0.7381  -0.00925821 -0.199715 0.358348  0.0231189 -0.125155 0.170929  -0.186769 -0.136607 -0.100486  0.0306721 -0.227148 0.194124  0.00182113 -0.0402321 0.0435806  0.152154 -0.586509 0.423296  0.00237346 -0.0210492 0.00730737  0.00829357 -0.0291744 0.00783068  -0.0458537 -0.354267 0.66845  0.144101 -0.473632 0.331319  0.000360519 0.000604734 0.000338033  -0.0147595 -0.100364 0.301761  0.0181224 -0.204547 0.212518  -0.0024757 -0.0204886 0.0600547  0.00575268 -0.356604 0.390492  0.00762266 -0.0193157 0.0299188  -0.0235299 -0.0721552 0.31488  0.00311971 -0.397243 0.464483  0.000342712 -0.0274299 0.0572887  -0.0357842 -0.0666896 0.406457  -0.0202152 -0.0588057 0.296894  -0.0193146 -0.441247 0.594194  0.00118876 -0.000631258 -0.0010332  0.009819 -0.15107 0.223932  0.0496698 -0.363894 0.187605  0.0164862 -0.18228 0.212363  -0.0177275 0.0113041 -0.00473651  -0.0319385 -0.0885044 0.419  -0.0264467 -0.459056 0.646809  0.124743 -0.466832 0.210257  0.00198135 -0.0737222 0.185143  0.0103395 -0.0353534 0.00343037  -0.0187691 -0.00764397 -0.0096429  0.00530028 -0.00935641 0.011897  0.000608414 0.00716323 0.0336298  0.17175 -0.522029 0.35328  -0.0104722 -0.180025 0.352935  0.000118345 0.00358596 -0.00186542  0.0191695 -0.170071 0.198832  0.00126833 -0.015251 0.00562283  0.0169149 -0.271159 0.254649  0.0109113 -0.115508 0.151595  -0.0115341 -0.136429 0.326892  0.000268757 -0.00305232 -0.000619143  -0.00030864 -0.0244656 0.0234652  0.000662483 -0.0110516 0.00895718  -0.00939441 -0.0201666 0.00820154  0.0311767 -0.310736 0.221099  0.0113551 -0.0279647 0.0165056  0.00133234 -0.0263017 0.0319323  0.0337591 -0.0503777 0.0671651  0.00764021 -0.0711081 0.056323  -0.0901466 -0.253331 0.0826293  -0.0200163 -0.382479 0.560383  0.00212827 -0.0149985 0.0455121  0.0374458 -0.389982 0.131991  0.00566096 -1.82261 0.828903  0.00258994 -0.172478 0.144342  -0.0812575 -0.394043 0.853743  -0.0603356 -0.468044 0.812364  0.0238878 -0.359436 0.139885  -0.00219074 -0.0544316 0.180984  0.0102414 -0.0216033 0.0591935  -0.0646976 -0.339418 0.740661  -0.0187307 -0.459671 0.605802  0.0187342 -0.273887 0.250181  1.45286e-05 -0.000902906 0.00141124  0.00883743 -0.0273841 0.0252912  -0.0293018 -0.468958 0.670074  0.00315625 -0.355551 0.403321  0.00209972 -1.887 0.844066  -0.00540742 -0.0703375 0.222688  0.0801392 -1.90621 0.746172  -0.0388503 -0.0634511 0.400513  0.00298207 -0.0400162 0.0961127  0.00582653 -0.550708 0.579854  0.000174239 -0.00351571 -0.00135832  -0.00192476 -0.0306581 0.0541021  -0.00383232 -0.0489192 0.057364  0.0404025 -0.169 0.167361  -0.031999 -0.336155 0.590973  -0.000228569 0.00335038 0.0386357  -0.011145 -0.451773 0.557658  0.0152825 -0.157935 0.183271  0.0891682 -0.549477 0.464191  -0.0065634 -0.459326 0.548232  0.0082753 -0.408111 0.426617  -0.0336756 -0.495013 0.711444  0.0227888 -0.725273 0.656078  -0.0175801 -0.0441223 0.303709  0.0022099 -0.0503836 0.0355733  -0.0171458 -0.321342 0.112047  -0.0160116 -0.446105 0.586627  0.00580886 -0.230319 0.293748  -0.0153193 -0.133265 0.353515  0.0360954 -0.074384 0.0665954  0.0663803 -0.133157 0.12861  0.0239468 -0.0427875 0.0459461  0.138739 -0.457801 0.309856  0.076634 -0.386234 0.217481  -0.000212282 -0.00169384 0.00101957  -0.0535419 -0.444087 0.762545  -0.0142596 -0.0919179 0.280306  -0.0354732 -0.504937 0.725011  0.00619203 -0.0147713 0.0267473  -0.0107919 -0.308044 0.12858  0.000458717 0.00436443 0.0518492  0.00778492 -0.0504343 0.0235098  0.0235457 -0.233319 0.184403  -0.00591452 -0.178306 0.324453  0.00678337 -0.0433902 0.0399749  0.00731373 -0.0197838 0.0118038  -0.0118521 -0.0929121 0.272283  0.00171679 -0.115477 0.140062  0.00110418 -0.00210443 -0.00193718  0.0596397 -0.633215 0.546782  -0.226406 -0.138523 -0.10561  -0.0070751 -0.121491 0.0856752  0.00252817 -0.0504055 0.0319172  -0.244116 -0.160498 -0.0990773  0.00707588 -0.327963 0.386183  -0.000817388 -0.01214 -0.000999257  0.0038453 -0.222151 0.295969  0.159618 -0.490774 0.32438  -0.0168725 -0.104957 0.342134  -8.82149e-05 -0.313972 0.410236  0.00207591 0.00094226 0.0220939  0.0188097 -0.0416816 0.0674335  -0.0178346 -0.428541 0.591659  0.0128277 -0.228315 0.175557  -0.0117448 -0.0679113 0.0609741  0.0942072 -1.93381 0.732481  0.0337498 -0.347712 0.169785  -0.038194 -0.511688 0.742149  0.02774 -0.0688725 0.0430074  -0.00199918 -0.04002 0.180912  0.000126153 -0.0130405 0.0895057  0.0155208 -0.0647914 0.120283  -0.00609191 -0.229706 0.367698  -0.0667662 -0.356026 0.762357  -1.49161e-05 -0.00147286 5.58682e-05  -0.00441393 -0.144001 0.28902  0.0970966 -0.413828 0.229071  -0.000524282 -0.000374451 0.00130385  -0.0146474 -0.0790839 0.285016  -0.0523805 -0.466594 0.7738  -0.0201434 -0.433856 0.604944  -0.0313996 -0.10931 0.433997  -0.0225053 -0.11902 0.385338  -0.0265263 -0.423326 0.630356  -0.0186549 -0.469191 0.613811  -0.0116685 -0.0723419 0.282947  -0.0396014 -0.448123 0.703904  0.00205618 -0.0197775 0.0338955  -0.000868067 -0.000670388 0.000948131  0.0231019 -0.337208 0.157649  0.0286797 -0.151225 0.148213  0.0191805 -0.164492 0.203282  0.00232828 -0.196609 0.305828  -0.00199503 0.00192866 -0.000710726  0.00431824 -0.013602 0.0283516  -0.0347483 -0.293192 0.568854  -0.0554217 -0.326675 0.694019  0.0715044 -1.85845 0.749694  0.0388066 -0.112895 0.119115  0.00751516 -0.39979 0.432372  -0.167643 -0.130467 -0.0940557  0.000279889 -0.0202699 0.0244806  -0.0379495 -0.347705 0.635796  -0.0219295 -0.427125 0.598548  0.00139047 -0.265342 0.345266  0.0056413 -0.0869083 0.0656226  0.0532853 -1.82349 0.767862  0.0113832 -0.282432 0.292211  -0.000826306 -0.000167355 0.00165182  -0.000242591 -0.0933085 0.210424  0.00368519 -0.117285 0.176223  0.0131005 -0.24322 0.252206  -0.0212784 -0.323159 0.525376  -0.0511503 -0.378612 0.709278  -0.222929 -0.187796 -0.0116473  0.015043 -0.100069 0.161891  0.00550964 -0.0742518 0.0675709  0.00569049 -0.018989 0.0510467  0.00116423 -0.0885691 0.204182  0.00558636 -0.0122883 0.0189489  -0.0135031 -0.18036 0.375862  -0.000644416 -0.00111137 0.00122562  0.00203395 -0.00520141 -0.000266284  -0.0212428 -0.446725 0.609856  -0.0108789 -0.0549416 0.0280934  0.015722 -0.227265 0.281876  -0.0760217 -0.369444 0.813252  -0.0210845 -0.384949 0.573283  -0.277286 -0.156182 -0.0784602  0.00909233 -0.0202968 0.0114406  -0.0213448 -0.36641 0.558079  0.0505274 -1.06624 0.680759  0.00272769 -0.550542 0.588265  0.00563392 -0.0384773 0.029226  -0.013426 -0.165128 0.357849  0.00396201 -0.432166 0.47092  -0.0450729 -0.447157 0.727709  0.104185 -0.521918 0.429933  -0.0797534 -0.368561 0.82905  -0.000211358 -0.00666569 -0.00149563  -0.00109208 -0.0912966 0.216564  -0.053814 -0.021888 -0.0352886  -0.0268538 -0.131704 0.414209  -0.00562216 -0.253989 0.379134  -0.00048469 -0.00140049 0.000988945  0.0686956 -0.126646 0.123482  -0.0588339 -0.437299 0.782632  -0.14903 -0.0947703 -0.0878218  0.0516027 -0.366163 0.185854  -0.0315267 -0.0495641 0.35202  0.0114913 -0.356105 0.354374  0.0121908 -0.0498861 0.00643885  0.0377945 -0.091176 0.0881518  0.0169366 -0.284025 0.274269  0.00433604 -0.51028 0.52655  0.0154406 -0.017018 0.0350083  -0.182599 -0.155567 -0.0979098  -0.000183761 -0.139584 0.254431  0.0250251 -0.0380746 0.0485827  -0.00835867 -0.0673411 0.246874  0.0257209 -0.301801 0.253305  0.00576925 -0.209217 0.275938  0.00263476 -0.349713 0.408926  -0.0347765 -0.270186 0.56383  -0.0410762 -0.0787395 0.421411  0.00171453 -0.106713 0.219115  0.0123259 -0.0139666 0.029457  -0.00756957 -0.542465 0.625947  0.013232 -0.15116 0.223592  0.00868571 -0.0619168 0.00710925  0.0142763 -0.333586 0.310219  0.0134049 -0.281664 0.285192  0.000572115 -0.00171316 0.0554178  -0.0495597 -0.463342 0.758563  0.0574698 -0.37949 0.183558  -0.00574232 -0.098073 0.273438  0.021869 -0.0818163 0.130607  0.00249222 -0.240667 0.338333  0.0103066 -0.259052 0.284852  -0.00232702 -0.0822443 0.214319  0.0233387 -0.374444 0.12314  -0.0121373 -0.222566 0.397358  -0.0306565 -0.436935 0.651737  -0.0239959 -0.564148 0.720357  0.00337537 -0.0747464 0.0756785  0.00433016 -0.00649945 -8.20011e-05  -0.00232189 -0.00936188 0.0010951  -0.00186878 -0.360896 0.427232  -0.00211414 -0.00282526 0.00206289  0.00532349 -0.371211 0.402177  0.010786 -0.131364 0.208727  0.00633147 -0.0453833 0.0378719  0.00729886 -0.0387449 0.0357116  0.00323966 -0.014831 0.0434832  -0.0012888 -0.512019 0.561996  -0.0217454 -0.434093 0.604119  0.0455989 -0.109305 0.0663167  -0.0559173 -0.326028 0.69371  0.000495285 0.00273208 0.00157394  -0.000168443 -0.313266 0.389548  0.0196114 -0.13573 0.187519  0.00594762 -0.0153303 0.00982817  -0.00489195 -0.103557 0.276184  -0.0146684 -0.418593 0.559582  -0.00261854 -0.189586 0.31277  0.00210208 -0.00419387 0.00749433  0.0781289 -0.445977 0.142691  -0.00893405 -0.128194 0.100774  -0.00217431 -0.0790511 0.226206  -0.0326953 -1.0575 0.788083  -0.000450686 -0.000292122 0.00168192  0.0397151 -0.343568 0.185306  0.0117859 -0.274904 0.318271  0.0123775 -0.0323244 0.00658584  0.0127957 -0.276838 0.308624  -0.0229477 -0.414805 0.600264  -0.000703737 -0.000192389 0.00179732  0.00788477 -0.211753 0.271808  -0.0426147 -0.501812 0.752954  0.137356 -0.456269 0.305998  -0.0055231 -0.0895768 0.0921775  0.00672942 -0.0467313 0.0324428  -0.00829321 -0.107064 0.103057  -0.0411923 -0.0889699 0.426571  0.0737603 -2.00259 0.7698  0.034995 -0.145036 0.144528  -0.000855863 -0.00406791 0.0023461  0.000785723 -0.0267805 0.0589888  0.0125397 -0.300707 0.299099  0.00123118 -0.00689606 -0.000195278  0.00158387 -0.0806645 0.138301  0.000472575 -0.00308431 -0.00190929  0.0112299 -0.0185449 0.0199242  0.0103403 -0.0240887 0.0160618  0.0154587 -0.276629 0.273481  0.00266403 -0.0627783 0.0464426  -0.0783693 -0.341727 0.804182  -0.00306638 -0.171886 0.300783  0.0074141 -0.0124365 0.0241502  -0.000996247 -0.00198983 0.00035578  0.00298029 -0.389628 0.430001  -0.0015796 -0.12281 0.160175  0.00234495 -0.127732 0.221227  -0.0212003 -0.142735 0.38187  0.00272548 -0.00902803 0.00385218  -0.00186882 -0.155005 0.271989  -0.00371644 -0.0891489 0.228727  -0.0202189 -0.295168 0.12788  0.0060291 -0.265744 0.32103  -0.0174028 -0.156569 0.379017  -0.000421004 -0.00275829 0.00154807  -0.0174864 -0.130872 0.337927  0.00206065 -0.288474 0.349508  0.000782639 0.00439794 -0.00325552  0.0181829 -0.0515292 0.0243612  0.0264767 -0.0632977 0.0486087  0.000221409 -0.241263 0.32914  0.0363205 -1.90253 0.80242  0.0109435 -0.0222807 0.0182112  -0.00876218 -0.296036 0.439251  0.0167506 -0.989305 0.712913  -0.0089745 -0.269652 0.412575  0.0138083 -0.118683 0.13445  -0.00755536 -0.309377 0.424194  0.00107005 -0.00124726 -0.00183574  0.0240157 -0.300499 0.179053  -0.0775952 -0.37922 0.826465  0.10312 -1.85902 0.708591  -0.000309169 -0.0647638 0.126581  -0.0043149 -0.250988 0.364645  0.0524762 -0.101988 0.0956827  0.000116691 -0.064535 0.165305  -0.0081839 -0.169219 0.330382  0.0011149 -0.526669 0.571563  0.00747132 -0.264233 0.305001  0.0144073 -0.0200254 0.0315346  0.0206664 -0.149981 0.201716  -0.0057168 -0.06184 0.208925  0.010875 -0.106775 0.115662  -0.030764 -0.0711997 0.360703  0.00771886 -0.0144988 0.028074  0.00501399 -0.163564 0.233681  0.00110957 -0.186706 0.268414  0.00375245 -0.266159 0.319807  0.0937356 -1.87854 0.723975  -0.00102356 -0.371933 0.432337  0.00162426 -1.04158 0.738511  -0.157408 -0.235631 0.022666  0.00638807 -0.0168939 0.00155935  -0.026874 -0.0856997 0.341628  0.00883404 -0.192382 0.211784  -0.0526555 -0.458191 0.769927  -0.00137503 -0.110552 0.136747  0.00111833 -0.00204989 -0.00208654  -0.0117122 -0.463694 0.569295  0.00110482 -0.0225757 0.0761809  0.0859649 -1.75083 0.715356  -0.0549313 -0.428622 0.758864  -0.0168429 -0.465494 0.602724  -0.00283544 -0.0477489 0.190279  -0.01072 -0.170185 0.337569  -0.0545553 -0.269307 0.109998  0.00313795 -0.00412062 0.0139054  0.00924595 -0.0906578 0.0770274  0.0308206 -0.0543132 0.0539935  -0.259241 -0.161541 -0.026419  -0.000904202 -0.0275242 0.0551417  -0.000118971 -0.0112476 -0.000851437  0.0170719 -0.129241 0.121907  0.0135579 -0.264503 0.269473  0.00232175 -0.00940943 0.00603504  -0.0151231 -0.03267 -0.0221567  -0.0748485 -0.397991 0.827982  -0.000329262 -1.68866 0.817266  0.0158326 -0.213205 0.234518  5.21541e-06 -0.0225595 0.0542101  0.00117223 -0.0361238 0.0378694  -0.00948644 -0.381687 0.514442  0.0140996 -0.308655 0.292146  0.07123 -0.556341 0.486763  -0.090282 -0.0598096 -0.0596967  -0.000381142 -0.187134 0.306446  -0.0616902 -0.0780296 -0.0530833  0.0507212 -0.141293 0.13188  -0.0141513 -0.44068 0.573341  0.000246853 -0.01937 0.0480092  -0.00151265 0.00394459 -4.44949e-05  0.0165581 -0.275249 0.265932  -0.00759373 -0.44067 0.522928  0.0113125 -0.0124143 0.0286702  0.0015308 -0.0917517 0.192873  0.0331701 -1.83168 0.795173  0.000656798 -1.96695e-05 0.00107992  -0.104359 -0.234551 0.0847138  -0.000579 -0.0215024 0.0549201  0.00973459 -0.108417 0.125734  0.144197 -0.505531 0.374104  0.00294748 -0.0128055 0.0315371  -0.0138983 -0.193435 0.381899  -0.011743 -0.454216 0.573452  -5.26011e-05 -0.024891 0.0636268  -0.000599444 -0.0182011 0.066673  0.00902089 -0.0573753 0.119946  -0.00798992 -0.0557276 0.0493637  -0.00352034 -0.0468644 0.235699  0.00382483 -0.0229499 0.0640513  -0.0170468 -0.248914 0.447428  -0.00933273 -0.0828013 0.267823  -0.00795315 -0.111754 0.287103  -0.00356242 -0.44424 0.541026  0.0705365 -0.721687 0.582272  -0.00275049 -0.0656707 0.198258  -0.000330634 -0.0481923 0.0735226  0.0259355 -0.291393 0.180004  -0.0119791 -0.2754 0.43912  -0.000793412 -0.313559 0.400558  0.0315945 -0.137755 0.156537  -0.00589284 -0.315819 0.442729  -0.000285149 -0.00214542 7.76649e-05  0.0227657 -0.0503581 0.0440859  0.00411339 -0.0466155 0.0260942  0.00353817 -0.204233 0.278213  0.052011 -0.125301 0.076326  -0.00743063 -0.208313 0.357041  0.0043924 -0.0441171 0.0360083  0.101656 -0.653455 0.506396  0.00381919 -0.140945 0.192704  0.0202549 -0.0504351 0.0230278  -0.0032306 -0.534263 0.599398  -0.0262602 -0.373227 0.586608  -0.0118514 -0.0734098 0.308993  -0.0524935 -0.457123 0.767122  -0.0609751 -0.379727 0.752434  0.0267013 -0.249674 0.249794  -0.00722656 -0.181912 0.335094  0.0168689 -0.236218 0.24072  -0.00202525 -0.0297481 0.0242508  -0.230489 -0.18516 -0.0191974  0.0179542 -0.0271467 0.034523  0.0176245 -0.0337708 0.0277566  0.000772297 -0.00194508 -0.00238857  0.00135534 -0.36552 0.420581  -0.0161927 -0.0611053 0.281797  -0.00112174 -0.00319003 0.000929087  -0.0184954 -0.184847 0.40616  0.0123718 -0.130318 0.189674  0.138544 -0.593527 0.440743  0.00717992 -0.0767798 0.167673  -0.025988 -0.112333 0.410687  0.0327232 -0.0596516 0.0445279  -0.00312127 -0.353571 0.101557  -0.0142217 -0.052222 0.0298659  0.00464895 -0.010821 0.0325636  -0.229641 -0.178951 -0.099147  0.00690472 -0.0136628 0.0282273  -0.0108051 -0.165834 0.344896  -0.0456427 -0.489229 0.759515  0.00330231 -0.0160983 0.0722515  0.00389266 -0.0381599 0.0291901  0.00334838 -0.0110878 0.0316978  0.0140756 -0.115386 0.100022  0.00635093 -0.0103327 0.0178052  -0.164101 -0.248729 0.00163832  0.166207 -0.524259 0.364574  -0.0638816 -0.0282955 -0.0405425  -0.0132761 -0.16501 0.359868  0.00722715 -0.0770006 0.159456  -0.00369916 -0.0258343 0.0395075  -0.0167147 -0.428886 0.576059  0.0119803 -0.0318438 0.00801976  -0.133323 -0.0369146 -0.0744118  0.00100958 -0.0521677 0.0107868  0.00331943 -0.259007 0.329237  -0.00489654 -0.138059 0.28642  -0.0057669 -0.395617 0.509806  0.00403822 -0.0510621 0.0215584  -0.057836 -0.411358 0.7591  0.133517 -1.06024 0.573923  -0.0208968 -1.01225 0.763521  -0.0448747 -0.974793 0.790076  -0.0325825 -0.963768 0.775304  0.0967366 -1.04767 0.617497  0.117032 -1.02234 0.590574  0.0311713 -1.002 0.695194  0.0756058 -0.985634 0.637405  -0.0507851 -1.0215 0.805588  0.00110249 -0.0241382 0.0576918  0.0376537 -1.19296 0.713017  0.0488542 -0.968298 0.668583  -0.000701554 -0.00713164 0.0486636  0.0002985 -0.0219539 0.0567905  0.127376 -1.06228 0.58102  0.00226393 -0.979971 0.732769  -0.0531221 -0.368009 0.708867  -0.0440879 -0.0354873 -0.0332472  0.0298367 -1.74932 0.786634  -0.00118726 -0.0171135 0.0437087  0.0139857 -0.161158 0.167519  0.00722726 -0.0392813 0.00949243  -0.000772208 -0.00558581 0.00108188  0.0724472 -0.619063 0.522074  0.00318223 -0.00629655 0.00308815  -0.0102441 -0.492716 0.597326  0.00367895 -0.286187 0.366779  0.16247 -0.49702 0.246172  -0.0427703 -0.444167 0.715106  0.00455404 -0.584 0.615929  -0.0114851 -0.345617 0.494652  0.0042201 -0.00916541 0.0258292  -0.00614825 -0.168166 0.316595  0.0197324 -0.273612 0.240268  -0.0630844 -0.329876 0.728871  0.0105747 -0.119583 0.109987  -0.0640066 -0.329307 0.731427  0.000175625 -0.0290408 0.0722465  -0.0234724 -0.0768889 0.312816  -0.0100595 -0.149827 0.323533  -0.0655958 -0.43026 0.808214  -0.00221335 -0.1893 0.304535  -0.00821811 -0.187671 0.344818  -0.012921 -0.439442 0.56511  0.00103322 -0.00780329 0.0393347  0.0770711 -0.63988 0.52788  -0.000882328 0.000504658 -3.24547e-05  -0.00163472 0.000939623 -0.000449598  0.0030947 -0.24097 0.326481  0.00594288 -0.00919139 0.0168222  -0.0167635 -0.063413 0.265245  0.00847548 -0.0213697 0.030587  0.164416 -0.492702 0.305057  0.031904 -0.159611 0.158316  0.00494832 -0.0136266 0.00626595  -0.0218522 -0.545152 0.697021  0.000450417 -0.0247378 0.0465776  0.00652704 -0.137028 0.213148  -0.000670731 -0.0235946 0.0528328  -0.00662765 -0.409273 0.522058  -0.00591244 -0.0246346 0.0130477  -0.0036848 -0.104135 0.24939  -0.000122786 -0.0016812 0.00116473  0.0374447 -0.0887949 0.090486  0.112834 -1.51911 0.653895  0.0659742 -0.133845 0.134604  0.0360599 -0.0731699 0.0601875  0.0014711 -0.291099 0.367083  -0.0058618 -0.474112 0.550551  0.00511271 -0.0212971 0.0303652  0.00470167 -0.322283 0.367196  0.00201866 -0.289664 0.371619  0.0732563 -1.28005 0.677539  -0.0174071 -0.0896893 0.329854  -0.000271901 -0.204096 0.308871  0.0136434 -0.26813 0.277145  -0.00809653 -0.191175 0.346768  -0.159068 -0.249862 0.00481781  -0.0076449 -0.208594 0.355496  -0.00857282 -0.363663 0.495702  0.0877313 -1.49387 0.683803  -0.0188988 -0.112031 0.332032  -0.0266827 -0.52319 0.699537  0.0319793 -1.63147 0.770266  0.0263741 -0.0448584 0.0475661  -0.00657007 -0.123274 0.299762  0.00125375 -0.0209607 0.0623518  -0.00404912 -0.124699 0.26843  0.00584051 -0.0229872 0.0300544  -0.0115407 -0.0506895 0.0244716  0.0278887 -0.0701844 0.0869918  -0.00630289 -0.345532 0.467847  0.00399253 -0.013321 0.0295228  0.0237893 -0.168445 0.162556  0.00505444 -0.175469 0.25063  0.0184364 -0.0364593 0.0201804  0.00863138 -0.371173 0.386304  -0.0107307 -0.109909 0.285042  0.0273613 -0.142703 0.174565  0.0239002 -0.283657 0.172208  -0.00555508 -0.182065 0.324984  -0.039259 -0.433641 0.692181  0.00374532 -0.0114895 0.0310317  0.0273142 -1.33798 0.743878  0.0587558 -0.144985 0.1341  -0.0175124 -0.318154 0.501786  -0.0196169 -0.046381 0.26329  0.00196147 -0.00223768 0.02966  0.00939389 -0.281934 0.308633  0.000846416 -0.00265312 0.0116606  0.00796968 -0.384724 0.423623  0.0666293 -0.141218 0.135733  -0.0025124 -0.455407 0.532055  0.0186612 -0.0446426 0.034059  -0.000997007 -0.00121887 0.00234723  -0.000439867 -0.000663877 -0.0012936  0.0182427 -0.126073 0.162365  0.0103838 -0.0126085 0.0286369  0.0154639 -0.26071 0.267142  0.0224651 -0.0370876 0.0345121  0.0705937 -1.91445 0.759925  0.00567329 -0.157209 0.240565  -0.0461656 -0.452949 0.735565  -0.0657433 -0.314106 0.0560957  0.0134659 -0.13803 0.217883  0.01834 -0.139 0.115556  0.0165123 -0.142575 0.123397  0.00773093 -0.0165501 0.0222006  0.105383 -0.702478 0.525163  0.0017672 -0.231939 0.315669  0.0075974 -1.36086 0.771606  -0.00383444 -0.328319 0.412032  0.00298598 -0.0566739 0.155332  -0.00826762 -0.570137 0.652587  0.0514802 -0.138581 0.129364  0.00106801 -0.0828312 0.188657  -0.00156996 -0.141127 0.13626  0.0220381 -0.140146 0.163859  0.0126302 -0.0288943 0.0139041  -0.00303522 0.0628921 0.0432954  0.0086326 -0.0155162 0.00635416  -0.0166973 -0.139952 0.37056  0.000765994 -0.00841355 0.050722  -0.00693066 -0.425637 0.528672  -0.00142102 0.0352077 0.11363  -0.000144005 0.0447897 0.0762019  -0.00574071 -0.118628 0.280759  -0.00539261 -0.249308 0.377397  0.0133733 -0.261899 0.287181  0.0155259 -0.299752 0.280917  0.000391826 -0.0222063 0.0699529  0.019248 -0.303354 0.270048  0.00561744 -0.0120682 0.0333067  -0.00196365 -0.488645 0.569765  0.00342112 -0.344278 0.38551  -0.000345893 -0.00104398 0.00138207  0.0251446 -0.046579 0.0351763  0.000213921 -0.00588946 -0.00209954  -0.0229675 -0.0342557 0.247321  0.013823 -0.237553 0.234924  0.00790932 -0.3605 0.378088  -0.00260867 -0.181267 0.306164  -0.0010692 -0.074298 0.0989561  -0.002974 -0.0394756 0.170254  -0.0168125 -0.142521 0.376283  -0.0273483 -0.0858392 0.336433  0.176249 -0.50941 0.317137  0.00113249 -0.00289515 -0.00145735  0.00114563 -0.000745684 0.00374787  -0.00852717 -0.404001 0.515898  -0.00588162 -0.160682 0.30859  -0.0139872 -0.177925 0.376763  -0.00870591 -0.0728464 0.290304  0.00589124 -0.357581 0.382868  0.0448763 -0.155951 0.141972  -0.0453428 -0.495893 0.762013  0.00666425 -0.0103981 0.026226  0.0152356 -0.0751891 0.0301437  0.0213535 -0.028534 0.0456639  0.00304547 -1.75894 0.822519  0.0013715 -0.0994788 0.195475  -0.0150444 -0.373857 0.526704  -0.00591117 -0.0999836 0.250647  0.0262485 -0.194249 0.215282  0.0560391 -0.769187 0.620992  0.00211357 -0.309641 0.375964  0.0470369 -1.84676 0.779555  0.030058 -0.0240774 0.0676363  0.00118399 -0.0158 0.00728411  0.124262 -0.601287 0.455858  0.1446 -0.57005 0.419905  -0.0221268 -0.133014 0.39923  0.00508136 -0.0105968 0.0130906  0.00335193 -0.442314 0.494551  0.0076986 -0.433437 0.454272  0.00206241 -0.132031 0.231659  0.0750811 -1.06691 0.649275  0.00770703 -0.0336218 0.0307752  0.00136885 -0.00308947 0.00413368  0.0133922 -0.283297 0.296116  0.000696927 0.00610507 0.00741003  0.174858 -0.503006 0.287638  -0.0134571 -0.463752 0.587748  0.00246987 -0.006345 -0.00147764  0.110194 -0.716978 0.529675  0.0136647 -0.344344 0.34977  0 0 0  0 0 0  -0.0187446 -0.166415 0.389518  0.00172828 -0.0367254 0.0292055  -0.00207712 -0.0149719 0.0306161  0.000449196 -0.015087 0.0309193  -0.00200849 -0.099887 0.0985501  0.0154872 -1.84039 0.819209  0.00983813 -0.0191166 0.0153009  -0.00861409 -0.194546 0.350751  -0.00918996 -0.0952203 0.293985  0.00113502 -0.169756 0.273232  -0.0102925 -0.113926 0.30793  -0.0114803 -0.479708 0.590689  -0.0529743 -0.44134 0.75982  -0.056627 -0.455668 0.784361  -0.0498776 -0.449489 0.750481  0.0124109 -0.119131 0.112222  0.0339164 -0.750592 0.643078  0.0724927 -0.675538 0.552496  0.0189406 -0.20143 0.23208  0.00939822 -0.0178653 0.0322033  -0.000363141 -0.00851311 0.00429061  0.0680171 -0.139716 0.128789  -0.000445113 -0.0984883 0.219588  -0.00532312 -0.0532499 0.0415839  0.0612427 -0.132609 0.0966654  0.00454962 -0.0190437 0.0173081  -0.00507419 -0.305423 0.400943  -0.000871539 0.000256993 0.000201076  0.114364 -0.569473 0.44997  -0.0634973 -0.409502 0.784453  0.182714 -0.534532 0.352274  0.00627929 -0.0402277 0.0332351  0.0492882 -0.585961 0.528043  -0.0441017 -0.361685 0.663997  0.155793 -0.521297 0.373897  0.00214103 -0.432222 0.50533  0.00360963 -0.36103 0.430145  0 0 0  0.00512481 -0.0125008 0.0127794  0.00674257 -0.616157 0.637975  -0.0179477 -0.505137 0.644509  -0.00635028 -0.384489 0.498979  -0.0110682 -0.174655 0.353292  -0.0183257 -0.478007 0.622664  0.010385 -0.120585 0.172991  -0.0491594 -0.422966 0.728995  -0.0165887 -0.132566 0.3544  0.00108564 -0.24722 0.33727  -0.000638008 -0.0601352 0.179574  -0.00955558 -0.414248 0.543589  -0.0406896 -0.495045 0.740696  -0.0207472 -0.0992588 0.341485  -0.0246186 -0.440638 0.621743  0.0415204 -0.0632719 0.0805673  0.00213146 -0.00882396 0.0156381  0.00880519 -0.0198317 0.0219034  0.0313028 -1.83469 0.797803  -0.0322023 0.0116436 -0.0152481  -0.00650725 -0.401487 0.511553  -0.0062739 -0.144975 0.293449  0.00949001 -0.0130867 0.0231257  -0.00978169 -0.168931 0.335353  -0.0121136 0.0051704 -0.00272188  0.0137667 -0.236455 0.264193  0.0387955 -0.0848514 0.0759507  -0.000316992 -0.00193736 0.000808559  0.0111579 -0.315897 0.330541  0.116855 -1.60482 0.657756  0.0355345 -0.27654 0.166454  0.00634658 -0.265428 0.306312  -0.00135831 -0.353933 0.426228  -0.0400923 -0.328425 0.636023  -0.0093566 -0.457074 0.562419  0.00224745 -0.00370774 0.00231186  0.0319286 -0.211762 0.206055  -0.0444805 -0.487239 0.753498  0.0629433 -1.89544 0.766823  0.0197243 -0.153476 0.199438  -0.0401758 -0.443824 0.702954  -0.0422409 -0.454703 0.719728  0.00485632 -0.0139085 0.0385467  0.0136528 -0.291451 0.286539  0.0910293 -0.621068 0.501801  -0.0194865 -0.0295204 0.253964  -0.000562966 -0.0133963 0.00193235  -0.0529244 -0.359663 0.704332  -0.000665329 1.46627e-05 0.00113979  -0.000755429 -0.00223503 -0.000135019  0.0152062 -0.272679 0.314579  0.0196198 -0.236392 0.212182  -0.0304888 -0.357272 0.605324  0.00923415 -0.0963287 0.117713  0.167764 -0.499222 0.261389  -0.00357434 -0.14263 0.275199  0.0616947 -1.85294 0.761645  0.0305687 -0.0840887 0.0986785  0.0101325 -0.273151 0.295807  -0.0118034 -0.347489 0.498427  -0.125147 -0.28596 0.0113576  0.00854999 -0.36979 0.38988  0.0131184 -0.315483 0.338733  -0.0017339 -0.0423033 0.158208  -0.00130454 -0.541509 0.597255  0.0104871 -0.13013 0.182886  0.00136757 -0.0157244 0.0679743  -0.00610006 -0.11256 0.263868  0.0156802 -0.388811 0.364099  0.000766754 -0.144409 0.251662  0.00115626 -0.317745 0.387294  -0.0197989 -1.77465 0.854522  0.00493886 -0.0585374 0.033231  0.00536337 -0.0165691 0.0306036  0.00820836 -0.0122258 0.0305344  -0.00377217 -0.0630679 0.201863  0.0265658 -0.210721 0.221063  0.0261292 -0.241847 0.206269  0.000643775 0.00187311 -0.00298843  0.00423157 -0.0101486 0.0388602  -0.0116578 -0.469203 0.579764  -0.0408249 -0.498277 0.743799  0.010733 -0.136948 0.14042  0.00538951 -0.0222476 0.028101  0.0193042 -0.0608195 0.0174251  -0.0254807 -0.424045 0.614901  -0.00953189 -0.600574 0.687793  -0.191998 -0.169251 -0.101291  -0.00436477 -0.116482 0.265561  0.0103529 -0.111244 0.102525  -0.0139872 -0.41286 0.558771  0.0128191 -0.11805 0.196335  0.0213446 -0.0362443 0.0234049  0.00805053 -0.0225321 0.031039  0.00725958 -0.0952634 0.0800665  -0.0090805 -0.119445 0.285586  -0.00353153 -0.193335 0.321636  0.000688717 -0.407736 0.470833  -0.00941992 -0.30937 0.455223  0.0245717 -0.225291 0.214483  -0.0585529 -1.39224 0.860722  -0.000488728 -0.0259759 0.0575229  0.00148524 -0.224576 0.307699  0.00245066 -0.0545305 0.0548731  0.00271994 -0.151915 0.249157  -0.0152403 -0.0919017 0.336188  -0.0465186 -1.45972 0.850868  -0.0442242 -0.390349 0.684824  0.0576947 -0.130033 0.118991  0.0216571 -0.275524 0.169107  -0.00085856 -0.00111571 0.000638187  -0.0258786 -0.374469 0.589579  0.00773646 -0.026429 0.00956443  0.141942 -0.461648 0.305371  -0.00524873 -0.0792856 0.229164  -0.00571482 -0.329594 0.118741  0.0103272 -0.0603925 0.0310804  0.179617 -0.524657 0.34438  -0.252019 -0.180991 -0.0799294  -0.0042503 -0.364967 0.447823  0.0101748 -0.0576332 0.0348335  -0.214827 -0.21557 -0.0359207  0.00012086 -0.00163696 0.00198455  -0.0124504 -0.454448 0.573934  0.0431724 -0.0927707 0.0685706  0.00108145 -0.477353 0.507795  0.0114447 -0.125759 0.124892  0.00528232 -0.223938 0.274352  -0.00690163 -0.105453 0.0721958  0.137252 -0.608046 0.447874  0.00133666 -0.00162883 -0.00248111  -0.00121027 0.000415877 -0.00021401  0.00883332 -0.0148713 0.019705  0.054992 -0.110657 0.0863603  -0.00323978 -0.077398 0.214283  -0.0494027 -0.458908 0.755732  -0.00730798 -0.210849 0.354835  -0.00240538 -0.114219 0.250099  0.00676951 -0.18648 0.252178  -0.026848 -0.0480049 0.323094  -0.00065589 -0.0020019 0.00188303  0.0077875 -0.132989 0.173703  -0.0125943 -0.00377299 -0.00711855  0.00564578 -0.0110241 0.028161  0.0273538 -0.0978099 0.128494  0.00876602 -0.231372 0.265894  -0.00192869 -0.0256073 0.0266253  0.0178558 -0.104037 0.168408  -0.026131 -0.0427375 0.287717  -0.0153399 -0.338865 0.504623  0.0507115 -0.0860696 0.0924797  -0.00692961 -0.0137516 0.0021762  0.00196347 -0.000691295 0.0423499  0.00216001 -0.00590581 -0.000734203  -0.000986725 -0.0022437 5.17964e-05  -0.015674 -0.366521 0.531124  0.109614 -0.433775 0.233534  -0.00487585 -0.173461 0.313897  0.00871611 -0.132879 0.155114  -0.260645 -0.173283 -0.0533492  -0.000941902 -0.00171292 0.00116333  0.00370821 -0.162389 0.15217  0.0230811 -0.0421762 0.0262643  0.0178386 -0.308423 0.166864  0.045917 -0.88497 0.660995  -0.00137708 -0.0248935 0.059587  -0.00610186 -0.0870366 0.0663959  0.0219384 -0.590832 0.56695  0.017319 -0.0342229 0.0261567  -0.000232767 -0.000878632 0.00130384  0.000128984 -0.0379082 0.0613324  -0.00154669 -0.0286884 0.0258359  0.0956293 -0.570887 0.470264  -0.00992639 -0.113102 0.293413  0.00552273 -0.0135537 0.0270434  0.000444703 -0.0863889 0.122432  0.00304851 -0.00493214 0.0290743  -0.0460394 -0.402703 0.702906  0.149063 -0.471257 0.301876  -0.00927019 -1.33451 0.790621  -0.00578648 -0.412985 0.497397  -0.144342 -0.109874 -0.0873647  0.0114757 -0.228664 0.291843  0.00159447 -0.0555791 0.0726729  0.010647 -0.0142392 0.0327254  -0.0130551 -0.0316509 0.203558  -0.257449 -0.176582 -0.0749279  0.0271877 -0.360271 0.145585  -0.0137517 -0.070716 0.042942  -0.0140934 0.00982615 -0.00255254  0.00989959 -0.100863 0.0652807  0.00128871 -0.315943 0.377575  0.144694 -0.467064 0.277771  0.0315261 -0.204682 0.175907  -0.0233534 -1.43893 0.819579  -0.13394 -0.0728088 -0.0795058  0.0129696 -0.251137 0.30941  -0.00425473 -0.108322 0.250874  0.00611953 -0.250592 0.291457  -0.00421876 -0.134613 0.287302  0.000340059 -0.0313309 0.0594214  -0.040996 -0.480958 0.733268  0.0117354 -0.0456973 0.0201276  0.0014514 -0.0113526 0.00503191  0.00195596 -0.0224582 0.016997  -0.256541 -0.162532 -0.0963117  0.00158401 -0.0469213 0.0979272  0.000966579 -0.13089 0.244585  0.00557876 -0.0156032 0.041022  -0.0252475 -0.372802 0.584084  -0.00592073 -1.31945 0.783737  0.0215155 -0.278245 0.190086  0.0308275 -0.119063 0.140352  0.0135509 -0.121948 0.100971  0.0226656 -0.286699 0.176525  0.00970477 -0.110286 0.115892  -0.014965 -0.449715 0.581719  -0.0474124 -0.0755892 -0.0456886  0.00312448 -0.22254 0.307311  -0.00736308 -0.225258 0.371125  0.0721056 -0.137613 0.117058  -0.00910068 -0.164069 0.332373  0.143451 -0.476288 0.33988  0.0139576 -0.209767 0.265997  0.00318 -0.00876443 0.00207338  -0.000543296 -0.000733674 0.000774354  0.0443631 -0.105081 0.0964866  0.0111646 -0.0242948 0.0112836  -0.130757 -0.219982 0.0694755  0.0477978 -0.585093 0.530162  -0.121638 -0.265649 0.0350959  -0.0435686 -0.471939 0.74081  -0.0468895 -0.400011 0.702963  0.00120339 -0.0270227 0.0620317  -0.00624054 -0.326367 0.430356  -0.00168115 -0.213173 0.336463  0.0314019 -0.14058 0.151286  0.0368572 -0.15746 0.145489  0.00985573 -1.47322 0.780674  -0.0966159 -0.120227 -0.0723713  -0.0189678 -1.28583 0.797088  0.0199202 -0.263791 0.214634  -0.154244 -0.155607 -0.0927025  0.00179574 -0.0848994 0.176655  0.0459919 -1.27442 0.712175  0.00169908 -0.0423408 0.0264623  -0.000389278 -0.0319388 0.0629525  0.0324625 -0.0758389 0.0852248  0.0234618 -0.262847 0.216673  0.0378584 -0.100399 0.106556  -0.05584 -0.345525 0.70637  0.108418 -0.683171 0.518619  -0.0201456 -0.0763464 0.307428  -0.0813918 -0.34084 0.81686  0.00194398 -0.00321388 0.0109227  0.00896626 -0.294325 0.318191  -0.0437806 -0.488119 0.749869  -0.0134614 -0.270887 0.441422  -0.0110161 -0.0247641 -0.0107367  0.133444 -0.520402 0.396966  -0.0503547 -0.455635 0.756582  -0.00582054 -0.277849 0.408185  0.000786781 -0.000545971 -0.00344114  -0.00126338 0.000475824 -0.000160128  -0.230787 -0.174031 -0.00446782  0.000849158 -0.579949 0.622279  0.00163187 -0.498859 0.517654  -0.000468045 -0.0282096 0.0531867  0.00804035 -0.273637 0.301436  -0.00991153 -0.346615 0.0988382  0.00464189 -0.0139279 0.0391507  0.00254385 -0.00633487 -0.000772379  0.00176653 -0.0786983 0.174017  -0.000648193 -0.261915 0.353256  0.00547683 -0.0107292 0.00402145  -0.000188068 -0.0107592 0.0654928  0.0077236 -0.242024 0.288929  -0.0176365 -0.432683 0.584926  -0.011109 -0.202642 0.37696  -0.000734515 -0.0288712 0.0279265  -0.00455819 -0.198008 0.324235  -0.035306 -0.459433 0.69323  0.00409383 -0.0129186 0.0293537  0.0258966 -0.301739 0.237622  0.0233493 -0.12985 0.164408  -0.00234619 -0.00502576 0.000503063  0.0747759 -0.142555 0.127855  0.00446981 -0.0074116 0.0323558  -0.000953123 -0.00182044 0.000723094  -0.0139734 -0.177214 0.373239  0.00626183 -0.0112714 0.0266051  0.0099818 -0.372618 0.376817  0.000353739 -0.0177388 0.0521251  0.00309952 -0.00714573 0.00653052  -0.100777 -0.121006 -0.0738054  -0.0232647 -0.421451 0.602751  0.00703654 -0.102622 0.192266  -0.00948997 -0.322764 0.123529  0.0233541 -0.0303271 0.0477804  0.0085595 -0.0439309 0.0291701  -0.0146443 -0.304361 0.130509  -0.00200048 -0.0390202 0.0420224  0.0355316 -0.377161 0.141957  -0.00208497 -0.0529268 0.0633899  0.0412847 -0.14723 0.138021  0.156882 -0.492466 0.333697  0.0543227 -0.130749 0.122466  -3.01301e-05 -0.0810883 0.197422  -0.0789719 -0.376564 0.831352  0.00805113 -0.199933 0.25924  0.0461034 -1.81201 0.775167  -0.00911386 -0.130797 0.308864  -0.0485488 -0.350715 0.043145  0.0123217 -0.111138 0.12301  0.0487907 -0.128895 0.120908  0.00811446 -0.110514 0.190253  -0.0269078 -0.0544306 0.306961  0.0331856 -1.81764 0.792824  -0.0121117 -0.126737 0.305628  0.0070095 -0.112631 0.155203  -0.011539 -0.0301467 -0.0152875  -0.267139 -0.164843 -0.0834521  -0.0129273 -0.123511 0.330847  0.00807971 -0.102514 0.0935933  0.00231019 -0.0182408 0.0238139  0.0275326 -0.234599 0.180741  -0.0182888 -0.452769 0.602247  -0.240934 -0.198483 -0.066669  0.0143689 -0.296063 0.294772  0.0129162 -0.375342 0.103866  0.0539964 -0.156867 0.145039  -0.0160849 -0.385634 0.550128  0.00389592 -0.0279439 0.0244851  0.00478482 -0.048258 0.0453163  -0.0264593 -0.0321186 -0.0208873  -0.00251538 -0.0959139 0.232993  0.0302495 -0.0810112 0.0989444  0.00163142 -0.0667737 0.141485  -0.154193 -0.234981 0.0264619  0.00249434 -0.00539166 0.0111818  0.0204944 -0.0374228 0.0268503  -0.000101477 -0.161553 0.27857  0.00244179 -0.262585 0.350451  0.00637722 -0.0128742 0.0105188  0.00316924 -0.00722876 0.0124825  0.00542723 -0.204931 0.272928  -0.000574946 -0.02749 0.0532936  0.00488091 -0.157901 0.162167  0.14372 -0.464301 0.287423  0.0177882 -0.289378 0.269518  -0.00566497 -0.164171 0.313576  -0.0246841 -0.412117 0.602218  -0.0432169 -0.462362 0.73125  0.0109765 -0.241344 0.290694  -0.0142861 -0.125725 0.346867  -0.00169446 -0.00278971 0.00184537  -0.030226 -0.537507 0.725585  0.0537128 -0.125066 0.11822  -0.00916665 -0.0595136 0.0427387  0.00160685 -0.00193442 0.00251897  0.000242144 -0.0127009 0.0489838  0.0012534 -0.0719094 0.178435  0.0647763 -0.128477 0.104731  -0.0124647 -0.0985175 0.3177  -0.00250199 -0.336135 0.441051  0.00130376 -0.0282532 0.0246801  -0.0533898 -0.395956 0.729037  -0.00125643 -0.0348812 0.0547747  -0.0115409 -0.399852 0.521629  -0.0011493 -0.0377162 0.0496128  -0.00265172 -0.0761053 0.208853  0.0211569 -0.153482 0.141536  0.000658013 -0.244627 0.336625  -0.0335484 -0.449288 0.676595  0.0035674 -0.0140812 0.029235  -0.00718299 -0.342716 0.471617  0.00421292 -0.123866 0.187901  -0.0156463 -0.0435606 0.232873  0.00511822 -0.0145527 0.0246848  0.00371885 -0.00910652 0.0261972  0.00436203 -0.310456 0.361514  0.00947264 -0.0579415 0.0388017  -0.000592113 -0.31522 0.416453  0.00486866 -0.0162009 0.00534592  -0.0611689 -0.425971 0.784314  -0.0211853 -0.0342383 0.299499  0.0185913 -0.0369472 0.0249406  0.0127427 -0.0313723 0.0290867  -0.188816 -0.231231 -0.0161943  -0.00794704 -0.416476 0.515841  0.00349438 -0.013368 0.0317705  0.0120125 -0.340261 0.139886  -0.00084947 -0.00130506 0.00107124  -0.000678658 -0.0248171 0.00206062  0.019186 -0.140678 0.157614  -0.00379801 -0.102001 0.243977  0.0012809 0.000297427 0.00315882  0.00387439 -0.00825939 0.0433782  0.00442231 -0.137291 0.226412  -0.00959247 -0.139915 0.30615  -0.0258766 -0.0306197 0.285512  0.021434 -0.048115 0.0621031  0.0447981 -0.133748 0.132934  0.00033842 -0.0532732 0.0858067  0.0145061 -0.180506 0.227439  0.0334854 -1.86547 0.800122  0.00684458 -0.0980937 0.124748  -0.00127161 -0.428818 0.508618  -0.0563406 -0.408937 0.751771  0.010076 -0.276527 0.29374  -0.00934023 -0.165243 0.332603  0.00169289 -0.0062519 0.0304643  -0.00276846 -0.144078 0.271719  -0.0383236 -0.531241 0.755099  -0.167658 -0.200705 0.0454922  0.04775 -0.702778 0.602513  0.00448972 -0.0847664 0.0872954  -0.0330617 -0.366735 0.616015  0.152151 -0.51678 0.374594  0.00726107 -0.0235241 0.0307282  -0.0504308 -0.46123 0.761499  -0.0148803 -0.480416 0.609694  -0.0221636 -0.370559 0.565925  0.11877 -1.50022 0.644485  0.00660044 -0.428144 0.46362  0.0973846 -0.531115 0.442458  -0.00496969 -0.190563 0.329564  0.0474894 -1.93178 0.792631  0.0146773 -0.166656 0.224841  -0.00025177 -0.00235362 0.00344422  -0.0462754 -0.453246 0.736812  -0.0115336 -0.0928117 0.292911  -0.0952867 -0.00452211 -0.0501024  -0.217994 -0.148788 -0.103526  0.00866067 -0.33939 0.359912  0.0109024 -0.249089 0.261495  0.00351939 -0.358765 0.401052  -0.0394639 -0.32609 0.628649  0.0479669 -1.86431 0.781194  -0.206415 -0.148278 -0.101059  -0.0142517 -0.0558553 0.306034  -0.0189708 -0.437627 0.587995  -0.0160721 -0.0896834 0.313025  0.0130231 -0.0250912 0.0164465  -0.0391262 -0.331289 0.62665  -0.0391218 -0.447549 0.700867  -0.00343619 -0.0882556 0.237855  0.0575408 -0.144695 0.136488  -0.0287503 -0.0673159 0.324315  -0.0261104 -0.0803117 0.334753  -0.000226527 -0.199767 0.31399  0.00540365 -0.0816324 0.0882544  -0.0126406 -0.478284 0.589713  -0.00885202 -0.0506108 0.0292875  0.0111299 -0.0207536 0.022391  0.00316349 -0.0110317 0.0328097  0.0929345 -0.453732 0.161497  -0.00390464 -0.0366586 0.0266756  0.000517368 -0.00326882 -0.00202684  0.0182044 -0.130032 0.114295  0.00763196 -0.411173 0.448295  0.0329147 -0.0632537 0.0417736  -0.0409453 -0.336397 0.643848  0.123722 -0.444728 0.255317  0.163806 -0.568231 0.400917  0.00131115 -0.0021437 1.77836e-05  0.0609828 -0.111891 0.110495  0.0166069 -0.132972 0.102885  0.00780831 -0.0260786 0.0151385  0.00251088 -0.130341 0.233351  0.00707304 -0.0140177 0.0121333  6.89477e-05 -0.0275425 0.053938  0.0678706 -0.131266 0.120717  0.000217825 -0.0906025 0.203866  -0.089943 -1.37841 0.898278  0.0118306 -0.116109 0.0763279  0.0100053 -0.642522 0.643675  0.000596121 -0.0488949 0.0614066  0.00198063 -0.00958365 0.0623608  0.184726 -0.519859 0.319847  0.00393352 -0.439535 0.463229  0.0196348 -1.28202 0.746171  0.030169 -0.0821132 0.0482822  0.147674 -0.489003 0.350748  0.0416045 -0.154082 0.147895  0.0748382 -0.381397 0.221614  0.0576063 -1.29458 0.699492  0.13609 -0.466278 0.244193  0.140541 -1.30797 0.594536  0.155922 -1.32308 0.576086  -0.0657657 -1.27828 0.857006  -0.000847474 -0.0233575 0.0288017  -0.0109328 -1.2902 0.787718  0.122862 -1.3515 0.621836  0.0836214 -0.394967 0.224517  0.085222 -1.29445 0.663614  0.00454903 -0.00847045 0.0152595  0.147722 -0.473082 0.313643  -0.0940336 -1.27913 0.893389  0.0075174 -0.0183489 0.00887132  -0.00665213 -0.153512 0.308734  -0.0833722 -1.26742 0.877386  -0.0441813 -0.485834 0.750287  -0.00510456 -0.142541 0.295974  0.00755434 -0.367484 0.384076  0.00104578 -0.132585 0.240887  0.164987 -1.31975 0.564315  0.0628561 -1.92802 0.77216  -0.00842044 -0.0947677 0.303398  -0.0410381 -1.28547 0.824444  -0.0345824 -0.32916 0.605251  -0.0206889 -0.391962 0.574411  -0.0297107 -0.477305 0.680281  -0.00249267 -0.161992 0.295526  0.000271663 -0.0424915 0.0490499  0.0309719 -0.0430903 0.0626342  -0.0445718 -0.36994 0.673934  -0.0131955 -0.0678635 0.262242  -0.0046657 -0.100562 0.244492  -0.010123 -0.267696 0.413203  -0.0271061 -0.349981 0.576551  -0.0155728 -0.467383 0.601402  0.0188725 -0.0439574 0.0244659  -0.000776947 -0.00185855 0.000277206  -0.00885837 -0.159039 0.330003  -0.000684947 -0.388608 0.439128  -0.0125282 -0.162361 0.358167  0.0344824 -0.12552 0.134738  -0.0433377 -0.465645 0.732022  -0.000133798 -0.0191546 0.0491325  0.0451919 -1.35029 0.721967  0.00857657 -0.0167505 0.0126543  -0.00580733 -0.0681997 0.054582  0.0153615 -0.037822 0.0159681  0.00455102 -0.139629 0.241269  0.0226003 -1.82098 0.807121  -0.19246 -0.119061 -0.101502  0.0785032 -0.75409 0.586356  -0.000298738 -0.00264342 0.000763446  -0.0437138 -0.483159 0.746639  -0.00238853 -0.332766 0.416005  -0.0611671 -0.396741 0.766127  0.150985 -0.482935 0.245991  -0.0167576 -0.399814 0.550071  -0.000646561 -0.105554 0.122271  0.0459583 -0.152651 0.142316  -0.0171353 -1.45803 0.813149  0.00843498 -0.296821 0.354695  0.00649868 -0.0833398 0.050936  -0.0059599 -0.448711 0.526267  0.00158535 -0.606495 0.643264  0.184831 -0.525964 0.33445  -0.0153271 -0.425155 0.572599  0.00237352 -0.0111237 -0.000271552  -0.082829 -0.0446817 -0.0525843  -0.0205366 -0.0496972 0.280494  -0.0130714 -0.12072 0.309019  0.00595851 -0.361868 0.391129  -0.00017336 -0.0197862 0.058116  -0.0703473 -0.0431204 -0.0473801  -0.0166975 -0.071983 0.310076  0.0127739 -0.113739 0.0797812  0.126758 -0.44117 0.275464  -0.0211226 -0.405048 0.588016  -0.0311181 -0.0151261 -0.0222732  -0.000353247 -0.0267165 0.0557822  -0.028758 -0.395854 0.614203  0.0515193 -0.62719 0.553142  0.000889331 -0.00190502 -0.00147564  0.00444043 -0.415944 0.45084  -0.0441692 -0.472415 0.740623  -0.0744294 -1.32727 0.872386  -0.0312504 -0.397491 0.626399  -0.0195742 -0.429745 0.591046  0.00427294 -0.233794 0.320205  0.00254571 -0.0103933 0.00408442  0.0202838 -0.246155 0.239744  -0.0427838 -0.0398123 -0.0365821  -0.00363819 -0.0498526 0.0466659  -0.0264487 -0.421975 0.624221  0.00557116 -0.0125964 0.0453962  -0.0559623 -0.353533 0.0311199  0.0978855 -1.29822 0.647991  0.0084817 -0.112775 0.167718  0.135813 -0.521203 0.39597  0.0042316 -0.2718 0.355635  0.156122 -0.481526 0.285705  0.00426006 -0.00911337 0.0175108  -0.000651747 0.00050801 0.00188401  0.000668347 -0.0191525 -2.08914e-05  0.05504 -0.132224 0.124092  -0.00290117 -0.0156532 -0.00916871  -0.00857878 -0.13937 0.31869  0.11762 -0.428775 0.271078  0.0579096 -0.746722 0.60508  0.00772327 -0.0549499 0.0377758  0.0497491 -0.145069 0.138814  -0.0194317 -0.401088 0.567376  0.00245869 -0.0392109 0.0501958  -0.00641043 -0.0307417 0.0158489  -0.00777295 -0.10869 0.277288  0.000731558 -0.00806507 0.00521582  0.0136859 -0.0542815 0.0173049  0.0346338 -0.0968 0.109356  -0.0131589 -0.0532048 0.267829  -0.0173043 0.00517553 -0.00880072  0.0608351 -0.13302 0.129521  0.00671237 -1.78003 0.82081  0.00326085 -0.00745723 0.013667  -0.000185624 -0.00162168 0.000650659  -0.0130809 -0.159806 0.358123  -0.0304645 -0.463765 0.674956  0.00927147 -0.136501 0.182753  0.043809 -0.105422 0.0986813  0.00628251 -0.0177442 0.0171543  0.00857418 -0.118928 0.12936  -0.00134289 -0.122833 0.248378  0.0014447 -0.00353625 0.000208953  -0.0152059 -0.159152 0.358254  0.00119649 -0.016017 0.0565529  0.0636739 -0.123546 0.124598  0.032236 -0.0648077 0.05286  -0.0149153 -0.109816 0.339887  0.0259075 -0.20885 0.211  0.0014509 -0.00424387 0.00408939  0.000975847 -0.0029254 -0.00168061  0.000103876 -0.0301706 0.0281397  -0.0376374 -0.427583 0.680748  0.00137058 -0.00272822 -0.000441286  -0.00525191 -0.122038 0.266689  0.01684 -0.124586 0.118085  0.106069 -1.62046 0.673627  0.0132592 -0.305638 0.336094  0.00260887 -0.0291312 0.0354785  0.0293561 -0.310402 0.199951  -0.021176 -0.0807432 0.335809  -0.0400684 -0.351993 0.641264  -0.00353709 -0.103855 0.246411  -0.00987912 -0.373653 0.494632  0.063577 -0.583966 0.513596  -0.0167699 -0.0896666 0.297856  0.0421013 -0.127362 0.128546  0.0181861 -1.35438 0.757744  -0.239466 -0.193531 -0.0474765  0.171362 -0.501053 0.305666  -0.247433 -0.189985 -0.0739301  -0.00602709 -0.147011 0.297472  0.0753436 -0.149433 0.116148  0.00514343 -0.0120125 0.0118814  0.00808284 -0.0119849 0.0261116  0.166553 -0.512621 0.34879  0.00269601 -0.243467 0.342618  0.0644305 -0.705194 0.576462  -0.162773 -0.105437 -0.0928675  0.139684 -0.465431 0.2594  0.00947234 -0.238418 0.30102  0.00322938 -0.00980389 0.0272057  0.00489101 -0.386225 0.446907  -0.00316694 -0.340781 0.449769  0.0210146 -0.141727 0.159457  0.00552337 -0.334561 0.370384  0.0053879 -0.0236243 0.0263789  0.0840634 -0.603214 0.501071  0.00980343 -0.11232 0.085584  0.00919312 -0.209273 0.269206  0.12088 -0.521152 0.409337  0.05238 -0.379654 0.173574  0.00102255 -0.00220114 0.000176866  0.000450075 -0.15802 0.2674  0.0770889 -1.55432 0.704265  0.00919718 -0.340402 0.130414  -0.00222644 -0.383256 0.459025  0.0315941 -0.166525 0.186693  0.00345147 -0.0146133 0.00633681  0.0207617 -0.621693 0.589789  0.0559485 -0.39686 0.159938  0.00703201 -0.0134567 0.0322233  0.0422565 -0.0433897 0.0927892  0.00503805 -0.0201679 0.0278255  0.0290901 -0.219847 0.177084  -0.00417501 -0.0448309 0.0346181  -0.0102645 -0.0816541 0.253505  -0.0088897 -0.301141 0.433768  0.00287354 -0.0089463 0.048578  0.00253049 -0.0317876 0.0412084  0.00445318 -0.221516 0.314426  -0.0100158 -0.00180969 -0.00614902  -0.0757038 -0.287231 0.0703387  0.0516357 -0.152214 0.14029  -0.00716378 -0.431932 0.51716  0.000818118 -0.190753 0.292721  0.0291285 -0.160694 0.169268  -0.00503677 -0.115865 0.263353  -0.000289754 -0.213574 0.30215  -0.156915 -0.12652 -0.0922406  0.0428403 -0.156894 0.144537  0.0143782 -0.0307783 0.0160403  -0.000727654 -0.00100781 0.000502735  0.0080509 -0.537375 0.537842  0.00967693 -0.0524434 0.0308227  0.0975119 -0.405995 0.24765  -0.00273283 -0.285912 0.384933  0.000802964 -0.00199775 -0.00200057  0.0224869 -0.150243 0.118162  0.0021509 -0.102243 0.158593  0.034716 -0.215751 0.169359  0.00956722 -0.0343532 0.0200511  0.00176464 -0.00445718 0.0010426  -0.02205 -0.0874047 0.325003  0.00239863 -0.0666761 0.0368425  0.115978 -0.454021 0.209775  0.0696213 -0.824976 0.621192  -0.00089322 -0.105534 0.22946  -0.00105821 -0.0271257 0.0459822  0.0138068 -0.0353806 0.0187643  0.0870389 -1.3582 0.669079  -0.156128 -0.145068 -0.0916388  0.00387926 -0.132011 0.152601  -0.000395346 -0.00496344 0.00302817  0.00205725 -0.00601667 -0.000634804  -0.000394493 -0.338791 0.431418  0.00680077 -0.0272721 0.0694024  0.0139755 -0.0167926 0.0315654  0.0109973 -0.0793138 0.0425203  0.00198957 -0.184041 0.289035  0.0489261 -0.108646 0.0836126  0.0773708 -1.79492 0.732272  0.0218784 -0.0183182 0.042174  -0.179249 -0.113406 -0.0969567  0.000529103 -0.0530351 0.0395786  -0.000785038 -0.0457041 0.0621331  -0.211547 -0.178818 -0.10072  -0.00246781 -0.152567 0.28229  0.000763953 -0.00443308 -0.000927918  0.00694287 -0.333568 0.360274  -0.11738 -0.240223 0.0650933  -0.0382517 -0.390585 0.657183  0.00602716 -0.0167943 0.0189832  0.0946997 -0.968704 0.611241  -0.00126043 -0.303117 0.408729  0.00909637 -0.574864 0.589369  -0.0076642 -0.0869714 0.247031  0.158839 -0.507124 0.354382  0.124489 -0.649599 0.483219  -0.000114143 -0.00253804 -0.000487953  0.00583647 -0.292416 0.336806  0.0182796 -0.132615 0.107271  0.0129473 -0.365824 0.364473  0.183726 -0.519204 0.319874  -0.0236596 -0.066712 0.328106  0.000900894 -0.00760052 0.00353033  -0.0038292 -0.0337445 0.0397616  0.00807251 -0.376437 0.0959433  -0.0234594 -0.402571 0.591226  0.0157916 -0.147622 0.140675  0.00643685 -0.0641662 0.042891  0.00851789 -0.240646 0.279497  0.0461618 -0.0898462 0.0730122  0.076567 -0.812368 0.60124  0.0057534 -0.123407 0.202232  -0.0321838 -0.357324 0.608583  0.00066404 -0.0256658 0.0402045  -0.00333668 -0.115522 0.25382  0.00793775 -1.86155 0.83251  -0.000725888 -0.454538 0.493981  0.0129176 -0.0190909 0.0271105  0.159727 -0.485401 0.284135  -0.0176634 -0.0820656 0.308926  -0.00898685 -0.0915643 0.0560035  0.145052 -0.472165 0.32641  -0.00105679 -0.00226784 0.000838697  -0.000553668 -0.0339739 0.0549944  0.0540474 -0.13748 0.128311  0.0127945 -0.113252 0.173785  0.0112209 -0.619347 0.618457  -0.00293134 -0.0424939 0.0373724  -0.00424388 -0.0190868 0.00401938  0.00102088 -0.00273286 -0.00149349  -0.116146 -0.104027 -0.076781  -0.152943 -0.0889405 -0.0866314  -0.087296 -0.321665 0.023761  0.00117135 -0.0018405 -0.000473827  -0.00184691 -0.00377202 0.00187373  0.104526 -0.429558 0.222632  0.0147879 -0.120265 0.111054  -0.00940964 -0.180548 0.347925  0.0101962 -0.141801 0.151724  0.00350785 -0.118645 0.200185  0.00790408 -0.164787 0.242858  0.0438697 -0.112569 0.108556  0.0169859 -0.351275 0.132685  0.0216648 -0.19006 0.21012  -0.0423927 -0.301089 0.0974905  -0.0112422 -0.436897 0.54982  0.0158241 -0.141092 0.104758  0.020831 -0.292189 0.179425  -0.0355237 -0.421296 0.664464  -0.0112992 -0.0729715 0.0395759  -0.00358439 -0.0269331 0.0244877  -0.00173656 -1.25679 0.771869  0.000613958 -0.0319195 0.0640907  0.00350869 -0.334576 0.387968  0.122713 -1.5157 0.640848  0.0142227 -0.0352056 0.0184086  0.149803 -0.58575 0.424416  -0.0249094 -0.353908 0.0711011  0.0095441 -0.115335 0.134069  -0.000431925 -0.00259554 0.000602067  0.0112771 -0.550405 0.545305  -0.000346199 -0.201914 0.306023  0.148404 -0.535155 0.393049  -0.0453809 -0.46939 0.745095  0.168344 -0.526562 0.36358  -0.0266086 -0.456175 0.646342  -0.0426283 -0.451594 0.718586  -0.0385625 -0.435765 0.692189  -0.00284174 -0.10071 0.23521  0.018217 -0.0382514 0.0263908  0.0731937 -0.399417 0.19299  -0.202764 -0.161438 -0.101812  -0.0171872 -0.441755 0.592833  0.00852859 -0.357305 0.401086  0.0462725 -0.155488 0.150189  -0.0181709 -0.444538 0.589553  -0.0169962 -0.109551 0.359832  -0.0019204 -0.107314 0.23807  0.0299371 -0.0580432 0.0457523  -0.0110327 -0.125435 0.325004  0.0414116 -0.132072 0.13063  -0.0157 -0.498362 0.627259  0.178274 -0.535304 0.360396  0.0628866 -0.413877 0.153373  -0.0141191 -0.0648102 0.0348556  0.0049687 -0.0957955 0.106574  0.0977592 -1.79868 0.706385  0.132452 -0.532034 0.407394  0.12564 -0.53231 0.414797  -0.0216874 -0.0922987 0.374578  0.0125298 -0.241802 0.26484  0.00419939 -0.765341 0.682571  0.0529614 -0.0844898 0.104984  0.00328448 -0.0356356 0.0137069  0.000866272 -0.349629 0.409862  0.0182611 -0.134129 0.142572  0.0120942 -0.34198 0.33852  0.00669599 -0.200307 0.285574  0.0271017 -0.403805 0.0979864  -0.1938 -0.214141 -0.00198919  0.0382284 -1.82251 0.786715  -0.0465828 -0.00313705 -0.0269082  0.0244457 -0.0430251 0.0319533  -0.0119855 -0.135819 0.324749  0.162949 -0.557253 0.395097  0.0569959 -0.128225 0.120715  -0.0167048 -0.110225 0.335592  0.00756974 -0.348124 0.363719  0.0103826 -0.175728 0.198915  -0.128083 -0.106546 -0.0810784  0.00529683 -0.0158738 0.00732563  0.0113554 -0.0293469 0.0143737  0.0521191 -0.148829 0.136703  -0.000714563 -0.0194989 0.00866066  -0.0067204 -0.0362361 0.0189543  0.0585525 -0.130884 0.125437  0.00134751 -0.00943053 0.0012942  0.0454028 -0.14299 0.136768  -0.0245935 -0.323031 0.0996931  -0.211436 -0.19053 0.00209019  0.0129198 -0.0323647 0.0227427  -0.0129021 -0.0972284 0.292567  0.0125153 -0.123507 0.095392  -0.0132825 -0.154768 0.353365  -0.0271585 -0.382958 0.597291  -0.0125684 -0.126329 0.30884  -0.00091058 -0.111644 0.233853  0.139462 -0.460288 0.277925  0.154085 -0.479686 0.304154  -0.0606611 0.00697786 -0.0295836  0.0108532 -0.106891 0.0897779  0.0388533 -0.367681 0.158337  -0.00268254 -0.148309 0.282364  0.000238389 -0.0229152 0.0135108  0.0060994 -0.0382523 0.0180424  -0.240022 -0.200944 -0.0740241  0.0123819 -0.180013 0.240694  0.0367997 -0.0725401 0.0487123  -0.0286404 -0.347644 0.582369  -0.0126763 -0.0880829 0.0509512  0.0174642 -0.13189 0.102698  0.000937864 -0.456311 0.514403  -0.00856504 -0.412202 0.532069  -0.0229156 -0.357354 0.559282  -0.0285451 -0.399401 0.617148  -0.214991 -0.227372 -0.0489045  0.0277806 -0.031202 0.0633815  0.00600132 -0.120357 0.182415  0.00315419 -0.218947 0.29847  0.00491717 -0.131702 0.207446  0.0007613 -0.33046 0.421161  0.152947 -0.480868 0.266857  0.00594331 -0.296689 0.341086  0.00198749 -0.00608788 0.00337255  0.0056904 -0.254112 0.337751  -0.0481481 -0.0723916 -0.0436133  -0.00582866 -0.461604 0.53011  0.0177558 -0.347088 0.347205  -0.00372598 -0.214714 0.34358  0.00872074 -0.36076 0.368444  -0.00162435 -0.442536 0.484477  0.0581784 -0.138198 0.13338  -0.201578 -0.139234 -0.102687  0.143603 -0.470467 0.258398  0.000194743 -0.03947 0.0669494  0.00243628 -0.00416344 0.00376675  0.000458911 -0.0307103 0.0508931  0.00706443 -0.288652 0.323483  -0.00599796 -0.355295 0.457316  -0.0325225 -0.429536 0.656196  0.0606283 -0.137216 0.133615  0.0254404 -0.293145 0.218676  -0.0208555 -0.412632 0.585159  0.00422642 -0.0144897 0.0308068  0.0214357 -0.318666 0.170115  -0.199739 -0.101332 -0.105458  0.153728 -0.486965 0.333312  0.023041 -0.0374379 0.0422367  -0.160925 -0.266999 -0.0124345  -0.000338644 -0.00298147 0.0011372  0.0156973 -0.0308742 0.0242679  -0.0086165 -0.927584 0.737775  -0.00275375 -1.91717 0.854807  -0.00472902 -0.230094 0.353154  -0.0179462 -0.442711 0.592476  -0.00176072 -0.103061 0.23333  0.068101 -0.13414 0.132399  0.0148251 -0.0228576 0.0316446  0.00278917 -0.263349 0.360338  0.00430378 -0.0155641 0.0435992  0.0127658 -0.0131572 0.0304727  0.00385426 -0.0187881 0.0241012  0.00344294 -0.257756 0.324722  0.0452381 -0.0745059 0.0881461  0.0147758 -0.258406 0.258182  0.0171795 -0.308637 0.321251  -0.0224659 -0.429751 0.611484  0.012976 -0.791756 0.689051  0.00196518 -0.00840215 0.00398088  0.00503017 -0.308661 0.355922  0.139321 -0.459871 0.294886  -0.00718722 -0.547282 0.631355  0.0597154 -0.136047 0.129651  0.00376037 -0.258167 0.346934  0.0250574 -0.262399 0.196729  -0.00335535 -0.384865 0.462474  -0.105331 -0.0440145 -0.0629067  0.00779398 -0.112411 0.1277  -0.0106328 -0.386121 0.505628  0.0976839 -1.81123 0.70825  -0.0432651 -0.00293678 -0.0244744  0.103729 -0.592468 0.473663  -0.0646152 -0.0177239 -0.0384618  0.0126848 -0.383349 0.372738  -0.0631466 -0.324728 0.0506167  -0.0510845 -0.484984 0.780818  -0.192907 -0.171857 -0.0996853  -0.253992 -0.177793 -0.0844644  0.122906 -0.473606 0.194094  0.00756538 -0.38809 0.431447  0.0785925 -0.398511 0.205569  0.0633938 -0.43186 0.132551  -0.00612407 -0.0470663 0.031131  -0.0136263 -0.154484 0.351864  0.0217177 -0.202735 0.207488  0.119472 -0.63612 0.481604  0.00567417 -0.377632 0.416213  0.00173357 -0.0389467 0.0252341  0.0383348 -0.135518 0.141373  0.0274723 -0.149333 0.171554  0.000250384 -0.479478 0.506588  0.104212 -0.417288 0.248514  -0.00918641 -0.068852 0.0430301  -0.0184747 -0.11812 0.367974  -0.0498659 -0.474781 0.769561  -0.0361179 -0.413222 0.663345  0.00282054 -0.0514185 0.0620815  -0.0222335 -0.0611371 0.298382  0.019486 -0.277521 0.281859  0.0013442 0.000261933 0.00550774  -0.0472007 -0.354585 0.673979  1.75536e-05 -0.0755979 0.196041  -0.0707606 -0.0964606 -0.0592619  0.00943358 -0.12501 0.129615  0.043936 -0.775185 0.634991  -0.126442 -0.295665 0.00135112  0.00496104 -0.0155893 0.0433478  -0.011662 -0.0974286 0.0515056  -0.00240699 -0.249387 0.358608  -0.25052 -0.170341 -0.0950315  0.00117274 -0.00228278 0.00202012  -0.00728203 -0.328436 0.445846  -0.0256287 -0.310478 0.11232  0.000831261 -0.101259 0.211745  0.000791997 -0.182175 0.286346  0.0631525 -0.674432 0.568534  -0.0369583 -0.418553 0.670019  0.0221692 -0.264099 0.206673  0.121135 -0.592836 0.457024  -0.00246675 -0.283463 0.378657  -0.234142 -0.201379 -0.0570231  0.0275363 -0.0297724 0.0586763  -0.068505 -0.285876 0.0787526  -0.0326318 -0.0113996 -0.0204661  -0.0123557 -0.0621915 0.0299407  0.0176392 -0.0199482 0.0393437  0.0053543 -0.255473 0.307882  -0.263568 -0.169258 -0.0582145  0.00478993 -0.0873339 0.074748  0.00265011 -0.0282664 0.0428687  -0.0311805 -0.420631 0.641857  0.0218546 -0.400882 0.0936548  0.00665572 -0.0991673 0.151201  0.0355503 -0.0889927 0.0942088  -0.000646934 -0.148994 0.267107  0.0617724 -0.142549 0.13812  0.00313616 -0.0132468 0.0271172  -0.000158384 -0.00423558 0.000107646  0.181783 -0.511413 0.292507  -0.0467388 -0.44092 0.733639  -0.00231665 -0.02236 0.0290636  -0.00012055 -0.143962 0.258886  -2.08616e-05 -0.000813857 0.00199279  0.0593786 -0.610848 0.5355  0.000291049 -0.00202961 0.00143752  0.061615 -0.122157 0.112443  0.0108339 -0.175643 0.227473  -0.0114072 -0.0158539 -0.00671148  0.00120638 0.000845149 0.000682473  -0.0919515 -0.105479 -0.068668  0.0205504 -0.189227 0.224912  0.0404375 -0.161459 0.144969  -0.000225842 -0.0896257 0.210115  0.00625315 -0.0119866 0.00490305  0.00887886 -0.187869 0.248861  -0.00144267 -0.00656737 0.00511414  -0.00763685 -0.199426 0.351754  0.0219797 -0.020458 0.0524684  -0.00390367 -0.0914932 0.240693  0.0937386 -0.649178 0.517568  -0.0308461 -0.00913578 -0.0199643  0.101363 -1.70875 0.689874  -0.0330154 -0.290222 0.118873  -0.0262406 -0.0642322 0.327118  -0.00834925 -1.4046 0.797804  0.0198366 -0.136885 0.103844  0.0690855 -0.132105 0.123451  -0.00146078 -0.0199227 0.0321565  0.052086 -0.813586 0.636042  0.0641888 -0.840108 0.629733  0.0690932 -0.136747 0.113388  -0.0139131 -0.0629771 0.0303756  0.0222216 -0.600831 0.567951  0.00457599 -0.333339 0.369868  0.00111125 -0.00919192 0.00392748  -0.0573637 -0.424398 0.769125  -0.0233146 -0.409818 0.601156  0.00246262 -0.766353 0.694632  -0.0424496 -0.389233 0.67597  -0.00252265 -0.136382 0.264827  -0.243651 -0.188834 -0.085716  0.00740242 -0.106659 0.128472  0.0703341 -0.433223 0.144082  -0.00360641 -0.0384561 0.0368099  -0.00937238 -0.623886 0.698531  -0.00954506 -0.0968522 0.267536  -0.00617057 -1.91865 0.859604  0.00500041 -0.00921682 0.0120375  0.00654536 -0.12938 0.216619  -0.0121118 -0.0903161 0.320062  0.0077775 -0.120069 0.151659  0.00376588 -0.336542 0.409633  -0.00390345 -0.162877 0.299296  0.0400976 -0.165741 0.153511  -0.000221416 -0.00851554 0.00314279  0.000125855 -0.25295 0.336041  0.00373603 -0.0218292 0.0115649  0.0489851 -0.60234 0.542288  -0.017824 -0.144482 0.375244  0.13442 -0.464877 0.239212  0.0388016 -0.165291 0.148651  0.000386417 -0.0240873 0.00206238  -0.00470921 -0.118504 0.262862  -0.00728175 -0.12885 0.292901  0.0360034 -0.159252 0.149298  0.0547939 -0.15554 0.144013  0.127402 -0.440255 0.284272  0.0246242 -0.282612 0.190768  0.00224118 -0.258263 0.326481  0.106429 -1.78674 0.693234  0.100034 -1.94284 0.726389  -0.128205 -0.227224 0.06538  0.00341195 -0.24442 0.343377  -0.0060109 -0.0384354 0.0238058  0.00443852 -0.0644897 0.0775722  0.0314143 -0.0407499 0.0673454  0.0619008 -0.146247 0.141321  0.0054487 -0.245435 0.327559  0.090416 -0.691072 0.53802  0.000514507 -0.0157875 0.0664271  0.0105053 -0.0258428 0.0213944  0.0149489 -0.123345 0.0924021  0.00711729 -0.11684 0.162089  0.00551674 -0.0125599 0.00646593  0.00481343 -0.033626 0.0310481  0.0135087 -0.025231 0.0246071  0.0271431 -0.0518034 0.0427948  -0.00590974 -0.116905 0.268328  -0.0332755 -0.415872 0.653423  -0.0160469 -0.944998 0.746004  0.0172366 -0.205976 0.231718  -0.0315142 -0.422224 0.646452  -0.0328392 -0.441299 0.66748  0.0283373 -0.921163 0.686792  0.00099501 -0.00205952 -0.00150466  -0.0506014 -0.316742 0.0720782  0.00211835 -0.291105 0.358125  0.0120147 -0.285014 0.330101  -0.00169384 -0.444282 0.521971  -0.00485812 -0.0360492 0.0302537  0.0010151 -0.00100359 -0.00110002  -0.000728711 -0.0185741 0.0316708  -0.22199 -0.201303 -0.0265691  0.0628682 -0.126271 0.12904  0.00960473 -0.14934 0.170999  -0.11823 -0.0898765 -0.0758017  -0.0365246 -0.0561586 -0.0380265  0.0122824 -0.248906 0.298842  0.0617804 -0.142725 0.139314  0.0168646 -0.221639 0.246744  -0.00143167 -0.288572 0.381667  0.00456677 -0.103165 0.173593  0.108097 -1.6423 0.673313  -0.0010003 -0.0216603 0.0383682  -0.128531 -0.131281 -0.0833457  0.0315183 -0.810984 0.664402  0.0642364 -0.126706 0.122776  -0.000841036 -0.0321825 0.0393977  0.00237729 -0.0764384 0.0608976  0.0664787 -0.418552 0.154482  0.0248666 -0.191361 0.205499  -0.000586502 -0.0340414 0.0515627  -0.223197 -0.161337 -0.0991036  0.0260232 -0.170007 0.163112  0.00325975 -0.00421563 0.00318086  0.00529355 -0.00245067 0.00954989  0.0114164 -0.0174451 0.0511169  -0.00127202 -0.0253412 0.0347131  0.125527 -0.449552 0.243937  -0.00928825 -0.159363 0.334534  -0.00598606 -0.0717388 0.273404  -0.000610709 -0.0239035 0.0529821  0.0210773 -0.024277 0.0450391  -0.00028348 -0.0776306 0.193115  -0.00111999 -0.409221 0.467773  -0.0109198 -0.14735 0.322357  -0.00870228 0.0464766 0.075953  0.0018889 -0.252403 0.353852  -0.00341608 -0.400896 0.480818  -0.00178294 -0.22861 0.340565  -0.00225502 -0.0932656 0.22577  -0.134226 -0.270155 0.0170553  -0.194969 -0.23207 -0.0210705  0.0228088 -0.210779 0.235525  0.0487468 -0.150064 0.144236  -0.212835 -0.227495 -0.0552767  0.00783628 -0.102581 0.108117  -0.0145343 -0.128125 0.35411  0.145393 -0.512058 0.377693  0.171793 -0.543394 0.375679  -0.0105733 -0.0813402 0.0468544  -0.0426919 -0.510244 0.761645  0.0689867 -0.144382 0.101758  0.0587981 -0.13523 0.0836889  0.0571294 -0.137801 0.126833  0.0414832 -1.32684 0.723824  0.00620615 -0.0178247 0.0266779  0.0086146 -0.105433 0.0716101  0.00317326 -0.0112723 0.0338089  0.103356 -0.741827 0.555479  0.12821 -0.977535 0.568653  0.00850488 -0.117777 0.112045  0.000307038 -0.0340166 0.0257401  -0.0436376 -0.426702 0.707044  0.00264707 -0.00494707 0.0137934  -0.00814845 -0.203634 0.357704  0.034065 -0.624799 0.573497  0.1429 -0.485171 0.219538  0.173749 -0.505103 0.269661  0.0603703 -0.139242 0.136855  -0.0230003 -0.473586 0.641521  0.0801454 -0.950358 0.62718  -0.230752 -0.162895 -0.101761  0.0604717 -0.126802 0.127238  0.00853857 -0.281565 0.307153  -0.00883734 -0.129493 0.297089  -0.0467142 -0.473388 0.753328  -0.0110497 -0.441292 0.568378  -0.0593258 -0.359165 0.731318  0.0125055 -0.0152121 0.0314458  0.000628392 0.000431016 0.00123182  -0.00493407 -0.121556 0.263201  0.0142996 -0.0120663 0.0323937  -0.00125 -0.00028877 0.000816762  0.112621 -1.4928 0.65157  0.0276695 -0.0529852 0.0409914  -0.189162 -0.248758 -0.031894  0.0183439 -0.777224 0.66576  0.0139916 -0.124209 0.0857334  0.00269582 0.0333134 0.0381039  0.00648819 -0.0190214 0.0105347  0.0515676 -0.154693 0.140067  0.000938773 -0.054968 0.0492676  0.000584386 0.00937119 0.0411972  0.0453519 -1.78186 0.772025  -0.0933668 -0.325997 0.0120011  -0.00810122 -0.157413 0.319847  -0.000215411 -0.00217587 0.0734791  0.0169369 -0.336337 0.1512  0.157584 -0.52717 0.377679  0.0524075 -0.116117 0.09812  -0.0415708 -0.444305 0.711241  -0.000376403 -0.00268061 0.00102249  0.00105646 -0.00179353 0.00187246  0.000147909 -0.0408985 0.0329288  0.00939214 -0.0646888 0.0471894  0.00254959 -0.0932147 0.172614  0.0143549 -0.0182927 0.033129  0.0524044 -0.148252 0.135528  0.00421949 -0.363531 0.40587  0.00242123 -0.0265782 0.0688045  -0.0824669 -0.250596 0.0946888  -0.0465389 -0.463939 0.74515  -0.016836 -0.424923 0.576751  0.0319076 -0.15669 0.173832  0.0658208 -1.51753 0.714391  0.0357002 -0.832013 0.664976  -0.0424984 -0.422877 0.698647  0.00153631 -0.00337383 0.00551782  -0.052703 -0.393554 0.7255  -0.00688055 -0.12611 0.278875  -0.0498887 -0.433181 0.740455  -0.0418999 -0.31922 0.630328  -0.120975 -0.0317102 -0.0680392  0.0619066 -0.133615 0.124645  0.0249073 -0.294422 0.238781  0.0992813 -1.63323 0.683873  0.0908531 -0.434014 0.1841  0.000697196 -0.0493028 0.0856604  -0.0096516 -0.111438 0.282246  -0.0469215 -0.47568 0.755377  0.00230265 -0.18474 0.282798  -0.00233808 -0.171828 0.297066  -0.00979057 -0.16112 0.33028  0.0393896 -0.338977 0.190694  0.0226476 -1.85153 0.811926  -0.0719472 -0.0626764 -0.0534315  0.00332448 -0.105701 0.158524  0.0272292 -0.315851 0.181499  0.00931893 -0.113904 0.097767  0.00026249 -0.00330359 0.151863  0.00255721 0.0278137 0.0732629  0.00235152 -0.15993 0.263045  -0.246226 -0.189119 -0.0733543  0.0152709 -0.20403 0.249567  -0.00312843 -0.0264578 0.034412  0.0074313 -0.10402 0.103527  -0.00190011 -0.017579 0.000326037  0.0516642 -0.122574 0.112918  0.00124145 -0.401313 0.47557  -0.00773215 -0.0978469 0.265044  -0.0968083 -0.242746 0.085931  0.0216179 -0.0337616 0.0432765  -0.0188023 -0.477362 0.625754  0.0927519 -1.96213 0.738929  0.110758 -0.421827 0.257616  0.0103979 -0.205561 0.270149  0.00672677 -0.322817 0.140419  0.0684867 -1.85364 0.752876  -0.012792 -0.122764 0.312507  0.00410703 -0.0103931 0.0185061  0.0847236 -1.5006 0.688342  -0.0299624 -1.59822 0.846265  0.0494857 -0.747681 0.622112  -0.00197414 -0.119218 0.248261  -0.0310317 -0.411314 0.637681  -0.00385354 -0.328909 0.411789  0.130463 -0.445446 0.291113  0.114347 -0.430788 0.247371  -0.0266644 -0.350247 0.0709903  0.00127324 -0.00538513 0.00196585  -0.243206 -0.189505 -0.0864584  -0.00298342 -0.0299404 0.0315424  0.00927678 -0.274033 0.334694  0.002994 -0.0116402 0.0322479  0.029533 -0.0537665 0.034411  0.135979 -0.497886 0.37684  0.117473 -0.520285 0.415214  0.0101556 -0.116288 0.069163  -0.0231878 -0.0566058 0.305343  -0.211699 -0.123268 -0.105324  -0.00445986 -0.141442 0.283799  0.0291273 -0.675949 0.615945  -0.245322 -0.171123 -0.0911218  -0.216971 -0.207389 -0.0261821  -1.56462e-05 -0.0314324 0.0553552  -0.244683 -0.164706 -0.0981847  -0.00188604 -0.121743 0.249779  -0.125522 -0.139151 -0.0834894  0.0217306 -0.0411437 0.0303763  0.0122018 -0.227335 0.274698  -0.0129485 -0.434228 0.576319  -0.0243084 -0.420507 0.61512  -0.248037 -0.14603 -0.104478  -0.0264527 -0.0405023 0.307223  0.0621883 -0.669126 0.564638  0.0144507 -0.0162528 0.0333574  0.0196257 -0.26311 0.232701  -0.00677696 -0.0657877 0.0472396  0.0198367 -0.139465 0.101429  9.18657e-05 -0.035066 0.050227  0.128658 -0.444134 0.274757  0.0343742 -0.927892 0.681487  -0.00520727 -0.91593 0.729038  0.00119495 -0.0312799 0.0680236  0.0159914 -0.263633 0.291028  0.115776 -0.463262 0.195168  0.135329 -0.969132 0.559801  0.0108461 -0.0784438 0.0492854  -0.217644 -0.22624 -0.0586818  -0.044413 -0.480947 0.747438  0.00797666 -1.60655 0.797897  0.0529903 -0.150595 0.137626  0.00573513 -0.191787 0.274471  0.170293 -0.506748 0.330656  0.0214627 -0.280267 0.241671  0.000573918 -0.395927 0.442336  0.0837339 -1.64942 0.705744  0.0665804 -0.805972 0.617763  0.0135302 -0.61574 0.617006  0.0153668 -0.314664 0.298332  0.000426307 -0.0215005 0.0617964  0.0368409 -0.158027 0.164354  0.00468877 -0.0336854 0.00763699  0.0978471 -0.833172 0.583663  -0.0107582 -0.064017 0.0340811  0.0240698 -0.285697 0.206233  0.00103995 -0.0834402 0.196743  0.0353369 -0.151501 0.156899  0.00443518 -0.00992724 0.0102481  0.0621437 -0.39698 0.171475  0.134006 -0.47974 0.205481  0.183058 -0.526054 0.339747  -0.25039 -0.171499 -0.0281617  0.153338 -0.554051 0.400548  0.0507574 -0.368764 0.179333  -0.020566 -0.0221121 -0.0183549  0.00172864 -0.0225608 0.0569684  -0.180191 -0.260524 -0.0336857  0.0228413 -0.221371 0.240137  0.00379522 -0.115105 0.152438  0.0673363 -0.127356 0.114643  -0.000520527 -0.224747 0.337804  0.0102583 -0.181698 0.242636  -0.138952 -0.21378 0.0660043  0.00466427 -0.270976 0.319754  0.179254 -0.509842 0.305347  -0.0223269 -0.0236623 -0.0229216  0.0116326 -0.20392 0.2509  -0.00574057 -0.397211 0.484095  0.000700265 -0.0181159 0.0565868  -0.0115235 -0.143044 0.335207  0.00989391 -0.122954 0.1335  -0.00850686 -0.431193 0.544419  -0.0240204 -0.0501934 -0.0284987  -0.246187 -0.177066 -0.0913606  -0.14014 -0.254036 0.0253258  -0.0139069 -0.0706367 0.0356229  -0.264674 -0.163111 -0.0891144  0.0581378 -0.127879 0.114295  -0.0043283 -0.18 0.315801  0.00904731 -0.336869 0.351046  0.000163198 -0.0173355 0.0525846  0.00593409 -0.403044 0.454374  9.69321e-05 -0.0327282 0.0468919  0.0276207 -0.295393 0.220959  0.00817829 -0.0225345 0.0119438  0.104187 -0.841485 0.581016  0.00840065 -0.0451239 0.0335879  0.153716 -0.512004 0.364888  -0.00592318 -0.0191869 -0.00861484  0.0338483 -0.724421 0.633526  -0.00408864 -0.668713 0.707819  0.00827751 -0.0978744 0.0976543  0.0682818 -0.131003 0.115007  0.00774436 -0.379504 0.0933095  0.0022313 -0.102232 0.208063  0.0141701 -0.286672 0.279905  -0.0395854 -0.425714 0.688213  0.0587728 -1.85755 0.766127  0.178881 -0.542123 0.366319  -0.0279394 -0.413284 0.621734  0.0298358 -0.80514 0.666506  0.0736635 -1.78973 0.736603  0.109165 -0.449235 0.201454  0.0847149 -1.67388 0.707449  0.0787289 -0.952179 0.627295  -0.00623965 -0.13307 0.284732  -0.240389 -0.192873 -0.0812155  0.0148618 -0.290623 0.319945  -0.00412232 -0.126879 0.266199  -0.00534791 -0.110364 0.260096  0.043965 -0.376915 0.15869  0.0237751 -1.88203 0.815198  0.0191783 -0.0157174 0.0381521  -0.0273384 -0.0387195 0.302433  0.0159962 -0.231008 0.260974  0.051621 -0.666824 0.577037  -0.00285842 -0.00769605 -0.0038771  -0.00132033 -0.314822 0.399584  0.0100146 -0.103127 0.106024  -0.135599 -0.14681 -0.0881042  0.000659138 -0.00406216 0.00147411  -0.00149623 -0.010916 0.00206818  0.00397165 -0.331229 0.377996  -0.0399819 -0.352707 0.645303  0.0201187 -0.0276577 0.0450584  -0.0303137 -0.481314 0.684397  0.0719766 -0.406801 0.181124  -0.17678 -0.207353 0.026847  0.00156954 -0.00367254 0.00295317  0.0190814 -0.031545 0.0310488  -0.0265405 -0.0481958 -0.0261164  -0.0859204 -0.262699 0.0808381  0.0416252 -1.88754 0.793048  0.030024 -0.173984 0.187788  0.0131734 -0.215778 0.265498  -0.0528172 -0.343566 0.694454  -0.0369922 -0.391522 0.653748  0.00806069 -0.0245689 0.0120947  0.0564894 -0.090152 0.119619  -0.000503883 -0.0292609 0.0590519  -0.0107447 -0.340631 0.101352  0.0118637 -0.356499 0.12152  0.00935288 -0.117327 0.091222  -0.00211704 -0.458374 0.533796  -0.0208694 -0.435306 0.603825  0.00801232 -0.286595 0.35403  0.00325122 -0.409548 0.474307  0.00188325 -0.0270792 0.0642  -0.0583151 -0.00642049 -0.0322367  -0.101729 -0.0344259 -0.0587285  0.0339899 -0.371465 0.146868  -0.00295416 -0.129533 0.262133  -0.0131419 -0.0807391 0.04021  0.136364 -0.468135 0.237293  0.0238957 -0.353338 0.147927  0.00983495 -0.260383 0.319599  -0.00176339 -0.0288148 0.0342019  0.00702384 -0.264105 0.337916  0.0686929 -1.73304 0.735553  0.0959593 -0.838058 0.592654  0.00623779 -0.346298 0.373939  0.00883374 -0.326303 0.341691  -0.14328 -0.228327 0.0454466  -0.00940222 -0.135031 0.303254  -0.0068323 -0.121613 0.275659  0.00193229 -0.00517279 0.00326113  -0.00707281 -0.122742 0.27632  0.152829 -0.478085 0.299549  0.0700441 -0.422974 0.156498  0.0106054 -0.266859 0.325466  -0.000226378 -0.0324304 0.0549517  0.000219598 -0.0363962 0.0418005  0.0263394 -0.299595 0.198408  0.0288397 -0.0553852 0.036869  0.000515103 -0.0284276 0.0019134  0.0289579 -0.0711114 0.0791859  0.0610607 -1.76432 0.749395  -0.00730181 0.0336148 0.0492564  0.00500064 -0.116399 0.171272  0.000279307 -0.177668 0.302908  0.038924 -0.112345 0.0590412  -0.268814 -0.166607 -0.0564056  -0.227508 -0.180177 -0.0960861  -0.024232 -0.438427 0.619146  0.0120772 -0.0191606 0.0332751  -0.00486524 -0.178027 0.317211  -0.0130247 -0.0838614 0.258982  -0.0102998 -0.0849085 0.0788501  0.0149692 -0.0437016 0.0110058  0.0060733 -0.0112512 0.0234106  -0.0346054 -0.490705 0.711469  -0.0395642 -0.471139 0.719046  -0.02619 -0.529033 0.702737  -0.0408079 -0.484492 0.733705  -0.0352573 -0.503562 0.723032  -0.0350962 -0.51573 0.730932  -0.0249915 -0.551021 0.712324  -0.0205132 -0.466851 0.635663  -0.037001 -0.458017 0.698826  -0.00120403 -0.0590157 0.0750716  -0.00648018 -0.16099 0.315889  0.020407 -0.038748 0.060302  0.00199558 -0.167872 0.174815  0.00911345 -0.220697 0.23257  0.00357398 -0.0424837 0.0192311  0.160681 -0.539922 0.383943  0.00565046 -0.0999779 0.164672  0.0156177 -0.108199 0.16166  -0.0217249 -0.425019 0.609444  -0.0687757 -0.260851 0.101677  -0.00167636 -0.100024 0.242157  0.0422539 -0.0465178 0.0915548  -0.0579082 -0.28084 0.0972079  -0.0133695 -0.0725742 0.0351137  -0.0131129 -0.0876501 0.0449178  0.119664 -0.573334 0.446273  -0.00390905 -0.441636 0.534895  -0.197866 -0.177922 -0.10184  -0.233172 -0.184757 -0.0218868  -0.231437 -0.185762 -0.0932461  -0.250601 -0.184558 -0.0750698  -0.248319 -0.180179 -0.0468014  -0.0722426 -0.096271 -0.0586512  -0.0394595 -0.495561 0.736205  -0.0276826 -0.540448 0.715872  0.00358936 -0.00757796 0.0195682  -0.00491579 -0.0077627 0.018029  -0.0063549 -0.0300139 0.0604815  -0.180418 -0.189224 0.0423115  0.0522742 -0.082857 0.112051  0.11375 -0.547357 0.436485  0.0407637 -0.677492 0.59608  0.00133636 0.00616813 -0.000777304  0.00828928 -0.349335 0.366251  0.0717792 -0.136228 0.115008  0.0056178 -0.0127644 0.0199533  0.0733881 -1.93281 0.759278  -0.0115888 -0.114244 0.30816  -0.00695103 -0.119089 0.276921  -0.00505897 -0.113832 0.260092  0.0053972 -0.0964627 0.200559  0.0183607 -0.190983 0.242022  0.00265834 -0.0193018 0.0556885  0.00305405 -0.0265193 0.0748183  0.0330342 -0.0285537 0.0766267  -0.0548477 -1.50396 0.86678  -0.0170167 -1.81137 0.856125  -0.0167085 -1.8821 0.867098  -0.0319854 -1.74677 0.865555  -0.00856449 -0.0584832 0.0365189  0.00323796 -0.418662 0.477245  0.123522 -0.504921 0.39675  -0.0369437 0.0022307 -0.0177209  -0.166938 -0.0784131 -0.09321  -0.13412 -0.0571801 -0.0775488  -0.0495703 -0.506854 0.79148  -0.269096 -0.159634 -0.0549792  -0.270022 -0.15411 -0.0960508  -0.133768 -0.240042 0.0459622  0.0375735 -0.358603 0.167325  0.0211059 -0.34539 0.147231  -0.248038 -0.171826 -0.0283947  -0.182936 -0.207083 0.0176923  0.0412389 -0.0456317 0.0906321  -0.0120388 -0.0497627 0.0407075  0.00393099 -0.0186344 0.0311805  -0.0101854 -0.561815 0.656879  0.00113616 -0.280202 0.36097  0.00111848 -0.332383 0.397628  -0.0107659 0.0288125 0.0870874  -0.00275105 0.00848585 0.0696322  -0.00187117 0.0135476 0.0336886  0.00685084 -0.280839 0.313898  0.110462 -1.7084 0.677913  -4.83096e-05 0.0518616 0.0472841  -0.0053851 0.0471165 0.0947703  0.00232977 -0.136146 0.257782  0.00346829 -0.0843276 0.0764699  -0.255795 -0.15517 -0.101092  0.16194 -0.506018 0.346918  0.070732 -0.637055 0.535637  -0.0140373 -0.376313 0.064266  0.134489 -0.474934 0.215659  0.0062677 -0.10785 0.175849  -0.0310487 -0.470701 0.68339  -0.033155 -0.475673 0.694986  -0.0225298 -0.490396 0.660353  -0.0242762 -0.510023 0.682087  -0.0136018 -0.0803004 0.0413412  0.102825 -0.438217 0.204876  0.0229059 -0.11774 0.150567  0.00401822 -0.0106305 0.0288476  0.0287159 -0.289058 0.200712  -0.039728 -0.504105 0.74265  -0.0289263 -0.54466 0.724205  -0.0337279 -0.525629 0.731661  0.00828429 -0.17707 0.189708  -0.00572619 0.0535707 0.0456222  -0.0115154 0.0397027 0.108598  -0.00924411 -0.194168 0.35512  0.026691 -0.142577 0.183261  -0.0139936 -0.37965 0.536524  -0.00291581 -0.6028 0.661189  -0.0498523 -0.028581 -0.0315721  -0.126083 -0.0956594 -0.0791435  -0.226033 -0.210996 -0.0445598  -0.244448 -0.192339 -0.0825203  -0.100529 -0.294907 0.0334732  0.0896551 -0.442055 0.171478  0.105864 -0.791619 0.566873  0.0964353 -0.789347 0.578694  0.0129242 -0.431784 0.417392  -0.00258529 -0.116887 0.246534  0.0250769 -0.0406315 0.0385518  0.0106471 -0.315138 0.321316  -0.00185513 -0.240693 0.357126  0.0149288 -0.267968 0.3089  0.00251704 -0.214581 0.315851  0.021656 -0.235083 0.257232  -0.228733 -0.170931 0.00407308  -0.272837 -0.159838 -0.0505549  -0.165328 -0.203729 0.0447434  -0.0306409 -0.517002 0.711471  -0.00819975 -0.0771044 0.0523564  0.0152142 -1.87402 0.824752  -0.00884628 -1.52747 0.810077  -0.0144948 -0.536213 0.651585  -0.0370453 -0.473382 0.710287  -0.035661 -0.492636 0.717341  -0.0240283 -0.4944 0.664224  -0.0292313 -0.504721 0.696509  0.0400376 -0.417975 0.106082  -0.0271962 -0.372834 0.0489761  0.00588988 -0.394703 0.0740285  0.151384 -0.489096 0.229873  0.108437 -0.466193 0.174678  -0.248416 -0.176511 -0.091436  -0.24387 -0.172657 -0.0945989  0.159682 -0.532797 0.380212  -0.232654 -0.209896 -0.0731755  -0.152168 -0.284517 -0.019897  -0.0937794 -0.32728 0.0103328  -0.151781 -0.0603946 -0.0842847  0.0577752 -0.722867 0.600139  0.0869711 -0.693931 0.550768  0.0146732 -0.0422398 0.0720734  0.0867368 -0.53844 0.459326  0.0354584 -0.367834 0.15225  0.0367848 -0.730404 0.624757  0.146295 -0.473046 0.260729  -0.092326 -0.00693277 -0.0487279  -0.0909621 -0.312227 0.0272786  -0.264216 -0.156768 -0.0978268  0.0443189 -0.665288 0.586272  -0.211254 -0.219347 -0.0392533  0.0605659 -0.595662 0.520346  -0.172397 -0.0675403 -0.094585  -0.177854 -0.249519 -0.0214458  -0.0333478 0.0100222 -0.0141397  -0.231006 -0.185737 -0.0958451  -0.197675 -0.213829 -0.0059779  -0.0345752 -0.317893 0.0933474  -0.00351422 -0.347876 0.108422  -0.0559629 -0.0602931 -0.0423501  -0.132041 -0.130185 -0.0856232  -0.000508934 -0.000685319 0.000416696  -0.00324416 -0.351662 0.102756  -0.255759 -0.177338 -0.0803424  0.103306 -0.432591 0.214824  
SCALARS smooth_stress float 1
LOOKUP_TABLE default
180.177 139.336 106.646 152.412 142.952 261.717 119.02 115.73 164.328 325.088 89.6656 90.1529 132.835 564.099 86.9685 81.7885 118.184 229.539 1094.66 279.221 1499.58 226.712 319.983 2362.86 480.349 68.3104 71.8471 105.999 177.869 1626.47 82.7563 336.522 408.817 122.971 137.821 53.5292 86.9043 138.134 189.593 166.288 261.411 305.002 195.726 301.782 524.982 533.301 159.694 658.058 235.042 716.987 848.977 422.38 260.87 1090.24 563.475 428.807 442.564 820.23 183.332 528.663 454.042 370.765 1916.34 1934.34 2512.61 699.226 956.812 467.233 643.594 1322.25 427.823 332.509 490.582 285.652 2008.41 240.066 656.584 548.184 388.009 2519.54 970.225 709.628 637.378 341.023 1529.25 210.832 196.67 4274.49 2074.63 128.062 4399.5 124.375 1193.01 1057.5 3029.02 82.0548 86.4039 4678.17 48.2315 1082.98 256.675 1893.51 4058.95 401.581 2236.63 176.891 222.423 144.86 177.043 674.055 3039.6 3060.1 5512.49 853.134 162.04 661.525 77.4071 70.3484 116.98 140.872 778.133 3058.51 1126.63 1164.5 451.604 1281.96 99.3845 306.627 727.437 1278.76 883.851 2276.16 4556.99 488.867 1065.36 2924.52 1501.08 810.016 3087.03 975.169 1006.48 1599.22 6118.38 1120.24 3522.56 357.597 7321.29 369.059 717.83 8516.54 5914.53 143.125 2211.78 2568.38 1988.26 2065.19 2148.21 1427.08 370.064 975.598 1393.67 2110.39 2957.23 1079.8 2302.56 1625.38 3092.56 223.663 6730.79 2302.25 419.355 2494.17 1337.68 1826.76 1215.93 958.585 2573.05 1930.53 3291.82 3127.8 2050.71 3016.98 1654.27 11734.7 1978.23 3472.61 4276.03 3981.49 3770.25 845.741 3745.78 7906.18 3361.49 731.455 6505.58 1920.2 688.4 4567.6 4225.35 4811.77 6302.87 4704.25 734.842 1405.36 5154.37 1632.03 3141.09 1093.9 1783.58 4317.89 2212.65 8030.79 1164.55 3009.43 4828.97 4489.48 6043.44 4463.58 3884.56 2021.69 1198.61 792.312 2770.3 5848.43 852.358 10468.5 5926.94 4755.16 761.024 4118.01 5094.27 911.142 954.517 3249.05 5939.33 1514 13123.3 4105.3 5103.78 2197.58 903.413 1830.24 1719.93 1546.57 4029.47 565.584 4504.53 3921.57 7546.24 3114.57 4196.55 1378.05 3836.11 2917.41 5527.57 2051.4 2047.42 2488.01 4956.97 367.712 6461.68 1369.79 2472.73 1064.82 2369.17 4484.47 3645.52 1501.24 2589.18 2611.16 223.135 2205.16 3255.46 3292.7 6097.55 2760.65 742.423 2925.42 3828.01 3085.85 626.077 1782.94 3794.67 3930.77 3819.75 218.484 152.271 2765.31 3313.12 7847.66 2587.4 391.576 4902.51 3524.62 6890.71 3403.42 2945.95 2238.06 3237.81 2331.96 4348.12 87.3954 4362.49 3437.81 1166.22 1315.84 2435.66 1705.71 1752.99 8429.32 2577.06 2986.36 2977.11 2309.67 4248.16 7367.32 2378.79 5983.77 3844.19 2847.8 1337.65 5016.14 988.983 2817.6 2823.47 3593.35 161.377 2548.22 3259.48 403.593 3294.25 3560.84 514.831 2915.39 3552.02 2530.58 8788.94 4671.67 4455.7 2404.79 2761.39 2236.17 4751.66 8924.9 5811.04 2304.98 3744.18 3770.63 4173.13 2753.09 2822.89 339.919 262.802 2624.21 2624.44 753.956 1001.06 9718.98 2937.63 2918.23 583.738 2447.43 2201.8 10276.8 5506.1 3432.03 10180.2 3705.83 2507.13 4004.41 5717.83 4341.98 1840.59 2545.69 2521.51 2238.43 3284.42 2733.9 5841.32 7384.29 2370.71 2156.82 1867.65 2744.91 3401.88 4142.31 1975.07 2761.91 62.9455 69.4438 66.6992 125.175 2475.52 2374.38 3224.05 5052.72 2435.88 2355.14 2236.54 9515.23 10563.8 1746.43 4222.04 3889.63 1902.17 2184.45 3886.08 2889.72 4685.09 2992.32 5434.39 7960.83 2812.73 1318.75 3364.75 3640.53 1492.48 3210.9 4017.49 2521.02 3928.85 3176.36 3098.18 4440.4 2701.29 2613.94 2784.45 2305.67 10339.1 1923.46 4130.6 2350.08 3928.81 1604.4 4004.37 4294.74 4635.14 2260.47 2093.52 1784.72 3246.98 3646.21 6693.23 1552.32 3513.99 2907.06 2643.38 1745.84 2189.44 2416.43 1128.51 2021.2 3398.2 9119.38 1891.9 1641.41 1738.72 1408.48 9760.11 3862.23 4264.64 4478.43 1872.11 1740.17 3406.26 3711.77 1623.09 5177.66 2546.25 1468.65 2238.14 2626.23 4211.97 2338.6 2900.32 4585.64 2235.66 2540.28 3940.33 2687.37 2452.53 4760.38 2031.46 3202.53 2430.81 4568.84 2215.43 1811.27 1652.88 2247.21 2585.67 4239.31 3449.83 4542.35 2859.29 5911.7 4884.58 2265.76 5766.18 1920.08 5166.2 2861.8 4762.84 1371.93 1461.6 2155.72 1622.46 3763.01 2472.6 2945.31 1542.37 4072.68 3212.04 1017.03 3614.43 4235.65 3463.07 3297.26 2066.52 4019.71 1517.48 6500.26 4687.29 3792.35 3431.54 2001.32 2255.14 4819.75 1363.92 2249.87 1959.46 5493.9 2090.64 2895.98 5432.22 1769.81 6224.27 1325.05 4014.08 794.465 5108.61 8102.1 3655.81 2540.35 2121.57 1968.71 2177.4 2507.4 3742.71 1178.22 6486.31 2535.55 2877.84 5256.16 4534.99 1138.62 3115.72 4384.49 1993.65 1304.79 2628.01 1294.46 2566.18 1501.7 1414.73 3709.45 2169.34 3354.77 5526.4 1835.69 2432.87 4771.95 2255.1 4018.67 2603.01 3610.42 8068.48 1972.79 3053.83 3353.82 1582.94 1452.39 4053.25 1710.36 1732 5357.92 733.334 1641.06 1812.09 2070.96 2507.92 5166.88 1139.42 2204.45 3562.69 5182.21 2888.84 2397.58 1721.78 2198.44 1876.74 3320.4 2154.7 2585.49 2570.24 1269.92 3122.96 7209.6 3577.07 4626.26 2385.38 3612.62 2283.86 1680.38 7683.72 2486.56 2024.78 2472.72 2175.2 1546.8 1969.93 4767.66 4510.75 6113.41 5224.47 2817.83 1303.8 5036.92 1381.75 610.111 5559.76 3866.56 2204.2 1004.33 4564.64 1393.45 1245.4 5398.44 1460.3 2296.16 1813.13 1423.29 1063.58 1858.31 2683.52 1409.27 1104.11 2457.48 3157.49 1191.66 2793.23 3323.33 1079.85 2045.77 3904.87 3760.32 849.549 1646.17 961.128 1661.53 1224.33 3985.26 6355.72 1670.52 1256.57 1521.19 1099.31 2706.88 4146.64 2420.01 2227.1 1544.13 1831.41 2580.55 3973.59 1431.54 5249.34 4514.1 1603.57 2179.82 1501.82 5817.73 8565.68 1934.65 6774.12 1505.25 5868.37 3426.71 1808.38 1488.55 2693.5 1479.2 1652.74 2163.63 2338.23 1417.47 1609.01 2037.22 1959.62 1235.4 3359.84 1756.5 1684.08 3730.71 1566.89 1573.92 2165.97 6255.7 4525.69 2461.71 1574.47 1592.88 4744.68 1347.79 1245.13 5368.4 1417.9 2043.14 915.42 3366.55 1014.18 1694.7 3909.82 4503.95 4749.09 3870.76 2807.14 2011.83 3784.17 2600.58 760.683 1509.1 1800.5 4379.58 816.972 1416.9 2041.8 2857.05 1404.71 2048.07 1536.12 1866.17 2471.74 1069.71 5421.47 3681.13 2483.01 160.507 7233.19 1506.66 767.856 1761.08 853.018 3620.19 6017.89 2860.71 3396.29 1289.69 1562.27 1610.74 4799.61 5242.56 1018.1 7673.29 4593.13 1523.33 2196.65 2819.56 1120.63 3998.84 1671.92 76.8912 58.7834 131.77 89.7788 1508.58 6343.28 2186.21 3621.81 3258.07 4561.52 1372.12 1484.48 3956.14 1488.53 4269.73 470.143 296.82 562.646 658.437 819.035 592.781 2056.15 1557.11 58.29 954.977 1284.91 4981.24 877.156 3769.13 1015.6 2306.52 4570.96 3086.32 3907.88 696.802 1462.79 5393.52 2105.45 5562.6 1505.89 1422.46 1669.9 2099.62 864.347 2582.03 3577.32 5911.03 1317.9 2419.46 1728.35 1529.76 3690.81 4409.31 1845.58 690.952 1342.63 898.433 5491.8 4833.83 1609.81 6697.83 3367.73 1628.02 3033.37 2979.13 3796.66 4649.25 4457 4770.71 1544.48 3471.91 5234.94 1043.56 1407.28 1209.78 1595.63 1851.58 2099.21 5660.23 4201.39 748.052 1851.88 1305.24 984.767 1240.03 1403.73 2938.33 3035.52 1057.48 1564 3444.32 4690.23 4075.24 4636 4603.02 3473.75 3375.53 2871.9 3889.36 4251.46 863.215 3188.4 4841.58 2508.02 2970.98 2721.09 3138.53 718.153 1465.09 1898.39 2091.1 1379.57 9739.75 2873.93 1549.73 2800.85 10427.9 3451.3 2353.28 2657.75 1311.28 2475.23 2797.68 3740.3 3405.01 837.556 1172.47 905.368 1361.95 3315.16 9997.27 887.629 3862.71 1952.68 4040.84 4169.7 2181.47 2012.89 1780.1 5162.84 3671.54 1874.84 4215.81 1778.47 2471.64 1773.58 2493.19 1508.35 762.916 3456.35 1732.76 2051.35 1963.05 3824.67 2796.86 5584.27 1980.24 2549.13 1540.21 5688.3 3482.83 5411.62 3478.25 1180.79 1001.86 78.0923 405.338 622.714 2142.28 4072.72 5463.2 5902.31 4062.06 5931.28 1258.7 3600.28 4734.89 1873.38 817.81 5936.17 5693.97 4567.64 1774.16 1144.6 4174.11 3234 4937.06 6226.06 3596.44 4260.57 1272.92 6190.15 5534.12 4166.22 1546 2752.4 1154.23 864.758 2809.73 5527.67 1146.9 6865.69 429.938 1649.76 1385.26 2774.97 3603.37 5567.69 4057.18 1177.59 3584.7 5659.51 2860.76 1575.16 5277.15 8756.61 6555.49 1376.14 4028.81 4818.9 7588.28 5503.39 1170.51 1930.27 3196.79 1503.23 4726.17 3476 2934.23 1661.31 5112.51 1153.61 3659.26 1242.17 2134.93 1457.75 4855.17 5545.28 1645.8 1021.28 1144.45 3323.63 7317.79 2943.03 7847.88 6256.93 6400.17 2718.84 5203.98 6696.78 5569.17 4270.95 2217.59 2417.04 2399.51 1439.61 10209.2 1797.34 1018.48 9094.52 4028.53 3541.65 3492.37 1494.23 2070.84 4023.44 1870.45 1939.33 1837.37 1341.28 4092.56 9131.98 2976.45 3144.82 1125.58 6831.37 1344.36 2431.26 3589.25 5643.93 3613.27 1361.36 7071.95 1569.45 3700.4 1998.37 1636.81 2012.71 6141.21 644.041 2434.56 3451.1 2872.77 1876.68 446.385 1791.88 3361.95 679.04 2976.87 5761.97 1005.78 2782.65 4208.91 2666.19 1995 2438.88 1553.25 1159.09 5169 7189.15 2224.03 4171.77 7302.52 313.111 4608.62 2388.45 1391.23 1286.51 1218.03 2070.69 2902.99 1320.65 2604.93 1402.89 3294.06 8800.87 2797.5 1496.72 1683.09 4102.09 2858.74 5662.23 5167.16 4003.46 2111.95 3047.46 6799.9 2252.36 2277.67 5928.26 2860.89 5537.12 1299.51 2068.08 1555.05 425.161 2051.01 7600.3 1694.2 1605.99 4372.83 3855.01 8291.57 2897.39 1332.88 766.766 1367.62 2008.75 9613.44 3252.67 2328.97 2290.16 387.141 8907.28 4620.65 4982.95 724.557 1193.41 3075.27 548.151 1362.8 11218.7 6249.1 1635.95 2156.7 3458.63 1622.83 1334.94 5818.1 2331.74 2247.82 3962.88 1104.96 1848.53 6543.64 6563.37 2966.27 3395.17 4465.16 1400.53 1445.41 1216.98 3140.06 1914.04 3051.19 807.131 655.996 10952.2 3249.49 3910.62 4050.25 1399.23 2055.04 3842.76 1941.05 2849.15 8299.74 1003.72 3286.1 2533.1 2531.25 5296.28 3706.93 90.4841 129.805 127.335 75.5883 1413.9 1679.85 1532.02 1301.59 3447.68 2850.03 2673.01 1144.94 4402.98 6532.24 6702.09 4124.65 998.472 2084.18 1607.37 11687.3 2773.06 7105.22 2795.3 3788.46 3527.03 6996.99 977.149 2800.83 1460.86 1913.03 1684.1 2088.36 335.917 11329.1 1269.59 2307.56 648.177 6303.24 2943.81 1933.33 1308.14 3326.74 558.852 3766.31 1093.72 4031.16 5450.51 1473.48 1592.65 2973.43 10044.7 1580.88 1898.71 1154.66 1636.3 4349.03 2657.26 1558.81 603.128 5794.99 1117.79 1453.16 1118.23 1835.39 1679.2 3779.5 2624.51 3614.55 3542.07 2068.1 8769.99 1525.55 3488.22 1872.56 2308.85 6445.08 1215.36 928.082 2003.17 3256.96 1628.51 7816.11 2523.25 1647.75 2014.01 5402.74 3000.32 9833.59 4119.71 2027.59 3000.92 2401.43 5633.15 1383.55 2172.55 9012.58 2836.35 6754.41 3757.95 3550.38 3376.04 3367.72 1981.36 579.38 3605.84 4404.91 3293.54 3949.93 3288.66 996.929 297.058 5132.28 4724.46 6040.58 4944.73 508.321 6247.45 3072.03 2513.09 6126.82 3204.25 7663.17 2107.96 4337.84 2044.54 2240.65 3018.14 2435.09 3889.61 2436.1 3434.22 3279.85 4845.41 4499.6 3509 3199.4 7304.34 2857.97 4198.28 6961.89 4789.03 3581.17 2488.44 6251.68 2602.22 2947.59 5751.84 2893.77 4380.73 705.998 966.025 1409.02 2524.14 6259.62 3984.74 2563.68 5549.84 2900.84 3555.41 2950.73 910.651 3635.55 4224.37 6254.04 3650.92 4431.91 982.963 2604.78 4964.38 4314.85 3604.47 4557.63 2535.77 3657.51 3282.63 769.325 2932.89 6411.28 4250.87 6813.18 4427.26 4822.86 1084.4 4139.11 3892.16 5289.96 673.435 1144.29 3307.34 3246.31 3289.21 4027.98 4128.45 2902.37 3469.85 3720.67 1789.58 3356.11 5702.35 3463.54 4798.18 5451.92 4852.86 4277.25 2171.94 3315.92 2586.45 2031.1 2710.04 3577.59 4201.91 3624.51 4656.25 5365.87 3499.16 1877.21 3327.13 379.277 918.793 2834.79 5304.66 5113.65 3695.35 4655.44 3709.18 4048.11 3475.52 4291.06 3312.73 3286.42 3317.87 4308.57 556.55 652.787 1599.89 3693.75 3442.42 3926.31 3904.26 185.02 153.393 69.631 103.147 6552.75 4140.74 524.735 896.476 1910.6 2320.49 2177.46 1951.26 4623.39 1062.52 2720.23 2413.14 1826.54 1696.18 1134.16 206.603 141.136 45.9201 161.316 1258.36 2990.64 1329.99 882.518 193.474 153.03 33.682 154.512 194.268 148.937 130.783 293.418 161.931 110.291 188.122 251.379 119.9 149.591 106.138 257.407 112.55 216.997 1287.53 102.486 187.304 829.523 194.053 2890.15 2579.69 2424.25 374.474 976.456 751.972 1873.83 2546.59 2818.25 465.515 1147.2 1261.77 266.412 1793.39 2320.31 1881.58 647.414 1936.88 1493.89 542.587 1105.75 1235.17 2196.26 1091.79 532.79 1014.14 5283.97 3342.54 1497.78 802.044 210.853 201.762 1581.64 245.538 414.967 520.218 520.713 200.321 2200.91 4263.01 190.993 77.6527 221.13 234.871 2213.13 1939.06 7872.88 1892.86 3172.74 2113.42 3656.3 4646.69 3983.02 3258.74 4045.68 1179.27 2378.69 332.614 159.619 1446.54 151.951 252.787 126.823 1427.2 258.204 2934.55 1599.76 448.419 225.636 1654.7 1815.43 292.703 94.0956 190.584 215.217 311.308 198.431 353.335 2311.16 204.528 731.659 230.574 112.873 103.463 203.6 3259.83 1893.64 95.9388 141.977 68.0218 243.524 232.836 1414.54 381.898 252.105 783.742 3282.87 73.6559 1274.47 487.657 762.294 2632.59 1316.3 117.97 550.59 768.944 1158.96 1063.3 142.62 1872.52 452.044 2024.53 345.699 149.296 349.561 2157.75 425.755 1944.89 976.749 611.707 779.127 5912.9 502.259 5739.73 704.625 5218.85 355.391 1038.18 3147.15 8063.91 1620.78 257.583 103.776 182.34 190.411 109.947 1158.84 1247.65 1771.42 77.1864 2348.88 2040.58 0.00845418 515.819 129.275 53.0693 199.454 509.602 518.415 2106.26 99.0242 242.548 0.0117077 0.00623628 1949.71 862.211 1735.8 1043.5 173.046 207.52 1678.88 475.955 8538.47 7348.58 194.291 372.828 1922.16 1795.75 763.886 778.348 217.576 3945.18 174.837 525.529 346.572 1097.47 1511.32 66.955 1338.57 300.555 144.733 1073.56 959.211 129.419 734.978 2548.36 2478.6 2005.84 229.401 1400.14 353.211 3585.05 525.909 6157.58 210.693 105.346 105.267 1977.97 1205.21 168.692 995.704 175.637 2041.48 2797 1387.66 377.821 3371.45 992.831 1491.53 2256.35 2013.84 0.00405777 680.273 1252.22 268.86 1369.64 0.00482318 146.789 634.991 2459.38 2242.48 1567.28 5210.89 2210.43 4061.9 4089.29 2165.69 2693.5 1804.61 358.126 1489.38 1486.46 4215.19 2692.24 3553.68 5201.85 3301.56 5313.91 990.025 1579.73 197.041 1093.78 504.668 270.989 46.8313 270.637 4900.18 438.321 3064.39 5438.38 3759.3 2102.65 1361.55 105.944 186.625 1032.38 172.59 2530.69 9803.93 1512.1 2736.09 1579.79 4596.52 2503.84 192.44 3169.46 596.055 1388.32 6347.53 3312.73 1766.45 582.339 1752.33 671.482 3404.01 2809.23 9981.53 761.196 3681.54 327.412 271.937 334.37 224.834 142.319 0.00319736 314.904 466.963 813.541 2591.95 1825.35 2064.74 769.816 561.723 664.842 636.917 2035.83 1865.39 2502.6 4444.62 1435.02 164.383 1077.56 1643.5 666.626 3058.03 513.806 1342.36 1053.14 150.148 2152.18 172.535 100.957 164.244 103.954 220.187 191.893 79.6955 116.296 73.1362 131.873 92.8293 131.887 109.619 110.746 153.124 103.127 197.989 94.5267 169.317 157.888 155.061 239.767 121.873 203.906 169.541 212.534 2793.26 1525.07 277.49 1336.27 1211.55 224.448 303.275 660.368 3809.31 2237.97 1467.72 484.575 479.445 662.397 1327.64 1709.16 106.753 712.648 886.958 273.15 8434.28 1640.87 97.9804 582.742 1728.01 1988.81 1853.86 653.744 72.8189 941.67 411.727 415.576 541.107 1589.09 1268.75 191.313 1449.24 231.601 262.1 72.2997 725.353 674.145 735.274 944.076 782.241 3488.48 2035.1 72.6883 82.2519 82.7308 2471.08 697.873 1236.38 1057.47 740.884 2215.8 1355.98 942.74 3130.57 917.262 346.075 1722.06 341.24 58.4343 3759.33 96.5169 1968.42 3624.88 789.145 2380.35 1124.37 2066.53 195.121 608.694 860.669 3019.93 870.54 5137.34 1601.46 96.7906 1868.47 1750.31 981.719 267.718 92.4915 932.409 1626.11 90.0177 942.775 664.061 1042.27 2116.04 558.224 1389.63 1596.13 889.656 819.631 1091.35 548.629 1221.33 668.131 1484.87 1272.98 569.1 431.994 549.226 4146.37 1035.57 1324.32 687.817 2320.28 627.529 396.195 2062.88 886.797 805.587 318.883 1001.91 1804.3 416.562 1028.65 3035.04 2160.6 418.026 616.174 483.265 2020.73 3271.57 422.056 2702.56 658.882 563.31 397.891 835.196 232.36 1348.03 1254.82 901.204 117.898 2191.41 2152.15 1237.7 1749.35 692.282 230.793 532.49 1636.63 4097.99 1713.14 180.419 3857.37 799.115 754.594 131.413 1898.22 1264.75 4879.84 583.372 138.038 848.727 598.183 330.005 4283.68 2813.77 88.8974 1326.76 1757.49 3206.84 386.432 923.026 1150.81 1170.7 143.838 760.851 1226.93 1140.77 967.696 1905.98 838.194 186.527 2137.44 1308.82 212.306 401.887 5611.71 2805.62 4830.68 1597.29 1543.39 1586.37 3674.3 1528.03 505.732 1466.47 1132.92 4465.34 1038.09 444.191 2015.34 2293.67 973.508 888.426 4471.63 2179.62 2163.51 3394.73 356.447 3507.08 2392.4 4290.17 1464.05 552.127 4311.99 7053.64 2700.42 5271.52 2224.29 1165.92 2915.94 1230.76 700.533 3437.89 2692.28 2818.68 2390.83 2748.17 643.235 1288.9 255.316 1039.39 6115.65 741.015 322.556 4265.91 2252.29 1671.28 3070.26 1876.41 1845.38 3996.91 2120.15 2071.32 1150.46 1668.97 3763.54 450.656 248.036 1538.04 1412.45 1115.53 1691.98 2696.69 711.251 3558.6 1901.51 3882.12 805.287 131.439 2083.39 2178.37 485.266 825.46 2367.83 1318.32 709.359 4747.52 161.399 748.249 3504.97 1206.46 778.072 4439.85 1659.43 2464.68 1615.35 341.946 156.634 107.953 936.756 806.328 1301.26 6189.91 835.982 2256.89 1955.29 1403.85 1397.11 3114.07 7287.14 1223.86 818.911 3787.75 1781.85 890.728 2545.23 1307.55 5169.39 308.349 1257.35 435.852 1329.32 187.87 3652.66 9927.36 832.558 2941.45 1447.48 2349.14 389.03 1505.87 5873.25 1941.71 1525.57 2287.31 6175.98 366.42 193.502 1519.37 705.588 1992.48 2150.56 582.16 2250.38 2122 2957.87 4978.38 2876.39 965.966 1069.81 950.34 403.24 1987.48 1458.87 1375.52 201.452 1111.46 1538.86 1287.57 227.951 1370.76 676.516 4147.94 5416.86 2551.62 1190.68 868.245 2072.03 1523.45 176.816 1073.49 2166.03 2599.74 139.528 1330.26 1405.58 1551.99 7570.14 1449.76 335.981 2022.31 4855.81 2867.42 3195.28 820.898 1510.45 441.485 1206.59 1090.3 1121.3 856.63 176.744 2080.4 5307.08 1103.89 1258.14 1079.84 2999.65 1982.36 2387.42 865.172 958.679 1502.26 4879.67 2019.55 669.391 3829.97 2095.87 4675.08 846.794 925.123 2299.43 1364.98 1268.41 1153.82 1884.33 1133.29 5097.87 2720.81 1454.56 2446.76 1242.73 4481.53 4046.24 3128.58 2922.77 1754.65 5188.89 3700.59 2533.26 1810.36 3892.29 1992.27 1254.45 1773.05 375.291 1829.12 2799.98 790.726 619.114 1769.57 314.618 913.727 5173.71 1752.65 5064.84 1267.72 2056.03 112.38 3904.61 661.791 3857.46 1316.01 1254.5 5099.28 1223.03 8479.42 1742.64 878.488 998.751 1529.4 3044.05 2335.98 344.32 831.178 1920.73 2081.93 1244.56 3834.61 5122.93 1258.86 1361.25 3056.46 247.307 1599.92 957.171 1643.84 154.856 2093.43 303.309 1169.5 957.641 1664.28 4161.43 1671.75 8662.5 1795.48 5471.05 598.524 1927.33 1230.11 107.158 1271.4 2437.84 2986.45 3977.1 604.439 947.713 158.639 7104.29 2042.57 1246.79 2308.84 1928.54 4058.36 1735.65 10333.6 3615.09 3382.25 3435.92 1413.95 1334.09 756.669 1961.96 5380.22 1136.67 2006.82 2596.55 993.997 1928.06 2818.11 2772.93 1074.78 1225.14 2907.38 3230.08 1829.31 1473.91 1189.37 1822.47 1081.94 1465.91 4127.99 1968.55 856.332 1232.99 603.598 5579.55 3571.22 3122.63 2263.75 1331.8 4232.61 5391.46 1425.66 3470.14 2119.84 3442.54 1618.97 885.307 1871.94 1495.75 749.129 1291.13 1640.6 2073.67 872.847 1071.84 908.713 1531.64 1659.55 7152.33 11772.3 1787.42 1422.33 1401.04 2078.1 1684.85 2011.35 1250.62 110.088 3419.74 1184.29 1337.89 648.019 3759.79 658.801 1402.71 2890.9 2476.35 146.982 2270.21 2356.1 2137.07 275.402 1124.79 451.657 3319.35 1654.97 4088.56 3397.47 2958.79 1662.47 1776.26 3487.21 452.443 3006.3 1122.27 1942.73 1219.37 254.688 1027.47 2327.59 1985.08 1073.05 161.37 754.42 697.268 4168.98 3410.94 485.299 3515.53 2797.74 1288.84 1976.02 815.857 3565.47 1416.09 296.494 5060.34 3813.38 3368.42 2536.85 734.755 216.783 2115.4 1910.7 1171.67 917.268 872.833 1105.47 1111.61 1295.87 1189.8 1185.23 1651.07 978.249 235.283 1485.99 164.533 66.0117 384.688 223.259 1567.36 251.396 1379.99 2786.96 2219 4951.81 3774.85 1385.67 1833.09 1275.43 831.268 1499.47 2015.68 2610.38 1662.87 1156.7 3953.92 993.308 2482.62 1565.04 609.023 586.781 88.3139 2757.42 1386.9 3775.1 137.619 4099.57 1899.3 538.15 2168.24 615.221 1132.1 3443.64 1385.52 2085.33 2382.2 1766.48 1321.04 2132.27 1862.56 123.513 1638.41 94.2057 574.021 1301.37 2262.09 732.259 1595.71 1828.63 1818.53 5891.31 929.643 3130.17 1613.41 2214.01 428.428 1652.61 414.159 5755.28 2786.47 3441.34 2817.17 2860.74 7546.3 547.921 1230.54 4378.58 2174.47 398.02 175.173 167.711 1160.41 2139.9 2755.41 155.202 2136.99 4252.76 3656.26 5243.54 1525.06 1270.42 1725.27 1623.76 4893.6 1165.63 353.826 3737.06 4592.48 3550.64 1597.27 3598.07 1973.79 1766.27 1608.55 5900.34 1250.17 1871.22 1988.86 2339.63 588.731 3757.84 8220.72 1592.15 138.303 4875.25 1100.94 2738.03 2351.08 1925.06 8174.48 2270.11 2726.57 2638.91 1976.35 1357.56 8666.46 606.477 5734.79 1472.05 3238.57 3734.04 3992.87 1439.12 1515.61 1433.63 272.013 2424.37 2317.28 3891.65 6383.29 2174.92 3515.97 3089.9 1894.13 2681.39 812.379 2187.84 1289.4 4301.64 1420.84 1960.79 556.611 3473.67 1234.41 375.613 1076.53 2814.92 470.164 4575.75 221.279 1268.21 197.257 2671.92 4496.63 2995.55 5067.25 1325.45 1508.69 1138.32 3086.82 1701.44 2254.52 806.158 3348.34 1770.54 1512.4 1858.92 1887.48 930.474 1525.29 1181.46 1928.51 2687.94 1959.62 4422.1 2022.01 570.436 1844.66 2900.22 2132.22 2410.46 3989.51 5134.71 2511.23 1227.64 2976.22 3471.23 1078.49 1336.97 2170.69 5148.56 1230.87 874.795 920.608 1054.46 789.662 1707.07 3174.94 1195.75 1734.64 757.297 1944.09 1519.02 1210.36 3744.12 2299.7 3388.44 82.0252 3586.4 1164.54 2125.34 309.457 1946.97 1907.64 950.774 1571.79 3572.15 2959.67 3361.27 1430.18 621.417 5030.45 3294.05 1109.74 703.307 3103.99 1374.73 177.926 2945.78 1306.42 3064.56 2690.02 3839.48 371.8 4979.94 291.594 689.493 2664.98 2114.17 1595.3 4479.93 1708.71 2908.68 3849.27 4016.6 1338.44 632.083 1332.19 612.969 3591.44 2189.72 949.032 4791.75 2771.5 2338 1024.12 1670.53 1453.48 2947.61 4049.63 2870.02 1855.14 3274.8 3767.94 2340 2000.6 2105.81 1666.74 1239.9 2632.34 1468.91 2266.67 3270.39 2144.8 2736.42 1880.56 1215.89 414.446 3065.19 2952.12 1360.92 2047.73 4758.46 9958.71 4199.39 1147.44 775.745 2940.27 3547.29 2522.44 1013.5 2281.08 447.29 1124.46 2989.41 5129.83 5143.25 1866.38 8888.94 2012.85 2417.58 851.767 1270.65 590.784 1801.86 2626.39 1156.7 2019.82 1297.35 3087.81 889.637 2421.39 552.094 3012.82 1783.46 1459.81 834.702 2725.2 6201.61 1536.12 1014.42 749.725 842.517 1309.1 1204.07 1259.35 1980.46 3001.98 2947.59 3021.37 2183.35 4556.6 3053.01 2218.04 2817.72 225.519 1938.3 2733.64 1585.65 3889.52 3598.78 3659.63 1442.42 2216.22 3343.81 994.28 2950.24 1684.15 5502.08 2217.49 2026.67 5004.62 2414.01 1812.86 2711.91 4350.19 1373.17 1860.12 3858.08 14385.4 3795.46 1302.47 574.682 1883.59 276.127 4529.06 5002.9 3997.81 2671.14 1209.3 5867.98 923.912 1305.75 2423.58 4630.57 2508.71 2530.64 3268.45 4168.65 5638.62 1858.29 2167.14 1010.63 2141.69 3024.45 1408.59 2297 5902.75 3682.51 1233.93 2362.86 3002.34 3949.42 2079.72 829.457 2576.83 4263.46 4050.88 8831.69 2805.09 2233.84 1690.98 1006.97 7636.11 5613.69 3789.19 1652.03 2327.02 1247.6 1790.55 4267.64 3037.1 2410.63 1960.39 1725.51 1483.54 2923.86 1727.44 6403.35 5193.51 4076.33 1882.12 3673.8 4581.68 1820.75 1224.05 1633.64 1107.59 539.266 5399.35 76.3015 422.326 1881.46 921.188 1606.48 487.438 1943.78 2399.26 542.747 7840.79 1920.97 2436.32 505.345 1245.97 240.375 3029.9 1079.48 2376.01 1389.17 1842.79 3230.35 7900.79 763.204 1304.24 1939.81 2763.8 2766.69 2668.18 2016.06 1589.59 1678.11 4562.85 3313.41 4203.47 1630.33 2233.45 2172.43 5567.35 5371.76 3883.61 3527.15 3751.1 762.617 553.365 2323.78 996.933 3109.65 2568.66 1438.58 4014.17 3454.27 1745.65 4236.67 3383.06 2022.63 3407.88 494.88 5787.31 3860.26 5734.02 2811.1 6791.27 1536.48 3362.14 2103.76 2522.52 2817.33 1291.71 1271.18 2280.34 1084.49 6545.64 4388.77 209.856 2216.38 775.898 5276.29 2076.62 980.3 2242.34 1128.58 352.355 960.25 1990.65 2652.14 592.558 2376.83 535.756 1118.61 2131.81 2589.9 1096.2 2166.46 2923.95 1085.86 1465.16 433.019 3164.63 3524.77 4050.71 2671.85 979.942 3969.54 1090.74 1859.59 258.263 3393.12 1538.86 5176.87 2171.77 2190.48 2051.08 2251.69 4241.7 350.553 3883.02 682.68 943.949 2829.43 2932.26 929.964 1295.09 3457.49 2341.77 4262.74 2142.99 1050.19 1966.96 1490.67 789.275 1606.46 2325.25 7168.32 3504.17 247.24 914.097 5842.94 3573.3 906.878 1103.79 2225.14 4644.03 1426.21 2273.09 810.779 3353.64 96.3099 1812.54 778.728 4228.78 2054.3 1962.16 613.981 5297.48 443.037 3108.91 3142.56 4300.25 2276.38 8352.76 4414.23 2483.43 2917.96 5130.19 5000.26 1247.56 3374.56 1964.32 3869.33 1982.2 1948.69 1186.73 2544.71 1233.01 3919.02 1927.12 2942.92 8459.36 3421.43 4081.64 1018.88 696.677 2243.82 1993.77 1857.99 2135.14 3157.49 1352.82 1606.35 1057.96 2283.36 1991.75 3773.37 2161.05 3391.7 1305.13 1510.02 2697.33 2092.92 4612.33 5020.14 1445.54 1895.86 2454.54 5446.42 1921 1317.02 2205.86 2872.23 3349.6 2252.04 1377.6 1519.34 1452.63 1511.77 5000.49 1813.02 1647.57 598.102 2951.07 2159.92 6184.75 2557.81 1567.1 425.611 2570.22 678.349 4440.68 3701.07 5476.06 3377.66 2271.59 177.26 3738.02 2119.11 2399.23 3465.85 2233.12 1665.65 947.069 2252.39 3543.68 3502.8 3852.1 163.866 2090.09 5013.7 1521.1 3163.23 3438.75 1587.34 1714.37 2637.53 3199.09 1285.34 3302.35 2382.33 1684.92 1318.47 1744.4 3245.75 1625.99 4719.9 5030.51 2982.99 238.134 2998.85 811.361 2095.65 1358.27 2256.62 1309.81 493.958 5886.87 130.263 406.941 1801.32 2431.91 6488.77 1135.5 1465.28 1894.74 3237.51 2956.52 3578.39 1706.78 3330.91 3546.2 5378.29 1970.8 3649.16 3373.39 419.48 1831.89 1976.15 2784.19 8331.84 2939.64 3501.66 631.078 3327.2 714.743 1884.2 981.929 464.969 534.099 2179.89 1541.18 1485.44 2120.43 1448.44 4684.41 3414.73 8126.59 1851.36 2565.83 2765.86 2854.87 2313.49 6803.07 217.055 801.367 3410.63 1909.39 2072.3 776.211 4028.15 4245.65 3585.09 2456.32 3841.51 4240.91 1587.03 1753.79 1852.44 4333.38 1923.18 3248.88 798.171 367.358 1269.51 1736.89 2699.06 2841.2 2890.57 1891.35 1220.89 1229.08 1329.07 1058.69 1598.69 4103.22 2185.31 1515.82 1138.18 1927.89 1639.43 1454.74 5894.02 855.696 1995.93 5611.65 587.541 1686.27 4039.8 554.219 1237.32 2896.15 3906.67 2866.46 4201.76 1198.34 3486.99 4215.21 3007.67 2337.15 1594.62 1598.17 3652.98 540.615 500.509 4751.63 1727.13 2788.35 4892.66 4881.8 3127.88 3194.54 725.039 2719.32 3453.35 2023.95 1281.65 2204.26 3443.3 1133.44 2726.38 3928.04 1567.52 5488.17 3769.34 4709.6 4319.82 1441.86 670.161 1127.4 3017.38 3698.08 3731.17 3632.78 2335.92 3724.69 3701.56 1598.22 1342.18 2407.37 1649.05 4510.36 3535.42 7690.82 3161.66 1581.31 1063.77 3562.74 487.76 1389.76 2339.5 2758.16 2453.94 1697.65 1041.03 1879.23 1439.23 2257.07 2338.31 569.321 1740.42 1031.97 2239.97 1473.64 1642.23 968.372 4875.61 869.304 1261.76 4609.71 5396.66 2373.9 4722.2 1967.84 2110.97 1598.64 2549.07 629.619 3339.04 591.93 1397.7 1606.06 2404.99 650.531 3653.94 689.163 1259.25 3410.02 1509.16 260.027 2785.16 1175.09 1652.65 1153.61 4875.46 263.074 617.05 2303.5 3742.27 3420.9 5743.92 2706.5 5895.63 4806.24 2385.85 1431.11 1184.78 1338.76 1141.28 5156.79 992.087 835.353 3424.53 715.493 6193.55 3816.76 2195.13 2622.09 4452.52 2990.01 1787.61 393.911 3190.34 1621.97 3005.62 969.201 2665.21 1778.97 885.722 607.936 2236.47 1805.3 1246.37 2840.64 2355.13 1565.22 2013.16 4206.45 8224.47 3219.46 835.983 2881.17 4055.23 2007.55 3922.8 2310.16 1704.91 3893.91 5554.95 1703 846.904 3449.39 391.352 4752.26 702.955 4182.72 1157.5 2887.08 1452.13 1383.99 4595.81 895.146 4116.58 1811.98 647.272 2206.4 5033.58 3205.53 3171.85 206.431 1703.32 757.735 1566.78 2768.57 3510.7 3787.47 2313.31 8101.68 2024.05 453.909 1533.97 1018.54 2205.52 3565.59 628.777 4840.68 3136.74 3418.02 1103.6 4582.11 2005.8 1159.37 1284.59 2661.5 2361.94 1665.77 1113.01 3064.72 4261.71 1054.77 4648.53 3167.42 875.41 3252.86 490.008 6303.01 1552.8 3705.15 2814.15 2298.12 1713.22 2386.11 1176.06 1875.36 2670.73 2654.61 1104.39 1015.5 1473.13 1852.18 1498.97 2792.3 3557.49 4466.82 623.24 3616.66 3425.21 4207.99 886.416 1487.51 1056.15 1261.25 4484.56 6594.16 2775.56 343.564 5923.62 5671.12 3504.87 2584.03 2254.63 1680.52 996.968 1849.41 1021.99 924.628 5269.8 1065.3 2874.45 1859.75 3358.85 2903.83 1740.04 8455.56 2216.91 226.247 316.092 1452.01 2940.73 1652.41 1492.13 3887.78 743.871 2686.15 1257.99 2470.66 1537.48 2156.21 2384 643.732 467.418 612.499 3808.88 5681.06 4830.85 3930.36 6522.11 5020.63 3211.22 480.635 4638.76 4231.11 3010.13 1210.16 191.812 2525.27 373.163 1815.2 4971.43 5376.4 1411.63 2022.38 905.407 1254.12 207.529 2524.16 5097.68 2441.79 894.718 1543.49 1862.08 2037.42 646.633 2119.47 2103.66 963.449 942.697 866.685 2724.48 2407.86 3381.82 1750.38 3755.41 622.831 7913.66 996.699 1771.06 3187.28 1229.96 6488.94 3765.61 4021.15 884.742 2496.66 592.152 2032.39 4346.03 2089.69 1952.88 1682.27 1545.47 5207.43 831.738 325.012 3626.84 636.298 770.816 3862.05 4156.6 3275.03 4646.4 5243.24 1276.23 287.229 1395.2 3114.37 3663.7 1644.81 2487.98 3545.22 1332 386.297 4192.49 4153 594.242 1898.79 2161.47 2100.94 1355.08 1905.94 1719.41 897.411 1462.12 2328.81 1380.1 2698.51 1091.47 4629 4087.64 3182.51 1050.7 4379.15 2410.27 1226.48 2250.91 2626.6 638.809 3560.22 11253.9 3342.71 2228.29 3143.96 3706.14 1264.27 3742.65 1028.17 1896.43 3232.36 4216.34 4154.53 1772.65 1496.87 1858.22 371.333 3329.2 352.059 3152.67 3199.47 3515.64 1433.29 3461.72 1291.25 1525.47 3762.37 5187.94 556.168 619.438 5531.07 2297.49 1118.79 2825.02 7415.55 2244.24 8682.43 1519.85 6387.25 4962.4 949.247 1549.42 4826.43 3197.29 3562.33 4066.97 5687.22 4416.32 841.539 207.287 2929.02 5534.13 821.362 812.419 1174.52 1181.97 2130.73 5383.59 1321.18 2751.3 5764.11 2908.53 2714.65 3630.54 3392 1278.61 4738.43 902.538 5387.79 7729.83 1313.45 1464.5 1009.11 726.292 3650.02 1738.89 3208.82 11311.7 679.777 5006.5 3971.21 6809.66 3557.52 3420.65 4759.81 3974.96 4014.98 854.638 1878.95 4244.9 1718.36 1636.32 2333.52 2679.23 1107.36 1508.96 2357.11 455.961 1962.43 2909.27 3333.89 2669.63 4579.99 3167.36 5586.63 1990.61 5386.79 6609.91 4173.27 3037.39 3058.34 3549.76 910.163 3396.57 3176.06 1049.63 3952.17 2576.95 2313.86 1220.39 5063.38 2878 3041.59 5081.08 1670.45 1797.28 3533.94 657.856 542.806 3180.1 3115.69 3347.48 4756.8 3646.21 1525.43 5192.09 2198.13 498.544 2843.27 1509.46 2902.59 3945.57 2534.72 925.12 4495.4 4179.22 2318.15 6569.67 1785.47 1179.85 883.149 2118.57 1461.36 2046.13 4062.83 3883.74 640.048 2999.7 618.759 2566.95 4186.41 1031.99 465.132 3201.73 1689.71 2886.44 2312.36 5176.96 1158.78 6231.87 3181.81 117.999 1425.38 3484.92 738.636 482.106 9814.72 2404.26 664.484 1133.15 804.804 214.144 9076.48 2383.14 1671.97 1830.47 4756.62 1965.78 2729.98 2749.39 745.125 2935.08 4975.58 808.163 2480.62 1590.8 1229.56 3254.19 3058.4 818.207 1724.56 1063.37 3058.48 2212.51 3192.67 1669.6 847.738 1378.41 3463.66 2329.83 1981.38 1918.47 3146.07 2047.13 1344.99 5697.4 4114.79 6827.65 5969.43 2712.87 2328.03 3128.69 3276.34 2631.39 3345.99 755.75 171.107 2307.61 752.198 1661.99 1582.47 2554.54 2792.1 2040.66 4633.38 571.224 1948.63 2303.52 10214 5641.4 2137.81 4047.75 2034.63 2856.78 2691.01 3458.83 3035.1 1935.95 6018.84 771.727 2826.96 3725.21 6634.2 540.226 3066.81 1346.24 2351.81 1326.28 3796.2 2819.01 1875.52 3701.27 1796.08 2097.35 2315.96 4028.17 2423.09 4752.35 2276.13 2130.97 1137.03 2781.29 2390.08 1519.73 1394.17 2518.47 5152.4 1144.99 1217.55 812.567 4309.31 3022.41 1013.11 2731.78 669.373 2213.92 1294.49 2501.94 746.945 3929.42 2885.1 2115.98 3349.07 457.74 2133.39 3308.34 1730.62 1259.08 2199.23 5337.77 493.315 4433.91 378.176 5115.5 4112.75 3233.88 4058.21 1674.84 2383.35 2231.45 1401.61 9422.75 2981.24 890.069 990.199 1722.61 1273.35 1418.68 5201.93 3033.87 4000.57 1960.85 3515.14 493.522 2793.33 1132.73 603.113 4949.07 1491.34 1140.46 1499.32 653.565 3825.07 4610.64 4461.79 1436.29 3626.88 5113.99 641.222 2068.71 1230.19 719.21 1343.91 3301 1804.15 329.346 3458.38 1523.49 671.051 2334.44 3571.67 4234.08 2246.84 4628.82 3079.06 2078.13 511.002 5076.3 3907.42 2084.59 2699.8 3385.26 1757.4 726.082 1251.66 5567.91 3490.26 3308.52 1947.82 4512.14 1926.73 6444.11 2571.05 3762.82 1686.86 4964.52 819.918 2226.29 1264.97 6865.19 2228.12 3550.1 2788.4 926.508 7386.43 3151.51 4139.82 1405.61 2261.76 2465.75 3780.45 702.688 549.051 3204.09 9055.59 2227.39 1040.76 2097.7 2662.65 464.972 6355.64 3502.07 5767.77 3872.36 372.786 2587.2 311.054 364.006 413.174 2451.1 400.979 286.197 3686.04 289.03 3976.81 4851.17 567.781 5008.95 1553.72 763.294 632.4 2288.61 3621.91 1039.61 248.708 366.691 2798.87 745.75 1344.12 1033.69 2293.02 2350.9 2330.8 2880.04 2105.22 2557.45 1466.5 1326.28 1144.52 2385.18 3362.66 772.965 1766.01 1448.78 1722.95 3108.11 855.941 1438.17 416.573 2900.65 4636.13 3497.63 2149.54 869.961 4129.72 5642.18 1135.47 806.795 2079.55 529.234 3516.65 1515.63 3270.69 5130.7 802.384 1563.55 4695.54 2344.26 2763.81 1685.4 1076.12 4225.05 3500.58 4157.32 1712.42 2634.69 1087.17 4128.5 3851.1 3601.68 4146.47 1058.36 3835.08 3170 1703.59 4389.04 855.515 2300.98 1023.21 752.873 2059.32 1915.58 2250.58 6279.67 2698.22 5083.29 3723.53 1575.7 2189.96 1366.15 401.156 1606.28 2178 1471.58 3234.89 4152.98 1421.22 6562.87 3158.17 8138.99 2129.09 3738.21 5279.96 5474.34 6005.57 1488.64 2526.92 10431.2 1436.15 7144.89 6701.43 4091.27 3385.83 6354.38 6498.16 447.446 4263.58 890.023 1695.35 959.683 2311.66 5195.56 2964.09 3236.29 796.211 993.822 1440.49 1468.71 8582.61 4524 2784.84 3434.41 1753.76 522.449 2480.05 1896.72 596.746 968.524 2146.97 741.781 1888.83 1797.26 4219.96 3592.95 1610.22 683.119 1217.75 5150.51 2477.55 3316.92 319.563 4232.1 1996.26 6183.32 1610.95 2604.44 2313.72 5323.59 2045.87 2245.62 4211.27 4161.67 2931.94 2336.29 1284.42 1050 767.254 2272.23 2086.9 2174.65 2527.05 3458.25 3082.71 3143.69 2950.46 934.79 1330.61 757.29 2380.88 1961.94 5357.15 7383.28 3895.96 1669.65 3037.9 2753.2 5630.77 2829.65 4695.56 1856.55 1351.23 1233.07 2016.02 1980.66 5463.25 1895.93 5341.53 1945.54 1538.39 6190.74 835.902 3432.23 4154.6 5142.97 4527.86 1068.17 1928.42 6882.71 5268.01 2333.64 443.482 3426.23 2661.55 2166.66 3571.32 1392.22 2938.7 4086.37 2069.7 6048.54 804.918 1865.43 4110.64 310.052 5937.33 3948.68 1973.29 1688.37 1159.2 1687.03 2686.01 5324.75 2855.99 5863.33 435.12 2789.62 6073.37 3296.96 2422.95 3953.5 2306.05 1306.73 3203.52 2029.28 2229.1 2154.58 2037.32 693.095 3441.45 1547.84 2352.3 6058.86 1982.6 2464.42 3166.17 2203.28 1862.32 4046.81 2538.5 3146.67 1434.48 1988.2 4204.99 4939.59 2755.1 5178.33 9619.26 1144.09 1739.26 1346.55 864.829 690.958 2498.28 2373.42 2262.75 2896.42 5817.96 4333.54 985.098 1724.83 3607.04 2414.41 4689.43 3900.54 11328.7 577.52 3177.67 5280.06 1469.5 546.479 2547.36 2690.45 3411.69 1596.86 3573.57 1400.52 2465.28 4179.8 2849.43 4950.38 2375.53 1798.42 2977.91 5537.48 1720.29 6677.54 4063.42 592.065 1570.05 2141.64 924.51 4275.38 3184.41 1932.19 2677.93 1918.78 2772.46 2201.02 2191.46 1029.56 1929.84 2535.42 796.474 2012.34 724.112 3463.38 2227.65 4052.23 1284.91 1429.03 6425.63 2373.38 2616.32 642.095 5603.93 2192.71 2659.7 1820.32 1683.08 1210.6 6619.55 5033.43 680.114 1654.37 1791.46 3167.54 2642.77 19474.9 5620.5 3952.98 2874.41 3039.49 2411.82 3242.49 1217.73 3148.69 548.641 5569.33 4759.62 1681.02 2350.12 3158.13 2411.01 3307.84 3815.31 3320.32 6305.06 4513.48 4479.37 8833.74 7154.01 4980.22 5816.4 4335.91 2349.37 4799.71 11250.8 1836.35 3048.08 1645.45 1559.69 1642.32 1299.14 1795.2 3033.9 8086.69 3796.52 2406.73 2267.2 3375.16 5754.5 6548.89 3460.07 5408.5 1018.91 6140.73 3204.83 1229.93 1058.71 1144.81 1567.81 6051.16 3563.3 1964.59 1722.73 1425.86 793.927 2480.25 3177.43 2269.95 1436.46 5426.8 1463.5 1831.52 1734.53 3580.51 2437.1 7498.83 5814.78 2008.75 1822.99 1519.6 1410.94 2816.81 1574.54 2062.17 7200.74 2645.65 1524.22 2923.8 3997.08 3750.66 4534.13 3060.31 2574.45 1325.2 3065.8 3100.75 201.247 2198.92 1909.92 1781.22 5679.58 3989.73 2104.18 1773.94 3423.55 1981.39 2419.64 4913.12 3281.51 1833.21 1331.38 8530.85 7364.92 3041.15 6084.78 2164.03 5414.08 1827.47 2864.23 1930.97 3870.25 3291.58 1220.68 421.744 5861.37 1995.53 3983.88 2342.08 1934.85 550.411 6300.03 7910.78 2519.94 1328.02 2464.81 1100.02 5305.48 1656.87 4364.86 4238.22 1938.78 3300.86 4089.75 4575.47 2186.29 4739.7 6052.35 2562.91 662.512 895.918 3222.53 4189.27 2686.27 1229.26 1658.31 866.735 3880.7 3289.05 10836.7 2304.53 2702.72 6889.95 2291.18 7491.09 3193.64 1361.45 3737.5 636.231 1477.19 4002.22 1112.31 2404.43 2943.69 2302.86 6635.69 4249.24 1747.74 4321.73 8577 5352.98 3479.33 6471.37 4007.91 2264.87 2433.14 2320.36 1541.53 4017.07 1325.47 6099.57 1431.51 2555.92 2758.27 1232.03 2554.28 1387.83 1911.52 7806.02 2423.86 6408.94 2421.08 7861.29 444.712 3101.12 4068.63 3968.18 689.863 8620.97 2367.38 7255.98 1508.13 5940.81 802.279 4095.15 4496.85 476.027 3374.69 4323.5 316.477 2834.68 4269.57 1881.29 6176.2 5819.76 3051.82 7243.97 6377.23 3095.18 8050.01 726.227 1187.86 14944.2 1265.34 1242.91 11793.8 2970.35 1306.28 3842.01 387.37 1630.68 288.693 2123.65 1856.84 3259.62 2750.59 1428.06 1999.1 6565.38 7031.42 2413.04 3909.14 9674.89 1965.02 2361.86 5138.02 5733.08 1558.83 1444.83 5187.39 5807.32 3450.76 3381.07 2784.35 395.111 194.905 2080.82 2306.75 5684.57 3791.34 2635.21 5764.32 2020.41 5413.63 977.271 5537.84 3129.77 2164.58 3065.36 3005 3860.52 3375.3 999.877 1066.11 2955.46 4468.86 2718.42 2436.28 2638.65 613.244 1967.15 3027.69 1437.29 924.831 4293.29 527.691 1682.92 4101.35 9003.8 3631.35 2977.98 6266.68 2006.89 6544.7 3222.21 2283.64 2053.87 531.79 1640.99 3376.26 9923.95 5621.6 2237.33 3428.72 1281.55 4238.62 2334.23 8434.48 5319.54 2073.63 1351.98 1192.2 2168.46 2229.54 1930.84 2422.84 1017.25 5361.87 650.949 2441.25 1421.52 2497.61 1476.17 1927.63 2390.62 778.93 2222.4 3272.02 4506.1 5925.65 9164.7 4432.95 2391.91 1956.64 1937.14 6498.68 791.735 2380.66 3269.87 3822.71 389.056 9206.96 3859.96 1342.96 9218.82 1742.31 3603.25 2867.09 975.329 1403.67 1680.73 5292.76 2954.01 3076.81 7664.64 1934.63 1515.17 5604.95 10579.1 3627.87 1349.58 759.504 1092.71 622.257 7124.08 504.561 1050.03 3378.37 5070.28 603.058 7044.19 4536.7 16026.7 2806.74 2110.13 3719.96 5012.55 2915.82 1810.6 512.042 1130.94 1532.28 1544.06 2698.69 3075.17 6170.26 1312.68 1321.56 1090.99 3061.72 4899.19 1612.42 7062.84 4367.56 2316.19 1253.54 1485.17 771.89 1294.3 5969.15 792.37 5243.6 763.806 1222.02 850.184 1111.82 845.79 1893.51 3162 4667.35 3052.48 564.174 1476.01 1862.01 1422.86 634.151 1823.84 1688.54 1303.13 5178.5 489.778 3883.35 2426.48 4708.16 3658.96 1997.39 2253.62 1909.93 10285.2 3412.05 2747.54 4390.58 5636.37 4188.91 1391.14 1215.22 1489.95 2916.57 1784.41 149.697 4025.85 4110.82 3323.16 376.214 1644.58 1733.87 638.016 1403.32 8423.54 857.552 1634.02 1044.79 5978.28 2528.58 1985.16 1911.01 8436.36 3593.63 1103.62 2756.27 6727.4 2418.56 2484.75 3309.05 4550.32 10954 1382.77 5782.63 11926.1 2728.05 2453.68 6180.2 1475.05 3304.65 4788.54 3784.73 1319.48 1279.77 3699.57 5682.79 3934.97 7146.34 2560.19 5268.69 2923.09 1683.1 2338.73 2453.85 3703.38 1511.94 2382.57 3555.36 1556.68 4973.66 7690.45 741.408 915.83 5128.64 2859.23 1990.84 3389.39 2120.89 430.968 7384.78 6216.07 2926.37 1437.54 7828.85 8040.42 10423.4 7033.73 2693.78 856.698 5799.88 3271.12 1628.84 3657.94 1919.33 7587.92 3780.98 2392.95 6804.98 2150.23 4095.78 4725.32 3664 3547.52 2048.52 2838.79 2418.26 3131.86 2635.1 4063.08 3397.19 1796.18 1701.3 1734.2 2976.17 967.439 8870.54 5157.76 2785.49 7325.09 8141.28 4335.25 1785.55 2160.92 1416.36 1038.48 1405.62 3562.51 4638.1 11521.6 5509.54 2766.7 13217.3 11938.6 456.119 4311.26 3387.47 2920.06 1698.12 4207.84 1491.04 507.896 2235.2 2733.99 5825.11 694.149 2442.08 526.046 2160.11 1842.45 14142.8 1638.5 1120.18 675.352 1516.83 387.922 6274.01 5524.97 4459.39 4552.73 7257.97 2189.89 4187.72 3652.13 3388.8 6974.83 3123.25 2152.44 3880.17 1690.7 2040.72 3786.97 1579.27 4008.99 8564.2 1405.78 298.048 6936.57 4679.67 1792.46 2561.08 5179.52 7611.69 2542.7 2555.15 2121.53 3450.46 768.6 1790.38 2269.64 1604.45 1683.1 5398.94 3753.67 1346.3 1737.95 7565.93 2737.03 1750.76 1803.93 2927.66 2411.73 567.584 9426.6 3514.67 3198.72 3229.55 1205.22 1078.79 1713.24 1552.81 4027.31 1607.28 2869.28 1699.62 1907.32 4184.2 8748.6 7870.99 3817.15 533.94 2615.89 2601.09 2468.44 5653.92 9832.77 7979.16 2674.79 5420.77 1771.89 2284.75 4021.27 4679.27 5074.99 930.853 892.253 566.104 819.682 668.516 594.922 500.944 968.902 856.032 2649.36 3033.65 1741.46 4463.91 4096.61 4548.64 4939.42 1811.99 2391.83 559.951 1680.39 2439.04 2888.95 1914.96 7612.81 7094.9 1686.82 2220.57 5312.17 6614.31 7561.74 9190.63 6998.27 4307.35 925.378 706.208 1318.89 1665.32 2065.59 4136.49 6246.12 1796.13 4740.28 1877.16 2154.87 3042.55 2721.68 173.102 2009.03 1348.44 1378.07 1649.13 3557.06 1180.3 1083.9 3201.57 1392.99 377.802 304.977 893.939 5637.38 1147.93 2283.94 5639.94 3045.64 3416.19 699.45 4831.04 5480 2267.79 4609.45 4085.08 3916.9 2974.34 2446.65 3433.39 3119.27 2748.34 2639.92 2582.88 2515.91 1672.05 1923.99 3100.03 384.801 1471.97 2767.4 2489.96 3940.98 10584.7 2609.77 3645.02 3087.44 2842.02 1528.75 656.699 850.084 902.354 646.263 6797.86 2063.01 3233.54 3536.18 2019.51 637.931 546.056 626.416 4074.91 1761.04 2838.51 1140.37 2812.3 547.704 3567.36 4666.7 4029.88 4588.69 5444.08 1795.92 1390.5 9587.29 6271.81 2070.27 1109.57 1844.89 3443.01 1731.21 3467.17 2520.02 4116.05 4955 8453.51 2613.66 1205.86 5253.28 259.347 973.69 1812.13 1505.7 1390.71 1773.73 1548.96 1252.8 2587.25 2322.35 3284.35 2602.66 12886.4 12048.5 2057.53 10130.7 3954.45 1546.39 4627.3 5767.34 4162.83 2125.09 3259.13 2233.3 14003.8 2655.3 4197.4 1582.93 6931.62 4746.92 4681.07 3615.43 3731.52 3934.93 8288.82 6114.59 3155.32 2306.29 3225.43 5068.06 3617.97 398.88 3372.66 7936.37 1360.02 
CELL_DATA 20253
SCALARS stress float 1
LOOKUP_TABLE default
3.34368 44.8589 23.9945 147.072 53.7715 1.75395 66.0812 20.1771 18.4624 50.5842 76.5441 39.6041 55.6237 10.4878 34.4487 15.3546 29.0811 86.8692 37.0366 12.1221 15.4736 29.0004 16.2977 14.4787 7.05373 26.1965 32.7831 35.7614 15.203 43.5375 48.1975 30.2879 31.8822 12.1704 8.17772 36.2491 30.8049 18.2486 23.0113 21.0305 45.3456 14.2245 13.9476 26.5364 16.415 12.3931 8.43006 2.24905 27.3671 6.2415 6.21467 21.0993 16.439 23.305 1.76484 2.9074 16.6206 17.753 14.6038 1.44894 34.6178 15.0103 13.975 6.35664 142.021 2.74097 10.7064 9.04315 81.1983 5.51799 15.002 30.3743 10.0705 2.52337 8.50511 9.18584 11.1617 3.08565 6.7178 16.638 2.37598 13.9293 24.6264 8.61771 9.86634 3.01715 32.785 27.3367 13.5366 242.266 8.61862 16.6166 6.21733 111.643 5.36857 4.69906 2.97435 8.02813 1.13695 22.7672 5.80673 0.816297 27.3997 6.12652 5.71548 1.16827 4.68015 9.19033 4.51994 132.809 8.64856 6.51695 9.08751 3.48871 5.40556 0.788378 10.94 207.682 177.106 12.7748 10.4397 5.51795 18.7373 3.46563 12.9285 330.587 17.2929 4.32159 56.4905 5.84329 1.07529 15.6227 5.79756 4.30755 11.6654 19.9906 2.93865 3.55076 15.3624 2.86699 8.10096 3.12481 10.3679 1.88075 8.40642 1.98336 9.3345 16.8969 1.95649 2.45405 8.47848 4.02527 3.03854 8.09883 7.3979 15.1656 7.07758 184.854 12.1225 14.6467 3.40859 18.5925 1.56416 2.54105 2.81317 5.03538 14.2719 9.62862 3.7585 3.37141 7.22482 8.66494 1.60294 3.97728 5.71163 11.5144 1.48639 9.29396 1.43299 0.786735 10.9337 0.919784 17.0774 7.02585 7.45949 8.43204 4.03678 30.4334 10.3354 3.01669 15.7133 1.74668 1.59971 3.77107 3.43848 19.9845 3.13102 2.35893 7.77564 11.6987 2.41275 6.43077 8.88385 2.63459 6.13783 0.202236 24.0622 3.33281 3.62798 25.4617 10.2764 2.02503 1.64737 2.31189 4.90075 3.18638 7.2148 1.32125 11.2489 3.30922 11.5545 8.61421 1.28334 5.80268 3.40734 12.3061 7.31933 3.55291 2.86512 1.67834 13.5131 4.14728 11.04 7.31168 6.98737 0.3599 125.041 6.10567 7.83653 4.34952 1.01718 10.563 20.2701 3.36121 10.6591 13.0865 7.57889 2.00753 1.9434 0.415707 55.115 7.9027 2.74213 4.39145 12.256 6.39033 1.30663 144.095 8.47775 29.3022 1.96328 7.70159 0.227744 4.55202 21.1561 5.25297 0.70462 2.50472 1.12458 7.45822 5.31219 10.9397 2.04621 9.12783 16.9212 12.5963 14.0457 3.39977 2.5112 1.07 3.16108 5.3135 2.58076 17.9362 9.70271 1.48736 1.50822 11.3998 28.6854 1.97448 8.47848 16.6209 31.4256 21.0209 5.31623 2.88545 19.3443 9.06855 14.0736 2.86432 4.81581 6.00282 2.98818 2.27813 1.49242 10.5676 62.5429 13.806 11.4541 5.2318 3.58714 18.4951 28.7794 8.84864 8.65924 7.09761 17.8649 11.1392 2.17836 4.12366 1.57605 13.6791 0.432199 0.845478 16.8937 5.48299 10.6574 5.3297 6.62238 2.73431 1.24444 7.51871 14.2576 20.1328 6.05999 10.6448 0.557973 18.1837 10.6866 61.7668 60.7399 111.39 14.8724 12.5157 16.1592 2.15171 124.084 140.136 25.1275 6.08781 10.0109 192.945 155.815 4.86584 339.411 7.23093 7.55513 9.81596 41.4398 3.87379 25.7323 13.8144 0.610063 9.30303 52.1195 66.6528 92.447 2.06562 92.6338 85.6836 55.0617 48.5346 58.47 75.2966 20.9655 36.5763 36.1363 68.657 22.1631 1.59466 123.976 171.327 30.0172 0.000520572 40.7243 27.8194 3.42402 52.1317 9.72345 14.7127 37.736 18.194 44.0018 16.9408 14.9958 16.5672 1.21553 8.55065 8.09458 46.8355 59.1682 3.9465 100.803 91.2668 7.52604 0.851472 2.3576 7.84842 7.78283 0.021402 12.9455 6.14746 7.91404 9.57527 208.523 102.955 26.695 6.13936 9.31134 9.32525 55.369 0.950301 19.674 7.08351 5.02108 10.9293 5.19272 3.75191 15.7649 58.9405 164.74 7.49316 9.32974 41.8218 46.605 12.6104 45.3625 62.3663 11.3788 0.260593 11.3284 47.3408 22.7856 16.8505 19.3867 5.67572 14.3375 179.472 71.8004 270.717 185.972 46.9727 84.1785 22.9562 44.5404 28.6897 34.2188 10.3583 13.5376 88.9009 67.8878 7.07863 62.903 46.4213 7.16659 34.1259 0.000258805 48.8474 34.6331 90.7667 110.249 58.1975 24.528 148.691 7.81567 201.633 14.369 5.72812 6.29574 7.74149 78.6304 11.8317 6.56383 8.18764 31.3425 19.9433 47.1916 30.3685 14.2071 14.0802 4.37084 7.90601 20.492 23.3601 10.5557 17.2062 3.19313 16.3496 43.0531 34.7839 2.95791 14.1612 0.000241614 2.04554 5.16853 18.4644 19.9843 15.2603 30.6426 37.2646 258.962 64.1523 56.058 23.2817 124.425 72.3107 7.10347 10.2836 62.7022 3.08119 47.5866 26.5416 49.2077 57.976 14.0224 72.5554 55.2876 74.6569 5.26961 15.0084 21.8956 108.398 28.6612 22.3505 26.4477 23.0754 21.7118 4.41367 23.4849 207.032 43.4471 5.97907 11.9294 6.32849 19.5729 110.405 70.6202 34.0291 71.1717 83.6969 16.8584 15.1105 14.5509 17.4533 13.1757 7.54989 27.4839 5.92497 25.1727 35.966 2.74081 87.9804 79.8238 67.3302 58.4491 39.2896 26.1262 12.1378 4.33894 21.4134 20.4978 19.9572 7.84689 8.05325 14.4392 12.6578 29.0753 2.9615 27.7482 24.8343 5.55888 1.48993 7.73896 21.1788 23.5928 12.6707 5.62477 7.564 10.9434 12.3945 6.6658 35.6844 119.882 66.1203 4.561 2.47945 44.3161 7.31804 6.23134 1.83022 4.28186 0.000317977 0.00052062 13.3947 11.345 74.3181 18.3737 9.9875 2.03819 0.000365792 0.000566127 2.79283 14.5222 17.8933 21.59 24.7807 0.000439398 0.000611295 7.81012 2.58732 24.666 5.91139 2.90973 4.23188 2.92727 10.418 6.25959 16.3302 1.52573 5.85688 17.7388 0.000375158 48.3853 16.6192 21.3832 0.467584 13.0991 30.4437 2.71274 1.20496 15.6477 17.6761 7.67657 16.2836 0.000250443 15.1914 187.993 29.6161 12.9623 17.775 21.7933 0.000604698 0.000223547 33.9551 25.7318 0.000461589 3.75565 30.6372 124.352 94.3753 46.0241 21.0495 3.21079 17.8903 45.6169 17.6019 5.44926 8.43607 111.977 86.6484 69.2189 94.0438 6.42039 4.89285 7.93911 1.02081 17.3797 0.958798 22.5032 6.08953 19.9252 21.0368 4.16164 33.0762 8.01328 11.9141 10.5563 18.7528 7.33479 24.6794 10.9041 10.8401 13.1702 7.32936 10.1395 17.2001 16.1437 23.6538 17.2581 4.81539 4.05543 20.5069 37.0381 10.5868 17.4646 66.1041 33.5298 149.778 61.688 5.57038 55.1308 7.06686 10.3332 4.62894 12.0778 9.26012 14.5196 6.96359 13.9098 43.3346 15.0776 43.0325 8.76667 57.3291 7.28102 16.5318 19.359 15.3721 53.8495 42.5776 13.0297 0.000381904 12.589 36.9431 6.32993 0.000237676 5.14346 27.3123 30.3668 10.8434 6.0237 10.0797 9.67537 19.3065 19.553 23.5739 25.9265 18.9241 4.50518 31.0087 3.32494 1.33268 7.32857 2.56847 5.21274 99.6442 139.698 3.61755 128.972 18.5176 11.4736 2.87648 10.0769 14.2049 5.24675 15.1985 10.8155 6.46793 4.68285 13.3011 3.91177 24.6628 10.6138 7.3613 1.11801 1.56777 0.739696 42.885 13.2484 17.8083 19.5425 11.369 26.8133 30.9747 43.1652 12.3891 13.4957 7.55891 71.0083 5.10573 37.3291 11.1478 18.1853 10.8488 17.5723 50.2631 44.8746 21.7539 6.49101 8.30325 3.8957 7.24858 13.8286 10.1413 7.66187 11.7981 5.75467 5.57809 24.1061 7.30257 4.60465 17.7297 19.759 14.1611 11.9653 28.5342 41.1316 39.334 8.994 10.6146 15.3691 71.5571 65.4237 19.6674 26.2536 180.867 430.509 508.453 325.959 265.487 6.30552 70.7135 5.20841 20.9014 22.1714 39.8572 15.8759 43.1165 19.704 22.5283 18.6325 15.5357 18.0977 13.4626 39.4169 14.3772 12.4386 7.27636 3.2977 13.889 12.0877 8.83534 4.11923 8.3094 16.2322 14.3023 16.8567 20.5163 23.6474 0.114763 20.9917 11.971 16.1281 15.8783 16.7725 13.9363 5.54787 19.0419 16.6941 9.45281 10.7738 17.3607 57.253 15.1135 7.99643 33.9215 20.5644 27.9642 3.6958 3.3167 10.1597 7.16778 21.5811 10.111 0.000352436 4.76942 1.92924 1.89216 14.3498 6.11189 2.84619 3.4806 2.63944 5.2702 4.92532 7.76846 9.42278 15.2948 2.5906 2.86469 1.96853 3.99902 20.5384 2.12804 39.3595 12.6871 11.7491 34.3553 26.6642 13.2617 4.43022 15.9145 1.7352 4.90641 160.538 4.682 8.12621 21.5582 3.46916 28.0088 174.067 9.1424 11.0021 3.64538 6.12562 6.59257 7.54699 3.41986 8.55102 7.20996 2.63489 90.7247 51.6357 28.4587 25.8098 37.4072 2.21566 3.93971 3.77941 6.62594 70.8266 23.9573 19.663 20.328 7.07724 1.15717e-05 13.406 4.86173 21.3989 4.11377 2.14522 21.8232 0.579431 4.68431 7.6924 4.68689 2.07219 5.59707 16.2937 8.88379 128.561 2.10139 1.62836 29.3179 5.33708 2.37731 3.77263 4.18909 15.3757 1.75753 1.96136 2.47866 0.916918 8.29092 5.37673 12.4317 6.64914 10.8867 2.11053 6.32052 5.70291 28.6694 12.0796 9.23019 2.78873 7.93667 12.6264 67.311 4.63945 13.391 6.00083 42.9776 25.2908 10.831 24.8056 18.1097 32.8112 33.9024 6.68219 10.2815 5.86866 3.87613 83.8164 40.6008 28.4025 35.0785 69.7325 7.60941 4.7025 9.94694 28.3236 2.22617 4.15928 8.79917 2.61984 5.97429 6.12294 3.19096 35.2987 23.8138 16.5887 44.8108 50.771 7.65007 7.9881 3.78134 10.1183 0.350112 1.9998 1.68211 0.364167 1.12192 0.525139 2.07516 2.15934 0.829055 0.702558 16.0147 0.273634 11.0017 5.59686 23.4726 4.7119 3.05212 346.905 4.30532 8.17588 11.8138 6.53609 6.5108 3.17235 10.6448 1.52324 23.5061 0.000297867 0.000440029 38.5667 0.332251 42.3486 8.26178 1.74385 55.2183 63.8971 134.467 0.231295 37.0969 46.4172 74.6018 2.46763 3.26065 9.38492 2.00027 0.844935 2.4181 21.5579 3.06244 1.83086 3.16828 10.1574 4.62306 0.520282 8.56674 31.2999 15.2278 7.62894 4.26385 4.48461 15.8696 19.3342 4.21474 0.372834 0.000166948 5.72083 8.10147 69.3754 21.5098 156.566 26.4423 128.587 3.78475 1.16198 32.3221 0.651882 0.0141555 6.51751 22.0144 49.9401 74.3843 27.8688 93.5539 73.5545 99.6369 3.22097 5.98202 64.8153 191.655 121.633 1.4128 24.3513 2.87896 3.9951 21.1513 0.446378 16.6943 23.1347 18.2823 5.00067 4.9699 7.46435 7.82117 15.4723 19.0302 14.2123 9.29171 43.9159 18.5734 54.874 96.176 62.1909 74.4312 23.1215 51.9154 7.39945 49.4184 19.5376 10.9996 17.0968 13.422 1.04611 11.2479 69.0049 4.50124 4.34162 45.8988 3.47881 4.92877 0.238057 29.238 13.9469 17.8627 20.5832 40.0789 5.39981 17.5163 3.92566 66.3502 2.93856 6.55551 4.50127 5.45164 25.1786 6.33557 34.8308 5.13358 30.3742 12.0124 5.71836 0.000168547 0.000140636 4.22906 0.0128982 1.51465 155.547 616.569 594.355 1.55614 5.61026 1.52539 5.23787 3.31813 2.19702 0.0658644 31.6496 10.8078 12.7529 14.5177 15.2966 14.4829 13.8692 0.000672568 29.2302 7.47781 0.266424 0.272572 0.452979 2.74746 0.241592 4.85296 17.4899 15.6095 3.19208 40.8076 14.7935 18.0141 15.4207 78.3085 152.835 1.02309 57.5921 2.60655 0.329604 0.374414 0.508897 11.2827 7.53657 9.9715 13.2186 29.2494 11.2827 129.769 156.471 119.76 131.217 43.3019 0.149644 64.9877 0.242846 0.209136 0.127611 28.6732 55.7527 32.7029 29.105 37.3093 13.8647 19.7609 13.0114 77.4784 68.3836 0.000580057 16.5211 12.6512 1.91665 14.5707 8.00794 8.58157 2.5219 14.8212 8.91136 4.13898 4.45445 3.79688 2.67492 13.8085 9.18139 9.63769 9.80871 11.9911 7.12653 35.8444 12.511 9.26415 37.1006 12.1583 7.04292 5.72456e-05 0.000425252 7.65833 106.482 30.291 53.947 5.66552 31.9319 3.37399 2.35012 2.56434 4.56086 1.91882 2.22048 10.5199 8.29622 3.59975 18.124 2.93273 14.2123 14.4255 10.0553 10.7539 11.2268 4.29264 8.31847 3.10141 16.7805 11.0283 4.6587 34.8276 17.0181 24.1814 19.969 5.69499 26.4061 5.85402 4.43159 9.86978 13.001 16.2517 14.7438 21.8728 6.92402 4.29102 24.1991 9.62629 5.99474 2.55339 5.94751 15.5324 15.3037 20.38 3.20086 30.2302 21.6379 7.17472 29.3474 20.1759 4.40593 9.19353 9.17152 11.3648 13.8772 5.89485 8.19966 4.19383 5.57043 7.29521 10.8176 11.2589 16.8789 4.79367 6.19453 16.5621 11.0434 5.36866 6.14104 7.29043 13.4774 4.03397 1.52248 2.02864 3.69345 5.68962 4.53754 3.16205 2.58011 4.89206 10.6465 36.5987 7.48527 21.4813 29.9542 11.4174 8.07648 6.5473 9.12428 2.37239 8.33834 23.622 20.7556 17.1339 19.9344 2.66854 6.69996 7.33368 8.19124 8.87909 0.000710166 4.33154 60.1281 12.7056 11.3967 6.64809 5.72611 126.867 27.478 4.23346 11.2136 6.75006 5.93001 6.03874 6.15314 9.13995 7.00212 12.239 9.13908 9.40063 3.36749 5.84431 4.23538 5.47864 10.038 6.14221 6.73528 10.684 12.1935 3.31751 6.7003 8.26169 14.4243 7.54775 11.2752 8.64742 16.1505 22.516 12.3947 82.9793 23.8912 113.951 76.9122 13.8498 14.985 16.1845 14.9271 3.2436 4.15544 4.37983 3.45549 27.5825 24.1021 15.5941 5.42202 13.1002 29.0115 25.8855 11.4948 3.20146 20.1726 2.8287 14.7896 5.10222 13.3552 10.0251 8.90786 5.61719 7.34885 8.95889 25.7058 19.0512 21.7185 0.000361516 46.6961 13.0417 1.90413 15.2103 18.0878 19.1492 15.086 16.0128 41.4955 16.584 11.1935 29.5666 7.50979 4.65274 3.38766 6.88846 10.4062 1.47043 6.73826 6.08397 31.2992 11.9754 42.3417 6.15137 4.74179 7.01625 3.55244 33.2329 4.93761 3.14941 4.35553 70.6819 30.5371 17.3522 5.54404 6.78456 38.7888 27.4652 31.1368 21.5674 5.37385 22.0969 12.3662 20.3278 18.6983 34.5448 3.55642 17.2666 6.67434 3.16186 4.83445 6.7042 2.06054 124.486 24.9817 24.9471 34.9595 107.562 203.399 3.79757 8.82343 38.1584 19.3682 34.1251 34.7211 6.03576 12.0557 8.41254 26.979 39.5108 5.33389 11.2113 31.1205 1.99149 5.66891 3.32354 2.98566 15.6222 6.70685 10.6713 2.71956 1.57113 10.7324 5.05962 0.000187972 37.8937 0.000128259 12.4173 1.35563 9.65669 27.8071 2.40929 15.9324 166.253 18.2334 1.67831 7.49375 6.53524 8.79782 1.98023 1.20048 2.21472 1.42121 1.36525 1.411 1.41072 2.81249 0.863218 2.25463 7.30488 1.41901 2.6514 8.58832 6.54918 78.0647 82.5252 67.3069 8.56308 10.4933 15.1602 12.975 16.6379 6.80581 10.0616 5.86544 1.88602 1.63096 5.37652 37.9188 7.62777 17.5536 40.3199 57.0836 12.7138 3.97948 34.9734 135.561 11.5878 10.5934 10.1755 51.6896 16.2388 8.19091 10.1175 5.12202 6.94113 10.3683 76.5691 121.403 13.6387 0.00116065 0.000757061 0.00065369 79.8611 107.539 74.566 66.4317 3.05489 16.1176 74.014 46.4765 2.30025 6.97154 15.4197 31.367 5.3504 8.52965 6.47812 3.13928 106.522 84.0615 114.304 88.595 18.0358 20.6277 14.5968 16.4385 14.963 4.8446 3.66304 10.0316 3.90846 19.5151 20.1788 29.7765 13.8069 3.7018 7.75751 9.78751 3.22622 3.61212 1.58169 2.09706 0.837024 2.72146 52.8462 6.94892 7.28222 6.75856 0.00064838 29.4299 40.2542 20.9756 18.8135 57.3878 35.9505 58.9377 32.9833 33.9183 40.0584 38.2047 30.6668 24.0832 29.5292 17.1953 21.8597 15.8973 24.1609 51.6108 0.000598835 0.000782903 0.000238401 39.1185 19.4076 71.711 97.6855 34.6806 17.5985 20.3866 13.7144 36.3149 35.5873 16.8808 15.6901 23.7351 38.5179 50.8606 45.6599 44.6535 67.6447 30.7252 31.8703 25.7934 9.79874 0.508066 0.409593 0.192581 0.216804 0.121959 0.123629 0.0559086 0.0936305 0.0995625 0.0580622 0.0413291 0.107344 0.28425 0.146734 87.2885 0.669906 71.6156 0.264691 0.406506 0.830027 0.747143 0.310826 15.9472 0.120855 0.039424 0.0968744 32.0265 51.9647 25.1884 0.0426476 19.3277 13.9317 12.4905 24.9568 20.5094 0.0497028 0.203949 0.13082 0.100811 0.116275 0.124205 57.5351 44.0156 16.3623 12.5981 33.5158 35.5319 127.108 71.1932 21.3938 74.4451 9.26067 5.13333 48.2685 29.057 15.1863 0.115503 101.107 96.8291 85.3491 122.737 86.5393 84.2933 0.0974916 121.948 6.64602 5.90531 2.87254 15.3399 29.1513 21.2544 0.0465934 29.4 20.0014 0.0819611 22.6582 38.0973 0.123204 0.135958 78.5237 0.0599293 3.11469 37.5197 7.87426 63.5 47.1457 40.2203 104.467 30.6542 55.686 38.2913 73.8691 76.0326 24.4684 27.3304 20.725 27.8962 41.7292 63.1888 48.3193 27.6586 64.5157 0.142368 17.9807 16.6029 0.152446 43.4603 39.8766 23.6077 61.6461 38.0037 68.1329 60.2926 46.4239 69.2883 1.07724 0.881339 16.8268 20.3305 19.7302 20.6012 16.6493 5.29174 0.121576 0.0725597 11.1211 0.0484079 86.263 119.257 9.84062 15.9428 17.3479 206.571 21.2359 271.952 22.95 0.0900516 12.7293 25.9948 24.9281 29.6426 19.7428 4.5436 13.4981 5.9151 14.8259 18.6684 46.5666 0.0881017 2.88346 4.12044 3.44217 14.3275 9.87933 12.8311 12.9316 10.6769 0.0951805 0.055625 0.100443 0.0373449 0.0950331 0.0366561 0.0919815 0.40835 0.37005 0.232168 24.1432 33.3936 14.5744 15.1308 47.8535 213.815 206.523 80.4856 0.100438 10.9967 20.9944 17.4978 14.2017 17.0764 13.0793 13.4268 21.9007 36.8696 10.4503 12.1133 10.9483 22.5489 0.271626 197.263 296.514 374.451 183.81 238.445 0.119966 0.796136 38.4971 49.2953 41.396 0.450437 0.131009 0.904788 0.133103 0.0847222 5.16652 0.168098 41.326 2.72142 62.1596 66.919 105.572 116.177 0.110656 13.8056 13.1107 7.95983 19.9868 14.1464 9.25176 5.52458 10.9476 88.9046 0.0734807 26.4719 31.8117 0.0725054 0.0798133 69.396 61.3779 31.1047 23.4667 38.4073 1.26459 15.6973 40.2965 1.16849 0.0782034 0.0192268 60.0955 71.8513 29.5761 28.2075 0.294286 38.3417 36.3213 30.4894 18.4337 32.1006 26.8373 42.4289 23.4325 37.1326 13.6887 23.1574 39.9389 8.97177 14.8924 7.45732 12.9788 14.7482 12.9843 0.747721 10.1435 8.19577 15.1068 13.8153 1.60729 0.0596543 0.0562109 0.0427897 0.0293017 0.0650831 0.0687291 1.30363 22.2844 53.4881 33.9157 2.13946 3.66032 45.1465 12.2055 41.4876 13.2891 20.4348 3.6244 22.9903 27.9663 9.77013 13.5819 30.1041 0.376914 20.7819 58.387 47.8386 0.387525 46.5227 0.246735 53.5031 22.0583 16.229 41.4048 16.7635 13.4377 19.4682 0.048955 115.113 30.8686 20.0167 45.0522 31.4366 53.2519 55.2086 0.147027 8.1962 0.0594253 9.19371 24.17 4.53025 12.2539 2.71988 5.33636 15.9475 6.06102 0.0515587 82.8035 36.3141 0.0862396 7.7583 0.0835595 0.0616942 0.0559694 29.31 18.1591 6.07494 17.9521 0.0443676 6.11947 9.68176 19.9013 17.4279 22.95 1.93492 92.5983 31.039 25.6468 43.503 76.4627 20.5543 38.2781 17.5283 43.1291 5.81429 98.9387 0.0317168 103.622 0.0258576 0.0337585 3.50998 11.1279 8.47023 21.4463 4.702 2.42111 0.0341255 0.0331694 3.33256 11.175 0.0718825 0.863643 0.149828 6.91008 0.813778 0.546294 0.44581 0.00066711 0.0346064 24.8378 1.54702 0.959091 0.98966 12.7325 22.8117 0.954013 0.000745845 0.331101 136.066 12.5111 31.7099 0.276362 13.5106 183.326 0.701221 0.917521 0.0319558 0.723414 1.97818 5.35558 0.616332 0.629436 42.2062 4.33735 26.0935 24.0883 12.562 4.73036 7.59715 0.816981 45.166 0.801028 15.3353 6.4008 0.163056 8.40939 2.39776 0.304441 20.4743 6.63387 15.114 30.7867 16.8789 86.8414 72.7467 0.000588352 33.5189 4.32048 14.0376 4.20404 9.03703 14.406 4.91642 36.8558 0.527571 31.1386 26.4947 7.61118 3.66628 6.73302 13.5265 0.213912 19.1137 121.233 89.8536 93.7079 0.115472 5.03405 32.5774 50.2435 8.6377 9.57792 12.7384 5.97438 33.3898 22.9974 20.1547 65.7175 17.5705 28.2085 37.5988 24.5526 55.4895 64.3695 49.1082 61.6229 68.0224 0.0786851 0.13823 0.735093 0.74977 0.441218 0.045024 0.297768 0.0614146 0.33307 0.0145776 0.853286 15.6011 32.0853 29.6692 4.04088 7.56052 0.0236422 11.1869 45.1556 47.0939 37.3004 20.8277 9.04388 8.32774 0.105855 13.1007 17.7132 12.9514 25.4707 17.7227 26.427 10.7359 12.2847 8.98424 11.3662 4.35043 7.82022 4.35977 8.97946 4.46642 24.746 5.56318 20.1976 9.23845 60.9304 59.2741 0.158822 29.598 0.243587 27.5456 0.278838 0.0956051 5.53754 9.93181 28.2856 0.648556 11.417 32.3066 0.783393 0.548714 0.589558 0.892227 16.3815 18.4779 33.9885 22.6691 34.5496 0.646907 0.529597 0.53446 0.970551 1.10029 14.4708 17.3392 9.20888 13.3162 16.4277 12.1085 32.2152 12.0378 17.9787 24.5114 0.461997 0.0864902 22.1934 0.1687 0.167523 38.1141 3.98529 2.26063 2.38481 56.524 1.64087 3.09409 0.362416 2.27723 43.2243 12.3517 6.88059 0.773523 1.80348 7.75025 1.76092 68.4285 1.60295 20.8567 1.31718 1.47938 1.42037 36.1888 3.51831 40.315 53.1751 43.3864 6.63096 2.29478 35.9417 14.3048 1.87043 2.65667 4.3929 11.2674 23.493 12.7113 71.2668 151.344 5.38548 136.763 28.8374 1.36625 1.75721 27.554 16.376 25.4399 13.7449 35.393 17.9102 21.0638 42.2719 57.5269 15.0233 5.55344 9.28803 10.0696 11.522 5.7912 80.8045 0.000601284 36.4866 1.94316 29.6824 44.7058 2.70459 2.51679 7.44378 3.12852 4.85051 2.80482 13.5576 13.7861 23.6144 8.44518 1.60303 3.35818 2.52313 4.70794 6.4831 6.31768 4.73632 5.30102 32.9076 54.0554 28.626 16.4698 14.7449 207.905 15.8942 60.1778 19.7826 46.1444 14.3704 18.345 2.42124 111.995 6.21989 27.1054 51.3157 16.9577 19.858 43.6616 2.46659 0.137784 0.143449 1.88654 0.906184 1.06329 40.0824 0.502817 0.499407 98.9698 44.0616 0.409156 1.12751 0.87876 3.52266 2.34521 4.25067 4.43068 7.56626 3.92459 3.78861 16.9709 0.122892 13.2631 15.3942 16.7383 21.6585 9.48016 7.53575 12.3487 209.923 0.690237 8.95907 38.2965 0.403071 0.903235 35.2656 32.6847 12.5732 25.8623 24.5726 24.8072 9.13762 37.1275 30.9238 18.4755 17.5358 20.1234 185.092 210.235 432.137 6.36422 62.7842 47.5496 6.6493 8.02313 29.6467 29.0307 13.4807 0.100672 35.7561 18.4082 11.8511 3.68304 17.9908 0.253636 6.90588 7.77208 5.63504 5.62199 7.23503 9.6533 10.3864 0.326774 0.163125 1.25765 0.890996 0.154951 2.94949 0.419535 0.134676 0.253289 25.4963 32.1589 57.6602 3.71924 4.62722 180.759 149.64 31.4585 33.8964 7.9393 6.83765 7.24806 23.6472 4.50759 32.4282 2.26101 18.1247 1.09229 0.102689 21.9087 1.5044 0.797135 29.0983 34.363 14.0071 50.204 6.04381 7.0367 3.91079 7.71101 0.0802568 6.40473 10.292 4.10745 0.0479149 88.3318 8.60513 9.9844 104.694 7.41524 7.28987 11.8599 1.4946 4.34889 9.4322 0.000488932 0.000458878 0.122916 3.18013 9.62862 3.88084 101.703 99.5103 15.3141 15.2728 95.7419 19.3542 39.1306 32.6962 9.47879 18.7341 2.4488 68.2289 65.9833 5.48972 1.83318 42.21 8.49188 57.4993 35.352 7.83527 34.4276 22.4943 20.4364 32.4329 6.47841 0.00025806 6.49446e-05 4.45029 17.6651 4.28848 9.45381 0.0757834 18.0192 17.1875 23.3887 45.11 39.3009 30.2403 27.5326 25.18 16.1393 1.06929 30.2737 0.0394699 22.8779 58.173 32.6749 32.7763 25.4799 0.0371152 43.1535 41.672 40.7098 25.2247 33.475 74.0305 62.3541 12.2807 15.246 0.0204675 5.1231 11.3853 25.1366 19.4133 17.711 16.1845 16.5162 45.7493 12.8718 60.0156 20.7134 10.4255 0.0712341 23.7514 5.36585 0.81199 7.44605 1.0747 49.5684 51.9969 53.5934 42.6213 80.0388 75.0349 18.7142 11.9172 10.3655 360.633 2.38749 28.5447 15.4154 29.8518 24.4165 10.0195 16.4528 24.2506 15.9918 0.0435239 11.5843 11.7633 7.83969 6.57889 4.52406 229.24 236.98 379.775 434.738 3.38755 10.615 4.71553 11.7131 315.196 440.602 78.0456 34.9976 25.9712 76.1035 10.8942 6.94071 17.5206 3.35707 0.0004728 15.5561 163.7 15.6673 146.898 171.217 172.378 55.215 36.8797 49.8337 40.8605 1.67324 30.0215 1.83201 1.82433 1.72693 212.444 3.63797 265.19 257.71 308.067 2.15101 1.47241 0.0815818 8.40221 58.773 104 43.1899 78.0883 93.5193 32.9205 5.38063 36.6365 20.5328 20.8693 26.0756 19.5402 37.076 63.7933 30.899 96.5005 11.366 9.07446 10.4654 32.1021 2.88188 33.3801 3.66351 27.6868 14.9393 17.042 0.0139495 4.18034 17.0861 6.26901 7.27372 3.96817 0.0653298 5.36538 6.9341 22.7874 0.0898657 7.79401 4.04518 2.41732 67.4541 44.5562 185.416 172.932 57.9223 7.03123 37.8428 28.9051 5.20221 12.9256 44.1942 18.4083 11.6757 10.1647 26.1795 6.0396 3.47681 6.36385 40.7574 0.0199338 0.0227878 92.2959 194.378 3.19116 73.5223 4.14383 69.7257 0.134086 0.0774834 8.00553 7.43014 9.73043 25.7318 47.3453 4.4141 4.66912 12.9511 4.03772 10.7351 10.1515 12.1362 11.5393 362.314 452.462 9.98374 8.82994 5.33477 118.856 19.0841 3.06606 161.201 87.441 11.0536 37.2846 15.4914 15.8596 6.13407 48.2668 78.4552 7.23643 19.2805 0.000344844 5.45627 2.20839 20.8505 1.28665 8.58839 0.0982486 0.129432 206.403 0.153338 0.130529 13.9051 12.8471 19.0927 36.8563 44.31 50.4454 21.6541 0.0902532 170.79 11.8342 77.83 19.357 11.1254 238.844 4.516 9.86668 567.482 5.21844 7.54942 232.845 197.476 98.6636 96.0759 105.029 6.70363 6.48748 0.132558 26.6433 44.7943 37.9873 1.99861 3.26856 2.06133 9.37611 63.4093 111.296 54.1414 6.16513 4.59811 8.65928 6.31414 0.922884 31.8373 10.9531 1.10264 12.5149 1.64607 1.38917 2.76808 4.77258 7.07883 12.1899 5.71653 3.31105 80.9087 18.5135 14.5773 42.5824 44.8005 38.5755 18.5505 169.687 103.876 49.5887 89.1792 0.0268882 50.7226 13.3635 0.412189 11.4593 8.79063 37.1305 32.8312 6.72058 82.1459 12.6799 0.0250666 6.18998 6.231 0.0654543 10.808 0.0675664 9.98387 3.65687 4.27259 6.31091 55.8075 0.0510285 45.9223 35.4188 0.0604384 0.0496283 1.95054 3.34281 25.0199 30.0198 0.000256638 11.3462 48.7592 31.929 22.3698 15.7322 28.0196 43.0028 13.7487 11.9925 2.83796 73.717 45.7341 2.32832 1.06888 6.53409 59.5911 68.0636 125.477 3.13477 120.077 75.4499 10.4189 1.04699 0.242012 0.000186351 5.85888 2.18446 26.3238 21.5261 2.26284 93.3157 84.3366 57.1629 49.899 113.066 17.87 0.219305 10.792 37.682 35.3949 33.2475 32.0533 32.9467 16.0561 17.2453 52.0921 14.1904 58.4984 27.6246 56.1526 27.5324 24.0771 38.8067 15.9658 36.334 43.6734 38.8956 44.6361 56.0581 55.049 10.7019 86.1159 73.3167 35.275 49.3489 53.501 1.37338 18.1613 28.9454 9.2562 17.2422 32.7166 58.3938 29.0791 6.40848 4.97047 5.06163 5.15749 5.98391 17.9446 8.45436 27.8664 59.0447 58.4058 22.4968 2.73641 0.550338 66.8039 0.466056 47.6896 49.6676 0.333968 0.67907 9.14489 1.87982 45.4774 2.69139 29.1687 44.0457 22.7294 27.1958 0.0510313 21.6862 19.5028 3.15941 91.8855 56.7853 74.6362 83.632 131.815 7.49055 7.77429 8.19655 4.74685 10.8713 49.4795 13.6225 69.6642 52.3534 32.4314 26.7968 26.7436 9.89028 25.0872 18.1516 2.1924 12.6641 63.8072 22.7903 4.25649 100.471 70.6231 0.904224 0.456562 15.8179 13.4795 0.657722 0.780998 0.772855 0.0428399 29.3275 43.7174 0.510456 0.422489 108.809 118.065 158.141 141.22 150.092 33.6302 18.7775 2.87373 22.7905 27.6056 21.743 2.91935 0.0614659 7.9989 79.3872 108.854 67.9982 0.18868 50.0702 4.89211 1.9503 4.25242 80.4598 0.0456645 15.6275 62.3752 20.846 13.4809 20.3355 7.60858 0.028892 21.0225 140.94 8.09536 63.035 88.7167 4.57708 5.71225 81.7152 39.798 24.976 13.4296 30.4547 20.7143 3.94971 4.1295 5.53242 7.63176 5.14039 3.637 10.1236 6.82242 4.33592 5.23371 2.26459 1.80219 5.55013 0.157743 0.139243 0.778841 11.2956 10.1254 27.8448 13.1372 11.0403 10.5643 11.0302 21.6791 5.10209 26.9801 4.65577 31.212 60.6077 61.4857 76.1733 0.0287008 69.3104 61.6394 12.4137 3.87101 3.39191 0.0627349 9.21212 55.4365 89.7996 65.4543 193.717 9.05934 2.64789 39.2291 85.0458 48.4993 44.1844 90.4447 32.0652 42.3081 67.1945 66.7558 110.058 73.1236 9.45958 2.7586 38.1595 58.2362 32.8479 29.9846 30.8801 51.9419 21.7093 13.5327 25.3887 43.3874 130.622 11.4771 169.641 9.97639 10.6259 5.43926 19.3307 43.8475 19.6627 82.5954 47.7409 15.4212 5.64305 12.2557 31.3149 64.7354 66.0716 26.4686 22.378 93.4503 69.2361 68.4726 73.2371 4.78289 4.37831 7.94921 50.5888 56.2624 18.4234 11.9708 350.892 138.475 0.000863171 0.000777505 0.00114684 43.1596 20.8358 29.3028 127.015 60.554 59.0658 9.61794 14.9325 94.763 121.484 37.4032 8.56437 7.28447 13.2288 33.8665 22.8011 9.01761 0.335205 0.511006 0.688051 0.991714 11.319 0.470712 202.563 11.0269 6.13051 1.22146 56.2173 2.16243 1.65214 45.9923 1.71024 2.91653 99.8131 5.16201 23.095 39.1729 24.1626 21.5783 1.04068 4.59051 2.44655 177.347 140.02 62.47 1.25826 0.574147 46.6406 48.5653 4.59658 105.87 39.0438 35.0543 57.7488 62.152 75.4794 72.9724 62.7431 30.4407 64.1057 17.4879 39.5344 32.5947 18.7278 19.608 123.073 111.954 18.2957 79.1046 60.9345 12.8513 16.6088 53.7933 34.3685 52.301 168.662 0.0438975 48.1793 22.9426 10.7012 11.6423 2.73183 53.1945 29.3835 3.17208 27.6918 3.3383 9.94855e-05 6.74864e-05 7.27952e-05 11.0542 0.0263276 19.4337 21.2544 12.0166 3.91881 0.129694 5.82136 59.4747 54.5372 4.61394 40.5771 28.2001 23.5345 30.8456 0.000300518 0.0001073 23.0937 0.000371045 0.000127109 171.763 32.7742 15.174 2.07525 133.972 3.22709 51.415 2.12814 76.6004 24.4074 10.4385 12.6399 3.23761 18.7821 1.10596 2.94384 4.04934 35.4348 51.4361 34.1165 41.2112 36.0195 4.65632 44.3274 12.1501 44.6431 34.6936 30.8353 5.86832 11.608 5.10131 10.5789 52.8272 48.6308 30.5193 58.9458 39.7616 5.35577 26.7855 16.9604 28.6784 94.3418 31.2108 102.095 5.84617 6.32607 20.6354 14.7799 8.53774 34.664 0.0179431 0.0295541 26.1435 133.337 1.61156 3.8342 93.9457 55.4311 27.3001 18.2845 60.5963 2.99065 2.61151 9.1105 3.21233 0.0224256 8.73367 32.3497 154.314 32.0016 0.000345272 21.0851 0.358266 22.8261 3.30209 25.1961 54.8876 3.16428 40.9123 39.192 33.4447 46.9003 6.25675 3.70639 3.79199 4.09778 13.803 24.6197 5.55522 4.93093 3.26492 6.06399 7.33318 49.6028 64.6213 58.4396 43.0594 0.0186604 48.5563 2.05234 60.5389 32.061 109.003 12.5702 24.5343 54.3775 57.0028 18.5218 1.40911 2.65315 59.9067 39.0684 23.6789 15.2062 33.0293 0.026474 8.76931 13.9041 2.39362 4.15659 63.2741 3.01425 1.39136 1.08198 56.8578 70.2981 0.0614133 21.6474 24.9316 53.6318 7.6553 0.000451526 5.05728 7.40353 5.28234 10.6708 36.219 16.4977 0.689418 19.5675 18.4037 34.2124 28.72 56.6102 58.5387 40.9316 0.56205 0.605118 358.07 29.6527 31.6299 19.4327 12.3273 5.41824 0.000332103 21.1095 12.1244 13.5109 23.3858 3.57191 0.55375 0.461966 0.330363 0.23692 0.138393 9.2854 28.9768 0.127338 0.0538024 12.6513 5.60551 12.6094 0.183054 45.6844 25.6949 78.9219 25.5324 73.9113 44.5416 0.000880515 46.7681 0.000146578 40.335 4.84471 0.391197 0.357659 0.0458067 36.4337 25.9042 2.55419 13.7987 0.0378185 40.5192 39.1009 0.00018677 1.34703 28.9304 3.57873e-05 14.4734 11.7672 59.7025 6.7189 4.03532 4.59328 8.0901 12.8561 10.5877 7.42477 1.54053 2.20038 79.8651 14.5153 5.79909 9.22247 3.39091 31.2597 30.4685 3.05423 23.0014 4.22589 4.69145 1.53726 5.62083 3.7607 0.065077 2.27301 15.0593 0.000329657 7.61953 19.5706 0.000221648 3.41589 12.4522 10.7122 8.64622 6.75989 76.068 29.2361 21.4809 38.2606 68.1436 184.164 2.3141 0.0636135 13.9242 0.0310083 32.2167 69.998 12.4971 134.689 21.6232 84.4849 17.3091 1.41968 18.9589 6.53258 201.441 19.6143 13.713 26.2632 15.8288 3.19961 7.83494 7.1579 3.87762 8.26855 3.15963 0.0571069 27.4171 1.72529 0.138779 16.8124 3.57169 34.0871 1.26196 3.93136 2.6652 42.3358 7.28137 2.48583 1.90504 1.44445 5.77948 14.7443 0.0118776 28.1165 0.0243926 64.1032 4.81391 10.4865 14.9936 17.7672 16.5299 17.8693 14.3298 20.936 24.7685 4.14969 27.3181 9.15962 10.4473 60.2606 10.0942 23.9336 7.80375 15.6256 19.0936 9.66495 25.067 13.3033 47.2884 17.5533 25.9699 13.6091 12.2416 4.86907 12.3874 28.9299 10.4482 26.1589 23.6079 8.13167 12.6134 12.2301 2.19444 12.9466 7.93131 13.4407 16.7963 57.4044 18.3023 27.1929 36.9936 1.43851 2.58179 17.221 13.5569 23.3141 4.8533 4.01168 3.13077 5.62697 5.27157 41.4229 87.3398 125.917 104.671 158.952 41.6319 29.4224 132.802 89.9958 4.7589 3.20789 3.57163 2.04311 16.027 10.3168 1.65813 0.322072 38.6436 9.40144 16.6829 47.338 65.3601 35.4931 35.2106 26.813 26.7463 0.156727 5.04659 35.2138 8.89185 55.1329 25.5288 148.55 162.579 110.556 133.972 18.8829 145.372 30.0226 18.7972 25.9887 13.6495 7.854 52.2965 2.81342 13.0943 11.9466 58.5519 9.52031 4.85303 50.4557 59.1381 71.5802 50.8993 90.4981 5.36937 4.52837 40.413 122.63 82.7212 5.22485 4.51927 12.649 6.10567 3.55792 150.661 18.6677 6.87138 6.74107 2.92743 21.0319 3.1713 4.30005 19.7336 11.3856 30.8087 26.2463 1.03535 26.6718 20.1606 20.3846 16.076 203.372 137.288 36.8304 251.856 233.853 2.69642 0.000271203 26.2115 6.2912 48.3522 25.6408 50.9863 32.594 1.12491 2.20369 0.434527 23.1984 115.563 16.8106 78.6821 61.6645 86.1438 0.519761 17.4277 25.2427 2.56649 6.93077 6.45955 9.034 7.28785 1.02875 32.4743 42.8765 6.37821 16.5815 9.67259 17.2703 25.119 3.37208 13.4116 20.9475 17.6345 50.4184 10.9717 36.321 8.35144 6.086 72.1455 65.6617 1.733 55.9856 33.8354 0.584262 24.5972 34.172 35.041 42.5114 52.3639 33.2614 32.6758 13.7155 14.6528 18.3737 20.2148 1.06742 8.03873 17.917 16.759 25.2847 32.8467 26.5429 34.9874 23.6482 10.4927 35.735 5.23163 22.1188 45.0938 15.1261 22.356 28.3153 42.3239 17.1272 17.535 9.90074 16.6918 13.1721 13.8884 16.4865 41.592 106.082 11.0257 45.5968 8.53893 12.7978 11.0462 7.74245 53.2302 19.8465 62.3599 37.8209 52.8009 0.000232934 28.0468 33.7166 3.4474 3.6514 10.2573 10.6175 2.66422 0.437084 3.77662 3.54993 6.14243 121.214 14.145 38.2229 95.8206 27.0428 3.64893 6.19262 19.3657 9.72868 75.4596 14.1097 51.1942 18.5724 8.67104 3.62998 61.9567 17.866 16.2238 11.2918 44.761 6.903 39.4945 10.958 4.98647 19.5979 12.2735 0.726637 14.7882 35.1457 7.54653 14.3985 35.7287 11.9233 5.14599 7.24706 57.5695 13.3499 8.68189 30.9074 0.000204457 17.8458 20.0939 11.1789 33.6825 37.4118 14.118 10.7402 8.39198 11.3605 14.3527 6.57788 23.8483 14.4653 13.4719 7.86054 35.2653 0.000186925 24.9691 22.9332 4.46079 2.22578 9.09092 11.3081 60.4261 90.071 14.1646 6.63652 48.8438 11.9283 86.9865 7.99296 83.5989 27.0225 13.7708 28.6731 27.2713 23.1763 1.23513 46.0758 25.3156 0.000350553 55.2243 11.6392 31.7721 4.57815 85.362 12.5757 6.10127 12.2803 14.9389 25.7547 28.4949 7.91854 14.2717 17.7011 11.0019 19.7546 10.9677 120.749 26.61 9.21894 16.455 5.86315 6.71135 10.5926 7.13361 9.67366 26.0849 127.84 109.187 1.59326 69.0132 36.9429 348.613 301.287 400.795 0.281281 11.4744 1.96816 0.533336 59.5845 35.2994 60.7224 22.5139 10.8314 22.7682 6.75409 39.7106 22.3217 32.9248 25.8308 15.7495 51.5943 59.6461 13.6148 18.9357 58.8081 25.0854 24.4365 92.7951 65.5974 9.73932 117.452 101.285 71.3692 11.5234 13.6001 16.0978 5.49172 7.2187 11.3903 1.91355 6.23597 10.2198 1.81411 2.66405 31.9515 2.31753 2.32269 156.134 150.968 4.63072 6.46494 28.2085 27.8336 1.62245 13.8295 28.2178 12.5047 2.64654 1.48636 6.28142 40.8472 40.3433 69.8628 42.5313 19.5735 0.000114938 13.8861 22.1434 43.7128 45.5246 61.1465 46.9331 58.7378 39.071 4.31387 12.5716 7.23418 6.6023 6.31588 5.80377 15.0428 9.93969 40.1532 12.184 14.317 33.5841 7.3479 9.03202 10.6413 13.1884 4.26721 2.79952 8.96828 2.58128 4.74566 0.000334555 46.9803 28.5895 32.2871 18.7018 1.54711 6.33618 20.2703 13.6245 15.099 17.875 12.2525 10.9653 23.5268 16.8135 9.91303 12.4309 12.4739 16.7269 9.1983 10.8281 13.1372 10.3946 12.2134 10.8613 17.2422 5.04537 62.9682 9.61979 43.3617 33.8939 32.1965 29.7364 21.8296 2.00878 14.0603 22.3899 9.36845 24.6945 14.5699 6.78679 34.5889 0.000302657 48.4828 17.9074 18.6473 33.5476 25.9887 5.14451 14.4152 9.54667 17.891 15.4227 50.8982 4.43061 0.426516 13.72 69.1288 59.4774 0.000348813 29.2731 29.0304 0.164828 1.05105 76.7548 28.6981 24.7711 13.9825 10.2064 29.1644 0.41995 3.14086 72.8766 4.06449 0.116145 53.7743 36.5606 5.60101 22.996 29.1815 27.6375 36.7944 27.4808 10.1148 10.6029 4.9105 1.038 0.977319 1.1063 5.79353 6.37549 9.01708 50.385 55.156 1.0553 5.2225 31.5404 12.3697 14.3986 20.2906 14.1259 112.253 3.40193 40.63 67.7739 20.412 29.9354 8.23544 27.1115 19.3068 22.2748 122.21 27.641 38.2559 22.5576 27.4488 33.52 14.5064 37.074 18.523 9.89642 3.32597 3.4546 15.912 27.2438 2.93287 16.9725 17.2824 65.4081 12.0458 46.8825 51.7478 8.47382 12.6954 11.0408 12.6019 14.3923 2.35895 4.8118 4.29256 8.71398 4.19655 3.77927 4.25722 32.3886 4.95779 11.9348 10.7 6.58444 30.2165 6.96494 6.52622 73.5033 37.235 25.9573 10.7658 22.3758 22.6109 6.89018 13.0457 43.1444 5.8291 20.6521 9.61524 30.9327 13.9695 6.11591 11.7325 44.581 59.9349 0.000112877 34.4146 31.1704 48.1329 9.27055 0.00043399 50.5918 9.42361 0.541905 14.4593 35.4288 30.0198 40.9915 0.398853 4.90151 10.314 0.323071 2.917 10.1838 16.8503 9.10903 17.8762 101.4 68.3452 114.67 22.223 0.000790445 35.1854 6.32636 112.4 55.6012 6.42637 78.8633 62.8048 19.734 30.2616 16.2617 21.326 179.975 4.57885 2.46487 18.81 33.1775 2.34747 2.62266 1.66444 17.7179 7.83275 17.8448 8.05047 5.27098 7.12729 14.118 24.2309 20.567 41.4661 35.5381 24.7256 9.77034 3.86152 27.993 2.11544 2.04134 8.2812 28.7317 40.1695 49.9706 44.5205 61.8176 7.28947 12.1257 4.67182 7.26595 7.76237 8.52065 13.4592 57.5607 3.83103 2.99947 3.35401 4.6281 53.6929 3.42096 138.791 22.4484 4.48576 3.08512 4.3169 2.51457 34.0278 39.1011 33.7142 18.6073 41.7963 46.0227 75.9574 100.784 140.677 134.508 11.9014 13.8944 8.13161 19.332 2.70554 6.40557 11.7355 20.9479 8.74515 9.66491 4.06206 10.5526 24.0351 1.74646 56.4143 4.82588 2.53691 34.7506 8.25377 8.20959 14.0086 21.1337 10.641 23.1932 12.3025 21.7361 3.95661 36.6121 14.1644 10.8481 1.36369 20.476 8.2001 10.7526 16.7694 8.60409 16.265 20.1197 0.306442 0.377562 36.7071 9.26305 30.3724 1.57553 65.5547 69.6561 80.4067 23.3431 14.3095 83.6492 63.2454 131.708 130.8 2.41245 115.291 16.2649 9.25553 11.9705 12.473 12.6771 15.7444 66.7268 89.7401 53.4266 52.9742 27.9526 73.0542 58.3261 22.6007 18.1759 32.0701 32.7522 14.2256 43.6418 14.4815 1.15253 7.47854 13.0995 5.68155 27.6377 12.5737 9.03605 15.0215 12.1408 5.24263 4.27142 3.2539 18.4288 16.0386 27.3469 37.2619 4.71295 24.8113 6.35769 8.21198 9.86831 9.26363 42.5833 19.9439 20.7816 7.2109 11.8427 19.2237 5.19993 5.85042 11.1555 17.9898 9.10965 24.0361 0.48183 13.1257 18.8399 14.0905 15.7389 18.1803 23.2435 4.99563 10.8928 8.20121 87.3578 3.15846 24.4689 10.1499 41.2868 64.7868 38.3623 30.0024 24.0858 6.91716 13.5034 14.5879 6.94275 26.031 2.11359 26.5892 70.2839 85.4767 4.45788 5.97769 9.41692 27.6398 3.05124 7.35677 2.68313 3.59045 1.4858 5.36643 5.42064 6.06008 11.4738 13.4643 4.36747 3.58231 2.7518 43.583 6.29851 26.0689 9.81608 26.1041 30.4843 31.4202 1.73836 2.16843 2.37602 2.40269 2.61695 3.04145 2.22598 11.2592 80.9576 51.936 49.7 23.3356 2.14194 59.8567 3.06785 5.54518 24.0623 49.6669 22.8824 3.71983 36.1395 1.6557 16.5384 15.3742 22.4254 11.6612 5.02464 5.02746 7.88932 104.373 77.2062 4.66382 4.71315 1.67746 3.87798 0.727747 75.6394 51.9374 5.80939 24.8691 17.7018 23.1768 1.11377 1.58338 30.3739 15.4726 20.8515 4.00589 7.75881 1.79033 17.4331 30.0266 3.09931 20.1713 58.8318 88.8159 3.03782 0.233538 3.77746 45.1849 0.000425987 8.67839 1.93125 24.3372 26.7486 108.337 43.6997 30.3497 42.7898 28.3742 55.7737 2.58495 119.255 10.5197 104.276 79.1086 9.90015 4.84074 8.62539 7.19674 1.38261 4.2134 10.5074 3.69283 3.43542 1.66626 0.999353 0.874088 3.59836 2.39683 1.21615 13.4848 0.551499 4.77513 20.4808 17.6145 10.4291 14.4847 7.28489 26.7336 11.849 22.2171 12.7721 15.7932 18.9745 14.4202 5.35014 9.10169 3.32914 15.4995 53.7376 9.38396 23.5067 8.469 16.7073 2.56198 56.6517 69.4434 18.7059 12.7405 2.16275 23.7879 11.1219 7.20977 6.42195 14.2392 1.4093 8.48057 52.9862 1.40773 37.9733 31.1449 1.96365 86.4578 2.68072 7.15852 47.0499 60.235 19.3209 2.0334 5.11691 7.58913 7.98366 7.34729 32.9279 6.88408 1.89457 22.8554 32.2194 7.2619 4.45764 6.07945 50.301 0.769605 8.28032 12.2589 8.22589 1.07098 0.763986 1.28506 3.22141 14.5701 21.5401 17.2417 23.2615 13.3197 3.60302 2.17523 104.589 18.1247 26.8362 2.21998 12.0294 11.8963 5.66888 22.3745 11.4917 16.553 8.62483 11.5611 30.8422 23.7935 18.5685 59.1026 20.5487 15.7009 40.9056 38.2253 23.0582 2.84998 21.688 3.91451 3.52289 9.70946 5.6292 65.9633 0.000245359 3.63285 52.4558 10.299 48.8494 33.1445 11.6758 67.3821 4.50351 2.3185 2.56686 0.000428263 36.8287 34.6051 32.9261 0.000358741 16.1189 24.4625 15.7819 10.5727 22.4796 14.3225 128.692 153.472 127.945 31.295 23.2564 67.7166 1.65551 9.96243 6.89024 8.67999 8.5991 22.5192 35.7943 27.6292 2.51004 17.6343 1.2257 3.75145 1.22961 18.0149 1.22131 29.9018 24.8224 51.2736 5.77968 2.97285 5.97654 9.25799 1.77483 0.735667 17.7253 10.6831 40.8237 12.4844 19.6524 24.0865 15.1918 4.76214 0.266048 25.8674 20.5455 1.54216 2.61816 17.1693 18.1783 16.9689 35.4657 16.0368 12.4274 30.5993 20.7507 32.1941 14.3466 69.3897 108.463 27.3292 46.6718 58.5452 21.1218 17.5674 3.41 53.1887 13.471 41.3813 10.0744 2.23916 2.57974 70.4556 7.15465 1.59553 1.59696 25.8332 5.34998 3.4052 22.3616 7.98395 13.3835 7.50494 8.45946 6.11986 6.05809 1.49613 9.95983 22.4893 44.4989 36.3166 26.9311 22.3587 23.6087 8.25881 9.2652 40.3136 9.03876 12.6016 43.4223 18.2398 26.6326 17.453 43.2722 18.117 8.85089 87.3727 157.056 101.681 2.45162 0.0903451 0.0971135 36.2847 36.1608 25.2401 20.4288 5.83974 22.9166 27.9524 28.4553 16.3259 22.7056 26.0557 30.1113 24.2847 21.2707 11.7298 58.7044 19.3369 5.11665 8.03501 3.2803 4.25829 24.7707 20.8575 40.7815 34.1487 29.827 2.74114 4.23403 7.1062 3.07492 29.8502 7.45448 11.7127 6.28617 9.89714 16.8342 16.5655 25.4145 4.03306 29.5876 18.3165 13.7924 262.195 12.5594 202.789 197.21 265.69 4.48654 42.6556 41.0421 52.9644 72.7786 12.4639 0.798671 31.3019 26.9342 17.8688 1.72844 17.7598 4.83094 0.650177 7.32324 39.0698 1.67412 1.55584 8.48817 10.4028 11.0908 34.9163 15.6701 32.7273 1.39845 51.6347 44.3917 38.4265 16.508 21.8268 12.5306 7.73695 2.57025 24.824 24.7492 17.2287 26.0775 21.7049 22.098 44.649 38.514 20.6126 16.4641 35.318 17.4672 0.503828 1.29302 4.68622 5.85494 9.05138 11.6916 42.6939 22.9744 69.5555 4.81919 15.5896 56.5521 133.927 2.3779 4.71843 2.11947 3.50254 38.2188 100.451 13.0276 84.1771 2.71588 1.88977 88.7532 25.2907 28.7062 2.47767 24.4887 10.6578 1.90756 2.25727 7.40158 16.0445 2.49151 19.0535 7.43028 14.7784 7.11337 9.13363 16.4677 11.6663 13.8122 1.07764 1.7931 1.33702 1.43235 12.0759 8.0117 12.8396 6.01552 1.76142 2.94693 2.44217 20.8826 5.59752 13.5793 27.6304 14.6723 2.24294 14.5926 16.0191 12.8328 31.4923 40.6585 25.1098 19.6021 3.46697 5.53124 34.6871 63.9217 32.7282 6.25619 10.9091 12.6314 12.8707 14.5574 11.5028 10.5774 13.0191 6.47407 74.7599 54.9806 60.339 2.73476 1.13252 3.33654 24.7779 26.532 42.0006 34.8055 31.5126 11.5388 1.34326 9.94008 84.7286 23.1276 25.8118 14.4183 2.92614 69.152 24.2985 54.3632 7.27428 11.6136 8.97997 41.5691 5.4353 1.86494 1.60958 5.13041 4.31695 46.8411 1.32714 47.1046 3.30009 0.865055 0.748587 63.5437 35.0385 18.1104 31.6311 24.0687 0.469518 53.9626 29.3977 34.1351 36.929 8.92198 12.4609 8.26495 8.91078 15.6549 5.01481 23.109 83.7017 1.74687 12.2521 43.879 37.8711 23.2308 12.648 14.5222 5.38702 3.69463 26.2116 10.3649 87.784 11.2621 15.6313 27.5841 52.1734 34.1247 109.88 1.52478 5.30685 1.47486 13.2045 82.2267 86.9625 92.794 33.6931 23.5562 4.389 7.30377 33.8158 2.15786 28.8207 27.1264 30.0173 5.01876 3.50633 4.99719 39.3413 36.1275 29.4202 1.63533 1.44403 16.6038 2.64178 2.52679 3.05396 1.88277 67.5001 79.9775 48.3504 51.7989 15.9786 7.53871 5.19577 26.2314 4.98143 22.8412 25.2451 28.4264 0.000173304 13.284 21.2746 8.74231 6.9715 19.1258 51.9409 52.0475 38.9556 34.6498 20.3045 24.5952 3.21069 1.92539 30.0382 20.0087 1.09437 25.9421 34.3615 15.4642 6.59215 35.7967 5.64684 2.26998 16.8945 7.49403 1.4396 36.7873 38.2872 132.021 34.1404 28.1569 12.8153 31.8076 47.605 14.4609 8.76835 12.0634 19.3687 26.2944 4.91532 16.6797 4.17219 4.97747 17.1757 3.27002 4.75807 26.499 40.4225 7.96245 5.06609 6.92151 3.3749 5.67637 6.30473 5.186 27.0085 8.60934 22.1783 9.65569 34.2709 3.26173 35.1663 22.2302 13.6048 9.09702 19.5449 5.35219 27.2524 37.3485 17.6358 12.5886 28.9326 0.000199016 9.92786e-05 43.0697 8.45573 24.7111 8.4437 6.47302 2.83942 17.7306 4.09551 11.9272 0.825472 6.5913 8.07501 6.25851 10.8243 9.30174 3.22702 2.40603 26.2491 25.0257 23.4968 60.4536 68.2153 49.6802 17.4066 56.3147 22.5261 16.7592 18.3856 67.6068 0.17311 0.10986 0.120458 7.35871 5.79369 8.50983 7.67619 0.107593 11.8193 9.4055 0.128352 8.10474 9.96369 14.0622 20.5522 34.1395 68.5931 11.4151 16.7361 5.66919 5.2299 2.62849 94.7268 2.45608 22.849 2.84269 17.6895 3.19096 4.03405 29.1286 3.00753 54.5185 5.97056 33.6425 17.728 5.97915 7.01263 3.09504 10.3415 14.9571 7.23409 3.21669 62.1738 41.1749 25.1272 8.09211 5.07753 31.2256 6.75816 8.65562 5.60786 11.6809 5.42312 36.7434 36.6809 11.7324 9.39026 25.8319 35.1895 45.7448 19.9731 14.1315 15.208 53.0539 20.9758 1.32286 30.6455 1.49188 14.1022 12.6457 16.6778 24.0886 17.0568 18.0093 9.00772 15.3366 0.661529 18.2806 11.2266 13.21 3.28134 3.38322 4.89149 9.40192 0.533387 18.3608 38.5358 13.2836 14.8358 9.34986 8.60614 5.25573 5.47761 7.72241 4.91344 23.6745 20.4449 6.34891 4.82269 2.98956 2.15131 62.5968 2.93816 1.64473 31.8792 31.1417 43.4346 15.8611 17.158 15.7156 19.6687 5.32366 5.66706 17.3378 9.99353 3.09692 14.9463 14.8501 8.79062 14.6933 23.6624 0.819983 33.9913 17.957 8.49688 12.1045 12.3803 33.3727 21.2223 46.8107 28.2727 4.15255 10.0743 46.0138 9.06221 117.046 3.09545 10.181 2.67077 21.4057 31.1683 10.2886 15.4571 8.28825 8.41578 7.25022 6.53976 7.9254 20.6273 16.2976 48.4684 15.8275 30.7783 2.27486 28.7266 4.35051 2.36883 23.8099 15.1665 17.8883 6.85883 16.0776 22.1669 9.32239 1.76062 2.82915 19.2038 12.1638 1.4855 74.3973 61.0898 11.7274 6.91623 18.046 8.93587 14.2581 15.267 29.5052 3.71517 17.6703 56.7129 21.3425 4.80441 6.42631 13.8887 5.32294 10.3054 1.05941 0.821921 1.5712 1.52515 0.90375 1.35001 20.898 30.8078 18.025 11.6517 17.2971 18.4951 22.4158 21.911 17.796 20.8092 17.5683 6.50428 3.65585 19.1787 14.8356 17.5194 13.3879 0.836746 17.876 5.02785 22.8939 5.51318 26.0914 66.3508 18.3116 14.5136 34.1532 10.1858 14.024 31.4652 18.1844 0.157119 17.8621 37.2253 2.66077 22.5558 0.172668 63.7052 2.95276 30.3794 5.39368 0.443582 38.8127 2.24905 10.5714 2.28156 5.89246 2.54026 4.76259 2.49222 7.74319 133.175 11.4578 154.999 4.88016 4.70192 2.21692 3.87773 22.5386 34.7765 2.99399 50.0265 30.5393 19.1432 3.22955 10.9095 9.7616 13.0603 6.54331 68.3748 53.4628 6.93969 57.2044 1.83607 15.3588 1.09149 5.47528 2.13521 2.47461 8.41346 7.66279 70.3526 10.498 49.0271 33.355 56.0537 14.0994 15.0421 8.07906 4.48758 4.63722 1.97318 8.14338 5.48079 33.8975 27.8774 7.94388 21.2835 27.7664 46.5822 7.6473 8.7661 81.3468 65.5173 5.27966 21.3971 8.43666 17.0432 16.8287 37.4182 16.0528 19.5165 31.8305 3.9791 6.16316 4.79484 1.5274 34.0765 21.3988 14.1736 0.000286618 12.954 16.6975 9.44826 11.7645 44.46 8.57367 66.171 55.0076 72.3787 1.97209 55.4874 4.67777 20.2468 16.3728 14.5626 19.6167 43.4602 14.3593 44.0244 1.66714 22.5107 9.32779 4.76573 0.76629 10.8965 27.2748 16.878 1.06545 19.9484 12.1227 2.04091 7.58563 24.3333 17.9286 30.3511 19.3188 0.261113 26.7192 6.30445 43.8939 47.3144 34.4107 105.207 50.4205 36.1173 6.49354 4.16017 9.60515 3.83931 63.0513 104.658 6.30969 13.6932 2.69468 3.21992 12.5946 2.72775 3.44465 5.63981 11.9299 7.81333 1.33729 14.4595 7.12269 49.6858 65.8201 63.7933 15.4546 51.4766 6.41102 1.77126 9.59407 7.71532 6.528 6.31055 22.6204 11.3872 1.65545 46.0425 2.02942 16.5217 6.26906 36.0746 32.5237 36.7819 0.000612947 84.7127 24.2981 92.2926 59.6585 18.6668 47.5483 15.9447 0.000601191 2.76409 19.285 26.8756 45.3578 17.4705 0.486238 15.1235 6.52742 2.36059 23.1567 1.50918 2.27035 23.6912 3.62224 4.75884 4.83347 20.0676 17.0672 4.001 0.000517472 3.84753 34.2822 62.57 41.4179 6.36569 7.40278 4.94471 4.04711 1.31418 47.2405 48.9582 45.2312 43.1804 53.7175 44.2778 72.8525 56.2444 39.6842 41.6487 41.8422 2.52697 0.943592 6.3536 11.8272 17.8333 5.11361 12.3415 20.4334 11.3075 11.3319 8.99987 17.9324 2.23859 2.68502 4.90146 2.06307 4.09992 4.42924 2.11314 26.3333 14.6983 6.34781 19.9402 16.3225 64.5844 9.6921 12.9141 30.8134 71.8752 46.5217 11.9953 4.69799 4.33205 111.364 1.5846 69.4313 52.3178 186.835 170.691 2.69616 25.369 30.8252 21.9286 43.4769 12.5351 52.0614 53.5263 5.54735 5.98774 6.46974 6.02565 15.5912 25.5154 5.58284 10.2931 33.5714 12.9014 12.9807 17.874 10.5578 15.6418 73.9159 39.8291 71.6163 2.06717 63.6589 4.01573 5.87407 4.13648 388.988 111.159 51.8134 67.8194 48.3942 14.2176 12.5769 6.80385 2.717 27.6562 21.5831 102.173 11.4546 1.83513 2.58844 11.4614 7.63126 56.2634 68.8094 2.13814 37.2348 9.5207 33.9937 37.6334 33.2142 30.271 42.931 71.969 59.3524 28.7165 26.3272 2.92148 10.7981 27.92 14.1306 38.0421 39.041 44.5895 35.3468 51.1755 28.1866 12.438 3.16007 3.49992 45.0062 1.8939 0.422556 253.801 124.869 2.54729 0.250706 3.3375 105.231 117.73 110.865 23.6766 57.2226 22.9583 28.4559 82.6064 49.6876 2.29468 24.6819 87.8235 29.575 43.6263 19.9098 7.56398 9.37584 17.2438 0.430376 6.80287 10.9263 1.43303 9.55833 1.22905 55.5093 46.2383 25.1684 26.6597 26.1984 43.6747 5.41065 15.6383 1.14633 59.1144 2.24773 23.3926 6.34758 1.43379 6.01919 7.09989 27.466 20.853 2.22687 22.5568 4.79647 28.9836 26.4491 56.7222 49.1727 12.861 10.1293 333.559 34.2989 20.6812 17.1178 11.4919 4.83315 47.082 20.9838 31.0451 65.5916 7.67326 26.2714 3.72364 59.615 49.9902 8.80613 5.0665 6.51046 32.6933 5.2993 9.33096 1.72177 14.9918 14.3228 9.25676 5.49254 14.9281 8.01272 5.67494 53.5239 4.32686 9.95626 4.13972 1.40435 1.32741 83.9991 2.24643 52.1104 14.3159 6.04741 2.88742 3.933 3.64044 3.05552 21.0747 20.8958 13.2985 12.2249 63.7178 27.9713 8.47307 13.2205 4.93483 11.3469 21.4969 28.3599 17.3363 14.027 0.000508571 0.000218057 35.2096 29.4062 17.1107 23.4176 18.4913 25.7937 17.6349 12.623 16.6976 14.3252 10.6745 31.6244 71.8251 51.5266 0.000241116 0.000281899 14.4952 15.2521 6.78566 18.7084 3.70384 103.07 23.4954 14.1846 22.0276 13.0299 0.729248 24.5201 15.0718 0.388432 29.5282 7.50655 1.26632 20.9463 21.1165 21.0063 28.3063 20.6364 48.5842 10.2923 44.1995 9.40068 12.1546 9.78105 13.5075 23.8979 45.3362 13.9087 21.4074 10.8689 3.52562 33.6836 34.9445 2.52953 2.64725 3.56783 8.8954 18.0835 13.2175 3.70638 23.951 23.3738 16.2227 32.9017 21.1884 1.4182 10.9321 12.5851 24.7316 23.351 17.8623 9.80995 26.0646 14.7443 125.482 5.37364 13.0549 22.7514 15.801 8.45645 23.9258 12.9947 9.02239 13.0461 3.77039 12.6928 2.72102 21.5586 3.76216 19.5596 0.619707 1.38937 2.42374 1.14334 0.318992 42.393 12.3064 4.87042 12.4517 22.0834 9.44793 2.05487 9.72079 53.093 90.3665 79.4657 32.4656 16.0799 48.3139 35.3495 22.3009 2.11584 1.49212 6.83671 12.6881 4.76547 0.356362 8.08294 4.50216 4.88643 13.685 20.8732 9.92432 10.8844 3.55607 3.45008 1.53869 50.3753 4.73561 8.88667 0.288581 7.02605 2.58345 4.08878 0.477983 1.40903 12.1157 8.28673 54.0727 2.53373 5.07113 6.18319 23.5146 23.66 4.99421 26.2967 41.3653 16.1329 26.2283 32.0843 17.2388 20.4563 4.64215 4.02395 15.5185 8.25686 17.3548 3.92965 2.69142 7.54457 0.478292 3.4898 2.58344 5.27866 8.28659 2.22268 0.324292 14.2443 9.37932 7.2648 35.5756 34.178 25.5145 54.6279 53.9522 44.0992 79.905 59.924 21.6586 11.8676 2.28149 2.80351 10.327 6.41158 13.082 10.2852 17.4065 19.7802 14.9832 4.04596 0.239352 9.05878 13.0877 5.09318 36.2459 14.6234 4.3744 1.22676 0.142021 4.09292 4.46839 2.77475 30.681 29.9837 37.3816 26.998 33.6535 9.52794 55.7051 52.9143 17.3378 16.2787 12.6918 53.7254 15.7181 3.30853 3.10829 9.47672 2.92553 8.31438 17.9654 12.4881 12.6251 28.8215 79.5533 16.5122 31.1875 18.9354 89.5983 53.657 14.1777 18.4445 16.051 19.0737 21.3596 20.9834 34.9071 7.64079 1.32807 6.99535 26.9583 5.94009 2.50719 1.07679 38.96 7.40964 72.2204 2.55435 1.58405 36.0597 4.14509 3.47746 2.39583 145.553 232.593 28.2357 13.5712 31.4822 43.3943 62.9911 46.891 22.2563 36.0315 32.3288 5.06932 11.9433 5.88904 67.8827 13.6696 19.8737 56.5159 9.42232 0.592284 8.06426 5.21628 8.61782 5.14197 20.7528 18.4805 10.8716 11.557 8.83254 8.11218 3.58894 4.75489 3.27816 7.79789 19.8388 2.29535 1.42632 1.47995 2.0573 4.13966 3.13725 55.6892 4.13252 3.861 5.60977 2.41278 2.64424 1.81173 1.64853 1.57607 27.7928 12.3071 47.2149 14.7437 0.000804461 2.11845 2.02305 16.7498 59.3649 19.2863 37.2558 61.1482 35.595 0.000106943 15.1528 14.1136 2.80847 15.5942 19.4033 17.4631 78.6118 3.93482 9.35659 3.45176 8.1959 5.96021 2.77677 4.36324 20.0311 1.35057 2.18673 1.92976 4.81686 4.17778 2.59376 6.10535 8.05703 4.74593 0.000468943 23.6818 20.4964 0.000254273 0.000310587 0.000884272 53.3536 26.8674 14.8014 0.000193461 12.9916 18.3699 59.1603 6.77121 18.5539 18.4986 40.9321 28.8592 9.59715 11.385 21.41 0.000345882 35.0464 23.776 28.6742 2.97109 55.6729 3.30396 14.1474 4.39807 41.4373 17.8394 34.9583 35.5523 14.6943 18.8832 23.1195 52.5376 32.6514 58.952 46.6031 3.24905 5.80006 43.8626 28.2004 6.97021 2.0057 4.24202 8.84699 13.6337 0.313759 14.5141 9.81684 24.7922 0.330468 23.6778 0.621751 5.98558 2.67469 15.0083 4.49246 23.3399 18.6222 12.542 70.7386 26.6625 35.5019 24.9789 75.8539 37.6626 14.1064 42.5332 20.8673 50.5356 17.1294 56.6715 49.0805 49.5898 42.0296 41.4215 64.1506 84.9391 74.1847 45.6102 1.86274 8.78327 22.9385 25.0688 46.816 39.738 2.23416 4.04241 12.3692 12.1566 9.44606 8.0006 15.0743 0.000321606 24.4568 5.968 33.0809 12.2219 25.8576 0.000210318 12.2829 33.9634 5.7961 2.62167 36.9279 4.18774 9.46284 29.4853 47.4637 28.3079 2.40778 1.10173 2.10785 6.02874 6.8423 5.91664 6.72723 3.68118 31.6818 1.11181 1.63604 0.83717 2.68304 31.905 0.810544 15.5079 27.0235 72.9953 90.6433 27.6968 32.2476 21.6333 31.2996 14.5204 8.46325 17.0948 23.622 0.000220669 9.15297 21.8675 9.22096 22.7338 16.992 34.2481 10.0788 34.1017 27.033 33.7655 15.0788 41.426 32.9526 5.46253 26.0976 15.9877 12.7199 7.75009 19.7966 37.8182 10.9797 5.21429 5.45864 8.82061 2.37766 2.82826 4.06288 1.22853 2.02751 1.30245 2.05355 22.1453 37.4262 32.5162 20.0537 1.48507 2.23139 2.41448 27.486 2.5169 9.79014 12.6619 2.72932 25.9955 32.5032 1.24667 20.635 6.40639 2.15979 4.99901 35.7855 8.85475 2.73486 6.55338 27.9606 11.9083 12.2681 0.620989 2.00436 24.3674 24.4687 34.1168 10.8128 11.1899 0.518569 3.49733 2.16608 21.2382 16.5398 4.06562 32.1209 15.8668 5.00513 2.78458 3.42474 8.99336 20.1601 20.3026 53.2214 23.8746 35.6358 50.1124 3.618 23.5326 3.43422 22.7841 4.51132 32.1412 29.2645 31.7758 5.01588 11.0582 8.81582 31.5778 2.52689 11.0882 24.4677 17.5163 3.87476 5.83052 3.12072 4.22403 3.96464 2.26062 5.39475 18.9071 34.0939 17.2715 17.2856 11.4766 16.112 29.7127 4.9396 21.8149 20.6346 23.7343 13.2356 131.135 44.4506 64.0548 100.279 3.96859 15.66 2.59233 24.7362 10.2096 0.885399 11.4717 14.6905 12.7412 5.39535 6.72151 7.80653 1.1368 0.684054 1.05451 3.44482 4.63139 12.3752 31.9906 17.9775 24.092 22.7302 18.7881 2.791 33.8666 30.472 2.65211 52.0408 26.06 8.75679 51.3774 5.64736 24.7155 36.4403 174.399 96.5961 13.1013 17.4038 13.0811 14.0015 48.4863 8.42477 18.7663 15.7609 20.0694 17.0737 73.7347 3.6989 21.2961 1.60201 4.40936 8.66826 5.73887 10.6555 9.39717 5.89393 9.43905 15.3132 9.03973 30.985 1.86705 13.1894 9.99837 10.7741 17.8618 6.83581 7.87926 13.71 14.7473 23.451 3.77282 1.30239 3.60858 0.405458 54.2134 1.96665 0.923438 32.8704 30.2628 41.7506 6.52652 95.7419 13.2442 26.8413 21.9277 4.96855 1.93324 16.0959 1.98345 19.2398 32.6661 15.4038 19.9464 13.4789 3.23908 5.34569 5.57124 13.2751 5.75136 4.28183 5.08364 64.1846 15.0603 31.695 15.8621 10.4457 11.052 3.13125 3.15867 2.07642 7.52074 3.54539 17.5764 2.73454 4.26277 8.26355 1.64573 3.98248 2.2102 1.16195 4.75821 4.31606 1.63903 3.30496 0.265027 0.837442 1.82312 11.0356 0.600192 13.5127 0.143907 2.08817 11.3657 21.62 2.55681 0.541451 0.940101 0.450802 0.418077 8.41584 4.91952 12.2827 1.31241 4.18141 36.0211 11.0442 9.13008 2.3677 11.847 12.1199 3.66341 17.6755 0.683906 8.60933 9.72329 39.2509 2.68863 2.71413 10.3142 70.2904 0.828772 101.344 23.8726 8.16321 31.9098 116.425 105.171 12.22 141.905 32.3762 12.3058 4.99655 28.4344 13.9801 14.0961 10.8714 46.5008 34.3472 25.9818 19.1643 3.18619 24.249 14.5466 36.9574 5.51656e-05 16.3053 13.5657 26.5642 20.7969 5.49296 25.3113 28.7588 9.97858 16.3249 23.7575 10.4732 7.31515 11.8812 7.0604 18.5079 11.226 27.2473 17.7412 23.6936 20.4677 7.87107 31.4105 27.8639 6.27366 60.2575 23.0349 0.000283887 46.3265 0.133062 28.8926 0.131617 29.9091 0.115386 19.2898 5.44234 14.0068 10.0593 10.1082 9.15469 42.068 46.0611 28.8852 146.027 38.788 45.3421 20.427 4.40257 3.79776 0.219045 26.4857 12.4883 3.88709 15.9745 8.01526 3.20284 3.1661 3.24624 4.01137 30.1815 0.725606 7.28671 25.8003 0.736569 4.34383 5.45721 9.01718 3.66256 5.63932 1.76735 8.99109 21.6055 13.8995 22.7387 36.0837 31.0728 18.1951 8.03359 8.9957 29.8918 12.6271 1.24103 42.7334 14.3124 2.89974 19.3064 12.8825 5.53427 221.215 13.0823 18.9397 10.3854 9.62185 116.474 119.77 6.93435 81.6339 12.0124 34.8097 2.39786 11.4323 40.389 8.94548 43.5635 15.357 7.64258 11.2671 18.5661 10.799 75.189 56.3489 18.4879 28.0289 30.2867 30.1008 14.7099 22.8595 40.3987 18.7974 12.3609 30.047 24.0857 2.55677 32.9538 26.0235 6.85452 1.42149 51.706 27.4963 4.82752 6.92436 15.9948 110.557 10.8504 5.66003 25.8464 9.64037 2.7742 9.82054 4.91108 8.22283 2.48339 22.6522 1.21426 16.7438 16.2302 1.28302 5.12902 34.0793 38.0348 4.58978 22.3958 4.53809 2.60098 14.7282 55.2411 5.38279 35.3385 49.6485 43.6958 40.3924 34.7779 15.5013 14.4055 40.0561 34.1485 1.85395 65.425 3.49502 45.7508 5.85257 21.0394 17.2397 17.5987 6.29682 6.40683 7.58157 5.0397 10.014 1.39632 4.0267 1.97886 4.46638 6.4493 4.86723 7.02226 4.38845 5.32843 14.3782 75.0184 11.9081 9.29229 46.0395 5.38149 4.36568 5.61638 0.843384 0.761151 23.0417 30.0422 0.679566 102.433 88.9137 70.747 3.89452 6.1567 2.78965 45.6465 1.01064 0.965106 7.75706 6.04335 8.97281 7.21612 21.1026 10.8143 12.7311 210.929 119.21 157.226 13.6804 58.3272 6.73789 5.71988 10.7473 14.2685 6.21587 26.9339 34.7823 43.2974 16.4001 18.9529 4.47019 11.7288 17.6176 48.2326 83.6527 37.8425 5.98159 8.5255 6.99059 16.6895 13.1656 2.98848 14.6499 2.12233 59.0751 9.70255 3.51309 12.8639 18.8317 8.5111 18.1607 4.63389 20.7331 179.362 88.4554 296.884 8.21493 8.08225 7.08653 1.3121 1.0491 25.1387 0.970927 35.6239 2.16608 30.2957 3.4204 3.09356 7.80201 7.18054 24.0337 10.6587 17.3155 30.3486 3.5917 28.2732 36.1987 17.9463 10.2847 10.9015 46.134 50.8477 16.6199 29.3854 24.5057 40.111 5.94948 195.93 4.31437 3.30686 2.72603 27.0127 176.424 71.4668 3.11833 4.60622 3.79001 3.82994 6.68923 12.7969 8.5003 7.99688 14.9614 13.7837 6.13352 54.0154 33.9026 14.7509 5.01765 22.2031 30.5921 7.72622 35.6784 22.0555 21.3484 18.8531 17.5801 22.7557 24.4491 0.385149 7.73982 11.2176 0.000330276 22.0797 11.6738 23.8501 6.09535 85.2777 67.9786 78.1608 52.0859 10.0026 6.47782 4.37503 15.2119 15.7911 4.14348 4.60247 31.0076 38.13 5.10457 4.65479 9.93067 11.4027 19.8307 20.1367 38.892 15.4059 5.41358 25.9327 17.8426 9.21651 15.4314 46.0727 29.1213 17.9551 16.7052 16.5015 25.1807 6.30926 3.49656 16.1249 4.68249 14.3081 5.43015 3.48042 1.4351 1.57132 7.11952 8.6228e-05 54.9638 19.5084 40.0465 22.1335 19.8847 59.393 23.7939 28.6273 4.89589 18.2541 8.73629 3.12542 25.1171 27.2642 0.000553231 25.5847 0.000111936 74.9597 71.7528 0.000299004 1.29538 1.30823 0.419568 34.7944 65.6004 4.26642 4.80359 61.7039 87.6069 45.6122 17.4226 25.943 19.5488 39.1411 7.74921 92.6848 52.7892 19.687 24.0769 23.6722 14.9589 40.535 7.82121 9.9182 0.395449 0.14397 67.8996 5.8279 47.0903 1.36464 41.0731 2.68555 14.0627 0.865855 22.303 20.3019 19.5176 11.9664 49.0885 85.4975 3.21355 12.2753 0.842147 27.3509 6.64089 10.2227 55.3844 8.57694 21.0382 17.6204 16.5943 0.576666 17.614 6.05474 1.07175 5.59543 7.04597 20.6178 20.6607 0.376145 3.44102 2.65523 2.90855 2.33684 5.32546 30.5974 10.8574 25.1908 3.2297 1.50965 0.981362 13.6935 14.6267 67.9904 14.7002 3.3407 1.41874 40.0692 38.3202 20.4217 0.125229 36.1749 29.762 111.894 0.000325126 16.0366 20.8946 26.5741 27.9987 12.3323 8.21644 36.0364 3.79124 0.719956 37.7698 20.1658 33.3785 104.52 84.1743 13.8883 5.6635 118.65 11.8837 3.94101 6.03905 129.683 7.71159 21.0675 8.89678 2.70198 22.5641 9.40207 8.71694 21.7676 19.715 16.6512 59.4343 1.8687 0.536745 6.11306 0.405367 17.4851 4.7498 2.98325 28.7031 25.3177 10.0294 0.117771 0.164699 64.921 0.161503 0.125196 0.139672 28.6815 19.7541 43.4216 37.0941 34.4163 17.4471 0.0808992 0.0958621 0.089626 5.6931 204.637 29.5725 5.96697 32.3456 0.0711906 0.12279 13.0733 0.201794 0.587431 31.8292 20.9352 0.229282 0.0980258 2.3971 0.126623 0.199724 2.03767 2.37987 3.01013 3.36925 7.7595 18.913 2.31977 2.14055 1.64507 6.22413 5.01255 4.79525 7.50398 3.04189 5.88937 12.5529 6.88586 13.6963 18.1131 14.6907 95.2679 63.0713 28.1816 18.4172 1.66568 1.61218 4.00915 2.20473 2.45089 53.1842 13.2141 9.04461 9.44252 10.8174 9.15186 16.6336 5.15817 8.12186 11.0985 34.6419 26.0724 5.97116 1.10068 60.8528 68.0327 39.3675 15.5275 11.718 4.24158 61.5427 35.2785 2.94246 3.48861 8.66493 2.687 11.0768 6.71988 11.0217 6.42383 13.0059 5.90173 1.55492 1.45741 1.49741 9.14714 32.5273 1.83852 42.307 29.971 36.4991 19.4953 40.0689 31.604 35.4684 29.0392 11.6355 19.2656 29.644 30.0092 27.8025 25.4549 0.342455 4.41148 7.34814 1.15103 1.48687 13.4947 10.051 5.68911 6.64484 6.35896 21.5971 5.39468 19.3012 3.73382 11.8629 40.4765 3.99917 16.3566 18.4227 19.0904 2.91849 42.4287 37.492 58.554 42.6233 66.9831 1.75002 1.46585 0.312299 0.280985 6.87779 7.86096 10.1547 5.2746 5.4582 79.7375 94.3007 1.33252 19.7019 17.447 23.2397 11.2712 0.449539 17.0174 22.261 16.8837 15.0535 8.02538 6.33283 2.60716e-05 3.52344 8.74931 21.994 2.93475 7.0504 11.6031 9.91469 16.0364 2.95484 6.53161 17.8906 6.03817 15.3217 13.1605 3.91405 9.59755 0.859791 14.1241 8.82294 13.751 8.00618 2.70068 3.80895 187.082 7.33452 19.0263 10.634 21.625 22.1406 0.0614437 0.0650694 35.9789 21.3081 19.0961 10.9527 5.23871 5.77781 16.0335 5.87294 10.3367 14.8359 25.4515 33.9891 2.73233 29.66 18.0492 55.454 58.4901 136.293 14.8183 16.0491 71.5941 8.38657 24.5196 2.22265 16.039 5.67122 23.4012 18.0805 23.0822 6.35998 1.86428 20.0625 15.1875 16.0894 11.3596 16.5648 4.3923 41.6719 57.7738 51.9527 53.0304 43.2589 5.32129 7.35791 7.3404 9.15772 35.6505 21.0957 29.0319 1.52755 0.955037 0.976151 1.84895 0.88764 2.98248 14.7496 16.6114 1.7456 7.60121 11.5898 13.1768 14.4766 1.43017 0.000301563 2.43518 6.00124 1.9415 7.43714 3.52353 5.25245 73.3788 6.8552 8.54102 11.9774 10.5666 45.7416 18.9047 35.7853 127.591 112.357 66.3344 83.4509 50.9747 54.2543 23.1387 3.2993 7.13625 2.64203 36.0426 2.68801 1.3188 2.46062 6.31169 12.6371 2.01905 10.3107 88.7102 86.0689 90.0401 64.8484 34.7598 1.88089 1.03074 0.201453 17.9237 17.244 18.9121 0.305927 51.3629 10.0632 54.5335 5.99075 2.93461 3.60259 47.6358 8.3495 138.742 8.31334 0.177156 0.0769108 0.553557 51.5099 24.7577 27.2995 6.87711 0.234299 9.94627 0.594476 32.3959 19.0468 11.4313 9.8923 2.24617 1.83471 5.13496 2.45335 0.338937 0.139492 8.48142 0.490618 10.795 8.70714 1.64382 13.8372 25.1645 2.70414 31.3548 122.412 6.65206 15.6789 5.34286 23.445 5.45742 4.66994 5.19643 14.1564 1.17252 1.87134 14.9383 13.5148 1.29047 12.5018 29.8953 0.685816 11.2313 8.53981 4.28042 0.696346 30.4404 28.8967 29.1794 0.289087 0.167715 0.374628 21.534 14.4013 44.4831 13.8542 14.1412 0.186411 11.4732 8.10183 1.30289 186.517 74.3606 16.7395 21.0511 1.88583 10.5506 10.7812 22.7691 0.637952 10.6304 9.76998 18.7891 27.3664 18.6775 61.1064 12.4143 11.0116 65.5425 7.36833 49.4119 8.92515 1.07465 19.5538 1.24763 25.6913 16.8239 16.584 1.1153 30.2637 19.4287 21.3995 2.92873 36.4513 15.2371 33.1399 4.46403 6.40041 42.9865 10.6708 5.70409 2.3462 28.4172 47.2296 4.24277 12.3985 6.70779 42.6866 21.3909 14.3887 14.7449 34.2044 22.3561 16.8552 31.5716 10.3689 17.5014 6.79147 19.108 3.79708 15.8576 1.0153 6.874 2.22656 12.4551 2.35284 6.21239 21.1292 34.3596 6.26237 33.1875 27.7132 19.4492 19.4086 15.4438 2.25853 96.3805 1.01772 0.330549 0.382948 2.22854 3.00691 11.2745 3.02199 3.45984 5.95371 14.8446 2.23455 0.977026 25.208 2.56867 9.87608 0.111974 1.12718 1.45907 1.56162 0.0821098 2.02984 1.55553 0.599608 0.328636 21.8613 10.4221 11.8542 11.5609 11.0761 0.508856 17.4086 0.288568 0.189877 9.80798 11.8548 9.67324 0.24651 6.4487 14.7825 17.2451 1.50603 16.2731 15.4054 16.5452 14.5255 2.35995 1.68426 51.1234 35.0938 39.5095 1.91895 1.79525 5.35505 4.98288 12.0305 11.5229 10.5913 12.1677 18.2829 20.6637 21.3175 39.5531 65.9234 44.7486 10.3484 7.6209 24.274 4.68088 3.87502 13.2503 25.2023 3.99944 10.0755 8.96078 12.7178 18.4082 0.104165 13.1616 0.150064 8.57309 6.67771 12.5725 13.2206 24.3056 10.5978 21.4102 8.3042 9.71362 12.5243 22.6805 23.3359 6.32397 12.8277 7.30826 0.168331 7.55902 5.35499 49.9933 36.3085 56.5367 36.2083 0.515658 3.33246 0.512578 6.34099 17.3885 107.419 74.2733 56.8957 82.5798 61.0805 1.72618 2.9018 2.61743 59.0435 42.9113 0.627298 0.921285 10.0155 7.2973 3.86521 5.12345 13.9541 10.1719 12.5667 10.0305 5.42752 20.9198 35.5917 1.02032 0.529257 20.5501 14.8146 12.677 12.6852 11.258 13.6896 10.7974 14.5638 22.9593 19.1143 17.5801 18.6973 26.4321 16.6597 3.02624 43.5952 3.95907 3.97452 53.1797 102.164 25.9381 44.9038 4.91075 9.14961 16.7258 0.000188676 5.00874 22.0175 18.3079 21.0049 21.8274 2.78071 5.52205 2.7836 1.84067 6.49067 6.62323 1.06456 8.8913 20.7884 23.4835 34.0008 29.3772 1.45556 4.66914 13.6133 18.7596 14.8714 7.12349 2.03587 0.268151 0.353991 1.00156 25.0007 45.6606 37.7409 46.2939 5.17744 17.4038 19.1629 24.2506 4.47167 2.99714 24.1646 18.4533 25.2239 3.41543 32.017 41.4195 20.7162 32.6072 19.7015 17.8864 16.3675 11.2884 7.32259 41.7974 67.8182 65.5131 111.055 2.0896 2.94994 50.6212 24.9164 25.0297 25.9807 10.8034 14.037 29.076 9.38043 11.2219 4.78846 2.45944 3.50531 5.10045 3.88536 2.79949 2.32654 23.7495 15.9384 3.81715 4.15876 11.7126 13.0091 20.3179 7.11287 27.1678 19.9403 72.5549 1.39296 1.59877 16.4244 59.9396 68.6733 15.9136 10.7369 19.5243 11.9833 19.7279 4.78721 7.61795 3.6649 11.4335 4.76579 12.822 10.2922 16.4922 15.4715 15.7779 2.72467 4.95545 0.141234 5.84879 23.0013 2.53026 5.00896 0.949456 16.7012 42.8715 70.7678 24.7479 68.0516 46.4515 70.1871 89.2732 86.3526 79.4102 4.42071 9.56523 9.38247 6.1125 4.96251 3.97111 0.287006 2.50807 0.315927 2.85596 13.6517 16.1691 8.08742 8.45258 0.817889 15.5282 1.17917 1.5802 1.58654 1.60311 4.86931 10.0602 4.23069 6.63953 9.89683 9.85163 8.40503 13.2821 12.9571 8.4161 9.57132 12.6012 11.0392 7.96101 1.66147 2.15042 5.0888 11.535 9.76515 12.0051 10.1079 2.0662 7.70106 2.95659 2.48221 1.37161 1.80215 1.36279 0.999636 3.20164 5.61413 11.5076 12.2888 38.3829 2.29949 92.079 2.54008 2.41913 0.50072 7.78031 1.12616 1.13063 16.195 1.82485 39.3361 16.6879 44.9479 18.7667 3.78042 48.9088 4.20421 5.31282 11.5695 5.0045 20.657 2.89386 22.2246 27.7454 12.3857 27.2444 23.6328 27.501 34.6858 14.0675 27.6474 20.6026 18.0854 4.46965 27.711 8.15837 17.3932 4.85806 2.67019 68.7504 76.5191 61.7709 40.1602 52.6641 5.46979 2.50164 21.923 3.72836 1.13926 6.2645 6.87421 30.139 17.4718 1.34411 5.06677 8.39164 1.16758 11.7184 15.5167 18.7952 14.9973 2.21423 55.1382 18.2425 21.1149 11.4381 15.4356 9.95257 2.42072 0.000237056 0.00026256 2.59072 2.66465 10.4785 3.17263 15.4195 4.35024 87.4734 81.3214 94.3507 100.208 162.662 5.65973 1.69072 22.1355 12.0763 6.21432 6.377 9.86914 8.29483 8.03667 6.29389 22.1188 11.5695 0.484604 2.92171 130.002 150.893 7.61905 13.5566 3.22379 7.30594 5.84229 14.3955 5.08577 10.4806 34.3683 19.5919 14.1039 24.0265 24.0258 1.2076 2.28546 7.80941 3.58808 13.237 0.197623 0.528564 13.1388 7.26216 3.22803 1.77443 2.20928 19.2261 18.4589 23.2106 18.7945 10.5555 30.7409 28.3792 1.3903 2.37666 1.35016 1.6023 25.0395 24.8637 19.8395 1.30104 90.7709 4.59663 10.2031 5.8079 42.8618 8.77182 6.92536 8.7935 7.60445 3.2285 24.1104 20.8276 22.6583 34.8192 4.91881 38.1231 33.7755 5.33744 15.773 22.6544 37.5698 20.1547 28.88 3.87118 51.0951 57.1668 0.727331 0.53036 10.4416 9.82028 1.71076 0.52167 1.49233 2.91171 0.810923 0.5781 8.7969 3.50786 1.30938 14.653 18.6961 4.66485 19.3341 4.81001 18.8665 37.1066 26.4897 15.6421 3.05329 5.67681 22.7924 3.14654 1.86072 12.2213 5.00759 4.27547 48.0158 28.4396 0.252257 0.148786 4.9022 0.175643 3.71769 0.124691 0.0822657 0.475574 40.0618 39.7745 41.6848 2.80217 4.41223 2.9695 45.7519 9.39447 4.82432 38.1541 55.1982 17.2345 21.5518 62.1559 54.021 2.78941 17.8418 4.92137 6.33038 42.9386 28.5898 24.7186 5.62586 6.37619 16.2378 11.8448 1.73232 2.77951 2.11011 3.4968 3.45654 4.04417 14.4478 2.41644 9.79679 17.9127 2.97892 39.9008 79.0712 52.3463 30.7192 82.0125 73.7009 19.7537 3.13386 2.73227 4.59717 22.2277 9.83335 2.38147 1.57734 17.8801 12.6517 11.1967 11.606 13.9587 19.7849 1.56778 1.44347 4.59653 29.3886 5.2934 6.23204 6.1441 5.3699 5.2626 6.93863 1.51143 5.33912 1.6218 0.0836218 6.95628 21.238 87.7284 64.7123 7.32167 5.08116 25.0748 7.7503 4.24569 1.80505 31.6185 16.6998 6.97315 0.355422 7.95058 13.0909 46.7566 31.116 0.13606 41.6577 2.28683 2.00866 8.56148 9.47527 8.67759 3.15409 6.32428 0.0672665 9.92897 2.67655 4.73807 3.79899 6.63317 17.0194 10.0426 15.1753 1.94699 2.49797 6.79362 2.3311 11.1617 4.74436 12.5979 11.006 9.45256 5.08382 0.0667613 0.0856794 4.98764 6.66898 4.83978 37.156 0.101926 41.8952 3.67941 4.08663 2.55357 2.73011 49.1001 0.0822642 3.13234 4.7112 12.2785 4.8953 13.5539 3.90771 27.2521 9.97398 25.7343 7.46238 4.64137 5.3398 7.82507 4.26215 14.2956 20.3805 25.2803 45.7945 27.296 52.7334 0.765368 11.2236 11.253 23.2277 27.8221 22.7479 22.4754 1.52074 8.92688 9.7371 13.1853 13.2838 10.0157 0.247193 2.85636 0.56271 1.28566 2.13766 0.671426 7.82903 17.3207 6.75959 0.70722 13.9111 18.8591 36.7294 22.5946 17.0345 6.83593 1.26508 7.73644 11.6057 5.1775 11.633 14.6199 9.0733 6.16162 1.30042 12.9369 31.2078 38.2627 11.6863 23.6608 18.9093 9.47494 6.839 10.5396 10.875 6.81512 5.93656 4.46621 7.94517 7.99818 5.80336 5.34835 4.51097 20.3592 13.5365 26.7312 9.65793 6.17525 15.4219 2.90782 7.37371 14.8835 10.7729 8.95802 11.122 16.5796 14.3012 19.2564 18.869 7.70138 3.89395 6.31089 12.1956 1.79905 0.764424 3.80846 2.26874 8.71383 3.20062 17.7328 5.14328 21.6474 52.1795 16.1655 104.113 2.73775 8.71825 1.84496 2.79666 14.1152 8.74622 10.895 15.4007 1.61225 2.48533 10.7655 2.93536 15.1047 8.60777 29.2318 64.0529 44.6142 28.1984 52.2755 5.26376 15.6167 7.82538 10.3537 0.213963 7.23037 17.4365 8.58809 11.1815 6.11608 16.2968 9.38971 4.03788 44.1629 17.4639 22.4525 29.4453 13.0247 63.2764 8.13185 9.30173 3.46247 2.54399 3.82282 4.15119 9.60187 4.65081 14.9565 3.52641 1.16978 5.29691 2.57871 13.2068 2.33047 1.59722 14.4227 8.89337 3.05803 11.9172 4.23099 9.4302 5.61753 2.74049 10.5573 6.03058 13.1316 50.6758 11.72 27.4817 21.7832 10.0804 6.35702 2.85935 29.3617 4.61967 1.89442 33.2365 13.9359 13.3761 28.1963 17.2875 19.898 16.3856 6.57875 34.1129 40.6194 38.1307 18.3915 9.37696 21.3087 19.727 30.1939 6.84199 2.68978 41.9469 17.5639 28.7287 5.08358 4.91595 11.1854 10.8053 5.44314 8.04441 5.99438 35.674 11.1538 24.2003 100.697 45.0135 48.1326 43.8601 39.949 30.7905 14.5631 2.1456 3.38311 3.07461 0.482486 1.26465 5.40105 9.98029 7.41255 5.63741 6.53952 0.585778 6.89951 11.9795 16.1024 2.29156 7.57621 2.61893 5.79923 5.05056 0.580614 7.89519 4.03287 0.5041 4.08226 7.40698 5.33331 7.61092 0.396181 2.40002 1.0285 1.64853 4.7434 0.961088 0.615026 11.9275 9.93547 21.7022 0.634184 1.10946 10.0925 9.93052 6.46902 0.729196 10.1908 0.723995 0.725069 41.293 14.3377 35.1246 2.83361 2.36382 35.345 16.6014 16.9601 25.1899 33.6452 10.3427 13.7449 5.19888 2.26063 4.88219 3.56619 0.0856216 0.11589 0.0984897 10.4856 2.68306 2.19654 3.1826 7.10097 9.72908 22.413 0.713155 8.0889 7.83968 15.1057 7.67493 14.2875 34.0043 20.3374 19.543 0.0756628 32.8519 26.774 26.9128 8.04203 8.04995 1.74476 3.73047 16.7163 11.6072 2.2204 5.05062 2.89415 2.2944 59.9219 28.2321 2.94293 4.17437 3.77931 20.303 15.2275 11.8063 24.5999 42.5715 21.6574 44.2791 1.84242 0.728943 15.5627 4.62894 2.45277 3.22484 6.3266 17.8672 15.9558 4.42718 7.43377 6.00142 6.59196 1.8414 24.1392 58.1734 10.2036 12.294 52.5426 42.3285 10.4871 12.6848 2.81356 9.64866 6.93852 3.07063 1.76697 25.5128 10.6635 29.8926 13.5221 12.4245 8.50835 115.941 63.4221 11.6034 119.693 6.52242 41.1092 5.63479 2.92957 3.18986 39.5174 11.7942 6.38119 4.04294 6.55118 8.91038 6.06546 7.94462 6.11992 6.08336 13.7893 2.71452 5.48188 10.056 14.8245 5.29833 14.1223 8.76885 1.4928 6.34802 2.69883 14.9554 21.0369 42.4437 29.2265 13.3942 2.62193 2.89616 7.4643 6.28754 7.01688 6.08708 45.2936 5.08844 41.8707 155.975 186.999 149.136 23.4878 18.0064 17.7998 36.3828 13.9308 20.6343 18.2889 12.6637 44.5343 180.103 84.1381 119.534 52.7995 88.3356 10.6579 9.57193 5.82809 39.25 32.0431 22.6625 23.1576 34.3023 33.8192 1.16318 7.72974 24.6909 6.46311 8.74208 9.32284 4.64053 4.58518 9.78293 9.80161 8.87479 16.942 15.7723 42.2484 30.7642 1.11054 41.3952 10.7422 5.21829 7.40881 7.6534 5.86199 13.8698 17.6448 15.8127 15.5099 19.7003 13.2578 9.40621 5.16233 6.56824 48.9164 4.87628 23.8538 1.88631 1.23924 3.01804 3.70057 10.7041 25.0868 29.1346 25.8964 3.50796 20.3905 10.6023 0.407266 1.52251 6.48677 8.09544 92.99 9.14426 9.05794 63.4796 60.1501 0.274713 6.55017 21.5556 4.30074 5.69388 8.71941 15.975 7.9872 12.6 39.2213 10.2346 27.6945 28.9823 10.0445 0.0799583 8.7373 0.0434861 9.98726 3.44821 4.16189 79.292 50.8855 29.5764 4.62666 1.32076 25.8719 35.2935 3.68556 47.3331 1.55824 10.0837 16.0421 5.60512 3.55674 14.6397 8.4188 25.7812 4.74427 11.9183 22.4982 15.4576 8.2268 10.9125 8.24748 10.3803 17.7559 6.99162 14.1003 2.41369 27.5872 2.43349 3.81724 10.8747 25.7228 8.31339 15.2396 2.65072 16.1465 7.55625 15.5708 8.64054 5.91956 2.13489 1.51357 13.9926 8.014 1.1195 32.9241 1.81463 0.947359 19.063 3.59722 9.39704 21.9497 4.7844 4.70843 46.8771 4.91262 4.78224 7.50937 21.9206 13.8259 13.4631 9.20159 3.8723 4.6428 6.66745 7.8567 5.31013 7.33222 9.86561 10.6502 5.86246 13.3364 9.84476 10.5606 6.73302 0.95128 6.89697 4.44589 8.79953 3.22836 5.76308 4.69206 4.21655 32.4159 27.8809 23.208 28.2651 1.90538 1.9636 3.38239 3.2231 0.423522 11.3609 8.68147 2.03634 3.02238 2.19009 6.51318 5.1342 5.04055 3.73289 5.31934 3.01305 11.3581 21.1168 46.2039 30.638 67.0497 4.76647 1.26618 33.8554 24.9506 1.26335 5.63044 2.28124 4.30029 34.8956 22.1632 29.3228 3.7668 48.226 11.6997 38.1323 21.452 22.2909 14.0712 7.12402 4.8659 7.77635 14.3746 24.5325 5.82474 8.18542 5.7571 11.9185 112.231 11.8361 5.27026 47.4682 1.82476 4.40635 1.87762 9.48815 46.2049 7.90437 8.11997 12.3052 1.01397 0.863751 19.9869 17.8988 1.19684 2.0458 14.4539 1.04301 4.83747 7.70318 41.8267 34.1033 67.0437 4.92752 83.34 104.316 54.8619 1.54564 0.58973 38.0631 29.9836 2.27996 32.6811 2.20603 30.7317 30.2332 25.0449 27.8151 25.0558 17.0653 3.32744 6.13737 3.40047 4.86782 35.9654 24.9767 6.17135 3.58485 25.1226 30.1619 16.4298 2.73307 4.45288 3.64576 1.83828 1.18068 11.6797 6.41677 8.26545 1.27434 1.09137 8.10548 3.39245 11.9208 29.4537 44.8032 11.751 7.16331 5.14661 5.78458 10.0848 63.8819 12.0106 65.0261 1.32445 7.85784 7.20294 16.5399 7.49098 7.10709 10.3583 4.21278 6.24297 8.39013 0.194411 13.4187 0.157744 11.5563 0.167367 13.0864 12.2964 2.93196 2.31836 7.15693 5.98714 8.0575 3.6843 8.31475 10.0223 0.1409 7.55814 0.0771522 4.1079 6.32615 9.56899 5.56494 8.23872 12.129 1.11693 23.089 16.7588 9.19097 11.5012 64.6574 12.314 8.0794 14.8459 5.36508 4.91208 31.8653 0.987457 13.2046 11.9107 10.6184 58.4182 7.99409 7.00334 30.272 12.6867 60.1891 15.8845 10.3629 8.67542 5.22118 2.97389 2.83797 2.4281 93.7746 51.6215 70.1381 53.4439 1.76482 43.7534 4.965 5.23094 8.12897 15.5045 9.49139 1.75204 13.1551 30.9242 9.15214 7.71175 23.3252 5.28543 6.86115 12.1006 140.498 79.4266 7.06197 8.77742 8.32353 10.3997 8.68708 7.67745 8.18319 7.26007 8.92281 4.32073 0.159631 11.5785 47.0973 1.00499 0.712649 12.2506 15.3787 23.0652 9.45793 4.75435 10.9698 8.0259 14.1727 8.1688 6.67316 4.39999 27.1245 2.24451 0.736055 16.2011 24.508 61.7798 19.5459 8.36259 8.10231 19.7287 3.68211 10.2039 0.659514 10.4231 35.9368 32.2228 8.99525 14.8664 7.07525 5.20583 2.77196 4.62233 4.77618 5.62271 3.45562 13.2401 21.9411 33.2955 3.40686 3.2086 2.72524 3.55876 2.72509 32.324 94.6954 15.2812 10.4348 6.63336 9.38881 14.708 30.8443 9.09134 4.41575 3.6189 14.8393 9.06045 11.3409 3.88549 9.47389 12.4114 8.21707 4.25118 6.81071 11.0806 0.697793 10.5419 2.42476 8.35506 5.2596 7.41977 55.2086 48.3808 57.6452 1.57087 1.75859 1.25676 0.869686 3.0142 2.07535 6.76358 5.56799 2.5982 6.28428 0.139101 1.31577 0.138002 2.31128 2.21706 1.4938 2.71882 0.0973062 3.54431 5.24291 0.0840703 0.0563362 0.0383665 3.1069 13.1679 14.9168 18.676 24.0044 46.4734 0.336767 19.8585 11.9333 2.52114 0.624349 0.75723 0.119224 1.97803 0.584732 9.20189 9.06567 1.53965 0.962512 13.6992 9.35148 9.60335 7.37363 6.77247 17.9631 1.10864 19.604 17.5419 25.3495 21.0585 12.8314 12.8093 13.2923 0.977066 38.0537 1.67939 26.5734 9.8682 85.9864 17.8735 56.7468 27.0636 35.4894 46.773 31.8253 1.57177 2.15938 1.26838 17.6325 20.1737 12.0998 6.74064 1.48351 15.9609 9.04514 6.07382 10.4858 14.1187 4.26234 19.8942 10.0514 24.5193 17.4811 9.8123 8.97197 2.22352 10.7039 7.62523 5.61927 3.55443 1.44241 0.576369 0.75732 1.45057 45.9933 17.9161 102.5 32.7259 1.55169 12.9311 67.7973 13.5533 18.3073 31.2072 39.9594 0.518206 0.778407 15.4224 0.587031 0.795765 0.38335 1.06098 0.345352 1.1803 28.4632 10.2801 21.87 1.04589 18.6391 4.05603 1.23998 15.9576 26.0074 97.364 3.71928 8.10168 1.75904 2.97866 12.682 101.763 8.44597 2.73519 12.9679 3.16961 17.3204 37.6038 4.14722 1.65495 1.29374 2.77019 1.05952 6.57728 1.08143 1.35327 1.12237 19.8737 12.8386 4.87716 10.6567 1.29257 8.9972 8.73223 9.3944 9.13457 14.2675 0.326442 0.283991 2.73878 1.33549 32.1577 25.8054 23.2255 23.8388 3.91438 4.7482 1.74193 5.72439 4.6024 2.30815 5.44987 2.48835 0.654682 10.4146 2.01309 2.44495 57.1347 38.2512 3.6795 40.2867 25.7518 52.0869 16.1536 6.40662 5.77453 0.192063 0.347499 38.0032 19.0176 1.31181 11.4856 20.7318 30.1149 0.920448 6.91186 10.0377 2.98583 5.01655 35.4948 25.6167 7.82222 14.4166 19.4097 53.1977 64.8184 2.69202 3.03804 7.36828 0.540381 24.8014 2.36949 2.01383 12.1973 6.94228 9.29821 22.1926 8.27283 19.5594 7.87511 6.81594 41.3595 7.52927 23.8209 45.393 11.1103 6.103 4.64987 3.03688 1.57157 0.898482 7.09244 1.24286 1.55561 4.68044 10.6867 3.00266 1.90856 19.5844 2.04483 31.8724 37.6943 22.0191 7.67593 18.1113 14.6968 24.4685 4.66684 1.55866 4.60651 14.7502 6.95973 77.2306 5.91731 6.94155 4.27231 3.05578 21.6909 3.0685 8.68381 1.38136 4.8966 3.3065 12.699 12.4816 2.88841 7.37523 8.14076 12.2642 32.1764 5.92185 29.0222 70.2752 12.7592 14.3728 4.71555 6.49885 13.3458 10.4585 3.8279 4.21759 1.46001 4.52879 5.64542 2.36685 12.9817 1.77677 13.3302 6.07586 6.1199 13.9163 1.80384 7.19518 56.538 14.1379 37.4696 56.5514 2.00766 4.06247 4.15751 9.22279 33.7325 31.0424 54.7961 6.08107 4.91809 12.8514 8.7549 5.35276 1.92829 2.23752 14.3636 5.78394 33.8766 17.4141 8.91359 5.4162 32.2213 32.7693 2.43236 10.6651 6.83273 7.87244 5.80848 33.9343 28.448 7.33448 24.1528 17.361 16.9593 16.8264 11.2558 14.2586 0.0940404 0.191141 1.162 16.7748 12.9869 7.93609 50.8296 49.2748 26.8374 5.97429 0.0811365 45.9031 4.93917 10.7216 6.94091 37.6025 194.799 126.926 8.71655 0.0657553 77.8089 5.6914 3.96332 16.6152 1.81903 35.5539 2.85222 6.662 7.80836 11.0621 180.153 45.1484 62.6694 14.7674 2.9643 36.8095 46.9717 7.88067 11.9271 8.69734 4.90022 2.34776 33.2354 4.83883 46.4738 4.36154 3.03578 31.1101 48.2454 32.1946 5.6235 9.75421 7.4467 15.738 38.6548 42.3353 32.6741 4.18925 5.91023 6.07101 26.0936 23.3605 21.4774 3.9425 13.5191 5.37131 10.1197 5.77197 16.5459 27.9587 24.0201 2.98579 27.3579 16.6847 3.81862 3.03161 7.1609 4.7186 7.49556 6.68302 11.3004 0.551571 17.2446 5.35657 26.7377 4.41853 53.6407 27.2675 88.5179 7.06581 17.7246 16.9491 11.3546 28.7763 18.9405 1.84889 0.830802 2.22191 0.830254 1.02601 6.53448 26.7956 7.12401 0.406726 13.9851 16.9176 10.4092 4.32043 2.82517 1.97827 5.7172 13.7867 0.554882 0.602036 5.33924 12.8371 3.34775 2.84962 3.95952 5.86152 2.42064 3.15422 4.13333 8.97279 6.09128 5.56214 6.69432 8.04865 18.5763 2.65025 4.72748 37.9586 40.0025 0.825284 3.42875 41.3496 6.00575 2.74812 5.2302 3.77837 0.697536 4.18502 10.5119 1.94251 13.3677 2.31212 12.4047 4.5007 3.7008 0.218087 0.222442 9.89287 11.2929 1.8468 9.26685 42.2502 23.6611 25.7303 13.1276 3.81898 30.4672 2.70617 5.99811 12.0376 2.68815 1.87633 19.043 1.58383 3.78952 4.99991 6.46634 43.4413 28.3481 22.9359 3.43679 43.628 3.54668 5.22984 3.66572 14.7884 24.6804 5.63496 4.31169 0.256621 0.634714 0.968973 0.299309 0.413146 7.47143 0.327759 4.86885 4.68285 26.1898 0.366561 4.65922 22.275 27.144 20.8143 0.399672 2.92898 5.7026 0.63899 7.21736 9.42291 0.26592 0.19589 0.324659 5.59842 6.16721 1.40739 34.9561 6.82118 2.96824 3.12928 22.1119 56.8171 5.63213 5.54369 2.34228 2.28967 19.42 24.156 8.03622 29.0626 13.6965 4.10169 3.50489 3.68353 2.90489 4.6446 5.34964 3.59112 3.91102 4.17379 2.04222 4.57846 2.52231 1.8331 18.6066 10.3002 17.7437 3.2825 3.44459 3.53339 9.53501 19.4031 13.9679 0.131178 14.2746 9.7446 0.100303 8.31588 2.88424 7.68074 0.0540003 7.20705 8.47988 0.0557615 4.64764 3.15607 1.02722 0.800164 1.01215 0.0396941 2.93155 1.88511 29.2635 34.7374 3.04231 14.609 38.4674 17.843 4.02512 2.47971 5.66816 11.1701 10.6797 1.17895 3.58928 0.507663 1.83433 6.2826 0.375504 0.490728 18.8271 8.81483 0.819697 0.807888 19.7098 17.7368 6.52564 0.639002 10.9258 8.14219 19.4831 40.661 10.2555 12.9299 7.21745 0.141516 12.2834 35.8751 12.8866 107.695 0.106805 1.97724 12.455 17.6357 10.0745 20.1847 27.3516 4.02556 7.25641 5.83767 5.14481 9.91214 4.42105 1.50928 18.1616 1.83109 0.311937 20.2703 4.00362 18.1508 3.5396 43.4832 32.5597 2.93543 1.7385 47.9321 43.0658 29.7864 33.1409 48.834 15.5936 13.3195 10.0682 16.0546 13.345 3.05072 1.52958 1.29432 1.63515 5.91405 2.2915 2.78266 22.6917 20.2827 1.72448 19.1298 19.2394 6.76557 22.3937 28.9408 9.29528 15.0197 9.54361 7.3419 3.95663 40.0588 2.8746 44.252 25.8293 37.5435 26.2728 23.3523 33.8796 1.39006 24.0759 30.0204 31.4048 1.03718 28.7517 11.0905 13.4482 1.11997 1.0519 1.06186 0.881795 0.724693 11.1202 7.52166 10.7838 2.31909 68.5497 0.215387 8.38324 1.47068 2.11935 2.80016 15.1092 5.94786 15.4493 6.35355 6.76825 8.31276 9.09637 7.31838 5.7506 7.58083 5.56944 5.84214 11.7772 11.1375 12.4943 5.48102 8.2019 9.94948 46.3964 8.66947 7.4963 2.0726 10.0648 0.0950082 10.004 14.4222 7.3653 12.104 101.736 136.114 11.167 35.692 13.7875 198.886 41.6111 265.293 65.1719 41.4799 51.6002 1.52216 26.5118 7.80607 7.45123 11.321 1.60411 3.80868 1.75603 5.9606 4.75605 6.16397 10.7352 2.68249 7.50204 10.1818 1.63475 2.88674 10.3168 1.40758 7.81613 0.25199 1.79006 0.600062 0.833167 0.0563687 0.638547 9.83471 14.1259 11.7969 10.6793 15.7803 10.0492 18.6166 7.20755 10.7655 10.38 14.3773 16.3199 10.9929 10.7074 0.923349 12.9384 20.6664 8.32156 5.23923 2.68158 5.41545 5.11009 1.49334 0.808395 1.66383 0.608788 0.673659 0.788597 26.9022 19.4457 15.4348 26.3771 34.8781 30.3984 17.2943 64.9817 0.390741 1.70656 1.23902 4.73286 8.87646 9.17727 22.7175 10.7809 20.356 15.4896 0.164984 4.35073 14.4993 3.91843 6.80555 4.87546 6.87664 55.4315 3.17395 13.6878 3.36741 32.3957 42.1406 1.9124 5.99308 3.13733 2.12915 5.24631 5.00566 10.5719 16.1802 16.2312 9.66179 5.40476 1.73239 3.4353 3.77957 10.6503 11.0811 31.9809 16.7283 16.1292 23.3597 25.3877 11.3678 18.3108 33.8056 1.27311 1.00022 16.6471 7.97803 0.890185 0.105667 0.156294 8.45632 22.2721 11.9508 33.7322 14.6559 19.2446 71.5696 12.4702 1.26243 1.72431 2.07693 2.10821 2.54057 21.7851 26.7401 11.2549 0.757469 4.29467 34.9663 5.17941 9.7619 4.61811 251.304 5.71151 7.19343 22.5004 5.22581 2.41985 2.51159 5.21083 2.25537 3.73379 4.7607 0.932562 1.31971 2.26598 11.0799 0.442297 2.30253 14.0203 17.2167 11.3821 34.5325 9.42716 0.687658 6.3428 5.52307 5.35493 4.66018 4.25736 4.62237 9.08861 2.56931 10.4247 10.37 7.92824 15.5005 15.665 0.54242 28.1283 19.2113 0.176032 0.0959624 0.699369 0.316584 0.688049 0.435314 9.55978 0.754975 6.11913 0.269425 1.05568 12.2848 8.88045 14.8819 15.1685 21.7497 25.7368 16.5278 6.91386 12.8601 1.59629 2.70453 4.36827 5.68476 6.48103 5.93506 5.53401 6.64487 15.7873 3.05809 3.85583 1.6079 8.49035 10.0294 5.87625 4.01239 18.1352 4.91151 4.08153 3.80146 6.20494 0.887869 1.55791 0.616059 7.97009 27.0974 35.0425 1.75291 10.9638 11.4304 37.0135 30.5719 16.3104 16.2976 18.4856 36.4246 2.0315 11.3601 30.346 7.94723 8.02022 4.04044 4.4632 8.07843 9.19481 5.67894 6.33225 4.60976 3.95051 4.93766 72.225 66.058 1.33692 1.73658 17.1253 4.04847 43.9419 37.1105 39.3738 1.39512 8.67379 3.342 4.03237 11.4285 5.45912 49.8803 17.2217 4.66822 0.0641065 2.29242 0.105571 2.81758 2.95215 2.62662 13.1519 4.59623 15.2084 14.8203 22.8881 3.48197 20.4322 8.07644 4.3965 4.26572 1.26446 0.922606 0.643572 1.87995 21.8953 23.5678 3.99129 0.176641 72.253 149.456 43.0326 26.1021 98.1564 56.8515 7.38734 8.68827 5.243 17.7285 9.82535 0.0967493 4.96606 0.0739373 1.22653 9.12534 0.481692 0.865722 2.21669 80.339 49.501 54.4457 65.1566 7.90811 20.1123 13.1049 33.8344 0.8838 15.7614 14.4349 2.08897 2.2897 0.914882 4.37408 27.5161 2.65171 1.8924 34.0092 9.19285 5.60863 2.81258 2.59293 3.31678 10.3138 10.6966 34.1169 8.04317 21.7162 11.494 5.99576 4.78324 13.5215 1.37135 0.830864 9.21299 12.7985 0.208555 0.843818 21.0457 0.95145 1.38391 10.5073 1.44262 1.39564 0.746661 12.4676 7.81683 4.32266 32.1549 33.2966 20.2949 16.3265 13.3956 16.9517 23.4809 2.87192 5.32506 16.0514 13.8796 2.5055 8.70537 36.3824 20.208 6.37185 9.38965 8.61516 27.3381 17.7603 38.7312 21.3699 1.04467 0.800236 11.7448 10.0668 8.18325 6.87087 0.928225 8.18705 1.31793 1.80777 10.5303 10.2643 13.6369 16.5015 12.7674 10.266 3.39134 5.98392 5.88609 45.8285 13.5531 27.7792 2.56456 5.36803 8.01411 3.99806 5.59463 14.9849 0.34857 0.89322 2.70124 0.507229 1.34922 8.83368 6.84998 2.45524 6.15266 9.56621 18.4452 16.7429 5.79184 2.5171 0.988899 9.19565 7.68847 1.33351 2.29088 9.29204 11.566 9.90272 9.11844 13.2856 11.4173 10.9033 17.2097 13.2286 5.24738 1.66727 4.8246 4.01923 5.76432 5.83425 0.903171 1.35079 6.71583 3.23661 7.52544 10.8486 16.1711 2.97344 1.44199 52.4472 0.980693 1.00993 13.2028 7.537 1.56124 8.54676 5.57628 1.86505 1.40331 2.22642 3.39901 3.88998 0.777346 8.84917 2.90949 7.67483 0.553475 3.86875 2.7605 3.8415 4.53763 6.98744 53.7941 15.0886 5.91159 4.14997 2.09139 13.7824 6.43482 0.13567 8.30474 0.174885 4.2043 9.99032 11.1184 10.2919 3.52918 3.86743 5.04691 5.30124 3.29074 8.36509 5.86826 2.23902 44.9771 3.98527 24.159 0.801955 0.877187 1.1596 22.5706 24.4542 15.5356 12.8442 17.0499 7.42475 16.8431 10.9112 12.7343 7.07778 17.9312 13.72 7.4648 12.8395 11.3605 8.91728 0.126679 5.65081 5.83595 13.344 68.5654 9.25452 2.6354 0.127935 0.225697 1.84735 12.2273 5.46871 3.35653 6.6914 18.5942 5.19477 4.82417 7.43036 9.26801 5.09045 18.9912 6.88541 13.821 3.8791 3.91187 2.09355 3.97156 4.30138 0.998901 1.6603 0.704213 1.64898 7.24671 0.989099 0.680548 2.91524 14.1303 6.05987 15.9664 15.4971 1.32244 4.59269 16.3471 21.0325 20.7373 7.28801 3.95312 14.5572 14.5345 1.14373 6.06379 3.8518 7.11496 3.05774 12.0672 7.39016 8.44831 6.08984 14.5685 31.5473 8.21576 3.45051 11.5706 10.1609 29.0255 5.13671 4.45138 0.626984 18.2854 11.0977 7.44317 10.9008 4.40799 14.6686 8.04816 20.4125 17.472 0.083816 0.0858366 12.3767 11.0894 0.0881818 0.104287 19.5454 13.2699 40.0599 17.4091 61.2848 17.1768 86.1115 21.8574 85.2179 13.8896 16.5186 18.9981 0.948045 0.777249 0.577942 4.99661 0.187063 1.25501 0.2076 19.6413 26.1801 0.260251 20.0796 20.7141 2.14047 1.98881 1.49922 63.1291 4.19525 4.85633 88.7127 68.0116 14.4134 17.2239 10.0594 6.11008 3.55969 7.23299 4.60295 2.12739 60.7494 10.0468 20.5842 6.23371 20.3031 8.41131 2.77997 17.1456 12.1247 26.6581 21.3833 16.672 13.7714 20.2561 9.1546 3.16202 11.7391 10.1758 8.2166 13.131 10.8114 7.09199 2.75604 3.89541 4.63125 5.27688 9.4077 7.93003 8.57503 4.90628 5.99178 4.82606 3.89134 51.4022 29.6821 30.4649 13.4468 19.7777 5.9518 2.52044 6.34413 30.7092 7.17973 11.4576 21.4144 24.3196 9.05933 13.0831 4.98212 1.44511 2.2095 15.3376 16.5595 11.2025 11.9379 14.8576 3.40123 3.60807 1.38838 25.0024 44.3223 26.3758 22.3985 24.5803 60.9152 6.96624 19.7199 9.78292 6.76956 4.94849 9.01194 2.51102 2.8348 3.99171 2.50636 2.84213 26.4074 5.95441 5.58509 4.33871 6.09066 4.17309 6.18131 3.82105 2.80761 5.60511 8.66255 1.43949 12.5372 29.0605 23.0744 37.5436 32.9673 1.42646 3.849 5.75464 4.3126 7.27419 2.13099 2.58389 6.42027 32.5792 8.57541 21.879 62.145 59.9539 111.436 8.37325 8.39867 10.2107 1.41859 11.2045 4.47887 63.5901 106.021 53.8892 95.5305 91.6843 4.63035 7.13757 5.32453 5.44814 2.85513 24.1324 32.1807 27.7919 4.28433 23.5704 11.0433 20.8228 11.2856 16.1261 17.0966 2.20855 1.98964 6.62918 5.37943 16.8027 0.185456 3.82988 23.186 14.3854 4.11419 2.94957 5.6931 24.0374 10.3665 16.2603 8.17013 4.75037 10.5225 64.6391 44.6 48.2534 30.193 5.77242 15.7984 8.87787 6.82564 5.80907 14.5399 1.0458 12.1701 13.3979 5.68364 13.9973 6.24854 13.0555 2.5976 5.10863 9.65967 13.2398 50.7107 7.56067 39.584 6.79256 16.3954 8.50568 20.9407 18.4402 18.4745 3.69648 1.40458 8.08187 8.85393 1.09017 2.57342 3.08102 8.73083 17.4215 2.63872 10.0135 8.19946 0.732626 0.809206 9.62563 5.52687 34.7196 0.93095 15.1443 1.50584 1.60026 3.545 2.14095 2.85058 10.4284 13.5144 6.89956 4.3105 97.2733 156.709 1.30157 46.7336 21.3129 25.9961 28.732 14.8757 4.90343 1.31531 14.1815 5.60224 20.5365 35.8823 2.23487 1.19224 1.58114 2.11737 1.84573 4.913 1.34167 8.07332 7.61006 4.1424 0.951482 1.03981 29.4545 4.57902 0.659155 4.41857 8.32956 5.95613 11.2859 6.01012 8.15671 8.62221 13.2795 5.26763 4.38202 5.78973 33.4102 29.057 13.5497 1.95997 6.43199 6.89383 1.90813 6.65038 17.7102 3.03814 64.2512 3.1263 2.04928 6.97804 6.76763 4.90032 10.5252 3.64583 13.007 6.92405 3.74606 15.5557 10.9865 5.70109 7.45972 3.20267 6.94605 5.46494 8.31048 42.0932 24.2193 75.7313 53.8569 89.7569 1.98624 68.9187 60.8972 2.96543 9.91432 1.69863 15.6882 10.0446 9.96869 6.54333 9.4986 4.12984 11.3905 8.19635 0.972644 1.34807 0.712063 4.4369 1.17573 0.698197 5.28061 3.70447 4.78532 8.3821 7.31726 7.53955 5.85699 18.3213 8.66209 4.22671 5.74035 1.95909 15.7431 1.77154 3.26917 23.586 5.33956 7.63735 3.81756 4.42825 6.19055 3.62174 9.37974 32.5086 10.1069 10.6643 10.7545 8.94112 15.8097 5.96514 17.9187 8.61081 23.6333 2.06501 20.5474 20.5148 16.8238 29.9885 9.54383 4.31923 1.82293 4.0651 5.81695 13.1489 10.3961 10.469 5.80435 14.9622 6.63311 5.68321 8.42276 6.14946 3.53405 14.6517 4.28697 7.98759 1.93816 13.4762 14.7009 6.11998 24.5697 4.51803 1.29297 32.9773 6.221 0.451451 0.389508 1.00777 0.280739 10.5709 0.297912 0.331844 6.1392 0.164479 9.15673 0.205132 17.9896 8.97837 6.75256 11.9871 6.70048 13.1341 2.47089 34.7545 32.7986 2.77522 5.91685 5.80679 6.27822 1.20907 2.334 20.7426 14.0525 1.41546 0.979944 34.7346 6.51339 13.2225 20.3813 5.52949 11.5734 9.63898 29.0803 37.1298 2.25021 1.14265 0.838457 6.81487 10.1551 7.11133 11.4295 13.3873 7.56719 6.31159 2.68821 8.37631 3.41135 6.32837 5.62208 2.52878 5.63625 13.995 52.2394 5.68211 62.1125 83.3264 6.02212 1.96532 3.34892 39.6339 6.77988 6.93814 7.03364 10.7845 27.9865 5.38868 8.68377 4.63963 7.95832 4.51228 6.69413 8.91228 11.7084 1.97825 16.3146 9.98508 10.4937 49.0748 0.664496 11.9377 4.51769 10.6183 16.0799 13.8548 7.86655 12.7515 18.7396 4.47582 10.2729 7.73519 4.62436 4.33245 8.53499 6.21975 5.36114 4.46058 6.53816 4.54299 25.7817 15.1736 4.4875 30.3102 12.8603 5.0499 2.70056 1.52734 1.93438 7.8696 1.90588 10.9978 5.52657 10.0205 8.70891 11.0478 18.5244 31.5362 26.7084 21.4277 34.2101 46.7227 2.47547 35.5364 8.82397 18.768 7.987 29.0134 7.68512 7.2922 3.48335 4.94875 10.329 5.54935 6.90718 7.65887 7.20882 8.13101 6.82813 9.4827 9.73376 1.45663 5.84331 11.3777 9.68472 6.49609 12.3648 8.56422 54.5752 98.7476 1.41655 1.89375 5.935 9.12816 6.65598 8.84958 11.8344 1.72069 7.95064 8.71704 2.24728 4.87448 7.04996 8.52296 10.9654 2.97094 7.73058 4.3298 4.14508 4.99512 11.2032 13.3781 11.4411 37.28 10.271 38.0886 6.33038 15.0475 17.2561 1.27937 8.13821 1.20843 1.15431 2.84188 1.50332 1.28201 5.37131 2.05708 1.23644 3.00422 15.5834 15.6103 1.39623 43.4395 1.79495 36.7166 3.13032 7.18252 6.72241 5.92194 0.259709 2.77632 0.644576 6.1466 4.96656 5.28012 0.617905 0.535253 9.01995 5.59767 12.6877 0.274307 17.577 11.2492 0.33833 6.30035 6.44037 10.5733 23.7185 16.2394 15.3734 7.66244 48.5809 16.1276 6.19565 8.03638 28.4849 11.4223 7.08993 9.03172 8.54896 7.0005 11.5136 15.7981 9.07147 9.38917 2.33525 18.3129 5.42063 2.23067 8.23117 13.5452 2.06918 6.42422 5.96572 7.13085 1.30446 3.90933 5.04833 11.7937 1.68062 12.6594 28.4079 8.35081 17.0201 15.526 20.0871 12.7424 15.8926 1.12922 3.49727 1.07725 0.911291 0.968097 1.39213 0.966012 4.15406 0.15681 0.156485 5.02755 0.0390378 6.35414 0.133818 0.086292 0.457822 19.2564 5.46189 0.0405249 11.3215 7.76947 12.45 0.0475448 16.245 16.2615 10.0747 6.3965 0.711198 8.64065 0.790355 0.825789 18.6842 5.42186 0.66623 11.129 15.3615 6.42767 3.22057 2.29636 5.11133 2.31647 1.42579 4.57095 11.5099 22.5244 29.6642 12.4261 1.65813 11.0419 2.72531 10.4352 21.7035 47.1527 2.8672 24.1416 4.35793 3.04161 2.80051 3.65594 6.92888 9.49631 3.75228 2.29983 2.91721 9.93636 8.66963 59.6667 6.99254 1.5222 5.25566 5.82763 7.21254 4.40189 21.922 26.5263 4.5399 7.00999 24.6612 0.947623 1.14988 23.1599 17.6092 20.5679 3.99719 15.3805 10.756 7.82232 10.8288 1.53201 9.10969 4.67799 3.91747 5.87453 13.8006 0.739664 4.63212 30.3344 5.14955 0.776178 22.0412 0.856009 0.649316 21.7044 123.816 112.919 0.827766 3.24963 40.7521 3.76294 25.2391 33.2089 13.0182 9.56411 16.441 18.6137 17.4557 17.7851 19.2128 15.7932 5.7123 4.607 0.192434 6.26233 32.7047 16.4783 8.08287 24.3003 19.0055 4.54537 21.5233 24.7664 23.4937 16.5992 0.584444 19.9361 9.57731 1.71842 9.35235 8.59643 7.02285 4.73236 2.10146 17.1734 5.00289 1.89798 13.9997 11.1607 18.6871 0.333638 20.6524 16.3961 12.2245 18.9108 11.8109 12.878 1.77413 3.64057 12.0418 14.4193 4.30855 3.89572 8.49949 2.95278 7.99108 6.73512 9.06647 6.28752 8.28585 6.20395 0.292152 13.555 2.10636 24.1828 11.3031 11.6117 1.36221 3.06535 7.6013 7.29742 30.6468 17.2858 18.192 0.232956 1.8551 15.6054 11.5581 0.418615 0.370484 24.7682 27.645 0.229599 35.7166 34.4416 24.3886 4.37429 35.8503 18.4048 19.1182 21.4253 8.80044 20.7947 10.2961 5.78791 8.01108 5.21319 7.32436 6.72771 34.427 7.37263 7.53451 21.2826 8.18359 17.418 5.88698 3.76442 1.97759 2.28906 3.85283 2.78902 4.07659 5.37687 11.3718 2.33254 20.657 12.5836 8.35624 13.6381 3.30184 2.48234 4.44457 2.97578 7.38007 8.20591 6.8059 9.49149 6.05221 6.23548 27.9831 27.9801 4.73305 1.18475 1.89233 8.77104 45.1441 45.1472 14.9956 5.91291 8.86561 4.33548 17.0192 4.02342 7.21943 0.590299 7.32203 8.26876 3.81932 9.80482 5.94297 11.0028 8.89809 10.8385 8.5516 5.62525 3.92658 0.459853 7.6747 6.02438 4.18722 0.755006 5.91667 4.48948 3.12565 1.05649 23.6258 11.3084 1.19354 4.76973 9.03107 1.09208 9.74881 4.21403 9.07428 0.907773 11.6533 1.41615 6.49175 1.77506 14.9025 11.0253 9.09109 20.4678 10.947 8.80809 1.99782 1.54696 15.8891 1.72401 1.86922 7.36626 3.01731 2.38432 1.53799 5.69989 2.60095 2.78207 3.46698 5.44481 8.48573 3.7158 7.52993 4.29125 3.33127 3.40961 1.83646 3.12582 8.93578 18.9698 0.5215 11.5209 11.7471 11.0564 8.1346 8.02529 1.7573 3.51961 21.5611 0.453767 0.218068 0.482465 4.61687 4.01523 5.85398 6.06755 1.89916 0.335997 7.98241 6.67525 6.58959 3.78268 0.487028 0.137246 12.5958 0.266931 7.28405 14.678 4.25409 8.95831 17.094 3.21204 3.07308 2.83723 3.44269 3.19249 0.0874927 0.0946452 3.95423 4.81897 7.52236 12.3922 3.18686 5.78948 3.29109 6.08569 8.78864 7.5044 23.8109 14.4701 22.8814 25.1094 2.71897 30.9316 21.2783 10.524 0.356587 2.6145 3.17491 1.64514 18.8268 0.240413 9.92316 8.68547 0.257302 19.4109 22.5081 0.197929 23.0261 1.76133 8.42023 4.04795 6.47004 15.7817 1.03802 20.2259 7.00548 13.2165 15.1094 4.18605 2.4727 3.15515 4.43277 12.4957 2.84831 0.662685 9.74185 1.96352 12.0038 14.3168 2.44493 21.064 17.9926 12.8125 48.4444 18.0527 17.9369 16.8852 1.01593 1.32267 1.21963 1.24222 1.24603 8.55948 3.7283 7.76776 8.71761 24.5663 6.45296 4.11832 7.73146 25.0307 2.48627 9.34163 12.0654 3.82355 1.21747 4.21463 4.68601 27.2158 4.11067 17.8913 8.40109 39.7317 6.45031 10.6275 4.39549 1.50111 3.97816 5.0539 4.1018 17.5256 33.3164 40.9391 32.6222 21.5084 2.30003 12.2303 3.87452 8.5106 10.6566 9.54286 7.03115 5.30689 3.70955 22.5036 35.8254 14.2875 47.3952 41.3063 2.48089 28.1364 16.2032 17.1821 1.07854 12.4791 1.44421 1.97631 6.016 35.4141 7.21547 8.3862 13.0003 10.1817 5.78166 7.5421 10.1661 18.681 0.8859 31.4406 3.73285 1.20422 1.36336 5.98389 16.0667 19.5494 4.9752 6.2458 6.64602 12.3067 9.18911 14.1735 17.496 18.6208 30.6663 15.6825 17.666 14.909 6.12478 5.07158 13.2924 17.8701 15.689 12.2928 9.39257 39.8269 0.354799 21.7261 9.71622 1.51253 6.89704 0.110212 12.5212 3.4722 22.0213 0.0593274 7.35947 2.96699 0.217146 1.68287 1.88151 1.68491 1.77538 4.28554 15.7398 2.76868 5.76692 3.60544 4.73829 13.5726 2.97596 4.27525 8.21211 14.1894 10.0982 11.7261 14.2344 1.08982 1.67103 8.88784 10.6255 12.3651 3.67271 15.5776 3.33131 4.2384 4.02612 6.0105 20.2325 4.84197 1.79538 3.66969 5.51357 7.98812 2.40604 6.60241 6.05553 6.134 38.2411 55.5854 33.3968 1.47266 5.38838 4.7987 8.34136 6.40571 6.2202 5.45573 2.00987 1.44867 14.374 1.6535 4.27619 3.941 79.7368 2.49081 1.82393 0.885089 3.68171 2.17839 3.11049 0.966025 6.5657 4.55649 4.33529 1.20501 6.82866 10.2019 3.55011 8.05526 3.87227 10.7304 34.3573 38.9343 9.04189 30.096 1.18348 27.5675 9.38058 15.8676 31.419 12.5655 18.1534 10.2149 8.0247 11.654 1.51953 10.2472 13.9423 5.29607 0.0370961 3.56769 4.65165 0.048532 6.51285 4.80569 3.49217 4.99566 6.1005 5.80356 1.35584 11.9071 22.251 20.4504 8.91085 13.3883 14.3132 3.92004 6.13932 4.1571 18.1052 6.06521 8.41065 3.08239 10.9087 9.8544 7.72219 2.5366 0.918151 0.728714 3.22211 5.24445 15.2151 9.78098 3.65041 1.5458 47.7554 24.4917 22.6029 4.33246 91.4621 84.1524 22.9333 10.2401 5.4824 14.3551 6.45468 19.6856 6.78531 4.62119 7.95143 10.1416 6.53825 37.2725 33.4894 25.3324 4.13704 6.09789 2.45795 6.29024 5.58312 7.35082 3.47879 2.04302 1.45629 1.26798 3.08223 5.38574 4.9231 5.44089 8.40602 9.70354 4.93096 16.676 17.1214 30.3037 13.9959 6.82166 19.9263 26.4863 0.375517 18.994 5.09126 8.25498 0.430438 10.5391 73.4393 5.42162 30.3752 5.16808 8.45107 6.38852 8.78863 10.3286 26.1491 20.3973 8.03453 4.85769 0.795961 0.650958 17.8829 5.75959 13.1107 22.1728 7.00956 5.53808 8.71836 14.9359 2.96402 2.76396 1.10152 5.29884 1.80375 1.93955 16.585 12.9011 4.1071 0.496048 10.0862 36.2034 9.36199 18.3394 25.1481 16.6876 0.671891 5.44929 7.56806 1.35997 36.7044 2.0874 1.3142 23.8654 3.92658 5.10744 9.25567 6.96001 4.1333 17.3921 9.53813 2.63093 3.65972 1.16656 0.778486 0.647306 13.0592 11.7509 3.52579 8.05812 2.11005 4.29937 1.43257 3.48841 55.3709 75.5638 41.9452 33.9664 1.70217 4.59756 3.62306 1.2444 3.40244 24.0775 6.22117 7.44334 4.70756 4.75298 4.97732 1.11248 2.89358 16.6212 22.9177 0.666324 29.9 9.99195 0.77213 3.92159 3.01969 7.37876 1.17804 1.29831 33.7343 53.3299 64.9548 8.00743 18.8566 12.9346 22.919 14.4128 0.63391 0.719348 22.3997 7.25348 1.30486 2.08061 23.8984 1.39571 16.0732 37.1895 8.51717 6.92476 4.98372 4.86154 13.2801 2.83072 7.12209 43.4619 37.9314 11.9558 9.33821 14.1457 6.40464 11.5059 10.5809 10.0969 18.2782 13.6978 7.68776 33.1655 5.89373 6.83074 4.91693 0.926752 1.73673 1.80443 0.554925 1.50437 2.1204 2.44561 1.98929 14.2432 6.97485 4.79681 4.27531 14.0309 20.8415 4.95689 2.61567 2.32212 1.69483 4.01639 4.96736 0.904288 5.87511 3.11424 1.76892 10.2611 5.27234 2.07222 2.79294 6.8915 3.42187 4.20955 4.7339 25.5917 24.6831 4.01713 3.07427 0.891425 16.9197 16.9051 15.6986 9.71687 20.8853 4.39442 3.60125 7.05478 6.15482 5.53914 8.08994 17.3604 2.3588 2.3834 5.11868 18.0109 13.2562 3.04088 20.2879 26.8105 9.57667 3.17027 3.55388 18.3668 7.14138 59.8341 7.2846 20.2458 67.3685 30.5112 5.4543 32.4094 55.0088 2.12015 5.82245 23.5267 12.1238 4.06015 3.78507 4.10265 4.67717 3.51084 3.47051 6.92333 22.1982 9.92049 6.31151 1.43326 11.6177 4.70686 8.01631 5.23106 0.783409 5.98497 0.78486 0.881245 3.65541 3.9283 5.48963 1.20848 0.811807 4.18516 4.61449 4.77875 10.2813 14.2559 12.6667 3.40667 3.361 4.78504 6.87912 3.18474 5.85381 1.77543 1.44285 4.83885 5.17758 7.26296 20.1006 16.3208 19.251 10.6283 2.85346 1.07061 0.579161 1.61295 1.22017 14.5508 2.61468 4.27255 9.11925 4.49429 3.72053 2.13365 2.96967 5.02311 6.3373 0.193268 0.250432 1.87605 1.33658 14.5517 18.4986 17.7062 11.8105 12.054 13.1758 24.8399 7.87869 5.47079 0.255219 5.84734 7.1146 17.8022 29.3111 6.64904 2.53849 12.8442 1.78733 3.56535 9.56641 28.4002 22.0542 4.17655 5.04493 6.72234 1.11999 1.63791 0.87714 3.99219 2.03508 5.51312 3.17499 12.8601 24.4047 4.57909 4.26169 3.52704 1.41666 0.987288 1.51962 7.59264 10.4796 0.0300483 0.0668579 0.0810827 3.62486 3.66926 0.0588607 15.202 7.69383 6.59959 13.028 11.2944 24.0326 2.33039 23.5537 20.4733 6.24672 12.407 17.6872 10.8647 23.1665 21.2887 10.6426 5.59743 10.3849 0.228515 32.4938 25.2078 6.76715 10.8916 1.21553 12.2296 40.6478 2.40198 1.11656 16.5512 12.0022 1.04312 4.43293 1.48165 7.11995 68.779 2.41166 4.07868 10.3808 8.29419 2.46598 3.79908 27.8227 1.40208 2.34269 3.76569 4.76524 9.99999 8.4271 13.8116 78.1777 56.7459 9.96762 31.1387 19.296 23.8728 22.3123 19.9949 51.6021 1.46331 13.4194 17.8897 22.7204 28.2596 17.345 11.8891 14.6727 11.5085 12.0091 21.8374 14.1115 15.8203 20.9224 12.9179 2.25259 12.2182 7.43375 5.80204 5.39518 1.16997 11.0463 1.3755 17.1823 1.22542 11.1821 3.62576 2.26229 6.89272 6.76182 3.21949 8.36527 3.83647 12.9129 17.6706 1.42376 2.49937 21.1872 30.4732 9.28941 21.8997 23.628 29.0115 15.686 17.605 23.4316 2.10938 4.05404 2.82986 2.81438 8.97217 3.62252 1.73513 3.58537 25.1871 38.6541 2.59314 15.7485 32.7584 4.24054 29.4591 9.12199 7.72061 4.23068 17.1812 0.117151 7.617 3.12123 2.97426 2.00814 9.63959 6.00078 1.40297 9.90401 1.62195 4.34095 8.49991 3.92547 8.40785 3.29954 5.55704 6.52823 22.6261 23.1258 4.67401 3.4159 48.8187 29.1332 19.7347 51.2107 4.35193 4.14331 5.76146 4.63417 31.2487 52.1959 22.3386 7.37466 34.2185 7.58462 2.46834 23.2198 12.0181 17.931 22.2898 12.8355 24.6033 6.24981 6.4196 4.47825 6.052 7.53939 8.23658 4.32014 31.8823 29.3814 41.658 1.71015 11.6345 35.7836 24.4233 25.5291 20.6493 4.28076 13.9157 4.03765 54.5626 0.151604 10.2667 8.05468 11.8702 5.95656 7.72473 9.71741 11.5703 8.76815 1.28138 1.58013 10.7073 10.0942 40.1292 2.20863 31.9886 12.0045 1.37033 148.113 4.38243 23.1355 10.8871 3.19957 8.50158 9.33464 20.9396 15.455 8.48244 6.05942 3.76134 4.38957 5.0124 4.27631 4.94157 1.76886 0.122928 5.46315 9.25735 2.46142 5.92123 2.29896 0.985368 0.490383 0.804978 6.05153 2.47814 7.99187 3.41947 9.45263 7.9601 0.352613 0.359493 0.255675 13.5117 21.7586 0.215291 0.169788 1.70992 4.39831 2.38841 14.3707 4.41857 10.5574 11.3761 10.5232 9.77882 18.5598 10.6742 33.1557 8.18902 5.6104 10.5989 11.7112 13.8192 8.50655 1.06381 1.83496 0.936124 1.8023 30.4051 9.02345 8.43233 9.92995 5.59688 42.6206 5.02729 0.569922 14.1247 0.821692 6.02292 7.05669 3.75876 6.46492 19.4263 3.32997 6.18083 9.24031 3.45905 3.34298 4.0165 11.1077 5.60922 3.62474 1.94118 3.59716 0.372902 2.19328 3.37868 1.19942 3.65678 9.85691 4.48935 17.8092 3.57229 3.14728 3.98921 0.816677 58.813 5.76024 3.65041 1.6121 19.2558 19.3622 10.0011 8.72017 2.3916 7.32041 32.8744 6.6408 12.0817 26.8046 99.7961 50.6231 53.7355 15.7662 11.5474 8.63408 1.10923 1.25461 0.949595 2.69422 3.09314 26.0965 5.91547 4.92329 4.62687 4.19554 1.62349 8.37761 22.8783 31.195 12.0654 8.46754 8.48974 2.98627 11.2419 12.5553 10.7098 13.1562 5.85709 5.4262 2.9226 0.916988 0.883247 0.811171 1.55858 3.63012 4.16679 4.99914 2.21334 22.8051 14.1685 41.9026 10.611 17.6833 8.63696 13.6417 0.964461 28.6969 1.65921 11.1632 3.13273 18.3683 1.25105 2.66879 5.23789 1.61305 6.27706 12.6773 7.5895 7.53098 2.34377 2.03146 2.67376 2.33629 14.4315 0.733776 0.878267 4.09041 1.6799 0.773115 3.03342 17.6111 3.06656 3.83597 2.10344 1.95543 1.29408 3.21167 1.32361 3.23191 1.57138 2.96982 7.13877 4.24162 20.0472 17.6725 0.969894 1.18322 16.0922 14.6361 5.8948 5.40907 4.30232 2.07781 12.6453 5.92409 1.32185 9.22475 1.61123 4.94677 19.8403 3.74588 13.5861 24.8072 1.27518 9.14657 10.0916 5.96858 2.06407 7.38312 13.1873 0.938987 8.01483 14.1492 8.15661 7.29334 1.90216 12.9713 13.1295 12.1815 13.1645 8.39716 13.4149 12.8576 10.1523 3.03484 1.54368 11.488 12.6238 22.6637 2.13698 45.659 26.7409 9.83208 5.53385 2.62081 6.34798 6.75815 2.14767 1.96713 3.46872 3.32197 3.07294 6.16633 5.3551 6.79887 10.103 7.46392 7.55605 7.31316 2.45583 14.0848 1.61867 3.22096 2.53766 2.74158 11.5519 2.08713 18.9856 0.000216004 1.87944 8.87829 7.66982 13.9044 7.13801 9.35615 4.95358 6.9378 9.55653 9.61287 17.1269 9.34012 14.2283 11.0434 10.3729 1.9602 14.7534 13.7165 0.602348 15.3196 5.74872 0.476249 18.9481 15.8619 4.16186 11.2416 13.1758 3.05342 50.623 18.9276 10.5514 17.4735 30.586 28.1371 18.2283 19.8954 3.78235 3.84953 7.62732 24.4445 0.853126 16.8982 11.691 0.69272 0.284899 6.0299 4.58761 6.52876 22.8648 21.8291 0.815118 22.4003 12.9611 8.0039 71.2594 7.12556 24.7814 3.16614 63.9815 22.4033 0.337384 0.463155 11.9148 10.1338 1.28616 0.786943 57.3549 3.34911 2.76668 14.8797 28.4856 36.3649 34.8713 12.8468 2.73656 7.70527 11.2415 2.78449 8.44635 6.93778 6.27449 9.8533 8.42465 7.42397 3.70725 7.29794 3.43951 8.83446 22.943 6.79144 1.54284 0.508916 8.65558 16.542 28.3053 16.7213 13.3801 1.97619 1.80087 7.90453 9.18147 14.2999 1.68453 41.1913 23.7902 16.1817 7.88636 18.1611 7.25896 9.21475 9.96595 3.78018 4.11857 0.780059 8.17771 10.9122 1.66343 0.768411 89.5547 24.4443 1.07704 0.814432 0.46943 9.29875 7.00605 3.88966 6.01551 12.479 16.935 9.3292 1.32192 2.4364 11.7625 22.3763 13.6207 0.718945 0.711437 0.805476 0.878598 10.2861 20.3891 13.9431 4.79858 5.13768 6.98745 8.63339 13.7271 22.0729 13.6139 7.80802 3.4633 21.337 20.1749 13.1765 1.06058 1.36058 30.3082 21.1846 13.2953 16.1966 16.9356 1.60322 2.90077 1.76745 19.574 1.49048 6.98203 2.34388 0.118402 0.0878616 1.76497 3.01627 2.99455 1.85302 2.67358 4.01878 4.45872 8.12716 4.57685 28.6111 14.8633 3.14522 17.32 3.7216 0.910847 2.66419 1.6457 33.8887 7.52426 19.3455 9.90292 11.581 13.9003 3.66384 43.777 10.5719 3.45657 6.63889 5.68166 5.41231 4.60984 13.6889 18.0219 3.69166 7.88288 14.8887 6.84242 4.83976 12.8687 10.5553 2.76712 18.9172 2.96499 2.54813 4.25393 14.8056 7.93612 15.5209 5.42603 9.01424 0.486201 69.5639 13.5486 4.04484 3.2838 1.8522 10.8149 1.3804 7.97172 6.98303 3.92074 2.93111 11.0514 1.68087 3.00417 22.6133 6.11528 17.4596 13.2457 32.7493 1.60577 14.3003 4.10589 29.3428 2.3327 10.8125 3.21976 20.3686 3.43435 14.5531 5.56832 32.1774 1.4466 0.628027 8.79282 0.383598 3.86871 0.32712 2.76686 7.597 4.76366 0.31494 4.91038 4.21771 6.83167 3.70063 12.3193 2.45107 3.33715 3.03624 9.97426 11.3075 8.35049 12.4063 33.8872 11.6753 5.33731 5.42022 9.26221 6.58146 6.92484 14.0153 8.06914 1.44359 0.93951 1.56313 0.772947 7.52457 0.660392 18.5682 7.34609 22.5424 1.11302 2.25841 2.82477 11.1983 2.14178 2.2668 3.32281 0.251741 12.3883 5.28895 6.41887 11.0064 2.99839 20.1331 5.10255 17.1088 1.72201 1.14097 1.38344 1.20324 3.25353 4.1662 8.0903 1.19525 1.20653 1.75275 1.89333 5.06143 4.64646 1.98392 2.94158 8.76617 13.8411 9.32687 9.72079 5.43565 4.59931 5.30361 2.29573 25.4699 28.2512 1.02169 1.50556 9.98518 34.8209 97.8407 144.8 13.9173 4.80466 6.22322 16.1177 4.31951 17.3356 3.34823 42.0561 26.9668 3.22989 17.4686 12.0143 7.7489 4.93233 10.6065 19.8936 9.09554 11.356 9.15992 2.4419 6.33759 2.9071 1.24238 1.01727 34.818 11.7253 1.83729 39.8964 0.372898 16.7936 28.3596 3.77459 3.14772 3.09401 5.31364 5.6982 5.30739 5.56127 6.6164 0.817695 2.13497 0.915949 6.95697 14.5781 13.0752 8.49101 14.6908 25.7254 9.45942 7.55645 18.9305 7.22191 3.06704 1.90424 4.67913 2.23765 3.26464 12.4443 8.17069 1.23932 10.8145 15.7752 1.46182 10.6622 14.9544 10.0075 7.39221 3.0082 4.0456 2.59918 2.19006 10.02 17.6168 1.54623 2.45145 17.4342 20.9994 34.4006 23.8223 9.66509 37.8466 2.3939 4.87549 4.87193 4.38554 4.98409 5.21386 13.481 9.96303 4.83024 4.00187 3.67161 2.61771 0.930283 11.1993 11.488 9.71643 6.43315 0.0561308 0.191983 36.8794 0.146142 11.9863 18.1442 3.48501 0.0941129 13.4984 0.0676708 24.3253 0.072049 16.912 9.77936 6.76152 11.493 0.116499 0.242743 9.64992e-05 5.71738 5.56806 10.0217 8.18664 0.813475 8.30868 5.08702 9.18723 10.3575 0.23886 0.217647 5.47149 5.49454 14.7262 10.3159 1.38956 1.82504 12.3162 0.848971 7.65412 16.8907 5.12693 15.5302 11.7045 7.82949 6.80837 29.0735 31.9234 7.77362 0.000357099 0.000290084 8.53538 6.14598 13.5955 4.47907 15.7918 20.3483 17.2224 15.0796 33.3524 8.59205 6.96195 10.5018 3.65173 53.4764 32.1461 6.71399 1.54005 6.80462 14.356 19.2697 3.18393 0.961473 13.7588 9.72648 16.7183 6.71787 13.1301 0.776049 21.2777 0.788598 10.6979 3.43303 5.93145 0.0808555 0.103906 0.0804824 33.2433 16.1033 7.90246 7.2067 7.3595 8.01852 7.13287 5.36751 1.38353 1.66884 3.66928 1.14218 2.65069 4.14824 0.57308 3.09765 2.93288 5.71911 4.13361 4.44629 4.07785 3.66488 3.81843 0.197271 6.24618 5.81613 11.1986 27.751 5.36626 16.2589 12.4415 16.9774 11.1528 10.2953 2.55304 1.89287 2.91663 3.32263 3.06358 7.63211 10.7186 6.37368 5.54691 5.18694 3.90591 4.65076 21.7098 43.2947 39.1709 0.000311921 2.82588 4.08434 5.2848 0.478633 0.756391 2.84247 2.86402 0.707527 20.5147 13.749 20.4127 0.528641 14.7538 9.67101 0.433929 5.21504 6.19449 4.13443 4.66335 2.03909 2.29102 8.40437 4.66075 8.6492 2.62828 5.2809 58.6016 95.5346 93.971 2.40246 2.62432 2.66522 12.2101 15.9557 17.6524 0.955838 18.4031 8.42047 16.9353 0.287051 37.7856 0.653909 5.82787 7.77883 2.65217 2.33952 21.4887 3.90705 1.86302 4.45457 12.1556 8.62709 16.8046 8.54461 4.93095 8.48248 16.306 11.1715 19.3486 6.66065 3.95351 19.4035 10.5926 19.9178 16.4514 2.05875 7.86915 0.0610847 6.18131 0.982198 6.57026 0.0793511 0.574312 0.63133 5.03149 23.2265 5.74597 8.52788 4.26288 4.41183 12.6053 13.0812 0.265799 0.234487 0.331027 8.53631 0.45773 0.319455 23.4667 9.12827 10.2462 27.1423 16.1009 16.7065 10.92 13.5676 9.86325 9.8638 0.861396 1.39611 6.4713 3.79854 0.958741 9.24097 1.27854 9.89546 1.78744 9.25565 16.2677 4.78505 9.64171 9.16838 4.0124 0.877023 0.629832 0.967756 17.2113 3.3227 12.1354 0.452535 8.94098 21.0981 7.87917 42.5211 21.5991 2.43595 4.4797 0.0742222 0.0826416 60.2391 76.2395 0.729348 4.44159 3.77158 2.91355 2.06417 5.08791 3.03652 3.94388 2.44361 9.37467 2.93272 5.05593 2.25866 18.7779 3.88523 0.905046 2.91633 0.544212 3.47145 5.18339 5.99718 3.64514 5.56215 4.14753 0.432562 6.52467 1.09908 32.6951 0.614796 2.4085 0.780874 7.26496 9.44515 18.8725 12.0005 8.09737 14.1529 13.6785 13.892 1.43934 1.59793 4.42803 6.66762 18.4736 31.0319 11.3467 6.81614 14.4822 8.92924 3.39449 0.720757 5.09981 14.7709 2.07538 1.39003 1.74246 1.12971 33.9846 10.1584 49.3056 41.4413 8.65891 3.44691 8.83984 1.74483 5.38991 4.73736 21.1754 21.8855 5.08375 1.2665 4.01125 10.2068 26.8834 0.398113 0.563345 0.476523 9.9978 5.90955 5.37557 61.3579 2.19141 56.4247 14.2139 35.4269 1.85019 9.12497 2.52413 19.4624 1.27453 23.1242 2.13996 10.9614 14.9788 22.6885 4.92165 17.5537 5.40461 1.63944 2.78059 2.81296 23.091 1.02627 4.01424 28.1626 25.0341 20.3518 0.436347 3.08281 8.20169 15.8177 19.2102 7.69537 5.32667 4.14401 5.97322 55.0475 10.6952 3.75938 1.66289 0.438266 2.2609 6.28587 3.57202 4.15113 0.359125 1.71377 1.8978 43.7191 0.72548 1.11706 8.25307 0.825645 6.1701 68.8909 6.47138 1.48803 0.367102 10.7843 11.8099 4.4953 0.83277 0.199147 0.353402 0.319772 17.5557 4.85967 18.7256 46.7942 24.5271 4.30929 15.9113 5.62026 3.2124 47.7465 11.1955 21.8299 0.145883 6.40393 4.06039 4.88914 6.10252 2.5005 1.96613 5.90549 6.44887 3.54671 9.75499 2.82122 35.5091 4.89119 37.9393 2.37387 6.76855 4.95496 40.7682 15.3348 2.45641 7.11927 14.1147 34.8462 12.4666 36.9672 0.641944 16.2535 12.2486 7.37359 12.8669 13.1041 18.1143 13.6337 15.9998 5.3998 14.9835 6.62596 4.07403 6.40759 18.8977 24.1938 24.1989 18.1531 3.60576 6.48732 0.775577 1.23307 0.531173 0.561239 13.8412 7.55953 25.5568 10.4896 6.27149 4.04222 6.0846 2.99432 3.00269 0.764071 1.42707 1.36077 5.91244 1.37651 4.12247 58.0721 2.3692 9.42276 8.06832 5.23978 12.8217 6.6441 16.4744 28.298 46.3975 21.6774 17.6715 48.768 50.4689 13.7523 9.12175 2.83907 8.44479 1.65756 13.4424 13.4529 15.2864 22.1477 1.33478 23.2478 16.7331 16.8537 35.6007 17.6395 38.6643 14.102 42.3923 6.41354 32.4187 0.47076 20.9984 1.40672 5.52955 9.52882 6.95953 8.83878 1.93477 5.35961 0.742575 0.684079 5.30176 0.700231 0.753406 0.293631 0.377427 7.04614 15.5114 6.42451 7.27615 8.24119 8.50098 12.2655 17.8447 9.96293 10.1568 10.5076 8.87572 8.63428 22.6176 0.917512 0.97485 5.01102 2.07644 6.24264 5.44001 13.2846 0.957758 1.15891 1.15702 1.04644 11.2939 12.1527 1.48412 10.3808 9.865 1.43501 61.0078 12.6586 2.06551 2.60516 2.07398 1.84142 2.95786 2.9849 6.98861 9.42504 8.30619 11.6248 25.8701 2.51973 4.95362 7.20535 0.0991541 0.0679807 12.9357 13.7241 11.2549 10.7249 0.089816 11.5316 17.1399 10.9791 10.6361 14.7644 11.959 17.174 10.9651 15.3159 1.16051 0.493845 0.0664805 22.4798 0.0617243 22.2378 2.95139 6.12513 4.58314 4.33004 26.1181 3.76535 12.4695 1.76762 7.99278 9.74804 12.4199 8.58024 4.01796 2.72922 21.0303 22.3382 7.98691 14.303 9.51878 23.8399 13.9998 18.1344 12.8106 8.82354 16.7972 13.1929 8.64071 0.526577 0.428996 10.0942 19.9339 16.4053 0.336232 1.43822 1.2309 1.22047 10.645 1.25482 16.619 11.7917 42.2292 16.8986 13.9152 2.04461 1.46516 5.1193 8.94845 19.2904 3.88058 3.82129 0.292603 18.4864 17.807 4.16633 0.214113 0.362586 5.64923 5.8767 0.750025 4.89087 7.91944 0.367095 14.4795 3.77768 7.81911 5.54199 21.4041 13.654 26.1003 0.000245517 2.58964 2.09653 28.8589 3.91979 3.75827 0.076678 0.251378 0.438747 41.3523 2.12307 2.79033 0.000259394 6.73232 6.97502 5.64102 10.5657 11.1348 13.4815 21.3457 18.3786 11.6998 13.2811 15.6196 2.14664 64.6328 76.4951 82.9978 34.2984 9.54425 11.4295 1.56704 6.83044 0.103319 8.39501 13.7913 0.134209 2.29877 0.237318 0.356807 8.32304 11.8953 33.0346 3.42805 4.93487 4.12182 4.13898 5.41325 0.0699462 0.141785 21.6637 1.24599 0.873404 1.34066 5.93456 1.8117 3.53932 5.25311 4.13209 1.68051 4.3777 3.90877 8.57431 6.46142 1.17927 1.95683 0.915531 1.33928 0.746571 23.4778 16.0372 4.24162 5.53334 3.87731 6.11331 13.1678 5.6891 0.359762 0.233325 7.40468 33.0042 13.627 19.6909 17.7305 1.28541 1.32644 7.68679 10.0657 0.0733586 10.2509 4.0059 3.69245 0.860602 1.52762 1.9222 3.1887 1.71518 4.97129 0.0489335 5.40516 2.9964 17.4792 6.56313 0.140085 17.1967 0.663933 0.750763 6.42601 8.80849 6.308 4.70931 5.98919 7.87027 11.5683 18.3002 12.7063 45.2415 22.1769 3.84898 9.22149 10.6727 5.37099 3.60098 13.1091 7.41014 13.0626 20.0901 1.32843 6.02527 1.33836 9.54662 11.1216 5.07892 12.7881 10.6845 4.7184 7.74193 11.9121 9.69461 1.00441 6.02811 9.19614 1.32012 13.2363 14.6019 1.76099 3.70339 9.56407 2.61364 8.73611 2.40691 3.97852 28.0779 4.82061 11.0416 2.50012 0.132511 0.0455021 0.16501 0.837382 0.82503 11.029 13.4586 3.21827 3.04171 3.8974 17.7853 0.108345 22.4856 36.7989 14.8354 4.65909 2.22586 4.15789 8.89385 11.8927 4.07558 2.1142 1.31205 6.50294 3.10178 15.9906 6.82228 7.80791 6.00977 4.31672 5.20298 1.13872 4.59259 1.23861 3.2968 19.2183 10.4983 7.9189 19.7445 9.46787 10.431 19.9686 14.7477 36.0279 9.30127 26.2724 9.97348 1.42131 0.301717 0.346857 1.97716 6.79274 6.24254 9.82798 25.6851 3.7199 3.1442 49.3386 4.01128 61.1636 4.19129 64.1237 0.250415 0.178916 0.309832 8.56635 3.46736 3.49162 4.00967 3.08994 0.688779 10.4801 0.946711 14.882 7.57747 15.095 4.14757 15.053 18.5146 26.8275 33.2882 34.7861 10.3422 7.92639 31.3154 5.14624 18.5086 1.36153 5.8997 7.67678 9.67983 9.13571 1.33225 0.186095 2.04811 0.205397 14.186 21.0603 2.76341 6.3484 7.22743 4.68035 18.1631 17.7609 21.2526 31.5734 11.8057 1.47218 0.247759 5.01907 3.31876 3.25676 4.62551 1.49069 1.61852 17.279 0.893743 7.91434 12.1862 25.8819 3.09232 5.69153 7.56897 21.4445 5.01161 21.1845 7.33113 8.30521 34.2717 11.3981 19.9315 22.6033 22.9915 26.011 1.54263 10.8972 9.81799 3.64455 3.63356 8.85782 20.4591 0.300561 0.59365 0.947225 3.48145 16.9613 1.20138 7.56018 1.24364 1.43088 8.20554 6.27433 1.82738 3.30361 6.90702 4.57412 0.0873525 2.81647 9.53918 3.92345 13.502 33.0533 31.2592 41.5564 16.4694 13.5126 17.3611 12.767 7.64001 12.6224 9.02204 3.27333 2.19205 3.45862 25.6376 9.85997 0.81626 7.85603 7.6543 0.060612 0.0660085 10.3332 45.2047 11.9978 21.9663 8.25077 5.45854 16.3115 0.134078 0.0620543 11.3281 0.0968091 12.805 21.0759 3.10941 4.42048 7.28354 2.6878 2.50281 13.594 0.0445487 33.9627 1.68782 6.78125 9.01238 11.2599 14.5189 20.8832 2.22837 26.1162 7.01144 3.62181 3.5356 21.0693 0.0579992 12.9917 0.0638559 10.7573 6.58525 0.0678789 10.4921 0.0907878 6.59908 0.825684 0.599023 13.1554 0.63249 0.800594 0.516907 4.90981 0.27795 22.0142 17.4346 12.1052 16.6302 24.3651 0.142064 0.282095 2.75957 6.90474 4.51917 5.21651 28.7601 6.95437 4.12589 5.77424 10.4307 8.06943 11.1144 7.63545 4.1555 11.3445 13.0561 7.7363 6.73845 14.5512 0.0901304 0.049361 0.0693661 1.25706 0.934659 3.09087 0.739139 3.38156 2.47513 3.86274 37.8464 30.8985 21.3908 29.2866 1.23732 26.2873 22.3861 13.1947 0.241758 0.130138 0.139026 0.21172 0.700855 0.203298 8.79227 2.72544 0.190978 0.193943 0.225981 1.78029 0.295613 0.254489 7.27197 0.321053 19.6968 13.1313 9.63433 6.62892 7.3295 5.58193 1.85035 1.43693 11.6016 15.0684 30.3182 10.7597 8.83665 17.4557 0.724165 0.622801 11.0388 29.4445 18.3545 0.640982 1.71115 1.08291 9.72679 2.84089 16.0289 2.79998 30.4316 5.20596 4.50702 5.99755 6.89148 3.61746 12.7481 40.9206 12.3171 0.000459244 1.70871 6.41982 6.32065 3.62843 19.3787 23.5506 0.449191 5.368 0.576913 6.8563 5.11253 0.387906 0.972277 0.67572 3.407 8.64033 0.343246 16.6054 23.5267 14.8303 1.11902 0.123008 0.163093 0.212882 20.5514 14.0898 7.19739 35.4492 1.8964 0.177608 23.4253 9.99603 0.204238 9.56924 14.9943 24.2529 33.1727 0.0938952 6.11998 3.7987 2.90005 7.23811 6.83308 15.1133 56.5949 38.1075 47.566 22.7282 75.4789 18.9259 19.2806 2.98724 3.41842 14.0484 18.147 21.5755 21.7996 6.17903 8.71647 1.93665 5.28863 2.31495 6.43704 4.45812 3.228 2.65784 5.70168 32.991 3.30206 14.8956 4.91633 2.30184 3.61958 41.745 27.2901 2.50297 29.3734 27.3146 7.1274 11.4594 0.629331 11.4876 13.4447 4.07379 9.63454 8.83785 5.36675 1.58052 3.57087 5.61413 33.1265 7.88352 15.7183 0.880757 19.4269 10.574 9.93534 1.33762 1.42895 5.96102 7.62109 10.2257 80.7876 1.44398 0.924066 48.5452 38.8238 12.1741 0.380176 0.498086 7.72187 22.3527 16.2661 0.129658 3.65481 4.10966 0.322054 2.05794 2.58749 16.1294 12.2964 12.0684 6.56481 0.0515488 13.643 0.121401 0.124646 8.31635 6.51064 0.822183 2.97415 0.699713 2.56757 8.48045 1.14398 1.87068 1.4515 39.5538 13.9951 10.2015 50.241 1.28656 0.83319 0.776068 1.01905 7.69365 10.7213 12.4919 14.4807 7.36665 11.2091 5.34041 3.52405 4.93645 0.439679 19.3605 20.83 20.7222 16.2392 17.5942 0.223089 3.9559 3.21535 10.1051 6.87613 5.35446 9.00422 6.52376 6.26698 27.8699 4.75435 20.0835 23.8733 0.691431 19.8592 7.50582 3.97238 6.52765 5.33258 2.26364 2.74025 1.34009 11.6662 2.12725 1.22961 20.3236 16.6751 5.14378 5.72234 7.26634 3.58155 4.40851 7.95033 3.88825 4.62532 6.67411 1.86587 22.5832 93.9832 124.813 2.16863 8.02247 6.89433 7.9444 8.7017 0.0798147 1.63687 3.1914 5.39349 5.35353 50.8347 38.7478 40.447 30.9911 1.57062 14.9491 6.39214 16.782 3.93228 4.55811 14.7636 5.65434 6.63507 5.26699 2.3744 0.86007 14.2947 13.5562 115.868 22.1983 15.9335 0.118366 51.023 0.0837822 24.9258 20.4863 0.111207 0.0767601 0.59473 16.9553 7.10342 15.2565 0.529294 0.161434 4.28144 53.591 0.448148 28.8258 1.80997 5.15052 10.1477 13.9446 6.27208 5.06892 0.241801 0.438589 0.231675 0.441922 1.02188 14.9969 5.99234 5.18211 3.81981 0.288668 5.4208 8.6251 3.84854 4.84267 13.8251 15.7129 30.2205 20.0866 17.9554 5.32908 4.43264 2.81341 8.89223 4.76296 13.8406 6.30089 1.50418 20.479 22.1277 6.40221 1.72074 2.10597 3.93456 36.8614 29.4314 8.95152 2.84918 0.832964 14.8783 16.7147 11.4542 23.6838 24.6555 14.6718 11.1182 8.4252 4.94923 9.5743 6.87163 4.29165 4.39449 7.25647 1.65217 1.66461 6.96417 1.92392 11.3485 27.2412 29.3172 6.48129 1.9191 1.66401 1.53232 4.33047 2.58344 3.96175 4.98556 4.65618 6.32891 8.26635 1.09572 15.2388 7.83273 4.03043 3.92571 6.70891 4.41714 11.4416 8.87403 13.564 15.0935 7.78074 22.1496 17.5723 4.33144 9.32398 5.79951 11.474 9.03887 7.04606 19.1547 3.24228 8.12667 9.08561 3.04685 5.49426 4.33633 2.49217 17.5754 13.0963 18.116 2.87687 3.89319 3.14613 4.49771 16.7685 9.97757 10.666 4.37304 13.6706 21.9509 10.865 11.7559 8.57864 10.9004 5.23993 1.02673 23.9363 15.6261 18.6755 14.6537 14.4741 1.18518 1.05495 7.58357 24.851 16.1651 25.4576 8.40208 2.05449 8.95178 6.89965 2.02532 1.40077 6.5492 9.99077 4.71257 2.03259 4.74484 8.42467 9.02346 12.0252 8.91078 10.1435 13.5277 16.5788 1.23581 14.4336 9.37887 35.3425 14.5136 10.8288 16.0908 4.73333 22.315 15.4004 2.82074 7.9225 6.59085 6.987 7.95016 4.91038 4.82729 1.43512 10.4619 10.978 10.5335 10.4487 31.0634 13.0743 5.55164 10.742 8.384 2.52938 9.27077 24.6054 7.12154 5.55569 1.86552 12.7989 24.2602 2.06904 1.71384 3.00206 2.06143 1.85234 1.99791 2.22979 44.0109 60.9523 27.4799 2.4803 2.57537 1.42522 1.54595 3.43396 11.5511 23.5947 24.4847 3.00904 1.46262 4.49273 4.89937 11.9296 9.83314 1.48094 0.99169 16.5475 13.3596 5.60454 6.83705 8.24264 29.0173 2.84809 2.92031 6.29774 12.4787 7.84681 8.27982 5.3167 5.48082 1.77282 3.38461 1.59521 10.1279 5.02771 6.50569 19.9224 6.66086 8.24611 2.05931 18.636 10.8791 19.2302 2.29683 7.52091 38.1808 38.3133 28.8596 25.9846 25.116 24.2442 24.7587 9.04005 10.4076 0.494011 0.566141 14.7731 10.2264 10.3486 0.437467 18.7572 9.89169 42.0054 2.27648 1.96613 13.7097 11.5809 18.0486 0.800115 3.3333 7.00335 3.9156 2.86185 2.1179 11.6429 10.4406 8.35577 9.63599 4.36696 3.46426 2.01335 10.0713 21.8228 8.40995 12.5371 27.8774 3.10466 4.14251 11.6835 10.5075 8.69246 2.42159 12.1533 10.4128 13.1482 2.88053 4.88543 6.74496 3.12488 7.49674 6.59329 6.61806 2.54239 7.76143 2.67324 4.12125 4.38685 7.10639 45.4619 7.05568 9.20375 13.9675 14.7795 8.40037 7.06032 4.11093 4.19457 6.54332 2.30147 0.755477 3.44048 5.60746 6.62455 21.7342 29.5719 34.4644 17.3359 0.178376 24.1439 3.23311 1.92744 16.4076 3.75024 6.20736 4.94165 2.7899 1.74134 24.1684 46.7732 14.8969 7.66073 4.52789 4.96405 5.78864 23.8368 32.3869 2.98136 3.0021 15.8274 10.3782 18.6854 13.8082 7.56778 7.80432 6.65118 13.9291 1.65786 1.83122 21.4387 21.277 1.10774 5.09431 11.6779 12.2981 8.05683 11.9457 1.7749 0.937724 0.99856 18.4235 53.7833 29.7674 40.0548 7.89062 24.8872 9.11869 7.32709 3.84964 6.03334 4.08676 1.81363 10.3819 6.06814 14.1203 2.52472 28.2838 12.5214 10.6583 5.87468 6.83797 20.7855 13.6526 16.5932 4.7299 7.85596 24.6718 7.3086 13.7978 4.85352 2.38343 14.6278 5.59737 25.1717 44.7451 11.6265 2.78995 1.64835 20.9811 10.714 2.38992 12.5092 8.32545 11.5705 8.53987 6.55076 1.27585 4.55807 6.49454 8.79373 1.25035 1.35439 2.50109 6.89914 6.17944 3.97424 5.56049 1.92717 17.493 14.0713 18.7874 1.22512 2.04569 23.197 3.9555 12.0104 16.01 6.06789 5.18971 6.89277 11.966 1.87655 13.7488 19.222 24.8345 19.1829 36.0312 2.16567 15.0874 7.35444 1.78651 31.422 28.4255 4.23739 5.17875 4.45385 7.58299 4.68941 4.97755 5.17891 17.3963 13.5267 16.8542 5.95395 10.5425 3.94279 8.64068 4.07201 7.03918 5.52563 3.20987 3.02937 16.3774 11.2364 8.11296 33.7521 2.77991 0.434868 0.227384 11.5249 12.5395 0.545948 5.74374 5.47741 17.4588 14.6223 15.6542 139.91 53.8319 35.4732 35.4154 11.718 1.75732 2.24217 2.42745 3.62917 3.27695 7.13972 4.95584 6.01977 62.9399 1.15247 0.834765 26.2425 25.052 15.3623 21.6297 6.82906 11.3683 3.73645 2.54395 5.83911 4.38389 10.8154 0.16938 1.86018 4.65235 4.12936 4.49831 2.24102 3.438 4.69004 5.47389 4.57273 4.72629 15.4454 14.5347 7.72196 26.6171 16.1703 4.62458 4.24287 1.55799 2.42166 20.2177 5.95929 5.26919 5.88576 7.29806 2.83276 4.77964 15.0101 13.1439 36.0919 4.7948 8.83008 12.0072 3.06266 2.52268 8.27481 9.5744 12.9987 19.5678 12.1288 17.2212 11.5254 13.9665 8.15191 7.78389 4.57166 12.1841 11.7404 6.04047 7.35466 17.3914 21.6014 10.762 11.6328 13.9029 14.2664 9.72524 7.33115 6.35322 9.60627 7.96321 14.9075 11.2031 5.06804 6.61008 20.0154 6.54322 19.3173 41.2025 10.7036 21.3646 12.4636 10.3924 6.40189 7.43923 28.2702 8.95256 3.98192 3.99432 17.6696 22.1656 11.3051 14.3118 6.72034 6.39286 12.3801 3.19845 2.79672 12.2434 8.9173 12.759 17.5016 15.5052 1.17846 2.45895 14.1047 13.365 6.3379 12.2774 10.6553 7.21828 12.0124 29.2771 1.50229 2.78622 1.46486 3.55984 2.81897 8.5871 4.31744 7.11281 19.1211 7.11095 7.37613 4.46914 2.68605 3.12647 4.27959 6.34789 7.82318 8.55019 10.6768 11.5656 5.03476 3.42427 12.7232 8.46019 35.5436 2.56702 26.5885 1.64541 12.7503 17.1983 5.08346 1.84117 4.75108 6.50615 16.2652 5.74288 4.59175 5.54384 13.8521 9.32074 14.0287 5.91657 5.91771 16.3167 9.05949 10.3981 8.66474 8.48082 8.17021 12.1326 10.7455 6.05842 41.8348 30.916 12.4539 16.3333 12.7954 12.6963 18.0009 29.1164 14.6041 19.3187 2.55443 4.99239 0.696494 6.30695 7.71066 8.7459 2.85246 9.1317 4.63361 8.44056 4.61675 18.452 8.19571 4.4118 12.7999 21.1697 17.0968 9.20253 29.6653 14.7013 20.1119 6.92984 9.14364 29.828 12.1119 3.79566 2.94395 3.36665 20.7105 1.40642 16.2356 2.0234 3.17314 1.95698 3.2107 1.34933 1.57396 1.62871 14.2882 15.4829 3.47655 5.21182 6.31639 3.48707 6.84425 20.6094 14.7111 7.38 6.68485 19.6134 8.40191 5.54772 5.91257 21.4339 6.65838 7.06991 7.19161 4.4085 7.12131 5.78741 4.45713 7.78756 3.84942 3.69827 3.84836 7.6413 36.4454 24.3339 25.2011 4.62607 2.20785 9.85355 6.92068 17.4962 23.8381 12.1315 15.6655 20.9643 4.10667 4.41887 3.46934 3.01021 6.24253 38.5502 6.72532 21.5114 7.40649 12.9528 12.3551 8.40041 12.8249 7.19025 7.60835 8.58588 0.95536 11.4059 5.0118 2.93616 3.75521 57.3592 16.3065 9.89045 12.9034 8.76403 16.5993 12.5196 14.3773 11.2055 7.91773 7.46109 10.1843 18.8246 11.4507 7.52725 5.38122 6.36209 1.82691 6.00782 20.4865 19.6874 21.2755 12.3763 12.4802 10.5066 10.4184 13.5829 6.58538 4.37776 2.74649 2.9115 3.47363 1.25466 2.24054 6.38053 8.15127 25.4806 19.614 2.23568 18.0319 5.29692 3.77696 5.16756 5.17498 10.8498 17.425 21.8294 40.4679 7.78256 7.13788 5.55382 2.73914 14.7611 7.15741 17.5234 10.5637 7.05008 8.93997 24.2718 11.191 13.9844 16.5144 12.8572 16.5765 13.7884 2.12401 16.0972 13.686 6.65959 12.0461 16.5337 13.1801 16.0143 3.47847 2.71089 3.5498 5.28475 4.04038 4.14228 3.14895 4.12884 12.1127 15.1624 17.3377 1.74256 13.5075 9.0703 2.05627 20.8186 1.67122 4.10746 4.37149 3.05205 11.7356 8.82718 33.8523 4.71479 27.7534 5.63241 6.18487 56.0921 46.9063 30.7781 16.3008 27.7412 17.7153 28.7279 15.0822 7.80445 9.58602 14.407 41.7381 4.36625 8.4687 4.55371 5.17247 6.77753 13.4474 13.8678 4.93612 3.28426 1.38093 2.13015 2.77109 7.11502 9.1718 5.29805 6.64247 12.4702 24.3567 8.76569 3.68095 3.38282 10.6084 9.91563 25.6713 7.22204 10.2604 8.59185 27.5382 14.4405 16.7942 11.148 20.4312 16.4258 16.2294 1.34965 1.22286 4.09253 11.4791 3.168 2.50903 10.5911 12.0849 25.6188 22.5098 2.20982 2.64749 4.01862 3.53583 8.51807 30.1158 5.58224 8.98487 15.6177 10.5881 8.03038 20.3533 7.09863 17.5162 1.74117 8.42863 3.70059 11.7048 6.51732 4.15805 13.7504 32.0395 6.88643 6.75977 6.03801 2.50311 18.6407 9.97852 5.85798 5.11563 30.5157 1.89612 8.36195 13.1287 8.02742 7.01286 0.488528 17.5266 0.785145 4.66785 0.216111 28.3091 5.10482 18.5208 32.1627 9.81243 1.30059 1.31835 2.96991 9.62434 5.39314 7.44879 10.4342 7.01375 8.35594 9.83333 3.03576 2.13003 3.35457 0.58599 2.42562 8.65352 6.98042 17.5278 5.12528 16.0884 24.2123 12.342 8.96507 1.85774 5.04737 6.66 11.1612 20.4043 10.3384 4.71664 21.0874 4.69094 15.3758 8.7278 4.89668 72.5985 9.41982 10.8158 11.1968 9.97653 9.3148 2.51327 1.82497 0.999038 2.36072 4.82361 7.1031 17.7105 12.2626 21.5491 15.8301 10.3182 5.37488 22.5789 22.2631 80.8687 14.7565 11.4806 2.53982 3.94787 7.64472 16.117 19.8466 14.5222 10.7113 13.2651 21.6304 11.4366 25.3635 22.6507 18.8143 7.4624 9.49855 5.6539 1.19866 5.6875 0.680742 19.6965 26.208 27.7283 20.5009 3.98728 1.26284 3.48221 10.4953 3.41121 1.29431 2.04571 6.26794 6.3617 3.10226 33.0597 22.3681 15.0583 4.58574 32.4905 29.705 18.1403 14.5065 15.0502 4.78062 3.43642 16.1331 8.87953 31.4612 14.3321 11.5063 0.575835 0.57202 11.8456 3.22567 6.0218 5.73401 7.18279 9.36497 3.18685 8.28158 2.44039 2.08766 2.03793 3.44458 3.22163 31.1444 3.59681 2.6647 1.44252 2.63205 14.6483 7.02371 24.1134 10.2248 19.8786 12.5981 4.88971 11.9777 11.5532 18.397 13.3317 19.2043 21.548 22.8202 18.5234 14.5961 13.5195 20.086 2.56949 11.3613 26.4991 32.6075 54.3069 43.1655 6.9296 23.1573 8.87269 1.82046 10.9548 17.0072 1.73939 5.72262 3.81564 23.2573 13.5728 5.31472 5.04137 8.34122 9.84084 3.41059 14.8634 15.1952 2.86812 5.4851 9.5699 6.36426 6.37821 5.01881 7.03841 12.6726 7.72988 12.4801 15.5874 14.6215 4.61617 17.0827 6.03724 4.03846 4.26812 9.41436 0.821942 16.5212 2.45473 17.4728 0.888622 1.1777 17.598 11.5935 9.59661 9.3198 6.22564 12.2269 7.51324 7.00298 6.26926 8.68584 8.55193 8.15575 14.8073 19.7008 17.0883 8.45135 15.5464 8.00487 3.49764 18.2637 6.27347 9.26916 34.9534 39.0673 9.92371 4.96017 0.66048 3.37394 13.6582 18.53 19.4339 2.96658 3.94366 10.0024 9.43729 11.4545 8.19933 9.50109 6.46771 14.2145 9.72291 9.50263 13.8376 6.60158 12.2749 28.749 1.96045 6.6865 1.687 11.8024 6.38275 8.03795 10.466 8.92425 9.6059 14.5101 8.92862 8.97441 5.90984 3.6707 5.2472 4.85629 5.94355 10.519 9.3122 4.85405 8.84565 7.15034 8.93715 5.10904 4.30208 4.16208 6.01488 4.197 16.3575 15.2588 2.15101 6.64438 5.88661 7.03463 5.38555 3.0186 2.78276 2.52226 32.4072 8.18583 6.60993 6.47947 2.90027 4.52149 0.862901 0.782878 0.652483 4.04006 11.958 11.3165 15.3136 14.9261 3.71812 1.76107 5.56576 12.4642 7.56067 2.22645 25.7084 11.9991 17.1977 8.48627 4.71329 10.9803 11.6119 26.6338 15.5344 9.20259 4.04444 3.31915 3.64862 8.44118 10.0213 4.32335 2.36081 8.93831 13.6274 11.9758 8.49765 5.08872 10.124 18.1809 23.2068 11.9369 21.2248 22.6998 20.5152 17.2056 38.8223 4.6646 5.46758 2.7899 7.55358 8.27494 10.5424 4.3689 2.26236 4.70204 2.99543 2.90904 3.7685 7.08994 2.86375 2.16848 2.88881 24.4612 14.0699 35.0783 32.1016 40.056 8.51123 3.29399 5.04872 1.37616 2.02657 3.11705 7.24495 4.25343 4.82189 19.9481 2.52877 3.98916 2.74879 3.28581 5.6471 24.0609 13.8208 3.30194 3.19968 12.3065 13.9959 2.63717 8.83196 4.67888 4.07013 5.03249 3.32123 23.3533 19.5707 16.4503 8.98027 6.92737 4.17963 7.08567 6.61988 1.65368 1.7168 23.3394 9.56651 4.37273 4.87023 16.0697 18.7925 2.66603 2.36775 31.716 10.7291 13.0693 18.3396 15.6211 8.96488 12.5049 24.4925 33.6547 3.99337 5.66769 5.61252 6.49681 11.8959 1.37772 2.54205 3.80957 7.69357 4.97165 9.90992 8.32599 4.43598 1.68334 3.95516 11.462 18.1592 2.70565 2.84051 3.12883 4.37188 3.82788 1.43532 3.74068 2.46041 1.3311 10.9194 4.5807 6.06462 2.03748 0.860919 1.18557 1.98602 1.9731 2.17514 1.77873 9.64494 3.235 4.63517 5.34925 34.205 18.3994 20.4879 17.1538 10.5034 11.1934 3.82763 2.96351 2.7798 4.66545 13.013 26.9721 10.0904 28.4734 10.1033 2.01037 3.83816 2.04908 2.83721 6.04842 5.0022 2.70338 3.19939 5.48575 30.6205 7.06781 9.11815 12.4116 7.41478 8.13127 9.42969 10.4886 23.0624 4.69565 2.67464 7.87755 9.1332 9.53846 11.2686 7.92498 9.1724 13.4404 11.4777 22.8829 8.28622 10.3479 11.2023 3.59731 7.09672 4.51993 7.48107 2.49616 3.94271 4.89581 4.0199 3.80156 25.8459 11.0127 5.84887 5.2237 8.83419 7.49567 3.07767 4.40283 2.14602 2.33649 3.35943 8.85847 0.624186 6.9158 20.598 6.93296 4.06936 26.2215 5.82777 9.6078 10.464 6.58607 17.8838 9.18073 0.267027 0.25289 21.9412 15.4142 14.7436 3.11895 7.65589 10.6488 6.78997 11.9651 20.7448 27.7515 21.6334 23.9266 21.4352 15.8588 7.22828 9.25152 7.70631 9.52161 15.7303 5.85304 24.4728 24.2005 45.1962 30.7453 3.27663 4.70876 40.3468 3.27088 3.42852 10.0164 5.55997 5.22629 6.32904 7.18091 4.58433 6.25488 2.61753 2.96155 5.39085 6.11586 12.458 6.16811 12.2989 23.0546 18.2005 2.74041 0.478484 14.1796 1.16651 1.09673 9.83547 7.10363 19.7102 10.6792 16.9864 2.00004 1.52549 2.28242 4.99937 11.2215 7.79836 4.81907 8.50226 13.1609 2.79895 2.42267 2.8585 14.1916 11.8646 9.38023 2.37218 6.08038 6.3408 16.2059 23.1939 20.7532 29.3711 28.4882 5.92324 7.59388 11.4699 13.4824 9.39421 22.1133 11.6192 15.0367 20.4809 34.6576 22.9229 16.5316 6.17265 5.28197 10.2641 3.04729 2.8758 1.647 11.4326 11.0977 5.27437 4.2213 4.1339 3.29281 3.45042 3.62889 3.30695 4.61756 14.9397 27.7166 2.45564 3.15838 2.67062 2.55227 4.36649 16.1402 10.553 0.491902 0.354757 2.69947 1.33939 8.56198 1.48259 11.1523 4.81221 7.02597 5.02336 6.11271 5.92222 7.43791 6.84284 2.1322 2.49608 8.21619 3.81508 5.83594 7.0094 6.59807 8.04959 0.436052 0.615182 0.23533 13.8147 22.12 12.0149 13.903 9.67152 12.0679 5.57056 6.68923 2.06021 2.1097 4.43875 1.95517 5.1935 4.52626 1.08346 0.569738 19.8399 9.65279 14.0973 6.11962 9.0865 8.21233 5.79357 4.54028 10.0979 3.4377 1.49028 2.24642 4.76653 7.01429 3.00957 13.6399 5.85413 10.0605 3.60158 2.38238 2.50372 2.69149 25.7257 7.08816 8.33761 20.1951 13.5308 1.41036 1.63489 2.16777 1.84268 9.46999 11.006 12.0515 10.9379 9.70407 6.89538 3.25158 9.54335 4.41862 6.82904 4.60057 10.5258 7.48077 3.50195 9.5128 5.61264 24.4964 14.3986 20.3527 15.4457 14.1772 3.90722 33.8629 16.8859 19.1624 10.2664 17.2381 9.47523 17.4798 4.2987 13.2511 21.9076 15.0557 19.2201 18.7231 9.69267 15.6755 8.16626 4.72915 3.39311 2.89251 6.47741 9.73925 7.84748 6.88696 11.2911 15.7861 4.82357 4.25179 2.64781 0.813082 6.22965 7.91761 3.55604 1.49517 6.01821 36.1216 2.70803 9.75901 8.85251 7.40675 22.828 9.20159 4.59216 17.4935 10.307 9.92251 4.63452 6.62954 4.17205 6.00665 6.09727 2.37197 1.48258 3.16058 1.63463 1.85146 2.28776 11.4481 3.20542 6.41256 5.73686 5.07789 5.28786 2.45937 8.41434 6.68965 12.2714 14.4261 14.6504 5.83937 10.6754 27.0568 24.402 13.3512 6.72274 1.02295 5.17257 5.40102 7.4217 4.61544 2.54686 1.84273 1.72223 17.3829 4.868 9.4305 12.0595 5.56452 5.85231 12.1461 9.95995 11.5709 2.08452 1.57194 2.26716 3.50759 4.92049 10.8192 7.09146 8.94358 4.88167 4.90613 1.45355 1.05076 1.20327 10.9981 9.96716 14.382 1.53159 4.55637 5.89741 5.46845 9.05203 7.48421 11.4508 5.96624 10.9842 9.62352 8.40847 7.09138 9.48433 5.72029 4.37817 7.24223 12.7825 16.8384 6.30043 8.64214 16.892 24.0522 17.3169 13.4585 10.2375 14.5725 12.1335 12.1827 10.6566 8.13299 12.6364 7.6538 8.5135 2.10793 3.47961 3.72126 3.71072 7.00159 18.7369 15.3988 8.57499 8.77779 6.2188 5.55502 14.8519 7.01771 9.65257 9.69934 7.80424 7.12991 9.85894 6.11215 7.64769 3.82522 1.86983 7.64499 7.89664 6.01988 20.3372 25.0206 2.81312 3.73548 9.89882 4.63674 13.4165 6.55721 6.0916 8.59656 4.99022 5.84677 7.97323 30.7549 3.87892 1.10028 4.06752 11.769 13.0081 2.36792 9.81191 13.1305 20.9672 18.5686 3.48149 2.36252 1.61264 2.02231 2.8596 10.2667 12.1955 6.18178 14.8193 11.1352 56.8773 11.4742 2.81996 4.80255 3.37762 5.10487 3.55855 3.59085 6.26905 7.70128 10.9305 7.21253 4.28499 7.56989 6.98429 7.28195 4.78483 4.22872 5.60932 5.45838 7.72826 5.31605 22.6874 21.2569 23.3 1.67008 1.48407 1.67294 0.34617 6.17318 3.73433 1.73144 1.32739 1.38992 1.55333 9.98082 25.7922 42.1763 14.2467 31.7795 3.27757 2.78797 1.17095 9.54425 6.86723 37.9751 43.8428 29.6766 9.44646 8.20567 4.20711 6.41588 3.1977 4.84871 4.85467 65.6627 3.61057 4.76278 5.70235 9.15212 3.34834 0.705869 9.97563 2.38401 4.98996 5.93076 9.47414 4.64435 5.14448 9.76011 1.66314 2.59572 19.2928 29.3545 34.4013 16.7816 8.64777 1.61718 1.70266 4.02729 4.88924 2.56358 6.95216 5.85611 14.6499 12.7441 12.0783 15.043 5.42946 5.97477 2.51898 11.728 5.24418 13.9994 18.5548 21.4181 1.77061 1.31894 7.65297 6.58251 7.70267 23.9624 15.9677 6.42419 20.5776 7.31277 4.93821 6.1644 23.5841 16.8784 13.9235 10.1408 7.35829 6.36634 52.0039 14.6162 43.1281 5.34833 3.6739 10.5588 25.0358 1.84354 2.20639 9.79665 9.8653 15.7153 24.1003 16.9859 23.0708 23.7428 10.9673 22.7287 27.6054 8.04288 8.49042 12.1486 13.801 5.70131 9.41151 9.84897 31.7251 1.39215 9.64303 6.76293 6.61063 18.1648 10.8632 9.5294 2.60177 3.078 4.35959 6.59214 9.53561 14.6617 9.15775 1.07645 2.61623 4.84088 3.88939 5.88427 3.86875 4.40635 5.00388 3.64582 6.4259 6.2321 5.983 7.88635 2.86154 5.17321 8.53414 5.75513 10.2025 7.88299 8.68472 5.95644 8.45689 8.92029 10.5878 9.91408 4.3943 11.5681 9.03855 12.1995 11.3194 4.04828 7.40676 11.7846 8.42097 4.91486 7.18119 11.4028 11.0023 6.79554 5.97617 6.00394 0.80057 2.43266 3.79411 3.9615 3.58672 1.86367 2.44229 3.66001 1.85584 2.55362 2.09026 5.365 4.87297 15.7249 4.0032 4.99283 27.3321 17.9226 2.46707 5.05729 4.05007 2.61552 3.19154 5.53354 18.1873 18.0675 6.85155 13.5172 4.14202 5.95475 11.9954 2.45305 11.2533 6.99509 16.5809 46.377 25.7106 25.8334 32.1949 6.22551 11.3681 10.3063 7.59886 7.78721 6.28284 4.52919 2.11812 5.88289 2.21632 2.49975 9.16051 12.7776 6.75698 6.33669 3.44564 5.43849 4.74565 8.6142 5.54767 8.24377 9.74738 6.07927 6.9077 4.1982 1.47978 9.77895 1.76186 4.27513 0.116682 0.289707 7.16797 4.59364 6.35554 3.93731 6.89117 7.5053 1.54187 1.50491 4.1334 8.03138 8.93975 5.89589 9.86997 6.4921 8.54034 6.9075 37.5976 26.6331 32.2586 7.51609 4.45069 10.9925 5.99339 16.534 10.3276 3.40831 3.96985 8.16743 1.49632 7.34776 13.9553 2.27625 2.86419 3.16223 3.14809 2.04179 5.91725 6.52967 5.23892 6.73085 23.5565 11.6152 2.95208 8.63734 8.26563 3.82914 2.79897 11.6111 20.4324 9.12353 0.644581 0.415426 18.5239 22.7695 17.4124 11.4288 8.93806 8.02536 16.3088 27.6328 14.9808 5.66795 5.84068 4.27107 5.55628 6.49218 2.80465 6.08776 7.1961 7.18071 8.39693 7.29684 6.8817 9.1318 4.38453 3.80875 4.78549 0.818946 19.5368 9.69682 11.322 14.6557 2.77803 9.68693 10.029 3.89325 4.93886 4.57851 2.60352 2.67036 5.59673 7.23837 0.833668 9.01422 9.56768 4.54755 2.66351 14.2975 20.1348 3.56569 6.63947 23.5111 0.178462 3.46745 5.70314 4.88848 14.4443 18.6449 4.52836 2.3664 16.2011 15.2766 0.968263 4.64439 3.5011 15.9725 21.1484 15.3222 2.19644 3.06168 18.826 6.268 2.71477 3.30869 6.42599 7.07321 6.78242 5.81652 11.8322 3.30144 3.17149 8.51597 6.78079 7.09616 2.77065 3.71916 2.69104 2.14688 1.5533 1.24307 11.1383 27.5289 18.0121 20.0622 6.68295 6.23063 9.34864 8.28859 4.04145 27.5819 17.9534 8.24687 21.0087 8.72575 1.81996 4.24729 11.2503 4.65706 8.93404 10.7671 3.47784 10.7951 12.3652 7.16206 8.27567 9.70951 9.46967 6.62594 7.75876 5.09714 4.66613 5.56725 9.36233 6.04863 9.46728 6.29327 19.3484 5.4135 14.2765 5.70465 9.32334 8.44186 1.12382 12.7772 5.82905 5.54743 8.5374 12.6376 1.39938 5.61758 1.93388 1.15534 10.5684 5.46715 16.571 9.10562 8.36791 16.5736 16.2044 12.4228 7.4689 4.23713 6.72405 24.1672 2.06321 3.54208 1.69762 6.80203 10.6961 6.46303 3.73948 6.57335 4.56114 4.58615 1.02817 1.28468 3.92384 2.46095 4.51579 10.5059 3.79487 2.9356 3.20587 6.86407 3.00286 9.51918 9.59026 10.579 6.37615 10.2812 0.566062 29.4575 10.8578 0.770543 1.4637 0.979076 0.824451 3.36043 6.94544 6.02124 6.0437 9.69506 10.6105 13.2954 12.7137 20.4452 4.46065 2.68388 1.76794 2.5952 6.23012 5.06506 2.4717 8.54862 16.472 8.66193 4.20728 6.29809 8.1082 16.4314 8.0789 8.70798 17.2735 16.8038 17.8242 14.6935 5.33507 7.12226 5.65505 5.92502 3.58943 13.2104 11.1349 6.05651 10.9317 12.4185 10.6406 10.7375 10.0926 2.32523 3.18574 5.62316 6.11671 8.34682 4.82521 4.27709 4.42833 10.0852 13.5155 8.3493 13.6706 10.9107 10.6895 11.4982 6.88036 4.57878 2.87082 7.25 5.24058 7.06448 11.163 8.77281 4.59018 6.86776 3.36678 12.0162 3.495 4.00438 5.36178 1.98543 2.87317 3.57069 18.1546 13.7465 15.254 10.205 6.1382 8.92699 3.53077 3.21492 10.9411 8.9786 5.50436 1.23084 0.595148 0.932194 1.45994 1.27726 1.39237 4.14524 4.32209 2.44217 3.82534 4.6161 5.53399 1.7944 2.83961 29.7046 11.9783 5.82665 1.94157 1.69141 8.68476 7.28841 11.1548 13.9466 14.9311 10.5202 19.06 6.31602 16.2793 11.7979 2.84196 2.25084 17.6582 12.435 9.29492 18.6473 21.2451 15.5704 1.56431 1.92818 11.3869 9.44472 24.0954 55.8356 4.97885 2.28052 7.41106 29.2411 3.8138 3.09455 13.9134 4.03854 4.52812 4.66435 1.6693 2.1312 2.99697 17.3718 15.1421 15.213 15.0999 16.4904 14.0167 32.9969 17.9884 9.3074 3.99219 13.5625 1.59539 5.58332 1.99823 11.045 1.81149 10.9129 13.0165 12.0377 20.0733 13.8362 15.7094 16.7159 13.5979 6.60037 21.7715 7.1221 8.44344 7.291 3.43927 2.43301 3.74044 1.44181 1.56173 4.29365 6.86327 4.98641 7.89331 13.7581 10.724 10.3008 5.35105 3.30191 4.10108 5.05255 4.60355 6.08858 2.50435 2.8899 8.93706 15.4137 12.664 19.7433 0.961455 2.90306 5.00225 6.25448 4.94582 8.75241 4.94958 1.57689 1.46913 0.158022 0.939778 1.80142 3.62394 12.6824 9.03239 5.78145 4.46663 1.73355 2.15713 2.39341 9.67772 11.9999 1.44351 2.95585 4.35657 9.61404 5.31009 6.3451 3.65001 1.52987 2.54226 0.431414 2.11027 0.853761 6.40114 2.74407 1.79408 4.16107 4.98741 8.63704 5.55388 5.60858 7.71316 2.93841 2.43783 4.02689 4.31631 2.46225 1.79323 1.46314 3.59642 8.55955 6.80314 4.63583 4.97131 5.47776 4.41788 4.18586 18.4216 25.1663 15.7348 13.8586 10.8214 8.99851 16.9034 13.2715 15.3487 12.6607 3.81436 9.08771 17.0051 7.9531 7.78211 8.59582 1.25322 1.12335 5.87504 5.21428 6.5643 4.2571 5.68525 12.3031 18.4641 14.7333 17.9653 35.1402 1.28498 11.7991 1.22429 2.77506 5.76729 3.83935 5.63913 5.68141 4.5043 4.03737 4.50093 5.63057 0.582316 2.69246 7.40461 1.83283 3.08099 10.6134 13.5202 3.38179 10.2812 30.9612 22.8456 1.52299 2.11989 1.23314 1.93782 2.1599 6.06305 2.94344 5.57878 9.84624 1.95339 2.69355 4.23676 7.41303 16.8513 4.98334 15.036 4.70115 5.74083 5.34596 3.37461 4.67408 14.6015 5.39932 2.8152 8.04348 6.68676 3.46143 8.64769 11.2946 1.72638 3.06083 10.4719 15.6166 16.0065 14.8255 18.1711 15.2582 17.2838 4.08664 0.509756 1.84238 0.420614 7.69264 5.63175 6.27897 3.95341 5.09603 5.26645 4.34105 24.6905 7.44797 9.55869 5.56297 3.02718 3.6432 2.51093 2.52729 4.14463 3.28173 8.40405 4.49848 6.39231 9.0507 6.33046 7.71319 2.77258 4.45056 6.76155 19.7806 4.23493 4.12233 3.65285 3.35621 9.06874 8.14486 10.4716 9.91677 6.29903 8.56027 6.34347 2.34135 5.22255 4.76286 5.91083 6.31345 4.18959 6.06163 24.1856 21.6909 24.4055 20.7968 21.9982 15.5897 14.0075 22.978 4.16256 3.45922 1.3329 6.72419 6.05528 7.28213 8.2054 3.70332 4.4576 2.9802 5.82509 1.17789 4.11258 3.02749 4.78821 8.96506 6.00393 7.53623 10.4361 12.0782 0.874642 0.227782 18.1117 1.53235 17.3548 17.1106 0.973519 1.27993 0.763759 0.321305 3.47982 12.3758 10.703 4.79144 7.02007 4.12208 11.6591 8.07034 3.39764 6.35801 4.81289 5.13613 1.3353 7.81473 2.66701 12.0875 13.742 13.4093 16.6432 0.317938 0.323126 3.51637 0.926555 1.45182 43.5658 63.3253 4.64723 11.2031 11.0234 1.62907 2.55832 3.52241 4.5227 26.4538 2.6738 6.29258 7.31718 7.94862 3.87923 6.12118 3.17037 3.21858 1.93277 8.71604 6.44461 10.2496 11.1174 11.9171 6.6521 2.3184 1.40264 5.83226 2.67202 22.1345 22.1155 23.6431 24.8124 5.20139 5.55848 12.6733 8.80104 15.1912 5.80635 0.704109 1.91406 5.40365 4.4812 6.33465 4.84304 10.1428 4.60422 5.03155 4.29297 2.20833 3.57915 0.700955 1.28752 1.7195 6.0499 6.92528 4.35149 6.11786 2.92325 6.86033 5.09469 10.4138 8.48855 18.0553 11.9016 6.103 5.76155 3.6896 2.40522 12.9157 11.3923 8.04174 10.6888 7.27726 4.75929 5.59453 11.4612 5.22622 9.40699 12.4944 8.16115 15.2062 5.75111 5.51793 4.83722 5.31413 3.84588 2.43132 2.68403 2.59099 5.74623 8.63087 7.72979 6.03887 2.06529 4.81075 2.68356 2.3179 5.20003 6.47667 9.57989 12.3566 8.00917 11.3019 1.54791 2.60156 1.00162 1.26323 3.09296 9.4285 19.1834 9.81149 40.0993 5.94761 3.52235 4.8607 3.24715 6.3193 5.25261 7.3503 15.6778 5.69521 6.40081 11.7586 2.59568 8.49049 15.5603 12.5951 9.98485 9.79578 9.95564 3.48665 5.6925 8.63583 5.68979 4.94736 3.09489 3.26639 11.4232 9.56549 7.67611 5.91558 21.3614 21.3758 9.18048 5.1 9.27554 9.88301 4.84703 3.13958 5.5693 6.75487 4.24354 6.8498 12.0936 6.10752 5.58316 3.76637 4.80334 3.0948 20.2126 6.2535 5.70387 1.15242 0.917659 2.24845 3.25787 2.69743 5.614 5.19509 2.48005 1.24036 7.02509 0.195521 0.257067 15.6325 24.411 3.80533 3.8131 4.92542 3.83653 1.91212 5.89315 6.10543 2.07566 6.96689 5.95789 15.7958 1.76162 2.87359 1.43076 1.09431 4.24882 28.8735 21.2109 5.11915 2.50776 0.955011 11.918 0.159675 0.260672 0.680201 0.586637 6.12101 5.7983 2.25501 4.82221 7.30288 8.8871 12.7579 13.9423 3.10479 1.27659 3.72015 2.18855 5.76021 8.753 2.78964 3.34247 10.1399 7.2415 7.7186 1.24678 0.775193 17.5535 19.8736 18.0034 22.4839 9.25445 10.2833 11.9984 11.7898 9.0774 5.13896 3.80376 9.60883 0.477256 3.79008 2.99845 15.9663 2.17289 4.43305 4.44821 3.89468 4.56047 10.5752 4.49642 3.898 4.67547 3.63094 3.34595 1.62279 4.12742 5.60952 5.494 7.62762 17.1479 28.5544 28.415 0.9066 3.67162 10.8101 16.2265 11.3772 11.5965 6.25225 5.03307 3.23672 2.01778 9.494 1.05652 3.7143 1.22444 3.31562 8.67731 7.08795 5.42956 4.43494 7.81937 3.94198 2.97431 15.0673 17.8297 3.61024 6.45942 2.42926 6.80509 5.79926 5.13004 3.90643 9.322 10.7601 6.77634 1.34598 10.6245 15.3262 12.9273 12.4041 4.22268 9.77202 4.87666 2.39987 15.5739 4.80226 4.6251 5.42776 4.19981 4.85875 8.45472 7.20877 4.64527 6.29835 5.12989 5.85653 3.08445 6.14378 10.2614 5.32774 3.92341 1.67361 1.5465 3.00594 12.1488 15.5348 19.2872 6.02414 4.62021 13.9426 4.17887 7.82108 9.13398 5.6143 4.0625 1.80127 3.76903 3.16074 2.84899 14.7407 22.2306 9.25714 3.13895 5.77802 4.63344 3.42835 13.7871 2.56251 4.34179 8.16328 2.48425 17.6839 17.4917 10.4127 10.7621 12.0023 10.8747 7.61917 6.85853 5.94333 7.09149 5.18976 5.10509 9.83512 4.28002 3.89251 4.3219 4.98867 3.02035 6.9162 5.93892 21.0024 12.9791 23.3962 4.35164 3.32936 4.30694 9.14947 10.4372 2.99888 3.60642 2.87392 9.2849 10.5677 13.5727 28.2736 0.532523 4.98147 10.9115 2.75251 4.04537 5.56946 0.970274 0.65623 14.0915 20.0209 6.85387 1.03825 3.96708 2.75866 4.43758 2.62465 1.76883 3.13016 4.60077 2.07556 5.88586 1.02663 2.83331 5.21295 10.6108 7.14708 7.00587 0.570366 0.560005 0.426716 0.825927 6.47683 6.69881 1.83176 3.67318 3.99225 1.21554 0.748415 2.38937 1.07839 0.996858 4.48098 6.16362 1.90615 2.61795 3.40408 6.58626 6.8642 5.2757 2.13889 2.65655 2.81351 7.545 5.38993 4.6873 7.73182 6.79997 7.71334 0.441338 2.96157 2.90205 3.09175 3.83845 11.4621 7.5377 35.6304 21.9109 3.19265 4.15083 3.21904 21.3665 17.4994 11.3905 12.4838 8.76095 2.43642 2.74238 2.38812 2.79627 8.82135 8.18618 1.08345 5.07732 3.42044 13.9216 11.5508 7.81412 7.74253 16.2405 8.58259 5.93331 5.03275 11.6455 9.81518 3.77829 3.5208 9.66474 3.22162 3.28974 0.743224 0.719626 5.4264 2.87077 3.47014 4.51837 6.92376 7.25524 5.94597 6.27926 6.42578 8.8433 8.93558 4.02353 5.63045 2.49794 1.52224 2.75917 1.68505 3.10798 3.07284 8.51791 22.0789 7.06428 1.06952 3.49235 2.84135 3.21018 3.86974 4.32643 2.39255 1.94998 5.34552 10.4357 10.6041 11.4684 6.31732 3.58156 15.8454 16.9544 2.07034 15.0854 9.10573 5.55836 5.91329 3.28585 1.54527 3.22593 1.97453 2.36145 2.13238 1.35577 11.8439 2.00116 1.79012 5.90214 3.36858 9.88581 8.86398 5.04643 2.67319 4.63352 5.83996 3.07582 3.00308 13.2338 4.61052 5.94664 1.66168 6.01102 6.28959 28.552 30.6988 0.501027 0.268171 22.6354 6.63811 9.9523 28.745 6.34219 3.22074 3.83907 2.21817 23.4957 4.5444 20.2528 2.09814 3.33621 1.6543 2.47303 3.23546 0.642853 0.693448 0.961965 1.10011 0.813493 14.8614 7.53305 2.99195 3.69467 3.07261 5.97629 1.52042 7.86837 15.3377 21.3572 3.05912 5.71483 2.61871 6.94838 6.72439 9.95862 3.58593 15.041 25.4123 21.0371 9.73308 22.5591 4.59948 4.05214 1.93719 2.5666 6.77936 4.48621 2.71838 4.90617 3.89633 1.52595 1.68261 16.3609 0.255938 1.67605 2.42008 3.16701 2.79136 1.29544 11.1044 10.831 8.15388 10.3161 10.3302 30.2548 22.9678 28.5531 59.8882 1.8343 2.40055 14.8902 17.4245 17.7029 11.3446 5.0266 4.41148 3.85701 6.05485 18.3036 13.807 9.03326 1.77955 15.7949 8.43487 6.05261 9.07018 7.62358 2.96499 3.83801 3.50174 3.74931 28.0066 4.27889 5.75515 3.96937 6.01597 12.5949 13.7239 3.39481 6.46282 5.07525 12.1107 17.5654 16.5414 3.44187 3.26659 3.25573 1.82041 1.88751 2.57482 3.75904 1.76389 1.83349 2.23159 2.48716 3.02634 26.7849 6.80908 4.33361 5.67063 9.69135 5.05771 13.0278 22.1676 5.73976 5.98412 1.90048 3.28421 22.502 7.0371 10.6776 19.1938 4.48441 12.0384 11.2232 4.44668 5.72504 6.90206 7.41444 8.32329 4.43099 4.54499 3.21607 3.39483 4.26988 2.41612 4.68223 5.44274 11.9397 14.9499 14.4064 1.90654 1.94739 3.5193 10.0692 27.0469 29.2089 7.29459 6.52826 0.36589 0.871733 12.2394 12.1629 7.79059 4.35166 5.06777 19.9302 16.52 2.55449 7.30549 17.301 5.88916 4.55126 1.38436 2.84537 6.95051 10.2499 5.05539 0.164718 7.45144 6.08477 1.64744 4.90747 16.3495 8.99964 10.6963 11.8711 4.44986 8.9961 5.47435 7.42911 6.20514 4.4264 3.98732 0.375006 0.326766 13.6719 6.75495 16.5394 2.84221 3.14606 5.50944 0.633414 4.04048 3.89614 5.21901 6.03189 3.7401 2.46008 3.17591 2.10697 3.19821 0.596479 0.596614 76.5068 5.37137 9.86218 13.3612 1.42143 9.00284 6.18526 11.3996 4.69437 42.1681 3.11602 4.6416 5.81653 0.258539 0.481396 0.595657 5.76184 6.05821 4.66379 2.41876 3.48615 1.70902 2.58174 23.3621 1.59705 13.5155 6.9963 14.7492 3.71879 3.7362 1.81136 0.70976 0.991937 5.84294 3.65335 2.43763 1.48024 19.7453 41.5531 9.43755 8.83395 7.62379 11.3172 10.9359 2.22528 2.87044 6.64512 3.09321 22.0722 15.9482 19.3188 6.34505 7.53981 8.41289 7.26043 14.7339 7.05011 3.36373 8.93389 5.712 18.6482 11.2756 8.93436 4.72327 8.98151 5.44146 2.41375 2.98623 2.47879 0.777005 3.92082 2.15022 3.34953 2.21139 4.97883 7.53724 10.2098 4.00928 1.91118 7.37321 4.63746 2.31517 0.925521 5.99166 31.7648 51.6888 6.02421 2.94911 5.47122 5.12422 4.60152 6.92965 3.69972 1.74005 2.16782 0.975837 0.7117 3.33196 2.69141 7.30634 17.3133 16.9957 10.8894 13.3632 2.45183 2.12026 6.70201 6.68251 4.42391 2.54672 5.89303 2.78333 2.44975 2.49197 0.871449 1.10315 1.76096 1.76403 2.6871 4.38932 26.8884 13.7711 26.7427 25.8719 15.2593 14.7103 19.2212 3.91108 4.76632 1.79072 3.74418 1.71052 3.28923 3.68825 6.46661 4.6127 3.36002 3.18005 6.10378 3.38764 14.39 10.887 0.748389 2.9067 3.34747 5.27912 3.85702 1.63587 9.71876 6.83603 15.5493 5.14102 3.7745 14.2111 15.4518 6.12045 8.54201 2.27668 1.69647 2.70028 2.10542 2.17069 1.58812 3.11486 16.821 4.51809 4.22148 6.47201 7.95161 5.51951 7.06112 5.74827 2.46174 7.46035 0.872507 3.58395 3.7442 3.40455 14.2972 32.1812 20.575 25.6245 22.5889 24.952 10.729 1.02032 2.57634 2.14178 11.6762 6.4088 7.81989 8.35802 18.4079 8.78052 12.4712 9.58348 1.69256 3.41594 2.42427 6.66738 7.88314 4.3455 5.9771 2.09013 8.79234 13.6343 4.06184 8.57747 4.24579 3.89806 4.82573 7.59659 6.56227 12.8038 14.5892 2.79082 2.3073 11.315 5.59701 7.77032 4.98994 6.27995 5.20476 2.77872 1.90883 4.842 7.74697 9.02649 10.5352 13.1376 6.12084 7.67459 5.52515 11.3502 2.60181 5.08397 4.64142 4.19238 3.34362 4.83068 6.62016 4.43294 7.35061 2.1722 1.98566 5.51074 4.90164 5.41327 5.39857 7.91276 10.4614 1.81938 2.07607 6.57406 6.41133 12.3904 10.0464 8.08506 5.05148 7.05603 9.11773 6.81549 10.1832 6.1999 9.69814 8.88478 3.10519 8.27044 13.1453 8.9732 8.00194 9.76637 11.3379 10.3486 14.9324 11.7569 9.72085 3.12235 6.02759 7.24993 4.01288 6.30808 7.25369 1.59577 1.37155 1.97256 2.38476 2.05872 1.92691 32.8881 28.1747 3.80707 3.71919 3.7494 4.43687 4.33688 5.2394 4.38835 4.5136 2.14972 4.17871 2.74113 17.1502 12.5355 12.2108 23.8722 10.6242 5.1107 9.0556 12.9626 21.0631 4.683 4.66356 3.13484 0.952711 0.853722 2.04373 4.39846 22.1246 17.3977 1.24945 7.899 6.71392 6.96015 15.6732 13.0797 21.1029 11.5081 6.38677 4.28496 7.49266 6.41436 15.9644 4.67915 1.36935 9.0213 2.47878 13.3072 9.69665 4.96903 2.74159 1.81195 9.01402 13.5891 9.98228 6.53995 1.25787 34.5133 10.4928 7.87083 6.96656 4.87951 5.59132 10.7356 10.1653 3.37812 3.07924 14.1456 11.0148 4.16075 4.99537 7.34263 4.71762 404.316 6.67539 6.52589 4.23202 10.6408 10.8385 3.71984 3.64953 1.67235 4.65222 18.6572 13.0674 1.52279 1.36495 3.48118 4.86507 1.15795 2.01761 5.76686 8.5329 6.25578 3.5996 2.81809 0.981954 0.529798 10.4461 14.4142 2.05166 4.62965 16.098 16.7812 7.02466 4.52829 3.3457 6.789 2.64655 2.95438 7.82508 8.14354 8.32988 2.70769 8.18843 1.59092 1.47481 1.17179 6.82748 12.0163 6.06134 10.278 2.4407 5.21629 5.24442 1.7013 1.53575 1.7127 3.4155 10.8244 12.6141 13.1573 8.79445 6.16613 19.1363 13.1898 10.9155 11.6744 2.28286 3.89308 3.73188 4.33609 3.43289 4.13094 7.3297 7.27549 1.58723 5.46404 7.99418 2.42406 1.98381 5.01623 4.06643 5.60611 7.68394 10.4206 3.04289 9.47828 2.32935 3.31781 3.71792 0.019959 10.397 0.201053 18.6945 11.398 1.76787 1.25543 20.41 5.21409 1.22453 1.32525 6.57792 5.08368 4.41504 0.588077 0.637524 2.6887 1.76128 0.869447 1.28819 0.891276 1.81087 7.91779 8.65926 17.768 18.4746 21.4295 26.1372 3.49601 1.7599 3.06302 1.40637 8.51661 10.8889 6.3074 6.65581 6.90731 6.43225 4.27507 12.5601 5.37423 5.93112 3.3051 4.85455 2.06689 9.11228 7.50209 5.35914 2.27886 3.29801 4.93681 8.38969 3.70821 29.1851 23.4848 11.3522 4.46642 1.49033 3.46661 3.34336 2.75288 1.95561 6.82172 2.47999 9.6684 21.3673 1.08291 2.48057 8.87464 13.7814 4.28094 2.15257 3.87295 0.872805 11.8817 3.03886 3.3357 7.15668 3.71549 4.66746 5.91988 2.13463 3.28045 15.7293 8.71766 12.4709 9.84458 9.99341 13.2047 1.51844 1.03514 0.654491 11.2186 5.68962 31.2584 14.8735 25.0133 7.01234 11.0314 13.9938 0.943125 0.631924 52.0537 1.10368 8.35028 31.5137 7.55258 3.21093 8.23827 5.17147 20.8541 0.188946 0.970182 7.92032 3.73079 7.70851 5.25212 9.63681 9.01211 1.63559 2.75275 11.1632 10.6502 4.11324 10.9023 12.582 3.92026 5.63011 5.29443 0.490954 2.30043 1.19138 1.17504 6.7219 2.96719 2.94602 3.29286 1.54511 0.551609 1.44228 4.05806 22.2111 0.589081 0.906843 9.29754 8.09018 4.55667 0.282302 0.334065 8.52253 7.47414 4.79138 3.13037 284.836 0.830401 1.01752 6.24093 5.34254 3.98327 1.30476 13.1199 16.0171 3.98813 2.88182 2.0528 6.59996 3.16925 4.67649 2.41113 9.33943 4.18007 10.1079 5.26396 5.70949 5.76917 4.8555 5.31082 15.4065 9.43591 11.1653 2.10555 5.93733 1.98959 1.93874 1.89407 2.88266 2.42826 4.23354 4.90822 5.45032 3.48093 3.9057 5.24688 2.26636 1.10054 1.97749 1.81566 5.75151 3.32297 3.99125 4.52588 4.64316 3.07605 4.31622 5.344 5.80238 4.39516 3.07814 4.43433 8.37185 5.98767 3.87928 3.68101 5.08873 12.7391 9.47921 3.86192 3.31541 13.3386 5.0426 3.92754 5.79802 2.05506 2.78069 3.87767 3.06173 0.778481 2.82347 1.88918 1.34849 6.21804 1.12249 2.12602 2.98697 2.12949 1.38361 1.06924 0.915171 3.3421 5.03714 2.91925 0.850602 3.13813 1.97578 7.63681 7.84137 2.00304 1.54933 43.5339 11.5963 2.54607 11.4048 3.08594 4.21767 2.74617 5.37121 20.4891 7.191 9.98804 6.723 4.9796 0.674856 4.01185 6.16873 4.04477 0.294839 0.381218 3.62347 5.55748 12.4201 6.34993 4.05414 3.68123 0.6809 1.23061 2.01273 2.51667 8.56897 7.26869 5.73517 11.1479 7.59307 6.4218 4.97598 5.91043 12.4633 6.859 12.1895 11.8154 9.71721 12.2999 4.53397 5.71773 6.70204 1.02868 1.45387 3.66207 5.21676 2.53438 0.856863 2.91969 3.97654 2.60251 6.98847 4.64418 12.3186 13.6483 12.34 5.13384 5.42162 3.56572 0.997008 6.75804 11.8005 7.27151 8.96375 19.4902 11.8889 7.70548 1.48012 4.37059 3.84101 6.60632 2.43063 2.91829 3.11527 6.66968 8.71639 3.40008 3.59932 12.7149 8.64246 3.91342 3.78715 1.74859 3.44922 2.80521 2.66469 1.45369 1.59504 1.56461 0.699814 2.81634 4.14933 0.877647 2.0632 5.86267 5.77057 5.91199 9.3783 7.71791 1.90046 1.10904 1.38497 5.23792 13.4741 8.13358 7.1523 10.7087 13.6864 13.9627 1.34733 6.04999 1.41065 10.2975 0.296797 13.0233 4.05268 3.96557 8.99942 7.26617 3.83647 14.2058 18.274 18.5319 10.7031 22.5019 5.23893 5.55808 2.84347 4.81181 7.78098 11.5222 16.4818 24.0014 2.66362 4.23071 2.00326 1.23115 1.63262 2.86623 1.19493 2.13916 1.99939 2.8595 2.3146 1.82366 3.93772 3.27853 7.95215 14.6903 10.4927 3.2576 3.55792 3.11407 3.06646 1.14005 4.11947 7.62 380.786 3.58617 5.5576 4.09362 7.62901 6.97129 1.47423 1.23604 1.95705 3.88591 102.651 1.08478 2.31547 1.85088 4.38965 3.94276 8.6343 5.97747 194.289 4.09013 371.947 4.91151 4.28067 9.43577 8.47343 9.41508 6.87617 7.24906 12.7061 3.98868 1.6272 11.8222 4.80622 2.15334 4.3181 3.90738 1.58502 2.63539 20.7364 9.84087 4.25101 4.08836 3.60336 7.20867 6.66072 3.08581 6.09786 3.17312 2.75284 10.7371 3.23152 3.04799 1.76709 5.12298 4.6585 0.468871 5.8841 4.37783 3.96418 3.37668 6.10226 1.69452 5.17307 3.8241 2.26375 1.06214 8.42601 12.9223 4.04776 6.70411 5.4582 4.04187 3.13805 11.5947 7.4022 7.67685 9.7188 2.59162 14.9907 2.29657 5.21494 3.24174 3.69357 0.696225 1.56446 6.35116 5.30913 3.28588 5.47697 14.3744 3.5542 9.53477 4.39515 6.00572 4.19775 14.5755 8.44691 4.13118 1.92274 6.02556 4.86613 13.1802 11.1487 4.09155 2.2436 2.11607 1.81556 1.06358 2.87387 3.31802 2.15022 1.54959 3.07488 8.97279 5.45112 6.19797 3.51144 6.36399 0.648359 0.996145 1.76173 0.802173 5.65235 12.4648 1.10227 1.80761 5.45802 4.7665 7.78621 4.06774 5.59772 7.6521 0.329207 0.547375 0.321993 0.55271 0.465667 0.851028 0.513449 0.536323 2.20134 8.61313 8.4174 8.54003 7.68995 4.09934 3.90962 2.0373 4.15485 2.6912 1.32988 1.45094 5.54797 2.54303 2.94013 2.91135 3.05476 1.7111 2.66504 13.1708 5.95022 0.882486 1.84553 1.27033 3.26529 2.77495 2.63281 4.59549 5.20384 2.09982 3.17915 6.85333 8.05403 6.92675 3.49564 12.0652 4.20849 3.48496 4.94046 4.43404 1.71038 1.63547 9.19986 2.66789 2.26739 5.74895 2.11317 1.41482 2.07087 2.91488 0.740782 0.991059 2.34146 7.05796 16.2448 7.94837 4.69056 1.78826 6.90886 5.93642 4.67544 6.67426 1.79207 3.40503 3.93005 3.6103 4.89643 4.7606 1.38509 1.05623 0.894237 1.93132 4.17362 6.06834 5.45704 8.74121 14.4327 5.82341 2.91753 0.0827774 1.80437 0.839728 8.38234 3.88559 8.95432 7.15676 2.31414 2.84481 4.13503 5.43517 2.70019 2.51591 1.38485 2.59061 3.19592 4.84467 4.13001 0.572423 12.5993 6.89129 3.39043 2.62146 1.9447 4.21279 9.60936 0.291954 9.98253 3.98816 1.78968 9.5714 7.6895 4.14945 7.05587 3.36278 1.5031 7.53069 6.0127 2.70506 5.92831 2.12213 1.45554 1.06095 0.839107 0.567679 8.48758 5.87578 6.32995 4.60678 3.54324 2.76665 3.59824 2.96341 5.83853 4.75879 2.39548 5.40654 1.85491 24.1348 12.1496 9.6596 0.626657 1.7234 3.73502 15.014 13.5565 9.0209 6.58467 2.02162 7.99651 4.1116 2.16648 6.00054 5.82547 5.18154 3.40437 3.94693 1.98478 0.964332 10.497 19.9989 1.91037 0.855247 1.36921 1.49074 5.597 4.43724 8.31687 4.18183 2.18436 3.25806 3.24649 3.49494 3.03362 6.34714 1.47669 1.5917 6.60315 3.3431 4.71767 4.64606 5.0215 4.2735 1.52543 12.9556 7.3127 8.38051 6.23513 5.52199 6.39757 4.83854 0.64969 1.04631 4.34708 5.3638 25.2438 4.50707 2.78227 7.34006 11.908 2.67473 2.00948 1.41296 2.80794 4.64757 3.19854 4.20024 3.79724 4.60353 2.5663 6.44905 1.51026 2.0025 6.49308 1.29859 0.66252 6.5028 4.96649 5.7738 5.12589 4.10751 2.25237 0.842155 0.398151 8.35481 5.8184 10.9965 9.36442 20.7453 18.8715 24.645 8.92702 3.00122 3.5693 8.96248 10.9689 3.10547 4.09117 4.15136 4.47166 2.95784 5.54815 0.265419 2.83734 18.4576 9.71126 9.07412 8.41264 12.7682 8.95743 1.82763 6.65926 1.82183 3.4882 3.37028 3.92931 3.29011 7.39799 4.49338 0.38999 0.337201 0.169935 0.154559 15.2797 4.38402 9.40508 7.83528 8.79615 1.4694 2.885 1.64236 6.20113 5.31018 5.65439 7.09461 11.8198 14.6496 11.5654 1.19515 7.61695 4.06339 1.9643 1.69919 1.33267 9.06094 11.3986 3.41577 4.05771 6.27421 3.51919 6.3681 4.88879 8.77654 9.04983 9.9795 5.0792 4.20379 4.63128 3.49452 2.35691 2.32204 9.10951 0.862538 17.061 13.7045 1.65206 17.6208 13.6133 8.49834 17.6537 147.264 193.215 0.605953 20.5384 10.6641 2.02664 1.27203 128.94 8.49234 3.90973 5.67863 2.30794 4.70892 1.95234 141.278 115.066 91.4872 238.344 74.8059 4.9984 5.04986 6.08057 1.06157 9.84469 5.61578 2.21363 0.528285 0.544646 16.7058 10.9108 14.5727 16.3852 8.43185 16.5469 6.25488 16.3277 181.032 8.36034 1.57676 6.27087 5.64384 5.62317 8.88029 17.1249 1.77693 11.5268 7.97525 5.8331 3.90739 4.48379 6.35136 2.92725 1.08887 0.867923 0.727255 6.48667 12.3624 24.5011 9.11397 10.1904 6.32279 6.8188 1.35129 3.49063 7.30302 34.4385 2.05309 0.637601 4.06317 4.46182 18.3546 0.883857 0.367002 0.561677 0.697485 0.290281 1.5256 3.32925 74.4706 137.725 154.133 16.8326 1.08401 2.68447 3.70613 2.0949 26.2058 60.6113 19.479 57.1897 0.688138 1.72245 1.82445 4.87525 1.49496 3.10345 8.74237 10.1719 20.3954 3.41124 2.03477 5.71627 9.146 11.4574 21.0478 29.6138 60.9955 15.0309 34.0634 1.80048 0.122113 1.52766 21.1959 9.70216 30.2666 110.442 37.2806 9.77325 10.3568 7.41322 16.4528 9.13947 10.6204 15.8139 15.5255 15.9001 0.171425 0.180626 3.46228 1.76627 8.19191 20.2016 9.54903 10.9975 8.54495 3.84628 5.13497 7.11463 5.28915 5.13567 6.96064 11.1686 0.688558 15.6472 21.129 4.81649 5.84242 0.186254 0.166144 0.368551 5.65218 7.35248 0.0741903 0.0473436 0.0634663 0.000397902 0.607519 5.77795 3.29162 3.28007 5.14535 3.68396 21.5961 8.64044 12.3248 2.33605 2.06516 3.28205 10.085 14.318 3.47521 6.45889 1.81649 9.04588 5.81781 61.7224 28.8115 4.1214 7.61321 7.59725 23.4076 4.82605 5.94326 6.75865 2.60103 3.6833 3.08759 3.57359 3.86902 6.34274 5.91268 37.5197 145.46 2.28427 9.10643 7.3763 16.809 9.69319 13.5946 8.19941 11.281 9.56873 17.3967 19.2607 30.763 31.9214 30.984 13.8411 4.93496 5.30004 3.93588 7.30443 0.469581 0.790765 0.390576 0.565725 2.55476 2.18212 2.63466 3.6599 0.946456 2.74279 3.8856 5.29692 0.69853 19.8456 40.6782 3.61619 0.814747 2.37644 3.27797 1.63078 2.26852 12.2035 13.861 0.714324 0.914656 2.76087 4.22866 3.93067 3.32996 31.3406 11.2636 7.08292 0.598769 11.8679 10.6951 9.82559 3.65505 3.88144 4.34427 3.1706 3.93584 7.99313 3.65234 6.14677 4.56192 7.03502 6.01669 0.257734 3.97164 1.55736 4.72272 0.968069 0.612509 5.44686 2.01361 3.28552 1.672 3.13099 0.891672 1.80419 2.71778 13.5625 3.65822 8.96983 6.20484 3.82995 8.49162 3.42152 2.41852 5.52513 2.05849 4.23558 1.66636 9.50943 1.43016 0.90009 5.21442 5.54072 68.0549 6.58911 12.0604 6.78618 5.95484 19.5307 6.61122 2.11756 9.99879 2.05095 3.39389 6.49967 10.5177 17.5106 13.0977 5.54253 1.2095 3.32115 12.9205 15.0894 30.3718 25.2441 87.8971 130.909 37.7551 83.2261 59.9571 3.4534 2.13528 6.29087 15.5582 12.7731 14.0455 4.63952 6.98518 3.61948 5.59925 2.99348 8.44004 2.76846 2.00591 0.441344 0.599347 0.0595067 0.294844 0.0919055 0.0497919 0.592321 3.36774 18.1799 21.5098 22.2003 7.83947 2.23752 5.05032 24.5656 2.11349 13.8361 10.7742 0.801431 1.79039 6.50577 3.92501 5.417 8.92312 4.662 7.46177 8.76521 17.2367 10.077 7.06313 3.22815 3.85187 11.6403 1.87763 2.30623 6.60341 6.26119 4.42176 13.8416 6.84605 3.49078 4.08223 1.75907 20.0614 5.68836 8.28695 10.0089 6.14198 6.43955 8.80435 15.4032 16.6323 5.64529 5.46117 6.58362 16.7984 6.61924 6.5327 3.40058 4.66098 3.04401 0.904471 5.34051 2.9377 4.49812 8.33649 11.6055 11.748 12.1392 13.159 8.83283 13.3149 25.4946 5.16182 10.856 4.8055 1.48459 0.825265 6.76417 9.98305 3.20422 15.12 3.16198 8.21421 23.8181 13.2976 27.5099 6.95965 13.4377 2.85025 2.6681 1.08497 0.995762 4.65701 6.93041 7.17381 1.10904 1.03674 2.95216 2.38425 2.03949 1.11659 1.21226 4.4824 3.78513 0.488692 1.56337 11.0336 0.930092 6.36819 1.70226 10.4813 8.41477 22.646 6.307 13.1636 66.813 5.12877 7.21727 10.4214 12.5276 31.9462 7.13519 6.29422 6.76557 50.576 15.8309 13.6684 15.4209 3.37792 1.75074 2.75743 23.5096 5.11724 0.611696 0.879695 0.60129 0.636322 58.12 3.91362 0.583382 3.24162 15.3142 1.04618 0.936536 2.61345 24.074 9.1691 7.83774 15.8772 10.0719 18.487 26.062 27.4678 18.189 23.7251 3.64438 0.724438 40.6137 4.56632 0.0633723 0.0690557 0.0628851 65.7848 5.35702 20.5753 6.7575 0.969349 5.53643 7.44678 7.39448 41.6968 14.5259 15.0679 19.2029 14.2116 10.3769 3.94445 1.84811 3.18507 0.952775 0.657996 3.95418 1.301 3.92408 0.122223 0.161389 0.931964 0.506319 4.48481 10.8664 1.19628 0.928217 18.027 3.9484 3.2782 13.0961 10.6376 1.24194 1.23249 4.77015 4.43857 1.57021 19.3654 12.0387 0.000157913 37.0219 13.9995 5.60367 4.91931 3.36019 2.34045 0.0856396 0.728925 0.17016 0.560195 2.51794 2.61483 1.13701 2.62168 28.7686 28.2727 6.76656 11.4635 4.08414 8.69257 8.94002 8.00225 35.2726 3.77467 7.2287 8.24864 6.58682 12.3523 24.9118 23.4427 4.35148 3.25193 9.26729 25.4637 17.3984 10.8818 9.96461 8.14752 11.2569 6.40411 1.24207 1.07374 5.93183 6.97798 6.76501 5.03587 0.895178 4.53455 2.91902 4.48057 5.34144 2.68077 0.177854 4.06949 6.3321 6.46012 0.730288 5.87978 1.87464 1.27194 1.02485 0.548916 1.76948 0.45103 0.57081 7.35828 3.01903 2.99466 3.61147 5.678 14.6298 9.60787 31.5254 3.92404 2.62037 2.52979 2.99407 2.83776 3.0062 8.14734 4.38516 8.7917 8.42865 3.98269 3.58399 6.99652 17.1983 18.9991 15.556 2.72955 1.8734 2.97429 10.6416 16.3721 5.76472 6.57139 7.74778 3.3632 6.33962 8.77159 8.44817 8.97697 1.00035 10.3271 5.57148 3.98891 15.4239 0.424724 4.59943 1.14346 4.93914 3.14141 2.06101 7.30319 32.6766 6.35142 2.29245 3.04237 1.66159 2.18704 16.8597 10.6054 11.7586 13.2995 7.11475 4.33118 7.15521 18.2397 10.4388 3.99894 15.2529 15.2579 3.62458 4.85085 1.76452 12.2994 2.30695 6.71714 11.5758 22.6926 2.01421 4.46543 9.88892 11.6274 2.52521 0.63631 3.51068 0.650164 17.1516 25.7172 3.0168 3.73776 12.2034 7.31891 5.51977 12.7169 0.930311 0.119551 9.0016 12.21 1.32997 1.57398 1.82471 17.2335 2.0544 2.67319 1.80815 3.04904 1.20142 15.5438 1.15369 1.65292 11.6422 28.138 14.0187 9.29996 3.744 8.98535 4.92244 12.7136 5.22654 4.06257 5.79896 2.77608 2.26878 4.82086 2.59771 3.53858 2.03098 2.04964 4.18925 6.69618 4.72553 3.66229 2.1196 4.75874 3.89208 5.58638 6.41961 2.40501 4.39709 6.13524 4.99793 1.16898 11.7421 3.21935 6.40243 10.7751 1.50733 16.2208 20.5053 3.14276 3.13562 12.3367 5.65607 10.8147 7.53494 24.9814 5.31454 19.6583 7.44953 6.09384 1.18708 0.260393 2.36655 0.749859 1.58626 0.800859 10.8371 31.724 0.803806 0.388557 16.3251 8.61103 6.49205 7.33209 11.1144 7.32458 6.64351 6.50548 3.44864 7.25952 1.65409 3.64602 8.94273 6.31824 1.75453 12.1354 7.4876 28.5044 6.26466 5.76886 5.0169 7.01813 99.1552 
SCALARS volume float 1
LOOKUP_TABLE default
8.04366e-05 0.00022712 4.93457e-05 0.000648652 0.000357912 2.37913e-06 0.000162505 0.00035797 3.92509e-05 0.000165817 0.000149057 0.000120768 0.000164264 4.60622e-05 0.000157889 8.48861e-05 0.000137668 0.000162711 0.000106463 3.77531e-05 1.79204e-05 8.97498e-05 9.9982e-05 0.000330368 6.61862e-05 3.11089e-05 9.04121e-05 0.000119083 9.75142e-05 0.000108127 4.74469e-05 0.000348057 3.0792e-05 1.30179e-05 9.14551e-06 2.95136e-05 2.48279e-05 2.25862e-05 4.33644e-05 1.08459e-05 0.000137595 2.04837e-05 0.000382883 1.63333e-05 1.68379e-05 1.477e-05 6.63097e-06 3.00004e-05 3.13188e-05 0.000191813 1.3591e-05 5.85051e-05 0.000313208 3.70414e-05 7.24148e-06 8.18171e-06 4.40701e-05 2.27059e-05 4.83941e-05 1.09432e-05 2.50413e-05 2.61427e-05 1.5354e-05 4.86122e-06 0.000290783 7.98551e-06 2.0305e-05 1.22807e-05 0.000203346 5.20612e-06 2.78997e-05 5.56808e-05 1.37772e-05 9.51242e-06 8.32883e-06 1.53607e-05 2.06324e-05 7.48847e-06 1.33531e-05 1.64563e-05 2.27145e-05 1.07661e-05 2.08433e-05 2.50162e-05 6.44793e-05 1.30379e-05 2.67676e-05 1.57403e-05 1.71922e-05 0.000601692 8.49636e-06 7.68739e-05 3.33176e-05 0.000126288 1.18222e-05 9.98833e-06 1.31365e-05 9.41036e-06 2.46824e-06 2.47622e-05 5.81772e-06 6.16853e-06 2.90493e-05 6.9086e-06 1.72468e-05 2.39767e-06 1.21085e-05 2.44608e-06 1.69447e-05 0.000408332 2.11436e-05 1.14545e-05 6.76467e-05 6.56778e-05 7.20937e-06 2.08064e-06 1.3387e-05 0.00033704 0.000376974 0.000369903 2.26178e-05 9.36905e-06 1.07162e-05 1.08877e-05 9.85915e-06 0.000414082 1.20098e-05 8.67455e-06 0.000238337 6.5878e-06 1.02986e-05 1.4123e-05 6.40123e-06 8.19024e-06 1.51267e-05 2.66912e-05 1.07944e-05 4.66004e-06 1.27713e-05 3.3508e-06 3.8709e-06 8.25722e-06 3.99398e-06 4.79136e-06 1.22276e-05 8.16083e-06 2.33158e-05 0.000607059 6.94004e-06 8.81284e-06 6.90946e-06 5.66758e-06 4.47458e-06 4.62734e-06 7.84702e-06 7.89441e-06 7.19804e-06 0.00045502 1.36804e-05 1.04643e-05 4.0294e-06 1.28816e-05 1.04206e-05 6.8403e-06 4.22988e-06 2.82903e-06 1.06693e-05 7.76293e-06 8.09297e-06 6.94712e-06 1.25415e-05 5.47055e-06 4.86019e-06 9.51315e-06 1.51908e-05 2.99538e-06 1.79758e-05 4.10227e-06 2.07014e-06 1.52786e-06 5.54471e-06 1.75495e-06 6.54762e-06 1.11129e-05 9.94322e-06 6.84982e-06 9.40894e-06 2.43835e-05 7.53117e-06 2.86021e-06 5.93019e-06 5.01013e-06 1.59037e-06 2.55708e-05 1.0108e-05 2.92184e-05 4.75426e-06 4.18459e-06 1.00428e-05 0.000458802 1.10149e-05 6.62789e-06 1.31049e-05 4.77882e-06 1.02595e-05 2.67478e-06 0.000318743 1.1468e-05 7.85203e-06 0.000334446 0.000403338 2.67074e-06 2.67658e-06 1.06019e-05 7.79033e-06 3.57569e-06 4.78231e-06 2.75087e-06 0.000393389 4.98071e-06 3.91746e-05 9.14389e-06 3.96479e-06 8.71606e-06 4.80567e-06 1.25384e-05 9.64045e-06 1.80382e-05 7.1499e-06 3.58039e-06 0.000223576 1.1521e-05 1.20138e-05 6.66088e-06 8.59593e-06 1.29509e-06 0.00024424 5.23136e-06 8.15369e-06 4.94464e-06 2.84885e-06 6.99001e-06 1.59289e-05 5.2937e-06 8.70981e-06 1.01286e-05 5.88901e-06 2.44156e-06 1.30984e-06 2.93027e-06 0.000524842 6.37837e-06 4.08169e-06 2.37567e-05 1.04665e-05 8.58675e-06 3.98222e-06 0.000442375 4.62626e-06 0.000511269 3.83894e-06 1.327e-05 1.34962e-06 4.90636e-06 4.05249e-05 9.93146e-06 1.67203e-06 3.11216e-06 2.54707e-06 9.77832e-06 4.24135e-06 0.000360219 4.09978e-06 5.57929e-05 0.000392744 1.71742e-05 1.91405e-05 5.17141e-06 4.07227e-06 1.22058e-05 2.44405e-05 5.21057e-06 4.08354e-06 0.000128453 8.86349e-06 3.47818e-06 3.90574e-06 8.15973e-06 1.38868e-05 2.66295e-06 1.17108e-05 9.16447e-06 1.67364e-05 0.000240996 6.32586e-06 9.41378e-06 0.000607743 4.35135e-06 7.43509e-06 3.71492e-06 7.26743e-06 7.02293e-06 8.3134e-06 2.38717e-06 1.01464e-05 2.16824e-05 0.000346257 1.10892e-05 5.53108e-06 1.0596e-06 6.65549e-06 1.41875e-05 0.000372419 4.25824e-06 5.66977e-06 8.03523e-06 2.17516e-05 4.27376e-06 7.59557e-06 5.50315e-06 5.30801e-06 1.07074e-05 2.92295e-06 1.69384e-06 4.18053e-05 6.3923e-06 5.63437e-06 4.01745e-06 7.80455e-06 9.06446e-06 7.13416e-06 6.55709e-06 5.05904e-06 2.36404e-05 8.25021e-06 5.68855e-06 1.42468e-06 9.56603e-06 1.30771e-05 9.64277e-05 7.24056e-05 0.000538009 1.67368e-05 9.27005e-06 1.11799e-05 5.36717e-06 0.000538757 0.000322185 2.08901e-05 1.71148e-05 9.64073e-06 0.000442126 0.000502008 1.00286e-05 0.000368605 0.000282175 8.16647e-06 9.09162e-06 0.000722038 4.43941e-06 0.000639061 1.77055e-05 2.68586e-06 7.17559e-06 0.000135358 0.000561435 0.000645921 1.02058e-05 0.000507143 0.000307021 0.000169173 0.000132571 0.000101414 0.000268526 3.47026e-05 0.000151235 9.03809e-05 0.0002511 0.000505451 3.77867e-06 0.000235239 0.000323786 0.000591182 0.000336873 0.000274308 0.000439319 1.07316e-05 0.000173122 4.01281e-05 5.82564e-05 0.000120941 0.000514073 0.000184834 0.000624536 0.000557839 0.000719422 6.72777e-06 0.000465368 0.000512686 5.15056e-05 0.000101586 6.56235e-06 0.000319453 0.000291693 7.35125e-06 1.8599e-06 8.76981e-06 0.000300807 0.000245907 1.60014e-06 0.000181847 0.00028801 0.000439801 8.27246e-06 0.000505198 0.000276339 0.000720729 1.02301e-05 5.724e-06 1.97215e-05 6.26856e-05 2.11907e-06 0.000447538 9.92103e-07 0.000380629 0.000459208 4.16946e-06 4.80421e-06 1.56637e-05 0.000217272 0.000315376 9.33462e-06 1.90989e-05 6.97437e-05 7.93034e-05 0.000382452 0.000172477 0.0001155 6.02967e-06 9.60266e-07 7.5576e-06 6.8328e-05 0.000255467 6.66226e-06 1.36254e-05 6.24359e-06 0.000215431 0.000410261 0.000150532 0.000457703 0.000481719 0.000109955 0.000281512 0.000277329 0.000176984 0.000168864 9.59175e-05 4.29985e-06 1.06988e-05 0.000159031 0.000439073 5.57001e-06 4.41906e-05 0.000377529 8.04971e-06 0.000416123 0.00026914 5.25026e-05 3.06887e-05 0.000238494 0.000135487 0.000155766 7.43901e-05 0.000279211 0.000283304 0.000411478 1.59179e-05 0.000352794 0.000329706 0.000329074 0.000130974 0.000230058 0.000208223 0.000290825 0.000201433 0.000124226 0.000388004 0.000291416 0.000441527 1.48243e-05 9.87476e-06 4.57629e-05 0.000191076 0.00047663 0.00038763 0.000385547 8.55117e-06 0.000245011 0.000370677 0.000285812 7.18813e-06 5.44835e-05 0.000339778 2.61763e-05 1.60361e-05 1.29597e-05 6.03006e-05 3.83931e-05 8.81421e-05 0.00010198 0.00042741 0.000219726 0.000132678 0.000220949 0.000188101 0.000171247 0.000403168 0.000636331 0.000125771 3.64885e-06 0.000123796 0.000167955 0.000151983 8.38386e-05 1.23633e-05 0.000170182 7.32056e-05 0.000248794 1.46792e-05 0.000384357 0.000416798 0.000275108 0.000102752 0.000459409 0.000584711 0.000460044 0.000446277 9.74353e-06 0.000524242 0.000284981 0.000116141 0.000293115 1.24386e-05 5.76951e-06 0.000346587 0.000289732 0.000209085 0.000137767 0.000205421 0.000230213 0.000452119 0.000295217 0.000298412 3.94803e-05 0.000208777 8.05384e-06 2.42321e-05 4.17652e-06 0.000517416 0.000519523 4.90485e-06 0.000214221 0.00019412 0.000316443 0.00022445 0.000385973 0.000265827 1.334e-06 1.98774e-05 0.000428608 0.000440583 0.000459159 1.88529e-05 6.28177e-06 0.000160163 1.51033e-05 0.000871535 7.38386e-06 0.000171872 1.3366e-05 7.53778e-06 3.21932e-06 3.07281e-05 0.000374775 0.000519582 0.000380477 0.00038068 0.000462964 0.00049961 0.00040858 0.000382451 5.34476e-05 0.000203264 0.000138914 4.32091e-06 2.59318e-06 0.000141213 8.57867e-06 1.025e-05 6.74576e-06 1.73009e-05 0.000213736 0.000256411 2.14786e-05 0.000237976 0.000635061 0.000492314 1.15754e-05 5.20298e-06 0.000199263 0.000242566 3.75838e-06 5.77214e-05 0.000337057 3.49968e-05 0.000343851 0.000437485 0.000458182 9.56917e-06 8.59955e-06 9.01182e-05 3.35799e-06 5.75708e-06 7.35743e-06 9.27573e-06 1.61657e-05 3.83844e-06 1.65231e-05 7.17155e-06 6.28228e-06 0.00052416 0.000308873 0.000209027 9.95205e-06 7.21368e-05 7.64999e-06 0.000464521 3.02379e-05 8.16167e-06 3.53479e-06 0.000474083 0.000388219 1.98952e-05 0.000404447 0.00034286 0.000446511 0.000330884 0.000366652 4.00104e-05 0.000392463 2.48671e-05 0.000504852 0.000509055 0.00075059 1.86061e-05 0.000408815 1.20767e-05 5.1719e-05 0.000489231 0.000187565 0.000314997 2.49996e-05 7.11459e-06 0.00040696 0.0001052 2.90693e-05 6.81448e-06 4.18686e-06 0.000262071 0.000239566 0.000189259 0.000212938 4.41934e-06 5.31797e-06 1.78511e-05 2.16949e-06 1.92764e-05 6.06441e-06 1.84352e-05 0.000269277 2.80459e-05 6.32291e-05 7.57984e-06 0.000121362 6.40175e-06 1.45409e-05 1.11059e-05 0.000131159 8.38658e-06 1.04677e-05 1.66277e-05 1.42858e-05 1.27702e-05 5.91923e-06 1.86729e-05 0.000525939 0.000497349 0.000561549 0.000518863 8.67228e-06 7.2403e-06 0.000328564 0.000514655 6.03089e-06 0.000414606 0.000250508 0.000135036 0.000348237 0.000205482 3.89049e-06 0.000161604 0.000300922 0.000297741 0.000206228 0.000261948 0.000182868 1.46374e-05 5.47167e-06 1.5573e-05 4.628e-05 0.000574641 0.000241182 0.000588938 0.000344438 8.44545e-06 0.000169809 0.000437202 0.000438735 8.00362e-05 0.000617893 0.000508545 0.000320837 0.000496557 0.000721797 4.71619e-06 0.000248648 6.54461e-06 0.000755572 7.8144e-05 0.000456814 0.000310798 0.000428284 7.90603e-06 1.57091e-05 0.000519392 0.000548158 0.000466146 0.000567235 7.59329e-06 0.000599694 3.76801e-05 1.94261e-05 8.37388e-06 2.45363e-06 5.02994e-06 0.000213724 0.000291427 4.17562e-06 0.000364475 4.58356e-06 5.80363e-06 3.43414e-06 5.21858e-06 3.44628e-06 5.01691e-06 9.73533e-06 5.55472e-06 7.94754e-06 9.98449e-06 1.58078e-05 4.47188e-06 1.50703e-05 1.28271e-05 8.55159e-06 1.57667e-06 2.40386e-06 2.51522e-06 4.40526e-05 1.19019e-05 1.18555e-05 7.27702e-06 7.16634e-06 1.52935e-05 0.00011237 8.39226e-05 2.6245e-05 2.89673e-05 1.5654e-05 0.000144646 1.07125e-05 0.000128841 1.66331e-05 2.88241e-05 8.74748e-06 9.5661e-06 0.000760771 0.000624245 5.8471e-06 3.6682e-06 5.70354e-06 9.37565e-06 2.1335e-05 5.86763e-06 5.64329e-06 6.80877e-06 4.54518e-05 8.69258e-06 1.00061e-05 0.000382114 2.78541e-06 9.02091e-06 1.1474e-05 5.00018e-06 8.26093e-06 9.45029e-06 8.63912e-05 0.000647834 1.96492e-05 0.000330046 0.00038696 0.000354768 0.00024847 0.000271746 8.88585e-06 0.000440508 0.000422372 0.000658081 0.000598467 0.000547439 0.000538047 1.20434e-05 0.00013928 9.24133e-06 9.56952e-06 1.56187e-05 0.000415152 7.98051e-06 2.49955e-05 1.42959e-05 0.000185443 0.00036576 1.37384e-05 1.28727e-05 1.02426e-05 2.79397e-05 9.08677e-06 1.17318e-05 5.223e-06 4.77759e-06 1.09932e-05 1.35947e-05 7.31082e-06 9.22441e-06 4.4596e-06 1.13544e-05 1.00023e-05 1.12825e-05 9.46046e-06 1.11479e-05 3.79558e-07 1.45603e-05 5.50481e-06 0.000639344 6.60998e-06 6.81332e-06 0.00050037 6.9198e-06 0.000285675 0.00020471 7.73314e-06 9.12912e-06 7.399e-06 3.91268e-05 1.03014e-05 6.79728e-06 2.15542e-05 1.40017e-05 1.18779e-05 5.16661e-06 5.00844e-06 9.87351e-06 5.46404e-06 1.54831e-05 1.73082e-05 0.000419468 4.76465e-06 2.0353e-06 5.94786e-06 1.36941e-05 6.60641e-06 2.64674e-06 3.26578e-06 2.67501e-06 5.00156e-06 4.59427e-06 1.69703e-05 1.04112e-05 1.45437e-05 4.10061e-06 5.85547e-06 2.70563e-06 6.68699e-06 2.07598e-05 3.3642e-06 0.000511076 0.000336302 1.45547e-05 0.00012485 0.000106976 1.70634e-05 3.97404e-06 1.85637e-05 2.67547e-06 1.06593e-05 0.000451138 3.33367e-06 9.90265e-06 2.33557e-05 8.85798e-06 7.11356e-05 0.000287595 0.000203078 1.10295e-05 0.000103812 0.000136792 0.000274116 0.00033181 0.000276618 0.000334635 0.000321977 0.000240399 0.000395857 0.000512213 0.000545044 0.000489664 0.000591577 8.01483e-06 1.19634e-05 3.98305e-06 2.08894e-05 0.000179193 0.000166728 0.000130655 3.37024e-05 2.59563e-05 0.000127516 0.00018582 1.27854e-05 0.000282849 4.64094e-06 1.88689e-05 9.86987e-05 3.35996e-06 1.83611e-05 1.42848e-05 9.27831e-06 5.95538e-06 8.92691e-06 2.6006e-05 1.27404e-05 0.000151038 4.9607e-06 3.9963e-06 0.000123007 2.00901e-05 5.36987e-06 0.000353748 0.000378112 0.000540655 5.82287e-06 4.78099e-06 5.39543e-06 2.11905e-06 3.22496e-05 1.41764e-05 1.24103e-05 9.78366e-06 1.19189e-05 2.33637e-06 8.70632e-06 9.47362e-06 1.11133e-05 1.78923e-05 9.03861e-06 1.79804e-06 2.22753e-05 2.25655e-05 0.0001199 1.3195e-05 6.42447e-05 2.93518e-05 0.000180274 2.38905e-05 1.65961e-05 1.50086e-05 2.15421e-05 6.2972e-06 0.000467406 1.64282e-05 1.87121e-05 1.55749e-05 1.00187e-05 0.000119613 0.000134794 0.000143716 0.000198997 0.00029484 3.36243e-05 1.142e-05 3.1085e-05 5.09444e-05 1.94423e-05 2.89896e-05 6.26103e-05 1.16388e-05 1.68138e-05 1.20765e-05 9.02627e-06 0.000315822 0.00028461 4.27588e-05 0.000382564 7.64332e-05 1.80492e-05 0.000283574 2.65432e-05 0.000219616 1.91038e-06 1.01371e-05 5.39336e-06 1.6291e-06 3.3663e-05 1.94807e-06 5.16631e-06 5.4815e-06 2.57851e-06 3.26786e-06 0.000107737 1.48262e-06 6.42225e-05 1.51582e-05 3.24326e-05 2.59443e-05 1.44451e-05 0.00054791 5.18577e-05 9.80319e-05 8.90645e-05 6.27556e-05 5.91064e-05 2.73851e-05 4.2718e-06 4.86841e-06 0.000354381 0.000183038 0.000288272 0.00032376 1.94375e-06 0.000287292 2.32623e-05 8.41195e-06 0.000218341 0.000188737 0.000277885 6.78288e-07 5.20363e-05 0.000314496 0.000494834 8.57822e-06 9.6209e-06 2.34436e-05 5.75599e-06 2.47133e-06 7.13302e-06 4.10945e-05 9.39907e-06 4.84356e-06 9.23497e-06 0.000363179 6.10921e-06 2.70923e-06 1.48174e-05 0.000323172 3.11877e-05 0.000528153 9.6323e-06 1.09255e-05 0.000485431 8.86809e-05 5.7946e-06 5.46677e-06 0.000320855 4.64514e-06 3.31353e-06 0.000230358 0.000183896 0.000446123 0.000182536 0.000366151 3.82768e-05 5.16093e-06 5.26367e-05 6.57851e-06 1.17412e-06 0.000158206 0.000232496 0.00013975 0.000204032 0.000126676 0.000205581 0.000174708 0.00026669 1.72318e-05 2.75831e-05 0.000124488 0.000313148 0.000210331 6.04172e-06 0.000389243 1.12765e-05 5.7658e-06 7.59736e-05 2.39363e-06 0.000290857 0.000282279 0.000310169 0.000297638 0.000247444 0.000471237 0.000471464 0.0004944 0.000629107 0.000452165 0.000452591 0.000206225 0.000360356 0.000312321 0.000395616 0.000322715 0.000313453 0.000598706 0.000237461 4.29128e-06 0.000313937 0.000416458 0.000364157 0.000486915 0.000519114 2.4931e-06 1.48889e-05 0.00015915 4.63556e-06 6.06312e-06 0.000229176 5.74334e-06 6.17694e-06 1.07401e-06 0.000424047 0.000528583 0.000570948 0.000388805 0.000452862 9.36267e-06 0.000382598 4.28337e-06 0.000223509 5.08409e-06 1.01938e-05 6.9883e-06 1.47899e-05 6.9352e-06 7.38478e-06 0.000681301 1.22747e-05 3.85172e-06 8.28631e-06 1.31917e-05 0.000398094 0.000298435 5.08945e-06 1.27825e-06 5.79768e-06 0.000337886 0.00068185 0.000636662 8.88558e-06 3.30602e-05 2.3134e-06 1.18294e-05 2.44705e-05 9.38409e-06 1.46366e-06 0.000413298 0.000309617 0.000268888 0.0004289 0.000362644 0.000380566 0.000131975 0.000243942 0.000426359 1.87017e-05 2.21188e-06 1.83553e-06 2.90686e-06 2.83772e-05 4.04842e-06 1.02852e-05 0.000292945 0.000264781 2.54044e-05 9.94308e-05 0.000305165 0.000332749 0.000375045 0.000106555 0.00030904 2.28717e-06 0.0001004 6.98313e-06 8.8879e-07 1.01833e-06 1.36659e-06 0.000498917 0.00027242 1.49642e-05 1.94103e-05 0.00019079 0.000132277 0.000502983 0.000258534 0.00024043 0.000316531 0.000168346 8.4766e-07 0.000165498 8.3358e-07 7.52953e-07 8.78321e-07 0.000497923 0.000730013 0.000506532 0.000472886 0.00056617 0.000418026 0.000484114 0.000439875 0.00064112 0.0005367 0.000176169 0.000447313 0.000350671 1.97608e-06 5.11805e-06 7.24599e-06 9.18902e-06 3.25948e-06 0.000135741 7.06813e-06 2.02848e-06 2.1177e-06 2.02362e-06 1.90832e-06 0.000249431 0.000474394 0.000183063 0.00016314 1.07375e-05 0.000285722 0.000226401 0.000693186 1.6161e-05 0.000270792 0.000638541 0.000335688 0.00023464 0.000309769 0.000469144 0.000307354 0.000106973 0.000399854 6.01801e-06 0.000443228 2.04884e-06 3.02153e-06 1.6956e-06 1.69355e-06 1.71105e-06 2.32778e-06 6.47427e-05 1.11524e-05 9.30488e-06 7.34886e-06 3.21795e-06 0.000665733 0.000675715 0.000502156 0.000672919 0.000628369 5.30861e-06 1.49515e-05 5.39305e-06 1.6501e-05 1.4406e-05 3.45617e-06 1.03626e-05 1.35972e-05 3.71726e-05 2.56381e-05 1.98209e-05 3.859e-05 6.08218e-06 5.91917e-06 0.000505361 0.000462405 0.000772014 0.000547697 3.30197e-05 1.33263e-05 7.27811e-06 0.000451022 0.000578418 0.000218947 4.37287e-06 0.000125226 0.000270423 0.000411713 0.000415752 2.91161e-06 0.000268734 0.000263549 6.15827e-06 0.000542405 0.000434881 8.43925e-06 0.000248942 9.55687e-06 0.000433234 0.00038553 4.85385e-06 0.000260748 0.000290489 1.4767e-06 0.000191886 0.000402812 0.00048011 0.000431963 1.51948e-06 2.05328e-06 0.000465232 0.000558677 1.03259e-05 5.98436e-06 0.00051848 0.00044708 2.23572e-06 2.56622e-06 1.81495e-06 1.535e-06 1.14944e-06 5.78556e-06 3.29787e-06 4.54247e-06 4.58197e-06 9.27995e-06 0.000297874 7.91293e-06 0.000127638 2.78083e-05 8.58493e-06 9.4008e-06 7.43363e-06 1.0202e-05 8.32955e-06 9.61922e-06 0.000665212 0.000472143 0.000389756 0.000682629 6.76228e-06 1.73372e-05 9.54047e-06 9.80255e-06 1.0033e-05 0.000213714 8.2192e-06 0.000599325 1.14453e-05 1.05841e-05 6.43671e-06 7.53205e-06 0.000264377 9.79605e-05 3.33129e-06 6.54187e-06 3.58255e-06 3.41099e-06 7.66598e-06 5.86393e-06 9.76201e-06 6.77689e-06 1.20486e-05 5.9877e-06 7.21361e-06 2.37404e-06 7.11102e-06 7.06071e-06 5.21457e-06 9.53168e-06 8.0211e-06 6.66953e-06 4.4612e-06 8.89777e-06 5.38519e-06 6.96686e-06 9.74693e-06 1.35485e-05 1.04118e-05 1.94145e-05 8.70738e-06 8.71459e-06 0.000582793 7.24577e-06 0.000372196 0.000673881 0.000218342 0.000177172 1.07846e-05 7.15422e-06 1.28194e-05 1.11023e-05 5.43724e-06 6.09744e-06 6.6614e-06 5.3134e-06 0.000175862 4.30438e-05 1.43145e-05 4.43472e-06 5.55008e-06 4.0416e-05 1.94464e-05 1.2306e-05 6.91247e-06 1.11302e-05 2.22674e-06 1.30608e-05 7.29068e-06 1.15526e-05 1.14121e-05 8.97663e-06 6.74731e-06 8.93774e-06 1.35206e-05 9.55832e-05 0.000533667 8.36098e-06 0.000362572 0.000577787 1.59825e-05 8.88269e-06 0.000435292 0.000493125 0.000573997 0.000237629 0.000246166 0.000305189 0.000462546 0.000292489 0.000221535 1.06316e-05 9.65366e-06 1.30828e-05 2.39145e-06 3.46047e-05 5.23441e-06 2.48498e-06 2.40858e-06 1.46928e-05 1.02692e-05 2.16313e-05 1.18256e-05 4.00794e-06 5.74036e-06 6.91788e-06 2.66929e-05 7.03428e-06 4.77666e-06 8.21728e-06 0.000169285 0.000272495 1.05893e-05 1.46434e-05 1.03143e-05 0.000213847 0.00032201 3.16716e-05 9.12212e-05 1.01613e-05 1.94875e-05 1.09549e-05 1.71107e-05 1.48838e-05 2.3921e-05 3.24281e-06 1.26669e-05 4.78379e-06 4.16477e-06 9.296e-06 1.15143e-05 5.57487e-06 0.000282709 1.9875e-05 1.92453e-05 0.00013058 0.000260241 0.000279038 3.79412e-06 1.32606e-05 2.15872e-05 9.74044e-06 2.38295e-05 2.19307e-05 2.14622e-05 1.79026e-05 1.41118e-05 2.40099e-05 2.24767e-05 8.05479e-06 1.61834e-05 1.94361e-05 2.5932e-06 7.09142e-06 3.90896e-06 2.80474e-06 9.00005e-06 1.78124e-05 1.07763e-05 8.39722e-06 4.1861e-06 1.41648e-05 5.11745e-06 0.000369287 0.000304603 0.000381418 2.38628e-05 2.71391e-06 4.08631e-05 3.77475e-05 7.18247e-06 2.15018e-05 0.00024844 3.36153e-05 4.4273e-06 8.29951e-06 1.29688e-05 1.9748e-05 6.26223e-06 2.1154e-06 3.74698e-06 2.34473e-06 2.46128e-06 2.01527e-06 2.27177e-06 7.56447e-06 3.66401e-06 5.52787e-06 3.17037e-05 2.97345e-06 6.78992e-06 1.82907e-05 2.32521e-05 0.00017418 0.000163049 0.000124556 0.000322281 2.49605e-05 0.00049308 0.000430413 0.000598286 1.17863e-05 1.3645e-05 8.05392e-06 8.85756e-06 1.17738e-05 9.31984e-06 8.01108e-05 1.27283e-05 3.95851e-05 8.59756e-05 0.000192499 4.8384e-05 1.13104e-05 9.30491e-05 0.00028756 0.000437908 0.000244017 0.000191931 0.00038333 0.000258844 0.000204907 0.000276132 0.000187948 0.000202902 0.00033755 0.000114537 0.000117462 4.33798e-05 0.000405952 0.000345546 0.000584102 0.000190678 0.000234166 0.000161273 0.000148894 5.48865e-06 4.76562e-06 0.000116544 0.000131822 1.5384e-06 1.64277e-05 3.53915e-05 0.000106271 1.09401e-05 1.66254e-05 1.28898e-05 3.48186e-05 0.000172863 0.000145587 0.000199775 0.000139687 0.000553564 0.00066689 1.93326e-05 0.000414997 0.000555813 4.37694e-06 4.01982e-06 1.31945e-05 1.02344e-05 0.000161248 0.00029951 0.00020464 0.000200787 9.49882e-06 4.87516e-05 1.10377e-05 4.56617e-06 4.0923e-06 4.13445e-06 1.15626e-05 1.41284e-06 9.62999e-06 0.000161266 5.75973e-06 1.10719e-05 1.05283e-05 0.000401954 0.000341441 0.000538311 0.000465564 0.000547664 0.000441917 0.000396906 0.00013223 0.000483018 0.000483798 0.000121168 0.000108001 9.75065e-05 6.50798e-05 9.85921e-05 0.000430764 0.000344723 0.000400789 0.000158773 9.11133e-05 0.000320106 0.000413689 0.000376611 9.99201e-05 6.26462e-05 9.81977e-05 9.56216e-05 0.000519049 0.000437837 6.13826e-05 0.000590509 5.43914e-05 4.68245e-05 2.94359e-05 2.89428e-05 3.41198e-05 5.0886e-05 8.2266e-05 5.95024e-05 4.80551e-05 8.81359e-05 6.59449e-05 4.92063e-05 5.96507e-05 3.17458e-05 1.29653e-06 1.47268e-06 2.09955e-06 1.75833e-06 1.01884e-06 8.34514e-07 4.76434e-07 8.31247e-07 8.45647e-07 4.4486e-07 3.41731e-07 8.38495e-07 1.709e-06 9.6485e-07 0.000117938 1.51431e-06 9.15441e-05 8.53366e-07 9.86506e-07 1.8176e-06 1.79547e-06 6.55632e-07 5.48966e-05 7.14705e-07 2.41443e-07 5.73665e-07 6.52591e-05 8.93143e-05 5.1574e-05 2.81045e-07 6.4709e-05 3.82682e-05 3.62038e-05 7.993e-05 6.64694e-05 2.38545e-07 7.90682e-07 6.31754e-07 5.49535e-07 6.01517e-07 5.71053e-07 0.000129701 0.000145275 0.00046312 0.000384602 9.02878e-05 9.44908e-05 0.000297749 0.000215614 9.40647e-06 0.00022812 3.85032e-05 3.27725e-05 0.000252692 0.000140152 7.82621e-05 7.80143e-07 0.000233297 0.000230811 0.000162482 0.000325593 0.000270881 0.000165092 6.18061e-07 9.88461e-05 3.19269e-05 7.31518e-05 5.52739e-05 3.24649e-05 5.66578e-05 5.46933e-05 3.89246e-07 3.06331e-05 2.07958e-05 6.81689e-07 2.66836e-05 4.08077e-05 9.05647e-07 8.49361e-07 0.000186218 4.18401e-07 6.27416e-06 0.000290204 6.23426e-05 0.000210654 0.000229923 0.000159793 0.000441414 0.000131393 0.000238944 0.000105282 0.000177628 0.000179903 7.25866e-05 8.33807e-05 5.28184e-05 6.4224e-05 0.000183277 0.000237817 0.000150527 0.000104418 0.00024317 1.04115e-05 1.36583e-05 7.05458e-05 8.96003e-06 0.000144638 0.00010591 6.48049e-05 0.000179609 0.000109422 7.09943e-05 0.000107439 0.000100664 9.91592e-05 1.29568e-05 1.17838e-05 5.00863e-05 5.28837e-05 5.14721e-05 6.23964e-05 5.29122e-05 0.000140584 4.92486e-06 3.60605e-06 5.37765e-06 4.98052e-06 8.73348e-05 0.000122594 9.94513e-06 1.63164e-05 1.69251e-05 0.000176045 2.12372e-05 0.000230007 2.43811e-05 4.57811e-06 3.48162e-05 0.000106264 0.000110717 8.61279e-05 8.97206e-05 6.17676e-06 3.38982e-05 2.68906e-05 4.30293e-05 5.87075e-05 0.000107501 3.84212e-06 8.19599e-06 2.9295e-05 2.55871e-05 6.41103e-05 4.77241e-05 5.91861e-05 4.32708e-05 5.48214e-05 6.83325e-06 2.67206e-06 6.86777e-06 1.71049e-07 4.08068e-06 1.97021e-07 5.65161e-06 7.52667e-07 6.1395e-07 6.57211e-07 4.67983e-05 6.75623e-05 3.39355e-05 1.17359e-05 0.00031677 0.00045221 0.000432936 0.000308934 7.31084e-06 4.78021e-05 4.59975e-05 1.30648e-05 4.30271e-05 0.00014495 8.01404e-05 6.5528e-05 0.000147541 0.000279596 1.16259e-05 2.03335e-05 1.20112e-05 2.72723e-05 1.81045e-06 0.000390054 0.000452825 0.000515181 0.00035811 0.000475709 7.57747e-06 9.41784e-06 6.82673e-05 0.000114387 8.8273e-05 1.03275e-06 8.25388e-06 8.10302e-06 9.29213e-07 4.61384e-07 2.32481e-05 4.60521e-06 0.000196033 4.85826e-05 0.000243304 0.000250921 0.000254026 0.000246732 7.63978e-06 3.33413e-05 3.17647e-05 4.07293e-05 3.94554e-05 4.56366e-05 3.85879e-05 1.99046e-05 3.7394e-05 0.000107541 4.45325e-07 5.46975e-05 7.3374e-05 6.00996e-07 5.03569e-07 9.87809e-05 9.91028e-05 5.87451e-05 7.56195e-05 9.50722e-05 1.30392e-05 3.41476e-05 5.5389e-05 1.3085e-05 5.54448e-07 1.36552e-07 0.000289716 0.00025124 0.000229086 0.000289305 5.84324e-06 0.000115649 0.000103565 9.92798e-05 4.92128e-05 0.000102985 7.03918e-05 9.26151e-05 0.0001107 0.000143154 3.79888e-05 3.62435e-05 0.000115801 2.30327e-05 3.30395e-05 2.3026e-05 1.50115e-05 2.71779e-05 2.34955e-05 1.09343e-05 7.06242e-05 6.55219e-05 0.000110013 7.60317e-05 1.79961e-05 3.72294e-07 2.86675e-07 2.2295e-07 1.94846e-07 2.84735e-07 3.17846e-07 1.01728e-05 9.50674e-05 0.000201339 0.000147831 1.14139e-05 5.2669e-06 0.000135053 4.56078e-05 0.000127645 4.42017e-05 7.19592e-05 9.45829e-06 6.59009e-05 0.00011979 2.88368e-05 3.70185e-05 0.000102816 8.29972e-06 5.49291e-05 0.000219031 4.33269e-05 7.39856e-06 0.000201351 6.27097e-06 0.000145002 5.8321e-05 4.63812e-05 0.000193051 4.79451e-05 2.48434e-05 0.000107505 2.57064e-07 0.000137821 0.000106804 9.13872e-05 0.000214948 6.69046e-05 6.90117e-05 5.41163e-05 7.06161e-07 2.83729e-05 3.07841e-07 4.07158e-05 5.1918e-05 3.14113e-05 7.36822e-05 3.08152e-06 5.17137e-06 8.05226e-05 2.91105e-05 2.93472e-07 0.000182782 8.37818e-05 5.76127e-06 1.92222e-05 3.64998e-07 4.4561e-07 4.67437e-07 5.24714e-05 4.52577e-05 1.47035e-05 1.29064e-05 3.39394e-07 6.91929e-05 5.25018e-05 0.000167484 7.82883e-05 0.000125449 1.45497e-05 0.000122388 5.43155e-05 0.000479504 0.000441088 0.0007414 0.000600209 0.000320464 0.00049564 0.000101308 5.18531e-06 0.000121906 2.11333e-07 0.000136397 1.88744e-07 1.82745e-07 7.48619e-06 1.51391e-05 1.02154e-05 5.71591e-05 8.80315e-06 9.05434e-06 2.67687e-07 2.61591e-07 5.17111e-06 2.30024e-05 5.455e-07 5.29762e-06 1.12895e-06 1.58703e-05 5.83967e-06 2.58163e-06 2.45303e-06 0.00042125 2.10438e-07 0.000262555 1.28456e-05 1.81953e-05 7.97148e-06 3.91748e-05 6.60686e-05 1.46459e-05 0.000231957 8.95888e-06 0.000225318 4.09964e-05 7.28301e-05 7.86421e-06 4.33828e-05 0.000230434 1.18198e-05 1.4267e-05 1.80452e-07 7.02785e-06 5.05781e-06 1.84656e-05 4.57502e-06 5.74908e-06 7.99278e-05 2.02264e-05 5.83279e-05 7.60934e-05 5.23141e-05 1.65789e-05 4.84482e-05 7.27606e-06 0.000125325 7.79582e-06 4.75921e-05 1.44311e-05 4.85745e-06 3.05097e-05 2.42698e-05 6.34126e-06 3.95903e-05 4.54576e-05 6.4502e-05 9.6801e-05 8.80777e-05 0.000518203 0.000477538 0.000466139 0.000479967 1.92282e-05 5.53104e-05 1.6272e-05 1.92607e-05 4.57918e-05 1.29277e-05 0.000112357 2.30532e-06 8.03291e-05 6.70839e-05 2.32444e-05 7.94217e-06 1.7798e-05 2.89029e-05 1.26858e-06 3.25624e-05 0.000160756 0.000113559 0.000130142 7.16758e-07 1.28136e-05 0.000249139 0.000297135 4.93805e-05 5.77691e-05 5.08697e-05 2.28347e-05 0.000114744 7.2672e-05 7.84767e-05 0.000139734 0.000410194 7.32567e-05 0.000335579 0.000533644 0.000427038 0.000542316 0.000107405 0.000128069 0.000167456 5.43807e-07 1.05093e-06 9.09e-06 4.85806e-06 3.37514e-06 3.52466e-07 6.57276e-06 3.77096e-07 7.29117e-06 8.54763e-08 1.02625e-05 1.78911e-05 3.47203e-05 2.88097e-05 7.5002e-06 1.40671e-05 1.50981e-07 1.68603e-05 5.55639e-05 6.04137e-05 3.84753e-05 2.39243e-05 4.38036e-05 5.22706e-05 3.96892e-07 2.35794e-05 2.31417e-05 2.14299e-05 9.3374e-05 5.6722e-05 9.74532e-05 4.8792e-05 0.000575436 0.000384829 1.66487e-05 1.44334e-05 2.51571e-05 9.29427e-06 2.87774e-05 1.65603e-05 0.000197366 3.09048e-05 0.000102243 3.29383e-05 0.000200061 0.000129664 4.64641e-06 9.56027e-05 5.17424e-06 0.00010118 7.24478e-07 3.81851e-07 3.04952e-05 1.69642e-05 8.2549e-05 7.32537e-06 7.2054e-05 9.2081e-05 1.09585e-05 9.2021e-06 1.01286e-05 1.20273e-05 0.000388898 3.2473e-05 5.81783e-05 2.41265e-05 3.81488e-05 7.57568e-06 8.73994e-06 1.01032e-05 1.25013e-05 1.36075e-05 8.7512e-05 7.18829e-05 6.82347e-05 5.30926e-05 5.05193e-05 0.000240366 7.14622e-05 0.00028304 0.000442644 0.000586185 8.00467e-06 4.3859e-07 0.000506084 5.3727e-07 5.08973e-06 4.69577e-05 4.03245e-06 4.14828e-06 2.99184e-06 8.72883e-05 2.95317e-06 4.25269e-06 8.35616e-06 6.31336e-06 0.000140314 4.10538e-05 2.21263e-05 3.02962e-06 6.06612e-06 3.86653e-05 6.09395e-06 0.000572946 5.24111e-06 3.28874e-05 9.03919e-06 1.18107e-05 1.11899e-05 0.000557646 5.88824e-06 0.000559963 0.000800972 0.000603542 1.12198e-05 1.12642e-05 0.000456145 0.000340839 1.08373e-05 1.042e-05 7.79336e-06 4.73977e-05 0.00049992 5.33757e-05 0.000143782 0.000261784 9.49414e-06 0.000288736 4.52577e-05 3.66779e-06 4.0709e-06 4.09026e-05 5.93703e-05 5.33624e-05 5.11527e-05 0.000115767 4.51046e-05 7.91607e-05 3.73106e-05 3.91805e-05 2.48013e-05 3.45115e-05 1.96594e-05 5.05105e-05 1.79001e-05 1.31825e-05 0.000246165 0.000508067 8.23368e-05 4.13771e-06 6.45785e-05 4.77649e-05 5.05849e-06 1.89268e-05 1.75756e-05 1.2242e-05 1.7197e-05 1.40802e-05 0.000326819 0.000373273 4.5732e-05 2.25688e-05 1.05629e-05 1.60328e-05 3.93512e-06 8.2296e-06 9.51436e-06 9.36471e-06 8.3538e-06 4.45983e-06 3.64931e-05 5.71979e-05 3.04124e-05 5.01466e-05 5.05381e-05 0.000399787 5.5817e-05 0.000393858 0.000397943 0.000427178 0.000517632 0.000389809 8.73268e-06 0.000114777 1.70165e-05 4.49694e-05 9.42022e-05 3.74445e-05 5.34007e-05 9.39815e-05 9.96706e-06 4.68909e-07 4.25442e-07 8.31277e-06 6.39953e-06 6.86968e-06 6.19289e-05 5.32601e-06 4.89284e-06 0.000210805 0.000136933 3.20153e-06 7.954e-06 6.3057e-06 1.40872e-05 2.2157e-05 3.86937e-05 2.03442e-05 3.20425e-05 4.94722e-05 6.07561e-05 6.65944e-05 3.67154e-07 3.39761e-05 1.05152e-05 4.86096e-05 1.01065e-05 2.8259e-05 2.74071e-05 3.95823e-05 0.000566587 7.2012e-06 3.88312e-05 9.63652e-05 5.17512e-06 7.99498e-06 9.35289e-05 9.77858e-05 3.05113e-05 9.30611e-05 6.77925e-05 6.91942e-05 2.30915e-05 0.000159674 5.30587e-05 4.04307e-05 3.10139e-05 6.14894e-05 0.000398545 0.000484794 0.000694978 1.20569e-05 0.000392677 0.000421587 1.15619e-05 1.4771e-05 0.000367343 0.000350843 5.33441e-05 6.06794e-07 0.000101471 9.08169e-05 0.000193536 1.83007e-05 0.00034613 1.68561e-06 1.19409e-05 7.22496e-06 6.56876e-06 7.29705e-06 9.09315e-06 4.62533e-05 8.52947e-05 2.16692e-06 1.27838e-06 4.81666e-06 6.16851e-06 9.15637e-07 1.09137e-05 2.88802e-06 9.24999e-07 1.64317e-06 4.44083e-05 5.56817e-05 6.32821e-05 5.51551e-06 4.03202e-05 0.000587919 0.000546405 3.40595e-05 2.8784e-05 4.60781e-05 1.06275e-05 1.20786e-05 7.70793e-05 6.32238e-06 0.000144575 1.30067e-05 8.728e-05 6.66986e-06 5.73162e-07 3.83469e-05 8.57289e-06 5.12265e-06 2.45113e-05 2.70991e-05 5.73675e-05 4.14878e-05 0.00025273 0.000323181 0.000289526 1.7308e-05 3.60196e-07 1.13794e-05 0.000225214 7.69645e-06 2.84333e-07 0.000365249 3.56913e-05 6.06569e-05 0.000397058 1.11561e-05 6.03123e-06 1.26349e-05 4.69631e-06 8.83008e-06 1.39905e-05 0.000387528 0.00034411 5.11313e-07 8.15427e-06 1.69041e-05 7.26154e-06 0.000237652 0.000238509 4.63436e-05 0.000349814 0.000197529 0.000349844 0.000101817 9.94788e-05 3.76618e-05 7.61776e-05 4.2571e-06 7.37228e-05 0.000107799 1.02176e-05 3.51233e-06 5.56831e-05 4.30617e-05 0.000125346 4.66726e-05 3.58578e-05 0.000113938 0.000478157 0.000453094 0.00068136 0.000350654 0.000421411 0.000426416 6.474e-06 2.77377e-05 1.76271e-05 1.31241e-05 4.35684e-07 3.17605e-05 2.49393e-05 0.00015875 0.000129274 3.87334e-05 4.99874e-05 4.12665e-05 3.82594e-05 3.09055e-05 1.20847e-05 4.81427e-05 2.3036e-07 6.46858e-05 8.17492e-05 7.25768e-05 5.08391e-05 6.46575e-05 1.66633e-07 0.00015541 0.000135485 0.000124247 0.000588298 9.59663e-05 0.000139772 0.00023898 0.000486803 0.000527381 1.04372e-07 5.9062e-06 1.35952e-05 3.43867e-05 3.14106e-05 2.70968e-05 2.45376e-05 0.000352102 0.0003629 0.000486073 0.000507489 3.12374e-05 0.000670204 4.63447e-07 6.21815e-05 3.39286e-05 4.07576e-06 5.45309e-05 7.02601e-06 0.000462176 0.000505986 0.00054535 0.000315097 0.000447069 0.000401054 4.76993e-05 3.45746e-05 1.89439e-05 0.000468797 1.11583e-05 4.81241e-05 4.96618e-05 8.22714e-05 9.5677e-05 3.36028e-05 5.52468e-05 3.0359e-05 1.64817e-05 3.01912e-07 2.67714e-05 1.5851e-05 0.000312205 0.000294501 0.00019465 0.00032896 0.000484564 0.000486888 0.000533769 8.41214e-06 4.09743e-05 1.12179e-05 2.94916e-05 0.00034173 0.000454242 0.000432134 0.000340566 4.57802e-05 0.000430824 2.13147e-05 1.53256e-05 3.18692e-05 8.93874e-06 0.000288003 4.66719e-05 0.000503523 4.13002e-05 0.000466956 0.000376222 0.000472387 0.000488183 0.000580966 0.000342539 0.000408112 4.17018e-06 7.92975e-05 5.21845e-06 3.76388e-06 3.07263e-06 0.000376067 1.11877e-05 0.00047186 0.000328339 0.000415828 5.57171e-06 2.89729e-06 5.2875e-07 1.33358e-05 8.68123e-05 0.000216089 0.000134952 0.000222929 0.000273615 7.75728e-05 1.50659e-05 0.000429335 2.44715e-05 1.99252e-05 3.14909e-05 1.86216e-05 3.73554e-05 5.66566e-05 6.69155e-05 7.94162e-05 1.73445e-05 1.32166e-05 1.9978e-05 3.88879e-05 9.74629e-06 3.03935e-05 5.18175e-06 5.94793e-05 3.72456e-05 3.06755e-05 1.00309e-07 3.70516e-06 0.000520889 1.96186e-05 0.000361148 4.52186e-06 3.13044e-06 5.98424e-06 2.34475e-05 2.01617e-05 3.03733e-06 8.4154e-06 4.70907e-06 2.56609e-06 0.0004099 0.000510236 0.000368756 0.000432211 0.000527475 7.37538e-06 6.72678e-05 5.42121e-05 3.36022e-06 1.52824e-05 0.000268902 0.000215427 1.20369e-05 1.05206e-05 8.46744e-05 6.2629e-06 7.73716e-06 5.44089e-05 0.000173052 1.55673e-07 1.26339e-07 0.00030296 0.000395647 6.56733e-06 0.000275184 1.17188e-05 0.000129251 9.05128e-07 3.87127e-07 1.19103e-05 1.03636e-05 2.12971e-05 2.41971e-05 1.14197e-05 1.88536e-05 9.63735e-06 1.5213e-05 1.45597e-05 0.000286449 8.97958e-06 1.18011e-05 1.22589e-05 0.000359687 0.000460777 8.91001e-06 6.50365e-05 2.03661e-05 0.000479922 9.78158e-05 1.31364e-05 0.000468113 0.000248804 5.36729e-05 4.93403e-05 3.26373e-05 5.24195e-05 2.08468e-05 0.000253287 0.000228652 6.28607e-06 0.000119275 0.000346322 4.99079e-05 4.74965e-06 0.000398452 2.15879e-06 7.20829e-05 5.23728e-07 4.27792e-07 0.000368894 5.50518e-06 5.54013e-06 7.443e-05 6.37345e-05 6.27112e-06 6.00889e-05 4.71064e-05 8.21823e-05 7.2415e-05 3.95277e-07 0.000273739 3.05761e-05 3.82935e-05 8.8353e-06 3.64804e-05 0.000400052 5.70311e-06 1.56532e-05 0.00060071 6.36498e-06 9.93681e-06 0.000517333 0.000493623 0.000270919 0.000247739 0.000263208 1.16429e-05 9.71982e-06 5.93148e-07 2.30506e-05 4.14853e-05 3.4664e-05 4.16868e-06 7.43537e-06 5.46441e-06 0.000181014 0.000182106 0.000257346 0.000215175 1.21638e-05 2.82135e-05 1.3168e-05 6.45172e-06 2.33186e-06 2.63155e-05 2.08241e-05 1.8659e-06 7.44001e-05 2.74297e-06 3.46924e-06 3.6903e-06 5.86211e-06 7.90811e-05 0.000102098 9.72661e-06 4.44711e-06 0.000169425 4.96197e-05 4.34886e-05 5.20598e-05 5.86336e-05 6.03548e-05 1.99593e-05 0.000465701 0.000342339 0.000186174 0.000225718 1.91984e-07 0.00018676 6.06279e-05 6.89971e-06 6.02903e-05 8.30083e-06 5.4975e-05 5.89942e-05 7.74438e-06 0.000264972 1.78087e-05 1.47169e-07 1.51384e-05 1.50218e-05 3.89696e-07 8.84175e-06 3.99223e-07 7.59672e-06 1.0111e-05 1.49964e-05 1.35472e-05 0.000472675 2.70294e-07 0.000413098 0.000347852 3.70186e-07 3.53131e-07 3.81668e-06 4.91439e-06 3.66368e-05 3.97594e-05 0.000356493 0.000174783 6.38116e-05 5.25265e-05 5.57542e-05 5.10605e-05 4.70343e-05 8.19082e-05 3.40557e-05 3.28444e-05 5.27545e-06 0.000183042 0.000130439 8.01002e-06 5.94527e-06 9.0989e-05 0.00013621 0.000426041 0.000247004 7.20711e-06 0.000299258 0.000335723 0.000103705 5.93044e-06 4.57366e-06 0.00031711 3.66594e-06 6.57884e-06 0.000342462 0.000323375 5.52987e-06 0.000352865 0.000276867 0.000207025 0.000193754 0.000363673 0.000205147 5.70311e-06 4.76341e-05 0.000447509 0.000404071 0.000307082 0.000330445 0.000103068 5.48775e-05 5.12324e-05 0.000126075 2.16262e-05 8.23322e-05 2.43908e-05 5.64946e-05 0.000103067 8.14349e-05 0.000127153 6.62366e-05 9.99499e-05 0.000123241 0.000106288 0.000118689 0.000151794 0.000137816 5.1576e-05 0.000352598 0.00023157 0.000125827 0.000102274 0.000116469 3.88723e-06 0.000110329 2.83118e-05 7.2852e-06 5.36849e-05 0.000134233 0.000137057 7.29512e-05 2.14975e-05 2.85559e-05 2.77164e-05 1.94268e-05 2.05214e-05 4.80825e-05 2.33031e-05 4.82633e-05 0.000122014 9.99538e-05 4.75838e-05 1.18881e-05 3.01255e-06 0.000125226 1.65503e-06 9.94049e-05 0.000243569 1.73179e-06 3.20369e-06 6.72455e-05 2.24555e-05 0.000475517 6.89973e-06 0.000335133 0.000464578 0.000296788 0.000188057 3.46174e-07 0.000135058 0.000123344 7.54541e-06 0.000238952 0.000206943 0.000179231 0.000187656 0.000311472 2.53446e-05 3.01517e-05 1.76955e-05 2.15823e-05 1.10383e-05 0.000129822 9.7957e-06 0.000288478 0.000220139 4.77858e-05 5.02606e-05 0.000322134 1.18665e-05 0.000334911 1.41928e-05 2.54715e-06 3.56957e-05 0.000307644 1.71683e-05 4.66694e-06 6.13842e-05 4.49038e-05 8.55125e-06 4.55184e-06 4.57546e-05 2.10819e-05 5.49014e-06 6.90674e-06 7.16659e-06 3.08831e-07 5.54794e-05 6.86035e-05 7.80599e-06 6.14913e-06 0.000194015 0.000242009 0.000286727 0.000262648 0.000284429 0.000353113 0.00030658 1.33987e-05 0.000419421 0.000290625 0.000276261 1.4247e-05 2.73091e-07 3.75454e-05 0.000200635 0.000214544 0.000106829 6.04708e-06 4.89453e-05 9.25963e-06 3.88047e-06 7.34913e-06 0.000115253 2.95293e-07 3.04873e-05 7.86897e-05 3.17929e-05 2.8116e-05 0.000226212 1.56619e-05 1.78879e-07 1.66314e-05 0.000139632 1.90205e-05 9.68825e-05 0.000118881 1.29965e-05 1.36767e-05 0.000208953 5.46672e-05 3.99597e-05 9.59796e-05 0.000149051 0.000105172 3.99249e-05 4.06794e-05 2.79455e-05 2.66217e-05 1.80522e-05 3.5005e-05 2.31542e-05 7.10334e-06 1.16643e-05 1.72421e-05 3.46949e-06 2.91406e-06 6.98506e-06 3.36748e-06 3.08187e-06 1.09417e-05 1.49415e-05 1.22409e-05 0.000352948 0.000218517 0.00025577 1.8349e-05 1.84589e-05 4.25375e-05 1.43469e-05 1.89702e-05 2.08911e-05 2.80705e-05 0.000116025 0.000183275 0.000195646 2.60133e-07 0.000137468 0.000118386 2.91121e-05 8.77341e-06 6.63451e-06 4.31913e-07 5.15743e-05 0.000131327 0.000262136 0.000224674 0.000373988 4.16735e-05 1.59962e-05 5.17108e-05 0.000311519 0.00019821 0.000160831 0.000393439 9.08425e-05 8.76469e-05 9.26925e-05 0.000124995 0.000191611 0.000153248 2.22333e-05 6.70887e-06 6.13262e-05 0.000108917 3.24596e-05 7.55391e-05 6.26517e-05 5.52419e-05 9.73176e-05 0.000156283 0.000134055 8.09173e-05 0.000290544 1.93074e-05 0.000390654 9.66861e-06 1.92256e-05 0.000126494 0.000100803 0.000183665 7.31358e-06 0.000247531 0.000215682 9.48091e-05 1.13052e-05 1.17858e-05 6.50547e-05 0.000168801 0.000133858 5.82325e-05 6.53047e-05 0.000293903 0.000192497 0.00012855 0.00025277 1.60987e-05 9.00811e-06 1.69898e-05 0.000103349 0.000119374 5.62665e-05 3.73515e-05 0.000449965 0.000265482 0.00030108 0.000317045 0.000447826 0.000524215 0.000247818 0.000148949 0.000412997 0.000215974 0.000215421 1.2632e-05 4.01602e-05 0.000132087 0.000199063 2.09995e-05 2.34993e-05 2.40784e-05 4.86532e-05 5.8588e-05 3.3672e-05 2.72719e-05 5.30214e-06 6.80849e-06 5.4365e-06 8.2629e-06 2.0034e-05 5.86289e-06 0.000287879 1.86909e-05 8.2848e-05 2.63654e-06 0.000221033 3.90068e-06 3.85892e-06 0.000191291 3.4185e-06 9.47137e-06 0.000339236 2.9549e-05 5.82543e-05 0.000108665 5.15201e-05 5.90523e-05 4.22271e-06 2.67634e-05 7.79305e-06 0.000278338 0.000304796 0.000187586 1.17595e-05 9.00223e-06 0.000110413 0.000116024 3.41155e-05 0.000264329 0.000123777 0.000464145 0.000248123 0.000364662 0.00033224 0.000429617 0.000218238 9.14665e-05 0.000202585 0.000114886 0.000218451 0.000109945 8.56037e-05 0.00010237 0.000201993 0.000169375 0.000102925 0.000130847 0.000191372 6.14025e-05 5.79381e-05 0.000112389 0.000135388 0.000418264 0.000511431 3.48798e-07 4.8479e-05 7.06259e-05 5.90247e-05 5.38066e-05 3.44813e-06 5.50704e-05 5.93432e-05 3.9605e-06 6.92493e-05 4.38714e-06 0.000196989 0.000198899 0.000175042 4.00499e-05 1.96154e-07 2.39109e-05 2.76016e-05 1.47274e-05 3.3979e-06 9.22701e-07 4.97374e-06 0.00011703 0.000174797 1.76086e-05 0.000167006 0.000520726 0.000438012 0.000182299 0.000560741 0.000391095 3.39081e-05 0.00039546 0.000434396 0.000283286 3.96573e-05 2.43989e-05 8.44399e-06 0.000199506 1.12946e-05 0.000217066 7.1677e-06 0.000208837 6.07038e-05 0.000360236 0.000461886 1.7679e-05 0.000473057 7.39865e-06 5.75162e-06 6.45079e-06 0.000199373 0.000160444 4.16521e-05 0.000133351 5.00798e-05 8.7665e-06 0.000189908 0.000122058 3.88974e-05 3.47275e-05 0.000133336 5.37622e-06 8.86102e-06 4.23305e-06 8.85869e-06 9.83306e-05 0.000583657 0.000118694 0.000190054 0.000116121 4.89928e-06 0.00033052 7.46364e-05 2.15192e-05 0.000269871 2.06582e-05 0.000226755 5.8668e-06 7.27157e-06 5.62722e-05 3.90599e-05 1.20183e-05 4.9709e-05 9.68052e-08 1.72596e-07 7.63289e-05 0.000396499 3.2387e-06 3.91924e-06 0.000322465 0.000229271 0.000154072 0.00010949 0.000191786 4.76525e-06 3.39005e-06 2.88642e-05 1.18743e-05 1.16526e-07 1.30472e-05 0.000121222 0.000170117 0.000507739 0.000436855 4.33893e-05 6.85469e-06 4.41941e-05 1.14833e-05 0.00014653 0.000281053 7.13888e-06 0.00030698 0.000299959 0.000143092 0.000184452 1.07974e-05 1.4305e-05 6.79013e-06 1.44101e-05 4.17657e-05 2.76479e-05 7.86373e-06 1.3224e-05 9.60011e-06 1.77988e-05 2.02698e-05 0.000164974 0.000192735 0.000144927 6.97745e-05 1.36495e-07 0.000172844 1.43873e-05 0.000265229 0.000101839 0.000166681 1.73463e-05 2.98442e-05 9.49773e-05 9.3297e-05 2.41355e-05 1.31408e-05 3.72488e-06 0.000569333 0.00042662 5.21809e-05 3.45132e-05 7.43014e-05 2.0247e-07 1.14978e-05 2.60004e-05 2.77177e-06 8.54848e-06 0.000100786 5.91017e-06 4.36848e-06 2.97696e-06 0.000204754 0.000148046 2.88822e-07 6.7571e-05 0.000521121 0.000111322 5.33703e-05 0.000443537 3.59623e-05 9.19999e-05 6.13451e-05 0.000541054 2.95802e-05 4.85535e-05 5.52063e-06 4.4437e-05 5.58233e-05 0.000110265 9.30667e-05 0.000198351 0.000194974 0.000115058 6.41188e-06 8.32992e-06 0.000531867 6.51053e-05 4.96752e-05 5.05164e-05 8.93601e-05 2.6878e-05 0.000171738 4.15988e-05 3.7997e-05 8.66458e-05 4.57003e-05 1.07223e-05 3.6784e-06 3.05162e-06 2.77405e-06 1.49543e-06 5.61995e-07 2.31512e-05 2.45365e-05 4.05188e-07 2.27079e-07 4.87768e-05 7.14252e-05 7.31453e-05 1.33938e-06 6.16309e-05 3.53114e-05 0.000188886 0.000145026 0.000116176 0.000172154 0.000502007 0.000133225 0.000315069 0.000249203 2.67375e-05 4.42706e-06 1.32622e-06 2.02908e-07 0.000205762 1.04883e-05 6.2871e-06 0.000130165 2.40293e-07 8.01368e-05 0.000433332 0.000280305 3.06346e-06 0.000219304 0.000162305 8.64122e-05 7.04431e-05 0.00010748 4.09779e-05 0.000181235 0.00014887 0.00021513 7.41337e-05 0.000312318 3.61193e-05 2.5473e-06 3.78096e-06 0.000273167 0.000182073 1.13315e-05 1.99572e-05 2.86135e-05 4.77627e-05 4.49507e-05 7.01701e-06 4.51704e-05 9.91887e-06 1.06814e-05 3.65921e-06 9.31974e-06 5.75285e-06 4.71311e-07 2.21883e-05 4.24314e-05 0.000243739 2.43915e-05 6.05021e-05 0.000254392 3.97685e-06 3.48962e-05 3.02758e-05 1.50286e-05 2.09204e-05 0.000113248 5.6409e-05 4.44339e-05 0.000108276 0.000143893 0.000317295 2.21802e-06 3.93663e-07 5.26946e-06 1.52673e-07 5.73077e-05 0.000446256 0.000173581 0.000153867 0.000250975 0.000154437 0.000170622 2.59842e-05 4.52263e-05 2.57077e-05 0.00061068 5.49669e-05 3.4782e-05 6.8002e-05 3.3239e-05 2.88781e-05 6.15305e-05 0.000270778 3.23722e-05 5.39013e-05 3.8204e-05 4.95493e-07 4.03487e-05 1.17925e-05 7.2266e-07 2.70192e-05 2.34614e-05 3.35256e-05 5.79564e-06 1.61297e-05 5.97169e-05 0.000104737 2.84973e-05 8.15427e-06 9.14783e-06 5.05979e-06 2.25387e-05 4.58697e-05 1.54477e-07 0.000330168 2.55634e-07 0.000394646 8.1618e-06 3.70494e-06 0.000473965 0.000435637 0.000469994 3.10363e-05 1.29115e-05 0.00059914 4.00469e-05 8.89991e-06 1.98252e-05 0.000435548 0.000423314 5.0523e-05 0.0002035 0.000432213 0.000311298 2.15189e-05 0.000593763 0.000435249 1.12087e-05 0.000754568 0.000106608 0.000546506 1.16928e-05 0.00055869 0.000521035 0.000195904 0.000397489 1.36936e-05 0.000328946 0.000487537 0.000446739 4.3827e-05 0.000613693 5.78303e-05 5.01532e-06 4.18522e-05 3.41823e-05 3.27726e-05 8.86812e-05 0.000152744 0.000474052 0.000136954 9.84604e-05 3.10288e-06 5.15783e-06 0.000414104 0.000357565 0.000476261 5.88262e-06 9.06955e-06 4.03616e-06 2.28348e-05 1.98924e-05 3.65278e-05 0.000202996 0.000187061 0.000160317 0.00020271 0.000158845 5.03996e-05 0.000152735 0.000197187 6.89816e-06 3.87947e-06 9.53138e-06 5.27062e-06 0.000432615 0.000363266 5.04953e-06 7.31626e-06 0.000126811 2.02491e-05 0.000414365 0.000544458 0.00061629 0.000120395 8.66313e-05 7.55071e-05 7.71522e-05 5.34537e-06 2.32169e-05 0.000426068 1.27456e-05 0.000191951 0.000111012 0.000200425 0.000225825 0.000245767 0.000222851 4.27177e-05 0.000250951 9.60343e-05 3.80924e-05 0.000174807 3.7891e-05 5.35358e-05 0.00015433 4.43361e-06 2.30383e-05 2.28292e-05 6.29278e-05 1.90568e-05 8.13449e-06 0.000167532 0.000167842 0.000157028 3.33088e-05 0.000405606 1.15497e-05 8.79262e-06 2.56247e-05 0.000242753 0.000248945 5.16336e-05 0.000109082 7.73382e-05 6.70397e-05 7.33625e-05 0.000285625 9.28882e-05 1.27711e-05 1.03132e-05 5.57371e-06 0.000217853 8.71161e-06 9.07772e-06 0.000181934 0.000113346 0.000320445 0.000285036 5.60698e-06 0.000340742 0.000212932 0.000439907 0.000365685 0.000483847 0.000328759 6.38686e-05 0.000454537 0.00037707 1.47485e-05 0.000376148 0.000403669 2.79547e-05 0.000379557 0.000106467 0.000147627 0.000156348 5.27997e-06 9.76693e-06 2.60381e-06 4.06504e-05 0.000111823 4.28142e-05 0.000176166 0.000135272 0.000173918 2.19085e-06 3.81849e-05 3.48084e-05 3.02193e-05 3.01401e-05 4.60269e-06 7.65685e-06 9.09677e-06 2.79843e-06 0.000131057 0.000151407 9.79294e-06 4.42686e-05 2.95802e-05 5.57025e-05 3.06565e-05 9.0115e-06 0.000710223 3.83488e-05 3.48152e-05 8.62438e-05 0.000576058 5.05918e-05 1.12172e-05 7.36316e-06 0.000156242 0.000116728 8.28883e-06 0.000105461 4.40022e-05 5.64877e-06 3.97366e-05 0.000159133 4.72823e-05 0.000103079 0.000202346 3.95083e-05 5.00216e-05 2.60199e-05 7.91139e-05 6.3555e-05 3.89564e-05 9.39698e-06 2.25158e-05 0.000110094 8.48974e-05 2.92939e-05 3.53804e-05 6.80859e-05 7.39538e-05 7.19589e-05 3.58523e-05 4.6663e-05 3.32543e-05 0.000485905 7.07612e-05 0.000472959 2.92907e-05 4.0912e-05 5.56195e-05 2.7954e-05 2.76783e-05 3.88532e-05 0.000549455 0.000461744 6.0762e-05 2.7109e-05 9.3883e-05 0.000243377 3.65876e-05 3.916e-05 4.88374e-05 3.60097e-05 3.98927e-05 4.25519e-05 5.31581e-05 4.95135e-05 0.000187062 0.000141094 3.54831e-05 0.00039142 2.52485e-05 3.83817e-05 0.000113251 0.000125675 1.14234e-05 1.21338e-05 1.32084e-05 3.08921e-06 2.46567e-06 3.02384e-06 4.34295e-06 0.000118322 0.000351329 0.00014673 7.2258e-05 0.000141414 2.66553e-06 2.16672e-05 2.93619e-05 3.2846e-05 5.67118e-05 2.99344e-05 0.000118615 0.000201528 0.000152318 0.000135018 0.000121353 3.03265e-05 2.05675e-05 2.80194e-05 0.000110054 1.53841e-05 0.000108627 2.41641e-05 1.14943e-05 2.7474e-05 2.12753e-05 3.50316e-06 2.47368e-05 0.000137598 1.29452e-05 0.000330507 0.000140735 7.74235e-05 1.04233e-05 1.79701e-05 0.000102767 2.43578e-05 1.74497e-05 0.000291794 0.000226694 8.81475e-05 0.000300729 2.55175e-05 0.000144067 0.000160407 0.000119217 6.409e-05 2.39679e-05 5.05527e-05 3.89828e-05 7.71195e-06 5.96345e-05 1.94828e-05 2.37367e-05 3.81365e-05 0.00036677 0.00023953 0.000308103 3.2115e-05 1.32539e-05 1.26521e-05 2.51501e-05 1.99097e-05 0.000115029 9.7386e-05 0.000228557 0.000117038 0.000185118 0.000261927 0.000128658 1.45929e-05 0.000181206 1.91305e-05 1.29127e-05 0.000111929 0.000300173 0.000258792 6.42235e-06 3.28687e-05 2.94843e-05 0.000344321 0.000522877 1.47588e-05 0.000405042 7.04139e-05 4.92254e-05 0.000166659 9.62596e-05 0.000185239 1.76143e-05 1.86416e-05 0.000148582 0.000111126 1.49808e-05 0.000534358 0.00032638 0.000478552 2.47964e-05 0.000419912 0.000500128 0.000366622 3.77085e-05 0.000107016 0.000224168 0.000236367 0.000192854 0.000126274 2.26942e-05 0.000182405 0.000173394 1.02802e-05 5.82108e-05 2.93244e-05 0.000532328 0.000469126 0.000522111 6.9849e-06 2.145e-05 1.37731e-05 8.48059e-06 0.000142775 0.000111949 0.000177444 2.05208e-05 2.06308e-05 8.90423e-05 3.97854e-05 0.000148209 3.48039e-05 0.000126667 2.56373e-05 2.80452e-05 0.000469849 0.00027003 7.99796e-05 4.9715e-05 0.000570976 3.03896e-05 2.84766e-05 0.000224256 0.000154279 5.49865e-05 0.000245968 0.000180965 0.000131441 1.8201e-05 5.02605e-05 6.06082e-05 9.68899e-05 6.96368e-05 3.75426e-05 4.52354e-06 1.36509e-05 2.12269e-05 5.28669e-06 5.35136e-06 4.80467e-05 6.6822e-06 4.54729e-06 0.000271115 0.000186346 0.000326554 0.000353935 5.78112e-05 5.8849e-05 2.09363e-06 4.18941e-05 0.000133565 7.44599e-05 5.19494e-06 1.70178e-05 1.20461e-05 0.000362256 0.000360527 9.45695e-05 0.000186562 0.000337299 0.000277089 0.000353756 0.000352551 4.52999e-05 6.33344e-05 0.000497711 5.01875e-05 6.60706e-05 0.000141995 1.344e-05 3.70127e-05 2.22013e-05 1.78494e-05 1.52576e-05 1.47703e-05 1.80689e-05 0.000125256 0.000143632 1.91247e-05 1.92801e-05 0.000115093 3.85752e-05 0.000161013 7.94717e-05 0.000162364 4.54126e-05 7.52816e-06 5.35041e-05 5.57088e-06 1.07025e-05 0.000186806 0.000345923 0.000244308 0.000128438 6.77706e-05 3.04051e-06 1.28904e-05 0.000170482 2.13888e-05 3.66884e-05 4.62783e-05 2.17421e-05 1.9568e-05 7.26371e-05 5.60821e-05 1.70784e-05 8.12439e-05 3.64217e-05 2.58285e-05 3.63894e-05 1.61954e-05 2.06022e-05 3.86366e-05 1.75247e-05 1.7099e-05 2.09361e-05 0.00010669 0.000127478 3.32727e-05 0.000124656 8.63654e-05 0.000128897 0.000139538 0.000110254 1.39321e-05 5.10572e-05 6.06991e-05 4.2955e-05 2.03896e-05 6.72566e-05 1.05697e-05 2.88757e-05 0.000418755 0.000527503 7.17236e-05 2.10818e-05 0.000382296 0.000396203 8.41734e-06 4.73701e-05 3.44616e-05 8.02669e-05 5.03232e-05 0.000209372 1.66409e-05 8.53187e-06 6.06326e-05 0.000223618 0.000204825 0.000517431 0.000101837 0.000121416 5.57866e-06 1.50154e-05 0.000248414 2.26565e-05 2.03722e-05 1.44223e-05 2.30711e-05 2.0794e-05 7.94798e-06 4.63455e-05 0.000217441 3.32482e-05 6.27188e-06 9.15471e-05 5.88688e-05 9.58594e-05 2.2607e-05 2.18214e-05 2.03392e-05 2.71276e-05 1.99641e-05 3.3998e-05 3.25784e-05 1.08128e-05 1.25129e-06 1.7877e-06 1.15706e-06 0.000202132 0.000155653 0.000159594 0.000294013 0.000209329 1.79848e-06 1.71389e-05 0.000336314 0.000413581 0.000307596 0.00042865 0.000215372 0.000329037 1.16833e-05 0.000522026 0.000738991 0.000485899 0.00059965 1.74095e-05 0.000153386 0.000145359 0.000117943 0.000372369 7.21972e-05 7.74634e-05 8.49784e-05 6.31851e-05 0.000516004 0.000451571 0.000240204 6.64838e-05 8.99166e-05 5.50978e-06 5.8735e-06 0.000127531 0.00020477 4.78621e-06 2.7499e-05 4.71062e-05 0.00032485 2.1041e-05 0.000277755 0.000397168 3.00106e-05 0.00012517 1.93354e-05 2.2055e-05 2.3679e-05 3.76214e-06 8.30827e-06 2.79653e-05 3.66002e-05 1.91364e-05 2.11275e-05 6.92841e-06 0.000107927 8.46655e-06 5.95553e-05 1.97469e-05 3.0026e-05 7.4757e-05 2.14455e-05 3.3524e-05 0.000226679 0.000134543 0.000231053 0.000126819 6.15145e-05 5.2247e-05 3.70676e-05 4.32909e-05 8.09711e-05 2.4132e-05 4.94503e-05 2.84279e-05 0.000118835 0.000195462 0.000143314 0.000255593 0.000112632 0.000220759 0.000291139 0.000324409 2.38727e-05 5.50763e-05 0.000193667 0.000221912 5.96304e-05 0.000106039 5.33907e-06 0.00013452 3.09577e-05 2.67564e-05 4.73313e-05 2.8795e-06 9.37743e-05 6.339e-05 2.82835e-06 6.02835e-06 5.43069e-05 4.087e-05 1.31064e-05 2.16318e-05 0.000282961 0.000168432 0.000301604 2.70121e-05 0.000459689 0.000356805 0.000153896 0.00029544 0.000305515 2.33709e-05 0.000212777 0.000425595 2.36639e-05 0.000313789 0.000197866 0.000276332 0.000245835 1.12692e-05 3.04985e-06 4.16027e-05 0.000152238 6.4364e-06 3.82957e-06 3.29845e-06 0.000451739 1.2248e-05 0.000430352 0.000318083 1.16292e-05 1.3286e-05 2.46274e-05 9.69634e-05 8.95781e-05 0.000155152 0.000202579 0.000108549 1.44332e-05 8.32396e-06 0.000163554 2.48122e-06 6.01598e-06 4.76917e-05 0.000106474 0.000179012 0.000177819 0.000140943 0.00015119 3.96882e-05 6.5158e-05 0.000291668 0.000363546 0.000425502 4.91116e-05 6.05913e-05 0.000131538 9.46364e-06 8.20317e-06 8.20866e-06 9.758e-06 0.000145793 1.06555e-05 0.000334419 5.77896e-05 0.000126693 8.69716e-06 1.18416e-05 6.25818e-06 0.000154283 0.000195997 0.000189384 0.000165242 7.8086e-05 7.79234e-05 8.44496e-05 0.000164267 0.000210816 0.000222572 0.000170713 0.000162615 0.000135015 0.000228857 4.72889e-06 3.09645e-05 4.64128e-05 2.73791e-05 2.87367e-05 1.66255e-05 1.93935e-05 7.46591e-05 8.62839e-05 5.97678e-06 0.000109009 4.71697e-06 5.97027e-06 0.000132817 2.03543e-05 2.99462e-05 3.77224e-05 4.9149e-05 2.32631e-05 8.89078e-05 6.80707e-05 2.62698e-05 6.98494e-06 2.41742e-05 7.70731e-05 2.90264e-05 8.29358e-06 0.00014082 2.81163e-05 0.000293362 0.000372983 0.000259119 0.000385093 0.000346435 5.2725e-06 5.65321e-06 0.000127127 1.13043e-05 7.04474e-05 9.18069e-06 0.000191093 0.000229787 0.000192452 3.1406e-05 2.08968e-05 0.00013114 0.000139698 0.000108697 0.000201995 4.46952e-06 0.000195521 2.29807e-05 2.67632e-05 1.00209e-05 1.94009e-05 2.473e-05 1.97844e-05 0.000132153 0.000166943 0.000100546 2.6795e-05 2.11804e-05 0.000323486 0.000129284 9.13024e-05 3.66196e-05 0.000101952 4.34213e-05 1.87439e-05 6.47453e-05 4.35891e-05 1.23285e-05 3.07561e-05 5.0467e-05 0.000418557 8.83614e-06 1.70979e-05 3.64541e-05 0.000426613 0.00042754 1.15862e-05 0.000267483 0.000258451 2.83742e-05 2.76195e-05 2.88465e-05 0.000494792 9.40053e-06 0.00038056 0.000452897 0.000561321 0.00049713 4.26389e-05 5.73392e-05 1.97893e-05 5.11401e-06 4.61852e-05 1.18299e-05 8.65398e-05 7.93597e-06 1.05331e-05 7.17858e-05 0.000123355 5.56656e-05 2.50708e-05 1.06094e-05 3.81963e-05 3.77336e-05 2.53446e-05 2.01869e-05 8.55337e-05 2.69165e-05 1.12103e-05 0.000112095 5.46845e-05 0.00017209 2.02872e-05 6.50907e-05 5.68664e-05 3.96366e-05 6.9282e-05 4.65491e-05 2.49911e-05 2.38339e-05 2.89491e-05 1.74545e-05 1.46452e-05 1.25219e-05 3.90678e-05 3.86147e-06 0.000389121 0.000121242 0.000112717 7.88671e-06 2.64641e-05 2.26825e-05 4.62619e-05 1.64461e-05 2.29505e-05 2.51252e-05 1.62332e-05 4.07174e-06 3.07986e-05 1.52773e-05 1.9642e-05 3.41214e-05 0.000209162 1.17581e-05 9.32092e-06 7.61271e-06 2.66494e-05 1.58375e-05 3.13446e-05 1.19577e-05 3.32554e-05 3.71315e-05 2.41533e-05 4.6448e-06 3.97988e-06 9.03236e-06 8.35065e-06 8.78034e-06 5.60082e-06 6.41412e-06 1.16067e-05 6.65541e-05 8.94246e-05 6.00407e-05 3.18907e-05 4.99803e-06 4.6444e-05 8.84197e-06 5.82828e-06 7.17811e-05 3.20137e-05 0.000103066 4.61953e-06 3.37732e-05 3.07995e-06 0.000195084 0.000180875 0.000141831 0.000134636 1.29135e-05 3.97598e-05 4.91895e-05 0.000202219 8.45498e-05 4.41322e-05 2.21853e-05 2.76311e-06 2.04358e-05 2.31526e-06 8.15665e-05 7.00672e-05 5.22012e-05 3.62278e-05 4.2097e-05 0.000104148 3.75266e-06 1.70038e-06 8.79454e-05 2.44104e-05 7.91664e-05 4.26762e-06 2.08383e-05 5.63668e-06 1.87496e-05 3.95932e-05 7.4254e-06 1.50936e-05 6.2636e-05 7.63695e-05 7.09877e-06 8.36335e-07 4.96051e-06 0.000352315 0.000292451 1.08522e-05 2.54008e-06 2.78697e-05 2.15391e-05 0.000175955 9.84875e-05 0.000169596 5.0605e-05 0.000161365 4.45326e-05 3.24369e-06 9.30578e-05 4.71589e-05 0.000114981 7.70043e-05 2.23304e-05 1.9044e-05 1.76808e-05 7.40574e-05 7.14578e-06 2.55389e-05 0.000106853 1.5787e-05 3.78274e-06 5.37285e-06 4.44767e-06 2.60164e-06 2.04837e-05 7.90864e-06 3.35948e-06 6.38122e-05 2.45821e-06 4.48042e-06 5.06792e-05 3.91369e-05 4.76456e-05 3.18934e-05 8.45941e-06 0.000372473 1.45395e-05 0.000309747 1.49172e-05 9.45632e-05 0.000209317 0.000120509 9.81944e-06 4.65895e-05 9.08265e-06 5.78799e-05 3.6499e-05 1.79708e-05 6.576e-05 2.03316e-05 5.44216e-05 1.00406e-05 9.64001e-05 0.000119307 8.4474e-05 3.51119e-05 6.46291e-06 8.65068e-05 2.47892e-05 6.49315e-05 1.70663e-05 2.35904e-05 2.88829e-06 2.72569e-05 0.000129509 2.15072e-06 0.000155911 0.000130087 3.78289e-06 0.000235967 3.86361e-06 2.73066e-05 7.82501e-05 8.06218e-05 3.05922e-05 2.75832e-05 2.05939e-05 0.000360862 3.67162e-05 5.40261e-05 5.6958e-05 4.49218e-05 2.76415e-06 4.17052e-05 4.33763e-05 2.41554e-05 2.70978e-05 1.90099e-05 5.90902e-05 2.51539e-06 2.60241e-05 4.8241e-05 2.54974e-05 2.35528e-06 1.35948e-06 3.35902e-06 6.87843e-06 8.10167e-06 1.45834e-05 9.92058e-06 9.15811e-05 5.97161e-05 1.46179e-05 6.65225e-06 0.000365396 1.61928e-05 2.24691e-05 5.78103e-06 1.88999e-05 1.73285e-05 1.07871e-05 0.000102958 2.19891e-05 3.48123e-05 2.71952e-05 4.62652e-05 8.12407e-05 6.72418e-05 6.32926e-05 0.000128171 3.23285e-05 3.54098e-05 0.000104151 2.63852e-05 3.24673e-05 3.99995e-06 3.03432e-05 7.31768e-06 7.44718e-05 1.73126e-05 8.60162e-05 0.000367521 0.000456074 7.87766e-06 9.56704e-05 0.000101284 0.000531498 0.000110033 3.46292e-05 0.000138995 8.27844e-06 1.25414e-05 1.51275e-05 0.000328227 7.01127e-05 7.88818e-05 0.00040793 0.000378555 1.19496e-05 6.14624e-05 2.04073e-05 7.98918e-06 4.06042e-05 2.66042e-05 0.000368648 0.000358174 0.000311955 0.000515653 5.57711e-05 0.000151413 3.25596e-06 3.06385e-05 6.42022e-06 4.18068e-05 9.8031e-06 6.90936e-05 0.000106546 5.46352e-05 3.62233e-06 2.88487e-05 9.7502e-06 8.69014e-06 9.82714e-06 1.53433e-05 3.36912e-06 8.27661e-05 2.16727e-05 0.000140886 1.63327e-05 6.11827e-06 1.17296e-05 1.87861e-05 1.57562e-05 5.35816e-06 3.3751e-05 7.75176e-06 7.1277e-05 1.79001e-05 1.34196e-05 1.63473e-05 1.06424e-05 1.26043e-05 1.9077e-06 9.10494e-05 2.37869e-05 7.25891e-06 8.03835e-06 2.20814e-05 2.29438e-05 2.00577e-05 6.09279e-05 1.96745e-05 1.68932e-05 4.50453e-05 5.35433e-05 4.64262e-05 1.76936e-05 6.30661e-05 0.000106904 2.25196e-05 3.84655e-05 5.60172e-05 4.06097e-05 2.27689e-05 7.39241e-06 6.14775e-05 2.03287e-05 4.96728e-05 4.20261e-05 6.04464e-06 5.58702e-06 0.000156189 2.55674e-05 3.93249e-06 1.9801e-06 6.30899e-05 9.07536e-06 5.68592e-06 1.88516e-05 2.39098e-05 4.41501e-05 3.04602e-05 3.14898e-05 1.85497e-05 1.78689e-05 2.28701e-06 0.000110359 5.48017e-05 0.000478731 0.000463957 0.000442321 0.00051179 0.000428506 4.41405e-05 3.21398e-05 3.02312e-05 2.78334e-05 3.49228e-05 3.40681e-05 3.98873e-05 2.54007e-05 1.63753e-05 3.66405e-05 4.27973e-05 3.79336e-05 6.41704e-05 0.000143844 7.98158e-05 2.57099e-05 2.19034e-06 3.02606e-06 9.78072e-05 3.90298e-05 3.73453e-05 1.62146e-05 5.90069e-05 2.52172e-05 5.12073e-05 2.28982e-05 2.7429e-05 2.09261e-05 6.06517e-05 8.23794e-05 5.94457e-05 5.25871e-05 2.67715e-05 0.000230682 3.14826e-05 2.23028e-05 1.73583e-05 4.36229e-06 9.38339e-06 3.37385e-05 5.59082e-05 0.000268914 0.000326495 0.000479928 3.36342e-06 2.61656e-05 2.58525e-05 4.05995e-06 0.000430759 3.26028e-05 2.36814e-05 1.93694e-05 3.85747e-05 0.000396966 0.000395466 0.000390473 5.69857e-06 2.50479e-05 0.000533345 0.000407386 0.000501033 0.000488921 0.000465358 0.000389704 0.000435679 1.07887e-05 0.000172753 0.000170542 0.000152215 0.00012029 0.000122215 2.33786e-06 0.00010572 9.73068e-05 2.17141e-05 3.63292e-06 4.26891e-05 1.19076e-05 1.7746e-06 2.80473e-05 4.4665e-05 3.57551e-06 3.28309e-06 5.34483e-05 3.88877e-05 5.62485e-05 8.99117e-05 1.9826e-05 7.24719e-05 2.4043e-06 0.000137793 5.17374e-05 4.15737e-05 0.000369219 0.000387182 1.77601e-05 1.93107e-05 4.43616e-06 0.000145636 2.93655e-05 1.15461e-05 4.9177e-05 2.65803e-05 3.20582e-05 4.34301e-05 5.07705e-05 6.22084e-05 5.23481e-05 0.000103905 2.85398e-05 1.71086e-06 4.60319e-06 9.84117e-05 6.84092e-05 8.81004e-05 5.11723e-05 4.75842e-05 2.73936e-05 0.000191313 5.94545e-06 1.91033e-05 0.000162877 0.000128536 1.67847e-06 1.75357e-05 1.70449e-06 5.44271e-06 0.000284152 0.000128575 0.000135659 0.000194119 1.25324e-05 5.94266e-06 0.000159734 6.19803e-05 3.15059e-05 4.58496e-06 3.85539e-05 1.4205e-05 5.92133e-06 9.69241e-06 3.60306e-06 2.16135e-05 1.20432e-05 1.55519e-05 1.32956e-05 2.08531e-05 0.000257148 1.60736e-05 2.81688e-05 4.15024e-05 4.63256e-05 3.44964e-06 6.36694e-06 4.09412e-06 4.16844e-06 1.63305e-05 1.29397e-05 1.48314e-05 2.88625e-05 5.87172e-06 1.19071e-05 9.71878e-06 1.56948e-05 8.99505e-06 5.46852e-05 2.19107e-05 5.46137e-05 1.38082e-05 1.18437e-05 1.82158e-05 7.20049e-06 6.51988e-05 7.47149e-05 1.54643e-05 4.1853e-05 1.4685e-05 1.83321e-05 9.77828e-05 0.000197455 0.000169408 5.76343e-05 5.53417e-05 5.04524e-05 8.5833e-05 5.1811e-05 5.73769e-05 4.87668e-05 5.58588e-05 1.28199e-05 5.66007e-05 4.17296e-05 4.72828e-05 4.81675e-06 2.65287e-06 5.98131e-06 0.000111574 0.000183567 0.000162924 0.000151354 0.000240648 1.62574e-05 1.6737e-06 1.15021e-05 0.000114299 5.59455e-05 1.00175e-05 2.70963e-05 1.5437e-05 0.000183756 7.39275e-05 7.26066e-05 5.57965e-06 5.29336e-05 3.74424e-05 2.42793e-05 2.53519e-05 2.40487e-06 2.755e-06 9.35573e-06 1.03157e-05 3.26575e-05 2.29773e-06 3.27547e-05 7.52326e-06 8.29157e-06 9.85718e-07 0.00018665 0.000278805 0.000267219 0.000205579 2.48579e-05 1.05938e-06 5.48417e-05 3.16079e-05 2.51516e-05 3.24198e-05 4.29011e-05 2.49588e-05 1.75339e-05 1.7643e-05 3.12312e-05 8.98645e-06 5.76483e-05 0.000205684 1.16366e-05 2.7281e-05 0.000116064 0.000123417 4.92702e-05 4.67825e-05 2.19167e-05 3.03024e-05 4.865e-06 7.24841e-05 4.41219e-05 0.00017719 2.32627e-05 3.67346e-05 0.000141347 8.10078e-05 0.000187588 0.000147286 2.95233e-05 1.43695e-05 5.45962e-06 2.34902e-05 0.000140764 0.000119748 0.000104535 7.8065e-05 0.000451735 1.05871e-05 4.07573e-05 0.000100072 3.12762e-05 7.37033e-05 5.34764e-05 7.90754e-05 9.06715e-05 6.90745e-05 3.77352e-05 3.20451e-05 3.28629e-05 0.00013979 3.5874e-06 3.52612e-06 3.01813e-05 4.97122e-06 5.4201e-06 8.11683e-06 4.74552e-06 0.000271459 0.000244688 0.000141701 0.000311539 1.89374e-05 3.73274e-05 0.00010963 3.29067e-05 0.000111119 6.92872e-05 5.14439e-05 5.96644e-05 0.000312997 0.000203861 0.000109152 0.000103302 8.89932e-05 0.000157329 0.000191592 0.000136527 0.000108939 0.000146991 0.000183006 0.000118977 1.69335e-05 1.08078e-05 0.000116795 2.15289e-05 7.58522e-06 0.000168577 0.000203579 1.03234e-05 6.62811e-06 0.000213203 7.16254e-06 1.46444e-05 6.26325e-05 3.64094e-05 9.97809e-06 0.000166015 0.000140969 0.000216404 0.000191887 7.15022e-05 3.32719e-05 5.97035e-05 7.35313e-05 1.135e-05 8.12867e-06 3.08984e-05 3.82313e-05 0.000601885 3.12614e-05 0.000406038 2.35849e-05 3.31329e-05 3.90327e-05 2.6658e-05 2.93655e-05 1.0766e-05 3.42293e-05 1.11214e-05 3.5916e-05 1.08376e-05 5.81294e-06 0.000173868 1.098e-05 6.31092e-06 2.65829e-05 1.09282e-05 3.98642e-05 5.40623e-05 0.000134721 5.71815e-06 0.000131619 3.5685e-05 4.87279e-05 2.93689e-05 5.70383e-05 6.42115e-06 3.73802e-05 6.49824e-05 3.16346e-05 2.1295e-05 3.48484e-05 0.000322678 0.000291623 1.27327e-05 1.47402e-05 3.12456e-05 3.39967e-05 0.00010114 7.82672e-05 2.42237e-05 9.83764e-06 4.52116e-05 1.54508e-06 1.55949e-05 3.07889e-05 2.34742e-05 4.81375e-05 4.26658e-05 5.996e-06 4.4994e-06 2.3159e-05 2.09985e-05 1.90631e-05 3.90803e-05 4.41168e-05 3.45006e-05 1.93154e-05 3.77762e-05 0.000133793 0.000116081 0.000151501 3.93917e-05 6.64021e-06 8.68433e-06 6.68374e-06 4.76574e-05 5.2958e-05 6.19838e-05 4.80942e-05 5.08317e-06 5.61354e-05 1.86358e-05 7.57125e-06 1.52732e-05 1.84017e-05 2.48572e-05 0.000178665 0.000180257 0.000353077 2.3619e-05 2.51492e-05 0.00011716 0.000147718 1.18452e-05 0.000210534 2.73296e-06 5.89239e-05 6.74017e-05 2.07197e-05 3.48119e-06 1.48997e-05 3.24729e-05 1.06715e-05 5.80116e-05 2.07538e-05 9.45109e-05 3.29611e-05 9.76277e-06 2.49652e-05 7.66496e-06 2.23374e-05 2.38203e-05 1.54396e-05 8.94657e-06 0.000141863 3.77052e-05 3.52911e-05 1.66911e-05 1.90079e-05 9.01021e-05 2.70658e-05 4.57455e-05 6.4337e-06 6.48817e-05 3.84759e-06 4.84271e-05 4.6969e-05 2.49165e-05 1.03898e-05 2.78745e-05 3.77388e-05 4.89838e-05 4.29458e-05 3.15311e-05 3.26934e-05 3.75466e-05 2.26971e-05 4.0743e-06 2.48499e-05 4.32708e-06 3.22666e-05 2.82336e-05 3.29172e-05 3.08175e-05 2.26974e-05 3.62006e-05 1.85546e-05 2.67929e-05 3.94082e-06 3.97882e-05 1.94693e-05 2.74172e-05 1.68977e-05 1.76889e-05 8.87549e-06 6.04206e-06 5.11358e-06 1.37308e-05 0.000133957 1.68711e-05 0.000141663 0.000102303 8.40342e-05 1.89713e-05 2.15766e-05 9.52257e-06 7.56656e-06 9.02288e-05 7.47287e-05 9.4008e-06 6.85463e-06 3.64976e-06 1.65351e-05 0.000114854 1.68059e-05 1.28825e-05 0.000106261 0.000110594 0.000104237 2.15196e-05 1.18129e-05 4.20098e-05 4.15754e-05 3.85518e-05 1.56994e-05 4.83525e-05 1.91806e-05 4.00539e-05 7.3419e-05 6.07587e-05 1.50359e-05 1.69416e-05 2.59734e-05 8.55556e-06 2.66525e-05 1.35387e-05 7.56119e-06 1.10197e-05 1.16205e-05 6.03357e-05 2.76354e-05 4.37539e-05 4.45479e-05 3.31438e-06 1.02028e-05 0.00014869 0.000195191 0.000438945 5.51874e-06 3.98187e-05 5.17401e-06 5.73783e-05 2.27089e-05 1.62539e-05 2.14331e-05 1.04583e-05 1.56131e-05 2.65176e-05 6.04316e-06 2.77733e-05 2.75869e-05 2.44715e-05 0.00046234 4.22663e-05 0.000369277 2.63048e-05 0.000341138 1.65865e-05 7.23253e-06 4.05118e-05 0.000325296 4.76739e-05 1.6673e-05 1.76244e-05 0.000497062 3.4542e-05 1.02659e-05 1.37085e-05 2.06964e-05 1.23778e-05 8.71783e-06 0.000113242 0.000128991 2.02263e-05 2.59857e-06 2.3164e-05 3.43837e-05 5.03097e-05 3.08519e-05 5.81441e-05 2.99929e-05 8.72945e-05 0.00014698 9.82751e-05 3.7396e-05 5.36192e-05 1.91571e-05 2.95878e-06 6.09492e-06 2.14189e-06 1.75488e-06 3.03433e-06 2.86616e-06 2.01803e-06 2.76285e-06 2.16785e-05 5.10845e-05 1.57582e-05 1.47099e-05 2.30657e-05 2.82441e-05 2.67707e-05 2.49043e-05 2.43747e-05 2.62702e-05 2.37448e-05 0.000349353 0.00041167 1.46105e-05 2.95806e-05 3.13144e-05 2.64113e-05 6.76286e-06 1.46682e-05 2.14848e-05 3.77065e-05 1.5743e-05 2.12381e-05 4.85581e-05 2.29668e-05 3.623e-05 2.61426e-05 6.89876e-05 4.03605e-05 2.36183e-05 3.13128e-05 3.63721e-06 4.87168e-05 0.000182917 9.86677e-06 7.30273e-05 4.05889e-06 5.35857e-05 1.05897e-05 9.08108e-05 1.30626e-05 5.47037e-06 8.48134e-05 3.3262e-06 1.07148e-05 1.00665e-05 1.41861e-05 1.71579e-05 2.16816e-05 1.16201e-05 7.86194e-06 0.000483275 1.18438e-05 0.000438995 5.10421e-06 4.72024e-06 5.60823e-06 8.54755e-06 1.12301e-05 2.15465e-05 4.68987e-06 8.83212e-05 1.75815e-05 2.01757e-05 1.15862e-05 1.24367e-05 1.45782e-05 1.46775e-05 9.89303e-06 0.00030769 0.000571551 4.48773e-05 5.54786e-05 5.85288e-06 0.000534064 3.08673e-06 5.35209e-05 3.00848e-05 3.11848e-05 0.000131682 4.2438e-05 0.00027107 0.000182672 0.000878037 0.000647636 0.000272252 2.59432e-05 3.04414e-05 1.68572e-05 1.33816e-05 1.74129e-05 2.8311e-06 2.09874e-05 1.17418e-05 0.00018056 0.000214983 2.95316e-05 0.000117835 4.87105e-05 0.00015496 3.38717e-05 3.759e-05 0.000154711 0.000112272 2.54553e-05 3.84725e-05 3.31212e-05 6.99877e-06 3.14833e-05 5.44291e-05 8.59559e-06 1.05232e-05 2.00471e-05 5.29828e-06 2.17138e-05 1.61241e-05 1.6097e-06 4.89056e-05 0.00033937 0.000352032 0.000302491 0.000378064 2.16902e-05 2.16773e-05 2.43919e-05 3.12573e-05 1.79491e-05 0.000184678 0.000115632 6.36725e-05 5.92946e-06 0.000132929 1.23023e-05 2.77903e-05 1.65401e-05 1.80479e-05 2.33329e-05 7.31267e-05 4.18201e-05 7.37526e-05 9.44737e-06 6.73261e-05 2.61064e-05 2.11928e-05 2.57808e-06 2.48718e-05 0.000133431 4.04971e-05 3.72659e-06 4.67424e-05 4.98707e-05 4.93991e-06 3.50277e-06 2.48413e-05 6.16798e-05 3.44408e-05 0.000118765 1.2743e-06 8.87121e-05 3.85189e-05 6.44353e-05 3.04442e-05 1.88602e-05 0.000237154 0.000176702 2.26631e-05 1.99823e-05 9.50938e-06 2.1491e-05 1.29459e-05 0.000177939 0.000281812 2.31209e-05 2.5579e-05 8.9551e-06 9.25391e-06 2.44755e-05 1.15985e-05 1.39058e-05 2.20664e-05 4.84567e-05 7.93496e-06 2.97139e-06 3.31986e-05 1.89841e-05 0.000197486 0.000162461 0.00014702 0.000146656 0.000194836 2.43653e-05 3.71872e-06 4.0409e-05 3.9031e-05 3.16731e-05 1.71344e-05 0.000468792 2.22206e-05 1.26929e-05 0.00106766 7.34493e-06 0.000607395 1.16213e-05 2.63152e-05 4.45098e-05 2.39383e-05 0.000448674 0.000169892 3.45173e-05 0.000172197 0.00010656 0.000449283 8.87077e-05 0.000764783 0.000460615 5.40398e-06 1.07076e-05 2.68691e-05 3.58288e-05 2.22465e-05 3.00671e-06 2.30474e-05 9.89677e-06 5.38685e-06 3.10067e-05 3.39462e-06 5.50807e-06 1.98523e-05 0.000133295 0.000135154 1.21965e-05 1.48629e-05 1.67212e-05 1.03564e-05 0.000484093 3.05903e-06 0.000427337 3.67608e-05 3.13479e-05 4.468e-06 5.58683e-06 7.04585e-06 9.87333e-06 4.61968e-06 2.99038e-05 2.99267e-05 3.91079e-05 3.4761e-05 0.000124664 0.000130109 0.000207641 0.000133743 3.78607e-05 2.8029e-05 3.07983e-05 7.05969e-06 4.05432e-06 4.88759e-05 3.26333e-05 1.88965e-05 3.8185e-05 1.43747e-05 1.72868e-05 1.69502e-05 6.16542e-05 5.91105e-05 0.000160915 3.76545e-05 6.4226e-06 1.79632e-05 4.311e-05 4.25726e-06 4.55865e-06 2.78761e-05 0.000280934 1.7436e-05 6.71166e-06 3.50793e-05 1.71027e-05 0.000252935 1.1535e-05 1.69472e-05 3.15651e-05 0.000136756 0.000141396 9.11353e-05 1.46845e-05 1.39727e-05 0.000146913 1.21877e-05 9.64919e-05 0.00010544 0.00027634 0.000305352 1.50237e-05 2.57747e-05 3.0064e-05 0.000134959 4.28855e-05 4.18006e-05 4.74102e-05 4.84461e-05 1.14625e-05 1.14821e-05 1.32432e-05 1.11253e-05 3.12124e-05 5.80939e-05 1.04387e-05 4.12244e-05 8.04286e-05 2.17736e-05 6.71822e-05 2.70673e-05 4.90768e-05 1.53354e-05 0.000127712 4.2461e-05 0.000112863 5.49262e-06 7.39945e-05 0.000104645 0.000127798 0.000137667 0.000519431 0.000120789 8.10599e-05 9.35378e-05 7.50836e-05 2.69508e-05 2.49259e-05 1.84199e-05 8.92549e-06 5.35747e-05 3.39328e-05 0.000120427 3.37355e-05 3.76564e-06 6.55243e-06 3.1587e-05 3.16709e-05 0.000342313 0.000263263 5.18705e-06 0.00029211 2.15606e-05 4.54894e-05 4.13789e-05 4.03585e-05 4.50185e-05 3.55004e-05 0.00013917 0.000124661 3.38543e-05 5.31357e-05 1.00174e-05 4.17636e-05 4.84368e-05 1.41217e-05 3.48785e-05 3.5157e-05 6.43563e-05 4.08594e-05 7.62254e-05 0.000115647 0.000155689 5.66374e-06 6.59611e-06 0.000179984 7.51953e-06 1.76696e-06 0.000457581 0.000282807 6.49296e-06 1.75986e-06 8.85581e-06 0.000208119 0.000251812 0.000282012 6.47342e-06 0.000165222 7.9969e-05 9.81551e-05 0.000234519 0.000172305 4.31754e-06 0.000112581 0.000715789 0.000509659 0.000301182 0.000119801 0.000290585 0.000216115 0.000165424 2.81839e-06 1.09241e-05 1.80591e-05 2.52722e-06 1.58853e-05 2.29703e-06 0.000527352 3.16025e-05 1.58745e-05 1.56496e-05 1.53908e-05 0.00044947 1.1103e-05 2.37401e-05 2.41632e-06 4.80864e-05 4.23464e-06 1.89516e-05 1.02928e-05 2.47112e-06 1.06256e-05 1.23261e-05 0.00010749 9.44273e-05 8.38263e-06 0.000101907 8.37015e-06 3.96706e-05 2.03003e-05 0.000415675 5.7326e-05 2.31562e-05 1.82856e-05 0.000322617 4.41651e-05 2.48267e-05 1.65088e-05 1.25749e-05 9.1473e-06 3.80462e-05 2.9201e-05 2.2829e-05 5.09518e-05 0.000134387 3.69078e-05 2.05369e-05 0.00019316 4.47329e-05 2.21056e-05 2.26461e-05 2.3804e-05 0.000120286 1.56396e-05 3.19521e-05 1.71167e-06 6.34456e-05 1.94766e-05 1.65524e-05 4.28823e-05 6.81637e-05 2.40387e-05 2.26535e-05 0.000153333 2.80197e-05 1.95054e-05 8.4434e-06 2.61101e-06 4.5995e-06 9.21317e-05 5.21284e-06 0.000105644 1.71879e-05 3.10263e-05 5.21115e-06 2.37409e-05 4.53396e-06 1.1314e-05 0.00012903 0.000103394 0.000148746 0.000130396 3.81458e-05 2.91462e-05 2.86757e-05 6.1864e-05 5.79742e-06 2.87424e-05 2.22951e-05 0.000100816 1.77353e-05 7.07207e-05 0.00026752 0.00019847 0.000130141 0.000150988 0.000156712 2.42201e-05 2.72459e-05 2.38938e-05 1.78282e-05 7.23257e-05 2.72543e-05 1.05052e-05 8.50193e-06 6.95199e-05 0.000145477 0.000426973 0.000353182 0.000393749 2.66986e-05 1.00999e-05 1.00344e-05 3.09999e-05 1.10343e-05 0.000172735 3.50169e-05 3.33555e-05 2.94114e-05 2.79651e-05 4.76826e-06 2.06385e-05 2.31806e-05 2.24538e-06 1.78773e-05 2.01698e-05 8.14429e-06 2.22965e-05 2.77953e-05 2.7642e-05 4.18052e-05 2.95874e-05 0.000153079 2.95508e-05 4.6449e-05 1.67858e-05 2.07763e-05 1.72039e-05 2.17183e-05 1.35614e-05 3.81761e-05 3.42439e-05 2.15354e-05 3.19239e-05 9.77977e-06 2.7701e-05 4.48829e-05 1.78569e-05 1.67699e-05 1.10591e-05 2.47359e-05 2.02227e-05 2.55113e-05 0.000137619 2.29385e-05 0.000112884 0.000125621 4.09168e-05 8.49714e-05 3.77966e-06 0.000109549 0.000240754 3.92037e-05 3.93062e-05 2.11446e-05 2.0025e-05 4.63092e-05 1.81595e-05 0.000256578 5.30263e-06 4.06177e-05 3.46891e-05 2.31083e-05 1.33344e-05 3.31538e-05 2.72123e-05 1.91893e-05 4.58644e-06 3.20819e-06 2.49879e-05 2.03832e-05 3.86451e-05 7.98223e-06 2.70407e-05 2.80933e-06 5.24366e-06 2.13334e-05 1.16496e-05 1.28642e-06 0.000111788 4.86468e-05 8.69396e-06 3.76072e-05 0.000100835 3.38366e-05 3.15094e-06 3.36785e-05 0.000155541 0.000210223 0.00017978 0.00010444 2.02494e-05 0.000122989 4.81752e-05 4.64778e-05 5.26264e-06 3.15753e-06 4.48437e-05 5.08027e-05 6.17158e-06 6.67288e-06 1.88603e-05 1.13948e-05 1.69732e-05 3.17253e-05 1.39265e-05 9.98866e-06 2.46952e-05 2.82693e-05 4.66805e-06 1.87775e-06 0.000393698 3.83971e-05 3.85423e-05 6.09449e-06 5.47575e-06 7.4777e-06 9.3351e-06 2.93608e-06 4.68183e-06 5.21903e-05 4.01918e-05 2.96773e-05 5.92753e-06 1.00633e-05 6.73015e-06 2.19791e-05 2.19793e-05 7.47055e-06 5.89174e-05 6.09059e-05 1.66017e-05 3.41021e-05 3.657e-05 4.31069e-05 3.66567e-05 1.16531e-05 8.99565e-06 0.0002305 0.000157557 3.35492e-05 1.25706e-05 2.62013e-06 2.27698e-05 5.097e-06 3.93652e-06 4.0678e-06 1.09676e-05 1.20471e-05 2.82316e-06 6.01785e-06 1.68725e-05 1.50089e-05 1.24747e-05 6.4432e-05 0.000103321 0.000113985 0.000171279 0.000188173 0.000414039 0.000531568 0.000318028 2.16802e-05 1.84532e-05 7.94038e-06 7.90907e-06 2.12889e-05 1.04054e-05 2.31962e-05 1.95743e-05 2.8414e-05 1.88776e-05 2.12097e-05 6.64748e-06 5.70821e-06 1.62202e-05 5.41376e-05 2.64226e-05 3.61955e-05 2.0302e-05 1.84663e-05 4.4745e-06 3.36943e-06 1.29914e-05 6.96044e-06 1.2569e-05 6.48989e-05 4.21877e-05 0.000145004 0.000164155 0.000150821 1.17868e-05 5.40517e-05 4.0227e-05 5.80837e-05 2.39021e-05 2.22418e-05 2.45941e-05 3.32277e-05 3.36491e-05 3.69982e-05 8.78776e-06 3.55875e-05 5.69228e-06 3.40599e-05 2.23193e-05 6.61196e-05 3.49987e-05 0.00023033 2.67673e-05 2.32216e-05 4.1411e-05 0.000286825 0.000176417 2.16495e-05 0.00033205 0.000280327 0.000553173 0.000437065 0.000393831 2.774e-05 1.30686e-05 2.45096e-06 1.12866e-05 2.36601e-05 9.52976e-06 7.65881e-06 1.99431e-06 1.5359e-05 2.97148e-05 0.000417349 3.81248e-06 2.79924e-06 0.000127853 6.76237e-06 1.00822e-05 9.52521e-06 0.000343646 0.000450397 2.37321e-05 7.44177e-05 0.000242569 0.000369948 3.89111e-05 3.22091e-05 2.59857e-05 2.55374e-05 2.69498e-05 4.45377e-05 7.71197e-05 4.51392e-05 5.76268e-05 1.57884e-05 1.48078e-05 0.000287124 2.24274e-05 5.01916e-06 2.02659e-05 9.88018e-06 3.43107e-05 9.71846e-06 2.90881e-05 4.65233e-05 2.34473e-05 2.79468e-05 2.72523e-05 2.37072e-05 0.000183359 0.000193318 0.000137306 9.32765e-06 2.15173e-05 4.96713e-06 3.22495e-06 2.31123e-06 4.19993e-06 1.41818e-05 1.02516e-05 4.73619e-05 1.12802e-05 9.79266e-06 6.57245e-06 3.8221e-06 3.56078e-06 2.95957e-06 2.67603e-06 2.31803e-06 2.41611e-05 2.36704e-05 0.000361623 2.63201e-05 0.000345151 3.75534e-06 3.38799e-06 3.1683e-05 0.000160061 0.000118971 9.76237e-05 0.000330245 0.000308983 0.000198317 2.78075e-05 2.43114e-05 6.24394e-06 2.70645e-05 1.64193e-05 3.17774e-05 0.000237848 6.17246e-06 1.64944e-05 1.11023e-05 1.09248e-05 1.24164e-05 2.63915e-06 4.98518e-06 1.89516e-05 3.03953e-06 5.21716e-06 2.0235e-05 8.96888e-06 1.34413e-05 3.18028e-06 6.07792e-06 8.48819e-06 2.14879e-05 0.000176429 1.49558e-05 1.98393e-05 0.000262305 0.000474198 0.000522963 0.00032956 2.09269e-05 1.99935e-05 0.000252018 0.000252607 1.56259e-05 0.000319921 1.71404e-05 1.82059e-05 0.000182497 0.000141724 6.89272e-05 6.17318e-05 7.70508e-05 5.80843e-05 0.00033049 5.31252e-05 3.69046e-05 5.69718e-05 9.2572e-06 8.37721e-05 1.65632e-05 0.000530487 8.68449e-06 4.13329e-05 1.88648e-05 2.59921e-05 2.66415e-05 1.97357e-05 2.78489e-05 2.00672e-05 7.17014e-05 6.97423e-05 8.02391e-05 3.31792e-05 0.000105305 3.02431e-05 0.000153385 0.000100219 1.62811e-05 5.32168e-06 1.14189e-05 3.20278e-05 3.76271e-05 7.19011e-06 2.93884e-05 2.27896e-05 0.000102344 8.11371e-06 0.000106645 7.2829e-06 7.08143e-06 2.87648e-06 1.81573e-05 6.45859e-06 3.39324e-05 2.15362e-05 7.89812e-06 8.39976e-05 4.76052e-05 5.82806e-05 5.04432e-05 7.92408e-05 3.93857e-05 3.74493e-05 3.09564e-05 0.000124216 3.79972e-05 0.000108331 0.000308624 0.000187622 3.63908e-05 0.000105437 8.73187e-05 0.000175188 0.000189009 0.000118734 3.19612e-05 2.65469e-06 2.40249e-05 4.47385e-05 2.75039e-05 4.58268e-05 3.99491e-05 2.52703e-06 3.79236e-06 3.16375e-05 1.58039e-05 2.57864e-05 2.05957e-05 0.000366633 0.000527322 0.000367141 6.29112e-06 2.85742e-05 3.75054e-05 0.000289492 0.000371698 2.88856e-05 3.3875e-05 2.66321e-05 2.88733e-05 0.000133416 8.33856e-06 0.00029575 3.73389e-05 4.6613e-05 3.14169e-05 1.25977e-05 7.32439e-06 1.48076e-05 2.02008e-05 2.31877e-05 9.42465e-06 1.20699e-05 1.83063e-06 5.61913e-05 8.41817e-06 1.39313e-05 4.04595e-06 7.06603e-06 2.09908e-05 4.52813e-06 5.83919e-05 2.2327e-05 0.000192929 0.000205819 3.31571e-05 4.23193e-05 1.95513e-05 4.55031e-05 2.04176e-05 0.000172149 0.000101144 0.000126272 0.000144517 0.000175763 0.000162982 1.50618e-05 2.09305e-05 3.4603e-05 4.63986e-05 2.48891e-05 3.61283e-05 2.23359e-05 2.91085e-05 2.80654e-05 3.00557e-05 2.77977e-05 9.89888e-06 0.000132981 2.44634e-05 9.72974e-05 8.59184e-05 0.000242155 0.000289515 1.12228e-05 1.02888e-05 9.97911e-06 1.5307e-05 1.40286e-05 4.0213e-06 5.31168e-06 4.16149e-06 6.71359e-06 3.94252e-06 6.30885e-06 4.7425e-05 4.77814e-05 3.68163e-05 4.33977e-05 5.12795e-06 8.34125e-06 9.14324e-06 3.02832e-05 6.56934e-06 1.38715e-05 2.82113e-05 5.0754e-06 5.26553e-05 2.82794e-05 6.72218e-06 2.03045e-05 2.89864e-05 4.48042e-06 5.85743e-06 2.92033e-05 5.08334e-05 5.63804e-06 1.20406e-05 2.9354e-05 6.45632e-06 2.53739e-05 3.82835e-06 2.59692e-06 0.000305409 0.000280257 0.000174816 2.8785e-05 2.3821e-05 3.08484e-06 5.36865e-06 3.11186e-06 2.93589e-05 2.60949e-05 1.42309e-05 2.79548e-05 4.41839e-05 2.27139e-06 2.76281e-05 1.83321e-05 2.3407e-05 5.59737e-05 5.80476e-05 2.36286e-05 1.6343e-05 1.78754e-05 0.000151502 4.1951e-06 5.55098e-05 1.92257e-05 6.72654e-05 2.02094e-05 3.39765e-05 1.80888e-05 3.52677e-05 1.76282e-05 3.16681e-05 2.40859e-05 3.3516e-05 5.44547e-06 1.85561e-05 2.44785e-05 3.24533e-05 4.14004e-06 2.75769e-06 2.93194e-06 5.44035e-06 9.9949e-06 4.96877e-06 1.15484e-05 4.21265e-05 3.20513e-05 0.000375552 1.6855e-05 0.00014925 0.000293472 3.17595e-05 1.20198e-05 1.18339e-05 1.24012e-05 0.000284278 0.000282177 0.000300712 0.000171402 0.000254361 0.000306279 1.49724e-05 2.65069e-05 6.20365e-06 5.20048e-05 4.79847e-05 1.89672e-06 5.38347e-05 4.1655e-05 7.58064e-05 6.24523e-06 1.40747e-05 1.04413e-05 2.5569e-06 2.26561e-06 1.51719e-06 2.38624e-05 8.42408e-06 4.57393e-05 2.36435e-05 2.35293e-05 1.02041e-05 0.000375073 2.33988e-05 3.57957e-06 3.17214e-05 3.02426e-05 3.36168e-06 0.000129288 8.71352e-05 3.04444e-05 0.000172589 9.75771e-06 6.34183e-05 8.37605e-05 0.000303014 0.000129254 2.16363e-05 2.77981e-05 1.85765e-05 1.51158e-05 0.000211965 1.30464e-05 2.75789e-05 2.05153e-05 2.86649e-05 2.39498e-05 0.000163015 6.82522e-06 2.01305e-05 2.90739e-06 1.52529e-05 8.62175e-05 8.80504e-05 0.000134131 0.000111433 5.56019e-05 9.96216e-05 2.47184e-05 8.05839e-06 2.91555e-05 3.30581e-06 3.51248e-05 1.94647e-05 2.25089e-05 3.6522e-05 1.1468e-05 2.01131e-05 1.70019e-05 2.95334e-05 4.95135e-05 1.8105e-05 8.08688e-06 6.17906e-06 2.97911e-06 0.000179915 3.43104e-06 1.65894e-06 6.90647e-05 0.000155412 0.000120203 1.66895e-05 0.00034976 1.31734e-05 2.90101e-05 2.80974e-05 6.0511e-06 1.38883e-05 1.84396e-05 6.95779e-06 2.38195e-05 3.7607e-05 2.15633e-05 2.30641e-05 1.51386e-05 3.25611e-06 3.03928e-05 2.84908e-05 2.12413e-05 2.0876e-05 6.32038e-06 1.91752e-05 0.000114291 4.93041e-05 7.60036e-05 2.97358e-05 2.02446e-05 2.03585e-05 9.21419e-06 9.52581e-06 3.21498e-06 1.14899e-05 1.11235e-05 5.65464e-05 1.02168e-05 1.16747e-05 1.19088e-05 4.00672e-06 1.56049e-05 4.47521e-06 4.04978e-06 1.38293e-05 1.35451e-05 5.26881e-06 1.0982e-05 8.7171e-06 1.76404e-06 7.61745e-06 1.13466e-05 1.81367e-06 6.92879e-06 1.08268e-06 3.62254e-06 2.32455e-05 3.32562e-05 5.54802e-06 2.09454e-06 3.28796e-06 2.24088e-06 1.96261e-06 1.57601e-05 1.14165e-05 2.07727e-05 5.2658e-06 1.27531e-05 2.21418e-05 2.42833e-05 2.0361e-05 5.50346e-06 2.31688e-05 2.90412e-05 4.66863e-06 1.54368e-05 3.00111e-06 2.72106e-05 3.14368e-05 1.12064e-05 2.58641e-05 3.19197e-06 2.10463e-05 4.45471e-05 2.14631e-06 0.000109877 7.99855e-06 2.16501e-05 3.63955e-05 0.000163931 0.000103843 2.22806e-05 0.000231904 4.00935e-05 1.3613e-05 1.20267e-05 2.0653e-05 1.439e-05 4.36498e-06 4.25931e-06 7.44234e-05 6.13906e-05 4.26658e-05 2.31493e-05 2.77702e-06 2.73786e-05 9.9846e-05 0.000142804 9.94321e-05 8.98454e-05 7.93675e-05 2.71936e-05 2.07825e-05 5.15648e-06 2.74964e-05 2.99885e-05 7.56641e-06 1.31311e-05 3.27824e-05 1.01025e-05 2.36022e-05 1.13261e-05 2.38355e-05 1.4264e-05 4.74397e-05 3.11779e-05 1.92677e-05 5.40899e-05 7.5178e-05 3.18109e-05 5.93902e-05 3.9423e-05 1.18377e-05 6.07014e-05 0.000213199 0.000228114 6.08384e-05 1.14113e-06 0.000202558 1.22723e-06 5.51491e-05 1.15074e-06 2.51535e-05 1.4452e-05 2.66433e-05 2.38509e-05 2.54175e-05 1.82422e-05 0.000182125 0.000157498 0.000175606 0.000271824 0.000129539 0.000135112 3.62285e-05 9.79365e-05 7.80531e-05 1.77708e-06 5.1179e-05 1.59846e-05 8.22251e-06 4.93782e-05 1.79533e-05 6.06881e-06 9.37792e-06 9.06399e-06 9.62779e-06 3.40092e-05 3.5996e-06 1.22568e-05 3.941e-05 3.44018e-06 1.22834e-05 1.08241e-05 1.69289e-05 9.05535e-06 1.86225e-05 4.43503e-06 2.3507e-05 2.35326e-05 1.41315e-05 2.87199e-05 4.55174e-05 4.31661e-05 3.27491e-05 1.16534e-05 2.59239e-05 4.3226e-05 2.32224e-05 3.08592e-06 4.64303e-05 7.73506e-05 2.81644e-05 2.49936e-05 9.51915e-06 3.83989e-06 0.000486581 1.91309e-05 2.43926e-05 3.96644e-05 4.10348e-05 0.000259858 0.000253311 2.18281e-05 0.000187911 2.8971e-05 2.57098e-05 3.74495e-06 3.32967e-05 0.000267393 2.94377e-05 0.000448563 1.33382e-05 1.2501e-05 2.01534e-05 1.59195e-05 2.20714e-05 5.69623e-05 0.000298315 2.46284e-05 0.000203551 0.000120906 3.63763e-05 1.65569e-05 2.65052e-05 1.61391e-05 9.25296e-06 8.36976e-06 1.71098e-05 4.03997e-05 5.46594e-06 3.82219e-05 1.85704e-05 1.42065e-05 2.04565e-06 0.000178289 0.000108336 5.76587e-06 1.83665e-05 2.66657e-05 0.000339409 2.02705e-05 1.17569e-05 0.000111748 3.15675e-05 1.51741e-05 4.28735e-05 5.85686e-06 2.21251e-05 1.48517e-05 2.68967e-05 1.28173e-06 2.59369e-05 2.72021e-05 2.00244e-06 2.88402e-05 2.84202e-05 2.88432e-05 6.9973e-06 2.6545e-05 4.66599e-06 2.14723e-05 2.57227e-05 0.000207009 3.95641e-05 2.79519e-05 4.37718e-05 4.27487e-05 2.47978e-05 2.78086e-05 1.71455e-05 2.6777e-05 3.69851e-05 2.80013e-05 1.13639e-06 0.000222163 1.66778e-06 0.000200848 1.17671e-05 5.25281e-05 9.36002e-06 8.50595e-06 1.51151e-05 4.75132e-06 2.05429e-05 2.18221e-06 7.08062e-06 3.9012e-06 1.85102e-05 4.23977e-06 1.59365e-06 2.52834e-06 1.706e-05 4.52993e-06 4.50526e-06 9.54089e-06 8.14497e-05 0.000176085 5.00033e-05 4.351e-05 0.000139865 8.73458e-06 1.17068e-05 1.4202e-05 2.17474e-06 5.68755e-06 2.22504e-05 2.74808e-05 1.30007e-06 0.000191194 0.000166095 0.000159381 4.93293e-05 1.51119e-05 9.58477e-06 0.000118393 1.83859e-06 1.73396e-06 1.46331e-05 8.39466e-06 1.40242e-05 2.16419e-05 1.78475e-05 2.36275e-05 1.58069e-05 0.000198958 0.000120351 0.00017836 4.26483e-05 7.49957e-05 2.29151e-05 2.58042e-05 4.27642e-05 0.00026877 2.60574e-05 7.82545e-06 0.000339942 0.000427188 3.78151e-06 3.26485e-05 1.17311e-05 3.19725e-05 2.00705e-05 7.68759e-05 8.05283e-05 6.20365e-05 1.85359e-05 2.47286e-05 2.29587e-05 5.05973e-05 3.92967e-05 3.58473e-06 1.69144e-05 2.59844e-06 0.000151602 1.16194e-05 1.41569e-05 1.93505e-05 2.24746e-05 4.3953e-05 2.19345e-05 1.29583e-05 2.37336e-05 0.000400587 0.000267974 0.000465488 1.67101e-05 1.25299e-05 1.20269e-05 2.83844e-06 2.44636e-06 6.15611e-05 2.52162e-06 0.000481184 3.87313e-06 0.000239051 2.65226e-06 4.52594e-06 1.49721e-05 6.11335e-06 3.05247e-05 1.72576e-05 3.24605e-05 3.54526e-05 8.96505e-06 4.42326e-05 4.09468e-05 4.0633e-05 1.68418e-05 1.47218e-05 7.4854e-05 0.000121355 7.8895e-05 0.000162501 9.45553e-05 7.65677e-05 1.93869e-05 0.000245398 1.36102e-05 1.15905e-05 5.23232e-06 2.61904e-05 0.000361114 0.000284307 1.56924e-05 1.64154e-05 1.74883e-05 1.71534e-05 4.97744e-05 8.37737e-05 6.17214e-05 7.42337e-05 8.12934e-05 4.41167e-05 2.96285e-05 9.30575e-05 4.75582e-05 1.38911e-05 9.40354e-06 3.94185e-05 3.21525e-05 2.34475e-05 3.98371e-05 2.52159e-05 2.19816e-05 1.63278e-05 1.74619e-05 2.69295e-05 2.51126e-05 2.48588e-06 8.33097e-06 2.88373e-05 0.000204446 2.34089e-05 2.50564e-05 2.63006e-05 6.70921e-06 0.00028641 0.000390857 0.000486458 0.000408501 1.90013e-05 1.2834e-05 6.34425e-06 2.74203e-05 2.23143e-05 3.10697e-05 2.49266e-05 2.05433e-05 2.43034e-05 9.57813e-06 9.35911e-06 1.55038e-05 2.5985e-05 6.11014e-05 5.76397e-05 4.14829e-05 2.39452e-05 1.50914e-05 4.92144e-05 3.7352e-05 2.62422e-05 3.5769e-05 0.000172502 0.000102866 5.94084e-05 3.49684e-05 0.000145352 0.000134602 7.02725e-06 3.88989e-06 3.10523e-05 5.12134e-06 1.1118e-05 6.37303e-06 4.05151e-06 2.52893e-06 2.65121e-06 0.000252602 0.000229462 0.000318305 0.000315414 0.000379615 0.000103935 7.45989e-05 0.000125776 0.000283199 1.90636e-05 1.81768e-05 4.32131e-05 4.59116e-06 4.77992e-06 1.84352e-05 6.23612e-05 0.000310389 0.000175303 0.00019471 0.000221934 0.0002542 0.000276774 9.47684e-06 8.93056e-06 1.86983e-06 0.000131509 0.000114499 1.4141e-05 1.5337e-05 0.000177894 0.000363298 0.000144282 0.000116446 0.000149846 0.000138938 0.00011766 2.98711e-05 0.000318864 0.000201217 2.02088e-05 2.14435e-05 2.84981e-05 1.59524e-05 0.000299106 8.84443e-06 1.03326e-05 4.15731e-06 2.09346e-06 0.000132271 5.5171e-06 0.000207897 2.4889e-06 0.000108331 5.07684e-06 2.40628e-05 1.48221e-06 0.000163746 9.68261e-05 9.1543e-05 1.38385e-05 0.000582832 0.000467184 5.73333e-06 9.02555e-06 1.51946e-06 2.60702e-05 8.6895e-06 3.37447e-05 6.81493e-05 1.28092e-05 2.97399e-05 3.9137e-05 1.38071e-05 3.8737e-06 1.47113e-05 0.000287951 4.44075e-06 0.000158155 0.000198819 2.5733e-05 1.99731e-05 3.73944e-06 5.87132e-06 6.32215e-06 5.58085e-06 7.17221e-06 8.73197e-06 0.000457934 8.60101e-06 0.000428433 6.14846e-06 5.52368e-06 4.05433e-06 0.000382049 2.17604e-05 8.64851e-05 2.2045e-05 6.93284e-06 5.37853e-06 3.13921e-05 0.000466395 0.00038598 5.33821e-06 3.22736e-05 2.55865e-05 0.000171301 0.000288812 2.56836e-05 2.29312e-05 3.20593e-05 3.08822e-05 1.32769e-05 1.27557e-05 3.54234e-05 7.20495e-06 1.61736e-06 0.000152131 2.83681e-05 0.000140071 0.000209469 0.000219697 2.54091e-05 6.26529e-06 0.000318161 2.43866e-05 7.48374e-06 1.30875e-05 0.000420039 2.37374e-05 1.56393e-05 9.68437e-06 1.53909e-05 0.000250867 7.48885e-05 6.43245e-05 0.000139401 1.6374e-05 0.000147941 0.000244722 1.84463e-05 2.39463e-06 2.11165e-05 2.78886e-06 2.11328e-05 1.66785e-05 2.47426e-06 3.15452e-05 2.77337e-05 1.77508e-05 4.98098e-06 4.60028e-06 0.000156911 7.61126e-06 5.5505e-06 4.54277e-06 0.000117345 3.07783e-05 0.000168125 0.000151783 0.000201913 2.64219e-05 4.30012e-06 3.49665e-06 3.15631e-06 0.000146964 0.000342338 4.7787e-05 0.000130035 5.1523e-05 4.37636e-06 5.14544e-06 0.000189337 6.59585e-06 1.02446e-05 0.000432729 0.000305282 8.08323e-06 3.99161e-06 3.86781e-06 4.12414e-06 6.31641e-06 3.78775e-06 3.97142e-06 3.00153e-06 6.71769e-06 6.46682e-06 1.70917e-05 5.74529e-06 3.85087e-06 3.55841e-06 1.62834e-05 1.38071e-05 0.000277488 0.000319841 8.68337e-06 1.7375e-05 2.36245e-05 1.86232e-05 3.40171e-05 3.76283e-05 3.10891e-05 0.000134823 0.000132762 0.00045613 0.00054036 3.12945e-06 2.95713e-06 6.93591e-06 3.9032e-06 4.51e-06 0.000195789 1.49746e-05 1.90111e-05 1.82497e-05 1.79325e-05 8.9752e-06 2.15409e-05 1.14961e-05 1.42037e-05 1.75629e-05 4.12886e-05 3.32136e-05 1.16828e-05 1.34095e-06 0.000197458 0.000239523 8.86983e-05 2.33339e-05 2.6542e-05 3.80029e-05 0.000223437 0.000168606 5.58704e-06 7.29471e-06 1.24676e-05 5.34723e-06 4.28841e-05 2.11798e-05 3.43293e-05 3.17638e-05 5.06718e-05 2.21104e-05 1.24199e-05 3.66971e-06 3.89808e-06 2.14959e-05 6.7873e-05 3.48639e-06 4.40907e-05 2.67714e-05 6.60992e-05 1.97588e-05 0.000126588 3.23342e-05 6.43162e-05 2.31966e-05 1.12772e-05 6.51445e-05 5.27166e-05 3.41521e-05 2.65848e-05 0.000487939 6.62737e-06 1.67314e-05 6.37352e-06 7.49755e-06 2.48134e-06 5.96753e-06 0.000190857 1.15161e-05 1.02766e-05 9.95297e-06 3.30596e-05 1.07945e-05 0.000244666 7.29926e-06 2.29471e-05 0.000361099 6.86246e-06 3.30252e-05 4.47148e-05 4.12894e-05 5.51564e-06 2.84114e-05 4.44556e-05 2.3421e-05 5.59136e-05 8.61254e-05 2.88106e-06 2.67594e-06 1.59408e-06 1.38677e-06 8.57728e-05 0.000100867 0.000117571 4.71037e-05 6.91688e-05 6.47615e-05 8.09304e-05 4.12347e-06 3.60852e-05 1.50831e-05 3.40549e-05 2.01887e-05 1.58651e-06 2.19286e-05 2.35015e-05 2.12603e-05 1.25951e-05 5.69733e-05 6.80735e-05 0.000169666 2.59506e-06 6.29457e-06 3.11501e-05 4.65382e-06 7.07061e-06 5.85322e-06 6.92634e-06 9.37077e-06 3.97257e-06 2.5929e-06 3.15929e-05 1.91009e-06 1.53243e-05 1.29944e-05 1.60835e-06 1.0734e-05 1.44049e-06 2.21854e-05 2.24446e-05 1.79593e-05 1.32284e-05 1.28256e-05 1.53218e-05 0.000277323 2.40711e-05 2.01107e-05 2.07741e-05 4.05361e-05 1.60015e-05 1.31536e-06 2.14707e-06 2.95615e-05 1.84481e-05 5.69406e-06 0.000282996 0.000196343 0.000148072 0.000434433 0.000148019 0.000380102 0.000323223 0.000325739 0.000285579 3.2487e-06 0.000304199 6.06671e-06 0.000362009 0.00013089 0.000248141 1.95145e-05 1.67815e-05 0.000163996 2.3854e-06 3.06014e-05 9.08371e-06 1.15802e-05 5.97208e-06 4.38306e-05 3.76359e-05 2.49087e-05 7.731e-06 7.90181e-06 4.48856e-05 3.07656e-05 3.39969e-05 3.09285e-05 4.77597e-05 6.3166e-06 0.000253883 0.000188984 0.000157445 0.000182559 0.000135351 1.64231e-05 2.60882e-05 1.19586e-05 1.2714e-05 3.29187e-05 1.80217e-05 3.11056e-05 1.15708e-05 2.35352e-06 2.31861e-06 4.39166e-06 2.38358e-06 7.17375e-06 1.61911e-05 1.89333e-05 2.71037e-06 8.92271e-06 1.20194e-05 1.52619e-05 1.5392e-05 3.47273e-06 0.000407968 4.67e-06 6.61846e-05 2.9605e-06 6.06397e-05 3.77576e-06 7.13746e-06 0.000165628 1.84674e-05 1.58961e-05 2.61466e-05 1.73376e-05 3.64217e-05 1.43096e-05 3.041e-05 0.000132127 0.000124521 0.00011371 0.00011509 9.04404e-05 8.87372e-05 4.68207e-05 2.37196e-05 1.92569e-05 2.91339e-06 3.30076e-05 2.04413e-06 2.11937e-06 1.83795e-06 8.17833e-06 2.82635e-05 1.58141e-06 2.6508e-05 8.60502e-05 6.80453e-05 9.12516e-05 9.32828e-05 3.45572e-05 4.28209e-06 2.77158e-06 1.55633e-06 2.18645e-05 3.6985e-05 2.70132e-05 2.37254e-06 9.17198e-05 2.45456e-05 8.39266e-05 2.78652e-05 1.05479e-05 1.03126e-05 0.000139858 1.00268e-05 0.000239952 2.76601e-05 1.30466e-06 4.8595e-07 4.0568e-06 0.000195367 0.000143739 2.68345e-05 2.41446e-05 2.34694e-06 1.51621e-05 4.85825e-06 1.53186e-05 1.24447e-05 1.37788e-05 7.66645e-06 9.04505e-06 3.36905e-06 6.45805e-06 3.87028e-06 1.6506e-06 7.46278e-07 0.000309177 1.69783e-06 0.000235675 2.97518e-05 3.70464e-06 1.50616e-05 9.43162e-05 2.20896e-05 9.3925e-05 0.000226013 2.26536e-05 7.67243e-05 1.84759e-05 5.98362e-05 2.10031e-05 1.20017e-05 1.89619e-05 1.50154e-05 9.83324e-06 1.56438e-05 1.19086e-05 1.3799e-05 2.41445e-06 2.37181e-05 3.5315e-05 1.70814e-06 1.33394e-05 4.05326e-06 1.05984e-05 7.55077e-07 2.62899e-05 2.1558e-05 2.4472e-05 3.42611e-06 3.44613e-06 3.7867e-06 2.51682e-05 1.76791e-05 4.71753e-05 2.7934e-05 2.40898e-05 3.35434e-06 2.42967e-05 1.12996e-05 3.07312e-06 0.000332495 0.000212572 2.96652e-05 3.02622e-05 3.72729e-06 1.82178e-05 0.000109362 3.65552e-05 1.26553e-06 1.80616e-05 3.00606e-05 5.01557e-05 6.15396e-05 4.6395e-05 0.000136309 1.71252e-05 4.0835e-05 0.000263056 1.1151e-05 0.000130225 1.77417e-05 2.8093e-06 2.84779e-05 3.12548e-06 4.17772e-05 3.11084e-05 3.23232e-05 3.35022e-06 4.63368e-05 0.000226058 4.02457e-05 6.05715e-06 4.23922e-05 2.06547e-05 4.34002e-05 1.40933e-05 1.41652e-05 6.05122e-05 1.53793e-05 1.6538e-05 6.57344e-06 0.000233642 0.000447969 1.65396e-05 4.72653e-05 3.07613e-05 0.000163778 0.000127139 6.77412e-05 2.88924e-05 3.72135e-05 3.9687e-05 2.77971e-05 3.70662e-05 1.68522e-05 3.62739e-05 2.49446e-05 2.55063e-05 7.82317e-06 1.26257e-05 2.63566e-06 9.91299e-06 1.36359e-05 1.86539e-05 5.29469e-06 1.937e-05 1.58166e-05 3.33202e-05 1.68437e-05 0.000105321 0.000314857 0.000230244 0.000217068 0.000191295 9.2742e-06 0.000221035 3.18077e-06 2.6341e-06 3.37747e-06 7.48444e-06 3.42817e-05 2.05224e-05 2.53415e-05 3.7817e-05 3.9684e-05 2.73892e-05 1.52979e-05 2.55674e-06 0.000173116 2.44464e-05 3.74741e-05 7.05145e-07 2.76676e-06 2.46088e-06 3.02617e-06 2.01505e-06 2.85145e-06 2.55811e-06 2.4577e-06 3.32834e-06 1.48571e-05 0.000127419 0.000146594 9.2302e-06 9.7334e-06 2.90371e-06 1.52701e-05 1.64996e-06 3.06687e-06 2.42124e-05 6.25021e-05 2.39791e-05 1.16238e-06 2.35102e-05 2.85995e-05 3.03128e-05 3.14079e-06 2.46098e-05 2.48025e-05 2.6183e-05 2.48184e-05 5.97688e-06 4.02735e-06 7.67763e-05 5.32957e-05 4.21941e-05 3.4311e-06 3.39282e-06 4.23476e-06 4.21692e-06 1.01826e-05 8.74813e-06 5.97875e-06 9.62902e-06 1.70189e-05 2.62655e-05 2.77716e-05 4.5635e-05 9.01758e-05 5.15563e-05 3.39721e-05 2.77143e-05 2.59019e-05 1.51781e-06 4.27495e-06 1.01854e-05 1.10459e-05 2.04795e-06 4.30286e-05 3.26454e-05 2.84122e-05 3.04523e-05 4.6028e-07 1.69837e-05 1.21217e-06 2.42156e-05 2.18377e-05 4.75617e-05 5.36334e-05 1.08325e-05 2.41026e-05 9.89016e-06 2.42883e-05 2.59955e-05 3.50457e-05 1.40529e-05 5.89022e-05 2.28794e-05 4.90405e-05 2.25487e-05 1.59473e-06 1.86206e-05 1.39493e-05 2.69135e-05 2.29566e-05 3.62927e-05 2.29663e-05 3.63819e-06 1.79311e-05 3.50663e-06 9.75486e-06 1.71407e-05 0.000209038 0.00019134 0.000150823 0.000164365 0.00011924 3.08448e-06 2.53857e-06 2.91633e-06 9.78073e-05 7.31688e-05 2.1734e-06 4.02408e-06 1.43733e-05 1.10524e-05 1.43111e-05 1.40627e-05 1.16664e-05 1.15301e-05 1.29557e-05 1.15378e-05 1.28512e-05 6.44012e-05 0.000102266 2.86085e-06 1.87875e-06 2.13905e-05 7.97559e-05 0.000157438 9.80304e-05 6.93071e-05 8.04574e-05 7.05428e-05 2.28222e-05 1.77265e-05 2.4019e-05 1.73313e-05 1.68686e-05 1.8688e-05 2.15895e-05 1.04114e-05 3.60348e-05 8.50732e-06 1.22797e-05 9.03389e-05 0.000181167 2.37713e-05 3.9858e-05 1.07485e-05 2.12476e-05 0.000176348 0.000161278 9.77154e-06 0.000255566 0.000103998 0.000114869 0.000162272 5.65845e-06 1.42696e-05 9.86381e-06 6.10192e-06 2.07423e-05 1.78159e-05 4.61641e-06 1.97874e-05 3.7511e-05 2.90645e-05 2.97938e-05 3.34367e-05 2.67453e-06 4.4179e-06 2.66823e-05 2.44398e-05 1.72925e-05 3.60237e-05 1.99343e-05 1.01373e-06 2.04543e-06 1.52415e-06 3.16326e-05 0.000298778 0.000227488 0.000139768 4.8681e-06 2.23012e-05 2.34782e-05 9.64373e-05 3.58552e-05 3.46461e-06 9.36246e-05 8.45796e-05 0.000104675 2.91163e-06 2.68159e-05 3.15701e-05 4.88849e-05 1.45362e-05 0.000136753 0.000118313 0.000127664 6.41886e-06 7.32591e-06 0.000139665 0.000147208 0.000247174 0.000401697 5.007e-06 2.29696e-06 6.22142e-05 2.80092e-05 2.99399e-05 2.14775e-05 3.22408e-06 1.85295e-05 2.60752e-05 1.05867e-05 9.16835e-06 3.61047e-06 1.10639e-05 1.57725e-05 1.79635e-05 1.75734e-05 1.06378e-05 2.24297e-06 1.99899e-05 1.37854e-05 4.23647e-06 1.5546e-05 2.76273e-05 4.2092e-05 3.41639e-05 2.33575e-05 3.05494e-05 2.17108e-05 0.000115617 1.53578e-06 2.35735e-06 4.63629e-05 5.72117e-05 8.23788e-05 2.3822e-05 1.70778e-05 4.79584e-05 2.57134e-05 4.44948e-05 3.51379e-06 1.39747e-05 5.2141e-06 2.20156e-05 3.55932e-06 1.90156e-05 1.76933e-05 3.87842e-05 2.46971e-05 5.13917e-05 5.42018e-05 2.51695e-05 1.29846e-06 5.14095e-05 3.06187e-05 3.78066e-05 1.4911e-05 2.17087e-05 3.51941e-05 9.29921e-05 0.000152504 5.88524e-05 0.000192248 0.000159603 0.000135782 0.000263747 0.000140041 0.000146959 1.18227e-05 4.06045e-05 2.7874e-05 1.22176e-05 1.54467e-05 1.81332e-05 1.66372e-06 9.86954e-06 3.42755e-06 1.02704e-05 1.73422e-05 2.16546e-05 6.68371e-05 3.65802e-05 1.83066e-06 2.52341e-05 2.53615e-06 2.88769e-06 2.78848e-06 2.35902e-06 1.80557e-05 2.22893e-05 1.86031e-05 2.24482e-05 7.24616e-06 7.84272e-06 7.2563e-06 8.32917e-06 1.89773e-05 6.49384e-06 2.29809e-05 1.88675e-05 1.4687e-05 1.03986e-05 2.07956e-06 3.01356e-06 9.49263e-06 1.43357e-05 1.13036e-05 3.74612e-05 2.56021e-05 2.73407e-06 2.01193e-05 1.64748e-05 1.13003e-05 6.00385e-06 7.07743e-06 7.9839e-06 2.75255e-06 3.31045e-06 2.1394e-05 5.24104e-05 2.9978e-05 3.19061e-05 1.83897e-05 0.000231167 2.6807e-06 2.5492e-06 2.16622e-06 9.56652e-06 3.09275e-06 2.91189e-06 8.73661e-05 3.27335e-06 6.50587e-05 2.24603e-05 9.2989e-05 3.41856e-05 6.28712e-06 4.47997e-05 7.77902e-06 1.08632e-05 2.32348e-05 9.59848e-06 2.31266e-05 6.27612e-06 2.38315e-05 2.8219e-05 8.87647e-06 2.51433e-05 1.61313e-05 2.67651e-05 3.84738e-05 2.62526e-05 3.31647e-05 2.74172e-05 3.55781e-05 9.15325e-06 2.47964e-05 2.94928e-05 3.85237e-05 8.73046e-06 4.99727e-06 0.00011486 0.000126899 0.000128394 0.000123149 9.78347e-05 4.03426e-05 2.57077e-05 2.42497e-05 2.68478e-05 2.1405e-06 3.65528e-05 4.05668e-05 0.000114342 8.26275e-05 2.56601e-06 1.34579e-05 1.70462e-05 1.83293e-06 6.53797e-05 9.19743e-05 9.0314e-05 2.85438e-05 3.17935e-06 4.10312e-05 2.72234e-05 4.26873e-05 2.78058e-05 3.59663e-05 3.73226e-06 2.81383e-06 0.000141918 0.000187292 4.27249e-06 3.16286e-05 4.85861e-05 2.37613e-06 5.19521e-05 2.10982e-06 0.000152285 0.000138695 0.000105825 9.42947e-05 0.000167943 1.5186e-05 3.70029e-06 7.01167e-05 1.76704e-05 1.14711e-05 1.42025e-05 2.22994e-05 1.02624e-05 9.5938e-06 1.59976e-05 2.57099e-05 1.96614e-05 3.86749e-06 5.76174e-06 0.000196942 0.000253498 1.79738e-05 3.92191e-05 7.83805e-06 3.87603e-05 1.22737e-05 5.50296e-05 1.00643e-05 2.64188e-05 0.000100952 0.000118818 0.000123414 9.64035e-05 7.11178e-05 2.09803e-05 9.38984e-06 7.72969e-06 6.22323e-06 4.45936e-05 1.69498e-06 3.94301e-06 7.14222e-05 2.67791e-05 3.72715e-06 3.62859e-06 2.81152e-06 2.72895e-05 1.61549e-05 1.79722e-05 3.0279e-05 1.69992e-05 3.57213e-05 3.86795e-05 1.01222e-05 2.48715e-06 1.16123e-05 1.36392e-06 2.16982e-05 1.89894e-05 1.55445e-05 2.26357e-06 0.000269387 8.90676e-06 1.63223e-05 8.21434e-06 8.36588e-05 2.15607e-05 1.37657e-05 3.47951e-05 1.12098e-05 2.78154e-05 4.46201e-05 3.26383e-05 3.39133e-05 2.53301e-05 4.40432e-05 2.47244e-05 1.92206e-05 6.43304e-05 1.5035e-05 0.000287777 0.000131981 0.000149031 0.000104401 1.17779e-05 0.000293511 0.000683961 4.95943e-06 6.07602e-06 6.70719e-06 1.87707e-05 2.78689e-06 6.61164e-06 2.52947e-06 7.96645e-06 7.18152e-06 5.99986e-06 1.30572e-05 1.72642e-05 1.10462e-05 3.7196e-05 4.45863e-05 1.79942e-05 4.0115e-05 1.86421e-05 2.5218e-05 8.16456e-05 6.95305e-05 3.52532e-05 1.17975e-05 1.66656e-05 2.23519e-05 7.57389e-06 6.49608e-06 1.86651e-05 2.56933e-05 3.3849e-06 0.000130447 3.25621e-05 2.08771e-06 2.14645e-06 1.67316e-05 2.13288e-06 1.13448e-05 8.98381e-07 1.2632e-06 2.66698e-06 2.99013e-05 2.4313e-05 2.6823e-05 2.52202e-06 3.42297e-06 3.0873e-06 3.53097e-05 1.25974e-05 5.00293e-06 2.6138e-05 6.39177e-05 3.55608e-05 4.18857e-05 5.99421e-05 2.95794e-05 6.59232e-06 1.18525e-05 1.61234e-05 1.48916e-05 0.000118685 8.20945e-05 7.94185e-05 1.39298e-05 1.61655e-05 3.26035e-05 2.30188e-05 4.37104e-06 6.52552e-06 5.29246e-06 1.36501e-05 9.48509e-06 1.53696e-05 2.11703e-05 2.44044e-06 1.80077e-05 1.68457e-05 3.17743e-06 8.56987e-05 0.000144618 0.000175323 9.19074e-05 0.000237485 0.000129453 3.62308e-05 2.95387e-06 1.03388e-05 1.84158e-05 7.34854e-05 6.87607e-05 2.50381e-06 2.61875e-06 7.18523e-05 8.97276e-05 5.10076e-05 6.23391e-05 5.05733e-05 6.53569e-05 2.462e-06 2.76725e-06 2.27121e-05 0.000267718 2.20792e-05 2.79737e-05 2.93326e-05 1.14394e-05 2.32544e-05 1.01288e-05 3.45971e-06 1.56628e-05 3.28352e-06 6.18923e-07 6.23095e-06 2.17265e-05 4.25974e-05 3.57121e-05 6.56219e-05 1.87399e-05 1.59671e-05 1.60947e-05 1.47105e-05 1.8077e-05 0.000166158 9.54834e-05 4.01692e-05 3.9235e-06 2.7502e-05 4.03948e-05 5.34207e-05 3.40743e-05 2.79385e-06 3.66151e-05 2.79018e-06 2.41269e-06 1.14393e-05 8.48953e-06 1.32842e-05 4.13508e-06 2.04032e-05 1.77436e-06 1.96007e-05 3.87618e-06 9.18647e-06 7.34057e-06 2.43307e-05 2.18067e-05 4.47622e-05 1.96574e-05 3.05165e-06 4.28406e-06 1.40627e-05 4.53699e-05 4.78859e-05 8.78671e-06 2.45169e-05 2.31298e-05 1.3163e-05 1.05982e-05 1.66467e-06 3.33692e-06 1.37185e-05 5.89761e-05 3.88487e-05 0.000169795 3.77388e-06 9.03311e-05 3.74013e-05 1.35432e-05 1.91281e-05 2.03234e-05 0.000196573 3.48758e-06 3.83428e-06 4.53923e-06 2.61759e-05 4.192e-06 4.64486e-05 4.0419e-06 4.89515e-05 1.82512e-05 2.60449e-05 2.95552e-05 2.28057e-05 2.40724e-05 3.39359e-05 2.58325e-05 2.28834e-05 2.35172e-05 0.000129636 0.000160698 2.59116e-05 0.000135308 3.29656e-06 1.57615e-05 1.85372e-05 2.60497e-05 3.00578e-05 3.0256e-05 2.64756e-05 3.26818e-06 1.40984e-05 1.55031e-05 2.17467e-05 2.19539e-05 1.63551e-05 2.56216e-06 6.20279e-06 1.39821e-06 2.12076e-06 2.98636e-06 1.2091e-06 2.34319e-05 2.52402e-05 7.20125e-06 1.22608e-06 0.000109713 0.000177114 0.000295099 0.000190517 8.7571e-05 1.31111e-05 2.19371e-06 2.59343e-05 1.09583e-05 2.02277e-05 2.36663e-05 2.63781e-05 1.47757e-05 9.21754e-06 1.53519e-06 1.98946e-05 2.41854e-05 2.91379e-05 2.34552e-05 2.16069e-05 1.73313e-05 1.41816e-05 3.97899e-05 8.90305e-05 1.60917e-05 2.15983e-05 1.96126e-05 7.75069e-06 5.76352e-05 4.9393e-05 1.84373e-05 1.66585e-05 3.4522e-05 9.0942e-05 4.62034e-05 2.87674e-05 2.79249e-05 1.97786e-05 4.79069e-05 4.12423e-06 1.24267e-05 2.21753e-05 2.63046e-05 8.75449e-06 1.76773e-05 1.93398e-05 1.75045e-05 2.35876e-05 2.76321e-05 2.15686e-05 1.1068e-05 2.9522e-05 2.14782e-05 4.22672e-06 1.94392e-06 5.04463e-06 6.07084e-06 9.95401e-06 4.49563e-06 0.00010429 3.41389e-06 0.000121152 0.000230486 1.87522e-05 0.00014556 3.22842e-06 1.66264e-05 2.44371e-06 3.35583e-06 1.78489e-05 2.17056e-05 1.8972e-05 1.22171e-05 2.43603e-06 1.71992e-06 9.05645e-05 3.6449e-06 1.32696e-05 0.000132996 0.000101443 0.000159658 0.000166181 8.93197e-05 0.000127122 1.03019e-05 3.74249e-05 1.52292e-05 2.25646e-05 2.21363e-06 2.83748e-05 4.4741e-05 2.28231e-05 2.40491e-05 1.92927e-05 1.30219e-05 1.64269e-05 8.89219e-06 0.000103909 7.13322e-05 9.27528e-05 0.000103049 6.42062e-05 0.000157223 1.73881e-05 1.90778e-05 4.57577e-06 6.25977e-06 9.48095e-06 7.33515e-06 9.79552e-06 5.15984e-06 1.36633e-05 5.09689e-06 4.32945e-06 6.40209e-06 6.74664e-06 1.57419e-05 5.5458e-06 3.83413e-06 2.38367e-05 1.45659e-05 1.55003e-05 1.47558e-05 1.47823e-05 3.11435e-05 1.21602e-05 1.17587e-05 2.08541e-05 1.31073e-05 1.87114e-05 2.86415e-05 2.15858e-05 2.9917e-05 3.02725e-05 4.67837e-05 3.77693e-05 1.34238e-05 3.2156e-05 2.60555e-05 2.10344e-05 2.67906e-05 2.28042e-05 1.69376e-05 2.25326e-05 2.67558e-05 6.01039e-05 2.04099e-05 6.72548e-06 2.54556e-05 4.06742e-05 3.1113e-05 7.39543e-05 1.83841e-05 8.41729e-05 9.64363e-05 9.17379e-05 3.7974e-05 6.78073e-06 0.000153477 2.88076e-05 3.82622e-05 1.79962e-05 1.32575e-05 3.05287e-05 2.44421e-05 1.02219e-05 7.38928e-06 1.92454e-05 4.16477e-05 2.7969e-05 2.57542e-05 0.000302435 0.000431345 0.00035075 0.000322946 4.08504e-05 3.34001e-05 1.41115e-05 4.98097e-06 8.16933e-06 6.91406e-06 1.8128e-06 3.26241e-06 1.41346e-05 1.81861e-05 1.49258e-05 1.28862e-05 1.29656e-05 1.99875e-06 2.81656e-05 5.40521e-05 2.99406e-05 1.28521e-05 1.45109e-05 1.68772e-05 1.01574e-05 1.04765e-05 3.03059e-06 2.0287e-05 2.37704e-05 3.49473e-06 2.4535e-05 3.34011e-05 3.16559e-05 3.34504e-05 1.69329e-06 3.66621e-05 7.0236e-06 3.62731e-05 1.058e-05 2.23799e-06 1.57229e-06 1.2233e-05 1.38754e-05 2.55038e-05 1.80528e-06 2.80247e-06 1.40538e-05 2.20375e-05 6.93927e-06 3.0567e-06 1.08005e-05 4.09357e-06 2.07012e-06 4.35579e-05 1.60759e-05 3.34024e-05 2.02235e-06 1.92033e-06 0.000149524 1.53852e-05 3.93773e-05 2.41583e-05 0.000144471 7.39438e-06 1.06188e-05 5.21747e-06 1.63818e-06 3.23883e-06 1.57317e-05 2.11129e-06 2.00277e-06 2.26933e-06 5.94777e-06 6.20572e-06 1.77786e-06 1.28504e-05 7.99249e-06 8.14037e-06 2.61577e-05 1.20916e-06 1.22047e-05 2.13322e-05 2.32918e-05 1.46312e-05 1.99466e-05 3.0926e-05 1.90615e-05 1.97066e-05 2.18368e-06 1.55708e-05 3.15999e-05 1.42765e-05 1.34024e-05 2.00473e-05 2.45717e-06 1.70502e-05 2.44611e-05 2.70938e-05 1.04854e-05 1.16931e-05 4.05418e-06 4.44239e-06 2.12583e-05 1.72837e-05 5.16035e-06 4.95787e-06 4.39443e-06 2.41784e-05 4.49113e-05 3.41957e-05 5.33786e-05 0.000102959 6.1567e-05 9.32425e-05 2.9778e-06 1.16163e-06 1.81273e-05 8.72817e-06 7.8112e-06 2.08688e-06 6.30496e-06 1.53871e-05 1.77285e-05 1.72337e-05 1.50796e-05 1.29284e-05 6.51298e-06 1.7138e-06 6.4235e-05 6.26882e-05 1.93363e-05 2.00537e-05 0.000214698 0.000240688 6.49367e-06 3.52851e-05 6.35087e-06 1.31717e-05 3.33839e-05 7.91372e-06 1.52719e-06 2.20801e-05 1.94773e-05 2.45676e-05 1.85416e-05 1.99812e-05 2.60394e-05 0.000225734 0.000167754 8.97053e-06 0.000171797 1.46865e-05 0.000123539 1.85637e-05 5.83234e-06 5.24554e-06 9.20118e-05 1.74662e-05 1.57424e-05 1.32702e-05 1.83567e-05 2.02933e-05 1.01449e-05 1.41554e-05 1.30945e-05 1.16983e-05 2.34622e-05 5.33772e-06 2.69723e-05 2.21799e-05 2.58702e-05 2.17959e-05 3.78836e-05 2.48452e-05 2.45336e-06 1.22469e-05 4.53182e-06 1.14443e-05 1.29798e-05 3.86949e-05 2.62626e-05 8.75121e-06 9.46659e-06 9.09305e-06 1.48192e-05 1.42925e-05 1.33493e-05 1.19782e-05 3.4019e-05 1.71997e-05 2.07815e-05 0.000288377 0.00035231 0.000278801 2.0831e-05 1.6336e-05 5.30316e-05 7.14791e-05 1.4673e-05 2.16619e-05 1.62135e-05 1.14446e-05 0.000104078 0.000243006 0.000120531 0.00033772 0.000236533 0.000226526 4.5697e-05 7.41055e-05 3.48491e-05 5.77459e-05 4.43418e-05 6.16715e-05 4.10835e-05 3.3345e-05 3.40214e-05 2.00492e-06 4.04029e-05 2.56114e-05 2.1317e-05 1.79664e-05 5.31086e-05 2.13355e-05 1.81417e-05 2.86042e-05 1.87642e-05 3.91459e-05 9.67911e-05 0.000113668 0.000160726 8.6253e-05 1.83165e-06 0.000127097 6.80986e-05 2.60471e-05 2.67982e-05 3.33819e-05 2.28843e-05 2.68068e-05 2.93184e-05 2.49847e-05 2.51836e-05 1.07527e-05 4.1803e-05 2.48662e-05 1.40223e-05 2.48577e-05 1.48498e-05 1.35604e-05 8.97844e-06 4.64629e-06 2.98941e-06 5.784e-06 7.16501e-06 1.51504e-05 2.4721e-05 3.33872e-05 6.7411e-05 9.78871e-06 7.12232e-05 3.53667e-05 1.16834e-05 2.37172e-05 4.14739e-06 8.071e-06 0.000289386 8.7927e-06 7.98087e-06 0.000157054 0.000307443 7.71941e-06 2.4033e-05 4.53098e-05 1.45295e-05 1.74675e-05 3.63836e-05 2.99527e-05 9.3684e-05 3.87734e-05 4.37681e-05 1.53316e-05 3.4296e-05 1.5135e-05 2.31292e-05 1.43609e-06 3.52805e-06 2.00646e-06 1.07157e-05 4.64043e-06 2.46282e-06 9.81689e-05 0.000102611 2.52366e-05 1.09069e-05 1.49289e-06 2.63877e-05 3.46611e-05 4.1601e-06 0.000175595 4.13712e-06 1.8208e-05 2.70413e-05 1.40713e-05 9.08896e-06 2.91712e-05 2.22872e-05 4.71641e-05 1.2394e-05 2.36788e-05 0.000144861 4.14518e-05 2.85565e-05 2.31005e-05 2.35607e-05 2.56487e-05 4.03286e-05 1.9825e-05 3.96408e-05 1.33951e-06 1.63481e-05 1.89592e-06 3.25779e-06 1.86552e-05 3.30592e-05 1.46221e-05 2.77289e-05 2.87475e-05 3.26261e-05 3.61417e-05 8.73289e-05 1.81814e-05 1.52315e-05 2.11376e-05 3.07764e-05 7.55727e-05 5.06823e-05 2.59915e-05 3.07765e-05 2.978e-05 2.1453e-05 2.81847e-05 9.03824e-06 9.7144e-06 2.45245e-05 9.27583e-06 6.65509e-06 2.78286e-05 9.02743e-06 1.67404e-06 1.12578e-05 2.32463e-05 2.87955e-05 1.79693e-05 1.43081e-05 1.11342e-05 9.86703e-06 1.3224e-05 1.44978e-05 1.71963e-05 2.30857e-05 1.68449e-05 1.79143e-05 9.38023e-06 1.20059e-05 1.50675e-05 1.26488e-05 1.48444e-05 3.63066e-06 1.2497e-05 1.38956e-05 1.37793e-05 1.1386e-05 1.78416e-05 1.07281e-05 1.60697e-05 0.000105793 8.93705e-05 7.67221e-05 0.000112018 2.9752e-06 1.9069e-06 6.01236e-05 6.78253e-06 2.46461e-06 0.000120747 3.6498e-05 2.62821e-06 4.74447e-05 2.13467e-06 3.11308e-05 4.54347e-05 2.29151e-05 2.11435e-05 2.75284e-05 2.27937e-06 3.7368e-05 5.03895e-05 0.000139222 7.53651e-05 0.000215328 5.66159e-06 1.16921e-06 3.05637e-05 2.26334e-05 1.334e-06 7.63407e-06 2.70238e-06 1.40056e-05 5.61426e-05 4.27664e-05 4.2992e-05 1.13618e-05 4.61186e-05 1.24106e-05 1.50996e-05 6.01318e-05 4.74583e-05 8.8226e-06 1.14411e-05 1.89861e-05 2.99708e-05 9.63741e-06 1.48848e-05 2.02915e-05 5.46817e-06 1.83962e-05 4.36523e-05 7.63567e-05 7.80049e-06 3.8723e-06 4.11468e-05 1.30511e-06 4.44159e-06 3.14905e-06 1.62414e-05 0.000213857 5.70294e-06 6.59365e-06 1.25201e-05 3.30815e-06 2.414e-06 2.58479e-05 2.34272e-05 5.88069e-06 7.67369e-06 1.94638e-05 5.83588e-06 9.67685e-06 1.52314e-05 4.10134e-05 2.48343e-05 7.23308e-05 9.79277e-06 0.000186652 0.000249613 0.000147876 3.75264e-06 2.18702e-06 2.76848e-05 1.58472e-05 4.87766e-06 4.05036e-05 4.92829e-06 3.30704e-05 4.04489e-05 4.69725e-05 5.24278e-05 3.54974e-05 3.13737e-05 4.82822e-06 1.33358e-05 3.59343e-06 5.89668e-06 0.000117189 0.000151932 6.39395e-06 3.59316e-06 2.6554e-05 2.11057e-05 2.37762e-05 8.7308e-06 4.32902e-06 1.61805e-05 3.09381e-06 2.26617e-06 1.57849e-05 1.42139e-05 1.86385e-05 2.9288e-06 2.51718e-06 1.99733e-05 6.87125e-06 2.42296e-05 2.18694e-05 3.14446e-05 2.27061e-05 1.29621e-05 1.1729e-05 1.81318e-05 1.07645e-05 0.000131206 2.27149e-05 0.000130976 5.97176e-06 2.65082e-05 3.55454e-05 8.75741e-05 1.76236e-05 2.18097e-05 3.03881e-05 2.53276e-05 2.44788e-05 1.00029e-05 4.38212e-06 1.56438e-05 2.99186e-06 5.69002e-05 2.37216e-06 2.56148e-05 3.18192e-05 1.08679e-05 6.57006e-06 6.23026e-06 1.75973e-05 7.13277e-06 6.5616e-06 2.24995e-05 1.48484e-05 2.02249e-06 2.363e-05 3.55914e-06 1.30286e-05 1.39282e-05 6.57375e-06 1.41117e-05 5.73808e-06 1.57896e-05 1.71707e-06 3.15457e-05 2.52962e-05 2.05132e-05 2.10558e-05 0.000127003 2.19071e-05 2.05557e-05 2.70227e-05 1.37167e-05 1.32857e-05 2.44103e-05 1.69729e-06 2.4503e-05 2.43582e-05 2.51505e-05 0.000191695 2.01376e-05 2.01272e-05 0.000129858 3.11074e-05 0.00021311 2.70616e-05 1.41027e-05 9.04354e-06 1.30174e-05 4.1692e-06 2.55477e-06 2.5954e-06 0.000146867 9.01555e-05 0.00010786 0.000125561 3.08386e-06 0.000100044 1.32096e-05 1.41452e-05 2.6046e-05 6.54257e-05 3.39683e-05 7.52486e-06 4.73731e-05 2.00656e-05 9.01065e-06 8.16265e-06 2.11042e-05 1.15356e-05 1.58995e-05 3.22485e-05 0.000368094 0.000183853 1.42163e-05 2.37772e-05 2.37562e-05 2.03506e-05 1.73922e-05 1.63474e-05 1.17216e-05 2.09154e-06 1.19354e-05 2.97696e-06 1.10018e-06 1.34924e-05 3.98172e-05 7.37147e-06 5.18597e-06 1.31288e-05 1.37276e-05 2.5024e-05 1.5217e-05 2.14474e-05 3.7925e-05 2.66753e-05 1.4311e-05 2.11424e-05 1.90784e-05 2.21884e-05 4.62773e-05 7.90264e-06 1.31255e-06 1.23275e-05 1.8846e-05 3.35401e-05 1.64564e-05 4.31919e-06 1.63284e-05 1.28506e-05 2.17093e-06 1.35921e-05 1.02124e-06 1.37293e-05 3.08965e-05 2.23804e-05 1.17375e-05 2.27208e-05 1.5011e-05 1.3026e-05 7.29987e-06 3.3072e-06 1.25098e-05 1.42739e-05 9.5194e-06 2.26516e-05 2.73237e-05 2.79239e-05 9.54031e-06 1.03943e-05 8.09852e-06 3.34622e-06 6.26099e-06 0.000231877 0.000248099 1.32453e-05 2.97603e-05 1.66773e-05 2.08291e-05 2.19629e-05 0.00010267 2.73691e-05 1.20772e-05 1.17186e-05 2.14468e-05 2.57015e-05 3.0876e-05 3.63717e-05 2.96221e-05 3.27515e-05 2.73112e-05 1.49943e-05 2.49764e-05 2.06026e-05 3.82753e-06 1.05876e-05 1.43356e-05 9.89336e-06 2.24522e-05 1.58348e-05 9.40215e-05 8.25424e-05 7.94499e-05 6.11796e-06 1.79387e-05 1.09768e-05 7.83393e-06 6.63367e-06 1.06251e-05 1.48251e-05 1.11464e-05 1.209e-05 7.30929e-06 8.36125e-07 9.53954e-06 9.3942e-07 3.34174e-06 3.66203e-06 1.62621e-06 5.60285e-06 7.11645e-07 1.7241e-05 1.69977e-05 5.01563e-07 3.77231e-07 2.15979e-07 5.47607e-06 1.43444e-05 6.4861e-06 7.97957e-06 8.1377e-05 0.000154644 2.2856e-06 1.73632e-05 1.3327e-05 5.44373e-06 9.61681e-07 1.73985e-06 7.59659e-07 1.24244e-05 8.41383e-07 2.20068e-05 2.60895e-05 2.60591e-06 6.23243e-06 1.09477e-05 2.10781e-05 1.37838e-05 1.00966e-05 9.20114e-06 2.84413e-05 2.53857e-06 1.88864e-05 1.72787e-05 7.82322e-06 2.25347e-05 9.24114e-06 1.82804e-05 1.80302e-05 2.42311e-06 1.17123e-05 4.84124e-06 2.73559e-05 1.09662e-05 9.14866e-05 7.73239e-05 0.000100939 4.23688e-05 3.04249e-05 7.42359e-05 2.71146e-05 3.24458e-06 3.53269e-06 1.22757e-06 1.4274e-05 1.42837e-05 2.00137e-05 1.72909e-05 1.32365e-06 1.80072e-05 2.8848e-05 2.14393e-05 1.53081e-05 4.50582e-05 1.7533e-05 5.27622e-05 4.65473e-05 3.70413e-05 1.69057e-05 2.88666e-05 4.22631e-05 8.89609e-06 1.49534e-05 2.49853e-05 6.80322e-06 6.14194e-06 6.2844e-06 6.58015e-06 8.72854e-06 1.17551e-05 0.000168594 3.37057e-05 0.000118594 6.20839e-05 1.26764e-05 1.74329e-05 0.000118651 1.66986e-05 2.21311e-05 0.00010658 0.000117759 1.37784e-06 1.53846e-06 2.16437e-05 1.49025e-06 2.18782e-06 8.49904e-07 2.88439e-06 7.79091e-07 2.8273e-06 6.45485e-05 3.14457e-05 7.77404e-05 2.50608e-06 7.21404e-05 1.77083e-06 2.38553e-06 6.16313e-05 6.35765e-05 0.000338015 2.06024e-06 5.94837e-06 2.64081e-06 2.12034e-06 4.27484e-05 0.000419169 1.00998e-05 2.26529e-06 1.46663e-05 2.48413e-06 1.44686e-05 3.03155e-05 4.02985e-06 1.52662e-06 5.70879e-06 3.05203e-06 4.61652e-06 5.47844e-06 2.64125e-06 4.64137e-06 4.52302e-06 5.12567e-05 5.12305e-05 1.21195e-05 2.25931e-05 4.34715e-06 2.35169e-05 1.95457e-05 1.21581e-05 1.0994e-05 1.20724e-05 2.24895e-06 1.77741e-06 7.73798e-06 3.39709e-06 0.000103935 2.73988e-05 1.72795e-05 2.10753e-05 5.89071e-06 3.84497e-06 4.7071e-06 1.38003e-05 1.27495e-05 6.06784e-06 4.36094e-06 3.88112e-06 2.29026e-06 2.5e-05 3.23428e-06 4.65349e-06 5.77345e-05 2.9429e-05 8.65715e-06 5.88207e-05 1.93503e-05 3.44391e-05 5.37866e-05 1.40494e-05 9.0309e-06 1.87305e-06 3.21887e-06 2.45825e-05 1.25129e-05 2.44037e-06 1.33956e-05 1.34235e-05 1.82327e-05 1.36659e-06 1.02917e-05 8.50862e-06 4.46085e-06 1.09146e-05 2.66616e-05 2.22415e-05 6.87725e-06 1.5131e-05 3.6708e-05 8.59965e-05 9.95508e-05 1.97837e-06 2.23937e-06 1.57748e-05 2.70307e-06 1.61271e-05 6.57769e-06 1.1659e-05 1.834e-05 1.61473e-05 8.54613e-06 3.13804e-05 1.05235e-05 5.24158e-05 7.90328e-05 9.90661e-05 7.87284e-05 8.92878e-05 6.04375e-05 7.02117e-05 1.29185e-05 5.80853e-05 7.75458e-06 3.17778e-06 1.10432e-06 1.76684e-06 8.34402e-06 1.82453e-06 2.74754e-06 9.01499e-06 1.25687e-05 3.94585e-06 2.53638e-06 2.99215e-05 4.70322e-06 2.4865e-05 4.14965e-05 1.93772e-05 9.87033e-06 1.45964e-05 1.59454e-05 1.65056e-05 5.87591e-06 3.23094e-05 5.79771e-06 1.47061e-05 9.47915e-06 7.23357e-05 5.32028e-06 7.2501e-05 5.19511e-05 6.95647e-05 2.42588e-05 2.96521e-05 7.98293e-05 3.74789e-05 6.61165e-06 2.43578e-06 1.26186e-05 1.31552e-05 1.9466e-06 1.11969e-05 1.35096e-05 1.34317e-05 1.97314e-05 3.08995e-06 5.33104e-05 0.000126347 4.18826e-05 4.48519e-05 1.62999e-05 1.04883e-05 1.48141e-05 1.33813e-05 8.3192e-06 1.21631e-05 3.14605e-06 1.38306e-05 7.3062e-06 7.02556e-06 1.36296e-05 1.07722e-05 1.51568e-05 1.39172e-05 1.3668e-05 2.49351e-05 7.96408e-06 1.85028e-05 0.000119661 1.39626e-05 5.61568e-05 0.000131079 4.81471e-06 7.16308e-06 7.28063e-06 1.62261e-05 2.6473e-05 2.42382e-05 4.27146e-05 1.06086e-05 7.29644e-06 1.92127e-05 1.2877e-05 4.67933e-05 7.96121e-06 8.09153e-06 5.79227e-05 4.13804e-05 0.000118845 8.27304e-05 4.18623e-05 1.03068e-05 2.50581e-05 5.30804e-05 5.26982e-06 1.71613e-05 9.73078e-06 9.46222e-06 7.06483e-06 7.27026e-05 3.87281e-05 1.0935e-05 3.70161e-05 1.65866e-05 2.3314e-05 1.23568e-05 1.52647e-05 1.58887e-05 3.81962e-06 1.29864e-06 1.11777e-05 1.70336e-05 2.55229e-05 1.61517e-05 0.000172209 0.000175047 0.000135256 1.34465e-05 1.03105e-06 0.000163215 1.07474e-05 1.25699e-05 1.09364e-05 8.67782e-05 0.000286113 0.000264832 9.89349e-06 1.1017e-06 0.000198347 4.39519e-06 1.00771e-05 1.79795e-05 5.1755e-06 0.00036506 6.85815e-06 1.81464e-05 2.39208e-05 2.74494e-05 0.000239717 0.000110396 0.000110609 3.37253e-05 2.36159e-06 3.49136e-05 6.94075e-05 2.12115e-05 2.98014e-05 2.3345e-05 2.75996e-05 3.89172e-06 0.000121991 5.76479e-06 0.000179962 5.46362e-06 4.29132e-06 3.34659e-05 5.84774e-05 1.98891e-05 1.58663e-05 2.18703e-05 1.63508e-05 2.62457e-05 3.01793e-05 2.68091e-05 3.97374e-05 1.11768e-05 1.41659e-05 1.28763e-05 3.71372e-05 2.15817e-05 1.868e-05 2.18515e-06 9.08039e-06 3.0022e-06 6.1595e-06 2.09787e-05 6.69501e-05 8.58902e-05 0.000112298 2.50505e-05 9.77343e-05 7.98776e-05 2.44708e-05 1.64038e-05 2.63858e-05 1.92232e-05 1.36836e-05 1.73826e-05 2.20288e-05 1.20333e-06 2.02125e-05 3.41468e-06 8.8334e-05 3.6586e-06 9.86137e-05 6.34072e-05 0.000111599 2.8844e-05 1.61683e-05 1.75271e-05 3.21963e-05 9.32821e-05 6.35399e-05 4.20862e-06 1.30291e-06 5.28451e-06 1.4018e-06 2.91855e-06 7.2836e-06 2.00791e-05 1.06953e-05 2.12442e-06 1.09896e-05 1.55724e-05 1.72174e-05 1.91993e-05 1.87848e-05 1.166e-05 3.19989e-05 1.66708e-05 2.7522e-06 3.26579e-06 1.93961e-05 1.57747e-05 1.04362e-05 5.3181e-06 1.53627e-05 1.50328e-05 2.12746e-05 1.24654e-05 1.5273e-05 1.63156e-05 1.16848e-05 3.25937e-05 1.45594e-05 8.77149e-06 1.9309e-05 2.89623e-06 2.01919e-05 4.00461e-05 3.61284e-05 1.30973e-06 1.19668e-05 1.30928e-05 2.07613e-05 1.45627e-05 1.34063e-05 1.12036e-05 1.36309e-06 6.90085e-06 1.04755e-05 1.92012e-06 2.82485e-05 2.59841e-06 2.35444e-05 1.53661e-05 4.9339e-06 8.44274e-06 7.1796e-06 5.14324e-06 3.53293e-05 2.45534e-06 2.29536e-05 7.75756e-05 6.46452e-05 8.08904e-05 6.1043e-05 5.14805e-06 6.61361e-05 4.30278e-06 2.44032e-05 3.0413e-05 4.42679e-06 3.82917e-06 1.12711e-05 4.43495e-06 9.7907e-06 1.42216e-05 9.80232e-06 3.5893e-05 8.11869e-05 5.29237e-05 2.583e-06 1.23943e-05 4.0082e-06 7.05543e-06 3.67532e-06 9.15071e-06 9.02844e-06 5.83024e-06 5.07565e-06 1.97042e-06 2.32743e-06 2.8381e-06 2.80122e-06 2.60747e-06 1.75779e-05 1.83545e-06 6.96775e-06 1.17173e-05 4.56488e-05 1.94883e-06 7.43435e-06 3.87627e-05 7.60881e-05 6.06829e-05 2.28786e-06 5.28495e-06 1.48395e-05 3.6275e-06 5.8322e-06 7.23774e-06 2.13828e-06 2.1837e-06 2.64484e-06 8.57713e-06 9.27375e-06 1.39491e-05 9.95078e-05 5.88509e-06 9.65093e-06 4.90835e-06 2.35328e-05 6.17443e-05 1.50251e-05 1.221e-05 3.73015e-06 3.75511e-06 3.03281e-05 3.03779e-05 8.55715e-06 4.01318e-05 1.24314e-05 5.74117e-06 1.40241e-05 9.1273e-06 1.21109e-05 1.07876e-05 1.26631e-05 8.94524e-06 1.10013e-05 1.88102e-05 1.34549e-05 1.60034e-05 1.12066e-05 7.36592e-06 7.7257e-06 1.9307e-05 8.32284e-06 1.38096e-05 1.41334e-05 1.42564e-05 1.7232e-05 2.08494e-05 1.76131e-05 1.01391e-06 1.61147e-05 1.57756e-05 8.90478e-07 2.03458e-05 7.02517e-06 1.64989e-05 4.03665e-07 1.46226e-05 1.67918e-05 4.29722e-07 5.36336e-06 5.10169e-06 3.64713e-06 6.67615e-06 4.79759e-06 1.84433e-07 1.53109e-05 6.61689e-06 3.46542e-05 2.9876e-05 1.29284e-05 1.59875e-05 3.99557e-05 1.83355e-05 1.25351e-05 7.37885e-06 1.26231e-05 1.72383e-05 1.09992e-05 2.91071e-06 9.42813e-06 1.16437e-06 4.65097e-06 7.27277e-06 1.10631e-06 1.30225e-06 2.96854e-05 2.11893e-05 1.80949e-06 1.97089e-06 3.14213e-05 3.45128e-05 3.0392e-05 1.79874e-06 5.3351e-05 3.80233e-05 8.65078e-05 4.52178e-05 1.34803e-05 1.6269e-05 9.8482e-06 1.4112e-06 1.49265e-05 0.00012136 1.66477e-05 0.000206679 1.71846e-06 1.51765e-06 1.43802e-05 1.84179e-05 1.26676e-05 1.88847e-05 2.19655e-05 2.06803e-05 1.06908e-05 8.92653e-06 4.02797e-05 2.9173e-05 1.50655e-05 1.70272e-06 1.10782e-05 2.54999e-06 2.57212e-06 1.80351e-05 3.59454e-06 1.92232e-05 9.34913e-06 0.000125533 9.68657e-05 2.87756e-06 8.82065e-06 9.86612e-05 8.78957e-05 8.09077e-05 9.53059e-05 0.000122462 1.63193e-05 1.45979e-05 1.49549e-05 1.4401e-05 1.58692e-05 2.10749e-06 2.02922e-06 2.56655e-06 3.58299e-06 2.32028e-05 3.40751e-06 5.90082e-06 6.87791e-05 8.63287e-05 2.68746e-06 7.14474e-05 2.17109e-05 4.79003e-06 1.42145e-05 3.19023e-05 2.06297e-05 9.1866e-06 2.06777e-05 2.26065e-05 8.64471e-06 7.59971e-05 6.50601e-06 4.86146e-05 2.18175e-05 6.91663e-05 3.93689e-05 2.892e-05 0.000296071 1.83072e-06 0.000134931 0.000176679 3.83082e-05 1.7327e-06 3.59402e-05 2.20206e-05 2.90627e-05 2.35932e-06 1.39452e-06 1.28934e-06 1.63954e-06 1.7711e-06 1.11991e-05 1.21973e-05 1.71598e-05 4.22832e-06 0.000639696 6.91899e-06 1.17486e-05 1.94451e-06 6.59753e-06 3.52092e-06 1.5704e-05 4.85535e-06 1.62964e-05 2.21254e-05 1.75054e-05 1.81412e-05 2.1149e-05 1.7431e-05 7.52226e-06 1.45165e-05 8.87931e-06 2.71658e-06 1.29333e-05 1.52784e-05 9.21213e-06 7.69615e-06 9.00852e-06 1.0826e-05 3.03665e-05 3.2703e-05 7.23126e-06 7.83726e-06 2.60858e-05 2.89418e-06 8.15013e-06 6.20738e-05 5.13762e-05 1.31841e-05 5.68321e-05 0.000208254 1.1151e-05 0.000122857 1.15618e-05 0.000448312 2.48085e-05 0.000480162 0.000107888 0.000100519 0.000100093 2.72748e-06 0.000134374 1.73338e-05 1.40535e-05 1.30768e-05 3.51072e-06 1.16884e-05 3.35179e-06 5.44054e-05 1.72027e-05 9.32911e-06 2.927e-05 1.25621e-05 5.96379e-06 1.83473e-05 9.35134e-06 1.41326e-05 2.49236e-05 1.25676e-05 1.84962e-05 1.93887e-06 3.16941e-06 5.85829e-06 8.90197e-06 3.97326e-07 4.89208e-06 4.35048e-06 1.74753e-05 1.1375e-05 1.29187e-05 1.25e-05 1.58032e-05 2.12737e-05 8.13872e-06 2.36417e-05 2.76485e-05 1.16825e-05 2.5636e-05 1.64929e-05 2.06779e-05 1.61143e-06 1.38642e-05 2.01049e-05 1.99341e-05 1.8683e-05 1.03797e-05 5.50504e-06 3.80287e-06 3.55534e-06 2.01134e-06 3.85859e-06 1.11956e-06 1.8637e-06 2.23243e-06 0.000119564 0.0001279 0.00011124 6.36261e-05 9.64395e-05 0.000177522 1.68663e-05 0.000193947 1.1206e-06 5.0193e-06 6.40302e-06 8.0391e-06 1.1601e-05 4.06932e-05 2.46628e-05 4.58311e-05 2.63117e-05 1.66412e-05 1.0311e-06 1.54239e-05 5.69335e-05 1.25423e-05 3.85187e-05 1.71267e-05 1.94512e-05 5.47018e-05 3.81396e-06 7.11849e-06 6.84651e-06 2.56061e-05 3.94662e-05 3.80287e-06 1.01976e-05 6.54661e-06 1.85614e-06 1.78547e-05 1.85481e-05 3.77767e-05 4.3633e-05 4.84571e-05 4.08992e-06 3.77324e-06 1.35554e-06 1.41393e-05 1.74943e-05 0.000652285 0.00052569 2.57909e-05 0.000446837 0.000451222 0.000630679 0.000600582 1.36627e-05 0.000470025 2.561e-05 3.3239e-06 2.26337e-06 0.00055486 0.000250618 2.11457e-06 9.80078e-07 7.44293e-07 3.32552e-05 0.000394532 0.000278918 0.000130051 0.000616941 9.16129e-05 0.000183444 0.000446664 7.56171e-06 6.8311e-06 4.08832e-06 4.17398e-06 1.02277e-05 1.76459e-05 2.10464e-05 7.42764e-06 6.75702e-06 1.30048e-05 7.35293e-05 1.36588e-05 1.08478e-05 5.42779e-06 0.000382142 1.64085e-05 1.55612e-05 1.9716e-05 1.6449e-05 9.66169e-06 1.24536e-05 2.75896e-05 1.80724e-06 6.22716e-06 1.23302e-06 2.83702e-06 3.72241e-06 5.52091e-06 1.51129e-05 3.51141e-06 4.75827e-06 9.07284e-06 1.07636e-05 1.84578e-05 0.000120718 4.34199e-05 2.11341e-06 5.09998e-06 1.38426e-05 1.40561e-05 6.41265e-06 1.11382e-05 1.48042e-05 3.07317e-05 3.25804e-06 1.30022e-05 1.78973e-05 1.24385e-05 2.00319e-05 2.58005e-05 1.29904e-06 4.06493e-05 2.82911e-05 7.08302e-07 3.76121e-07 5.07754e-06 6.46075e-06 9.01865e-06 7.38873e-06 1.94568e-05 4.58306e-06 1.19265e-05 7.24937e-07 2.24963e-06 1.94286e-05 1.42758e-05 2.05443e-05 2.42618e-05 3.29689e-05 3.67424e-05 2.44333e-05 8.28708e-06 1.5345e-05 2.24359e-05 6.67078e-06 3.47844e-05 7.42826e-06 2.51248e-05 1.79256e-05 5.13372e-06 2.53508e-05 2.27978e-05 1.21639e-05 1.49074e-05 1.41706e-05 1.57842e-05 1.64222e-05 1.76037e-05 1.2215e-05 2.28748e-05 1.48257e-05 1.65864e-05 4.38582e-06 1.90699e-05 5.51991e-06 1.16848e-06 4.72437e-06 1.97586e-05 0.000118986 9.70798e-05 7.54925e-06 1.70877e-05 1.63607e-05 4.39298e-05 3.5086e-05 2.21079e-05 2.50384e-05 2.42868e-05 5.54954e-05 1.64995e-06 5.59953e-06 3.22837e-05 3.85142e-06 7.33018e-06 1.01758e-05 1.39547e-05 2.28393e-05 6.69411e-06 1.20725e-05 1.98776e-05 4.66622e-06 1.05018e-05 4.18275e-06 7.84486e-05 9.5897e-05 1.61613e-06 1.647e-06 1.57542e-05 5.41308e-06 1.86508e-05 2.27653e-05 1.9405e-05 1.83343e-06 4.96124e-05 2.18029e-05 1.23546e-05 2.09387e-05 1.60845e-05 7.93835e-05 2.07926e-05 6.99889e-06 2.55125e-07 1.04943e-05 4.9743e-07 9.62121e-06 1.15538e-05 9.46204e-06 9.62401e-06 6.5161e-06 2.29975e-05 2.90654e-05 2.8163e-05 4.63372e-06 1.63571e-05 9.82855e-06 2.29454e-05 1.22531e-05 1.29984e-05 1.07456e-05 8.64755e-06 5.31886e-06 2.3452e-05 2.65208e-05 3.16671e-06 1.19456e-06 0.000224232 0.000265972 0.00012148 0.000122434 0.000251504 0.000155504 1.47678e-05 1.97677e-05 8.55142e-06 1.99346e-05 1.8322e-05 1.05659e-06 1.18405e-05 9.49741e-07 4.64159e-06 2.78024e-05 2.3887e-06 2.87221e-06 1.69624e-05 4.57367e-05 1.6775e-05 3.8378e-05 3.67771e-05 8.9904e-06 1.53833e-05 1.12551e-05 4.21279e-05 2.48165e-06 1.57246e-05 1.29358e-05 5.66504e-06 6.83693e-06 3.14091e-06 1.19053e-05 3.37374e-05 3.87669e-06 2.56851e-06 3.80075e-05 1.92101e-05 1.27459e-05 7.14058e-06 5.87605e-06 4.71627e-06 1.38378e-05 4.67866e-06 0.000190941 1.10243e-05 0.000122436 6.18102e-05 9.50614e-06 4.99242e-06 8.24904e-06 3.41958e-06 2.50157e-06 1.05259e-05 7.06062e-06 2.47857e-06 1.39289e-06 1.58012e-05 1.31149e-06 5.57974e-06 1.25951e-05 3.83455e-06 3.82777e-06 1.1984e-06 2.37709e-05 1.94301e-05 9.85795e-06 7.53298e-05 8.04565e-05 7.07131e-05 1.84973e-05 1.94725e-05 1.96424e-05 2.07619e-05 3.05488e-06 6.9987e-06 1.5578e-05 1.3397e-05 1.26624e-06 1.68424e-05 0.000124678 1.60671e-05 1.23071e-05 8.98813e-05 8.98053e-06 0.000123915 1.70086e-05 0.000193161 2.21742e-05 1.59184e-06 1.23787e-06 1.41472e-05 1.89283e-05 2.89039e-05 1.16621e-05 1.55634e-06 1.6308e-05 1.15828e-06 1.62658e-06 1.72033e-05 2.72229e-05 2.65468e-05 4.63428e-05 3.51774e-05 1.26094e-05 1.11493e-05 1.44426e-05 1.19555e-05 4.86013e-05 1.85289e-05 2.84103e-05 6.3556e-06 1.62777e-05 4.23127e-06 1.04562e-05 1.43205e-05 5.4751e-05 1.13461e-06 8.49626e-06 3.29587e-06 6.5718e-07 2.07876e-06 3.81871e-05 4.69522e-05 2.24123e-05 4.30019e-05 4.8823e-05 6.54259e-05 7.69518e-05 3.39916e-05 1.44184e-05 1.79019e-06 6.9752e-06 7.31339e-06 5.86732e-06 1.12514e-05 1.0309e-05 8.97137e-06 1.0307e-05 1.64427e-05 2.5062e-05 2.11914e-05 2.37428e-05 2.95276e-05 2.75231e-05 5.74723e-06 3.34837e-05 5.73348e-06 3.72576e-06 2.86693e-05 8.15813e-06 1.10764e-06 2.01608e-06 1.16325e-05 3.80336e-06 5.65174e-06 1.27731e-05 1.72513e-05 7.56868e-06 1.41806e-06 0.00012831 1.584e-06 1.82887e-06 1.38858e-05 1.93605e-05 1.71016e-06 2.05462e-05 1.3339e-05 2.92654e-06 3.465e-06 4.53896e-06 1.41303e-05 1.42516e-05 8.00278e-06 1.24382e-05 1.08577e-05 1.00922e-05 5.77842e-06 1.42036e-05 1.09807e-05 2.55375e-05 1.5452e-05 9.24569e-06 2.4072e-05 6.7647e-06 2.02547e-05 2.7215e-05 9.54951e-06 2.04602e-05 2.3955e-05 8.23845e-07 9.11996e-06 1.0042e-06 1.15035e-05 1.55461e-05 1.44503e-05 2.98991e-05 1.08709e-05 9.42464e-06 5.85012e-06 5.90486e-06 2.33049e-06 3.27984e-05 1.71472e-05 1.68036e-06 3.54974e-05 4.65943e-05 8.73143e-05 1.60415e-06 2.00152e-06 2.32207e-06 3.38697e-05 2.06973e-05 1.95193e-05 1.74471e-05 2.34199e-05 1.20266e-05 1.17893e-05 1.1846e-05 1.61177e-05 7.91744e-06 2.93095e-05 2.52083e-05 8.53367e-06 2.07952e-05 1.82358e-05 1.75907e-05 9.54093e-07 1.31866e-05 7.07654e-06 2.20885e-05 0.000237875 1.09584e-05 1.66967e-05 8.64135e-07 1.74395e-06 5.09265e-06 1.62296e-05 2.73677e-05 7.79578e-06 1.31859e-05 2.782e-05 2.49159e-05 2.29332e-05 3.54373e-05 1.32993e-05 9.93847e-06 2.53306e-05 1.32329e-05 2.06292e-05 2.1143e-05 1.67829e-05 1.32467e-06 8.41796e-06 1.24623e-05 8.51014e-06 1.23389e-05 6.07666e-06 1.11588e-05 1.34184e-05 7.26213e-06 5.26072e-06 1.96306e-05 1.00339e-05 8.03345e-06 1.72166e-05 2.21761e-05 1.59294e-05 3.01244e-05 1.79484e-05 2.53769e-05 2.76514e-05 1.63619e-05 1.19282e-05 6.47033e-05 5.66886e-05 1.10099e-05 1.43664e-05 1.9308e-05 2.81816e-05 1.36229e-05 1.41878e-05 7.73874e-06 1.10329e-05 1.78583e-05 1.34044e-05 3.22819e-05 2.552e-05 9.86025e-06 8.00834e-06 1.2814e-05 3.07274e-05 1.22927e-05 1.80203e-05 4.95523e-06 0.000130808 1.66805e-05 1.84586e-05 1.50495e-05 8.81406e-06 2.32033e-05 1.28328e-05 3.3334e-05 2.40811e-05 7.22963e-07 1.95163e-06 1.13618e-05 1.05475e-05 1.9362e-06 1.89556e-06 2.96854e-05 1.07524e-05 1.44719e-05 2.05123e-05 0.000130783 3.33492e-05 0.000118732 2.58425e-05 0.000179453 1.31055e-05 2.5015e-05 4.54116e-05 5.04262e-06 3.55166e-06 3.40492e-06 9.89903e-06 9.49207e-07 6.42079e-05 1.28893e-06 2.9248e-05 6.98838e-05 1.27934e-06 3.08671e-05 2.44506e-05 2.58881e-06 2.64473e-06 1.80304e-06 0.000127821 7.5796e-06 7.7518e-06 0.000126559 0.000116669 2.64033e-05 3.28565e-05 2.71915e-05 2.75717e-05 1.85064e-05 1.12945e-05 8.95372e-06 4.76374e-06 8.63653e-05 1.1366e-05 4.94359e-05 8.29923e-06 1.61878e-05 1.08872e-05 2.47115e-06 1.63409e-05 1.19484e-05 2.73577e-05 2.31503e-05 1.70075e-05 1.34374e-05 2.08449e-05 1.41516e-05 5.65504e-06 1.03536e-05 2.12693e-05 1.55178e-05 1.21122e-05 2.03809e-05 1.0355e-05 3.83237e-06 8.65538e-06 4.71667e-06 4.009e-06 8.74156e-06 7.59191e-06 8.12249e-06 3.83958e-06 5.32315e-06 3.48557e-06 2.76722e-06 3.75529e-05 2.16992e-05 2.502e-05 1.43437e-05 1.80399e-05 1.5473e-05 6.7214e-06 9.94632e-06 1.16866e-05 1.50745e-05 1.44968e-05 2.34784e-05 1.65093e-05 1.85623e-05 6.47278e-06 6.30091e-06 2.79986e-06 3.50701e-06 2.22069e-05 2.51752e-05 1.06851e-05 1.1705e-05 1.56227e-05 1.89788e-05 2.14771e-05 1.01849e-05 2.04664e-05 3.30544e-05 1.97016e-05 1.82703e-05 2.33731e-05 5.01466e-05 1.07204e-05 2.3539e-05 1.85301e-05 7.87421e-06 9.27388e-06 1.04648e-05 4.22895e-06 2.32186e-05 1.4044e-05 9.61855e-06 1.13497e-05 2.61755e-05 1.12798e-05 1.10571e-05 1.0923e-05 1.15521e-05 1.5857e-05 1.9315e-05 1.09265e-05 9.75743e-06 2.59186e-05 2.83291e-05 6.12155e-06 3.58624e-05 1.41783e-05 1.18885e-05 2.07589e-05 2.0856e-05 7.29027e-06 1.05634e-05 8.78413e-06 4.63229e-06 7.43457e-06 1.95506e-06 3.19252e-06 1.84943e-05 4.1489e-05 2.00293e-05 5.96529e-05 9.21535e-05 9.1225e-05 7.37168e-05 1.67484e-05 1.58766e-05 4.90673e-05 4.48341e-06 4.16169e-05 1.689e-05 4.608e-05 0.000102403 3.40741e-05 9.37098e-05 6.25848e-05 2.0364e-05 2.76655e-05 1.91077e-05 2.84649e-05 1.71802e-05 1.77144e-05 2.80215e-05 1.20835e-05 7.85245e-06 0.000117218 6.20651e-05 6.0041e-05 4.66634e-05 8.34032e-05 0.000109454 6.48636e-06 3.40432e-06 2.1814e-05 2.03362e-05 2.79061e-05 2.40786e-06 1.32037e-05 4.2526e-05 3.64184e-05 9.95768e-06 4.96299e-06 1.7775e-05 1.19827e-05 1.89868e-05 1.058e-05 4.66593e-05 2.17681e-05 4.84559e-05 6.13651e-05 4.81348e-05 5.20091e-05 1.4923e-05 2.87074e-05 3.07862e-05 2.14616e-05 1.75241e-05 1.40367e-05 0.00011297 1.38575e-05 2.26826e-05 1.93537e-05 8.52076e-06 2.78829e-05 1.84729e-05 8.42734e-06 1.33048e-06 3.13292e-06 8.65264e-06 2.57128e-05 4.36804e-05 2.0837e-05 3.81275e-05 2.54192e-05 3.82232e-05 2.19185e-05 6.04297e-05 1.99307e-05 2.0527e-05 1.36075e-05 1.91248e-06 2.49039e-05 3.01501e-05 1.26804e-06 2.88145e-05 2.36809e-05 1.85189e-05 1.28302e-05 7.60684e-06 2.03201e-05 1.00088e-05 2.64717e-06 2.06135e-06 2.01624e-05 1.20175e-05 3.10125e-05 2.67965e-06 1.32623e-05 5.65901e-06 3.54989e-06 6.21091e-06 5.25237e-06 5.15769e-06 1.28805e-05 1.49629e-05 3.20682e-06 3.92216e-05 0.000180366 0.000371848 1.49079e-05 0.000134258 0.000119083 7.76291e-05 4.20089e-05 3.48001e-05 3.76034e-05 8.70711e-06 4.04872e-05 1.34838e-05 3.20761e-05 3.23666e-05 8.8861e-06 7.87776e-06 7.85102e-06 9.17258e-06 8.86176e-06 1.67928e-05 1.16173e-05 7.57606e-06 2.30079e-05 1.95279e-05 1.55192e-06 1.78423e-06 3.28468e-05 1.44303e-05 1.12239e-06 1.39603e-05 4.94771e-06 7.24959e-06 9.34026e-06 1.86554e-05 1.60737e-05 7.28567e-06 1.10945e-05 5.33034e-06 4.93292e-06 6.67513e-06 4.55455e-05 4.10192e-05 1.20534e-05 1.18394e-06 1.90788e-05 4.02186e-05 5.04561e-06 1.52195e-05 3.66834e-05 1.91422e-05 9.07387e-05 6.6757e-06 3.50434e-06 1.18616e-05 1.98512e-05 8.96309e-06 1.86091e-05 4.37094e-06 2.46713e-05 1.2592e-05 6.00721e-06 1.9774e-05 2.05107e-05 1.73565e-05 1.91468e-05 6.15458e-06 5.86874e-06 8.05544e-06 1.07116e-05 0.000113755 0.000105245 0.000163333 0.000150899 5.1159e-05 8.35681e-06 0.000147584 9.50279e-05 2.11366e-05 1.06553e-05 3.94339e-06 1.4767e-05 1.122e-05 3.17194e-05 1.02663e-05 1.65187e-05 7.90707e-06 1.04888e-05 8.59001e-06 2.04912e-06 2.92415e-06 1.51188e-06 1.15233e-05 5.50745e-06 3.82331e-06 1.61951e-05 1.21909e-05 1.56336e-05 7.71439e-06 1.86161e-05 7.8984e-06 1.97499e-05 0.000106491 3.47504e-05 1.45247e-05 2.89827e-05 2.33008e-06 3.00906e-05 1.92605e-06 7.10139e-06 1.66472e-05 1.41624e-05 1.6203e-05 1.19197e-05 1.11006e-05 1.38917e-05 6.18802e-06 6.02861e-05 0.000152642 7.33918e-05 5.2338e-05 4.62159e-05 3.80655e-05 6.14651e-05 1.39148e-05 1.83958e-05 1.36625e-05 3.27261e-05 1.11543e-06 7.96854e-05 6.65673e-05 5.33793e-05 0.000105362 2.45528e-05 7.81057e-06 1.17942e-05 8.27557e-06 2.20624e-05 2.25559e-05 1.86886e-05 1.90984e-05 1.11146e-05 1.8671e-05 2.40442e-05 9.89665e-06 2.03698e-05 1.59099e-05 1.31148e-05 4.58849e-05 1.6609e-05 1.57777e-05 1.06659e-05 2.82158e-05 4.26558e-05 8.41717e-06 5.02067e-05 2.04068e-05 7.45728e-06 7.91515e-05 2.03647e-05 2.77292e-06 2.80307e-06 6.74985e-06 1.98573e-06 1.31293e-05 1.99343e-06 3.49171e-06 2.66787e-05 2.34997e-06 5.59496e-06 1.2365e-06 1.94623e-05 1.92644e-05 6.2267e-06 9.60446e-06 1.21548e-05 1.87939e-05 2.83557e-06 5.85137e-05 5.59967e-05 3.89632e-06 1.05222e-05 7.31709e-06 2.18247e-05 6.21042e-06 1.03223e-05 3.42948e-05 5.78956e-06 7.45017e-06 7.90886e-06 2.67023e-05 1.31712e-05 1.95521e-05 1.92276e-05 1.05521e-05 2.89875e-05 2.23678e-05 2.27476e-05 2.72664e-05 4.8336e-06 1.0197e-05 9.2147e-06 6.74038e-06 9.14705e-06 5.54892e-06 2.83244e-05 4.70893e-05 7.68838e-06 4.76085e-06 2.44123e-05 3.1742e-05 2.82743e-05 2.07483e-05 1.71e-05 2.22993e-06 1.49052e-05 3.3255e-05 7.75886e-05 5.50933e-06 7.57903e-05 9.22012e-05 5.21458e-06 4.09778e-06 7.83148e-06 6.65742e-05 1.66483e-05 1.79206e-05 1.00881e-05 1.89438e-05 4.69428e-05 1.4054e-05 1.75806e-05 1.28688e-05 1.33289e-05 1.04041e-05 2.00391e-05 1.97404e-05 2.04881e-05 3.37555e-06 1.52089e-05 9.01571e-06 1.50362e-05 0.00013045 1.6176e-06 1.49234e-05 2.78161e-06 1.06433e-05 1.14989e-05 1.28417e-05 7.16658e-06 6.30127e-05 6.79487e-05 7.67468e-06 9.98182e-06 1.87214e-05 1.32811e-05 1.21446e-05 1.67763e-05 1.56473e-05 1.0297e-05 8.35145e-06 1.09283e-05 8.04976e-06 5.84531e-05 2.56503e-05 7.70668e-06 6.27671e-05 3.21248e-05 9.16404e-06 6.43377e-06 7.60692e-06 5.21257e-06 2.03259e-05 5.05245e-06 1.16117e-05 1.46694e-05 1.06275e-05 8.82877e-06 1.2884e-05 2.93864e-05 3.25764e-05 3.67604e-05 2.64384e-05 8.99664e-06 4.26864e-05 6.8445e-06 4.58364e-05 1.62012e-05 2.80018e-05 1.37028e-05 7.50415e-06 1.01579e-05 6.6668e-06 7.52768e-06 1.66225e-05 8.01323e-06 1.39572e-05 1.56207e-05 1.80572e-05 1.24222e-05 1.46209e-05 1.96582e-05 1.19992e-05 1.11571e-05 1.11062e-05 1.28832e-05 1.67118e-05 1.31261e-05 1.08546e-05 2.07491e-05 1.16582e-05 8.14858e-05 0.000155722 3.00633e-06 4.28806e-06 1.05595e-05 1.00784e-05 5.42021e-05 5.33721e-05 0.000103251 2.85935e-06 8.47078e-06 1.3855e-05 1.18971e-05 1.1034e-05 1.13989e-05 1.28299e-05 9.63877e-06 8.06078e-06 1.23546e-05 8.04486e-06 5.99322e-06 8.76631e-06 1.7566e-05 1.81591e-05 1.8048e-05 9.20581e-05 1.33073e-05 0.000110381 1.58107e-05 1.41559e-05 2.03298e-05 9.4011e-06 1.4318e-05 1.01212e-05 1.03162e-05 1.42535e-05 1.47331e-05 1.04038e-05 1.05194e-05 1.27919e-05 2.01203e-06 1.65597e-05 2.26025e-05 1.24512e-05 2.44628e-06 0.000155077 3.42799e-06 0.000117877 8.62335e-06 7.30779e-06 9.94297e-06 6.30224e-06 9.88305e-07 1.36627e-05 2.24837e-06 3.16e-05 2.29771e-05 8.79835e-06 1.01761e-05 7.0203e-06 1.23727e-05 6.90042e-06 1.42441e-05 1.61446e-06 1.53709e-05 1.42285e-05 2.33983e-06 6.91691e-06 1.55042e-05 2.28204e-05 3.374e-05 2.89947e-05 9.68234e-05 1.34565e-05 0.000174661 9.94883e-05 9.35705e-06 1.88034e-05 3.24466e-05 1.8275e-05 1.1091e-05 7.37848e-06 1.04578e-05 2.78931e-05 3.77401e-05 5.45839e-05 3.82579e-05 3.66541e-05 1.77436e-05 1.62509e-05 1.28932e-05 2.06794e-05 1.16958e-05 1.58568e-05 1.45216e-05 1.0943e-05 1.07665e-05 1.25951e-05 4.63283e-06 1.55948e-05 1.5141e-05 2.61575e-05 4.68197e-06 9.93714e-06 0.000165796 5.08643e-05 1.94413e-05 2.13395e-05 2.21645e-05 1.85748e-05 2.2008e-05 1.66061e-06 6.25643e-06 1.90225e-06 1.56326e-06 1.94888e-06 2.55234e-06 1.49215e-06 1.30227e-05 9.12768e-07 1.11316e-06 1.62562e-05 2.47061e-07 1.65329e-05 7.50012e-07 6.23614e-07 2.87372e-06 2.25401e-05 6.30197e-06 1.94497e-07 8.75317e-06 8.91966e-06 9.9858e-06 3.00136e-07 1.25188e-05 1.40539e-05 2.23533e-05 4.15357e-06 4.19899e-06 5.92671e-06 4.35332e-06 4.44163e-06 5.94078e-05 1.20822e-05 4.68513e-06 1.14708e-05 1.2365e-05 4.91399e-05 1.18923e-05 8.25058e-06 1.07542e-05 8.42481e-06 1.77244e-06 6.82836e-06 8.40194e-06 2.35257e-05 2.64824e-05 9.26238e-06 2.13483e-06 1.27745e-05 2.2979e-06 1.16708e-05 8.78236e-06 9.34543e-05 2.1804e-06 7.66598e-06 2.96109e-06 3.7135e-06 2.35884e-06 2.89717e-06 1.4995e-05 1.68944e-05 1.23744e-05 7.45854e-06 7.38185e-06 1.90495e-05 1.72408e-05 4.41573e-05 1.21545e-05 1.19705e-05 5.44983e-06 7.43285e-06 1.37546e-05 1.31114e-05 1.63053e-05 1.86315e-05 1.0758e-05 1.62409e-05 9.47902e-06 2.45929e-06 2.60458e-06 3.63371e-05 2.87824e-05 4.87502e-05 7.32319e-06 3.52517e-05 2.27587e-05 2.31818e-05 3.30473e-05 3.46073e-06 9.8545e-06 7.67846e-06 6.97646e-06 9.26391e-06 4.03203e-05 1.45152e-06 8.66583e-06 2.7458e-05 8.78048e-06 1.68033e-06 1.98278e-05 1.93493e-06 1.18327e-06 1.60989e-05 7.44007e-05 5.02135e-05 1.90743e-06 7.42834e-06 3.34333e-05 5.96897e-06 2.36734e-05 2.40105e-05 1.49887e-05 1.73139e-05 5.30851e-05 4.04126e-05 5.31305e-05 1.86296e-05 6.6001e-06 1.62817e-05 1.11542e-05 8.0876e-06 2.82565e-06 1.18993e-05 3.97527e-05 1.35886e-05 9.44546e-06 2.49117e-05 2.39728e-05 8.36024e-06 1.05318e-05 1.49089e-05 1.54882e-05 1.25472e-05 2.48854e-06 5.19528e-05 2.51311e-05 8.68483e-06 1.86356e-05 1.98646e-05 1.41754e-05 1.05143e-05 6.25077e-06 3.22625e-05 1.02518e-05 8.30724e-06 2.79429e-05 2.60081e-05 3.31479e-05 1.29676e-06 9.59646e-05 4.03948e-05 6.16903e-05 3.7657e-05 1.32332e-05 9.24031e-06 6.05056e-06 5.60447e-06 9.19239e-06 1.43712e-05 3.84349e-06 4.03362e-06 7.4584e-06 4.17637e-06 1.88206e-05 1.35972e-05 1.8476e-05 1.39815e-05 9.49477e-06 7.42607e-06 1.36782e-06 2.26913e-05 2.55481e-05 4.55605e-05 1.90625e-05 1.83159e-05 2.31404e-06 5.5941e-06 1.05057e-05 8.83035e-06 5.84233e-05 2.79925e-05 3.05638e-05 1.88813e-06 3.34355e-06 1.34836e-05 9.60181e-06 1.82753e-06 1.9735e-06 2.444e-05 1.99214e-05 1.69584e-06 7.77795e-05 7.45913e-05 2.19871e-05 2.09877e-05 3.86674e-05 3.53394e-05 4.74428e-05 4.49711e-05 4.26561e-05 2.05889e-05 1.0282e-05 5.87923e-06 1.58875e-05 1.10542e-05 1.61281e-05 1.22999e-05 7.74848e-05 1.73733e-05 5.44421e-05 1.39806e-05 1.61516e-05 1.23795e-05 2.34529e-05 1.60767e-05 6.26159e-06 5.02499e-06 6.17449e-06 7.44207e-06 1.42083e-05 1.87381e-05 3.10402e-05 7.96725e-06 7.64195e-05 4.81252e-05 3.17292e-05 4.052e-05 7.34206e-06 7.12539e-06 1.18375e-05 5.79467e-06 1.25704e-05 1.79088e-05 6.00204e-06 7.90594e-06 5.85206e-06 4.93726e-06 2.08274e-05 1.63711e-05 1.26917e-05 2.69656e-06 3.92004e-06 3.78958e-05 0.000115374 0.000102481 6.51713e-05 2.79084e-05 4.20424e-05 4.25783e-06 1.1509e-05 4.81643e-06 9.60607e-06 3.08777e-06 1.5263e-05 1.59858e-05 8.50553e-06 1.06118e-05 1.18829e-05 1.15775e-05 9.32143e-06 3.8958e-05 1.41134e-05 9.6479e-06 9.30751e-06 5.69245e-06 1.20443e-05 4.28475e-06 1.05889e-05 2.19999e-06 2.82068e-06 9.90087e-06 1.91402e-06 2.66473e-06 2.32433e-05 1.60587e-05 8.27011e-06 2.9068e-05 4.67861e-05 1.05713e-05 3.10171e-05 1.38931e-05 3.79857e-05 8.3227e-06 7.82149e-06 1.26778e-05 1.14192e-05 6.64937e-06 2.10759e-05 1.53143e-05 2.99319e-05 3.19096e-05 3.64836e-05 1.68572e-05 1.59907e-06 1.64152e-06 1.24561e-05 6.21535e-06 2.56501e-06 1.48888e-05 7.79838e-06 1.08527e-05 2.31648e-06 1.36238e-05 7.90436e-06 7.00071e-06 8.15303e-06 2.96958e-05 3.56651e-05 9.68561e-05 0.000156173 1.4555e-05 1.33749e-05 8.3275e-06 5.28689e-06 8.06756e-06 3.82114e-05 1.53892e-05 2.8353e-06 8.59113e-06 8.26895e-06 9.09845e-06 6.65304e-06 6.7216e-06 5.16128e-06 1.02901e-05 1.07942e-05 1.32481e-06 1.34629e-06 2.727e-06 1.69664e-05 1.8011e-05 1.88411e-05 1.91877e-05 1.03075e-05 1.91166e-06 2.0884e-05 2.05973e-05 1.56704e-05 1.03571e-05 2.0886e-06 8.85728e-07 3.9058e-05 1.14003e-06 1.29378e-05 2.37348e-05 1.22668e-05 2.96541e-05 2.34714e-05 1.21065e-05 9.26627e-06 9.36369e-06 1.07797e-05 8.40095e-06 1.74531e-06 1.86772e-06 5.938e-06 8.32551e-06 3.67743e-05 3.74079e-06 1.85495e-05 2.50124e-05 1.33476e-05 1.37408e-05 8.17717e-06 7.78067e-06 2.71261e-05 1.1038e-05 5.51068e-05 6.14938e-05 4.85489e-06 3.50952e-05 2.2673e-05 1.21152e-05 1.74111e-06 1.74675e-05 1.44902e-05 1.00246e-05 1.53863e-05 1.4756e-06 1.56231e-05 1.55971e-05 1.21036e-06 2.37834e-05 2.67407e-05 1.1925e-06 2.09285e-05 4.49453e-06 1.63103e-05 1.06601e-05 1.35643e-05 1.20023e-05 1.23011e-06 0.000133877 5.2923e-05 5.21846e-05 8.02528e-05 4.21879e-05 2.94675e-06 3.00996e-06 5.1065e-06 9.0918e-06 3.68328e-06 7.08097e-07 5.44872e-06 1.79231e-06 1.08086e-05 2.09629e-05 2.80214e-06 8.23744e-06 2.36497e-05 2.05682e-05 0.000268502 2.06507e-05 2.62193e-05 2.18712e-05 9.16584e-07 1.20222e-06 1.18945e-06 1.19989e-06 1.17157e-06 3.03523e-05 2.96498e-06 7.16319e-06 1.34698e-05 9.43651e-06 1.10821e-05 1.03727e-05 1.50008e-05 3.62254e-05 2.37009e-06 2.76686e-05 3.86277e-05 1.31448e-05 2.00523e-06 1.79601e-05 2.57088e-05 6.88897e-05 1.44645e-05 4.76914e-05 2.26381e-05 8.26812e-05 2.74092e-05 7.12352e-06 1.18615e-05 2.25002e-06 1.32994e-05 1.31011e-05 1.48572e-05 1.33378e-05 3.34675e-05 3.67843e-05 2.77242e-05 1.98519e-05 7.76259e-06 6.16738e-05 1.50554e-05 8.067e-05 6.50829e-05 5.61619e-05 6.90612e-05 1.46898e-05 1.95188e-06 2.67097e-05 4.37584e-05 1.02169e-05 5.53499e-05 2.83246e-05 2.58445e-06 1.6106e-05 1.18663e-05 1.71686e-05 1.55397e-05 7.22321e-06 1.50376e-06 2.00055e-06 1.63287e-05 5.51153e-05 7.64431e-06 7.74705e-06 1.36801e-05 1.12664e-05 1.23923e-05 1.02406e-05 1.38027e-05 3.29958e-05 5.12612e-06 5.12173e-05 1.01393e-05 6.64816e-06 8.08568e-06 6.83018e-06 1.29178e-05 3.6248e-05 9.29712e-06 1.2228e-05 1.18951e-05 2.3058e-05 1.86744e-05 2.20966e-05 1.44543e-05 2.04498e-05 1.8106e-05 7.30617e-06 4.23699e-05 3.58288e-05 9.3998e-06 1.02642e-05 3.04778e-05 1.84807e-05 2.25157e-05 1.72414e-05 1.75336e-05 5.08451e-05 2.95125e-06 2.62003e-05 1.34144e-05 2.53451e-05 0.000154865 1.53112e-06 1.78069e-05 4.62636e-06 2.96382e-05 1.73733e-06 1.41562e-05 6.84356e-06 2.77466e-06 1.35894e-06 2.09934e-06 1.73562e-06 1.6481e-06 4.32553e-06 2.15561e-05 8.70053e-06 1.85773e-05 1.07782e-05 1.35278e-05 1.78514e-05 4.67927e-06 5.76467e-06 4.50908e-06 1.38079e-05 1.30181e-05 1.4596e-05 2.26769e-05 7.66178e-07 1.82202e-06 7.27283e-06 1.02803e-05 9.91118e-06 5.50409e-06 7.62556e-06 6.53222e-05 8.60841e-05 8.98066e-06 1.82153e-05 3.39722e-05 1.13595e-05 5.06081e-06 8.28498e-06 1.08009e-05 1.50801e-05 2.95021e-05 1.2266e-05 3.57312e-05 1.5338e-05 6.17343e-05 8.67536e-05 4.47441e-05 4.47839e-06 1.2156e-05 1.24363e-05 1.62359e-05 1.44398e-05 1.09386e-05 1.09677e-05 1.7645e-05 1.27218e-05 9.30839e-06 6.22645e-06 4.64461e-05 3.86867e-05 0.000115074 7.44724e-06 5.20696e-06 3.66432e-06 2.18373e-05 1.96337e-05 1.27401e-05 9.74384e-07 3.9352e-05 1.76507e-05 5.57897e-05 1.18833e-06 9.92904e-06 7.2241e-06 4.85448e-06 7.67241e-06 6.13299e-06 1.52227e-05 7.60393e-06 6.46846e-06 2.33165e-05 3.58437e-05 8.05518e-07 2.44184e-05 2.74565e-06 4.28205e-06 2.80079e-05 5.87322e-06 1.06848e-05 6.20425e-06 9.03922e-06 7.29352e-06 4.0366e-06 7.73166e-06 9.35652e-06 4.19196e-06 1.50513e-06 9.27958e-06 2.86369e-05 1.4137e-06 2.94389e-05 9.70034e-06 1.51718e-05 7.37671e-06 8.1232e-06 8.21332e-06 8.91506e-06 1.0773e-05 3.69263e-05 1.00584e-05 1.17028e-05 2.93358e-05 2.95676e-05 1.12383e-05 9.37558e-06 8.48302e-06 1.58483e-05 6.85823e-06 1.25818e-05 6.63824e-06 1.03766e-05 0.000347296 1.2788e-05 1.06458e-05 4.15414e-06 3.17586e-06 9.99946e-06 1.45495e-05 1.9529e-05 2.12388e-05 1.10617e-05 1.27227e-06 8.99672e-05 4.07251e-05 8.5745e-05 1.22e-05 0.000168235 0.000198952 2.39241e-05 6.04735e-06 5.88334e-06 2.96143e-05 9.48452e-06 1.13217e-05 1.10768e-05 9.13075e-06 7.85634e-06 1.01636e-05 1.31823e-05 2.14172e-05 2.18581e-05 2.93979e-05 5.23111e-06 1.74905e-05 5.02098e-06 3.4443e-05 1.85711e-05 1.44211e-05 1.19296e-05 3.17406e-06 2.09754e-06 1.89938e-06 7.02228e-06 8.0504e-06 8.82755e-06 2.27583e-06 1.47933e-05 1.88674e-05 2.34286e-06 1.12691e-05 9.21041e-05 8.94232e-05 8.09811e-05 4.25891e-06 1.71975e-05 0.000134355 2.32641e-06 0.000182484 8.72364e-06 8.98913e-06 3.0114e-06 1.13967e-05 0.000236913 1.45481e-05 0.000229945 8.82634e-06 9.07006e-06 5.87005e-05 6.99564e-05 1.11619e-05 2.55037e-05 2.09083e-05 9.2899e-06 8.67391e-06 5.04639e-06 4.41018e-06 1.32558e-05 1.72252e-05 3.83754e-05 1.76324e-05 2.71114e-05 1.51864e-05 2.65501e-05 1.62055e-05 4.49793e-06 5.47409e-06 1.86754e-06 8.64816e-06 2.42353e-06 2.11007e-06 2.98079e-05 2.72977e-05 3.11735e-06 3.9613e-06 2.25347e-05 7.41937e-05 5.85789e-05 1.2781e-05 3.57375e-05 4.6728e-05 1.22559e-06 8.19977e-06 3.93631e-05 1.00241e-05 6.9143e-05 1.35212e-05 8.48043e-06 1.4123e-05 8.94721e-06 1.09467e-05 7.16079e-06 1.03414e-05 2.92256e-06 1.7547e-05 9.50011e-06 6.28877e-06 6.61592e-06 6.44033e-06 6.45673e-06 5.64551e-06 8.76805e-05 7.76739e-05 9.68371e-06 2.3998e-05 4.8759e-06 1.40883e-05 3.86324e-06 1.15304e-05 0.000295865 0.00024543 0.00028387 0.00026159 2.91909e-06 8.28605e-06 6.97086e-06 1.96828e-06 5.87495e-06 3.20328e-05 4.43065e-05 7.64295e-05 2.26829e-05 2.52617e-05 4.9285e-06 6.57603e-06 1.35515e-05 2.65895e-05 3.16712e-05 1.74982e-06 0.000102568 4.15048e-05 2.32469e-06 5.93329e-06 6.95399e-06 2.26994e-05 2.51305e-06 2.74714e-06 0.000105608 0.000139517 9.76648e-05 9.43171e-06 7.24487e-05 1.33587e-05 1.23821e-05 9.57612e-06 2.30869e-06 2.00988e-06 4.73902e-05 1.61368e-05 3.81682e-06 5.74985e-06 5.89709e-05 1.49571e-06 3.5026e-05 0.000119063 1.19943e-05 1.40606e-05 1.02275e-05 1.09236e-05 0.000104798 6.24824e-06 0.000115298 0.000455508 0.000463916 9.20561e-06 8.14465e-06 9.029e-06 9.69891e-06 1.79811e-05 1.96196e-05 1.1829e-05 8.67788e-06 9.51406e-06 1.10576e-05 3.67444e-05 1.24947e-05 1.35274e-05 6.15302e-06 5.38286e-06 1.13508e-05 9.92919e-06 3.31811e-06 7.90388e-06 1.73296e-05 3.04191e-05 3.85774e-06 1.63858e-05 9.49301e-06 7.55243e-06 1.14698e-05 1.91325e-05 1.57492e-05 5.18643e-06 6.59259e-06 6.28065e-06 3.36602e-06 5.89619e-06 1.24809e-05 5.41523e-06 6.98785e-06 6.14666e-06 9.45081e-06 7.93332e-06 7.14854e-06 1.73343e-06 5.86345e-06 7.61887e-06 2.45956e-06 3.30145e-06 8.91969e-06 2.31863e-05 2.19227e-05 2.87658e-06 8.64712e-06 2.01954e-06 6.79761e-06 2.68942e-05 5.89042e-06 3.04769e-05 7.93263e-06 5.78785e-06 4.64804e-06 7.97264e-06 3.53699e-05 3.52325e-05 5.71325e-05 7.21393e-05 7.52288e-06 7.08988e-06 1.10001e-05 1.69298e-05 4.166e-05 7.4315e-06 1.87044e-05 2.0585e-05 1.21992e-05 1.13009e-05 9.26455e-06 1.38182e-05 5.70344e-06 0.000125363 6.70125e-06 2.53703e-05 4.14593e-05 4.97525e-05 1.2353e-05 3.85935e-05 4.44049e-05 9.63423e-06 1.9769e-05 2.68375e-05 1.25744e-05 6.66544e-06 1.64231e-05 1.51169e-05 1.43945e-05 1.18946e-05 1.02188e-05 1.00774e-05 2.68371e-05 6.95989e-06 9.24808e-06 3.88006e-06 7.95024e-06 3.182e-06 1.09837e-05 3.96488e-06 2.27851e-06 7.37837e-06 2.01135e-06 2.67555e-06 6.46903e-06 1.03815e-05 1.00122e-05 3.33551e-06 2.46946e-06 1.20573e-05 1.68648e-06 1.21955e-06 9.67213e-06 8.24687e-06 7.1748e-06 3.69433e-06 4.07071e-06 5.83412e-06 5.98405e-06 5.80155e-06 1.24127e-05 4.73027e-06 2.22798e-06 7.88692e-06 7.48547e-06 1.05258e-05 7.39583e-05 5.58421e-05 1.25766e-05 8.95312e-06 8.61642e-06 1.69853e-06 1.08194e-06 8.93163e-06 7.13343e-06 1.7666e-05 3.14335e-06 6.84622e-06 1.17742e-05 7.11935e-05 5.8008e-06 7.45896e-05 4.48743e-06 5.16448e-06 6.73165e-06 1.7201e-06 2.02554e-06 5.30256e-06 4.08532e-06 0.000120137 9.94575e-05 9.32551e-05 7.03737e-05 6.75533e-05 6.00117e-05 3.659e-05 1.04972e-05 7.67339e-06 1.60979e-06 1.28984e-05 1.04189e-05 1.75009e-05 2.95182e-05 8.4169e-06 7.91322e-06 3.10367e-05 1.20654e-05 6.52918e-06 1.58288e-05 3.47092e-05 2.03161e-05 7.46068e-06 8.95954e-06 8.25629e-06 2.63641e-06 2.09378e-06 3.05349e-06 4.38657e-06 7.89864e-06 1.86247e-05 2.95887e-06 1.36354e-05 2.07847e-05 2.18529e-06 1.21768e-05 2.28585e-06 1.86466e-05 6.36864e-06 1.33086e-06 1.37636e-05 1.33444e-05 1.49265e-06 2.28337e-06 2.47765e-06 7.76793e-05 6.66452e-05 2.22786e-06 1.31746e-05 9.09821e-06 9.94074e-06 1.4344e-05 1.08542e-05 2.75739e-05 7.03869e-06 2.91078e-05 5.7113e-06 7.30605e-06 2.1867e-05 2.1829e-05 1.94069e-05 3.4798e-05 5.59521e-05 2.29125e-05 8.71273e-06 2.21226e-05 3.57576e-06 6.81826e-05 4.267e-05 9.44133e-06 1.7451e-05 2.40823e-06 3.83841e-05 4.83438e-05 5.56102e-06 2.12544e-06 1.77429e-05 1.1658e-05 2.88887e-06 1.41624e-05 4.1838e-06 1.80362e-05 4.30975e-05 1.91835e-06 3.33412e-06 7.99326e-06 1.25936e-05 2.14325e-06 2.76056e-06 3.7189e-05 4.7685e-06 1.0104e-05 8.01667e-06 5.24383e-06 7.31983e-06 1.45186e-05 2.12936e-05 7.0331e-05 9.01554e-05 7.48585e-06 3.91869e-05 2.17759e-05 3.51696e-05 4.205e-05 2.67434e-05 4.48779e-05 4.86973e-06 7.70669e-06 1.2646e-05 4.49613e-05 7.31431e-05 2.66355e-05 0.000317687 7.71969e-06 8.13489e-06 8.09321e-06 1.79586e-05 1.56789e-05 8.18572e-06 2.02653e-05 1.19078e-05 8.56634e-06 1.47422e-05 1.04442e-05 2.71344e-05 3.04278e-05 2.67073e-06 1.03699e-05 2.88374e-06 1.80872e-05 2.51851e-06 1.1673e-05 2.86486e-06 8.09851e-06 6.1514e-06 6.72183e-06 2.38601e-06 9.49812e-06 1.24363e-06 1.11835e-05 1.44812e-05 6.12918e-06 1.08667e-05 1.8821e-05 3.11963e-05 1.10303e-05 3.20142e-05 1.61448e-05 1.79712e-05 7.64717e-05 7.10973e-05 2.51998e-05 4.39463e-06 7.06456e-06 5.90721e-06 3.55289e-06 8.90199e-06 3.52953e-05 3.51911e-06 2.02238e-05 6.62681e-05 9.86265e-05 4.7237e-06 4.8047e-05 5.51848e-05 1.28551e-05 5.05382e-05 1.62879e-05 2.05502e-05 1.6681e-05 2.11915e-05 8.36317e-07 1.29015e-05 1.20471e-05 1.08316e-05 6.44045e-06 1.29771e-05 7.15625e-06 3.38723e-06 1.14561e-05 3.96138e-06 9.77609e-06 1.16683e-05 5.18842e-06 5.29852e-06 3.2279e-06 5.97519e-06 4.70405e-06 1.1685e-05 1.78019e-05 5.32657e-06 6.41587e-06 5.93236e-05 2.95768e-05 2.17562e-05 4.57854e-05 2.48564e-06 1.00157e-05 1.42626e-05 1.15006e-05 0.000128738 0.000139812 0.000159146 5.17163e-06 0.00023469 5.51769e-06 9.01993e-06 8.1163e-06 2.1012e-05 2.8229e-05 6.19668e-06 1.85965e-05 5.05764e-05 3.2843e-05 3.29466e-05 1.96397e-05 2.9818e-05 1.12573e-05 1.46433e-05 5.36021e-06 5.52471e-05 5.33898e-05 5.1133e-05 3.3426e-06 1.20738e-05 5.67094e-05 2.76598e-05 3.97775e-05 3.6708e-05 5.73572e-06 1.6183e-05 6.63993e-06 3.70124e-05 6.51013e-07 1.55725e-05 1.62268e-05 4.21023e-05 2.56839e-05 1.18323e-05 3.81484e-05 3.94052e-05 8.08408e-06 1.45754e-06 4.46541e-06 1.16182e-05 7.27531e-06 5.91876e-05 6.45265e-06 4.66723e-05 2.53591e-05 2.40725e-06 0.000287652 4.28997e-06 4.29693e-05 7.64778e-06 7.41681e-06 1.57833e-05 1.36329e-05 1.54863e-05 1.29882e-05 1.67798e-05 1.4568e-05 8.60044e-06 1.03012e-05 9.29829e-06 9.2779e-06 1.23267e-05 4.80779e-06 2.07798e-06 9.11978e-06 2.32621e-05 5.59044e-06 9.85314e-06 3.57965e-06 1.53614e-06 8.17384e-07 1.53327e-06 3.15033e-05 3.54244e-06 2.15132e-05 1.15309e-05 1.89185e-05 2.35514e-05 2.10253e-06 2.36256e-06 1.80622e-06 2.81025e-05 4.54547e-05 1.27974e-06 8.15665e-07 3.20964e-06 6.37698e-06 6.42618e-06 1.69468e-05 9.24012e-06 1.17005e-05 2.63829e-05 8.86887e-06 9.88726e-06 2.06527e-05 1.0453e-05 1.21851e-05 6.95037e-06 5.32543e-06 1.01168e-05 1.51464e-05 1.78264e-05 1.1005e-05 8.4436e-06 1.26344e-05 9.00255e-06 2.55418e-06 5.45185e-05 1.64938e-05 1.17266e-05 1.28418e-05 8.49406e-06 5.12666e-05 8.70202e-06 1.89367e-06 2.29542e-05 2.27939e-06 7.22383e-06 5.60437e-06 9.01477e-06 4.89576e-06 1.91194e-05 2.47525e-06 1.11926e-05 1.75937e-05 5.8255e-06 6.89864e-06 8.72931e-06 1.04766e-05 7.60517e-06 4.84048e-06 3.56728e-06 8.73098e-06 2.43088e-06 4.38979e-06 6.57403e-06 6.67524e-06 1.03451e-05 2.6927e-05 2.00818e-05 1.87733e-05 2.60779e-06 2.37316e-06 9.0326e-06 2.1199e-06 7.98856e-05 2.43592e-05 1.69547e-05 3.67193e-06 5.03002e-05 5.60439e-05 7.31015e-06 2.22713e-05 5.04125e-06 1.17769e-05 1.13211e-05 8.83774e-06 7.77589e-06 9.13593e-06 8.73045e-05 4.50437e-05 3.77767e-05 1.63134e-05 1.22042e-05 1.26157e-05 2.1809e-06 2.36807e-06 2.57629e-06 3.4347e-06 3.8323e-06 2.42296e-05 6.38666e-06 5.70326e-06 6.92282e-06 6.24072e-06 3.66221e-06 1.00688e-05 6.94176e-05 7.95453e-05 1.05394e-05 2.65149e-05 2.15604e-05 4.67133e-06 5.13985e-06 5.84153e-06 1.73865e-05 1.72393e-05 8.80003e-06 7.62974e-06 4.4321e-06 1.3257e-06 2.6618e-06 2.26599e-06 4.1882e-06 5.71292e-06 1.04264e-05 6.75598e-06 6.1332e-06 8.53465e-05 1.17041e-05 0.000150147 1.1229e-05 2.00066e-05 1.34526e-05 1.8982e-05 1.86995e-06 3.16739e-05 3.11131e-06 1.06195e-05 5.82215e-06 5.76052e-05 4.27639e-06 2.13088e-05 2.83496e-05 2.08846e-05 1.19228e-05 2.26599e-05 1.5583e-05 1.42271e-05 5.33139e-06 6.50254e-06 6.97942e-06 8.40708e-06 2.58546e-05 1.87401e-05 1.92602e-05 1.79138e-05 4.40993e-06 1.34735e-06 5.29293e-06 3.71738e-05 1.1709e-06 1.49432e-06 3.42735e-06 3.24633e-06 1.71627e-05 5.26377e-06 1.63281e-05 3.96204e-05 1.73699e-06 7.41245e-06 1.8763e-05 2.21199e-05 9.6009e-06 8.92164e-06 8.77697e-07 1.09486e-06 1.57914e-05 1.88898e-05 7.43018e-06 1.10641e-05 6.91682e-06 6.15293e-06 1.63203e-05 5.40981e-06 5.25169e-06 8.76389e-06 6.74348e-06 1.15809e-05 2.02516e-05 1.37613e-05 1.93852e-05 3.4027e-05 2.97083e-06 7.02652e-06 4.0335e-06 2.03071e-05 8.81109e-06 1.41914e-05 2.49707e-05 1.98518e-06 3.85554e-06 1.66765e-05 1.44696e-05 4.92299e-05 1.74324e-05 1.6393e-05 1.63676e-05 2.05545e-05 1.67667e-05 1.06653e-05 3.73121e-06 3.48334e-06 1.37103e-05 2.59903e-05 2.50796e-05 3.78762e-06 1.583e-05 3.82786e-05 3.0962e-06 5.33124e-05 2.80864e-05 1.25373e-05 1.09845e-05 4.25071e-06 1.12717e-05 1.17063e-05 4.17341e-06 3.8164e-06 3.45074e-05 3.42039e-05 2.66574e-05 5.39916e-06 2.67145e-05 3.58757e-05 3.70391e-05 4.08248e-05 1.58287e-05 1.85351e-05 2.38177e-05 2.10378e-05 2.79633e-06 1.49955e-05 2.1928e-06 2.7978e-06 1.34271e-05 3.65368e-06 2.13896e-05 0.000386608 2.61053e-06 3.0694e-05 4.61412e-05 1.53097e-05 9.63224e-06 1.15703e-05 8.21253e-06 9.6985e-06 1.47036e-05 2.54156e-05 0.000130052 2.9105e-05 4.29729e-05 1.52156e-05 1.80705e-05 1.84794e-06 6.13847e-05 6.77632e-05 1.87857e-06 5.0163e-05 2.55964e-05 1.77503e-06 1.13368e-05 1.90841e-05 6.6765e-06 1.81291e-05 1.79282e-05 7.24e-06 0.000230867 2.04203e-05 0.000111685 1.68749e-05 2.83589e-05 8.96717e-05 5.5276e-05 7.28172e-05 7.14934e-06 1.74838e-05 3.79425e-05 1.58189e-05 2.08017e-06 1.49507e-05 9.9818e-06 1.70388e-06 4.16794e-06 1.16999e-05 1.05016e-05 8.71778e-06 3.20336e-05 2.67039e-05 1.54226e-06 2.59955e-05 2.12754e-05 9.72308e-06 0.000101411 1.34596e-05 3.27039e-05 8.71481e-06 9.49446e-05 3.93224e-05 8.71212e-07 1.02586e-06 1.1442e-05 1.81574e-05 4.34181e-05 2.13198e-05 5.21463e-05 1.52913e-05 1.18844e-05 2.16434e-05 3.3178e-05 0.000309938 0.000245429 2.09265e-05 8.02738e-06 4.67451e-05 4.97843e-05 7.05311e-06 9.07836e-06 6.19145e-06 8.33939e-06 2.83819e-05 9.87157e-06 2.04678e-05 1.09345e-05 2.5893e-05 2.72392e-06 2.69309e-05 9.69443e-06 3.64605e-06 3.11671e-06 3.4788e-06 1.4248e-05 2.59103e-05 2.68459e-05 1.60288e-05 1.08421e-05 3.42729e-06 2.71904e-06 1.94439e-05 7.47335e-06 1.02755e-05 3.7674e-06 2.53494e-05 3.98887e-05 2.61816e-05 1.38301e-05 3.64682e-05 8.93314e-05 0.000137461 2.4596e-05 1.00235e-05 1.11885e-05 1.36749e-06 1.10263e-05 1.46029e-05 2.38793e-06 1.42081e-06 7.55932e-05 6.89086e-05 3.88237e-06 2.40163e-06 1.67069e-06 1.69746e-05 7.42838e-06 5.89816e-06 1.19506e-05 2.59244e-05 2.03749e-05 9.97475e-06 4.16582e-06 3.74279e-06 1.54018e-05 1.98714e-05 9.2405e-06 1.37247e-06 1.08966e-06 1.51249e-06 1.45184e-06 1.02235e-05 1.8968e-05 1.29422e-05 5.53353e-06 7.31495e-06 4.50276e-06 1.62463e-05 1.25155e-05 3.75761e-05 1.26319e-05 1.64644e-05 6.75365e-06 3.98109e-05 2.37676e-05 1.33002e-05 6.50857e-06 8.94107e-06 0.000124038 5.85997e-05 1.40507e-05 1.5225e-05 1.65369e-05 8.05112e-06 1.18504e-05 2.98279e-06 1.14155e-05 8.39999e-06 6.11394e-06 1.02717e-05 4.7106e-06 4.59297e-06 1.83149e-06 6.8803e-06 7.30709e-06 2.93914e-06 8.14958e-06 9.88207e-06 1.25042e-05 1.21714e-05 3.94137e-06 0.000183183 9.09791e-05 3.94552e-05 5.49639e-05 8.15391e-06 1.81824e-06 5.66946e-06 2.71526e-06 2.71511e-05 1.47354e-05 4.76925e-05 2.3463e-05 2.10775e-05 4.07056e-05 6.27599e-06 3.43781e-05 2.15696e-05 9.7162e-06 5.14703e-06 3.85105e-06 3.87922e-06 2.71485e-05 7.07424e-05 9.20452e-05 3.38686e-05 7.61483e-06 1.92687e-05 5.71747e-06 2.05277e-05 1.60523e-05 1.31742e-05 1.17074e-05 3.22801e-05 8.62296e-06 6.02192e-06 1.17038e-05 2.6708e-05 1.94093e-05 4.14985e-05 1.378e-05 2.15547e-05 2.43352e-06 0.000125547 2.33113e-05 1.32913e-05 1.13303e-05 3.73928e-06 1.15999e-05 1.14616e-06 5.99874e-06 5.18632e-06 6.40267e-06 2.70248e-06 1.25282e-05 1.13376e-06 2.11249e-06 2.48965e-05 9.31579e-06 2.59595e-05 1.9591e-05 3.07215e-05 1.08595e-06 1.77305e-05 8.24357e-06 2.99682e-05 1.17378e-05 1.5445e-05 3.34583e-06 1.27129e-05 7.7167e-06 2.91337e-05 1.26356e-05 4.75543e-05 8.62183e-06 3.71341e-06 2.85826e-05 3.0199e-06 8.65889e-06 1.25698e-06 7.99967e-06 1.3737e-05 9.22847e-06 8.31792e-07 1.1081e-05 1.03264e-05 1.21827e-05 1.05839e-05 1.52281e-05 1.07112e-05 1.19053e-05 8.23756e-06 1.83437e-05 1.90503e-05 2.12611e-05 1.82341e-05 7.61715e-05 1.39803e-05 1.42486e-05 5.83942e-06 9.40764e-06 5.6846e-06 5.50466e-06 1.12954e-05 7.9971e-06 4.90696e-06 1.95191e-06 2.64085e-06 1.60204e-06 1.15135e-05 9.0533e-07 1.70989e-05 4.67857e-06 1.9678e-05 1.8467e-06 2.80215e-06 1.23923e-06 5.28556e-05 1.16236e-05 2.50811e-06 5.52647e-06 1.61337e-06 7.63863e-06 9.71821e-06 9.28167e-06 2.37698e-05 6.56019e-06 9.77999e-06 6.77939e-06 2.31881e-05 9.32905e-06 2.10554e-06 3.20677e-06 2.95164e-06 1.63742e-05 1.82606e-05 7.74031e-05 2.43985e-06 3.03917e-06 4.10779e-06 3.69822e-06 2.04627e-05 2.25348e-05 5.12048e-06 1.7823e-05 4.68958e-06 1.06843e-05 6.90758e-06 7.36535e-06 9.88448e-06 8.79668e-06 9.79874e-06 2.80546e-06 3.10785e-05 2.01603e-05 1.78468e-06 2.72247e-06 7.84009e-06 2.48245e-05 7.73122e-05 8.08264e-05 5.19874e-05 7.7017e-06 8.10305e-06 3.44287e-05 2.78323e-06 6.03105e-06 2.20443e-06 3.74568e-05 0.000373179 3.91295e-06 1.3419e-05 9.20076e-06 9.52209e-06 1.37547e-05 1.51441e-05 2.95713e-05 1.11261e-05 2.79708e-05 2.31624e-05 4.69932e-06 2.80348e-06 4.83838e-06 2.15006e-06 1.69575e-06 2.69236e-05 4.38391e-06 4.43266e-06 3.23404e-05 1.37301e-06 1.527e-05 2.62673e-05 7.79121e-05 0.000100328 7.32523e-05 9.67049e-06 9.0353e-06 9.54935e-06 9.66097e-06 1.03048e-05 2.07812e-06 5.45145e-06 2.92407e-06 7.33351e-06 1.79091e-05 1.76583e-05 6.87517e-06 2.21575e-05 4.931e-05 6.47564e-06 5.96349e-06 1.86077e-05 4.43694e-06 7.35909e-06 5.63451e-06 9.57687e-06 5.4826e-06 6.6164e-06 1.32929e-05 1.33335e-05 3.54297e-06 1.12299e-05 2.0057e-05 3.38245e-06 1.6438e-05 1.48149e-05 5.82947e-06 6.13778e-06 1.06321e-05 4.42796e-06 3.03325e-06 1.02429e-05 9.55992e-06 1.93272e-05 2.66e-06 3.18392e-06 1.10212e-05 2.04844e-05 1.53518e-05 1.36537e-05 9.50283e-06 2.0651e-05 2.98068e-06 8.67576e-06 1.306e-05 7.3264e-06 1.26898e-05 1.1427e-05 2.52162e-05 2.4672e-05 1.41174e-05 5.59104e-06 4.80904e-06 4.29991e-06 6.40502e-06 2.69749e-05 1.19285e-05 7.39475e-06 5.71681e-06 3.57095e-07 8.53073e-07 6.09027e-05 8.5946e-07 1.78341e-05 2.50695e-05 3.90122e-06 7.13261e-07 2.64745e-05 3.06059e-07 1.89918e-05 3.82667e-07 1.54838e-05 6.73998e-06 1.1559e-05 1.02723e-05 4.30806e-06 6.68139e-06 0.000221676 3.32549e-05 3.22139e-05 4.32491e-05 8.99714e-06 1.58179e-06 1.16119e-05 6.01665e-06 9.1969e-06 1.58467e-05 2.01774e-06 2.09537e-06 3.97167e-05 2.93711e-05 2.08769e-05 2.24271e-05 1.02348e-06 1.33945e-06 1.81741e-05 7.5979e-07 1.35427e-05 3.3139e-05 2.18478e-05 1.99e-05 1.68245e-05 2.20667e-05 1.36524e-05 0.000139492 0.000311446 2.45562e-05 0.000280688 0.000197048 1.01874e-05 8.687e-06 2.0366e-05 9.05354e-06 1.53342e-05 1.75738e-05 1.75522e-05 1.08477e-05 2.39968e-05 2.27697e-05 1.98578e-05 7.49062e-06 4.52634e-06 7.06616e-05 3.75877e-05 6.46608e-06 2.31024e-06 8.00954e-06 8.57249e-06 3.64418e-05 1.13909e-05 2.53704e-06 3.69732e-05 1.66927e-05 2.74136e-05 1.2492e-05 5.04656e-05 7.84821e-07 2.03407e-05 1.06277e-06 4.78383e-05 1.80251e-05 4.19811e-05 1.8918e-06 1.91502e-06 2.1735e-06 1.71829e-05 8.12042e-06 1.31888e-05 9.08706e-06 9.08668e-06 1.14915e-05 6.90082e-06 8.14262e-06 3.61769e-06 3.32673e-06 4.69768e-06 2.55904e-06 4.59553e-06 4.63912e-06 4.71844e-06 1.60318e-05 1.31549e-05 7.08516e-06 1.83626e-05 2.31408e-05 2.33702e-05 1.60541e-05 1.61638e-05 1.40389e-06 7.26066e-06 8.34298e-06 5.55571e-06 1.11278e-05 1.17733e-05 6.7428e-06 1.57256e-05 2.20049e-05 1.56714e-05 1.49244e-05 1.70095e-05 1.45257e-05 1.93473e-05 2.15239e-05 1.8647e-05 1.5992e-05 1.74731e-05 8.89068e-06 1.29422e-05 1.53988e-05 1.10093e-05 1.64148e-05 2.60528e-05 4.75208e-05 0.000314369 0.0003224 4.0537e-06 5.42283e-06 8.76256e-06 4.70764e-06 5.78001e-06 1.09413e-05 1.25743e-05 1.36865e-06 2.03257e-05 1.2284e-05 2.12372e-05 1.10003e-06 1.27552e-05 1.27714e-05 1.01609e-06 7.07862e-06 1.12508e-05 6.07453e-06 9.37505e-06 4.75124e-06 5.81231e-06 1.67177e-05 1.25871e-05 1.61475e-05 6.36949e-06 8.56865e-06 0.000150421 0.000149243 0.000186798 2.50812e-06 2.00906e-06 2.58839e-06 1.15649e-05 3.51396e-05 2.14834e-05 2.39833e-06 5.12404e-06 7.10958e-06 2.17596e-05 1.60181e-06 0.000127405 3.34054e-06 9.92007e-06 1.30275e-05 8.18488e-06 9.9866e-06 8.19349e-05 1.29471e-05 8.8031e-06 2.98271e-05 8.05684e-06 3.74099e-05 5.42198e-05 9.76606e-05 8.5493e-05 3.4999e-05 6.20511e-05 3.42761e-05 6.5344e-05 2.37288e-05 1.86174e-05 1.56188e-05 2.00755e-05 1.78768e-05 4.87641e-05 2.72874e-06 3.72116e-05 1.55402e-06 8.94678e-06 8.9492e-06 9.75105e-06 1.62507e-06 9.45882e-06 1.00333e-05 1.08479e-05 2.01414e-05 1.09837e-05 1.65239e-05 6.03849e-06 7.69609e-06 2.02856e-05 2.77607e-05 1.27651e-06 1.23697e-06 4.56565e-06 2.51703e-05 5.2525e-06 5.39219e-06 1.54915e-05 1.05543e-05 1.04711e-05 3.02846e-05 1.24199e-05 1.50345e-05 1.18448e-05 2.5225e-05 2.2909e-05 2.08465e-05 1.84971e-06 2.6956e-06 7.37003e-06 1.18531e-05 1.87444e-06 5.95917e-06 2.53961e-06 2.34053e-05 2.87859e-06 6.92695e-06 9.2462e-06 8.44054e-06 9.68707e-06 8.4598e-06 7.54631e-06 1.65643e-06 1.32845e-06 1.58664e-06 5.23043e-05 1.1071e-05 3.35749e-05 3.19807e-06 2.83526e-05 3.40873e-05 5.23653e-06 7.23771e-05 5.72729e-05 1.48144e-06 7.323e-06 1.51952e-06 1.7502e-06 8.13186e-05 9.20107e-05 1.69807e-06 1.86353e-06 1.51948e-05 1.2273e-05 7.93671e-06 1.98165e-05 2.47422e-06 1.9034e-05 1.44771e-06 7.48147e-06 1.68772e-06 1.63109e-05 8.83451e-06 0.000386801 7.50557e-06 1.61697e-06 1.09137e-05 1.13363e-06 1.05713e-05 7.16116e-06 1.34766e-05 5.8246e-06 1.32518e-05 1.74756e-05 9.99402e-07 8.91989e-06 1.62527e-06 2.14719e-05 4.89297e-06 3.90709e-06 2.38764e-06 1.0162e-05 1.17109e-05 2.17482e-05 1.41635e-05 1.26964e-05 1.6485e-05 1.60285e-05 1.12796e-05 3.18017e-06 2.77966e-06 9.20107e-06 8.29175e-06 1.94672e-05 3.13054e-05 9.96393e-06 6.49395e-06 2.75177e-05 9.8298e-06 5.64281e-06 1.10657e-06 8.89098e-06 9.58215e-05 2.62817e-06 2.87257e-06 2.61632e-06 2.53762e-06 5.2673e-05 1.25328e-05 9.75964e-05 0.000150836 9.97631e-06 2.61741e-05 7.06394e-06 1.5295e-05 9.18373e-06 7.43961e-06 4.9039e-05 4.85554e-05 2.12747e-05 5.8941e-06 1.59794e-05 9.78658e-05 1.42771e-05 2.52385e-06 3.64193e-06 2.65618e-06 3.68707e-05 2.59037e-05 1.63054e-05 0.000493176 7.32978e-06 0.00033419 9.88336e-06 0.00055514 6.06315e-06 1.44963e-05 8.708e-06 2.34941e-05 3.89966e-06 1.79254e-05 6.50143e-05 5.91794e-05 7.44402e-06 2.60345e-05 3.91793e-06 1.837e-05 4.55287e-06 5.02598e-06 1.99256e-05 2.40899e-05 2.5273e-05 2.10494e-06 1.49484e-05 4.35272e-05 5.85251e-05 2.42292e-05 1.08699e-06 1.1076e-05 2.99035e-06 2.38208e-05 2.26803e-05 2.14756e-05 2.032e-05 6.02374e-06 3.41067e-06 6.46155e-05 9.9503e-06 5.93796e-06 5.17976e-06 1.81094e-06 3.35356e-06 1.30637e-05 1.71932e-05 2.14972e-05 1.97065e-06 1.48983e-06 1.29137e-06 8.21534e-05 4.46152e-06 2.08258e-06 5.91276e-06 1.56999e-06 5.13736e-06 0.000150444 3.41565e-06 2.36192e-05 1.62543e-06 1.54521e-05 1.58061e-05 1.83598e-06 6.26369e-06 1.31181e-06 1.53496e-06 1.65817e-06 6.28996e-05 9.83601e-06 5.77601e-05 2.90205e-05 1.49474e-05 8.55263e-06 1.51834e-05 8.22245e-06 2.96272e-05 4.55104e-05 1.20587e-05 2.48364e-05 7.41467e-07 7.9312e-06 1.39109e-05 1.8279e-05 1.96443e-05 5.24402e-06 2.86426e-06 6.73824e-06 6.61901e-06 6.70806e-06 2.38395e-05 6.1186e-06 6.90581e-05 1.08653e-05 6.91501e-05 3.85838e-06 1.11351e-05 7.81908e-06 2.59529e-05 1.13075e-05 4.85531e-06 1.26563e-05 1.72004e-05 1.58189e-05 3.08945e-06 1.77686e-05 2.19281e-06 5.6503e-05 2.02077e-05 1.15447e-05 1.59506e-05 2.34667e-05 4.35573e-05 3.11015e-05 4.2771e-05 1.7937e-06 3.46221e-05 6.36214e-06 8.87661e-06 1.38727e-05 2.49503e-05 2.9927e-05 3.53419e-05 9.80485e-06 8.45565e-06 8.37493e-06 6.58238e-06 5.42711e-06 2.55024e-06 2.03156e-06 1.65635e-05 7.292e-06 3.43659e-05 4.47038e-05 1.17673e-05 1.36929e-05 1.39814e-05 7.72432e-06 7.86885e-06 2.426e-06 2.02464e-06 1.8618e-06 1.84715e-05 1.95785e-06 2.92564e-06 6.80416e-05 1.77736e-06 1.96763e-05 1.90646e-05 1.33687e-05 2.78834e-05 1.87748e-05 3.30673e-05 3.10478e-05 0.000177784 9.85769e-05 0.000135035 9.02302e-05 7.55627e-05 3.40907e-05 1.7205e-05 3.42852e-06 1.16994e-05 1.89655e-06 2.98771e-05 2.67171e-05 2.47607e-05 2.42224e-05 2.38407e-06 4.09283e-05 1.57793e-05 3.03977e-05 5.92374e-05 4.48772e-05 6.61345e-05 1.70946e-05 9.58053e-05 7.53407e-06 6.23772e-05 2.73224e-06 2.01503e-05 1.48487e-05 1.05855e-05 8.7022e-06 2.97712e-05 1.68895e-05 4.92552e-06 7.34728e-06 5.08321e-06 1.12387e-06 6.16951e-06 1.27977e-06 8.34801e-07 3.95542e-07 5.01872e-07 1.48187e-05 2.23346e-05 1.23272e-05 1.28005e-05 1.51136e-05 5.12919e-06 1.30122e-05 2.61142e-05 1.3062e-05 2.36697e-05 2.4364e-05 2.36121e-05 1.24868e-05 1.04462e-05 2.25614e-06 2.71649e-06 2.5298e-05 1.37886e-05 1.03656e-05 1.88635e-05 2.12102e-05 1.10569e-06 1.31318e-06 1.67408e-06 1.89769e-06 1.66593e-05 2.06173e-05 1.43569e-06 8.8871e-06 4.7363e-06 4.04324e-06 0.000202434 3.49421e-06 1.5401e-05 3.53737e-06 2.99643e-06 2.13545e-06 2.92836e-06 4.08267e-06 2.57178e-05 1.03717e-05 9.1668e-06 5.02377e-05 8.90351e-05 5.52248e-06 1.14423e-05 1.59906e-05 5.73994e-07 3.82147e-07 1.64096e-05 1.61235e-05 1.59776e-05 1.37782e-05 5.2386e-07 1.73701e-05 3.58625e-05 2.2414e-05 1.64783e-05 1.88016e-05 1.13506e-05 1.62689e-05 1.20384e-05 1.34473e-05 1.58703e-06 6.59129e-07 2.69804e-06 4.81143e-05 2.4697e-06 5.16502e-05 5.49142e-06 1.28029e-05 1.21564e-05 1.23105e-05 7.32879e-05 1.20708e-05 2.60655e-05 1.45192e-05 2.91709e-05 1.70422e-05 3.30127e-05 1.73709e-05 1.47471e-05 1.13148e-05 2.23381e-05 2.95104e-05 9.09393e-06 1.95011e-05 1.13811e-05 7.02266e-05 2.48033e-05 2.54348e-05 2.64275e-05 1.92245e-05 2.70987e-05 3.94591e-05 2.58089e-05 1.12684e-06 1.03988e-06 2.04408e-05 1.67258e-05 1.40956e-05 8.02951e-07 2.99887e-06 2.11551e-06 2.18093e-06 1.09218e-05 1.33765e-06 7.77172e-05 2.85875e-05 5.16142e-05 5.81485e-05 5.24581e-05 1.30615e-06 1.69817e-06 1.1024e-05 1.37571e-05 3.79691e-05 7.52273e-06 9.62956e-06 2.6327e-06 1.06217e-05 9.30367e-06 2.77251e-06 5.9428e-07 7.25881e-07 9.34331e-06 9.67359e-06 1.25744e-06 7.01007e-06 2.39519e-05 4.05069e-06 4.3375e-05 1.2137e-05 2.58153e-05 1.76832e-05 3.96747e-05 3.81001e-05 7.68021e-05 0.000245183 3.63625e-06 3.32055e-06 0.000340539 2.76761e-06 2.83727e-06 5.60316e-07 7.62894e-07 1.31906e-06 3.93266e-05 3.96644e-06 5.32542e-06 0.000443455 7.84607e-06 8.01395e-06 6.6295e-06 1.18203e-05 1.48292e-05 1.38212e-05 3.16991e-05 1.41944e-05 1.35281e-05 1.30834e-05 1.53618e-05 1.59169e-06 6.26383e-05 6.32367e-05 5.38982e-05 2.84024e-05 9.56347e-06 9.96769e-06 1.83845e-06 9.21202e-06 1.24656e-06 9.99737e-06 1.64101e-05 1.33804e-06 7.86349e-06 2.05155e-06 3.02585e-06 1.27963e-05 1.26782e-05 2.62166e-05 8.49993e-06 1.49599e-05 1.41331e-05 8.77183e-06 9.58821e-06 1.43964e-06 1.71074e-06 2.84154e-05 8.97737e-07 6.84492e-07 1.20307e-05 2.25942e-05 1.08042e-05 1.00785e-05 1.19596e-05 9.4027e-06 2.24281e-06 1.52857e-05 2.04756e-05 2.44152e-05 2.28485e-05 1.75992e-06 2.98969e-06 4.33711e-06 1.58965e-06 2.57761e-06 1.03831e-05 7.34123e-06 8.11978e-06 8.68275e-06 5.59142e-06 3.79646e-05 4.91244e-05 3.7566e-05 2.02687e-06 2.09654e-06 2.01927e-05 2.17942e-05 7.27057e-06 1.22925e-05 1.15755e-05 3.16924e-06 2.90118e-06 3.16275e-05 2.2985e-05 4.12982e-07 2.22485e-05 3.40096e-06 6.1373e-06 2.13437e-06 3.25607e-06 3.31998e-06 3.46059e-06 1.68284e-06 4.48591e-06 3.44503e-07 8.90879e-06 5.16374e-06 1.84981e-05 9.61907e-06 9.81303e-07 1.99867e-05 1.29035e-06 1.31453e-06 1.95447e-05 2.20263e-05 1.75649e-05 8.78236e-06 1.40421e-05 3.9839e-05 1.05221e-05 1.73861e-05 1.19644e-05 1.94742e-05 1.31296e-05 1.03452e-05 2.37656e-05 2.22221e-05 1.24958e-05 1.10171e-05 0.000135653 4.75115e-05 8.76247e-05 2.3578e-05 3.1907e-06 4.26761e-06 2.74766e-06 8.12748e-06 5.81624e-06 1.66683e-05 3.5086e-05 3.73259e-05 1.6903e-05 1.34129e-05 2.40532e-05 1.73776e-05 2.08276e-06 1.19423e-05 1.12592e-05 4.68062e-06 1.14342e-05 1.23467e-05 5.76018e-06 5.28674e-06 1.15491e-05 9.64455e-06 9.30475e-06 8.85282e-06 1.24381e-05 2.58804e-05 7.91178e-06 9.92895e-06 1.2572e-05 1.72805e-06 1.22304e-06 1.67847e-06 1.67625e-06 1.58826e-06 9.00968e-06 1.26899e-05 1.29954e-05 1.23313e-05 3.6428e-05 7.48824e-06 6.28792e-07 1.74825e-05 2.86788e-05 8.51966e-06 1.53539e-05 4.53799e-06 7.48505e-06 1.49098e-05 1.58784e-05 9.31521e-06 3.09689e-06 1.82087e-06 1.08564e-05 1.70605e-06 2.95358e-05 2.32714e-05 2.75656e-05 1.68812e-05 1.06144e-05 5.02463e-06 1.02611e-06 6.50427e-05 2.78649e-06 1.91055e-05 3.32484e-05 2.16621e-05 2.253e-05 2.4391e-05 1.73903e-05 1.43474e-05 1.70602e-05 1.33401e-05 3.03549e-05 1.32466e-05 4.7066e-05 2.60864e-05 1.40603e-05 3.65276e-06 3.74901e-06 2.93569e-05 2.11336e-05 2.20904e-05 2.06394e-05 2.63256e-05 2.71505e-06 1.9916e-06 3.11615e-05 4.11995e-06 3.48211e-05 2.91737e-06 2.61344e-05 1.70706e-06 1.08334e-06 1.47859e-06 4.2741e-05 1.37156e-05 8.24032e-06 2.18788e-05 1.79927e-05 1.83575e-06 6.65499e-06 2.41893e-06 1.39778e-05 9.70653e-06 1.0813e-05 7.82965e-06 1.53971e-05 1.44621e-05 2.33581e-05 2.6221e-05 2.80163e-05 1.44411e-05 3.26836e-05 2.714e-05 1.43476e-05 1.13024e-05 3.42387e-06 1.04986e-05 1.69408e-05 2.29107e-05 7.97591e-06 1.12602e-06 1.28458e-06 4.5494e-05 1.22483e-06 1.73735e-05 1.00435e-05 1.0696e-05 1.76028e-05 2.21569e-05 1.23115e-05 3.06903e-05 3.00229e-05 2.98022e-05 5.46584e-05 1.33778e-05 4.918e-06 8.99356e-07 1.37777e-05 1.40743e-05 5.54022e-06 1.7506e-05 2.46504e-06 2.56944e-06 2.72537e-05 2.36314e-06 1.77952e-05 1.34348e-05 4.75523e-05 4.45965e-06 7.12974e-06 5.27297e-05 5.57086e-05 2.68602e-05 7.60892e-05 3.70107e-05 3.91717e-05 3.37917e-05 1.29173e-05 2.10073e-05 2.82078e-05 2.38869e-05 3.52101e-05 2.04241e-06 1.59658e-05 2.20852e-05 1.28224e-05 9.4565e-06 9.93791e-06 2.06297e-05 1.70113e-06 8.79167e-06 1.40395e-06 4.66456e-06 2.33631e-05 2.10859e-06 1.05852e-05 2.23874e-06 3.65243e-06 1.33505e-05 7.01109e-06 3.36362e-06 2.61816e-05 1.23113e-05 2.25557e-05 5.9919e-07 2.88372e-06 1.07665e-05 1.28616e-05 1.11755e-05 3.13795e-05 3.00483e-05 4.51922e-05 1.80705e-05 1.09941e-05 4.56865e-05 1.35987e-05 2.76851e-05 2.4679e-05 1.95049e-05 3.94678e-06 2.3184e-06 4.09876e-06 2.33927e-05 8.19722e-06 1.93303e-06 2.02374e-05 2.03772e-05 4.02461e-07 4.48221e-07 2.3175e-05 1.41506e-05 1.35288e-05 1.71928e-05 9.8123e-06 3.68921e-06 1.18681e-05 1.44807e-06 6.14777e-07 1.57126e-05 1.32835e-06 1.75214e-05 3.51043e-05 8.06624e-06 1.14002e-05 1.67105e-05 6.13201e-06 5.9877e-06 2.17067e-05 7.54322e-07 4.80005e-05 2.0591e-06 9.07099e-06 1.72287e-05 1.12066e-05 1.43444e-05 3.5557e-05 8.09689e-06 3.08498e-05 1.28698e-05 1.44602e-06 1.573e-06 2.5335e-05 1.70693e-06 1.20226e-05 2.27891e-06 2.06667e-05 1.61046e-05 2.06406e-06 1.11665e-05 2.89483e-06 7.73607e-06 1.78586e-06 1.17006e-06 1.55178e-05 1.00474e-06 1.7e-06 1.04267e-06 7.79246e-06 7.98459e-07 6.60306e-05 4.39621e-05 4.42183e-05 1.27644e-05 2.4961e-05 1.29288e-06 2.41804e-06 8.21619e-06 5.2998e-06 1.38737e-05 1.10868e-05 3.04801e-05 5.59896e-06 1.01987e-05 1.39597e-05 3.37763e-05 2.77873e-05 3.84672e-05 5.87077e-06 1.29111e-06 5.22296e-05 6.0074e-05 5.00946e-05 1.88127e-05 4.83911e-06 1.26085e-06 1.17515e-06 1.34301e-06 2.09649e-06 1.46736e-06 1.22595e-05 1.49664e-06 2.60588e-05 1.60713e-06 1.94919e-06 6.37467e-05 5.11415e-05 1.51857e-05 2.08408e-05 9.66628e-07 1.82305e-05 3.05969e-05 2.06401e-05 8.75173e-07 1.38801e-06 1.32157e-06 1.05114e-06 8.41002e-06 8.51774e-07 1.47161e-05 7.06283e-06 7.20593e-07 1.06373e-06 1.43268e-06 5.70814e-06 1.19105e-06 1.63877e-06 7.4396e-06 1.47654e-06 1.10496e-05 1.25379e-05 8.8312e-06 1.73929e-05 2.26351e-05 7.27461e-06 1.26829e-06 1.38876e-06 1.73711e-05 1.6792e-05 3.17253e-05 1.25637e-05 1.30992e-05 2.43498e-05 1.60154e-06 1.45032e-06 2.97723e-05 8.04469e-05 3.61803e-05 1.38473e-06 2.54223e-06 1.30835e-06 1.57121e-05 1.20208e-05 0.000214294 1.344e-05 3.98351e-05 1.13512e-05 1.59202e-05 4.25598e-06 5.22332e-06 5.00233e-06 2.43454e-05 3.74465e-05 8.81231e-06 0.000343614 6.16179e-06 1.65877e-05 5.29491e-06 1.2206e-05 1.71241e-05 1.76703e-05 8.67115e-07 9.65292e-05 9.87488e-07 7.23697e-05 6.46092e-05 3.4375e-06 5.44876e-06 1.2874e-06 1.07209e-05 3.73932e-05 7.7231e-07 2.80557e-05 2.42109e-05 9.28944e-06 1.7127e-06 4.87872e-07 8.52803e-07 1.13856e-06 1.96802e-05 2.18648e-05 8.52953e-06 5.07955e-05 1.09204e-06 6.72998e-07 2.63234e-05 1.50927e-05 1.46895e-06 1.8764e-05 3.02306e-05 1.43377e-05 2.004e-05 1.18349e-06 1.65479e-05 1.39602e-05 1.00807e-05 2.40822e-05 2.02019e-05 3.74662e-05 9.29827e-05 7.55327e-05 8.13561e-05 5.90949e-05 0.000105294 1.83054e-05 0.000101887 2.0537e-06 3.60839e-06 1.61423e-05 2.73149e-05 1.3981e-05 1.74863e-05 1.16035e-05 1.1533e-05 4.49675e-06 9.22695e-06 2.23456e-05 1.31984e-05 1.12304e-05 9.28895e-06 7.48498e-06 1.26454e-05 4.64999e-05 2.4107e-06 1.20005e-05 7.06012e-06 5.59553e-06 2.23818e-06 8.1634e-05 4.92421e-05 1.62657e-06 2.94473e-05 3.8556e-05 6.59343e-06 6.87427e-06 1.17156e-06 4.32357e-05 4.66304e-05 2.02463e-05 1.75859e-05 1.52492e-05 9.71415e-06 4.87797e-06 8.67837e-06 8.20017e-06 2.58667e-05 3.31782e-05 2.26455e-05 1.58186e-06 2.48724e-05 1.14461e-05 1.19582e-05 1.17756e-06 1.28968e-06 6.18311e-06 1.33076e-05 1.80359e-05 4.79673e-05 1.54148e-05 1.62318e-06 0.000103722 7.23958e-05 1.10327e-05 4.71041e-07 6.13145e-07 8.93369e-06 5.38534e-05 3.092e-05 4.468e-07 8.51251e-06 1.36304e-05 7.99856e-07 1.52562e-05 1.91115e-05 1.16915e-05 1.71783e-05 1.03896e-05 1.48948e-05 8.54267e-07 1.08015e-05 4.95329e-07 5.15135e-07 1.8038e-05 8.39057e-06 1.6926e-06 3.46553e-06 1.69992e-06 5.82056e-06 8.51061e-06 1.52764e-05 2.28403e-06 2.47458e-06 2.36753e-05 2.2956e-05 1.25291e-05 2.77468e-05 7.85776e-06 3.11765e-06 1.43666e-06 5.69249e-06 7.76814e-06 1.33979e-05 4.55978e-05 1.37442e-05 8.56848e-06 1.21897e-05 1.35163e-05 1.2601e-05 1.48446e-05 1.67538e-06 2.26736e-05 3.08262e-05 2.89091e-05 2.02624e-05 2.1383e-05 8.1912e-07 5.58027e-06 6.29171e-06 3.45206e-05 1.41421e-05 1.35657e-05 1.51912e-05 1.25797e-05 1.01378e-05 9.92441e-06 2.41437e-06 8.29011e-06 4.43064e-05 1.15839e-06 3.94034e-05 2.46423e-05 1.30847e-05 2.40265e-05 1.63497e-05 2.36543e-05 1.98657e-05 2.35637e-06 1.06927e-05 3.81017e-06 2.15347e-06 1.05269e-05 1.01976e-05 5.60666e-06 8.51557e-06 1.12958e-05 2.09344e-06 1.2136e-05 2.20768e-05 6.71482e-06 6.74075e-06 9.46858e-06 1.58469e-06 2.42237e-05 6.52451e-05 7.35526e-05 8.21434e-06 1.8525e-05 1.15046e-05 1.84273e-05 1.62068e-05 3.80633e-07 4.58321e-06 1.33633e-05 1.51402e-05 1.30373e-05 3.02794e-05 2.3934e-05 2.41568e-05 0.000128209 4.52005e-06 0.000131085 1.01466e-05 3.6033e-05 7.4316e-06 8.52751e-06 3.06187e-05 1.17051e-05 2.76485e-05 3.86037e-05 7.97932e-06 1.31358e-06 1.84155e-05 1.71611e-05 0.000121269 2.49243e-05 1.73762e-05 4.56877e-07 6.15103e-05 4.1269e-07 1.19771e-05 8.80294e-06 1.0414e-06 5.97721e-07 4.18746e-06 2.03673e-05 6.23851e-06 1.45997e-05 7.72798e-06 1.49489e-06 1.53261e-05 4.14363e-05 8.50179e-07 3.01556e-05 1.04195e-05 1.58234e-05 2.41625e-05 1.58269e-05 1.45447e-05 1.56106e-05 3.71128e-06 5.41441e-06 3.01064e-06 4.66197e-06 6.03382e-06 4.36329e-05 2.4559e-05 1.70362e-05 1.52283e-05 4.47048e-06 1.2331e-05 2.55963e-05 6.53169e-06 3.29834e-05 3.19148e-05 4.18713e-05 2.73525e-05 3.05074e-05 2.1695e-05 3.48665e-05 4.96508e-06 3.58522e-06 1.70134e-05 1.38371e-05 2.92592e-05 1.84553e-05 5.83246e-06 4.40534e-05 6.47278e-05 2.63777e-05 8.14028e-06 1.01497e-05 1.23024e-05 5.06675e-05 2.71795e-05 1.5778e-05 1.20948e-05 1.34354e-06 2.66188e-05 2.00576e-05 1.24349e-05 2.08465e-05 2.49293e-05 1.3023e-05 1.38815e-05 1.41067e-05 7.30959e-06 1.46702e-05 1.00265e-05 6.39493e-06 9.4111e-06 1.57143e-05 9.9647e-06 1.53055e-05 1.42238e-05 4.65967e-06 1.58667e-05 7.36146e-06 8.00171e-06 3.18262e-05 1.3316e-05 1.59633e-05 1.39992e-05 4.80574e-06 5.58776e-06 7.30248e-06 2.29937e-05 1.74777e-05 1.72635e-05 2.38886e-05 9.51301e-06 9.57276e-06 8.0351e-06 8.33759e-06 7.07081e-06 1.17832e-05 1.95598e-05 1.22933e-05 1.63779e-05 1.13119e-05 1.36093e-05 5.737e-06 1.32067e-05 1.12669e-05 9.55546e-06 2.07178e-05 1.05347e-05 1.45272e-05 1.1181e-05 1.73671e-05 5.15674e-05 6.51672e-06 2.50916e-05 2.05948e-05 7.21443e-06 1.33101e-05 1.51187e-05 7.71429e-06 2.83371e-05 1.86436e-05 1.52033e-05 8.49719e-06 1.17088e-05 9.66976e-06 1.35539e-05 1.73265e-05 9.7631e-06 9.2375e-06 7.81179e-06 1.26645e-05 3.3431e-05 1.56645e-05 1.92945e-05 1.70871e-05 1.93052e-05 1.3659e-05 3.94431e-06 3.19105e-05 2.71593e-05 3.53834e-05 2.22547e-05 2.84996e-05 1.41847e-05 1.52436e-05 7.55112e-06 2.26856e-05 2.36683e-05 4.30564e-05 2.04702e-05 4.11664e-06 2.18149e-05 1.7335e-05 4.6075e-06 2.51325e-06 1.41909e-05 2.3164e-05 8.77368e-06 7.305e-06 7.38924e-06 8.00776e-06 6.28234e-06 8.83106e-06 1.91056e-05 2.24719e-05 1.10562e-05 1.407e-05 1.75526e-05 2.01079e-05 7.63113e-06 2.36463e-05 1.00058e-05 1.07326e-05 1.74055e-05 8.08014e-06 2.40083e-05 6.37484e-06 8.60936e-06 1.25263e-05 8.70293e-06 8.99366e-06 1.21997e-05 8.74273e-06 8.41029e-06 3.10487e-06 2.02248e-05 3.17563e-05 2.95694e-05 2.77863e-05 2.69158e-05 1.94668e-05 9.05715e-06 1.82477e-05 7.5947e-06 5.5582e-06 5.21658e-05 0.00013126 1.09672e-05 1.41463e-05 6.22958e-06 1.25303e-05 2.22826e-05 1.93012e-05 8.47533e-06 1.4096e-05 1.14512e-05 1.11291e-05 1.82127e-05 9.71858e-06 3.42498e-05 2.7679e-05 2.6427e-05 6.07658e-06 6.94423e-06 6.04658e-06 5.18818e-06 1.63664e-06 8.38009e-06 2.53031e-05 2.53942e-05 7.202e-06 3.21452e-05 4.78381e-06 5.19882e-06 3.65609e-05 3.80207e-05 3.91539e-06 6.87292e-06 3.19039e-05 2.61455e-05 8.26457e-06 8.27516e-06 1.80414e-05 2.74669e-05 1.57094e-05 8.17204e-06 1.49328e-05 6.84607e-06 2.94044e-05 4.81307e-05 3.73039e-06 4.17863e-06 6.31612e-06 3.99258e-06 2.26502e-06 1.14773e-05 8.72753e-06 1.26485e-05 2.40093e-05 9.54019e-06 9.60098e-06 6.81036e-06 8.92511e-06 3.20177e-05 5.48046e-05 4.0064e-06 7.05929e-06 4.72184e-05 4.19959e-05 3.57347e-05 3.20332e-05 3.34628e-05 3.96768e-05 2.77909e-05 2.19861e-05 2.64135e-05 2.02802e-06 4.86119e-06 2.62013e-05 1.73122e-05 1.66373e-05 5.2718e-06 9.9765e-06 8.26839e-06 2.3934e-05 3.38472e-05 2.70355e-05 1.41889e-05 8.90257e-06 1.67705e-05 2.55425e-06 1.46102e-06 1.90408e-06 5.04435e-06 6.59244e-06 8.56946e-06 2.12801e-05 1.60081e-05 1.46726e-05 1.56151e-05 3.97918e-06 1.52506e-05 7.86216e-06 5.49229e-06 1.83757e-05 8.53423e-06 1.05283e-05 7.39565e-06 1.11388e-05 1.1772e-05 4.66625e-05 1.35036e-05 1.85723e-05 9.64735e-06 2.77279e-05 2.05412e-05 2.28816e-05 1.12246e-05 1.0928e-05 2.96674e-05 4.65427e-06 1.67222e-05 2.59885e-05 1.19526e-05 1.02121e-05 2.11884e-05 5.15631e-06 5.4704e-06 8.09238e-06 1.38689e-05 5.51833e-05 3.98169e-05 1.83679e-05 4.12932e-05 6.12755e-05 4.72252e-05 1.20192e-05 4.33061e-05 4.81047e-05 2.43343e-05 1.63212e-06 1.48751e-05 2.03694e-06 1.4689e-06 5.03452e-06 1.53657e-05 2.08942e-05 2.55639e-05 4.11325e-05 6.85135e-07 2.9068e-05 8.30859e-06 9.27057e-06 2.77186e-05 8.15617e-06 7.84015e-06 1.20004e-05 7.53967e-06 4.53021e-06 9.14787e-06 2.01736e-05 9.38674e-06 6.91286e-06 5.58763e-06 5.53502e-06 6.18725e-06 8.82193e-06 7.58813e-06 1.34163e-05 1.39824e-05 1.92335e-05 1.22438e-05 2.28508e-05 1.80041e-05 3.10459e-05 2.54978e-05 6.44041e-06 8.72721e-06 7.22431e-06 8.93416e-06 2.19304e-05 2.76082e-05 1.89453e-05 5.14951e-05 9.33805e-06 5.4498e-06 1.13936e-05 2.01645e-05 2.00424e-05 1.52721e-05 2.18696e-05 1.54025e-05 8.4038e-05 5.41131e-05 5.46023e-05 9.03219e-06 3.30114e-05 1.02639e-05 3.48763e-05 9.76546e-06 3.03812e-05 1.94491e-05 2.08892e-05 1.40071e-05 7.60251e-06 1.25514e-05 3.3704e-06 1.25329e-05 9.22056e-05 6.75971e-05 1.81473e-05 1.23954e-05 3.36291e-05 3.12075e-05 2.61602e-05 6.82255e-06 2.89147e-05 2.61974e-05 8.00531e-06 5.00562e-06 7.82773e-06 4.67633e-06 1.79298e-05 1.30474e-05 2.54399e-05 3.28435e-05 2.44039e-05 2.53055e-05 1.60224e-05 3.63627e-05 1.7427e-05 4.95417e-06 1.73798e-05 9.22971e-06 1.57773e-05 1.08839e-05 1.36909e-05 9.10802e-06 1.26855e-05 2.7538e-05 2.87681e-05 1.18393e-05 8.5334e-06 3.57193e-06 1.32186e-05 1.50431e-05 1.06638e-05 1.26379e-05 1.64471e-06 2.91109e-05 1.97133e-05 6.46426e-05 1.45381e-05 1.50487e-05 2.96936e-05 1.01991e-05 1.65127e-05 3.23665e-05 1.33623e-05 4.20716e-06 1.54428e-05 1.5038e-05 5.24141e-06 1.30277e-05 1.9911e-05 1.98947e-05 2.12577e-05 2.83146e-05 5.3461e-06 2.89112e-05 2.32017e-05 5.99596e-06 3.82433e-05 2.6451e-05 1.34825e-05 1.87832e-05 1.8263e-05 2.46392e-05 1.88685e-05 2.04764e-05 1.73517e-05 1.91389e-05 2.28897e-05 2.30455e-05 1.27541e-05 3.8658e-05 1.52049e-05 1.4669e-05 7.44128e-06 1.21706e-05 9.6718e-06 1.35953e-05 1.0934e-05 1.874e-05 1.25793e-05 7.27871e-06 2.11483e-05 5.82194e-06 5.61244e-06 1.56175e-06 1.21173e-05 1.36154e-05 6.23489e-06 4.91561e-06 4.9924e-06 2.07209e-05 1.80736e-05 6.56166e-06 5.04995e-05 2.6048e-05 1.31976e-05 8.66725e-06 6.60934e-06 2.51387e-06 3.9172e-06 4.29462e-06 6.65431e-06 5.98995e-06 1.31115e-05 9.90262e-06 1.31739e-05 4.45487e-05 9.69968e-06 5.62662e-06 2.94345e-05 2.99284e-05 1.92531e-05 2.3844e-05 5.78159e-06 6.52383e-06 3.66406e-05 4.05943e-05 9.04061e-06 1.80751e-05 3.68226e-05 7.12936e-06 1.32652e-05 8.80048e-06 3.70732e-05 9.87699e-06 3.71949e-05 8.41023e-06 8.77046e-06 6.22447e-06 9.87088e-06 2.38067e-05 1.56928e-05 7.86683e-06 1.77155e-05 1.22734e-05 6.85696e-06 1.42653e-05 1.36399e-05 6.96793e-06 1.02885e-05 2.04923e-05 1.3115e-05 1.24919e-05 1.26007e-05 8.61949e-06 6.70607e-06 6.65526e-06 2.17267e-05 1.84562e-05 3.39777e-05 9.52125e-06 1.10625e-05 1.51638e-05 4.36687e-06 3.55851e-06 1.19632e-05 1.84496e-05 2.51558e-05 2.07581e-05 1.98362e-05 1.22531e-05 1.05078e-05 9.90233e-06 5.38365e-06 7.81094e-06 5.89632e-06 1.20062e-05 1.61865e-05 4.6047e-06 6.84223e-06 2.32027e-05 2.79352e-05 1.08419e-05 1.54473e-05 1.31306e-05 2.06894e-05 2.44817e-05 1.98939e-05 1.93973e-05 2.4525e-05 2.15114e-05 5.86502e-05 6.61919e-05 3.65759e-05 3.96207e-05 3.08478e-05 1.40709e-05 1.36341e-05 2.73221e-05 1.43321e-05 2.83095e-05 5.06632e-05 3.91741e-05 2.47935e-05 9.87226e-06 2.38938e-05 6.42822e-06 2.69238e-06 7.36771e-06 3.75423e-05 2.13637e-05 2.25131e-05 6.39032e-06 1.21345e-05 1.35701e-05 5.96348e-06 1.07444e-05 6.84176e-06 3.09329e-05 7.91102e-06 1.08324e-05 3.47993e-05 2.84961e-05 6.15751e-06 1.94541e-05 1.75604e-05 8.89983e-06 3.16369e-06 1.76006e-05 1.73928e-05 2.33769e-05 2.39873e-05 4.58665e-05 6.56419e-06 1.11117e-05 1.38977e-05 1.21143e-05 6.58703e-06 1.68031e-05 8.62663e-06 1.59861e-05 2.09665e-05 1.33819e-05 1.36656e-05 6.62626e-06 8.59389e-06 7.49066e-06 9.53943e-06 1.7608e-05 1.5798e-05 8.4787e-06 1.59363e-05 1.10513e-05 1.28758e-05 1.02286e-05 2.04457e-05 1.20967e-05 3.26996e-05 1.12863e-05 3.1831e-05 7.49491e-06 1.43856e-05 1.93644e-05 9.20519e-06 1.57237e-06 6.80751e-06 6.5519e-06 1.58211e-05 5.68789e-06 1.41175e-05 1.15061e-05 1.14885e-05 6.36418e-06 1.05141e-05 9.02832e-06 9.75348e-06 3.26033e-05 1.66122e-05 2.56523e-05 5.50458e-06 1.57037e-05 1.54293e-05 1.65254e-05 1.61128e-05 1.25609e-05 2.9512e-05 1.93871e-05 1.64718e-05 1.6709e-05 1.17567e-05 1.37677e-05 1.5074e-05 2.28283e-05 1.14499e-05 1.52551e-05 1.7789e-06 2.98583e-06 3.65129e-06 2.57161e-05 5.58002e-06 5.96621e-06 8.82831e-06 8.27004e-06 1.49226e-05 1.02942e-05 1.2113e-05 3.87666e-05 8.08335e-06 1.02774e-05 1.50813e-05 3.34399e-05 2.75995e-05 2.04404e-05 3.64527e-05 2.18592e-05 2.45527e-05 1.04141e-05 1.29412e-05 1.80681e-05 2.9709e-05 1.11396e-05 2.20419e-05 1.99334e-05 2.46309e-05 3.18002e-06 2.7619e-05 5.79973e-06 1.02824e-05 5.22267e-06 9.85379e-06 2.18375e-06 3.81164e-06 2.43815e-05 1.84969e-05 1.05466e-05 1.29976e-05 1.14285e-05 1.7659e-05 6.76229e-06 1.27623e-05 4.04012e-05 2.90092e-05 7.69585e-06 5.53497e-06 4.07857e-05 1.84292e-05 1.45435e-05 1.38004e-05 1.42304e-05 1.92126e-05 1.50361e-05 1.91118e-05 5.97941e-06 1.21669e-05 8.97949e-06 2.83972e-06 1.07377e-05 6.85591e-06 6.06088e-06 5.93994e-06 9.11061e-06 2.96322e-05 2.92489e-05 3.21214e-05 1.63369e-05 6.6029e-06 1.87688e-05 1.17675e-05 1.77886e-05 2.15631e-05 2.18721e-05 2.21668e-05 2.59177e-05 2.24024e-05 2.96254e-05 3.75295e-05 7.45598e-06 9.86165e-06 4.47994e-05 1.34561e-05 2.39642e-05 1.75258e-05 2.38918e-05 2.33489e-05 1.90592e-05 3.2736e-05 1.09978e-05 6.3749e-06 5.59968e-06 8.26893e-06 9.6001e-06 8.41891e-06 1.00427e-05 8.94487e-06 3.47756e-05 2.7441e-05 1.38213e-05 1.49152e-05 1.37413e-05 1.75683e-05 1.69748e-05 2.18043e-05 1.84217e-05 5.22834e-06 8.99933e-06 1.57268e-05 3.22855e-05 2.24207e-05 1.50309e-05 1.70321e-05 1.29073e-05 5.93381e-06 7.47621e-06 2.3639e-05 2.33139e-05 3.05353e-05 1.53591e-05 1.79015e-05 1.52454e-05 1.38389e-05 1.66392e-05 8.95465e-06 5.78767e-06 4.72663e-06 7.7182e-06 8.11409e-06 3.53338e-06 6.40971e-06 5.20154e-06 1.76243e-05 3.40371e-05 2.40272e-05 4.7101e-06 1.91375e-05 1.52208e-05 1.34576e-05 1.3431e-05 1.45616e-05 2.19758e-05 1.70529e-05 1.73106e-05 3.04138e-05 1.27308e-05 1.13759e-05 1.14113e-05 4.56879e-06 1.94284e-05 1.57609e-05 9.00707e-06 3.17328e-06 9.96141e-06 1.01259e-05 2.51857e-05 7.76687e-06 1.76192e-05 8.42327e-06 7.445e-06 9.67348e-06 1.42597e-05 1.20746e-05 1.79388e-05 1.17248e-05 1.10806e-05 1.30204e-05 1.4728e-05 8.19389e-06 1.59765e-05 2.23575e-05 2.17272e-05 2.41925e-05 1.96826e-05 4.76788e-06 2.04746e-05 1.96318e-05 7.03137e-06 2.65725e-05 4.68864e-05 1.53214e-05 5.46653e-05 3.0003e-05 1.74446e-05 5.82531e-06 1.79234e-05 1.03393e-05 9.49797e-06 9.86876e-06 1.60793e-06 9.55006e-06 9.37382e-06 3.2818e-05 4.10051e-06 3.2609e-05 2.61732e-05 1.70015e-05 8.46665e-05 6.13731e-05 4.25888e-05 2.26796e-05 3.27299e-05 2.48519e-05 3.6865e-05 2.26344e-05 8.87809e-06 1.42425e-05 2.77547e-05 3.22381e-05 1.32066e-05 3.14077e-05 6.77292e-06 5.99348e-06 6.62326e-06 1.00507e-05 1.04283e-05 2.33813e-05 1.49458e-05 1.18178e-05 1.78128e-05 1.9721e-05 3.22519e-05 4.41709e-05 3.08576e-05 9.34118e-06 2.54264e-05 1.81497e-05 6.69904e-06 6.35777e-06 5.28429e-06 1.26091e-05 1.33538e-05 2.91265e-05 1.93025e-05 1.90616e-05 1.53738e-05 3.10647e-05 7.65189e-06 1.03711e-05 1.40129e-05 1.74914e-05 1.31478e-05 9.35248e-06 5.68892e-06 5.19493e-06 8.73715e-06 3.1888e-05 7.60529e-06 7.64398e-06 1.67805e-05 1.86074e-05 3.41629e-05 3.04815e-05 2.62661e-05 2.9528e-05 2.48364e-05 3.81148e-05 6.86995e-06 3.39678e-05 1.65613e-05 9.2265e-06 1.81787e-05 1.43365e-05 1.06197e-05 1.19194e-05 1.45318e-05 1.07951e-05 4.68059e-06 1.21935e-05 3.29485e-06 1.69753e-05 4.72992e-06 9.53248e-06 1.20478e-05 2.0049e-05 1.03132e-05 1.12079e-05 7.64004e-06 1.30088e-05 2.47005e-05 2.44709e-05 9.3533e-06 8.99843e-06 2.40332e-05 6.01619e-06 4.97852e-06 8.62267e-06 5.215e-06 1.34522e-05 1.33746e-06 3.05458e-05 2.73816e-06 1.25981e-05 8.42644e-07 3.47964e-05 5.72509e-06 1.4825e-05 3.44101e-05 1.46641e-05 2.47268e-06 2.22381e-06 5.1275e-06 1.08174e-05 7.06423e-06 1.29504e-05 1.5302e-05 1.1787e-05 1.33899e-05 1.49112e-05 1.49526e-05 1.23433e-05 1.61197e-05 2.82774e-06 1.26911e-05 2.11039e-05 1.29006e-05 1.09917e-05 1.03412e-05 2.159e-05 2.83199e-05 2.40538e-05 5.0415e-06 7.69799e-06 5.67983e-06 6.85499e-06 8.92869e-06 1.30663e-05 2.39753e-05 5.38211e-06 1.83826e-05 5.84008e-06 1.61145e-05 1.03632e-05 6.12833e-06 3.96687e-05 1.29531e-05 3.79211e-05 3.54484e-05 2.86914e-05 9.47414e-06 1.09994e-05 8.44854e-06 6.47842e-06 9.8901e-06 1.2706e-05 1.80276e-05 4.49105e-05 3.1887e-05 2.61824e-05 1.81424e-05 9.30225e-06 1.26742e-05 2.73453e-05 2.61543e-05 0.000163834 9.35328e-06 1.94591e-05 5.86559e-06 6.6828e-06 8.97676e-06 1.53632e-05 1.40936e-05 1.41636e-05 1.00886e-05 1.28662e-05 2.16274e-05 1.99504e-05 4.45214e-05 4.12691e-05 5.30144e-05 2.44977e-05 3.51025e-05 1.00738e-05 7.21963e-06 8.07892e-06 3.62308e-06 1.25403e-05 1.82138e-05 2.29898e-05 1.66786e-05 5.83366e-06 4.42966e-06 4.83468e-06 1.41435e-05 8.18393e-06 4.02341e-06 6.32579e-06 1.26163e-05 1.30412e-05 3.29395e-06 2.16348e-05 1.7448e-05 8.29296e-06 9.4476e-06 3.17429e-05 2.96263e-05 1.10687e-05 1.32719e-05 1.30472e-05 9.59662e-06 1.09369e-05 1.60254e-05 1.18009e-05 2.34948e-05 2.06858e-05 1.05261e-05 3.07598e-06 3.28815e-06 2.30629e-05 8.57741e-06 6.91876e-06 6.49194e-06 8.10996e-06 1.05263e-05 7.302e-06 9.18968e-06 6.67704e-06 4.97194e-06 7.68035e-06 9.32322e-06 8.0405e-06 2.34022e-05 7.67326e-06 4.50464e-06 3.797e-06 3.10499e-05 4.56101e-05 1.3447e-05 5.0337e-05 1.18299e-05 3.60865e-05 1.20993e-05 4.71018e-06 1.68065e-05 1.08152e-05 1.77095e-05 1.7243e-05 2.63897e-05 2.74302e-05 3.08445e-05 3.20993e-05 1.18092e-05 5.97724e-06 6.82578e-06 3.75677e-05 1.37882e-05 2.73983e-05 3.17344e-05 3.62269e-05 3.02882e-05 1.69692e-05 3.25562e-05 2.98453e-05 4.56643e-06 3.25803e-05 1.45135e-05 5.35643e-06 1.98541e-05 1.10198e-05 1.55946e-05 8.0771e-06 2.59204e-05 8.89462e-06 3.01968e-06 2.73789e-05 7.36822e-06 1.88311e-05 8.04756e-06 5.93407e-06 7.00185e-06 1.52645e-05 5.04311e-06 1.7221e-05 2.58559e-05 2.02835e-05 3.12509e-05 5.19877e-06 8.31592e-06 2.50007e-05 1.42156e-05 7.86535e-06 7.0553e-06 8.78274e-06 6.75681e-06 7.13742e-06 1.44738e-05 4.10808e-06 1.13024e-05 1.22121e-05 1.23946e-05 4.09722e-06 1.46918e-05 2.422e-05 1.82929e-05 1.05031e-05 1.01428e-05 4.23419e-06 1.02041e-05 6.34772e-06 8.12638e-06 7.97947e-06 1.62614e-05 9.69118e-06 1.58735e-05 1.92034e-05 2.3502e-05 2.04067e-05 1.65765e-05 2.60582e-05 9.64101e-06 4.39182e-06 1.87687e-05 1.08767e-05 1.66252e-05 3.2823e-05 3.2777e-05 9.11387e-06 4.57923e-06 5.62437e-06 6.93176e-06 2.30824e-05 2.73383e-05 2.71864e-05 3.11112e-06 5.04309e-06 8.36007e-06 7.54342e-06 3.99128e-05 1.96797e-05 2.12991e-05 1.38313e-05 3.61492e-05 3.68302e-06 7.33693e-06 1.51411e-05 1.58832e-05 6.42144e-06 7.8771e-06 1.61791e-05 2.64222e-05 1.35273e-05 1.46874e-05 7.27703e-06 7.46928e-06 1.81574e-05 1.71438e-05 1.59526e-05 1.47534e-05 8.57229e-06 1.12643e-05 1.14176e-05 7.78379e-06 1.43009e-05 1.05374e-05 1.27984e-05 1.27053e-05 1.97286e-05 1.14237e-05 1.18135e-05 1.14928e-05 1.13507e-05 9.26131e-06 7.94617e-06 9.90637e-06 1.57045e-05 1.03489e-05 2.13434e-05 1.87737e-05 1.02536e-05 1.29519e-05 1.84296e-05 1.68635e-05 1.43193e-05 1.13306e-05 1.13511e-05 9.9495e-06 2.76074e-05 9.92658e-06 1.24521e-05 1.5021e-05 8.05186e-06 1.01672e-05 7.56388e-06 3.73188e-06 3.8808e-06 2.34203e-06 1.00558e-05 1.18139e-05 2.37158e-05 2.3688e-05 2.15895e-05 1.26792e-05 2.61562e-05 1.94588e-05 1.37899e-05 3.04228e-06 4.03554e-05 2.59373e-05 2.83149e-05 1.94563e-05 1.60821e-05 1.4133e-05 1.43868e-05 6.67779e-06 1.99348e-05 1.11694e-05 1.39634e-05 1.24715e-05 1.1432e-05 1.15041e-05 1.31722e-05 2.31063e-06 6.90931e-06 5.67844e-06 1.33607e-05 1.29943e-05 1.11134e-05 6.2672e-06 1.10693e-05 1.30166e-05 1.63983e-05 7.93294e-06 7.85493e-06 1.81922e-05 2.26011e-05 1.88092e-05 3.19572e-05 5.58299e-06 7.4288e-06 3.7168e-06 9.17279e-06 9.15374e-06 2.8349e-06 1.66289e-05 3.47899e-06 5.59176e-06 6.43132e-06 1.03426e-05 1.46481e-05 2.09922e-05 7.62452e-06 9.12199e-06 4.18721e-06 2.08685e-05 1.13652e-05 3.19905e-05 1.95371e-05 3.2198e-05 1.70015e-05 1.03692e-05 1.07711e-05 4.44204e-06 4.33151e-06 9.71132e-06 2.43174e-05 1.56849e-05 1.50591e-05 1.51992e-05 1.09482e-05 6.29458e-06 7.14291e-06 7.88405e-06 1.46294e-05 1.05282e-05 1.7813e-05 6.43231e-06 5.73161e-06 2.74315e-05 2.20457e-05 1.11168e-05 1.19854e-05 6.10537e-06 8.8189e-06 2.00392e-05 1.56252e-05 1.61185e-05 1.21967e-05 1.32443e-05 9.80447e-06 7.02988e-06 8.06631e-06 1.12098e-05 9.92436e-06 4.61844e-06 4.82421e-06 2.34205e-05 6.50626e-06 2.07546e-05 3.42222e-06 1.27876e-05 2.11388e-05 7.45354e-06 1.03153e-05 3.22304e-05 3.3379e-05 2.42809e-05 3.21904e-05 1.78134e-05 7.8439e-06 3.88198e-06 1.56291e-05 9.56123e-06 8.04798e-06 1.1789e-05 1.33751e-05 1.41144e-05 2.37636e-05 1.6344e-06 1.39275e-05 1.60974e-05 9.88459e-06 1.28052e-05 4.2655e-06 4.23075e-06 8.44036e-06 4.79472e-06 6.2128e-06 1.31913e-05 1.94324e-05 8.72351e-06 6.88322e-06 7.82049e-06 1.6537e-05 9.40437e-06 3.09919e-06 7.26598e-06 1.09217e-05 2.86659e-06 1.97318e-05 1.37344e-05 1.01282e-05 1.17438e-05 4.61033e-06 5.39638e-06 2.97072e-06 3.00924e-06 3.38792e-06 2.8036e-06 1.99234e-05 9.65297e-06 1.00678e-05 1.05223e-05 2.83078e-05 2.38039e-05 2.87164e-05 2.19833e-05 5.96377e-06 4.65241e-06 9.55949e-06 3.51105e-06 1.11166e-05 9.20018e-06 7.47446e-06 1.56515e-05 5.99135e-06 1.71737e-05 1.48012e-05 2.93102e-06 6.08497e-06 2.48051e-06 2.34789e-06 1.60893e-05 1.49016e-05 9.07472e-06 1.12507e-05 2.37621e-05 2.77317e-05 1.03365e-05 1.25929e-05 1.355e-05 6.85581e-06 7.97242e-06 7.14963e-06 8.26951e-06 1.79089e-05 1.25982e-05 4.36406e-06 9.3217e-06 1.00458e-05 7.19117e-06 7.92823e-06 9.46854e-06 2.13794e-05 1.75006e-05 2.41032e-05 4.11772e-05 2.01396e-05 2.07998e-05 2.12639e-05 3.31125e-06 6.58952e-06 8.25239e-06 7.8757e-06 5.41454e-06 1.10542e-05 1.02376e-05 8.02587e-06 1.58041e-05 2.06477e-05 2.01998e-05 6.9666e-06 1.26742e-05 2.06475e-05 1.73531e-05 7.88656e-06 1.14122e-05 2.64577e-06 7.56626e-06 3.73443e-06 8.80831e-06 6.36902e-07 7.74067e-06 1.11917e-05 1.70956e-05 1.33334e-05 7.54455e-06 7.43749e-06 1.12529e-05 1.91858e-05 5.06242e-05 1.66243e-05 1.25302e-05 5.02641e-06 4.90332e-06 3.63218e-05 2.74687e-05 2.41338e-05 6.71749e-06 5.52473e-06 9.9495e-06 5.50039e-06 9.54587e-06 1.52178e-05 2.52215e-05 2.31007e-05 3.75884e-05 3.46004e-05 1.39511e-05 4.9425e-06 9.53439e-06 3.38695e-06 6.21789e-06 1.60951e-05 6.3023e-06 1.67043e-05 3.2684e-05 4.27002e-05 2.3613e-05 6.30922e-06 7.75062e-06 3.48326e-05 6.01648e-06 1.00032e-05 9.15396e-06 1.05677e-05 7.8514e-06 1.48466e-05 1.80727e-05 1.42102e-05 1.17955e-05 5.339e-06 5.62259e-06 1.09652e-05 1.19408e-05 1.20082e-05 1.11665e-05 1.19077e-05 2.46273e-05 1.83994e-05 2.87184e-06 3.0502e-06 1.90514e-05 5.10046e-06 4.83399e-06 2.13299e-05 1.24732e-05 1.13182e-05 8.56067e-06 1.06877e-05 8.26188e-06 8.38098e-06 5.47501e-06 2.23217e-05 2.33609e-05 5.84928e-06 4.58995e-06 3.75921e-06 1.9876e-05 9.61614e-06 7.26363e-06 1.07015e-05 8.3415e-06 6.08579e-06 3.52055e-06 3.2336e-06 7.5654e-06 8.03848e-06 1.39703e-05 1.71855e-05 2.55662e-05 2.33902e-05 2.2252e-05 3.81862e-06 4.94223e-06 1.73709e-05 1.89044e-05 1.14964e-05 1.97446e-05 5.67194e-06 1.09247e-05 1.64232e-05 2.35482e-05 1.68039e-05 1.91602e-05 1.37343e-05 1.11617e-05 1.91431e-05 8.12956e-06 6.87875e-06 4.11265e-06 1.71252e-05 2.00193e-05 5.78359e-06 7.00054e-06 8.84735e-06 5.26907e-06 6.43748e-06 7.4868e-06 4.20697e-06 1.76066e-05 1.79696e-05 3.61082e-05 1.33664e-05 1.26115e-05 9.87635e-06 1.01872e-05 1.20958e-05 3.1521e-05 1.97273e-05 3.49472e-06 3.94852e-06 6.47738e-06 4.73135e-06 9.13322e-06 7.50034e-06 2.27293e-05 1.17764e-05 6.39873e-06 6.40926e-06 1.05056e-05 9.04712e-06 1.11444e-05 5.63562e-06 9.04346e-06 9.49284e-06 1.01587e-05 7.84584e-06 9.90202e-06 1.37715e-05 1.01796e-05 1.48595e-05 2.66334e-06 4.07735e-06 1.08216e-06 9.88609e-06 2.86268e-05 8.00014e-06 3.46281e-06 4.64919e-06 4.89546e-06 1.99232e-05 2.3271e-05 6.13159e-06 6.06379e-06 5.88319e-06 6.31192e-06 6.33848e-06 6.4207e-06 6.87362e-06 8.64848e-06 1.28887e-05 7.52489e-06 1.07052e-05 5.95756e-06 4.09453e-06 6.06489e-06 1.12341e-05 9.77022e-06 8.75758e-06 9.07612e-06 4.8845e-06 2.58393e-06 6.57577e-06 8.44879e-06 7.53191e-06 3.27447e-05 1.5571e-05 1.34525e-05 1.22386e-05 2.91454e-06 2.66362e-06 3.99577e-06 2.20756e-05 8.96528e-06 9.55386e-06 9.30333e-06 4.91653e-06 1.08154e-05 1.00463e-05 1.15835e-05 1.24659e-05 2.30601e-05 2.10197e-05 2.28806e-05 2.2006e-05 2.07592e-05 1.36956e-05 7.58852e-06 6.72488e-06 1.45096e-05 8.02555e-06 6.15141e-06 1.28613e-05 9.14579e-06 4.45538e-06 1.13377e-05 6.82173e-06 1.68804e-05 1.36123e-05 1.89483e-05 1.96119e-05 1.94631e-05 9.04033e-06 3.14538e-05 1.39484e-05 2.54349e-05 1.65984e-05 2.31533e-05 1.66743e-05 1.13129e-05 8.48195e-06 1.85431e-05 1.76213e-05 1.48211e-05 1.77759e-05 1.96414e-05 1.23133e-05 1.83476e-05 1.13e-05 1.24056e-05 4.35419e-06 4.08818e-06 7.69514e-06 1.01421e-05 9.89329e-06 1.15784e-05 1.06953e-05 1.27961e-05 8.58473e-06 9.00912e-06 6.12346e-06 3.10975e-06 1.07993e-05 2.34268e-05 1.4841e-05 6.72959e-06 1.63177e-05 2.76147e-05 1.51864e-06 6.50421e-06 1.17184e-05 8.50846e-06 1.36017e-05 5.22617e-06 2.67025e-06 1.027e-05 2.57067e-05 2.49257e-05 1.23386e-05 1.4304e-05 1.44794e-05 1.25191e-05 1.35286e-05 1.67287e-05 4.25812e-06 9.08548e-06 7.89244e-06 8.89334e-06 1.51044e-05 1.65054e-05 2.40465e-06 1.0876e-05 9.33278e-06 8.15524e-06 1.16854e-05 9.2901e-06 1.0768e-05 8.80805e-06 5.02372e-05 4.93862e-05 3.95277e-05 2.02669e-05 2.78695e-06 7.54527e-06 4.04319e-05 2.14648e-05 1.92038e-05 1.83778e-05 8.14337e-06 5.01909e-06 8.42274e-06 1.00561e-05 2.76978e-06 2.91798e-06 3.35407e-06 9.93265e-06 4.05326e-06 6.96305e-06 1.13491e-05 1.93827e-05 1.19229e-05 7.44378e-06 4.29825e-06 1.76283e-05 6.27942e-06 7.39583e-06 7.81001e-06 8.01876e-06 1.40038e-05 2.73851e-05 2.01893e-05 2.97614e-05 1.17608e-05 1.0941e-05 1.0548e-05 4.80882e-06 1.14474e-05 1.19144e-05 8.59568e-06 8.54836e-06 1.95927e-06 5.59885e-06 1.10302e-05 9.31609e-06 1.43775e-05 1.48644e-05 1.8371e-05 1.45915e-05 1.39883e-05 1.66151e-05 1.69054e-05 1.47553e-05 1.13398e-05 8.77875e-06 6.22793e-06 6.43706e-06 1.00272e-05 1.6101e-05 9.49399e-06 1.30912e-05 2.05509e-05 8.69521e-06 6.3392e-06 5.71907e-06 4.90378e-06 6.35444e-06 8.39393e-06 8.93645e-06 9.78533e-06 8.13449e-06 9.55605e-06 2.47952e-05 1.8964e-05 4.8357e-06 8.07758e-06 6.95639e-06 1.11042e-05 3.26301e-06 2.2091e-05 1.80068e-05 5.04942e-06 8.4688e-06 1.30085e-05 6.63095e-06 7.45515e-06 4.24823e-06 1.45958e-05 1.39188e-05 1.71121e-05 9.13701e-06 9.28541e-06 5.86143e-06 7.70183e-06 3.90848e-06 6.46518e-06 7.47966e-06 2.24294e-05 1.29481e-05 1.47435e-05 1.47404e-05 6.81609e-06 5.8404e-06 1.05216e-05 7.76349e-06 1.64505e-05 5.86144e-06 4.9122e-06 1.54439e-05 8.16957e-06 8.73809e-06 1.12105e-05 1.24519e-05 1.27293e-05 5.96246e-06 6.64663e-06 9.2097e-06 1.00527e-05 7.80179e-06 1.22445e-05 1.52801e-05 2.1366e-05 1.71279e-05 1.4398e-05 6.56909e-06 6.16608e-06 5.52207e-06 8.21315e-06 7.00037e-06 7.51033e-06 4.68201e-06 1.88796e-05 1.46112e-05 3.24519e-05 8.18902e-06 8.07598e-06 1.46649e-05 4.72044e-05 4.97105e-05 1.06026e-05 1.2753e-05 8.55148e-06 9.19773e-06 2.86519e-05 2.24241e-05 1.43745e-05 2.01228e-05 1.93094e-05 2.23137e-05 8.08385e-06 5.88884e-06 8.34866e-06 9.93822e-06 1.33352e-05 7.47398e-06 2.63604e-05 2.89866e-05 2.62075e-05 4.88205e-06 4.1538e-06 3.97849e-06 8.18999e-07 1.78627e-05 9.02365e-06 7.93077e-06 6.68621e-06 1.2254e-06 1.74496e-05 1.18506e-05 1.70641e-05 3.02145e-05 1.01062e-05 2.54281e-05 3.64547e-06 3.46131e-06 1.74386e-06 1.36495e-05 1.11173e-05 3.44378e-05 4.24168e-05 2.44274e-05 1.33228e-05 6.00578e-06 6.48731e-06 9.65604e-06 7.44676e-06 1.09367e-05 9.77447e-06 3.45085e-05 8.12432e-06 9.74577e-06 2.39806e-06 3.75684e-06 1.02944e-05 1.18525e-05 8.81914e-06 5.22167e-06 6.95403e-06 7.18419e-06 1.12521e-05 7.19427e-06 7.9637e-06 1.26996e-05 5.31643e-06 9.56971e-06 7.59397e-06 8.75559e-06 1.9069e-05 5.49097e-06 1.13229e-05 4.6512e-06 5.49997e-06 1.15226e-05 1.70101e-05 1.09396e-05 1.29546e-05 1.51906e-05 3.87441e-05 1.77766e-05 1.58665e-05 1.71185e-05 1.03206e-05 7.9484e-06 1.72798e-05 1.56946e-05 9.08073e-06 1.9236e-05 2.04498e-05 2.53839e-05 1.05718e-05 8.39562e-06 6.78656e-06 1.29652e-05 1.47784e-05 2.8262e-05 3.86963e-05 6.05137e-06 6.87138e-06 1.07806e-05 1.81553e-05 2.03362e-05 1.23592e-05 3.02763e-05 2.64208e-05 2.12149e-05 1.99723e-05 1.03848e-05 2.55067e-05 7.16719e-06 2.33227e-05 1.75555e-05 1.5539e-05 1.16488e-05 2.87622e-05 9.45182e-06 1.17705e-05 4.23848e-06 3.52487e-06 5.70295e-06 2.16983e-05 1.45374e-05 1.39438e-05 2.04509e-05 9.85998e-06 5.45546e-05 5.08675e-05 2.2819e-05 1.95379e-05 1.87991e-05 2.37441e-05 1.96994e-05 4.8935e-06 5.47012e-06 2.48731e-05 6.24717e-06 6.49404e-06 5.12767e-06 4.31272e-06 1.57214e-05 1.88915e-05 1.46104e-05 4.01429e-06 4.80157e-06 7.88807e-06 1.1016e-05 1.64617e-05 2.27419e-05 9.25309e-06 1.42196e-05 1.74557e-05 1.6156e-05 5.45179e-06 3.88004e-06 9.14284e-06 1.42676e-05 1.34834e-05 1.16876e-05 1.17155e-05 1.2799e-05 4.63773e-06 2.36392e-05 5.5478e-06 7.19367e-06 6.39862e-06 6.80748e-06 2.02231e-05 1.48368e-05 2.10636e-05 1.46009e-05 8.56108e-06 9.0714e-06 8.80566e-06 9.66355e-06 1.39855e-05 1.35505e-05 7.81686e-06 1.13148e-05 8.08984e-06 5.12365e-06 6.43791e-06 9.90058e-06 3.23376e-06 3.76913e-06 9.81281e-06 1.28216e-05 1.60903e-05 8.39791e-06 1.47435e-05 1.78739e-05 5.71558e-06 1.21183e-05 7.64354e-06 7.44579e-06 1.25537e-05 5.78514e-06 1.13749e-05 1.36154e-05 5.89772e-06 9.14899e-06 7.33663e-06 1.25866e-05 1.37954e-05 2.25531e-05 8.34513e-06 1.11412e-05 4.34566e-05 3.35684e-05 1.06824e-05 1.36065e-05 1.30472e-05 1.07149e-05 1.26077e-05 6.01443e-06 3.3511e-05 4.79161e-05 2.07781e-05 2.78268e-05 1.13222e-05 1.21588e-05 1.53915e-05 8.67327e-06 1.58048e-05 9.1377e-06 1.64326e-05 3.89335e-05 2.38059e-05 2.33272e-05 2.98052e-05 7.36284e-06 1.21696e-05 1.00455e-05 7.61177e-06 8.09498e-06 1.06297e-05 9.84676e-06 8.91306e-06 7.13292e-06 9.38122e-06 1.08257e-05 1.20957e-05 2.48099e-05 1.87416e-05 1.62634e-05 9.30875e-06 1.35152e-05 1.05248e-05 7.30186e-06 5.19439e-06 1.37006e-05 1.5277e-05 1.14404e-05 1.34598e-05 1.05628e-05 8.86081e-06 5.01349e-06 9.36536e-06 1.98369e-05 3.5733e-06 5.5762e-06 5.0253e-06 7.98253e-06 9.14153e-06 1.29032e-05 5.97621e-06 8.76588e-06 1.40865e-05 1.04443e-05 6.96918e-06 1.9404e-05 2.07586e-05 2.30847e-05 2.58163e-05 1.43771e-05 1.5136e-05 8.4616e-06 2.4039e-05 1.77813e-05 1.92994e-05 1.12405e-05 5.13073e-06 1.49799e-05 7.33083e-06 1.92573e-05 1.48055e-05 6.30611e-06 8.33837e-06 1.01061e-05 3.60035e-06 1.15764e-05 2.16583e-05 4.93961e-06 7.50514e-06 7.69455e-06 6.4298e-06 5.03813e-06 1.16773e-05 1.10172e-05 1.13947e-05 1.17234e-05 1.57753e-05 6.46797e-06 1.03086e-05 3.26077e-06 3.69968e-06 6.55351e-06 4.8853e-06 5.44516e-06 1.05992e-05 1.10698e-05 3.30899e-06 3.89055e-06 1.43844e-05 1.53652e-05 8.10294e-06 1.02694e-05 9.86157e-06 3.41585e-06 1.13159e-05 4.74482e-05 8.10721e-06 1.07726e-05 1.10072e-05 7.72547e-06 9.99337e-06 5.66379e-06 2.92283e-06 1.52885e-05 1.56628e-05 1.72947e-05 1.84844e-05 1.49598e-05 1.46223e-05 1.7007e-05 9.55871e-06 6.47012e-06 9.6578e-06 2.69203e-06 3.52271e-05 1.54628e-05 8.84794e-06 1.11097e-05 5.88988e-06 2.45469e-05 1.69338e-05 2.9864e-06 2.18351e-06 1.44044e-05 8.8415e-06 7.32476e-06 1.36595e-05 4.33183e-06 2.78591e-06 7.11798e-06 7.47635e-06 5.65013e-06 7.96263e-06 1.08903e-05 9.90435e-06 4.41259e-06 9.41461e-06 3.32822e-05 2.50496e-06 1.21912e-05 1.38011e-05 1.34576e-05 8.20671e-06 1.25774e-05 6.85639e-06 5.1929e-06 1.74054e-05 1.48126e-05 7.16731e-06 8.3076e-06 6.60575e-06 9.06426e-06 1.38726e-05 1.03158e-05 7.60899e-06 9.35316e-06 1.1819e-05 9.04644e-06 4.03482e-06 4.32699e-06 4.32634e-06 4.59342e-06 2.31552e-05 1.11821e-05 2.22802e-05 5.90723e-06 6.2477e-06 1.68055e-05 7.8389e-06 8.88347e-06 1.44059e-05 1.13507e-05 1.44166e-05 1.15333e-05 4.8329e-06 2.1016e-06 3.86948e-06 1.55279e-05 1.27068e-05 1.1823e-05 7.92996e-06 8.49311e-06 1.26431e-05 1.15701e-05 6.09868e-06 2.94224e-05 2.09055e-05 1.02282e-05 2.15923e-05 1.05926e-05 1.1746e-05 9.31646e-06 7.78701e-06 1.25983e-05 2.06503e-05 2.20322e-05 8.41133e-06 1.45171e-05 1.18868e-05 8.77502e-06 1.20493e-05 1.26202e-05 1.44548e-05 8.09891e-06 1.35287e-05 9.32975e-06 1.35063e-05 1.03537e-05 1.25059e-05 1.21939e-05 1.04079e-05 1.39999e-05 1.97227e-05 5.25807e-06 1.33207e-05 1.09851e-05 9.42268e-06 8.83202e-06 1.12521e-06 2.08034e-05 1.07697e-05 9.90441e-06 1.46793e-05 1.1855e-05 6.6436e-06 1.69076e-05 6.65749e-06 2.8559e-06 3.25674e-06 4.15132e-06 1.65281e-05 1.31444e-05 6.81698e-06 1.50767e-05 1.4442e-05 1.10516e-05 6.67471e-06 7.65382e-06 1.11971e-05 2.66704e-05 6.8294e-06 5.98445e-06 2.79313e-06 8.4244e-06 1.27213e-05 5.87278e-06 3.50717e-06 7.01851e-06 1.09823e-05 1.0895e-05 4.439e-06 7.8929e-06 2.025e-05 1.37549e-05 9.52811e-06 1.70625e-05 1.17956e-05 6.85781e-06 7.64307e-06 8.80073e-06 7.5607e-06 1.21246e-05 1.24058e-05 1.35225e-05 8.34236e-06 1.3272e-05 2.22784e-06 9.55026e-06 7.57643e-06 3.1715e-06 6.00363e-06 4.82356e-06 4.92309e-06 1.41776e-05 1.39604e-05 9.49655e-06 9.15682e-06 7.79721e-06 9.55373e-06 1.23144e-05 1.09118e-05 1.77348e-05 3.54239e-06 2.37132e-05 5.58294e-06 8.85047e-06 9.17551e-06 8.1552e-06 6.8822e-06 4.96261e-06 1.03212e-05 1.27356e-05 7.21458e-06 1.58972e-05 1.53542e-05 8.76077e-06 7.5728e-06 2.81725e-06 6.12583e-06 7.34882e-06 7.03658e-06 6.49085e-06 6.38025e-06 8.22681e-06 6.99775e-06 1.15701e-05 1.38183e-05 1.02765e-05 1.44173e-05 5.78572e-06 1.35232e-05 1.71773e-05 2.26772e-05 2.07237e-05 1.49402e-05 8.72665e-06 8.99615e-06 7.54369e-06 7.68072e-06 1.04062e-05 6.15546e-06 6.5121e-06 6.43064e-06 1.48499e-05 1.46028e-05 1.07522e-05 1.88674e-05 7.26784e-06 7.07917e-06 1.4804e-05 8.98511e-06 1.11146e-05 4.08963e-06 9.43759e-06 6.21999e-06 1.02991e-05 1.43318e-05 1.60565e-05 8.44971e-06 5.44072e-06 1.33297e-05 1.09673e-05 6.25644e-06 7.03148e-06 1.07416e-05 6.54129e-06 9.30933e-06 1.11909e-05 1.19445e-05 8.01729e-06 9.68575e-06 5.79823e-06 7.4639e-06 1.15098e-05 4.9308e-06 4.3147e-06 1.89305e-05 1.53508e-05 1.00608e-05 7.31047e-06 4.53369e-06 8.30185e-06 1.42427e-05 1.39181e-05 1.92525e-05 1.01031e-05 1.22021e-05 5.95135e-06 7.74967e-06 1.09512e-05 1.2517e-05 3.35033e-06 1.47013e-05 4.99876e-06 7.40358e-06 1.6197e-05 7.04794e-06 6.92538e-06 3.71751e-06 8.43167e-06 1.19167e-05 1.45285e-05 9.86447e-06 1.21922e-05 1.78469e-05 8.0533e-06 2.07042e-05 1.68888e-05 9.66308e-06 1.02836e-05 1.29877e-05 1.81877e-05 1.25867e-05 2.73323e-05 2.90097e-05 6.31786e-06 4.15927e-06 5.46377e-06 1.79494e-05 3.74988e-05 1.54563e-05 3.87067e-05 1.24098e-05 5.97486e-06 7.45627e-06 6.71142e-06 1.87659e-05 3.36195e-05 3.62354e-05 1.21889e-05 1.40291e-05 2.08563e-05 5.61117e-06 1.33168e-05 6.74294e-06 1.02184e-05 9.49233e-06 1.90412e-05 2.27873e-05 2.2586e-05 1.05697e-05 2.38315e-05 1.81357e-05 1.25446e-05 6.64941e-06 9.86842e-06 4.22005e-06 1.16154e-05 5.03761e-06 9.00946e-06 3.36365e-06 1.47659e-05 1.06241e-05 1.55466e-05 8.25091e-06 9.66404e-06 1.25029e-05 1.85017e-05 1.49381e-05 1.05789e-05 1.6493e-05 8.97124e-06 1.05495e-05 1.3078e-05 5.98956e-06 5.72696e-06 6.51286e-06 3.36126e-06 5.09694e-06 4.2579e-06 1.0354e-05 6.23584e-06 1.6352e-05 2.33967e-05 2.89201e-05 2.27484e-05 1.41221e-05 7.46855e-06 8.18816e-06 1.16172e-05 1.18412e-05 1.74859e-05 7.94882e-06 1.04515e-05 2.10657e-05 1.71748e-05 1.34885e-05 1.37179e-05 9.07945e-06 5.51457e-06 5.80192e-06 5.25932e-06 4.85089e-06 7.62284e-06 4.0162e-06 1.01496e-05 8.91972e-06 9.98877e-07 4.04871e-06 4.80146e-06 1.28122e-05 6.68309e-06 5.40176e-06 3.05803e-06 8.54548e-06 1.44832e-05 1.46792e-05 1.16678e-05 2.0795e-05 2.49081e-05 4.09575e-06 5.16879e-06 8.91707e-06 1.25358e-05 6.92169e-06 7.67467e-06 9.46441e-06 4.93577e-06 7.31865e-06 1.53735e-06 7.15461e-06 3.01965e-06 7.52568e-06 7.24944e-06 4.69579e-06 6.74112e-06 8.29982e-06 1.22238e-05 9.29926e-06 7.60848e-06 1.06492e-05 6.71315e-06 7.59008e-06 5.83758e-06 9.9943e-06 8.1098e-06 1.32487e-05 2.82429e-06 5.91649e-06 7.93006e-06 4.13525e-06 7.22188e-06 7.45215e-06 4.56165e-06 3.32882e-06 3.53955e-06 1.25646e-05 1.64124e-05 1.72923e-05 9.886e-06 8.47998e-06 6.96009e-06 7.29493e-06 7.14123e-06 6.46814e-06 7.12598e-06 1.58928e-05 2.68836e-05 4.82778e-05 5.35613e-06 7.44405e-06 7.68913e-06 2.43279e-06 1.95564e-06 7.91119e-06 5.86092e-06 5.48642e-06 5.3277e-06 8.67587e-06 1.70531e-05 1.96743e-05 1.40626e-05 1.82724e-05 3.20867e-05 2.88121e-06 6.22769e-06 7.31525e-06 1.22714e-05 2.47938e-05 6.54297e-06 6.11309e-06 1.58926e-05 1.45801e-05 1.0805e-05 9.34092e-06 1.89193e-05 7.84501e-06 4.44271e-06 1.04929e-05 4.46344e-06 6.74818e-06 7.53833e-06 1.00033e-05 4.91032e-06 1.43163e-05 3.11809e-05 2.38297e-05 1.86656e-05 1.58408e-05 1.72317e-05 1.39976e-05 2.04839e-05 3.21649e-06 2.36446e-06 4.53006e-06 3.16334e-05 7.86502e-06 3.423e-06 4.80585e-06 7.71149e-06 1.50565e-05 5.36064e-06 1.27492e-05 4.82289e-06 1.34163e-05 1.67999e-05 1.24918e-05 1.86476e-05 6.77784e-06 1.17596e-05 8.69877e-06 1.65824e-05 1.27332e-05 7.23635e-06 9.59231e-06 1.2544e-05 5.19724e-06 1.27256e-05 1.60592e-05 2.15693e-05 7.24568e-06 7.63073e-06 8.67229e-06 7.39378e-06 7.48802e-06 4.45222e-06 3.00805e-06 8.79156e-06 1.98477e-06 6.58692e-06 3.96348e-06 1.01349e-05 1.03702e-05 1.25121e-05 1.8567e-05 8.05111e-06 1.56604e-05 2.2365e-05 2.36822e-05 7.48605e-06 7.81885e-06 9.59562e-06 6.79668e-06 9.02225e-06 1.3884e-05 1.02914e-05 7.11439e-06 1.07864e-05 9.32917e-06 1.08617e-05 6.76241e-06 4.29105e-06 4.95125e-06 8.44448e-06 1.56327e-05 1.00351e-05 5.58207e-06 4.62552e-06 6.24817e-06 3.76521e-06 1.94005e-05 4.03315e-06 1.82588e-05 1.49854e-05 5.89085e-06 9.74687e-06 1.38005e-05 8.92044e-06 1.44309e-05 1.22545e-05 1.14665e-05 5.49514e-06 3.71045e-06 7.42694e-06 2.00219e-05 1.82857e-05 1.80185e-05 1.50996e-05 1.82084e-05 3.53373e-05 1.51558e-05 1.2696e-05 1.06752e-05 1.13886e-05 4.99446e-06 7.94326e-06 6.83882e-06 8.5029e-06 9.73363e-06 8.88015e-06 1.12437e-05 8.47356e-06 1.826e-05 4.64059e-06 1.10559e-05 7.92695e-06 1.06215e-05 1.02351e-05 6.84284e-06 5.16926e-06 6.11648e-06 1.12957e-05 4.06939e-06 1.01535e-06 4.82251e-05 6.51091e-06 2.25991e-05 2.16672e-05 7.87189e-06 9.90625e-06 9.01086e-06 3.19464e-06 4.21594e-06 1.35654e-05 2.42683e-05 1.149e-05 1.52211e-05 4.74024e-06 1.03986e-05 5.27671e-06 1.00294e-05 1.77723e-05 1.04794e-05 1.05722e-05 5.78358e-06 1.78266e-05 1.15134e-05 7.75189e-06 8.16773e-06 7.09333e-06 1.33707e-05 2.67302e-06 2.98614e-06 9.68533e-06 1.09226e-05 2.70965e-06 1.88516e-05 2.34651e-05 9.56882e-06 6.37522e-06 5.83312e-06 1.73028e-06 6.90715e-06 9.2831e-06 1.20413e-05 5.38789e-06 7.12986e-06 1.27974e-05 1.17582e-05 1.52397e-05 7.42998e-06 7.55407e-06 5.91649e-06 5.65114e-06 6.81699e-06 9.13326e-06 8.42906e-06 1.0685e-05 1.32529e-05 1.18877e-05 1.25501e-05 3.24645e-06 2.02112e-06 7.90295e-06 4.74219e-06 1.75933e-05 1.95144e-05 2.02887e-05 1.97538e-05 4.542e-06 5.08151e-06 8.77226e-06 1.18383e-05 7.51357e-06 1.18112e-05 1.98955e-06 4.63887e-06 8.96689e-06 6.90996e-06 8.28662e-06 8.87179e-06 1.3233e-05 2.75218e-06 1.14022e-05 1.24095e-05 4.80187e-06 4.18757e-06 2.98843e-06 3.0131e-06 6.7979e-06 1.04972e-05 7.78192e-06 6.26954e-06 1.9192e-05 1.29836e-05 1.78677e-05 1.25518e-05 1.36625e-05 1.09473e-05 2.2682e-05 1.46259e-05 6.91758e-06 4.70778e-06 5.88167e-06 5.56714e-06 1.59266e-05 1.64527e-05 7.87799e-06 6.27289e-06 1.16912e-05 8.66085e-06 8.15122e-06 1.2263e-05 5.82263e-06 1.02698e-05 1.33529e-05 7.07653e-06 1.47486e-05 6.3982e-06 1.85475e-05 9.14765e-06 1.76635e-05 7.50733e-06 7.35309e-06 7.04071e-06 7.48166e-06 8.2441e-06 1.63544e-05 1.59963e-05 8.31114e-06 7.56246e-06 1.61956e-05 1.19936e-05 5.96177e-06 7.95348e-06 2.93167e-05 2.81444e-05 4.8737e-05 4.10262e-05 3.26457e-05 9.72779e-06 1.53349e-05 7.97906e-06 6.98828e-06 1.15761e-05 7.26252e-06 7.03595e-06 6.64572e-06 6.85081e-06 6.62006e-06 5.80766e-06 8.9033e-06 8.39958e-06 9.4724e-06 1.16147e-05 7.458e-06 1.44579e-05 1.03173e-05 1.06243e-05 4.58891e-06 5.96047e-06 1.03019e-05 1.67623e-05 1.9945e-05 1.39651e-05 1.43041e-05 1.38088e-05 6.01414e-06 6.30861e-06 7.26279e-06 1.92909e-05 1.60919e-05 1.0485e-05 1.07534e-05 1.6623e-05 1.54154e-05 1.52612e-05 1.27573e-05 1.40642e-05 8.33867e-06 5.969e-06 3.76434e-06 1.68555e-05 5.63221e-06 9.42877e-06 6.81581e-06 8.51256e-06 1.20406e-05 5.56129e-06 9.04212e-06 5.55719e-06 9.70685e-06 1.52558e-05 9.14082e-06 1.37407e-05 7.99336e-06 9.67212e-06 7.25701e-06 5.45388e-06 2.86582e-06 3.20542e-06 7.57062e-06 9.32e-06 5.07264e-06 1.83194e-06 1.22141e-05 9.53654e-06 3.42457e-06 1.04505e-05 7.50408e-07 1.44776e-06 1.65192e-05 2.83823e-05 6.15244e-06 7.25645e-06 8.32033e-06 1.54927e-05 7.25118e-06 7.67754e-06 7.49064e-06 8.94159e-06 1.26032e-05 3.74288e-06 1.08885e-05 7.24452e-06 7.82354e-06 7.01493e-06 7.34357e-06 9.93413e-06 2.1883e-05 1.28985e-05 4.42269e-06 5.89819e-06 1.40274e-05 8.85089e-06 1.30379e-06 2.04454e-06 4.48414e-06 3.07015e-06 1.58139e-05 1.47181e-05 4.63692e-06 1.25042e-05 2.26876e-05 1.10043e-05 1.15147e-05 1.26736e-05 1.34574e-05 5.80717e-06 2.10044e-05 7.65447e-06 8.67155e-06 1.22054e-05 7.75943e-06 9.46598e-06 1.41325e-05 1.03196e-05 1.26222e-05 7.60365e-06 5.67753e-06 1.31102e-05 1.67118e-05 1.29355e-05 3.70639e-05 1.46653e-05 1.38081e-05 1.88645e-05 1.95857e-05 1.96866e-05 7.87651e-06 6.28934e-06 1.0603e-05 2.62892e-06 9.46926e-06 7.57935e-06 1.12924e-05 7.49857e-06 7.54974e-06 1.05208e-05 7.41447e-06 8.58513e-06 7.72197e-06 1.19158e-05 9.96283e-06 1.32127e-05 8.60622e-06 8.57202e-06 6.67991e-06 1.10938e-05 2.29023e-05 8.64081e-06 8.62375e-06 2.24114e-05 2.29368e-05 2.12026e-05 1.22867e-05 3.82429e-06 9.80369e-06 4.36634e-06 3.5755e-06 5.39772e-06 9.47115e-06 8.28181e-06 9.69667e-06 5.54226e-06 1.08899e-05 3.23905e-06 4.23353e-06 5.31131e-06 6.73521e-06 1.53107e-05 1.3602e-05 1.61935e-05 1.50567e-05 2.30586e-05 1.93094e-05 1.94719e-05 5.14685e-06 5.33591e-06 6.41481e-06 8.68305e-06 2.81299e-06 1.07068e-05 1.04568e-05 5.91395e-06 5.00196e-06 9.13296e-06 4.84657e-06 7.86785e-06 7.4445e-06 6.37523e-06 3.64805e-06 3.44054e-06 5.52824e-06 3.4926e-06 1.21927e-05 2.36353e-05 8.57333e-06 1.39582e-05 7.07764e-06 8.26035e-06 7.6696e-06 6.58367e-06 8.37523e-06 7.82104e-06 4.63642e-06 2.98936e-06 7.2596e-06 4.95362e-06 1.30231e-05 8.67866e-06 6.1012e-06 5.58934e-06 4.8137e-06 3.76044e-06 3.97596e-06 3.49172e-06 3.49539e-06 6.62378e-06 8.48179e-06 1.11299e-05 3.27206e-06 7.17244e-06 8.95225e-06 1.72378e-05 1.57833e-05 2.0381e-05 1.28039e-05 1.49115e-05 7.56831e-06 5.00984e-06 4.75915e-06 3.73133e-06 1.03977e-05 1.02263e-05 7.81635e-06 4.19555e-06 6.65724e-06 1.13834e-05 1.08422e-05 2.39078e-05 7.37225e-06 8.32366e-06 1.06506e-05 6.89245e-06 1.34537e-05 1.71286e-05 9.99068e-06 1.83198e-05 1.50329e-05 6.24598e-06 3.74794e-06 3.82739e-06 9.2744e-06 2.87355e-06 5.22858e-06 5.37456e-06 7.43344e-06 4.14704e-06 5.00046e-06 4.05287e-06 3.91497e-06 4.2464e-06 8.7876e-06 6.77328e-06 1.57014e-05 1.00209e-05 2.10223e-05 9.226e-06 6.31214e-06 4.44192e-06 4.43305e-06 4.93773e-06 5.90031e-06 6.833e-06 7.86368e-06 7.82226e-06 5.28214e-06 1.46498e-05 1.28732e-05 4.42302e-06 1.27467e-05 3.25233e-05 9.99129e-06 1.3969e-05 1.06435e-05 1.13944e-05 8.6583e-06 5.69911e-06 1.42251e-05 6.96971e-06 1.19383e-05 6.63506e-06 4.87103e-06 4.8746e-06 9.00149e-06 6.26639e-06 6.4088e-06 1.28898e-05 6.67961e-06 1.28192e-05 4.46238e-06 8.83112e-06 9.89928e-06 1.87768e-05 1.31352e-05 1.54551e-05 2.86631e-06 3.20136e-06 4.29664e-06 5.21638e-06 4.70864e-06 3.82061e-06 6.71663e-06 6.27994e-06 4.91537e-06 6.78622e-06 4.59601e-06 1.01941e-05 7.08441e-06 6.60091e-06 7.46097e-06 1.01548e-05 3.89179e-06 5.52254e-06 2.09286e-05 1.74686e-05 2.34991e-05 7.99264e-06 6.33176e-06 7.82656e-06 1.02664e-05 7.32872e-06 4.56645e-06 7.1242e-06 1.13179e-05 5.27736e-06 6.7328e-06 3.09655e-06 4.98889e-06 5.37245e-06 5.30258e-06 6.01761e-06 1.0432e-05 6.47782e-06 3.20914e-05 1.96859e-05 4.32853e-06 7.518e-06 5.77232e-06 9.27586e-06 6.40522e-06 5.6628e-06 5.5656e-06 9.25521e-06 4.00276e-06 4.35053e-06 9.77586e-06 7.96505e-06 1.15159e-05 8.02175e-06 3.77992e-06 6.25787e-06 8.73933e-06 3.69645e-06 4.7606e-06 1.24593e-05 7.72833e-06 1.74833e-05 8.7836e-06 8.33704e-06 5.26512e-06 1.34213e-05 1.34473e-05 1.18621e-05 1.00342e-05 1.51543e-05 7.8938e-06 1.0601e-05 2.37574e-06 2.679e-06 8.30708e-06 7.29654e-06 8.99737e-06 4.84695e-06 5.57807e-06 4.13e-06 4.7835e-06 1.95735e-05 1.83497e-05 2.69112e-05 1.71455e-05 1.44878e-05 1.17609e-05 2.0762e-06 3.50146e-06 4.12343e-06 4.20596e-06 7.87785e-06 8.28969e-06 1.28027e-05 3.23108e-05 1.63961e-05 9.28378e-06 1.79121e-05 1.02234e-05 4.25621e-06 7.3378e-06 8.46735e-06 4.91043e-06 6.14691e-06 8.13906e-06 1.47639e-05 7.78646e-06 1.01572e-05 2.31646e-06 1.36979e-05 1.19215e-05 8.58324e-06 5.13309e-06 1.07611e-05 7.68976e-06 1.20557e-05 1.07565e-05 5.72063e-06 2.75833e-06 1.19965e-05 6.43508e-06 7.67458e-06 8.80438e-06 4.41947e-06 6.00719e-06 2.32836e-05 2.28095e-05 6.72387e-06 3.19026e-06 7.83207e-06 7.00468e-06 4.95157e-06 3.46974e-06 4.38675e-06 1.21054e-05 7.4696e-06 9.00801e-06 4.42823e-06 8.59064e-06 7.31207e-06 6.67707e-06 6.87646e-06 5.94902e-06 1.79486e-05 2.59043e-05 5.1863e-06 4.94381e-06 1.5778e-05 3.29824e-06 2.38498e-06 7.82262e-06 5.94712e-06 4.69354e-06 3.52292e-06 3.20024e-06 6.95612e-06 6.19008e-06 7.40699e-06 5.05089e-06 8.80143e-06 3.33744e-06 7.75164e-06 9.52158e-06 5.89249e-06 5.24152e-06 7.60216e-06 9.35576e-06 5.53084e-06 1.86744e-05 9.0501e-06 3.98869e-06 7.68042e-06 6.03577e-06 5.1354e-06 1.21709e-05 6.01486e-06 1.09947e-05 1.78382e-05 8.66347e-06 1.33852e-05 8.13523e-06 7.97684e-06 5.78558e-06 1.14103e-05 4.46164e-06 1.07265e-05 7.71447e-06 6.55062e-06 8.3433e-06 8.54227e-06 9.09514e-06 1.04575e-05 5.25358e-06 6.44844e-06 1.34472e-05 1.13452e-05 9.65431e-06 1.05063e-05 1.10399e-05 5.52178e-06 6.5982e-06 9.13237e-06 4.41981e-06 4.50921e-06 6.02231e-06 8.96117e-06 9.25831e-06 3.83412e-06 7.4721e-06 6.8675e-06 5.08179e-06 2.73539e-06 2.90243e-06 2.03535e-05 1.63267e-05 9.85661e-06 2.12698e-05 4.00879e-06 5.34985e-06 1.356e-05 1.27634e-05 1.3046e-05 1.32898e-05 4.49597e-06 4.12881e-06 4.07996e-06 5.738e-06 1.84452e-05 1.03638e-05 9.45621e-06 2.75171e-05 5.97283e-06 9.03388e-06 8.8643e-06 6.73604e-06 6.27694e-06 3.26896e-06 3.55106e-06 5.24892e-06 5.34587e-06 3.05551e-05 6.84738e-06 9.67425e-06 5.54147e-06 4.07925e-06 6.96327e-06 1.24968e-05 5.72072e-06 6.98683e-06 5.05696e-06 8.42534e-06 1.42846e-05 1.24111e-05 4.60936e-06 4.63227e-06 4.53428e-06 1.25343e-05 8.94692e-06 6.37528e-06 7.55671e-06 3.59989e-06 4.40098e-06 1.52838e-05 2.12402e-05 2.13192e-05 7.55332e-06 5.52817e-06 5.67963e-06 7.25348e-06 1.04608e-05 4.24787e-06 2.10584e-05 1.29555e-05 1.52635e-05 5.91305e-06 5.75072e-06 6.45379e-06 2.07568e-05 3.07412e-06 1.23315e-05 1.81048e-05 3.11558e-06 8.6261e-06 7.02077e-06 4.8973e-06 4.71116e-06 7.20613e-06 7.89901e-06 7.56166e-06 1.14435e-05 1.61034e-05 4.72038e-06 5.51799e-06 8.48363e-06 5.02701e-06 9.73282e-06 8.48437e-06 1.79939e-05 2.72638e-05 2.70851e-05 2.68031e-06 2.34737e-06 3.72037e-06 1.47439e-05 2.1698e-05 1.91673e-05 3.66733e-06 7.2984e-06 1.71065e-06 3.29153e-06 9.02051e-06 1.30679e-05 8.42437e-06 5.09514e-06 5.47825e-06 1.65417e-05 1.44632e-05 1.58139e-05 5.49802e-06 1.28775e-05 8.95098e-06 7.77293e-06 4.93358e-06 1.03249e-05 8.91738e-05 8.17943e-06 4.05758e-06 2.94912e-06 5.84774e-06 5.17482e-06 3.51362e-06 8.80386e-06 7.67705e-06 4.47612e-06 1.08839e-05 6.63063e-06 4.64212e-06 7.14779e-06 1.14667e-05 1.33632e-05 1.14764e-05 7.70686e-06 4.47154e-06 2.17772e-06 1.45465e-06 8.56089e-06 2.31921e-06 2.19438e-05 5.94051e-06 1.15146e-05 4.74452e-06 1.76421e-06 1.31238e-05 1.24483e-05 4.24435e-06 4.49743e-06 7.1153e-06 5.09558e-06 5.71405e-06 6.06574e-06 8.36247e-06 1.44572e-06 1.98013e-06 0.000121774 8.63539e-06 1.22526e-05 1.4981e-05 5.54635e-06 1.648e-05 1.27726e-05 1.73929e-05 7.99126e-06 1.72823e-05 6.75502e-06 1.2671e-05 9.83828e-06 2.26501e-06 8.2665e-06 5.4567e-06 8.64287e-06 9.00256e-06 4.31015e-06 1.21176e-05 1.12912e-05 8.75493e-06 5.99214e-06 8.14335e-06 5.38974e-06 9.52545e-06 4.93413e-06 1.42531e-05 8.47861e-06 6.54915e-06 7.34023e-06 3.74642e-06 5.12625e-06 5.97653e-06 7.00291e-06 7.23992e-06 5.95111e-06 2.09452e-05 2.93126e-05 9.56542e-06 8.91358e-06 4.34203e-06 5.48191e-06 6.07193e-06 5.78274e-06 7.9453e-06 2.03172e-05 1.96191e-05 2.26414e-05 3.17996e-05 3.67005e-05 2.66732e-05 2.76256e-05 1.195e-05 7.87016e-06 9.61974e-06 5.72973e-06 7.55613e-06 6.86242e-06 5.83452e-06 8.00771e-06 4.81073e-06 5.65401e-06 2.73609e-06 6.48469e-06 2.11295e-05 8.71714e-06 8.41767e-06 9.4194e-06 1.72881e-06 1.04814e-05 7.26982e-06 1.46917e-05 5.41698e-06 9.84311e-06 1.20191e-05 6.7853e-06 6.62693e-06 4.48132e-06 1.11282e-05 7.31735e-06 4.12815e-06 3.69392e-06 3.60689e-06 9.47515e-06 1.43986e-05 4.47445e-06 3.51931e-06 5.40593e-06 1.52579e-05 4.23338e-06 7.85938e-06 3.72656e-06 1.06692e-05 3.49586e-06 5.05342e-06 3.70525e-06 3.92227e-06 8.38639e-06 1.62678e-05 4.80959e-06 5.79201e-06 2.82543e-06 5.84014e-06 1.01916e-05 8.89405e-06 4.93939e-06 8.91142e-06 7.57254e-06 1.35494e-05 9.31327e-06 2.72706e-06 2.49201e-06 1.04947e-05 1.15951e-05 9.80365e-06 1.05262e-05 8.76589e-06 1.14703e-05 1.23112e-05 2.05624e-05 1.01172e-05 2.17306e-05 2.61963e-05 6.55409e-06 5.11472e-06 2.88731e-06 7.31077e-06 8.94937e-06 4.51664e-06 7.62237e-06 4.4382e-06 4.00329e-06 4.36103e-06 2.0307e-05 1.48838e-05 1.21687e-05 1.04477e-05 2.01928e-05 1.14811e-05 1.6858e-05 1.22987e-05 1.63999e-05 3.59627e-06 4.67599e-06 7.00304e-06 8.83784e-06 4.94009e-06 1.09384e-05 8.6011e-06 1.63693e-05 6.35315e-06 4.97798e-06 1.33868e-05 1.77835e-05 8.26967e-06 1.2442e-05 6.13066e-06 4.20125e-06 7.5472e-06 7.63963e-06 1.01208e-05 6.43599e-06 1.32257e-05 8.45682e-06 1.05389e-05 1.07429e-05 1.84999e-05 1.61758e-05 8.48887e-06 8.39939e-06 1.07344e-05 3.17365e-06 7.29912e-06 1.49154e-06 4.16608e-06 5.99714e-06 4.02986e-06 1.02551e-05 2.64448e-05 1.30629e-05 2.00098e-05 1.35137e-05 1.74697e-05 1.37999e-05 5.98936e-06 6.22235e-06 5.96157e-06 1.44375e-05 3.28194e-06 6.16827e-06 5.58692e-06 6.74545e-06 5.93006e-06 1.1793e-05 1.04915e-05 3.21025e-06 8.1068e-06 5.36238e-06 3.9242e-05 2.30106e-05 1.42699e-05 2.49688e-05 1.1133e-05 7.23552e-06 7.78041e-06 6.62912e-06 9.78417e-06 3.75952e-06 3.59266e-06 4.3439e-06 8.58741e-06 7.11061e-06 1.14839e-05 1.01472e-05 5.3384e-06 4.92949e-06 8.77823e-06 6.25193e-06 1.1602e-05 7.25653e-06 7.22022e-06 6.07858e-06 1.0555e-05 1.03187e-05 8.3638e-06 5.66685e-06 4.54403e-06 8.96644e-06 6.55339e-06 5.55274e-06 3.59445e-06 5.76668e-06 8.79181e-06 1.67333e-05 1.44656e-05 1.21527e-05 5.03554e-06 6.17784e-06 1.07076e-05 8.2026e-06 5.1245e-06 8.66774e-06 1.00038e-05 2.69684e-06 6.79572e-06 9.08835e-06 1.03811e-05 8.1891e-06 8.76644e-06 1.1208e-05 5.02624e-06 6.11278e-06 9.82575e-06 9.51506e-06 7.71596e-06 9.86027e-06 1.23916e-05 9.65508e-06 6.98072e-06 3.91462e-06 1.57071e-05 5.67837e-06 2.35326e-05 1.66559e-05 1.43412e-05 1.56736e-05 2.55955e-06 9.31259e-06 6.21924e-06 8.00804e-06 9.44905e-06 1.06097e-05 7.02368e-06 1.78066e-05 1.35373e-05 1.47583e-05 6.33484e-06 1.12588e-05 1.94003e-05 1.05102e-05 7.64826e-06 5.57434e-06 5.95599e-06 2.54156e-06 6.41865e-06 7.22377e-06 5.42754e-06 5.55078e-06 2.18148e-05 2.20741e-05 9.71827e-06 8.38613e-06 8.68394e-06 1.00869e-05 1.23438e-05 7.24983e-06 5.76732e-06 6.26724e-06 3.23182e-06 6.67429e-06 4.17232e-06 1.77419e-05 1.28159e-05 1.05644e-05 1.96187e-05 1.06068e-05 4.65022e-06 1.32168e-05 9.90248e-06 1.43633e-05 6.27462e-06 2.76272e-06 3.95755e-06 4.6585e-06 3.50736e-06 1.00676e-05 9.36294e-06 3.0693e-05 2.39351e-05 1.99387e-06 1.09669e-05 9.57166e-06 2.74509e-06 6.15779e-06 7.36042e-06 1.18721e-05 5.14855e-06 1.27326e-05 1.14254e-05 2.89889e-05 2.35408e-05 1.01631e-05 1.04378e-05 4.21674e-06 4.19901e-06 2.87394e-06 5.17004e-06 5.90858e-06 7.12079e-06 3.29754e-06 3.21291e-06 9.45868e-06 7.67948e-06 5.12767e-06 3.35635e-06 4.80924e-06 5.05085e-05 1.03201e-05 9.13195e-06 1.2869e-05 8.71175e-06 1.54467e-05 1.91422e-05 1.73111e-05 7.71976e-06 8.19586e-06 1.1705e-05 1.08523e-05 1.58928e-05 1.68129e-05 5.68762e-06 5.14065e-06 0.000478425 1.3936e-05 1.16117e-05 3.59345e-06 2.23296e-05 1.73915e-05 1.05342e-05 1.74613e-06 3.15679e-06 7.04352e-06 1.83206e-05 1.31228e-05 8.42748e-06 7.30417e-06 5.21954e-06 7.44056e-06 1.79212e-06 2.70761e-06 2.36653e-05 2.31054e-05 1.18537e-05 1.02986e-05 9.00854e-06 3.31135e-06 2.19731e-06 1.21732e-05 9.70486e-06 6.46612e-06 9.40299e-06 1.58288e-05 2.09159e-05 3.74642e-06 3.86077e-06 3.66968e-06 9.48e-06 6.26866e-06 2.33102e-06 7.26897e-06 9.05937e-06 1.32048e-05 7.03849e-06 7.69749e-06 4.0943e-06 3.57381e-06 3.02688e-06 3.13416e-06 3.70982e-06 7.54258e-06 2.85086e-06 2.04151e-06 6.09916e-06 1.57357e-05 6.35996e-06 4.356e-06 9.53572e-06 7.59518e-06 2.55384e-06 7.03325e-06 1.02328e-05 3.63427e-06 4.79536e-06 1.6171e-05 6.87655e-06 1.13587e-05 8.16694e-06 7.7296e-06 9.57637e-06 5.62477e-06 4.26399e-06 2.77279e-06 7.91523e-06 1.35296e-05 1.59724e-05 2.75841e-06 7.31324e-06 1.05077e-05 6.03148e-06 4.32379e-06 8.87017e-06 8.16642e-06 1.06345e-05 9.37013e-06 1.07915e-05 6.83538e-06 1.87092e-05 8.66751e-06 2.97767e-06 6.54145e-06 7.98825e-07 9.05939e-06 1.82611e-06 3.11516e-05 1.9553e-05 1.35404e-05 6.4106e-06 1.42731e-05 5.85997e-06 2.29476e-06 2.15954e-06 8.86078e-06 7.54004e-06 1.19302e-05 1.45724e-06 1.74623e-06 6.76263e-06 7.24595e-06 6.74905e-06 9.81122e-06 7.80801e-06 7.62578e-06 3.72543e-06 3.54384e-06 1.05088e-05 1.40682e-05 1.30376e-05 2.14023e-05 3.22506e-06 2.2444e-06 1.16862e-05 6.83106e-06 8.55594e-06 7.29879e-06 9.46968e-06 6.10903e-06 6.71578e-06 6.47618e-06 7.26574e-06 5.83149e-06 7.79627e-06 9.48818e-06 8.88717e-06 8.06648e-06 4.39503e-06 8.84716e-06 6.35235e-06 4.743e-06 4.72244e-06 1.09375e-05 1.33718e-05 1.51235e-05 1.15014e-05 1.40041e-05 1.26479e-05 4.78987e-06 1.71713e-05 2.69708e-06 6.51026e-06 7.77597e-06 4.76794e-06 4.52433e-06 8.13302e-06 5.56743e-06 9.47529e-06 1.38061e-05 1.09904e-05 6.01358e-06 9.81235e-06 1.31029e-05 6.24306e-06 4.01227e-06 6.73409e-06 4.6003e-06 5.01896e-06 5.28328e-06 8.6549e-06 8.30847e-06 7.20316e-06 5.94643e-06 1.22613e-05 4.95193e-06 9.48403e-06 7.7154e-06 5.71413e-06 8.86122e-06 9.77609e-06 2.88185e-06 3.52606e-06 6.94025e-06 2.54306e-06 2.35037e-06 4.70969e-06 7.95657e-06 1.00425e-05 6.08986e-06 9.862e-06 8.21263e-06 1.05071e-05 8.33233e-06 6.80514e-06 6.03653e-06 0.00059625 8.83995e-06 4.74985e-06 0.000462101 5.16981e-06 9.9556e-06 1.08192e-05 6.66277e-06 2.59853e-05 3.75735e-06 3.64443e-06 7.90663e-06 3.74011e-06 2.64632e-05 1.93055e-05 1.05727e-05 8.43863e-06 3.91839e-06 5.693e-06 1.0614e-05 9.39619e-06 3.35112e-06 8.81265e-06 1.12253e-05 3.04839e-06 5.98387e-06 5.1293e-06 1.35779e-06 7.23578e-06 4.71985e-06 4.42532e-06 4.52382e-06 5.77701e-06 1.01956e-05 7.10609e-06 7.98276e-06 3.58239e-06 9.91416e-06 9.28038e-06 1.54931e-05 1.89692e-06 2.65937e-06 7.79143e-06 1.00803e-05 6.74635e-06 2.53805e-06 3.00941e-06 7.3624e-06 4.87042e-06 4.82627e-06 2.97355e-06 0.000489318 7.80087e-06 8.65201e-06 8.61244e-06 6.61756e-06 8.66252e-06 7.81321e-06 1.54505e-05 1.48086e-05 2.73446e-06 4.33192e-06 3.18181e-06 5.0561e-06 6.54444e-06 3.28301e-06 3.19449e-06 5.15849e-06 5.3146e-06 9.51418e-06 5.0361e-06 8.66104e-06 2.35241e-05 4.37001e-06 4.4427e-06 7.18649e-06 2.4575e-06 2.90613e-06 3.80538e-06 8.18625e-06 3.65987e-06 5.62659e-06 5.68397e-06 7.31174e-06 2.22672e-06 4.83275e-06 4.85728e-06 1.16683e-05 1.13609e-05 4.48275e-06 6.721e-06 1.38542e-05 2.92367e-06 7.86104e-06 3.67668e-06 5.95477e-06 3.54418e-06 4.89874e-06 6.3962e-06 5.01675e-06 5.42251e-06 6.21217e-06 1.14117e-05 1.26229e-05 4.02968e-06 3.27174e-06 6.98603e-06 8.01824e-06 4.97189e-06 8.28775e-06 8.227e-06 6.40903e-06 8.4136e-06 7.01233e-06 4.85379e-06 6.93998e-06 6.65386e-06 5.18963e-06 3.64882e-06 4.71212e-06 3.24556e-06 7.99005e-06 1.07673e-05 5.35055e-06 6.66543e-06 1.24497e-05 8.77826e-06 5.94121e-06 6.63049e-06 1.08032e-06 5.11854e-06 5.468e-06 3.80866e-06 4.22444e-06 2.99455e-06 5.70943e-06 3.76577e-06 4.3859e-06 9.6742e-06 1.90462e-06 1.19953e-05 3.17956e-06 8.66172e-06 1.02547e-05 8.15766e-06 4.03492e-06 2.05605e-05 7.93259e-06 7.25474e-06 5.20498e-06 7.31167e-06 2.07038e-06 2.72345e-06 6.99664e-06 1.20342e-05 1.20348e-05 1.20243e-05 6.78599e-06 6.9185e-06 3.15481e-06 5.20816e-06 8.17948e-06 8.38828e-06 2.56775e-06 2.59159e-06 8.91441e-06 1.20737e-05 1.16713e-05 1.52322e-05 1.07355e-05 1.10336e-05 1.17417e-05 1.26466e-05 2.67178e-06 2.98668e-06 1.50215e-05 1.77471e-05 7.98153e-06 2.34044e-05 1.71255e-05 1.40928e-05 3.40313e-06 3.93323e-06 9.12072e-06 6.61742e-06 9.12619e-06 1.34769e-05 2.19435e-05 2.71998e-05 4.08787e-06 1.0884e-05 9.05734e-06 1.52718e-05 1.76332e-05 4.14528e-06 7.83529e-06 1.21153e-05 4.36631e-06 7.68317e-06 1.00286e-05 6.49172e-06 1.97003e-05 1.22592e-05 4.39276e-06 4.28118e-06 3.60886e-06 5.81055e-06 8.56225e-06 5.33346e-06 3.44651e-06 8.60782e-06 1.15656e-05 8.6037e-06 8.76792e-06 1.41478e-05 1.02652e-05 5.31054e-06 3.90995e-06 8.39669e-06 7.2253e-06 5.09232e-06 7.98589e-06 1.01681e-05 9.40473e-06 5.93563e-06 7.21616e-06 2.462e-06 2.40986e-06 1.07016e-05 6.21039e-06 4.93519e-06 5.91404e-06 9.59279e-06 4.95065e-06 3.62388e-06 7.06396e-06 7.64942e-06 6.59395e-06 6.8883e-06 2.73e-06 1.45373e-05 4.64185e-06 1.63919e-06 7.02267e-06 1.14311e-05 5.9022e-06 5.2536e-06 9.82528e-06 7.94764e-06 2.19511e-06 1.195e-06 1.61152e-06 6.47884e-06 6.9439e-06 7.31019e-06 6.20409e-06 5.13458e-06 1.44488e-05 1.48265e-05 7.1331e-06 3.44828e-06 1.48727e-06 3.13049e-06 3.60045e-06 9.89748e-06 5.90241e-06 6.8531e-06 9.96868e-06 4.59504e-06 1.18019e-05 8.79813e-06 1.18633e-05 7.69914e-06 7.47717e-06 6.86947e-06 1.30787e-05 1.35268e-05 8.68564e-06 1.23196e-05 6.92977e-06 6.49789e-06 7.01238e-06 1.1486e-05 1.6235e-06 1.25606e-05 3.89153e-06 2.70796e-06 5.5578e-06 9.07626e-06 4.01977e-06 5.39635e-06 6.00083e-06 3.37917e-06 2.16343e-06 5.9771e-06 5.4635e-06 4.38591e-06 8.03099e-06 9.93753e-06 1.249e-05 5.89731e-06 6.53302e-06 5.25451e-06 5.28397e-06 1.50486e-05 5.24598e-06 8.38711e-06 0.000508556 5.44668e-06 1.33862e-05 1.21809e-05 8.72606e-06 1.00265e-05 6.93398e-06 4.71714e-06 6.54025e-06 1.49964e-05 0.000282212 2.43508e-06 1.10302e-05 5.77181e-06 3.20421e-06 2.91213e-06 7.26213e-06 5.08058e-06 0.000354503 1.56242e-05 0.000549289 8.05615e-06 5.74849e-06 1.19779e-05 1.06088e-05 1.19735e-05 8.66877e-06 5.06827e-06 1.85643e-05 1.31518e-05 6.02208e-06 8.35278e-06 1.14807e-05 9.36364e-06 1.02163e-05 6.09423e-06 2.26634e-06 3.72505e-06 1.84693e-05 6.98238e-06 5.2617e-06 5.29925e-06 4.6332e-06 7.38329e-06 6.51627e-06 3.10923e-06 8.60621e-06 3.63342e-06 3.12309e-06 1.3708e-05 5.51951e-06 4.69192e-06 7.22101e-06 5.96859e-06 3.17945e-06 1.46628e-06 4.68944e-06 2.93082e-06 7.18187e-06 5.04335e-06 5.60873e-06 1.39619e-05 4.105e-06 3.32923e-06 5.4088e-06 3.30294e-06 9.55792e-06 1.3016e-05 7.89914e-06 8.42105e-06 8.22713e-06 8.70954e-06 8.06341e-06 5.85983e-06 7.75517e-06 9.48595e-06 5.21713e-06 1.88024e-06 2.53233e-05 9.50583e-06 2.01284e-05 1.43526e-05 7.57363e-06 2.2361e-06 7.35274e-06 3.6667e-06 9.78054e-06 6.0334e-06 1.46438e-05 5.6159e-06 5.10003e-06 8.60869e-06 1.02213e-05 7.23144e-06 6.97435e-06 9.15684e-06 7.6983e-06 7.6569e-06 3.05363e-06 1.12361e-05 1.22945e-05 1.13671e-05 9.99178e-06 8.76068e-06 5.00876e-06 2.89909e-06 5.58209e-06 2.52511e-06 8.43068e-06 6.27728e-06 4.37029e-06 3.1898e-06 3.56625e-06 1.15026e-05 5.95158e-06 1.19002e-05 5.27741e-06 9.1341e-06 1.3196e-06 2.61738e-06 2.53534e-06 1.73384e-06 4.91785e-06 1.80985e-05 2.77784e-06 3.24915e-06 7.76201e-06 1.02683e-05 7.6925e-06 5.1209e-06 8.02629e-06 9.29122e-06 1.7589e-06 3.10621e-06 1.77706e-06 2.73371e-06 2.36391e-06 2.70999e-06 1.42105e-06 1.37126e-06 6.88418e-06 1.77881e-05 2.18615e-05 2.02819e-05 1.27247e-05 8.89883e-06 9.3892e-06 4.38573e-06 6.73076e-06 5.103e-06 1.32619e-06 1.96346e-06 1.15431e-05 5.3903e-06 3.65996e-06 9.95192e-06 4.95769e-06 1.06934e-05 9.83276e-06 1.20663e-05 4.76389e-06 2.54278e-06 6.33601e-06 7.34625e-06 8.07538e-06 9.44557e-06 4.42562e-06 1.09915e-05 1.24877e-05 3.46028e-06 5.3063e-06 7.26087e-06 4.10662e-06 3.67947e-06 3.82545e-06 4.5949e-06 1.16781e-05 8.98409e-06 5.02014e-06 6.08187e-06 4.72346e-06 4.4992e-06 1.0158e-05 9.70493e-06 3.6147e-06 1.65196e-05 3.37295e-06 2.76788e-06 5.71716e-06 6.75498e-06 1.23767e-06 2.30664e-06 4.37534e-06 3.8197e-06 5.73683e-06 4.94587e-06 1.09553e-05 2.99283e-06 5.58388e-06 4.74476e-06 1.13667e-05 9.48013e-06 5.67106e-06 1.03165e-05 1.64216e-06 1.82052e-06 1.29853e-05 1.20074e-05 5.72548e-06 4.02481e-06 3.924e-06 7.75907e-06 7.43122e-06 1.50048e-05 9.49474e-06 2.02126e-05 2.00592e-05 7.30911e-06 4.86041e-06 6.56491e-07 6.4734e-06 6.15391e-06 9.54512e-06 8.952e-06 1.22782e-05 5.81637e-06 4.3448e-06 5.90865e-06 1.22482e-06 1.46071e-06 5.93561e-06 6.01139e-06 3.48746e-06 3.61991e-06 4.847e-06 6.45382e-06 5.37053e-06 4.88969e-06 1.79976e-05 6.51381e-06 5.10674e-06 4.58182e-06 4.94586e-06 9.21329e-06 5.0466e-06 3.00094e-06 1.24211e-05 2.15573e-06 2.00393e-06 3.86257e-06 8.49601e-06 1.36246e-06 3.39121e-06 5.63119e-06 4.2619e-06 5.93601e-06 5.93347e-06 2.84333e-06 7.42856e-06 6.28968e-06 5.12853e-06 4.089e-06 3.68218e-06 2.89633e-06 4.69117e-06 3.24538e-06 7.01147e-06 9.62181e-06 7.04972e-06 5.54351e-06 7.83621e-06 4.11289e-06 4.57992e-06 6.77797e-06 5.43846e-06 6.96921e-06 3.94782e-06 8.27965e-06 1.21308e-05 9.28765e-06 1.30752e-06 2.27167e-06 5.60084e-06 8.81615e-06 6.73953e-06 4.74025e-06 4.77199e-06 4.61244e-06 1.0439e-05 7.60566e-06 1.32451e-06 6.82959e-06 7.68317e-06 1.18764e-05 5.24573e-06 9.44467e-06 4.65339e-06 3.1384e-06 5.59962e-06 1.05361e-05 5.35234e-06 2.27269e-06 2.33473e-06 4.0474e-06 7.79829e-06 3.30891e-06 4.65646e-06 5.8967e-06 5.68838e-06 4.34008e-06 4.34053e-06 3.72573e-06 3.51354e-06 3.83618e-06 3.8393e-06 3.7718e-06 6.41222e-06 6.27053e-06 3.62578e-06 3.81423e-06 6.25794e-06 5.51789e-06 4.03688e-06 8.74279e-06 4.5048e-06 6.86155e-06 6.23881e-06 6.97474e-06 7.14644e-06 6.11259e-06 1.75583e-06 2.38537e-06 6.86809e-06 8.06277e-06 1.44628e-05 6.05314e-06 6.98058e-06 1.09695e-05 8.39047e-06 1.82693e-06 2.12014e-06 1.74535e-06 3.64297e-06 5.98514e-06 5.58181e-06 2.65903e-06 2.42943e-06 3.96372e-06 4.42382e-06 1.27143e-05 2.97763e-06 2.19345e-06 5.08058e-06 5.19833e-06 3.2855e-06 5.49256e-06 3.92541e-06 5.89061e-06 4.79907e-06 4.75229e-06 1.18496e-06 1.42272e-06 1.04681e-06 9.40838e-06 5.65014e-06 3.9173e-06 3.61849e-06 9.2004e-06 7.73946e-06 1.16251e-05 8.92556e-06 2.70456e-06 2.15538e-06 3.86011e-06 4.49874e-06 6.7587e-07 1.24925e-06 6.75328e-06 5.08547e-06 4.83009e-06 7.20044e-06 1.10312e-06 9.4023e-06 8.51979e-06 2.72747e-06 7.64717e-06 7.32895e-06 9.88025e-06 3.28835e-06 6.91699e-06 1.57767e-05 4.18249e-06 4.82268e-06 4.91032e-06 5.77034e-06 4.15412e-06 9.7012e-06 7.73101e-06 8.10889e-07 7.50686e-07 5.65112e-07 4.8775e-07 7.25372e-06 8.22621e-06 5.86491e-06 5.34123e-06 6.03584e-06 4.90187e-06 8.63847e-06 3.98397e-06 6.24003e-06 7.62229e-06 3.17093e-06 6.07066e-06 4.16162e-06 4.86138e-06 6.07274e-06 1.19599e-06 5.72004e-06 4.4094e-06 7.85885e-06 4.87813e-06 3.98982e-06 6.65855e-06 5.49388e-06 4.44782e-06 4.0485e-06 3.33425e-06 4.70735e-06 8.90001e-06 9.71697e-06 4.38517e-06 2.0905e-05 3.06182e-05 5.47223e-06 4.22566e-06 5.31137e-06 3.87432e-06 5.50531e-06 5.39382e-06 9.0897e-06 3.27218e-06 1.08607e-05 7.85136e-06 4.84882e-06 2.16691e-05 1.52353e-05 2.15393e-05 8.00031e-05 0.000390668 0.000319401 5.08209e-06 1.1454e-05 7.76329e-06 3.17306e-06 2.04811e-06 8.98483e-05 1.26281e-05 5.8108e-06 1.73324e-05 7.56902e-06 1.7313e-05 4.44294e-06 0.000365052 0.000272543 0.000243162 0.00051859 7.12822e-05 5.5596e-06 1.25663e-05 8.42187e-06 2.25914e-06 7.94189e-06 1.55894e-05 5.71451e-06 4.88755e-06 3.65585e-06 1.18014e-05 8.99248e-06 1.3817e-05 2.36157e-05 9.03012e-06 1.17008e-05 1.14946e-05 2.2803e-05 0.000269479 1.03984e-05 3.76846e-06 2.31183e-05 6.17764e-06 6.11167e-06 9.14026e-06 4.72439e-06 5.04619e-06 7.25921e-06 7.92429e-06 5.64087e-06 5.13944e-06 7.09692e-06 8.56993e-06 1.22978e-05 4.56512e-06 4.55251e-06 4.04984e-06 1.71672e-05 1.0874e-05 1.74026e-05 8.55701e-06 3.66592e-05 1.09506e-05 7.8026e-06 3.22359e-06 1.14967e-05 6.19354e-06 3.27429e-05 5.85032e-06 6.75293e-06 6.63343e-06 9.44689e-06 1.7585e-05 5.62384e-06 2.70642e-06 3.50315e-06 5.2655e-06 6.86274e-07 3.12338e-06 8.61978e-06 6.98096e-05 0.000187192 0.000566213 2.56687e-05 4.85904e-06 2.47352e-05 3.65276e-05 6.99261e-06 2.89317e-05 7.14229e-05 7.82423e-05 6.72791e-05 5.15752e-06 1.14141e-05 2.49422e-05 2.76156e-05 1.54781e-05 1.89699e-05 1.17127e-05 3.37131e-05 1.30672e-05 1.12774e-05 8.85057e-06 2.56944e-05 4.9587e-05 7.33157e-06 3.33876e-05 3.41102e-05 5.76409e-05 4.53751e-05 2.87779e-05 1.28112e-05 6.72415e-07 3.63087e-06 1.64222e-05 1.19527e-05 2.54971e-05 0.000104201 2.12984e-05 9.81058e-06 1.097e-05 4.11894e-06 2.55705e-05 1.17402e-05 7.96934e-06 1.97117e-05 1.84355e-05 4.15039e-05 5.74916e-07 7.56917e-07 1.16856e-05 7.01485e-06 3.99816e-06 5.08027e-06 1.06518e-05 2.62348e-05 2.97295e-05 6.62347e-06 9.15528e-06 5.41212e-06 6.03696e-06 7.06451e-06 7.9243e-06 1.15201e-05 1.49832e-06 1.18127e-05 1.12363e-05 1.26634e-05 3.09419e-06 4.588e-07 7.37937e-07 3.95623e-07 1.11478e-05 8.92177e-06 2.26795e-06 1.99995e-06 2.90456e-06 0.000421036 9.45712e-07 1.29929e-05 6.89879e-06 9.69194e-06 5.83528e-06 4.09456e-06 6.5171e-06 7.36817e-06 8.37116e-06 1.69979e-05 1.44386e-05 2.23044e-06 8.43978e-06 3.17469e-05 4.36467e-06 7.93677e-06 5.36353e-06 1.64466e-05 9.5627e-06 3.90582e-05 2.78843e-05 1.23607e-05 3.37794e-06 1.50656e-05 8.8322e-06 7.45388e-06 1.03628e-05 2.25067e-05 8.35194e-06 6.25143e-06 5.2089e-06 6.98649e-06 8.82917e-06 1.29072e-05 2.45664e-05 7.1781e-05 0.000445315 8.44353e-06 1.24628e-05 1.85748e-05 1.99507e-05 1.70583e-05 2.00274e-05 1.69923e-05 1.15431e-05 7.02973e-06 7.13277e-06 3.20823e-05 4.16469e-05 4.27469e-05 3.0261e-05 1.29317e-05 5.24924e-06 1.3158e-05 8.96862e-06 2.30299e-05 1.09645e-06 4.96093e-06 3.32261e-06 2.98601e-06 2.282e-05 1.68092e-05 5.80551e-06 8.35829e-06 8.27474e-06 8.71392e-06 9.99195e-06 1.19811e-05 2.29736e-06 3.95669e-05 7.7091e-05 1.31287e-05 1.69301e-06 2.83333e-06 6.412e-06 2.05097e-06 3.93728e-06 0.000152707 1.40641e-05 2.97093e-06 4.04974e-06 5.44952e-06 1.66427e-05 1.12751e-05 3.12655e-06 1.43392e-05 1.19026e-05 8.037e-06 9.23457e-07 9.79929e-06 1.05455e-05 9.12122e-06 1.47772e-05 1.2599e-05 1.48187e-05 1.11328e-05 4.06404e-06 1.2314e-05 2.1528e-06 3.10958e-06 1.54364e-06 3.33716e-06 1.98334e-06 5.10938e-06 1.28768e-05 5.8311e-06 1.22908e-05 4.60119e-06 2.61884e-06 4.73945e-06 1.2967e-06 9.21241e-06 5.50443e-06 7.53801e-06 2.55335e-06 4.33372e-06 4.75563e-06 8.19873e-06 5.15032e-06 1.03581e-05 6.96639e-06 1.43473e-05 8.01294e-06 6.54542e-06 3.47747e-06 5.27827e-06 4.29699e-06 6.41602e-06 4.31058e-06 7.28714e-06 1.14014e-05 1.22421e-06 3.94834e-06 6.78412e-06 0.000135386 5.27422e-06 1.20842e-05 3.44157e-06 4.55997e-06 6.06411e-06 9.92948e-06 2.7703e-06 1.37431e-05 4.23003e-06 8.11918e-06 5.27359e-06 1.66456e-05 1.07467e-05 4.95183e-06 4.05422e-06 2.9044e-06 8.1847e-06 1.04223e-05 1.24522e-05 2.40115e-05 2.36706e-05 6.64905e-05 0.000150734 3.37092e-05 0.000180952 7.61843e-05 1.24064e-05 1.78833e-05 1.01867e-05 3.58871e-05 3.84611e-05 5.65509e-05 5.20733e-06 1.21223e-05 3.5332e-06 9.31189e-06 5.76901e-06 1.57168e-05 3.30527e-06 2.71686e-06 2.87776e-06 6.8554e-06 1.15681e-06 2.61047e-06 1.23399e-06 1.56681e-06 3.41307e-06 7.28799e-06 2.0231e-05 2.49321e-05 1.49828e-05 1.8989e-05 7.32248e-06 9.63698e-06 4.83369e-05 6.83483e-06 1.53628e-05 9.0288e-06 3.72731e-06 6.43439e-06 1.46187e-05 5.38258e-06 8.27242e-06 1.01957e-05 7.56278e-06 1.98748e-05 8.96669e-06 1.94048e-05 1.00614e-05 1.08933e-05 3.62671e-06 1.24122e-05 3.67003e-05 6.86376e-06 9.45287e-06 1.22607e-05 9.5664e-06 7.4275e-06 8.34327e-06 7.58835e-06 5.38818e-06 6.38525e-06 5.92206e-06 1.59563e-05 5.7627e-06 6.52025e-06 2.46402e-06 8.58666e-06 1.4077e-05 1.01646e-05 3.5166e-06 5.96028e-06 6.04976e-06 7.17581e-06 5.91375e-06 8.32343e-06 7.68017e-06 7.72962e-06 9.2396e-06 6.29761e-06 6.60542e-06 1.7513e-06 1.54329e-05 3.34588e-05 1.04321e-05 1.23201e-05 9.75401e-06 0.000135095 7.70954e-05 8.87106e-05 2.92264e-05 7.02768e-05 1.54163e-05 6.87564e-06 7.37361e-06 1.20677e-05 3.15191e-06 2.59879e-06 2.24494e-05 4.98439e-05 2.49777e-05 0.000105731 2.17062e-06 6.65834e-06 1.31066e-05 1.35855e-05 2.36472e-05 7.16645e-06 6.06757e-05 1.35202e-05 1.07405e-05 4.52041e-06 5.36887e-06 2.41946e-05 4.84495e-05 0.000101477 4.53571e-06 4.09421e-06 2.1738e-05 1.11279e-05 8.66974e-06 5.89245e-06 4.77858e-06 2.44788e-05 1.87951e-05 2.7384e-06 6.36251e-06 4.23531e-05 6.14876e-06 2.77602e-05 8.20506e-06 8.8362e-05 4.10839e-05 1.47178e-05 7.14118e-06 1.40347e-05 0.000163915 6.39676e-06 2.83435e-06 1.19542e-05 8.82927e-06 2.53458e-05 4.37378e-06 5.37183e-06 5.64541e-06 0.000109071 9.34091e-06 1.01182e-05 1.41169e-05 2.80238e-06 1.49378e-05 2.94499e-06 2.14136e-05 7.70072e-06 1.21928e-06 1.40589e-06 1.10544e-06 1.29462e-06 5.58969e-05 6.37218e-06 3.5147e-06 3.73392e-06 7.42727e-06 7.28711e-06 5.59667e-06 1.46225e-05 1.93299e-05 1.93276e-05 1.57373e-05 1.21931e-05 1.09035e-05 1.85446e-05 2.03327e-05 1.78825e-05 1.56557e-05 1.33552e-05 2.56424e-06 4.34312e-06 4.8345e-05 2.23026e-05 2.15406e-06 3.90362e-06 2.81511e-06 0.000178924 4.37881e-05 1.67189e-05 1.31039e-05 3.9243e-06 1.06882e-05 1.6588e-05 1.06092e-05 5.17514e-05 1.30759e-05 1.95349e-05 2.20062e-05 6.08478e-06 1.10271e-05 1.19721e-05 7.75387e-06 1.38541e-05 5.00834e-06 5.78038e-06 1.21493e-05 7.82117e-06 8.79537e-06 5.46402e-07 2.36508e-06 1.27901e-06 9.64901e-07 4.16465e-06 2.74567e-05 1.30746e-06 1.47086e-06 1.23962e-05 7.2936e-06 5.44681e-06 9.2551e-06 4.96167e-06 3.98759e-06 1.53128e-06 6.10487e-06 8.87023e-06 3.63345e-06 2.44825e-05 1.36015e-05 0.000228623 7.49094e-05 3.42836e-05 7.91832e-06 7.22047e-06 4.64172e-06 6.80266e-06 1.61152e-06 6.37386e-06 2.15571e-06 3.88023e-06 6.59611e-06 6.72525e-06 4.04231e-06 8.26707e-06 2.8523e-05 7.14278e-05 1.40467e-05 2.5175e-05 7.02515e-06 1.49673e-05 1.07611e-05 4.46423e-06 4.1658e-05 1.16105e-05 5.19612e-06 5.39494e-06 5.18816e-06 3.42751e-06 2.11775e-05 9.58117e-06 1.15066e-05 1.59216e-06 7.34799e-06 1.53555e-05 1.31893e-05 9.60992e-06 8.94088e-06 6.90904e-06 1.02172e-05 7.41309e-06 2.8848e-06 2.4828e-06 4.88828e-06 3.72993e-06 3.66984e-06 2.89034e-06 2.88768e-06 1.09344e-05 7.26493e-06 1.2521e-05 2.12287e-06 6.61326e-06 2.74267e-06 7.54731e-06 7.26213e-06 1.53858e-05 1.03945e-06 2.47172e-05 4.18709e-06 3.8142e-06 1.42965e-06 1.57981e-06 3.96707e-06 1.0341e-06 1.35216e-06 9.07518e-06 5.02221e-06 6.05816e-06 8.07661e-06 1.01064e-05 2.53965e-05 1.61054e-05 0.000120324 1.14617e-05 6.86592e-06 5.21531e-06 4.57682e-06 5.2353e-06 5.71917e-06 1.57656e-05 1.1223e-05 4.16363e-06 2.61406e-06 2.23423e-06 2.61364e-06 2.91169e-06 1.84693e-05 2.0214e-05 1.51919e-05 6.36521e-06 4.52367e-06 5.91853e-06 8.53534e-06 3.11624e-05 9.6154e-06 7.49509e-06 1.14296e-05 4.75694e-06 1.94083e-06 3.582e-06 4.53819e-06 5.70745e-05 5.71689e-06 1.28608e-05 1.0538e-05 4.89719e-06 1.91222e-05 1.83516e-06 8.97046e-06 2.8151e-06 3.71779e-06 6.00081e-06 6.46834e-06 7.25788e-06 5.57855e-06 1.0523e-05 6.4862e-06 3.90811e-06 3.50437e-06 4.76857e-06 9.54069e-06 9.07913e-06 5.01808e-06 9.28178e-06 1.13224e-05 6.1832e-06 1.14346e-05 8.12325e-06 1.59545e-05 7.7009e-06 4.12717e-06 9.95138e-06 3.15742e-06 1.076e-05 2.65878e-06 8.91599e-06 3.09455e-06 4.2847e-06 1.53291e-05 1.74269e-05 6.1054e-05 4.65098e-05 2.99746e-05 5.43604e-06 5.99186e-06 2.25584e-06 2.47486e-05 2.09182e-06 1.02382e-05 1.68887e-05 6.36431e-05 5.96756e-05 8.56522e-05 6.57484e-05 5.45799e-05 0.00011567 4.16986e-06 3.17346e-06 1.49729e-05 5.04397e-06 3.81237e-06 4.10609e-06 4.63938e-06 3.32099e-05 6.2685e-06 5.91654e-06 4.2101e-06 6.74269e-06 3.36536e-06 5.14369e-06 1.99231e-06 4.50603e-06 5.13843e-06 1.28177e-05 3.3947e-06 3.90013e-06 5.86577e-06 6.87077e-06 7.45075e-06 1.15418e-05 5.49886e-06 9.37503e-06 6.90714e-06 6.41784e-06 8.62077e-06 7.24832e-06 3.48984e-06 4.62677e-06 9.03358e-06 4.03523e-06 7.21319e-06 5.8446e-06 7.12361e-06 5.40552e-06 5.14496e-06 2.86638e-06 2.09709e-06 3.83965e-06 3.84207e-06 6.73721e-06 8.65556e-06 9.89114e-06 1.47785e-05 2.70118e-06 1.03972e-05 5.91216e-06 9.26507e-06 1.05034e-05 6.71756e-06 1.26112e-05 7.00698e-06 6.86096e-06 6.25554e-06 9.0902e-06 6.32169e-06 8.07209e-06 5.95191e-06 0.000162833 4.66348e-06 8.39053e-06 6.75973e-06 1.0825e-05 1.61815e-06 1.06651e-06 5.63447e-05 1.66756e-06 1.6324e-06 8.05987e-07 0.000109873 0.000273794 7.64726e-07 3.64559e-07 9.92561e-05 7.84944e-06 8.3323e-06 1.09998e-05 1.72008e-05 1.27921e-05 1.25978e-05 1.15516e-05 7.55056e-06 6.41552e-06 1.00016e-05 9.52622e-06 1.54086e-05 8.98583e-06 2.65183e-06 6.39747e-06 9.67942e-06 5.15424e-05 1.12937e-05 3.12539e-05 7.25585e-06 1.17434e-05 0.000198268 
SCALARS volume_diff float 1
LOOKUP_TABLE default
-6.52969e-08 -1.03379e-06 -4.80169e-07 -1.91676e-06 2.38555e-06 -1.79603e-09 1.17768e-06 8.80528e-07 -3.09759e-07 -1.53646e-06 2.22744e-06 6.29355e-07 -2.00525e-06 1.36768e-07 2.23643e-07 2.20125e-07 -2.66655e-07 -4.36582e-07 4.89828e-07 2.25556e-07 -2.59263e-07 -9.80549e-07 -1.12105e-07 -2.38574e-07 -1.32513e-07 -2.97969e-07 -5.86522e-07 5.98645e-07 -3.40303e-07 -5.05933e-07 -2.55261e-07 8.08146e-07 -7.13556e-07 -1.96256e-08 -2.843e-07 -1.40049e-06 -4.78775e-07 1.12996e-08 -1.25202e-06 -4.64427e-07 1.29967e-07 -2.2303e-07 -1.38329e-07 -2.93108e-07 1.72233e-08 -8.17904e-08 -5.97124e-08 9.20745e-08 8.29698e-07 3.02773e-07 -6.63433e-08 -1.30035e-07 -6.26027e-08 -2.05723e-07 -6.70385e-10 1.03259e-07 1.07681e-07 -6.49742e-08 -9.44144e-07 -1.6883e-09 -1.34401e-06 3.24625e-08 2.1096e-07 -2.3459e-07 1.8697e-06 -1.41151e-08 2.66395e-07 -8.15852e-08 9.43562e-07 -6.36658e-08 8.52981e-08 -1.03916e-06 -4.08212e-07 -1.64779e-08 2.57929e-08 -2.73161e-07 -1.29035e-07 1.32981e-08 7.79841e-09 -2.69816e-07 -4.28505e-08 3.63907e-07 -7.35745e-07 7.75631e-09 -5.22591e-07 8.03815e-08 -1.04599e-07 -4.91895e-07 -1.76728e-07 -3.01498e-07 -2.35171e-07 2.01284e-07 5.58027e-08 -2.78986e-06 -6.51425e-08 -2.99494e-08 3.98102e-08 -2.124e-09 -9.15172e-09 4.01252e-08 -1.24662e-07 -1.32384e-08 -1.312e-07 -1.0434e-07 1.01031e-07 -3.36801e-09 8.34831e-09 -2.28357e-07 -1.05508e-07 -2.42362e-06 -1.92114e-07 9.97174e-09 -4.01432e-07 7.7811e-08 -4.80037e-08 -2.2564e-08 -6.44164e-08 4.28134e-06 -1.3953e-06 1.14387e-06 -3.95272e-08 -3.31108e-08 1.90585e-07 -3.62136e-08 -1.11886e-07 5.38701e-06 -7.30503e-08 -1.9057e-08 -1.23781e-06 -6.15485e-08 6.34257e-08 -6.01133e-07 -1.29242e-07 2.63657e-09 -7.39466e-08 -1.82199e-07 -3.9293e-09 -3.16745e-08 -5.69093e-09 -6.55952e-08 1.42879e-07 -2.09994e-08 1.66229e-07 4.81468e-08 -6.13263e-08 1.47359e-08 2.13872e-08 -9.14191e-07 -2.22411e-07 4.8178e-08 -5.50664e-08 -4.34276e-08 -5.63919e-08 -5.30128e-08 1.30145e-07 7.95516e-08 -2.64775e-07 8.44364e-07 -4.09899e-08 1.66508e-07 4.91079e-09 -9.09047e-07 -4.40771e-09 -3.68284e-08 -5.63335e-08 2.15118e-07 -8.36653e-07 -2.36339e-07 -1.15143e-07 -4.35158e-08 -7.39797e-08 2.37527e-07 -5.90672e-09 3.95803e-08 1.20942e-07 -4.58625e-07 -9.68485e-08 -4.37689e-08 -2.09274e-10 -1.17412e-08 1.62892e-07 -2.0963e-08 -6.54824e-07 6.21491e-09 -1.30955e-07 -1.7398e-07 2.24806e-08 -3.14385e-07 -1.77164e-08 -7.93133e-08 8.90315e-08 -2.55412e-08 -2.8513e-08 1.70407e-07 -3.38508e-08 -4.63304e-07 4.04617e-08 1.01984e-07 -8.69171e-08 8.96923e-08 -1.23497e-08 1.63729e-08 -7.2979e-08 8.69976e-09 3.07194e-08 -1.98573e-09 1.45742e-07 6.31072e-09 -2.90105e-09 -4.10761e-07 -5.55666e-08 2.07371e-08 -1.20463e-08 -3.39654e-08 -5.15481e-08 2.836e-08 -1.03379e-07 -2.48757e-08 2.09568e-08 -3.86882e-08 -1.80214e-08 5.27855e-08 -1.19008e-08 1.71739e-08 -1.14407e-08 1.02453e-07 -5.3545e-08 1.80065e-07 -1.15309e-07 -5.5819e-08 3.23379e-07 1.18067e-07 -2.09645e-07 1.7026e-07 -3.06242e-08 -4.05972e-09 9.18306e-07 1.49922e-07 -3.76935e-08 -6.38423e-08 9.38418e-09 1.87523e-07 -5.19311e-08 6.62041e-08 -3.15417e-07 -5.45212e-08 -1.22251e-07 1.05608e-08 -1.15271e-07 -7.25723e-09 -1.13536e-06 -1.76425e-07 -1.92213e-08 -3.11853e-08 -2.21318e-07 -6.80536e-08 -1.0515e-08 -2.84608e-06 -2.85559e-08 -1.49014e-06 3.70161e-09 -4.13053e-09 2.53486e-10 1.61352e-07 -2.28166e-07 2.36386e-07 -4.68677e-09 5.5163e-08 2.25282e-09 -1.47696e-07 -1.34464e-07 -5.5044e-07 1.55861e-08 -1.80731e-07 3.72871e-07 -6.10575e-08 -1.83824e-07 -6.13484e-09 -7.26779e-08 1.91567e-08 4.96397e-08 -1.13591e-07 -1.02276e-09 -4.44654e-07 -3.67356e-07 -6.63527e-09 -2.34086e-08 -9.57326e-08 -3.26367e-07 -4.92019e-08 -9.87456e-08 -1.11723e-06 -6.35642e-07 4.65605e-07 -7.0904e-08 -2.5478e-07 -2.05019e-06 -2.004e-07 3.5056e-07 -9.3678e-08 -2.17043e-08 -3.12779e-08 1.64918e-08 2.75459e-08 1.32565e-08 5.36533e-07 1.86061e-07 -1.99654e-07 -1.03164e-07 -5.84571e-08 8.54592e-08 -3.59427e-07 -2.01717e-07 -8.81405e-08 3.49094e-07 -5.0544e-10 1.38704e-07 -3.54122e-07 2.31489e-09 2.41308e-07 -1.00426e-07 -5.96547e-08 4.89623e-10 -1.40855e-08 -2.78863e-07 -5.03303e-08 3.85035e-07 -1.05439e-07 -7.3312e-08 1.41502e-08 3.25046e-08 -8.44385e-08 -2.80617e-07 -2.28414e-07 1.18355e-08 3.05574e-08 -1.57964e-09 -2.22684e-07 -5.31954e-08 -1.46308e-06 -1.0885e-06 2.5181e-06 6.18467e-08 -9.43192e-08 -3.03542e-07 -5.68126e-08 -2.11511e-07 1.34058e-06 -2.78871e-07 2.01705e-07 -3.50454e-07 3.42207e-06 1.54698e-06 4.00144e-08 5.35995e-06 -1.19075e-07 -9.58499e-08 1.65248e-07 3.00656e-06 1.25336e-07 2.02832e-06 -1.74418e-07 -8.36757e-09 9.85158e-08 3.16981e-08 -2.44963e-06 -2.50731e-06 1.36118e-08 -9.36954e-07 -1.73023e-06 -1.10141e-06 6.54646e-07 -2.01522e-06 -2.15232e-06 1.17032e-08 -3.31585e-07 -4.98958e-08 -2.26988e-06 -1.90848e-07 -1.86989e-08 1.48063e-06 -5.14915e-07 -3.27944e-07 -4.81681e-11 2.2404e-07 7.44334e-07 -4.40047e-08 -8.90727e-07 -2.54702e-07 -7.99354e-07 7.02772e-08 5.49884e-07 -4.88633e-07 3.05919e-07 -2.93874e-07 -4.66047e-07 2.6991e-08 -1.05896e-08 -2.51694e-07 -5.07996e-07 -7.42399e-07 -6.91093e-08 -2.67492e-06 -1.5545e-06 1.30191e-07 -6.06131e-09 -4.56903e-08 1.49292e-07 -1.90196e-07 8.65129e-10 -5.47312e-07 2.02668e-07 -7.72696e-10 -8.44991e-08 -3.34902e-06 7.85692e-08 -8.59531e-07 -1.46993e-07 8.59778e-07 8.46738e-09 -3.42745e-06 -1.08454e-08 -5.24341e-07 -1.65035e-07 9.35899e-08 -2.17072e-07 6.42399e-08 5.22297e-08 -1.14612e-07 -8.88165e-07 3.18702e-06 -1.58134e-07 1.15711e-07 -1.15794e-06 1.19169e-06 -6.41563e-07 -8.67008e-07 9.04356e-07 -6.71443e-08 5.66451e-09 -1.28775e-07 -7.17388e-07 -5.53431e-07 -6.57778e-08 -4.49811e-07 -5.27725e-08 1.32341e-08 8.38658e-07 7.68554e-07 4.54654e-06 1.12981e-06 -2.00532e-06 3.32789e-06 -2.6896e-07 1.58575e-06 9.60645e-07 -3.82048e-07 -4.1006e-07 -2.76006e-07 -1.82358e-06 2.0182e-08 1.15375e-07 -9.82026e-07 -1.97397e-06 -4.52465e-08 3.4789e-07 8.02098e-12 -5.38862e-07 -3.60954e-07 1.36165e-07 -2.06332e-06 1.89819e-06 -7.52356e-07 6.92533e-09 1.1524e-07 -1.97641e-06 -4.50574e-07 -2.68608e-07 -2.66911e-07 2.014e-08 1.12886e-06 5.38641e-07 1.49823e-07 -1.11372e-07 4.77498e-07 -1.82317e-07 -1.19539e-06 -2.4439e-06 2.0731e-07 -4.25497e-08 -6.1243e-08 -2.19312e-07 -1.35565e-07 7.08537e-07 -3.25459e-08 3.96124e-07 -4.82985e-08 7.8486e-07 -5.38264e-07 -6.0314e-08 -5.75911e-08 -7.82246e-09 -9.27637e-12 -1.31402e-08 -1.3668e-07 -4.97769e-07 2.21096e-07 2.12816e-07 -2.32484e-07 1.34914e-07 4.79981e-06 4.50787e-08 -2.92026e-06 2.19606e-08 -2.51876e-06 2.10624e-06 -2.56091e-08 2.03319e-07 4.81066e-07 1.31191e-08 -1.37724e-06 2.22988e-06 9.68614e-07 -6.37367e-07 -3.03601e-08 4.44663e-07 -2.02531e-06 -7.75446e-08 3.17033e-09 -8.10957e-07 4.94729e-07 2.65973e-06 3.98733e-07 -7.9227e-07 1.29799e-09 -1.57186e-07 -7.69589e-07 4.72031e-08 -6.67219e-07 6.17916e-06 5.98424e-07 -2.7116e-08 3.99307e-07 -1.51522e-07 4.54864e-07 3.7442e-06 -3.8886e-06 -5.22293e-07 6.47872e-07 3.05334e-06 -1.00221e-06 -4.43184e-07 8.73628e-07 -8.14759e-07 1.03147e-06 -1.14211e-07 -6.43265e-07 -3.10385e-08 -8.92269e-07 -8.13588e-08 -2.25647e-07 8.42145e-07 1.07237e-06 -3.56807e-06 -2.65726e-06 -1.27022e-06 -1.72765e-06 -4.04418e-07 2.44768e-07 -1.77309e-08 5.12541e-07 -3.35815e-07 -2.11428e-08 -1.99941e-08 -7.83596e-07 -1.90785e-07 1.54577e-06 9.65602e-09 1.49201e-07 -4.5989e-07 8.13603e-08 -1.81089e-08 1.02747e-07 4.69437e-07 8.55513e-07 -2.52542e-07 -1.18548e-07 2.68254e-07 -1.12209e-07 2.62519e-07 1.14816e-07 -9.8624e-08 1.42273e-06 2.87793e-07 -6.61974e-08 -3.24681e-08 1.33248e-06 -1.7275e-07 -1.66252e-07 -8.31951e-08 -2.3958e-08 4.03243e-11 2.70442e-11 -9.65228e-08 1.85554e-07 7.67273e-07 2.3562e-07 1.0993e-07 1.22962e-07 -3.28666e-11 -3.64267e-11 -1.37922e-07 1.35086e-07 -2.2797e-07 1.34004e-07 -1.26271e-07 -2.5767e-11 3.30574e-11 -3.23423e-08 3.79558e-09 -8.84424e-07 -1.37574e-07 -4.84277e-08 -1.08042e-07 5.37738e-08 -5.63655e-07 -2.22465e-07 1.46959e-07 -8.56848e-08 -3.89415e-08 2.30013e-07 -3.93012e-11 3.08974e-06 -7.30057e-07 -5.35727e-07 -6.41414e-09 7.7274e-07 -1.94368e-07 -5.5693e-08 -5.28196e-08 -5.67821e-07 -1.88531e-06 -3.00439e-07 -1.33419e-07 -3.82883e-11 3.65968e-08 5.58105e-07 1.56368e-06 6.37669e-07 1.13196e-07 -1.20067e-06 -4.31619e-11 -4.30367e-11 -3.61952e-07 -4.59959e-07 1.21836e-11 1.82117e-09 -1.6709e-06 -3.56536e-06 -2.60357e-07 -1.31671e-06 -3.65723e-07 8.35973e-08 -4.76757e-07 -6.13336e-07 -3.25754e-07 -5.09773e-08 -4.19142e-08 -8.1359e-07 7.23276e-07 1.51115e-06 2.01102e-06 1.07126e-08 -7.11395e-08 6.44461e-08 7.48225e-09 2.06683e-07 4.29057e-09 -3.31809e-07 -2.55446e-07 -3.39504e-07 -4.21955e-07 3.30775e-09 -1.1233e-06 1.37291e-07 -1.54628e-07 -8.4834e-08 1.36016e-07 1.26767e-07 -4.37993e-07 -1.27985e-07 -2.71062e-07 -1.34753e-07 -2.29768e-07 -2.01476e-07 -1.69264e-06 -1.51063e-06 -4.14073e-07 -5.79888e-07 3.89372e-08 2.80724e-08 -2.50154e-06 -3.37064e-06 -4.05857e-07 -3.05655e-07 1.52662e-06 -1.23957e-06 3.25221e-06 -5.75289e-07 3.90223e-08 -1.06333e-06 -5.87808e-08 3.48518e-07 1.29476e-08 -1.01303e-07 -4.03616e-08 -2.96611e-07 1.99474e-07 -1.7584e-07 -3.8953e-07 4.04483e-07 -9.7242e-07 -4.65846e-09 1.04012e-06 5.21319e-08 -1.07086e-06 -1.24551e-07 -3.78269e-07 -1.12007e-06 2.0116e-06 -1.56835e-07 -9.84087e-12 4.20798e-07 -3.82461e-07 9.2495e-08 -1.19923e-11 3.6953e-08 4.42603e-08 -3.22478e-07 3.5997e-07 1.81472e-07 -7.79467e-08 -9.26021e-08 -9.63235e-08 -1.2323e-07 3.79666e-07 9.04425e-07 1.00598e-06 -2.4298e-08 1.66856e-06 2.66141e-07 -4.54323e-08 -8.21947e-08 7.22581e-08 -4.98797e-09 -3.94719e-07 7.4075e-07 1.51916e-08 2.30091e-06 -6.92264e-07 -1.87628e-07 5.60645e-08 -9.96232e-08 -5.32488e-07 3.16853e-08 -1.72382e-07 7.74946e-08 7.16511e-08 2.9092e-08 -3.33864e-07 3.01766e-08 -3.94982e-07 -7.0859e-08 -3.85863e-08 2.88084e-08 1.74058e-08 7.724e-08 -7.06666e-07 6.62938e-07 -2.85667e-07 -1.06028e-06 -2.96385e-07 -7.41916e-07 1.06855e-06 1.28638e-06 -1.61657e-07 -1.04689e-07 9.06934e-09 2.00425e-06 -1.55543e-07 -1.30323e-07 -3.73158e-07 -2.54202e-07 -1.7869e-07 6.86459e-08 8.9578e-07 -6.57418e-07 -8.00573e-07 -1.84486e-07 -4.73657e-07 -1.236e-07 3.39924e-07 -2.06567e-07 -2.42722e-07 -7.23095e-08 -4.23707e-07 3.26772e-07 1.19167e-07 -1.49835e-07 -2.07377e-07 -5.89753e-08 -5.16402e-08 -6.36582e-07 -2.08808e-07 -3.91126e-07 -2.37577e-07 9.4634e-07 -9.94105e-07 -7.98402e-09 -1.07061e-07 4.26304e-07 -2.05229e-06 -2.55097e-06 -5.59988e-07 1.66991e-07 3.75544e-06 9.57848e-06 5.10541e-06 -2.57016e-06 7.74951e-06 2.15367e-07 4.7963e-07 3.5245e-07 -5.38001e-07 -4.40113e-07 -2.64436e-06 -5.21348e-07 -1.09204e-06 -4.33744e-07 -9.70534e-07 -4.37323e-07 -9.576e-08 -3.97287e-07 -1.77469e-07 -2.83908e-07 -1.6465e-07 1.90045e-08 -8.45007e-08 1.09562e-07 -4.63972e-07 -5.10774e-07 -3.42083e-07 4.65137e-08 -1.87529e-07 1.24955e-07 -8.11936e-08 7.35457e-08 -6.99829e-07 -4.86833e-07 1.17924e-10 -5.6458e-08 -4.2054e-07 4.23169e-07 -6.68543e-07 -7.1425e-07 4.32228e-09 -1.66923e-07 2.69132e-07 3.9674e-07 -1.84544e-07 -2.75069e-07 -5.92582e-07 -5.945e-07 1.27211e-07 -2.06211e-07 -2.55316e-07 -7.70147e-08 -9.04249e-07 1.75282e-08 -1.99772e-08 -1.65846e-07 -1.6018e-07 -3.33488e-07 -2.73704e-08 2.79985e-12 1.08044e-07 -1.40284e-08 2.59534e-07 -5.29251e-07 5.41138e-08 -1.64878e-08 6.1537e-10 2.48042e-09 -3.04914e-07 3.80019e-08 -2.45849e-07 1.05395e-07 -2.07048e-08 6.28638e-08 1.0351e-07 -2.27978e-08 1.15268e-08 7.15566e-08 2.87383e-08 2.06515e-06 1.03464e-07 2.797e-07 -1.14743e-07 5.91141e-07 1.57897e-07 1.72235e-08 -8.96156e-08 6.88212e-08 -2.70717e-08 3.74097e-06 1.85202e-07 4.32608e-10 1.59949e-07 -5.75259e-09 4.39506e-07 1.34799e-06 -1.54593e-07 -3.95633e-08 3.31608e-09 -1.24056e-07 1.3179e-07 -3.62438e-08 -1.19803e-07 -4.74196e-08 4.43377e-07 -1.41331e-07 -3.53124e-07 4.76447e-06 -5.63958e-07 -2.81633e-07 3.39756e-07 -5.49372e-09 -1.07523e-08 -3.61155e-08 -2.27125e-08 -1.01432e-06 -7.00941e-07 4.67506e-09 -3.2276e-07 -5.08618e-08 3.80028e-12 6.15396e-07 -9.33968e-08 1.73791e-06 2.12823e-08 -4.69257e-08 -3.95392e-07 -3.58672e-09 -1.0529e-08 2.17868e-07 -1.59187e-07 -2.41499e-08 -1.27887e-07 2.01302e-07 2.58756e-07 -2.49578e-06 -2.95733e-08 -2.75806e-08 -7.94599e-07 -7.25274e-08 -2.90818e-08 -6.39112e-08 1.57467e-08 -3.3786e-07 -1.52705e-08 -1.1456e-08 -9.73306e-08 -2.00954e-08 -1.1809e-07 1.23336e-07 -2.42683e-07 -7.06389e-08 -3.40733e-08 3.09507e-08 -1.45312e-07 -5.47434e-08 -1.35897e-06 4.64945e-07 -1.52357e-07 -2.33282e-08 4.94839e-07 -2.38362e-07 1.78731e-06 -6.25162e-08 -1.94273e-08 -1.37455e-07 -2.75225e-07 -1.5504e-07 8.279e-08 -1.42815e-06 -3.75154e-07 7.08646e-07 -9.56474e-07 9.28805e-08 -1.44613e-07 -2.34142e-08 -1.50027e-08 -4.10511e-06 5.85326e-07 -1.11721e-06 -1.05984e-06 -8.59445e-08 1.39028e-07 6.70904e-08 -1.68423e-07 -5.65283e-07 1.72397e-08 -3.05254e-08 1.58974e-08 -1.68744e-08 -9.99518e-08 -1.80543e-07 -1.89603e-08 9.60135e-07 -1.14536e-06 -1.96889e-07 -1.7363e-06 -7.47714e-07 -1.37428e-07 2.56112e-07 1.85207e-07 3.93738e-07 1.49906e-09 -2.62902e-08 -1.69101e-08 4.21556e-09 2.31531e-08 -1.16353e-08 -7.56849e-10 8.33705e-09 -2.29374e-09 4.28101e-09 -6.32831e-08 -3.93644e-09 1.38032e-07 -1.18705e-07 -7.25412e-07 -2.14245e-08 1.37528e-09 3.22751e-06 4.3992e-08 1.1887e-07 -3.53614e-07 -1.29762e-07 -1.32178e-07 -8.07041e-08 -3.45075e-07 -7.30795e-09 1.14769e-06 6.04329e-13 2.79937e-11 -4.87676e-06 2.74021e-09 -2.97637e-06 -7.22993e-08 -6.85811e-10 2.77691e-07 -9.09244e-08 1.58068e-06 -5.26027e-09 -4.65723e-07 -3.43015e-06 1.234e-06 2.01286e-08 -2.11439e-08 1.29361e-08 -2.28342e-09 -7.72972e-09 -1.60345e-08 -1.64384e-07 -3.50959e-08 -2.29256e-08 -4.33505e-08 6.09639e-08 -8.08704e-08 2.18284e-10 -1.24253e-07 -6.88742e-07 -1.96896e-07 -1.86579e-07 -8.19471e-10 3.21679e-08 5.80811e-07 -3.69386e-07 -4.64956e-08 4.75136e-09 9.56223e-12 -5.25361e-07 -1.03463e-07 -3.44252e-06 3.23436e-07 -4.92435e-06 4.67355e-07 -4.88148e-06 -1.27997e-08 1.70359e-08 -3.17934e-07 4.99512e-08 1.57946e-10 -3.16868e-07 1.40735e-06 -3.39671e-07 2.886e-06 6.78395e-07 1.6682e-07 -1.25213e-06 2.87961e-06 -9.52857e-09 1.55572e-07 -8.55761e-08 6.52697e-06 1.13177e-07 -2.37625e-08 -5.79902e-07 -1.61526e-08 4.39723e-08 -2.4088e-07 -5.94132e-10 3.96287e-08 -1.20287e-07 -2.65592e-07 -3.28956e-09 1.08138e-07 -2.25366e-07 1.58566e-09 5.95418e-08 1.05543e-08 1.98211e-07 6.24029e-07 3.14589e-07 -1.92754e-08 -1.16399e-06 -1.08006e-06 -2.69384e-06 -1.68809e-06 5.04257e-08 -1.20045e-06 -2.31089e-07 1.04649e-06 7.48796e-07 3.77876e-08 -2.16193e-08 3.64492e-07 -1.89881e-08 -8.11098e-08 -2.72283e-06 -5.61412e-08 -7.70824e-09 1.46074e-06 -4.46927e-08 -4.35686e-08 4.74096e-09 -2.7548e-06 -4.12172e-07 -7.24824e-07 1.90268e-06 -3.08414e-06 -8.71408e-08 1.20743e-06 9.84951e-08 -8.13605e-07 -4.06465e-08 -6.99483e-08 -1.02077e-08 6.12155e-08 4.11095e-07 -2.52817e-07 1.71955e-06 9.86272e-08 -7.17766e-08 2.74668e-07 1.95277e-07 2.16286e-12 -8.07208e-13 2.77485e-08 -1.92612e-09 9.66204e-09 -6.07587e-08 5.99875e-06 3.72121e-07 -6.80185e-09 9.18697e-08 3.52906e-08 1.21796e-07 2.07687e-08 2.64072e-08 9.70853e-10 -2.50515e-06 3.05871e-07 -1.52079e-07 3.6221e-07 -6.15438e-08 -6.57357e-07 -3.06071e-07 3.63739e-11 5.46068e-07 -2.01297e-07 3.35821e-10 -2.37073e-09 -1.21476e-08 -5.88714e-08 6.38417e-09 -2.60549e-08 9.86958e-07 -2.93795e-07 -3.41708e-08 6.49867e-07 -1.92542e-07 -1.1913e-08 -1.07062e-07 -2.95686e-06 -1.19895e-06 -1.29298e-08 -3.06308e-06 -7.15507e-08 -3.15505e-09 1.08168e-08 -6.03241e-09 -1.13529e-07 7.24476e-08 -1.90207e-07 -1.09037e-07 -5.21726e-08 7.00084e-08 4.19551e-06 -4.61346e-07 6.04455e-07 -7.83272e-07 -8.84907e-07 2.55243e-09 1.14556e-06 -1.09996e-08 1.93857e-09 1.04443e-09 6.46447e-08 -4.77068e-07 -1.46837e-06 2.78198e-07 7.00313e-07 -6.65806e-07 -6.38782e-08 -6.07772e-10 -2.96294e-06 -3.95822e-06 4.40553e-11 -3.59031e-07 -2.692e-07 7.27602e-09 -1.81258e-07 -2.01446e-07 -1.41874e-07 -3.38895e-08 -2.49537e-07 -8.81535e-08 8.96631e-09 -8.55813e-08 3.21879e-08 -9.67986e-08 5.47373e-07 8.09422e-08 -7.51891e-08 3.28146e-08 -1.08308e-07 7.44939e-09 -1.30676e-06 2.19696e-07 -2.09892e-07 -6.92246e-07 3.42882e-07 5.84117e-08 2.14219e-12 3.83357e-11 -1.40897e-07 4.03068e-07 -1.35626e-06 -2.32974e-06 -6.30904e-08 -4.42453e-06 -1.94983e-08 1.66612e-07 -9.57458e-09 -1.85168e-09 -1.18138e-09 -4.27137e-09 -3.02079e-07 -1.33429e-08 -6.98762e-08 -5.43702e-07 4.60386e-08 -7.8056e-08 -7.91617e-08 -3.17566e-07 -1.06217e-06 -3.07124e-07 9.47322e-08 -1.09968e-07 -8.86731e-08 -2.78467e-07 -1.67002e-07 -4.30185e-08 -1.04125e-06 1.54254e-07 7.0852e-08 -1.62226e-07 2.24239e-08 -5.06057e-07 -1.35629e-07 1.1877e-07 -4.92596e-07 -9.7575e-07 -6.79008e-07 1.39436e-06 -3.68015e-07 -4.04557e-08 -5.08078e-08 -5.39348e-07 1.10728e-07 -1.51552e-07 -1.3508e-08 -5.04769e-08 -3.10452e-07 6.5674e-07 1.22796e-06 -7.51373e-08 -3.37868e-07 -1.28371e-06 -3.54504e-08 3.4542e-07 -1.01121e-06 -3.08832e-08 -1.27943e-07 -8.32094e-08 -1.63628e-08 -1.29534e-06 1.33847e-07 -2.51158e-07 -2.92339e-07 -2.60284e-08 3.75862e-07 -3.09595e-07 -1.05128e-07 -9.17495e-07 3.7305e-08 -5.1558e-08 -1.47321e-08 -5.65063e-07 -6.4472e-08 -6.07955e-08 -2.70243e-07 -5.919e-07 -1.3126e-07 1.63158e-08 -8.71957e-09 9.38843e-08 3.32126e-08 -3.7823e-08 -5.30347e-08 -1.22106e-07 -5.21195e-08 -1.3126e-07 -2.77719e-07 -1.17337e-07 -7.31802e-07 -5.66094e-07 -2.03278e-07 -9.5068e-08 -4.72985e-08 -1.03067e-07 -7.12095e-08 -8.70638e-08 4.70551e-07 -5.53124e-07 -4.56608e-07 1.2697e-06 -3.8651e-08 -1.14578e-07 7.22484e-08 -9.66887e-08 -1.22654e-07 9.36807e-11 -1.18776e-07 5.41896e-06 -2.02872e-07 -2.50956e-07 -1.34775e-07 -1.11085e-07 1.97475e-06 -4.49802e-07 -1.18916e-07 -3.86838e-07 -2.3438e-07 -1.52648e-07 -9.93678e-08 6.9481e-08 -1.96357e-08 -1.00354e-07 -9.05526e-08 -1.42683e-07 -1.94142e-08 -1.17384e-07 -1.20776e-07 -2.0648e-08 2.94748e-08 7.6554e-08 -8.6094e-08 -1.48308e-07 -4.08011e-07 -2.00756e-07 2.77715e-09 -7.56075e-08 -2.2356e-08 -2.21482e-07 -2.95201e-08 2.97947e-07 -1.24639e-07 -4.16713e-07 1.56053e-07 -4.97875e-07 -4.40447e-06 2.67956e-08 3.65589e-06 9.23683e-07 -1.83529e-07 -7.72807e-07 -1.97517e-07 -2.90104e-07 -2.84949e-08 -4.22283e-08 -6.12952e-10 -1.46459e-08 8.51229e-07 -4.63257e-07 -1.85319e-07 -5.8441e-08 -5.83472e-07 -5.39079e-07 -2.54964e-07 -2.06167e-07 -3.95537e-08 -3.5782e-07 -3.61029e-08 -1.22017e-07 -1.19587e-08 -1.01474e-07 -5.2854e-08 -4.4089e-08 -1.06271e-07 -1.01576e-07 -1.16655e-07 -7.98524e-07 -2.03655e-06 -8.46423e-07 -8.59705e-12 -3.00427e-06 -1.95626e-07 -1.08656e-07 6.2819e-08 -7.96538e-07 1.01805e-06 -4.3332e-07 -1.09971e-06 8.27353e-07 7.80676e-07 1.41647e-07 -6.47932e-07 -2.37907e-07 -4.07187e-08 -8.44215e-09 -4.45807e-07 -6.63228e-07 2.88075e-08 -3.52901e-07 -3.36264e-07 -9.62168e-07 -3.12091e-07 -1.90307e-06 -6.15082e-08 -5.56222e-08 -9.50828e-08 -1.2887e-07 -1.0663e-06 -1.17536e-07 -1.02616e-07 -9.3464e-08 -2.46257e-07 -2.51827e-07 -5.61211e-07 -4.54191e-07 -1.62833e-08 1.75026e-06 -1.41375e-06 -7.58561e-07 -8.48854e-07 9.60041e-08 -2.56915e-07 -2.50531e-07 -7.98513e-08 5.35527e-08 -4.35594e-07 -8.50278e-08 -4.41464e-07 -2.33408e-07 -3.80907e-08 2.15783e-08 -1.30473e-07 4.36829e-08 -3.12027e-06 -3.69074e-07 -1.53192e-07 -1.5088e-06 4.85207e-07 5.78203e-06 1.03708e-07 -1.13648e-07 -5.79613e-07 -4.56456e-07 -3.31779e-07 -8.01544e-07 4.70361e-08 3.05389e-08 7.73305e-08 -4.16053e-07 -9.23268e-07 7.60847e-09 -1.10475e-07 -2.35905e-07 -2.65051e-08 -5.76225e-08 -6.40915e-08 -4.2081e-08 -2.58494e-07 2.53475e-08 -2.9772e-07 -8.32197e-08 2.34425e-08 8.17951e-09 -3.49043e-07 1.30432e-12 4.75129e-06 1.13671e-11 -3.16388e-08 -1.86213e-08 1.39234e-07 1.39424e-07 3.16988e-08 -3.21283e-07 1.34195e-06 -5.33948e-08 -9.53683e-09 1.71327e-08 -1.52722e-07 8.20431e-08 -2.79465e-08 -8.56958e-09 -1.7384e-08 7.52962e-09 -1.51047e-08 -3.44248e-08 -2.2581e-08 2.54107e-08 1.56521e-08 -2.96901e-08 -3.42797e-08 -3.90445e-08 -2.14627e-08 -1.28672e-07 5.7716e-08 2.13447e-06 -9.56066e-07 1.1415e-06 -1.00436e-06 -2.26172e-07 -3.25172e-07 -5.69656e-07 -2.3972e-07 -2.82757e-09 -1.3664e-07 8.42316e-08 -7.00224e-09 -3.75221e-08 -1.441e-07 -2.27687e-07 -7.35426e-08 -2.72801e-07 -1.91554e-07 -1.26193e-07 4.57475e-07 -9.5771e-08 4.16644e-07 -2.01404e-06 -1.32196e-07 1.34482e-07 1.29392e-07 -5.41482e-06 -6.33107e-07 8.60758e-08 -2.05969e-07 9.51285e-09 -2.83819e-07 -3.08927e-07 2.34753e-06 -2.56659e-06 -3.59191e-07 1.09111e-10 7.8207e-11 1.74076e-11 1.41758e-06 6.75812e-07 5.50067e-07 1.58711e-06 -3.54207e-08 1.59495e-08 3.60733e-07 -2.99159e-07 1.18829e-08 -6.76332e-08 -3.40982e-07 -3.36265e-07 -5.5337e-08 -8.77433e-08 -5.25286e-09 -1.47065e-07 1.05005e-06 1.22485e-06 9.77497e-07 -3.08807e-07 -1.92321e-07 6.86855e-08 -1.91738e-07 1.68722e-06 1.30441e-07 -6.38432e-08 -1.87223e-09 -1.93558e-07 -3.14512e-08 1.2823e-06 4.12197e-07 1.3479e-06 8.21699e-07 -6.65878e-08 -1.72159e-08 -1.65801e-07 -6.02001e-08 -1.27194e-07 -1.48915e-08 4.79774e-08 1.75152e-08 1.02375e-07 -8.49293e-07 1.30437e-07 2.03693e-07 1.35021e-07 -7.42339e-12 -3.79405e-06 5.32566e-08 3.2229e-07 -1.14284e-07 -2.19407e-06 8.01357e-07 1.05622e-07 -8.5331e-07 -5.94247e-07 4.70957e-07 3.66445e-07 -7.32156e-09 2.67248e-07 -8.39446e-08 1.71357e-07 -8.24118e-08 3.22735e-07 -2.72548e-07 1.84758e-06 -1.61385e-13 2.62761e-12 1.12239e-11 -1.4115e-06 -3.49181e-07 6.86669e-07 2.02318e-06 -2.45615e-06 1.45456e-06 -6.91122e-07 -3.08231e-07 6.77776e-07 2.17812e-09 4.97456e-07 4.61347e-08 2.62361e-07 -5.84791e-07 -5.02097e-07 -4.07976e-07 -6.55408e-07 -1.18032e-06 4.00349e-07 6.35653e-07 -4.7606e-07 -3.20169e-09 -6.61441e-09 5.15108e-09 -1.80089e-09 2.75705e-10 -7.41246e-10 6.31593e-10 5.82309e-10 -9.78175e-10 1.16327e-10 8.41703e-10 4.00747e-10 -3.01473e-10 5.29539e-09 1.30341e-09 -1.80773e-07 -2.72908e-09 1.12772e-06 7.05587e-09 -5.30142e-09 1.16731e-08 -5.56446e-09 -5.97642e-09 5.96819e-07 -5.75778e-12 6.93751e-11 8.11078e-10 -9.7282e-07 -1.18647e-06 3.92147e-07 -3.62104e-11 -1.75926e-07 -6.36683e-08 -6.06032e-07 -1.14809e-06 -6.5667e-07 1.55515e-09 1.01009e-09 2.48569e-09 5.43364e-10 2.02328e-09 -3.37936e-10 2.44316e-07 1.12978e-06 -6.83414e-08 -4.47004e-07 2.76409e-07 3.62263e-07 1.79262e-06 6.01214e-07 -4.20321e-07 -1.03371e-06 3.0837e-07 -1.45026e-07 -1.40252e-06 -4.97682e-08 -3.38703e-07 6.56603e-10 -2.22436e-06 -1.5603e-06 -2.12707e-06 3.91525e-06 1.66657e-06 -1.71247e-06 -1.15018e-11 1.37604e-06 1.80799e-07 6.0868e-08 6.26719e-08 -2.28269e-07 -4.08124e-07 -2.65258e-07 1.2683e-09 -3.72581e-07 -2.47111e-07 -3.20349e-10 1.2945e-07 -6.17205e-07 -2.33277e-10 1.53358e-09 -3.08844e-06 1.07627e-10 1.57105e-07 7.49025e-07 -8.48191e-09 -1.00656e-06 -1.228e-06 4.44003e-07 -9.0629e-07 4.95511e-07 5.6597e-07 -1.60926e-07 2.34049e-07 3.47175e-07 1.89197e-08 3.96809e-07 -3.92274e-07 -2.72398e-07 -1.99363e-06 -2.34447e-06 -1.6921e-06 -5.26361e-07 -2.71811e-06 1.55585e-09 5.56866e-07 7.20511e-07 -9.40757e-10 -1.3968e-07 -6.56553e-07 -2.85075e-07 -2.24373e-06 -1.41948e-07 -1.34888e-06 2.59578e-07 -5.13895e-08 1.2615e-06 2.96687e-08 2.06369e-09 -9.5949e-08 -4.28065e-07 -7.1538e-07 -6.74057e-07 -3.28166e-07 3.83145e-08 -6.77468e-09 -9.21362e-10 -1.67334e-07 -3.05666e-09 -8.84686e-07 -2.46159e-06 -1.63753e-07 -2.22779e-08 -2.98424e-07 3.97537e-06 -3.61688e-07 3.69083e-06 -8.41324e-08 3.2343e-09 1.96724e-07 -1.64746e-07 9.99553e-07 -4.4613e-07 8.69759e-07 -6.51028e-09 7.42352e-08 1.11533e-07 -4.227e-07 -7.00584e-08 -3.60026e-07 -3.62195e-09 2.0215e-08 1.89159e-08 -4.52593e-08 -2.60385e-07 7.76589e-08 -1.24344e-07 -3.14992e-07 2.28054e-07 -1.79514e-09 -2.08827e-09 5.91073e-10 6.49171e-10 -3.51265e-09 1.3563e-11 1.20495e-09 -3.08339e-09 -1.38153e-08 9.36406e-09 -4.83675e-07 -9.8029e-07 -2.34826e-07 -1.50221e-07 -2.43455e-06 7.87298e-06 4.91417e-06 -2.9434e-06 -1.56896e-09 -2.28592e-07 -6.36487e-07 -1.86296e-07 -5.45999e-07 -3.97573e-07 -2.31281e-07 -7.27007e-07 -3.72457e-07 1.17316e-07 -2.00334e-07 -3.0673e-07 -1.94677e-07 -2.23815e-07 1.57674e-09 4.00745e-06 5.7258e-06 5.09305e-06 -2.18948e-08 1.16835e-06 1.82125e-10 -8.05057e-09 -8.29033e-07 -7.94209e-08 -3.38458e-07 7.85636e-09 -1.76196e-10 2.04651e-08 1.43388e-09 1.58992e-09 1.52575e-07 -2.72774e-09 1.42479e-06 -8.19734e-09 2.31217e-06 9.94553e-07 -5.75752e-06 -4.35224e-06 7.51094e-11 -2.9608e-07 -5.50584e-07 -9.80084e-08 -8.84847e-07 -5.47779e-07 -1.95982e-07 6.87087e-08 -5.59569e-07 -3.59565e-07 8.13168e-10 1.00942e-07 8.74738e-08 -1.19126e-10 1.37547e-09 -4.62653e-07 -1.56147e-06 -1.01239e-06 -6.35846e-07 -6.04676e-08 -2.34185e-08 1.40097e-07 1.41926e-06 1.73984e-08 2.97743e-10 -5.31188e-10 -2.43843e-06 -4.4678e-06 -3.78478e-06 -3.68743e-06 -1.42304e-08 3.66697e-07 2.97963e-07 3.25022e-07 3.23965e-08 2.20528e-07 -1.78775e-07 -9.61163e-07 -4.56056e-07 1.71911e-07 3.16567e-07 -7.11955e-07 -9.74451e-07 -2.59314e-07 -6.82827e-07 -2.08961e-07 -1.35559e-08 2.03743e-07 1.57338e-07 -1.08933e-08 1.51506e-08 -6.4691e-08 -3.08963e-07 1.25678e-08 -3.70971e-08 1.5601e-09 1.07683e-09 2.32643e-10 -6.21842e-10 1.55605e-09 5.51125e-10 -4.48896e-09 -3.00526e-07 -3.22561e-07 3.31332e-07 3.07919e-08 -6.43311e-08 9.34683e-07 4.77935e-08 1.20872e-07 -4.74003e-08 -2.28933e-07 5.6874e-08 2.46904e-07 -1.49648e-07 3.20147e-07 -4.33454e-07 -3.34882e-08 5.91985e-09 -5.32547e-08 -3.24776e-06 -5.27963e-07 -5.61544e-10 -7.24738e-07 9.94733e-09 6.22094e-07 -2.79817e-07 -3.10556e-07 -1.0553e-07 9.95858e-09 -1.9948e-07 5.41577e-07 -6.15616e-10 -1.14247e-06 -3.30558e-07 5.33937e-08 -5.7754e-07 -5.85041e-07 -2.97458e-07 -5.63548e-07 6.69239e-10 -3.6112e-07 2.52204e-10 -2.5056e-07 -3.48747e-07 2.51624e-07 9.41822e-08 5.42674e-09 1.07217e-07 -9.1648e-08 -5.15305e-08 -6.07231e-10 3.7756e-07 -1.84327e-07 -1.69179e-09 -1.28609e-07 2.86952e-09 6.72319e-10 3.42242e-11 5.14512e-07 1.76033e-07 -2.34636e-07 -1.76291e-07 -3.54437e-10 -2.58333e-09 -4.56785e-07 -9.45873e-08 -8.71243e-07 -2.07487e-07 5.97755e-08 -9.23281e-07 2.18997e-07 8.50266e-08 2.90162e-06 -1.84873e-06 4.07995e-07 -3.13293e-07 -2.92518e-07 -8.59891e-07 -5.30191e-08 1.29659e-06 -1.51581e-10 -1.08852e-06 -4.34055e-10 5.83209e-10 9.7482e-08 -7.97189e-08 -2.0093e-07 3.27779e-07 -2.67789e-08 2.94023e-07 3.61257e-10 -6.56572e-10 -9.21223e-08 -6.05869e-07 5.30252e-10 8.37933e-09 1.4805e-09 -2.40039e-07 -1.36012e-08 4.15207e-09 -5.59494e-10 8.04632e-11 6.93828e-10 -3.23736e-06 7.608e-09 -4.79068e-09 -7.36e-09 -3.76176e-07 4.82784e-07 -1.46552e-08 2.63154e-11 -3.64559e-09 1.65141e-06 4.92676e-07 5.30094e-07 6.12265e-09 1.73957e-08 2.08653e-06 -4.14512e-09 -8.7856e-09 5.5115e-10 -1.02149e-08 -2.49253e-08 -1.98689e-08 2.31526e-09 2.28649e-09 5.24669e-08 -3.36483e-08 9.41563e-08 4.81498e-07 -4.15596e-10 -1.28039e-07 -7.43455e-08 1.94411e-09 -7.715e-07 -2.03385e-08 4.25689e-07 1.18924e-08 1.88219e-09 4.00222e-07 -2.73305e-07 -1.11269e-08 -1.82036e-07 -1.55069e-07 6.05209e-08 3.63476e-07 3.68532e-07 5.48675e-06 3.80717e-06 4.29959e-11 3.12531e-07 -7.81684e-09 1.19216e-07 3.99146e-08 2.88886e-08 5.51298e-07 -1.68983e-08 -1.28083e-07 6.21116e-09 -9.68248e-07 -4.24526e-07 -8.36668e-08 3.49236e-08 -2.27806e-09 -6.86055e-07 -2.05368e-09 -1.31992e-07 4.67923e-06 3.13737e-06 1.23822e-06 -7.57531e-10 8.77284e-08 2.63703e-06 4.38052e-06 2.39705e-07 1.11973e-07 -1.20464e-07 -2.85856e-07 6.02363e-07 -1.36458e-07 -2.01168e-07 8.16973e-07 -1.23116e-07 7.3218e-09 -7.70776e-07 1.59605e-06 3.1577e-07 -5.8012e-07 2.55899e-07 8.88912e-07 1.63548e-06 5.29569e-10 -2.31132e-10 -2.08675e-08 1.39288e-09 4.88159e-09 5.31875e-10 -1.40094e-08 9.32155e-11 -2.04404e-08 1.09203e-10 1.09227e-08 -1.15059e-07 -4.74816e-07 -4.95876e-07 -4.51842e-08 1.38108e-08 1.54429e-10 -9.53958e-08 -2.20368e-07 -6.28927e-07 -8.56128e-07 -1.03688e-07 2.49016e-07 2.2837e-07 -7.70501e-10 -3.29087e-07 -1.58614e-07 3.39569e-08 1.32702e-07 2.9127e-07 -1.20894e-07 -3.14582e-07 -6.74649e-08 7.61542e-07 -9.05342e-08 2.15736e-08 -3.0739e-08 -6.14106e-08 -7.4186e-08 9.17728e-08 -9.45476e-08 -4.78055e-07 -1.07237e-07 1.62078e-07 -1.51072e-06 -2.668e-06 7.74573e-10 2.53611e-07 -3.50049e-09 8.72987e-07 -4.04912e-09 -1.91396e-09 6.71719e-08 -2.6695e-07 2.74197e-07 -6.4822e-09 -1.07204e-07 4.31807e-08 -5.21805e-09 -3.36373e-12 -2.89292e-08 -6.47808e-10 -2.86719e-07 -2.32602e-07 -8.2304e-07 -4.57739e-07 -3.45722e-07 2.78313e-09 -1.46403e-09 7.3572e-09 -3.76054e-08 -1.37342e-08 -6.1974e-08 5.11182e-08 -4.16663e-07 -2.626e-07 -1.30849e-07 1.72777e-07 4.16691e-08 8.01895e-08 1.73967e-07 -1.53884e-07 4.08905e-10 1.0235e-10 1.31584e-07 4.11941e-10 5.77984e-10 -2.01794e-06 -1.07693e-07 -6.66746e-08 -1.17706e-08 7.80322e-07 -2.22423e-08 -1.00285e-07 -3.6344e-09 3.04937e-08 -9.71501e-07 -1.39321e-07 -1.17347e-07 -8.29223e-09 5.48565e-09 1.06354e-07 8.79424e-09 3.60361e-07 1.61652e-08 -4.05818e-07 1.73528e-09 -2.85546e-09 2.72609e-09 -2.62888e-07 -3.08705e-08 -9.16521e-07 -2.75469e-06 -6.35532e-07 -7.39004e-08 -4.91651e-08 1.32769e-06 1.13256e-06 -4.50168e-09 3.64747e-08 -6.54922e-08 -1.15458e-07 -4.51288e-07 -3.31915e-07 1.87689e-06 1.51903e-06 -5.45715e-08 2.09195e-06 -6.77337e-07 -1.60537e-08 1.96673e-08 -3.48579e-08 -5.02922e-07 9.11148e-07 9.92262e-08 8.65333e-07 -9.81052e-08 1.42417e-07 -2.91827e-07 -1.30236e-06 -1.25073e-07 -3.04446e-07 -1.01896e-07 -7.18243e-08 9.77833e-08 1.0109e-07 -5.52496e-06 7.33493e-11 -1.7562e-06 -3.99473e-08 -5.815e-08 -1.30346e-06 -6.39316e-08 -1.85756e-08 -2.10495e-07 -1.28195e-07 1.21197e-07 -3.70818e-08 -9.96806e-08 3.46447e-08 -1.08821e-06 -2.59745e-09 -2.1485e-08 6.28429e-08 -1.79053e-08 -2.26832e-08 -1.22342e-07 -1.1009e-07 -5.65952e-08 -4.74997e-08 -6.48213e-07 -8.57208e-07 -1.65692e-07 2.22211e-08 -8.98287e-10 -3.12812e-06 3.99406e-07 4.82614e-06 -2.1839e-06 1.8762e-06 -1.58513e-06 -4.88584e-07 3.0575e-08 -1.45369e-06 1.45555e-07 -3.10956e-07 -1.27895e-06 -3.62412e-07 -5.22934e-07 -3.6233e-07 2.91047e-08 -5.11387e-10 -2.6697e-09 -6.52659e-09 -1.6421e-08 3.42278e-09 -6.62993e-07 2.54492e-09 -9.74357e-09 -1.27338e-06 -1.32408e-06 9.29392e-09 -2.18992e-08 2.09449e-08 1.71104e-08 -1.34842e-09 1.76438e-07 -3.63016e-08 -2.63938e-08 7.87055e-08 -5.73728e-08 4.35607e-08 -1.52671e-09 3.591e-07 -3.60736e-07 1.85503e-07 -4.14828e-07 4.4058e-08 -3.91774e-07 -8.26707e-08 -5.32237e-08 1.14289e-08 8.9721e-08 -5.02545e-07 -4.04649e-09 -1.60899e-08 5.59968e-07 -2.00765e-07 -2.23969e-08 1.68781e-08 -1.24296e-07 -5.64486e-07 -6.72898e-08 -4.04592e-07 5.03885e-07 -3.76105e-07 -2.95215e-07 -4.70893e-07 7.61708e-07 4.55758e-06 4.79327e-06 -3.43219e-08 3.97622e-06 2.04962e-06 -8.68894e-08 -9.74901e-08 -1.94638e-06 -9.04498e-07 7.45219e-08 2.73517e-09 5.36493e-07 -6.83959e-07 -2.05821e-07 -5.93931e-08 -3.10945e-07 5.80725e-10 -8.09741e-08 9.055e-08 4.55944e-08 -8.02604e-08 2.49259e-07 -8.72762e-08 5.30291e-07 3.3276e-09 4.19656e-09 -2.32377e-09 4.20781e-09 4.35802e-09 3.39954e-08 -2.79214e-09 -6.38665e-10 -8.99669e-10 7.9275e-07 4.13194e-08 -1.42707e-06 -9.00278e-08 -3.01561e-07 -3.742e-06 -1.51447e-06 -7.46964e-08 -7.37653e-07 -3.67163e-07 -9.67642e-08 -2.26658e-08 -8.98534e-08 -7.26633e-08 -1.79732e-06 -3.76357e-08 -1.04624e-06 -2.19242e-08 2.54865e-10 -9.7579e-07 -2.75823e-08 -2.88962e-09 -6.86984e-07 -3.49981e-07 1.58876e-08 -4.29971e-07 -3.66507e-07 3.16455e-08 2.24283e-08 7.89483e-08 -1.28173e-09 -6.52132e-08 4.02629e-07 -3.259e-08 1.59565e-09 -6.64416e-06 -2.51859e-08 -9.5694e-08 -4.90121e-06 2.45671e-07 6.96607e-08 -2.23401e-07 2.60435e-08 1.54917e-07 9.59328e-10 -8.54635e-11 -3.82511e-11 9.60915e-10 1.75629e-08 -2.47337e-07 7.36426e-08 5.06089e-08 3.67361e-08 -9.64657e-08 3.28011e-07 -1.0134e-06 3.5758e-07 -7.89647e-07 -4.52009e-07 -4.38026e-08 5.08564e-08 -5e-08 -1.58715e-06 6.34668e-07 -3.72623e-08 -3.63549e-08 7.30498e-08 -3.29858e-07 -1.49722e-06 -3.29369e-07 -2.55418e-07 -2.13146e-07 -7.8575e-07 -3.95022e-07 -7.11859e-07 2.41805e-07 -6.84353e-12 -6.69436e-12 -1.44647e-07 3.52813e-08 1.49975e-08 -1.7401e-07 -1.7159e-09 3.70223e-07 1.35674e-08 -1.56793e-06 1.11327e-06 5.69733e-07 5.82528e-07 -5.32291e-07 -4.36382e-07 7.77275e-08 3.29829e-08 -4.92064e-07 4.54906e-10 -5.4885e-07 -2.83322e-06 -5.46303e-07 -5.56655e-07 -1.5069e-08 7.34038e-10 -8.49396e-07 -8.24891e-07 -6.76466e-07 7.77905e-07 1.62106e-07 -2.84044e-06 -3.97187e-06 -1.03853e-08 4.8949e-08 9.10237e-13 -5.85878e-08 -1.02286e-07 -3.7952e-07 -4.14655e-07 -4.01754e-07 -3.70007e-07 -5.60384e-07 2.16079e-06 -1.27836e-06 4.56361e-06 -5.24206e-07 -9.93987e-08 5.61418e-10 1.81396e-07 -1.16253e-07 -1.83293e-10 -1.54962e-08 -2.27519e-08 -3.52233e-06 -2.38667e-06 -3.907e-06 -2.71626e-07 -7.5428e-07 -1.38283e-06 8.80703e-07 5.03528e-07 -1.77431e-08 6.32703e-06 -3.10571e-08 -1.51148e-06 -3.50919e-07 5.2677e-07 -1.21729e-07 2.23671e-07 -9.05962e-08 -1.83939e-08 -7.21146e-08 2.93681e-10 1.51127e-07 1.69674e-07 -1.88438e-07 -3.03903e-07 2.57433e-08 7.30934e-06 -5.10841e-06 4.11096e-07 8.39125e-06 -5.38064e-08 -2.85136e-07 -8.13376e-08 1.15729e-07 3.53405e-06 3.83426e-06 -3.4119e-06 -1.60637e-06 -1.80207e-07 -3.67634e-06 1.56e-07 -1.11434e-07 -2.41311e-07 -1.53002e-08 2.79857e-11 1.40583e-07 7.22799e-06 -8.20691e-08 3.20021e-06 8.57741e-06 5.33991e-06 -3.33671e-07 -1.30306e-06 1.6435e-07 -6.26147e-07 -3.43491e-08 2.12654e-07 -1.55155e-08 -4.18418e-08 -2.85824e-08 -5.33501e-07 6.91059e-08 3.78461e-07 7.96436e-06 6.26645e-06 -4.45998e-08 -9.89476e-09 5.79478e-10 6.50108e-08 -4.41815e-07 1.35688e-07 4.47019e-07 1.38014e-06 1.62715e-06 6.80819e-07 -6.89399e-08 4.12919e-07 -3.19979e-07 -3.66137e-07 -3.80666e-07 -4.6317e-07 -4.37862e-07 -2.98627e-06 9.0289e-07 -4.80158e-06 3.06176e-07 -3.23194e-07 -2.66959e-07 -2.57767e-07 4.06517e-08 -8.95332e-07 -2.56095e-08 1.7117e-07 5.95769e-09 2.0689e-07 -1.16247e-10 -6.4586e-08 1.65112e-07 -2.87731e-07 -8.86395e-08 -1.61836e-07 -2.57848e-09 -1.26625e-07 -7.0012e-09 -7.7927e-07 2.41806e-09 1.06102e-09 -6.19774e-08 -5.32733e-08 -4.23694e-06 -2.08611e-06 2.25547e-06 -5.84431e-07 -4.76517e-06 -1.27803e-07 -9.87603e-07 1.20538e-07 -2.89215e-07 -3.55084e-07 9.68409e-07 -7.15308e-07 -1.22031e-07 -1.00158e-07 -1.44092e-06 -1.04293e-07 2.06397e-08 5.16985e-08 5.9399e-07 -6.96428e-11 4.4963e-10 2.24014e-06 5.70063e-06 9.19034e-09 -1.24199e-06 1.20243e-07 -3.14068e-06 -1.31162e-09 5.08097e-10 -2.38666e-07 -2.57809e-07 -3.08675e-07 8.15881e-07 -1.7288e-07 1.38952e-08 7.1762e-09 -1.86611e-07 -6.78642e-08 -8.41461e-07 -4.73456e-08 -5.21501e-08 1.11762e-07 2.33649e-06 4.45549e-06 -7.23643e-08 1.00226e-07 -6.19032e-08 -1.18852e-06 -3.34919e-07 6.71435e-08 4.48199e-06 1.80635e-06 7.21888e-08 -3.28189e-07 -2.6413e-07 2.39031e-08 -9.12229e-08 -2.19633e-06 -3.58479e-06 -7.92993e-08 -8.00924e-07 6.19935e-13 -3.86536e-07 -4.67982e-09 4.4401e-07 -4.44814e-08 -6.09122e-08 8.43269e-10 -2.98743e-09 1.67083e-06 3.43199e-09 6.16684e-09 -4.1074e-07 -5.36219e-08 -5.5485e-07 -8.43277e-07 -1.39105e-06 -1.82199e-06 5.53858e-07 -8.51512e-10 3.6701e-06 8.86491e-07 2.31532e-06 -6.66287e-08 4.18854e-07 4.53154e-06 -7.57087e-08 -1.67103e-07 8.71956e-06 -1.15265e-07 -1.76819e-07 4.46903e-06 -1.80673e-06 -1.81029e-06 1.36498e-06 2.00385e-06 -1.37566e-07 -5.792e-08 -4.69282e-09 -5.65062e-07 -1.10321e-06 -9.87544e-07 -5.86032e-08 7.51598e-09 2.20674e-08 -3.30056e-07 5.81941e-07 -1.11004e-07 1.47037e-06 -2.24039e-07 -6.69937e-08 -1.4403e-07 -1.67292e-07 2.61852e-10 -5.05546e-07 -1.13792e-07 -1.61947e-08 9.61564e-08 -2.59746e-08 3.94822e-09 -1.42145e-08 -9.05068e-08 2.06319e-07 -4.69607e-07 -1.03599e-07 -2.31429e-08 -6.85123e-07 -1.77158e-07 -1.60574e-07 -4.40943e-07 -1.07363e-06 4.75344e-07 2.09257e-07 -8.04629e-07 -1.35027e-06 1.20515e-07 1.10053e-06 -6.99117e-11 7.21092e-07 -3.89825e-07 -4.43931e-10 -5.1261e-08 -1.31945e-07 -4.46016e-07 1.32199e-07 -7.18232e-08 -2.37378e-06 -4.13936e-07 8.04017e-10 2.18865e-07 -1.05088e-08 -6.35583e-11 2.24609e-07 1.65606e-10 7.30612e-08 -6.84549e-08 1.91605e-08 1.82851e-07 -6.51699e-06 6.55564e-10 3.38831e-06 2.28407e-06 2.1919e-10 -3.47909e-10 -1.01682e-08 1.46285e-08 -3.25546e-07 1.89038e-07 9.2305e-13 3.72631e-07 -1.23754e-06 -4.69847e-07 1.97095e-07 3.3911e-07 2.70739e-07 -6.7094e-08 -1.54761e-07 -8.88567e-08 1.24195e-08 4.45891e-07 1.09619e-06 -5.56608e-08 1.63576e-08 -1.28432e-07 7.1656e-07 -4.40442e-06 1.03527e-06 -4.97255e-08 3.91415e-06 -1.15563e-06 -1.04112e-08 1.09637e-08 -7.13424e-09 2.88532e-11 -1.30995e-07 -3.29782e-08 -6.73297e-07 1.9839e-08 -7.46042e-09 1.94079e-06 -2.83292e-06 -4.74794e-07 -1.60381e-07 -3.88192e-06 -3.69904e-07 -1.06591e-09 -2.32533e-07 3.60837e-06 4.71755e-06 3.75919e-08 3.22743e-06 -2.85195e-07 -5.98031e-07 -1.65499e-07 3.88084e-07 2.13968e-08 -4.96237e-07 -4.18772e-07 1.69641e-07 -8.89609e-07 2.7093e-07 1.49384e-07 -2.56114e-07 -3.77331e-07 -7.30435e-07 -2.82741e-07 -7.86821e-07 -2.3533e-06 -1.13713e-06 -2.03821e-08 6.87096e-06 8.20085e-07 -2.74669e-06 -2.26508e-06 -2.66322e-06 1.35473e-08 -1.26008e-06 -1.29247e-07 -1.33637e-07 -4.06007e-07 -1.25496e-06 -1.40941e-07 1.23766e-07 -1.51464e-07 1.39962e-08 1.24926e-09 -4.49169e-08 -8.54628e-08 -7.46499e-08 -7.18288e-08 -1.47905e-06 -2.01729e-06 -2.17057e-06 -8.87071e-07 -6.19937e-09 3.1308e-09 -2.00639e-06 3.70806e-09 -1.09812e-06 -2.8971e-06 -3.90501e-10 6.17064e-09 -2.3425e-07 -2.99496e-08 -1.72553e-06 -2.32491e-08 -2.24793e-06 8.21188e-07 -2.19861e-06 -1.84126e-06 3.31625e-10 -6.74419e-07 -9.18436e-07 -1.4108e-08 3.34638e-07 -5.80285e-07 1.07945e-06 1.13398e-06 -3.71239e-07 -8.34478e-08 -3.48831e-08 -5.66082e-08 1.58064e-08 5.18755e-08 3.52015e-07 -4.45441e-07 -1.49835e-06 -1.55616e-06 9.87867e-07 -1.83338e-07 -3.3904e-07 3.86327e-07 6.15452e-08 -1.80058e-07 5.8944e-08 -4.93185e-07 -1.86605e-06 -1.66161e-07 -5.41536e-08 -1.46026e-06 -5.87937e-07 -2.0692e-08 -8.28006e-09 -1.32312e-07 -3.26834e-07 1.10211e-08 -1.32235e-09 -1.17524e-08 -6.46329e-10 9.7686e-07 8.43252e-07 1.26843e-08 2.89723e-09 -2.04022e-07 -1.42859e-06 1.76497e-06 2.15885e-06 8.00315e-07 -1.2733e-06 -3.09694e-07 1.82242e-08 -4.36991e-07 -1.50805e-06 -3.83813e-07 1.03584e-08 -1.83908e-09 3.59224e-07 7.85882e-07 -2.12676e-06 1.7071e-06 -5.27322e-09 6.28813e-07 -2.8425e-09 8.78402e-09 -7.98319e-08 2.19393e-07 -5.63041e-11 -6.80535e-08 6.73836e-07 -4.36054e-07 -2.87612e-07 -2.96624e-07 -1.73885e-07 -2.30257e-11 -3.79843e-07 -2.11012e-06 8.46311e-09 -2.45926e-06 -2.91937e-06 -7.29462e-08 9.24997e-09 1.18338e-07 -9.27904e-07 4.50182e-07 -6.37968e-07 9.7187e-08 -3.14136e-07 -1.02806e-07 -4.88619e-07 -1.51489e-07 -1.35364e-07 -6.11218e-08 -8.00612e-08 -6.18165e-08 -9.72744e-09 -1.09501e-07 -2.18025e-08 1.51705e-08 1.79886e-08 -5.00549e-08 3.741e-09 -6.75094e-09 9.17895e-09 -1.22408e-07 -1.46275e-07 -8.45019e-07 1.46612e-07 -2.07406e-07 -1.40814e-07 -1.53002e-07 -4.04122e-07 8.69766e-08 -5.75126e-07 1.21596e-07 -4.10483e-07 -3.52861e-07 4.30349e-07 -2.50925e-06 4.97151e-10 -3.19614e-06 -1.35605e-06 1.62919e-07 -1.1664e-08 4.39424e-08 -1.69229e-10 -4.24367e-08 9.50952e-07 -3.41186e-07 -1.04288e-06 4.46716e-06 -1.65391e-07 1.73276e-08 -1.01629e-06 3.54923e-06 1.198e-06 6.5292e-07 1.21521e-06 4.49751e-07 2.34019e-06 7.20468e-07 1.50782e-06 3.42801e-06 1.4312e-06 -8.04555e-07 -1.59748e-07 -8.99363e-08 2.38264e-07 -7.90517e-07 3.61198e-07 -7.25222e-07 2.44206e-07 3.9116e-08 -1.64142e-06 -2.72946e-07 -1.18828e-06 -1.9293e-07 -2.8886e-07 1.64506e-07 -2.10539e-07 -1.88408e-07 7.49655e-08 -2.68829e-07 -1.83264e-06 -8.76479e-07 9.20756e-07 3.62378e-07 5.72102e-07 -5.64151e-07 -1.31746e-08 -6.22825e-07 -2.94691e-07 -8.51858e-09 7.03193e-07 7.19951e-08 -3.08133e-06 1.91111e-07 -2.63104e-06 -4.51592e-06 -7.74242e-08 -9.61612e-09 -1.30103e-07 -1.51068e-07 -1.0235e-07 -9.65818e-08 -1.32334e-07 1.15643e-05 2.4431e-06 4.7778e-11 4.82538e-11 1.29762e-10 -5.10251e-06 9.53488e-07 -1.32948e-06 5.15118e-06 2.44027e-06 -1.89394e-06 -1.20414e-07 4.26927e-07 2.25177e-06 -8.91876e-08 2.3787e-07 2.45043e-07 -2.37747e-07 -1.49134e-07 -2.73404e-07 -3.75643e-07 2.51911e-07 -4.01799e-09 8.25508e-09 -1.53867e-08 -1.61341e-10 -1.88026e-07 -9.50647e-09 7.24781e-06 -1.2172e-07 1.59278e-07 -1.61917e-08 -1.10841e-06 1.60119e-08 -4.56039e-09 -1.39434e-06 9.45096e-09 8.2948e-08 -1.6774e-06 4.37549e-08 4.02982e-07 7.23311e-08 -2.00784e-09 5.57016e-08 2.37546e-08 -3.29253e-08 -3.2024e-09 7.29867e-06 2.19595e-06 5.23011e-07 -1.30263e-08 1.74835e-08 1.94795e-07 6.22371e-08 7.03207e-08 2.13087e-07 3.98508e-07 6.40531e-07 1.72447e-06 7.64268e-07 -1.65582e-06 -5.13515e-06 -3.128e-06 -1.0744e-06 9.83007e-07 -1.15107e-07 -1.49784e-06 -1.31943e-06 -3.13945e-07 -7.80267e-08 1.74623e-06 2.16045e-06 4.62538e-07 2.12957e-06 1.80781e-06 1.49622e-07 -1.37288e-07 -2.15067e-06 -7.3284e-07 1.37001e-06 -2.44471e-06 4.31821e-10 2.69002e-07 4.33952e-07 -2.07552e-07 -1.44792e-07 -4.01802e-08 4.20915e-07 -9.55327e-07 -3.41238e-08 2.1221e-07 -3.59328e-08 -3.29344e-11 -1.34749e-11 -1.41859e-11 1.41235e-07 2.88103e-10 -1.1045e-07 -1.08154e-07 -5.56318e-08 -3.35194e-08 7.27889e-10 -5.88337e-08 -1.64193e-07 -1.69945e-06 2.44057e-07 -8.40363e-07 -1.12745e-06 2.13936e-07 -1.70748e-06 -2.20937e-11 -2.71496e-11 -4.83597e-07 1.17856e-11 1.2946e-11 1.59626e-06 -5.0082e-07 4.2633e-08 3.22849e-08 -1.82271e-06 9.27567e-09 -1.95985e-06 4.96878e-09 3.08831e-06 -6.14184e-07 -5.33094e-07 -4.31189e-07 9.26841e-08 -2.85747e-07 -1.68412e-08 1.77243e-08 3.02959e-08 -1.44844e-07 2.25458e-06 -7.33214e-07 -8.01166e-07 -2.79019e-07 1.40835e-08 -2.60022e-06 -6.57044e-07 -5.23834e-07 -5.66692e-07 7.08372e-07 -3.42158e-08 1.30653e-07 1.08899e-07 2.0365e-07 1.28959e-08 4.02655e-06 6.12162e-08 5.94597e-07 -1.61258e-06 6.42253e-08 -3.43658e-06 6.73402e-07 -4.44015e-07 1.89059e-06 -3.68518e-07 2.91013e-06 -7.90749e-08 -1.55803e-07 -4.30388e-07 5.05788e-08 -7.26771e-08 1.05779e-06 4.17231e-10 6.59498e-10 -1.21511e-07 3.46799e-06 7.90527e-09 6.10351e-08 -5.81389e-06 6.57147e-07 -5.49725e-08 -9.23738e-07 -5.92461e-07 4.73835e-08 -3.04713e-08 8.9061e-08 2.58342e-08 1.9708e-10 -1.36586e-07 -1.80613e-06 -5.22765e-06 -3.10036e-06 1.30193e-11 -2.26602e-07 -6.53937e-09 6.7236e-08 2.20077e-08 -1.10386e-07 3.72518e-07 4.04776e-08 -4.68771e-08 -7.95767e-07 -2.0137e-06 -3.70605e-06 -1.39727e-07 8.37716e-08 -7.68012e-08 1.51116e-07 -1.24073e-07 -2.70728e-07 -1.91417e-07 -5.22085e-08 -4.62237e-09 -6.06458e-08 -1.39214e-09 2.178e-09 -5.65996e-07 2.85814e-07 1.34398e-06 6.47108e-11 -2.92452e-06 3.00247e-08 -1.66685e-06 3.0279e-07 -1.21765e-06 -9.65223e-08 -8.21944e-08 -2.88872e-07 -6.46175e-07 -2.07309e-07 1.04787e-08 -1.34557e-08 2.55634e-06 2.71811e-06 -3.10814e-07 -2.35585e-07 -7.37581e-07 1.48415e-10 -1.13881e-07 -2.95402e-07 -6.94477e-08 -1.20453e-07 -2.59346e-06 -5.38645e-08 3.78854e-08 1.70892e-08 -2.68419e-07 -1.97111e-06 -2.50581e-09 -8.71591e-08 8.78039e-07 -4.3069e-07 -2.76327e-09 -2.55867e-11 1.07184e-07 -1.52079e-07 -5.21377e-08 6.83723e-07 -9.38083e-07 -4.14005e-07 -2.10559e-08 -6.78565e-07 -5.02007e-07 -8.07143e-07 -4.88544e-07 -1.49821e-06 -9.28494e-07 -6.6628e-07 1.32497e-08 -2.19467e-09 2.29509e-07 3.18374e-07 4.15947e-07 -3.17948e-07 6.83821e-08 1.41502e-07 1.96701e-11 2.27278e-07 -2.13389e-07 -2.14546e-07 -4.7758e-08 -1.717e-08 6.64912e-09 1.85022e-10 -3.21483e-09 -5.90824e-10 1.9811e-09 5.08173e-09 -2.26694e-07 1.31616e-09 8.48272e-10 -3.03499e-07 2.91091e-07 -3.39332e-07 -2.19774e-11 -1.35148e-06 -5.46006e-07 -7.12066e-08 -1.97235e-06 -2.56125e-06 -2.32137e-07 -4.32467e-11 -1.05221e-06 -1.00128e-11 -1.05941e-06 1.2982e-07 5.67204e-09 -6.9006e-09 8.60341e-10 1.01988e-06 -6.18301e-07 -3.03207e-08 -6.27766e-07 7.75427e-10 -1.31778e-06 7.57789e-07 -1.10488e-11 -2.29678e-08 -2.93282e-06 -4.8642e-12 -8.52104e-07 -5.58175e-07 9.69934e-07 -2.17309e-07 -3.29595e-08 -6.07826e-09 -8.12757e-08 -2.92928e-07 1.99526e-07 -3.78344e-07 -1.78353e-08 -2.53304e-08 2.30616e-06 3.8893e-07 -1.3538e-07 -1.91847e-07 -1.58949e-07 3.92436e-07 4.8507e-07 7.85082e-09 2.76559e-07 -1.47763e-08 -2.84099e-08 -2.82213e-08 -8.6201e-08 -1.11133e-07 2.53752e-09 -8.7768e-08 -3.63366e-07 1.69653e-11 -1.15486e-07 -1.97513e-07 7.58148e-12 -3.99117e-08 2.47414e-07 -1.22779e-07 8.76557e-08 1.45544e-07 -2.28789e-06 6.9888e-07 -3.22976e-07 1.71651e-06 -1.22718e-06 2.3303e-06 -3.3084e-08 4.03941e-10 -3.38006e-07 5.92384e-10 -1.07398e-06 -1.22109e-06 -7.80513e-08 6.24928e-06 -3.93787e-07 -1.50415e-06 -3.65141e-07 1.00212e-07 -1.01584e-06 2.44637e-08 1.73208e-06 -4.10747e-07 -7.05867e-08 1.05072e-07 -2.29528e-07 8.36149e-08 -1.78264e-07 1.43121e-07 -7.30269e-10 1.48708e-07 -1.48418e-08 6.428e-10 6.06389e-07 -1.26847e-07 -2.9871e-09 1.42186e-07 1.45135e-07 5.3194e-07 1.9177e-08 -9.2232e-08 -1.23007e-08 -8.52773e-07 -2.79048e-07 -1.19105e-08 -3.70471e-09 -1.47831e-08 -4.47271e-08 3.2449e-07 -2.70813e-11 4.89284e-07 6.30943e-11 1.17261e-06 5.97977e-08 5.11402e-08 -8.25136e-09 -3.57809e-07 -7.83015e-07 1.79631e-07 -5.62769e-07 -1.36449e-06 4.43842e-07 -6.30959e-08 -9.76682e-08 3.67905e-08 1.07105e-07 1.10979e-06 -2.43806e-07 -1.17681e-06 -2.88584e-07 4.06767e-07 2.08168e-07 -8.41291e-07 -7.5555e-07 1.98045e-07 7.54906e-07 2.03898e-07 -2.06992e-07 -5.52529e-07 6.41022e-08 -3.1646e-07 2.15759e-07 -5.81882e-07 -7.10289e-07 -5.83003e-07 -3.47768e-07 -4.06018e-07 3.43288e-07 1.60561e-08 -1.10645e-08 -8.26985e-08 -2.71238e-08 -7.27372e-07 -1.09661e-06 1.34489e-06 -2.60688e-07 -6.65727e-07 8.564e-07 9.68022e-10 -2.66542e-09 1.35471e-07 6.24298e-07 -4.89949e-07 -8.94811e-08 -3.28216e-08 -3.68253e-08 -1.25468e-07 5.32024e-08 4.84815e-07 2.20742e-06 5.11622e-06 5.42103e-06 3.99848e-06 2.98761e-06 3.83646e-07 -6.11851e-06 3.71282e-06 -5.61158e-08 -4.99257e-08 -2.24506e-07 -7.34315e-08 1.11995e-07 1.08423e-07 -5.49018e-08 9.7303e-09 -5.64523e-07 -6.48142e-08 -1.36708e-07 6.57997e-06 4.65543e-06 7.67092e-08 -6.04872e-07 -8.3111e-08 9.02727e-08 7.91117e-10 -4.29638e-08 -3.02547e-06 -7.04266e-08 5.13714e-06 -8.03088e-07 1.20999e-06 3.08098e-06 -3.00844e-06 1.67861e-06 -3.69654e-08 2.07139e-06 -2.2213e-07 -4.2215e-07 -2.76176e-07 -1.51096e-07 -2.81297e-08 9.39025e-07 -6.301e-08 -6.32213e-08 -1.72562e-07 3.42171e-07 -1.03423e-07 -1.02012e-07 1.08252e-07 5.5957e-07 1.70045e-06 -6.74705e-07 -4.25183e-08 4.02406e-08 2.05173e-08 -7.24079e-07 3.81968e-06 -5.10571e-07 1.202e-07 -6.64117e-08 -9.24994e-08 -3.86456e-07 -2.29501e-07 -4.09024e-06 9.96984e-07 5.76338e-08 -7.58564e-08 -6.24003e-08 -7.58037e-07 5.13102e-09 -4.10325e-08 -6.1425e-07 -8.1534e-07 -1.57691e-06 -1.15503e-06 1.89601e-09 -1.79207e-06 -4.95545e-07 1.41177e-06 -4.28417e-07 -7.38408e-07 9.2166e-07 -1.92327e-06 1.3612e-06 4.29572e-06 8.68187e-09 1.12101e-11 -3.56982e-06 -2.33734e-07 -3.84074e-06 -6.56613e-07 -3.19647e-06 -5.74621e-07 -6.09346e-09 -1.11159e-08 -3.20597e-09 2.16426e-07 -3.37125e-06 -9.62233e-08 1.52524e-07 1.16071e-06 1.57846e-06 1.58042e-08 -5.89682e-07 -3.10905e-07 4.34586e-09 -2.52095e-07 -2.25808e-07 -1.65312e-07 5.8767e-08 -2.10841e-08 -4.01639e-07 -1.42297e-06 -3.65329e-08 2.16403e-07 5.17184e-08 -5.1688e-08 2.36061e-07 -1.54102e-08 -3.21227e-07 5.95558e-07 6.0269e-08 1.6229e-07 -6.96768e-08 4.81693e-07 1.55102e-09 1.47503e-07 2.57666e-07 -5.46753e-08 -1.23303e-09 -4.71491e-07 -7.40713e-07 5.27615e-09 -1.2241e-07 1.42866e-07 -5.44392e-07 -9.89821e-07 2.93702e-07 -4.7971e-07 -6.55127e-07 -4.81726e-07 -1.88812e-08 3.5715e-07 -4.67748e-07 1.81932e-08 -8.63079e-08 2.35315e-07 1.31084e-07 -4.4973e-07 -2.11455e-07 2.621e-08 1.21435e-06 -6.23363e-07 -2.96824e-08 -6.15993e-07 3.33952e-08 -9.91035e-08 1.81079e-07 1.95846e-06 -5.08751e-07 -1.49078e-07 -4.25881e-07 1.37888e-08 -6.70671e-08 -3.41537e-07 -2.26256e-07 -4.31518e-07 3.39492e-07 -1.77131e-07 5.37936e-07 1.73897e-06 1.40982e-07 -2.58125e-06 5.62508e-07 8.87399e-08 -1.04135e-07 6.76264e-08 -2.60684e-06 -4.13287e-07 -3.65427e-07 -9.81261e-07 -8.57106e-07 -7.73732e-12 -2.90679e-07 -3.01363e-07 1.20665e-07 5.30503e-08 9.63158e-08 8.37339e-08 3.60037e-08 -4.92399e-10 -4.28162e-08 1.28362e-07 7.91001e-08 -1.95062e-06 -1.15871e-07 4.75076e-07 -1.81525e-06 -1.48032e-06 5.36602e-09 1.17938e-07 -1.19838e-06 6.12527e-07 -1.24346e-06 1.70432e-07 1.67602e-06 -3.50059e-08 -6.63752e-07 -5.93872e-08 1.79446e-07 -3.88899e-07 -2.15642e-07 -1.78054e-07 -4.58654e-07 -5.38319e-08 -6.3974e-07 -2.46367e-07 -6.34496e-08 -1.17491e-07 -1.92143e-09 7.63167e-09 6.13286e-08 -1.8055e-06 -2.75649e-08 1.19201e-06 1.21539e-06 -2.11275e-07 -6.00836e-08 -2.49269e-08 -7.74945e-07 -1.77871e-07 -7.69233e-08 -1.36048e-06 1.64573e-11 3.22497e-08 -1.42307e-06 -1.16589e-07 -9.54747e-07 3.4345e-06 -2.85655e-07 2.62099e-08 -8.04374e-08 -6.72671e-08 5.02993e-07 -1.57656e-07 1.26861e-07 -1.9509e-07 -4.48808e-07 -1.6177e-08 -1.36818e-06 -1.71146e-11 -3.2035e-06 3.1368e-07 -4.91587e-08 -4.28408e-08 4.46327e-08 -1.19459e-07 -3.08182e-07 -8.51202e-07 1.22612e-07 -6.5279e-09 1.83659e-06 -5.91634e-07 3.0415e-06 -7.68934e-08 3.38303e-07 2.05276e-07 -1.6191e-08 -1.56293e-06 -3.35796e-06 -1.78769e-06 -1.80637e-09 -5.10666e-07 3.66615e-07 1.02616e-11 -3.24667e-07 1.43789e-07 2.58503e-06 8.75464e-08 -1.77741e-06 -7.26917e-07 -2.47451e-08 9.42777e-08 1.09882e-07 -6.49413e-07 1.1646e-08 -9.70895e-08 6.07678e-09 3.03433e-07 -5.37945e-07 5.08361e-07 6.2637e-08 2.93061e-06 2.18622e-08 -1.77328e-07 -1.23023e-07 8.54326e-08 -5.7745e-08 -1.76464e-07 7.38616e-08 -4.52852e-07 -2.8094e-07 -3.86018e-07 6.28299e-07 -6.26914e-09 7.17072e-07 -3.58168e-07 1.71309e-06 5.30168e-06 4.85011e-06 -3.49483e-09 -5.0396e-07 -2.489e-08 -1.29006e-08 -3.4037e-07 -4.11576e-07 -2.27866e-06 2.79344e-07 -1.46286e-07 9.16841e-07 4.68762e-07 2.7903e-06 -2.46109e-07 -6.92648e-07 6.56792e-09 -1.61953e-07 -4.24474e-06 -1.92925e-06 1.21196e-07 1.18168e-07 -2.12796e-06 -1.05873e-07 -7.08452e-07 2.10488e-06 8.09862e-07 -6.90649e-07 6.45139e-06 2.53083e-06 1.68208e-06 -6.11484e-08 -1.27757e-07 8.78448e-07 -1.1903e-08 -2.90204e-07 -2.78584e-07 -4.11575e-08 -7.49823e-08 1.45371e-07 -1.13529e-10 -4.38073e-09 9.46059e-08 2.27964e-08 -4.96237e-08 9.69709e-07 -2.70348e-06 -2.31385e-07 -1.57781e-07 -6.52667e-07 2.24749e-07 4.19331e-08 -5.20425e-08 -2.60815e-07 -4.93336e-08 -1.56435e-08 -1.45714e-08 -1.01063e-07 -2.14698e-07 -9.79294e-07 -3.60002e-07 -1.80735e-06 -2.7002e-06 2.76605e-11 -5.8227e-07 -4.07482e-07 -8.32948e-07 -3.52897e-07 1.55719e-06 -9.2705e-07 -4.88152e-07 -4.13746e-07 -1.12145e-07 4.51994e-08 -7.58427e-08 8.05866e-09 -2.05842e-07 -8.04983e-08 -2.88298e-07 5.38104e-07 -1.00622e-06 -2.92348e-08 -1.54863e-07 -9.83136e-07 -5.46437e-08 -3.76701e-08 8.31828e-10 -5.82998e-08 -8.66856e-08 -1.09636e-08 -6.32095e-08 -1.1379e-08 -1.44576e-07 -1.38353e-11 -6.17883e-06 -2.3383e-06 -1.9447e-06 -8.1281e-07 -2.0822e-08 -1.14881e-07 -1.72018e-07 -1.35708e-07 -3.21815e-07 -1.4375e-07 -5.22262e-08 -2.60199e-07 -5.34039e-07 -2.0023e-07 -8.34814e-08 -1.50876e-06 9.75086e-08 -2.55072e-07 -8.96799e-08 -2.3654e-07 1.84857e-07 -2.11501e-08 7.95061e-08 -6.61386e-08 -4.86652e-07 -3.73375e-07 -2.59227e-06 9.30605e-08 -1.30168e-07 1.44419e-06 -5.74603e-07 2.00618e-06 -5.96989e-07 -3.03064e-08 -7.58794e-08 7.14407e-07 -1.46718e-07 -1.79863e-07 2.97278e-07 -2.98657e-08 -4.5438e-07 -2.63252e-11 2.52099e-06 1.73444e-07 -2.36549e-07 1.83856e-06 -6.5887e-07 -1.37519e-08 -1.41043e-07 -9.96093e-08 -1.36039e-07 -1.83926e-07 -1.13747e-06 -4.06873e-08 -1.25929e-08 -7.20399e-08 6.81096e-08 9.12722e-07 1.54206e-11 1.07655e-06 -7.42003e-07 -8.30261e-09 -3.34996e-08 -5.35251e-07 -8.32768e-07 2.9098e-07 1.39566e-07 -1.69338e-07 -1.56534e-06 1.03479e-08 -8.1972e-08 -7.66128e-07 7.46612e-09 2.67259e-09 -4.46086e-08 -9.00224e-09 4.23004e-08 -2.09125e-07 -6.57075e-07 -2.82966e-07 -2.68352e-07 -2.08832e-07 -2.48315e-07 -1.92147e-07 -1.21396e-08 3.16678e-09 -1.65393e-08 -1.50137e-08 -5.20704e-08 2.11575e-07 9.46213e-08 -1.37966e-06 -1.90025e-06 -1.90652e-08 6.35148e-08 -1.11846e-07 -7.01177e-07 9.46146e-07 1.11763e-06 -2.45829e-07 -1.20729e-06 -9.18083e-08 3.23632e-06 -2.33682e-06 9.88051e-07 1.12133e-06 -4.63037e-08 -5.4854e-07 1.29889e-06 -3.58296e-07 -3.11119e-06 -1.45752e-06 -1.00283e-06 2.34267e-07 -7.28666e-07 3.51873e-06 -3.06518e-07 -3.32386e-10 -5.5633e-07 2.82518e-07 -4.15597e-08 -2.1928e-08 -5.24952e-07 -3.94137e-07 -3.0214e-08 -2.55721e-07 -5.65336e-07 -5.06116e-07 -9.35688e-08 -1.86943e-06 8.4673e-07 -3.4133e-07 -1.04652e-06 -2.96281e-07 -2.10005e-07 -1.4796e-07 -2.03842e-08 -4.49349e-08 -1.60033e-07 -3.44091e-07 3.87159e-08 3.1036e-07 -5.85385e-08 1.52148e-07 -4.57349e-08 5.57213e-07 -8.69932e-08 -5.1659e-07 3.82732e-07 -6.0619e-08 -1.41386e-08 -2.77576e-06 7.30403e-07 -1.52585e-06 -2.65472e-07 -3.58979e-07 -5.49543e-09 1.46205e-07 -4.3904e-07 -1.32185e-06 1.12178e-08 2.82801e-07 -3.96598e-07 -8.09488e-08 -5.44241e-07 -4.60312e-07 6.83676e-07 -8.45613e-07 3.74893e-07 -1.02466e-12 2.10215e-06 -3.96016e-07 -4.12556e-07 -7.48347e-08 4.0568e-11 -8.68692e-07 5.03673e-08 -7.10451e-09 1.34306e-08 -9.83592e-07 -4.88391e-07 -2.30743e-07 -1.47421e-09 -2.30786e-07 -6.36969e-07 6.83221e-09 1.41656e-08 -5.33279e-07 -7.61954e-07 8.79035e-09 -1.92631e-07 1.82926e-06 7.67318e-07 3.52293e-06 -3.62472e-07 -5.70277e-12 -2.8939e-06 1.02159e-07 2.62134e-06 7.4499e-07 -4.91921e-08 2.31496e-06 9.50076e-08 -3.94216e-07 -1.39904e-06 -8.13524e-07 -3.97007e-07 7.80535e-06 4.49415e-09 3.09319e-08 -1.01193e-06 -1.25065e-06 4.01003e-08 6.7202e-08 4.08914e-08 -3.88639e-07 9.75218e-08 -5.52591e-07 -7.90354e-07 -1.12457e-07 -1.11459e-07 -1.16264e-07 1.06921e-06 1.04647e-06 9.18754e-07 -8.2467e-07 -1.12008e-06 2.20959e-09 -2.58491e-08 5.39915e-07 -1.1737e-09 8.00858e-09 -4.23576e-07 1.22965e-06 -6.63339e-07 8.91038e-07 1.0276e-06 4.56275e-07 -4.59718e-07 -4.36366e-07 2.3445e-07 1.56415e-07 -1.52627e-07 -5.39858e-07 -4.56693e-07 2.477e-06 1.66252e-08 -1.94317e-08 -4.90155e-08 -2.64684e-08 5.86126e-07 8.28001e-08 2.90535e-06 1.63581e-08 -1.20171e-07 -4.26381e-08 -9.06296e-08 -2.08918e-08 -6.37442e-07 -2.14378e-07 7.61413e-08 8.21553e-08 1.27412e-06 3.32501e-07 1.52997e-06 1.44957e-06 9.63469e-07 2.16714e-07 4.17788e-08 -2.03251e-07 -6.18513e-08 -3.95359e-07 7.41546e-08 -2.87241e-07 -9.93575e-07 -2.52403e-07 -1.9344e-07 -1.64622e-07 -3.13394e-08 -2.19436e-07 5.60028e-07 7.17105e-08 9.60895e-08 -1.4204e-07 4.88776e-08 1.29991e-07 -1.81731e-07 -6.72241e-08 -1.38745e-07 -5.47245e-07 -9.72825e-08 -2.04137e-08 4.28423e-07 2.54511e-07 -5.72884e-08 -2.80345e-07 -8.19686e-08 4.22669e-08 1.60763e-09 6.69915e-08 4.24148e-08 1.71479e-07 1.65224e-07 1.68791e-07 2.15574e-07 1.73101e-07 2.41072e-11 -1.14583e-08 1.29205e-07 1.92011e-07 -2.5641e-07 -2.96447e-08 2.93329e-07 -1.7444e-06 1.35781e-06 -2.77342e-07 -3.4553e-07 -3.11528e-06 -6.06558e-07 -4.57388e-06 6.00758e-07 -4.72099e-08 1.93088e-06 3.22535e-07 7.42992e-08 -1.24174e-07 1.16636e-07 2.76894e-08 2.60873e-07 2.33992e-06 4.73951e-07 1.65367e-06 -7.79696e-07 -2.84293e-07 -4.90303e-06 -7.71383e-07 1.5923e-06 -1.63213e-08 -1.53558e-07 2.92592e-07 -3.22876e-07 4.16902e-07 2.14041e-07 1.78877e-08 -4.779e-08 -1.56855e-08 -1.37435e-07 2.94806e-08 2.87391e-09 -2.15454e-08 5.67652e-08 -1.38871e-07 -1.66107e-08 -1.83589e-07 1.14552e-08 -1.50149e-07 7.57873e-09 -4.61862e-07 1.83427e-07 -4.3272e-08 -7.35316e-07 1.27828e-07 -5.10508e-08 -3.36231e-07 3.80507e-07 -5.9367e-07 -3.68344e-07 -2.42016e-07 -7.19979e-08 -2.26969e-07 -1.06017e-06 8.14776e-08 -2.97865e-08 -4.65298e-07 -3.90036e-07 -4.38579e-07 -2.27991e-07 -8.78358e-09 -6.61111e-07 -1.03343e-06 -4.99227e-07 -3.5615e-07 -7.14285e-07 -4.63849e-07 -7.35475e-08 6.48734e-08 7.3319e-08 3.1272e-06 -1.98749e-08 -1.60319e-07 -4.09587e-07 -6.23336e-07 -8.78204e-07 7.75035e-07 -5.63341e-07 -3.1527e-07 6.38516e-08 -5.54589e-07 -2.66243e-07 -1.23109e-08 -5.87522e-07 8.57801e-09 -1.94829e-07 -2.2323e-06 -1.70956e-06 -4.51177e-08 -4.06936e-08 8.26653e-08 -2.21596e-07 -3.66849e-08 -1.42597e-07 -3.26696e-07 -5.00254e-08 -2.65835e-08 -8.61743e-08 5.89551e-08 -3.9996e-08 -2.33846e-07 -5.62561e-07 2.31828e-08 -4.54608e-08 -6.21947e-08 -2.70753e-07 1.20983e-07 -4.01722e-07 -1.20833e-07 -8.45676e-07 -5.09623e-07 -5.75666e-07 -1.61696e-08 -4.47206e-08 -1.19741e-08 4.65959e-09 9.32198e-09 -6.13813e-08 5.01528e-08 1.7111e-07 1.59329e-06 4.67427e-07 1.60951e-07 2.48665e-07 -5.77215e-08 -8.0137e-07 -8.86479e-08 -1.3669e-07 -1.37329e-06 -9.07463e-07 -1.0507e-06 -6.34571e-08 2.78516e-07 -1.92006e-08 -3.32733e-07 -4.00022e-07 -2.22445e-06 -2.50689e-08 -8.88851e-08 6.41933e-08 7.92306e-08 7.36828e-07 5.36081e-07 -3.54205e-08 6.84232e-08 -2.30857e-08 3.74051e-08 1.28609e-09 4.15249e-06 -1.36394e-06 -9.96791e-08 2.82323e-07 -5.68882e-08 7.08176e-08 -9.92892e-09 -1.58782e-08 8.15273e-08 -2.02773e-07 -6.73536e-08 -4.5122e-08 -1.11179e-07 -2.1999e-09 -6.682e-08 -4.33767e-07 1.07501e-08 -6.62144e-07 -5.50553e-07 -3.31362e-06 1.98196e-08 8.68824e-09 -4.52201e-08 -5.63004e-06 4.75208e-11 -1.08847e-07 -2.72906e-08 2.93102e-07 7.36649e-07 3.613e-07 6.12411e-07 1.08616e-07 -1.10509e-06 5.4396e-07 -4.72228e-07 -4.10081e-08 -1.65119e-06 4.89123e-07 -2.91517e-06 -1.64234e-06 2.0636e-07 -6.00934e-08 5.82221e-08 -7.00833e-07 5.37112e-08 -3.38866e-07 -5.38165e-07 3.72819e-08 3.18837e-08 -1.68942e-08 6.94091e-08 -5.41066e-09 -1.55169e-07 2.79884e-08 6.73392e-09 -3.0443e-09 -1.87546e-09 -5.73729e-08 -2.55838e-07 -1.10798e-07 -4.35343e-07 -8.94242e-08 -1.03153e-07 -3.08305e-07 -1.48301e-07 -2.73741e-07 -1.057e-07 1.30157e-06 -1.46274e-07 -5.61692e-08 6.78122e-08 -3.51071e-07 6.98504e-08 -1.03641e-06 -2.02511e-06 -3.14995e-07 1.01374e-08 5.61019e-08 -2.90886e-07 1.923e-08 1.12171e-06 3.78285e-07 1.07365e-06 -1.02954e-07 -3.57455e-08 5.51931e-08 -1.27332e-07 5.63544e-07 -1.72411e-07 -1.80984e-07 -1.11873e-08 -2.07447e-07 5.41597e-07 -1.79708e-08 -8.4437e-07 2.60527e-07 -2.33195e-08 6.39447e-07 -5.65294e-08 2.88033e-08 -9.64671e-07 -2.03567e-07 2.85834e-07 6.2169e-08 -1.37741e-07 4.45008e-08 1.44412e-07 -2.6389e-07 -8.57394e-08 1.17042e-07 -3.56174e-08 4.08548e-09 7.22928e-07 3.99886e-09 -5.3623e-08 -2.84516e-07 3.07936e-08 5.09309e-09 -9.93512e-08 1.70005e-08 1.05477e-07 -1.82167e-08 -6.00262e-09 -2.74307e-08 -7.16674e-08 -2.40542e-07 -3.79376e-07 -6.64309e-07 3.73189e-07 2.60095e-07 -1.84799e-08 -5.97943e-09 2.38244e-06 -3.99782e-07 -7.66832e-07 -6.58357e-08 -8.17363e-08 -3.41292e-07 -7.79995e-08 5.49881e-07 1.49562e-07 5.04812e-07 1.79628e-07 4.94523e-07 3.26193e-07 -2.42397e-07 -3.59513e-07 -1.49597e-06 2.24307e-07 3.56256e-07 2.38217e-06 -1.30936e-06 -3.91444e-07 2.85396e-09 7.38276e-08 -9.29265e-08 -1.47234e-07 -9.74585e-08 1.89709e-07 -2.11577e-06 3.89078e-12 6.77094e-08 4.07437e-07 1.84645e-08 2.54014e-06 -1.52639e-06 -5.46717e-08 -7.51874e-07 -3.1715e-08 -9.53219e-08 2.31178e-09 8.06438e-14 -6.15786e-07 3.80239e-07 5.68003e-07 4.03856e-11 -7.49532e-07 1.98296e-07 -2.71127e-07 -2.53316e-07 -1.0712e-07 -1.78016e-07 5.35461e-06 4.60559e-06 1.2677e-06 7.87526e-07 -3.033e-07 -1.35252e-06 -5.17766e-09 -1.14049e-07 -1.84153e-07 8.89086e-08 1.1019e-07 4.46428e-07 -7.70261e-07 -3.03873e-07 -2.60161e-08 -5.10639e-07 -4.91856e-09 4.35502e-08 1.27359e-09 -1.4718e-07 -8.73196e-09 -4.29012e-07 -2.56387e-07 -2.2659e-06 -2.73777e-07 -9.01938e-08 -2.50413e-07 -2.15329e-07 -4.23899e-09 -8.18287e-09 -2.71601e-08 -1.02714e-07 1.14628e-07 -4.60357e-08 -2.69079e-09 -1.14022e-07 -3.17491e-07 3.50632e-08 -5.14086e-09 -4.40557e-07 3.39523e-07 -7.58619e-08 -2.50933e-08 -2.05934e-07 -8.25075e-08 -2.09408e-07 -7.85028e-07 -6.31627e-07 -4.42851e-07 -5.89052e-07 8.14196e-08 -1.09672e-07 -5.04326e-07 -1.02422e-06 -1.61986e-06 -3.77147e-07 -6.45186e-07 -9.30953e-07 2.84779e-07 -1.39296e-07 -2.00393e-08 -1.95004e-07 -1.02439e-08 -1.29675e-07 -1.86609e-07 -3.96107e-08 -2.97194e-08 -1.86485e-06 -1.77226e-07 -8.9384e-09 -4.65633e-08 -1.25829e-07 1.64904e-07 1.65033e-08 -6.44488e-07 -2.26675e-08 4.10183e-08 -1.12944e-08 -3.15175e-07 -8.27089e-08 -6.88331e-08 -2.34793e-08 -1.6179e-07 3.76148e-07 -1.14634e-06 -2.11437e-06 3.28848e-07 1.70325e-06 4.28906e-07 5.44853e-07 1.32893e-08 -4.75662e-07 -1.02616e-07 3.32497e-08 -6.78984e-07 1.09137e-07 -4.90989e-07 1.40631e-07 1.74076e-07 1.60642e-08 1.42219e-07 -2.22703e-06 -3.42605e-06 -1.00468e-06 -2.69579e-08 -3.4956e-10 -4.02844e-09 -1.06197e-07 -9.01451e-07 -4.72383e-07 -1.91352e-07 -1.19456e-07 -2.09623e-07 2.92762e-07 -3.30234e-07 -1.61808e-07 -4.21741e-07 -5.0186e-07 -1.75718e-06 4.84516e-07 -3.92863e-07 -2.38964e-07 -2.52285e-07 -7.37385e-08 -1.96993e-07 -3.19652e-08 -3.06736e-08 1.97872e-08 -6.24112e-07 -2.20859e-07 -5.15925e-07 -8.19496e-07 7.68414e-07 -3.48325e-08 -1.19396e-07 3.05533e-07 -2.00471e-08 -3.57655e-08 -2.58989e-07 -2.88698e-07 2.90941e-07 2.17698e-07 7.07885e-07 3.23986e-07 4.87695e-07 -2.04273e-07 8.83982e-08 -1.74103e-07 -4.63794e-08 5.19264e-06 -3.91859e-07 -1.76552e-06 -1.74255e-06 4.63942e-06 -3.1869e-08 1.15181e-06 1.08853e-07 -5.84202e-07 -1.66093e-06 -2.25735e-07 -6.6785e-09 -1.42814e-07 2.78633e-07 -1.90585e-07 -2.76558e-08 3.41145e-07 3.29008e-07 -6.59731e-09 2.23228e-07 6.0321e-07 -4.58052e-08 -1.54286e-08 -4.78617e-07 7.75677e-08 -2.63034e-07 4.57804e-07 -1.96846e-07 7.39206e-07 -1.32229e-08 -8.95678e-08 -5.6407e-07 -4.93883e-07 6.68334e-08 6.29731e-07 -4.83482e-08 -1.23647e-07 -2.22276e-08 -2.29833e-07 -8.00151e-07 3.09856e-07 -3.90616e-07 -3.05733e-07 4.2478e-08 -6.3604e-07 2.25054e-07 1.48029e-07 1.31437e-07 -8.57524e-07 4.69686e-07 7.64617e-09 4.96113e-09 1.12487e-07 -4.77391e-07 -3.65711e-07 1.25121e-07 -1.80648e-07 9.00967e-09 1.22896e-06 -1.56736e-07 -3.66664e-07 2.24431e-06 -2.49029e-06 -6.91808e-08 -2.89652e-09 -3.24121e-08 -8.71967e-08 1.72804e-06 3.21e-06 -1.55115e-07 -1.26407e-07 -1.47923e-08 1.99356e-10 -1.61422e-06 -5.96738e-07 1.22991e-07 -1.56162e-09 -1.88429e-07 1.45842e-07 9.87532e-09 3.29483e-08 -2.10508e-07 1.56677e-07 -3.36152e-08 5.11016e-07 -1.00422e-07 4.1414e-07 1.44595e-07 -2.68721e-07 -2.95923e-07 -7.35861e-07 -1.10754e-06 -2.03335e-08 4.77049e-09 1.1424e-08 1.65638e-08 1.46943e-08 5.35172e-07 5.05077e-07 -1.2567e-07 -3.21682e-08 -6.52165e-08 -3.43871e-08 -1.72528e-07 3.5871e-07 1.23259e-08 -2.60913e-07 -4.7329e-07 -1.06875e-07 -8.63064e-08 1.71207e-07 -2.842e-07 -1.08546e-07 -3.6115e-07 -1.39461e-07 -2.07722e-07 -4.30505e-08 -3.18511e-09 2.20207e-07 -2.2486e-07 2.51118e-06 -4.48722e-07 -8.4203e-08 -1.73292e-07 -1.29645e-07 1.35857e-07 -1.10868e-08 -4.5779e-07 -7.83032e-07 -4.59976e-08 -5.59226e-07 -7.08032e-07 6.07954e-07 -3.41825e-08 1.39761e-08 -1.37602e-07 1.36934e-07 -4.66335e-07 -7.1367e-07 -2.40103e-06 -3.43946e-06 -6.16833e-08 3.75923e-08 -2.16242e-07 -2.53578e-06 1.0837e-07 -1.37702e-06 -2.9983e-07 -4.20133e-08 6.23962e-07 1.40414e-07 -9.59602e-07 -2.82465e-08 2.96341e-08 -8.39986e-08 -6.12798e-07 -8.03119e-08 -1.45161e-08 2.77832e-08 2.07871e-08 -8.6314e-09 -8.48873e-07 -2.07041e-08 -7.0637e-07 -9.58949e-09 1.08255e-09 -1.33249e-10 3.16302e-06 1.48623e-06 4.21519e-07 1.6837e-06 8.80047e-08 -1.90912e-08 4.19162e-07 2.91444e-07 -8.73599e-08 -6.16036e-07 -3.29423e-07 -1.62957e-07 -5.30424e-08 -1.1557e-07 -2.63282e-07 -3.24481e-09 -2.86836e-07 8.9036e-07 3.36535e-08 -2.76721e-08 1.72977e-07 -7.29479e-07 -1.424e-07 3.06477e-08 5.47886e-08 1.53419e-07 -6.5776e-08 -5.11017e-07 -4.42814e-08 -4.22398e-07 -7.77746e-07 -1.02308e-06 1.93176e-07 8.18778e-07 -5.09835e-07 1.65466e-06 5.27316e-08 5.17237e-08 -1.9548e-09 -3.36251e-07 -1.21854e-06 1.46076e-07 1.03452e-06 -7.80299e-08 5.40743e-07 1.19186e-07 2.23904e-07 -3.30985e-07 7.43467e-08 5.19338e-07 -4.05424e-07 -1.63052e-07 -1.22643e-07 -2.68656e-08 -1.42716e-07 -1.02949e-06 -1.02691e-06 -1.2553e-07 -2.63225e-08 -1.42765e-08 -1.83169e-07 -9.07935e-08 -2.48868e-08 -3.6114e-08 2.81517e-08 2.66685e-06 7.85003e-08 -7.11327e-07 -4.56596e-06 3.00656e-07 -6.35835e-08 -6.75006e-08 2.67867e-07 -2.21438e-07 -3.18588e-07 -5.08754e-07 -1.49111e-06 2.87306e-11 -1.46949e-06 3.4752e-07 -5.82011e-09 2.89399e-07 1.61821e-06 6.27712e-07 1.50807e-06 1.86136e-06 1.09218e-06 1.80062e-06 -6.65666e-08 2.89916e-08 2.53967e-08 -8.94437e-07 5.44167e-07 -5.32456e-09 -7.18806e-07 2.24038e-07 2.29849e-07 7.75569e-08 -1.17583e-06 1.18325e-07 -2.78522e-08 -7.44515e-07 -3.41055e-07 -9.10769e-09 1.23919e-07 -5.2987e-07 -4.0476e-07 -2.24074e-06 -1.25111e-06 3.57676e-07 1.8279e-08 3.06752e-08 3.24086e-07 2.98979e-07 -5.62895e-08 -2.18173e-07 2.0032e-06 3.41785e-08 1.15698e-06 2.93958e-09 -1.09938e-07 -2.08128e-07 -1.76073e-07 -9.85429e-08 -4.04237e-07 -5.51316e-07 1.48478e-07 1.05661e-07 3.85975e-08 -1.42457e-08 1.18186e-07 -5.94761e-08 -4.62452e-08 -4.85614e-08 -3.27951e-08 2.57207e-07 -3.32107e-08 5.22696e-08 -7.68597e-09 2.22391e-07 1.27403e-07 -9.48018e-08 -7.99922e-08 3.36391e-07 3.46579e-07 1.07201e-07 -1.1187e-06 2.24566e-07 -1.22157e-08 -2.89876e-07 -9.78601e-12 8.69105e-12 -1.90719e-06 8.70712e-08 -1.64364e-07 -8.4585e-09 1.07209e-07 7.8408e-08 -1.84334e-07 5.94212e-08 -8.05265e-08 -8.31762e-09 7.20197e-08 -2.5397e-08 -1.79085e-08 -1.20185e-07 -2.66667e-07 -4.14767e-08 -2.60144e-08 -1.99863e-07 -6.35734e-07 -2.84043e-07 -4.88531e-07 7.73023e-07 -7.09422e-07 4.41287e-08 -3.74129e-07 2.91382e-07 -2.25706e-07 1.54463e-07 -7.47488e-07 -1.61885e-09 -7.91356e-09 -7.75448e-10 3.2685e-08 -3.66281e-07 1.35842e-07 5.68157e-08 -8.58412e-10 3.3368e-08 4.04246e-08 4.45463e-09 1.25425e-07 -2.44546e-08 -3.44381e-07 6.50272e-07 -7.55496e-07 -2.81209e-06 1.25752e-07 2.70205e-07 -1.56565e-07 2.89239e-08 4.21245e-08 -7.39805e-08 1.29226e-08 1.86323e-07 9.10908e-09 -2.09854e-07 1.79744e-08 -5.91816e-08 -6.98013e-07 2.78327e-08 -6.39499e-07 -9.73735e-08 2.68563e-07 1.1356e-07 -3.01579e-08 -1.24438e-07 -4.77401e-09 -1.40031e-08 -9.09494e-08 -1.6053e-07 2.18851e-09 7.33692e-07 -7.15142e-07 4.99384e-08 1.03498e-07 -1.87672e-08 -5.16949e-07 2.02734e-08 -1.69948e-07 1.31048e-07 8.44273e-08 1.9564e-07 1.62073e-07 2.86002e-07 1.6931e-07 -1.23666e-07 -2.2658e-07 -7.9342e-07 -3.57699e-07 -3.43705e-07 -1.56071e-07 -2.31698e-07 -5.93335e-07 -2.46963e-07 -5.21856e-09 -5.39685e-07 -1.51437e-08 -1.40613e-07 1.17592e-07 -2.87523e-07 -4.60516e-07 -6.85231e-08 -2.96115e-07 -4.66922e-07 -1.32393e-07 -1.66608e-09 4.7632e-08 -4.06742e-07 -1.18549e-07 1.18285e-09 -3.5722e-08 1.14437e-07 -2.27782e-07 -9.16634e-09 -8.01735e-07 -1.49201e-06 -1.646e-07 -1.23847e-07 1.84463e-07 -1.10233e-07 4.01481e-08 -7.44621e-08 4.07131e-10 -2.51846e-08 -2.12324e-07 -2.07401e-07 1.50897e-07 -4.35503e-08 -8.39981e-08 -1.52008e-08 2.531e-06 5.3959e-08 -1.75895e-08 3.92827e-07 1.40346e-06 -1.58434e-06 -7.94358e-08 -9.08224e-08 -7.72039e-07 -5.44311e-07 -1.44656e-07 -2.19972e-07 -3.77014e-07 -2.61371e-08 3.01673e-08 2.57615e-07 2.27486e-07 -3.4671e-08 -4.99647e-08 -1.67139e-07 2.8785e-09 -3.47858e-07 -2.80306e-07 -2.57124e-08 -1.87664e-07 -3.92937e-07 -2.96446e-07 -2.50285e-07 -8.05171e-07 -5.38776e-07 1.57956e-08 8.55986e-09 5.98064e-07 -1.24559e-07 6.60995e-09 -5.71787e-08 -3.06829e-10 -2.67707e-08 -5.15375e-07 -8.0346e-07 2.34778e-07 1.8845e-07 -1.2508e-07 1.40804e-07 -1.31892e-07 -1.19329e-07 9.83275e-08 -4.03835e-07 -2.05898e-07 1.69188e-06 -3.11674e-07 -1.89582e-06 -1.86192e-07 -1.84246e-06 -3.08062e-07 3.89501e-08 -1.59433e-07 1.17531e-07 2.40292e-07 -1.48668e-07 -1.30155e-07 7.07063e-07 2.0771e-09 -2.01656e-08 1.01946e-08 -4.65539e-07 -4.85642e-08 -5.03039e-08 7.93684e-07 1.02646e-06 -5.14344e-08 2.80452e-07 -4.68992e-07 9.27986e-08 -5.43669e-08 -5.07546e-07 -6.13052e-07 -2.21904e-07 -7.78404e-07 1.17604e-06 -4.5823e-07 -1.9119e-07 -2.10337e-07 1.25975e-07 -4.03118e-08 -1.35439e-07 -1.30787e-09 -1.18368e-08 -8.06197e-09 -1.69086e-08 -7.73913e-09 -1.52531e-08 -1.05048e-07 -6.74128e-07 -5.94814e-07 -2.73883e-07 -1.02952e-07 -1.22435e-07 -2.37819e-08 2.98719e-07 -2.07701e-07 -6.43648e-08 -2.12024e-07 3.39206e-07 -3.13572e-07 -1.70517e-09 -1.59135e-07 1.2421e-07 -2.99605e-07 -1.14988e-08 -7.75058e-08 1.07701e-07 9.7123e-08 1.29161e-07 -2.78146e-07 -1.28752e-06 -1.47077e-08 -2.5165e-07 -3.11304e-07 -6.68058e-08 -1.11892e-06 -7.12712e-07 -1.76314e-07 -2.82593e-10 -4.61141e-07 -4.5482e-07 1.01921e-08 -3.80875e-07 -1.08411e-08 -1.94364e-06 -7.40999e-08 8.70304e-08 -4.33629e-07 -1.14946e-08 -8.73074e-07 -2.30733e-08 -2.9748e-08 -4.29782e-08 -4.59169e-08 1.23648e-08 -1.60705e-07 3.31175e-08 -5.57997e-08 -1.23582e-06 -1.25512e-07 -4.92317e-07 -6.65976e-08 -4.19442e-08 -1.26941e-08 -3.36802e-08 -5.22761e-07 -1.38808e-06 6.41753e-08 1.69654e-07 -9.08925e-07 -4.22209e-07 -1.02534e-07 -2.43129e-07 2.27351e-08 -4.03873e-07 -2.47562e-08 -2.66229e-06 -1.65661e-07 1.57738e-07 -1.24055e-06 -4.95106e-08 8.82468e-09 -1.67132e-08 3.659e-08 4.62408e-08 -2.77193e-08 1.21551e-07 -7.94534e-08 4.83548e-06 -9.01e-08 -2.01081e-07 6.01751e-07 -1.96112e-06 4.22911e-08 2.18724e-08 -1.14264e-07 1.2881e-08 -8.21705e-08 -3.35718e-08 -2.51458e-07 -2.27452e-07 5.83319e-07 1.02272e-07 1.63333e-07 -5.85042e-07 1.67026e-07 -9.07593e-07 -2.03651e-07 -1.57566e-07 1.11375e-07 8.22856e-07 -6.26052e-08 -1.66995e-07 1.51537e-07 -9.1526e-07 9.88194e-08 -5.57824e-07 -3.76622e-07 -5.53606e-07 -4.52215e-07 -4.03693e-08 -9.57419e-08 -3.16541e-07 -4.46498e-08 6.84856e-07 1.90097e-07 -1.16133e-07 -2.97902e-11 -2.14717e-07 -2.39779e-07 1.64195e-08 4.02913e-08 4.52804e-07 2.20055e-08 -3.3834e-06 -1.54534e-06 9.09029e-07 -3.77135e-09 7.64377e-07 6.9319e-08 -4.92407e-07 -5.34276e-07 -3.51751e-08 1.7991e-07 9.06502e-07 -1.8445e-07 2.6264e-07 -2.44494e-08 -7.0823e-07 -1.60044e-07 6.10213e-09 -1.93776e-08 -2.50278e-07 4.22747e-07 -3.59994e-07 -1.87919e-08 -3.42374e-07 1.19184e-07 -2.06078e-08 -1.7731e-07 -1.82203e-07 4.87093e-07 8.66977e-08 6.05856e-07 2.84395e-09 -3.76965e-07 7.80346e-08 -4.92804e-07 -2.27831e-06 -7.0535e-07 3.16594e-06 -3.69508e-06 -1.44887e-06 -5.39046e-08 -1.46266e-07 4.54608e-08 -9.427e-08 1.12167e-06 -2.32075e-07 7.45392e-08 -1.28201e-08 -8.8473e-09 -1.63218e-08 2.60439e-07 -3.90549e-08 -3.09673e-08 -1.64873e-08 3.35169e-08 -1.58148e-07 2.2086e-08 -7.353e-07 -1.25797e-07 1.92737e-06 3.06962e-06 8.36172e-07 4.67587e-07 1.14939e-06 1.50098e-08 1.80065e-08 6.65993e-08 2.85108e-08 -8.03329e-08 -3.31187e-09 2.25937e-07 2.45889e-07 -2.13161e-08 -2.47467e-07 -9.83165e-08 -3.92728e-07 -1.82446e-07 -3.79796e-07 2.29817e-07 -8.87935e-07 3.67024e-12 1.48356e-06 5.02787e-07 3.75641e-06 1.47706e-06 -8.20036e-07 1.91069e-06 -1.09369e-07 5.25325e-11 -2.10312e-07 1.51783e-07 3.39904e-07 -7.37542e-07 8.4617e-08 -3.45675e-09 1.51311e-07 -5.01589e-08 7.77708e-11 2.06289e-07 -1.20634e-10 2.74123e-09 -4.0232e-07 -7.89287e-09 -1.13011e-07 3.72262e-09 -4.94609e-07 2.72736e-07 2.20859e-08 -4.97546e-12 6.29982e-08 3.47485e-06 -9.93176e-07 -6.20681e-07 4.40042e-09 1.35389e-08 1.10183e-07 4.96814e-08 1.50175e-07 -3.79699e-07 -5.99639e-08 -4.45142e-07 9.35165e-08 1.92602e-06 -6.37554e-07 -3.75497e-06 2.74094e-06 4.11682e-07 -1.02819e-06 2.61614e-07 3.38596e-09 4.79769e-08 1.85128e-07 -2.67943e-07 1.56381e-07 1.06323e-07 -4.18567e-09 -1.65825e-07 1.28795e-07 -2.13734e-07 -6.61179e-07 -1.97906e-06 1.09199e-08 3.0687e-08 -8.6949e-08 -1.72119e-07 -5.00776e-08 -2.49425e-08 -2.18279e-07 -2.99759e-06 -2.09512e-08 -8.97518e-08 -1.07944e-06 2.27458e-07 -2.56146e-06 1.77638e-07 2.54724e-08 -7.94817e-07 -1.6737e-06 9.36565e-07 1.55257e-07 6.11909e-08 -3.95032e-08 -1.61451e-06 -4.07262e-08 -3.91522e-06 -6.21958e-07 1.21181e-06 2.33783e-06 -2.50064e-08 -4.62488e-07 -2.84756e-07 -1.08719e-06 -5.14464e-07 -1.86125e-07 -1.04513e-06 -9.59563e-07 8.3706e-08 5.43487e-08 -4.65827e-07 -2.94697e-08 -3.69658e-07 -2.72517e-07 3.82233e-08 -1.64233e-07 -1.80856e-06 7.10182e-08 2.62514e-07 -2.40057e-07 -3.99883e-07 -1.89e-07 -1.6537e-06 9.17159e-08 -3.59875e-07 -4.56701e-08 -1.20362e-06 -1.42311e-08 -4.88179e-08 4.13461e-08 5.948e-06 4.62621e-06 -1.80286e-06 -6.62134e-07 -1.35927e-06 5.79314e-08 2.27243e-07 1.20386e-07 8.258e-08 -3.29005e-07 -3.36282e-07 1.76589e-06 -4.39272e-07 -3.73883e-08 2.97558e-08 1.30247e-07 9.42016e-08 -2.07693e-06 -2.85505e-06 -1.5008e-08 1.50386e-06 2.81403e-07 -8.54955e-07 -1.98762e-06 -7.51228e-07 -2.19564e-07 -8.67783e-07 -3.25953e-06 -2.00018e-06 -6.56882e-07 -5.65585e-07 7.44897e-08 3.09532e-08 3.30895e-07 -2.06683e-07 -1.13193e-06 -2.84031e-07 -3.86211e-07 -3.81394e-08 -4.47115e-07 -4.90964e-07 2.50962e-07 4.0326e-08 3.91617e-08 -3.8064e-06 -7.27637e-08 -1.60134e-09 2.55062e-06 3.15532e-06 -3.92448e-08 -3.50255e-10 -4.10319e-08 2.15989e-06 -2.10769e-06 -1.89675e-06 -5.82794e-07 -2.43381e-07 -1.42409e-06 -1.80874e-06 -1.27759e-07 -1.03139e-07 -2.57583e-08 7.36359e-07 4.81806e-06 -1.90764e-06 1.36578e-06 8.40132e-07 9.82632e-08 -6.00765e-07 -5.73593e-07 1.37655e-08 -9.44407e-08 -1.42016e-07 -2.20788e-08 -3.92363e-08 -1.17397e-08 3.55315e-07 -7.60312e-07 -4.01628e-07 -2.31653e-07 -3.31057e-07 6.26735e-07 -6.024e-08 -1.58451e-07 1.56357e-09 -7.27877e-07 -1.78269e-08 -2.6863e-07 2.91127e-07 -2.09285e-08 1.57608e-07 1.98572e-07 -4.41376e-08 -2.38435e-07 -4.16285e-08 -5.67114e-07 8.97498e-08 -2.20002e-07 -5.37085e-07 7.09118e-07 5.63241e-07 1.69343e-07 -1.81505e-08 1.76952e-06 -5.66068e-08 -3.51167e-08 4.17709e-07 -1.12003e-07 -1.01029e-07 -4.41937e-07 -4.05491e-07 -5.41532e-07 -1.03043e-06 -1.38356e-07 -5.66146e-07 -2.58053e-09 5.3898e-07 -4.2839e-07 -1.03762e-07 -2.84932e-08 -1.73156e-07 -6.39546e-07 -1.8216e-07 1.0571e-07 -2.20247e-08 -1.21444e-07 -1.33276e-07 -1.64235e-07 1.20455e-07 8.65568e-08 1.41735e-07 -3.40447e-08 -7.66615e-07 -2.28554e-08 -1.29467e-07 -2.53516e-08 -3.6708e-08 -2.83103e-08 -2.88751e-06 -4.69652e-08 -6.26574e-08 -6.53754e-09 5.50193e-08 -1.10003e-09 -1.7836e-07 -4.6476e-08 -1.06423e-08 1.53241e-06 -6.3384e-07 4.13222e-08 5.38536e-07 -1.91589e-06 -1.95769e-07 -8.76459e-08 -6.8445e-07 -3.45027e-08 -2.06812e-07 -1.9224e-07 -2.34239e-07 -1.03117e-07 -2.49343e-07 -1.14298e-11 -2.3189e-11 -1.50046e-06 -3.54132e-06 -1.07825e-07 1.0024e-08 -8.24036e-07 -5.07648e-07 -2.91233e-07 9.3132e-08 -1.99154e-07 -2.03056e-07 -1.46168e-07 -5.86692e-07 -1.33643e-06 -4.78536e-06 -8.87691e-12 1.17346e-11 -2.40397e-07 2.71949e-07 -3.54579e-07 -1.56197e-07 3.76434e-07 2.94368e-06 -6.19411e-07 -2.15746e-07 -2.42222e-07 -1.6561e-07 -5.74695e-09 -8.29011e-07 -2.26469e-08 1.72113e-09 -4.58121e-07 -7.68032e-08 -1.75569e-09 1.76903e-08 -3.16565e-07 -1.95611e-07 5.11877e-07 1.93828e-07 -1.6809e-06 1.97697e-08 -1.38224e-06 -7.20048e-08 -8.4241e-08 3.28448e-08 -1.00055e-07 -7.52323e-07 -3.87987e-07 -7.73739e-07 1.19075e-07 -6.60371e-07 -5.24121e-08 3.56179e-08 5.09549e-08 -9.89379e-08 -6.30654e-09 8.30639e-08 -3.43055e-07 9.55533e-08 1.19745e-07 -1.49262e-08 -8.07064e-07 -5.88874e-07 -4.03812e-07 -5.53558e-07 -1.93053e-07 -6.16308e-09 5.19327e-07 -5.5493e-07 -1.55788e-07 -6.2566e-08 3.03419e-07 -8.98296e-08 1.16502e-08 1.68697e-07 -2.26164e-06 -5.4834e-08 3.09188e-07 1.16552e-07 -3.66567e-07 -1.65567e-08 -2.93788e-07 -9.01483e-08 -1.6094e-07 1.19511e-07 -9.87058e-08 -2.02168e-07 -3.14934e-08 4.99228e-07 -1.37804e-08 -2.73282e-07 1.37813e-08 3.22246e-08 -2.42125e-08 -2.16875e-08 5.04315e-09 4.04496e-07 3.01482e-08 2.92505e-07 -1.91234e-07 -2.1651e-07 -9.38734e-08 -9.78773e-08 -3.42359e-07 -1.75424e-07 6.85246e-07 -6.33537e-08 -9.86977e-08 -3.97836e-07 8.03003e-07 -9.61579e-07 -6.40419e-07 3.00201e-08 -4.33059e-08 -3.6225e-07 -6.82772e-07 8.28285e-08 6.09245e-09 -9.24718e-09 -9.0475e-08 -7.58241e-08 -3.93984e-08 3.53779e-07 5.97574e-08 -1.56826e-07 6.1479e-08 -2.55201e-08 -3.31844e-08 3.64819e-07 -9.95424e-08 -6.64538e-08 -2.05036e-08 2.40212e-07 -4.78145e-08 -9.28346e-08 2.92881e-09 -1.10157e-08 -1.66746e-07 -3.44976e-07 -1.59849e-06 -3.72279e-08 -8.43244e-08 -1.14351e-07 -1.65569e-07 -1.85137e-07 -1.30419e-07 -4.51497e-07 -1.25071e-06 -3.82e-07 -4.64523e-07 -5.10878e-07 -3.65489e-07 -5.18733e-07 -2.38299e-08 -1.05162e-08 4.77931e-07 -1.8462e-07 -4.80566e-07 6.37875e-08 -6.26182e-08 -3.37584e-07 9.79298e-09 -4.58413e-08 -2.76897e-08 3.50483e-07 4.76522e-07 -4.58297e-08 3.71865e-09 5.94031e-07 4.93881e-08 -9.9066e-08 -1.2538e-06 -9.59718e-07 3.54459e-07 -2.6629e-06 -1.59334e-06 6.43803e-08 -3.13565e-06 6.83775e-07 -5.3401e-07 -3.83816e-07 3.61123e-09 -5.63918e-08 1.16282e-07 -2.67322e-08 -1.10602e-07 -3.4256e-07 2.69645e-07 -2.21367e-07 9.53539e-08 -3.40702e-08 -9.75022e-09 1.01165e-07 -7.83161e-07 -2.35709e-08 -3.86991e-07 4.12532e-07 -1.99574e-08 2.40828e-08 -2.04278e-09 -2.23503e-07 1.01752e-07 3.97762e-08 -1.49176e-06 -4.90641e-07 -2.09892e-06 -8.48163e-07 -2.05224e-06 -7.55714e-08 1.15042e-07 5.38741e-07 -2.71577e-07 -2.04685e-07 -1.39837e-07 4.07785e-07 -1.91399e-07 -6.80632e-08 1.03742e-08 -1.407e-07 -8.60383e-08 -2.45876e-07 3.61146e-07 2.42408e-07 -3.1243e-07 5.39702e-07 -5.83394e-07 1.94543e-07 3.60591e-08 -8.64605e-10 -8.35659e-07 1.60166e-06 -3.19411e-07 -5.35277e-07 -4.68294e-08 1.14337e-06 -2.09845e-07 -5.30299e-07 -5.16956e-07 -1.37354e-07 -1.52121e-08 -5.73309e-08 -5.45176e-07 -6.26415e-08 -6.65281e-08 -1.33688e-08 -7.10072e-07 -2.10909e-08 -2.29494e-06 -5.55897e-08 -4.99783e-08 3.12521e-07 1.87387e-07 1.78713e-08 -2.71463e-08 -3.2602e-06 4.98825e-06 -6.04302e-07 -2.89222e-07 -5.827e-07 -4.8939e-06 -1.11927e-06 -4.76092e-07 -4.00612e-07 -8.37492e-07 -4.53359e-07 -5.07473e-08 -2.08677e-07 2.18704e-08 -4.89594e-07 -1.82009e-07 2.76873e-08 -1.20782e-06 -1.48623e-07 7.82397e-08 -8.12876e-08 8.73627e-08 -1.71303e-07 4.53907e-08 3.85299e-07 3.73295e-08 2.75196e-08 -3.2793e-07 -1.40194e-07 -1.19262e-07 4.711e-08 -1.70491e-08 -3.3922e-07 4.27374e-08 2.42625e-07 -2.95387e-08 -2.38649e-08 -3.76691e-08 -3.4832e-08 -9.33744e-08 -1.83321e-08 -9.98486e-07 6.60751e-09 -1.19247e-07 -6.19899e-08 2.45451e-08 8.91967e-09 4.36044e-08 5.93468e-09 1.12784e-09 -5.48984e-07 -1.29675e-08 1.44172e-07 -2.36066e-07 7.81952e-11 -1.79585e-08 -2.61829e-08 1.95198e-07 -2.4731e-07 2.13957e-06 -3.61758e-07 -1.89147e-06 -4.19275e-06 -3.79098e-12 1.2682e-07 -3.40982e-07 -1.28649e-08 -2.52221e-07 2.05734e-07 2.67331e-07 4.60604e-07 3.36307e-08 3.43284e-07 1.30686e-08 -1.20185e-07 -8.78344e-08 -3.84822e-08 -3.92702e-08 3.35123e-07 9.44262e-09 -1.55377e-08 5.4891e-09 -1.4758e-07 1.19615e-08 -1.08388e-07 4.63359e-08 5.09156e-08 -1.84624e-07 4.07367e-13 -1.57357e-07 -1.52606e-07 2.72199e-11 -7.31793e-11 3.49881e-11 -4.26497e-07 -3.20198e-07 5.40538e-07 -2.15931e-11 -1.44508e-06 7.95477e-07 -3.1113e-06 -3.91429e-08 -1.03032e-07 -1.78425e-06 -8.18366e-07 -9.93176e-07 2.12416e-07 1.25241e-07 -1.86274e-07 9.84937e-12 -8.16116e-07 -3.74049e-07 -2.81684e-08 -3.76443e-09 -9.44266e-07 8.76697e-08 1.13469e-08 7.52299e-09 -3.49299e-07 -2.732e-07 -5.19746e-07 -4.37081e-07 -1.76652e-07 -2.59397e-07 -2.59726e-07 -5.22552e-07 6.616e-07 -1.82555e-06 7.36528e-07 9.68415e-10 -7.19322e-08 -5.79618e-07 -3.18732e-07 -3.09157e-08 -2.77626e-08 3.73475e-08 2.16153e-07 2.39623e-07 1.54014e-09 -2.88952e-07 -2.0393e-07 1.20047e-06 -3.56558e-09 8.99797e-07 -2.4166e-08 -4.28112e-08 -5.49061e-09 -6.62503e-07 3.04631e-08 4.45877e-07 4.14976e-09 3.53512e-07 7.64141e-07 1.97151e-07 -4.31169e-09 4.52483e-08 4.49935e-07 3.10093e-07 5.27381e-07 -2.08436e-07 7.34604e-07 -2.70703e-08 1.35469e-07 2.13127e-07 -1.4674e-06 -1.30172e-06 2.16764e-06 1.84186e-06 2.56086e-06 2.20795e-06 6.53353e-07 -1.28886e-06 3.29804e-08 5.71018e-08 2.38071e-07 -4.09687e-07 -1.97466e-07 -2.18917e-07 -9.12993e-08 -6.99776e-08 -5.258e-08 2.42172e-07 2.04165e-08 -9.18959e-08 9.10835e-07 1.57154e-11 -3.43116e-06 -1.3246e-08 -1.49576e-07 -1.26962e-07 -2.34225e-06 -8.3251e-12 1.06948e-07 -8.0187e-07 -3.77723e-08 4.39755e-08 -1.80391e-07 -1.08696e-07 -1.08529e-07 6.08441e-07 1.13685e-07 -2.35517e-07 7.98938e-09 -1.75744e-08 -9.70114e-09 -2.94029e-07 1.04655e-07 9.32321e-09 6.97216e-08 6.76372e-08 4.58337e-07 2.28504e-08 2.27233e-09 5.62606e-08 1.65329e-08 -5.86876e-07 1.97695e-08 -4.42906e-07 -1.44734e-07 -9.90466e-07 1.35302e-06 -1.93503e-07 -5.96618e-07 -3.05519e-07 -5.31479e-07 9.17147e-08 3.84952e-07 -1.34135e-06 -2.61244e-06 -5.39434e-12 1.51877e-08 -2.75984e-06 -9.63866e-08 -2.23968e-07 -3.53221e-07 -2.36166e-07 1.22646e-07 -1.20328e-06 -2.47787e-07 -2.53793e-07 -2.45937e-07 -6.3662e-07 -6.08969e-07 9.66359e-08 -7.72305e-07 -2.69193e-07 -1.27437e-06 -5.44719e-07 -1.15439e-06 -3.37158e-06 -1.26037e-07 -1.63333e-08 1.13643e-07 4.71681e-07 1.52648e-08 -5.10807e-08 -9.19607e-08 -9.02449e-09 -1.53254e-08 -2.30675e-08 -1.98689e-08 -1.42133e-07 1.37817e-07 -1.65538e-06 5.37136e-07 -9.08949e-09 -7.23507e-08 -1.11372e-07 2.97681e-07 -1.17965e-07 -8.73093e-08 1.71165e-07 -1.37269e-08 -5.91784e-07 -6.68745e-07 3.27256e-09 -5.56938e-07 -1.98633e-07 -5.11264e-08 -1.62643e-07 -9.05616e-07 -1.1344e-07 1.87288e-08 9.1859e-08 3.25715e-07 -1.74801e-07 1.58063e-07 2.74997e-09 4.97206e-11 2.6271e-07 -2.9338e-08 -1.04456e-06 -5.08062e-07 1.46615e-07 -9.94137e-10 -5.76724e-08 -1.85446e-08 4.6635e-07 2.19984e-08 -9.02496e-08 7.84429e-08 -5.00542e-07 -2.17097e-08 -7.01588e-08 -9.46972e-09 -1.27453e-07 -5.71765e-07 -4.02054e-07 -7.96571e-07 -1.11771e-06 4.48556e-08 -2.86409e-06 -6.69887e-08 -1.6367e-07 -8.48019e-08 -6.94913e-07 -5.08026e-08 -4.4421e-07 -6.82453e-07 -1.55365e-07 -5.65652e-08 -4.24038e-07 -9.9957e-08 -4.19181e-07 -4.44227e-08 -2.67744e-07 -4.12898e-07 -6.91433e-07 7.3624e-08 1.31453e-07 -7.47852e-08 1.10989e-07 -1.28747e-07 6.34706e-09 -1.56602e-08 -1.8605e-07 -4.50141e-07 9.58876e-07 -4.20729e-07 -5.06426e-07 6.23325e-07 -4.9968e-07 -1.85838e-07 2.72854e-07 5.78274e-07 -1.09636e-06 1.00386e-06 1.38921e-06 -1.34065e-06 1.77582e-06 -1.61732e-06 1.3451e-07 3.59782e-07 8.66471e-08 -7.32813e-07 -1.76799e-07 -2.62166e-08 -3.32156e-08 -2.63266e-09 -3.1179e-07 1.50428e-07 -9.31537e-08 -9.75745e-08 -1.72539e-08 -2.45718e-08 -2.56887e-08 6.67855e-08 7.07474e-08 -1.77758e-07 -4.3073e-07 -4.98586e-07 -2.82206e-07 -9.1695e-08 -6.23545e-07 -4.30269e-08 -1.45382e-06 4.79518e-07 -1.95474e-08 1.42107e-06 4.0279e-07 -2.72288e-08 -7.79687e-07 -6.5799e-09 2.02329e-07 1.31634e-07 -3.58009e-06 -1.33601e-06 4.16931e-08 -2.2424e-07 -2.4847e-07 -2.35861e-07 2.98854e-07 3.23538e-08 -3.48726e-07 -3.18103e-07 -1.81804e-07 -2.05309e-07 -6.56835e-07 -4.60119e-08 -8.34105e-07 -1.4076e-08 7.46439e-08 -7.83377e-08 5.23889e-09 -3.91976e-07 -6.28311e-09 -2.59507e-07 -3.05796e-07 3.10353e-07 -2.56969e-07 3.52622e-07 -1.99835e-08 -8.51665e-08 -5.27513e-08 5.72891e-08 -7.57344e-08 1.04636e-07 1.4209e-07 8.46235e-08 -1.8054e-07 -3.96085e-07 6.67987e-09 -9.96206e-09 -2.2781e-08 3.18999e-09 5.39261e-07 -2.17439e-08 -1.18097e-08 -4.48469e-07 2.38986e-07 -1.54244e-06 1.31193e-07 -1.59731e-07 -2.05906e-07 -1.61288e-07 -5.43293e-08 7.991e-09 -9.74725e-09 -1.64451e-07 -4.5513e-08 1.52523e-07 -4.89791e-07 -1.51845e-07 -2.81553e-07 -1.95803e-07 8.19677e-09 6.48843e-08 1.0355e-07 -6.76657e-07 2.19562e-07 -6.74946e-08 1.72058e-08 4.63208e-07 -1.45626e-07 -1.05115e-06 -2.80658e-07 2.31116e-07 5.10819e-07 -2.49754e-08 -6.56622e-08 -1.64694e-08 -9.86034e-08 -7.72309e-08 -2.9512e-08 -1.7636e-08 -8.00452e-08 -2.45928e-07 -2.38775e-08 3.7046e-08 -8.13916e-08 5.82938e-09 1.13478e-07 -2.28679e-08 -3.72256e-08 4.69557e-08 -1.57476e-08 7.23379e-09 -3.98488e-09 -1.6638e-07 5.66264e-09 4.94863e-08 3.29172e-09 -3.30026e-08 -8.47836e-08 -1.48557e-07 -5.69289e-08 -1.48954e-09 -1.26013e-08 3.72809e-09 6.14294e-09 8.73035e-08 -1.23015e-07 -3.94481e-07 9.35931e-09 -5.7758e-08 -6.91391e-07 -3.72735e-07 -1.40804e-07 -3.77499e-08 -2.74026e-07 1.40312e-07 -1.70292e-07 -2.95475e-07 -1.1871e-09 1.05134e-08 -2.49398e-08 -1.98054e-08 8.75815e-08 -6.19336e-08 -3.558e-08 -9.40558e-07 -1.51477e-08 9.73097e-07 1.88921e-07 7.46683e-08 -1.40585e-07 1.04101e-06 1.87322e-06 -5.07471e-07 4.20847e-06 -1.16546e-06 1.71886e-07 3.31445e-08 -1.85581e-07 -3.38511e-07 -2.30189e-07 7.96808e-08 -3.03068e-07 -3.88629e-07 -2.1845e-07 -2.13949e-07 -6.94464e-08 -2.30155e-07 -9.33747e-07 -1.45206e-06 5.37987e-13 -5.40373e-07 -4.22481e-07 -6.85166e-07 -3.57676e-07 -2.16771e-07 -3.83357e-07 -2.28641e-07 -3.08682e-07 -2.87469e-08 -5.67885e-07 -8.938e-08 -4.67264e-07 3.60806e-08 -3.92385e-07 -1.22592e-07 3.87617e-08 -1.27538e-06 -5.12902e-07 2.02647e-07 4.14807e-07 4.15114e-07 -4.44322e-07 -1.27759e-06 -2.0489e-10 -2.49262e-06 9.53618e-07 1.94768e-12 -1.60502e-06 4.88304e-09 -2.71081e-06 3.26793e-09 1.59446e-07 4.4887e-10 -5.06384e-07 -9.23148e-08 1.74004e-07 -1.13795e-07 -2.04333e-07 -3.40837e-08 -4.59796e-07 -8.33316e-07 -1.81123e-06 -3.60656e-07 -1.10436e-06 -1.78599e-06 2.07491e-07 -1.31132e-08 6.925e-08 7.31785e-09 -1.84519e-07 -2.13773e-07 8.27206e-08 -3.5111e-07 -1.24886e-08 -1.61237e-07 -1.02065e-07 -1.68257e-08 -4.03604e-08 -5.97233e-07 3.6318e-08 -4.79127e-07 -5.45397e-07 8.32243e-09 -1.03315e-08 -3.14059e-10 1.47082e-07 -2.25325e-08 1.01803e-07 1.49866e-08 -3.50173e-08 -3.44147e-07 -1.23302e-08 -4.85635e-07 6.70105e-08 -1.5413e-07 -1.15586e-07 -1.27377e-08 -5.25031e-08 -5.03779e-07 -4.04999e-07 2.91912e-09 -2.72253e-07 8.53541e-08 -5.05774e-08 5.17141e-07 -2.74653e-07 2.14887e-07 5.00659e-07 -1.63097e-07 -4.19411e-07 -3.29385e-07 -3.52987e-07 3.55501e-07 7.08802e-07 -5.93368e-07 6.45155e-07 2.52454e-08 -2.5453e-07 3.63256e-09 -1.64136e-07 -6.53742e-07 -2.48318e-07 -7.76254e-07 -3.76631e-07 -2.52032e-07 2.73314e-07 -4.11323e-07 1.79981e-07 -1.04963e-06 -1.08479e-06 -3.53665e-07 -1.22524e-06 2.22139e-07 7.90555e-07 -2.50825e-07 -2.05419e-07 -7.28309e-07 -4.08438e-07 -2.8627e-08 -4.95253e-07 -2.02814e-07 -7.51444e-08 -4.21296e-07 1.39296e-07 -1.65725e-07 -2.37499e-08 -1.69648e-06 -4.86196e-07 -1.45243e-07 -1.06058e-07 -2.08825e-07 1.36063e-06 1.51509e-07 -8.43612e-09 1.00385e-06 -2.53349e-07 1.95767e-07 4.86726e-08 3.20506e-08 -8.48673e-08 -9.2671e-08 4.6995e-08 -2.56117e-09 1.91072e-07 -2.74116e-07 -2.27186e-09 -6.499e-09 -4.09539e-07 -6.75584e-07 -2.20405e-08 -1.29776e-07 1.92826e-07 1.11309e-07 7.94106e-08 -2.20828e-06 1.07744e-08 -5.85692e-09 -5.54322e-07 -3.09113e-07 -8.85317e-07 -4.15496e-07 -4.16703e-07 -1.79262e-07 9.69072e-08 -1.05443e-07 7.39702e-08 3.20707e-07 3.2048e-08 2.77322e-08 -2.68255e-08 -4.08851e-07 -2.17366e-07 -4.88557e-07 -9.50793e-08 6.31835e-08 2.73832e-07 -1.12101e-08 7.05987e-08 4.69338e-08 9.98679e-08 5.28672e-09 -6.29061e-08 1.53906e-07 3.85946e-08 3.57427e-08 6.5635e-09 1.31874e-08 -2.22635e-07 -1.56176e-07 3.5121e-07 3.42698e-08 8.16076e-07 1.15811e-07 7.06423e-08 2.26908e-07 2.44416e-10 -2.62733e-08 -4.11734e-07 -3.12007e-07 -1.84804e-08 4.39714e-06 6.29045e-07 -2.84178e-06 7.23039e-08 1.30457e-07 -4.04522e-08 -7.55791e-08 -1.9243e-08 -6.8323e-09 5.90333e-08 -4.75481e-08 1.01171e-07 2.8539e-07 7.03366e-08 5.14367e-07 7.00904e-09 6.83636e-07 2.39511e-06 2.45757e-06 -1.52624e-07 -1.04592e-06 -6.47826e-08 -4.08853e-08 -1.16469e-07 3.81365e-07 8.44225e-08 5.89068e-07 -5.31775e-07 -9.19785e-07 5.3828e-08 -2.70904e-07 5.20872e-09 -2.72149e-07 -2.8369e-07 -3.50854e-07 -1.5303e-06 -8.25506e-07 -1.83357e-07 -1.0216e-07 2.3676e-08 2.02578e-07 -5.89183e-08 -2.29031e-08 -1.57337e-07 -4.13213e-08 -9.88854e-08 -1.00335e-07 -2.73247e-08 -4.18657e-07 -2.91044e-07 1.23842e-07 4.72721e-07 -4.20753e-08 4.22234e-07 1.36676e-06 -2.06275e-06 3.37291e-06 -2.38548e-07 -9.11425e-08 -1.88777e-07 -6.76413e-09 8.81353e-09 -3.57126e-07 -1.76731e-08 -5.69955e-07 1.05543e-09 -8.84491e-08 -4.43325e-08 -1.55993e-07 -1.1222e-07 8.09576e-08 1.93916e-07 2.29421e-07 -1.26573e-06 -1.1385e-06 2.5263e-08 8.46935e-08 3.91576e-07 2.86997e-07 1.93468e-07 1.03817e-07 -2.89922e-06 -2.12326e-06 8.70471e-08 3.18774e-06 -2.32074e-07 -9.44189e-07 -7.42924e-08 1.6131e-07 -1.68839e-07 -4.63857e-08 1.52098e-08 -3.11219e-07 7.35926e-06 -4.2256e-07 4.18657e-09 1.2658e-07 -8.25094e-08 7.72748e-08 -2.87353e-07 -1.11417e-07 -3.28415e-07 -3.70679e-07 -5.61832e-07 -3.47826e-08 -1.6127e-07 1.31616e-06 -1.83755e-07 -5.18714e-07 -4.52856e-08 1.24501e-07 -3.73446e-07 -6.5335e-08 -1.09505e-06 -1.24138e-07 2.75958e-07 1.1076e-07 3.31099e-07 7.5883e-08 3.64688e-07 6.03995e-09 4.89638e-08 -1.69691e-07 -1.33096e-11 -2.40506e-07 3.18331e-08 -1.41581e-07 -8.4889e-08 2.78617e-06 -4.03837e-06 -1.77855e-06 -5.02143e-06 -2.39569e-07 -4.9315e-09 5.33227e-08 3.02158e-07 9.75731e-08 8.93497e-08 -2.37577e-08 -2.03043e-07 -9.03247e-07 -2.19984e-07 -1.85704e-08 -1.01406e-07 -2.41821e-07 -3.80936e-07 -5.84045e-07 8.50151e-07 -5.57816e-08 -8.53566e-10 -5.47055e-07 -1.0076e-06 -8.31016e-08 -1.19327e-07 -7.1006e-07 -1.21957e-06 -9.97645e-07 3.14566e-07 -1.44935e-06 -7.7248e-07 -7.99641e-08 -5.96217e-08 -2.73143e-07 -2.51831e-08 -2.81654e-07 -9.67029e-08 -3.33777e-08 -1.25466e-08 -2.26061e-08 4.75089e-07 1.98785e-12 -1.87413e-06 -1.01981e-06 3.80624e-06 6.09568e-07 2.73716e-07 -9.15224e-07 5.12312e-08 -1.55434e-07 -9.28073e-08 -1.2551e-07 -3.59544e-07 8.58505e-08 -4.06555e-07 -7.1269e-07 -3.92561e-11 8.58122e-07 5.80281e-12 1.54384e-06 -1.91593e-07 -1.45277e-12 -1.05774e-08 -4.60117e-09 7.11026e-09 9.63861e-08 -1.57924e-06 -9.52795e-08 -7.79244e-08 3.58612e-08 -8.70863e-07 -1.1873e-07 2.26606e-07 -1.3219e-07 5.09981e-07 1.32045e-07 -1.23488e-07 -4.48065e-06 5.61957e-07 -1.70471e-07 -4.94651e-07 -1.73447e-07 -1.70327e-07 2.23215e-06 -7.02042e-08 -9.75339e-08 -2.7373e-09 -2.41124e-09 4.03359e-07 4.57226e-08 2.35858e-06 -4.81297e-09 -9.2977e-07 -8.8676e-11 -9.57412e-08 -8.23346e-09 -4.23213e-07 -3.16205e-07 -4.80569e-07 -1.34364e-07 -7.30819e-07 2.76127e-06 5.55774e-08 -4.0311e-08 -6.80199e-09 -2.59727e-07 1.01097e-07 2.81748e-07 -5.12385e-07 6.1639e-07 -5.80249e-07 3.85274e-08 -2.17163e-07 -5.64224e-09 -3.36457e-07 -1.55464e-07 -1.10533e-08 4.94909e-08 1.53713e-07 -3.68404e-08 -2.04748e-07 -4.60042e-09 -4.35895e-08 -2.6574e-08 -4.43547e-08 1.97492e-07 3.93059e-08 -2.16694e-06 -2.38316e-07 8.71575e-07 6.40764e-08 6.6553e-08 -3.13127e-09 2.57474e-07 -1.39992e-07 -3.63718e-07 -1.73157e-07 -5.48255e-08 -3.58861e-08 -6.1165e-07 8.26475e-07 -3.89437e-07 -2.2757e-09 -5.88981e-07 -3.79259e-07 4.65836e-06 -1.09402e-12 8.26071e-08 -2.64622e-07 -3.55206e-07 -2.06954e-07 -2.67936e-08 3.99757e-08 2.94668e-07 -4.86027e-08 -1.60771e-08 1.50788e-06 -6.04922e-07 2.36278e-06 -2.32844e-07 5.89611e-07 -1.93397e-07 -6.55595e-08 -2.76082e-06 3.8533e-08 -3.40243e-08 -8.88803e-08 -7.50401e-07 -1.54579e-07 -7.38924e-07 -1.02974e-07 -2.78471e-08 -2.35792e-07 -2.43784e-07 -4.84075e-07 -7.70088e-07 -8.5714e-07 -1.80764e-06 2.50727e-07 -6.09817e-08 1.25429e-08 -8.23947e-08 -1.78392e-08 -3.10609e-07 -3.37842e-07 -9.52734e-09 -2.72573e-07 -3.54269e-07 1.96282e-07 1.86219e-09 1.82188e-10 1.51e-06 -1.92487e-09 -1.98647e-09 -9.51469e-09 -4.58481e-07 2.11936e-07 2.57172e-06 2.58679e-07 4.32834e-08 -1.1667e-07 7.7714e-10 -1.95349e-09 2.39146e-09 -2.06914e-07 1.25039e-06 2.14699e-07 9.12638e-08 1.38787e-07 -2.70425e-09 5.37058e-10 4.37703e-07 1.50192e-09 -1.49618e-08 -7.41688e-07 -7.2423e-07 -7.9733e-09 -9.48787e-10 -2.30052e-08 -2.31192e-10 5.85552e-09 -2.05399e-08 -3.78255e-08 -9.66036e-08 6.02221e-08 -7.01218e-08 -2.20429e-07 -2.57225e-08 2.14136e-08 -9.72902e-10 -7.7594e-08 4.69189e-09 -2.51682e-07 4.20258e-08 -3.37717e-08 -1.74205e-07 -2.07255e-07 2.18945e-08 7.02067e-08 2.02113e-08 3.3688e-07 1.52342e-06 -2.19748e-06 -3.5906e-07 -9.13437e-07 4.07774e-10 -1.46343e-08 5.65999e-09 -3.28818e-10 -2.38303e-08 -2.1283e-07 -2.4158e-07 3.27718e-07 7.78963e-08 -2.30427e-07 -8.35859e-08 -3.46636e-07 -6.18689e-08 1.31353e-07 -1.85653e-08 -3.91792e-07 -4.35339e-07 -7.69023e-08 -5.45429e-08 -2.51998e-06 -4.62742e-06 -9.22894e-07 -6.96608e-07 4.57799e-07 -4.49109e-08 -4.53538e-06 -2.20078e-07 -1.73706e-08 -7.70919e-08 -7.50439e-08 4.83748e-08 5.29218e-07 -3.91768e-08 4.02266e-07 -4.66549e-08 -2.40115e-07 1.14856e-07 -1.58482e-07 -6.33452e-09 1.99673e-08 -1.66761e-07 -3.8044e-08 -2.08283e-08 -8.52067e-07 -2.98845e-07 1.3729e-07 -1.94583e-07 1.67336e-07 1.83099e-07 -2.23106e-07 -5.97973e-07 1.42697e-08 3.40381e-07 -4.87003e-07 -1.84386e-07 -1.80441e-07 1.85231e-07 3.41732e-09 -1.80281e-08 -1.55596e-07 1.6905e-08 2.96148e-08 -3.13744e-07 1.17173e-07 -3.84658e-08 2.53337e-08 -4.47468e-08 -1.92297e-07 -2.55334e-08 -2.4264e-06 -3.55983e-08 1.60728e-07 -2.48814e-06 -2.95878e-08 -1.34449e-07 1.14558e-07 -1.8652e-07 -4.33976e-08 -9.04871e-07 7.83173e-08 -2.06638e-06 4.0262e-08 -3.90115e-07 -1.08894e-08 -2.20926e-08 3.4628e-09 6.14728e-09 -1.00989e-08 -2.36965e-07 -5.44185e-07 2.59075e-08 -7.28602e-09 5.60765e-07 1.05912e-06 8.24181e-09 -1.01232e-07 8.75029e-08 4.23836e-07 -4.87683e-08 -2.46969e-09 -3.15851e-10 2.4798e-07 -4.74325e-08 7.04013e-08 -7.90183e-07 -7.03421e-07 5.05643e-12 -5.50633e-08 -7.03219e-08 2.36293e-07 2.56479e-08 -6.52336e-08 4.44124e-09 9.20597e-07 5.58389e-07 -7.44217e-08 -7.53008e-09 -2.70471e-07 -7.54209e-08 -2.20095e-07 1.34394e-07 1.90131e-08 1.15518e-07 -1.38124e-10 -3.51211e-07 5.3653e-08 1.07246e-07 1.14549e-08 3.81173e-08 -4.93257e-08 -3.12062e-07 -7.11114e-10 3.33754e-08 -2.24417e-07 -7.00444e-08 -4.14694e-07 2.01889e-09 2.22711e-09 -7.3761e-07 -5.54816e-07 -9.50282e-08 -1.3513e-07 -3.97727e-07 -5.10777e-08 8.9711e-08 -1.04216e-07 -1.64678e-07 -3.01331e-07 -2.34664e-07 1.83245e-08 -4.58534e-08 -3.87721e-06 2.71191e-07 -2.50278e-06 3.90349e-07 1.08933e-06 -2.31245e-07 -4.99616e-07 3.07894e-07 1.54063e-07 -4.30932e-07 6.59617e-08 -4.32613e-07 -1.47306e-07 -7.90256e-07 9.1848e-08 -1.11899e-06 -1.66425e-07 5.59217e-08 -4.41547e-07 -1.77032e-07 -3.55713e-07 -5.63004e-08 -1.94369e-07 -7.91901e-08 6.6406e-07 6.32238e-07 5.77066e-07 -9.60503e-07 1.38022e-06 4.79757e-08 -1.46096e-07 6.57162e-08 3.59545e-08 -8.28298e-07 -3.95853e-07 -3.86496e-07 -2.41516e-08 -1.29657e-09 4.61409e-09 5.63221e-08 -2.74524e-09 -3.33928e-08 1.79612e-07 -4.1112e-07 -6.49222e-08 -1.099e-07 -7.38303e-08 -3.3305e-07 -3.73733e-07 2.38647e-09 -7.24417e-12 -6.01817e-08 1.22013e-08 -8.64612e-08 -3.23096e-07 -7.38404e-08 -1.72905e-07 -1.26291e-07 -6.21555e-08 -1.24272e-07 -2.66812e-07 -1.971e-07 -8.99197e-07 -1.90103e-07 -2.51876e-07 1.40889e-06 1.4999e-06 3.91205e-07 -2.0652e-07 6.84268e-07 1.49246e-06 1.08066e-09 -8.35455e-08 -1.15506e-08 -7.73164e-08 4.70712e-07 -1.56313e-09 1.15768e-08 -2.00498e-08 -3.79875e-08 2.81994e-08 -3.49883e-08 9.32683e-08 -7.45154e-08 1.44056e-07 1.67933e-06 5.42699e-07 5.08626e-07 -1.22236e-08 2.71204e-09 -6.38419e-10 -1.72498e-07 8.84503e-09 6.46198e-08 -9.79337e-09 -8.82108e-07 -4.02668e-07 -2.8316e-06 1.07678e-07 -3.86232e-08 4.49057e-08 -1.57942e-07 -3.05323e-07 -9.54812e-07 1.10194e-07 8.58261e-10 -1.93973e-10 -5.71848e-09 4.58517e-07 7.97813e-07 -6.18376e-08 7.10084e-09 -2.72697e-09 -2.46617e-08 1.61586e-09 -6.40442e-07 -6.03827e-07 -2.71952e-07 -1.27623e-07 7.62226e-08 -5.62467e-08 -7.94448e-08 -3.78446e-08 -4.71038e-09 1.90062e-09 3.33646e-07 6.45879e-09 -1.36548e-07 1.57467e-07 -1.57379e-08 -2.21712e-07 5.18311e-07 8.49681e-08 5.00336e-07 4.08081e-07 -1.39563e-07 -3.58028e-07 -1.48636e-07 2.46926e-07 4.72234e-08 -7.78809e-08 -1.41711e-07 -9.68571e-08 7.84681e-09 4.53273e-08 2.1684e-07 9.19903e-08 6.5501e-09 -1.45127e-07 2.15694e-08 3.95362e-09 -5.3122e-07 -1.65872e-07 -1.28043e-07 1.12366e-08 -1.0103e-06 -8.59153e-07 -4.86999e-07 -5.27201e-09 1.6735e-09 2.19336e-09 -2.9868e-07 -1.82599e-07 -1.35242e-06 -6.0467e-09 -8.27245e-08 1.30207e-08 1.44274e-07 1.26961e-07 -1.00084e-08 -1.64158e-06 -3.60155e-06 2.04633e-08 4.75498e-07 -3.79278e-08 2.41288e-08 -1.03209e-06 1.022e-07 -9.59718e-09 2.80127e-07 -1.5252e-07 -2.82386e-07 -7.15661e-07 -2.80887e-07 2.64752e-07 -2.3284e-07 -1.9442e-07 -2.57668e-07 1.62942e-08 5.65831e-07 -5.13872e-09 -2.96635e-08 -8.07332e-08 -2.30985e-08 6.91404e-07 1.11016e-08 1.70961e-07 -6.00242e-10 4.75163e-07 -9.06568e-07 4.61174e-08 -2.14242e-08 -8.54815e-07 -2.24501e-07 -2.73823e-07 3.51139e-07 1.6916e-07 -1.06332e-06 -8.71206e-08 2.49588e-08 -8.14269e-08 -1.81514e-07 -1.56579e-06 -1.59547e-07 -3.51614e-07 5.89883e-08 -1.4263e-06 1.14788e-06 -2.18016e-08 -1.81842e-08 -3.05607e-07 6.5819e-07 3.22538e-07 -1.97944e-06 -9.04087e-08 -2.77573e-07 2.2652e-08 -1.79139e-07 -2.3381e-10 -2.27733e-07 -7.08254e-09 2.17625e-07 -1.80886e-07 3.27284e-08 -3.98272e-08 -3.97574e-07 3.53984e-07 8.60877e-08 -1.15274e-09 1.22818e-06 -1.95193e-06 -1.53905e-06 -5.70788e-07 2.2758e-09 4.07693e-09 2.23694e-07 1.10747e-08 7.50424e-09 4.15891e-10 6.8807e-09 -7.38475e-08 -1.92564e-08 4.69799e-09 -1.18711e-07 2.26007e-07 6.41008e-08 7.89358e-08 1.70218e-08 -9.26549e-07 -7.55164e-08 -2.66005e-07 -1.54567e-09 1.94783e-08 -4.74755e-08 -3.50297e-08 6.72111e-11 -6.25781e-08 1.81254e-08 4.37414e-09 4.2917e-09 -7.60968e-07 -1.71641e-07 -1.30565e-07 -4.23619e-07 -5.30315e-07 7.96514e-09 -4.10542e-07 4.75549e-09 -5.50835e-10 -6.42448e-08 2.52148e-07 -1.68999e-07 5.54416e-09 -1.89232e-07 -2.54763e-07 3.2387e-09 -2.57272e-08 -5.53529e-07 4.37923e-08 -3.39937e-08 -2.19237e-07 -5.08275e-08 -2.84117e-08 -5.22676e-07 -6.35089e-07 -3.47456e-07 -5.39952e-08 -3.70254e-08 -8.90329e-08 -5.0349e-08 -1.94814e-08 -1.80141e-07 -1.55854e-07 -2.06853e-07 2.76837e-07 1.1078e-07 1.7774e-07 5.35244e-07 1.59657e-07 7.60183e-07 -8.39599e-08 -7.42176e-08 8.61645e-08 3.79474e-08 1.61081e-07 4.07866e-08 -6.85725e-07 -3.70506e-08 1.73386e-07 4.23786e-08 -1.34977e-07 -4.93814e-07 1.57528e-09 -1.93983e-07 8.49049e-10 -2.15913e-07 1.35444e-07 7.55744e-08 3.08157e-07 -1.54891e-07 -2.41649e-07 -8.30359e-07 -7.78084e-08 -4.01638e-07 -1.29158e-07 -3.99869e-07 -2.69108e-08 2.45673e-07 -2.88093e-07 9.45251e-08 1.11141e-09 4.63787e-08 1.30638e-07 -4.18926e-07 -2.65631e-07 -8.91612e-07 -3.11964e-07 8.60984e-09 -1.01303e-07 1.28549e-08 1.30484e-07 1.19353e-07 1.18881e-07 4.42379e-07 1.01734e-06 1.02939e-06 3.76733e-07 -7.46644e-08 6.12774e-08 2.48881e-08 -8.96504e-07 -1.47845e-06 1.24956e-08 -1.24888e-08 -2.83033e-07 1.7857e-07 -5.69488e-08 -6.4102e-08 3.45157e-07 1.53993e-07 -5.82946e-08 1.88136e-07 -1.3897e-07 1.1535e-07 -7.97136e-07 -9.51035e-09 -8.08573e-09 1.99181e-07 -7.89391e-07 -1.93473e-07 -5.06806e-07 -6.24707e-07 -9.26715e-08 -5.96879e-07 7.77194e-08 -3.48645e-07 5.64852e-08 6.38677e-08 -4.38867e-07 5.83266e-07 -4.80118e-07 -3.03756e-08 -1.11963e-06 -2.1422e-08 4.96691e-08 -7.42106e-07 -1.83631e-06 -4.07345e-07 -6.12022e-07 4.80517e-08 8.12561e-08 -1.22203e-06 -1.45961e-11 -1.29417e-07 -2.70351e-06 1.65553e-07 4.5752e-07 7.0179e-08 -2.89181e-08 2.85546e-08 -3.14324e-08 1.07825e-08 8.32085e-08 1.27527e-07 2.88657e-09 -1.66134e-07 -4.17906e-07 -2.65752e-07 -8.95639e-07 -5.7537e-07 5.76648e-08 -2.05477e-07 -7.91549e-07 -6.63792e-07 -5.71785e-07 4.68575e-07 2.75556e-07 6.05022e-09 1.20711e-09 -1.42519e-08 -3.94372e-07 -5.67555e-07 -6.86853e-07 1.2573e-06 -7.3978e-08 7.13766e-08 -6.41545e-07 -1.94374e-07 -1.66513e-07 -3.11626e-10 -1.27722e-06 6.68952e-07 -9.63511e-07 -5.25332e-08 1.16725e-07 -1.38045e-06 1.56107e-07 -1.12205e-06 -2.00177e-07 6.14878e-08 1.54404e-07 6.28975e-08 -2.59413e-07 -4.39008e-07 -1.63513e-06 -1.26336e-06 -7.93032e-06 2.37154e-08 -4.11969e-08 -6.18527e-07 -3.07773e-07 -3.26603e-07 -3.24096e-07 -8.25362e-08 -4.20632e-07 -1.83621e-07 -5.79622e-07 -5.20094e-07 -1.84557e-07 8.51926e-09 7.46196e-09 9.85273e-08 1.677e-07 -5.52257e-08 -3.80699e-08 2.39646e-08 -3.67281e-07 -1.03523e-07 7.33791e-08 3.69748e-08 9.33979e-08 -1.47354e-07 -1.38742e-07 -6.27939e-07 -1.94092e-07 -1.59248e-07 -2.75974e-08 -1.71183e-08 -4.2432e-07 8.32834e-07 2.86748e-07 2.79214e-07 1.18117e-07 -3.37295e-07 -5.31974e-08 -4.57346e-07 -1.81411e-09 -1.07718e-07 -5.11068e-08 3.06747e-09 -5.67475e-08 7.82632e-08 -2.79536e-07 -7.6124e-07 -4.08661e-07 -3.59477e-07 -2.12832e-07 -1.45099e-07 6.0148e-10 -1.93968e-07 -6.92329e-07 1.61271e-08 6.85266e-08 -7.12977e-08 -5.54414e-07 -1.78838e-06 -2.84378e-06 -1.55274e-07 6.03622e-08 1.93626e-06 -3.60133e-06 -3.0192e-06 -4.60737e-06 -1.35765e-06 3.49183e-08 1.95874e-07 2.13138e-07 -1.35648e-07 -1.30741e-07 -1.23396e-07 -6.74105e-09 -4.15721e-08 -2.40459e-10 -3.49025e-08 2.16989e-07 2.32136e-07 -1.99784e-07 -3.94039e-07 -1.3807e-08 -1.88826e-07 -2.69491e-09 -1.43196e-08 -6.15235e-09 -5.29469e-08 -1.40361e-07 -1.58192e-07 -3.37617e-08 9.91204e-08 -1.3655e-07 -7.07151e-08 -1.47633e-08 -1.28725e-07 2.05242e-08 -8.67626e-08 3.77993e-08 9.26896e-08 -3.38031e-08 -1.30253e-07 -2.43013e-08 -3.4675e-08 6.36792e-08 -2.85538e-07 -4.72143e-07 4.01997e-07 2.23903e-07 -1.3026e-08 4.61944e-08 7.57323e-08 -2.03087e-08 4.38546e-09 -1.63474e-08 2.47782e-08 -2.81753e-09 -3.91126e-08 -2.16999e-08 1.41116e-07 -6.48275e-07 -5.59484e-07 8.1621e-08 4.37549e-07 -3.22416e-08 -2.99438e-08 6.44353e-09 -3.61273e-08 1.02142e-08 2.99263e-09 -2.49912e-07 -1.65169e-08 -8.64498e-07 -3.84142e-07 3.95257e-07 -1.57186e-07 -2.70655e-08 -2.43256e-07 2.35328e-08 -7.71018e-08 -5.24505e-08 -7.55648e-08 -1.8429e-07 -3.6079e-08 -1.15549e-07 -5.15299e-07 -2.27623e-07 -5.46187e-07 -1.49667e-06 -6.92591e-09 -2.35793e-07 4.17354e-09 -2.21484e-07 -3.94572e-07 -4.21837e-08 -2.88222e-09 -2.6793e-07 1.55037e-07 -3.32796e-07 4.15011e-08 -3.5381e-08 1.54171e-06 9.32723e-07 3.50399e-07 -3.38634e-07 4.39738e-07 3.69825e-08 -1.51611e-08 4.67891e-07 -7.82692e-09 -8.76716e-09 -4.72247e-08 4.9257e-08 6.79657e-08 -4.7316e-07 -1.40665e-08 -5.5825e-08 5.40821e-08 -1.21919e-08 -2.7037e-07 -4.07417e-07 1.00818e-07 -4.27775e-08 -2.34817e-08 1.18338e-06 -4.96552e-07 -4.31131e-07 -1.07944e-07 -4.58159e-07 -3.25509e-07 1.3576e-08 -2.48743e-11 -2.35221e-11 7.78159e-08 1.59445e-07 -2.02427e-08 -1.30364e-07 4.65893e-07 -1.40844e-07 1.26012e-06 1.62734e-06 1.31453e-07 -4.27554e-07 1.61103e-06 9.55517e-08 -2.18988e-08 -3.43302e-07 -6.43432e-08 2.94347e-09 7.57441e-08 4.88466e-08 -3.02778e-07 -2.44535e-07 -1.51378e-08 -5.95225e-07 -4.68663e-08 -1.13696e-08 -2.45865e-08 1.61582e-06 -6.6291e-08 -7.06114e-08 -5.05545e-07 1.50778e-08 1.32844e-07 -1.99219e-07 3.02845e-07 -1.01167e-07 -1.50295e-07 1.19096e-06 8.37297e-07 1.49349e-06 1.48359e-06 6.7264e-07 3.40703e-08 -1.60844e-08 -1.73893e-07 -6.07553e-08 1.15906e-07 4.61161e-09 4.89274e-09 -2.7013e-07 -1.51e-07 -3.18214e-08 -9.34701e-10 -3.79084e-09 -1.03418e-07 4.713e-07 -4.80574e-07 -7.49039e-08 -8.18401e-08 -1.76845e-07 1.17893e-07 1.10901e-08 1.89873e-08 -2.42861e-09 -3.0457e-08 -1.9436e-07 -4.13099e-07 -1.57706e-07 -1.54936e-08 3.57209e-07 3.44054e-10 -1.48681e-07 6.74666e-08 -1.02255e-06 -1.95646e-07 -1.34643e-07 -3.70728e-09 -8.90334e-08 9.44058e-08 -1.02238e-07 -1.08325e-06 -1.3145e-06 -4.7903e-07 -4.69383e-08 -1.17702e-06 -8.15894e-07 -1.51954e-07 -2.7277e-07 1.93006e-07 -1.37658e-06 2.99114e-07 -7.17363e-07 -2.97892e-08 -1.20788e-06 1.27314e-06 2.80727e-10 -2.96466e-10 -3.39866e-07 -5.3508e-08 3.57574e-08 -2.98507e-09 2.89783e-08 6.63645e-08 9.55476e-09 1.12255e-08 3.19721e-07 -1.36289e-07 4.91018e-08 8.30089e-08 -5.32247e-07 -3.05136e-08 -2.54213e-07 -5.7779e-08 5.89831e-07 -3.15505e-07 9.56858e-08 -1.45386e-07 -9.57967e-08 9.53513e-08 -1.69276e-07 4.30824e-08 -5.05069e-09 1.82062e-08 -7.93436e-08 6.46647e-08 -4.51309e-07 -4.80906e-07 3.58044e-09 9.09001e-09 4.03502e-09 7.25461e-10 -1.51712e-08 -5.15751e-10 -1.08256e-09 9.26654e-09 -3.0446e-07 -7.00648e-07 -5.56481e-07 8.07669e-09 3.22962e-08 7.5063e-09 -2.27316e-06 6.48801e-08 -6.50542e-08 -3.85384e-07 -4.54862e-07 -4.4233e-07 8.89644e-08 -1.26957e-06 -2.37818e-06 -4.30392e-08 -1.6352e-07 -9.4813e-09 -1.14574e-07 2.12857e-07 -7.80953e-08 -2.16186e-07 -2.7724e-08 -1.21632e-07 3.35825e-07 1.30926e-08 -1.54737e-08 -4.64723e-08 -9.82996e-09 -3.3445e-08 -6.26233e-08 -2.01752e-08 5.77275e-08 -3.21918e-08 1.1097e-07 5.67596e-08 -2.83489e-08 1.12857e-06 2.95189e-06 -1.1088e-06 -2.92163e-07 1.32163e-06 2.85927e-06 -3.52507e-07 -3.90125e-08 -1.8715e-08 -7.27906e-08 -6.30707e-08 3.3612e-07 -2.99227e-08 -3.12484e-08 -1.21516e-07 1.27579e-06 -3.35595e-07 3.23877e-07 3.34971e-07 -5.22911e-07 -1.9888e-08 -3.87717e-09 -7.9363e-08 -2.69794e-07 1.97937e-08 -5.44461e-09 1.0163e-08 1.15798e-07 1.9818e-08 -1.1604e-07 -7.68429e-09 -2.46739e-07 -3.11856e-08 -3.33311e-10 1.59317e-07 -3.02427e-07 -3.59056e-08 -4.14066e-06 9.46234e-08 9.55994e-08 -5.87876e-07 -5.17643e-08 -1.2071e-08 1.65255e-08 -1.3357e-06 -1.13451e-06 -3.74069e-07 8.88164e-09 7.23645e-08 7.69323e-08 -6.75821e-07 -1.00096e-06 -8.83491e-10 1.79606e-08 -2.73713e-08 -2.14018e-08 2.35866e-07 -2.73561e-07 1.64883e-07 -7.03175e-08 -4.42645e-08 3.5324e-10 3.50197e-07 -9.42195e-09 -2.43596e-08 -7.96636e-08 -9.68283e-08 -1.22859e-07 1.62146e-08 -2.77844e-07 -4.09961e-09 -2.72366e-09 -2.84812e-09 2.01946e-08 1.17397e-07 -4.03668e-09 1.53029e-07 1.28161e-08 8.10239e-08 5.54901e-08 8.79645e-10 9.86446e-10 4.06057e-08 -2.38931e-07 -2.24418e-07 9.76678e-08 -1.13878e-10 -2.90233e-07 7.2523e-08 -3.92892e-09 -6.32093e-08 3.84474e-09 -3.98802e-06 1.20488e-09 4.75987e-08 -1.90092e-08 -3.14037e-07 -8.28415e-08 -1.40754e-07 -4.65152e-08 -3.85495e-07 -2.55376e-07 -2.85648e-07 -3.94409e-08 -1.27566e-07 -4.8331e-08 -5.1497e-08 3.55893e-08 -1.58661e-07 -1.96773e-07 7.50398e-07 -1.05009e-06 -7.86898e-07 -2.83328e-06 9.75585e-08 1.43037e-07 1.50984e-07 1.8028e-07 3.57889e-07 -2.11515e-08 -2.98675e-07 -1.74999e-08 -8.3295e-08 -1.03151e-07 -1.53576e-07 -1.7179e-07 -1.17911e-07 1.63103e-10 4.28069e-08 -7.29138e-09 -1.71407e-08 -2.4705e-08 -6.11435e-09 1.15222e-07 -1.46268e-07 -2.02583e-07 -5.91763e-09 -2.68858e-07 -1.42415e-06 -1.66234e-06 -1.11704e-06 -6.194e-07 -5.81821e-08 1.6582e-08 -2.13282e-07 -2.50025e-07 -3.96425e-08 -9.75117e-08 -1.12905e-07 -1.05318e-07 -4.70888e-08 3.03557e-08 1.94964e-07 -8.30196e-07 -8.09836e-07 -2.77471e-07 -1.69319e-07 -1.8898e-07 5.54235e-08 -2.51851e-07 3.48725e-07 -1.16526e-07 1.41512e-08 -3.97747e-08 -1.28614e-07 -4.45571e-07 -3.81356e-09 4.31724e-08 1.15344e-07 -2.33732e-07 -2.79947e-07 -2.6348e-07 -7.91213e-07 -1.12672e-08 8.38991e-08 2.60315e-07 -3.165e-08 6.62295e-08 -8.68683e-09 2.46669e-07 -2.40496e-07 -7.98337e-08 2.27338e-07 1.87669e-07 -5.30961e-07 -3.06136e-07 3.3687e-07 -9.8592e-09 5.24674e-07 -8.70156e-08 1.52514e-08 2.26803e-09 -6.35708e-08 1.00631e-08 -8.60567e-08 -5.25555e-08 1.4088e-07 -2.39937e-08 -2.0105e-06 9.73725e-09 3.09901e-07 2.69579e-07 6.89611e-09 1.49659e-08 -4.53558e-09 4.12107e-08 -2.8677e-07 6.89462e-09 -3.5567e-07 -4.22199e-07 -1.562e-08 1.72164e-07 -5.8944e-07 -1.92985e-08 -3.94913e-07 6.59726e-08 -3.71422e-07 -1.65548e-06 -5.66516e-07 -6.13935e-07 -1.32949e-06 -5.61461e-08 -3.26425e-08 6.89847e-08 -2.48059e-07 5.34971e-09 -1.35303e-07 -5.39696e-07 -2.5404e-07 -5.85671e-08 4.28899e-08 -1.2852e-07 -3.77484e-08 -1.41188e-09 -3.49323e-07 -3.16485e-07 -6.42251e-07 4.58233e-07 2.46924e-07 -3.9476e-07 5.75934e-08 3.31268e-08 -4.42171e-08 -3.28752e-08 1.14654e-08 -6.14084e-08 -1.02268e-07 -3.78021e-08 -2.11774e-07 1.34419e-08 -1.63506e-08 6.19794e-09 -1.28584e-08 -1.24802e-07 3.64345e-09 -2.40228e-08 -1.28656e-07 1.65852e-07 -1.85848e-07 -3.20815e-07 -1.71833e-07 7.80744e-08 1.50902e-07 7.56442e-08 1.94227e-07 9.55234e-08 3.06172e-08 -9.43613e-07 4.82452e-07 -2.55699e-08 4.73656e-07 2.47309e-07 -3.1285e-07 2.19968e-08 -3.27164e-07 2.51737e-07 -1.11446e-07 -4.16748e-07 1.53779e-07 -2.91863e-07 -2.38186e-07 5.74609e-08 -2.82133e-07 -4.67698e-07 -2.46039e-07 1.43471e-07 8.33919e-07 -6.10151e-07 4.56949e-07 -4.15434e-07 1.95551e-07 5.66785e-07 -3.29787e-07 3.89377e-09 -1.06988e-08 6.34226e-07 3.05471e-07 -1.65258e-07 -2.72031e-08 -2.91428e-08 2.13213e-07 3.50793e-07 2.24435e-07 4.21332e-08 8.25366e-08 -9.31088e-07 -1.31122e-07 -5.97518e-07 -6.34732e-06 -2.22873e-06 -4.26636e-06 -5.76838e-06 -1.24458e-07 -3.42487e-07 -2.16622e-07 -2.48254e-08 -3.68937e-08 -8.68252e-08 1.2002e-08 4.30413e-09 2.37986e-07 1.71311e-07 6.33774e-08 -1.45966e-09 -7.22616e-09 -5.93083e-10 -2.15578e-08 2.94943e-07 -2.3448e-07 3.88667e-08 -1.20143e-07 3.15769e-08 1.35948e-07 -3.97582e-08 1.19481e-08 -6.31092e-08 4.90285e-08 1.29341e-09 -2.44089e-08 -3.39401e-08 2.4533e-08 7.77834e-08 1.0473e-08 4.00166e-09 3.6679e-09 -5.84649e-08 -4.70645e-08 -1.20069e-08 6.74058e-09 4.46538e-08 -3.20279e-07 -2.47453e-07 3.56448e-09 -1.44021e-08 -1.75974e-07 1.25299e-08 -2.71403e-07 -8.22993e-09 -1.41537e-07 -2.99985e-09 7.28769e-09 -2.31818e-07 -3.43758e-07 -2.05533e-07 -7.09667e-08 -3.83479e-08 -6.01514e-07 -2.71937e-07 -1.18817e-08 -4.00593e-07 1.0988e-06 -5.79945e-07 -1.11912e-07 1.8229e-12 3.45143e-09 -1.88116e-07 -4.42513e-08 5.63495e-10 2.09288e-09 7.30771e-10 -2.74448e-07 -2.38013e-08 -4.2051e-08 -1.87294e-08 -4.87935e-08 -4.15242e-07 -7.66793e-08 -4.83787e-09 1.50136e-07 7.39607e-08 3.43402e-08 -9.36918e-09 1.63115e-07 -1.39861e-07 -2.54215e-07 -1.25003e-07 1.80003e-09 -7.21115e-07 1.70497e-08 -1.01261e-06 1.4353e-07 -2.84367e-07 -5.24387e-08 4.67461e-08 -5.80582e-07 5.1443e-09 -1.86546e-08 -2.22323e-07 -5.15567e-08 8.98944e-08 -2.12682e-06 1.91194e-07 -1.53085e-08 -5.024e-08 -2.84185e-08 -4.14526e-07 -1.32579e-08 -2.08325e-07 -4.87623e-07 -8.19854e-07 -2.72701e-07 -6.26511e-07 -9.34444e-09 -1.00895e-08 -1.36852e-07 -1.19672e-07 9.55614e-08 -3.10007e-08 -7.6158e-08 -1.75504e-07 -2.75955e-07 4.81364e-08 -3.05424e-09 -6.16464e-08 -8.53798e-08 -2.46607e-08 1.97066e-07 -2.18027e-06 -1.70195e-07 -1.37271e-07 1.34448e-06 -2.40628e-07 7.23819e-08 6.52324e-08 -3.42576e-08 -1.92051e-07 3.3039e-07 -6.61673e-08 -5.65102e-09 -2.2264e-07 3.221e-08 -6.44014e-07 -8.88631e-08 -3.16011e-07 -2.66022e-07 1.07913e-06 -8.99216e-07 -4.28084e-07 2.48132e-06 1.01817e-07 -3.40283e-07 -1.17906e-07 -1.75841e-08 -8.57381e-08 -4.7341e-07 -2.17706e-07 -5.64088e-08 1.55332e-07 3.05978e-08 -1.05603e-07 -5.68656e-08 -5.38541e-08 -1.62001e-08 -6.37164e-08 -1.77672e-07 -1.41243e-08 2.27056e-07 -8.93827e-08 -2.22215e-07 2.54889e-07 -3.48951e-07 4.25228e-07 -9.28678e-09 2.95086e-08 -2.4198e-08 -4.88776e-07 3.72729e-07 -8.22311e-07 -3.84946e-07 3.19137e-07 -1.31839e-07 -1.28339e-08 4.28989e-08 -1.15003e-07 -1.07141e-07 9.11314e-08 -8.32817e-07 1.11301e-07 5.28506e-07 1.02927e-06 -6.67399e-07 -1.3515e-07 -2.94242e-07 -1.71163e-07 -2.72154e-07 -6.27358e-07 -2.74258e-07 -5.07428e-07 -2.32112e-07 -2.09106e-07 -7.2363e-07 2.76582e-06 1.29351e-06 1.74325e-06 -2.87985e-07 8.34889e-07 8.68739e-08 1.907e-07 -2.92395e-07 -4.17151e-07 1.4615e-06 1.05941e-06 -5.40405e-07 -5.51272e-07 -7.51694e-07 -1.37156e-08 -2.86555e-07 -1.5319e-07 -9.64737e-08 -3.2599e-07 -5.13764e-08 4.95129e-08 -1.31366e-07 -8.81844e-08 -1.64437e-07 -1.13507e-07 -7.71775e-07 -1.95064e-06 -2.35096e-06 -9.95324e-07 -5.14848e-09 -3.9039e-07 -4.96703e-07 -1.15251e-07 -9.87728e-08 3.01259e-08 -7.83299e-08 -1.82304e-07 -1.79137e-07 -1.26959e-07 -2.26141e-08 -1.11501e-07 -1.79435e-07 -3.02478e-07 -1.08491e-07 -1.11457e-07 -1.7795e-06 -1.95503e-07 -7.94721e-07 -6.74407e-09 -2.05331e-08 -2.51355e-08 -4.18099e-08 1.39512e-07 -2.81051e-08 4.74657e-08 2.95413e-07 2.2838e-08 -1.76382e-07 2.06623e-08 1.98243e-08 3.08814e-09 -3.56611e-07 3.6287e-07 -6.09175e-06 9.72925e-08 4.00344e-07 1.6095e-06 -1.61502e-06 -1.17871e-08 1.21006e-07 2.06153e-07 -6.35057e-09 -4.38371e-08 1.81326e-07 1.86772e-07 4.8e-07 -1.55791e-08 7.1371e-07 -1.21682e-07 -6.48714e-08 1.13994e-06 -4.93818e-08 1.45474e-09 1.41524e-07 -9.26329e-11 -7.83514e-08 -1.93647e-07 -1.31964e-07 -1.91112e-06 -1.53757e-06 -3.8793e-07 2.92773e-08 -1.77665e-08 -2.52205e-07 -4.22055e-07 -3.62807e-08 -2.89727e-06 6.5405e-10 -2.66404e-07 -1.71533e-07 -2.82685e-08 -5.36551e-08 1.55503e-07 -1.65019e-07 3.78172e-07 -1.7652e-07 -2.38346e-07 1.16929e-07 -5.09377e-08 9.11292e-08 1.97816e-07 3.14028e-09 -9.97271e-08 -6.35451e-07 1.21466e-08 -7.08818e-07 3.52947e-08 -6.15335e-07 7.71399e-08 5.36881e-08 -1.63558e-07 -8.33863e-07 -9.16357e-08 -1.39642e-07 9.28918e-08 3.89726e-07 -5.2526e-07 -4.50796e-07 -2.59749e-07 -1.00539e-07 -3.77646e-08 -2.29717e-08 -6.38725e-07 -3.31593e-07 -3.01059e-08 -6.36117e-07 5.12079e-08 8.08908e-09 -9.47449e-08 2.35192e-08 -2.78237e-07 -2.55356e-07 -7.87371e-08 -5.86634e-08 -6.03995e-07 -1.70695e-07 4.05814e-08 -1.43518e-07 -1.03765e-06 -3.23577e-07 8.47676e-07 -2.16996e-07 1.74623e-08 1.65319e-08 2.89924e-08 6.34498e-08 5.84513e-08 -1.15072e-07 2.82875e-07 1.56682e-07 -7.41329e-08 2.42542e-07 -3.09894e-07 -1.92453e-07 -1.67697e-07 -3.18712e-08 -4.20294e-07 -1.5139e-08 7.33341e-07 4.1553e-08 -1.19078e-08 7.81823e-08 -1.57314e-08 1.08128e-06 1.24537e-06 7.19092e-07 1.17449e-06 3.56038e-08 2.65768e-09 3.78347e-07 3.77091e-08 7.50735e-09 -8.66773e-08 2.34776e-07 1.16474e-08 1.63185e-07 4.34797e-08 -1.92255e-07 1.31046e-07 -5.67257e-08 -6.93568e-08 -1.31745e-07 -6.79445e-08 1.17396e-07 1.24196e-07 8.78804e-07 5.95227e-07 -9.09236e-08 -3.66322e-08 1.35071e-09 1.50557e-07 -2.46379e-07 -1.85361e-08 -2.58167e-08 -1.38589e-08 -7.26008e-09 -8.12884e-07 7.35661e-08 -5.64008e-07 1.09491e-08 9.99483e-07 -9.38158e-08 -1.15252e-06 3.72729e-08 -2.62147e-07 -3.59212e-07 -1.21042e-07 1.40428e-07 -3.07642e-07 -1.07775e-08 -7.37441e-08 4.69293e-08 -6.00667e-08 1.25206e-07 -7.65005e-08 -4.74022e-06 -4.74427e-08 -6.64116e-08 2.07856e-07 5.0956e-08 2.49432e-08 -1.18436e-08 8.53636e-07 1.2101e-06 -1.86576e-07 -1.14665e-07 -1.15649e-07 4.07552e-10 -1.06606e-08 -4.58347e-07 -1.75905e-07 1.0105e-08 4.46617e-08 -3.45113e-07 2.53494e-09 1.09932e-07 4.71295e-07 -7.83899e-08 -7.59573e-07 -1.02896e-06 2.77617e-08 1.45299e-06 8.75664e-07 4.3937e-07 -1.82014e-08 2.12281e-08 -1.55894e-06 -1.57722e-06 -3.77363e-08 1.73935e-07 -7.32709e-08 -6.34029e-08 -3.52725e-07 -5.30854e-07 -5.40127e-08 -6.23591e-07 -5.26343e-07 -1.77882e-08 -1.77977e-07 -6.80018e-09 -1.201e-08 -1.56853e-06 1.50248e-06 -1.01886e-07 -7.34247e-08 3.70793e-07 3.06287e-07 5.92967e-08 2.6578e-09 -4.74315e-08 1.30368e-07 -8.08156e-08 -2.91239e-08 -9.11994e-08 -6.15921e-08 1.00948e-07 -2.64494e-08 -7.8215e-09 9.10568e-08 2.21864e-08 -4.36708e-08 -5.68755e-08 2.75914e-08 -3.41023e-08 1.84325e-07 1.15662e-07 2.58993e-08 -1.40718e-07 8.88515e-07 -6.14215e-07 -2.06105e-06 2.71841e-08 1.8456e-07 -2.601e-07 -2.97603e-07 -1.77449e-07 8.42308e-08 3.02895e-08 -1.58517e-08 3.7484e-08 -4.96372e-08 -1.42444e-09 -1.21152e-07 9.15799e-10 8.10656e-08 2.91439e-09 -1.36993e-07 -3.3654e-08 5.22171e-08 1.27275e-07 5.44262e-08 -7.08261e-08 7.66461e-08 9.6335e-10 -1.238e-07 -1.96532e-07 4.32584e-09 1.05841e-07 -2.70632e-09 -3.67632e-08 -5.95569e-08 2.57727e-07 1.61855e-08 -2.43563e-07 -3.0094e-07 1.25946e-11 1.73055e-07 -5.35169e-07 3.88172e-08 9.33257e-08 5.67194e-07 -1.87481e-07 -1.36224e-08 -4.8122e-07 -1.85508e-07 -6.7864e-08 -7.61905e-07 1.75693e-08 7.45738e-08 -9.75559e-08 1.28367e-07 -5.46173e-08 4.91273e-08 1.41216e-07 -1.04423e-06 6.77765e-08 3.50198e-07 -6.03142e-07 6.11465e-09 -4.69351e-08 -2.43478e-07 -1.12482e-07 1.04927e-07 -3.49682e-08 1.75909e-06 3.70063e-07 1.36331e-06 -2.05232e-07 -4.05559e-08 2.19693e-07 -2.23374e-08 -3.75802e-08 -2.07915e-08 1.32609e-07 -3.25474e-07 -2.76205e-08 7.2624e-08 -2.42607e-07 -1.45612e-07 -6.32588e-08 3.10156e-08 3.63859e-08 8.13984e-08 3.55058e-10 4.44058e-06 1.47984e-07 9.40043e-08 1.63255e-07 -8.56858e-08 2.7736e-07 4.38842e-08 -1.11388e-07 -4.43308e-08 -3.93165e-08 -1.02547e-07 -1.01923e-07 1.43695e-10 -1.70655e-07 -6.57874e-07 -1.7661e-08 -3.92947e-09 1.55284e-07 -3.6833e-07 -4.39509e-08 -1.56206e-07 5.3961e-08 -5.58952e-08 -1.57966e-07 -2.77301e-07 -1.70549e-07 8.97889e-08 3.81503e-08 -6.13489e-07 6.39914e-09 -4.72986e-09 -2.89728e-08 -8.68998e-08 -1.20149e-06 1.71478e-07 -2.5863e-07 -6.38897e-08 -3.19317e-07 -2.87654e-08 -9.19484e-07 -1.50876e-08 -5.53166e-08 -1.93068e-06 1.6286e-07 -1.23496e-07 -3.95928e-07 7.44044e-08 3.26149e-08 -3.43726e-08 1.34342e-08 8.95141e-08 -2.43712e-07 2.1974e-08 -2.73193e-07 1.07697e-07 7.88129e-07 -2.11349e-08 7.00432e-08 -3.2298e-08 -7.06456e-08 -2.43224e-08 3.01196e-06 1.23474e-06 -1.14945e-07 -4.88456e-08 -2.55017e-08 -1.38699e-07 -2.02529e-07 -1.94088e-06 4.09911e-08 8.77563e-08 -4.36239e-08 -3.71288e-07 -1.33218e-07 -7.13289e-07 6.03358e-08 -1.59401e-07 2.85951e-07 -1.01867e-08 -2.09695e-07 6.87428e-08 -1.79685e-07 -1.07976e-09 -1.58462e-07 8.18709e-09 -1.02428e-07 -2.04619e-07 -5.37943e-08 -3.73838e-07 9.21202e-07 4.90499e-07 -5.3916e-08 -2.15981e-08 -2.74998e-09 -4.5624e-09 4.84931e-08 1.06456e-08 5.19202e-08 -1.2336e-07 5.51788e-08 -2.79636e-07 -4.02654e-10 -9.77072e-09 8.2907e-10 -3.70882e-08 -5.03963e-08 -3.70822e-08 4.76995e-08 -1.04357e-09 -1.39702e-07 5.50104e-08 2.21818e-10 1.69092e-10 6.01523e-10 -3.85844e-08 3.77912e-07 4.83699e-07 4.305e-07 4.53729e-07 1.59199e-06 -6.40217e-09 -6.817e-07 -2.5091e-07 5.58697e-08 -1.73608e-08 -1.49061e-08 1.47266e-10 -2.04696e-08 -1.26549e-08 -7.22939e-08 1.81513e-08 -2.28774e-08 -8.01686e-09 -1.58626e-07 -5.36705e-08 -7.79415e-08 -1.1576e-07 -1.1461e-07 -1.69864e-07 -2.01848e-08 -3.96038e-07 2.02729e-07 -1.20657e-06 2.36537e-07 -7.26835e-08 6.06062e-08 -7.22012e-08 -2.99584e-08 -1.74417e-06 -2.92521e-08 -1.22735e-07 -1.25012e-07 2.09942e-06 6.52898e-07 1.66787e-07 -3.35276e-07 3.20732e-07 -1.61609e-07 5.35332e-07 -3.83229e-09 1.48501e-09 -1.48223e-08 1.69255e-07 3.25657e-07 1.05315e-07 -4.55712e-08 -1.94139e-08 -1.02997e-07 5.05876e-08 2.54418e-07 1.26523e-07 3.25472e-07 -9.86796e-08 -1.39072e-07 -3.76905e-07 -5.87338e-07 1.71824e-09 -4.07405e-07 -5.81482e-08 -6.59297e-09 2.15987e-07 3.7469e-07 -1.39555e-07 3.50509e-08 2.10324e-08 -1.43724e-08 -1.85422e-08 2.48841e-08 -5.70804e-07 -5.65921e-07 -5.12419e-06 -3.80228e-07 -3.86922e-09 1.00252e-07 -2.82899e-06 -4.24124e-07 -1.24709e-08 1.09174e-06 -1.44796e-06 -9.45859e-09 -6.2561e-09 -7.34886e-07 -3.32674e-09 -8.69046e-09 -5.29934e-09 -9.95115e-09 -1.44441e-09 -2.49455e-08 -1.18616e-06 -4.21064e-07 -7.68028e-07 -1.91584e-08 -2.03715e-07 -5.51243e-08 1.43412e-08 1.46489e-07 -8.64113e-07 4.14542e-06 -6.89497e-08 9.52046e-08 3.21572e-08 -2.92588e-08 -1.6444e-07 -3.11908e-06 -9.53302e-09 -9.64565e-09 6.95507e-08 -5.52899e-10 -2.34312e-07 -2.91547e-07 -4.08873e-08 -6.58689e-09 3.37946e-08 -2.30336e-08 3.01769e-09 9.67201e-08 -1.02763e-08 1.63147e-08 1.94209e-08 1.74943e-07 -1.78992e-07 -1.17564e-07 6.34616e-08 4.35873e-09 -9.67459e-08 -5.81167e-08 -7.66385e-08 -1.50697e-08 -2.07139e-07 6.87168e-09 4.7226e-09 -1.25866e-08 -2.75346e-08 -8.80805e-07 -2.62517e-07 2.43982e-07 1.36373e-07 8.68131e-08 -1.0905e-07 -6.4412e-09 -9.03358e-08 -4.47571e-08 -3.41286e-08 8.35562e-08 -3.57934e-08 1.71684e-08 -2.15674e-07 -1.85115e-08 -4.91174e-09 -2.97619e-07 -3.64816e-07 -7.23103e-08 9.87891e-07 -3.03682e-07 -9.23894e-07 -5.53739e-07 -2.65414e-08 1.15086e-07 4.32683e-09 -4.62514e-09 -5.5146e-07 -2.41101e-07 4.84135e-08 -3.76721e-08 -2.14553e-07 -4.61002e-07 -9.44904e-09 -6.6967e-08 -1.10756e-07 1.04028e-07 -2.33798e-08 -2.00562e-07 1.46268e-07 -4.75344e-08 -6.47939e-07 -7.49421e-07 -1.92025e-06 -2.44395e-06 -3.77084e-08 -5.0298e-08 2.82524e-08 -7.10993e-10 -8.93682e-07 5.54198e-08 6.36196e-09 -2.88831e-07 -1.48463e-07 1.4528e-07 3.22357e-07 1.64912e-07 -3.89657e-07 -5.25196e-07 -3.6597e-07 1.17627e-06 -2.01854e-07 1.73698e-07 9.30813e-07 -1.21472e-07 -6.11794e-08 8.74102e-08 -1.07338e-08 -6.72496e-08 6.91411e-09 -4.27909e-08 2.76429e-08 2.07341e-08 1.57118e-08 -1.21945e-07 3.84927e-08 -1.98976e-08 4.24055e-07 6.86875e-08 -9.98287e-07 7.54188e-07 -9.09743e-07 -1.35686e-07 -4.97095e-07 -2.05924e-07 -9.51233e-07 -7.38722e-08 3.12524e-08 -5.88569e-08 -1.73954e-07 -6.3634e-08 -5.72987e-07 -2.11613e-07 2.24339e-08 -5.03008e-08 -6.68785e-08 -1.71057e-08 8.13619e-08 2.20592e-07 -1.76952e-08 3.30582e-08 -1.86121e-08 2.65649e-07 -3.32368e-08 7.76539e-10 -7.78912e-08 -3.28387e-07 -2.14897e-07 -8.5599e-07 -1.59782e-07 8.88968e-08 4.49396e-07 -3.64944e-07 -2.65557e-07 -1.6753e-07 2.78462e-07 -8.76169e-08 -2.07212e-07 1.42371e-07 1.41989e-07 -1.24941e-08 7.883e-08 6.8767e-08 -1.43119e-07 -4.33121e-09 4.01672e-08 1.21512e-07 -5.15061e-08 -1.19006e-08 9.175e-08 3.68687e-08 4.11982e-08 5.90433e-07 -1.83486e-07 3.00528e-07 1.21181e-06 -7.72974e-08 -2.50088e-08 -3.65948e-08 -1.51932e-07 3.55579e-07 -2.90269e-07 -7.96495e-07 8.50496e-08 -7.478e-08 3.64002e-07 -3.98018e-08 -1.7573e-07 -9.18232e-09 -1.22519e-08 -5.05246e-07 -4.44931e-07 -1.9715e-06 -9.03344e-07 -4.15565e-07 3.59711e-08 -4.0013e-07 -4.31381e-07 -3.78597e-08 -1.82522e-07 -4.4785e-08 -2.34743e-07 -1.39016e-07 -1.32181e-06 -3.21749e-07 4.63238e-09 -4.83247e-07 -1.80578e-07 -5.08271e-07 -2.05783e-07 8.73893e-08 -1.15488e-07 -9.68989e-11 -2.19207e-09 -3.13845e-08 -2.91961e-07 -2.04326e-07 3.94762e-08 1.08251e-06 -8.83044e-07 -1.11458e-06 -1.26461e-07 1.86089e-09 -2.36634e-06 -9.67572e-08 -2.10651e-07 -5.56753e-08 -8.13122e-07 5.64616e-06 -1.08444e-06 -5.72979e-08 2.71706e-10 3.2976e-06 -5.9837e-08 -9.16646e-08 3.39525e-07 3.78724e-08 -9.44273e-07 -5.39874e-08 -1.09922e-08 -1.06146e-07 -1.61344e-07 2.66355e-06 -8.28189e-08 -1.80573e-06 -3.48767e-07 -4.12422e-08 -5.31151e-07 -8.41572e-07 -3.34267e-09 -1.55871e-07 -2.3554e-08 9.07892e-10 -9.22307e-09 -8.87615e-07 -1.56613e-07 -1.84723e-06 -1.34698e-07 -6.05934e-08 -5.32545e-07 -7.0839e-07 -3.69594e-07 9.00368e-08 1.68899e-07 5.38705e-08 1.13811e-07 -1.14902e-07 -6.65891e-07 -1.0362e-06 -3.28979e-08 5.18303e-09 -5.2666e-08 -2.44687e-07 -2.6036e-07 -2.73136e-07 -4.27103e-08 -4.22142e-08 -6.84904e-08 -1.93285e-07 -4.16469e-07 -1.52698e-06 -8.94998e-07 -1.76202e-06 -1.62172e-07 2.10373e-07 -5.31647e-07 -1.5807e-07 1.79219e-07 -6.87075e-09 -2.98684e-08 -8.0804e-08 -7.18884e-08 -1.59263e-07 8.8883e-09 -5.09065e-07 1.50896e-07 3.42839e-06 -1.85996e-07 7.48447e-07 -2.94742e-07 4.05886e-06 -1.20214e-08 -3.18979e-08 2.31574e-07 -1.58466e-07 -1.01051e-07 1.60696e-08 -1.00692e-08 -1.72754e-08 -5.29479e-08 -1.91236e-08 3.91683e-09 -6.5139e-08 -2.27922e-07 8.05628e-08 3.30176e-09 -4.12692e-08 -4.82531e-07 3.73292e-07 -1.12644e-07 1.67268e-08 -2.81364e-08 -1.13533e-07 4.74007e-07 8.07397e-09 1.4703e-09 -1.89042e-08 3.16188e-08 -6.54678e-08 -7.25777e-08 -1.74588e-08 -2.47215e-07 -5.25736e-08 1.339e-08 1.85163e-07 -2.25744e-08 -4.23848e-08 -6.25686e-08 -9.1274e-08 -8.75904e-08 -3.3806e-08 -6.18041e-08 2.35068e-08 -5.65523e-07 -3.35823e-07 2.10262e-08 2.25898e-08 -1.63965e-06 -3.54884e-09 -1.61439e-07 -3.01512e-08 7.01269e-08 1.29365e-09 -2.98532e-08 3.7155e-08 -2.52087e-08 1.09111e-08 3.78971e-08 -1.29252e-07 -8.96575e-08 -4.21574e-08 5.01157e-09 6.91359e-09 -1.86112e-07 2.37971e-07 -3.80038e-08 1.41421e-08 -5.24614e-07 -7.25557e-07 2.92413e-07 -3.21804e-07 -1.73087e-08 -9.95639e-09 -7.68255e-08 1.03331e-09 -2.02861e-07 -1.13147e-07 2.69165e-08 -7.20917e-08 2.08141e-08 -9.37053e-08 -1.76546e-07 1.60123e-07 -3.00758e-07 -3.10569e-07 -3.9925e-07 -1.04734e-07 -1.74739e-06 -1.26585e-08 1.96611e-07 -6.56731e-08 5.41837e-07 -7.61998e-07 2.81433e-08 -1.3104e-07 1.14511e-09 -3.04478e-08 -7.09519e-09 2.00514e-09 -1.04666e-10 -3.07343e-07 3.39724e-09 -3.70554e-07 2.44887e-07 -3.95413e-07 1.86179e-09 9.39862e-08 -3.74255e-07 1.44546e-07 1.5717e-07 2.28707e-09 6.14762e-08 -3.1084e-08 5.06281e-09 9.79706e-08 7.13313e-08 -4.84318e-10 5.77139e-10 -1.87883e-10 -3.87933e-08 -8.58369e-08 -1.67913e-08 6.742e-07 -4.12636e-08 -5.06434e-08 1.06363e-07 -7.65751e-08 -3.51597e-07 8.50483e-09 8.18616e-08 -9.04246e-09 -5.50352e-08 -2.42915e-07 -5.18994e-07 -6.97419e-08 -2.66797e-07 -2.37955e-07 4.32048e-08 3.04427e-08 -1.07712e-07 8.68953e-08 -4.96969e-08 -3.19814e-08 1.50188e-08 7.10985e-09 4.58961e-08 5.25304e-09 -1.39251e-08 6.07564e-08 3.40455e-08 1.30904e-07 1.98637e-07 4.50243e-07 -3.53237e-09 3.31363e-08 5.56774e-09 -5.99331e-07 -1.12554e-07 -2.26923e-07 8.7936e-10 3.33353e-08 2.07739e-07 -8.13353e-11 -4.45679e-07 1.88806e-08 8.29446e-08 3.6489e-10 -1.06611e-07 -8.22487e-08 -2.99249e-10 3.79821e-09 1.09377e-07 -4.45702e-09 1.18533e-08 3.07151e-09 1.67741e-09 8.74205e-08 1.84114e-08 7.42853e-07 9.97221e-08 -1.82868e-08 -8.15103e-08 -1.65607e-07 2.47536e-07 -3.93167e-09 -3.45021e-08 1.73422e-07 -2.21942e-08 -3.6223e-07 -7.26405e-09 -4.05705e-08 5.06168e-10 7.7463e-09 -7.3553e-08 -2.66108e-10 1.77856e-09 -2.74643e-07 2.27333e-07 -7.01082e-09 -1.28472e-08 -3.67903e-07 -1.77587e-07 -1.47143e-07 2.48775e-09 -5.92696e-08 -4.3141e-07 -4.70863e-07 -1.03295e-06 -1.80891e-08 -9.03172e-08 -9.46435e-08 2.30709e-09 -1.37426e-07 9.48408e-07 -9.79909e-08 4.8281e-06 -6.16624e-10 -9.44043e-09 -2.56211e-07 -2.20953e-08 -1.70191e-07 -2.67216e-07 -4.34341e-07 -2.23479e-07 6.81415e-08 1.52585e-07 2.88454e-07 -2.89602e-07 5.27596e-08 2.60063e-08 -2.57335e-07 1.15948e-08 1.16037e-10 -4.11914e-07 -6.27382e-08 -4.49091e-08 -7.53947e-08 1.19418e-06 -9.21592e-08 -1.90106e-08 4.0822e-08 -9.55527e-07 -1.29888e-07 8.84783e-07 1.18849e-06 4.63579e-07 -1.36512e-07 -7.23641e-08 -2.76725e-07 -7.42657e-07 -3.77921e-08 4.80708e-08 3.97976e-08 -6.82159e-09 1.39865e-08 -9.18692e-08 2.45825e-08 -4.42718e-08 1.22135e-08 2.13756e-07 -2.15214e-08 -1.64464e-07 -1.56397e-07 -7.51306e-08 -3.35487e-07 -8.26285e-08 5.56593e-08 -1.64038e-07 -1.68685e-07 -2.4629e-08 -4.19887e-08 -1.05573e-06 -3.06639e-08 -7.5862e-07 -5.49431e-08 -1.19592e-06 -6.07875e-07 -1.37605e-06 1.74744e-06 -3.10174e-08 -3.95459e-07 2.52306e-07 -3.53154e-07 -1.34799e-08 -5.77589e-07 -2.0387e-07 -8.15372e-08 1.27337e-08 -4.0483e-08 -3.59187e-08 -2.12409e-08 -1.12327e-08 -1.33661e-07 2.6107e-07 1.14722e-07 -2.93826e-08 1.53381e-06 -3.82346e-09 -1.3413e-07 1.37243e-08 2.60214e-08 -7.10516e-08 -1.34608e-07 -4.44263e-07 -1.40392e-07 1.27472e-07 1.29214e-08 -1.85157e-07 -1.47846e-07 3.33384e-08 -4.77428e-08 -2.0136e-07 -7.61706e-09 -1.35543e-07 1.90286e-07 -5.14572e-07 -6.5749e-07 3.186e-07 -5.52376e-08 -1.17534e-07 -3.3731e-07 1.63584e-07 -9.82625e-08 1.28422e-07 -2.27534e-07 -1.66376e-09 -1.38988e-07 -4.73722e-09 -3.08413e-08 1.83232e-07 -1.84934e-06 1.38688e-06 -1.2728e-07 -9.42189e-07 -2.34519e-07 2.15599e-06 -2.51826e-07 4.14308e-06 1.67756e-06 9.6691e-07 1.71214e-06 -3.15836e-08 -2.11624e-07 5.00821e-08 -3.33277e-08 -1.67638e-07 -1.26538e-08 -3.05714e-08 -1.47978e-08 1.94655e-07 1.7582e-07 -1.83031e-07 -1.22227e-07 -1.68635e-08 3.61627e-07 1.22137e-07 1.05565e-08 4.57882e-09 -2.0417e-07 -1.25046e-08 -2.3012e-07 -1.10263e-09 -1.12574e-08 -4.62218e-09 -6.39439e-09 -7.25291e-10 4.20095e-09 1.07623e-07 -3.81563e-07 -6.25201e-08 -6.26887e-08 -2.86002e-07 8.21327e-08 -2.06885e-07 -7.09112e-08 -1.43459e-07 -6.84895e-07 -2.37488e-07 7.56392e-08 1.28935e-08 3.05591e-09 -3.16352e-09 -4.48212e-07 -6.88724e-07 -9.85371e-08 -1.58939e-07 -2.27277e-08 -6.04862e-08 -2.23147e-07 -2.61154e-08 3.55156e-09 -4.96469e-10 -7.79937e-11 -1.0069e-08 -1.77664e-10 2.0431e-06 -3.92801e-07 -6.01373e-08 -2.10232e-08 -1.25547e-06 1.00166e-06 -3.22367e-07 -1.74409e-06 -1.52455e-08 -5.69647e-09 1.59433e-08 7.14647e-08 5.71354e-08 -1.5052e-07 -5.74242e-09 3.10212e-08 2.58513e-07 2.68217e-07 -4.73302e-09 2.07994e-08 2.26975e-07 3.92302e-09 4.45403e-09 -4.95791e-08 -1.08927e-08 -1.44584e-06 -6.14507e-08 -2.31132e-07 1.48456e-08 -5.99949e-07 -3.38493e-07 2.07459e-08 -2.60585e-07 4.20327e-09 -1.34815e-08 -1.32554e-07 -5.7779e-08 -7.38571e-08 2.24955e-07 -1.31685e-07 5.9864e-08 7.73634e-08 -1.61617e-08 1.07648e-07 7.12782e-08 -1.6919e-08 3.08497e-07 -5.00275e-07 -5.18559e-07 -7.44501e-07 -7.52063e-07 1.15055e-06 -2.0247e-07 -7.56657e-08 -6.81767e-07 1.50394e-08 -3.09231e-08 -8.4155e-07 -4.6284e-07 -2.30896e-08 -7.80737e-11 -1.5234e-09 -2.04412e-07 1.42552e-06 1.23942e-07 -5.35439e-07 -1.96025e-07 -8.42301e-07 -1.02268e-06 3.94273e-07 6.04919e-08 -1.68357e-09 1.75834e-08 1.8013e-08 1.5287e-07 -3.47517e-07 -4.79638e-07 -1.55333e-07 2.4363e-08 -6.80592e-08 6.73485e-08 4.58229e-08 -8.64805e-08 1.88292e-07 1.83975e-06 1.81705e-07 1.12828e-07 -6.91357e-07 -2.54654e-08 -8.01874e-08 2.0243e-08 -1.01467e-07 6.36591e-09 -3.8337e-08 -1.18732e-07 -3.10348e-08 -2.69191e-08 7.20852e-09 2.26952e-07 -5.45035e-09 -1.07935e-07 -1.64685e-07 -2.723e-07 -1.35352e-07 1.09515e-08 3.96589e-08 8.7491e-09 1.29917e-07 -4.72309e-08 -1.13183e-07 -4.69552e-08 -1.10409e-08 -7.80372e-08 -1.28936e-07 -1.45771e-08 1.49229e-07 3.16563e-07 7.67393e-08 3.74209e-07 8.04771e-08 2.95828e-09 -4.31092e-07 -7.53819e-07 2.85294e-09 1.72371e-09 1.35969e-10 -1.35704e-08 3.53547e-09 -5.96712e-10 -3.35235e-07 3.89459e-09 -5.35717e-09 -3.48753e-09 -1.0263e-08 -1.29428e-07 3.18358e-08 -2.98745e-08 -1.60262e-07 -1.87521e-07 -1.06291e-07 -2.86615e-07 -1.07741e-07 -3.56876e-07 5.12137e-08 -6.42402e-09 2.68602e-08 -1.03435e-07 2.42736e-07 -2.49848e-07 -7.93433e-08 -1.44246e-07 -1.36368e-07 -8.12424e-08 4.77701e-08 -4.82331e-08 -8.62566e-08 -3.48235e-08 2.26471e-07 1.80844e-07 -3.78137e-07 1.48152e-08 9.58734e-08 7.40071e-08 -5.99218e-08 8.71494e-09 -3.74652e-09 -1.13264e-08 -1.91926e-07 3.22673e-07 5.01137e-07 1.36302e-08 -1.55008e-07 -2.29162e-07 4.19914e-07 2.14108e-07 2.91967e-07 1.82442e-07 2.45872e-07 -2.42242e-07 -1.98015e-09 7.11734e-08 5.81686e-08 -2.38765e-08 -1.03593e-07 -6.83576e-09 1.59042e-07 -6.27478e-08 -1.40886e-07 -3.18439e-09 4.26686e-08 1.15707e-08 -7.23985e-08 -1.18793e-07 -3.77659e-07 -1.76764e-07 2.5315e-08 -1.80165e-08 -2.90927e-07 -3.69673e-08 -1.63855e-06 -5.32847e-07 -1.24258e-06 -1.67633e-08 1.39411e-07 -1.07363e-07 -3.97166e-07 -2.17669e-07 6.46789e-08 1.07667e-06 -5.2314e-09 1.37375e-08 4.20118e-10 -1.60823e-08 6.62544e-10 5.03387e-08 -3.98216e-08 -6.53363e-08 -5.41771e-07 -1.33762e-07 -2.74327e-08 2.79309e-07 -1.29732e-07 1.29345e-07 -2.22335e-07 -7.43667e-08 2.04388e-08 -1.24174e-07 -1.98581e-08 2.87082e-08 -4.23283e-09 -7.67814e-08 3.30408e-07 3.02377e-07 -4.40132e-08 -1.63984e-08 -2.13237e-07 3.80094e-07 1.32596e-07 4.15895e-07 2.71696e-06 3.6137e-08 -2.03419e-07 -2.81553e-07 -2.31419e-07 -4.25045e-07 -3.10317e-07 -7.21975e-11 5.20083e-08 3.59359e-09 4.71687e-08 -8.94292e-08 1.62724e-08 -1.59215e-08 -2.28557e-08 2.01186e-06 1.681e-06 -7.24362e-07 -6.01226e-07 1.04214e-07 -2.99693e-07 -2.98204e-07 -4.6668e-07 -1.99119e-08 -1.82812e-07 -3.14369e-07 1.54106e-08 2.64936e-08 -1.96122e-08 -6.11886e-08 -3.46546e-07 4.93866e-08 -2.05783e-08 -4.12422e-07 7.6768e-08 6.03423e-08 -3.94575e-08 1.14125e-08 1.35003e-07 -1.73981e-07 -1.09787e-08 -1.32195e-06 -6.84701e-08 -5.12573e-07 -1.28341e-07 -5.81007e-08 1.17112e-07 9.11756e-08 -1.9907e-08 -1.17754e-08 -1.14876e-06 -1.99845e-07 3.02126e-09 -5.18563e-09 1.79026e-07 -1.06049e-08 -1.69677e-07 2.89678e-07 -2.46721e-08 -1.39412e-08 -1.18651e-09 -1.75659e-08 8.51305e-08 -5.07011e-07 1.50896e-07 2.57338e-07 -2.94279e-07 -3.60961e-08 4.05804e-08 1.98138e-07 -9.46518e-07 -1.56997e-07 2.01714e-07 -3.15138e-07 -4.31288e-07 7.8856e-08 -4.10226e-08 -9.20657e-07 -2.74338e-07 -3.74364e-07 -5.26199e-07 7.24218e-08 8.42925e-09 1.22717e-07 -2.58655e-07 1.24914e-07 2.04277e-08 2.41189e-08 -2.20197e-07 -1.40695e-07 -1.30187e-07 1.33791e-09 -7.28137e-09 -1.68089e-07 -1.38621e-08 -2.28448e-08 1.89345e-07 -1.85828e-07 -9.13707e-08 5.74077e-07 5.25567e-07 -4.98848e-07 -1.83378e-08 -1.36957e-07 -1.57761e-07 -8.03823e-07 -1.54733e-07 -1.1048e-07 -2.16168e-09 -6.12479e-08 -1.48829e-07 2.34165e-08 -1.42216e-07 -3.49853e-07 6.41675e-09 -5.36678e-08 -5.6331e-08 -5.34394e-09 6.23359e-09 -3.97305e-07 -3.59797e-07 6.3866e-08 -5.40914e-07 -3.3644e-07 4.95778e-07 1.05088e-08 3.01198e-08 -2.26338e-10 7.67346e-09 -9.87991e-08 -1.97699e-07 -1.36947e-08 -2.29887e-09 -2.00877e-07 -1.49533e-07 -9.65777e-08 4.5993e-08 1.2034e-07 9.43274e-08 5.90584e-08 1.06868e-08 -1.54211e-07 -2.91105e-08 5.36769e-08 1.74811e-08 -8.22476e-08 -1.32039e-07 1.02314e-07 -1.14422e-08 -3.38898e-08 1.49064e-07 -4.38426e-09 -6.90529e-08 -3.62997e-08 -2.14472e-07 -2.23107e-09 -2.73129e-08 -2.48427e-06 -9.26425e-10 -1.01343e-08 -1.10567e-07 -2.0156e-07 -1.40155e-08 -4.60319e-08 -1.00405e-07 -2.04285e-08 2.36782e-08 -1.18277e-07 -4.2242e-08 2.45909e-09 -1.617e-08 -2.69875e-07 -1.07475e-08 -1.2561e-08 -3.37799e-09 -5.86975e-08 3.25172e-08 -8.2682e-08 -1.39423e-07 -1.5979e-07 -1.09395e-06 -2.67331e-07 -8.26452e-08 -7.40612e-08 3.33733e-08 2.02207e-07 -6.59249e-08 -1.38555e-09 1.04568e-07 1.524e-09 -1.67569e-07 1.76663e-07 -9.64924e-08 -3.7078e-07 -3.43061e-08 -1.26561e-07 -7.79358e-08 -4.26912e-08 2.81859e-09 9.9279e-08 -7.02683e-08 -3.7774e-08 -1.375e-07 4.59733e-08 -1.14844e-07 -8.91122e-09 -1.09221e-08 -8.24147e-09 -4.56782e-07 -4.37452e-07 2.09982e-07 4.73816e-08 1.29525e-07 5.21429e-08 3.51449e-07 2.19688e-07 1.02194e-07 -8.13535e-08 -1.06911e-07 -7.35471e-08 -4.12056e-08 1.0651e-07 2.33584e-07 9.45298e-08 3.12376e-09 4.5038e-08 -1.12352e-07 -8.27415e-08 4.33974e-07 -1.69764e-07 -1.19109e-08 3.59541e-10 3.23535e-09 -3.39273e-08 -8.24828e-08 1.82453e-08 4.28659e-08 -3.41748e-08 -7.04727e-07 -9.51227e-08 -1.01054e-07 8.87556e-08 1.43895e-08 2.46798e-07 -7.45102e-07 1.14842e-07 2.88412e-07 -3.57298e-08 2.36006e-07 -6.75831e-08 -5.03109e-08 -1.13514e-07 -1.02719e-08 -3.70524e-08 5.2419e-09 1.91722e-08 1.70241e-07 8.29511e-09 -8.38084e-09 1.25448e-09 -3.59887e-07 -1.81583e-07 3.35741e-07 -4.1693e-08 1.81661e-08 3.64504e-08 1.83283e-07 3.35311e-07 6.20587e-08 -1.3705e-08 1.01762e-07 2.07393e-07 3.7808e-07 -6.12906e-09 -1.93715e-07 -1.83324e-07 -2.67232e-07 3.76699e-08 -1.05428e-07 -8.06571e-08 3.23356e-08 -1.66163e-07 -1.48736e-07 2.78542e-07 -1.454e-07 -2.96608e-08 -3.69005e-07 -1.07804e-07 8.03357e-09 -5.75646e-08 6.55096e-08 4.72998e-09 -1.90946e-07 -7.07606e-08 1.92595e-07 -4.35025e-08 1.20321e-07 -4.43797e-07 -6.44892e-08 6.64074e-08 1.03568e-07 7.74039e-10 1.54969e-09 9.56522e-08 2.38544e-07 1.37627e-09 -1.4637e-09 -3.46207e-07 6.3906e-08 -1.22301e-06 -1.01722e-07 -4.41466e-08 1.79635e-07 -3.12655e-06 -1.79643e-07 -2.8693e-06 -3.48715e-07 -2.18159e-07 -1.07369e-06 -1.35616e-08 9.09566e-09 8.80417e-10 -1.07699e-08 3.79982e-09 -3.40443e-07 -2.23406e-09 -2.35177e-07 -1.5077e-07 -1.77564e-09 -1.35405e-07 -9.73769e-07 -3.69301e-08 -7.07503e-09 -3.26458e-08 4.21747e-07 -2.00985e-07 -8.61356e-08 -1.73707e-07 -4.3636e-07 2.84793e-07 2.68396e-08 1.20657e-07 1.1739e-07 2.89613e-08 3.46218e-09 5.54091e-08 1.26007e-08 8.53642e-07 -7.73401e-08 1.26306e-07 -1.21264e-07 -7.33716e-07 1.49697e-07 -3.91803e-09 -1.38875e-07 -1.93264e-07 -2.15449e-07 -3.6447e-07 -9.3173e-08 -1.26461e-07 -2.53618e-07 2.33984e-08 -4.0462e-08 3.04733e-07 6.79362e-08 -1.38548e-07 3.77362e-07 -6.98365e-08 1.08846e-07 -5.54223e-10 -5.51106e-08 5.08967e-08 -1.26619e-07 -5.2021e-08 -1.59653e-07 3.88591e-09 -7.33535e-08 -8.96337e-09 -2.71027e-09 -9.75805e-10 6.77247e-07 2.64362e-07 3.65647e-07 1.87462e-07 5.83522e-07 -1.82998e-08 4.41099e-08 -9.75084e-08 5.34147e-07 -8.92237e-08 -1.25121e-07 -3.74175e-07 -3.10676e-07 -1.35121e-07 -1.70943e-07 -1.15888e-07 -2.4373e-08 1.573e-08 -5.37723e-08 1.5045e-07 -6.45423e-08 -1.62421e-07 -1.2702e-07 6.83133e-08 -1.92327e-07 -4.34766e-08 -4.6504e-07 -5.96772e-07 -2.51031e-07 -2.56598e-07 -1.09666e-07 -1.06688e-06 2.48611e-07 -6.85773e-07 -1.05503e-07 2.35145e-07 -4.74763e-08 -9.15667e-08 -1.18718e-08 -1.35682e-07 -4.28489e-08 5.43129e-08 2.2919e-08 -2.6956e-07 1.11029e-07 1.06263e-08 -9.94833e-09 1.02254e-07 -1.90715e-07 -1.74751e-07 8.10763e-08 7.38443e-08 -1.15414e-07 -1.38522e-07 1.09188e-08 9.43605e-08 -7.14253e-07 -3.03553e-07 -1.13444e-06 -3.71258e-07 5.28878e-08 4.82617e-08 6.1446e-08 -1.25069e-08 -2.6312e-07 -5.77972e-08 -9.16526e-08 -2.85761e-07 -1.05933e-06 1.27517e-08 -2.61969e-07 -2.38633e-06 -3.18608e-06 -2.99091e-06 1.2309e-08 8.6317e-08 -4.98316e-08 -3.05907e-08 -3.78785e-07 -2.76578e-08 -1.75565e-06 -2.08063e-06 -1.29929e-06 -1.72769e-06 -9.36094e-07 -4.68572e-08 -1.96719e-07 -8.55004e-08 1.4925e-08 -1.00741e-07 -8.54243e-07 2.06773e-07 -8.36704e-07 -3.00322e-08 -2.21531e-06 -5.08823e-07 -1.46302e-06 -4.70819e-07 -7.47471e-07 -1.1347e-06 2.29116e-08 -9.09697e-09 -1.64189e-07 2.99181e-08 -1.68203e-07 -4.67185e-09 -5.45941e-08 -2.41061e-07 -3.40162e-07 2.94006e-08 -2.86824e-08 -1.73808e-07 -8.06774e-07 3.45756e-07 -2.26635e-07 -2.46423e-07 -9.06421e-10 -3.04932e-07 -1.35989e-06 -6.26039e-07 -1.23414e-06 -1.05892e-06 2.03655e-07 -1.01239e-07 2.52706e-07 1.14063e-07 1.07033e-07 -3.12373e-07 -6.35574e-09 -8.9553e-08 -3.32184e-07 -6.40257e-08 3.06328e-07 9.23761e-08 -2.66826e-07 -6.20275e-08 -1.85943e-07 6.98215e-09 -1.67306e-07 -3.52861e-07 -3.70243e-08 -4.60618e-07 9.89095e-08 8.13269e-08 9.73372e-08 4.74071e-08 -1.12242e-07 -3.32463e-07 -1.30401e-07 -2.07604e-08 2.01535e-07 1.93648e-07 -1.0757e-08 -1.92756e-08 4.33545e-08 1.00668e-08 3.31962e-07 1.9704e-08 -7.25777e-08 4.90427e-08 2.73812e-08 2.39605e-08 4.44282e-08 5.74356e-08 5.04536e-07 1.03765e-08 6.05151e-08 3.13668e-08 -1.3862e-08 -1.8473e-08 1.20581e-08 1.15416e-08 -4.92764e-07 1.71951e-07 -1.09544e-07 1.56278e-07 1.02488e-06 -1.81433e-06 -2.86674e-08 -4.44179e-07 -5.1665e-07 6.3286e-07 -3.62609e-07 -1.38261e-09 2.63389e-08 1.72e-08 7.78782e-08 4.62081e-07 -3.55237e-07 -1.04387e-06 6.84898e-08 -2.63312e-08 -2.95338e-08 8.02077e-08 -1.02215e-07 -8.58755e-09 -5.54515e-09 3.2865e-08 -8.75127e-08 9.55739e-08 -8.25445e-09 -1.18957e-08 6.51535e-08 -4.15847e-08 -4.0166e-09 -2.94554e-08 -1.1475e-07 8.21894e-08 -1.82707e-07 -3.14449e-08 8.09904e-08 -1.81955e-07 -2.65907e-07 -4.44696e-08 -1.04844e-07 1.0627e-07 -2.10853e-07 -3.25366e-07 3.20225e-08 -2.03661e-08 1.98166e-07 2.21409e-07 2.14206e-08 3.31555e-08 3.8459e-07 -1.15075e-07 -2.46949e-06 -4.35641e-08 -3.43617e-08 -1.68402e-07 -7.40032e-08 -1.50556e-07 8.00531e-08 -8.1071e-08 6.67916e-07 1.59991e-07 -3.26445e-09 -9.60765e-07 -3.3681e-08 2.56319e-08 1.0099e-07 -8.5527e-09 -2.18938e-07 6.31944e-08 -3.41421e-07 3.55245e-07 4.30138e-07 1.17983e-06 -2.81992e-07 -7.13462e-07 -4.62051e-08 2.38074e-07 5.6241e-07 -1.906e-08 -1.39235e-07 -1.3634e-08 -3.32763e-07 -2.872e-07 -8.1725e-08 4.35718e-08 5.53244e-08 8.10411e-08 -1.40357e-07 7.96744e-08 -7.92982e-09 -2.52626e-09 -8.5583e-09 1.12262e-07 2.02423e-08 1.06373e-10 -6.64339e-08 4.75645e-08 3.73886e-08 -2.76117e-08 3.94308e-08 -1.31076e-07 -1.46768e-07 -6.45532e-07 -5.30977e-08 -1.16769e-08 7.07959e-08 -1.28773e-08 2.12024e-07 -2.28419e-08 4.76787e-08 -3.08642e-07 -7.91505e-08 4.84966e-08 6.03241e-08 4.35785e-08 1.10111e-07 -3.31845e-08 1.17113e-07 6.7517e-07 4.11065e-07 -1.19324e-07 -1.6237e-07 -2.46547e-07 -6.16311e-07 -1.69696e-07 -4.49905e-07 -1.05115e-08 -5.94507e-07 -3.73161e-08 -3.09148e-07 3.38649e-07 -9.62084e-08 -1.18351e-06 -8.22928e-08 1.07062e-07 -1.59064e-08 -7.77979e-08 -1.29337e-07 3.44269e-08 1.36988e-08 2.49622e-09 -4.2413e-08 -4.43847e-07 -7.3652e-08 -2.64755e-09 -2.75693e-07 -4.82549e-08 5.21326e-08 1.92604e-07 -5.98455e-08 -1.34418e-07 -3.71277e-08 -1.39747e-07 -4.71066e-07 -1.81648e-07 -9.0965e-08 -1.09671e-07 -1.77632e-09 -9.17135e-08 -5.88401e-08 1.71372e-09 3.45366e-09 -4.29686e-09 1.3715e-09 -3.45487e-07 -1.12718e-10 2.6146e-09 1.22755e-07 3.0637e-09 -2.67079e-07 -8.23078e-09 -2.31919e-07 -3.42413e-08 -3.07068e-07 -8.51114e-08 6.67221e-08 -6.08531e-08 -5.12583e-08 -1.86646e-07 -4.01616e-08 -2.76317e-08 -4.09718e-08 2.42366e-07 -1.89241e-08 -1.11251e-08 1.00981e-08 1.05846e-09 -4.99872e-07 4.64824e-08 -1.10823e-08 -8.07027e-07 -3.71422e-08 -1.90657e-07 -2.38305e-07 -3.48441e-07 -2.00511e-07 -2.17047e-08 -5.28975e-07 -4.36996e-07 -2.70863e-09 1.19702e-08 1.22203e-09 -1.60259e-07 -1.54952e-07 3.48232e-08 2.20667e-09 4.65812e-07 3.65607e-08 -1.666e-07 -1.80977e-09 -3.37972e-07 -9.84344e-08 -1.66542e-07 -1.78749e-07 -4.18751e-08 4.81491e-08 -2.61185e-08 8.17044e-07 -6.74895e-08 -1.0022e-06 -1.55729e-06 -7.68014e-08 -2.526e-09 -1.56025e-07 -1.62319e-06 2.08958e-08 2.26214e-09 -2.57608e-08 -2.84856e-07 -1.16728e-06 6.4369e-08 -1.36863e-07 2.34176e-07 -1.01998e-07 -3.51147e-08 -1.1711e-07 -1.78837e-08 -2.95649e-07 5.92864e-09 -3.20526e-08 -1.18809e-07 -2.64778e-07 1.68007e-06 -1.06797e-08 6.11718e-08 -1.56746e-07 -1.7599e-07 -1.64851e-07 -9.99546e-08 -2.83849e-07 -1.21247e-08 4.68155e-08 2.01072e-07 -2.84217e-08 6.07948e-08 -2.74354e-08 1.2128e-07 -9.7276e-08 3.98109e-08 -8.74619e-08 -5.3632e-08 -1.01778e-07 -4.10907e-08 -4.89032e-07 4.46183e-07 -7.43667e-08 -5.32637e-07 2.20267e-07 -5.10206e-08 -8.70442e-08 4.2183e-08 -6.04209e-08 5.07668e-08 2.56294e-08 -7.30133e-08 8.08048e-08 -1.38596e-07 -1.17631e-07 -1.09451e-07 -6.96215e-08 -1.59817e-07 -3.16375e-07 -3.31883e-07 -1.74213e-06 -9.99946e-08 -1.86064e-08 -1.22913e-06 -1.4372e-07 1.49953e-07 -2.75019e-07 -1.00374e-06 1.14988e-07 1.62759e-08 5.97043e-08 -1.23782e-07 -1.21685e-07 8.91764e-08 1.01589e-07 -2.79695e-08 -9.88969e-08 1.3182e-07 4.93473e-08 -4.63172e-08 4.33875e-08 -2.62265e-09 -1.14652e-07 -4.55733e-07 -2.05193e-08 3.03586e-08 -2.47358e-07 -3.94817e-07 -9.54695e-07 -2.81696e-06 -1.4513e-08 -4.28086e-09 -1.85942e-07 3.33283e-07 -1.61365e-07 -2.36368e-07 -5.18705e-07 -4.70657e-08 1.95166e-07 -1.9698e-07 4.09419e-08 -1.78457e-07 1.94009e-07 3.43953e-07 -5.68513e-07 1.13395e-07 -3.58381e-07 -9.84004e-08 -6.88348e-09 2.64241e-08 -1.22279e-08 2.39205e-07 7.91781e-08 3.51165e-08 2.9197e-08 7.71075e-07 1.27543e-07 2.48589e-07 2.45376e-07 3.26984e-08 4.35082e-08 -5.93931e-09 -8.88152e-09 -9.30583e-09 -4.93387e-09 3.09337e-08 1.22736e-08 3.38151e-08 -2.00634e-08 4.68015e-09 -5.61389e-07 -3.53583e-07 1.88025e-08 -4.72991e-07 -5.4605e-09 -1.05354e-06 3.3332e-08 -2.61346e-08 -1.033e-07 -1.49549e-08 1.39815e-09 9.60188e-08 4.95893e-10 -4.62741e-08 7.06624e-08 -1.23642e-07 -1.02261e-08 1.38511e-08 -2.6925e-07 -4.00153e-08 -1.70006e-07 3.98672e-10 2.39242e-07 -1.39673e-07 4.44813e-10 -1.33082e-07 9.12919e-08 -4.01299e-08 3.81152e-07 1.93755e-08 -5.75055e-07 -2.16099e-07 -6.64542e-07 -5.17322e-07 -2.11097e-08 7.02269e-08 3.25496e-07 -2.1919e-07 -1.67999e-07 -6.33997e-08 -1.86756e-07 -2.73863e-07 -2.3865e-07 -6.55545e-07 -2.44388e-08 -3.6523e-07 -2.26279e-07 -9.53345e-09 -1.36088e-07 -1.35478e-07 -8.29219e-08 4.71274e-07 1.65589e-07 -2.41971e-07 -7.49372e-08 -5.86354e-08 1.49633e-08 -7.30502e-08 -2.13633e-07 -2.01817e-07 -4.07213e-08 3.79529e-08 -5.46342e-07 -9.02798e-08 1.87559e-07 1.14187e-07 4.23761e-07 1.09429e-07 1.79029e-07 -1.57076e-08 -1.42273e-08 -4.22625e-09 -1.89746e-08 -1.42419e-08 -4.9455e-08 -1.90616e-08 -1.09324e-07 1.03897e-09 -1.50564e-09 -2.9392e-08 -1.91593e-10 -4.36789e-08 -5.74343e-10 -7.59883e-10 6.18526e-09 1.96452e-07 4.96465e-08 5.99382e-10 1.76605e-07 1.40686e-07 -9.42555e-08 2.75093e-10 -3.7354e-07 -1.78858e-07 3.86292e-10 3.60395e-08 5.04252e-09 -6.39449e-08 2.99631e-09 2.16564e-08 3.21626e-07 -8.36916e-08 -8.96141e-09 -1.30088e-07 -3.72989e-07 -1.30749e-07 -4.81292e-08 -4.4005e-09 -1.23555e-07 2.51072e-08 -9.15238e-09 -1.56178e-07 -2.3392e-07 -4.71493e-07 -5.77781e-07 -4.91099e-07 2.658e-08 -2.11332e-08 -5.78487e-08 -1.95238e-08 3.7565e-07 -1.53083e-06 -6.36165e-08 -1.72699e-07 -1.76044e-07 -3.5713e-08 -8.2731e-08 -1.27605e-07 -4.20767e-08 -1.05276e-07 1.69687e-07 -1.4043e-08 -7.89964e-08 -9.52387e-08 -1.19029e-07 2.61846e-07 -1.21079e-07 1.31392e-08 -1.00385e-07 1.3966e-09 -3.55654e-07 2.57142e-07 -5.49577e-07 -5.33484e-07 -4.03806e-08 -3.18585e-08 -6.68903e-07 -2.02699e-08 -7.44838e-09 1.31211e-07 -2.36817e-07 -1.46683e-07 -5.19098e-08 1.96893e-07 4.06151e-08 -9.76378e-08 -5.21853e-07 -1.32549e-08 -1.66665e-07 2.2317e-07 1.19125e-07 -4.0488e-08 2.51324e-08 -7.97551e-09 -3.75261e-08 -3.98107e-07 -7.06678e-08 -1.0474e-08 -4.36012e-07 -6.81403e-09 -9.01529e-09 -4.54791e-08 -2.30063e-06 -3.23652e-06 -8.28908e-09 1.85435e-08 -6.39073e-07 -4.26456e-08 5.63209e-08 -1.45395e-06 -2.38944e-07 1.17208e-07 -7.096e-07 -6.45956e-07 -4.84446e-07 -2.96098e-07 2.60677e-07 -1.25118e-07 -1.25345e-07 -9.4954e-08 8.82446e-09 -6.85052e-08 -6.82921e-07 -4.68825e-08 1.08787e-08 -1.94266e-07 -1.86099e-07 -5.82489e-08 -5.1672e-07 -3.30391e-07 8.15197e-08 -4.08432e-08 5.95438e-09 1.70919e-07 -8.49812e-08 1.96744e-08 -4.28439e-08 -5.2898e-08 -3.82641e-08 1.16265e-09 9.99309e-08 -1.61119e-07 -2.85378e-08 -9.18666e-08 -6.68288e-08 -1.50832e-07 -1.10844e-06 3.70562e-09 2.29137e-06 2.56623e-07 -2.79693e-07 -6.93829e-07 -2.81826e-07 -8.17909e-08 5.3145e-08 1.27966e-07 -2.01476e-07 6.20413e-08 1.47887e-07 7.36677e-08 -5.07625e-08 2.03458e-08 4.8245e-08 2.12377e-08 1.02513e-07 -3.80437e-08 -1.06009e-07 -4.33705e-08 3.81984e-09 -2.48434e-07 -1.51262e-07 -7.34676e-08 -1.34398e-07 -7.63722e-08 -1.50045e-08 5.75378e-08 1.93058e-07 -3.43287e-07 -5.34488e-07 -1.65253e-08 -1.39351e-07 -3.05365e-09 -2.04918e-08 -2.67452e-07 -1.79578e-07 6.11747e-09 3.27947e-09 -5.80814e-08 2.11862e-07 8.82601e-09 -7.19473e-07 7.91001e-07 2.6828e-07 5.96004e-08 -7.32211e-07 8.87608e-07 -4.54596e-07 -3.38026e-07 3.19395e-07 -1.29936e-07 -8.53758e-08 -3.86123e-08 9.65464e-08 9.50277e-08 3.68939e-09 1.26183e-07 3.44321e-08 7.86462e-09 -3.24455e-08 -1.43968e-07 -2.57258e-07 -6.68693e-08 -2.83876e-07 -1.09387e-07 -4.67953e-08 1.43427e-09 1.17651e-07 7.91631e-09 -1.36499e-08 3.56699e-09 1.60963e-07 -1.45542e-07 3.67622e-07 -2.1386e-07 2.97471e-07 2.8837e-07 2.98007e-08 6.35137e-09 -1.81253e-08 -4.7148e-08 -5.74982e-08 9.89257e-08 1.68909e-07 2.19274e-07 2.6368e-07 1.46572e-07 -1.96377e-07 -8.05337e-07 -3.11034e-08 -3.43236e-08 -7.46168e-08 2.30016e-08 -1.26527e-06 -7.60444e-07 5.31407e-08 2.14601e-08 -1.95829e-07 -1.54506e-07 -6.25201e-07 1.00807e-08 -3.3779e-08 1.78458e-08 2.12008e-08 2.26391e-09 -3.9909e-08 -2.14858e-07 2.41477e-08 -2.1963e-07 -2.8596e-07 2.49456e-08 2.95275e-07 -1.55716e-07 1.21201e-07 9.2849e-09 7.75845e-08 -4.6857e-07 -5.91259e-08 -8.28407e-09 -2.95548e-07 -2.56726e-08 2.1686e-09 -1.01142e-08 -4.4485e-07 -2.60772e-08 -2.67145e-10 2.10478e-08 3.89787e-08 -1.36218e-08 2.96735e-07 2.7586e-08 2.96841e-07 9.33166e-09 -1.32044e-07 2.10734e-08 8.67528e-08 -2.36873e-08 -1.40146e-07 -2.12502e-07 2.69389e-08 -7.044e-08 -2.82e-07 -1.51683e-07 -4.13459e-08 -1.05352e-08 -2.36772e-07 3.33183e-08 -7.22478e-08 3.85588e-07 3.90248e-08 1.3801e-08 -3.69707e-08 1.13217e-07 -4.54023e-08 1.97993e-08 1.434e-07 -2.15808e-08 -8.53896e-08 -1.07486e-08 1.50607e-07 -8.49712e-08 1.52532e-08 -7.42961e-08 1.13203e-08 -2.22909e-08 2.70944e-08 -2.18467e-07 -1.16081e-07 -1.03738e-07 -1.36861e-07 -9.45696e-08 -8.96796e-08 -4.80848e-08 -1.71816e-08 -4.51837e-08 3.96253e-07 1.41044e-09 3.62587e-10 8.17111e-10 -7.61291e-08 -3.48931e-08 1.71585e-08 -4.40287e-08 5.59533e-08 -2.04797e-09 -8.22844e-08 -9.44589e-08 -7.49825e-08 2.53719e-09 7.08897e-09 2.49015e-09 -1.16307e-07 2.53457e-09 5.19784e-09 6.59421e-08 5.21805e-08 -9.71453e-08 -2.51784e-07 -2.70062e-10 -6.46563e-08 -4.49518e-08 -3.88512e-08 -5.28153e-08 -2.4752e-10 8.2641e-09 2.82536e-08 5.88494e-08 -1.72934e-07 -4.45543e-08 -1.02459e-07 -1.81947e-07 -1.28893e-08 -1.57005e-07 -2.399e-09 1.76414e-08 3.76852e-07 -2.60832e-07 -7.78851e-08 -7.93398e-07 -3.39877e-08 3.28605e-07 -2.8204e-07 5.10794e-08 -2.38176e-09 -3.96413e-08 -7.30957e-08 5.83614e-08 -2.92139e-07 -3.46369e-09 -3.16094e-07 -1.52213e-07 3.75572e-09 -9.33666e-07 -8.65729e-07 2.08916e-10 -9.13497e-07 -1.93685e-08 2.77351e-07 5.01192e-08 5.83982e-08 3.60267e-08 -6.69347e-09 7.9091e-07 -1.95804e-08 1.47416e-07 4.9232e-07 2.36478e-07 2.19348e-08 -4.47254e-08 3.49996e-08 -3.01571e-07 5.88688e-08 -1.48189e-08 -1.40292e-07 -4.88838e-08 -2.70716e-07 -3.19577e-07 1.04324e-08 -5.10871e-07 -4.1942e-07 -1.04621e-07 5.25695e-08 -6.1254e-07 1.27157e-07 -1.55245e-07 -1.15344e-08 -1.53271e-08 -1.37824e-08 -1.75491e-08 -1.68596e-08 -1.74388e-07 7.09272e-08 -1.95269e-07 1.00856e-07 -4.55844e-07 1.49615e-09 9.43064e-08 -1.93421e-07 -4.84823e-08 -3.64732e-08 -7.18408e-08 -1.14851e-07 -6.98015e-08 7.47391e-09 -9.12485e-08 7.33372e-09 -8.02566e-08 1.13152e-08 -7.62433e-08 -2.50843e-07 -1.92854e-07 -1.32179e-07 -1.65368e-08 -1.24871e-07 2.3843e-10 -7.70599e-08 7.27163e-08 1.33806e-08 -1.96141e-07 -2.69619e-07 -5.33348e-07 -2.59732e-07 -1.79062e-07 4.00253e-08 -1.00208e-06 -5.40332e-08 -3.00247e-07 -3.74513e-07 -4.33056e-07 -1.04869e-07 5.12232e-08 1.11664e-07 -5.25936e-07 -5.94427e-07 2.70158e-07 -1.03038e-06 -8.58858e-07 -9.85937e-08 -4.27146e-07 -3.03807e-08 3.76659e-07 -6.5479e-09 2.356e-07 -4.04968e-08 -1.09649e-09 -3.18318e-08 -7.92852e-07 -7.23907e-08 -9.3397e-08 -9.86122e-08 -6.24316e-08 -3.08841e-07 4.93443e-08 1.16265e-07 -4.39865e-07 -4.00314e-09 -1.32773e-06 2.74276e-08 -4.98323e-09 -1.40799e-08 -9.05561e-08 -7.34168e-07 8.7971e-08 -1.42145e-07 -3.17061e-08 -2.09288e-07 7.63588e-08 1.68395e-08 -8.93967e-09 -8.37765e-07 -3.70451e-07 -7.39466e-07 1.17492e-07 -4.60608e-07 6.46819e-08 -9.83343e-08 -4.59546e-08 -3.30295e-08 3.02751e-07 4.92601e-08 1.4603e-07 -2.83393e-07 -4.70777e-07 -1.02166e-08 2.24611e-07 6.40779e-08 3.27401e-08 1.68681e-07 1.07882e-09 -1.82519e-07 1.51489e-07 -1.87423e-07 4.35585e-09 -3.42887e-08 -3.5508e-08 6.27863e-09 -2.25058e-08 -3.2831e-08 -5.00373e-08 -2.86272e-08 -7.84759e-08 -1.437e-07 -3.59357e-08 -1.00993e-07 -4.25389e-08 3.68992e-09 -3.55132e-07 -2.1331e-08 -1.30949e-07 4.84545e-08 2.57322e-07 1.9027e-08 1.81849e-07 -3.20149e-07 -2.39617e-08 -7.54793e-08 2.38955e-07 8.88695e-08 2.94151e-07 -2.7588e-08 6.88629e-08 9.72112e-08 -1.35616e-07 -4.01151e-08 3.02346e-08 -5.27037e-07 -7.76311e-08 3.309e-08 3.55663e-08 -5.40352e-08 -2.28245e-08 1.2159e-08 1.10194e-07 -3.20784e-07 -5.01758e-08 7.70639e-08 -1.38507e-07 -6.87869e-07 -5.00588e-09 -2.22114e-07 -2.99182e-07 2.18102e-08 6.96344e-08 1.34455e-07 4.69663e-08 1.64527e-08 3.95573e-08 -2.42678e-08 6.84489e-09 -2.19053e-08 9.72062e-09 -2.15315e-06 -5.85411e-08 -1.31299e-08 4.26738e-09 4.21551e-08 -1.72343e-07 -9.57021e-08 -5.92999e-10 -5.51627e-08 -3.40255e-08 -1.01711e-07 -1.45544e-11 -8.87819e-09 -3.21371e-07 -4.90227e-08 -2.55634e-07 7.53624e-08 4.21548e-07 6.77736e-07 -1.05004e-06 2.33022e-07 -1.30114e-06 -6.71913e-08 -6.96884e-07 -4.11961e-07 -7.1701e-07 -4.4904e-07 -1.61418e-08 -4.02965e-09 2.26171e-07 1.77078e-08 -2.62677e-07 4.79424e-10 -4.72211e-07 -5.74863e-07 1.82537e-07 7.62808e-10 8.49089e-08 -1.31584e-07 8.24006e-10 2.20325e-08 -4.9565e-08 -9.74634e-08 -7.10631e-08 9.60362e-08 -3.66184e-08 3.10301e-08 -1.21863e-07 -3.28263e-07 5.64656e-07 -7.67592e-08 -3.65056e-08 -1.08029e-07 1.05657e-07 3.09549e-08 5.83959e-08 -5.50831e-07 4.92152e-07 4.32533e-09 1.07058e-07 -7.47104e-08 -1.15277e-06 -1.65539e-07 -1.78576e-08 -4.7244e-09 -9.05302e-09 -2.8355e-08 1.05388e-07 3.66615e-07 -3.19749e-07 2.28408e-07 -1.90334e-08 1.7017e-07 -2.63085e-07 9.73332e-07 1.36207e-08 1.52591e-06 -1.94604e-06 -3.51254e-07 -2.27445e-07 -2.0143e-07 -4.13492e-07 3.0512e-08 -5.62434e-07 -2.27765e-07 -3.18385e-07 2.29183e-07 1.23656e-07 -1.04674e-09 -5.64592e-07 -4.12598e-07 3.00514e-07 3.15001e-08 3.86553e-08 1.91997e-08 1.00209e-07 -1.44823e-07 -1.52042e-08 1.41024e-07 -2.99802e-08 -6.0026e-09 -6.4868e-09 7.45209e-08 1.37719e-07 1.18407e-07 3.15726e-08 3.30713e-07 -2.01274e-07 -5.74013e-09 3.46027e-07 -1.20464e-06 2.85555e-07 2.57785e-07 1.5091e-07 3.76421e-08 1.85092e-08 1.32323e-09 4.20488e-07 -2.87646e-08 -1.03884e-07 -4.73095e-09 -2.101e-07 -2.86619e-06 5.80725e-09 1.00224e-06 2.54546e-08 -7.95005e-08 -4.2103e-08 -7.88499e-08 -1.81901e-07 -2.47601e-07 -1.94625e-07 3.55054e-07 -2.4698e-08 3.39196e-09 -4.23872e-09 -2.31774e-07 1.6249e-07 2.96288e-08 -8.18319e-07 -1.86459e-07 -7.16811e-08 6.79358e-08 9.49389e-10 -1.1968e-07 -9.35312e-08 -1.52952e-08 1.17174e-07 -6.63443e-08 -7.32212e-08 -2.67739e-07 1.7933e-07 -5.86542e-08 4.55365e-09 8.30139e-08 -9.74331e-07 -2.00908e-08 3.97037e-07 3.84695e-07 6.55287e-08 -1.03282e-08 -8.28177e-08 2.32434e-07 2.15647e-08 4.04875e-07 -1.85437e-10 -4.73367e-09 5.93901e-07 -1.96576e-08 6.12365e-09 -2.28563e-07 8.51793e-08 -4.25141e-08 -8.17515e-08 -1.25958e-07 -4.02609e-07 -4.03042e-07 1.61928e-08 -1.87422e-08 8.50607e-09 -3.85228e-07 -6.61604e-08 -1.93871e-08 -5.89867e-08 -6.73873e-08 -4.38848e-08 -6.02019e-08 3.21092e-10 -4.87886e-08 -1.89655e-06 1.27076e-07 -1.24433e-06 7.81719e-09 -4.68851e-08 -2.54963e-08 -1.23586e-08 1.02294e-07 -1.68716e-07 2.94277e-08 -1.07046e-07 3.42844e-08 1.56168e-08 1.43575e-07 2.58352e-08 -1.29746e-07 -3.56767e-07 -2.56589e-08 -1.58673e-08 2.71258e-07 1.09538e-07 2.84254e-09 -9.99401e-08 -1.91757e-08 3.96607e-08 -1.42419e-08 -3.77606e-08 -1.3994e-07 -1.23622e-06 -1.96946e-06 -7.14108e-08 -4.76428e-07 -4.03776e-07 -7.29458e-07 -7.06912e-07 -2.226e-08 -4.08606e-10 -2.35351e-08 -7.44902e-08 -1.15139e-08 -6.76447e-08 6.96163e-07 1.06056e-08 3.90962e-07 -2.59838e-07 -8.83364e-08 -9.12843e-08 2.05095e-07 1.39004e-07 2.0778e-07 -1.36084e-08 1.99554e-07 4.47512e-06 4.73705e-06 -1.73149e-07 -1.07069e-07 -1.12852e-07 -2.17139e-07 1.49759e-07 2.5333e-07 -1.16802e-07 -2.79131e-07 2.75124e-07 2.41897e-07 2.97236e-07 2.11076e-08 6.01174e-08 -1.90891e-07 -1.87673e-09 2.32346e-08 -3.94994e-09 -4.63499e-09 4.12843e-10 4.0108e-08 -9.83619e-09 6.20239e-10 -1.94493e-07 3.34903e-08 -1.83643e-07 -6.30483e-08 3.6286e-07 -4.75805e-07 -3.35585e-08 -2.09983e-07 4.07048e-09 -6.42574e-08 -2.21248e-08 9.76749e-08 5.18655e-09 4.73188e-08 -7.93673e-08 6.03205e-09 9.73247e-08 -9.95799e-08 -7.83589e-09 9.14631e-08 7.64029e-08 -4.93926e-08 -6.91725e-08 1.66489e-08 -2.95596e-07 -1.70602e-07 -2.03915e-09 6.7623e-08 -7.33342e-09 -7.92592e-07 -3.47024e-07 -6.76934e-07 -2.08885e-07 -6.00155e-07 9.21387e-08 4.10126e-08 -1.16131e-07 -1.43332e-07 -1.28279e-07 1.01118e-07 -1.63843e-07 9.11624e-08 8.86474e-08 2.25195e-07 -7.18932e-08 -4.15856e-07 -1.25739e-07 -3.28927e-07 -6.6623e-07 -4.53361e-08 -6.02064e-08 2.23229e-08 -2.84785e-07 -7.4669e-08 -2.10799e-06 2.46977e-08 -3.65847e-07 -1.13642e-06 -5.01475e-07 -7.85709e-08 -6.23483e-07 -4.30693e-07 6.27688e-08 -1.09278e-07 4.48114e-07 1.14224e-07 -3.52706e-08 -1.4644e-09 -3.87634e-08 -1.06999e-07 2.1214e-08 1.54602e-08 -3.40669e-07 -5.14394e-07 -1.67748e-07 -1.24863e-07 4.58956e-10 -2.20282e-07 -5.79591e-08 -1.68616e-07 -4.92595e-08 -1.14835e-08 -2.73052e-08 -1.19313e-08 -1.63913e-09 1.67887e-07 -1.13969e-08 1.84488e-07 -2.92047e-08 1.67042e-10 -1.09539e-07 -1.09664e-08 -1.74743e-07 -5.06166e-09 -5.057e-07 -6.00098e-07 -4.50322e-08 2.9299e-08 -7.89823e-08 -2.42483e-07 1.17131e-08 1.47888e-07 8.44965e-09 -4.42751e-09 -2.85694e-08 -1.08732e-07 6.03301e-08 4.02867e-07 -2.18779e-07 1.97468e-07 1.55149e-07 3.78506e-07 -3.30339e-08 -2.15821e-10 1.24464e-08 6.35758e-09 -1.42888e-07 3.21816e-08 -6.04885e-08 1.25659e-07 -4.66904e-09 -1.23505e-07 -1.33264e-07 -1.15567e-08 7.56439e-08 -1.90291e-07 6.24127e-09 3.02906e-09 -2.06473e-08 -2.2839e-08 -4.03215e-07 -8.28818e-07 -1.09926e-06 -1.82746e-07 -4.66074e-07 2.65458e-07 -3.36267e-07 -8.54764e-08 -7.11404e-08 3.77324e-09 -2.01898e-07 -4.45361e-08 -1.63749e-07 -2.75999e-07 -9.97431e-08 6.28348e-08 2.19869e-07 7.32908e-08 -3.58982e-08 -7.28804e-08 -1.55326e-07 -4.30073e-07 -4.17615e-08 -9.09953e-09 -1.01208e-07 -1.61261e-09 -1.16761e-07 -8.55689e-09 -6.90808e-08 -8.49302e-08 -3.37913e-09 -1.15132e-08 -1.42305e-07 -7.46822e-08 -7.70131e-08 -1.1509e-07 -1.04977e-07 -5.97775e-08 1.49538e-08 7.63809e-09 -6.29879e-08 -3.02441e-07 1.31783e-09 6.35698e-09 1.19523e-09 -4.14498e-09 -4.92756e-08 -1.46543e-09 1.60775e-07 -6.80554e-08 -2.3589e-07 -1.06317e-07 6.23723e-08 1.56279e-07 8.54521e-08 -5.5166e-07 6.76878e-07 9.68459e-08 -4.96682e-07 1.33792e-07 -3.13779e-07 2.51699e-07 3.69206e-07 5.07456e-08 -1.6886e-07 -7.59931e-08 2.68365e-09 8.16098e-07 1.36725e-07 -1.81638e-08 -2.57766e-07 5.43703e-09 1.35598e-06 -8.28087e-08 1.0767e-09 -4.02657e-09 4.00493e-07 9.15095e-08 2.88207e-08 1.82094e-07 -4.39929e-08 -6.14152e-08 -2.3954e-06 1.93909e-08 -3.21807e-09 -1.42342e-07 -1.46827e-07 -8.05078e-08 -1.54066e-07 4.50342e-07 2.55839e-08 1.32522e-08 -7.80332e-08 -7.33247e-08 -6.18541e-10 -2.51971e-07 -2.07915e-07 -1.21187e-06 1.5853e-06 -1.51707e-07 -4.79435e-07 3.48386e-07 -7.32708e-07 -9.59541e-08 -1.58118e-07 -9.14952e-07 2.91948e-08 4.46463e-07 3.54236e-07 -3.22634e-07 3.16191e-07 -5.57707e-07 9.4829e-07 -4.30516e-07 2.74611e-07 -5.08808e-09 2.8419e-07 1.32497e-07 -3.80965e-07 3.38227e-07 -2.7813e-07 2.2349e-08 -2.10389e-07 -1.31346e-07 -1.62812e-07 -3.8969e-07 1.00171e-08 -8.15125e-08 -5.80204e-09 -1.99521e-07 2.24827e-09 -3.98099e-07 -1.66201e-07 1.30797e-07 -1.62168e-07 -2.24879e-07 -1.77064e-07 1.34176e-07 -6.24952e-08 -1.72477e-07 -3.34694e-07 -2.37372e-08 -4.89902e-08 -5.60395e-07 -2.77184e-07 -1.62949e-09 5.48714e-08 2.60246e-07 -4.89341e-07 -2.84269e-07 6.06179e-07 -2.93781e-07 -1.35247e-08 -2.84592e-08 -2.26338e-08 2.95993e-08 -1.55926e-07 7.20961e-08 1.32133e-10 7.27153e-08 -8.85856e-07 -1.55992e-06 1.0381e-08 6.66378e-09 -6.7792e-07 1.54036e-08 -2.58864e-07 -1.8673e-07 6.74548e-08 5.16149e-08 -3.8945e-07 -5.69414e-10 1.41902e-07 -7.70397e-09 -6.23989e-08 -7.37763e-09 -2.43838e-07 -6.05039e-08 -2.72346e-08 -1.12257e-07 -2.06369e-08 -8.01266e-09 -1.02892e-07 6.17321e-08 -1.79106e-07 -1.22412e-08 -5.91009e-08 -2.74259e-09 -4.79162e-07 -1.98535e-07 9.31333e-08 1.08111e-07 3.07293e-08 -2.50394e-07 -1.55346e-07 -9.9896e-07 -6.60153e-08 -1.64079e-08 3.59172e-09 -3.83646e-08 -1.263e-06 -2.71594e-08 -2.00501e-07 6.42543e-09 -4.33389e-06 4.97142e-08 2.11569e-08 3.27074e-07 -5.61734e-08 1.97223e-07 -4.49631e-07 1.68443e-07 -1.6529e-07 5.23806e-08 -2.48534e-07 1.33733e-07 -5.03135e-07 1.41945e-08 -5.43767e-08 -4.7626e-08 -5.35733e-07 7.12423e-07 -1.16826e-06 9.85015e-09 1.00985e-07 -1.13518e-06 -4.12791e-07 2.20206e-07 -2.19646e-07 -7.55579e-08 -1.33893e-07 -7.22074e-09 3.85517e-07 2.65906e-09 -4.50182e-07 -5.27211e-08 -3.03707e-07 2.13278e-08 8.68395e-08 -3.2378e-07 1.63951e-08 -1.37453e-07 4.16116e-08 4.13859e-08 -9.68696e-08 -2.80033e-07 -7.35949e-07 2.95036e-08 -5.79119e-07 1.87091e-08 1.44368e-08 -2.86446e-06 -1.47066e-07 -1.48183e-07 -1.99199e-07 5.85917e-08 1.79444e-07 -8.80159e-08 -2.65356e-08 -3.34211e-08 -1.18955e-07 -1.98902e-08 1.93197e-08 6.01758e-08 -6.59927e-08 2.56062e-08 -9.82032e-08 4.13615e-08 4.56285e-09 2.17834e-07 -3.20408e-08 1.52304e-07 1.42357e-07 -9.28594e-08 -3.24964e-08 1.67258e-10 9.21743e-10 -2.66315e-08 9.45271e-09 -1.34586e-07 4.84552e-09 -3.74603e-07 9.20434e-08 -2.7291e-09 5.57315e-09 -3.69807e-10 -1.38508e-08 -1.9756e-07 1.30009e-09 3.57614e-09 -1.07993e-08 1.27818e-07 2.24226e-08 -1.68448e-07 7.01072e-08 -1.30798e-07 -3.39178e-07 -3.57112e-07 -4.21369e-08 -1.76875e-07 -2.86573e-08 -3.24002e-07 3.61669e-07 -9.08418e-09 2.40407e-08 -1.3242e-07 -1.94816e-07 -9.84197e-08 2.82726e-09 4.25496e-08 -6.00361e-08 -3.74721e-08 -2.79359e-07 -6.76494e-09 -4.95883e-08 -1.19346e-07 -1.41792e-07 -4.88943e-07 -6.11608e-08 3.53541e-09 4.91607e-08 1.60218e-08 5.93475e-08 -1.3874e-07 -5.56138e-08 -2.09025e-07 5.70283e-08 -3.21167e-08 3.40627e-08 -1.07251e-07 6.25777e-08 1.07554e-07 5.12579e-08 -2.40973e-07 2.09767e-08 3.58811e-08 -4.32329e-08 2.47346e-08 8.70004e-10 -3.74262e-08 -6.28723e-08 2.16004e-08 -5.97162e-08 -1.48019e-07 -1.76345e-08 -8.51184e-08 5.70672e-08 8.65094e-08 -4.74335e-09 -1.54956e-09 1.2182e-06 -1.68577e-07 -1.062e-07 -1.4668e-08 -4.22285e-07 -1.25952e-07 -2.46678e-07 5.19116e-08 -1.90031e-08 4.11539e-07 -1.31395e-06 8.546e-08 1.56974e-07 -8.25993e-07 -7.73451e-07 -5.54146e-07 -1.20203e-06 2.42267e-07 2.3829e-07 -2.23186e-08 -1.84722e-08 -3.97985e-10 1.30145e-08 -8.10774e-08 -6.28423e-08 -1.17736e-07 -1.37822e-07 2.84223e-08 -2.44346e-08 4.0103e-09 -7.13214e-08 -2.31814e-07 5.18458e-07 -1.58761e-07 -3.53176e-07 -1.05347e-07 1.52838e-08 -1.29911e-08 -2.99569e-07 -2.5146e-07 -5.31467e-08 -9.0664e-08 -1.29393e-07 -5.90302e-08 -2.22591e-08 3.08975e-08 1.46382e-08 3.2126e-08 -3.79476e-08 -3.15487e-09 2.85775e-08 7.8861e-08 -1.45927e-07 -1.1048e-06 4.06608e-07 1.65213e-06 1.80399e-08 2.21859e-07 3.12096e-07 1.54463e-07 2.99747e-08 1.19739e-07 -1.73055e-08 7.73923e-08 -6.60291e-09 3.05965e-07 2.76075e-08 2.89177e-08 1.161e-07 2.88554e-09 -7.92809e-08 2.49907e-07 1.59979e-07 8.11995e-08 4.88108e-08 -4.06313e-09 -4.18605e-08 -9.21228e-08 8.70467e-08 -1.54772e-08 2.52439e-08 2.47631e-07 -2.34985e-08 -3.47764e-09 5.598e-10 -5.80753e-09 6.56731e-09 -8.95457e-09 -4.40083e-08 -4.2069e-08 5.74099e-10 -6.13968e-08 -5.91858e-08 2.15392e-08 -3.46997e-09 1.52267e-08 6.50804e-08 -5.12742e-08 -2.25913e-07 -1.83491e-07 -1.65372e-08 -1.24581e-08 -3.82274e-08 1.14048e-07 -2.76302e-07 -2.69551e-07 -1.95453e-07 -4.97129e-08 -2.09871e-07 1.28288e-07 2.88292e-08 -4.97067e-08 4.97235e-08 -4.34923e-08 -4.81493e-08 -5.61329e-09 1.36944e-07 3.69572e-07 4.75334e-09 2.63724e-08 2.20212e-07 -1.17861e-07 3.4136e-09 3.37179e-07 -1.73467e-07 2.81373e-09 -1.70612e-07 -1.85837e-07 -8.3603e-08 2.16862e-08 -2.15272e-08 1.59345e-07 -6.67522e-08 -2.86454e-08 -1.53756e-07 1.97263e-08 -6.57354e-07 -6.76788e-07 1.35703e-07 4.97986e-08 -1.9058e-08 -4.73847e-07 -2.49313e-07 -5.42485e-07 1.5976e-08 -1.20037e-06 -1.72766e-07 -2.21785e-07 -4.96936e-08 1.13577e-08 -2.65187e-08 -6.7556e-08 -3.56433e-08 -5.7027e-08 3.03212e-08 -1.6109e-07 2.83928e-08 -9.98158e-08 -1.13618e-08 3.84096e-08 -1.03259e-07 3.66029e-08 -1.84262e-07 1.46756e-08 -4.49344e-08 -4.08186e-07 1.7217e-08 2.1128e-08 -1.17094e-07 -5.57712e-08 -1.33436e-07 -6.58318e-08 -2.85433e-07 -3.69846e-11 1.26665e-08 -2.10357e-07 -4.97211e-07 -1.92638e-07 -8.64448e-08 -4.56384e-07 1.50713e-07 -3.53987e-07 -1.83205e-07 -1.90437e-07 6.35763e-08 -4.44655e-08 3.63944e-08 -2.88724e-07 -1.33405e-08 -3.27956e-08 -1.02282e-08 -6.07468e-07 6.57889e-09 2.49716e-07 9.36636e-08 9.01265e-09 -7.03614e-07 -3.99688e-07 -3.3246e-07 -5.82769e-08 2.65954e-08 1.32832e-07 1.00313e-06 -1.27139e-07 -8.4522e-07 -1.29323e-07 -2.96825e-07 8.87888e-08 -1.08155e-06 -8.01272e-07 -6.37833e-08 7.67437e-08 -1.90042e-07 -3.23854e-07 -1.35425e-08 -2.2951e-07 -1.01776e-07 -1.69229e-08 1.34516e-08 2.74771e-07 2.01941e-07 -1.64266e-07 1.12082e-07 6.53619e-08 -1.0547e-08 -3.96162e-07 -3.05442e-07 -1.80499e-07 -2.63746e-06 3.73018e-07 -8.76364e-07 7.98321e-08 -1.81969e-06 -1.06001e-06 2.7669e-09 -5.2706e-10 -3.05453e-07 -5.27553e-07 -4.00516e-08 -3.34597e-08 -1.54304e-06 -3.56687e-08 1.52071e-08 -3.04006e-07 -3.78316e-08 -4.77192e-06 -2.85382e-06 -1.74187e-07 9.31983e-09 1.40984e-07 -4.28894e-07 2.65238e-08 -1.74186e-07 -6.7555e-08 -9.28725e-08 3.1964e-07 -2.75097e-07 -2.11313e-07 -3.9148e-08 -5.5533e-08 -1.65289e-07 3.66667e-09 2.33817e-07 3.15546e-08 1.30209e-08 -8.2406e-09 -1.59522e-07 2.41821e-07 -5.15895e-07 -3.4783e-07 8.43511e-08 -5.36989e-08 4.22893e-09 -1.42744e-07 -2.53388e-07 6.81736e-08 -2.97204e-08 -1.24503e-06 2.61987e-07 -2.25943e-07 1.38239e-07 1.56253e-07 1.52478e-07 -3.77841e-07 2.06244e-08 1.09957e-09 -1.37021e-08 -6.8596e-09 -6.54045e-08 -1.3222e-07 -4.61484e-08 -1.20632e-08 -3.37996e-06 -7.99777e-08 -1.03277e-09 1.94828e-08 9.20031e-09 -3.52348e-09 2.70629e-07 5.6086e-08 1.70181e-07 -5.65148e-07 8.37315e-07 6.84668e-08 -4.19719e-09 2.74505e-08 -2.04778e-07 -1.47399e-07 3.10256e-07 -3.56374e-09 -1.49951e-08 -2.33463e-09 -6.17349e-09 -2.85057e-08 -2.35339e-07 -1.47263e-07 -9.63252e-08 -1.5143e-08 -1.0449e-07 -6.82389e-08 3.37081e-08 -6.96361e-07 2.13276e-07 3.28041e-08 -1.15939e-07 -7.91736e-07 -2.54345e-07 -2.68424e-07 -6.74477e-09 -8.98921e-10 1.01712e-07 5.36841e-07 -7.03839e-08 -2.11558e-07 -7.33306e-07 -1.05832e-08 7.52612e-09 -4.69594e-09 -5.65708e-07 1.15975e-08 -1.65545e-07 3.30219e-08 1.94434e-09 -3.8449e-09 -5.45258e-08 -1.62752e-08 -4.6195e-08 -4.07644e-08 -9.05151e-08 -1.34056e-07 -1.96937e-07 2.14902e-07 -2.62146e-08 2.33554e-07 1.98374e-07 -7.02615e-08 -2.00132e-07 -2.56542e-08 7.80727e-09 1.34624e-08 1.88927e-08 -5.61634e-07 9.23014e-08 -2.4368e-07 -7.65915e-08 -1.01503e-07 -3.7584e-08 9.21349e-08 -7.99841e-07 6.49956e-08 3.96103e-08 -2.35355e-07 1.001e-07 -1.41835e-07 -1.3553e-07 -1.60525e-07 -8.18448e-07 -3.86463e-07 -6.0841e-08 -1.50915e-07 2.22642e-07 1.86856e-07 -2.2349e-07 -1.89617e-07 9.17972e-08 -6.25068e-08 2.17911e-08 -3.31897e-08 -1.05234e-08 1.79767e-08 -5.7528e-08 -1.68584e-07 -2.10844e-08 -3.88942e-08 8.22676e-09 5.91718e-08 -1.71497e-07 -2.83146e-08 -4.6319e-08 2.10308e-08 -7.23078e-07 5.79003e-09 -1.0956e-07 -1.10264e-07 7.47631e-08 -2.58623e-08 -7.42031e-07 2.80848e-09 -1.41478e-08 2.86767e-07 -1.3871e-07 -2.27501e-07 8.75667e-08 -6.47285e-07 3.5684e-09 -1.53206e-07 -5.34905e-08 1.50179e-07 -9.72063e-09 -2.86176e-07 -6.57104e-08 -3.16338e-07 -1.26236e-08 -3.20767e-07 -6.40259e-08 -1.11044e-07 -4.03002e-09 -7.92318e-09 4.68407e-07 3.07888e-09 2.6228e-08 1.75279e-09 -9.75076e-09 6.40743e-08 6.44116e-08 2.17e-09 1.28771e-07 2.67892e-08 5.78839e-08 2.19931e-08 -1.72389e-07 3.97422e-08 1.31042e-07 5.34858e-08 -9.29206e-09 6.93962e-08 5.2909e-08 1.79337e-07 3.37045e-08 -2.65802e-08 -2.47564e-10 9.22052e-08 -1.8795e-07 1.04797e-07 -1.14137e-07 3.41076e-07 -4.06226e-08 1.84765e-08 3.14918e-09 1.39668e-08 -8.99353e-09 1.17896e-07 -1.0564e-08 -3.20908e-07 1.66921e-07 -1.09323e-09 -1.08445e-08 6.44754e-08 -6.96263e-08 1.85969e-07 -1.58248e-09 3.01885e-08 -4.9466e-08 -9.37414e-10 5.41756e-08 2.1389e-07 -1.74915e-07 -1.47858e-07 -8.33695e-08 5.2103e-07 -1.79625e-07 -1.95153e-07 -9.42815e-09 -2.72105e-08 -1.44737e-08 -1.71882e-08 7.83031e-08 -1.53755e-07 -6.63604e-07 -3.20291e-08 1.33775e-08 -1.21177e-08 1.19331e-08 -1.36618e-07 -4.5565e-09 -3.19446e-08 4.24157e-08 2.11021e-07 -4.09308e-07 2.07198e-07 -3.37751e-07 1.2204e-07 5.73715e-08 1.27867e-07 5.91415e-09 -1.66392e-08 -5.65525e-07 -1.67386e-08 -1.2684e-08 -1.27878e-07 -4.77399e-07 -1.35547e-06 -4.99977e-06 1.29649e-08 3.33368e-08 1.43945e-07 -3.88402e-07 2.87806e-08 -5.09685e-07 -3.41279e-08 4.99166e-08 1.42505e-06 -1.47901e-07 1.1406e-07 -3.67491e-07 4.33353e-08 7.04662e-10 -1.43738e-07 -4.00604e-07 -8.78887e-08 -1.35603e-08 -8.10996e-08 -1.68874e-08 -6.01607e-08 5.20981e-10 -1.69017e-08 -6.49833e-09 8.46632e-07 -2.01213e-07 -1.39362e-08 -1.28733e-06 -3.53812e-09 -8.00646e-07 -4.74259e-07 -1.1159e-08 4.81674e-08 -3.05326e-08 4.5629e-08 7.57848e-09 -1.55223e-07 -1.22406e-08 5.24102e-08 -1.8203e-08 1.18094e-10 1.35249e-08 -1.72522e-07 -3.65166e-07 -3.3582e-07 -2.20144e-07 -1.57835e-07 -5.97573e-09 -3.00169e-07 -1.4335e-07 -2.77531e-07 -6.44964e-08 1.26673e-07 3.90478e-09 -1.3897e-07 -1.73772e-08 -7.67358e-08 2.02022e-07 2.82358e-07 1.11368e-08 -2.17891e-07 -5.86691e-08 -4.00829e-08 -7.86781e-08 -2.03997e-07 -2.15948e-07 -1.63654e-08 -2.3578e-08 4.97431e-08 1.92322e-08 1.23412e-08 -1.64804e-07 -1.35403e-07 -5.41816e-09 -1.16648e-08 -2.68614e-07 -4.42214e-07 -5.42097e-07 -3.06787e-07 -3.21623e-07 -7.82418e-07 -7.18833e-09 -6.17905e-08 -2.42362e-07 -1.30022e-07 -1.70805e-07 -1.2617e-07 -2.77355e-07 -1.52197e-07 -6.88902e-08 -1.09449e-07 -4.11384e-08 -2.91116e-09 2.44914e-08 1.07886e-08 9.43935e-08 -2.38413e-07 -8.77094e-08 1.05763e-09 5.37436e-09 2.74322e-07 -3.71617e-10 -1.06603e-07 -2.0992e-07 2.80197e-09 5.88085e-10 1.94528e-07 2.42148e-09 -3.3204e-07 1.10908e-09 -2.78896e-07 2.85816e-07 -4.13022e-08 8.521e-08 -1.06246e-09 1.09032e-08 1.75584e-12 8.96359e-08 -2.58196e-07 6.53569e-07 -1.42913e-07 1.50994e-08 1.73428e-07 -1.79489e-07 6.8169e-08 7.81849e-09 1.01703e-09 4.07051e-09 -3.46566e-08 -1.2274e-07 -2.911e-07 -1.22933e-08 -3.32399e-08 -4.14484e-08 -2.60361e-07 -4.15661e-09 2.49914e-07 -2.56924e-07 6.63004e-08 2.2162e-07 8.11905e-08 -7.02924e-08 -1.36293e-09 -7.18851e-07 3.23775e-06 -1.08283e-08 -1.10374e-11 -4.26339e-11 -1.55046e-07 -9.71856e-08 -2.10523e-07 -1.22998e-07 -1.50049e-07 -2.48147e-07 -4.60205e-08 -2.52364e-07 -4.53335e-07 -9.82029e-08 -6.97431e-08 -5.08063e-07 -8.57473e-08 -9.71071e-07 2.43934e-07 1.22726e-07 -2.34111e-08 -1.06469e-07 -8.55702e-08 4.84445e-09 -9.99931e-08 -6.21208e-09 -1.85761e-07 -2.4783e-07 -6.33685e-08 -1.25355e-07 -3.15387e-07 -8.08379e-09 -2.5986e-07 -1.61855e-08 -1.90625e-07 -1.38822e-07 4.32491e-07 -4.36309e-09 -2.57154e-09 6.49355e-09 -1.01494e-06 -8.51833e-07 -6.13516e-10 1.02413e-07 8.29768e-08 1.5003e-07 1.19807e-07 3.80092e-08 1.76172e-09 3.03736e-09 -2.64139e-08 1.85872e-08 5.52291e-08 -7.07152e-08 -9.64444e-09 -2.4417e-08 -6.92522e-08 1.12249e-08 -1.35007e-07 -3.00575e-08 3.68597e-09 -1.00943e-07 -6.20871e-08 1.92324e-09 -5.79861e-08 3.62141e-07 -2.66014e-07 -1.02613e-06 1.07849e-07 -3.17644e-07 5.45216e-08 1.17567e-07 2.21214e-07 -2.94078e-07 1.24388e-08 -2.9818e-09 1.92249e-08 5.93919e-08 -3.23459e-08 6.37482e-09 -1.9434e-07 -6.67621e-08 -1.43348e-07 6.48765e-08 -6.02946e-08 -2.38198e-08 -1.84343e-07 -1.65304e-06 4.11952e-06 1.93095e-11 -5.00709e-08 -9.20081e-08 -1.29667e-07 -7.35888e-09 3.10544e-08 -5.63521e-09 2.95074e-08 -8.76681e-09 -2.44752e-07 -1.66598e-07 1.78048e-07 -8.35443e-09 -1.64393e-07 -1.44061e-07 5.01824e-09 -2.91553e-08 -7.99691e-08 -2.81531e-08 8.13573e-08 -4.3667e-08 -5.13172e-08 6.79988e-09 -2.04798e-07 7.62083e-09 1.35302e-07 -1.14363e-08 2.32292e-07 -2.22435e-06 -5.70342e-07 -1.92638e-07 -1.7346e-08 -1.30508e-07 -8.8006e-08 -1.26779e-07 -2.89872e-07 1.08453e-08 -5.46244e-07 -1.85246e-07 -2.25883e-07 4.69164e-09 1.25645e-07 1.66735e-09 3.0763e-08 1.39508e-07 -1.34026e-07 2.31342e-08 -1.72508e-07 -1.56505e-07 -3.8087e-09 -1.4763e-07 1.26555e-07 -4.36976e-07 6.38578e-07 1.66552e-08 -1.73151e-07 2.17731e-08 -1.45381e-07 -4.11021e-08 1.78197e-07 -1.458e-07 -3.69953e-08 -6.85682e-08 -1.00716e-07 2.28781e-07 -4.91287e-07 -3.36258e-08 1.63002e-07 7.30181e-10 9.5282e-08 1.4474e-08 1.64525e-07 -1.54568e-09 -7.95082e-09 -1.81687e-09 4.4427e-08 -2.42942e-07 -1.72821e-07 -1.6779e-07 -4.64952e-08 -1.0494e-07 5.87333e-08 -3.02225e-07 5.66134e-09 1.90823e-09 -6.63432e-09 4.49771e-08 5.98766e-09 7.4534e-10 -6.15133e-07 -2.20931e-08 -3.3112e-07 -7.12137e-08 -7.33608e-07 1.25416e-07 -1.31602e-07 1.12329e-07 -3.05898e-07 -1.22885e-08 -8.89124e-09 6.37139e-09 -2.33203e-07 -1.63769e-08 -1.29897e-08 2.41106e-08 -4.31669e-09 -1.38178e-07 -4.46665e-08 3.20308e-07 2.26858e-07 1.31012e-07 -2.19838e-07 -3.07572e-07 1.25502e-07 -1.85819e-08 -1.39228e-08 3.1699e-09 -2.25195e-07 -2.02584e-08 1.5635e-07 -7.205e-09 1.09841e-07 -2.94792e-07 -1.13066e-07 -1.00094e-06 3.03524e-07 -3.84215e-08 -1.82784e-07 -1.14842e-09 3.93316e-09 2.07595e-07 5.61365e-07 2.07328e-08 -2.34338e-07 1.02944e-07 -1.00741e-07 2.62483e-08 -1.63303e-08 -9.52784e-08 -1.99077e-08 -4.79794e-08 -2.23668e-09 -5.63327e-08 -3.238e-08 -6.01968e-09 -4.26612e-07 1.24987e-07 2.10932e-09 -1.55229e-08 -4.42462e-09 -1.07168e-09 -3.30061e-08 -2.89864e-08 -2.45941e-08 1.43434e-08 8.96858e-08 7.03258e-09 -5.86803e-08 -2.31971e-08 -4.53737e-07 1.52918e-08 -1.00315e-07 -1.0726e-08 -1.43626e-07 -1.47746e-07 -7.61963e-07 -2.69642e-07 -4.21201e-08 -4.92188e-07 -4.86252e-07 -1.67062e-07 1.62097e-08 -4.75225e-08 3.1194e-07 -1.0123e-08 -5.21099e-07 -3.2508e-07 -1.32155e-07 -3.30659e-07 -2.45555e-08 1.93971e-07 4.95068e-08 -1.27762e-08 1.04007e-07 1.88409e-07 -2.01634e-08 -2.309e-08 1.86143e-08 -8.20046e-09 1.18356e-07 4.67457e-08 9.58661e-08 -6.17807e-07 -2.16411e-07 -6.69944e-08 -2.33253e-07 2.689e-08 7.3264e-08 7.2786e-09 -5.53241e-07 -6.72714e-07 -6.91676e-08 1.23443e-08 1.68607e-08 1.33832e-07 -7.98811e-08 -5.4168e-10 7.99251e-10 1.76025e-09 -2.41211e-07 1.00983e-07 -1.65202e-07 -9.08277e-07 -1.45757e-07 -2.17727e-06 -8.92036e-08 3.92484e-06 -1.66947e-08 5.19853e-08 2.2858e-08 -2.66417e-07 -5.14277e-09 -2.5719e-07 1.73689e-07 -6.90107e-08 -1.08444e-07 -1.77987e-07 -1.05184e-07 -2.32597e-07 -1.59615e-07 1.7488e-09 7.40444e-08 -7.46542e-08 -2.45385e-07 2.02934e-08 -3.79003e-08 4.3657e-08 4.53084e-07 -1.191e-07 -5.09738e-09 4.5014e-08 6.3685e-08 -3.95043e-07 -4.81318e-07 -5.45818e-08 -7.77139e-08 -3.27643e-09 -9.84735e-08 2.48209e-07 -2.17994e-07 -2.3344e-07 5.30054e-09 -2.73616e-09 -1.66293e-07 -1.57131e-07 4.88996e-09 -3.624e-09 8.32345e-09 -2.04102e-08 4.02675e-09 -6.75929e-07 -9.9173e-09 -1.71318e-08 -1.23531e-07 -6.19107e-09 -1.60118e-07 -4.5127e-06 -1.16586e-07 4.58113e-08 9.66525e-09 -2.6714e-07 1.06961e-08 -2.12554e-07 -2.39512e-08 4.96611e-09 5.75207e-09 4.79968e-09 -1.69453e-07 -1.06861e-07 4.25394e-08 9.1594e-07 3.76666e-07 -4.2522e-08 3.65097e-08 1.31111e-07 1.63857e-08 -2.38981e-07 -4.95674e-08 -2.62448e-07 -2.49444e-09 1.01368e-07 -2.21391e-08 1.6557e-08 -2.40412e-09 -8.77855e-08 -5.41015e-08 8.60126e-08 -6.92227e-09 4.30256e-09 -7.08635e-08 -6.55576e-09 -7.13139e-07 -3.93074e-08 -6.31927e-07 -2.35446e-08 -2.50625e-07 -1.21064e-07 -6.83845e-07 1.64374e-07 -2.4664e-08 -1.97229e-08 -1.8079e-07 -5.0071e-07 -6.42531e-07 -2.77726e-07 -8.38434e-09 4.62173e-07 4.01805e-07 2.36495e-07 -2.12266e-07 -3.14375e-07 2.50861e-07 -2.73608e-07 -2.93644e-07 -2.19576e-08 -1.42313e-07 -6.19323e-08 -4.72486e-09 -6.53541e-08 1.85053e-08 -3.28796e-07 -3.15657e-07 -4.37132e-07 -1.09929e-07 9.45128e-08 -3.78554e-08 -1.44185e-08 -3.99791e-09 1.60928e-08 -3.27365e-07 9.00543e-09 -5.6747e-07 1.10302e-07 -1.85983e-07 4.91168e-08 -2.2477e-07 -2.7532e-08 -1.34454e-08 -5.15458e-08 -2.89943e-08 -9.67174e-09 9.50161e-08 -1.55999e-08 -9.55609e-08 -2.51195e-06 -9.35037e-08 -5.12836e-09 -8.04545e-08 2.64079e-08 -2.45387e-07 2.27458e-08 2.45657e-07 -3.83543e-07 -3.7133e-07 5.40015e-07 3.98984e-07 1.14614e-06 5.8009e-07 -1.04346e-07 -2.07384e-07 -2.06582e-09 9.94115e-08 -3.12143e-08 -3.10354e-07 -4.05285e-07 -2.04949e-07 1.58453e-08 -1.71388e-08 1.80429e-07 -1.39443e-07 1.01581e-07 -1.50238e-07 2.60067e-07 4.89599e-07 -3.30366e-07 -5.42003e-07 1.63945e-07 1.62455e-07 -3.50829e-09 -2.74428e-07 4.67933e-08 8.00868e-08 -2.41083e-07 -1.18583e-07 1.00898e-08 -2.09393e-08 -1.34186e-07 6.13803e-09 1.19172e-08 3.44446e-08 1.06787e-08 2.96278e-08 2.49932e-09 5.28975e-09 5.60259e-08 1.30361e-07 9.84486e-08 4.12887e-08 2.77543e-10 5.93004e-08 5.34684e-08 -6.50952e-07 -7.29381e-08 -2.0072e-07 -2.26188e-07 -2.53651e-07 -2.11184e-07 -1.11232e-06 -1.89956e-09 -2.24799e-08 2.16964e-08 -1.56602e-08 2.21264e-07 -7.74629e-08 -4.68975e-07 -3.32512e-08 -1.5404e-08 -2.49306e-08 -5.11562e-09 -1.84615e-07 -4.24461e-08 -1.7364e-08 1.35613e-07 2.86732e-07 1.32602e-08 2.64736e-06 -6.90741e-07 1.23955e-07 -6.05757e-08 -6.40078e-09 -5.30843e-09 -3.09194e-08 7.7185e-08 -3.51548e-08 -1.50322e-07 -1.17204e-07 1.25865e-08 -1.13696e-07 2.58841e-08 -2.20628e-08 2.53026e-07 1.06308e-09 1.6311e-09 2.87635e-07 1.9926e-07 -1.24371e-09 2.25392e-07 1.1027e-09 5.73235e-08 4.32033e-07 6.13681e-07 1.78767e-07 5.57778e-07 -2.92948e-07 6.74898e-08 -1.99052e-07 -3.21607e-07 3.41834e-08 -3.39581e-09 -6.64154e-10 5.64881e-07 4.57853e-10 -1.6918e-07 -2.88193e-08 -7.83926e-08 1.0901e-07 1.99213e-08 -3.72735e-07 -2.38545e-08 3.60362e-08 -2.25465e-08 3.87646e-07 -8.63196e-08 -5.8368e-08 -4.14358e-07 5.57185e-08 9.86381e-08 1.26105e-07 3.68889e-07 2.35938e-08 1.98868e-07 -2.70644e-08 2.538e-07 -5.71058e-08 3.30472e-07 -8.16162e-09 -5.44951e-08 3.71217e-07 -1.18806e-07 6.09484e-08 -7.65825e-09 -3.36559e-09 5.51569e-07 -3.52024e-08 3.62065e-07 1.47579e-09 2.92518e-09 -1.61715e-08 -6.73982e-09 -1.7266e-07 5.06959e-08 -9.34695e-08 -6.33394e-08 -1.95911e-06 -5.166e-08 -1.01737e-07 -1.9565e-08 3.49881e-08 6.64304e-08 -2.49587e-07 1.27278e-07 6.07035e-08 -6.04482e-09 -1.49704e-08 -5.79668e-07 -4.00207e-07 -3.55516e-08 3.92801e-09 -8.02271e-09 -2.11288e-08 2.57296e-08 -1.10975e-08 4.2925e-08 -1.17463e-07 9.03353e-09 -1.68597e-07 1.63628e-08 -4.58341e-08 -8.97678e-08 -3.41607e-07 -2.05893e-07 5.07452e-07 -2.17968e-11 2.77905e-08 1.43177e-08 -3.67046e-06 -1.20122e-08 -1.12772e-07 1.49189e-09 -5.34356e-09 2.90891e-09 -7.67805e-07 2.38709e-10 -8.68142e-09 -6.18657e-12 -2.20363e-07 -2.27335e-07 -6.3975e-08 -3.65592e-08 -1.23677e-07 -2.06317e-07 -3.46582e-07 -3.75404e-07 1.53424e-08 -1.73483e-07 -2.39587e-07 -3.00493e-08 -4.24058e-07 -9.72367e-07 -2.17786e-06 4.96832e-07 -4.16382e-07 1.72038e-07 9.63009e-09 -3.61133e-08 1.90247e-09 -8.56159e-08 -1.90032e-07 3.19475e-09 -6.65969e-08 2.51309e-10 -2.40075e-09 -4.31915e-08 -3.15497e-08 -5.50316e-07 -1.18705e-07 -6.42899e-08 4.88306e-08 -6.28686e-08 -7.78331e-08 6.33771e-10 -4.04508e-09 9.97809e-08 -2.703e-08 -1.24981e-08 -6.05101e-08 1.81347e-07 -1.06229e-08 -3.27585e-08 7.55237e-10 -2.19934e-08 -7.97852e-08 -1.42037e-07 -4.36121e-08 -1.88131e-08 -2.09002e-07 -7.02125e-09 -1.7829e-08 8.07711e-11 -4.05036e-08 1.08275e-08 3.16955e-07 4.23603e-07 -1.9372e-08 -2.88741e-08 -6.99391e-08 -2.68884e-08 1.90534e-09 -4.78051e-07 9.70619e-09 -5.22063e-10 -2.21506e-07 -8.75782e-07 -2.67747e-07 -1.86672e-07 -1.65847e-07 1.53017e-08 2.48505e-09 7.60153e-08 -8.68433e-08 2.20404e-09 -1.24769e-07 -1.46062e-07 -1.59723e-07 -1.25769e-09 -2.41168e-08 -4.87556e-08 -7.20016e-08 -6.53459e-08 -7.0516e-08 9.54314e-11 -7.57961e-08 -7.16786e-08 1.05786e-07 1.24144e-09 1.13072e-10 -2.62345e-07 -2.18654e-09 -5.29287e-10 -5.68744e-08 -1.73852e-08 -2.59546e-08 -7.98364e-08 -5.40963e-08 -2.38225e-07 -2.05506e-07 -1.66013e-07 -1.88313e-08 -1.59737e-06 -6.19222e-07 -3.36792e-08 1.00573e-08 -1.30116e-07 1.45872e-08 -5.8274e-08 -7.95404e-07 -1.48197e-08 -6.89343e-07 -1.8748e-07 -2.16678e-09 2.05572e-07 -2.61983e-08 -4.84455e-08 1.83407e-07 -1.48265e-07 -1.19214e-07 -1.0745e-07 -1.27745e-07 -4.59358e-08 -2.46096e-08 -4.85362e-08 -1.23253e-08 8.31257e-08 2.34276e-07 -2.87208e-08 5.70192e-07 -8.71383e-08 -5.02186e-08 5.9276e-08 -6.26314e-08 -3.20139e-08 -2.19825e-08 2.19734e-08 9.43574e-08 4.4353e-07 -1.38906e-07 -3.75473e-07 5.0853e-08 6.42078e-09 -1.10951e-09 2.34943e-09 1.7146e-09 -5.7547e-09 -3.06047e-07 -3.63643e-08 1.58583e-08 7.48187e-09 1.88918e-07 -5.8143e-07 8.56839e-10 -3.00942e-07 -4.83253e-07 -1.46691e-07 -2.08415e-08 3.3113e-08 -6.52312e-08 -5.55163e-08 -1.47692e-07 -1.10931e-07 -1.61115e-08 3.61287e-09 8.45773e-08 -9.22221e-08 5.99736e-08 -2.56571e-07 -8.85488e-08 9.27884e-08 -4.70957e-08 9.86999e-09 1.64334e-09 -1.21502e-07 -1.59165e-08 -3.22683e-08 9.46321e-08 4.4099e-08 1.97743e-08 4.15984e-07 5.21643e-08 1.98726e-07 -1.21633e-07 9.85869e-08 -3.42613e-07 1.73332e-07 2.93501e-07 -1.53816e-07 -4.06822e-08 -4.73358e-09 -3.10324e-09 4.90154e-08 -1.91414e-07 -7.78509e-08 6.6766e-08 -2.99881e-07 3.5271e-09 -1.44495e-08 -5.72828e-07 -1.59787e-07 -2.06216e-06 -1.31213e-07 -1.90265e-06 3.5877e-09 5.91886e-10 9.73203e-10 -5.9533e-08 4.35185e-08 1.02991e-08 8.63129e-08 -9.20719e-09 6.00461e-09 -2.19284e-07 -1.8121e-09 9.69462e-08 1.47304e-07 4.16127e-08 -3.57574e-07 -3.6078e-07 3.97038e-09 -3.91924e-07 9.69838e-08 -7.85624e-07 1.44528e-07 2.7787e-07 -1.48686e-07 5.00305e-08 -4.34753e-07 -4.87206e-09 2.00829e-08 2.9342e-08 1.1187e-07 1.04343e-07 -1.83669e-08 -3.80104e-09 3.05483e-09 -5.56152e-09 -1.71349e-07 -1.23493e-07 3.33227e-08 -1.02935e-07 -7.24667e-08 -1.18939e-07 -1.50308e-07 -2.47622e-08 -5.37077e-07 -1.8838e-07 4.89324e-08 -6.12525e-08 3.77964e-09 -3.33868e-08 -2.7279e-08 4.26858e-08 -4.58241e-08 1.6548e-08 1.82267e-08 1.6412e-07 -1.80687e-08 6.92907e-08 -1.26184e-07 -6.69314e-07 -5.03774e-08 -8.59163e-09 -6.18053e-08 -1.8221e-07 -5.21199e-08 -1.5014e-07 1.87088e-08 3.75123e-07 -5.58953e-07 -8.41148e-08 2.47608e-07 1.96584e-07 2.66834e-07 -6.96531e-07 -2.6834e-08 5.81766e-08 3.95321e-08 -3.34157e-08 4.09665e-09 6.82409e-08 -2.18438e-07 -2.90628e-09 2.39314e-09 -2.75929e-08 5.32082e-08 -2.4578e-07 -7.3208e-10 8.62107e-08 -2.59525e-09 -7.8188e-08 -3.7851e-08 2.68752e-08 -2.70675e-08 1.49809e-07 -5.24871e-07 -2.26035e-07 4.22895e-10 -1.27221e-08 -1.23531e-07 1.77501e-07 2.34947e-07 -8.20893e-07 3.25236e-07 -3.13447e-07 6.06523e-08 3.23862e-07 1.86744e-07 6.5263e-08 3.63558e-08 -3.36313e-07 -2.89841e-07 -7.59974e-08 -5.19816e-08 -6.58584e-08 -4.10703e-07 -3.73454e-08 -8.02381e-09 2.39951e-07 -1.02441e-07 1.05163e-09 2.7596e-10 -2.09236e-07 -8.26416e-07 1.75219e-07 -6.18481e-07 1.96411e-08 -1.27863e-07 4.2452e-07 5.13832e-10 1.05926e-09 -2.28454e-07 3.14469e-09 -6.34301e-08 -5.71021e-07 -2.28917e-08 -3.73981e-09 -1.01915e-07 -3.61865e-08 6.0656e-09 -1.13667e-07 -9.33902e-11 -5.81481e-07 2.32519e-08 -1.79666e-07 -1.2834e-07 -2.2309e-07 -3.91701e-07 5.1666e-07 1.08451e-07 -4.13327e-07 -5.36064e-08 -2.75855e-08 -4.09317e-09 -4.24842e-07 4.90124e-09 2.36231e-07 1.14967e-09 7.81165e-08 -3.00661e-07 6.3595e-10 -1.5543e-07 8.73201e-10 -7.61678e-08 -2.37818e-10 -6.81754e-09 -2.54399e-08 -1.61992e-08 -1.26933e-08 -1.24987e-08 2.91138e-08 8.13284e-09 -6.81025e-07 -2.30562e-08 3.54231e-07 7.26429e-08 2.27774e-07 2.17711e-10 2.57288e-09 -4.2267e-08 1.24017e-08 5.42991e-08 6.02556e-08 4.11951e-07 -1.02938e-07 -1.60835e-08 -3.79937e-08 -1.66973e-07 -2.47057e-07 1.33823e-07 -6.22253e-08 -6.4237e-08 -4.72747e-07 -4.13925e-07 -4.83386e-07 -5.15253e-08 4.73675e-08 4.48764e-09 -2.37034e-09 -1.2566e-10 -2.18861e-08 -4.51272e-09 -5.69428e-08 -3.00258e-09 -1.81612e-08 5.28026e-08 -1.69144e-07 -4.89401e-07 1.6681e-07 -2.0157e-07 2.6303e-07 3.45179e-09 -3.66755e-07 -4.68648e-07 -1.44869e-07 -1.41941e-09 -3.71229e-09 5.17618e-10 -4.13643e-09 4.32867e-10 -3.35912e-09 3.00683e-08 -9.52196e-08 2.70694e-09 -1.67317e-09 -2.46272e-09 3.86498e-08 2.12518e-09 4.18948e-09 -1.51572e-07 2.11958e-09 -4.19053e-07 -2.16459e-07 -9.59053e-08 1.4791e-07 1.37259e-07 -1.90265e-07 1.54492e-08 2.97967e-08 9.34396e-08 9.96102e-08 -5.06426e-07 1.09479e-07 5.26695e-08 -5.64995e-07 -9.76702e-09 -7.7509e-09 -8.47301e-08 -5.17808e-07 -8.44631e-08 9.34218e-09 -7.28252e-08 -2.73965e-08 1.63968e-08 -5.29989e-08 -6.68475e-07 -1.81846e-08 -1.26436e-06 -8.42643e-08 7.29698e-08 1.44205e-07 -3.1448e-08 6.55015e-08 -4.36849e-09 3.41472e-08 -3.0736e-07 1.02405e-11 5.8695e-08 -1.20942e-07 6.7893e-08 -9.49585e-08 -8.53104e-07 2.66099e-08 -1.29616e-09 2.18477e-08 -7.70665e-09 2.90063e-07 -1.12441e-07 -4.10308e-09 3.11637e-08 1.18692e-08 -4.16218e-08 7.81332e-07 -1.60056e-09 -1.01158e-07 -3.13409e-07 -2.15143e-07 -3.15002e-09 2.4918e-09 3.13827e-09 1.89216e-09 -5.67559e-07 1.57753e-07 2.02332e-07 -5.08612e-07 6.93597e-08 -4.54313e-09 -2.41485e-07 1.26788e-08 4.01069e-09 2.93469e-08 -1.01605e-07 -5.9559e-07 -4.8669e-07 5.10844e-09 -8.36482e-08 3.94992e-08 -1.6007e-07 -1.5523e-07 -1.84851e-07 2.40445e-08 4.43591e-07 3.8866e-07 1.0335e-07 9.10288e-08 1.07177e-06 -2.04525e-07 -1.36945e-07 -4.30501e-08 7.12289e-08 -1.75754e-07 -2.39347e-08 1.91129e-07 -3.30698e-07 -5.10908e-08 -2.24775e-07 -1.95925e-08 -4.27314e-08 -6.44473e-08 7.31268e-08 9.19366e-08 6.50088e-08 2.22477e-08 2.31976e-07 3.4527e-07 1.77233e-08 -6.90044e-07 -5.0395e-08 5.86674e-08 -8.98321e-08 -1.224e-06 -2.53004e-07 -7.03897e-08 -4.23295e-07 -3.45764e-07 -4.30233e-08 8.4435e-08 7.61228e-09 -4.33856e-07 -6.84433e-07 5.73649e-08 -2.11153e-07 -5.81925e-10 -7.05738e-08 -2.89674e-08 -1.4659e-08 2.44861e-07 -5.91301e-07 4.47973e-07 -5.38329e-08 -1.1889e-08 -1.95284e-07 -8.27322e-08 4.47811e-07 -7.07549e-09 -2.083e-08 -9.33584e-08 4.6729e-08 5.44459e-08 -3.52234e-06 8.38054e-09 -2.12659e-08 -8.07119e-07 2.67748e-07 -1.34534e-07 6.85336e-09 1.19767e-08 -1.12761e-07 -9.16415e-08 2.35837e-07 3.00828e-09 -6.49483e-08 6.48189e-08 4.05033e-10 -7.28399e-09 -4.00324e-08 -1.601e-07 -2.60393e-07 -2.46682e-07 -1.04775e-07 -2.20575e-09 -3.16098e-07 1.52696e-09 1.67314e-09 1.21348e-07 8.50304e-08 -7.73827e-09 8.36375e-08 5.31681e-09 1.69565e-08 -9.5812e-08 -8.57972e-09 -3.14722e-08 2.19946e-08 -4.72415e-07 -3.58843e-08 -1.89508e-07 3.8632e-07 -4.17313e-09 -8.11427e-09 -1.70847e-08 -6.57548e-09 1.01216e-07 9.19713e-07 8.80404e-08 -4.48334e-07 -1.22544e-07 -2.81757e-07 -1.18617e-07 -1.38291e-08 7.71632e-08 -1.73136e-09 -8.24559e-08 -2.74707e-08 -7.09616e-08 2.50898e-07 4.20284e-08 1.77479e-09 -5.38493e-08 -1.8342e-08 -1.29484e-07 3.61968e-08 -1.73325e-07 3.40318e-09 -7.37487e-08 -5.5746e-09 -1.31343e-06 -1.68981e-07 -2.77376e-07 8.87037e-08 1.86102e-10 -6.79541e-07 -3.70927e-08 -2.20878e-07 -1.55104e-07 1.53739e-07 -1.56305e-08 -1.07852e-07 -1.2256e-08 1.37056e-07 -2.35322e-08 -1.66485e-08 2.10917e-07 3.77494e-07 -5.79368e-08 -7.14105e-08 1.82568e-07 -8.46283e-08 9.42455e-09 8.23378e-08 -4.64691e-08 -9.44875e-08 -1.1247e-07 -5.75986e-08 3.90486e-07 -3.16109e-07 -1.21493e-06 1.78315e-08 -1.08738e-07 1.29233e-07 1.88926e-08 4.19779e-08 2.01571e-09 -1.37608e-08 5.3322e-08 1.24909e-07 3.42464e-09 -6.195e-07 -4.81999e-07 -5.05145e-07 -1.34076e-06 5.18713e-09 -1.39219e-07 3.03562e-08 -2.34411e-07 -3.05579e-08 -4.27512e-08 -1.50579e-07 -2.02029e-08 1.79101e-07 1.40074e-07 -1.70373e-08 -1.16716e-08 -1.20396e-07 -1.95987e-07 3.25285e-07 -9.3981e-08 -1.72163e-07 1.72608e-09 -7.49298e-07 -6.08601e-10 -3.83269e-07 -7.06461e-07 3.79683e-09 6.26849e-10 1.29585e-09 -3.28995e-07 -3.64507e-08 -3.14501e-07 3.13066e-08 9.82981e-10 -1.21598e-07 4.30801e-07 -1.08898e-09 -2.68012e-07 3.91171e-08 -4.41252e-08 1.49068e-07 -4.00254e-07 -1.86336e-08 -3.53704e-08 3.01372e-09 -5.91838e-09 -4.44805e-10 3.27872e-09 -3.01065e-08 -7.92518e-07 -8.85722e-10 -7.15782e-09 -8.84746e-08 -1.81507e-09 -7.23945e-08 -1.41779e-07 -7.98628e-08 -5.74281e-08 -3.10755e-07 -5.36063e-07 -7.34946e-07 4.4808e-07 -3.56165e-07 6.65033e-08 -5.09886e-08 -2.50988e-08 -2.69909e-07 -1.40509e-07 3.44345e-07 2.03071e-07 1.46928e-08 2.42628e-07 1.6463e-09 -1.09551e-07 -1.76509e-09 -9.64977e-08 -1.28443e-07 -4.6846e-08 -4.68114e-07 -1.79493e-07 -2.41649e-08 -1.97195e-08 -5.00286e-07 -3.40264e-07 1.86634e-07 -1.61244e-07 -4.54929e-07 -1.74798e-07 1.51689e-07 -1.61195e-07 -2.51332e-09 6.40853e-08 1.11163e-07 -1.43718e-08 -9.21443e-08 -1.37726e-07 -3.14609e-08 -1.77819e-07 1.45428e-07 -8.72146e-09 -3.39354e-07 -7.96761e-07 -6.70601e-07 1.30134e-07 -1.80409e-08 -1.88503e-07 -1.07428e-07 -6.92808e-09 -7.26306e-09 -1.34614e-07 9.28237e-08 -1.03519e-07 1.79879e-08 1.02375e-07 1.46753e-08 -2.5341e-07 2.1212e-07 -3.75625e-08 -5.86046e-08 -2.87586e-07 -6.0605e-07 -1.77584e-08 -4.40268e-09 3.4388e-07 1.65206e-07 -1.2584e-07 -7.21429e-07 -5.92307e-07 -1.3912e-08 -3.53072e-08 7.53604e-08 -4.62283e-07 -1.59893e-07 -1.61275e-07 6.91474e-08 -1.62758e-08 -1.58541e-07 5.32406e-08 5.79597e-09 8.08784e-08 1.15974e-07 6.60656e-08 3.14802e-07 -4.49388e-08 -1.7793e-07 -4.9815e-10 -2.49682e-09 -4.30176e-08 -6.00508e-08 -3.85744e-07 2.64914e-08 -2.01528e-07 1.07786e-07 2.0956e-08 4.26399e-07 1.03394e-07 8.54403e-08 1.71282e-07 9.47687e-08 -2.58195e-09 9.81963e-09 -1.20769e-06 -5.09622e-07 -8.64363e-07 -2.32573e-07 -3.02669e-07 2.05786e-08 1.82067e-08 -1.57441e-07 -3.42503e-07 4.36106e-07 -1.38078e-07 -1.47088e-07 -4.03409e-09 -2.58019e-07 2.99447e-08 -3.82144e-08 -8.49885e-09 9.50131e-09 -1.93514e-07 1.24789e-07 1.29146e-07 -2.17852e-07 -2.77369e-07 1.33138e-07 5.04165e-07 -1.17285e-07 1.00915e-07 -2.70917e-08 -2.11475e-08 -7.08461e-08 2.37781e-07 -1.28941e-07 -3.53226e-07 -1.85257e-07 -1.99034e-07 -2.81338e-07 9.14006e-09 2.61512e-07 -5.28838e-07 4.60295e-08 -1.12049e-08 -7.73971e-08 -9.26685e-08 -9.85082e-08 -6.32405e-08 -8.02475e-08 1.15053e-09 -2.70761e-07 1.71218e-07 1.50796e-07 7.05849e-08 -8.77158e-07 -3.29542e-07 -6.35176e-08 -1.71918e-07 3.76824e-07 -4.41697e-08 2.09794e-08 -8.29339e-07 -1.66116e-07 2.35604e-07 9.50986e-09 -2.65492e-07 -4.65889e-07 7.92894e-09 -8.82868e-08 4.4242e-09 2.19671e-08 2.28226e-08 3.73492e-08 -2.74525e-08 -1.17818e-06 -1.37284e-06 -2.15817e-07 -1.02895e-08 -2.16585e-08 9.04844e-09 -9.64064e-09 6.49458e-08 -1.56314e-07 -1.91079e-07 -6.01512e-07 3.07592e-08 1.35488e-08 -5.4796e-08 -5.77056e-08 -1.08717e-07 -9.93618e-08 2.11181e-09 4.68361e-08 -2.39211e-07 -5.67032e-08 1.78646e-07 3.04471e-08 6.84988e-08 -4.4808e-07 5.61157e-08 -1.43777e-08 -1.57268e-09 -1.01577e-07 1.7234e-07 5.08119e-08 -2.42754e-07 1.55477e-07 -1.51147e-08 -9.64507e-09 -1.24693e-08 -1.85636e-07 -7.87129e-08 -8.35573e-08 -5.27912e-08 -3.74863e-07 -1.00012e-07 -1.476e-08 3.03847e-07 -1.27635e-07 -3.48919e-07 -2.69064e-08 -8.78905e-08 -6.70319e-07 2.0682e-07 1.07981e-07 -4.76851e-07 -4.04599e-07 -4.69327e-07 -2.59482e-07 -1.18766e-07 -9.15865e-08 1.47017e-08 2.58554e-09 -2.46504e-07 -1.67203e-07 -1.8443e-07 1.33829e-08 -3.65429e-07 -1.30148e-07 -1.7596e-06 2.56354e-08 2.58316e-09 1.61748e-07 -6.76274e-09 -3.21296e-07 -2.17558e-08 -1.88621e-07 -3.60978e-07 -6.96973e-08 3.71129e-08 1.72573e-08 -7.27759e-08 -2.3436e-08 8.8587e-08 1.1942e-07 5.10126e-08 5.18847e-08 -2.49029e-08 8.01227e-08 -2.86238e-07 -2.10606e-08 -3.58421e-07 -1.11432e-06 -9.91397e-08 -5.1417e-08 -3.18894e-07 4.98122e-08 8.275e-08 1.22348e-08 1.76006e-07 -4.53049e-09 1.30281e-07 -3.5862e-08 1.02464e-07 -2.71143e-07 6.92753e-08 -2.17326e-07 1.41529e-07 -2.77563e-07 -5.76729e-08 -1.8268e-07 -4.80334e-09 -9.30387e-08 2.14407e-08 -2.63691e-07 -2.33894e-07 -2.13285e-07 -4.40117e-07 -3.87644e-07 3.05936e-07 -2.23344e-07 -1.58026e-07 -7.12766e-07 2.32679e-07 -2.40146e-07 -4.37086e-08 -2.65346e-09 -7.29151e-09 -6.04986e-08 6.8682e-09 -4.14202e-07 -4.31955e-07 -3.05294e-07 -1.15454e-07 -2.99949e-09 -1.43801e-07 -2.45185e-08 9.82439e-08 1.50338e-07 -9.1042e-08 -1.22908e-07 -5.91983e-08 -9.76502e-09 -1.79345e-08 -1.17868e-06 -1.97277e-06 2.24243e-07 1.53132e-07 -1.27503e-08 -1.40599e-07 -1.97328e-07 -9.1586e-07 -7.98432e-07 -2.19433e-08 -2.98273e-09 -5.41547e-07 1.30225e-07 -2.05575e-08 -3.60516e-07 -6.16337e-08 -1.27155e-07 -7.96091e-08 -3.39222e-07 1.14232e-08 4.26122e-08 -7.60188e-07 -3.69556e-07 2.97825e-09 1.59204e-07 -1.1787e-07 -2.99793e-07 -1.06465e-07 -9.7302e-08 1.60501e-08 2.45747e-08 3.82764e-08 -2.78738e-07 -2.23867e-06 -2.19379e-07 -1.7291e-06 2.28141e-07 -6.68444e-07 -3.19138e-07 8.59859e-08 -1.41657e-08 1.80271e-07 1.53577e-07 -8.51528e-09 -1.64719e-07 -3.3297e-08 -2.22938e-07 -1.84833e-08 -1.25803e-07 2.32373e-07 -4.02754e-07 3.03322e-07 -1.42302e-08 -6.64689e-07 -3.46057e-07 -1.17553e-08 -7.17328e-09 -8.98039e-08 -1.49586e-07 4.39382e-08 -7.80721e-07 -3.07064e-08 4.87806e-09 -2.84928e-07 4.24723e-08 1.86461e-07 4.3114e-07 2.66526e-08 -1.59712e-08 -1.12393e-07 -1.91672e-07 -7.72041e-08 -1.77655e-09 1.40927e-07 1.87895e-07 4.28971e-08 7.71543e-08 5.094e-08 1.0149e-08 -2.56379e-07 -8.1149e-09 -9.058e-08 -1.04782e-08 -3.34911e-09 -1.42345e-08 -1.00327e-07 -1.95401e-07 -1.22638e-07 -1.15387e-07 -4.32061e-08 -3.88954e-07 -4.4185e-07 -1.40545e-07 7.411e-09 9.17515e-08 -3.31565e-07 -4.56218e-08 1.29667e-07 9.66123e-08 -1.76928e-07 -7.40362e-09 4.47973e-08 -1.15265e-07 -1.0848e-08 -1.90291e-07 -1.44832e-07 -4.18237e-07 -7.26134e-08 -2.08258e-06 7.9343e-08 -7.06743e-07 -4.40341e-07 1.32399e-07 5.86462e-07 -6.18279e-07 2.01184e-08 -8.78494e-08 -3.61585e-08 -9.8831e-08 1.33489e-08 -4.71961e-08 -8.68884e-08 -6.92854e-07 1.65865e-07 4.93668e-08 -1.01183e-07 5.66033e-08 7.95376e-08 2.44198e-07 -4.09186e-08 -4.66173e-08 -7.637e-08 -3.67389e-08 -2.87179e-08 -9.50544e-08 -2.49931e-07 -2.02156e-07 -2.66875e-07 -2.00707e-08 -3.06968e-09 3.45272e-09 5.80719e-08 -3.20326e-08 2.68803e-08 2.55494e-08 1.00168e-07 8.55543e-10 -1.02768e-07 -9.48383e-07 -4.22331e-06 -1.23122e-06 -7.47674e-07 -1.47103e-06 -3.74037e-07 -5.50447e-08 -9.27915e-09 -2.7977e-08 -3.68496e-08 -3.71812e-08 -7.97635e-08 -2.71778e-08 4.55703e-08 -5.98342e-07 -8.22579e-09 1.05542e-08 8.77241e-08 6.82028e-09 -5.64074e-07 -6.04281e-07 1.41456e-07 -2.63283e-07 3.41302e-08 -1.1415e-07 -2.9565e-08 -1.54212e-07 -3.0766e-07 -3.6602e-09 -2.72456e-08 -1.3923e-07 9.38224e-09 -1.45713e-07 1.13972e-07 -2.41571e-08 -8.41777e-08 2.4866e-07 1.73736e-07 -3.86698e-08 -2.8074e-07 -2.41448e-07 1.56066e-07 1.88063e-07 3.77949e-08 8.92394e-08 1.31734e-07 -3.93745e-08 2.15996e-08 -6.76634e-08 9.05394e-08 2.91887e-07 -2.5165e-09 -4.03256e-07 -5.59856e-08 -5.22316e-08 -2.75659e-07 -2.02746e-07 -6.94684e-07 1.71076e-08 -1.68736e-07 -1.47726e-07 -2.7436e-08 -3.1578e-08 -3.23743e-08 -1.45781e-07 -1.32128e-07 -1.55893e-08 -1.48898e-07 5.27069e-07 -1.83869e-09 2.96423e-07 1.08895e-07 1.75937e-07 1.7451e-07 -4.03693e-07 -2.77029e-07 2.49543e-07 1.14667e-07 1.89403e-07 3.63701e-07 -1.32043e-08 -2.00259e-07 3.37445e-08 -2.07532e-07 -1.24815e-07 -2.14758e-07 -8.18921e-08 -1.54775e-07 -1.92444e-07 -8.24556e-07 -7.70464e-07 -1.30804e-07 -6.32326e-07 -3.03546e-07 2.73364e-07 -2.80451e-07 -7.20809e-07 -9.89817e-08 -1.79583e-07 2.75429e-07 1.28189e-07 -2.4435e-08 1.2406e-07 -5.75177e-07 -1.93639e-07 -8.70516e-08 1.02457e-07 -3.23436e-07 -5.54447e-07 -3.288e-07 -3.91812e-07 6.06003e-08 -1.65508e-07 -3.0403e-08 -7.88407e-08 -5.91098e-08 1.31106e-07 1.85324e-08 -1.69092e-07 -4.0442e-07 -3.55937e-07 -3.16014e-08 3.66659e-08 -3.48538e-07 -7.28976e-08 1.03992e-07 2.30577e-07 -1.21406e-08 1.60619e-07 5.19925e-07 -3.5671e-07 -2.67226e-08 1.95857e-08 6.33128e-08 1.42197e-08 7.84828e-08 -6.2597e-08 -6.6967e-08 -1.06379e-07 -2.51401e-07 1.09525e-07 1.46473e-07 8.57739e-08 4.643e-08 3.49307e-08 -2.76866e-08 9.33092e-08 1.43645e-07 4.33692e-07 2.1573e-07 1.18392e-07 -1.52605e-07 4.2585e-08 -2.29935e-07 1.22254e-07 3.14628e-07 -2.02353e-08 4.53692e-07 3.20346e-09 -2.31061e-07 -3.75767e-07 -1.21415e-07 -1.54883e-08 -9.97077e-08 -1.25328e-07 -1.20166e-07 -9.16348e-08 7.25569e-08 -6.04192e-08 -7.53279e-08 -1.55752e-07 1.87063e-10 -1.20105e-07 -1.10441e-07 -1.86188e-07 -9.88858e-08 -4.20058e-07 -1.61387e-07 2.54992e-07 -1.07689e-07 -1.43139e-07 5.18089e-08 2.40668e-08 -6.03819e-07 -4.88625e-07 -6.51193e-08 -2.73196e-07 -8.43526e-08 -4.03447e-07 1.81251e-07 -1.15072e-06 2.68128e-07 3.88662e-08 1.08798e-08 -9.25084e-09 -9.75756e-09 -4.61779e-08 -2.41174e-07 -1.70539e-07 3.89306e-08 6.64865e-09 1.50444e-08 -1.90633e-08 -5.62519e-08 2.41527e-07 -3.4116e-07 2.37117e-07 -1.3718e-07 7.01012e-08 8.61918e-08 1.20821e-07 7.87395e-07 1.28952e-07 2.99728e-07 3.91083e-08 -2.28193e-07 3.21251e-08 1.54108e-08 -1.30062e-07 -1.2116e-07 2.19397e-07 -5.06157e-07 -3.24796e-08 6.07593e-08 -1.08078e-08 -1.09614e-07 -1.3474e-07 1.65456e-07 2.67719e-08 3.08524e-08 -5.27985e-08 -7.9773e-08 -1.95192e-07 -6.93512e-09 -2.3608e-08 3.52489e-08 -6.86924e-08 -5.76825e-08 4.78768e-07 -5.26502e-07 -5.26059e-08 -1.6122e-07 -1.23497e-07 -7.49461e-08 -7.56847e-08 -1.14751e-07 1.10511e-08 -5.56993e-08 -3.30688e-07 1.61528e-07 4.49128e-08 3.32305e-09 1.70098e-07 -7.93058e-08 -4.53986e-08 -2.66146e-08 5.45632e-08 -3.00636e-08 -3.59417e-08 2.05967e-07 2.44052e-07 -1.41645e-07 -5.67635e-08 -1.00427e-08 -1.49847e-07 -3.21473e-08 -2.50628e-07 -4.12493e-07 -3.85237e-08 3.03177e-07 -1.63452e-07 -8.81536e-08 9.17725e-08 3.86316e-08 5.14922e-08 -4.82193e-08 -5.50287e-07 7.59745e-07 -3.2054e-07 1.20781e-07 1.24764e-07 1.80296e-07 2.38022e-07 4.33384e-07 -7.82053e-08 -2.2195e-07 -3.56726e-07 2.85093e-08 -3.63906e-07 -2.36556e-07 1.1483e-08 -6.92062e-08 -6.4607e-08 -1.06488e-07 -7.52742e-08 -3.91502e-07 -2.88824e-07 -1.36259e-07 -6.95131e-07 -3.43522e-07 6.99241e-07 4.15928e-09 2.31949e-07 -9.3287e-08 3.26497e-07 -1.5126e-08 2.02282e-08 -1.50839e-07 -7.04547e-09 -9.49707e-09 -7.05664e-08 -2.61134e-07 -5.55488e-07 4.42472e-08 -1.12977e-07 -3.84262e-08 -1.01343e-07 -4.82483e-08 -1.69241e-07 -5.99406e-08 -9.69944e-09 -1.19356e-07 -1.5547e-09 -4.34027e-08 -1.39231e-08 4.52675e-09 2.44419e-08 6.52368e-08 -4.37553e-07 -2.34463e-07 -2.56367e-08 -3.49827e-07 -3.29154e-08 -5.89533e-08 5.00868e-09 -6.37639e-08 -2.48568e-07 -3.31265e-07 -2.22e-07 -6.06939e-07 4.66611e-08 -6.21563e-08 -3.77937e-08 -1.46367e-08 -4.96978e-08 1.01296e-07 -5.08067e-07 -4.43636e-07 -1.3179e-07 -2.3492e-07 -1.97695e-07 -1.30416e-08 2.66598e-07 -9.93921e-08 -1.01959e-07 -1.11289e-07 -1.40703e-07 1.79568e-08 -1.4973e-07 -2.57425e-07 -8.51502e-08 -1.17664e-07 -1.13352e-07 -3.75822e-07 3.32164e-08 -7.26267e-08 2.36354e-08 3.09836e-08 -3.16153e-08 9.52432e-08 9.25563e-09 -9.34124e-08 2.39621e-08 -2.6202e-07 1.3965e-07 -3.60415e-07 5.23885e-08 -4.34186e-07 -7.76197e-07 4.78496e-08 -4.06254e-07 -1.10182e-08 -4.6584e-08 6.1561e-08 -4.01193e-08 -2.03679e-07 -2.47757e-07 -5.72202e-07 -6.35416e-08 2.51279e-07 1.41282e-07 -1.47028e-07 -1.08882e-06 4.14724e-08 2.42836e-08 1.04201e-07 1.2059e-06 -7.2204e-08 -7.50879e-07 -2.97462e-07 -1.32581e-07 3.66661e-08 1.68314e-07 -6.85958e-07 -1.15383e-07 -2.42679e-07 2.20651e-08 -7.81433e-08 -2.41055e-07 -3.87194e-07 3.12248e-08 -1.18789e-07 4.67773e-08 2.62587e-08 1.3113e-08 -1.02052e-08 1.16374e-07 4.1001e-07 1.67518e-07 -1.15832e-07 1.07885e-07 -5.99565e-07 -9.7342e-08 4.63817e-08 -5.05629e-08 -2.15285e-07 1.08552e-07 1.31503e-08 -2.77704e-07 -2.23132e-07 -3.63112e-07 5.97902e-07 -4.54015e-07 -4.13803e-07 -2.46475e-07 -4.84003e-07 -1.73453e-07 -7.64474e-07 -1.67985e-08 -1.16935e-08 -1.09897e-07 -2.87904e-07 -1.40158e-07 1.08761e-10 1.79147e-07 2.17838e-07 -1.11991e-08 -1.58404e-09 -4.09922e-09 -1.15746e-07 -2.315e-07 1.04732e-07 -3.32624e-07 1.27444e-07 6.76584e-08 -2.25856e-07 -3.07827e-07 -1.37257e-07 -1.97427e-07 -2.26156e-07 -7.24129e-08 -2.23764e-07 3.65345e-08 -1.40299e-07 6.12621e-08 -2.33179e-07 1.77324e-07 5.68443e-08 -2.33437e-07 1.27198e-07 4.20178e-07 -1.82882e-07 2.50374e-08 6.26816e-08 -2.68692e-07 -5.79672e-07 -1.70812e-08 -4.04643e-07 3.16804e-07 4.21872e-09 -1.4385e-07 -2.10991e-07 -1.36735e-07 2.91573e-08 -1.37685e-08 1.39808e-07 1.02906e-08 3.66142e-08 1.96275e-09 5.03867e-07 -1.09236e-07 -1.48075e-07 -1.24851e-07 -3.25241e-07 -1.30202e-08 -7.01456e-09 -1.04087e-07 -1.47493e-07 -3.05846e-08 2.43791e-08 3.56072e-08 8.6169e-09 1.17556e-08 -1.3005e-07 4.51544e-08 -1.25167e-08 -4.10611e-10 1.49461e-09 -1.53761e-08 -1.08237e-07 7.22446e-08 -5.39684e-07 2.99139e-08 -2.94652e-08 -4.89966e-07 -2.21318e-07 1.37463e-07 3.07154e-08 1.24547e-07 5.2468e-10 -3.53688e-08 -3.21453e-07 -5.21609e-07 -1.37213e-07 -6.76834e-08 1.04212e-08 -3.37939e-08 5.8288e-08 3.91918e-08 -6.65721e-07 3.24243e-09 -4.49642e-07 -1.61021e-07 1.331e-07 -2.06331e-07 1.3087e-08 1.21897e-09 -6.05825e-09 -2.07392e-08 -2.30562e-08 -7.80402e-08 -1.0411e-07 -1.96481e-07 -1.01613e-07 -3.29301e-07 -1.7804e-07 9.02596e-10 -3.6111e-07 -3.90844e-07 2.17529e-06 -2.25305e-07 -7.92779e-09 1.11688e-09 -1.31355e-07 1.56936e-07 -1.169e-07 -3.55744e-07 -5.73741e-08 7.71261e-08 1.13738e-07 8.33122e-08 -2.21605e-07 -9.29187e-08 3.55013e-07 4.9255e-08 -2.6809e-07 1.36958e-07 1.3285e-08 -6.59089e-09 2.07267e-08 -8.52019e-09 -4.91462e-07 -3.5225e-07 -5.2259e-07 -4.51425e-07 -6.27187e-08 5.10116e-08 -6.10148e-08 1.13848e-07 -3.30256e-08 -4.27038e-08 1.08931e-07 -7.71054e-08 -1.19846e-08 -5.27837e-08 -2.0662e-07 -4.72962e-07 4.8111e-07 7.86316e-08 -2.07405e-07 -2.41677e-07 -1.63806e-07 3.38103e-08 9.30969e-08 -6.29483e-08 2.03153e-07 -2.606e-07 -1.40199e-07 -2.23093e-07 2.49808e-07 2.00567e-07 6.76726e-09 1.30667e-08 -1.12102e-07 -9.45869e-08 -3.76174e-08 4.077e-09 -7.19096e-08 -3.52232e-08 -2.56871e-08 -3.92487e-08 3.16493e-08 -1.21429e-07 7.83256e-08 -1.19572e-07 1.64784e-07 4.54124e-08 3.11798e-09 -4.73629e-08 -6.55678e-08 3.16817e-08 2.21435e-07 3.03388e-07 -1.31461e-06 -5.62372e-07 -9.83621e-07 2.82448e-07 -6.29392e-08 -2.51606e-07 1.82844e-07 2.63452e-07 3.35503e-07 -4.17395e-07 -4.49862e-07 -3.61102e-07 3.23559e-08 -4.44785e-07 -5.09909e-07 6.31717e-08 -2.81101e-07 2.16256e-07 7.58569e-08 -4.15048e-07 -5.94547e-07 -5.77014e-07 3.28837e-07 -4.2728e-07 -1.06621e-07 3.60211e-08 2.22406e-07 -2.65005e-07 -2.00608e-07 -1.52218e-07 -3.83297e-08 -3.91886e-07 -1.74463e-07 3.34874e-07 -9.90255e-08 2.37869e-08 -2.86781e-07 8.32846e-09 -2.86505e-07 1.67299e-07 6.32978e-08 8.94451e-08 1.44147e-07 -4.21881e-08 -9.66751e-08 4.17842e-08 3.01134e-08 -2.74383e-07 -1.24715e-07 -2.62884e-07 -1.63464e-07 -3.23533e-07 -4.11004e-08 -1.17541e-06 -2.57427e-08 1.00737e-07 8.26507e-08 1.51617e-07 -4.94207e-09 -1.68534e-07 1.40903e-08 -1.6015e-07 1.33117e-09 -5.84579e-09 -3.18539e-07 -6.06943e-08 -7.50009e-08 -1.3796e-07 -1.09924e-07 -2.98684e-07 -1.44458e-07 1.79776e-08 1.05544e-07 4.04494e-08 -4.02649e-08 -2.65186e-08 2.45355e-07 1.8304e-07 1.55921e-07 3.12386e-08 8.68921e-08 -9.69497e-08 -9.68329e-08 -7.9215e-07 -1.39926e-07 6.54522e-09 -1.095e-06 -1.17516e-06 -1.00893e-07 -5.48706e-08 3.77772e-08 1.2266e-07 6.73385e-08 7.65391e-09 -1.34031e-07 1.88094e-08 5.26764e-08 -9.94921e-11 -2.18007e-07 -1.42767e-08 -1.77512e-07 -1.01376e-07 -3.72555e-08 7.1052e-08 -2.18047e-07 -1.59746e-07 -8.64426e-07 -4.14688e-08 -4.82958e-08 5.80419e-07 -2.87111e-08 8.45983e-08 -1.88837e-08 -8.29579e-08 -6.39676e-08 -1.46058e-07 -6.72245e-08 -7.59265e-08 -2.35004e-07 -2.06553e-07 -1.9594e-09 -2.50793e-08 -6.07933e-08 -1.46966e-08 5.66474e-08 1.60059e-08 5.28984e-08 -7.74977e-08 -2.87064e-07 -6.05035e-08 -6.27518e-08 -1.37179e-08 -1.1778e-07 -5.71284e-08 -7.11359e-08 -7.72012e-08 -9.06538e-09 -1.28096e-08 -9.81138e-08 -1.58089e-07 -1.00292e-07 -9.32822e-08 -8.21129e-08 2.4525e-09 -4.30432e-08 -4.56226e-08 1.43453e-07 -6.00937e-08 -8.77936e-07 -1.13388e-07 -5.265e-08 3.65185e-08 -2.0806e-08 -1.13897e-07 8.05835e-09 1.17116e-09 1.6659e-08 2.43409e-08 -1.77982e-07 -1.31097e-07 1.40572e-07 -5.00506e-08 2.30357e-08 -4.77557e-08 -2.08257e-09 -1.78684e-07 5.53256e-09 -5.29583e-08 2.35417e-07 6.42911e-08 1.20614e-07 7.09054e-08 -1.31611e-07 -6.70202e-08 -1.5646e-07 -9.02668e-07 -1.0106e-07 -8.80575e-08 -2.15777e-07 -1.21777e-07 -1.44527e-08 -6.85919e-08 -2.39159e-07 1.9983e-08 1.11163e-07 -7.54109e-08 -2.35052e-07 1.54939e-08 -5.80306e-08 -2.1915e-08 -1.60276e-07 5.88614e-08 1.24018e-07 -5.13953e-07 -2.30408e-07 -4.30625e-07 -4.47819e-07 -3.80567e-07 -8.68256e-07 -6.07295e-08 -5.65966e-08 -1.91046e-08 -1.19659e-07 -5.47698e-08 -3.36398e-07 1.93533e-08 -8.58348e-09 -1.50163e-07 -9.32673e-08 8.79906e-09 -8.48727e-09 1.24904e-08 4.84175e-08 4.30582e-09 -3.79055e-08 3.0705e-07 -1.27721e-07 -8.30307e-07 1.12189e-08 1.21955e-08 1.23889e-07 -6.49682e-08 -1.06398e-07 -7.67949e-09 -4.75713e-09 -1.51143e-08 -3.63441e-07 -2.14036e-07 -5.12929e-08 -4.69909e-07 -3.06721e-08 3.49833e-08 -2.99435e-08 -1.35646e-08 -1.24066e-07 -9.10785e-07 -6.76119e-07 -2.56841e-08 -1.05954e-08 -5.14692e-09 1.13863e-08 2.07762e-08 -7.12525e-08 -6.33893e-08 -4.75575e-07 -4.40778e-08 1.91295e-07 -1.45279e-07 -2.31431e-07 8.85343e-08 -8.70371e-08 1.68471e-07 -1.16243e-07 -2.58427e-08 -6.28631e-08 -9.997e-10 -2.96097e-08 7.56466e-09 -2.08444e-07 7.01057e-08 -1.12079e-07 -3.89694e-07 -4.32829e-07 4.31827e-08 -3.87475e-09 -2.1257e-06 9.24572e-07 -7.78581e-08 7.55278e-08 7.75034e-08 -3.66658e-07 -4.68306e-07 -1.32903e-06 -1.39939e-06 -3.2188e-08 -8.9898e-08 -5.30768e-08 -3.55833e-08 -2.25535e-08 2.54132e-08 4.96415e-08 7.34071e-09 -1.56469e-07 1.58914e-07 -2.63418e-07 -1.1805e-07 3.61378e-08 2.34912e-08 -9.25938e-08 -1.65077e-07 -6.43571e-07 5.78613e-11 -3.87358e-08 -1.81669e-07 -7.40097e-09 5.69978e-09 -2.44402e-08 -1.25892e-07 -9.55757e-08 -1.18377e-08 -1.02153e-07 -1.25932e-07 -1.20065e-07 2.10439e-07 2.57765e-09 2.62488e-08 -2.65629e-08 -2.68007e-08 -3.76694e-08 -2.48855e-08 8.86727e-08 4.22209e-08 -4.26259e-08 -1.30189e-07 -4.17468e-07 -4.07286e-07 -2.818e-07 -2.39508e-07 -1.25474e-07 -3.62004e-07 -6.56913e-08 7.91559e-09 1.08302e-07 -5.48677e-08 -6.05789e-07 -1.07336e-06 -3.8339e-07 -1.64102e-06 -1.44718e-07 2.58835e-08 4.1522e-08 -2.29262e-08 4.91559e-09 5.58653e-08 8.92467e-08 -6.45114e-08 8.35041e-08 4.89915e-08 -1.44604e-06 2.93545e-07 -7.6098e-08 -3.00713e-07 -4.71005e-07 7.05422e-08 -5.3754e-08 -3.40009e-08 -9.0208e-08 6.20049e-08 1.39436e-07 -1.14469e-07 -7.33007e-08 -2.2537e-07 -1.99346e-07 1.94924e-07 1.93788e-07 -2.42984e-07 -1.5958e-07 -3.47141e-07 4.96274e-07 -1.3626e-07 4.92347e-07 6.91093e-08 5.72068e-08 3.97597e-08 -2.47989e-07 3.04858e-08 6.00057e-09 -4.87429e-08 1.87046e-08 -6.09066e-08 -1.55809e-06 9.68519e-07 -1.04881e-07 -4.43189e-09 -1.65593e-07 -2.19761e-07 4.54589e-09 -1.08565e-07 -2.67567e-08 3.14977e-08 -9.50933e-08 -8.62562e-08 -3.18011e-09 3.59735e-08 -6.4708e-07 -7.955e-08 3.21271e-08 5.54251e-07 -2.24363e-07 1.45087e-07 9.41818e-08 2.09115e-07 -9.67073e-07 -2.95961e-08 -2.80884e-10 -6.49991e-10 8.20957e-08 6.29221e-08 -2.378e-07 4.67323e-08 -6.50769e-08 -2.06519e-07 -8.30928e-08 -1.58947e-07 -5.17424e-07 -5.58779e-07 -1.10622e-07 -1.23e-07 -4.37676e-07 1.09552e-07 -1.29424e-07 -3.24387e-07 -3.19384e-07 1.46342e-07 4.93425e-07 1.80824e-07 -1.19665e-07 2.41883e-07 -1.24731e-06 -3.96963e-07 -4.67668e-08 -6.65827e-08 -1.09402e-06 -6.15503e-08 6.78601e-08 4.64036e-08 2.22835e-08 8.5416e-09 -1.05384e-07 -9.36047e-08 -1.8954e-07 -1.84123e-07 -7.01114e-09 -3.69911e-08 -1.44823e-07 -5.274e-08 -1.11028e-07 2.00757e-07 -3.25195e-08 1.90662e-07 -3.74476e-07 9.9151e-08 7.96126e-10 -7.46241e-08 2.72889e-08 2.49837e-08 -1.17509e-07 -2.8951e-08 -3.32366e-07 -1.22057e-07 -1.6281e-07 -5.68489e-08 -8.27979e-09 -1.66266e-08 -7.84251e-08 -2.50458e-07 -3.81672e-08 7.72199e-08 1.34327e-07 -3.65871e-07 -1.66626e-08 -5.12301e-08 -1.59716e-08 2.17158e-07 7.04339e-08 -2.23116e-07 -1.87717e-08 -6.24181e-08 -8.44548e-08 -8.95272e-08 -4.38762e-07 -2.16807e-07 1.35478e-07 -3.00869e-07 -1.76672e-07 -4.82526e-08 3.79291e-07 3.16735e-07 -1.20619e-07 -3.18166e-07 -3.38483e-07 1.17103e-07 -7.08637e-08 -2.13071e-07 -1.11701e-07 -2.16672e-07 1.69306e-07 1.02481e-07 -1.64711e-07 -2.21732e-08 -8.75171e-09 -2.53141e-08 3.09646e-08 4.15934e-07 1.63086e-07 -1.24878e-07 -6.90407e-08 -5.79908e-09 -2.14471e-08 -5.82749e-08 -5.59177e-08 -8.75717e-08 -2.87397e-07 -4.97939e-07 1.87621e-08 4.02601e-08 -7.78233e-10 -3.26778e-08 -1.35821e-07 -1.41191e-07 -2.48943e-07 2.91125e-09 -7.83488e-09 -3.95604e-08 1.76716e-08 1.10954e-07 2.04393e-08 -3.58195e-08 -1.06159e-08 -2.14102e-07 6.1317e-09 2.56487e-07 -1.69776e-07 3.34328e-08 -2.00409e-08 4.73722e-08 1.46483e-08 -1.03803e-07 2.35146e-07 -5.38709e-08 -1.57869e-07 -3.38058e-07 -1.42822e-07 5.03436e-09 1.19069e-08 4.35143e-09 3.36616e-07 -4.79641e-07 -5.51591e-07 -2.95478e-07 -2.79994e-07 5.57955e-08 -3.8658e-07 -4.8786e-07 -1.66387e-08 -9.36913e-09 -1.606e-07 -2.27937e-08 -2.03411e-07 1.70746e-09 -7.25529e-09 -2.22123e-08 -4.96835e-07 -1.20329e-07 -2.93043e-07 -1.42592e-07 -6.44541e-07 -2.1895e-07 -3.7891e-08 -1.18486e-08 -1.75929e-07 2.63765e-08 -1.8372e-08 -3.19446e-08 -7.48094e-08 -8.55741e-08 -2.0241e-08 -2.57221e-07 -1.27021e-08 3.95392e-08 -9.79013e-08 -7.14066e-09 -2.59398e-08 -4.5995e-09 -6.77641e-07 -6.07873e-08 1.01804e-07 -2.64686e-07 -3.54416e-07 2.01638e-08 -3.72653e-08 -1.79378e-09 -1.0249e-08 4.53808e-08 -1.06621e-07 -1.57177e-07 -1.69971e-07 -2.01151e-07 2.79701e-08 -2.65398e-09 -3.0057e-07 -8.62494e-08 2.70886e-08 1.28171e-08 1.20353e-07 1.10834e-08 -3.62999e-08 -3.31077e-08 -3.35611e-08 -8.50183e-07 -2.96764e-08 -8.65274e-10 -2.83688e-07 9.16989e-08 -2.59837e-08 -3.3287e-07 2.50297e-08 1.06202e-07 8.64013e-08 2.00034e-07 6.29521e-08 -3.44669e-07 -6.14543e-08 2.15773e-07 3.2523e-07 4.30456e-08 1.47281e-07 -2.2007e-07 -4.58939e-08 5.49747e-08 -1.36539e-07 -2.88106e-08 -4.02389e-08 -2.5218e-08 -4.53969e-08 -1.79713e-08 1.87274e-08 -1.97529e-07 2.08241e-07 4.695e-07 -2.181e-08 -2.86276e-08 -1.812e-08 2.039e-08 -1.0664e-07 -3.15369e-08 -1.06423e-07 -7.47119e-08 -2.32292e-08 -5.06755e-07 -4.62504e-08 -1.27615e-07 1.72982e-07 -7.06954e-08 -2.82409e-07 -1.60038e-07 -3.53596e-08 -2.27278e-07 -2.21626e-07 -3.54124e-07 -1.12733e-07 -4.05524e-08 -7.5732e-08 -5.61167e-08 -5.51417e-08 1.8253e-07 -3.28317e-08 -1.27834e-07 -8.73307e-08 -3.38275e-08 -3.16688e-08 5.39796e-08 -8.60243e-08 -5.72269e-08 -6.98665e-08 -4.6602e-08 -8.88627e-08 8.10259e-08 -8.77623e-08 -8.62429e-08 -2.72688e-08 -1.21172e-07 -3.10998e-07 3.30686e-08 3.84328e-08 -2.9559e-07 -3.77776e-07 -1.48636e-07 3.90881e-07 3.54818e-09 7.66558e-08 -1.1893e-07 1.73775e-07 -5.31278e-08 -4.82069e-08 -8.83929e-09 -2.52469e-08 -2.44723e-07 -7.21813e-08 -4.3951e-08 -1.56519e-07 -1.92556e-07 -4.49651e-08 -5.88857e-07 -2.11928e-07 -4.36949e-07 -9.10543e-08 -1.90155e-08 4.73952e-08 -4.86717e-08 -4.42668e-08 -1.1628e-07 4.76654e-08 -1.30812e-07 9.38846e-09 2.25837e-08 -6.64892e-08 -7.76948e-08 -4.12728e-08 -9.3985e-08 2.04609e-08 -5.45972e-07 -8.12241e-09 -1.21376e-08 1.34645e-08 -2.35345e-07 1.10536e-07 1.59332e-07 3.42423e-07 -1.84735e-07 -3.07646e-07 -2.60991e-07 -8.49966e-08 -6.8949e-08 1.77606e-08 1.54229e-08 -2.71455e-08 2.38844e-08 -2.29725e-07 -1.83471e-08 1.55988e-07 2.05675e-07 -3.99574e-07 -9.83048e-07 -4.88185e-07 -3.65079e-07 -1.22888e-07 3.23935e-07 -8.76093e-08 -1.28415e-08 -2.01633e-07 4.6894e-07 2.38031e-07 -5.5952e-08 2.21619e-08 -1.66165e-08 -1.18501e-07 -7.29864e-08 1.30889e-07 -1.17752e-07 -2.62872e-07 6.04441e-10 -7.77695e-08 3.17009e-07 1.99029e-07 3.8382e-07 -5.51121e-07 2.09479e-07 4.35725e-08 -4.15016e-08 1.5762e-07 4.16633e-07 -2.76499e-08 -1.2244e-07 -5.11482e-08 -3.90443e-08 1.26648e-07 -7.62433e-08 4.69106e-08 -1.66644e-07 1.62662e-09 4.44387e-07 -1.20933e-08 -8.43652e-08 -2.03361e-07 1.13956e-07 -3.07545e-07 -1.08806e-07 -1.28225e-07 -4.27603e-08 -1.78477e-08 4.02697e-08 -5.39097e-08 -1.31872e-06 -6.62839e-08 -2.26634e-08 3.61876e-08 -4.02728e-08 7.48405e-08 -5.65503e-08 -4.04837e-08 -8.31498e-08 -2.87001e-07 -3.58721e-07 1.00211e-07 7.43335e-08 6.68315e-09 -1.66615e-08 -2.9324e-08 -1.32901e-07 -6.17746e-08 -3.02835e-08 -1.72189e-07 -1.41636e-07 -8.62604e-07 -2.76357e-08 -9.73454e-08 -1.85423e-08 -1.23418e-07 -8.98821e-08 2.5069e-08 9.78605e-08 1.08054e-08 -4.624e-07 -1.04614e-07 4.79244e-08 -9.83551e-08 3.90094e-08 7.94831e-08 -7.0336e-08 -4.4005e-09 2.12254e-08 -1.05462e-07 -6.86441e-08 -1.43933e-08 -1.04583e-07 -2.69795e-07 -2.21923e-07 2.58607e-08 -2.43085e-08 -6.24418e-08 -3.34299e-08 -5.71425e-09 -1.39557e-07 -3.72548e-08 3.58674e-08 2.77361e-08 -2.26166e-08 -6.20405e-09 -6.54093e-08 -3.85233e-08 -8.46616e-07 -1.28692e-07 -3.01157e-07 -1.46282e-07 -1.61975e-08 3.30082e-08 -7.40206e-08 -5.4784e-08 -2.94033e-07 -4.85723e-07 -6.2616e-07 1.03783e-08 -2.50697e-07 2.69799e-08 3.79447e-08 9.1158e-08 -7.71009e-08 1.15424e-07 -3.6092e-06 2.53385e-08 1.67175e-07 -6.97727e-09 4.29501e-08 3.3638e-08 -8.60397e-08 -2.18543e-07 5.30282e-08 7.89049e-08 -1.97417e-07 -4.38573e-08 -2.70106e-08 -3.54082e-08 -1.27106e-07 3.16303e-08 -4.45753e-08 -3.697e-07 -7.47489e-07 3.11025e-07 -6.39056e-07 -4.04687e-07 1.97779e-08 7.24338e-09 -1.86582e-08 -6.8171e-08 1.5494e-10 9.77174e-08 -6.26971e-08 -1.81163e-07 1.89906e-07 8.23262e-10 1.17145e-07 1.40815e-07 -1.00284e-07 2.51038e-08 -6.3709e-08 -5.42093e-08 6.77882e-08 -8.76995e-09 -1.8333e-07 1.42466e-08 -4.05367e-09 -1.66723e-07 1.08099e-07 1.63331e-07 -8.17128e-07 2.09414e-07 -8.3117e-08 1.48928e-07 -1.10901e-07 -5.19807e-08 -2.31412e-07 -2.24097e-07 2.16226e-08 3.03616e-07 -9.61697e-09 1.14495e-07 -7.34729e-08 -6.16877e-07 -1.4459e-07 -7.46867e-07 -9.60264e-08 -3.58827e-08 -8.7138e-08 -4.82763e-07 -1.19229e-08 -2.0289e-08 -7.39609e-07 -5.10765e-07 -7.21054e-07 2.53215e-07 3.66629e-07 -5.91985e-07 -3.22856e-07 -1.68145e-07 2.36933e-07 2.89087e-07 2.04857e-07 3.15103e-07 4.81907e-07 1.10116e-07 -1.40093e-08 1.32918e-07 2.32191e-07 -1.14685e-07 -6.86377e-09 -7.06157e-07 1.65747e-07 -1.19474e-07 5.86953e-07 1.7552e-07 2.93513e-08 -1.65202e-08 -4.83974e-08 -6.1022e-08 -6.11505e-08 -1.37692e-07 -1.29093e-07 1.46789e-08 -9.9546e-09 -1.95397e-08 -7.90698e-08 -2.85877e-08 -1.60694e-07 7.00311e-08 -7.75025e-08 1.00558e-08 2.28187e-08 5.71357e-08 -7.00004e-08 -3.77063e-08 -8.3899e-08 -1.05321e-07 4.37455e-08 5.73257e-07 2.0605e-07 -8.49553e-08 3.03191e-08 1.10862e-08 -3.4125e-08 -1.91448e-07 -5.28499e-08 -5.97229e-08 -9.10553e-08 -3.88368e-08 -1.8289e-07 -5.36223e-07 -1.38354e-07 -1.84364e-08 -4.07854e-08 -1.0372e-07 -1.91148e-07 -2.59282e-07 2.54588e-08 -5.51309e-08 -1.83236e-07 8.84482e-08 -2.2699e-07 -2.00484e-07 1.68292e-08 1.21891e-08 5.79243e-08 -5.38731e-08 -6.30775e-08 4.47484e-08 2.7611e-09 2.55411e-08 1.01367e-08 -2.45197e-09 -1.22021e-08 7.79904e-08 -8.84795e-08 -5.90334e-08 -3.07483e-07 -7.72222e-08 -3.69288e-08 -2.92376e-07 -2.85263e-07 -2.82425e-08 -2.1015e-08 1.64005e-07 4.39262e-08 -5.23507e-08 5.93027e-08 2.06992e-07 -4.77322e-07 1.12626e-07 1.94794e-07 -4.70296e-08 1.83248e-07 -4.20045e-07 -3.65857e-08 -5.88602e-08 -6.36407e-08 -1.84948e-07 -7.63276e-07 -2.89841e-07 -2.38967e-07 -3.08741e-07 -8.91866e-08 -2.94046e-07 2.44233e-08 -6.4838e-08 -1.5299e-07 -4.29366e-08 5.26202e-09 4.45922e-08 2.85643e-08 -1.02291e-08 -3.06369e-08 -2.70289e-08 1.26949e-08 -8.09172e-08 -8.13096e-08 -5.37666e-09 -1.39867e-08 4.22833e-08 -1.48749e-07 8.06322e-08 7.06526e-07 4.69375e-07 8.03618e-08 1.41463e-07 3.94539e-08 -4.66474e-08 -3.24373e-07 -3.18416e-09 -1.3868e-08 2.74633e-09 4.12776e-09 -5.76579e-08 1.12748e-07 1.22356e-07 1.67131e-07 -2.17664e-07 4.33716e-08 5.30925e-08 -4.08991e-08 -6.59039e-08 -1.34526e-07 -5.44278e-07 1.86362e-08 -2.91883e-07 -1.82253e-07 -1.89032e-07 -1.03747e-08 -5.36993e-07 -1.5928e-07 -1.68093e-08 3.01076e-09 9.13234e-08 6.1756e-08 -1.65892e-07 -1.77324e-07 8.08958e-08 -1.40566e-07 -1.17167e-07 -2.96664e-07 -2.15633e-08 -6.26375e-08 -1.50814e-07 -5.66248e-08 -2.69284e-08 -5.96717e-08 6.26479e-09 -1.8298e-08 -1.01062e-07 -2.56735e-08 1.11453e-07 -5.08416e-08 -2.61275e-08 -1.07655e-07 -8.68021e-09 -3.26455e-07 -1.0299e-07 -3.71851e-08 -2.0748e-08 -1.27033e-07 -2.27701e-07 -2.87068e-07 -1.73219e-09 -9.32099e-09 -3.57982e-07 -2.92084e-09 -1.92199e-07 1.21204e-07 2.66809e-07 1.35717e-07 -1.7328e-07 -5.86475e-07 -2.41521e-07 -1.29187e-08 -4.83317e-08 -4.7114e-08 -6.26642e-08 -5.36655e-08 -1.8115e-08 -2.46867e-07 1.13716e-07 1.04444e-07 4.97748e-08 -7.2439e-08 -5.41521e-08 2.96543e-08 -3.81557e-08 -3.72445e-08 3.92359e-08 -8.15763e-09 -2.60462e-07 1.62925e-08 -2.07488e-07 -2.11583e-07 -9.02297e-08 -8.64674e-09 -1.50948e-07 9.00773e-08 -8.49231e-08 -2.26969e-08 2.32827e-08 -3.61325e-08 -4.45848e-08 1.32798e-07 1.17268e-08 -8.53554e-08 -3.61614e-07 -2.9338e-08 -1.3413e-08 -1.19559e-07 -3.62203e-07 1.36307e-08 1.64309e-07 -3.48998e-07 5.58869e-09 3.01128e-08 9.70198e-08 7.23428e-08 -8.35143e-07 -6.28057e-08 2.01849e-08 2.39203e-08 -3.06931e-07 -1.34172e-07 2.44736e-09 -4.80499e-08 -1.72506e-08 -6.99653e-08 2.50064e-07 9.11071e-08 6.9856e-09 1.01403e-07 -9.78686e-08 -1.84612e-07 7.55262e-08 3.70968e-08 -3.87969e-08 -6.12971e-08 1.24838e-08 -1.33233e-07 -1.56485e-07 -6.75146e-08 -3.09046e-08 -8.90318e-08 1.81166e-07 7.96744e-09 -7.37329e-08 -8.20464e-08 -9.28265e-08 -4.11051e-10 3.69209e-09 -2.88385e-08 -1.61795e-08 -2.91266e-07 -5.37971e-08 -5.25432e-07 7.94103e-08 -6.13242e-08 -1.29461e-07 -5.06628e-08 -4.24332e-08 -3.76056e-07 -2.041e-07 -8.6556e-08 -3.19567e-07 -3.19096e-08 9.09056e-08 5.56732e-08 -3.47708e-07 1.41982e-07 3.26269e-07 3.95667e-07 1.30932e-09 -1.52196e-07 -6.16862e-07 -2.70583e-07 -2.93443e-07 -9.56703e-08 -9.46734e-08 -3.26965e-07 -2.60503e-08 -2.18743e-08 1.7611e-07 -4.71769e-07 3.08732e-07 -3.13722e-07 -3.36154e-07 4.66656e-07 -2.57855e-07 -6.75524e-08 -5.79066e-09 6.67814e-09 -3.4469e-07 -3.55385e-08 -1.43441e-08 -3.03971e-08 -2.81155e-08 -2.07653e-08 7.64629e-08 3.07097e-08 1.58653e-08 -1.17316e-07 -1.1189e-08 -1.4955e-09 -4.23812e-07 -1.5871e-08 -4.98685e-07 7.06863e-08 -1.03507e-07 -1.53286e-07 7.96315e-08 -3.0131e-07 -1.71192e-07 -5.94201e-08 -2.464e-08 3.20065e-07 1.74704e-09 2.13221e-08 3.67835e-08 -1.4646e-07 -1.39721e-07 7.39965e-08 -8.86872e-08 2.20079e-08 4.40132e-08 6.6046e-08 -5.5687e-09 3.19975e-08 -1.26512e-07 -2.06322e-07 -8.46061e-08 -1.17792e-07 6.72599e-08 -8.08778e-09 2.27952e-07 -2.00419e-07 3.67659e-08 -1.29629e-07 -8.28464e-08 -1.44439e-07 -7.52877e-08 -1.20027e-07 -4.08061e-09 -1.50895e-06 -4.44937e-07 -8.73302e-09 -1.72775e-08 1.09949e-08 2.42527e-10 -3.80095e-08 4.069e-08 8.23667e-09 7.57009e-08 -2.16185e-07 -1.14118e-07 -2.96104e-07 -1.01855e-07 -1.64776e-07 8.86593e-08 -1.07561e-07 -1.80184e-08 -2.58979e-08 -1.10158e-07 -1.19e-07 -1.31186e-08 1.00201e-07 -1.52042e-07 -7.55544e-08 -4.26001e-08 4.99566e-08 -1.08283e-07 -6.69055e-07 -2.22021e-07 -1.91807e-07 -1.02625e-06 -5.0385e-07 -2.59037e-07 -3.81633e-07 -7.03507e-08 4.30578e-08 -1.88375e-08 -3.44058e-08 1.98644e-08 -1.31452e-07 -8.52434e-07 -1.55048e-10 -1.12731e-07 -1.509e-07 -2.87358e-07 -1.30409e-08 -2.72043e-07 3.62203e-08 -2.59537e-08 -5.51167e-08 -5.41805e-08 -1.39674e-07 1.943e-08 5.00429e-08 3.04461e-08 -1.7896e-07 -5.21966e-07 1.60496e-07 2.03284e-07 -3.98782e-08 -1.47281e-07 -1.52843e-07 -5.40649e-08 5.45876e-08 1.13228e-07 -9.92217e-08 1.90291e-08 8.54646e-08 1.02709e-07 1.56676e-07 7.10879e-08 -1.81833e-07 4.00809e-08 -2.52697e-07 -7.31912e-09 -3.86413e-08 1.28003e-07 4.56761e-10 -3.36028e-08 -4.70145e-08 1.32442e-07 -4.31072e-07 -3.27758e-07 -2.79372e-07 -4.73699e-08 -8.47079e-08 -5.77691e-08 -2.03071e-07 1.11387e-07 5.97543e-08 1.1818e-07 -2.96572e-08 -6.79257e-10 1.06219e-08 5.48771e-09 6.4603e-08 7.55423e-09 -3.7634e-08 1.02445e-09 6.98873e-09 -7.21888e-08 -1.43855e-07 -3.92322e-08 -1.08836e-08 5.01094e-08 4.69923e-07 3.38013e-07 -2.24453e-07 -8.17252e-08 -3.26122e-08 2.46183e-07 -1.00638e-07 -1.44281e-07 -3.67927e-07 -4.02917e-07 1.4643e-07 6.80113e-08 3.80856e-08 2.52939e-07 -9.92351e-08 -3.37265e-08 -2.98329e-08 5.33738e-08 -1.17399e-07 -2.04088e-07 -1.68425e-07 -3.26885e-07 -4.85789e-07 -2.8994e-08 1.34968e-07 5.85198e-08 -2.48511e-08 -1.87756e-07 -2.77531e-07 7.15239e-08 -1.16633e-08 -1.62512e-08 6.71116e-07 1.19925e-07 1.44616e-07 -5.42622e-07 -3.15215e-08 -7.39612e-08 -1.65819e-08 3.49683e-08 6.33543e-08 4.1222e-08 -7.7009e-07 -6.15504e-07 3.04381e-07 2.16443e-07 -6.09039e-08 -1.8818e-08 -9.58156e-07 3.10798e-07 2.67729e-08 -1.81225e-07 -3.93726e-08 9.16389e-09 6.12246e-09 9.75281e-09 -2.20096e-07 -4.21424e-08 -3.17804e-07 -4.73895e-07 -2.9445e-07 -8.86191e-07 -2.64914e-07 -7.18949e-07 -3.0368e-07 6.75016e-08 8.55025e-08 -5.6892e-07 -2.81159e-08 1.72683e-07 1.19493e-08 -7.25952e-08 1.58269e-09 -1.23481e-07 4.76509e-08 2.13549e-08 4.90123e-08 -1.604e-07 -3.97898e-08 -1.20494e-07 -1.81547e-07 -1.70827e-07 -2.99726e-08 -2.25587e-08 5.42395e-08 -5.79869e-09 6.40927e-08 -1.16656e-07 2.52578e-08 1.21699e-08 1.20985e-07 -1.36133e-07 -4.81902e-07 -1.26428e-08 -1.68449e-07 3.42961e-08 -1.85261e-07 -9.34512e-08 -1.86881e-07 -4.2295e-08 5.72516e-08 -2.62849e-08 1.49888e-08 5.50301e-09 3.83192e-09 1.89866e-08 -1.69345e-08 -5.99086e-08 3.29793e-07 -1.32621e-07 -1.70138e-07 -1.02974e-07 -4.69725e-08 -2.00582e-08 -1.95671e-08 1.08836e-07 1.10922e-07 4.68933e-09 1.84205e-08 -1.07022e-07 -1.72319e-07 -4.25202e-08 -5.08796e-08 8.62104e-08 1.87788e-08 2.81767e-08 4.27475e-09 -6.83267e-09 5.76155e-11 -1.52492e-07 -2.6226e-08 -2.47224e-08 -5.2776e-09 -6.10308e-08 -1.34127e-07 1.25089e-08 -9.6083e-08 -1.45353e-07 7.01529e-08 2.75934e-08 -1.56195e-08 1.38476e-07 6.23837e-08 4.8195e-09 -3.12684e-08 -1.31783e-07 -2.81306e-07 2.31469e-07 -5.6272e-08 -3.50937e-08 -4.20617e-08 -5.81312e-08 -6.33483e-09 -2.6208e-07 -3.75808e-07 -1.43637e-07 -3.46728e-07 -2.93512e-07 -2.50938e-07 -6.93598e-07 -4.94655e-08 -8.22032e-07 4.47361e-08 1.67235e-07 -1.1709e-07 -1.91133e-07 -1.79513e-07 -9.42228e-08 4.13479e-09 -5.23803e-08 -2.22973e-08 3.78176e-08 -1.16243e-07 -1.47389e-07 -1.24033e-07 1.94612e-07 -6.64084e-08 -2.67387e-07 2.11931e-07 -3.5453e-07 -4.44812e-07 2.04216e-08 -1.82002e-07 7.98451e-10 5.11173e-08 -2.135e-08 5.11787e-08 1.59285e-07 -2.73765e-08 -8.09012e-08 1.42454e-08 -3.57771e-08 2.17591e-07 -3.84268e-08 -4.52063e-08 -8.58417e-08 -1.73515e-08 1.24008e-07 -8.47589e-08 6.8052e-08 1.26552e-08 -1.63276e-07 -4.86215e-07 -1.82171e-07 1.1955e-08 2.09055e-08 1.43839e-08 5.08942e-08 -5.11676e-08 -1.84445e-07 3.13366e-08 4.75361e-08 -2.05422e-07 -3.88767e-08 -1.7498e-08 -1.29257e-08 -6.94403e-08 -1.05843e-07 -2.31018e-08 -1.64994e-07 -4.01271e-08 -2.00452e-07 2.17671e-08 -6.8105e-08 -5.75594e-09 -8.90578e-08 4.87251e-09 1.05192e-07 -9.07974e-08 -8.54097e-08 -1.16116e-08 -1.08673e-07 -1.34641e-07 -7.70842e-09 5.07896e-08 -1.6972e-07 -4.3655e-07 -2.90036e-07 -3.5809e-07 -5.22042e-07 -5.41389e-07 -2.44806e-07 2.44114e-08 6.92945e-09 -2.39364e-08 3.52291e-09 -1.51159e-07 -9.9191e-08 -1.71913e-07 3.57334e-07 2.54686e-08 -3.20647e-07 -1.34206e-07 -9.9132e-08 -1.50149e-07 -1.00988e-07 -2.28657e-07 -2.63678e-08 -3.37317e-08 -4.68082e-09 -3.79654e-08 -4.16781e-08 5.8466e-08 -4.87833e-08 1.19182e-07 -4.33183e-08 -1.26307e-07 9.76258e-08 -4.7119e-08 -1.05004e-08 1.81735e-08 1.26629e-07 2.81273e-08 -2.06288e-07 -2.04568e-07 -7.83094e-08 -2.14909e-07 1.34945e-07 8.28916e-08 -6.08579e-09 -9.51948e-08 2.30397e-07 2.16554e-07 -1.53167e-07 -3.98156e-08 -5.46341e-08 -1.51485e-07 -3.44989e-08 2.22247e-07 8.53481e-09 -1.54494e-07 -3.98783e-07 -4.82631e-07 -6.53458e-07 -2.14685e-07 -6.17687e-08 1.33753e-07 -1.02632e-07 -9.1102e-07 -9.57398e-08 -7.08778e-08 4.74426e-11 -5.73252e-08 -7.37156e-08 -7.44091e-08 -8.75216e-08 3.68512e-08 9.74193e-08 2.13453e-09 2.1276e-10 -8.15394e-09 1.44949e-08 -2.39989e-08 -4.13394e-09 -8.3005e-08 -4.83485e-08 -5.42309e-08 3.616e-07 3.34199e-07 -3.23889e-09 8.62049e-11 9.86464e-08 -1.5762e-08 1.41666e-07 2.14004e-08 1.11585e-08 1.14705e-08 -1.10143e-08 5.03013e-09 -6.36942e-08 -1.3808e-07 3.66788e-08 6.18139e-08 -1.0164e-07 -1.14592e-07 -2.51918e-07 6.64409e-08 -1.75921e-08 -1.41819e-07 1.99337e-07 2.00435e-07 1.21225e-08 6.69254e-08 -2.2912e-08 -3.30436e-07 2.60674e-07 4.88356e-07 5.10594e-08 -7.87198e-09 -1.37734e-08 -5.14492e-08 -3.88145e-08 -1.57392e-08 3.12645e-07 -2.05345e-06 -4.01139e-08 -1.69418e-07 -2.5395e-07 -8.65682e-09 -2.06218e-08 -4.51037e-08 -6.36549e-08 -1.77214e-07 -4.4031e-08 -2.37499e-08 -1.80517e-07 1.52401e-07 -1.25429e-08 -7.23734e-08 -7.71747e-08 -2.11162e-08 -1.89412e-09 -1.82772e-07 -1.27265e-07 -2.13886e-08 -4.12707e-08 -2.7203e-07 -1.86188e-08 5.71132e-08 3.89524e-08 -7.73305e-08 -7.78407e-09 -2.64599e-07 -3.19791e-07 -3.33765e-07 -1.35937e-07 -2.97908e-08 -5.4042e-08 1.02212e-08 -1.18312e-07 1.46162e-07 1.94162e-08 -2.25755e-08 7.01655e-08 -1.61924e-08 1.39904e-08 -4.95745e-08 -3.946e-08 -1.50675e-07 -7.95449e-08 -1.12813e-08 -6.89187e-08 -4.75302e-08 -4.34313e-08 6.26141e-08 -9.89946e-09 -4.74872e-09 -1.22303e-07 -6.58793e-08 -8.35951e-08 6.50676e-08 6.95267e-08 -1.11637e-07 1.37316e-07 1.18075e-07 -8.40886e-09 -1.59825e-07 2.42584e-07 -1.86366e-07 -6.41714e-08 -2.08755e-07 2.56484e-08 -4.7018e-08 -7.11426e-08 6.07866e-08 -5.37508e-09 -5.23847e-08 -4.71385e-08 7.36645e-08 -8.52993e-08 -5.43746e-08 -9.66987e-08 -9.33744e-08 -1.0912e-07 -2.88513e-07 -5.56454e-08 -2.32809e-07 -3.32318e-07 -4.4939e-07 9.25298e-08 -1.12237e-08 -9.24753e-09 -2.74765e-08 -8.44866e-09 7.49598e-08 -4.31098e-07 -8.05831e-08 -9.17326e-08 -1.48875e-07 -1.09536e-08 -4.76664e-08 -9.75158e-08 1.09983e-07 -1.29451e-07 -1.91281e-07 -4.57524e-08 -1.21204e-07 3.05029e-08 4.8736e-08 -6.99196e-09 -4.83861e-09 -4.26374e-08 -1.16081e-07 2.70641e-07 -6.36494e-08 -1.25851e-07 1.08194e-07 -2.66001e-08 2.12459e-07 1.0119e-07 4.27248e-09 1.09889e-08 -1.92576e-07 -3.44018e-07 1.84152e-08 1.80081e-09 -2.79459e-07 4.30695e-08 -1.48614e-07 7.7105e-08 -6.56789e-08 -1.01233e-07 -1.13572e-07 -9.43618e-08 -1.95534e-08 -9.91816e-09 -1.03603e-07 -3.12224e-08 -7.85435e-08 2.72485e-08 4.19893e-08 -6.16748e-10 -3.23612e-07 -9.66206e-08 -7.58753e-09 6.27565e-08 5.00253e-07 1.51722e-09 -3.17765e-08 1.01605e-07 -1.89504e-07 -1.63821e-08 5.17571e-08 -7.81408e-08 -1.11643e-07 1.40763e-07 5.44072e-08 6.72268e-08 -6.35582e-08 4.50217e-08 9.5436e-09 -4.45988e-08 -8.84008e-08 3.52426e-08 -4.38879e-08 3.35402e-08 -1.99039e-08 1.70252e-09 9.33822e-10 -3.85708e-08 -1.22621e-07 -1.41131e-07 1.28432e-07 1.56583e-09 -2.40892e-08 -3.84016e-08 2.77391e-09 1.95709e-09 -2.53936e-07 -1.51817e-07 -4.40738e-09 2.83837e-08 7.20316e-08 4.08095e-08 -1.00667e-08 -1.94142e-07 -1.40907e-07 1.44442e-07 6.08268e-08 -5.92995e-08 -6.54008e-07 7.33925e-08 4.47956e-08 8.22659e-09 2.63633e-08 4.60598e-09 -1.20979e-06 -9.48006e-07 -6.08305e-08 2.5242e-07 1.10944e-08 -1.62019e-07 -1.70185e-09 3.66298e-09 1.447e-08 1.35154e-08 -6.99421e-08 -4.18339e-08 -5.50398e-08 -9.42593e-09 -1.18612e-07 -1.51096e-07 -1.88413e-07 -2.10336e-07 -3.56275e-08 8.65189e-09 -8.97124e-09 -4.22064e-08 2.51345e-07 1.96413e-07 1.37551e-08 -3.01658e-08 2.32038e-07 9.15121e-08 1.77292e-08 5.38231e-09 -4.39148e-09 -3.88569e-08 2.08219e-08 -3.12757e-07 -4.8329e-07 -9.21004e-08 -1.96407e-07 -2.98875e-07 -2.11812e-07 2.08074e-08 -1.09158e-07 -1.38166e-08 -3.89987e-07 -1.75727e-08 -9.85477e-08 -5.86437e-08 -5.05814e-07 2.04041e-08 6.45395e-08 -1.7221e-08 5.09855e-09 9.18676e-09 -8.777e-09 -6.20513e-09 3.63498e-08 3.79662e-09 1.44895e-07 -1.6235e-09 -9.75565e-09 3.23874e-09 1.98934e-07 -4.33121e-07 -1.32063e-07 -2.41146e-07 -8.21315e-07 -7.4176e-07 -5.34534e-09 -9.72644e-08 -1.65619e-07 -9.41416e-07 -1.72082e-07 -1.36256e-07 -5.15811e-08 -3.33942e-09 -5.09872e-08 6.6084e-09 -1.46646e-07 -5.11275e-08 6.32733e-09 2.09222e-08 2.1757e-08 2.07521e-08 -8.52696e-08 -1.02959e-07 1.50205e-08 -1.0595e-07 -7.74071e-08 3.49391e-08 -6.1555e-07 -4.69352e-07 3.20828e-08 -6.29028e-08 8.78648e-08 -1.02082e-08 -6.68961e-08 -7.80111e-08 -5.44665e-08 -9.9295e-08 -4.23481e-08 -6.43077e-08 -3.38037e-09 -3.38732e-07 -4.30783e-07 -5.6295e-07 -4.81464e-08 -3.46165e-08 1.38167e-07 -3.219e-07 6.17057e-09 -5.26977e-07 -5.67116e-08 -3.80285e-08 1.05316e-08 1.03988e-08 -6.33036e-08 -1.39159e-07 -2.10692e-07 -1.35511e-07 9.73451e-08 3.81531e-08 -7.56881e-08 -5.58312e-08 -1.91508e-07 -9.78921e-08 4.38989e-08 7.89872e-08 -1.86865e-08 -2.42877e-08 8.55159e-08 -1.8755e-07 -2.63727e-07 -2.30668e-07 -5.5762e-08 -1.00765e-07 -2.68085e-07 -1.30431e-09 3.47929e-08 1.64181e-07 1.13611e-07 2.53144e-08 -1.12557e-08 -4.9075e-08 -3.61006e-08 -5.09821e-08 4.46407e-07 1.24264e-07 1.07498e-07 6.18838e-08 5.84907e-08 -8.10356e-08 -6.18435e-08 2.09364e-07 -4.60918e-08 6.00848e-08 -2.03751e-08 2.35773e-08 2.92001e-07 1.33449e-07 6.71037e-08 1.84985e-08 1.93312e-07 -1.62445e-07 -1.20951e-07 -6.50641e-09 1.93113e-08 2.47906e-07 -2.33497e-07 -4.99236e-09 -2.03166e-07 -8.42676e-08 -1.08941e-07 -1.1121e-07 -1.5105e-07 2.17743e-08 8.49377e-08 1.51955e-07 -3.45869e-07 -1.60168e-07 -4.53574e-07 -5.20765e-08 -3.99347e-08 -1.17838e-07 -3.2466e-07 -4.20326e-07 -2.38434e-08 -6.75925e-08 -5.08869e-09 -8.72055e-08 -2.48293e-07 4.97309e-07 -1.13215e-06 -2.44883e-09 -1.76184e-08 -5.97565e-08 5.30326e-09 7.92392e-08 -5.3401e-08 1.65541e-08 -1.27048e-08 2.89253e-07 -3.54158e-07 -1.06057e-07 1.10356e-08 1.12607e-07 5.7339e-09 1.9266e-08 2.2795e-07 4.87553e-09 -4.44536e-08 7.38501e-08 2.22487e-08 4.27745e-08 2.9663e-09 -5.34083e-08 -1.71974e-07 -3.22932e-08 3.23575e-08 -3.72391e-08 -4.37231e-09 3.16529e-09 2.58294e-09 4.92477e-09 4.09962e-07 -2.33012e-07 7.40379e-09 5.31538e-08 5.75842e-08 -8.99622e-09 6.26398e-09 -2.73273e-08 1.21287e-09 -2.0957e-08 -3.37545e-08 -7.9666e-08 -3.27826e-08 1.83609e-08 -4.50703e-08 -3.65083e-07 -7.0206e-09 1.00694e-07 2.06554e-08 2.08301e-08 -3.88624e-08 -1.42205e-07 1.74556e-07 -7.09886e-08 1.53825e-07 -3.24994e-08 2.70023e-07 2.99824e-09 -7.22565e-08 -4.66075e-08 -7.03881e-08 -4.94745e-08 -1.54812e-07 -4.56608e-08 -2.16207e-07 -1.93585e-07 -1.52757e-07 -3.42335e-08 -2.0652e-08 -4.81997e-07 -1.03371e-06 2.88837e-07 1.77259e-07 -7.72646e-08 -2.39351e-08 -1.46699e-08 5.64372e-08 6.19859e-08 3.37608e-09 -8.8352e-09 4.65661e-08 -9.56812e-08 -5.34416e-08 -4.0038e-07 -2.66172e-07 -2.22288e-07 -1.55011e-07 -1.05585e-07 -1.37882e-07 4.45631e-08 -1.23314e-07 -1.38027e-07 1.19912e-08 -7.5739e-08 6.69015e-08 1.91383e-07 -9.58778e-08 4.95761e-07 3.5828e-09 3.37461e-09 3.77294e-08 2.42527e-08 2.44426e-08 1.08837e-07 -1.73894e-07 -1.36514e-07 -5.02829e-08 -1.47939e-07 -2.63699e-09 2.54024e-08 7.10284e-08 2.13105e-08 2.09897e-08 1.63062e-08 3.156e-08 5.92579e-08 -1.56787e-08 -1.60181e-08 -3.72457e-08 -2.11718e-07 -4.47778e-07 -2.18947e-08 -3.58138e-08 2.38275e-08 -5.23299e-08 -2.31524e-08 -6.29826e-08 -1.31898e-08 -4.59195e-08 2.27627e-08 2.89998e-08 -9.28362e-08 2.77753e-07 5.51405e-08 -6.73462e-08 -2.56704e-08 6.8418e-08 6.04419e-07 -2.45376e-08 2.19438e-07 3.00666e-10 -8.35198e-08 -3.30216e-08 -3.93052e-08 -4.83748e-08 1.03235e-07 -2.2148e-08 -1.20009e-08 -2.47089e-08 7.83497e-09 3.01025e-07 -4.91545e-08 -4.23945e-08 7.01565e-08 1.7841e-08 -7.68217e-08 -1.00147e-07 -9.78039e-08 2.88503e-08 6.44228e-08 -1.13144e-08 -2.45037e-08 5.42189e-08 4.3558e-08 1.31322e-07 1.5766e-08 2.38236e-07 -1.37756e-07 -1.79061e-08 -6.20662e-07 -5.23712e-07 2.77816e-08 -1.52553e-09 -1.08319e-07 1.18432e-07 -3.01652e-07 -4.31092e-08 8.63616e-08 2.56516e-07 1.06573e-07 -6.02601e-08 -1.89132e-07 -4.51485e-09 3.83911e-07 -6.48114e-08 -7.03977e-08 1.57503e-08 -3.63356e-08 -3.4455e-08 -1.61766e-09 -5.52169e-09 -1.53893e-08 2.51685e-09 -1.20622e-08 -1.47851e-07 -1.03303e-07 -4.25889e-08 -4.92768e-08 -3.48815e-08 4.39031e-08 2.95198e-09 -4.22859e-08 -7.83802e-08 4.45791e-08 -6.04041e-08 -3.48993e-08 -2.24537e-08 -1.22721e-07 -5.80965e-08 1.2391e-07 -3.15577e-08 -6.37283e-07 -1.90761e-07 1.62139e-07 3.79702e-07 3.11673e-07 -1.1863e-07 -1.03993e-07 5.24468e-08 -3.79306e-08 -4.46839e-07 -1.38219e-08 -3.8609e-08 1.29993e-07 -6.9981e-08 -3.39873e-08 -7.0773e-08 -2.48392e-07 9.08144e-09 -3.73677e-08 -1.60432e-09 -2.91554e-08 -4.92464e-09 6.58061e-09 2.39057e-07 2.37216e-07 1.78458e-07 -3.37014e-07 -2.32477e-07 -4.65023e-07 9.15975e-08 -2.5279e-07 -2.14968e-06 -4.71451e-08 -4.02294e-08 -1.608e-07 -3.4034e-07 -3.4429e-07 -1.79163e-07 -3.45352e-08 -7.78423e-08 2.18357e-08 -3.68792e-08 -4.13255e-07 -7.72837e-08 1.23427e-07 -1.0402e-08 -8.38907e-07 -5.84451e-08 -1.77623e-07 1.59238e-07 2.07914e-07 -6.01473e-08 2.14804e-08 3.49282e-08 -7.46679e-09 -5.62103e-07 -1.66326e-07 9.98034e-08 -1.03966e-07 2.38173e-07 -9.84784e-08 1.42853e-07 6.2672e-09 -2.86887e-07 -2.77328e-07 -1.25901e-07 -2.66745e-07 -2.55091e-07 -2.89491e-08 -2.14383e-08 -2.48633e-08 4.1001e-08 6.64088e-08 2.34849e-08 5.59517e-08 -2.51678e-08 -2.13775e-08 4.37714e-08 -8.18603e-09 -5.61552e-08 -1.08987e-06 -1.95675e-07 -1.32909e-07 -7.83582e-08 6.59335e-08 -1.32009e-08 -1.22535e-07 9.10705e-08 6.01403e-09 2.11675e-07 7.5229e-09 -1.85629e-08 -5.03501e-07 -9.22519e-08 -6.19116e-07 -6.11283e-07 -1.75677e-07 -1.37331e-07 -1.20218e-07 5.40854e-08 -1.73075e-07 -9.98317e-08 -1.87605e-07 -3.71246e-07 -8.1645e-09 4.13934e-08 -3.69808e-08 -8.53514e-08 -1.40487e-08 -3.12881e-08 6.64559e-08 -1.22463e-07 2.18014e-07 5.17232e-08 4.4252e-08 -2.3344e-08 -1.72954e-08 -5.65135e-08 3.59565e-07 2.84746e-07 4.11127e-07 -1.15876e-07 -1.34921e-07 4.08088e-09 3.47081e-08 -3.5732e-07 -1.70932e-07 -7.49247e-09 6.14579e-08 3.44311e-08 4.40759e-07 1.10279e-07 2.10377e-08 -4.23204e-08 4.18232e-08 6.2203e-08 1.52901e-07 -1.45263e-08 -2.98647e-09 -6.05648e-08 -1.48099e-07 -8.30943e-08 -2.6614e-09 -1.17178e-07 -7.12196e-08 1.05554e-07 6.66508e-08 -2.65322e-07 6.13195e-08 -1.26183e-07 -1.7219e-07 1.63177e-09 -2.47517e-07 3.93093e-08 -8.77179e-08 -1.68681e-08 -7.87441e-08 -1.16345e-07 1.02535e-10 9.47137e-09 -2.86786e-07 -4.27536e-07 -2.851e-07 5.35597e-08 1.98898e-08 2.84106e-07 8.19318e-10 -3.43024e-08 -8.35943e-08 -6.12868e-08 -1.22249e-07 -5.86652e-08 -4.68231e-08 -2.95531e-08 -5.92122e-08 3.90985e-08 -9.71297e-10 -4.50959e-09 1.73004e-07 1.06866e-07 -6.69384e-08 3.74208e-07 -7.95743e-08 -9.94691e-08 9.78362e-08 -1.38399e-07 -1.42774e-07 -8.83493e-07 -3.46285e-09 -4.327e-08 -1.59027e-07 9.46851e-09 2.35568e-08 -3.1428e-08 1.30466e-07 1.09296e-07 4.19533e-08 3.02441e-08 -1.11355e-07 -4.33926e-08 9.14129e-08 8.88512e-08 2.54901e-08 -4.56278e-07 -1.99343e-07 -8.57116e-08 -7.07099e-08 1.50408e-08 -2.85288e-08 6.14779e-10 2.06152e-09 5.84555e-08 -1.38805e-08 -7.77375e-08 -4.75481e-09 -5.95219e-07 -9.81106e-08 -2.2078e-07 1.42015e-07 5.47831e-07 7.39979e-08 3.62736e-07 -5.54028e-08 -2.02488e-08 -5.11014e-07 -3.17124e-07 -6.73834e-07 -6.38309e-07 8.33193e-08 -1.11517e-07 -5.28567e-07 -9.78773e-08 -1.14777e-07 -5.36754e-07 2.31946e-07 -9.88067e-08 -5.19877e-09 -5.97538e-08 7.6716e-07 5.0445e-07 2.80202e-07 -1.83081e-07 -4.67352e-07 -2.06919e-07 -7.21463e-08 -4.49258e-08 -1.17725e-07 -1.27927e-08 -3.7925e-10 -9.99439e-08 -1.76e-07 -3.83499e-08 -1.27815e-07 -6.40966e-08 1.9525e-07 -2.20257e-07 9.28183e-09 -2.08687e-07 -1.28992e-07 -8.55989e-08 3.50439e-08 -1.85904e-07 -1.14961e-06 -2.25983e-06 -3.15396e-07 -2.89405e-08 -1.06588e-07 -5.87699e-08 -1.5342e-07 2.01935e-07 7.36618e-08 1.25781e-07 -3.8895e-09 1.16456e-08 -2.76331e-09 -1.49601e-07 3.78495e-08 1.35418e-07 -5.65173e-07 -7.98819e-07 -2.36049e-07 -9.08409e-08 -1.2903e-08 2.21653e-08 -1.84731e-07 5.03887e-08 -4.59283e-08 -5.64246e-08 -4.05647e-08 1.6495e-08 -1.12485e-07 3.07855e-08 -2.26145e-08 2.02056e-08 -1.14529e-07 2.46688e-08 2.06007e-07 7.54942e-08 -5.62883e-07 -2.99511e-07 -5.37557e-07 -3.70229e-07 3.55665e-07 -6.05473e-08 1.06429e-07 -6.68108e-08 -8.84123e-08 -1.75305e-08 -3.16341e-08 -1.50879e-08 -7.96894e-08 -1.57964e-08 -1.14824e-07 -1.39749e-08 -7.28556e-08 9.35749e-08 -6.09477e-08 -5.1936e-08 -6.64604e-07 -5.39829e-07 -3.25673e-08 -9.67366e-09 -1.37833e-08 -6.30481e-08 1.44554e-07 3.26753e-08 -1.80407e-07 2.90513e-08 -2.0709e-07 -3.13163e-08 -4.32991e-08 -3.18768e-07 -3.15057e-09 2.70407e-08 1.47693e-07 1.50948e-08 5.35224e-08 -6.73671e-09 -7.39495e-10 1.68169e-08 -1.00837e-08 -1.23739e-07 -1.40357e-08 -4.03913e-08 -1.21217e-08 -1.37777e-07 -4.7269e-08 1.16869e-07 -2.66294e-07 -1.1515e-07 1.31761e-08 -1.54462e-07 -1.25796e-08 1.40637e-07 1.92821e-07 1.42134e-07 1.65954e-07 -3.93809e-07 -3.95817e-07 -2.93223e-07 -5.02618e-07 -7.45499e-07 5.46951e-09 -1.1952e-07 3.65934e-08 1.18667e-08 7.00172e-09 4.56861e-08 -3.70983e-08 2.81125e-08 -2.76798e-07 2.9102e-08 -1.94633e-07 -2.23933e-07 2.06128e-08 -4.55618e-08 -1.68172e-08 3.24174e-07 -4.67857e-07 -1.61157e-07 -2.49152e-08 4.80192e-08 -1.26393e-07 -5.69504e-07 -1.01797e-07 -1.10659e-07 -6.77977e-08 -1.11297e-07 -8.79031e-08 -3.33424e-08 -1.77331e-07 -1.22934e-07 -3.61236e-08 -2.36564e-08 -1.67062e-08 -9.21231e-08 7.42234e-08 5.41041e-08 -3.79488e-08 -1.20341e-07 -8.11887e-08 8.26388e-08 -3.0472e-08 2.32958e-07 4.57975e-08 -1.5217e-07 -1.36658e-07 -1.73234e-07 -3.04665e-07 -5.1487e-07 -4.71877e-08 -3.07794e-07 -8.69357e-08 -2.91137e-08 -3.68809e-08 -6.10441e-08 3.83751e-08 9.34339e-08 -1.01913e-07 -2.37079e-08 1.52436e-07 2.60552e-08 -1.89899e-08 -6.85595e-08 3.21585e-08 -2.68616e-08 1.28891e-07 -8.5032e-08 -2.02608e-08 5.92382e-10 -2.65039e-08 1.72407e-07 1.80936e-07 3.88929e-07 -3.04314e-08 -1.71339e-07 -2.78321e-08 1.09678e-07 -3.56587e-07 6.38915e-07 -1.95772e-07 3.83462e-08 1.26768e-07 1.15105e-07 -8.79113e-08 -1.08006e-07 -4.29235e-07 -2.65406e-07 4.33798e-08 -1.9475e-08 -1.33959e-07 -3.67201e-07 -1.80665e-07 -1.47747e-07 2.61963e-08 2.94184e-08 -4.34693e-08 -1.80778e-07 -3.21015e-08 1.54845e-07 -9.0919e-09 -2.33966e-08 -2.71784e-08 2.28437e-08 -1.80316e-09 -4.07464e-08 -3.47868e-08 -7.77227e-07 -2.0119e-07 -5.928e-08 -6.68015e-08 -3.47012e-08 1.14865e-07 -1.14412e-07 -1.25613e-07 -4.52698e-08 -1.02849e-07 -2.02239e-08 2.62497e-08 -1.45154e-08 -1.85888e-07 -2.52614e-07 -7.66532e-07 -8.85012e-07 -3.9881e-07 1.95593e-07 -8.06027e-08 2.36971e-07 5.083e-07 -2.56821e-08 -1.38264e-07 -3.84033e-08 5.03677e-09 -5.52909e-09 -2.71693e-08 -1.4679e-08 -5.05698e-07 -3.22832e-07 -3.41373e-09 1.65491e-07 1.98153e-07 -3.019e-07 -5.37074e-07 -2.77467e-07 -5.46011e-07 -5.42951e-07 -2.21711e-07 5.60955e-08 -2.69484e-07 -1.55722e-07 -2.94712e-07 -7.24579e-08 -1.23194e-09 -2.42082e-08 -1.33884e-08 1.0173e-07 -7.0541e-08 -3.62533e-07 -1.48201e-08 2.23833e-08 -1.40772e-08 3.12678e-07 -1.63699e-07 -1.18111e-07 -2.42729e-08 -6.74788e-07 -1.3373e-07 -1.43976e-08 -6.37531e-08 -7.23628e-08 -6.06083e-08 -8.03108e-08 -1.8733e-07 2.74994e-08 -1.03851e-07 -2.14637e-07 5.32139e-08 -7.17399e-08 -6.30299e-08 -1.6191e-07 2.735e-09 4.14803e-06 -2.18032e-08 -1.00863e-07 -9.9281e-08 7.96106e-08 -3.47314e-07 -1.65379e-08 1.20681e-08 -1.75781e-09 7.91657e-08 -2.43391e-07 -2.62631e-07 4.27786e-08 -1.80104e-08 5.45424e-08 -3.53095e-08 2.99555e-08 -1.26004e-08 3.26882e-09 -1.73513e-08 -1.36544e-07 -6.7476e-08 -3.65684e-08 -2.69135e-08 4.92164e-09 -7.11403e-08 -2.74355e-07 -7.16675e-08 -6.42664e-08 -5.71624e-07 -8.12282e-08 2.69241e-08 2.30696e-08 -2.26164e-08 -3.24171e-08 -2.74224e-09 -3.61422e-08 -9.66192e-08 -6.06406e-08 7.31162e-08 1.30824e-07 -5.04193e-07 -6.80229e-09 -1.46732e-08 -3.76082e-09 3.30238e-08 -1.36128e-07 -2.10214e-08 -1.67179e-07 1.52347e-07 -9.92093e-08 -1.61522e-08 -2.11172e-08 -7.32206e-08 1.10853e-07 1.3152e-07 1.6119e-07 -4.2236e-07 2.70035e-07 9.30983e-07 -1.50745e-07 -3.72122e-07 2.43974e-07 -9.24801e-08 3.04464e-07 -7.46987e-08 4.35899e-08 7.91259e-08 -8.48295e-08 1.13339e-07 -2.24212e-08 8.56442e-08 -2.9361e-08 -7.46513e-09 -4.33448e-08 -1.01036e-07 2.71774e-08 4.0709e-08 6.37789e-08 -6.48718e-09 -1.38098e-07 1.10996e-07 -8.1652e-08 -2.79392e-08 -2.90234e-07 -1.34769e-07 -3.43181e-09 1.91078e-08 8.92295e-10 -3.09208e-07 2.93344e-09 -2.68606e-07 -1.48987e-07 2.47262e-08 -1.55758e-08 -2.79179e-07 -8.88693e-08 -4.81734e-08 -3.07036e-08 1.28728e-07 -5.65633e-10 1.10101e-08 -3.53485e-10 1.09696e-08 -1.52441e-09 5.24441e-08 -2.24567e-08 2.3022e-08 -6.77005e-09 1.85253e-08 4.77912e-08 -1.95272e-07 -3.39166e-07 -3.69917e-07 -3.38997e-07 -3.12303e-07 -1.21103e-08 1.38824e-08 1.95551e-08 2.82494e-09 3.07386e-07 -4.06938e-07 2.75879e-07 -3.00692e-07 -5.51264e-08 -7.71113e-08 -1.36161e-07 1.80036e-07 -1.29537e-07 -9.18053e-08 3.49452e-08 -5.80698e-08 3.18514e-08 -5.39107e-07 -3.50123e-07 -2.70757e-07 -4.0337e-08 -1.36475e-07 -1.22699e-07 -9.79997e-08 -6.99125e-09 7.07532e-07 6.75344e-07 1.41436e-07 1.47428e-08 -4.44456e-08 -8.86949e-08 -8.27244e-08 -6.94737e-08 -2.56165e-08 2.51387e-07 -2.29728e-07 2.58606e-08 -3.74582e-07 1.54435e-08 4.98749e-08 1.09944e-07 -5.36762e-07 -5.37564e-08 -8.92642e-09 -8.00052e-08 -3.24694e-08 -6.28193e-07 1.44921e-07 7.18528e-08 -6.47909e-08 -2.10524e-07 -2.71593e-07 -3.49642e-08 4.69875e-09 1.93649e-08 1.54476e-07 -2.47514e-07 -3.47856e-07 7.29827e-08 -1.57988e-07 -2.33881e-07 -5.81617e-08 -1.23541e-08 -1.88119e-08 3.15651e-07 -1.38147e-07 -1.11214e-06 -2.78888e-07 2.97029e-07 3.97103e-08 1.90769e-07 -1.46513e-07 -5.98018e-09 3.65785e-08 -2.22633e-06 -8.84942e-09 4.52712e-08 -2.3794e-06 2.87453e-08 -5.47073e-08 -6.51826e-08 -7.145e-08 -2.51749e-07 4.41442e-09 -1.6795e-08 -1.31492e-07 -3.99213e-08 1.0026e-07 1.3467e-07 1.65522e-07 1.82182e-07 -2.73331e-08 -1.55808e-08 -1.26073e-07 -1.07324e-07 -4.36435e-08 -2.89965e-07 -2.11448e-07 -5.44756e-08 -1.64212e-07 -1.45733e-07 -3.92125e-09 8.50192e-08 2.41065e-08 3.95552e-09 -1.4887e-07 -1.2878e-07 -2.19976e-08 -1.27657e-07 4.38703e-09 4.60488e-09 -6.87805e-08 -5.76393e-08 -2.75727e-07 9.17394e-09 -4.66839e-11 -2.6322e-07 -1.05453e-07 -4.9325e-08 3.73249e-09 -4.2715e-09 -1.57045e-08 6.82378e-09 5.11283e-08 -1.99847e-08 -3.28471e-07 1.80404e-08 -7.56492e-09 1.54086e-08 1.40285e-08 -1.44318e-07 9.86831e-08 -3.3598e-07 -1.70442e-07 3.06279e-08 -3.02369e-08 -5.38882e-08 2.25067e-07 4.00886e-07 -8.29828e-09 2.7674e-08 -2.36586e-07 2.23991e-07 1.36881e-07 1.64922e-07 1.26071e-08 -2.15209e-07 -2.82311e-07 -2.97897e-07 -9.06496e-07 -3.78093e-07 -2.54104e-07 -1.11677e-08 9.59077e-08 -3.27714e-08 -6.85566e-08 -9.22126e-08 -8.89414e-08 1.20815e-07 6.17949e-08 -1.04877e-07 -7.9514e-08 -3.56961e-08 -2.90941e-08 2.37991e-08 -5.75078e-08 1.58992e-08 2.70662e-08 -8.49306e-09 -3.12169e-08 -8.50438e-08 -6.05398e-08 1.52986e-07 2.6186e-08 -4.28841e-09 -1.97768e-08 2.97478e-08 2.91136e-08 -9.92517e-08 4.23418e-08 7.21266e-08 -1.24856e-07 -2.72595e-07 3.89379e-09 -1.20853e-07 -1.85439e-07 1.20447e-07 2.28901e-07 -6.51949e-08 2.96272e-07 -5.27971e-07 -4.5645e-08 -5.86324e-08 -1.49051e-07 2.2745e-08 4.29836e-08 3.86113e-09 -1.2569e-07 -3.67258e-08 -1.54552e-07 1.36117e-09 5.34654e-08 3.20544e-08 -1.41005e-08 -3.91065e-08 -2.7838e-08 -8.17185e-09 -6.61177e-08 3.74804e-09 6.35604e-10 -9.15926e-09 -1.35552e-07 -1.42954e-07 -5.54768e-08 -1.22079e-07 -5.45333e-08 1.87003e-07 9.17253e-08 5.78281e-09 -1.80259e-08 -8.29767e-07 -3.08728e-07 1.08595e-07 1.27457e-07 9.41273e-08 -1.33674e-07 -5.54521e-08 -5.97804e-08 -3.56645e-07 1.25183e-08 -1.23745e-07 -1.55246e-07 1.49241e-08 -8.01801e-09 -2.59083e-08 -8.66452e-08 -4.75669e-08 -3.18596e-09 2.89827e-10 1.26568e-09 -7.21668e-08 1.18822e-07 -1.05137e-07 -6.21236e-08 -2.3558e-08 2.71191e-08 3.07765e-08 -1.70197e-08 -2.0472e-08 9.8047e-08 7.03245e-08 8.34458e-08 4.19893e-09 -2.57073e-08 4.15264e-08 -2.87636e-08 1.38901e-08 -8.49996e-08 9.68206e-08 -3.0296e-07 2.22526e-07 -3.025e-07 2.48979e-07 -6.29781e-08 2.10186e-09 -1.94002e-07 3.48159e-08 -7.70979e-08 1.84579e-07 -1.95788e-08 1.40063e-08 1.65364e-08 3.63694e-08 1.02849e-08 1.41907e-08 2.34546e-08 -1.5646e-08 -3.32217e-07 -5.67606e-07 -2.92255e-07 -8.9589e-08 -1.03004e-07 -3.19522e-08 2.60188e-08 -6.89613e-08 2.5768e-07 -9.10311e-08 -3.73381e-08 4.55622e-07 9.63558e-08 -5.93028e-08 -6.36377e-09 3.2711e-09 -8.09491e-08 -1.12179e-07 1.28475e-09 -1.6501e-08 -2.43214e-08 9.61936e-08 1.34752e-07 2.33635e-08 2.36971e-08 9.88612e-08 3.15361e-07 -1.93172e-08 -5.74978e-08 -3.69743e-08 -1.36741e-07 3.99757e-08 -3.62409e-08 -3.80373e-08 -2.19024e-08 -1.512e-08 -1.67527e-08 -6.60422e-08 5.66629e-08 1.31302e-08 -1.15094e-08 -3.97027e-08 -2.33225e-08 -6.61307e-08 -1.96718e-07 -1.04647e-07 -1.84609e-08 -1.05446e-08 -2.05215e-08 3.01431e-07 -4.21123e-07 -2.16573e-07 -9.45134e-08 -3.02301e-07 -2.52721e-07 2.494e-08 -1.11692e-07 1.72801e-08 2.47903e-08 -2.92358e-07 -2.01397e-09 -2.466e-07 -1.05338e-07 8.53846e-08 -1.65015e-07 -5.46941e-08 1.1124e-07 -5.09171e-07 -6.3503e-07 -1.21318e-06 4.12884e-07 6.27182e-07 2.73507e-08 -4.58351e-08 -4.41927e-08 -1.32642e-07 1.43485e-07 -3.93619e-07 -5.41969e-07 -9.37517e-07 -1.4702e-07 3.71332e-08 7.91339e-08 -1.62988e-08 -4.63432e-09 1.69454e-08 -8.92369e-09 -4.22697e-08 -3.15259e-08 -5.23181e-08 -6.431e-10 6.60434e-08 -3.62059e-08 -5.48388e-08 6.20933e-08 -1.52617e-07 -1.67817e-07 2.94137e-08 -7.92497e-08 -7.7127e-08 -3.19863e-08 -4.39063e-08 -4.20767e-08 -1.16709e-07 3.81498e-06 -8.96172e-08 -8.22376e-08 -9.27709e-09 -1.54466e-07 -3.25411e-08 -9.93223e-09 2.11712e-08 -2.44131e-08 -1.04695e-07 -3.04932e-07 -1.99892e-08 -1.88038e-08 -2.29997e-08 -1.49106e-07 -1.11352e-07 -2.57942e-07 -9.96556e-08 1.04261e-06 -1.5424e-08 2.31851e-06 1.31421e-08 3.76436e-08 -1.335e-07 -5.53285e-08 -1.05138e-07 -9.61309e-08 -4.48993e-08 3.61875e-08 -5.33688e-08 -2.86086e-08 -1.93962e-07 1.05872e-07 1.17143e-07 -2.34235e-07 -2.5444e-08 -6.32767e-09 -9.89868e-09 -2.37806e-07 2.19964e-07 -7.88191e-08 1.38547e-07 8.43033e-08 1.58206e-07 3.79846e-08 -1.19637e-07 -1.06739e-07 -2.32424e-08 -1.96101e-08 -1.2415e-07 3.64774e-08 2.9023e-08 4.50085e-09 6.89399e-08 -1.2517e-07 1.69542e-09 -9.04388e-08 -7.97549e-08 -5.01708e-08 6.68413e-08 9.19148e-08 4.95139e-08 -5.39253e-08 -5.98801e-08 -1.30217e-08 -2.4448e-08 -2.77169e-07 1.91165e-08 4.46919e-09 -9.06424e-08 5.14431e-08 -1.54454e-08 2.03032e-08 -2.34431e-07 5.70453e-08 -1.04167e-07 -9.61689e-08 -3.56095e-08 1.3202e-07 -2.60622e-08 -4.85228e-08 2.38468e-08 -1.04963e-07 3.05658e-09 -2.38255e-08 -1.3692e-07 -1.01666e-07 -2.78857e-08 -1.94949e-07 -1.06453e-07 5.43493e-08 -8.71736e-08 -2.98627e-08 1.23951e-08 -3.69453e-08 -1.34379e-07 -2.05405e-07 -3.03924e-08 1.34108e-08 5.78278e-08 -6.3774e-08 2.72037e-07 4.23743e-08 5.99438e-08 -3.71444e-08 -9.26594e-08 2.00629e-08 -5.68305e-08 1.16976e-07 8.26713e-08 -3.5535e-08 -2.5568e-09 -5.40916e-08 -9.89272e-08 -1.06316e-07 1.05212e-07 6.66449e-08 -5.7052e-08 -2.08263e-09 -7.48021e-09 -2.39197e-09 -2.00842e-08 -1.30764e-07 2.44383e-07 -3.12188e-08 -3.7127e-08 -9.52481e-08 -1.55372e-07 1.81263e-07 1.09408e-07 -1.88872e-07 -1.80289e-08 -1.82235e-09 -3.62189e-10 3.25256e-09 -5.34941e-09 -9.62251e-10 1.78623e-08 -2.39242e-09 -7.57446e-09 3.70802e-08 -2.23812e-07 8.7103e-08 -1.61648e-07 -1.39484e-07 2.39491e-08 -5.71299e-08 -1.76015e-08 -1.13976e-07 -6.4725e-08 -2.75175e-08 -3.3925e-08 3.62998e-08 -7.50794e-08 -2.51323e-08 1.58564e-08 8.59624e-09 6.77514e-09 3.59966e-08 2.67081e-07 -9.02477e-09 7.02001e-09 -7.38018e-10 -6.04428e-09 -1.66241e-08 6.4327e-08 -6.42222e-08 5.03845e-08 1.39663e-08 -1.10745e-08 -1.88606e-08 2.85701e-07 4.4522e-08 -1.00175e-07 2.40032e-08 -2.32303e-07 -9.92527e-09 -9.54154e-09 -2.88213e-08 -1.83421e-08 1.62276e-08 -2.89326e-08 -2.37175e-08 2.54619e-08 -1.63115e-08 6.13429e-08 -1.70525e-08 -2.81595e-08 -1.41373e-07 2.11714e-08 -5.33764e-08 -2.02153e-08 -3.92185e-08 -2.40813e-07 -6.96596e-07 -1.18347e-07 -7.61129e-08 -2.49707e-08 -7.72523e-08 -1.01148e-07 -8.20961e-08 -8.56423e-08 2.27641e-08 5.11406e-08 3.99862e-08 -5.37189e-08 -1.25519e-07 6.80318e-08 -5.83254e-08 -1.47508e-08 -5.09669e-09 -2.68187e-09 -4.23543e-08 2.66068e-08 -5.84554e-08 9.24101e-08 1.06876e-07 -8.00288e-09 -4.07028e-08 3.17547e-10 -3.22548e-09 5.42985e-08 -5.06377e-08 -1.23645e-07 -2.79696e-08 1.74309e-07 -7.2419e-08 -1.1803e-07 1.02422e-07 -1.33149e-07 -5.88813e-08 -1.17826e-08 -1.38907e-08 8.94484e-09 -2.29027e-09 -1.19142e-07 -7.6711e-08 -2.30108e-10 5.05636e-08 1.09386e-09 -9.33477e-08 3.92917e-08 -2.95806e-08 -9.92947e-08 5.34475e-08 -7.39441e-09 2.91391e-07 -8.37605e-08 -5.17376e-08 -2.4315e-07 6.32962e-08 -7.62058e-08 -1.31605e-07 7.69931e-08 -2.70813e-08 -1.20509e-07 -5.44161e-08 -4.29449e-08 -7.45723e-08 -2.80101e-08 -1.11942e-08 -1.07616e-08 2.84117e-08 -2.10009e-09 -8.49179e-08 -6.86711e-08 -1.43331e-09 -2.89858e-09 1.31009e-08 -1.49345e-08 -6.24875e-08 2.26253e-08 -1.14782e-07 -5.60207e-08 -3.58224e-08 -1.35998e-07 2.11803e-08 3.38954e-07 -2.32372e-07 -2.01493e-07 1.28086e-08 -1.14302e-08 1.11424e-07 -2.03195e-07 2.03001e-07 9.94108e-08 6.46067e-08 1.56173e-07 1.89434e-07 6.09091e-08 5.92327e-08 -1.37165e-08 -3.65287e-08 8.29693e-08 1.03355e-07 2.12734e-08 -2.74464e-08 -1.71104e-09 4.83892e-08 -3.487e-07 -9.48365e-08 -1.13864e-08 -2.75006e-08 -1.44431e-08 -9.91001e-08 6.23623e-08 -2.57571e-08 3.17785e-08 1.06601e-08 -1.38213e-07 -9.70748e-08 -3.79005e-08 -4.26194e-09 -6.03352e-08 2.00273e-08 -4.08109e-09 1.04563e-07 5.8381e-08 -4.57927e-08 -1.15503e-07 1.80508e-07 -1.22274e-07 5.75449e-09 -2.3015e-07 -3.12861e-07 -2.82493e-07 -8.3377e-08 -1.70427e-08 -1.08386e-07 -5.30328e-08 6.91456e-09 1.96492e-08 -3.30965e-08 -5.09587e-08 -1.13301e-06 -4.34694e-08 9.02039e-08 -3.83585e-08 4.79252e-08 -2.17455e-08 9.78371e-08 -7.16999e-08 -1.39077e-07 1.44503e-07 -3.00068e-08 1.03658e-08 5.31066e-10 -3.30896e-08 6.43987e-08 -5.67224e-08 2.24764e-08 -2.27298e-08 -7.9336e-08 -2.71878e-08 1.75714e-08 -1.73611e-07 -2.73341e-08 -1.98566e-07 -5.59474e-08 -2.99516e-08 -1.07198e-07 -1.66395e-10 1.41615e-08 -1.92156e-07 -3.85513e-07 -4.07495e-07 -3.1636e-07 -4.16339e-07 -4.60049e-07 -4.4597e-07 1.5052e-07 1.41914e-08 5.53299e-08 -3.07539e-07 -2.53718e-07 -2.56688e-07 -2.81206e-07 1.02401e-07 3.16706e-08 2.09549e-08 -1.91932e-08 1.57244e-09 4.69566e-08 5.32821e-07 -2.93129e-07 -1.26125e-07 -7.2696e-08 -2.41389e-08 -1.85658e-07 -1.17981e-07 5.15961e-08 -3.66754e-08 3.35041e-08 8.62924e-08 -3.31862e-08 4.65137e-08 2.08266e-07 1.88814e-07 1.72659e-09 -6.08575e-09 3.39232e-09 2.47145e-09 -3.21758e-07 2.27032e-07 -1.2779e-07 2.28091e-07 -6.82086e-08 8.41888e-09 -4.31207e-08 1.18267e-08 -9.26834e-08 7.7542e-10 2.18298e-08 5.78275e-08 1.79858e-07 1.73056e-07 -1.22716e-08 -1.61806e-08 1.06823e-07 3.39037e-08 3.75857e-09 -8.69508e-09 -2.01291e-08 9.09605e-09 -4.00545e-07 5.28718e-08 -1.16388e-07 -9.32836e-09 -2.40154e-08 -5.77139e-09 1.39868e-07 -1.81182e-07 -2.63265e-07 4.61778e-08 8.92451e-08 9.05384e-09 -7.73696e-08 1.14429e-07 1.4228e-08 1.874e-08 -8.88928e-08 8.04352e-09 -4.12368e-08 2.48531e-08 7.97202e-09 2.21807e-07 -1.83685e-07 8.81895e-08 -3.94163e-08 2.2457e-06 3.53932e-06 1.01718e-08 -2.31627e-08 1.14835e-08 5.91694e-08 7.82854e-09 -7.55223e-06 1.65317e-07 8.61011e-08 -3.99748e-08 -1.763e-08 9.49928e-09 1.07061e-08 1.53528e-06 1.95031e-06 4.02353e-07 3.64843e-06 -1.34109e-06 -4.10456e-08 3.54407e-07 -1.44257e-07 -1.11928e-08 -2.42435e-07 3.95344e-08 5.2043e-09 5.52275e-09 9.37048e-09 -2.76091e-07 -3.44838e-08 -1.89613e-07 -2.25438e-07 -1.58618e-07 -1.80014e-07 1.29773e-07 2.67338e-08 2.91148e-06 7.29406e-08 2.05258e-08 -6.47614e-08 -4.65271e-08 -7.3721e-08 4.14871e-07 -5.14253e-07 3.75212e-08 -2.75367e-07 -9.32666e-08 -8.42131e-08 -6.81401e-08 1.38929e-08 9.0182e-09 -7.30127e-08 -4.73591e-09 -1.00789e-09 3.94793e-09 -2.89129e-08 -1.52876e-07 -1.26605e-07 -2.03831e-07 -4.32545e-08 -9.4706e-08 -1.00817e-07 -3.44355e-09 -4.54471e-09 -1.29501e-07 -1.06272e-07 9.57557e-08 1.96653e-08 1.243e-08 -6.39317e-08 -8.65118e-08 3.47263e-08 1.1124e-08 -1.50085e-08 1.60314e-09 3.27873e-09 -1.49073e-08 -5.85988e-08 -1.25388e-06 -2.36941e-06 7.42106e-07 9.30087e-08 -3.0794e-09 2.05271e-07 2.08056e-07 -2.38577e-08 -1.27376e-07 -8.75611e-07 1.51025e-07 -6.64671e-07 -6.92065e-09 3.5708e-08 -3.42939e-08 -2.19894e-09 6.8181e-08 4.55531e-09 -1.25761e-07 -3.87822e-07 -2.58697e-07 4.47823e-08 -5.60492e-08 -9.48025e-08 -1.25006e-07 2.54708e-07 1.17953e-07 3.95925e-07 -1.18262e-06 -2.16325e-09 -6.36305e-07 -7.21128e-08 2.40222e-09 7.84018e-09 -1.87503e-07 -2.66021e-07 -1.54119e-07 -1.3861e-06 -6.88934e-07 -2.69583e-07 2.98117e-07 -2.5897e-07 -2.37128e-07 1.08686e-07 1.31223e-07 3.50723e-07 -4.36751e-07 -2.83771e-07 -4.37867e-10 3.89219e-09 1.46736e-09 -2.30188e-08 -3.32916e-08 -4.05034e-07 -1.01384e-07 -3.25385e-08 -1.83821e-07 -9.1723e-08 -1.99365e-08 1.84092e-07 -1.90919e-08 1.45559e-07 7.08653e-08 5.02026e-08 2.03668e-08 -3.58041e-07 -5.11294e-07 -6.91364e-08 -1.01995e-07 -3.51458e-09 -1.06742e-09 -7.7111e-09 1.40265e-07 7.99527e-08 -1.84462e-09 9.2926e-10 -2.36126e-09 2.84659e-12 -1.68768e-08 -1.43082e-07 -2.89934e-08 -3.56819e-08 -6.15341e-08 -3.19854e-08 -4.42294e-08 -1.28528e-08 4.59968e-07 4.32403e-08 -2.79107e-08 1.70825e-08 5.84374e-08 -2.85333e-07 2.78056e-07 5.86375e-09 3.17039e-08 1.17077e-07 1.45527e-07 -2.87407e-06 3.85805e-07 -1.13023e-07 -2.83141e-07 1.47717e-09 7.26922e-07 -1.01615e-07 -3.60685e-07 -1.43017e-07 -3.48843e-08 -4.99694e-08 -3.56187e-08 -1.32927e-08 -6.33891e-09 -4.63032e-08 -4.49532e-08 1.02784e-06 2.90232e-06 -1.10096e-07 -1.12273e-07 -2.23796e-07 -6.25766e-07 9.88914e-09 1.96881e-07 -3.41342e-07 -1.35206e-07 -4.22402e-07 1.02057e-07 6.00312e-08 -9.91761e-08 -1.6672e-07 -2.26083e-07 5.27111e-07 6.70158e-08 -1.42328e-07 -8.1174e-08 -1.54641e-07 1.14373e-08 -1.59779e-08 1.5326e-08 -9.11225e-10 -2.48576e-08 1.6794e-08 -4.03665e-08 6.77276e-08 1.20101e-08 -8.75013e-08 -3.99902e-08 6.71714e-08 -9.87379e-09 3.33997e-07 -8.10016e-07 -4.8731e-07 1.80219e-08 3.20949e-08 -3.94446e-08 2.11719e-08 7.71074e-08 -2.95865e-07 -4.44672e-07 1.03259e-09 -9.46363e-09 -2.42027e-08 -9.45946e-09 -1.09967e-07 3.67673e-08 -6.94198e-07 -8.43747e-08 1.48423e-07 1.50998e-08 -2.56715e-07 -5.20543e-08 -2.84011e-08 -5.20245e-08 1.13857e-08 -2.59365e-08 -2.39351e-08 7.90197e-08 -1.04728e-08 5.35681e-08 1.13393e-07 9.03876e-08 -2.09363e-09 -4.0026e-08 3.66814e-09 2.09561e-08 1.56541e-09 2.25043e-08 1.76797e-08 1.15415e-09 -1.91648e-07 3.55158e-10 -5.05112e-08 -1.98935e-08 -4.35283e-08 -8.37341e-10 -2.25562e-08 -9.88854e-08 -2.65185e-07 7.27949e-08 1.23064e-07 1.03168e-07 -4.24002e-08 -2.45479e-07 2.40694e-08 1.11261e-08 -5.87308e-08 1.01475e-07 7.86148e-08 -5.88499e-08 6.25133e-08 6.29617e-09 -1.54675e-08 -1.11822e-07 -8.80724e-08 2.62831e-07 -6.03936e-08 8.04575e-09 -3.13804e-07 -1.41843e-07 1.3934e-07 1.06912e-07 1.78857e-08 -1.23506e-07 4.6642e-08 2.30238e-08 1.40644e-07 1.71549e-07 -5.21817e-07 1.99022e-07 2.76448e-08 -2.93472e-08 -7.85407e-08 -1.74586e-07 -2.22418e-07 -4.92866e-07 2.06206e-07 -1.35363e-06 -2.29411e-06 -3.11366e-07 1.91565e-06 -6.11469e-07 8.26343e-09 1.3318e-08 -1.76841e-07 -1.20474e-07 1.17355e-07 7.41728e-08 -1.00423e-07 3.36647e-08 -1.36287e-07 9.86219e-08 -3.0815e-09 9.75456e-08 -2.68532e-08 -6.67425e-09 8.47991e-09 -2.01021e-08 1.70617e-09 -6.68365e-09 -1.08313e-09 -7.85833e-10 7.81903e-09 -6.38772e-08 -6.94595e-07 1.58896e-07 6.30475e-08 -3.23065e-08 -1.96286e-08 -5.03275e-08 -2.05299e-07 -6.91026e-08 -2.97139e-08 -6.91638e-08 4.34735e-08 5.10779e-08 -3.61949e-07 -1.01545e-07 -3.97759e-08 -6.17911e-08 -4.73094e-08 -3.36947e-07 8.92735e-08 3.61415e-07 1.20677e-07 2.03222e-07 2.49402e-08 -1.52822e-08 -2.0208e-07 1.3599e-08 1.23462e-07 -4.19244e-07 2.60248e-07 -5.50375e-08 2.52014e-07 1.75571e-07 -5.06144e-08 4.8341e-08 3.35423e-08 2.1858e-07 1.15783e-08 -1.03118e-07 -3.38733e-07 -1.03631e-08 3.18339e-07 -2.39782e-08 -5.42146e-07 9.65085e-08 1.83287e-07 1.11227e-07 -3.48861e-07 4.97464e-07 1.34882e-07 5.19624e-08 -3.08073e-08 6.80393e-08 -1.0978e-08 -9.724e-09 -5.26053e-08 5.719e-08 1.69008e-08 -6.54911e-08 -2.65526e-07 -4.60867e-08 -5.378e-07 1.73054e-07 -1.97471e-07 4.71964e-08 1.20535e-07 9.40089e-08 3.49916e-07 1.59004e-08 -1.19325e-08 -1.57822e-08 4.1368e-07 -1.1573e-07 2.42884e-07 4.62152e-08 -1.01469e-07 2.23551e-07 -3.77794e-07 -1.83027e-07 -3.52801e-07 4.77809e-09 -3.45724e-07 -2.16553e-08 5.03609e-08 2.89854e-08 -8.2388e-09 -1.20919e-07 1.78887e-07 -2.26148e-07 1.67849e-08 1.63353e-08 2.56551e-08 -2.70784e-08 1.95141e-08 1.84367e-08 1.16953e-08 -1.96425e-08 6.35136e-08 1.09011e-08 2.03626e-08 1.43142e-07 2.8987e-08 -1.86499e-07 -1.79265e-08 1.97797e-07 7.92255e-08 -2.69614e-07 -9.37264e-08 -2.1049e-07 3.96142e-07 -1.01305e-07 -1.50109e-07 -8.52536e-08 -3.4786e-07 -9.06239e-07 -6.18726e-08 -1.06886e-07 -1.44883e-07 -8.19143e-08 -3.981e-07 -1.3994e-07 -3.54844e-08 2.33191e-08 -1.71497e-07 1.94687e-08 2.29339e-08 3.88545e-07 -1.18607e-08 -1.39173e-08 -8.35959e-09 -4.18443e-09 5.22607e-07 -1.29043e-08 2.00104e-08 -9.57084e-08 6.38477e-08 6.11264e-08 4.27153e-08 1.27966e-07 -4.09898e-07 -2.0378e-07 -2.1865e-08 -4.97205e-07 1.0407e-07 9.65167e-08 5.23422e-07 -3.26802e-07 -4.05989e-07 4.702e-07 -2.39045e-09 6.33476e-09 -4.93187e-07 6.1531e-08 -2.48986e-10 -2.14828e-10 6.76139e-11 -2.08281e-07 -3.04012e-07 -3.28947e-07 -9.86925e-08 3.04088e-08 -4.52411e-09 -4.04067e-07 -2.15732e-07 -2.1391e-06 1.24105e-07 1.98207e-09 -2.68541e-07 -3.48911e-07 -4.84692e-07 2.8285e-08 3.06293e-08 4.14861e-08 1.07135e-08 -5.86137e-09 2.94046e-08 -9.61131e-09 -6.19745e-08 -1.55238e-09 1.09237e-09 -3.48962e-09 4.42673e-09 -6.87418e-08 -1.67679e-07 -7.00105e-08 1.36655e-08 -6.97302e-07 -1.038e-07 8.01799e-08 -2.60272e-07 -2.80727e-07 2.59873e-08 1.63941e-09 7.46112e-08 -5.67431e-08 1.77349e-08 -1.11788e-07 -4.13701e-08 2.13654e-11 -3.23535e-07 -1.93273e-07 -5.78491e-08 -5.35702e-08 -4.89852e-08 7.2265e-08 2.21399e-09 -8.53057e-09 4.72428e-09 -6.83838e-09 1.81469e-08 -4.22019e-08 -8.91702e-09 -1.47162e-09 -2.12211e-07 -2.47465e-07 -8.20421e-08 -1.68451e-07 -5.30785e-08 -2.21218e-07 -1.06344e-07 -3.25355e-07 -1.0612e-06 -2.50947e-08 -1.18622e-07 -1.95348e-07 -4.00996e-08 2.00066e-07 6.18511e-08 -6.22898e-08 1.00302e-07 -1.08554e-08 -2.8134e-07 -1.86546e-07 -6.50085e-08 -2.53208e-07 -1.37327e-07 -1.8404e-07 -3.20603e-07 -9.73595e-08 -1.31595e-08 -1.51432e-08 9.3493e-09 -1.99867e-07 -1.71586e-07 -1.50495e-07 -1.32941e-08 3.0563e-08 6.16873e-08 1.14489e-07 1.77473e-07 5.94284e-09 5.05217e-09 -2.14156e-08 -4.01412e-08 1.95797e-07 -1.45008e-08 -4.94254e-08 -1.7109e-08 -1.08901e-09 -2.90818e-08 1.1613e-08 -7.13078e-08 -9.0876e-09 -1.83521e-09 3.36166e-07 2.39758e-07 -8.70515e-08 -1.19504e-07 -8.16202e-08 2.1947e-07 2.04402e-07 8.7936e-08 -1.2695e-08 6.09967e-08 -1.42874e-08 -3.41953e-08 -5.04768e-08 -5.26717e-08 -1.23248e-07 4.21311e-09 8.50276e-08 -1.1876e-07 -2.30662e-08 -1.56661e-07 2.82448e-07 -3.67539e-08 -3.7145e-08 -2.30309e-07 -3.62238e-08 -1.29424e-08 7.96377e-08 -4.94596e-07 4.99503e-07 -1.88136e-07 1.38998e-07 1.26356e-08 -4.25072e-08 -4.14558e-07 -3.71436e-07 -4.56139e-07 -3.76374e-07 -1.61509e-09 5.29045e-08 6.56689e-08 -5.42671e-08 -8.09384e-08 5.81309e-09 1.53165e-07 5.88664e-09 -4.32553e-08 -7.20289e-08 -6.0984e-08 1.98742e-08 5.90866e-07 -4.89053e-08 -4.55149e-08 -5.0998e-08 -5.35411e-08 7.53485e-09 1.42451e-07 1.21508e-07 -3.81495e-08 -4.78206e-07 -1.99837e-08 -2.6201e-07 -2.5356e-07 -1.95172e-07 -3.60052e-08 2.99147e-08 -4.54852e-07 -3.21019e-07 -4.76411e-08 8.35918e-09 6.05671e-09 -2.68662e-08 -1.08593e-08 1.30297e-07 3.77435e-07 -1.64414e-07 8.27925e-08 9.40577e-08 -2.65791e-07 -2.32507e-07 6.57507e-09 -2.9332e-09 9.53861e-08 1.20443e-08 -1.98552e-07 -3.1902e-07 1.91403e-07 -4.81141e-08 2.53374e-08 -1.02987e-07 -2.05141e-08 3.3e-07 3.25672e-09 6.56907e-09 -1.88257e-07 -3.43611e-07 1.17876e-08 -1.9998e-08 1.13497e-08 1.32271e-07 2.21103e-08 -2.91642e-09 1.3008e-08 6.39891e-08 7.48069e-09 -1.42015e-08 -1.18563e-08 4.58171e-08 -2.18484e-07 -4.67981e-07 -3.49943e-07 8.80721e-08 2.18377e-07 -2.1444e-07 -1.3731e-07 5.31053e-07 -1.42961e-07 -9.06636e-08 -8.81401e-09 -2.15679e-08 -1.82469e-08 -6.18927e-08 -1.11871e-08 8.51756e-09 -4.82448e-08 -7.10854e-08 7.58205e-08 2.58673e-08 -1.56219e-08 -1.16342e-08 -1.67523e-08 6.49688e-08 3.54106e-08 -2.52646e-09 -7.69384e-08 -7.7459e-08 3.11147e-08 1.45223e-07 8.83469e-08 3.27803e-08 3.10998e-07 3.23569e-07 6.07206e-08 9.003e-08 -1.50999e-07 -3.27846e-07 -4.7515e-07 3.47666e-08 -1.13649e-07 5.9417e-08 2.65714e-08 -1.66251e-07 2.06106e-07 -1.45744e-06 1.55761e-07 -3.33267e-07 -1.34865e-07 -1.03158e-07 1.89679e-08 -2.26673e-09 -4.13694e-08 4.50159e-09 -6.33472e-08 -4.28733e-08 -1.12059e-06 -1.70394e-06 -1.58951e-08 -6.23501e-09 -8.2997e-07 -1.87971e-07 -5.46974e-08 2.68656e-08 -2.36521e-07 -6.2514e-08 2.14905e-08 2.46223e-07 4.28796e-07 -1.15761e-07 5.96256e-08 -3.92602e-08 1.40137e-07 -1.87284e-08 2.84135e-08 -3.21304e-07 6.21379e-08 -3.05406e-07 1.03921e-07 -7.39798e-08 1.2178e-07 2.21654e-07 -1.59124e-06 
