# vtk DataFile Version 5.1
vtk output
ASCII

DATASET UNSTRUCTURED_GRID
POINTS 6253 float
0 0 3
0.166667 0 3
0.333333 0 3
0.5 0 3
0.666667 0 3
0.833333 0 3
1 0 3
1.16667 0 3
1.33333 0 3
1.5 0 3
1.66667 0 3
1.83333 0 3
2 0 3
2.16667 0 3
2.33333 0 3
2.5 0 3
2.66667 0 3
2.83333 0 3
3 0 3
0 0.166667 3
0.166667 0.166667 3
0.333333 0.166667 3
0.5 0.166667 3
0.666667 0.166667 3
0.833333 0.166667 3
1 0.166667 3
1.16667 0.166667 3
1.33333 0.166667 3
1.5 0.166667 3
1.66667 0.166667 3
1.83333 0.166667 3
2 0.166667 3
2.16667 0.166667 3
2.33333 0.166667 3
2.5 0.166667 3
2.66667 0.166667 3
2.83333 0.166667 3
3 0.166667 3
0 0.333333 3
0.166667 0.333333 3
0.333333 0.333333 3
0.5 0.333333 3
0.666667 0.333333 3
0.833333 0.333333 3
1 0.333333 3
1.16667 0.333333 3
1.33333 0.333333 3
1.5 0.333333 3
1.66667 0.333333 3
1.83333 0.333333 3
2 0.333333 3
2.16667 0.333333 3
2.33333 0.333333 3
2.5 0.333333 3
2.66667 0.333333 3
2.83333 0.333333 3
3 0.333333 3
0 0.5 3
0.166667 0.5 3
0.333333 0.5 3
0.5 0.5 3
0.666667 0.5 3
0.833333 0.5 3
1 0.5 3
1.16667 0.5 3
1.33333 0.5 3
1.5 0.5 3
1.66667 0.5 3
1.83333 0.5 3
2 0.5 3
2.16667 0.5 3
2.33333 0.5 3
2.5 0.5 3
2.66667 0.5 3
2.83333 0.5 3
3 0.5 3
0 0.666667 3
0.166667 0.666667 3
0.333333 0.666667 3
0.5 0.666667 3
0.666667 0.666667 3
0.833333 0.666667 3
1 0.666667 3
1.16667 0.666667 3
1.33333 0.666667 3
1.5 0.666667 3
1.66667 0.666667 3
1.83333 0.666667 3
2 0.666667 3
2.16667 0.666667 3
2.33333 0.666667 3
2.5 0.666667 3
2.66667 0.666667 3
2.83333 0.666667 3
3 0.666667 3
0 0.833333 3
0.166667 0.833333 3
0.333333 0.833333 3
0.5 0.833333 3
0.666667 0.833333 3
0.833333 0.833333 3
1 0.833333 3
1.16667 0.833333 3
1.33333 0.833333 3
1.5 0.833333 3
1.66667 0.833333 3
1.83333 0.833333 3
2 0.833333 3
2.16667 0.833333 3
2.33333 0.833333 3
2.5 0.833333 3
2.66667 0.833333 3
2.83333 0.833333 3
3 0.833333 3
0 1 3
0.166667 1 3
0.333333 1 3
0.5 1 3
0.666667 1 3
0.833333 1 3
1 1 3
1.16667 1 3
1.33333 1 3
1.5 1 3
1.66667 1 3
1.83333 1 3
2 1 3
2.16667 1 3
2.33333 1 3
2.5 1 3
2.66667 1 3
2.83333 1 3
3 1 3
0 0 3.16667
0.166667 0 3.16667
0.333333 0 3.16667
0.5 0 3.16667
0.666667 0 3.16667
0.833333 0 3.16667
1 0 3.16667
1.16667 0 3.16667
1.33333 0 3.16667
1.5 0 3.16667
1.66667 0 3.16667
1.83333 0 3.16667
2 0 3.16667
2.16667 0 3.16667
2.33333 0 3.16667
2.5 0 3.16667
2.66667 0 3.16667
2.83333 0 3.16667
3 0 3.16667
0 0.166667 3.16667
0.166667 0.166667 3.16667
0.333333 0.166667 3.16667
0.5 0.166667 3.16667
0.666667 0.166667 3.16667
0.833333 0.166667 3.16667
1 0.166667 3.16667
1.16667 0.166667 3.16667
1.33333 0.166667 3.16667
1.5 0.166667 3.16667
1.66667 0.166667 3.16667
1.83333 0.166667 3.16667
2 0.166667 3.16667
2.16667 0.166667 3.16667
2.33333 0.166667 3.16667
2.5 0.166667 3.16667
2.66667 0.166667 3.16667
2.83333 0.166667 3.16667
3 0.166667 3.16667
0 0.333333 3.16667
0.166667 0.333333 3.16667
0.333333 0.333333 3.16667
0.5 0.333333 3.16667
0.666667 0.333333 3.16667
0.833333 0.333333 3.16667
1 0.333333 3.16667
1.16667 0.333333 3.16667
1.33333 0.333333 3.16667
1.5 0.333333 3.16667
1.66667 0.333333 3.16667
1.83333 0.333333 3.16667
2 0.333333 3.16667
2.16667 0.333333 3.16667
2.33333 0.333333 3.16667
2.5 0.333333 3.16667
2.66667 0.333333 3.16667
2.83333 0.333333 3.16667
3 0.333333 3.16667
0 0.5 3.16667
0.166667 0.5 3.16667
0.333333 0.5 3.16667
0.5 0.5 3.16667
0.666667 0.5 3.16667
0.833333 0.5 3.16667
1 0.5 3.16667
1.16667 0.5 3.16667
1.33333 0.5 3.16667
1.5 0.5 3.16667
1.66667 0.5 3.16667
1.83333 0.5 3.16667
2 0.5 3.16667
2.16667 0.5 3.16667
2.33333 0.5 3.16667
2.5 0.5 3.16667
2.66667 0.5 3.16667
2.83333 0.5 3.16667
3 0.5 3.16667
0 0.666667 3.16667
0.166667 0.666667 3.16667
0.333333 0.666667 3.16667
0.5 0.666667 3.16667
0.666667 0.666667 3.16667
0.833333 0.666667 3.16667
1 0.666667 3.16667
1.16667 0.666667 3.16667
1.33333 0.666667 3.16667
1.5 0.666667 3.16667
1.66667 0.666667 3.16667
1.83333 0.666667 3.16667
2 0.666667 3.16667
2.16667 0.666667 3.16667
2.33333 0.666667 3.16667
2.5 0.666667 3.16667
2.66667 0.666667 3.16667
2.83333 0.666667 3.16667
3 0.666667 3.16667
0 0.833333 3.16667
0.166667 0.833333 3.16667
0.333333 0.833333 3.16667
0.5 0.833333 3.16667
0.666667 0.833333 3.16667
0.833333 0.833333 3.16667
1 0.833333 3.16667
1.16667 0.833333 3.16667
1.33333 0.833333 3.16667
1.5 0.833333 3.16667
1.66667 0.833333 3.16667
1.83333 0.833333 3.16667
2 0.833333 3.16667
2.16667 0.833333 3.16667
2.33333 0.833333 3.16667
2.5 0.833333 3.16667
2.66667 0.833333 3.16667
2.83333 0.833333 3.16667
3 0.833333 3.16667
0 1 3.16667
0.166667 1 3.16667
0.333333 1 3.16667
0.5 1 3.16667
0.666667 1 3.16667
0.833333 1 3.16667
1 1 3.16667
1.16667 1 3.16667
1.33333 1 3.16667
1.5 1 3.16667
1.66667 1 3.16667
1.83333 1 3.16667
2 1 3.16667
2.16667 1 3.16667
2.33333 1 3.16667
2.5 1 3.16667
2.66667 1 3.16667
2.83333 1 3.16667
3 1 3.16667
0 0 3.33333
0.166667 0 3.33333
0.333333 0 3.33333
0.5 0 3.33333
0.666667 0 3.33333
0.833333 0 3.33333
1 0 3.33333
1.16667 0 3.33333
1.33333 0 3.33333
1.5 0 3.33333
1.66667 0 3.33333
1.83333 0 3.33333
2 0 3.33333
2.16667 0 3.33333
2.33333 0 3.33333
2.5 0 3.33333
2.66667 0 3.33333
2.83333 0 3.33333
3 0 3.33333
0 0.166667 3.33333
0.166667 0.166667 3.33333
0.333333 0.166667 3.33333
0.5 0.166667 3.33333
0.666667 0.166667 3.33333
0.833333 0.166667 3.33333
1 0.166667 3.33333
1.16667 0.166667 3.33333
1.33333 0.166667 3.33333
1.5 0.166667 3.33333
1.66667 0.166667 3.33333
1.83333 0.166667 3.33333
2 0.166667 3.33333
2.16667 0.166667 3.33333
2.33333 0.166667 3.33333
2.5 0.166667 3.33333
2.66667 0.166667 3.33333
2.83333 0.166667 3.33333
3 0.166667 3.33333
0 0.333333 3.33333
0.166667 0.333333 3.33333
0.333333 0.333333 3.33333
0.5 0.333333 3.33333
0.666667 0.333333 3.33333
0.833333 0.333333 3.33333
1 0.333333 3.33333
1.16667 0.333333 3.33333
1.33333 0.333333 3.33333
1.5 0.333333 3.33333
1.66667 0.333333 3.33333
1.83333 0.333333 3.33333
2 0.333333 3.33333
2.16667 0.333333 3.33333
2.33333 0.333333 3.33333
2.5 0.333333 3.33333
2.66667 0.333333 3.33333
2.83333 0.333333 3.33333
3 0.333333 3.33333
0 0.5 3.33333
0.166667 0.5 3.33333
0.333333 0.5 3.33333
0.5 0.5 3.33333
0.666667 0.5 3.33333
0.833333 0.5 3.33333
1 0.5 3.33333
1.16667 0.5 3.33333
1.33333 0.5 3.33333
1.5 0.5 3.33333
1.66667 0.5 3.33333
1.83333 0.5 3.33333
2 0.5 3.33333
2.16667 0.5 3.33333
2.33333 0.5 3.33333
2.5 0.5 3.33333
2.66667 0.5 3.33333
2.83333 0.5 3.33333
3 0.5 3.33333
0 0.666667 3.33333
0.166667 0.666667 3.33333
0.333333 0.666667 3.33333
0.5 0.666667 3.33333
0.666667 0.666667 3.33333
0.833333 0.666667 3.33333
1 0.666667 3.33333
1.16667 0.666667 3.33333
1.33333 0.666667 3.33333
1.5 0.666667 3.33333
1.66667 0.666667 3.33333
1.83333 0.666667 3.33333
2 0.666667 3.33333
2.16667 0.666667 3.33333
2.33333 0.666667 3.33333
2.5 0.666667 3.33333
2.66667 0.666667 3.33333
2.83333 0.666667 3.33333
3 0.666667 3.33333
0 0.833333 3.33333
0.166667 0.833333 3.33333
0.333333 0.833333 3.33333
0.5 0.833333 3.33333
0.666667 0.833333 3.33333
0.833333 0.833333 3.33333
1 0.833333 3.33333
1.16667 0.833333 3.33333
1.33333 0.833333 3.33333
1.5 0.833333 3.33333
1.66667 0.833333 3.33333
1.83333 0.833333 3.33333
2 0.833333 3.33333
2.16667 0.833333 3.33333
2.33333 0.833333 3.33333
2.5 0.833333 3.33333
2.66667 0.833333 3.33333
2.83333 0.833333 3.33333
3 0.833333 3.33333
0 1 3.33333
0.166667 1 3.33333
0.333333 1 3.33333
0.5 1 3.33333
0.666667 1 3.33333
0.833333 1 3.33333
1 1 3.33333
1.16667 1 3.33333
1.33333 1 3.33333
1.5 1 3.33333
1.66667 1 3.33333
1.83333 1 3.33333
2 1 3.33333
2.16667 1 3.33333
2.33333 1 3.33333
2.5 1 3.33333
2.66667 1 3.33333
2.83333 1 3.33333
3 1 3.33333
0 0 3.5
0.166667 0 3.5
0.333333 0 3.5
0.5 0 3.5
0.666667 0 3.5
0.833333 0 3.5
1 0 3.5
1.16667 0 3.5
1.33333 0 3.5
1.5 0 3.5
1.66667 0 3.5
1.83333 0 3.5
2 0 3.5
2.16667 0 3.5
2.33333 0 3.5
2.5 0 3.5
2.66667 0 3.5
2.83333 0 3.5
3 0 3.5
0 0.166667 3.5
0.166667 0.166667 3.5
0.333333 0.166667 3.5
0.5 0.166667 3.5
0.666667 0.166667 3.5
0.833333 0.166667 3.5
1 0.166667 3.5
1.16667 0.166667 3.5
1.33333 0.166667 3.5
1.5 0.166667 3.5
1.66667 0.166667 3.5
1.83333 0.166667 3.5
2 0.166667 3.5
2.16667 0.166667 3.5
2.33333 0.166667 3.5
2.5 0.166667 3.5
2.66667 0.166667 3.5
2.83333 0.166667 3.5
3 0.166667 3.5
0 0.333333 3.5
0.166667 0.333333 3.5
0.333333 0.333333 3.5
0.5 0.333333 3.5
0.666667 0.333333 3.5
0.833333 0.333333 3.5
1 0.333333 3.5
1.16667 0.333333 3.5
1.33333 0.333333 3.5
1.5 0.333333 3.5
1.66667 0.333333 3.5
1.83333 0.333333 3.5
2 0.333333 3.5
2.16667 0.333333 3.5
2.33333 0.333333 3.5
2.5 0.333333 3.5
2.66667 0.333333 3.5
2.83333 0.333333 3.5
3 0.333333 3.5
0 0.5 3.5
0.166667 0.5 3.5
0.333333 0.5 3.5
0.5 0.5 3.5
0.666667 0.5 3.5
0.833333 0.5 3.5
1 0.5 3.5
1.16667 0.5 3.5
1.33333 0.5 3.5
1.5 0.5 3.5
1.66667 0.5 3.5
1.83333 0.5 3.5
2 0.5 3.5
2.16667 0.5 3.5
2.33333 0.5 3.5
2.5 0.5 3.5
2.66667 0.5 3.5
2.83333 0.5 3.5
3 0.5 3.5
0 0.666667 3.5
0.166667 0.666667 3.5
0.333333 0.666667 3.5
0.5 0.666667 3.5
0.666667 0.666667 3.5
0.833333 0.666667 3.5
1 0.666667 3.5
1.16667 0.666667 3.5
1.33333 0.666667 3.5
1.5 0.666667 3.5
1.66667 0.666667 3.5
1.83333 0.666667 3.5
2 0.666667 3.5
2.16667 0.666667 3.5
2.33333 0.666667 3.5
2.5 0.666667 3.5
2.66667 0.666667 3.5
2.83333 0.666667 3.5
3 0.666667 3.5
0 0.833333 3.5
0.166667 0.833333 3.5
0.333333 0.833333 3.5
0.5 0.833333 3.5
0.666667 0.833333 3.5
0.833333 0.833333 3.5
1 0.833333 3.5
1.16667 0.833333 3.5
1.33333 0.833333 3.5
1.5 0.833333 3.5
1.66667 0.833333 3.5
1.83333 0.833333 3.5
2 0.833333 3.5
2.16667 0.833333 3.5
2.33333 0.833333 3.5
2.5 0.833333 3.5
2.66667 0.833333 3.5
2.83333 0.833333 3.5
3 0.833333 3.5
0 1 3.5
0.166667 1 3.5
0.333333 1 3.5
0.5 1 3.5
0.666667 1 3.5
0.833333 1 3.5
1 1 3.5
1.16667 1 3.5
1.33333 1 3.5
1.5 1 3.5
1.66667 1 3.5
1.83333 1 3.5
2 1 3.5
2.16667 1 3.5
2.33333 1 3.5
2.5 1 3.5
2.66667 1 3.5
2.83333 1 3.5
3 1 3.5
0 0 3.66667
0.166667 0 3.66667
0.333333 0 3.66667
0.5 0 3.66667
0.666667 0 3.66667
0.833333 0 3.66667
1 0 3.66667
1.16667 0 3.66667
1.33333 0 3.66667
1.5 0 3.66667
1.66667 0 3.66667
1.83333 0 3.66667
2 0 3.66667
2.16667 0 3.66667
2.33333 0 3.66667
2.5 0 3.66667
2.66667 0 3.66667
2.83333 0 3.66667
3 0 3.66667
0 0.166667 3.66667
0.166667 0.166667 3.66667
0.333333 0.166667 3.66667
0.5 0.166667 3.66667
0.666667 0.166667 3.66667
0.833333 0.166667 3.66667
1 0.166667 3.66667
1.16667 0.166667 3.66667
1.33333 0.166667 3.66667
1.5 0.166667 3.66667
1.66667 0.166667 3.66667
1.83333 0.166667 3.66667
2 0.166667 3.66667
2.16667 0.166667 3.66667
2.33333 0.166667 3.66667
2.5 0.166667 3.66667
2.66667 0.166667 3.66667
2.83333 0.166667 3.66667
3 0.166667 3.66667
0 0.333333 3.66667
0.166667 0.333333 3.66667
0.333333 0.333333 3.66667
0.5 0.333333 3.66667
0.666667 0.333333 3.66667
0.833333 0.333333 3.66667
1 0.333333 3.66667
1.16667 0.333333 3.66667
1.33333 0.333333 3.66667
1.5 0.333333 3.66667
1.66667 0.333333 3.66667
1.83333 0.333333 3.66667
2 0.333333 3.66667
2.16667 0.333333 3.66667
2.33333 0.333333 3.66667
2.5 0.333333 3.66667
2.66667 0.333333 3.66667
2.83333 0.333333 3.66667
3 0.333333 3.66667
0 0.5 3.66667
0.166667 0.5 3.66667
0.333333 0.5 3.66667
0.5 0.5 3.66667
0.666667 0.5 3.66667
0.833333 0.5 3.66667
1 0.5 3.66667
1.16667 0.5 3.66667
1.33333 0.5 3.66667
1.5 0.5 3.66667
1.66667 0.5 3.66667
1.83333 0.5 3.66667
2 0.5 3.66667
2.16667 0.5 3.66667
2.33333 0.5 3.66667
2.5 0.5 3.66667
2.66667 0.5 3.66667
2.83333 0.5 3.66667
3 0.5 3.66667
0 0.666667 3.66667
0.166667 0.666667 3.66667
0.333333 0.666667 3.66667
0.5 0.666667 3.66667
0.666667 0.666667 3.66667
0.833333 0.666667 3.66667
1 0.666667 3.66667
1.16667 0.666667 3.66667
1.33333 0.666667 3.66667
1.5 0.666667 3.66667
1.66667 0.666667 3.66667
1.83333 0.666667 3.66667
2 0.666667 3.66667
2.16667 0.666667 3.66667
2.33333 0.666667 3.66667
2.5 0.666667 3.66667
2.66667 0.666667 3.66667
2.83333 0.666667 3.66667
3 0.666667 3.66667
0 0.833333 3.66667
0.166667 0.833333 3.66667
0.333333 0.833333 3.66667
0.5 0.833333 3.66667
0.666667 0.833333 3.66667
0.833333 0.833333 3.66667
1 0.833333 3.66667
1.16667 0.833333 3.66667
1.33333 0.833333 3.66667
1.5 0.833333 3.66667
1.66667 0.833333 3.66667
1.83333 0.833333 3.66667
2 0.833333 3.66667
2.16667 0.833333 3.66667
2.33333 0.833333 3.66667
2.5 0.833333 3.66667
2.66667 0.833333 3.66667
2.83333 0.833333 3.66667
3 0.833333 3.66667
0 1 3.66667
0.166667 1 3.66667
0.333333 1 3.66667
0.5 1 3.66667
0.666667 1 3.66667
0.833333 1 3.66667
1 1 3.66667
1.16667 1 3.66667
1.33333 1 3.66667
1.5 1 3.66667
1.66667 1 3.66667
1.83333 1 3.66667
2 1 3.66667
2.16667 1 3.66667
2.33333 1 3.66667
2.5 1 3.66667
2.66667 1 3.66667
2.83333 1 3.66667
3 1 3.66667
0 0 3.83333
0.166667 0 3.83333
0.333333 0 3.83333
0.5 0 3.83333
0.666667 0 3.83333
0.833333 0 3.83333
1 0 3.83333
1.16667 0 3.83333
1.33333 0 3.83333
1.5 0 3.83333
1.66667 0 3.83333
1.83333 0 3.83333
2 0 3.83333
2.16667 0 3.83333
2.33333 0 3.83333
2.5 0 3.83333
2.66667 0 3.83333
2.83333 0 3.83333
3 0 3.83333
0 0.166667 3.83333
0.166667 0.166667 3.83333
0.333333 0.166667 3.83333
0.5 0.166667 3.83333
0.666667 0.166667 3.83333
0.833333 0.166667 3.83333
1 0.166667 3.83333
1.16667 0.166667 3.83333
1.33333 0.166667 3.83333
1.5 0.166667 3.83333
1.66667 0.166667 3.83333
1.83333 0.166667 3.83333
2 0.166667 3.83333
2.16667 0.166667 3.83333
2.33333 0.166667 3.83333
2.5 0.166667 3.83333
2.66667 0.166667 3.83333
2.83333 0.166667 3.83333
3 0.166667 3.83333
0 0.333333 3.83333
0.166667 0.333333 3.83333
0.333333 0.333333 3.83333
0.5 0.333333 3.83333
0.666667 0.333333 3.83333
0.833333 0.333333 3.83333
1 0.333333 3.83333
1.16667 0.333333 3.83333
1.33333 0.333333 3.83333
1.5 0.333333 3.83333
1.66667 0.333333 3.83333
1.83333 0.333333 3.83333
2 0.333333 3.83333
2.16667 0.333333 3.83333
2.33333 0.333333 3.83333
2.5 0.333333 3.83333
2.66667 0.333333 3.83333
2.83333 0.333333 3.83333
3 0.333333 3.83333
0 0.5 3.83333
0.166667 0.5 3.83333
0.333333 0.5 3.83333
0.5 0.5 3.83333
0.666667 0.5 3.83333
0.833333 0.5 3.83333
1 0.5 3.83333
1.16667 0.5 3.83333
1.33333 0.5 3.83333
1.5 0.5 3.83333
1.66667 0.5 3.83333
1.83333 0.5 3.83333
2 0.5 3.83333
2.16667 0.5 3.83333
2.33333 0.5 3.83333
2.5 0.5 3.83333
2.66667 0.5 3.83333
2.83333 0.5 3.83333
3 0.5 3.83333
0 0.666667 3.83333
0.166667 0.666667 3.83333
0.333333 0.666667 3.83333
0.5 0.666667 3.83333
0.666667 0.666667 3.83333
0.833333 0.666667 3.83333
1 0.666667 3.83333
1.16667 0.666667 3.83333
1.33333 0.666667 3.83333
1.5 0.666667 3.83333
1.66667 0.666667 3.83333
1.83333 0.666667 3.83333
2 0.666667 3.83333
2.16667 0.666667 3.83333
2.33333 0.666667 3.83333
2.5 0.666667 3.83333
2.66667 0.666667 3.83333
2.83333 0.666667 3.83333
3 0.666667 3.83333
0 0.833333 3.83333
0.166667 0.833333 3.83333
0.333333 0.833333 3.83333
0.5 0.833333 3.83333
0.666667 0.833333 3.83333
0.833333 0.833333 3.83333
1 0.833333 3.83333
1.16667 0.833333 3.83333
1.33333 0.833333 3.83333
1.5 0.833333 3.83333
1.66667 0.833333 3.83333
1.83333 0.833333 3.83333
2 0.833333 3.83333
2.16667 0.833333 3.83333
2.33333 0.833333 3.83333
2.5 0.833333 3.83333
2.66667 0.833333 3.83333
2.83333 0.833333 3.83333
3 0.833333 3.83333
0 1 3.83333
0.166667 1 3.83333
0.333333 1 3.83333
0.5 1 3.83333
0.666667 1 3.83333
0.833333 1 3.83333
1 1 3.83333
1.16667 1 3.83333
1.33333 1 3.83333
1.5 1 3.83333
1.66667 1 3.83333
1.83333 1 3.83333
2 1 3.83333
2.16667 1 3.83333
2.33333 1 3.83333
2.5 1 3.83333
2.66667 1 3.83333
2.83333 1 3.83333
3 1 3.83333
0 0 4
0.166667 0 4
0.333333 0 4
0.5 0 4
0.666667 0 4
0.833333 0 4
1 0 4
1.16667 0 4
1.33333 0 4
1.5 0 4
1.66667 0 4
1.83333 0 4
2 0 4
2.16667 0 4
2.33333 0 4
2.5 0 4
2.66667 0 4
2.83333 0 4
3 0 4
0 0.166667 4
0.166667 0.166667 4
0.333333 0.166667 4
0.5 0.166667 4
0.666667 0.166667 4
0.833333 0.166667 4
1 0.166667 4
1.16667 0.166667 4
1.33333 0.166667 4
1.5 0.166667 4
1.66667 0.166667 4
1.83333 0.166667 4
2 0.166667 4
2.16667 0.166667 4
2.33333 0.166667 4
2.5 0.166667 4
2.66667 0.166667 4
2.83333 0.166667 4
3 0.166667 4
0 0.333333 4
0.166667 0.333333 4
0.333333 0.333333 4
0.5 0.333333 4
0.666667 0.333333 4
0.833333 0.333333 4
1 0.333333 4
1.16667 0.333333 4
1.33333 0.333333 4
1.5 0.333333 4
1.66667 0.333333 4
1.83333 0.333333 4
2 0.333333 4
2.16667 0.333333 4
2.33333 0.333333 4
2.5 0.333333 4
2.66667 0.333333 4
2.83333 0.333333 4
3 0.333333 4
0 0.5 4
0.166667 0.5 4
0.333333 0.5 4
0.5 0.5 4
0.666667 0.5 4
0.833333 0.5 4
1 0.5 4
1.16667 0.5 4
1.33333 0.5 4
1.5 0.5 4
1.66667 0.5 4
1.83333 0.5 4
2 0.5 4
2.16667 0.5 4
2.33333 0.5 4
2.5 0.5 4
2.66667 0.5 4
2.83333 0.5 4
3 0.5 4
0 0.666667 4
0.166667 0.666667 4
0.333333 0.666667 4
0.5 0.666667 4
0.666667 0.666667 4
0.833333 0.666667 4
1 0.666667 4
1.16667 0.666667 4
1.33333 0.666667 4
1.5 0.666667 4
1.66667 0.666667 4
1.83333 0.666667 4
2 0.666667 4
2.16667 0.666667 4
2.33333 0.666667 4
2.5 0.666667 4
2.66667 0.666667 4
2.83333 0.666667 4
3 0.666667 4
0 0.833333 4
0.166667 0.833333 4
0.333333 0.833333 4
0.5 0.833333 4
0.666667 0.833333 4
0.833333 0.833333 4
1 0.833333 4
1.16667 0.833333 4
1.33333 0.833333 4
1.5 0.833333 4
1.66667 0.833333 4
1.83333 0.833333 4
2 0.833333 4
2.16667 0.833333 4
2.33333 0.833333 4
2.5 0.833333 4
2.66667 0.833333 4
2.83333 0.833333 4
3 0.833333 4
0 1 4
0.166667 1 4
0.333333 1 4
0.5 1 4
0.666667 1 4
0.833333 1 4
1 1 4
1.16667 1 4
1.33333 1 4
1.5 1 4
1.66667 1 4
1.83333 1 4
2 1 4
2.16667 1 4
2.33333 1 4
2.5 1 4
2.66667 1 4
2.83333 1 4
3 1 4
0 0.0833333 3
0.0833333 0.166667 3.08333
0.0833333 0.0833333 3.08333
0.0833333 0.0833333 3
0.0833333 0.166667 3
0.166667 0.166667 3.08333
0.0833333 0.0833333 3.16667
0.166667 0.0833333 3.16667
0.0833333 0 3.16667
0 0 3.08333
0.0833333 0 3.08333
0 0.166667 3.08333
0 0.0833333 3.08333
0.0833333 0.166667 3.16667
0 0.0833333 3.16667
0.166667 0 3.08333
0.0833333 0 3
0.166667 0.0833333 3.08333
0.166667 0.0833333 3
0.25 0.166667 3.08333
0.25 0.0833333 3.08333
0.25 0.0833333 3
0.25 0.166667 3
0.333333 0.166667 3.08333
0.25 0.0833333 3.16667
0.333333 0.0833333 3.16667
0.25 0 3.16667
0.25 0 3.08333
0.25 0.166667 3.16667
0.333333 0 3.08333
0.25 0 3
0.333333 0.0833333 3.08333
0.333333 0.0833333 3
0.416667 0.166667 3.08333
0.416667 0.0833333 3.08333
0.416667 0.0833333 3
0.416667 0.166667 3
0.5 0.166667 3.08333
0.416667 0.0833333 3.16667
0.5 0.0833333 3.16667
0.416667 0 3.16667
0.416667 0 3.08333
0.416667 0.166667 3.16667
0.5 0 3.08333
0.416667 0 3
0.5 0.0833333 3.08333
0.5 0.0833333 3
0.583333 0.166667 3.08333
0.583333 0.0833333 3.08333
0.583333 0.0833333 3
0.583333 0.166667 3
0.666667 0.166667 3.08333
0.583333 0.0833333 3.16667
0.666667 0.0833333 3.16667
0.583333 0 3.16667
0.583333 0 3.08333
0.583333 0.166667 3.16667
0.666667 0 3.08333
0.583333 0 3
0.666667 0.0833333 3.08333
0.666667 0.0833333 3
0.75 0.166667 3.08333
0.75 0.0833333 3.08333
0.75 0.0833333 3
0.75 0.166667 3
0.833333 0.166667 3.08333
0.75 0.0833333 3.16667
0.833333 0.0833333 3.16667
0.75 0 3.16667
0.75 0 3.08333
0.75 0.166667 3.16667
0.833333 0 3.08333
0.75 0 3
0.833333 0.0833333 3.08333
0.833333 0.0833333 3
0.916667 0.166667 3.08333
0.916667 0.0833333 3.08333
0.916667 0.0833333 3
0.916667 0.166667 3
1 0.166667 3.08333
0.916667 0.0833333 3.16667
1 0.0833333 3.16667
0.916667 0 3.16667
0.916667 0 3.08333
0.916667 0.166667 3.16667
1 0 3.08333
0.916667 0 3
1 0.0833333 3.08333
1 0.0833333 3
1.08333 0.166667 3.08333
1.08333 0.0833333 3.08333
1.08333 0.0833333 3
1.08333 0.166667 3
1.16667 0.166667 3.08333
1.08333 0.0833333 3.16667
1.16667 0.0833333 3.16667
1.08333 0 3.16667
1.08333 0 3.08333
1.08333 0.166667 3.16667
1.16667 0 3.08333
1.08333 0 3
1.16667 0.0833333 3.08333
1.16667 0.0833333 3
1.25 0.166667 3.08333
1.25 0.0833333 3.08333
1.25 0.0833333 3
1.25 0.166667 3
1.33333 0.166667 3.08333
1.25 0.0833333 3.16667
1.33333 0.0833333 3.16667
1.25 0 3.16667
1.25 0 3.08333
1.25 0.166667 3.16667
1.33333 0 3.08333
1.25 0 3
1.33333 0.0833333 3.08333
1.33333 0.0833333 3
1.41667 0.166667 3.08333
1.41667 0.0833333 3.08333
1.41667 0.0833333 3
1.41667 0.166667 3
1.5 0.166667 3.08333
1.41667 0.0833333 3.16667
1.5 0.0833333 3.16667
1.41667 0 3.16667
1.41667 0 3.08333
1.41667 0.166667 3.16667
1.5 0 3.08333
1.41667 0 3
1.5 0.0833333 3.08333
1.5 0.0833333 3
1.58333 0.166667 3.08333
1.58333 0.0833333 3.08333
1.58333 0.0833333 3
1.58333 0.166667 3
1.66667 0.166667 3.08333
1.58333 0.0833333 3.16667
1.66667 0.0833333 3.16667
1.58333 0 3.16667
1.58333 0 3.08333
1.58333 0.166667 3.16667
1.66667 0 3.08333
1.58333 0 3
1.66667 0.0833333 3.08333
1.66667 0.0833333 3
1.75 0.166667 3.08333
1.75 0.0833333 3.08333
1.75 0.0833333 3
1.75 0.166667 3
1.83333 0.166667 3.08333
1.75 0.0833333 3.16667
1.83333 0.0833333 3.16667
1.75 0 3.16667
1.75 0 3.08333
1.75 0.166667 3.16667
1.83333 0 3.08333
1.75 0 3
1.83333 0.0833333 3.08333
1.83333 0.0833333 3
1.91667 0.166667 3.08333
1.91667 0.0833333 3.08333
1.91667 0.0833333 3
1.91667 0.166667 3
2 0.166667 3.08333
1.91667 0.0833333 3.16667
2 0.0833333 3.16667
1.91667 0 3.16667
1.91667 0 3.08333
1.91667 0.166667 3.16667
2 0 3.08333
1.91667 0 3
2 0.0833333 3.08333
2 0.0833333 3
2.08333 0.166667 3.08333
2.08333 0.0833333 3.08333
2.08333 0.0833333 3
2.08333 0.166667 3
2.16667 0.166667 3.08333
2.08333 0.0833333 3.16667
2.16667 0.0833333 3.16667
2.08333 0 3.16667
2.08333 0 3.08333
2.08333 0.166667 3.16667
2.16667 0 3.08333
2.08333 0 3
2.16667 0.0833333 3.08333
2.16667 0.0833333 3
2.25 0.166667 3.08333
2.25 0.0833333 3.08333
2.25 0.0833333 3
2.25 0.166667 3
2.33333 0.166667 3.08333
2.25 0.0833333 3.16667
2.33333 0.0833333 3.16667
2.25 0 3.16667
2.25 0 3.08333
2.25 0.166667 3.16667
2.33333 0 3.08333
2.25 0 3
2.33333 0.0833333 3.08333
2.33333 0.0833333 3
2.41667 0.166667 3.08333
2.41667 0.0833333 3.08333
2.41667 0.0833333 3
2.41667 0.166667 3
2.5 0.166667 3.08333
2.41667 0.0833333 3.16667
2.5 0.0833333 3.16667
2.41667 0 3.16667
2.41667 0 3.08333
2.41667 0.166667 3.16667
2.5 0 3.08333
2.41667 0 3
2.5 0.0833333 3.08333
2.5 0.0833333 3
2.58333 0.166667 3.08333
2.58333 0.0833333 3.08333
2.58333 0.0833333 3
2.58333 0.166667 3
2.66667 0.166667 3.08333
2.58333 0.0833333 3.16667
2.66667 0.0833333 3.16667
2.58333 0 3.16667
2.58333 0 3.08333
2.58333 0.166667 3.16667
2.66667 0 3.08333
2.58333 0 3
2.66667 0.0833333 3.08333
2.66667 0.0833333 3
2.75 0.166667 3.08333
2.75 0.0833333 3.08333
2.75 0.0833333 3
2.75 0.166667 3
2.83333 0.166667 3.08333
2.75 0.0833333 3.16667
2.83333 0.0833333 3.16667
2.75 0 3.16667
2.75 0 3.08333
2.75 0.166667 3.16667
2.83333 0 3.08333
2.75 0 3
2.83333 0.0833333 3.08333
2.83333 0.0833333 3
2.91667 0.166667 3.08333
2.91667 0.0833333 3.08333
2.91667 0.0833333 3
2.91667 0.166667 3
3 0.166667 3.08333
2.91667 0.0833333 3.16667
3 0.0833333 3.16667
2.91667 0 3.16667
2.91667 0 3.08333
2.91667 0.166667 3.16667
3 0 3.08333
2.91667 0 3
3 0.0833333 3.08333
3 0.0833333 3
0 0.25 3
0.0833333 0.333333 3.08333
0.0833333 0.25 3.08333
0.0833333 0.25 3
0.0833333 0.333333 3
0.166667 0.333333 3.08333
0.0833333 0.25 3.16667
0.166667 0.25 3.16667
0 0.333333 3.08333
0 0.25 3.08333
0.0833333 0.333333 3.16667
0 0.25 3.16667
0.166667 0.25 3.08333
0.166667 0.25 3
0.25 0.333333 3.08333
0.25 0.25 3.08333
0.25 0.25 3
0.25 0.333333 3
0.333333 0.333333 3.08333
0.25 0.25 3.16667
0.333333 0.25 3.16667
0.25 0.333333 3.16667
0.333333 0.25 3.08333
0.333333 0.25 3
0.416667 0.333333 3.08333
0.416667 0.25 3.08333
0.416667 0.25 3
0.416667 0.333333 3
0.5 0.333333 3.08333
0.416667 0.25 3.16667
0.5 0.25 3.16667
0.416667 0.333333 3.16667
0.5 0.25 3.08333
0.5 0.25 3
0.583333 0.333333 3.08333
0.583333 0.25 3.08333
0.583333 0.25 3
0.583333 0.333333 3
0.666667 0.333333 3.08333
0.583333 0.25 3.16667
0.666667 0.25 3.16667
0.583333 0.333333 3.16667
0.666667 0.25 3.08333
0.666667 0.25 3
0.75 0.333333 3.08333
0.75 0.25 3.08333
0.75 0.25 3
0.75 0.333333 3
0.833333 0.333333 3.08333
0.75 0.25 3.16667
0.833333 0.25 3.16667
0.75 0.333333 3.16667
0.833333 0.25 3.08333
0.833333 0.25 3
0.916667 0.333333 3.08333
0.916667 0.25 3.08333
0.916667 0.25 3
0.916667 0.333333 3
1 0.333333 3.08333
0.916667 0.25 3.16667
1 0.25 3.16667
0.916667 0.333333 3.16667
1 0.25 3.08333
1 0.25 3
1.08333 0.333333 3.08333
1.08333 0.25 3.08333
1.08333 0.25 3
1.08333 0.333333 3
1.16667 0.333333 3.08333
1.08333 0.25 3.16667
1.16667 0.25 3.16667
1.08333 0.333333 3.16667
1.16667 0.25 3.08333
1.16667 0.25 3
1.25 0.333333 3.08333
1.25 0.25 3.08333
1.25 0.25 3
1.25 0.333333 3
1.33333 0.333333 3.08333
1.25 0.25 3.16667
1.33333 0.25 3.16667
1.25 0.333333 3.16667
1.33333 0.25 3.08333
1.33333 0.25 3
1.41667 0.333333 3.08333
1.41667 0.25 3.08333
1.41667 0.25 3
1.41667 0.333333 3
1.5 0.333333 3.08333
1.41667 0.25 3.16667
1.5 0.25 3.16667
1.41667 0.333333 3.16667
1.5 0.25 3.08333
1.5 0.25 3
1.58333 0.333333 3.08333
1.58333 0.25 3.08333
1.58333 0.25 3
1.58333 0.333333 3
1.66667 0.333333 3.08333
1.58333 0.25 3.16667
1.66667 0.25 3.16667
1.58333 0.333333 3.16667
1.66667 0.25 3.08333
1.66667 0.25 3
1.75 0.333333 3.08333
1.75 0.25 3.08333
1.75 0.25 3
1.75 0.333333 3
1.83333 0.333333 3.08333
1.75 0.25 3.16667
1.83333 0.25 3.16667
1.75 0.333333 3.16667
1.83333 0.25 3.08333
1.83333 0.25 3
1.91667 0.333333 3.08333
1.91667 0.25 3.08333
1.91667 0.25 3
1.91667 0.333333 3
2 0.333333 3.08333
1.91667 0.25 3.16667
2 0.25 3.16667
1.91667 0.333333 3.16667
2 0.25 3.08333
2 0.25 3
2.08333 0.333333 3.08333
2.08333 0.25 3.08333
2.08333 0.25 3
2.08333 0.333333 3
2.16667 0.333333 3.08333
2.08333 0.25 3.16667
2.16667 0.25 3.16667
2.08333 0.333333 3.16667
2.16667 0.25 3.08333
2.16667 0.25 3
2.25 0.333333 3.08333
2.25 0.25 3.08333
2.25 0.25 3
2.25 0.333333 3
2.33333 0.333333 3.08333
2.25 0.25 3.16667
2.33333 0.25 3.16667
2.25 0.333333 3.16667
2.33333 0.25 3.08333
2.33333 0.25 3
2.41667 0.333333 3.08333
2.41667 0.25 3.08333
2.41667 0.25 3
2.41667 0.333333 3
2.5 0.333333 3.08333
2.41667 0.25 3.16667
2.5 0.25 3.16667
2.41667 0.333333 3.16667
2.5 0.25 3.08333
2.5 0.25 3
2.58333 0.333333 3.08333
2.58333 0.25 3.08333
2.58333 0.25 3
2.58333 0.333333 3
2.66667 0.333333 3.08333
2.58333 0.25 3.16667
2.66667 0.25 3.16667
2.58333 0.333333 3.16667
2.66667 0.25 3.08333
2.66667 0.25 3
2.75 0.333333 3.08333
2.75 0.25 3.08333
2.75 0.25 3
2.75 0.333333 3
2.83333 0.333333 3.08333
2.75 0.25 3.16667
2.83333 0.25 3.16667
2.75 0.333333 3.16667
2.83333 0.25 3.08333
2.83333 0.25 3
2.91667 0.333333 3.08333
2.91667 0.25 3.08333
2.91667 0.25 3
2.91667 0.333333 3
3 0.333333 3.08333
2.91667 0.25 3.16667
3 0.25 3.16667
2.91667 0.333333 3.16667
3 0.25 3.08333
3 0.25 3
0 0.416667 3
0.0833333 0.5 3.08333
0.0833333 0.416667 3.08333
0.0833333 0.416667 3
0.0833333 0.5 3
0.166667 0.5 3.08333
0.0833333 0.416667 3.16667
0.166667 0.416667 3.16667
0 0.5 3.08333
0 0.416667 3.08333
0.0833333 0.5 3.16667
0 0.416667 3.16667
0.166667 0.416667 3.08333
0.166667 0.416667 3
0.25 0.5 3.08333
0.25 0.416667 3.08333
0.25 0.416667 3
0.25 0.5 3
0.333333 0.5 3.08333
0.25 0.416667 3.16667
0.333333 0.416667 3.16667
0.25 0.5 3.16667
0.333333 0.416667 3.08333
0.333333 0.416667 3
0.416667 0.5 3.08333
0.416667 0.416667 3.08333
0.416667 0.416667 3
0.416667 0.5 3
0.5 0.5 3.08333
0.416667 0.416667 3.16667
0.5 0.416667 3.16667
0.416667 0.5 3.16667
0.5 0.416667 3.08333
0.5 0.416667 3
0.583333 0.5 3.08333
0.583333 0.416667 3.08333
0.583333 0.416667 3
0.583333 0.5 3
0.666667 0.5 3.08333
0.583333 0.416667 3.16667
0.666667 0.416667 3.16667
0.583333 0.5 3.16667
0.666667 0.416667 3.08333
0.666667 0.416667 3
0.75 0.5 3.08333
0.75 0.416667 3.08333
0.75 0.416667 3
0.75 0.5 3
0.833333 0.5 3.08333
0.75 0.416667 3.16667
0.833333 0.416667 3.16667
0.75 0.5 3.16667
0.833333 0.416667 3.08333
0.833333 0.416667 3
0.916667 0.5 3.08333
0.916667 0.416667 3.08333
0.916667 0.416667 3
0.916667 0.5 3
1 0.5 3.08333
0.916667 0.416667 3.16667
1 0.416667 3.16667
0.916667 0.5 3.16667
1 0.416667 3.08333
1 0.416667 3
1.08333 0.5 3.08333
1.08333 0.416667 3.08333
1.08333 0.416667 3
1.08333 0.5 3
1.16667 0.5 3.08333
1.08333 0.416667 3.16667
1.16667 0.416667 3.16667
1.08333 0.5 3.16667
1.16667 0.416667 3.08333
1.16667 0.416667 3
1.25 0.5 3.08333
1.25 0.416667 3.08333
1.25 0.416667 3
1.25 0.5 3
1.33333 0.5 3.08333
1.25 0.416667 3.16667
1.33333 0.416667 3.16667
1.25 0.5 3.16667
1.33333 0.416667 3.08333
1.33333 0.416667 3
1.41667 0.5 3.08333
1.41667 0.416667 3.08333
1.41667 0.416667 3
1.41667 0.5 3
1.5 0.5 3.08333
1.41667 0.416667 3.16667
1.5 0.416667 3.16667
1.41667 0.5 3.16667
1.5 0.416667 3.08333
1.5 0.416667 3
1.58333 0.5 3.08333
1.58333 0.416667 3.08333
1.58333 0.416667 3
1.58333 0.5 3
1.66667 0.5 3.08333
1.58333 0.416667 3.16667
1.66667 0.416667 3.16667
1.58333 0.5 3.16667
1.66667 0.416667 3.08333
1.66667 0.416667 3
1.75 0.5 3.08333
1.75 0.416667 3.08333
1.75 0.416667 3
1.75 0.5 3
1.83333 0.5 3.08333
1.75 0.416667 3.16667
1.83333 0.416667 3.16667
1.75 0.5 3.16667
1.83333 0.416667 3.08333
1.83333 0.416667 3
1.91667 0.5 3.08333
1.91667 0.416667 3.08333
1.91667 0.416667 3
1.91667 0.5 3
2 0.5 3.08333
1.91667 0.416667 3.16667
2 0.416667 3.16667
1.91667 0.5 3.16667
2 0.416667 3.08333
2 0.416667 3
2.08333 0.5 3.08333
2.08333 0.416667 3.08333
2.08333 0.416667 3
2.08333 0.5 3
2.16667 0.5 3.08333
2.08333 0.416667 3.16667
2.16667 0.416667 3.16667
2.08333 0.5 3.16667
2.16667 0.416667 3.08333
2.16667 0.416667 3
2.25 0.5 3.08333
2.25 0.416667 3.08333
2.25 0.416667 3
2.25 0.5 3
2.33333 0.5 3.08333
2.25 0.416667 3.16667
2.33333 0.416667 3.16667
2.25 0.5 3.16667
2.33333 0.416667 3.08333
2.33333 0.416667 3
2.41667 0.5 3.08333
2.41667 0.416667 3.08333
2.41667 0.416667 3
2.41667 0.5 3
2.5 0.5 3.08333
2.41667 0.416667 3.16667
2.5 0.416667 3.16667
2.41667 0.5 3.16667
2.5 0.416667 3.08333
2.5 0.416667 3
2.58333 0.5 3.08333
2.58333 0.416667 3.08333
2.58333 0.416667 3
2.58333 0.5 3
2.66667 0.5 3.08333
2.58333 0.416667 3.16667
2.66667 0.416667 3.16667
2.58333 0.5 3.16667
2.66667 0.416667 3.08333
2.66667 0.416667 3
2.75 0.5 3.08333
2.75 0.416667 3.08333
2.75 0.416667 3
2.75 0.5 3
2.83333 0.5 3.08333
2.75 0.416667 3.16667
2.83333 0.416667 3.16667
2.75 0.5 3.16667
2.83333 0.416667 3.08333
2.83333 0.416667 3
2.91667 0.5 3.08333
2.91667 0.416667 3.08333
2.91667 0.416667 3
2.91667 0.5 3
3 0.5 3.08333
2.91667 0.416667 3.16667
3 0.416667 3.16667
2.91667 0.5 3.16667
3 0.416667 3.08333
3 0.416667 3
0 0.583333 3
0.0833333 0.666667 3.08333
0.0833333 0.583333 3.08333
0.0833333 0.583333 3
0.0833333 0.666667 3
0.166667 0.666667 3.08333
0.0833333 0.583333 3.16667
0.166667 0.583333 3.16667
0 0.666667 3.08333
0 0.583333 3.08333
0.0833333 0.666667 3.16667
0 0.583333 3.16667
0.166667 0.583333 3.08333
0.166667 0.583333 3
0.25 0.666667 3.08333
0.25 0.583333 3.08333
0.25 0.583333 3
0.25 0.666667 3
0.333333 0.666667 3.08333
0.25 0.583333 3.16667
0.333333 0.583333 3.16667
0.25 0.666667 3.16667
0.333333 0.583333 3.08333
0.333333 0.583333 3
0.416667 0.666667 3.08333
0.416667 0.583333 3.08333
0.416667 0.583333 3
0.416667 0.666667 3
0.5 0.666667 3.08333
0.416667 0.583333 3.16667
0.5 0.583333 3.16667
0.416667 0.666667 3.16667
0.5 0.583333 3.08333
0.5 0.583333 3
0.583333 0.666667 3.08333
0.583333 0.583333 3.08333
0.583333 0.583333 3
0.583333 0.666667 3
0.666667 0.666667 3.08333
0.583333 0.583333 3.16667
0.666667 0.583333 3.16667
0.583333 0.666667 3.16667
0.666667 0.583333 3.08333
0.666667 0.583333 3
0.75 0.666667 3.08333
0.75 0.583333 3.08333
0.75 0.583333 3
0.75 0.666667 3
0.833333 0.666667 3.08333
0.75 0.583333 3.16667
0.833333 0.583333 3.16667
0.75 0.666667 3.16667
0.833333 0.583333 3.08333
0.833333 0.583333 3
0.916667 0.666667 3.08333
0.916667 0.583333 3.08333
0.916667 0.583333 3
0.916667 0.666667 3
1 0.666667 3.08333
0.916667 0.583333 3.16667
1 0.583333 3.16667
0.916667 0.666667 3.16667
1 0.583333 3.08333
1 0.583333 3
1.08333 0.666667 3.08333
1.08333 0.583333 3.08333
1.08333 0.583333 3
1.08333 0.666667 3
1.16667 0.666667 3.08333
1.08333 0.583333 3.16667
1.16667 0.583333 3.16667
1.08333 0.666667 3.16667
1.16667 0.583333 3.08333
1.16667 0.583333 3
1.25 0.666667 3.08333
1.25 0.583333 3.08333
1.25 0.583333 3
1.25 0.666667 3
1.33333 0.666667 3.08333
1.25 0.583333 3.16667
1.33333 0.583333 3.16667
1.25 0.666667 3.16667
1.33333 0.583333 3.08333
1.33333 0.583333 3
1.41667 0.666667 3.08333
1.41667 0.583333 3.08333
1.41667 0.583333 3
1.41667 0.666667 3
1.5 0.666667 3.08333
1.41667 0.583333 3.16667
1.5 0.583333 3.16667
1.41667 0.666667 3.16667
1.5 0.583333 3.08333
1.5 0.583333 3
1.58333 0.666667 3.08333
1.58333 0.583333 3.08333
1.58333 0.583333 3
1.58333 0.666667 3
1.66667 0.666667 3.08333
1.58333 0.583333 3.16667
1.66667 0.583333 3.16667
1.58333 0.666667 3.16667
1.66667 0.583333 3.08333
1.66667 0.583333 3
1.75 0.666667 3.08333
1.75 0.583333 3.08333
1.75 0.583333 3
1.75 0.666667 3
1.83333 0.666667 3.08333
1.75 0.583333 3.16667
1.83333 0.583333 3.16667
1.75 0.666667 3.16667
1.83333 0.583333 3.08333
1.83333 0.583333 3
1.91667 0.666667 3.08333
1.91667 0.583333 3.08333
1.91667 0.583333 3
1.91667 0.666667 3
2 0.666667 3.08333
1.91667 0.583333 3.16667
2 0.583333 3.16667
1.91667 0.666667 3.16667
2 0.583333 3.08333
2 0.583333 3
2.08333 0.666667 3.08333
2.08333 0.583333 3.08333
2.08333 0.583333 3
2.08333 0.666667 3
2.16667 0.666667 3.08333
2.08333 0.583333 3.16667
2.16667 0.583333 3.16667
2.08333 0.666667 3.16667
2.16667 0.583333 3.08333
2.16667 0.583333 3
2.25 0.666667 3.08333
2.25 0.583333 3.08333
2.25 0.583333 3
2.25 0.666667 3
2.33333 0.666667 3.08333
2.25 0.583333 3.16667
2.33333 0.583333 3.16667
2.25 0.666667 3.16667
2.33333 0.583333 3.08333
2.33333 0.583333 3
2.41667 0.666667 3.08333
2.41667 0.583333 3.08333
2.41667 0.583333 3
2.41667 0.666667 3
2.5 0.666667 3.08333
2.41667 0.583333 3.16667
2.5 0.583333 3.16667
2.41667 0.666667 3.16667
2.5 0.583333 3.08333
2.5 0.583333 3
2.58333 0.666667 3.08333
2.58333 0.583333 3.08333
2.58333 0.583333 3
2.58333 0.666667 3
2.66667 0.666667 3.08333
2.58333 0.583333 3.16667
2.66667 0.583333 3.16667
2.58333 0.666667 3.16667
2.66667 0.583333 3.08333
2.66667 0.583333 3
2.75 0.666667 3.08333
2.75 0.583333 3.08333
2.75 0.583333 3
2.75 0.666667 3
2.83333 0.666667 3.08333
2.75 0.583333 3.16667
2.83333 0.583333 3.16667
2.75 0.666667 3.16667
2.83333 0.583333 3.08333
2.83333 0.583333 3
2.91667 0.666667 3.08333
2.91667 0.583333 3.08333
2.91667 0.583333 3
2.91667 0.666667 3
3 0.666667 3.08333
2.91667 0.583333 3.16667
3 0.583333 3.16667
2.91667 0.666667 3.16667
3 0.583333 3.08333
3 0.583333 3
0 0.75 3
0.0833333 0.833333 3.08333
0.0833333 0.75 3.08333
0.0833333 0.75 3
0.0833333 0.833333 3
0.166667 0.833333 3.08333
0.0833333 0.75 3.16667
0.166667 0.75 3.16667
0 0.833333 3.08333
0 0.75 3.08333
0.0833333 0.833333 3.16667
0 0.75 3.16667
0.166667 0.75 3.08333
0.166667 0.75 3
0.25 0.833333 3.08333
0.25 0.75 3.08333
0.25 0.75 3
0.25 0.833333 3
0.333333 0.833333 3.08333
0.25 0.75 3.16667
0.333333 0.75 3.16667
0.25 0.833333 3.16667
0.333333 0.75 3.08333
0.333333 0.75 3
0.416667 0.833333 3.08333
0.416667 0.75 3.08333
0.416667 0.75 3
0.416667 0.833333 3
0.5 0.833333 3.08333
0.416667 0.75 3.16667
0.5 0.75 3.16667
0.416667 0.833333 3.16667
0.5 0.75 3.08333
0.5 0.75 3
0.583333 0.833333 3.08333
0.583333 0.75 3.08333
0.583333 0.75 3
0.583333 0.833333 3
0.666667 0.833333 3.08333
0.583333 0.75 3.16667
0.666667 0.75 3.16667
0.583333 0.833333 3.16667
0.666667 0.75 3.08333
0.666667 0.75 3
0.75 0.833333 3.08333
0.75 0.75 3.08333
0.75 0.75 3
0.75 0.833333 3
0.833333 0.833333 3.08333
0.75 0.75 3.16667
0.833333 0.75 3.16667
0.75 0.833333 3.16667
0.833333 0.75 3.08333
0.833333 0.75 3
0.916667 0.833333 3.08333
0.916667 0.75 3.08333
0.916667 0.75 3
0.916667 0.833333 3
1 0.833333 3.08333
0.916667 0.75 3.16667
1 0.75 3.16667
0.916667 0.833333 3.16667
1 0.75 3.08333
1 0.75 3
1.08333 0.833333 3.08333
1.08333 0.75 3.08333
1.08333 0.75 3
1.08333 0.833333 3
1.16667 0.833333 3.08333
1.08333 0.75 3.16667
1.16667 0.75 3.16667
1.08333 0.833333 3.16667
1.16667 0.75 3.08333
1.16667 0.75 3
1.25 0.833333 3.08333
1.25 0.75 3.08333
1.25 0.75 3
1.25 0.833333 3
1.33333 0.833333 3.08333
1.25 0.75 3.16667
1.33333 0.75 3.16667
1.25 0.833333 3.16667
1.33333 0.75 3.08333
1.33333 0.75 3
1.41667 0.833333 3.08333
1.41667 0.75 3.08333
1.41667 0.75 3
1.41667 0.833333 3
1.5 0.833333 3.08333
1.41667 0.75 3.16667
1.5 0.75 3.16667
1.41667 0.833333 3.16667
1.5 0.75 3.08333
1.5 0.75 3
1.58333 0.833333 3.08333
1.58333 0.75 3.08333
1.58333 0.75 3
1.58333 0.833333 3
1.66667 0.833333 3.08333
1.58333 0.75 3.16667
1.66667 0.75 3.16667
1.58333 0.833333 3.16667
1.66667 0.75 3.08333
1.66667 0.75 3
1.75 0.833333 3.08333
1.75 0.75 3.08333
1.75 0.75 3
1.75 0.833333 3
1.83333 0.833333 3.08333
1.75 0.75 3.16667
1.83333 0.75 3.16667
1.75 0.833333 3.16667
1.83333 0.75 3.08333
1.83333 0.75 3
1.91667 0.833333 3.08333
1.91667 0.75 3.08333
1.91667 0.75 3
1.91667 0.833333 3
2 0.833333 3.08333
1.91667 0.75 3.16667
2 0.75 3.16667
1.91667 0.833333 3.16667
2 0.75 3.08333
2 0.75 3
2.08333 0.833333 3.08333
2.08333 0.75 3.08333
2.08333 0.75 3
2.08333 0.833333 3
2.16667 0.833333 3.08333
2.08333 0.75 3.16667
2.16667 0.75 3.16667
2.08333 0.833333 3.16667
2.16667 0.75 3.08333
2.16667 0.75 3
2.25 0.833333 3.08333
2.25 0.75 3.08333
2.25 0.75 3
2.25 0.833333 3
2.33333 0.833333 3.08333
2.25 0.75 3.16667
2.33333 0.75 3.16667
2.25 0.833333 3.16667
2.33333 0.75 3.08333
2.33333 0.75 3
2.41667 0.833333 3.08333
2.41667 0.75 3.08333
2.41667 0.75 3
2.41667 0.833333 3
2.5 0.833333 3.08333
2.41667 0.75 3.16667
2.5 0.75 3.16667
2.41667 0.833333 3.16667
2.5 0.75 3.08333
2.5 0.75 3
2.58333 0.833333 3.08333
2.58333 0.75 3.08333
2.58333 0.75 3
2.58333 0.833333 3
2.66667 0.833333 3.08333
2.58333 0.75 3.16667
2.66667 0.75 3.16667
2.58333 0.833333 3.16667
2.66667 0.75 3.08333
2.66667 0.75 3
2.75 0.833333 3.08333
2.75 0.75 3.08333
2.75 0.75 3
2.75 0.833333 3
2.83333 0.833333 3.08333
2.75 0.75 3.16667
2.83333 0.75 3.16667
2.75 0.833333 3.16667
2.83333 0.75 3.08333
2.83333 0.75 3
2.91667 0.833333 3.08333
2.91667 0.75 3.08333
2.91667 0.75 3
2.91667 0.833333 3
3 0.833333 3.08333
2.91667 0.75 3.16667
3 0.75 3.16667
2.91667 0.833333 3.16667
3 0.75 3.08333
3 0.75 3
0 0.916667 3
0.0833333 1 3.08333
0.0833333 0.916667 3.08333
0.0833333 0.916667 3
0.0833333 1 3
0.166667 1 3.08333
0.0833333 0.916667 3.16667
0.166667 0.916667 3.16667
0 1 3.08333
0 0.916667 3.08333
0.0833333 1 3.16667
0 0.916667 3.16667
0.166667 0.916667 3.08333
0.166667 0.916667 3
0.25 1 3.08333
0.25 0.916667 3.08333
0.25 0.916667 3
0.25 1 3
0.333333 1 3.08333
0.25 0.916667 3.16667
0.333333 0.916667 3.16667
0.25 1 3.16667
0.333333 0.916667 3.08333
0.333333 0.916667 3
0.416667 1 3.08333
0.416667 0.916667 3.08333
0.416667 0.916667 3
0.416667 1 3
0.5 1 3.08333
0.416667 0.916667 3.16667
0.5 0.916667 3.16667
0.416667 1 3.16667
0.5 0.916667 3.08333
0.5 0.916667 3
0.583333 1 3.08333
0.583333 0.916667 3.08333
0.583333 0.916667 3
0.583333 1 3
0.666667 1 3.08333
0.583333 0.916667 3.16667
0.666667 0.916667 3.16667
0.583333 1 3.16667
0.666667 0.916667 3.08333
0.666667 0.916667 3
0.75 1 3.08333
0.75 0.916667 3.08333
0.75 0.916667 3
0.75 1 3
0.833333 1 3.08333
0.75 0.916667 3.16667
0.833333 0.916667 3.16667
0.75 1 3.16667
0.833333 0.916667 3.08333
0.833333 0.916667 3
0.916667 1 3.08333
0.916667 0.916667 3.08333
0.916667 0.916667 3
0.916667 1 3
1 1 3.08333
0.916667 0.916667 3.16667
1 0.916667 3.16667
0.916667 1 3.16667
1 0.916667 3.08333
1 0.916667 3
1.08333 1 3.08333
1.08333 0.916667 3.08333
1.08333 0.916667 3
1.08333 1 3
1.16667 1 3.08333
1.08333 0.916667 3.16667
1.16667 0.916667 3.16667
1.08333 1 3.16667
1.16667 0.916667 3.08333
1.16667 0.916667 3
1.25 1 3.08333
1.25 0.916667 3.08333
1.25 0.916667 3
1.25 1 3
1.33333 1 3.08333
1.25 0.916667 3.16667
1.33333 0.916667 3.16667
1.25 1 3.16667
1.33333 0.916667 3.08333
1.33333 0.916667 3
1.41667 1 3.08333
1.41667 0.916667 3.08333
1.41667 0.916667 3
1.41667 1 3
1.5 1 3.08333
1.41667 0.916667 3.16667
1.5 0.916667 3.16667
1.41667 1 3.16667
1.5 0.916667 3.08333
1.5 0.916667 3
1.58333 1 3.08333
1.58333 0.916667 3.08333
1.58333 0.916667 3
1.58333 1 3
1.66667 1 3.08333
1.58333 0.916667 3.16667
1.66667 0.916667 3.16667
1.58333 1 3.16667
1.66667 0.916667 3.08333
1.66667 0.916667 3
1.75 1 3.08333
1.75 0.916667 3.08333
1.75 0.916667 3
1.75 1 3
1.83333 1 3.08333
1.75 0.916667 3.16667
1.83333 0.916667 3.16667
1.75 1 3.16667
1.83333 0.916667 3.08333
1.83333 0.916667 3
1.91667 1 3.08333
1.91667 0.916667 3.08333
1.91667 0.916667 3
1.91667 1 3
2 1 3.08333
1.91667 0.916667 3.16667
2 0.916667 3.16667
1.91667 1 3.16667
2 0.916667 3.08333
2 0.916667 3
2.08333 1 3.08333
2.08333 0.916667 3.08333
2.08333 0.916667 3
2.08333 1 3
2.16667 1 3.08333
2.08333 0.916667 3.16667
2.16667 0.916667 3.16667
2.08333 1 3.16667
2.16667 0.916667 3.08333
2.16667 0.916667 3
2.25 1 3.08333
2.25 0.916667 3.08333
2.25 0.916667 3
2.25 1 3
2.33333 1 3.08333
2.25 0.916667 3.16667
2.33333 0.916667 3.16667
2.25 1 3.16667
2.33333 0.916667 3.08333
2.33333 0.916667 3
2.41667 1 3.08333
2.41667 0.916667 3.08333
2.41667 0.916667 3
2.41667 1 3
2.5 1 3.08333
2.41667 0.916667 3.16667
2.5 0.916667 3.16667
2.41667 1 3.16667
2.5 0.916667 3.08333
2.5 0.916667 3
2.58333 1 3.08333
2.58333 0.916667 3.08333
2.58333 0.916667 3
2.58333 1 3
2.66667 1 3.08333
2.58333 0.916667 3.16667
2.66667 0.916667 3.16667
2.58333 1 3.16667
2.66667 0.916667 3.08333
2.66667 0.916667 3
2.75 1 3.08333
2.75 0.916667 3.08333
2.75 0.916667 3
2.75 1 3
2.83333 1 3.08333
2.75 0.916667 3.16667
2.83333 0.916667 3.16667
2.75 1 3.16667
2.83333 0.916667 3.08333
2.83333 0.916667 3
2.91667 1 3.08333
2.91667 0.916667 3.08333
2.91667 0.916667 3
2.91667 1 3
3 1 3.08333
2.91667 0.916667 3.16667
3 0.916667 3.16667
2.91667 1 3.16667
3 0.916667 3.08333
3 0.916667 3
0.0833333 0.166667 3.25
0.0833333 0.0833333 3.25
0.166667 0.166667 3.25
0.0833333 0.0833333 3.33333
0.166667 0.0833333 3.33333
0.0833333 0 3.33333
0 0 3.25
0.0833333 0 3.25
0 0.166667 3.25
0 0.0833333 3.25
0.0833333 0.166667 3.33333
0 0.0833333 3.33333
0.166667 0 3.25
0.166667 0.0833333 3.25
0.25 0.166667 3.25
0.25 0.0833333 3.25
0.333333 0.166667 3.25
0.25 0.0833333 3.33333
0.333333 0.0833333 3.33333
0.25 0 3.33333
0.25 0 3.25
0.25 0.166667 3.33333
0.333333 0 3.25
0.333333 0.0833333 3.25
0.416667 0.166667 3.25
0.416667 0.0833333 3.25
0.5 0.166667 3.25
0.416667 0.0833333 3.33333
0.5 0.0833333 3.33333
0.416667 0 3.33333
0.416667 0 3.25
0.416667 0.166667 3.33333
0.5 0 3.25
0.5 0.0833333 3.25
0.583333 0.166667 3.25
0.583333 0.0833333 3.25
0.666667 0.166667 3.25
0.583333 0.0833333 3.33333
0.666667 0.0833333 3.33333
0.583333 0 3.33333
0.583333 0 3.25
0.583333 0.166667 3.33333
0.666667 0 3.25
0.666667 0.0833333 3.25
0.75 0.166667 3.25
0.75 0.0833333 3.25
0.833333 0.166667 3.25
0.75 0.0833333 3.33333
0.833333 0.0833333 3.33333
0.75 0 3.33333
0.75 0 3.25
0.75 0.166667 3.33333
0.833333 0 3.25
0.833333 0.0833333 3.25
0.916667 0.166667 3.25
0.916667 0.0833333 3.25
1 0.166667 3.25
0.916667 0.0833333 3.33333
1 0.0833333 3.33333
0.916667 0 3.33333
0.916667 0 3.25
0.916667 0.166667 3.33333
1 0 3.25
1 0.0833333 3.25
1.08333 0.166667 3.25
1.08333 0.0833333 3.25
1.16667 0.166667 3.25
1.08333 0.0833333 3.33333
1.16667 0.0833333 3.33333
1.08333 0 3.33333
1.08333 0 3.25
1.08333 0.166667 3.33333
1.16667 0 3.25
1.16667 0.0833333 3.25
1.25 0.166667 3.25
1.25 0.0833333 3.25
1.33333 0.166667 3.25
1.25 0.0833333 3.33333
1.33333 0.0833333 3.33333
1.25 0 3.33333
1.25 0 3.25
1.25 0.166667 3.33333
1.33333 0 3.25
1.33333 0.0833333 3.25
1.41667 0.166667 3.25
1.41667 0.0833333 3.25
1.5 0.166667 3.25
1.41667 0.0833333 3.33333
1.5 0.0833333 3.33333
1.41667 0 3.33333
1.41667 0 3.25
1.41667 0.166667 3.33333
1.5 0 3.25
1.5 0.0833333 3.25
1.58333 0.166667 3.25
1.58333 0.0833333 3.25
1.66667 0.166667 3.25
1.58333 0.0833333 3.33333
1.66667 0.0833333 3.33333
1.58333 0 3.33333
1.58333 0 3.25
1.58333 0.166667 3.33333
1.66667 0 3.25
1.66667 0.0833333 3.25
1.75 0.166667 3.25
1.75 0.0833333 3.25
1.83333 0.166667 3.25
1.75 0.0833333 3.33333
1.83333 0.0833333 3.33333
1.75 0 3.33333
1.75 0 3.25
1.75 0.166667 3.33333
1.83333 0 3.25
1.83333 0.0833333 3.25
1.91667 0.166667 3.25
1.91667 0.0833333 3.25
2 0.166667 3.25
1.91667 0.0833333 3.33333
2 0.0833333 3.33333
1.91667 0 3.33333
1.91667 0 3.25
1.91667 0.166667 3.33333
2 0 3.25
2 0.0833333 3.25
2.08333 0.166667 3.25
2.08333 0.0833333 3.25
2.16667 0.166667 3.25
2.08333 0.0833333 3.33333
2.16667 0.0833333 3.33333
2.08333 0 3.33333
2.08333 0 3.25
2.08333 0.166667 3.33333
2.16667 0 3.25
2.16667 0.0833333 3.25
2.25 0.166667 3.25
2.25 0.0833333 3.25
2.33333 0.166667 3.25
2.25 0.0833333 3.33333
2.33333 0.0833333 3.33333
2.25 0 3.33333
2.25 0 3.25
2.25 0.166667 3.33333
2.33333 0 3.25
2.33333 0.0833333 3.25
2.41667 0.166667 3.25
2.41667 0.0833333 3.25
2.5 0.166667 3.25
2.41667 0.0833333 3.33333
2.5 0.0833333 3.33333
2.41667 0 3.33333
2.41667 0 3.25
2.41667 0.166667 3.33333
2.5 0 3.25
2.5 0.0833333 3.25
2.58333 0.166667 3.25
2.58333 0.0833333 3.25
2.66667 0.166667 3.25
2.58333 0.0833333 3.33333
2.66667 0.0833333 3.33333
2.58333 0 3.33333
2.58333 0 3.25
2.58333 0.166667 3.33333
2.66667 0 3.25
2.66667 0.0833333 3.25
2.75 0.166667 3.25
2.75 0.0833333 3.25
2.83333 0.166667 3.25
2.75 0.0833333 3.33333
2.83333 0.0833333 3.33333
2.75 0 3.33333
2.75 0 3.25
2.75 0.166667 3.33333
2.83333 0 3.25
2.83333 0.0833333 3.25
2.91667 0.166667 3.25
2.91667 0.0833333 3.25
3 0.166667 3.25
2.91667 0.0833333 3.33333
3 0.0833333 3.33333
2.91667 0 3.33333
2.91667 0 3.25
2.91667 0.166667 3.33333
3 0 3.25
3 0.0833333 3.25
0.0833333 0.333333 3.25
0.0833333 0.25 3.25
0.166667 0.333333 3.25
0.0833333 0.25 3.33333
0.166667 0.25 3.33333
0 0.333333 3.25
0 0.25 3.25
0.0833333 0.333333 3.33333
0 0.25 3.33333
0.166667 0.25 3.25
0.25 0.333333 3.25
0.25 0.25 3.25
0.333333 0.333333 3.25
0.25 0.25 3.33333
0.333333 0.25 3.33333
0.25 0.333333 3.33333
0.333333 0.25 3.25
0.416667 0.333333 3.25
0.416667 0.25 3.25
0.5 0.333333 3.25
0.416667 0.25 3.33333
0.5 0.25 3.33333
0.416667 0.333333 3.33333
0.5 0.25 3.25
0.583333 0.333333 3.25
0.583333 0.25 3.25
0.666667 0.333333 3.25
0.583333 0.25 3.33333
0.666667 0.25 3.33333
0.583333 0.333333 3.33333
0.666667 0.25 3.25
0.75 0.333333 3.25
0.75 0.25 3.25
0.833333 0.333333 3.25
0.75 0.25 3.33333
0.833333 0.25 3.33333
0.75 0.333333 3.33333
0.833333 0.25 3.25
0.916667 0.333333 3.25
0.916667 0.25 3.25
1 0.333333 3.25
0.916667 0.25 3.33333
1 0.25 3.33333
0.916667 0.333333 3.33333
1 0.25 3.25
1.08333 0.333333 3.25
1.08333 0.25 3.25
1.16667 0.333333 3.25
1.08333 0.25 3.33333
1.16667 0.25 3.33333
1.08333 0.333333 3.33333
1.16667 0.25 3.25
1.25 0.333333 3.25
1.25 0.25 3.25
1.33333 0.333333 3.25
1.25 0.25 3.33333
1.33333 0.25 3.33333
1.25 0.333333 3.33333
1.33333 0.25 3.25
1.41667 0.333333 3.25
1.41667 0.25 3.25
1.5 0.333333 3.25
1.41667 0.25 3.33333
1.5 0.25 3.33333
1.41667 0.333333 3.33333
1.5 0.25 3.25
1.58333 0.333333 3.25
1.58333 0.25 3.25
1.66667 0.333333 3.25
1.58333 0.25 3.33333
1.66667 0.25 3.33333
1.58333 0.333333 3.33333
1.66667 0.25 3.25
1.75 0.333333 3.25
1.75 0.25 3.25
1.83333 0.333333 3.25
1.75 0.25 3.33333
1.83333 0.25 3.33333
1.75 0.333333 3.33333
1.83333 0.25 3.25
1.91667 0.333333 3.25
1.91667 0.25 3.25
2 0.333333 3.25
1.91667 0.25 3.33333
2 0.25 3.33333
1.91667 0.333333 3.33333
2 0.25 3.25
2.08333 0.333333 3.25
2.08333 0.25 3.25
2.16667 0.333333 3.25
2.08333 0.25 3.33333
2.16667 0.25 3.33333
2.08333 0.333333 3.33333
2.16667 0.25 3.25
2.25 0.333333 3.25
2.25 0.25 3.25
2.33333 0.333333 3.25
2.25 0.25 3.33333
2.33333 0.25 3.33333
2.25 0.333333 3.33333
2.33333 0.25 3.25
2.41667 0.333333 3.25
2.41667 0.25 3.25
2.5 0.333333 3.25
2.41667 0.25 3.33333
2.5 0.25 3.33333
2.41667 0.333333 3.33333
2.5 0.25 3.25
2.58333 0.333333 3.25
2.58333 0.25 3.25
2.66667 0.333333 3.25
2.58333 0.25 3.33333
2.66667 0.25 3.33333
2.58333 0.333333 3.33333
2.66667 0.25 3.25
2.75 0.333333 3.25
2.75 0.25 3.25
2.83333 0.333333 3.25
2.75 0.25 3.33333
2.83333 0.25 3.33333
2.75 0.333333 3.33333
2.83333 0.25 3.25
2.91667 0.333333 3.25
2.91667 0.25 3.25
3 0.333333 3.25
2.91667 0.25 3.33333
3 0.25 3.33333
2.91667 0.333333 3.33333
3 0.25 3.25
0.0833333 0.5 3.25
0.0833333 0.416667 3.25
0.166667 0.5 3.25
0.0833333 0.416667 3.33333
0.166667 0.416667 3.33333
0 0.5 3.25
0 0.416667 3.25
0.0833333 0.5 3.33333
0 0.416667 3.33333
0.166667 0.416667 3.25
0.25 0.5 3.25
0.25 0.416667 3.25
0.333333 0.5 3.25
0.25 0.416667 3.33333
0.333333 0.416667 3.33333
0.25 0.5 3.33333
0.333333 0.416667 3.25
0.416667 0.5 3.25
0.416667 0.416667 3.25
0.5 0.5 3.25
0.416667 0.416667 3.33333
0.5 0.416667 3.33333
0.416667 0.5 3.33333
0.5 0.416667 3.25
0.583333 0.5 3.25
0.583333 0.416667 3.25
0.666667 0.5 3.25
0.583333 0.416667 3.33333
0.666667 0.416667 3.33333
0.583333 0.5 3.33333
0.666667 0.416667 3.25
0.75 0.5 3.25
0.75 0.416667 3.25
0.833333 0.5 3.25
0.75 0.416667 3.33333
0.833333 0.416667 3.33333
0.75 0.5 3.33333
0.833333 0.416667 3.25
0.916667 0.5 3.25
0.916667 0.416667 3.25
1 0.5 3.25
0.916667 0.416667 3.33333
1 0.416667 3.33333
0.916667 0.5 3.33333
1 0.416667 3.25
1.08333 0.5 3.25
1.08333 0.416667 3.25
1.16667 0.5 3.25
1.08333 0.416667 3.33333
1.16667 0.416667 3.33333
1.08333 0.5 3.33333
1.16667 0.416667 3.25
1.25 0.5 3.25
1.25 0.416667 3.25
1.33333 0.5 3.25
1.25 0.416667 3.33333
1.33333 0.416667 3.33333
1.25 0.5 3.33333
1.33333 0.416667 3.25
1.41667 0.5 3.25
1.41667 0.416667 3.25
1.5 0.5 3.25
1.41667 0.416667 3.33333
1.5 0.416667 3.33333
1.41667 0.5 3.33333
1.5 0.416667 3.25
1.58333 0.5 3.25
1.58333 0.416667 3.25
1.66667 0.5 3.25
1.58333 0.416667 3.33333
1.66667 0.416667 3.33333
1.58333 0.5 3.33333
1.66667 0.416667 3.25
1.75 0.5 3.25
1.75 0.416667 3.25
1.83333 0.5 3.25
1.75 0.416667 3.33333
1.83333 0.416667 3.33333
1.75 0.5 3.33333
1.83333 0.416667 3.25
1.91667 0.5 3.25
1.91667 0.416667 3.25
2 0.5 3.25
1.91667 0.416667 3.33333
2 0.416667 3.33333
1.91667 0.5 3.33333
2 0.416667 3.25
2.08333 0.5 3.25
2.08333 0.416667 3.25
2.16667 0.5 3.25
2.08333 0.416667 3.33333
2.16667 0.416667 3.33333
2.08333 0.5 3.33333
2.16667 0.416667 3.25
2.25 0.5 3.25
2.25 0.416667 3.25
2.33333 0.5 3.25
2.25 0.416667 3.33333
2.33333 0.416667 3.33333
2.25 0.5 3.33333
2.33333 0.416667 3.25
2.41667 0.5 3.25
2.41667 0.416667 3.25
2.5 0.5 3.25
2.41667 0.416667 3.33333
2.5 0.416667 3.33333
2.41667 0.5 3.33333
2.5 0.416667 3.25
2.58333 0.5 3.25
2.58333 0.416667 3.25
2.66667 0.5 3.25
2.58333 0.416667 3.33333
2.66667 0.416667 3.33333
2.58333 0.5 3.33333
2.66667 0.416667 3.25
2.75 0.5 3.25
2.75 0.416667 3.25
2.83333 0.5 3.25
2.75 0.416667 3.33333
2.83333 0.416667 3.33333
2.75 0.5 3.33333
2.83333 0.416667 3.25
2.91667 0.5 3.25
2.91667 0.416667 3.25
3 0.5 3.25
2.91667 0.416667 3.33333
3 0.416667 3.33333
2.91667 0.5 3.33333
3 0.416667 3.25
0.0833333 0.666667 3.25
0.0833333 0.583333 3.25
0.166667 0.666667 3.25
0.0833333 0.583333 3.33333
0.166667 0.583333 3.33333
0 0.666667 3.25
0 0.583333 3.25
0.0833333 0.666667 3.33333
0 0.583333 3.33333
0.166667 0.583333 3.25
0.25 0.666667 3.25
0.25 0.583333 3.25
0.333333 0.666667 3.25
0.25 0.583333 3.33333
0.333333 0.583333 3.33333
0.25 0.666667 3.33333
0.333333 0.583333 3.25
0.416667 0.666667 3.25
0.416667 0.583333 3.25
0.5 0.666667 3.25
0.416667 0.583333 3.33333
0.5 0.583333 3.33333
0.416667 0.666667 3.33333
0.5 0.583333 3.25
0.583333 0.666667 3.25
0.583333 0.583333 3.25
0.666667 0.666667 3.25
0.583333 0.583333 3.33333
0.666667 0.583333 3.33333
0.583333 0.666667 3.33333
0.666667 0.583333 3.25
0.75 0.666667 3.25
0.75 0.583333 3.25
0.833333 0.666667 3.25
0.75 0.583333 3.33333
0.833333 0.583333 3.33333
0.75 0.666667 3.33333
0.833333 0.583333 3.25
0.916667 0.666667 3.25
0.916667 0.583333 3.25
1 0.666667 3.25
0.916667 0.583333 3.33333
1 0.583333 3.33333
0.916667 0.666667 3.33333
1 0.583333 3.25
1.08333 0.666667 3.25
1.08333 0.583333 3.25
1.16667 0.666667 3.25
1.08333 0.583333 3.33333
1.16667 0.583333 3.33333
1.08333 0.666667 3.33333
1.16667 0.583333 3.25
1.25 0.666667 3.25
1.25 0.583333 3.25
1.33333 0.666667 3.25
1.25 0.583333 3.33333
1.33333 0.583333 3.33333
1.25 0.666667 3.33333
1.33333 0.583333 3.25
1.41667 0.666667 3.25
1.41667 0.583333 3.25
1.5 0.666667 3.25
1.41667 0.583333 3.33333
1.5 0.583333 3.33333
1.41667 0.666667 3.33333
1.5 0.583333 3.25
1.58333 0.666667 3.25
1.58333 0.583333 3.25
1.66667 0.666667 3.25
1.58333 0.583333 3.33333
1.66667 0.583333 3.33333
1.58333 0.666667 3.33333
1.66667 0.583333 3.25
1.75 0.666667 3.25
1.75 0.583333 3.25
1.83333 0.666667 3.25
1.75 0.583333 3.33333
1.83333 0.583333 3.33333
1.75 0.666667 3.33333
1.83333 0.583333 3.25
1.91667 0.666667 3.25
1.91667 0.583333 3.25
2 0.666667 3.25
1.91667 0.583333 3.33333
2 0.583333 3.33333
1.91667 0.666667 3.33333
2 0.583333 3.25
2.08333 0.666667 3.25
2.08333 0.583333 3.25
2.16667 0.666667 3.25
2.08333 0.583333 3.33333
2.16667 0.583333 3.33333
2.08333 0.666667 3.33333
2.16667 0.583333 3.25
2.25 0.666667 3.25
2.25 0.583333 3.25
2.33333 0.666667 3.25
2.25 0.583333 3.33333
2.33333 0.583333 3.33333
2.25 0.666667 3.33333
2.33333 0.583333 3.25
2.41667 0.666667 3.25
2.41667 0.583333 3.25
2.5 0.666667 3.25
2.41667 0.583333 3.33333
2.5 0.583333 3.33333
2.41667 0.666667 3.33333
2.5 0.583333 3.25
2.58333 0.666667 3.25
2.58333 0.583333 3.25
2.66667 0.666667 3.25
2.58333 0.583333 3.33333
2.66667 0.583333 3.33333
2.58333 0.666667 3.33333
2.66667 0.583333 3.25
2.75 0.666667 3.25
2.75 0.583333 3.25
2.83333 0.666667 3.25
2.75 0.583333 3.33333
2.83333 0.583333 3.33333
2.75 0.666667 3.33333
2.83333 0.583333 3.25
2.91667 0.666667 3.25
2.91667 0.583333 3.25
3 0.666667 3.25
2.91667 0.583333 3.33333
3 0.583333 3.33333
2.91667 0.666667 3.33333
3 0.583333 3.25
0.0833333 0.833333 3.25
0.0833333 0.75 3.25
0.166667 0.833333 3.25
0.0833333 0.75 3.33333
0.166667 0.75 3.33333
0 0.833333 3.25
0 0.75 3.25
0.0833333 0.833333 3.33333
0 0.75 3.33333
0.166667 0.75 3.25
0.25 0.833333 3.25
0.25 0.75 3.25
0.333333 0.833333 3.25
0.25 0.75 3.33333
0.333333 0.75 3.33333
0.25 0.833333 3.33333
0.333333 0.75 3.25
0.416667 0.833333 3.25
0.416667 0.75 3.25
0.5 0.833333 3.25
0.416667 0.75 3.33333
0.5 0.75 3.33333
0.416667 0.833333 3.33333
0.5 0.75 3.25
0.583333 0.833333 3.25
0.583333 0.75 3.25
0.666667 0.833333 3.25
0.583333 0.75 3.33333
0.666667 0.75 3.33333
0.583333 0.833333 3.33333
0.666667 0.75 3.25
0.75 0.833333 3.25
0.75 0.75 3.25
0.833333 0.833333 3.25
0.75 0.75 3.33333
0.833333 0.75 3.33333
0.75 0.833333 3.33333
0.833333 0.75 3.25
0.916667 0.833333 3.25
0.916667 0.75 3.25
1 0.833333 3.25
0.916667 0.75 3.33333
1 0.75 3.33333
0.916667 0.833333 3.33333
1 0.75 3.25
1.08333 0.833333 3.25
1.08333 0.75 3.25
1.16667 0.833333 3.25
1.08333 0.75 3.33333
1.16667 0.75 3.33333
1.08333 0.833333 3.33333
1.16667 0.75 3.25
1.25 0.833333 3.25
1.25 0.75 3.25
1.33333 0.833333 3.25
1.25 0.75 3.33333
1.33333 0.75 3.33333
1.25 0.833333 3.33333
1.33333 0.75 3.25
1.41667 0.833333 3.25
1.41667 0.75 3.25
1.5 0.833333 3.25
1.41667 0.75 3.33333
1.5 0.75 3.33333
1.41667 0.833333 3.33333
1.5 0.75 3.25
1.58333 0.833333 3.25
1.58333 0.75 3.25
1.66667 0.833333 3.25
1.58333 0.75 3.33333
1.66667 0.75 3.33333
1.58333 0.833333 3.33333
1.66667 0.75 3.25
1.75 0.833333 3.25
1.75 0.75 3.25
1.83333 0.833333 3.25
1.75 0.75 3.33333
1.83333 0.75 3.33333
1.75 0.833333 3.33333
1.83333 0.75 3.25
1.91667 0.833333 3.25
1.91667 0.75 3.25
2 0.833333 3.25
1.91667 0.75 3.33333
2 0.75 3.33333
1.91667 0.833333 3.33333
2 0.75 3.25
2.08333 0.833333 3.25
2.08333 0.75 3.25
2.16667 0.833333 3.25
2.08333 0.75 3.33333
2.16667 0.75 3.33333
2.08333 0.833333 3.33333
2.16667 0.75 3.25
2.25 0.833333 3.25
2.25 0.75 3.25
2.33333 0.833333 3.25
2.25 0.75 3.33333
2.33333 0.75 3.33333
2.25 0.833333 3.33333
2.33333 0.75 3.25
2.41667 0.833333 3.25
2.41667 0.75 3.25
2.5 0.833333 3.25
2.41667 0.75 3.33333
2.5 0.75 3.33333
2.41667 0.833333 3.33333
2.5 0.75 3.25
2.58333 0.833333 3.25
2.58333 0.75 3.25
2.66667 0.833333 3.25
2.58333 0.75 3.33333
2.66667 0.75 3.33333
2.58333 0.833333 3.33333
2.66667 0.75 3.25
2.75 0.833333 3.25
2.75 0.75 3.25
2.83333 0.833333 3.25
2.75 0.75 3.33333
2.83333 0.75 3.33333
2.75 0.833333 3.33333
2.83333 0.75 3.25
2.91667 0.833333 3.25
2.91667 0.75 3.25
3 0.833333 3.25
2.91667 0.75 3.33333
3 0.75 3.33333
2.91667 0.833333 3.33333
3 0.75 3.25
0.0833333 1 3.25
0.0833333 0.916667 3.25
0.166667 1 3.25
0.0833333 0.916667 3.33333
0.166667 0.916667 3.33333
0 1 3.25
0 0.916667 3.25
0.0833333 1 3.33333
0 0.916667 3.33333
0.166667 0.916667 3.25
0.25 1 3.25
0.25 0.916667 3.25
0.333333 1 3.25
0.25 0.916667 3.33333
0.333333 0.916667 3.33333
0.25 1 3.33333
0.333333 0.916667 3.25
0.416667 1 3.25
0.416667 0.916667 3.25
0.5 1 3.25
0.416667 0.916667 3.33333
0.5 0.916667 3.33333
0.416667 1 3.33333
0.5 0.916667 3.25
0.583333 1 3.25
0.583333 0.916667 3.25
0.666667 1 3.25
0.583333 0.916667 3.33333
0.666667 0.916667 3.33333
0.583333 1 3.33333
0.666667 0.916667 3.25
0.75 1 3.25
0.75 0.916667 3.25
0.833333 1 3.25
0.75 0.916667 3.33333
0.833333 0.916667 3.33333
0.75 1 3.33333
0.833333 0.916667 3.25
0.916667 1 3.25
0.916667 0.916667 3.25
1 1 3.25
0.916667 0.916667 3.33333
1 0.916667 3.33333
0.916667 1 3.33333
1 0.916667 3.25
1.08333 1 3.25
1.08333 0.916667 3.25
1.16667 1 3.25
1.08333 0.916667 3.33333
1.16667 0.916667 3.33333
1.08333 1 3.33333
1.16667 0.916667 3.25
1.25 1 3.25
1.25 0.916667 3.25
1.33333 1 3.25
1.25 0.916667 3.33333
1.33333 0.916667 3.33333
1.25 1 3.33333
1.33333 0.916667 3.25
1.41667 1 3.25
1.41667 0.916667 3.25
1.5 1 3.25
1.41667 0.916667 3.33333
1.5 0.916667 3.33333
1.41667 1 3.33333
1.5 0.916667 3.25
1.58333 1 3.25
1.58333 0.916667 3.25
1.66667 1 3.25
1.58333 0.916667 3.33333
1.66667 0.916667 3.33333
1.58333 1 3.33333
1.66667 0.916667 3.25
1.75 1 3.25
1.75 0.916667 3.25
1.83333 1 3.25
1.75 0.916667 3.33333
1.83333 0.916667 3.33333
1.75 1 3.33333
1.83333 0.916667 3.25
1.91667 1 3.25
1.91667 0.916667 3.25
2 1 3.25
1.91667 0.916667 3.33333
2 0.916667 3.33333
1.91667 1 3.33333
2 0.916667 3.25
2.08333 1 3.25
2.08333 0.916667 3.25
2.16667 1 3.25
2.08333 0.916667 3.33333
2.16667 0.916667 3.33333
2.08333 1 3.33333
2.16667 0.916667 3.25
2.25 1 3.25
2.25 0.916667 3.25
2.33333 1 3.25
2.25 0.916667 3.33333
2.33333 0.916667 3.33333
2.25 1 3.33333
2.33333 0.916667 3.25
2.41667 1 3.25
2.41667 0.916667 3.25
2.5 1 3.25
2.41667 0.916667 3.33333
2.5 0.916667 3.33333
2.41667 1 3.33333
2.5 0.916667 3.25
2.58333 1 3.25
2.58333 0.916667 3.25
2.66667 1 3.25
2.58333 0.916667 3.33333
2.66667 0.916667 3.33333
2.58333 1 3.33333
2.66667 0.916667 3.25
2.75 1 3.25
2.75 0.916667 3.25
2.83333 1 3.25
2.75 0.916667 3.33333
2.83333 0.916667 3.33333
2.75 1 3.33333
2.83333 0.916667 3.25
2.91667 1 3.25
2.91667 0.916667 3.25
3 1 3.25
2.91667 0.916667 3.33333
3 0.916667 3.33333
2.91667 1 3.33333
3 0.916667 3.25
0.0833333 0.166667 3.41667
0.0833333 0.0833333 3.41667
0.166667 0.166667 3.41667
0.0833333 0.0833333 3.5
0.166667 0.0833333 3.5
0.0833333 0 3.5
0 0 3.41667
0.0833333 0 3.41667
0 0.166667 3.41667
0 0.0833333 3.41667
0.0833333 0.166667 3.5
0 0.0833333 3.5
0.166667 0 3.41667
0.166667 0.0833333 3.41667
0.25 0.166667 3.41667
0.25 0.0833333 3.41667
0.333333 0.166667 3.41667
0.25 0.0833333 3.5
0.333333 0.0833333 3.5
0.25 0 3.5
0.25 0 3.41667
0.25 0.166667 3.5
0.333333 0 3.41667
0.333333 0.0833333 3.41667
0.416667 0.166667 3.41667
0.416667 0.0833333 3.41667
0.5 0.166667 3.41667
0.416667 0.0833333 3.5
0.5 0.0833333 3.5
0.416667 0 3.5
0.416667 0 3.41667
0.416667 0.166667 3.5
0.5 0 3.41667
0.5 0.0833333 3.41667
0.583333 0.166667 3.41667
0.583333 0.0833333 3.41667
0.666667 0.166667 3.41667
0.583333 0.0833333 3.5
0.666667 0.0833333 3.5
0.583333 0 3.5
0.583333 0 3.41667
0.583333 0.166667 3.5
0.666667 0 3.41667
0.666667 0.0833333 3.41667
0.75 0.166667 3.41667
0.75 0.0833333 3.41667
0.833333 0.166667 3.41667
0.75 0.0833333 3.5
0.833333 0.0833333 3.5
0.75 0 3.5
0.75 0 3.41667
0.75 0.166667 3.5
0.833333 0 3.41667
0.833333 0.0833333 3.41667
0.916667 0.166667 3.41667
0.916667 0.0833333 3.41667
1 0.166667 3.41667
0.916667 0.0833333 3.5
1 0.0833333 3.5
0.916667 0 3.5
0.916667 0 3.41667
0.916667 0.166667 3.5
1 0 3.41667
1 0.0833333 3.41667
1.08333 0.166667 3.41667
1.08333 0.0833333 3.41667
1.16667 0.166667 3.41667
1.08333 0.0833333 3.5
1.16667 0.0833333 3.5
1.08333 0 3.5
1.08333 0 3.41667
1.08333 0.166667 3.5
1.16667 0 3.41667
1.16667 0.0833333 3.41667
1.25 0.166667 3.41667
1.25 0.0833333 3.41667
1.33333 0.166667 3.41667
1.25 0.0833333 3.5
1.33333 0.0833333 3.5
1.25 0 3.5
1.25 0 3.41667
1.25 0.166667 3.5
1.33333 0 3.41667
1.33333 0.0833333 3.41667
1.41667 0.166667 3.41667
1.41667 0.0833333 3.41667
1.5 0.166667 3.41667
1.41667 0.0833333 3.5
1.5 0.0833333 3.5
1.41667 0 3.5
1.41667 0 3.41667
1.41667 0.166667 3.5
1.5 0 3.41667
1.5 0.0833333 3.41667
1.58333 0.166667 3.41667
1.58333 0.0833333 3.41667
1.66667 0.166667 3.41667
1.58333 0.0833333 3.5
1.66667 0.0833333 3.5
1.58333 0 3.5
1.58333 0 3.41667
1.58333 0.166667 3.5
1.66667 0 3.41667
1.66667 0.0833333 3.41667
1.75 0.166667 3.41667
1.75 0.0833333 3.41667
1.83333 0.166667 3.41667
1.75 0.0833333 3.5
1.83333 0.0833333 3.5
1.75 0 3.5
1.75 0 3.41667
1.75 0.166667 3.5
1.83333 0 3.41667
1.83333 0.0833333 3.41667
1.91667 0.166667 3.41667
1.91667 0.0833333 3.41667
2 0.166667 3.41667
1.91667 0.0833333 3.5
2 0.0833333 3.5
1.91667 0 3.5
1.91667 0 3.41667
1.91667 0.166667 3.5
2 0 3.41667
2 0.0833333 3.41667
2.08333 0.166667 3.41667
2.08333 0.0833333 3.41667
2.16667 0.166667 3.41667
2.08333 0.0833333 3.5
2.16667 0.0833333 3.5
2.08333 0 3.5
2.08333 0 3.41667
2.08333 0.166667 3.5
2.16667 0 3.41667
2.16667 0.0833333 3.41667
2.25 0.166667 3.41667
2.25 0.0833333 3.41667
2.33333 0.166667 3.41667
2.25 0.0833333 3.5
2.33333 0.0833333 3.5
2.25 0 3.5
2.25 0 3.41667
2.25 0.166667 3.5
2.33333 0 3.41667
2.33333 0.0833333 3.41667
2.41667 0.166667 3.41667
2.41667 0.0833333 3.41667
2.5 0.166667 3.41667
2.41667 0.0833333 3.5
2.5 0.0833333 3.5
2.41667 0 3.5
2.41667 0 3.41667
2.41667 0.166667 3.5
2.5 0 3.41667
2.5 0.0833333 3.41667
2.58333 0.166667 3.41667
2.58333 0.0833333 3.41667
2.66667 0.166667 3.41667
2.58333 0.0833333 3.5
2.66667 0.0833333 3.5
2.58333 0 3.5
2.58333 0 3.41667
2.58333 0.166667 3.5
2.66667 0 3.41667
2.66667 0.0833333 3.41667
2.75 0.166667 3.41667
2.75 0.0833333 3.41667
2.83333 0.166667 3.41667
2.75 0.0833333 3.5
2.83333 0.0833333 3.5
2.75 0 3.5
2.75 0 3.41667
2.75 0.166667 3.5
2.83333 0 3.41667
2.83333 0.0833333 3.41667
2.91667 0.166667 3.41667
2.91667 0.0833333 3.41667
3 0.166667 3.41667
2.91667 0.0833333 3.5
3 0.0833333 3.5
2.91667 0 3.5
2.91667 0 3.41667
2.91667 0.166667 3.5
3 0 3.41667
3 0.0833333 3.41667
0.0833333 0.333333 3.41667
0.0833333 0.25 3.41667
0.166667 0.333333 3.41667
0.0833333 0.25 3.5
0.166667 0.25 3.5
0 0.333333 3.41667
0 0.25 3.41667
0.0833333 0.333333 3.5
0 0.25 3.5
0.166667 0.25 3.41667
0.25 0.333333 3.41667
0.25 0.25 3.41667
0.333333 0.333333 3.41667
0.25 0.25 3.5
0.333333 0.25 3.5
0.25 0.333333 3.5
0.333333 0.25 3.41667
0.416667 0.333333 3.41667
0.416667 0.25 3.41667
0.5 0.333333 3.41667
0.416667 0.25 3.5
0.5 0.25 3.5
0.416667 0.333333 3.5
0.5 0.25 3.41667
0.583333 0.333333 3.41667
0.583333 0.25 3.41667
0.666667 0.333333 3.41667
0.583333 0.25 3.5
0.666667 0.25 3.5
0.583333 0.333333 3.5
0.666667 0.25 3.41667
0.75 0.333333 3.41667
0.75 0.25 3.41667
0.833333 0.333333 3.41667
0.75 0.25 3.5
0.833333 0.25 3.5
0.75 0.333333 3.5
0.833333 0.25 3.41667
0.916667 0.333333 3.41667
0.916667 0.25 3.41667
1 0.333333 3.41667
0.916667 0.25 3.5
1 0.25 3.5
0.916667 0.333333 3.5
1 0.25 3.41667
1.08333 0.333333 3.41667
1.08333 0.25 3.41667
1.16667 0.333333 3.41667
1.08333 0.25 3.5
1.16667 0.25 3.5
1.08333 0.333333 3.5
1.16667 0.25 3.41667
1.25 0.333333 3.41667
1.25 0.25 3.41667
1.33333 0.333333 3.41667
1.25 0.25 3.5
1.33333 0.25 3.5
1.25 0.333333 3.5
1.33333 0.25 3.41667
1.41667 0.333333 3.41667
1.41667 0.25 3.41667
1.5 0.333333 3.41667
1.41667 0.25 3.5
1.5 0.25 3.5
1.41667 0.333333 3.5
1.5 0.25 3.41667
1.58333 0.333333 3.41667
1.58333 0.25 3.41667
1.66667 0.333333 3.41667
1.58333 0.25 3.5
1.66667 0.25 3.5
1.58333 0.333333 3.5
1.66667 0.25 3.41667
1.75 0.333333 3.41667
1.75 0.25 3.41667
1.83333 0.333333 3.41667
1.75 0.25 3.5
1.83333 0.25 3.5
1.75 0.333333 3.5
1.83333 0.25 3.41667
1.91667 0.333333 3.41667
1.91667 0.25 3.41667
2 0.333333 3.41667
1.91667 0.25 3.5
2 0.25 3.5
1.91667 0.333333 3.5
2 0.25 3.41667
2.08333 0.333333 3.41667
2.08333 0.25 3.41667
2.16667 0.333333 3.41667
2.08333 0.25 3.5
2.16667 0.25 3.5
2.08333 0.333333 3.5
2.16667 0.25 3.41667
2.25 0.333333 3.41667
2.25 0.25 3.41667
2.33333 0.333333 3.41667
2.25 0.25 3.5
2.33333 0.25 3.5
2.25 0.333333 3.5
2.33333 0.25 3.41667
2.41667 0.333333 3.41667
2.41667 0.25 3.41667
2.5 0.333333 3.41667
2.41667 0.25 3.5
2.5 0.25 3.5
2.41667 0.333333 3.5
2.5 0.25 3.41667
2.58333 0.333333 3.41667
2.58333 0.25 3.41667
2.66667 0.333333 3.41667
2.58333 0.25 3.5
2.66667 0.25 3.5
2.58333 0.333333 3.5
2.66667 0.25 3.41667
2.75 0.333333 3.41667
2.75 0.25 3.41667
2.83333 0.333333 3.41667
2.75 0.25 3.5
2.83333 0.25 3.5
2.75 0.333333 3.5
2.83333 0.25 3.41667
2.91667 0.333333 3.41667
2.91667 0.25 3.41667
3 0.333333 3.41667
2.91667 0.25 3.5
3 0.25 3.5
2.91667 0.333333 3.5
3 0.25 3.41667
0.0833333 0.5 3.41667
0.0833333 0.416667 3.41667
0.166667 0.5 3.41667
0.0833333 0.416667 3.5
0.166667 0.416667 3.5
0 0.5 3.41667
0 0.416667 3.41667
0.0833333 0.5 3.5
0 0.416667 3.5
0.166667 0.416667 3.41667
0.25 0.5 3.41667
0.25 0.416667 3.41667
0.333333 0.5 3.41667
0.25 0.416667 3.5
0.333333 0.416667 3.5
0.25 0.5 3.5
0.333333 0.416667 3.41667
0.416667 0.5 3.41667
0.416667 0.416667 3.41667
0.5 0.5 3.41667
0.416667 0.416667 3.5
0.5 0.416667 3.5
0.416667 0.5 3.5
0.5 0.416667 3.41667
0.583333 0.5 3.41667
0.583333 0.416667 3.41667
0.666667 0.5 3.41667
0.583333 0.416667 3.5
0.666667 0.416667 3.5
0.583333 0.5 3.5
0.666667 0.416667 3.41667
0.75 0.5 3.41667
0.75 0.416667 3.41667
0.833333 0.5 3.41667
0.75 0.416667 3.5
0.833333 0.416667 3.5
0.75 0.5 3.5
0.833333 0.416667 3.41667
0.916667 0.5 3.41667
0.916667 0.416667 3.41667
1 0.5 3.41667
0.916667 0.416667 3.5
1 0.416667 3.5
0.916667 0.5 3.5
1 0.416667 3.41667
1.08333 0.5 3.41667
1.08333 0.416667 3.41667
1.16667 0.5 3.41667
1.08333 0.416667 3.5
1.16667 0.416667 3.5
1.08333 0.5 3.5
1.16667 0.416667 3.41667
1.25 0.5 3.41667
1.25 0.416667 3.41667
1.33333 0.5 3.41667
1.25 0.416667 3.5
1.33333 0.416667 3.5
1.25 0.5 3.5
1.33333 0.416667 3.41667
1.41667 0.5 3.41667
1.41667 0.416667 3.41667
1.5 0.5 3.41667
1.41667 0.416667 3.5
1.5 0.416667 3.5
1.41667 0.5 3.5
1.5 0.416667 3.41667
1.58333 0.5 3.41667
1.58333 0.416667 3.41667
1.66667 0.5 3.41667
1.58333 0.416667 3.5
1.66667 0.416667 3.5
1.58333 0.5 3.5
1.66667 0.416667 3.41667
1.75 0.5 3.41667
1.75 0.416667 3.41667
1.83333 0.5 3.41667
1.75 0.416667 3.5
1.83333 0.416667 3.5
1.75 0.5 3.5
1.83333 0.416667 3.41667
1.91667 0.5 3.41667
1.91667 0.416667 3.41667
2 0.5 3.41667
1.91667 0.416667 3.5
2 0.416667 3.5
1.91667 0.5 3.5
2 0.416667 3.41667
2.08333 0.5 3.41667
2.08333 0.416667 3.41667
2.16667 0.5 3.41667
2.08333 0.416667 3.5
2.16667 0.416667 3.5
2.08333 0.5 3.5
2.16667 0.416667 3.41667
2.25 0.5 3.41667
2.25 0.416667 3.41667
2.33333 0.5 3.41667
2.25 0.416667 3.5
2.33333 0.416667 3.5
2.25 0.5 3.5
2.33333 0.416667 3.41667
2.41667 0.5 3.41667
2.41667 0.416667 3.41667
2.5 0.5 3.41667
2.41667 0.416667 3.5
2.5 0.416667 3.5
2.41667 0.5 3.5
2.5 0.416667 3.41667
2.58333 0.5 3.41667
2.58333 0.416667 3.41667
2.66667 0.5 3.41667
2.58333 0.416667 3.5
2.66667 0.416667 3.5
2.58333 0.5 3.5
2.66667 0.416667 3.41667
2.75 0.5 3.41667
2.75 0.416667 3.41667
2.83333 0.5 3.41667
2.75 0.416667 3.5
2.83333 0.416667 3.5
2.75 0.5 3.5
2.83333 0.416667 3.41667
2.91667 0.5 3.41667
2.91667 0.416667 3.41667
3 0.5 3.41667
2.91667 0.416667 3.5
3 0.416667 3.5
2.91667 0.5 3.5
3 0.416667 3.41667
0.0833333 0.666667 3.41667
0.0833333 0.583333 3.41667
0.166667 0.666667 3.41667
0.0833333 0.583333 3.5
0.166667 0.583333 3.5
0 0.666667 3.41667
0 0.583333 3.41667
0.0833333 0.666667 3.5
0 0.583333 3.5
0.166667 0.583333 3.41667
0.25 0.666667 3.41667
0.25 0.583333 3.41667
0.333333 0.666667 3.41667
0.25 0.583333 3.5
0.333333 0.583333 3.5
0.25 0.666667 3.5
0.333333 0.583333 3.41667
0.416667 0.666667 3.41667
0.416667 0.583333 3.41667
0.5 0.666667 3.41667
0.416667 0.583333 3.5
0.5 0.583333 3.5
0.416667 0.666667 3.5
0.5 0.583333 3.41667
0.583333 0.666667 3.41667
0.583333 0.583333 3.41667
0.666667 0.666667 3.41667
0.583333 0.583333 3.5
0.666667 0.583333 3.5
0.583333 0.666667 3.5
0.666667 0.583333 3.41667
0.75 0.666667 3.41667
0.75 0.583333 3.41667
0.833333 0.666667 3.41667
0.75 0.583333 3.5
0.833333 0.583333 3.5
0.75 0.666667 3.5
0.833333 0.583333 3.41667
0.916667 0.666667 3.41667
0.916667 0.583333 3.41667
1 0.666667 3.41667
0.916667 0.583333 3.5
1 0.583333 3.5
0.916667 0.666667 3.5
1 0.583333 3.41667
1.08333 0.666667 3.41667
1.08333 0.583333 3.41667
1.16667 0.666667 3.41667
1.08333 0.583333 3.5
1.16667 0.583333 3.5
1.08333 0.666667 3.5
1.16667 0.583333 3.41667
1.25 0.666667 3.41667
1.25 0.583333 3.41667
1.33333 0.666667 3.41667
1.25 0.583333 3.5
1.33333 0.583333 3.5
1.25 0.666667 3.5
1.33333 0.583333 3.41667
1.41667 0.666667 3.41667
1.41667 0.583333 3.41667
1.5 0.666667 3.41667
1.41667 0.583333 3.5
1.5 0.583333 3.5
1.41667 0.666667 3.5
1.5 0.583333 3.41667
1.58333 0.666667 3.41667
1.58333 0.583333 3.41667
1.66667 0.666667 3.41667
1.58333 0.583333 3.5
1.66667 0.583333 3.5
1.58333 0.666667 3.5
1.66667 0.583333 3.41667
1.75 0.666667 3.41667
1.75 0.583333 3.41667
1.83333 0.666667 3.41667
1.75 0.583333 3.5
1.83333 0.583333 3.5
1.75 0.666667 3.5
1.83333 0.583333 3.41667
1.91667 0.666667 3.41667
1.91667 0.583333 3.41667
2 0.666667 3.41667
1.91667 0.583333 3.5
2 0.583333 3.5
1.91667 0.666667 3.5
2 0.583333 3.41667
2.08333 0.666667 3.41667
2.08333 0.583333 3.41667
2.16667 0.666667 3.41667
2.08333 0.583333 3.5
2.16667 0.583333 3.5
2.08333 0.666667 3.5
2.16667 0.583333 3.41667
2.25 0.666667 3.41667
2.25 0.583333 3.41667
2.33333 0.666667 3.41667
2.25 0.583333 3.5
2.33333 0.583333 3.5
2.25 0.666667 3.5
2.33333 0.583333 3.41667
2.41667 0.666667 3.41667
2.41667 0.583333 3.41667
2.5 0.666667 3.41667
2.41667 0.583333 3.5
2.5 0.583333 3.5
2.41667 0.666667 3.5
2.5 0.583333 3.41667
2.58333 0.666667 3.41667
2.58333 0.583333 3.41667
2.66667 0.666667 3.41667
2.58333 0.583333 3.5
2.66667 0.583333 3.5
2.58333 0.666667 3.5
2.66667 0.583333 3.41667
2.75 0.666667 3.41667
2.75 0.583333 3.41667
2.83333 0.666667 3.41667
2.75 0.583333 3.5
2.83333 0.583333 3.5
2.75 0.666667 3.5
2.83333 0.583333 3.41667
2.91667 0.666667 3.41667
2.91667 0.583333 3.41667
3 0.666667 3.41667
2.91667 0.583333 3.5
3 0.583333 3.5
2.91667 0.666667 3.5
3 0.583333 3.41667
0.0833333 0.833333 3.41667
0.0833333 0.75 3.41667
0.166667 0.833333 3.41667
0.0833333 0.75 3.5
0.166667 0.75 3.5
0 0.833333 3.41667
0 0.75 3.41667
0.0833333 0.833333 3.5
0 0.75 3.5
0.166667 0.75 3.41667
0.25 0.833333 3.41667
0.25 0.75 3.41667
0.333333 0.833333 3.41667
0.25 0.75 3.5
0.333333 0.75 3.5
0.25 0.833333 3.5
0.333333 0.75 3.41667
0.416667 0.833333 3.41667
0.416667 0.75 3.41667
0.5 0.833333 3.41667
0.416667 0.75 3.5
0.5 0.75 3.5
0.416667 0.833333 3.5
0.5 0.75 3.41667
0.583333 0.833333 3.41667
0.583333 0.75 3.41667
0.666667 0.833333 3.41667
0.583333 0.75 3.5
0.666667 0.75 3.5
0.583333 0.833333 3.5
0.666667 0.75 3.41667
0.75 0.833333 3.41667
0.75 0.75 3.41667
0.833333 0.833333 3.41667
0.75 0.75 3.5
0.833333 0.75 3.5
0.75 0.833333 3.5
0.833333 0.75 3.41667
0.916667 0.833333 3.41667
0.916667 0.75 3.41667
1 0.833333 3.41667
0.916667 0.75 3.5
1 0.75 3.5
0.916667 0.833333 3.5
1 0.75 3.41667
1.08333 0.833333 3.41667
1.08333 0.75 3.41667
1.16667 0.833333 3.41667
1.08333 0.75 3.5
1.16667 0.75 3.5
1.08333 0.833333 3.5
1.16667 0.75 3.41667
1.25 0.833333 3.41667
1.25 0.75 3.41667
1.33333 0.833333 3.41667
1.25 0.75 3.5
1.33333 0.75 3.5
1.25 0.833333 3.5
1.33333 0.75 3.41667
1.41667 0.833333 3.41667
1.41667 0.75 3.41667
1.5 0.833333 3.41667
1.41667 0.75 3.5
1.5 0.75 3.5
1.41667 0.833333 3.5
1.5 0.75 3.41667
1.58333 0.833333 3.41667
1.58333 0.75 3.41667
1.66667 0.833333 3.41667
1.58333 0.75 3.5
1.66667 0.75 3.5
1.58333 0.833333 3.5
1.66667 0.75 3.41667
1.75 0.833333 3.41667
1.75 0.75 3.41667
1.83333 0.833333 3.41667
1.75 0.75 3.5
1.83333 0.75 3.5
1.75 0.833333 3.5
1.83333 0.75 3.41667
1.91667 0.833333 3.41667
1.91667 0.75 3.41667
2 0.833333 3.41667
1.91667 0.75 3.5
2 0.75 3.5
1.91667 0.833333 3.5
2 0.75 3.41667
2.08333 0.833333 3.41667
2.08333 0.75 3.41667
2.16667 0.833333 3.41667
2.08333 0.75 3.5
2.16667 0.75 3.5
2.08333 0.833333 3.5
2.16667 0.75 3.41667
2.25 0.833333 3.41667
2.25 0.75 3.41667
2.33333 0.833333 3.41667
2.25 0.75 3.5
2.33333 0.75 3.5
2.25 0.833333 3.5
2.33333 0.75 3.41667
2.41667 0.833333 3.41667
2.41667 0.75 3.41667
2.5 0.833333 3.41667
2.41667 0.75 3.5
2.5 0.75 3.5
2.41667 0.833333 3.5
2.5 0.75 3.41667
2.58333 0.833333 3.41667
2.58333 0.75 3.41667
2.66667 0.833333 3.41667
2.58333 0.75 3.5
2.66667 0.75 3.5
2.58333 0.833333 3.5
2.66667 0.75 3.41667
2.75 0.833333 3.41667
2.75 0.75 3.41667
2.83333 0.833333 3.41667
2.75 0.75 3.5
2.83333 0.75 3.5
2.75 0.833333 3.5
2.83333 0.75 3.41667
2.91667 0.833333 3.41667
2.91667 0.75 3.41667
3 0.833333 3.41667
2.91667 0.75 3.5
3 0.75 3.5
2.91667 0.833333 3.5
3 0.75 3.41667
0.0833333 1 3.41667
0.0833333 0.916667 3.41667
0.166667 1 3.41667
0.0833333 0.916667 3.5
0.166667 0.916667 3.5
0 1 3.41667
0 0.916667 3.41667
0.0833333 1 3.5
0 0.916667 3.5
0.166667 0.916667 3.41667
0.25 1 3.41667
0.25 0.916667 3.41667
0.333333 1 3.41667
0.25 0.916667 3.5
0.333333 0.916667 3.5
0.25 1 3.5
0.333333 0.916667 3.41667
0.416667 1 3.41667
0.416667 0.916667 3.41667
0.5 1 3.41667
0.416667 0.916667 3.5
0.5 0.916667 3.5
0.416667 1 3.5
0.5 0.916667 3.41667
0.583333 1 3.41667
0.583333 0.916667 3.41667
0.666667 1 3.41667
0.583333 0.916667 3.5
0.666667 0.916667 3.5
0.583333 1 3.5
0.666667 0.916667 3.41667
0.75 1 3.41667
0.75 0.916667 3.41667
0.833333 1 3.41667
0.75 0.916667 3.5
0.833333 0.916667 3.5
0.75 1 3.5
0.833333 0.916667 3.41667
0.916667 1 3.41667
0.916667 0.916667 3.41667
1 1 3.41667
0.916667 0.916667 3.5
1 0.916667 3.5
0.916667 1 3.5
1 0.916667 3.41667
1.08333 1 3.41667
1.08333 0.916667 3.41667
1.16667 1 3.41667
1.08333 0.916667 3.5
1.16667 0.916667 3.5
1.08333 1 3.5
1.16667 0.916667 3.41667
1.25 1 3.41667
1.25 0.916667 3.41667
1.33333 1 3.41667
1.25 0.916667 3.5
1.33333 0.916667 3.5
1.25 1 3.5
1.33333 0.916667 3.41667
1.41667 1 3.41667
1.41667 0.916667 3.41667
1.5 1 3.41667
1.41667 0.916667 3.5
1.5 0.916667 3.5
1.41667 1 3.5
1.5 0.916667 3.41667
1.58333 1 3.41667
1.58333 0.916667 3.41667
1.66667 1 3.41667
1.58333 0.916667 3.5
1.66667 0.916667 3.5
1.58333 1 3.5
1.66667 0.916667 3.41667
1.75 1 3.41667
1.75 0.916667 3.41667
1.83333 1 3.41667
1.75 0.916667 3.5
1.83333 0.916667 3.5
1.75 1 3.5
1.83333 0.916667 3.41667
1.91667 1 3.41667
1.91667 0.916667 3.41667
2 1 3.41667
1.91667 0.916667 3.5
2 0.916667 3.5
1.91667 1 3.5
2 0.916667 3.41667
2.08333 1 3.41667
2.08333 0.916667 3.41667
2.16667 1 3.41667
2.08333 0.916667 3.5
2.16667 0.916667 3.5
2.08333 1 3.5
2.16667 0.916667 3.41667
2.25 1 3.41667
2.25 0.916667 3.41667
2.33333 1 3.41667
2.25 0.916667 3.5
2.33333 0.916667 3.5
2.25 1 3.5
2.33333 0.916667 3.41667
2.41667 1 3.41667
2.41667 0.916667 3.41667
2.5 1 3.41667
2.41667 0.916667 3.5
2.5 0.916667 3.5
2.41667 1 3.5
2.5 0.916667 3.41667
2.58333 1 3.41667
2.58333 0.916667 3.41667
2.66667 1 3.41667
2.58333 0.916667 3.5
2.66667 0.916667 3.5
2.58333 1 3.5
2.66667 0.916667 3.41667
2.75 1 3.41667
2.75 0.916667 3.41667
2.83333 1 3.41667
2.75 0.916667 3.5
2.83333 0.916667 3.5
2.75 1 3.5
2.83333 0.916667 3.41667
2.91667 1 3.41667
2.91667 0.916667 3.41667
3 1 3.41667
2.91667 0.916667 3.5
3 0.916667 3.5
2.91667 1 3.5
3 0.916667 3.41667
0.0833333 0.166667 3.58333
0.0833333 0.0833333 3.58333
0.166667 0.166667 3.58333
0.0833333 0.0833333 3.66667
0.166667 0.0833333 3.66667
0.0833333 0 3.66667
0 0 3.58333
0.0833333 0 3.58333
0 0.166667 3.58333
0 0.0833333 3.58333
0.0833333 0.166667 3.66667
0 0.0833333 3.66667
0.166667 0 3.58333
0.166667 0.0833333 3.58333
0.25 0.166667 3.58333
0.25 0.0833333 3.58333
0.333333 0.166667 3.58333
0.25 0.0833333 3.66667
0.333333 0.0833333 3.66667
0.25 0 3.66667
0.25 0 3.58333
0.25 0.166667 3.66667
0.333333 0 3.58333
0.333333 0.0833333 3.58333
0.416667 0.166667 3.58333
0.416667 0.0833333 3.58333
0.5 0.166667 3.58333
0.416667 0.0833333 3.66667
0.5 0.0833333 3.66667
0.416667 0 3.66667
0.416667 0 3.58333
0.416667 0.166667 3.66667
0.5 0 3.58333
0.5 0.0833333 3.58333
0.583333 0.166667 3.58333
0.583333 0.0833333 3.58333
0.666667 0.166667 3.58333
0.583333 0.0833333 3.66667
0.666667 0.0833333 3.66667
0.583333 0 3.66667
0.583333 0 3.58333
0.583333 0.166667 3.66667
0.666667 0 3.58333
0.666667 0.0833333 3.58333
0.75 0.166667 3.58333
0.75 0.0833333 3.58333
0.833333 0.166667 3.58333
0.75 0.0833333 3.66667
0.833333 0.0833333 3.66667
0.75 0 3.66667
0.75 0 3.58333
0.75 0.166667 3.66667
0.833333 0 3.58333
0.833333 0.0833333 3.58333
0.916667 0.166667 3.58333
0.916667 0.0833333 3.58333
1 0.166667 3.58333
0.916667 0.0833333 3.66667
1 0.0833333 3.66667
0.916667 0 3.66667
0.916667 0 3.58333
0.916667 0.166667 3.66667
1 0 3.58333
1 0.0833333 3.58333
1.08333 0.166667 3.58333
1.08333 0.0833333 3.58333
1.16667 0.166667 3.58333
1.08333 0.0833333 3.66667
1.16667 0.0833333 3.66667
1.08333 0 3.66667
1.08333 0 3.58333
1.08333 0.166667 3.66667
1.16667 0 3.58333
1.16667 0.0833333 3.58333
1.25 0.166667 3.58333
1.25 0.0833333 3.58333
1.33333 0.166667 3.58333
1.25 0.0833333 3.66667
1.33333 0.0833333 3.66667
1.25 0 3.66667
1.25 0 3.58333
1.25 0.166667 3.66667
1.33333 0 3.58333
1.33333 0.0833333 3.58333
1.41667 0.166667 3.58333
1.41667 0.0833333 3.58333
1.5 0.166667 3.58333
1.41667 0.0833333 3.66667
1.5 0.0833333 3.66667
1.41667 0 3.66667
1.41667 0 3.58333
1.41667 0.166667 3.66667
1.5 0 3.58333
1.5 0.0833333 3.58333
1.58333 0.166667 3.58333
1.58333 0.0833333 3.58333
1.66667 0.166667 3.58333
1.58333 0.0833333 3.66667
1.66667 0.0833333 3.66667
1.58333 0 3.66667
1.58333 0 3.58333
1.58333 0.166667 3.66667
1.66667 0 3.58333
1.66667 0.0833333 3.58333
1.75 0.166667 3.58333
1.75 0.0833333 3.58333
1.83333 0.166667 3.58333
1.75 0.0833333 3.66667
1.83333 0.0833333 3.66667
1.75 0 3.66667
1.75 0 3.58333
1.75 0.166667 3.66667
1.83333 0 3.58333
1.83333 0.0833333 3.58333
1.91667 0.166667 3.58333
1.91667 0.0833333 3.58333
2 0.166667 3.58333
1.91667 0.0833333 3.66667
2 0.0833333 3.66667
1.91667 0 3.66667
1.91667 0 3.58333
1.91667 0.166667 3.66667
2 0 3.58333
2 0.0833333 3.58333
2.08333 0.166667 3.58333
2.08333 0.0833333 3.58333
2.16667 0.166667 3.58333
2.08333 0.0833333 3.66667
2.16667 0.0833333 3.66667
2.08333 0 3.66667
2.08333 0 3.58333
2.08333 0.166667 3.66667
2.16667 0 3.58333
2.16667 0.0833333 3.58333
2.25 0.166667 3.58333
2.25 0.0833333 3.58333
2.33333 0.166667 3.58333
2.25 0.0833333 3.66667
2.33333 0.0833333 3.66667
2.25 0 3.66667
2.25 0 3.58333
2.25 0.166667 3.66667
2.33333 0 3.58333
2.33333 0.0833333 3.58333
2.41667 0.166667 3.58333
2.41667 0.0833333 3.58333
2.5 0.166667 3.58333
2.41667 0.0833333 3.66667
2.5 0.0833333 3.66667
2.41667 0 3.66667
2.41667 0 3.58333
2.41667 0.166667 3.66667
2.5 0 3.58333
2.5 0.0833333 3.58333
2.58333 0.166667 3.58333
2.58333 0.0833333 3.58333
2.66667 0.166667 3.58333
2.58333 0.0833333 3.66667
2.66667 0.0833333 3.66667
2.58333 0 3.66667
2.58333 0 3.58333
2.58333 0.166667 3.66667
2.66667 0 3.58333
2.66667 0.0833333 3.58333
2.75 0.166667 3.58333
2.75 0.0833333 3.58333
2.83333 0.166667 3.58333
2.75 0.0833333 3.66667
2.83333 0.0833333 3.66667
2.75 0 3.66667
2.75 0 3.58333
2.75 0.166667 3.66667
2.83333 0 3.58333
2.83333 0.0833333 3.58333
2.91667 0.166667 3.58333
2.91667 0.0833333 3.58333
3 0.166667 3.58333
2.91667 0.0833333 3.66667
3 0.0833333 3.66667
2.91667 0 3.66667
2.91667 0 3.58333
2.91667 0.166667 3.66667
3 0 3.58333
3 0.0833333 3.58333
0.0833333 0.333333 3.58333
0.0833333 0.25 3.58333
0.166667 0.333333 3.58333
0.0833333 0.25 3.66667
0.166667 0.25 3.66667
0 0.333333 3.58333
0 0.25 3.58333
0.0833333 0.333333 3.66667
0 0.25 3.66667
0.166667 0.25 3.58333
0.25 0.333333 3.58333
0.25 0.25 3.58333
0.333333 0.333333 3.58333
0.25 0.25 3.66667
0.333333 0.25 3.66667
0.25 0.333333 3.66667
0.333333 0.25 3.58333
0.416667 0.333333 3.58333
0.416667 0.25 3.58333
0.5 0.333333 3.58333
0.416667 0.25 3.66667
0.5 0.25 3.66667
0.416667 0.333333 3.66667
0.5 0.25 3.58333
0.583333 0.333333 3.58333
0.583333 0.25 3.58333
0.666667 0.333333 3.58333
0.583333 0.25 3.66667
0.666667 0.25 3.66667
0.583333 0.333333 3.66667
0.666667 0.25 3.58333
0.75 0.333333 3.58333
0.75 0.25 3.58333
0.833333 0.333333 3.58333
0.75 0.25 3.66667
0.833333 0.25 3.66667
0.75 0.333333 3.66667
0.833333 0.25 3.58333
0.916667 0.333333 3.58333
0.916667 0.25 3.58333
1 0.333333 3.58333
0.916667 0.25 3.66667
1 0.25 3.66667
0.916667 0.333333 3.66667
1 0.25 3.58333
1.08333 0.333333 3.58333
1.08333 0.25 3.58333
1.16667 0.333333 3.58333
1.08333 0.25 3.66667
1.16667 0.25 3.66667
1.08333 0.333333 3.66667
1.16667 0.25 3.58333
1.25 0.333333 3.58333
1.25 0.25 3.58333
1.33333 0.333333 3.58333
1.25 0.25 3.66667
1.33333 0.25 3.66667
1.25 0.333333 3.66667
1.33333 0.25 3.58333
1.41667 0.333333 3.58333
1.41667 0.25 3.58333
1.5 0.333333 3.58333
1.41667 0.25 3.66667
1.5 0.25 3.66667
1.41667 0.333333 3.66667
1.5 0.25 3.58333
1.58333 0.333333 3.58333
1.58333 0.25 3.58333
1.66667 0.333333 3.58333
1.58333 0.25 3.66667
1.66667 0.25 3.66667
1.58333 0.333333 3.66667
1.66667 0.25 3.58333
1.75 0.333333 3.58333
1.75 0.25 3.58333
1.83333 0.333333 3.58333
1.75 0.25 3.66667
1.83333 0.25 3.66667
1.75 0.333333 3.66667
1.83333 0.25 3.58333
1.91667 0.333333 3.58333
1.91667 0.25 3.58333
2 0.333333 3.58333
1.91667 0.25 3.66667
2 0.25 3.66667
1.91667 0.333333 3.66667
2 0.25 3.58333
2.08333 0.333333 3.58333
2.08333 0.25 3.58333
2.16667 0.333333 3.58333
2.08333 0.25 3.66667
2.16667 0.25 3.66667
2.08333 0.333333 3.66667
2.16667 0.25 3.58333
2.25 0.333333 3.58333
2.25 0.25 3.58333
2.33333 0.333333 3.58333
2.25 0.25 3.66667
2.33333 0.25 3.66667
2.25 0.333333 3.66667
2.33333 0.25 3.58333
2.41667 0.333333 3.58333
2.41667 0.25 3.58333
2.5 0.333333 3.58333
2.41667 0.25 3.66667
2.5 0.25 3.66667
2.41667 0.333333 3.66667
2.5 0.25 3.58333
2.58333 0.333333 3.58333
2.58333 0.25 3.58333
2.66667 0.333333 3.58333
2.58333 0.25 3.66667
2.66667 0.25 3.66667
2.58333 0.333333 3.66667
2.66667 0.25 3.58333
2.75 0.333333 3.58333
2.75 0.25 3.58333
2.83333 0.333333 3.58333
2.75 0.25 3.66667
2.83333 0.25 3.66667
2.75 0.333333 3.66667
2.83333 0.25 3.58333
2.91667 0.333333 3.58333
2.91667 0.25 3.58333
3 0.333333 3.58333
2.91667 0.25 3.66667
3 0.25 3.66667
2.91667 0.333333 3.66667
3 0.25 3.58333
0.0833333 0.5 3.58333
0.0833333 0.416667 3.58333
0.166667 0.5 3.58333
0.0833333 0.416667 3.66667
0.166667 0.416667 3.66667
0 0.5 3.58333
0 0.416667 3.58333
0.0833333 0.5 3.66667
0 0.416667 3.66667
0.166667 0.416667 3.58333
0.25 0.5 3.58333
0.25 0.416667 3.58333
0.333333 0.5 3.58333
0.25 0.416667 3.66667
0.333333 0.416667 3.66667
0.25 0.5 3.66667
0.333333 0.416667 3.58333
0.416667 0.5 3.58333
0.416667 0.416667 3.58333
0.5 0.5 3.58333
0.416667 0.416667 3.66667
0.5 0.416667 3.66667
0.416667 0.5 3.66667
0.5 0.416667 3.58333
0.583333 0.5 3.58333
0.583333 0.416667 3.58333
0.666667 0.5 3.58333
0.583333 0.416667 3.66667
0.666667 0.416667 3.66667
0.583333 0.5 3.66667
0.666667 0.416667 3.58333
0.75 0.5 3.58333
0.75 0.416667 3.58333
0.833333 0.5 3.58333
0.75 0.416667 3.66667
0.833333 0.416667 3.66667
0.75 0.5 3.66667
0.833333 0.416667 3.58333
0.916667 0.5 3.58333
0.916667 0.416667 3.58333
1 0.5 3.58333
0.916667 0.416667 3.66667
1 0.416667 3.66667
0.916667 0.5 3.66667
1 0.416667 3.58333
1.08333 0.5 3.58333
1.08333 0.416667 3.58333
1.16667 0.5 3.58333
1.08333 0.416667 3.66667
1.16667 0.416667 3.66667
1.08333 0.5 3.66667
1.16667 0.416667 3.58333
1.25 0.5 3.58333
1.25 0.416667 3.58333
1.33333 0.5 3.58333
1.25 0.416667 3.66667
1.33333 0.416667 3.66667
1.25 0.5 3.66667
1.33333 0.416667 3.58333
1.41667 0.5 3.58333
1.41667 0.416667 3.58333
1.5 0.5 3.58333
1.41667 0.416667 3.66667
1.5 0.416667 3.66667
1.41667 0.5 3.66667
1.5 0.416667 3.58333
1.58333 0.5 3.58333
1.58333 0.416667 3.58333
1.66667 0.5 3.58333
1.58333 0.416667 3.66667
1.66667 0.416667 3.66667
1.58333 0.5 3.66667
1.66667 0.416667 3.58333
1.75 0.5 3.58333
1.75 0.416667 3.58333
1.83333 0.5 3.58333
1.75 0.416667 3.66667
1.83333 0.416667 3.66667
1.75 0.5 3.66667
1.83333 0.416667 3.58333
1.91667 0.5 3.58333
1.91667 0.416667 3.58333
2 0.5 3.58333
1.91667 0.416667 3.66667
2 0.416667 3.66667
1.91667 0.5 3.66667
2 0.416667 3.58333
2.08333 0.5 3.58333
2.08333 0.416667 3.58333
2.16667 0.5 3.58333
2.08333 0.416667 3.66667
2.16667 0.416667 3.66667
2.08333 0.5 3.66667
2.16667 0.416667 3.58333
2.25 0.5 3.58333
2.25 0.416667 3.58333
2.33333 0.5 3.58333
2.25 0.416667 3.66667
2.33333 0.416667 3.66667
2.25 0.5 3.66667
2.33333 0.416667 3.58333
2.41667 0.5 3.58333
2.41667 0.416667 3.58333
2.5 0.5 3.58333
2.41667 0.416667 3.66667
2.5 0.416667 3.66667
2.41667 0.5 3.66667
2.5 0.416667 3.58333
2.58333 0.5 3.58333
2.58333 0.416667 3.58333
2.66667 0.5 3.58333
2.58333 0.416667 3.66667
2.66667 0.416667 3.66667
2.58333 0.5 3.66667
2.66667 0.416667 3.58333
2.75 0.5 3.58333
2.75 0.416667 3.58333
2.83333 0.5 3.58333
2.75 0.416667 3.66667
2.83333 0.416667 3.66667
2.75 0.5 3.66667
2.83333 0.416667 3.58333
2.91667 0.5 3.58333
2.91667 0.416667 3.58333
3 0.5 3.58333
2.91667 0.416667 3.66667
3 0.416667 3.66667
2.91667 0.5 3.66667
3 0.416667 3.58333
0.0833333 0.666667 3.58333
0.0833333 0.583333 3.58333
0.166667 0.666667 3.58333
0.0833333 0.583333 3.66667
0.166667 0.583333 3.66667
0 0.666667 3.58333
0 0.583333 3.58333
0.0833333 0.666667 3.66667
0 0.583333 3.66667
0.166667 0.583333 3.58333
0.25 0.666667 3.58333
0.25 0.583333 3.58333
0.333333 0.666667 3.58333
0.25 0.583333 3.66667
0.333333 0.583333 3.66667
0.25 0.666667 3.66667
0.333333 0.583333 3.58333
0.416667 0.666667 3.58333
0.416667 0.583333 3.58333
0.5 0.666667 3.58333
0.416667 0.583333 3.66667
0.5 0.583333 3.66667
0.416667 0.666667 3.66667
0.5 0.583333 3.58333
0.583333 0.666667 3.58333
0.583333 0.583333 3.58333
0.666667 0.666667 3.58333
0.583333 0.583333 3.66667
0.666667 0.583333 3.66667
0.583333 0.666667 3.66667
0.666667 0.583333 3.58333
0.75 0.666667 3.58333
0.75 0.583333 3.58333
0.833333 0.666667 3.58333
0.75 0.583333 3.66667
0.833333 0.583333 3.66667
0.75 0.666667 3.66667
0.833333 0.583333 3.58333
0.916667 0.666667 3.58333
0.916667 0.583333 3.58333
1 0.666667 3.58333
0.916667 0.583333 3.66667
1 0.583333 3.66667
0.916667 0.666667 3.66667
1 0.583333 3.58333
1.08333 0.666667 3.58333
1.08333 0.583333 3.58333
1.16667 0.666667 3.58333
1.08333 0.583333 3.66667
1.16667 0.583333 3.66667
1.08333 0.666667 3.66667
1.16667 0.583333 3.58333
1.25 0.666667 3.58333
1.25 0.583333 3.58333
1.33333 0.666667 3.58333
1.25 0.583333 3.66667
1.33333 0.583333 3.66667
1.25 0.666667 3.66667
1.33333 0.583333 3.58333
1.41667 0.666667 3.58333
1.41667 0.583333 3.58333
1.5 0.666667 3.58333
1.41667 0.583333 3.66667
1.5 0.583333 3.66667
1.41667 0.666667 3.66667
1.5 0.583333 3.58333
1.58333 0.666667 3.58333
1.58333 0.583333 3.58333
1.66667 0.666667 3.58333
1.58333 0.583333 3.66667
1.66667 0.583333 3.66667
1.58333 0.666667 3.66667
1.66667 0.583333 3.58333
1.75 0.666667 3.58333
1.75 0.583333 3.58333
1.83333 0.666667 3.58333
1.75 0.583333 3.66667
1.83333 0.583333 3.66667
1.75 0.666667 3.66667
1.83333 0.583333 3.58333
1.91667 0.666667 3.58333
1.91667 0.583333 3.58333
2 0.666667 3.58333
1.91667 0.583333 3.66667
2 0.583333 3.66667
1.91667 0.666667 3.66667
2 0.583333 3.58333
2.08333 0.666667 3.58333
2.08333 0.583333 3.58333
2.16667 0.666667 3.58333
2.08333 0.583333 3.66667
2.16667 0.583333 3.66667
2.08333 0.666667 3.66667
2.16667 0.583333 3.58333
2.25 0.666667 3.58333
2.25 0.583333 3.58333
2.33333 0.666667 3.58333
2.25 0.583333 3.66667
2.33333 0.583333 3.66667
2.25 0.666667 3.66667
2.33333 0.583333 3.58333
2.41667 0.666667 3.58333
2.41667 0.583333 3.58333
2.5 0.666667 3.58333
2.41667 0.583333 3.66667
2.5 0.583333 3.66667
2.41667 0.666667 3.66667
2.5 0.583333 3.58333
2.58333 0.666667 3.58333
2.58333 0.583333 3.58333
2.66667 0.666667 3.58333
2.58333 0.583333 3.66667
2.66667 0.583333 3.66667
2.58333 0.666667 3.66667
2.66667 0.583333 3.58333
2.75 0.666667 3.58333
2.75 0.583333 3.58333
2.83333 0.666667 3.58333
2.75 0.583333 3.66667
2.83333 0.583333 3.66667
2.75 0.666667 3.66667
2.83333 0.583333 3.58333
2.91667 0.666667 3.58333
2.91667 0.583333 3.58333
3 0.666667 3.58333
2.91667 0.583333 3.66667
3 0.583333 3.66667
2.91667 0.666667 3.66667
3 0.583333 3.58333
0.0833333 0.833333 3.58333
0.0833333 0.75 3.58333
0.166667 0.833333 3.58333
0.0833333 0.75 3.66667
0.166667 0.75 3.66667
0 0.833333 3.58333
0 0.75 3.58333
0.0833333 0.833333 3.66667
0 0.75 3.66667
0.166667 0.75 3.58333
0.25 0.833333 3.58333
0.25 0.75 3.58333
0.333333 0.833333 3.58333
0.25 0.75 3.66667
0.333333 0.75 3.66667
0.25 0.833333 3.66667
0.333333 0.75 3.58333
0.416667 0.833333 3.58333
0.416667 0.75 3.58333
0.5 0.833333 3.58333
0.416667 0.75 3.66667
0.5 0.75 3.66667
0.416667 0.833333 3.66667
0.5 0.75 3.58333
0.583333 0.833333 3.58333
0.583333 0.75 3.58333
0.666667 0.833333 3.58333
0.583333 0.75 3.66667
0.666667 0.75 3.66667
0.583333 0.833333 3.66667
0.666667 0.75 3.58333
0.75 0.833333 3.58333
0.75 0.75 3.58333
0.833333 0.833333 3.58333
0.75 0.75 3.66667
0.833333 0.75 3.66667
0.75 0.833333 3.66667
0.833333 0.75 3.58333
0.916667 0.833333 3.58333
0.916667 0.75 3.58333
1 0.833333 3.58333
0.916667 0.75 3.66667
1 0.75 3.66667
0.916667 0.833333 3.66667
1 0.75 3.58333
1.08333 0.833333 3.58333
1.08333 0.75 3.58333
1.16667 0.833333 3.58333
1.08333 0.75 3.66667
1.16667 0.75 3.66667
1.08333 0.833333 3.66667
1.16667 0.75 3.58333
1.25 0.833333 3.58333
1.25 0.75 3.58333
1.33333 0.833333 3.58333
1.25 0.75 3.66667
1.33333 0.75 3.66667
1.25 0.833333 3.66667
1.33333 0.75 3.58333
1.41667 0.833333 3.58333
1.41667 0.75 3.58333
1.5 0.833333 3.58333
1.41667 0.75 3.66667
1.5 0.75 3.66667
1.41667 0.833333 3.66667
1.5 0.75 3.58333
1.58333 0.833333 3.58333
1.58333 0.75 3.58333
1.66667 0.833333 3.58333
1.58333 0.75 3.66667
1.66667 0.75 3.66667
1.58333 0.833333 3.66667
1.66667 0.75 3.58333
1.75 0.833333 3.58333
1.75 0.75 3.58333
1.83333 0.833333 3.58333
1.75 0.75 3.66667
1.83333 0.75 3.66667
1.75 0.833333 3.66667
1.83333 0.75 3.58333
1.91667 0.833333 3.58333
1.91667 0.75 3.58333
2 0.833333 3.58333
1.91667 0.75 3.66667
2 0.75 3.66667
1.91667 0.833333 3.66667
2 0.75 3.58333
2.08333 0.833333 3.58333
2.08333 0.75 3.58333
2.16667 0.833333 3.58333
2.08333 0.75 3.66667
2.16667 0.75 3.66667
2.08333 0.833333 3.66667
2.16667 0.75 3.58333
2.25 0.833333 3.58333
2.25 0.75 3.58333
2.33333 0.833333 3.58333
2.25 0.75 3.66667
2.33333 0.75 3.66667
2.25 0.833333 3.66667
2.33333 0.75 3.58333
2.41667 0.833333 3.58333
2.41667 0.75 3.58333
2.5 0.833333 3.58333
2.41667 0.75 3.66667
2.5 0.75 3.66667
2.41667 0.833333 3.66667
2.5 0.75 3.58333
2.58333 0.833333 3.58333
2.58333 0.75 3.58333
2.66667 0.833333 3.58333
2.58333 0.75 3.66667
2.66667 0.75 3.66667
2.58333 0.833333 3.66667
2.66667 0.75 3.58333
2.75 0.833333 3.58333
2.75 0.75 3.58333
2.83333 0.833333 3.58333
2.75 0.75 3.66667
2.83333 0.75 3.66667
2.75 0.833333 3.66667
2.83333 0.75 3.58333
2.91667 0.833333 3.58333
2.91667 0.75 3.58333
3 0.833333 3.58333
2.91667 0.75 3.66667
3 0.75 3.66667
2.91667 0.833333 3.66667
3 0.75 3.58333
0.0833333 1 3.58333
0.0833333 0.916667 3.58333
0.166667 1 3.58333
0.0833333 0.916667 3.66667
0.166667 0.916667 3.66667
0 1 3.58333
0 0.916667 3.58333
0.0833333 1 3.66667
0 0.916667 3.66667
0.166667 0.916667 3.58333
0.25 1 3.58333
0.25 0.916667 3.58333
0.333333 1 3.58333
0.25 0.916667 3.66667
0.333333 0.916667 3.66667
0.25 1 3.66667
0.333333 0.916667 3.58333
0.416667 1 3.58333
0.416667 0.916667 3.58333
0.5 1 3.58333
0.416667 0.916667 3.66667
0.5 0.916667 3.66667
0.416667 1 3.66667
0.5 0.916667 3.58333
0.583333 1 3.58333
0.583333 0.916667 3.58333
0.666667 1 3.58333
0.583333 0.916667 3.66667
0.666667 0.916667 3.66667
0.583333 1 3.66667
0.666667 0.916667 3.58333
0.75 1 3.58333
0.75 0.916667 3.58333
0.833333 1 3.58333
0.75 0.916667 3.66667
0.833333 0.916667 3.66667
0.75 1 3.66667
0.833333 0.916667 3.58333
0.916667 1 3.58333
0.916667 0.916667 3.58333
1 1 3.58333
0.916667 0.916667 3.66667
1 0.916667 3.66667
0.916667 1 3.66667
1 0.916667 3.58333
1.08333 1 3.58333
1.08333 0.916667 3.58333
1.16667 1 3.58333
1.08333 0.916667 3.66667
1.16667 0.916667 3.66667
1.08333 1 3.66667
1.16667 0.916667 3.58333
1.25 1 3.58333
1.25 0.916667 3.58333
1.33333 1 3.58333
1.25 0.916667 3.66667
1.33333 0.916667 3.66667
1.25 1 3.66667
1.33333 0.916667 3.58333
1.41667 1 3.58333
1.41667 0.916667 3.58333
1.5 1 3.58333
1.41667 0.916667 3.66667
1.5 0.916667 3.66667
1.41667 1 3.66667
1.5 0.916667 3.58333
1.58333 1 3.58333
1.58333 0.916667 3.58333
1.66667 1 3.58333
1.58333 0.916667 3.66667
1.66667 0.916667 3.66667
1.58333 1 3.66667
1.66667 0.916667 3.58333
1.75 1 3.58333
1.75 0.916667 3.58333
1.83333 1 3.58333
1.75 0.916667 3.66667
1.83333 0.916667 3.66667
1.75 1 3.66667
1.83333 0.916667 3.58333
1.91667 1 3.58333
1.91667 0.916667 3.58333
2 1 3.58333
1.91667 0.916667 3.66667
2 0.916667 3.66667
1.91667 1 3.66667
2 0.916667 3.58333
2.08333 1 3.58333
2.08333 0.916667 3.58333
2.16667 1 3.58333
2.08333 0.916667 3.66667
2.16667 0.916667 3.66667
2.08333 1 3.66667
2.16667 0.916667 3.58333
2.25 1 3.58333
2.25 0.916667 3.58333
2.33333 1 3.58333
2.25 0.916667 3.66667
2.33333 0.916667 3.66667
2.25 1 3.66667
2.33333 0.916667 3.58333
2.41667 1 3.58333
2.41667 0.916667 3.58333
2.5 1 3.58333
2.41667 0.916667 3.66667
2.5 0.916667 3.66667
2.41667 1 3.66667
2.5 0.916667 3.58333
2.58333 1 3.58333
2.58333 0.916667 3.58333
2.66667 1 3.58333
2.58333 0.916667 3.66667
2.66667 0.916667 3.66667
2.58333 1 3.66667
2.66667 0.916667 3.58333
2.75 1 3.58333
2.75 0.916667 3.58333
2.83333 1 3.58333
2.75 0.916667 3.66667
2.83333 0.916667 3.66667
2.75 1 3.66667
2.83333 0.916667 3.58333
2.91667 1 3.58333
2.91667 0.916667 3.58333
3 1 3.58333
2.91667 0.916667 3.66667
3 0.916667 3.66667
2.91667 1 3.66667
3 0.916667 3.58333
0.0833333 0.166667 3.75
0.0833333 0.0833333 3.75
0.166667 0.166667 3.75
0.0833333 0.0833333 3.83333
0.166667 0.0833333 3.83333
0.0833333 0 3.83333
0 0 3.75
0.0833333 0 3.75
0 0.166667 3.75
0 0.0833333 3.75
0.0833333 0.166667 3.83333
0 0.0833333 3.83333
0.166667 0 3.75
0.166667 0.0833333 3.75
0.25 0.166667 3.75
0.25 0.0833333 3.75
0.333333 0.166667 3.75
0.25 0.0833333 3.83333
0.333333 0.0833333 3.83333
0.25 0 3.83333
0.25 0 3.75
0.25 0.166667 3.83333
0.333333 0 3.75
0.333333 0.0833333 3.75
0.416667 0.166667 3.75
0.416667 0.0833333 3.75
0.5 0.166667 3.75
0.416667 0.0833333 3.83333
0.5 0.0833333 3.83333
0.416667 0 3.83333
0.416667 0 3.75
0.416667 0.166667 3.83333
0.5 0 3.75
0.5 0.0833333 3.75
0.583333 0.166667 3.75
0.583333 0.0833333 3.75
0.666667 0.166667 3.75
0.583333 0.0833333 3.83333
0.666667 0.0833333 3.83333
0.583333 0 3.83333
0.583333 0 3.75
0.583333 0.166667 3.83333
0.666667 0 3.75
0.666667 0.0833333 3.75
0.75 0.166667 3.75
0.75 0.0833333 3.75
0.833333 0.166667 3.75
0.75 0.0833333 3.83333
0.833333 0.0833333 3.83333
0.75 0 3.83333
0.75 0 3.75
0.75 0.166667 3.83333
0.833333 0 3.75
0.833333 0.0833333 3.75
0.916667 0.166667 3.75
0.916667 0.0833333 3.75
1 0.166667 3.75
0.916667 0.0833333 3.83333
1 0.0833333 3.83333
0.916667 0 3.83333
0.916667 0 3.75
0.916667 0.166667 3.83333
1 0 3.75
1 0.0833333 3.75
1.08333 0.166667 3.75
1.08333 0.0833333 3.75
1.16667 0.166667 3.75
1.08333 0.0833333 3.83333
1.16667 0.0833333 3.83333
1.08333 0 3.83333
1.08333 0 3.75
1.08333 0.166667 3.83333
1.16667 0 3.75
1.16667 0.0833333 3.75
1.25 0.166667 3.75
1.25 0.0833333 3.75
1.33333 0.166667 3.75
1.25 0.0833333 3.83333
1.33333 0.0833333 3.83333
1.25 0 3.83333
1.25 0 3.75
1.25 0.166667 3.83333
1.33333 0 3.75
1.33333 0.0833333 3.75
1.41667 0.166667 3.75
1.41667 0.0833333 3.75
1.5 0.166667 3.75
1.41667 0.0833333 3.83333
1.5 0.0833333 3.83333
1.41667 0 3.83333
1.41667 0 3.75
1.41667 0.166667 3.83333
1.5 0 3.75
1.5 0.0833333 3.75
1.58333 0.166667 3.75
1.58333 0.0833333 3.75
1.66667 0.166667 3.75
1.58333 0.0833333 3.83333
1.66667 0.0833333 3.83333
1.58333 0 3.83333
1.58333 0 3.75
1.58333 0.166667 3.83333
1.66667 0 3.75
1.66667 0.0833333 3.75
1.75 0.166667 3.75
1.75 0.0833333 3.75
1.83333 0.166667 3.75
1.75 0.0833333 3.83333
1.83333 0.0833333 3.83333
1.75 0 3.83333
1.75 0 3.75
1.75 0.166667 3.83333
1.83333 0 3.75
1.83333 0.0833333 3.75
1.91667 0.166667 3.75
1.91667 0.0833333 3.75
2 0.166667 3.75
1.91667 0.0833333 3.83333
2 0.0833333 3.83333
1.91667 0 3.83333
1.91667 0 3.75
1.91667 0.166667 3.83333
2 0 3.75
2 0.0833333 3.75
2.08333 0.166667 3.75
2.08333 0.0833333 3.75
2.16667 0.166667 3.75
2.08333 0.0833333 3.83333
2.16667 0.0833333 3.83333
2.08333 0 3.83333
2.08333 0 3.75
2.08333 0.166667 3.83333
2.16667 0 3.75
2.16667 0.0833333 3.75
2.25 0.166667 3.75
2.25 0.0833333 3.75
2.33333 0.166667 3.75
2.25 0.0833333 3.83333
2.33333 0.0833333 3.83333
2.25 0 3.83333
2.25 0 3.75
2.25 0.166667 3.83333
2.33333 0 3.75
2.33333 0.0833333 3.75
2.41667 0.166667 3.75
2.41667 0.0833333 3.75
2.5 0.166667 3.75
2.41667 0.0833333 3.83333
2.5 0.0833333 3.83333
2.41667 0 3.83333
2.41667 0 3.75
2.41667 0.166667 3.83333
2.5 0 3.75
2.5 0.0833333 3.75
2.58333 0.166667 3.75
2.58333 0.0833333 3.75
2.66667 0.166667 3.75
2.58333 0.0833333 3.83333
2.66667 0.0833333 3.83333
2.58333 0 3.83333
2.58333 0 3.75
2.58333 0.166667 3.83333
2.66667 0 3.75
2.66667 0.0833333 3.75
2.75 0.166667 3.75
2.75 0.0833333 3.75
2.83333 0.166667 3.75
2.75 0.0833333 3.83333
2.83333 0.0833333 3.83333
2.75 0 3.83333
2.75 0 3.75
2.75 0.166667 3.83333
2.83333 0 3.75
2.83333 0.0833333 3.75
2.91667 0.166667 3.75
2.91667 0.0833333 3.75
3 0.166667 3.75
2.91667 0.0833333 3.83333
3 0.0833333 3.83333
2.91667 0 3.83333
2.91667 0 3.75
2.91667 0.166667 3.83333
3 0 3.75
3 0.0833333 3.75
0.0833333 0.333333 3.75
0.0833333 0.25 3.75
0.166667 0.333333 3.75
0.0833333 0.25 3.83333
0.166667 0.25 3.83333
0 0.333333 3.75
0 0.25 3.75
0.0833333 0.333333 3.83333
0 0.25 3.83333
0.166667 0.25 3.75
0.25 0.333333 3.75
0.25 0.25 3.75
0.333333 0.333333 3.75
0.25 0.25 3.83333
0.333333 0.25 3.83333
0.25 0.333333 3.83333
0.333333 0.25 3.75
0.416667 0.333333 3.75
0.416667 0.25 3.75
0.5 0.333333 3.75
0.416667 0.25 3.83333
0.5 0.25 3.83333
0.416667 0.333333 3.83333
0.5 0.25 3.75
0.583333 0.333333 3.75
0.583333 0.25 3.75
0.666667 0.333333 3.75
0.583333 0.25 3.83333
0.666667 0.25 3.83333
0.583333 0.333333 3.83333
0.666667 0.25 3.75
0.75 0.333333 3.75
0.75 0.25 3.75
0.833333 0.333333 3.75
0.75 0.25 3.83333
0.833333 0.25 3.83333
0.75 0.333333 3.83333
0.833333 0.25 3.75
0.916667 0.333333 3.75
0.916667 0.25 3.75
1 0.333333 3.75
0.916667 0.25 3.83333
1 0.25 3.83333
0.916667 0.333333 3.83333
1 0.25 3.75
1.08333 0.333333 3.75
1.08333 0.25 3.75
1.16667 0.333333 3.75
1.08333 0.25 3.83333
1.16667 0.25 3.83333
1.08333 0.333333 3.83333
1.16667 0.25 3.75
1.25 0.333333 3.75
1.25 0.25 3.75
1.33333 0.333333 3.75
1.25 0.25 3.83333
1.33333 0.25 3.83333
1.25 0.333333 3.83333
1.33333 0.25 3.75
1.41667 0.333333 3.75
1.41667 0.25 3.75
1.5 0.333333 3.75
1.41667 0.25 3.83333
1.5 0.25 3.83333
1.41667 0.333333 3.83333
1.5 0.25 3.75
1.58333 0.333333 3.75
1.58333 0.25 3.75
1.66667 0.333333 3.75
1.58333 0.25 3.83333
1.66667 0.25 3.83333
1.58333 0.333333 3.83333
1.66667 0.25 3.75
1.75 0.333333 3.75
1.75 0.25 3.75
1.83333 0.333333 3.75
1.75 0.25 3.83333
1.83333 0.25 3.83333
1.75 0.333333 3.83333
1.83333 0.25 3.75
1.91667 0.333333 3.75
1.91667 0.25 3.75
2 0.333333 3.75
1.91667 0.25 3.83333
2 0.25 3.83333
1.91667 0.333333 3.83333
2 0.25 3.75
2.08333 0.333333 3.75
2.08333 0.25 3.75
2.16667 0.333333 3.75
2.08333 0.25 3.83333
2.16667 0.25 3.83333
2.08333 0.333333 3.83333
2.16667 0.25 3.75
2.25 0.333333 3.75
2.25 0.25 3.75
2.33333 0.333333 3.75
2.25 0.25 3.83333
2.33333 0.25 3.83333
2.25 0.333333 3.83333
2.33333 0.25 3.75
2.41667 0.333333 3.75
2.41667 0.25 3.75
2.5 0.333333 3.75
2.41667 0.25 3.83333
2.5 0.25 3.83333
2.41667 0.333333 3.83333
2.5 0.25 3.75
2.58333 0.333333 3.75
2.58333 0.25 3.75
2.66667 0.333333 3.75
2.58333 0.25 3.83333
2.66667 0.25 3.83333
2.58333 0.333333 3.83333
2.66667 0.25 3.75
2.75 0.333333 3.75
2.75 0.25 3.75
2.83333 0.333333 3.75
2.75 0.25 3.83333
2.83333 0.25 3.83333
2.75 0.333333 3.83333
2.83333 0.25 3.75
2.91667 0.333333 3.75
2.91667 0.25 3.75
3 0.333333 3.75
2.91667 0.25 3.83333
3 0.25 3.83333
2.91667 0.333333 3.83333
3 0.25 3.75
0.0833333 0.5 3.75
0.0833333 0.416667 3.75
0.166667 0.5 3.75
0.0833333 0.416667 3.83333
0.166667 0.416667 3.83333
0 0.5 3.75
0 0.416667 3.75
0.0833333 0.5 3.83333
0 0.416667 3.83333
0.166667 0.416667 3.75
0.25 0.5 3.75
0.25 0.416667 3.75
0.333333 0.5 3.75
0.25 0.416667 3.83333
0.333333 0.416667 3.83333
0.25 0.5 3.83333
0.333333 0.416667 3.75
0.416667 0.5 3.75
0.416667 0.416667 3.75
0.5 0.5 3.75
0.416667 0.416667 3.83333
0.5 0.416667 3.83333
0.416667 0.5 3.83333
0.5 0.416667 3.75
0.583333 0.5 3.75
0.583333 0.416667 3.75
0.666667 0.5 3.75
0.583333 0.416667 3.83333
0.666667 0.416667 3.83333
0.583333 0.5 3.83333
0.666667 0.416667 3.75
0.75 0.5 3.75
0.75 0.416667 3.75
0.833333 0.5 3.75
0.75 0.416667 3.83333
0.833333 0.416667 3.83333
0.75 0.5 3.83333
0.833333 0.416667 3.75
0.916667 0.5 3.75
0.916667 0.416667 3.75
1 0.5 3.75
0.916667 0.416667 3.83333
1 0.416667 3.83333
0.916667 0.5 3.83333
1 0.416667 3.75
1.08333 0.5 3.75
1.08333 0.416667 3.75
1.16667 0.5 3.75
1.08333 0.416667 3.83333
1.16667 0.416667 3.83333
1.08333 0.5 3.83333
1.16667 0.416667 3.75
1.25 0.5 3.75
1.25 0.416667 3.75
1.33333 0.5 3.75
1.25 0.416667 3.83333
1.33333 0.416667 3.83333
1.25 0.5 3.83333
1.33333 0.416667 3.75
1.41667 0.5 3.75
1.41667 0.416667 3.75
1.5 0.5 3.75
1.41667 0.416667 3.83333
1.5 0.416667 3.83333
1.41667 0.5 3.83333
1.5 0.416667 3.75
1.58333 0.5 3.75
1.58333 0.416667 3.75
1.66667 0.5 3.75
1.58333 0.416667 3.83333
1.66667 0.416667 3.83333
1.58333 0.5 3.83333
1.66667 0.416667 3.75
1.75 0.5 3.75
1.75 0.416667 3.75
1.83333 0.5 3.75
1.75 0.416667 3.83333
1.83333 0.416667 3.83333
1.75 0.5 3.83333
1.83333 0.416667 3.75
1.91667 0.5 3.75
1.91667 0.416667 3.75
2 0.5 3.75
1.91667 0.416667 3.83333
2 0.416667 3.83333
1.91667 0.5 3.83333
2 0.416667 3.75
2.08333 0.5 3.75
2.08333 0.416667 3.75
2.16667 0.5 3.75
2.08333 0.416667 3.83333
2.16667 0.416667 3.83333
2.08333 0.5 3.83333
2.16667 0.416667 3.75
2.25 0.5 3.75
2.25 0.416667 3.75
2.33333 0.5 3.75
2.25 0.416667 3.83333
2.33333 0.416667 3.83333
2.25 0.5 3.83333
2.33333 0.416667 3.75
2.41667 0.5 3.75
2.41667 0.416667 3.75
2.5 0.5 3.75
2.41667 0.416667 3.83333
2.5 0.416667 3.83333
2.41667 0.5 3.83333
2.5 0.416667 3.75
2.58333 0.5 3.75
2.58333 0.416667 3.75
2.66667 0.5 3.75
2.58333 0.416667 3.83333
2.66667 0.416667 3.83333
2.58333 0.5 3.83333
2.66667 0.416667 3.75
2.75 0.5 3.75
2.75 0.416667 3.75
2.83333 0.5 3.75
2.75 0.416667 3.83333
2.83333 0.416667 3.83333
2.75 0.5 3.83333
2.83333 0.416667 3.75
2.91667 0.5 3.75
2.91667 0.416667 3.75
3 0.5 3.75
2.91667 0.416667 3.83333
3 0.416667 3.83333
2.91667 0.5 3.83333
3 0.416667 3.75
0.0833333 0.666667 3.75
0.0833333 0.583333 3.75
0.166667 0.666667 3.75
0.0833333 0.583333 3.83333
0.166667 0.583333 3.83333
0 0.666667 3.75
0 0.583333 3.75
0.0833333 0.666667 3.83333
0 0.583333 3.83333
0.166667 0.583333 3.75
0.25 0.666667 3.75
0.25 0.583333 3.75
0.333333 0.666667 3.75
0.25 0.583333 3.83333
0.333333 0.583333 3.83333
0.25 0.666667 3.83333
0.333333 0.583333 3.75
0.416667 0.666667 3.75
0.416667 0.583333 3.75
0.5 0.666667 3.75
0.416667 0.583333 3.83333
0.5 0.583333 3.83333
0.416667 0.666667 3.83333
0.5 0.583333 3.75
0.583333 0.666667 3.75
0.583333 0.583333 3.75
0.666667 0.666667 3.75
0.583333 0.583333 3.83333
0.666667 0.583333 3.83333
0.583333 0.666667 3.83333
0.666667 0.583333 3.75
0.75 0.666667 3.75
0.75 0.583333 3.75
0.833333 0.666667 3.75
0.75 0.583333 3.83333
0.833333 0.583333 3.83333
0.75 0.666667 3.83333
0.833333 0.583333 3.75
0.916667 0.666667 3.75
0.916667 0.583333 3.75
1 0.666667 3.75
0.916667 0.583333 3.83333
1 0.583333 3.83333
0.916667 0.666667 3.83333
1 0.583333 3.75
1.08333 0.666667 3.75
1.08333 0.583333 3.75
1.16667 0.666667 3.75
1.08333 0.583333 3.83333
1.16667 0.583333 3.83333
1.08333 0.666667 3.83333
1.16667 0.583333 3.75
1.25 0.666667 3.75
1.25 0.583333 3.75
1.33333 0.666667 3.75
1.25 0.583333 3.83333
1.33333 0.583333 3.83333
1.25 0.666667 3.83333
1.33333 0.583333 3.75
1.41667 0.666667 3.75
1.41667 0.583333 3.75
1.5 0.666667 3.75
1.41667 0.583333 3.83333
1.5 0.583333 3.83333
1.41667 0.666667 3.83333
1.5 0.583333 3.75
1.58333 0.666667 3.75
1.58333 0.583333 3.75
1.66667 0.666667 3.75
1.58333 0.583333 3.83333
1.66667 0.583333 3.83333
1.58333 0.666667 3.83333
1.66667 0.583333 3.75
1.75 0.666667 3.75
1.75 0.583333 3.75
1.83333 0.666667 3.75
1.75 0.583333 3.83333
1.83333 0.583333 3.83333
1.75 0.666667 3.83333
1.83333 0.583333 3.75
1.91667 0.666667 3.75
1.91667 0.583333 3.75
2 0.666667 3.75
1.91667 0.583333 3.83333
2 0.583333 3.83333
1.91667 0.666667 3.83333
2 0.583333 3.75
2.08333 0.666667 3.75
2.08333 0.583333 3.75
2.16667 0.666667 3.75
2.08333 0.583333 3.83333
2.16667 0.583333 3.83333
2.08333 0.666667 3.83333
2.16667 0.583333 3.75
2.25 0.666667 3.75
2.25 0.583333 3.75
2.33333 0.666667 3.75
2.25 0.583333 3.83333
2.33333 0.583333 3.83333
2.25 0.666667 3.83333
2.33333 0.583333 3.75
2.41667 0.666667 3.75
2.41667 0.583333 3.75
2.5 0.666667 3.75
2.41667 0.583333 3.83333
2.5 0.583333 3.83333
2.41667 0.666667 3.83333
2.5 0.583333 3.75
2.58333 0.666667 3.75
2.58333 0.583333 3.75
2.66667 0.666667 3.75
2.58333 0.583333 3.83333
2.66667 0.583333 3.83333
2.58333 0.666667 3.83333
2.66667 0.583333 3.75
2.75 0.666667 3.75
2.75 0.583333 3.75
2.83333 0.666667 3.75
2.75 0.583333 3.83333
2.83333 0.583333 3.83333
2.75 0.666667 3.83333
2.83333 0.583333 3.75
2.91667 0.666667 3.75
2.91667 0.583333 3.75
3 0.666667 3.75
2.91667 0.583333 3.83333
3 0.583333 3.83333
2.91667 0.666667 3.83333
3 0.583333 3.75
0.0833333 0.833333 3.75
0.0833333 0.75 3.75
0.166667 0.833333 3.75
0.0833333 0.75 3.83333
0.166667 0.75 3.83333
0 0.833333 3.75
0 0.75 3.75
0.0833333 0.833333 3.83333
0 0.75 3.83333
0.166667 0.75 3.75
0.25 0.833333 3.75
0.25 0.75 3.75
0.333333 0.833333 3.75
0.25 0.75 3.83333
0.333333 0.75 3.83333
0.25 0.833333 3.83333
0.333333 0.75 3.75
0.416667 0.833333 3.75
0.416667 0.75 3.75
0.5 0.833333 3.75
0.416667 0.75 3.83333
0.5 0.75 3.83333
0.416667 0.833333 3.83333
0.5 0.75 3.75
0.583333 0.833333 3.75
0.583333 0.75 3.75
0.666667 0.833333 3.75
0.583333 0.75 3.83333
0.666667 0.75 3.83333
0.583333 0.833333 3.83333
0.666667 0.75 3.75
0.75 0.833333 3.75
0.75 0.75 3.75
0.833333 0.833333 3.75
0.75 0.75 3.83333
0.833333 0.75 3.83333
0.75 0.833333 3.83333
0.833333 0.75 3.75
0.916667 0.833333 3.75
0.916667 0.75 3.75
1 0.833333 3.75
0.916667 0.75 3.83333
1 0.75 3.83333
0.916667 0.833333 3.83333
1 0.75 3.75
1.08333 0.833333 3.75
1.08333 0.75 3.75
1.16667 0.833333 3.75
1.08333 0.75 3.83333
1.16667 0.75 3.83333
1.08333 0.833333 3.83333
1.16667 0.75 3.75
1.25 0.833333 3.75
1.25 0.75 3.75
1.33333 0.833333 3.75
1.25 0.75 3.83333
1.33333 0.75 3.83333
1.25 0.833333 3.83333
1.33333 0.75 3.75
1.41667 0.833333 3.75
1.41667 0.75 3.75
1.5 0.833333 3.75
1.41667 0.75 3.83333
1.5 0.75 3.83333
1.41667 0.833333 3.83333
1.5 0.75 3.75
1.58333 0.833333 3.75
1.58333 0.75 3.75
1.66667 0.833333 3.75
1.58333 0.75 3.83333
1.66667 0.75 3.83333
1.58333 0.833333 3.83333
1.66667 0.75 3.75
1.75 0.833333 3.75
1.75 0.75 3.75
1.83333 0.833333 3.75
1.75 0.75 3.83333
1.83333 0.75 3.83333
1.75 0.833333 3.83333
1.83333 0.75 3.75
1.91667 0.833333 3.75
1.91667 0.75 3.75
2 0.833333 3.75
1.91667 0.75 3.83333
2 0.75 3.83333
1.91667 0.833333 3.83333
2 0.75 3.75
2.08333 0.833333 3.75
2.08333 0.75 3.75
2.16667 0.833333 3.75
2.08333 0.75 3.83333
2.16667 0.75 3.83333
2.08333 0.833333 3.83333
2.16667 0.75 3.75
2.25 0.833333 3.75
2.25 0.75 3.75
2.33333 0.833333 3.75
2.25 0.75 3.83333
2.33333 0.75 3.83333
2.25 0.833333 3.83333
2.33333 0.75 3.75
2.41667 0.833333 3.75
2.41667 0.75 3.75
2.5 0.833333 3.75
2.41667 0.75 3.83333
2.5 0.75 3.83333
2.41667 0.833333 3.83333
2.5 0.75 3.75
2.58333 0.833333 3.75
2.58333 0.75 3.75
2.66667 0.833333 3.75
2.58333 0.75 3.83333
2.66667 0.75 3.83333
2.58333 0.833333 3.83333
2.66667 0.75 3.75
2.75 0.833333 3.75
2.75 0.75 3.75
2.83333 0.833333 3.75
2.75 0.75 3.83333
2.83333 0.75 3.83333
2.75 0.833333 3.83333
2.83333 0.75 3.75
2.91667 0.833333 3.75
2.91667 0.75 3.75
3 0.833333 3.75
2.91667 0.75 3.83333
3 0.75 3.83333
2.91667 0.833333 3.83333
3 0.75 3.75
0.0833333 1 3.75
0.0833333 0.916667 3.75
0.166667 1 3.75
0.0833333 0.916667 3.83333
0.166667 0.916667 3.83333
0 1 3.75
0 0.916667 3.75
0.0833333 1 3.83333
0 0.916667 3.83333
0.166667 0.916667 3.75
0.25 1 3.75
0.25 0.916667 3.75
0.333333 1 3.75
0.25 0.916667 3.83333
0.333333 0.916667 3.83333
0.25 1 3.83333
0.333333 0.916667 3.75
0.416667 1 3.75
0.416667 0.916667 3.75
0.5 1 3.75
0.416667 0.916667 3.83333
0.5 0.916667 3.83333
0.416667 1 3.83333
0.5 0.916667 3.75
0.583333 1 3.75
0.583333 0.916667 3.75
0.666667 1 3.75
0.583333 0.916667 3.83333
0.666667 0.916667 3.83333
0.583333 1 3.83333
0.666667 0.916667 3.75
0.75 1 3.75
0.75 0.916667 3.75
0.833333 1 3.75
0.75 0.916667 3.83333
0.833333 0.916667 3.83333
0.75 1 3.83333
0.833333 0.916667 3.75
0.916667 1 3.75
0.916667 0.916667 3.75
1 1 3.75
0.916667 0.916667 3.83333
1 0.916667 3.83333
0.916667 1 3.83333
1 0.916667 3.75
1.08333 1 3.75
1.08333 0.916667 3.75
1.16667 1 3.75
1.08333 0.916667 3.83333
1.16667 0.916667 3.83333
1.08333 1 3.83333
1.16667 0.916667 3.75
1.25 1 3.75
1.25 0.916667 3.75
1.33333 1 3.75
1.25 0.916667 3.83333
1.33333 0.916667 3.83333
1.25 1 3.83333
1.33333 0.916667 3.75
1.41667 1 3.75
1.41667 0.916667 3.75
1.5 1 3.75
1.41667 0.916667 3.83333
1.5 0.916667 3.83333
1.41667 1 3.83333
1.5 0.916667 3.75
1.58333 1 3.75
1.58333 0.916667 3.75
1.66667 1 3.75
1.58333 0.916667 3.83333
1.66667 0.916667 3.83333
1.58333 1 3.83333
1.66667 0.916667 3.75
1.75 1 3.75
1.75 0.916667 3.75
1.83333 1 3.75
1.75 0.916667 3.83333
1.83333 0.916667 3.83333
1.75 1 3.83333
1.83333 0.916667 3.75
1.91667 1 3.75
1.91667 0.916667 3.75
2 1 3.75
1.91667 0.916667 3.83333
2 0.916667 3.83333
1.91667 1 3.83333
2 0.916667 3.75
2.08333 1 3.75
2.08333 0.916667 3.75
2.16667 1 3.75
2.08333 0.916667 3.83333
2.16667 0.916667 3.83333
2.08333 1 3.83333
2.16667 0.916667 3.75
2.25 1 3.75
2.25 0.916667 3.75
2.33333 1 3.75
2.25 0.916667 3.83333
2.33333 0.916667 3.83333
2.25 1 3.83333
2.33333 0.916667 3.75
2.41667 1 3.75
2.41667 0.916667 3.75
2.5 1 3.75
2.41667 0.916667 3.83333
2.5 0.916667 3.83333
2.41667 1 3.83333
2.5 0.916667 3.75
2.58333 1 3.75
2.58333 0.916667 3.75
2.66667 1 3.75
2.58333 0.916667 3.83333
2.66667 0.916667 3.83333
2.58333 1 3.83333
2.66667 0.916667 3.75
2.75 1 3.75
2.75 0.916667 3.75
2.83333 1 3.75
2.75 0.916667 3.83333
2.83333 0.916667 3.83333
2.75 1 3.83333
2.83333 0.916667 3.75
2.91667 1 3.75
2.91667 0.916667 3.75
3 1 3.75
2.91667 0.916667 3.83333
3 0.916667 3.83333
2.91667 1 3.83333
3 0.916667 3.75
0.0833333 0.166667 3.91667
0.0833333 0.0833333 3.91667
0.166667 0.166667 3.91667
0.0833333 0.0833333 4
0.166667 0.0833333 4
0.0833333 0 4
0 0 3.91667
0.0833333 0 3.91667
0 0.166667 3.91667
0 0.0833333 3.91667
0.0833333 0.166667 4
0 0.0833333 4
0.166667 0 3.91667
0.166667 0.0833333 3.91667
0.25 0.166667 3.91667
0.25 0.0833333 3.91667
0.333333 0.166667 3.91667
0.25 0.0833333 4
0.333333 0.0833333 4
0.25 0 4
0.25 0 3.91667
0.25 0.166667 4
0.333333 0 3.91667
0.333333 0.0833333 3.91667
0.416667 0.166667 3.91667
0.416667 0.0833333 3.91667
0.5 0.166667 3.91667
0.416667 0.0833333 4
0.5 0.0833333 4
0.416667 0 4
0.416667 0 3.91667
0.416667 0.166667 4
0.5 0 3.91667
0.5 0.0833333 3.91667
0.583333 0.166667 3.91667
0.583333 0.0833333 3.91667
0.666667 0.166667 3.91667
0.583333 0.0833333 4
0.666667 0.0833333 4
0.583333 0 4
0.583333 0 3.91667
0.583333 0.166667 4
0.666667 0 3.91667
0.666667 0.0833333 3.91667
0.75 0.166667 3.91667
0.75 0.0833333 3.91667
0.833333 0.166667 3.91667
0.75 0.0833333 4
0.833333 0.0833333 4
0.75 0 4
0.75 0 3.91667
0.75 0.166667 4
0.833333 0 3.91667
0.833333 0.0833333 3.91667
0.916667 0.166667 3.91667
0.916667 0.0833333 3.91667
1 0.166667 3.91667
0.916667 0.0833333 4
1 0.0833333 4
0.916667 0 4
0.916667 0 3.91667
0.916667 0.166667 4
1 0 3.91667
1 0.0833333 3.91667
1.08333 0.166667 3.91667
1.08333 0.0833333 3.91667
1.16667 0.166667 3.91667
1.08333 0.0833333 4
1.16667 0.0833333 4
1.08333 0 4
1.08333 0 3.91667
1.08333 0.166667 4
1.16667 0 3.91667
1.16667 0.0833333 3.91667
1.25 0.166667 3.91667
1.25 0.0833333 3.91667
1.33333 0.166667 3.91667
1.25 0.0833333 4
1.33333 0.0833333 4
1.25 0 4
1.25 0 3.91667
1.25 0.166667 4
1.33333 0 3.91667
1.33333 0.0833333 3.91667
1.41667 0.166667 3.91667
1.41667 0.0833333 3.91667
1.5 0.166667 3.91667
1.41667 0.0833333 4
1.5 0.0833333 4
1.41667 0 4
1.41667 0 3.91667
1.41667 0.166667 4
1.5 0 3.91667
1.5 0.0833333 3.91667
1.58333 0.166667 3.91667
1.58333 0.0833333 3.91667
1.66667 0.166667 3.91667
1.58333 0.0833333 4
1.66667 0.0833333 4
1.58333 0 4
1.58333 0 3.91667
1.58333 0.166667 4
1.66667 0 3.91667
1.66667 0.0833333 3.91667
1.75 0.166667 3.91667
1.75 0.0833333 3.91667
1.83333 0.166667 3.91667
1.75 0.0833333 4
1.83333 0.0833333 4
1.75 0 4
1.75 0 3.91667
1.75 0.166667 4
1.83333 0 3.91667
1.83333 0.0833333 3.91667
1.91667 0.166667 3.91667
1.91667 0.0833333 3.91667
2 0.166667 3.91667
1.91667 0.0833333 4
2 0.0833333 4
1.91667 0 4
1.91667 0 3.91667
1.91667 0.166667 4
2 0 3.91667
2 0.0833333 3.91667
2.08333 0.166667 3.91667
2.08333 0.0833333 3.91667
2.16667 0.166667 3.91667
2.08333 0.0833333 4
2.16667 0.0833333 4
2.08333 0 4
2.08333 0 3.91667
2.08333 0.166667 4
2.16667 0 3.91667
2.16667 0.0833333 3.91667
2.25 0.166667 3.91667
2.25 0.0833333 3.91667
2.33333 0.166667 3.91667
2.25 0.0833333 4
2.33333 0.0833333 4
2.25 0 4
2.25 0 3.91667
2.25 0.166667 4
2.33333 0 3.91667
2.33333 0.0833333 3.91667
2.41667 0.166667 3.91667
2.41667 0.0833333 3.91667
2.5 0.166667 3.91667
2.41667 0.0833333 4
2.5 0.0833333 4
2.41667 0 4
2.41667 0 3.91667
2.41667 0.166667 4
2.5 0 3.91667
2.5 0.0833333 3.91667
2.58333 0.166667 3.91667
2.58333 0.0833333 3.91667
2.66667 0.166667 3.91667
2.58333 0.0833333 4
2.66667 0.0833333 4
2.58333 0 4
2.58333 0 3.91667
2.58333 0.166667 4
2.66667 0 3.91667
2.66667 0.0833333 3.91667
2.75 0.166667 3.91667
2.75 0.0833333 3.91667
2.83333 0.166667 3.91667
2.75 0.0833333 4
2.83333 0.0833333 4
2.75 0 4
2.75 0 3.91667
2.75 0.166667 4
2.83333 0 3.91667
2.83333 0.0833333 3.91667
2.91667 0.166667 3.91667
2.91667 0.0833333 3.91667
3 0.166667 3.91667
2.91667 0.0833333 4
3 0.0833333 4
2.91667 0 4
2.91667 0 3.91667
2.91667 0.166667 4
3 0 3.91667
3 0.0833333 3.91667
0.0833333 0.333333 3.91667
0.0833333 0.25 3.91667
0.166667 0.333333 3.91667
0.0833333 0.25 4
0.166667 0.25 4
0 0.333333 3.91667
0 0.25 3.91667
0.0833333 0.333333 4
0 0.25 4
0.166667 0.25 3.91667
0.25 0.333333 3.91667
0.25 0.25 3.91667
0.333333 0.333333 3.91667
0.25 0.25 4
0.333333 0.25 4
0.25 0.333333 4
0.333333 0.25 3.91667
0.416667 0.333333 3.91667
0.416667 0.25 3.91667
0.5 0.333333 3.91667
0.416667 0.25 4
0.5 0.25 4
0.416667 0.333333 4
0.5 0.25 3.91667
0.583333 0.333333 3.91667
0.583333 0.25 3.91667
0.666667 0.333333 3.91667
0.583333 0.25 4
0.666667 0.25 4
0.583333 0.333333 4
0.666667 0.25 3.91667
0.75 0.333333 3.91667
0.75 0.25 3.91667
0.833333 0.333333 3.91667
0.75 0.25 4
0.833333 0.25 4
0.75 0.333333 4
0.833333 0.25 3.91667
0.916667 0.333333 3.91667
0.916667 0.25 3.91667
1 0.333333 3.91667
0.916667 0.25 4
1 0.25 4
0.916667 0.333333 4
1 0.25 3.91667
1.08333 0.333333 3.91667
1.08333 0.25 3.91667
1.16667 0.333333 3.91667
1.08333 0.25 4
1.16667 0.25 4
1.08333 0.333333 4
1.16667 0.25 3.91667
1.25 0.333333 3.91667
1.25 0.25 3.91667
1.33333 0.333333 3.91667
1.25 0.25 4
1.33333 0.25 4
1.25 0.333333 4
1.33333 0.25 3.91667
1.41667 0.333333 3.91667
1.41667 0.25 3.91667
1.5 0.333333 3.91667
1.41667 0.25 4
1.5 0.25 4
1.41667 0.333333 4
1.5 0.25 3.91667
1.58333 0.333333 3.91667
1.58333 0.25 3.91667
1.66667 0.333333 3.91667
1.58333 0.25 4
1.66667 0.25 4
1.58333 0.333333 4
1.66667 0.25 3.91667
1.75 0.333333 3.91667
1.75 0.25 3.91667
1.83333 0.333333 3.91667
1.75 0.25 4
1.83333 0.25 4
1.75 0.333333 4
1.83333 0.25 3.91667
1.91667 0.333333 3.91667
1.91667 0.25 3.91667
2 0.333333 3.91667
1.91667 0.25 4
2 0.25 4
1.91667 0.333333 4
2 0.25 3.91667
2.08333 0.333333 3.91667
2.08333 0.25 3.91667
2.16667 0.333333 3.91667
2.08333 0.25 4
2.16667 0.25 4
2.08333 0.333333 4
2.16667 0.25 3.91667
2.25 0.333333 3.91667
2.25 0.25 3.91667
2.33333 0.333333 3.91667
2.25 0.25 4
2.33333 0.25 4
2.25 0.333333 4
2.33333 0.25 3.91667
2.41667 0.333333 3.91667
2.41667 0.25 3.91667
2.5 0.333333 3.91667
2.41667 0.25 4
2.5 0.25 4
2.41667 0.333333 4
2.5 0.25 3.91667
2.58333 0.333333 3.91667
2.58333 0.25 3.91667
2.66667 0.333333 3.91667
2.58333 0.25 4
2.66667 0.25 4
2.58333 0.333333 4
2.66667 0.25 3.91667
2.75 0.333333 3.91667
2.75 0.25 3.91667
2.83333 0.333333 3.91667
2.75 0.25 4
2.83333 0.25 4
2.75 0.333333 4
2.83333 0.25 3.91667
2.91667 0.333333 3.91667
2.91667 0.25 3.91667
3 0.333333 3.91667
2.91667 0.25 4
3 0.25 4
2.91667 0.333333 4
3 0.25 3.91667
0.0833333 0.5 3.91667
0.0833333 0.416667 3.91667
0.166667 0.5 3.91667
0.0833333 0.416667 4
0.166667 0.416667 4
0 0.5 3.91667
0 0.416667 3.91667
0.0833333 0.5 4
0 0.416667 4
0.166667 0.416667 3.91667
0.25 0.5 3.91667
0.25 0.416667 3.91667
0.333333 0.5 3.91667
0.25 0.416667 4
0.333333 0.416667 4
0.25 0.5 4
0.333333 0.416667 3.91667
0.416667 0.5 3.91667
0.416667 0.416667 3.91667
0.5 0.5 3.91667
0.416667 0.416667 4
0.5 0.416667 4
0.416667 0.5 4
0.5 0.416667 3.91667
0.583333 0.5 3.91667
0.583333 0.416667 3.91667
0.666667 0.5 3.91667
0.583333 0.416667 4
0.666667 0.416667 4
0.583333 0.5 4
0.666667 0.416667 3.91667
0.75 0.5 3.91667
0.75 0.416667 3.91667
0.833333 0.5 3.91667
0.75 0.416667 4
0.833333 0.416667 4
0.75 0.5 4
0.833333 0.416667 3.91667
0.916667 0.5 3.91667
0.916667 0.416667 3.91667
1 0.5 3.91667
0.916667 0.416667 4
1 0.416667 4
0.916667 0.5 4
1 0.416667 3.91667
1.08333 0.5 3.91667
1.08333 0.416667 3.91667
1.16667 0.5 3.91667
1.08333 0.416667 4
1.16667 0.416667 4
1.08333 0.5 4
1.16667 0.416667 3.91667
1.25 0.5 3.91667
1.25 0.416667 3.91667
1.33333 0.5 3.91667
1.25 0.416667 4
1.33333 0.416667 4
1.25 0.5 4
1.33333 0.416667 3.91667
1.41667 0.5 3.91667
1.41667 0.416667 3.91667
1.5 0.5 3.91667
1.41667 0.416667 4
1.5 0.416667 4
1.41667 0.5 4
1.5 0.416667 3.91667
1.58333 0.5 3.91667
1.58333 0.416667 3.91667
1.66667 0.5 3.91667
1.58333 0.416667 4
1.66667 0.416667 4
1.58333 0.5 4
1.66667 0.416667 3.91667
1.75 0.5 3.91667
1.75 0.416667 3.91667
1.83333 0.5 3.91667
1.75 0.416667 4
1.83333 0.416667 4
1.75 0.5 4
1.83333 0.416667 3.91667
1.91667 0.5 3.91667
1.91667 0.416667 3.91667
2 0.5 3.91667
1.91667 0.416667 4
2 0.416667 4
1.91667 0.5 4
2 0.416667 3.91667
2.08333 0.5 3.91667
2.08333 0.416667 3.91667
2.16667 0.5 3.91667
2.08333 0.416667 4
2.16667 0.416667 4
2.08333 0.5 4
2.16667 0.416667 3.91667
2.25 0.5 3.91667
2.25 0.416667 3.91667
2.33333 0.5 3.91667
2.25 0.416667 4
2.33333 0.416667 4
2.25 0.5 4
2.33333 0.416667 3.91667
2.41667 0.5 3.91667
2.41667 0.416667 3.91667
2.5 0.5 3.91667
2.41667 0.416667 4
2.5 0.416667 4
2.41667 0.5 4
2.5 0.416667 3.91667
2.58333 0.5 3.91667
2.58333 0.416667 3.91667
2.66667 0.5 3.91667
2.58333 0.416667 4
2.66667 0.416667 4
2.58333 0.5 4
2.66667 0.416667 3.91667
2.75 0.5 3.91667
2.75 0.416667 3.91667
2.83333 0.5 3.91667
2.75 0.416667 4
2.83333 0.416667 4
2.75 0.5 4
2.83333 0.416667 3.91667
2.91667 0.5 3.91667
2.91667 0.416667 3.91667
3 0.5 3.91667
2.91667 0.416667 4
3 0.416667 4
2.91667 0.5 4
3 0.416667 3.91667
0.0833333 0.666667 3.91667
0.0833333 0.583333 3.91667
0.166667 0.666667 3.91667
0.0833333 0.583333 4
0.166667 0.583333 4
0 0.666667 3.91667
0 0.583333 3.91667
0.0833333 0.666667 4
0 0.583333 4
0.166667 0.583333 3.91667
0.25 0.666667 3.91667
0.25 0.583333 3.91667
0.333333 0.666667 3.91667
0.25 0.583333 4
0.333333 0.583333 4
0.25 0.666667 4
0.333333 0.583333 3.91667
0.416667 0.666667 3.91667
0.416667 0.583333 3.91667
0.5 0.666667 3.91667
0.416667 0.583333 4
0.5 0.583333 4
0.416667 0.666667 4
0.5 0.583333 3.91667
0.583333 0.666667 3.91667
0.583333 0.583333 3.91667
0.666667 0.666667 3.91667
0.583333 0.583333 4
0.666667 0.583333 4
0.583333 0.666667 4
0.666667 0.583333 3.91667
0.75 0.666667 3.91667
0.75 0.583333 3.91667
0.833333 0.666667 3.91667
0.75 0.583333 4
0.833333 0.583333 4
0.75 0.666667 4
0.833333 0.583333 3.91667
0.916667 0.666667 3.91667
0.916667 0.583333 3.91667
1 0.666667 3.91667
0.916667 0.583333 4
1 0.583333 4
0.916667 0.666667 4
1 0.583333 3.91667
1.08333 0.666667 3.91667
1.08333 0.583333 3.91667
1.16667 0.666667 3.91667
1.08333 0.583333 4
1.16667 0.583333 4
1.08333 0.666667 4
1.16667 0.583333 3.91667
1.25 0.666667 3.91667
1.25 0.583333 3.91667
1.33333 0.666667 3.91667
1.25 0.583333 4
1.33333 0.583333 4
1.25 0.666667 4
1.33333 0.583333 3.91667
1.41667 0.666667 3.91667
1.41667 0.583333 3.91667
1.5 0.666667 3.91667
1.41667 0.583333 4
1.5 0.583333 4
1.41667 0.666667 4
1.5 0.583333 3.91667
1.58333 0.666667 3.91667
1.58333 0.583333 3.91667
1.66667 0.666667 3.91667
1.58333 0.583333 4
1.66667 0.583333 4
1.58333 0.666667 4
1.66667 0.583333 3.91667
1.75 0.666667 3.91667
1.75 0.583333 3.91667
1.83333 0.666667 3.91667
1.75 0.583333 4
1.83333 0.583333 4
1.75 0.666667 4
1.83333 0.583333 3.91667
1.91667 0.666667 3.91667
1.91667 0.583333 3.91667
2 0.666667 3.91667
1.91667 0.583333 4
2 0.583333 4
1.91667 0.666667 4
2 0.583333 3.91667
2.08333 0.666667 3.91667
2.08333 0.583333 3.91667
2.16667 0.666667 3.91667
2.08333 0.583333 4
2.16667 0.583333 4
2.08333 0.666667 4
2.16667 0.583333 3.91667
2.25 0.666667 3.91667
2.25 0.583333 3.91667
2.33333 0.666667 3.91667
2.25 0.583333 4
2.33333 0.583333 4
2.25 0.666667 4
2.33333 0.583333 3.91667
2.41667 0.666667 3.91667
2.41667 0.583333 3.91667
2.5 0.666667 3.91667
2.41667 0.583333 4
2.5 0.583333 4
2.41667 0.666667 4
2.5 0.583333 3.91667
2.58333 0.666667 3.91667
2.58333 0.583333 3.91667
2.66667 0.666667 3.91667
2.58333 0.583333 4
2.66667 0.583333 4
2.58333 0.666667 4
2.66667 0.583333 3.91667
2.75 0.666667 3.91667
2.75 0.583333 3.91667
2.83333 0.666667 3.91667
2.75 0.583333 4
2.83333 0.583333 4
2.75 0.666667 4
2.83333 0.583333 3.91667
2.91667 0.666667 3.91667
2.91667 0.583333 3.91667
3 0.666667 3.91667
2.91667 0.583333 4
3 0.583333 4
2.91667 0.666667 4
3 0.583333 3.91667
0.0833333 0.833333 3.91667
0.0833333 0.75 3.91667
0.166667 0.833333 3.91667
0.0833333 0.75 4
0.166667 0.75 4
0 0.833333 3.91667
0 0.75 3.91667
0.0833333 0.833333 4
0 0.75 4
0.166667 0.75 3.91667
0.25 0.833333 3.91667
0.25 0.75 3.91667
0.333333 0.833333 3.91667
0.25 0.75 4
0.333333 0.75 4
0.25 0.833333 4
0.333333 0.75 3.91667
0.416667 0.833333 3.91667
0.416667 0.75 3.91667
0.5 0.833333 3.91667
0.416667 0.75 4
0.5 0.75 4
0.416667 0.833333 4
0.5 0.75 3.91667
0.583333 0.833333 3.91667
0.583333 0.75 3.91667
0.666667 0.833333 3.91667
0.583333 0.75 4
0.666667 0.75 4
0.583333 0.833333 4
0.666667 0.75 3.91667
0.75 0.833333 3.91667
0.75 0.75 3.91667
0.833333 0.833333 3.91667
0.75 0.75 4
0.833333 0.75 4
0.75 0.833333 4
0.833333 0.75 3.91667
0.916667 0.833333 3.91667
0.916667 0.75 3.91667
1 0.833333 3.91667
0.916667 0.75 4
1 0.75 4
0.916667 0.833333 4
1 0.75 3.91667
1.08333 0.833333 3.91667
1.08333 0.75 3.91667
1.16667 0.833333 3.91667
1.08333 0.75 4
1.16667 0.75 4
1.08333 0.833333 4
1.16667 0.75 3.91667
1.25 0.833333 3.91667
1.25 0.75 3.91667
1.33333 0.833333 3.91667
1.25 0.75 4
1.33333 0.75 4
1.25 0.833333 4
1.33333 0.75 3.91667
1.41667 0.833333 3.91667
1.41667 0.75 3.91667
1.5 0.833333 3.91667
1.41667 0.75 4
1.5 0.75 4
1.41667 0.833333 4
1.5 0.75 3.91667
1.58333 0.833333 3.91667
1.58333 0.75 3.91667
1.66667 0.833333 3.91667
1.58333 0.75 4
1.66667 0.75 4
1.58333 0.833333 4
1.66667 0.75 3.91667
1.75 0.833333 3.91667
1.75 0.75 3.91667
1.83333 0.833333 3.91667
1.75 0.75 4
1.83333 0.75 4
1.75 0.833333 4
1.83333 0.75 3.91667
1.91667 0.833333 3.91667
1.91667 0.75 3.91667
2 0.833333 3.91667
1.91667 0.75 4
2 0.75 4
1.91667 0.833333 4
2 0.75 3.91667
2.08333 0.833333 3.91667
2.08333 0.75 3.91667
2.16667 0.833333 3.91667
2.08333 0.75 4
2.16667 0.75 4
2.08333 0.833333 4
2.16667 0.75 3.91667
2.25 0.833333 3.91667
2.25 0.75 3.91667
2.33333 0.833333 3.91667
2.25 0.75 4
2.33333 0.75 4
2.25 0.833333 4
2.33333 0.75 3.91667
2.41667 0.833333 3.91667
2.41667 0.75 3.91667
2.5 0.833333 3.91667
2.41667 0.75 4
2.5 0.75 4
2.41667 0.833333 4
2.5 0.75 3.91667
2.58333 0.833333 3.91667
2.58333 0.75 3.91667
2.66667 0.833333 3.91667
2.58333 0.75 4
2.66667 0.75 4
2.58333 0.833333 4
2.66667 0.75 3.91667
2.75 0.833333 3.91667
2.75 0.75 3.91667
2.83333 0.833333 3.91667
2.75 0.75 4
2.83333 0.75 4
2.75 0.833333 4
2.83333 0.75 3.91667
2.91667 0.833333 3.91667
2.91667 0.75 3.91667
3 0.833333 3.91667
2.91667 0.75 4
3 0.75 4
2.91667 0.833333 4
3 0.75 3.91667
0.0833333 1 3.91667
0.0833333 0.916667 3.91667
0.166667 1 3.91667
0.0833333 0.916667 4
0.166667 0.916667 4
0 1 3.91667
0 0.916667 3.91667
0.0833333 1 4
0 0.916667 4
0.166667 0.916667 3.91667
0.25 1 3.91667
0.25 0.916667 3.91667
0.333333 1 3.91667
0.25 0.916667 4
0.333333 0.916667 4
0.25 1 4
0.333333 0.916667 3.91667
0.416667 1 3.91667
0.416667 0.916667 3.91667
0.5 1 3.91667
0.416667 0.916667 4
0.5 0.916667 4
0.416667 1 4
0.5 0.916667 3.91667
0.583333 1 3.91667
0.583333 0.916667 3.91667
0.666667 1 3.91667
0.583333 0.916667 4
0.666667 0.916667 4
0.583333 1 4
0.666667 0.916667 3.91667
0.75 1 3.91667
0.75 0.916667 3.91667
0.833333 1 3.91667
0.75 0.916667 4
0.833333 0.916667 4
0.75 1 4
0.833333 0.916667 3.91667
0.916667 1 3.91667
0.916667 0.916667 3.91667
1 1 3.91667
0.916667 0.916667 4
1 0.916667 4
0.916667 1 4
1 0.916667 3.91667
1.08333 1 3.91667
1.08333 0.916667 3.91667
1.16667 1 3.91667
1.08333 0.916667 4
1.16667 0.916667 4
1.08333 1 4
1.16667 0.916667 3.91667
1.25 1 3.91667
1.25 0.916667 3.91667
1.33333 1 3.91667
1.25 0.916667 4
1.33333 0.916667 4
1.25 1 4
1.33333 0.916667 3.91667
1.41667 1 3.91667
1.41667 0.916667 3.91667
1.5 1 3.91667
1.41667 0.916667 4
1.5 0.916667 4
1.41667 1 4
1.5 0.916667 3.91667
1.58333 1 3.91667
1.58333 0.916667 3.91667
1.66667 1 3.91667
1.58333 0.916667 4
1.66667 0.916667 4
1.58333 1 4
1.66667 0.916667 3.91667
1.75 1 3.91667
1.75 0.916667 3.91667
1.83333 1 3.91667
1.75 0.916667 4
1.83333 0.916667 4
1.75 1 4
1.83333 0.916667 3.91667
1.91667 1 3.91667
1.91667 0.916667 3.91667
2 1 3.91667
1.91667 0.916667 4
2 0.916667 4
1.91667 1 4
2 0.916667 3.91667
2.08333 1 3.91667
2.08333 0.916667 3.91667
2.16667 1 3.91667
2.08333 0.916667 4
2.16667 0.916667 4
2.08333 1 4
2.16667 0.916667 3.91667
2.25 1 3.91667
2.25 0.916667 3.91667
2.33333 1 3.91667
2.25 0.916667 4
2.33333 0.916667 4
2.25 1 4
2.33333 0.916667 3.91667
2.41667 1 3.91667
2.41667 0.916667 3.91667
2.5 1 3.91667
2.41667 0.916667 4
2.5 0.916667 4
2.41667 1 4
2.5 0.916667 3.91667
2.58333 1 3.91667
2.58333 0.916667 3.91667
2.66667 1 3.91667
2.58333 0.916667 4
2.66667 0.916667 4
2.58333 1 4
2.66667 0.916667 3.91667
2.75 1 3.91667
2.75 0.916667 3.91667
2.83333 1 3.91667
2.75 0.916667 4
2.83333 0.916667 4
2.75 1 4
2.83333 0.916667 3.91667
2.91667 1 3.91667
2.91667 0.916667 3.91667
3 1 3.91667
2.91667 0.916667 4
3 0.916667 4
2.91667 1 4
3 0.916667 3.91667

CELLS 3889 38880
OFFSETS vtktypeint64
0 10 20 30 40 50 60 70 80 90 100 110 120 130 140 150 160 170 180 190 200 210 220 230 240 250 260 270 280 290 300 310 320 330 340 350 360 370 380 390 400 410 420 430 440 450 460 470 480 490 500 510 520 530 540 550 560 570 580 590 600 610 620 630 640 650 660 670 680 690 700 710 720 730 740 750 760 770 780 790 800 810 820 830 840 850 860 870 880 890 900 910 920 930 940 950 960 970 980 990 1000 1010 1020 1030 1040 1050 1060 1070 1080 1090 1100 1110 1120 1130 1140 1150 1160 1170 1180 1190 1200 1210 1220 1230 1240 1250 1260 1270 1280 1290 1300 1310 1320 1330 1340 1350 1360 1370 1380 1390 1400 1410 1420 1430 1440 1450 1460 1470 1480 1490 1500 1510 1520 1530 1540 1550 1560 1570 1580 1590 1600 1610 1620 1630 1640 1650 1660 1670 1680 1690 1700 1710 1720 1730 1740 1750 1760 1770 1780 1790 1800 1810 1820 1830 1840 1850 1860 1870 1880 1890 1900 1910 1920 1930 1940 1950 1960 1970 1980 1990 2000 2010 2020 2030 2040 2050 2060 2070 2080 2090 2100 2110 2120 2130 2140 2150 2160 2170 2180 2190 2200 2210 2220 2230 2240 2250 2260 2270 2280 2290 2300 2310 2320 2330 2340 2350 2360 2370 2380 2390 2400 2410 2420 2430 2440 2450 2460 2470 2480 2490 2500 2510 2520 2530 2540 2550 2560 2570 2580 2590 2600 2610 2620 2630 2640 2650 2660 2670 2680 2690 2700 2710 2720 2730 2740 2750 2760 2770 2780 2790 2800 2810 2820 2830 2840 2850 2860 2870 2880 2890 2900 2910 2920 2930 2940 2950 2960 2970 2980 2990 3000 3010 3020 3030 3040 3050 3060 3070 3080 3090 3100 3110 3120 3130 3140 3150 3160 3170 3180 3190 3200 3210 3220 3230 3240 3250 3260 3270 3280 3290 3300 3310 3320 3330 3340 3350 3360 3370 3380 3390 3400 3410 3420 3430 3440 3450 3460 3470 3480 3490 3500 3510 3520 3530 3540 3550 3560 3570 3580 3590 3600 3610 3620 3630 3640 3650 3660 3670 3680 3690 3700 3710 3720 3730 3740 3750 3760 3770 3780 3790 3800 3810 3820 3830 3840 3850 3860 3870 3880 3890 3900 3910 3920 3930 3940 3950 3960 3970 3980 3990 4000 4010 4020 4030 4040 4050 4060 4070 4080 4090 4100 4110 4120 4130 4140 4150 4160 4170 4180 4190 4200 4210 4220 4230 4240 4250 4260 4270 4280 4290 4300 4310 4320 4330 4340 4350 4360 4370 4380 4390 4400 4410 4420 4430 4440 4450 4460 4470 4480 4490 4500 4510 4520 4530 4540 4550 4560 4570 4580 4590 4600 4610 4620 4630 4640 4650 4660 4670 4680 4690 4700 4710 4720 4730 4740 4750 4760 4770 4780 4790 4800 4810 4820 4830 4840 4850 4860 4870 4880 4890 4900 4910 4920 4930 4940 4950 4960 4970 4980 4990 5000 5010 5020 5030 5040 5050 5060 5070 5080 5090 5100 5110 5120 5130 5140 5150 5160 5170 5180 5190 5200 5210 5220 5230 5240 5250 5260 5270 5280 5290 5300 5310 5320 5330 5340 5350 5360 5370 5380 5390 5400 5410 5420 5430 5440 5450 5460 5470 5480 5490 5500 5510 5520 5530 5540 5550 5560 5570 5580 5590 5600 5610 5620 5630 5640 5650 5660 5670 5680 5690 5700 5710 5720 5730 5740 5750 5760 5770 5780 5790 5800 5810 5820 5830 5840 5850 5860 5870 5880 5890 5900 5910 5920 5930 5940 5950 5960 5970 5980 5990 6000 6010 6020 6030 6040 6050 6060 6070 6080 6090 6100 6110 6120 6130 6140 6150 6160 6170 6180 6190 6200 6210 6220 6230 6240 6250 6260 6270 6280 6290 6300 6310 6320 6330 6340 6350 6360 6370 6380 6390 6400 6410 6420 6430 6440 6450 6460 6470 6480 6490 6500 6510 6520 6530 6540 6550 6560 6570 6580 6590 6600 6610 6620 6630 6640 6650 6660 6670 6680 6690 6700 6710 6720 6730 6740 6750 6760 6770 6780 6790 6800 6810 6820 6830 6840 6850 6860 6870 6880 6890 6900 6910 6920 6930 6940 6950 6960 6970 6980 6990 7000 7010 7020 7030 7040 7050 7060 7070 7080 7090 7100 7110 7120 7130 7140 7150 7160 7170 7180 7190 7200 7210 7220 7230 7240 7250 7260 7270 7280 7290 7300 7310 7320 7330 7340 7350 7360 7370 7380 7390 7400 7410 7420 7430 7440 7450 7460 7470 7480 7490 7500 7510 7520 7530 7540 7550 7560 7570 7580 7590 7600 7610 7620 7630 7640 7650 7660 7670 7680 7690 7700 7710 7720 7730 7740 7750 7760 7770 7780 7790 7800 7810 7820 7830 7840 7850 7860 7870 7880 7890 7900 7910 7920 7930 7940 7950 7960 7970 7980 7990 8000 8010 8020 8030 8040 8050 8060 8070 8080 8090 8100 8110 8120 8130 8140 8150 8160 8170 8180 8190 8200 8210 8220 8230 8240 8250 8260 8270 8280 8290 8300 8310 8320 8330 8340 8350 8360 8370 8380 8390 8400 8410 8420 8430 8440 8450 8460 8470 8480 8490 8500 8510 8520 8530 8540 8550 8560 8570 8580 8590 8600 8610 8620 8630 8640 8650 8660 8670 8680 8690 8700 8710 8720 8730 8740 8750 8760 8770 8780 8790 8800 8810 8820 8830 8840 8850 8860 8870 8880 8890 8900 8910 8920 8930 8940 8950 8960 8970 8980 8990 9000 9010 9020 9030 9040 9050 9060 9070 9080 9090 9100 9110 9120 9130 9140 9150 9160 9170 9180 9190 9200 9210 9220 9230 9240 9250 9260 9270 9280 9290 9300 9310 9320 9330 9340 9350 9360 9370 9380 9390 9400 9410 9420 9430 9440 9450 9460 9470 9480 9490 9500 9510 9520 9530 9540 9550 9560 9570 9580 9590 9600 9610 9620 9630 9640 9650 9660 9670 9680 9690 9700 9710 9720 9730 9740 9750 9760 9770 9780 9790 9800 9810 9820 9830 9840 9850 9860 9870 9880 9890 9900 9910 9920 9930 9940 9950 9960 9970 9980 9990 10000 10010 10020 10030 10040 10050 10060 10070 10080 10090 10100 10110 10120 10130 10140 10150 10160 10170 10180 10190 10200 10210 10220 10230 10240 10250 10260 10270 10280 10290 10300 10310 10320 10330 10340 10350 10360 10370 10380 10390 10400 10410 10420 10430 10440 10450 10460 10470 10480 10490 10500 10510 10520 10530 10540 10550 10560 10570 10580 10590 10600 10610 10620 10630 10640 10650 10660 10670 10680 10690 10700 10710 10720 10730 10740 10750 10760 10770 10780 10790 10800 10810 10820 10830 10840 10850 10860 10870 10880 10890 10900 10910 10920 10930 10940 10950 10960 10970 10980 10990 11000 11010 11020 11030 11040 11050 11060 11070 11080 11090 11100 11110 11120 11130 11140 11150 11160 11170 11180 11190 11200 11210 11220 11230 11240 11250 11260 11270 11280 11290 11300 11310 11320 11330 11340 11350 11360 11370 11380 11390 11400 11410 11420 11430 11440 11450 11460 11470 11480 11490 11500 11510 11520 11530 11540 11550 11560 11570 11580 11590 11600 11610 11620 11630 11640 11650 11660 11670 11680 11690 11700 11710 11720 11730 11740 11750 11760 11770 11780 11790 11800 11810 11820 11830 11840 11850 11860 11870 11880 11890 11900 11910 11920 11930 11940 11950 11960 11970 11980 11990 12000 12010 12020 12030 12040 12050 12060 12070 12080 12090 12100 12110 12120 12130 12140 12150 12160 12170 12180 12190 12200 12210 12220 12230 12240 12250 12260 12270 12280 12290 12300 12310 12320 12330 12340 12350 12360 12370 12380 12390 12400 12410 12420 12430 12440 12450 12460 12470 12480 12490 12500 12510 12520 12530 12540 12550 12560 12570 12580 12590 12600 12610 12620 12630 12640 12650 12660 12670 12680 12690 12700 12710 12720 12730 12740 12750 12760 12770 12780 12790 12800 12810 12820 12830 12840 12850 12860 12870 12880 12890 12900 12910 12920 12930 12940 12950 12960 12970 12980 12990 13000 13010 13020 13030 13040 13050 13060 13070 13080 13090 13100 13110 13120 13130 13140 13150 13160 13170 13180 13190 13200 13210 13220 13230 13240 13250 13260 13270 13280 13290 13300 13310 13320 13330 13340 13350 13360 13370 13380 13390 13400 13410 13420 13430 13440 13450 13460 13470 13480 13490 13500 13510 13520 13530 13540 13550 13560 13570 13580 13590 13600 13610 13620 13630 13640 13650 13660 13670 13680 13690 13700 13710 13720 13730 13740 13750 13760 13770 13780 13790 13800 13810 13820 13830 13840 13850 13860 13870 13880 13890 13900 13910 13920 13930 13940 13950 13960 13970 13980 13990 14000 14010 14020 14030 14040 14050 14060 14070 14080 14090 14100 14110 14120 14130 14140 14150 14160 14170 14180 14190 14200 14210 14220 14230 14240 14250 14260 14270 14280 14290 14300 14310 14320 14330 14340 14350 14360 14370 14380 14390 14400 14410 14420 14430 14440 14450 14460 14470 14480 14490 14500 14510 14520 14530 14540 14550 14560 14570 14580 14590 14600 14610 14620 14630 14640 14650 14660 14670 14680 14690 14700 14710 14720 14730 14740 14750 14760 14770 14780 14790 14800 14810 14820 14830 14840 14850 14860 14870 14880 14890 14900 14910 14920 14930 14940 14950 14960 14970 14980 14990 15000 15010 15020 15030 15040 15050 15060 15070 15080 15090 15100 15110 15120 15130 15140 15150 15160 15170 15180 15190 15200 15210 15220 15230 15240 15250 15260 15270 15280 15290 15300 15310 15320 15330 15340 15350 15360 15370 15380 15390 15400 15410 15420 15430 15440 15450 15460 15470 15480 15490 15500 15510 15520 15530 15540 15550 15560 15570 15580 15590 15600 15610 15620 15630 15640 15650 15660 15670 15680 15690 15700 15710 15720 15730 15740 15750 15760 15770 15780 15790 15800 15810 15820 15830 15840 15850 15860 15870 15880 15890 15900 15910 15920 15930 15940 15950 15960 15970 15980 15990 16000 16010 16020 16030 16040 16050 16060 16070 16080 16090 16100 16110 16120 16130 16140 16150 16160 16170 16180 16190 16200 16210 16220 16230 16240 16250 16260 16270 16280 16290 16300 16310 16320 16330 16340 16350 16360 16370 16380 16390 16400 16410 16420 16430 16440 16450 16460 16470 16480 16490 16500 16510 16520 16530 16540 16550 16560 16570 16580 16590 16600 16610 16620 16630 16640 16650 16660 16670 16680 16690 16700 16710 16720 16730 16740 16750 16760 16770 16780 16790 16800 16810 16820 16830 16840 16850 16860 16870 16880 16890 16900 16910 16920 16930 16940 16950 16960 16970 16980 16990 17000 17010 17020 17030 17040 17050 17060 17070 17080 17090 17100 17110 17120 17130 17140 17150 17160 17170 17180 17190 17200 17210 17220 17230 17240 17250 17260 17270 17280 17290 17300 17310 17320 17330 17340 17350 17360 17370 17380 17390 17400 17410 17420 17430 17440 17450 17460 17470 17480 17490 17500 17510 17520 17530 17540 17550 17560 17570 17580 17590 17600 17610 17620 17630 17640 17650 17660 17670 17680 17690 17700 17710 17720 17730 17740 17750 17760 17770 17780 17790 17800 17810 17820 17830 17840 17850 17860 17870 17880 17890 17900 17910 17920 17930 17940 17950 17960 17970 17980 17990 18000 18010 18020 18030 18040 18050 18060 18070 18080 18090 18100 18110 18120 18130 18140 18150 18160 18170 18180 18190 18200 18210 18220 18230 18240 18250 18260 18270 18280 18290 18300 18310 18320 18330 18340 18350 18360 18370 18380 18390 18400 18410 18420 18430 18440 18450 18460 18470 18480 18490 18500 18510 18520 18530 18540 18550 18560 18570 18580 18590 18600 18610 18620 18630 18640 18650 18660 18670 18680 18690 18700 18710 18720 18730 18740 18750 18760 18770 18780 18790 18800 18810 18820 18830 18840 18850 18860 18870 18880 18890 18900 18910 18920 18930 18940 18950 18960 18970 18980 18990 19000 19010 19020 19030 19040 19050 19060 19070 19080 19090 19100 19110 19120 19130 19140 19150 19160 19170 19180 19190 19200 19210 19220 19230 19240 19250 19260 19270 19280 19290 19300 19310 19320 19330 19340 19350 19360 19370 19380 19390 19400 19410 19420 19430 19440 19450 19460 19470 19480 19490 19500 19510 19520 19530 19540 19550 19560 19570 19580 19590 19600 19610 19620 19630 19640 19650 19660 19670 19680 19690 19700 19710 19720 19730 19740 19750 19760 19770 19780 19790 19800 19810 19820 19830 19840 19850 19860 19870 19880 19890 19900 19910 19920 19930 19940 19950 19960 19970 19980 19990 20000 20010 20020 20030 20040 20050 20060 20070 20080 20090 20100 20110 20120 20130 20140 20150 20160 20170 20180 20190 20200 20210 20220 20230 20240 20250 20260 20270 20280 20290 20300 20310 20320 20330 20340 20350 20360 20370 20380 20390 20400 20410 20420 20430 20440 20450 20460 20470 20480 20490 20500 20510 20520 20530 20540 20550 20560 20570 20580 20590 20600 20610 20620 20630 20640 20650 20660 20670 20680 20690 20700 20710 20720 20730 20740 20750 20760 20770 20780 20790 20800 20810 20820 20830 20840 20850 20860 20870 20880 20890 20900 20910 20920 20930 20940 20950 20960 20970 20980 20990 21000 21010 21020 21030 21040 21050 21060 21070 21080 21090 21100 21110 21120 21130 21140 21150 21160 21170 21180 21190 21200 21210 21220 21230 21240 21250 21260 21270 21280 21290 21300 21310 21320 21330 21340 21350 21360 21370 21380 21390 21400 21410 21420 21430 21440 21450 21460 21470 21480 21490 21500 21510 21520 21530 21540 21550 21560 21570 21580 21590 21600 21610 21620 21630 21640 21650 21660 21670 21680 21690 21700 21710 21720 21730 21740 21750 21760 21770 21780 21790 21800 21810 21820 21830 21840 21850 21860 21870 21880 21890 21900 21910 21920 21930 21940 21950 21960 21970 21980 21990 22000 22010 22020 22030 22040 22050 22060 22070 22080 22090 22100 22110 22120 22130 22140 22150 22160 22170 22180 22190 22200 22210 22220 22230 22240 22250 22260 22270 22280 22290 22300 22310 22320 22330 22340 22350 22360 22370 22380 22390 22400 22410 22420 22430 22440 22450 22460 22470 22480 22490 22500 22510 22520 22530 22540 22550 22560 22570 22580 22590 22600 22610 22620 22630 22640 22650 22660 22670 22680 22690 22700 22710 22720 22730 22740 22750 22760 22770 22780 22790 22800 22810 22820 22830 22840 22850 22860 22870 22880 22890 22900 22910 22920 22930 22940 22950 22960 22970 22980 22990 23000 23010 23020 23030 23040 23050 23060 23070 23080 23090 23100 23110 23120 23130 23140 23150 23160 23170 23180 23190 23200 23210 23220 23230 23240 23250 23260 23270 23280 23290 23300 23310 23320 23330 23340 23350 23360 23370 23380 23390 23400 23410 23420 23430 23440 23450 23460 23470 23480 23490 23500 23510 23520 23530 23540 23550 23560 23570 23580 23590 23600 23610 23620 23630 23640 23650 23660 23670 23680 23690 23700 23710 23720 23730 23740 23750 23760 23770 23780 23790 23800 23810 23820 23830 23840 23850 23860 23870 23880 23890 23900 23910 23920 23930 23940 23950 23960 23970 23980 23990 24000 24010 24020 24030 24040 24050 24060 24070 24080 24090 24100 24110 24120 24130 24140 24150 24160 24170 24180 24190 24200 24210 24220 24230 24240 24250 24260 24270 24280 24290 24300 24310 24320 24330 24340 24350 24360 24370 24380 24390 24400 24410 24420 24430 24440 24450 24460 24470 24480 24490 24500 24510 24520 24530 24540 24550 24560 24570 24580 24590 24600 24610 24620 24630 24640 24650 24660 24670 24680 24690 24700 24710 24720 24730 24740 24750 24760 24770 24780 24790 24800 24810 24820 24830 24840 24850 24860 24870 24880 24890 24900 24910 24920 24930 24940 24950 24960 24970 24980 24990 25000 25010 25020 25030 25040 25050 25060 25070 25080 25090 25100 25110 25120 25130 25140 25150 25160 25170 25180 25190 25200 25210 25220 25230 25240 25250 25260 25270 25280 25290 25300 25310 25320 25330 25340 25350 25360 25370 25380 25390 25400 25410 25420 25430 25440 25450 25460 25470 25480 25490 25500 25510 25520 25530 25540 25550 25560 25570 25580 25590 25600 25610 25620 25630 25640 25650 25660 25670 25680 25690 25700 25710 25720 25730 25740 25750 25760 25770 25780 25790 25800 25810 25820 25830 25840 25850 25860 25870 25880 25890 25900 25910 25920 25930 25940 25950 25960 25970 25980 25990 26000 26010 26020 26030 26040 26050 26060 26070 26080 26090 26100 26110 26120 26130 26140 26150 26160 26170 26180 26190 26200 26210 26220 26230 26240 26250 26260 26270 26280 26290 26300 26310 26320 26330 26340 26350 26360 26370 26380 26390 26400 26410 26420 26430 26440 26450 26460 26470 26480 26490 26500 26510 26520 26530 26540 26550 26560 26570 26580 26590 26600 26610 26620 26630 26640 26650 26660 26670 26680 26690 26700 26710 26720 26730 26740 26750 26760 26770 26780 26790 26800 26810 26820 26830 26840 26850 26860 26870 26880 26890 26900 26910 26920 26930 26940 26950 26960 26970 26980 26990 27000 27010 27020 27030 27040 27050 27060 27070 27080 27090 27100 27110 27120 27130 27140 27150 27160 27170 27180 27190 27200 27210 27220 27230 27240 27250 27260 27270 27280 27290 27300 27310 27320 27330 27340 27350 27360 27370 27380 27390 27400 27410 27420 27430 27440 27450 27460 27470 27480 27490 27500 27510 27520 27530 27540 27550 27560 27570 27580 27590 27600 27610 27620 27630 27640 27650 27660 27670 27680 27690 27700 27710 27720 27730 27740 27750 27760 27770 27780 27790 27800 27810 27820 27830 27840 27850 27860 27870 27880 27890 27900 27910 27920 27930 27940 27950 27960 27970 27980 27990 28000 28010 28020 28030 28040 28050 28060 28070 28080 28090 28100 28110 28120 28130 28140 28150 28160 28170 28180 28190 28200 28210 28220 28230 28240 28250 28260 28270 28280 28290 28300 28310 28320 28330 28340 28350 28360 28370 28380 28390 28400 28410 28420 28430 28440 28450 28460 28470 28480 28490 28500 28510 28520 28530 28540 28550 28560 28570 28580 28590 28600 28610 28620 28630 28640 28650 28660 28670 28680 28690 28700 28710 28720 28730 28740 28750 28760 28770 28780 28790 28800 28810 28820 28830 28840 28850 28860 28870 28880 28890 28900 28910 28920 28930 28940 28950 28960 28970 28980 28990 29000 29010 29020 29030 29040 29050 29060 29070 29080 29090 29100 29110 29120 29130 29140 29150 29160 29170 29180 29190 29200 29210 29220 29230 29240 29250 29260 29270 29280 29290 29300 29310 29320 29330 29340 29350 29360 29370 29380 29390 29400 29410 29420 29430 29440 29450 29460 29470 29480 29490 29500 29510 29520 29530 29540 29550 29560 29570 29580 29590 29600 29610 29620 29630 29640 29650 29660 29670 29680 29690 29700 29710 29720 29730 29740 29750 29760 29770 29780 29790 29800 29810 29820 29830 29840 29850 29860 29870 29880 29890 29900 29910 29920 29930 29940 29950 29960 29970 29980 29990 30000 30010 30020 30030 30040 30050 30060 30070 30080 30090 30100 30110 30120 30130 30140 30150 30160 30170 30180 30190 30200 30210 30220 30230 30240 30250 30260 30270 30280 30290 30300 30310 30320 30330 30340 30350 30360 30370 30380 30390 30400 30410 30420 30430 30440 30450 30460 30470 30480 30490 30500 30510 30520 30530 30540 30550 30560 30570 30580 30590 30600 30610 30620 30630 30640 30650 30660 30670 30680 30690 30700 30710 30720 30730 30740 30750 30760 30770 30780 30790 30800 30810 30820 30830 30840 30850 30860 30870 30880 30890 30900 30910 30920 30930 30940 30950 30960 30970 30980 30990 31000 31010 31020 31030 31040 31050 31060 31070 31080 31090 31100 31110 31120 31130 31140 31150 31160 31170 31180 31190 31200 31210 31220 31230 31240 31250 31260 31270 31280 31290 31300 31310 31320 31330 31340 31350 31360 31370 31380 31390 31400 31410 31420 31430 31440 31450 31460 31470 31480 31490 31500 31510 31520 31530 31540 31550 31560 31570 31580 31590 31600 31610 31620 31630 31640 31650 31660 31670 31680 31690 31700 31710 31720 31730 31740 31750 31760 31770 31780 31790 31800 31810 31820 31830 31840 31850 31860 31870 31880 31890 31900 31910 31920 31930 31940 31950 31960 31970 31980 31990 32000 32010 32020 32030 32040 32050 32060 32070 32080 32090 32100 32110 32120 32130 32140 32150 32160 32170 32180 32190 32200 32210 32220 32230 32240 32250 32260 32270 32280 32290 32300 32310 32320 32330 32340 32350 32360 32370 32380 32390 32400 32410 32420 32430 32440 32450 32460 32470 32480 32490 32500 32510 32520 32530 32540 32550 32560 32570 32580 32590 32600 32610 32620 32630 32640 32650 32660 32670 32680 32690 32700 32710 32720 32730 32740 32750 32760 32770 32780 32790 32800 32810 32820 32830 32840 32850 32860 32870 32880 32890 32900 32910 32920 32930 32940 32950 32960 32970 32980 32990 33000 33010 33020 33030 33040 33050 33060 33070 33080 33090 33100 33110 33120 33130 33140 33150 33160 33170 33180 33190 33200 33210 33220 33230 33240 33250 33260 33270 33280 33290 33300 33310 33320 33330 33340 33350 33360 33370 33380 33390 33400 33410 33420 33430 33440 33450 33460 33470 33480 33490 33500 33510 33520 33530 33540 33550 33560 33570 33580 33590 33600 33610 33620 33630 33640 33650 33660 33670 33680 33690 33700 33710 33720 33730 33740 33750 33760 33770 33780 33790 33800 33810 33820 33830 33840 33850 33860 33870 33880 33890 33900 33910 33920 33930 33940 33950 33960 33970 33980 33990 34000 34010 34020 34030 34040 34050 34060 34070 34080 34090 34100 34110 34120 34130 34140 34150 34160 34170 34180 34190 34200 34210 34220 34230 34240 34250 34260 34270 34280 34290 34300 34310 34320 34330 34340 34350 34360 34370 34380 34390 34400 34410 34420 34430 34440 34450 34460 34470 34480 34490 34500 34510 34520 34530 34540 34550 34560 34570 34580 34590 34600 34610 34620 34630 34640 34650 34660 34670 34680 34690 34700 34710 34720 34730 34740 34750 34760 34770 34780 34790 34800 34810 34820 34830 34840 34850 34860 34870 34880 34890 34900 34910 34920 34930 34940 34950 34960 34970 34980 34990 35000 35010 35020 35030 35040 35050 35060 35070 35080 35090 35100 35110 35120 35130 35140 35150 35160 35170 35180 35190 35200 35210 35220 35230 35240 35250 35260 35270 35280 35290 35300 35310 35320 35330 35340 35350 35360 35370 35380 35390 35400 35410 35420 35430 35440 35450 35460 35470 35480 35490 35500 35510 35520 35530 35540 35550 35560 35570 35580 35590 35600 35610 35620 35630 35640 35650 35660 35670 35680 35690 35700 35710 35720 35730 35740 35750 35760 35770 35780 35790 35800 35810 35820 35830 35840 35850 35860 35870 35880 35890 35900 35910 35920 35930 35940 35950 35960 35970 35980 35990 36000 36010 36020 36030 36040 36050 36060 36070 36080 36090 36100 36110 36120 36130 36140 36150 36160 36170 36180 36190 36200 36210 36220 36230 36240 36250 36260 36270 36280 36290 36300 36310 36320 36330 36340 36350 36360 36370 36380 36390 36400 36410 36420 36430 36440 36450 36460 36470 36480 36490 36500 36510 36520 36530 36540 36550 36560 36570 36580 36590 36600 36610 36620 36630 36640 36650 36660 36670 36680 36690 36700 36710 36720 36730 36740 36750 36760 36770 36780 36790 36800 36810 36820 36830 36840 36850 36860 36870 36880 36890 36900 36910 36920 36930 36940 36950 36960 36970 36980 36990 37000 37010 37020 37030 37040 37050 37060 37070 37080 37090 37100 37110 37120 37130 37140 37150 37160 37170 37180 37190 37200 37210 37220 37230 37240 37250 37260 37270 37280 37290 37300 37310 37320 37330 37340 37350 37360 37370 37380 37390 37400 37410 37420 37430 37440 37450 37460 37470 37480 37490 37500 37510 37520 37530 37540 37550 37560 37570 37580 37590 37600 37610 37620 37630 37640 37650 37660 37670 37680 37690 37700 37710 37720 37730 37740 37750 37760 37770 37780 37790 37800 37810 37820 37830 37840 37850 37860 37870 37880 37890 37900 37910 37920 37930 37940 37950 37960 37970 37980 37990 38000 38010 38020 38030 38040 38050 38060 38070 38080 38090 38100 38110 38120 38130 38140 38150 38160 38170 38180 38190 38200 38210 38220 38230 38240 38250 38260 38270 38280 38290 38300 38310 38320 38330 38340 38350 38360 38370 38380 38390 38400 38410 38420 38430 38440 38450 38460 38470 38480 38490 38500 38510 38520 38530 38540 38550 38560 38570 38580 38590 38600 38610 38620 38630 38640 38650 38660 38670 38680 38690 38700 38710 38720 38730 38740 38750 38760 38770 38780 38790 38800 38810 38820 38830 38840 38850 38860 38870 38880 
CONNECTIVITY vtktypeint64
0 19 153 20 931 932 933 934 935 936 
133 153 134 0 937 938 939 940 933 941 
0 19 152 153 931 942 943 933 932 944 
133 153 0 152 937 933 940 945 944 943 
134 0 153 1 941 933 938 946 947 948 
153 0 20 1 933 934 936 948 947 949 
1 20 154 21 949 950 951 952 953 954 
134 154 135 1 955 956 957 946 951 958 
1 20 153 154 949 936 948 951 950 959 
134 154 1 153 955 951 946 938 959 948 
135 1 154 2 958 951 956 960 961 962 
154 1 21 2 951 952 954 962 961 963 
2 21 155 22 963 964 965 966 967 968 
135 155 136 2 969 970 971 960 965 972 
2 21 154 155 963 954 962 965 964 973 
135 155 2 154 969 965 960 956 973 962 
136 2 155 3 972 965 970 974 975 976 
155 2 22 3 965 966 968 976 975 977 
3 22 156 23 977 978 979 980 981 982 
136 156 137 3 983 984 985 974 979 986 
3 22 155 156 977 968 976 979 978 987 
136 156 3 155 983 979 974 970 987 976 
137 3 156 4 986 979 984 988 989 990 
156 3 23 4 979 980 982 990 989 991 
4 23 157 24 991 992 993 994 995 996 
137 157 138 4 997 998 999 988 993 1000 
4 23 156 157 991 982 990 993 992 1001 
137 157 4 156 997 993 988 984 1001 990 
138 4 157 5 1000 993 998 1002 1003 1004 
157 4 24 5 993 994 996 1004 1003 1005 
5 24 158 25 1005 1006 1007 1008 1009 1010 
138 158 139 5 1011 1012 1013 1002 1007 1014 
5 24 157 158 1005 996 1004 1007 1006 1015 
138 158 5 157 1011 1007 1002 998 1015 1004 
139 5 158 6 1014 1007 1012 1016 1017 1018 
158 5 25 6 1007 1008 1010 1018 1017 1019 
6 25 159 26 1019 1020 1021 1022 1023 1024 
139 159 140 6 1025 1026 1027 1016 1021 1028 
6 25 158 159 1019 1010 1018 1021 1020 1029 
139 159 6 158 1025 1021 1016 1012 1029 1018 
140 6 159 7 1028 1021 1026 1030 1031 1032 
159 6 26 7 1021 1022 1024 1032 1031 1033 
7 26 160 27 1033 1034 1035 1036 1037 1038 
140 160 141 7 1039 1040 1041 1030 1035 1042 
7 26 159 160 1033 1024 1032 1035 1034 1043 
140 160 7 159 1039 1035 1030 1026 1043 1032 
141 7 160 8 1042 1035 1040 1044 1045 1046 
160 7 27 8 1035 1036 1038 1046 1045 1047 
8 27 161 28 1047 1048 1049 1050 1051 1052 
141 161 142 8 1053 1054 1055 1044 1049 1056 
8 27 160 161 1047 1038 1046 1049 1048 1057 
141 161 8 160 1053 1049 1044 1040 1057 1046 
142 8 161 9 1056 1049 1054 1058 1059 1060 
161 8 28 9 1049 1050 1052 1060 1059 1061 
9 28 162 29 1061 1062 1063 1064 1065 1066 
142 162 143 9 1067 1068 1069 1058 1063 1070 
9 28 161 162 1061 1052 1060 1063 1062 1071 
142 162 9 161 1067 1063 1058 1054 1071 1060 
143 9 162 10 1070 1063 1068 1072 1073 1074 
162 9 29 10 1063 1064 1066 1074 1073 1075 
10 29 163 30 1075 1076 1077 1078 1079 1080 
143 163 144 10 1081 1082 1083 1072 1077 1084 
10 29 162 163 1075 1066 1074 1077 1076 1085 
143 163 10 162 1081 1077 1072 1068 1085 1074 
144 10 163 11 1084 1077 1082 1086 1087 1088 
163 10 30 11 1077 1078 1080 1088 1087 1089 
11 30 164 31 1089 1090 1091 1092 1093 1094 
144 164 145 11 1095 1096 1097 1086 1091 1098 
11 30 163 164 1089 1080 1088 1091 1090 1099 
144 164 11 163 1095 1091 1086 1082 1099 1088 
145 11 164 12 1098 1091 1096 1100 1101 1102 
164 11 31 12 1091 1092 1094 1102 1101 1103 
12 31 165 32 1103 1104 1105 1106 1107 1108 
145 165 146 12 1109 1110 1111 1100 1105 1112 
12 31 164 165 1103 1094 1102 1105 1104 1113 
145 165 12 164 1109 1105 1100 1096 1113 1102 
146 12 165 13 1112 1105 1110 1114 1115 1116 
165 12 32 13 1105 1106 1108 1116 1115 1117 
13 32 166 33 1117 1118 1119 1120 1121 1122 
146 166 147 13 1123 1124 1125 1114 1119 1126 
13 32 165 166 1117 1108 1116 1119 1118 1127 
146 166 13 165 1123 1119 1114 1110 1127 1116 
147 13 166 14 1126 1119 1124 1128 1129 1130 
166 13 33 14 1119 1120 1122 1130 1129 1131 
14 33 167 34 1131 1132 1133 1134 1135 1136 
147 167 148 14 1137 1138 1139 1128 1133 1140 
14 33 166 167 1131 1122 1130 1133 1132 1141 
147 167 14 166 1137 1133 1128 1124 1141 1130 
148 14 167 15 1140 1133 1138 1142 1143 1144 
167 14 34 15 1133 1134 1136 1144 1143 1145 
15 34 168 35 1145 1146 1147 1148 1149 1150 
148 168 149 15 1151 1152 1153 1142 1147 1154 
15 34 167 168 1145 1136 1144 1147 1146 1155 
148 168 15 167 1151 1147 1142 1138 1155 1144 
149 15 168 16 1154 1147 1152 1156 1157 1158 
168 15 35 16 1147 1148 1150 1158 1157 1159 
16 35 169 36 1159 1160 1161 1162 1163 1164 
149 169 150 16 1165 1166 1167 1156 1161 1168 
16 35 168 169 1159 1150 1158 1161 1160 1169 
149 169 16 168 1165 1161 1156 1152 1169 1158 
150 16 169 17 1168 1161 1166 1170 1171 1172 
169 16 36 17 1161 1162 1164 1172 1171 1173 
17 36 170 37 1173 1174 1175 1176 1177 1178 
150 170 151 17 1179 1180 1181 1170 1175 1182 
17 36 169 170 1173 1164 1172 1175 1174 1183 
150 170 17 169 1179 1175 1170 1166 1183 1172 
151 17 170 18 1182 1175 1180 1184 1185 1186 
170 17 37 18 1175 1176 1178 1186 1185 1187 
19 38 172 39 1188 1189 1190 1191 1192 1193 
152 172 153 19 1194 1195 944 942 1190 932 
19 38 171 172 1188 1196 1197 1190 1189 1198 
152 172 19 171 1194 1190 942 1199 1198 1197 
153 19 172 20 932 1190 1195 936 935 1200 
172 19 39 20 1190 1191 1193 1200 935 1201 
20 39 173 40 1201 1202 1203 1204 1205 1206 
153 173 154 20 1207 1208 959 936 1203 950 
20 39 172 173 1201 1193 1200 1203 1202 1209 
153 173 20 172 1207 1203 936 1195 1209 1200 
154 20 173 21 950 1203 1208 954 953 1210 
173 20 40 21 1203 1204 1206 1210 953 1211 
21 40 174 41 1211 1212 1213 1214 1215 1216 
154 174 155 21 1217 1218 973 954 1213 964 
21 40 173 174 1211 1206 1210 1213 1212 1219 
154 174 21 173 1217 1213 954 1208 1219 1210 
155 21 174 22 964 1213 1218 968 967 1220 
174 21 41 22 1213 1214 1216 1220 967 1221 
22 41 175 42 1221 1222 1223 1224 1225 1226 
155 175 156 22 1227 1228 987 968 1223 978 
22 41 174 175 1221 1216 1220 1223 1222 1229 
155 175 22 174 1227 1223 968 1218 1229 1220 
156 22 175 23 978 1223 1228 982 981 1230 
175 22 42 23 1223 1224 1226 1230 981 1231 
23 42 176 43 1231 1232 1233 1234 1235 1236 
156 176 157 23 1237 1238 1001 982 1233 992 
23 42 175 176 1231 1226 1230 1233 1232 1239 
156 176 23 175 1237 1233 982 1228 1239 1230 
157 23 176 24 992 1233 1238 996 995 1240 
176 23 43 24 1233 1234 1236 1240 995 1241 
24 43 177 44 1241 1242 1243 1244 1245 1246 
157 177 158 24 1247 1248 1015 996 1243 1006 
24 43 176 177 1241 1236 1240 1243 1242 1249 
157 177 24 176 1247 1243 996 1238 1249 1240 
158 24 177 25 1006 1243 1248 1010 1009 1250 
177 24 44 25 1243 1244 1246 1250 1009 1251 
25 44 178 45 1251 1252 1253 1254 1255 1256 
158 178 159 25 1257 1258 1029 1010 1253 1020 
25 44 177 178 1251 1246 1250 1253 1252 1259 
158 178 25 177 1257 1253 1010 1248 1259 1250 
159 25 178 26 1020 1253 1258 1024 1023 1260 
178 25 45 26 1253 1254 1256 1260 1023 1261 
26 45 179 46 1261 1262 1263 1264 1265 1266 
159 179 160 26 1267 1268 1043 1024 1263 1034 
26 45 178 179 1261 1256 1260 1263 1262 1269 
159 179 26 178 1267 1263 1024 1258 1269 1260 
160 26 179 27 1034 1263 1268 1038 1037 1270 
179 26 46 27 1263 1264 1266 1270 1037 1271 
27 46 180 47 1271 1272 1273 1274 1275 1276 
160 180 161 27 1277 1278 1057 1038 1273 1048 
27 46 179 180 1271 1266 1270 1273 1272 1279 
160 180 27 179 1277 1273 1038 1268 1279 1270 
161 27 180 28 1048 1273 1278 1052 1051 1280 
180 27 47 28 1273 1274 1276 1280 1051 1281 
28 47 181 48 1281 1282 1283 1284 1285 1286 
161 181 162 28 1287 1288 1071 1052 1283 1062 
28 47 180 181 1281 1276 1280 1283 1282 1289 
161 181 28 180 1287 1283 1052 1278 1289 1280 
162 28 181 29 1062 1283 1288 1066 1065 1290 
181 28 48 29 1283 1284 1286 1290 1065 1291 
29 48 182 49 1291 1292 1293 1294 1295 1296 
162 182 163 29 1297 1298 1085 1066 1293 1076 
29 48 181 182 1291 1286 1290 1293 1292 1299 
162 182 29 181 1297 1293 1066 1288 1299 1290 
163 29 182 30 1076 1293 1298 1080 1079 1300 
182 29 49 30 1293 1294 1296 1300 1079 1301 
30 49 183 50 1301 1302 1303 1304 1305 1306 
163 183 164 30 1307 1308 1099 1080 1303 1090 
30 49 182 183 1301 1296 1300 1303 1302 1309 
163 183 30 182 1307 1303 1080 1298 1309 1300 
164 30 183 31 1090 1303 1308 1094 1093 1310 
183 30 50 31 1303 1304 1306 1310 1093 1311 
31 50 184 51 1311 1312 1313 1314 1315 1316 
164 184 165 31 1317 1318 1113 1094 1313 1104 
31 50 183 184 1311 1306 1310 1313 1312 1319 
164 184 31 183 1317 1313 1094 1308 1319 1310 
165 31 184 32 1104 1313 1318 1108 1107 1320 
184 31 51 32 1313 1314 1316 1320 1107 1321 
32 51 185 52 1321 1322 1323 1324 1325 1326 
165 185 166 32 1327 1328 1127 1108 1323 1118 
32 51 184 185 1321 1316 1320 1323 1322 1329 
165 185 32 184 1327 1323 1108 1318 1329 1320 
166 32 185 33 1118 1323 1328 1122 1121 1330 
185 32 52 33 1323 1324 1326 1330 1121 1331 
33 52 186 53 1331 1332 1333 1334 1335 1336 
166 186 167 33 1337 1338 1141 1122 1333 1132 
33 52 185 186 1331 1326 1330 1333 1332 1339 
166 186 33 185 1337 1333 1122 1328 1339 1330 
167 33 186 34 1132 1333 1338 1136 1135 1340 
186 33 53 34 1333 1334 1336 1340 1135 1341 
34 53 187 54 1341 1342 1343 1344 1345 1346 
167 187 168 34 1347 1348 1155 1136 1343 1146 
34 53 186 187 1341 1336 1340 1343 1342 1349 
167 187 34 186 1347 1343 1136 1338 1349 1340 
168 34 187 35 1146 1343 1348 1150 1149 1350 
187 34 54 35 1343 1344 1346 1350 1149 1351 
35 54 188 55 1351 1352 1353 1354 1355 1356 
168 188 169 35 1357 1358 1169 1150 1353 1160 
35 54 187 188 1351 1346 1350 1353 1352 1359 
168 188 35 187 1357 1353 1150 1348 1359 1350 
169 35 188 36 1160 1353 1358 1164 1163 1360 
188 35 55 36 1353 1354 1356 1360 1163 1361 
36 55 189 56 1361 1362 1363 1364 1365 1366 
169 189 170 36 1367 1368 1183 1164 1363 1174 
36 55 188 189 1361 1356 1360 1363 1362 1369 
169 189 36 188 1367 1363 1164 1358 1369 1360 
170 36 189 37 1174 1363 1368 1178 1177 1370 
189 36 56 37 1363 1364 1366 1370 1177 1371 
38 57 191 58 1372 1373 1374 1375 1376 1377 
171 191 172 38 1378 1379 1198 1196 1374 1189 
38 57 190 191 1372 1380 1381 1374 1373 1382 
171 191 38 190 1378 1374 1196 1383 1382 1381 
172 38 191 39 1189 1374 1379 1193 1192 1384 
191 38 58 39 1374 1375 1377 1384 1192 1385 
39 58 192 59 1385 1386 1387 1388 1389 1390 
172 192 173 39 1391 1392 1209 1193 1387 1202 
39 58 191 192 1385 1377 1384 1387 1386 1393 
172 192 39 191 1391 1387 1193 1379 1393 1384 
173 39 192 40 1202 1387 1392 1206 1205 1394 
192 39 59 40 1387 1388 1390 1394 1205 1395 
40 59 193 60 1395 1396 1397 1398 1399 1400 
173 193 174 40 1401 1402 1219 1206 1397 1212 
40 59 192 193 1395 1390 1394 1397 1396 1403 
173 193 40 192 1401 1397 1206 1392 1403 1394 
174 40 193 41 1212 1397 1402 1216 1215 1404 
193 40 60 41 1397 1398 1400 1404 1215 1405 
41 60 194 61 1405 1406 1407 1408 1409 1410 
174 194 175 41 1411 1412 1229 1216 1407 1222 
41 60 193 194 1405 1400 1404 1407 1406 1413 
174 194 41 193 1411 1407 1216 1402 1413 1404 
175 41 194 42 1222 1407 1412 1226 1225 1414 
194 41 61 42 1407 1408 1410 1414 1225 1415 
42 61 195 62 1415 1416 1417 1418 1419 1420 
175 195 176 42 1421 1422 1239 1226 1417 1232 
42 61 194 195 1415 1410 1414 1417 1416 1423 
175 195 42 194 1421 1417 1226 1412 1423 1414 
176 42 195 43 1232 1417 1422 1236 1235 1424 
195 42 62 43 1417 1418 1420 1424 1235 1425 
43 62 196 63 1425 1426 1427 1428 1429 1430 
176 196 177 43 1431 1432 1249 1236 1427 1242 
43 62 195 196 1425 1420 1424 1427 1426 1433 
176 196 43 195 1431 1427 1236 1422 1433 1424 
177 43 196 44 1242 1427 1432 1246 1245 1434 
196 43 63 44 1427 1428 1430 1434 1245 1435 
44 63 197 64 1435 1436 1437 1438 1439 1440 
177 197 178 44 1441 1442 1259 1246 1437 1252 
44 63 196 197 1435 1430 1434 1437 1436 1443 
177 197 44 196 1441 1437 1246 1432 1443 1434 
178 44 197 45 1252 1437 1442 1256 1255 1444 
197 44 64 45 1437 1438 1440 1444 1255 1445 
45 64 198 65 1445 1446 1447 1448 1449 1450 
178 198 179 45 1451 1452 1269 1256 1447 1262 
45 64 197 198 1445 1440 1444 1447 1446 1453 
178 198 45 197 1451 1447 1256 1442 1453 1444 
179 45 198 46 1262 1447 1452 1266 1265 1454 
198 45 65 46 1447 1448 1450 1454 1265 1455 
46 65 199 66 1455 1456 1457 1458 1459 1460 
179 199 180 46 1461 1462 1279 1266 1457 1272 
46 65 198 199 1455 1450 1454 1457 1456 1463 
179 199 46 198 1461 1457 1266 1452 1463 1454 
180 46 199 47 1272 1457 1462 1276 1275 1464 
199 46 66 47 1457 1458 1460 1464 1275 1465 
47 66 200 67 1465 1466 1467 1468 1469 1470 
180 200 181 47 1471 1472 1289 1276 1467 1282 
47 66 199 200 1465 1460 1464 1467 1466 1473 
180 200 47 199 1471 1467 1276 1462 1473 1464 
181 47 200 48 1282 1467 1472 1286 1285 1474 
200 47 67 48 1467 1468 1470 1474 1285 1475 
48 67 201 68 1475 1476 1477 1478 1479 1480 
181 201 182 48 1481 1482 1299 1286 1477 1292 
48 67 200 201 1475 1470 1474 1477 1476 1483 
181 201 48 200 1481 1477 1286 1472 1483 1474 
182 48 201 49 1292 1477 1482 1296 1295 1484 
201 48 68 49 1477 1478 1480 1484 1295 1485 
49 68 202 69 1485 1486 1487 1488 1489 1490 
182 202 183 49 1491 1492 1309 1296 1487 1302 
49 68 201 202 1485 1480 1484 1487 1486 1493 
182 202 49 201 1491 1487 1296 1482 1493 1484 
183 49 202 50 1302 1487 1492 1306 1305 1494 
202 49 69 50 1487 1488 1490 1494 1305 1495 
50 69 203 70 1495 1496 1497 1498 1499 1500 
183 203 184 50 1501 1502 1319 1306 1497 1312 
50 69 202 203 1495 1490 1494 1497 1496 1503 
183 203 50 202 1501 1497 1306 1492 1503 1494 
184 50 203 51 1312 1497 1502 1316 1315 1504 
203 50 70 51 1497 1498 1500 1504 1315 1505 
51 70 204 71 1505 1506 1507 1508 1509 1510 
184 204 185 51 1511 1512 1329 1316 1507 1322 
51 70 203 204 1505 1500 1504 1507 1506 1513 
184 204 51 203 1511 1507 1316 1502 1513 1504 
185 51 204 52 1322 1507 1512 1326 1325 1514 
204 51 71 52 1507 1508 1510 1514 1325 1515 
52 71 205 72 1515 1516 1517 1518 1519 1520 
185 205 186 52 1521 1522 1339 1326 1517 1332 
52 71 204 205 1515 1510 1514 1517 1516 1523 
185 205 52 204 1521 1517 1326 1512 1523 1514 
186 52 205 53 1332 1517 1522 1336 1335 1524 
205 52 72 53 1517 1518 1520 1524 1335 1525 
53 72 206 73 1525 1526 1527 1528 1529 1530 
186 206 187 53 1531 1532 1349 1336 1527 1342 
53 72 205 206 1525 1520 1524 1527 1526 1533 
186 206 53 205 1531 1527 1336 1522 1533 1524 
187 53 206 54 1342 1527 1532 1346 1345 1534 
206 53 73 54 1527 1528 1530 1534 1345 1535 
54 73 207 74 1535 1536 1537 1538 1539 1540 
187 207 188 54 1541 1542 1359 1346 1537 1352 
54 73 206 207 1535 1530 1534 1537 1536 1543 
187 207 54 206 1541 1537 1346 1532 1543 1534 
188 54 207 55 1352 1537 1542 1356 1355 1544 
207 54 74 55 1537 1538 1540 1544 1355 1545 
55 74 208 75 1545 1546 1547 1548 1549 1550 
188 208 189 55 1551 1552 1369 1356 1547 1362 
55 74 207 208 1545 1540 1544 1547 1546 1553 
188 208 55 207 1551 1547 1356 1542 1553 1544 
189 55 208 56 1362 1547 1552 1366 1365 1554 
208 55 75 56 1547 1548 1550 1554 1365 1555 
57 76 210 77 1556 1557 1558 1559 1560 1561 
190 210 191 57 1562 1563 1382 1380 1558 1373 
57 76 209 210 1556 1564 1565 1558 1557 1566 
190 210 57 209 1562 1558 1380 1567 1566 1565 
191 57 210 58 1373 1558 1563 1377 1376 1568 
210 57 77 58 1558 1559 1561 1568 1376 1569 
58 77 211 78 1569 1570 1571 1572 1573 1574 
191 211 192 58 1575 1576 1393 1377 1571 1386 
58 77 210 211 1569 1561 1568 1571 1570 1577 
191 211 58 210 1575 1571 1377 1563 1577 1568 
192 58 211 59 1386 1571 1576 1390 1389 1578 
211 58 78 59 1571 1572 1574 1578 1389 1579 
59 78 212 79 1579 1580 1581 1582 1583 1584 
192 212 193 59 1585 1586 1403 1390 1581 1396 
59 78 211 212 1579 1574 1578 1581 1580 1587 
192 212 59 211 1585 1581 1390 1576 1587 1578 
193 59 212 60 1396 1581 1586 1400 1399 1588 
212 59 79 60 1581 1582 1584 1588 1399 1589 
60 79 213 80 1589 1590 1591 1592 1593 1594 
193 213 194 60 1595 1596 1413 1400 1591 1406 
60 79 212 213 1589 1584 1588 1591 1590 1597 
193 213 60 212 1595 1591 1400 1586 1597 1588 
194 60 213 61 1406 1591 1596 1410 1409 1598 
213 60 80 61 1591 1592 1594 1598 1409 1599 
61 80 214 81 1599 1600 1601 1602 1603 1604 
194 214 195 61 1605 1606 1423 1410 1601 1416 
61 80 213 214 1599 1594 1598 1601 1600 1607 
194 214 61 213 1605 1601 1410 1596 1607 1598 
195 61 214 62 1416 1601 1606 1420 1419 1608 
214 61 81 62 1601 1602 1604 1608 1419 1609 
62 81 215 82 1609 1610 1611 1612 1613 1614 
195 215 196 62 1615 1616 1433 1420 1611 1426 
62 81 214 215 1609 1604 1608 1611 1610 1617 
195 215 62 214 1615 1611 1420 1606 1617 1608 
196 62 215 63 1426 1611 1616 1430 1429 1618 
215 62 82 63 1611 1612 1614 1618 1429 1619 
63 82 216 83 1619 1620 1621 1622 1623 1624 
196 216 197 63 1625 1626 1443 1430 1621 1436 
63 82 215 216 1619 1614 1618 1621 1620 1627 
196 216 63 215 1625 1621 1430 1616 1627 1618 
197 63 216 64 1436 1621 1626 1440 1439 1628 
216 63 83 64 1621 1622 1624 1628 1439 1629 
64 83 217 84 1629 1630 1631 1632 1633 1634 
197 217 198 64 1635 1636 1453 1440 1631 1446 
64 83 216 217 1629 1624 1628 1631 1630 1637 
197 217 64 216 1635 1631 1440 1626 1637 1628 
198 64 217 65 1446 1631 1636 1450 1449 1638 
217 64 84 65 1631 1632 1634 1638 1449 1639 
65 84 218 85 1639 1640 1641 1642 1643 1644 
198 218 199 65 1645 1646 1463 1450 1641 1456 
65 84 217 218 1639 1634 1638 1641 1640 1647 
198 218 65 217 1645 1641 1450 1636 1647 1638 
199 65 218 66 1456 1641 1646 1460 1459 1648 
218 65 85 66 1641 1642 1644 1648 1459 1649 
66 85 219 86 1649 1650 1651 1652 1653 1654 
199 219 200 66 1655 1656 1473 1460 1651 1466 
66 85 218 219 1649 1644 1648 1651 1650 1657 
199 219 66 218 1655 1651 1460 1646 1657 1648 
200 66 219 67 1466 1651 1656 1470 1469 1658 
219 66 86 67 1651 1652 1654 1658 1469 1659 
67 86 220 87 1659 1660 1661 1662 1663 1664 
200 220 201 67 1665 1666 1483 1470 1661 1476 
67 86 219 220 1659 1654 1658 1661 1660 1667 
200 220 67 219 1665 1661 1470 1656 1667 1658 
201 67 220 68 1476 1661 1666 1480 1479 1668 
220 67 87 68 1661 1662 1664 1668 1479 1669 
68 87 221 88 1669 1670 1671 1672 1673 1674 
201 221 202 68 1675 1676 1493 1480 1671 1486 
68 87 220 221 1669 1664 1668 1671 1670 1677 
201 221 68 220 1675 1671 1480 1666 1677 1668 
202 68 221 69 1486 1671 1676 1490 1489 1678 
221 68 88 69 1671 1672 1674 1678 1489 1679 
69 88 222 89 1679 1680 1681 1682 1683 1684 
202 222 203 69 1685 1686 1503 1490 1681 1496 
69 88 221 222 1679 1674 1678 1681 1680 1687 
202 222 69 221 1685 1681 1490 1676 1687 1678 
203 69 222 70 1496 1681 1686 1500 1499 1688 
222 69 89 70 1681 1682 1684 1688 1499 1689 
70 89 223 90 1689 1690 1691 1692 1693 1694 
203 223 204 70 1695 1696 1513 1500 1691 1506 
70 89 222 223 1689 1684 1688 1691 1690 1697 
203 223 70 222 1695 1691 1500 1686 1697 1688 
204 70 223 71 1506 1691 1696 1510 1509 1698 
223 70 90 71 1691 1692 1694 1698 1509 1699 
71 90 224 91 1699 1700 1701 1702 1703 1704 
204 224 205 71 1705 1706 1523 1510 1701 1516 
71 90 223 224 1699 1694 1698 1701 1700 1707 
204 224 71 223 1705 1701 1510 1696 1707 1698 
205 71 224 72 1516 1701 1706 1520 1519 1708 
224 71 91 72 1701 1702 1704 1708 1519 1709 
72 91 225 92 1709 1710 1711 1712 1713 1714 
205 225 206 72 1715 1716 1533 1520 1711 1526 
72 91 224 225 1709 1704 1708 1711 1710 1717 
205 225 72 224 1715 1711 1520 1706 1717 1708 
206 72 225 73 1526 1711 1716 1530 1529 1718 
225 72 92 73 1711 1712 1714 1718 1529 1719 
73 92 226 93 1719 1720 1721 1722 1723 1724 
206 226 207 73 1725 1726 1543 1530 1721 1536 
73 92 225 226 1719 1714 1718 1721 1720 1727 
206 226 73 225 1725 1721 1530 1716 1727 1718 
207 73 226 74 1536 1721 1726 1540 1539 1728 
226 73 93 74 1721 1722 1724 1728 1539 1729 
74 93 227 94 1729 1730 1731 1732 1733 1734 
207 227 208 74 1735 1736 1553 1540 1731 1546 
74 93 226 227 1729 1724 1728 1731 1730 1737 
207 227 74 226 1735 1731 1540 1726 1737 1728 
208 74 227 75 1546 1731 1736 1550 1549 1738 
227 74 94 75 1731 1732 1734 1738 1549 1739 
76 95 229 96 1740 1741 1742 1743 1744 1745 
209 229 210 76 1746 1747 1566 1564 1742 1557 
76 95 228 229 1740 1748 1749 1742 1741 1750 
209 229 76 228 1746 1742 1564 1751 1750 1749 
210 76 229 77 1557 1742 1747 1561 1560 1752 
229 76 96 77 1742 1743 1745 1752 1560 1753 
77 96 230 97 1753 1754 1755 1756 1757 1758 
210 230 211 77 1759 1760 1577 1561 1755 1570 
77 96 229 230 1753 1745 1752 1755 1754 1761 
210 230 77 229 1759 1755 1561 1747 1761 1752 
211 77 230 78 1570 1755 1760 1574 1573 1762 
230 77 97 78 1755 1756 1758 1762 1573 1763 
78 97 231 98 1763 1764 1765 1766 1767 1768 
211 231 212 78 1769 1770 1587 1574 1765 1580 
78 97 230 231 1763 1758 1762 1765 1764 1771 
211 231 78 230 1769 1765 1574 1760 1771 1762 
212 78 231 79 1580 1765 1770 1584 1583 1772 
231 78 98 79 1765 1766 1768 1772 1583 1773 
79 98 232 99 1773 1774 1775 1776 1777 1778 
212 232 213 79 1779 1780 1597 1584 1775 1590 
79 98 231 232 1773 1768 1772 1775 1774 1781 
212 232 79 231 1779 1775 1584 1770 1781 1772 
213 79 232 80 1590 1775 1780 1594 1593 1782 
232 79 99 80 1775 1776 1778 1782 1593 1783 
80 99 233 100 1783 1784 1785 1786 1787 1788 
213 233 214 80 1789 1790 1607 1594 1785 1600 
80 99 232 233 1783 1778 1782 1785 1784 1791 
213 233 80 232 1789 1785 1594 1780 1791 1782 
214 80 233 81 1600 1785 1790 1604 1603 1792 
233 80 100 81 1785 1786 1788 1792 1603 1793 
81 100 234 101 1793 1794 1795 1796 1797 1798 
214 234 215 81 1799 1800 1617 1604 1795 1610 
81 100 233 234 1793 1788 1792 1795 1794 1801 
214 234 81 233 1799 1795 1604 1790 1801 1792 
215 81 234 82 1610 1795 1800 1614 1613 1802 
234 81 101 82 1795 1796 1798 1802 1613 1803 
82 101 235 102 1803 1804 1805 1806 1807 1808 
215 235 216 82 1809 1810 1627 1614 1805 1620 
82 101 234 235 1803 1798 1802 1805 1804 1811 
215 235 82 234 1809 1805 1614 1800 1811 1802 
216 82 235 83 1620 1805 1810 1624 1623 1812 
235 82 102 83 1805 1806 1808 1812 1623 1813 
83 102 236 103 1813 1814 1815 1816 1817 1818 
216 236 217 83 1819 1820 1637 1624 1815 1630 
83 102 235 236 1813 1808 1812 1815 1814 1821 
216 236 83 235 1819 1815 1624 1810 1821 1812 
217 83 236 84 1630 1815 1820 1634 1633 1822 
236 83 103 84 1815 1816 1818 1822 1633 1823 
84 103 237 104 1823 1824 1825 1826 1827 1828 
217 237 218 84 1829 1830 1647 1634 1825 1640 
84 103 236 237 1823 1818 1822 1825 1824 1831 
217 237 84 236 1829 1825 1634 1820 1831 1822 
218 84 237 85 1640 1825 1830 1644 1643 1832 
237 84 104 85 1825 1826 1828 1832 1643 1833 
85 104 238 105 1833 1834 1835 1836 1837 1838 
218 238 219 85 1839 1840 1657 1644 1835 1650 
85 104 237 238 1833 1828 1832 1835 1834 1841 
218 238 85 237 1839 1835 1644 1830 1841 1832 
219 85 238 86 1650 1835 1840 1654 1653 1842 
238 85 105 86 1835 1836 1838 1842 1653 1843 
86 105 239 106 1843 1844 1845 1846 1847 1848 
219 239 220 86 1849 1850 1667 1654 1845 1660 
86 105 238 239 1843 1838 1842 1845 1844 1851 
219 239 86 238 1849 1845 1654 1840 1851 1842 
220 86 239 87 1660 1845 1850 1664 1663 1852 
239 86 106 87 1845 1846 1848 1852 1663 1853 
87 106 240 107 1853 1854 1855 1856 1857 1858 
220 240 221 87 1859 1860 1677 1664 1855 1670 
87 106 239 240 1853 1848 1852 1855 1854 1861 
220 240 87 239 1859 1855 1664 1850 1861 1852 
221 87 240 88 1670 1855 1860 1674 1673 1862 
240 87 107 88 1855 1856 1858 1862 1673 1863 
88 107 241 108 1863 1864 1865 1866 1867 1868 
221 241 222 88 1869 1870 1687 1674 1865 1680 
88 107 240 241 1863 1858 1862 1865 1864 1871 
221 241 88 240 1869 1865 1674 1860 1871 1862 
222 88 241 89 1680 1865 1870 1684 1683 1872 
241 88 108 89 1865 1866 1868 1872 1683 1873 
89 108 242 109 1873 1874 1875 1876 1877 1878 
222 242 223 89 1879 1880 1697 1684 1875 1690 
89 108 241 242 1873 1868 1872 1875 1874 1881 
222 242 89 241 1879 1875 1684 1870 1881 1872 
223 89 242 90 1690 1875 1880 1694 1693 1882 
242 89 109 90 1875 1876 1878 1882 1693 1883 
90 109 243 110 1883 1884 1885 1886 1887 1888 
223 243 224 90 1889 1890 1707 1694 1885 1700 
90 109 242 243 1883 1878 1882 1885 1884 1891 
223 243 90 242 1889 1885 1694 1880 1891 1882 
224 90 243 91 1700 1885 1890 1704 1703 1892 
243 90 110 91 1885 1886 1888 1892 1703 1893 
91 110 244 111 1893 1894 1895 1896 1897 1898 
224 244 225 91 1899 1900 1717 1704 1895 1710 
91 110 243 244 1893 1888 1892 1895 1894 1901 
224 244 91 243 1899 1895 1704 1890 1901 1892 
225 91 244 92 1710 1895 1900 1714 1713 1902 
244 91 111 92 1895 1896 1898 1902 1713 1903 
92 111 245 112 1903 1904 1905 1906 1907 1908 
225 245 226 92 1909 1910 1727 1714 1905 1720 
92 111 244 245 1903 1898 1902 1905 1904 1911 
225 245 92 244 1909 1905 1714 1900 1911 1902 
226 92 245 93 1720 1905 1910 1724 1723 1912 
245 92 112 93 1905 1906 1908 1912 1723 1913 
93 112 246 113 1913 1914 1915 1916 1917 1918 
226 246 227 93 1919 1920 1737 1724 1915 1730 
93 112 245 246 1913 1908 1912 1915 1914 1921 
226 246 93 245 1919 1915 1724 1910 1921 1912 
227 93 246 94 1730 1915 1920 1734 1733 1922 
246 93 113 94 1915 1916 1918 1922 1733 1923 
95 114 248 115 1924 1925 1926 1927 1928 1929 
228 248 229 95 1930 1931 1750 1748 1926 1741 
95 114 247 248 1924 1932 1933 1926 1925 1934 
228 248 95 247 1930 1926 1748 1935 1934 1933 
229 95 248 96 1741 1926 1931 1745 1744 1936 
248 95 115 96 1926 1927 1929 1936 1744 1937 
96 115 249 116 1937 1938 1939 1940 1941 1942 
229 249 230 96 1943 1944 1761 1745 1939 1754 
96 115 248 249 1937 1929 1936 1939 1938 1945 
229 249 96 248 1943 1939 1745 1931 1945 1936 
230 96 249 97 1754 1939 1944 1758 1757 1946 
249 96 116 97 1939 1940 1942 1946 1757 1947 
97 116 250 117 1947 1948 1949 1950 1951 1952 
230 250 231 97 1953 1954 1771 1758 1949 1764 
97 116 249 250 1947 1942 1946 1949 1948 1955 
230 250 97 249 1953 1949 1758 1944 1955 1946 
231 97 250 98 1764 1949 1954 1768 1767 1956 
250 97 117 98 1949 1950 1952 1956 1767 1957 
98 117 251 118 1957 1958 1959 1960 1961 1962 
231 251 232 98 1963 1964 1781 1768 1959 1774 
98 117 250 251 1957 1952 1956 1959 1958 1965 
231 251 98 250 1963 1959 1768 1954 1965 1956 
232 98 251 99 1774 1959 1964 1778 1777 1966 
251 98 118 99 1959 1960 1962 1966 1777 1967 
99 118 252 119 1967 1968 1969 1970 1971 1972 
232 252 233 99 1973 1974 1791 1778 1969 1784 
99 118 251 252 1967 1962 1966 1969 1968 1975 
232 252 99 251 1973 1969 1778 1964 1975 1966 
233 99 252 100 1784 1969 1974 1788 1787 1976 
252 99 119 100 1969 1970 1972 1976 1787 1977 
100 119 253 120 1977 1978 1979 1980 1981 1982 
233 253 234 100 1983 1984 1801 1788 1979 1794 
100 119 252 253 1977 1972 1976 1979 1978 1985 
233 253 100 252 1983 1979 1788 1974 1985 1976 
234 100 253 101 1794 1979 1984 1798 1797 1986 
253 100 120 101 1979 1980 1982 1986 1797 1987 
101 120 254 121 1987 1988 1989 1990 1991 1992 
234 254 235 101 1993 1994 1811 1798 1989 1804 
101 120 253 254 1987 1982 1986 1989 1988 1995 
234 254 101 253 1993 1989 1798 1984 1995 1986 
235 101 254 102 1804 1989 1994 1808 1807 1996 
254 101 121 102 1989 1990 1992 1996 1807 1997 
102 121 255 122 1997 1998 1999 2000 2001 2002 
235 255 236 102 2003 2004 1821 1808 1999 1814 
102 121 254 255 1997 1992 1996 1999 1998 2005 
235 255 102 254 2003 1999 1808 1994 2005 1996 
236 102 255 103 1814 1999 2004 1818 1817 2006 
255 102 122 103 1999 2000 2002 2006 1817 2007 
103 122 256 123 2007 2008 2009 2010 2011 2012 
236 256 237 103 2013 2014 1831 1818 2009 1824 
103 122 255 256 2007 2002 2006 2009 2008 2015 
236 256 103 255 2013 2009 1818 2004 2015 2006 
237 103 256 104 1824 2009 2014 1828 1827 2016 
256 103 123 104 2009 2010 2012 2016 1827 2017 
104 123 257 124 2017 2018 2019 2020 2021 2022 
237 257 238 104 2023 2024 1841 1828 2019 1834 
104 123 256 257 2017 2012 2016 2019 2018 2025 
237 257 104 256 2023 2019 1828 2014 2025 2016 
238 104 257 105 1834 2019 2024 1838 1837 2026 
257 104 124 105 2019 2020 2022 2026 1837 2027 
105 124 258 125 2027 2028 2029 2030 2031 2032 
238 258 239 105 2033 2034 1851 1838 2029 1844 
105 124 257 258 2027 2022 2026 2029 2028 2035 
238 258 105 257 2033 2029 1838 2024 2035 2026 
239 105 258 106 1844 2029 2034 1848 1847 2036 
258 105 125 106 2029 2030 2032 2036 1847 2037 
106 125 259 126 2037 2038 2039 2040 2041 2042 
239 259 240 106 2043 2044 1861 1848 2039 1854 
106 125 258 259 2037 2032 2036 2039 2038 2045 
239 259 106 258 2043 2039 1848 2034 2045 2036 
240 106 259 107 1854 2039 2044 1858 1857 2046 
259 106 126 107 2039 2040 2042 2046 1857 2047 
107 126 260 127 2047 2048 2049 2050 2051 2052 
240 260 241 107 2053 2054 1871 1858 2049 1864 
107 126 259 260 2047 2042 2046 2049 2048 2055 
240 260 107 259 2053 2049 1858 2044 2055 2046 
241 107 260 108 1864 2049 2054 1868 1867 2056 
260 107 127 108 2049 2050 2052 2056 1867 2057 
108 127 261 128 2057 2058 2059 2060 2061 2062 
241 261 242 108 2063 2064 1881 1868 2059 1874 
108 127 260 261 2057 2052 2056 2059 2058 2065 
241 261 108 260 2063 2059 1868 2054 2065 2056 
242 108 261 109 1874 2059 2064 1878 1877 2066 
261 108 128 109 2059 2060 2062 2066 1877 2067 
109 128 262 129 2067 2068 2069 2070 2071 2072 
242 262 243 109 2073 2074 1891 1878 2069 1884 
109 128 261 262 2067 2062 2066 2069 2068 2075 
242 262 109 261 2073 2069 1878 2064 2075 2066 
243 109 262 110 1884 2069 2074 1888 1887 2076 
262 109 129 110 2069 2070 2072 2076 1887 2077 
110 129 263 130 2077 2078 2079 2080 2081 2082 
243 263 244 110 2083 2084 1901 1888 2079 1894 
110 129 262 263 2077 2072 2076 2079 2078 2085 
243 263 110 262 2083 2079 1888 2074 2085 2076 
244 110 263 111 1894 2079 2084 1898 1897 2086 
263 110 130 111 2079 2080 2082 2086 1897 2087 
111 130 264 131 2087 2088 2089 2090 2091 2092 
244 264 245 111 2093 2094 1911 1898 2089 1904 
111 130 263 264 2087 2082 2086 2089 2088 2095 
244 264 111 263 2093 2089 1898 2084 2095 2086 
245 111 264 112 1904 2089 2094 1908 1907 2096 
264 111 131 112 2089 2090 2092 2096 1907 2097 
112 131 265 132 2097 2098 2099 2100 2101 2102 
245 265 246 112 2103 2104 1921 1908 2099 1914 
112 131 264 265 2097 2092 2096 2099 2098 2105 
245 265 112 264 2103 2099 1908 2094 2105 2096 
246 112 265 113 1914 2099 2104 1918 1917 2106 
265 112 132 113 2099 2100 2102 2106 1917 2107 
133 152 286 153 945 2108 2109 937 944 2110 
266 286 267 133 2111 2112 2113 2114 2109 2115 
133 152 285 286 945 2116 2117 2109 2108 2118 
266 286 133 285 2111 2109 2114 2119 2118 2117 
267 133 286 134 2115 2109 2112 2120 939 2121 
286 133 153 134 2109 937 2110 2121 939 938 
134 153 287 154 938 2122 2123 955 959 2124 
267 287 268 134 2125 2126 2127 2120 2123 2128 
134 153 286 287 938 2110 2121 2123 2122 2129 
267 287 134 286 2125 2123 2120 2112 2129 2121 
268 134 287 135 2128 2123 2126 2130 957 2131 
287 134 154 135 2123 955 2124 2131 957 956 
135 154 288 155 956 2132 2133 969 973 2134 
268 288 269 135 2135 2136 2137 2130 2133 2138 
135 154 287 288 956 2124 2131 2133 2132 2139 
268 288 135 287 2135 2133 2130 2126 2139 2131 
269 135 288 136 2138 2133 2136 2140 971 2141 
288 135 155 136 2133 969 2134 2141 971 970 
136 155 289 156 970 2142 2143 983 987 2144 
269 289 270 136 2145 2146 2147 2140 2143 2148 
136 155 288 289 970 2134 2141 2143 2142 2149 
269 289 136 288 2145 2143 2140 2136 2149 2141 
270 136 289 137 2148 2143 2146 2150 985 2151 
289 136 156 137 2143 983 2144 2151 985 984 
137 156 290 157 984 2152 2153 997 1001 2154 
270 290 271 137 2155 2156 2157 2150 2153 2158 
137 156 289 290 984 2144 2151 2153 2152 2159 
270 290 137 289 2155 2153 2150 2146 2159 2151 
271 137 290 138 2158 2153 2156 2160 999 2161 
290 137 157 138 2153 997 2154 2161 999 998 
138 157 291 158 998 2162 2163 1011 1015 2164 
271 291 272 138 2165 2166 2167 2160 2163 2168 
138 157 290 291 998 2154 2161 2163 2162 2169 
271 291 138 290 2165 2163 2160 2156 2169 2161 
272 138 291 139 2168 2163 2166 2170 1013 2171 
291 138 158 139 2163 1011 2164 2171 1013 1012 
139 158 292 159 1012 2172 2173 1025 1029 2174 
272 292 273 139 2175 2176 2177 2170 2173 2178 
139 158 291 292 1012 2164 2171 2173 2172 2179 
272 292 139 291 2175 2173 2170 2166 2179 2171 
273 139 292 140 2178 2173 2176 2180 1027 2181 
292 139 159 140 2173 1025 2174 2181 1027 1026 
140 159 293 160 1026 2182 2183 1039 1043 2184 
273 293 274 140 2185 2186 2187 2180 2183 2188 
140 159 292 293 1026 2174 2181 2183 2182 2189 
273 293 140 292 2185 2183 2180 2176 2189 2181 
274 140 293 141 2188 2183 2186 2190 1041 2191 
293 140 160 141 2183 1039 2184 2191 1041 1040 
141 160 294 161 1040 2192 2193 1053 1057 2194 
274 294 275 141 2195 2196 2197 2190 2193 2198 
141 160 293 294 1040 2184 2191 2193 2192 2199 
274 294 141 293 2195 2193 2190 2186 2199 2191 
275 141 294 142 2198 2193 2196 2200 1055 2201 
294 141 161 142 2193 1053 2194 2201 1055 1054 
142 161 295 162 1054 2202 2203 1067 1071 2204 
275 295 276 142 2205 2206 2207 2200 2203 2208 
142 161 294 295 1054 2194 2201 2203 2202 2209 
275 295 142 294 2205 2203 2200 2196 2209 2201 
276 142 295 143 2208 2203 2206 2210 1069 2211 
295 142 162 143 2203 1067 2204 2211 1069 1068 
143 162 296 163 1068 2212 2213 1081 1085 2214 
276 296 277 143 2215 2216 2217 2210 2213 2218 
143 162 295 296 1068 2204 2211 2213 2212 2219 
276 296 143 295 2215 2213 2210 2206 2219 2211 
277 143 296 144 2218 2213 2216 2220 1083 2221 
296 143 163 144 2213 1081 2214 2221 1083 1082 
144 163 297 164 1082 2222 2223 1095 1099 2224 
277 297 278 144 2225 2226 2227 2220 2223 2228 
144 163 296 297 1082 2214 2221 2223 2222 2229 
277 297 144 296 2225 2223 2220 2216 2229 2221 
278 144 297 145 2228 2223 2226 2230 1097 2231 
297 144 164 145 2223 1095 2224 2231 1097 1096 
145 164 298 165 1096 2232 2233 1109 1113 2234 
278 298 279 145 2235 2236 2237 2230 2233 2238 
145 164 297 298 1096 2224 2231 2233 2232 2239 
278 298 145 297 2235 2233 2230 2226 2239 2231 
279 145 298 146 2238 2233 2236 2240 1111 2241 
298 145 165 146 2233 1109 2234 2241 1111 1110 
146 165 299 166 1110 2242 2243 1123 1127 2244 
279 299 280 146 2245 2246 2247 2240 2243 2248 
146 165 298 299 1110 2234 2241 2243 2242 2249 
279 299 146 298 2245 2243 2240 2236 2249 2241 
280 146 299 147 2248 2243 2246 2250 1125 2251 
299 146 166 147 2243 1123 2244 2251 1125 1124 
147 166 300 167 1124 2252 2253 1137 1141 2254 
280 300 281 147 2255 2256 2257 2250 2253 2258 
147 166 299 300 1124 2244 2251 2253 2252 2259 
280 300 147 299 2255 2253 2250 2246 2259 2251 
281 147 300 148 2258 2253 2256 2260 1139 2261 
300 147 167 148 2253 1137 2254 2261 1139 1138 
148 167 301 168 1138 2262 2263 1151 1155 2264 
281 301 282 148 2265 2266 2267 2260 2263 2268 
148 167 300 301 1138 2254 2261 2263 2262 2269 
281 301 148 300 2265 2263 2260 2256 2269 2261 
282 148 301 149 2268 2263 2266 2270 1153 2271 
301 148 168 149 2263 1151 2264 2271 1153 1152 
149 168 302 169 1152 2272 2273 1165 1169 2274 
282 302 283 149 2275 2276 2277 2270 2273 2278 
149 168 301 302 1152 2264 2271 2273 2272 2279 
282 302 149 301 2275 2273 2270 2266 2279 2271 
283 149 302 150 2278 2273 2276 2280 1167 2281 
302 149 169 150 2273 1165 2274 2281 1167 1166 
150 169 303 170 1166 2282 2283 1179 1183 2284 
283 303 284 150 2285 2286 2287 2280 2283 2288 
150 169 302 303 1166 2274 2281 2283 2282 2289 
283 303 150 302 2285 2283 2280 2276 2289 2281 
284 150 303 151 2288 2283 2286 2290 1181 2291 
303 150 170 151 2283 1179 2284 2291 1181 1180 
152 171 305 172 1199 2292 2293 1194 1198 2294 
285 305 286 152 2295 2296 2118 2116 2293 2108 
152 171 304 305 1199 2297 2298 2293 2292 2299 
285 305 152 304 2295 2293 2116 2300 2299 2298 
286 152 305 153 2108 2293 2296 2110 944 2301 
305 152 172 153 2293 1194 2294 2301 944 1195 
153 172 306 173 1195 2302 2303 1207 1209 2304 
286 306 287 153 2305 2306 2129 2110 2303 2122 
153 172 305 306 1195 2294 2301 2303 2302 2307 
286 306 153 305 2305 2303 2110 2296 2307 2301 
287 153 306 154 2122 2303 2306 2124 959 2308 
306 153 173 154 2303 1207 2304 2308 959 1208 
154 173 307 174 1208 2309 2310 1217 1219 2311 
287 307 288 154 2312 2313 2139 2124 2310 2132 
154 173 306 307 1208 2304 2308 2310 2309 2314 
287 307 154 306 2312 2310 2124 2306 2314 2308 
288 154 307 155 2132 2310 2313 2134 973 2315 
307 154 174 155 2310 1217 2311 2315 973 1218 
155 174 308 175 1218 2316 2317 1227 1229 2318 
288 308 289 155 2319 2320 2149 2134 2317 2142 
155 174 307 308 1218 2311 2315 2317 2316 2321 
288 308 155 307 2319 2317 2134 2313 2321 2315 
289 155 308 156 2142 2317 2320 2144 987 2322 
308 155 175 156 2317 1227 2318 2322 987 1228 
156 175 309 176 1228 2323 2324 1237 1239 2325 
289 309 290 156 2326 2327 2159 2144 2324 2152 
156 175 308 309 1228 2318 2322 2324 2323 2328 
289 309 156 308 2326 2324 2144 2320 2328 2322 
290 156 309 157 2152 2324 2327 2154 1001 2329 
309 156 176 157 2324 1237 2325 2329 1001 1238 
157 176 310 177 1238 2330 2331 1247 1249 2332 
290 310 291 157 2333 2334 2169 2154 2331 2162 
157 176 309 310 1238 2325 2329 2331 2330 2335 
290 310 157 309 2333 2331 2154 2327 2335 2329 
291 157 310 158 2162 2331 2334 2164 1015 2336 
310 157 177 158 2331 1247 2332 2336 1015 1248 
158 177 311 178 1248 2337 2338 1257 1259 2339 
291 311 292 158 2340 2341 2179 2164 2338 2172 
158 177 310 311 1248 2332 2336 2338 2337 2342 
291 311 158 310 2340 2338 2164 2334 2342 2336 
292 158 311 159 2172 2338 2341 2174 1029 2343 
311 158 178 159 2338 1257 2339 2343 1029 1258 
159 178 312 179 1258 2344 2345 1267 1269 2346 
292 312 293 159 2347 2348 2189 2174 2345 2182 
159 178 311 312 1258 2339 2343 2345 2344 2349 
292 312 159 311 2347 2345 2174 2341 2349 2343 
293 159 312 160 2182 2345 2348 2184 1043 2350 
312 159 179 160 2345 1267 2346 2350 1043 1268 
160 179 313 180 1268 2351 2352 1277 1279 2353 
293 313 294 160 2354 2355 2199 2184 2352 2192 
160 179 312 313 1268 2346 2350 2352 2351 2356 
293 313 160 312 2354 2352 2184 2348 2356 2350 
294 160 313 161 2192 2352 2355 2194 1057 2357 
313 160 180 161 2352 1277 2353 2357 1057 1278 
161 180 314 181 1278 2358 2359 1287 1289 2360 
294 314 295 161 2361 2362 2209 2194 2359 2202 
161 180 313 314 1278 2353 2357 2359 2358 2363 
294 314 161 313 2361 2359 2194 2355 2363 2357 
295 161 314 162 2202 2359 2362 2204 1071 2364 
314 161 181 162 2359 1287 2360 2364 1071 1288 
162 181 315 182 1288 2365 2366 1297 1299 2367 
295 315 296 162 2368 2369 2219 2204 2366 2212 
162 181 314 315 1288 2360 2364 2366 2365 2370 
295 315 162 314 2368 2366 2204 2362 2370 2364 
296 162 315 163 2212 2366 2369 2214 1085 2371 
315 162 182 163 2366 1297 2367 2371 1085 1298 
163 182 316 183 1298 2372 2373 1307 1309 2374 
296 316 297 163 2375 2376 2229 2214 2373 2222 
163 182 315 316 1298 2367 2371 2373 2372 2377 
296 316 163 315 2375 2373 2214 2369 2377 2371 
297 163 316 164 2222 2373 2376 2224 1099 2378 
316 163 183 164 2373 1307 2374 2378 1099 1308 
164 183 317 184 1308 2379 2380 1317 1319 2381 
297 317 298 164 2382 2383 2239 2224 2380 2232 
164 183 316 317 1308 2374 2378 2380 2379 2384 
297 317 164 316 2382 2380 2224 2376 2384 2378 
298 164 317 165 2232 2380 2383 2234 1113 2385 
317 164 184 165 2380 1317 2381 2385 1113 1318 
165 184 318 185 1318 2386 2387 1327 1329 2388 
298 318 299 165 2389 2390 2249 2234 2387 2242 
165 184 317 318 1318 2381 2385 2387 2386 2391 
298 318 165 317 2389 2387 2234 2383 2391 2385 
299 165 318 166 2242 2387 2390 2244 1127 2392 
318 165 185 166 2387 1327 2388 2392 1127 1328 
166 185 319 186 1328 2393 2394 1337 1339 2395 
299 319 300 166 2396 2397 2259 2244 2394 2252 
166 185 318 319 1328 2388 2392 2394 2393 2398 
299 319 166 318 2396 2394 2244 2390 2398 2392 
300 166 319 167 2252 2394 2397 2254 1141 2399 
319 166 186 167 2394 1337 2395 2399 1141 1338 
167 186 320 187 1338 2400 2401 1347 1349 2402 
300 320 301 167 2403 2404 2269 2254 2401 2262 
167 186 319 320 1338 2395 2399 2401 2400 2405 
300 320 167 319 2403 2401 2254 2397 2405 2399 
301 167 320 168 2262 2401 2404 2264 1155 2406 
320 167 187 168 2401 1347 2402 2406 1155 1348 
168 187 321 188 1348 2407 2408 1357 1359 2409 
301 321 302 168 2410 2411 2279 2264 2408 2272 
168 187 320 321 1348 2402 2406 2408 2407 2412 
301 321 168 320 2410 2408 2264 2404 2412 2406 
302 168 321 169 2272 2408 2411 2274 1169 2413 
321 168 188 169 2408 1357 2409 2413 1169 1358 
169 188 322 189 1358 2414 2415 1367 1369 2416 
302 322 303 169 2417 2418 2289 2274 2415 2282 
169 188 321 322 1358 2409 2413 2415 2414 2419 
302 322 169 321 2417 2415 2274 2411 2419 2413 
303 169 322 170 2282 2415 2418 2284 1183 2420 
322 169 189 170 2415 1367 2416 2420 1183 1368 
171 190 324 191 1383 2421 2422 1378 1382 2423 
304 324 305 171 2424 2425 2299 2297 2422 2292 
171 190 323 324 1383 2426 2427 2422 2421 2428 
304 324 171 323 2424 2422 2297 2429 2428 2427 
305 171 324 172 2292 2422 2425 2294 1198 2430 
324 171 191 172 2422 1378 2423 2430 1198 1379 
172 191 325 192 1379 2431 2432 1391 1393 2433 
305 325 306 172 2434 2435 2307 2294 2432 2302 
172 191 324 325 1379 2423 2430 2432 2431 2436 
305 325 172 324 2434 2432 2294 2425 2436 2430 
306 172 325 173 2302 2432 2435 2304 1209 2437 
325 172 192 173 2432 1391 2433 2437 1209 1392 
173 192 326 193 1392 2438 2439 1401 1403 2440 
306 326 307 173 2441 2442 2314 2304 2439 2309 
173 192 325 326 1392 2433 2437 2439 2438 2443 
306 326 173 325 2441 2439 2304 2435 2443 2437 
307 173 326 174 2309 2439 2442 2311 1219 2444 
326 173 193 174 2439 1401 2440 2444 1219 1402 
174 193 327 194 1402 2445 2446 1411 1413 2447 
307 327 308 174 2448 2449 2321 2311 2446 2316 
174 193 326 327 1402 2440 2444 2446 2445 2450 
307 327 174 326 2448 2446 2311 2442 2450 2444 
308 174 327 175 2316 2446 2449 2318 1229 2451 
327 174 194 175 2446 1411 2447 2451 1229 1412 
175 194 328 195 1412 2452 2453 1421 1423 2454 
308 328 309 175 2455 2456 2328 2318 2453 2323 
175 194 327 328 1412 2447 2451 2453 2452 2457 
308 328 175 327 2455 2453 2318 2449 2457 2451 
309 175 328 176 2323 2453 2456 2325 1239 2458 
328 175 195 176 2453 1421 2454 2458 1239 1422 
176 195 329 196 1422 2459 2460 1431 1433 2461 
309 329 310 176 2462 2463 2335 2325 2460 2330 
176 195 328 329 1422 2454 2458 2460 2459 2464 
309 329 176 328 2462 2460 2325 2456 2464 2458 
310 176 329 177 2330 2460 2463 2332 1249 2465 
329 176 196 177 2460 1431 2461 2465 1249 1432 
177 196 330 197 1432 2466 2467 1441 1443 2468 
310 330 311 177 2469 2470 2342 2332 2467 2337 
177 196 329 330 1432 2461 2465 2467 2466 2471 
310 330 177 329 2469 2467 2332 2463 2471 2465 
311 177 330 178 2337 2467 2470 2339 1259 2472 
330 177 197 178 2467 1441 2468 2472 1259 1442 
178 197 331 198 1442 2473 2474 1451 1453 2475 
311 331 312 178 2476 2477 2349 2339 2474 2344 
178 197 330 331 1442 2468 2472 2474 2473 2478 
311 331 178 330 2476 2474 2339 2470 2478 2472 
312 178 331 179 2344 2474 2477 2346 1269 2479 
331 178 198 179 2474 1451 2475 2479 1269 1452 
179 198 332 199 1452 2480 2481 1461 1463 2482 
312 332 313 179 2483 2484 2356 2346 2481 2351 
179 198 331 332 1452 2475 2479 2481 2480 2485 
312 332 179 331 2483 2481 2346 2477 2485 2479 
313 179 332 180 2351 2481 2484 2353 1279 2486 
332 179 199 180 2481 1461 2482 2486 1279 1462 
180 199 333 200 1462 2487 2488 1471 1473 2489 
313 333 314 180 2490 2491 2363 2353 2488 2358 
180 199 332 333 1462 2482 2486 2488 2487 2492 
313 333 180 332 2490 2488 2353 2484 2492 2486 
314 180 333 181 2358 2488 2491 2360 1289 2493 
333 180 200 181 2488 1471 2489 2493 1289 1472 
181 200 334 201 1472 2494 2495 1481 1483 2496 
314 334 315 181 2497 2498 2370 2360 2495 2365 
181 200 333 334 1472 2489 2493 2495 2494 2499 
314 334 181 333 2497 2495 2360 2491 2499 2493 
315 181 334 182 2365 2495 2498 2367 1299 2500 
334 181 201 182 2495 1481 2496 2500 1299 1482 
182 201 335 202 1482 2501 2502 1491 1493 2503 
315 335 316 182 2504 2505 2377 2367 2502 2372 
182 201 334 335 1482 2496 2500 2502 2501 2506 
315 335 182 334 2504 2502 2367 2498 2506 2500 
316 182 335 183 2372 2502 2505 2374 1309 2507 
335 182 202 183 2502 1491 2503 2507 1309 1492 
183 202 336 203 1492 2508 2509 1501 1503 2510 
316 336 317 183 2511 2512 2384 2374 2509 2379 
183 202 335 336 1492 2503 2507 2509 2508 2513 
316 336 183 335 2511 2509 2374 2505 2513 2507 
317 183 336 184 2379 2509 2512 2381 1319 2514 
336 183 203 184 2509 1501 2510 2514 1319 1502 
184 203 337 204 1502 2515 2516 1511 1513 2517 
317 337 318 184 2518 2519 2391 2381 2516 2386 
184 203 336 337 1502 2510 2514 2516 2515 2520 
317 337 184 336 2518 2516 2381 2512 2520 2514 
318 184 337 185 2386 2516 2519 2388 1329 2521 
337 184 204 185 2516 1511 2517 2521 1329 1512 
185 204 338 205 1512 2522 2523 1521 1523 2524 
318 338 319 185 2525 2526 2398 2388 2523 2393 
185 204 337 338 1512 2517 2521 2523 2522 2527 
318 338 185 337 2525 2523 2388 2519 2527 2521 
319 185 338 186 2393 2523 2526 2395 1339 2528 
338 185 205 186 2523 1521 2524 2528 1339 1522 
186 205 339 206 1522 2529 2530 1531 1533 2531 
319 339 320 186 2532 2533 2405 2395 2530 2400 
186 205 338 339 1522 2524 2528 2530 2529 2534 
319 339 186 338 2532 2530 2395 2526 2534 2528 
320 186 339 187 2400 2530 2533 2402 1349 2535 
339 186 206 187 2530 1531 2531 2535 1349 1532 
187 206 340 207 1532 2536 2537 1541 1543 2538 
320 340 321 187 2539 2540 2412 2402 2537 2407 
187 206 339 340 1532 2531 2535 2537 2536 2541 
320 340 187 339 2539 2537 2402 2533 2541 2535 
321 187 340 188 2407 2537 2540 2409 1359 2542 
340 187 207 188 2537 1541 2538 2542 1359 1542 
188 207 341 208 1542 2543 2544 1551 1553 2545 
321 341 322 188 2546 2547 2419 2409 2544 2414 
188 207 340 341 1542 2538 2542 2544 2543 2548 
321 341 188 340 2546 2544 2409 2540 2548 2542 
322 188 341 189 2414 2544 2547 2416 1369 2549 
341 188 208 189 2544 1551 2545 2549 1369 1552 
190 209 343 210 1567 2550 2551 1562 1566 2552 
323 343 324 190 2553 2554 2428 2426 2551 2421 
190 209 342 343 1567 2555 2556 2551 2550 2557 
323 343 190 342 2553 2551 2426 2558 2557 2556 
324 190 343 191 2421 2551 2554 2423 1382 2559 
343 190 210 191 2551 1562 2552 2559 1382 1563 
191 210 344 211 1563 2560 2561 1575 1577 2562 
324 344 325 191 2563 2564 2436 2423 2561 2431 
191 210 343 344 1563 2552 2559 2561 2560 2565 
324 344 191 343 2563 2561 2423 2554 2565 2559 
325 191 344 192 2431 2561 2564 2433 1393 2566 
344 191 211 192 2561 1575 2562 2566 1393 1576 
192 211 345 212 1576 2567 2568 1585 1587 2569 
325 345 326 192 2570 2571 2443 2433 2568 2438 
192 211 344 345 1576 2562 2566 2568 2567 2572 
325 345 192 344 2570 2568 2433 2564 2572 2566 
326 192 345 193 2438 2568 2571 2440 1403 2573 
345 192 212 193 2568 1585 2569 2573 1403 1586 
193 212 346 213 1586 2574 2575 1595 1597 2576 
326 346 327 193 2577 2578 2450 2440 2575 2445 
193 212 345 346 1586 2569 2573 2575 2574 2579 
326 346 193 345 2577 2575 2440 2571 2579 2573 
327 193 346 194 2445 2575 2578 2447 1413 2580 
346 193 213 194 2575 1595 2576 2580 1413 1596 
194 213 347 214 1596 2581 2582 1605 1607 2583 
327 347 328 194 2584 2585 2457 2447 2582 2452 
194 213 346 347 1596 2576 2580 2582 2581 2586 
327 347 194 346 2584 2582 2447 2578 2586 2580 
328 194 347 195 2452 2582 2585 2454 1423 2587 
347 194 214 195 2582 1605 2583 2587 1423 1606 
195 214 348 215 1606 2588 2589 1615 1617 2590 
328 348 329 195 2591 2592 2464 2454 2589 2459 
195 214 347 348 1606 2583 2587 2589 2588 2593 
328 348 195 347 2591 2589 2454 2585 2593 2587 
329 195 348 196 2459 2589 2592 2461 1433 2594 
348 195 215 196 2589 1615 2590 2594 1433 1616 
196 215 349 216 1616 2595 2596 1625 1627 2597 
329 349 330 196 2598 2599 2471 2461 2596 2466 
196 215 348 349 1616 2590 2594 2596 2595 2600 
329 349 196 348 2598 2596 2461 2592 2600 2594 
330 196 349 197 2466 2596 2599 2468 1443 2601 
349 196 216 197 2596 1625 2597 2601 1443 1626 
197 216 350 217 1626 2602 2603 1635 1637 2604 
330 350 331 197 2605 2606 2478 2468 2603 2473 
197 216 349 350 1626 2597 2601 2603 2602 2607 
330 350 197 349 2605 2603 2468 2599 2607 2601 
331 197 350 198 2473 2603 2606 2475 1453 2608 
350 197 217 198 2603 1635 2604 2608 1453 1636 
198 217 351 218 1636 2609 2610 1645 1647 2611 
331 351 332 198 2612 2613 2485 2475 2610 2480 
198 217 350 351 1636 2604 2608 2610 2609 2614 
331 351 198 350 2612 2610 2475 2606 2614 2608 
332 198 351 199 2480 2610 2613 2482 1463 2615 
351 198 218 199 2610 1645 2611 2615 1463 1646 
199 218 352 219 1646 2616 2617 1655 1657 2618 
332 352 333 199 2619 2620 2492 2482 2617 2487 
199 218 351 352 1646 2611 2615 2617 2616 2621 
332 352 199 351 2619 2617 2482 2613 2621 2615 
333 199 352 200 2487 2617 2620 2489 1473 2622 
352 199 219 200 2617 1655 2618 2622 1473 1656 
200 219 353 220 1656 2623 2624 1665 1667 2625 
333 353 334 200 2626 2627 2499 2489 2624 2494 
200 219 352 353 1656 2618 2622 2624 2623 2628 
333 353 200 352 2626 2624 2489 2620 2628 2622 
334 200 353 201 2494 2624 2627 2496 1483 2629 
353 200 220 201 2624 1665 2625 2629 1483 1666 
201 220 354 221 1666 2630 2631 1675 1677 2632 
334 354 335 201 2633 2634 2506 2496 2631 2501 
201 220 353 354 1666 2625 2629 2631 2630 2635 
334 354 201 353 2633 2631 2496 2627 2635 2629 
335 201 354 202 2501 2631 2634 2503 1493 2636 
354 201 221 202 2631 1675 2632 2636 1493 1676 
202 221 355 222 1676 2637 2638 1685 1687 2639 
335 355 336 202 2640 2641 2513 2503 2638 2508 
202 221 354 355 1676 2632 2636 2638 2637 2642 
335 355 202 354 2640 2638 2503 2634 2642 2636 
336 202 355 203 2508 2638 2641 2510 1503 2643 
355 202 222 203 2638 1685 2639 2643 1503 1686 
203 222 356 223 1686 2644 2645 1695 1697 2646 
336 356 337 203 2647 2648 2520 2510 2645 2515 
203 222 355 356 1686 2639 2643 2645 2644 2649 
336 356 203 355 2647 2645 2510 2641 2649 2643 
337 203 356 204 2515 2645 2648 2517 1513 2650 
356 203 223 204 2645 1695 2646 2650 1513 1696 
204 223 357 224 1696 2651 2652 1705 1707 2653 
337 357 338 204 2654 2655 2527 2517 2652 2522 
204 223 356 357 1696 2646 2650 2652 2651 2656 
337 357 204 356 2654 2652 2517 2648 2656 2650 
338 204 357 205 2522 2652 2655 2524 1523 2657 
357 204 224 205 2652 1705 2653 2657 1523 1706 
205 224 358 225 1706 2658 2659 1715 1717 2660 
338 358 339 205 2661 2662 2534 2524 2659 2529 
205 224 357 358 1706 2653 2657 2659 2658 2663 
338 358 205 357 2661 2659 2524 2655 2663 2657 
339 205 358 206 2529 2659 2662 2531 1533 2664 
358 205 225 206 2659 1715 2660 2664 1533 1716 
206 225 359 226 1716 2665 2666 1725 1727 2667 
339 359 340 206 2668 2669 2541 2531 2666 2536 
206 225 358 359 1716 2660 2664 2666 2665 2670 
339 359 206 358 2668 2666 2531 2662 2670 2664 
340 206 359 207 2536 2666 2669 2538 1543 2671 
359 206 226 207 2666 1725 2667 2671 1543 1726 
207 226 360 227 1726 2672 2673 1735 1737 2674 
340 360 341 207 2675 2676 2548 2538 2673 2543 
207 226 359 360 1726 2667 2671 2673 2672 2677 
340 360 207 359 2675 2673 2538 2669 2677 2671 
341 207 360 208 2543 2673 2676 2545 1553 2678 
360 207 227 208 2673 1735 2674 2678 1553 1736 
209 228 362 229 1751 2679 2680 1746 1750 2681 
342 362 343 209 2682 2683 2557 2555 2680 2550 
209 228 361 362 1751 2684 2685 2680 2679 2686 
342 362 209 361 2682 2680 2555 2687 2686 2685 
343 209 362 210 2550 2680 2683 2552 1566 2688 
362 209 229 210 2680 1746 2681 2688 1566 1747 
210 229 363 230 1747 2689 2690 1759 1761 2691 
343 363 344 210 2692 2693 2565 2552 2690 2560 
210 229 362 363 1747 2681 2688 2690 2689 2694 
343 363 210 362 2692 2690 2552 2683 2694 2688 
344 210 363 211 2560 2690 2693 2562 1577 2695 
363 210 230 211 2690 1759 2691 2695 1577 1760 
211 230 364 231 1760 2696 2697 1769 1771 2698 
344 364 345 211 2699 2700 2572 2562 2697 2567 
211 230 363 364 1760 2691 2695 2697 2696 2701 
344 364 211 363 2699 2697 2562 2693 2701 2695 
345 211 364 212 2567 2697 2700 2569 1587 2702 
364 211 231 212 2697 1769 2698 2702 1587 1770 
212 231 365 232 1770 2703 2704 1779 1781 2705 
345 365 346 212 2706 2707 2579 2569 2704 2574 
212 231 364 365 1770 2698 2702 2704 2703 2708 
345 365 212 364 2706 2704 2569 2700 2708 2702 
346 212 365 213 2574 2704 2707 2576 1597 2709 
365 212 232 213 2704 1779 2705 2709 1597 1780 
213 232 366 233 1780 2710 2711 1789 1791 2712 
346 366 347 213 2713 2714 2586 2576 2711 2581 
213 232 365 366 1780 2705 2709 2711 2710 2715 
346 366 213 365 2713 2711 2576 2707 2715 2709 
347 213 366 214 2581 2711 2714 2583 1607 2716 
366 213 233 214 2711 1789 2712 2716 1607 1790 
214 233 367 234 1790 2717 2718 1799 1801 2719 
347 367 348 214 2720 2721 2593 2583 2718 2588 
214 233 366 367 1790 2712 2716 2718 2717 2722 
347 367 214 366 2720 2718 2583 2714 2722 2716 
348 214 367 215 2588 2718 2721 2590 1617 2723 
367 214 234 215 2718 1799 2719 2723 1617 1800 
215 234 368 235 1800 2724 2725 1809 1811 2726 
348 368 349 215 2727 2728 2600 2590 2725 2595 
215 234 367 368 1800 2719 2723 2725 2724 2729 
348 368 215 367 2727 2725 2590 2721 2729 2723 
349 215 368 216 2595 2725 2728 2597 1627 2730 
368 215 235 216 2725 1809 2726 2730 1627 1810 
216 235 369 236 1810 2731 2732 1819 1821 2733 
349 369 350 216 2734 2735 2607 2597 2732 2602 
216 235 368 369 1810 2726 2730 2732 2731 2736 
349 369 216 368 2734 2732 2597 2728 2736 2730 
350 216 369 217 2602 2732 2735 2604 1637 2737 
369 216 236 217 2732 1819 2733 2737 1637 1820 
217 236 370 237 1820 2738 2739 1829 1831 2740 
350 370 351 217 2741 2742 2614 2604 2739 2609 
217 236 369 370 1820 2733 2737 2739 2738 2743 
350 370 217 369 2741 2739 2604 2735 2743 2737 
351 217 370 218 2609 2739 2742 2611 1647 2744 
370 217 237 218 2739 1829 2740 2744 1647 1830 
218 237 371 238 1830 2745 2746 1839 1841 2747 
351 371 352 218 2748 2749 2621 2611 2746 2616 
218 237 370 371 1830 2740 2744 2746 2745 2750 
351 371 218 370 2748 2746 2611 2742 2750 2744 
352 218 371 219 2616 2746 2749 2618 1657 2751 
371 218 238 219 2746 1839 2747 2751 1657 1840 
219 238 372 239 1840 2752 2753 1849 1851 2754 
352 372 353 219 2755 2756 2628 2618 2753 2623 
219 238 371 372 1840 2747 2751 2753 2752 2757 
352 372 219 371 2755 2753 2618 2749 2757 2751 
353 219 372 220 2623 2753 2756 2625 1667 2758 
372 219 239 220 2753 1849 2754 2758 1667 1850 
220 239 373 240 1850 2759 2760 1859 1861 2761 
353 373 354 220 2762 2763 2635 2625 2760 2630 
220 239 372 373 1850 2754 2758 2760 2759 2764 
353 373 220 372 2762 2760 2625 2756 2764 2758 
354 220 373 221 2630 2760 2763 2632 1677 2765 
373 220 240 221 2760 1859 2761 2765 1677 1860 
221 240 374 241 1860 2766 2767 1869 1871 2768 
354 374 355 221 2769 2770 2642 2632 2767 2637 
221 240 373 374 1860 2761 2765 2767 2766 2771 
354 374 221 373 2769 2767 2632 2763 2771 2765 
355 221 374 222 2637 2767 2770 2639 1687 2772 
374 221 241 222 2767 1869 2768 2772 1687 1870 
222 241 375 242 1870 2773 2774 1879 1881 2775 
355 375 356 222 2776 2777 2649 2639 2774 2644 
222 241 374 375 1870 2768 2772 2774 2773 2778 
355 375 222 374 2776 2774 2639 2770 2778 2772 
356 222 375 223 2644 2774 2777 2646 1697 2779 
375 222 242 223 2774 1879 2775 2779 1697 1880 
223 242 376 243 1880 2780 2781 1889 1891 2782 
356 376 357 223 2783 2784 2656 2646 2781 2651 
223 242 375 376 1880 2775 2779 2781 2780 2785 
356 376 223 375 2783 2781 2646 2777 2785 2779 
357 223 376 224 2651 2781 2784 2653 1707 2786 
376 223 243 224 2781 1889 2782 2786 1707 1890 
224 243 377 244 1890 2787 2788 1899 1901 2789 
357 377 358 224 2790 2791 2663 2653 2788 2658 
224 243 376 377 1890 2782 2786 2788 2787 2792 
357 377 224 376 2790 2788 2653 2784 2792 2786 
358 224 377 225 2658 2788 2791 2660 1717 2793 
377 224 244 225 2788 1899 2789 2793 1717 1900 
225 244 378 245 1900 2794 2795 1909 1911 2796 
358 378 359 225 2797 2798 2670 2660 2795 2665 
225 244 377 378 1900 2789 2793 2795 2794 2799 
358 378 225 377 2797 2795 2660 2791 2799 2793 
359 225 378 226 2665 2795 2798 2667 1727 2800 
378 225 245 226 2795 1909 2796 2800 1727 1910 
226 245 379 246 1910 2801 2802 1919 1921 2803 
359 379 360 226 2804 2805 2677 2667 2802 2672 
226 245 378 379 1910 2796 2800 2802 2801 2806 
359 379 226 378 2804 2802 2667 2798 2806 2800 
360 226 379 227 2672 2802 2805 2674 1737 2807 
379 226 246 227 2802 1919 2803 2807 1737 1920 
228 247 381 248 1935 2808 2809 1930 1934 2810 
361 381 362 228 2811 2812 2686 2684 2809 2679 
228 247 380 381 1935 2813 2814 2809 2808 2815 
361 381 228 380 2811 2809 2684 2816 2815 2814 
362 228 381 229 2679 2809 2812 2681 1750 2817 
381 228 248 229 2809 1930 2810 2817 1750 1931 
229 248 382 249 1931 2818 2819 1943 1945 2820 
362 382 363 229 2821 2822 2694 2681 2819 2689 
229 248 381 382 1931 2810 2817 2819 2818 2823 
362 382 229 381 2821 2819 2681 2812 2823 2817 
363 229 382 230 2689 2819 2822 2691 1761 2824 
382 229 249 230 2819 1943 2820 2824 1761 1944 
230 249 383 250 1944 2825 2826 1953 1955 2827 
363 383 364 230 2828 2829 2701 2691 2826 2696 
230 249 382 383 1944 2820 2824 2826 2825 2830 
363 383 230 382 2828 2826 2691 2822 2830 2824 
364 230 383 231 2696 2826 2829 2698 1771 2831 
383 230 250 231 2826 1953 2827 2831 1771 1954 
231 250 384 251 1954 2832 2833 1963 1965 2834 
364 384 365 231 2835 2836 2708 2698 2833 2703 
231 250 383 384 1954 2827 2831 2833 2832 2837 
364 384 231 383 2835 2833 2698 2829 2837 2831 
365 231 384 232 2703 2833 2836 2705 1781 2838 
384 231 251 232 2833 1963 2834 2838 1781 1964 
232 251 385 252 1964 2839 2840 1973 1975 2841 
365 385 366 232 2842 2843 2715 2705 2840 2710 
232 251 384 385 1964 2834 2838 2840 2839 2844 
365 385 232 384 2842 2840 2705 2836 2844 2838 
366 232 385 233 2710 2840 2843 2712 1791 2845 
385 232 252 233 2840 1973 2841 2845 1791 1974 
233 252 386 253 1974 2846 2847 1983 1985 2848 
366 386 367 233 2849 2850 2722 2712 2847 2717 
233 252 385 386 1974 2841 2845 2847 2846 2851 
366 386 233 385 2849 2847 2712 2843 2851 2845 
367 233 386 234 2717 2847 2850 2719 1801 2852 
386 233 253 234 2847 1983 2848 2852 1801 1984 
234 253 387 254 1984 2853 2854 1993 1995 2855 
367 387 368 234 2856 2857 2729 2719 2854 2724 
234 253 386 387 1984 2848 2852 2854 2853 2858 
367 387 234 386 2856 2854 2719 2850 2858 2852 
368 234 387 235 2724 2854 2857 2726 1811 2859 
387 234 254 235 2854 1993 2855 2859 1811 1994 
235 254 388 255 1994 2860 2861 2003 2005 2862 
368 388 369 235 2863 2864 2736 2726 2861 2731 
235 254 387 388 1994 2855 2859 2861 2860 2865 
368 388 235 387 2863 2861 2726 2857 2865 2859 
369 235 388 236 2731 2861 2864 2733 1821 2866 
388 235 255 236 2861 2003 2862 2866 1821 2004 
236 255 389 256 2004 2867 2868 2013 2015 2869 
369 389 370 236 2870 2871 2743 2733 2868 2738 
236 255 388 389 2004 2862 2866 2868 2867 2872 
369 389 236 388 2870 2868 2733 2864 2872 2866 
370 236 389 237 2738 2868 2871 2740 1831 2873 
389 236 256 237 2868 2013 2869 2873 1831 2014 
237 256 390 257 2014 2874 2875 2023 2025 2876 
370 390 371 237 2877 2878 2750 2740 2875 2745 
237 256 389 390 2014 2869 2873 2875 2874 2879 
370 390 237 389 2877 2875 2740 2871 2879 2873 
371 237 390 238 2745 2875 2878 2747 1841 2880 
390 237 257 238 2875 2023 2876 2880 1841 2024 
238 257 391 258 2024 2881 2882 2033 2035 2883 
371 391 372 238 2884 2885 2757 2747 2882 2752 
238 257 390 391 2024 2876 2880 2882 2881 2886 
371 391 238 390 2884 2882 2747 2878 2886 2880 
372 238 391 239 2752 2882 2885 2754 1851 2887 
391 238 258 239 2882 2033 2883 2887 1851 2034 
239 258 392 259 2034 2888 2889 2043 2045 2890 
372 392 373 239 2891 2892 2764 2754 2889 2759 
239 258 391 392 2034 2883 2887 2889 2888 2893 
372 392 239 391 2891 2889 2754 2885 2893 2887 
373 239 392 240 2759 2889 2892 2761 1861 2894 
392 239 259 240 2889 2043 2890 2894 1861 2044 
240 259 393 260 2044 2895 2896 2053 2055 2897 
373 393 374 240 2898 2899 2771 2761 2896 2766 
240 259 392 393 2044 2890 2894 2896 2895 2900 
373 393 240 392 2898 2896 2761 2892 2900 2894 
374 240 393 241 2766 2896 2899 2768 1871 2901 
393 240 260 241 2896 2053 2897 2901 1871 2054 
241 260 394 261 2054 2902 2903 2063 2065 2904 
374 394 375 241 2905 2906 2778 2768 2903 2773 
241 260 393 394 2054 2897 2901 2903 2902 2907 
374 394 241 393 2905 2903 2768 2899 2907 2901 
375 241 394 242 2773 2903 2906 2775 1881 2908 
394 241 261 242 2903 2063 2904 2908 1881 2064 
242 261 395 262 2064 2909 2910 2073 2075 2911 
375 395 376 242 2912 2913 2785 2775 2910 2780 
242 261 394 395 2064 2904 2908 2910 2909 2914 
375 395 242 394 2912 2910 2775 2906 2914 2908 
376 242 395 243 2780 2910 2913 2782 1891 2915 
395 242 262 243 2910 2073 2911 2915 1891 2074 
243 262 396 263 2074 2916 2917 2083 2085 2918 
376 396 377 243 2919 2920 2792 2782 2917 2787 
243 262 395 396 2074 2911 2915 2917 2916 2921 
376 396 243 395 2919 2917 2782 2913 2921 2915 
377 243 396 244 2787 2917 2920 2789 1901 2922 
396 243 263 244 2917 2083 2918 2922 1901 2084 
244 263 397 264 2084 2923 2924 2093 2095 2925 
377 397 378 244 2926 2927 2799 2789 2924 2794 
244 263 396 397 2084 2918 2922 2924 2923 2928 
377 397 244 396 2926 2924 2789 2920 2928 2922 
378 244 397 245 2794 2924 2927 2796 1911 2929 
397 244 264 245 2924 2093 2925 2929 1911 2094 
245 264 398 265 2094 2930 2931 2103 2105 2932 
378 398 379 245 2933 2934 2806 2796 2931 2801 
245 264 397 398 2094 2925 2929 2931 2930 2935 
378 398 245 397 2933 2931 2796 2927 2935 2929 
379 245 398 246 2801 2931 2934 2803 1921 2936 
398 245 265 246 2931 2103 2932 2936 1921 2104 
266 285 419 286 2119 2937 2938 2111 2118 2939 
399 419 400 266 2940 2941 2942 2943 2938 2944 
266 285 418 419 2119 2945 2946 2938 2937 2947 
399 419 266 418 2940 2938 2943 2948 2947 2946 
400 266 419 267 2944 2938 2941 2949 2113 2950 
419 266 286 267 2938 2111 2939 2950 2113 2112 
267 286 420 287 2112 2951 2952 2125 2129 2953 
400 420 401 267 2954 2955 2956 2949 2952 2957 
267 286 419 420 2112 2939 2950 2952 2951 2958 
400 420 267 419 2954 2952 2949 2941 2958 2950 
401 267 420 268 2957 2952 2955 2959 2127 2960 
420 267 287 268 2952 2125 2953 2960 2127 2126 
268 287 421 288 2126 2961 2962 2135 2139 2963 
401 421 402 268 2964 2965 2966 2959 2962 2967 
268 287 420 421 2126 2953 2960 2962 2961 2968 
401 421 268 420 2964 2962 2959 2955 2968 2960 
402 268 421 269 2967 2962 2965 2969 2137 2970 
421 268 288 269 2962 2135 2963 2970 2137 2136 
269 288 422 289 2136 2971 2972 2145 2149 2973 
402 422 403 269 2974 2975 2976 2969 2972 2977 
269 288 421 422 2136 2963 2970 2972 2971 2978 
402 422 269 421 2974 2972 2969 2965 2978 2970 
403 269 422 270 2977 2972 2975 2979 2147 2980 
422 269 289 270 2972 2145 2973 2980 2147 2146 
270 289 423 290 2146 2981 2982 2155 2159 2983 
403 423 404 270 2984 2985 2986 2979 2982 2987 
270 289 422 423 2146 2973 2980 2982 2981 2988 
403 423 270 422 2984 2982 2979 2975 2988 2980 
404 270 423 271 2987 2982 2985 2989 2157 2990 
423 270 290 271 2982 2155 2983 2990 2157 2156 
271 290 424 291 2156 2991 2992 2165 2169 2993 
404 424 405 271 2994 2995 2996 2989 2992 2997 
271 290 423 424 2156 2983 2990 2992 2991 2998 
404 424 271 423 2994 2992 2989 2985 2998 2990 
405 271 424 272 2997 2992 2995 2999 2167 3000 
424 271 291 272 2992 2165 2993 3000 2167 2166 
272 291 425 292 2166 3001 3002 2175 2179 3003 
405 425 406 272 3004 3005 3006 2999 3002 3007 
272 291 424 425 2166 2993 3000 3002 3001 3008 
405 425 272 424 3004 3002 2999 2995 3008 3000 
406 272 425 273 3007 3002 3005 3009 2177 3010 
425 272 292 273 3002 2175 3003 3010 2177 2176 
273 292 426 293 2176 3011 3012 2185 2189 3013 
406 426 407 273 3014 3015 3016 3009 3012 3017 
273 292 425 426 2176 3003 3010 3012 3011 3018 
406 426 273 425 3014 3012 3009 3005 3018 3010 
407 273 426 274 3017 3012 3015 3019 2187 3020 
426 273 293 274 3012 2185 3013 3020 2187 2186 
274 293 427 294 2186 3021 3022 2195 2199 3023 
407 427 408 274 3024 3025 3026 3019 3022 3027 
274 293 426 427 2186 3013 3020 3022 3021 3028 
407 427 274 426 3024 3022 3019 3015 3028 3020 
408 274 427 275 3027 3022 3025 3029 2197 3030 
427 274 294 275 3022 2195 3023 3030 2197 2196 
275 294 428 295 2196 3031 3032 2205 2209 3033 
408 428 409 275 3034 3035 3036 3029 3032 3037 
275 294 427 428 2196 3023 3030 3032 3031 3038 
408 428 275 427 3034 3032 3029 3025 3038 3030 
409 275 428 276 3037 3032 3035 3039 2207 3040 
428 275 295 276 3032 2205 3033 3040 2207 2206 
276 295 429 296 2206 3041 3042 2215 2219 3043 
409 429 410 276 3044 3045 3046 3039 3042 3047 
276 295 428 429 2206 3033 3040 3042 3041 3048 
409 429 276 428 3044 3042 3039 3035 3048 3040 
410 276 429 277 3047 3042 3045 3049 2217 3050 
429 276 296 277 3042 2215 3043 3050 2217 2216 
277 296 430 297 2216 3051 3052 2225 2229 3053 
410 430 411 277 3054 3055 3056 3049 3052 3057 
277 296 429 430 2216 3043 3050 3052 3051 3058 
410 430 277 429 3054 3052 3049 3045 3058 3050 
411 277 430 278 3057 3052 3055 3059 2227 3060 
430 277 297 278 3052 2225 3053 3060 2227 2226 
278 297 431 298 2226 3061 3062 2235 2239 3063 
411 431 412 278 3064 3065 3066 3059 3062 3067 
278 297 430 431 2226 3053 3060 3062 3061 3068 
411 431 278 430 3064 3062 3059 3055 3068 3060 
412 278 431 279 3067 3062 3065 3069 2237 3070 
431 278 298 279 3062 2235 3063 3070 2237 2236 
279 298 432 299 2236 3071 3072 2245 2249 3073 
412 432 413 279 3074 3075 3076 3069 3072 3077 
279 298 431 432 2236 3063 3070 3072 3071 3078 
412 432 279 431 3074 3072 3069 3065 3078 3070 
413 279 432 280 3077 3072 3075 3079 2247 3080 
432 279 299 280 3072 2245 3073 3080 2247 2246 
280 299 433 300 2246 3081 3082 2255 2259 3083 
413 433 414 280 3084 3085 3086 3079 3082 3087 
280 299 432 433 2246 3073 3080 3082 3081 3088 
413 433 280 432 3084 3082 3079 3075 3088 3080 
414 280 433 281 3087 3082 3085 3089 2257 3090 
433 280 300 281 3082 2255 3083 3090 2257 2256 
281 300 434 301 2256 3091 3092 2265 2269 3093 
414 434 415 281 3094 3095 3096 3089 3092 3097 
281 300 433 434 2256 3083 3090 3092 3091 3098 
414 434 281 433 3094 3092 3089 3085 3098 3090 
415 281 434 282 3097 3092 3095 3099 2267 3100 
434 281 301 282 3092 2265 3093 3100 2267 2266 
282 301 435 302 2266 3101 3102 2275 2279 3103 
415 435 416 282 3104 3105 3106 3099 3102 3107 
282 301 434 435 2266 3093 3100 3102 3101 3108 
415 435 282 434 3104 3102 3099 3095 3108 3100 
416 282 435 283 3107 3102 3105 3109 2277 3110 
435 282 302 283 3102 2275 3103 3110 2277 2276 
283 302 436 303 2276 3111 3112 2285 2289 3113 
416 436 417 283 3114 3115 3116 3109 3112 3117 
283 302 435 436 2276 3103 3110 3112 3111 3118 
416 436 283 435 3114 3112 3109 3105 3118 3110 
417 283 436 284 3117 3112 3115 3119 2287 3120 
436 283 303 284 3112 2285 3113 3120 2287 2286 
285 304 438 305 2300 3121 3122 2295 2299 3123 
418 438 419 285 3124 3125 2947 2945 3122 2937 
285 304 437 438 2300 3126 3127 3122 3121 3128 
418 438 285 437 3124 3122 2945 3129 3128 3127 
419 285 438 286 2937 3122 3125 2939 2118 3130 
438 285 305 286 3122 2295 3123 3130 2118 2296 
286 305 439 306 2296 3131 3132 2305 2307 3133 
419 439 420 286 3134 3135 2958 2939 3132 2951 
286 305 438 439 2296 3123 3130 3132 3131 3136 
419 439 286 438 3134 3132 2939 3125 3136 3130 
420 286 439 287 2951 3132 3135 2953 2129 3137 
439 286 306 287 3132 2305 3133 3137 2129 2306 
287 306 440 307 2306 3138 3139 2312 2314 3140 
420 440 421 287 3141 3142 2968 2953 3139 2961 
287 306 439 440 2306 3133 3137 3139 3138 3143 
420 440 287 439 3141 3139 2953 3135 3143 3137 
421 287 440 288 2961 3139 3142 2963 2139 3144 
440 287 307 288 3139 2312 3140 3144 2139 2313 
288 307 441 308 2313 3145 3146 2319 2321 3147 
421 441 422 288 3148 3149 2978 2963 3146 2971 
288 307 440 441 2313 3140 3144 3146 3145 3150 
421 441 288 440 3148 3146 2963 3142 3150 3144 
422 288 441 289 2971 3146 3149 2973 2149 3151 
441 288 308 289 3146 2319 3147 3151 2149 2320 
289 308 442 309 2320 3152 3153 2326 2328 3154 
422 442 423 289 3155 3156 2988 2973 3153 2981 
289 308 441 442 2320 3147 3151 3153 3152 3157 
422 442 289 441 3155 3153 2973 3149 3157 3151 
423 289 442 290 2981 3153 3156 2983 2159 3158 
442 289 309 290 3153 2326 3154 3158 2159 2327 
290 309 443 310 2327 3159 3160 2333 2335 3161 
423 443 424 290 3162 3163 2998 2983 3160 2991 
290 309 442 443 2327 3154 3158 3160 3159 3164 
423 443 290 442 3162 3160 2983 3156 3164 3158 
424 290 443 291 2991 3160 3163 2993 2169 3165 
443 290 310 291 3160 2333 3161 3165 2169 2334 
291 310 444 311 2334 3166 3167 2340 2342 3168 
424 444 425 291 3169 3170 3008 2993 3167 3001 
291 310 443 444 2334 3161 3165 3167 3166 3171 
424 444 291 443 3169 3167 2993 3163 3171 3165 
425 291 444 292 3001 3167 3170 3003 2179 3172 
444 291 311 292 3167 2340 3168 3172 2179 2341 
292 311 445 312 2341 3173 3174 2347 2349 3175 
425 445 426 292 3176 3177 3018 3003 3174 3011 
292 311 444 445 2341 3168 3172 3174 3173 3178 
425 445 292 444 3176 3174 3003 3170 3178 3172 
426 292 445 293 3011 3174 3177 3013 2189 3179 
445 292 312 293 3174 2347 3175 3179 2189 2348 
293 312 446 313 2348 3180 3181 2354 2356 3182 
426 446 427 293 3183 3184 3028 3013 3181 3021 
293 312 445 446 2348 3175 3179 3181 3180 3185 
426 446 293 445 3183 3181 3013 3177 3185 3179 
427 293 446 294 3021 3181 3184 3023 2199 3186 
446 293 313 294 3181 2354 3182 3186 2199 2355 
294 313 447 314 2355 3187 3188 2361 2363 3189 
427 447 428 294 3190 3191 3038 3023 3188 3031 
294 313 446 447 2355 3182 3186 3188 3187 3192 
427 447 294 446 3190 3188 3023 3184 3192 3186 
428 294 447 295 3031 3188 3191 3033 2209 3193 
447 294 314 295 3188 2361 3189 3193 2209 2362 
295 314 448 315 2362 3194 3195 2368 2370 3196 
428 448 429 295 3197 3198 3048 3033 3195 3041 
295 314 447 448 2362 3189 3193 3195 3194 3199 
428 448 295 447 3197 3195 3033 3191 3199 3193 
429 295 448 296 3041 3195 3198 3043 2219 3200 
448 295 315 296 3195 2368 3196 3200 2219 2369 
296 315 449 316 2369 3201 3202 2375 2377 3203 
429 449 430 296 3204 3205 3058 3043 3202 3051 
296 315 448 449 2369 3196 3200 3202 3201 3206 
429 449 296 448 3204 3202 3043 3198 3206 3200 
430 296 449 297 3051 3202 3205 3053 2229 3207 
449 296 316 297 3202 2375 3203 3207 2229 2376 
297 316 450 317 2376 3208 3209 2382 2384 3210 
430 450 431 297 3211 3212 3068 3053 3209 3061 
297 316 449 450 2376 3203 3207 3209 3208 3213 
430 450 297 449 3211 3209 3053 3205 3213 3207 
431 297 450 298 3061 3209 3212 3063 2239 3214 
450 297 317 298 3209 2382 3210 3214 2239 2383 
298 317 451 318 2383 3215 3216 2389 2391 3217 
431 451 432 298 3218 3219 3078 3063 3216 3071 
298 317 450 451 2383 3210 3214 3216 3215 3220 
431 451 298 450 3218 3216 3063 3212 3220 3214 
432 298 451 299 3071 3216 3219 3073 2249 3221 
451 298 318 299 3216 2389 3217 3221 2249 2390 
299 318 452 319 2390 3222 3223 2396 2398 3224 
432 452 433 299 3225 3226 3088 3073 3223 3081 
299 318 451 452 2390 3217 3221 3223 3222 3227 
432 452 299 451 3225 3223 3073 3219 3227 3221 
433 299 452 300 3081 3223 3226 3083 2259 3228 
452 299 319 300 3223 2396 3224 3228 2259 2397 
300 319 453 320 2397 3229 3230 2403 2405 3231 
433 453 434 300 3232 3233 3098 3083 3230 3091 
300 319 452 453 2397 3224 3228 3230 3229 3234 
433 453 300 452 3232 3230 3083 3226 3234 3228 
434 300 453 301 3091 3230 3233 3093 2269 3235 
453 300 320 301 3230 2403 3231 3235 2269 2404 
301 320 454 321 2404 3236 3237 2410 2412 3238 
434 454 435 301 3239 3240 3108 3093 3237 3101 
301 320 453 454 2404 3231 3235 3237 3236 3241 
434 454 301 453 3239 3237 3093 3233 3241 3235 
435 301 454 302 3101 3237 3240 3103 2279 3242 
454 301 321 302 3237 2410 3238 3242 2279 2411 
302 321 455 322 2411 3243 3244 2417 2419 3245 
435 455 436 302 3246 3247 3118 3103 3244 3111 
302 321 454 455 2411 3238 3242 3244 3243 3248 
435 455 302 454 3246 3244 3103 3240 3248 3242 
436 302 455 303 3111 3244 3247 3113 2289 3249 
455 302 322 303 3244 2417 3245 3249 2289 2418 
304 323 457 324 2429 3250 3251 2424 2428 3252 
437 457 438 304 3253 3254 3128 3126 3251 3121 
304 323 456 457 2429 3255 3256 3251 3250 3257 
437 457 304 456 3253 3251 3126 3258 3257 3256 
438 304 457 305 3121 3251 3254 3123 2299 3259 
457 304 324 305 3251 2424 3252 3259 2299 2425 
305 324 458 325 2425 3260 3261 2434 2436 3262 
438 458 439 305 3263 3264 3136 3123 3261 3131 
305 324 457 458 2425 3252 3259 3261 3260 3265 
438 458 305 457 3263 3261 3123 3254 3265 3259 
439 305 458 306 3131 3261 3264 3133 2307 3266 
458 305 325 306 3261 2434 3262 3266 2307 2435 
306 325 459 326 2435 3267 3268 2441 2443 3269 
439 459 440 306 3270 3271 3143 3133 3268 3138 
306 325 458 459 2435 3262 3266 3268 3267 3272 
439 459 306 458 3270 3268 3133 3264 3272 3266 
440 306 459 307 3138 3268 3271 3140 2314 3273 
459 306 326 307 3268 2441 3269 3273 2314 2442 
307 326 460 327 2442 3274 3275 2448 2450 3276 
440 460 441 307 3277 3278 3150 3140 3275 3145 
307 326 459 460 2442 3269 3273 3275 3274 3279 
440 460 307 459 3277 3275 3140 3271 3279 3273 
441 307 460 308 3145 3275 3278 3147 2321 3280 
460 307 327 308 3275 2448 3276 3280 2321 2449 
308 327 461 328 2449 3281 3282 2455 2457 3283 
441 461 442 308 3284 3285 3157 3147 3282 3152 
308 327 460 461 2449 3276 3280 3282 3281 3286 
441 461 308 460 3284 3282 3147 3278 3286 3280 
442 308 461 309 3152 3282 3285 3154 2328 3287 
461 308 328 309 3282 2455 3283 3287 2328 2456 
309 328 462 329 2456 3288 3289 2462 2464 3290 
442 462 443 309 3291 3292 3164 3154 3289 3159 
309 328 461 462 2456 3283 3287 3289 3288 3293 
442 462 309 461 3291 3289 3154 3285 3293 3287 
443 309 462 310 3159 3289 3292 3161 2335 3294 
462 309 329 310 3289 2462 3290 3294 2335 2463 
310 329 463 330 2463 3295 3296 2469 2471 3297 
443 463 444 310 3298 3299 3171 3161 3296 3166 
310 329 462 463 2463 3290 3294 3296 3295 3300 
443 463 310 462 3298 3296 3161 3292 3300 3294 
444 310 463 311 3166 3296 3299 3168 2342 3301 
463 310 330 311 3296 2469 3297 3301 2342 2470 
311 330 464 331 2470 3302 3303 2476 2478 3304 
444 464 445 311 3305 3306 3178 3168 3303 3173 
311 330 463 464 2470 3297 3301 3303 3302 3307 
444 464 311 463 3305 3303 3168 3299 3307 3301 
445 311 464 312 3173 3303 3306 3175 2349 3308 
464 311 331 312 3303 2476 3304 3308 2349 2477 
312 331 465 332 2477 3309 3310 2483 2485 3311 
445 465 446 312 3312 3313 3185 3175 3310 3180 
312 331 464 465 2477 3304 3308 3310 3309 3314 
445 465 312 464 3312 3310 3175 3306 3314 3308 
446 312 465 313 3180 3310 3313 3182 2356 3315 
465 312 332 313 3310 2483 3311 3315 2356 2484 
313 332 466 333 2484 3316 3317 2490 2492 3318 
446 466 447 313 3319 3320 3192 3182 3317 3187 
313 332 465 466 2484 3311 3315 3317 3316 3321 
446 466 313 465 3319 3317 3182 3313 3321 3315 
447 313 466 314 3187 3317 3320 3189 2363 3322 
466 313 333 314 3317 2490 3318 3322 2363 2491 
314 333 467 334 2491 3323 3324 2497 2499 3325 
447 467 448 314 3326 3327 3199 3189 3324 3194 
314 333 466 467 2491 3318 3322 3324 3323 3328 
447 467 314 466 3326 3324 3189 3320 3328 3322 
448 314 467 315 3194 3324 3327 3196 2370 3329 
467 314 334 315 3324 2497 3325 3329 2370 2498 
315 334 468 335 2498 3330 3331 2504 2506 3332 
448 468 449 315 3333 3334 3206 3196 3331 3201 
315 334 467 468 2498 3325 3329 3331 3330 3335 
448 468 315 467 3333 3331 3196 3327 3335 3329 
449 315 468 316 3201 3331 3334 3203 2377 3336 
468 315 335 316 3331 2504 3332 3336 2377 2505 
316 335 469 336 2505 3337 3338 2511 2513 3339 
449 469 450 316 3340 3341 3213 3203 3338 3208 
316 335 468 469 2505 3332 3336 3338 3337 3342 
449 469 316 468 3340 3338 3203 3334 3342 3336 
450 316 469 317 3208 3338 3341 3210 2384 3343 
469 316 336 317 3338 2511 3339 3343 2384 2512 
317 336 470 337 2512 3344 3345 2518 2520 3346 
450 470 451 317 3347 3348 3220 3210 3345 3215 
317 336 469 470 2512 3339 3343 3345 3344 3349 
450 470 317 469 3347 3345 3210 3341 3349 3343 
451 317 470 318 3215 3345 3348 3217 2391 3350 
470 317 337 318 3345 2518 3346 3350 2391 2519 
318 337 471 338 2519 3351 3352 2525 2527 3353 
451 471 452 318 3354 3355 3227 3217 3352 3222 
318 337 470 471 2519 3346 3350 3352 3351 3356 
451 471 318 470 3354 3352 3217 3348 3356 3350 
452 318 471 319 3222 3352 3355 3224 2398 3357 
471 318 338 319 3352 2525 3353 3357 2398 2526 
319 338 472 339 2526 3358 3359 2532 2534 3360 
452 472 453 319 3361 3362 3234 3224 3359 3229 
319 338 471 472 2526 3353 3357 3359 3358 3363 
452 472 319 471 3361 3359 3224 3355 3363 3357 
453 319 472 320 3229 3359 3362 3231 2405 3364 
472 319 339 320 3359 2532 3360 3364 2405 2533 
320 339 473 340 2533 3365 3366 2539 2541 3367 
453 473 454 320 3368 3369 3241 3231 3366 3236 
320 339 472 473 2533 3360 3364 3366 3365 3370 
453 473 320 472 3368 3366 3231 3362 3370 3364 
454 320 473 321 3236 3366 3369 3238 2412 3371 
473 320 340 321 3366 2539 3367 3371 2412 2540 
321 340 474 341 2540 3372 3373 2546 2548 3374 
454 474 455 321 3375 3376 3248 3238 3373 3243 
321 340 473 474 2540 3367 3371 3373 3372 3377 
454 474 321 473 3375 3373 3238 3369 3377 3371 
455 321 474 322 3243 3373 3376 3245 2419 3378 
474 321 341 322 3373 2546 3374 3378 2419 2547 
323 342 476 343 2558 3379 3380 2553 2557 3381 
456 476 457 323 3382 3383 3257 3255 3380 3250 
323 342 475 476 2558 3384 3385 3380 3379 3386 
456 476 323 475 3382 3380 3255 3387 3386 3385 
457 323 476 324 3250 3380 3383 3252 2428 3388 
476 323 343 324 3380 2553 3381 3388 2428 2554 
324 343 477 344 2554 3389 3390 2563 2565 3391 
457 477 458 324 3392 3393 3265 3252 3390 3260 
324 343 476 477 2554 3381 3388 3390 3389 3394 
457 477 324 476 3392 3390 3252 3383 3394 3388 
458 324 477 325 3260 3390 3393 3262 2436 3395 
477 324 344 325 3390 2563 3391 3395 2436 2564 
325 344 478 345 2564 3396 3397 2570 2572 3398 
458 478 459 325 3399 3400 3272 3262 3397 3267 
325 344 477 478 2564 3391 3395 3397 3396 3401 
458 478 325 477 3399 3397 3262 3393 3401 3395 
459 325 478 326 3267 3397 3400 3269 2443 3402 
478 325 345 326 3397 2570 3398 3402 2443 2571 
326 345 479 346 2571 3403 3404 2577 2579 3405 
459 479 460 326 3406 3407 3279 3269 3404 3274 
326 345 478 479 2571 3398 3402 3404 3403 3408 
459 479 326 478 3406 3404 3269 3400 3408 3402 
460 326 479 327 3274 3404 3407 3276 2450 3409 
479 326 346 327 3404 2577 3405 3409 2450 2578 
327 346 480 347 2578 3410 3411 2584 2586 3412 
460 480 461 327 3413 3414 3286 3276 3411 3281 
327 346 479 480 2578 3405 3409 3411 3410 3415 
460 480 327 479 3413 3411 3276 3407 3415 3409 
461 327 480 328 3281 3411 3414 3283 2457 3416 
480 327 347 328 3411 2584 3412 3416 2457 2585 
328 347 481 348 2585 3417 3418 2591 2593 3419 
461 481 462 328 3420 3421 3293 3283 3418 3288 
328 347 480 481 2585 3412 3416 3418 3417 3422 
461 481 328 480 3420 3418 3283 3414 3422 3416 
462 328 481 329 3288 3418 3421 3290 2464 3423 
481 328 348 329 3418 2591 3419 3423 2464 2592 
329 348 482 349 2592 3424 3425 2598 2600 3426 
462 482 463 329 3427 3428 3300 3290 3425 3295 
329 348 481 482 2592 3419 3423 3425 3424 3429 
462 482 329 481 3427 3425 3290 3421 3429 3423 
463 329 482 330 3295 3425 3428 3297 2471 3430 
482 329 349 330 3425 2598 3426 3430 2471 2599 
330 349 483 350 2599 3431 3432 2605 2607 3433 
463 483 464 330 3434 3435 3307 3297 3432 3302 
330 349 482 483 2599 3426 3430 3432 3431 3436 
463 483 330 482 3434 3432 3297 3428 3436 3430 
464 330 483 331 3302 3432 3435 3304 2478 3437 
483 330 350 331 3432 2605 3433 3437 2478 2606 
331 350 484 351 2606 3438 3439 2612 2614 3440 
464 484 465 331 3441 3442 3314 3304 3439 3309 
331 350 483 484 2606 3433 3437 3439 3438 3443 
464 484 331 483 3441 3439 3304 3435 3443 3437 
465 331 484 332 3309 3439 3442 3311 2485 3444 
484 331 351 332 3439 2612 3440 3444 2485 2613 
332 351 485 352 2613 3445 3446 2619 2621 3447 
465 485 466 332 3448 3449 3321 3311 3446 3316 
332 351 484 485 2613 3440 3444 3446 3445 3450 
465 485 332 484 3448 3446 3311 3442 3450 3444 
466 332 485 333 3316 3446 3449 3318 2492 3451 
485 332 352 333 3446 2619 3447 3451 2492 2620 
333 352 486 353 2620 3452 3453 2626 2628 3454 
466 486 467 333 3455 3456 3328 3318 3453 3323 
333 352 485 486 2620 3447 3451 3453 3452 3457 
466 486 333 485 3455 3453 3318 3449 3457 3451 
467 333 486 334 3323 3453 3456 3325 2499 3458 
486 333 353 334 3453 2626 3454 3458 2499 2627 
334 353 487 354 2627 3459 3460 2633 2635 3461 
467 487 468 334 3462 3463 3335 3325 3460 3330 
334 353 486 487 2627 3454 3458 3460 3459 3464 
467 487 334 486 3462 3460 3325 3456 3464 3458 
468 334 487 335 3330 3460 3463 3332 2506 3465 
487 334 354 335 3460 2633 3461 3465 2506 2634 
335 354 488 355 2634 3466 3467 2640 2642 3468 
468 488 469 335 3469 3470 3342 3332 3467 3337 
335 354 487 488 2634 3461 3465 3467 3466 3471 
468 488 335 487 3469 3467 3332 3463 3471 3465 
469 335 488 336 3337 3467 3470 3339 2513 3472 
488 335 355 336 3467 2640 3468 3472 2513 2641 
336 355 489 356 2641 3473 3474 2647 2649 3475 
469 489 470 336 3476 3477 3349 3339 3474 3344 
336 355 488 489 2641 3468 3472 3474 3473 3478 
469 489 336 488 3476 3474 3339 3470 3478 3472 
470 336 489 337 3344 3474 3477 3346 2520 3479 
489 336 356 337 3474 2647 3475 3479 2520 2648 
337 356 490 357 2648 3480 3481 2654 2656 3482 
470 490 471 337 3483 3484 3356 3346 3481 3351 
337 356 489 490 2648 3475 3479 3481 3480 3485 
470 490 337 489 3483 3481 3346 3477 3485 3479 
471 337 490 338 3351 3481 3484 3353 2527 3486 
490 337 357 338 3481 2654 3482 3486 2527 2655 
338 357 491 358 2655 3487 3488 2661 2663 3489 
471 491 472 338 3490 3491 3363 3353 3488 3358 
338 357 490 491 2655 3482 3486 3488 3487 3492 
471 491 338 490 3490 3488 3353 3484 3492 3486 
472 338 491 339 3358 3488 3491 3360 2534 3493 
491 338 358 339 3488 2661 3489 3493 2534 2662 
339 358 492 359 2662 3494 3495 2668 2670 3496 
472 492 473 339 3497 3498 3370 3360 3495 3365 
339 358 491 492 2662 3489 3493 3495 3494 3499 
472 492 339 491 3497 3495 3360 3491 3499 3493 
473 339 492 340 3365 3495 3498 3367 2541 3500 
492 339 359 340 3495 2668 3496 3500 2541 2669 
340 359 493 360 2669 3501 3502 2675 2677 3503 
473 493 474 340 3504 3505 3377 3367 3502 3372 
340 359 492 493 2669 3496 3500 3502 3501 3506 
473 493 340 492 3504 3502 3367 3498 3506 3500 
474 340 493 341 3372 3502 3505 3374 2548 3507 
493 340 360 341 3502 2675 3503 3507 2548 2676 
342 361 495 362 2687 3508 3509 2682 2686 3510 
475 495 476 342 3511 3512 3386 3384 3509 3379 
342 361 494 495 2687 3513 3514 3509 3508 3515 
475 495 342 494 3511 3509 3384 3516 3515 3514 
476 342 495 343 3379 3509 3512 3381 2557 3517 
495 342 362 343 3509 2682 3510 3517 2557 2683 
343 362 496 363 2683 3518 3519 2692 2694 3520 
476 496 477 343 3521 3522 3394 3381 3519 3389 
343 362 495 496 2683 3510 3517 3519 3518 3523 
476 496 343 495 3521 3519 3381 3512 3523 3517 
477 343 496 344 3389 3519 3522 3391 2565 3524 
496 343 363 344 3519 2692 3520 3524 2565 2693 
344 363 497 364 2693 3525 3526 2699 2701 3527 
477 497 478 344 3528 3529 3401 3391 3526 3396 
344 363 496 497 2693 3520 3524 3526 3525 3530 
477 497 344 496 3528 3526 3391 3522 3530 3524 
478 344 497 345 3396 3526 3529 3398 2572 3531 
497 344 364 345 3526 2699 3527 3531 2572 2700 
345 364 498 365 2700 3532 3533 2706 2708 3534 
478 498 479 345 3535 3536 3408 3398 3533 3403 
345 364 497 498 2700 3527 3531 3533 3532 3537 
478 498 345 497 3535 3533 3398 3529 3537 3531 
479 345 498 346 3403 3533 3536 3405 2579 3538 
498 345 365 346 3533 2706 3534 3538 2579 2707 
346 365 499 366 2707 3539 3540 2713 2715 3541 
479 499 480 346 3542 3543 3415 3405 3540 3410 
346 365 498 499 2707 3534 3538 3540 3539 3544 
479 499 346 498 3542 3540 3405 3536 3544 3538 
480 346 499 347 3410 3540 3543 3412 2586 3545 
499 346 366 347 3540 2713 3541 3545 2586 2714 
347 366 500 367 2714 3546 3547 2720 2722 3548 
480 500 481 347 3549 3550 3422 3412 3547 3417 
347 366 499 500 2714 3541 3545 3547 3546 3551 
480 500 347 499 3549 3547 3412 3543 3551 3545 
481 347 500 348 3417 3547 3550 3419 2593 3552 
500 347 367 348 3547 2720 3548 3552 2593 2721 
348 367 501 368 2721 3553 3554 2727 2729 3555 
481 501 482 348 3556 3557 3429 3419 3554 3424 
348 367 500 501 2721 3548 3552 3554 3553 3558 
481 501 348 500 3556 3554 3419 3550 3558 3552 
482 348 501 349 3424 3554 3557 3426 2600 3559 
501 348 368 349 3554 2727 3555 3559 2600 2728 
349 368 502 369 2728 3560 3561 2734 2736 3562 
482 502 483 349 3563 3564 3436 3426 3561 3431 
349 368 501 502 2728 3555 3559 3561 3560 3565 
482 502 349 501 3563 3561 3426 3557 3565 3559 
483 349 502 350 3431 3561 3564 3433 2607 3566 
502 349 369 350 3561 2734 3562 3566 2607 2735 
350 369 503 370 2735 3567 3568 2741 2743 3569 
483 503 484 350 3570 3571 3443 3433 3568 3438 
350 369 502 503 2735 3562 3566 3568 3567 3572 
483 503 350 502 3570 3568 3433 3564 3572 3566 
484 350 503 351 3438 3568 3571 3440 2614 3573 
503 350 370 351 3568 2741 3569 3573 2614 2742 
351 370 504 371 2742 3574 3575 2748 2750 3576 
484 504 485 351 3577 3578 3450 3440 3575 3445 
351 370 503 504 2742 3569 3573 3575 3574 3579 
484 504 351 503 3577 3575 3440 3571 3579 3573 
485 351 504 352 3445 3575 3578 3447 2621 3580 
504 351 371 352 3575 2748 3576 3580 2621 2749 
352 371 505 372 2749 3581 3582 2755 2757 3583 
485 505 486 352 3584 3585 3457 3447 3582 3452 
352 371 504 505 2749 3576 3580 3582 3581 3586 
485 505 352 504 3584 3582 3447 3578 3586 3580 
486 352 505 353 3452 3582 3585 3454 2628 3587 
505 352 372 353 3582 2755 3583 3587 2628 2756 
353 372 506 373 2756 3588 3589 2762 2764 3590 
486 506 487 353 3591 3592 3464 3454 3589 3459 
353 372 505 506 2756 3583 3587 3589 3588 3593 
486 506 353 505 3591 3589 3454 3585 3593 3587 
487 353 506 354 3459 3589 3592 3461 2635 3594 
506 353 373 354 3589 2762 3590 3594 2635 2763 
354 373 507 374 2763 3595 3596 2769 2771 3597 
487 507 488 354 3598 3599 3471 3461 3596 3466 
354 373 506 507 2763 3590 3594 3596 3595 3600 
487 507 354 506 3598 3596 3461 3592 3600 3594 
488 354 507 355 3466 3596 3599 3468 2642 3601 
507 354 374 355 3596 2769 3597 3601 2642 2770 
355 374 508 375 2770 3602 3603 2776 2778 3604 
488 508 489 355 3605 3606 3478 3468 3603 3473 
355 374 507 508 2770 3597 3601 3603 3602 3607 
488 508 355 507 3605 3603 3468 3599 3607 3601 
489 355 508 356 3473 3603 3606 3475 2649 3608 
508 355 375 356 3603 2776 3604 3608 2649 2777 
356 375 509 376 2777 3609 3610 2783 2785 3611 
489 509 490 356 3612 3613 3485 3475 3610 3480 
356 375 508 509 2777 3604 3608 3610 3609 3614 
489 509 356 508 3612 3610 3475 3606 3614 3608 
490 356 509 357 3480 3610 3613 3482 2656 3615 
509 356 376 357 3610 2783 3611 3615 2656 2784 
357 376 510 377 2784 3616 3617 2790 2792 3618 
490 510 491 357 3619 3620 3492 3482 3617 3487 
357 376 509 510 2784 3611 3615 3617 3616 3621 
490 510 357 509 3619 3617 3482 3613 3621 3615 
491 357 510 358 3487 3617 3620 3489 2663 3622 
510 357 377 358 3617 2790 3618 3622 2663 2791 
358 377 511 378 2791 3623 3624 2797 2799 3625 
491 511 492 358 3626 3627 3499 3489 3624 3494 
358 377 510 511 2791 3618 3622 3624 3623 3628 
491 511 358 510 3626 3624 3489 3620 3628 3622 
492 358 511 359 3494 3624 3627 3496 2670 3629 
511 358 378 359 3624 2797 3625 3629 2670 2798 
359 378 512 379 2798 3630 3631 2804 2806 3632 
492 512 493 359 3633 3634 3506 3496 3631 3501 
359 378 511 512 2798 3625 3629 3631 3630 3635 
492 512 359 511 3633 3631 3496 3627 3635 3629 
493 359 512 360 3501 3631 3634 3503 2677 3636 
512 359 379 360 3631 2804 3632 3636 2677 2805 
361 380 514 381 2816 3637 3638 2811 2815 3639 
494 514 495 361 3640 3641 3515 3513 3638 3508 
361 380 513 514 2816 3642 3643 3638 3637 3644 
494 514 361 513 3640 3638 3513 3645 3644 3643 
495 361 514 362 3508 3638 3641 3510 2686 3646 
514 361 381 362 3638 2811 3639 3646 2686 2812 
362 381 515 382 2812 3647 3648 2821 2823 3649 
495 515 496 362 3650 3651 3523 3510 3648 3518 
362 381 514 515 2812 3639 3646 3648 3647 3652 
495 515 362 514 3650 3648 3510 3641 3652 3646 
496 362 515 363 3518 3648 3651 3520 2694 3653 
515 362 382 363 3648 2821 3649 3653 2694 2822 
363 382 516 383 2822 3654 3655 2828 2830 3656 
496 516 497 363 3657 3658 3530 3520 3655 3525 
363 382 515 516 2822 3649 3653 3655 3654 3659 
496 516 363 515 3657 3655 3520 3651 3659 3653 
497 363 516 364 3525 3655 3658 3527 2701 3660 
516 363 383 364 3655 2828 3656 3660 2701 2829 
364 383 517 384 2829 3661 3662 2835 2837 3663 
497 517 498 364 3664 3665 3537 3527 3662 3532 
364 383 516 517 2829 3656 3660 3662 3661 3666 
497 517 364 516 3664 3662 3527 3658 3666 3660 
498 364 517 365 3532 3662 3665 3534 2708 3667 
517 364 384 365 3662 2835 3663 3667 2708 2836 
365 384 518 385 2836 3668 3669 2842 2844 3670 
498 518 499 365 3671 3672 3544 3534 3669 3539 
365 384 517 518 2836 3663 3667 3669 3668 3673 
498 518 365 517 3671 3669 3534 3665 3673 3667 
499 365 518 366 3539 3669 3672 3541 2715 3674 
518 365 385 366 3669 2842 3670 3674 2715 2843 
366 385 519 386 2843 3675 3676 2849 2851 3677 
499 519 500 366 3678 3679 3551 3541 3676 3546 
366 385 518 519 2843 3670 3674 3676 3675 3680 
499 519 366 518 3678 3676 3541 3672 3680 3674 
500 366 519 367 3546 3676 3679 3548 2722 3681 
519 366 386 367 3676 2849 3677 3681 2722 2850 
367 386 520 387 2850 3682 3683 2856 2858 3684 
500 520 501 367 3685 3686 3558 3548 3683 3553 
367 386 519 520 2850 3677 3681 3683 3682 3687 
500 520 367 519 3685 3683 3548 3679 3687 3681 
501 367 520 368 3553 3683 3686 3555 2729 3688 
520 367 387 368 3683 2856 3684 3688 2729 2857 
368 387 521 388 2857 3689 3690 2863 2865 3691 
501 521 502 368 3692 3693 3565 3555 3690 3560 
368 387 520 521 2857 3684 3688 3690 3689 3694 
501 521 368 520 3692 3690 3555 3686 3694 3688 
502 368 521 369 3560 3690 3693 3562 2736 3695 
521 368 388 369 3690 2863 3691 3695 2736 2864 
369 388 522 389 2864 3696 3697 2870 2872 3698 
502 522 503 369 3699 3700 3572 3562 3697 3567 
369 388 521 522 2864 3691 3695 3697 3696 3701 
502 522 369 521 3699 3697 3562 3693 3701 3695 
503 369 522 370 3567 3697 3700 3569 2743 3702 
522 369 389 370 3697 2870 3698 3702 2743 2871 
370 389 523 390 2871 3703 3704 2877 2879 3705 
503 523 504 370 3706 3707 3579 3569 3704 3574 
370 389 522 523 2871 3698 3702 3704 3703 3708 
503 523 370 522 3706 3704 3569 3700 3708 3702 
504 370 523 371 3574 3704 3707 3576 2750 3709 
523 370 390 371 3704 2877 3705 3709 2750 2878 
371 390 524 391 2878 3710 3711 2884 2886 3712 
504 524 505 371 3713 3714 3586 3576 3711 3581 
371 390 523 524 2878 3705 3709 3711 3710 3715 
504 524 371 523 3713 3711 3576 3707 3715 3709 
505 371 524 372 3581 3711 3714 3583 2757 3716 
524 371 391 372 3711 2884 3712 3716 2757 2885 
372 391 525 392 2885 3717 3718 2891 2893 3719 
505 525 506 372 3720 3721 3593 3583 3718 3588 
372 391 524 525 2885 3712 3716 3718 3717 3722 
505 525 372 524 3720 3718 3583 3714 3722 3716 
506 372 525 373 3588 3718 3721 3590 2764 3723 
525 372 392 373 3718 2891 3719 3723 2764 2892 
373 392 526 393 2892 3724 3725 2898 2900 3726 
506 526 507 373 3727 3728 3600 3590 3725 3595 
373 392 525 526 2892 3719 3723 3725 3724 3729 
506 526 373 525 3727 3725 3590 3721 3729 3723 
507 373 526 374 3595 3725 3728 3597 2771 3730 
526 373 393 374 3725 2898 3726 3730 2771 2899 
374 393 527 394 2899 3731 3732 2905 2907 3733 
507 527 508 374 3734 3735 3607 3597 3732 3602 
374 393 526 527 2899 3726 3730 3732 3731 3736 
507 527 374 526 3734 3732 3597 3728 3736 3730 
508 374 527 375 3602 3732 3735 3604 2778 3737 
527 374 394 375 3732 2905 3733 3737 2778 2906 
375 394 528 395 2906 3738 3739 2912 2914 3740 
508 528 509 375 3741 3742 3614 3604 3739 3609 
375 394 527 528 2906 3733 3737 3739 3738 3743 
508 528 375 527 3741 3739 3604 3735 3743 3737 
509 375 528 376 3609 3739 3742 3611 2785 3744 
528 375 395 376 3739 2912 3740 3744 2785 2913 
376 395 529 396 2913 3745 3746 2919 2921 3747 
509 529 510 376 3748 3749 3621 3611 3746 3616 
376 395 528 529 2913 3740 3744 3746 3745 3750 
509 529 376 528 3748 3746 3611 3742 3750 3744 
510 376 529 377 3616 3746 3749 3618 2792 3751 
529 376 396 377 3746 2919 3747 3751 2792 2920 
377 396 530 397 2920 3752 3753 2926 2928 3754 
510 530 511 377 3755 3756 3628 3618 3753 3623 
377 396 529 530 2920 3747 3751 3753 3752 3757 
510 530 377 529 3755 3753 3618 3749 3757 3751 
511 377 530 378 3623 3753 3756 3625 2799 3758 
530 377 397 378 3753 2926 3754 3758 2799 2927 
378 397 531 398 2927 3759 3760 2933 2935 3761 
511 531 512 378 3762 3763 3635 3625 3760 3630 
378 397 530 531 2927 3754 3758 3760 3759 3764 
511 531 378 530 3762 3760 3625 3756 3764 3758 
512 378 531 379 3630 3760 3763 3632 2806 3765 
531 378 398 379 3760 2933 3761 3765 2806 2934 
399 418 552 419 2948 3766 3767 2940 2947 3768 
532 552 533 399 3769 3770 3771 3772 3767 3773 
399 418 551 552 2948 3774 3775 3767 3766 3776 
532 552 399 551 3769 3767 3772 3777 3776 3775 
533 399 552 400 3773 3767 3770 3778 2942 3779 
552 399 419 400 3767 2940 3768 3779 2942 2941 
400 419 553 420 2941 3780 3781 2954 2958 3782 
533 553 534 400 3783 3784 3785 3778 3781 3786 
400 419 552 553 2941 3768 3779 3781 3780 3787 
533 553 400 552 3783 3781 3778 3770 3787 3779 
534 400 553 401 3786 3781 3784 3788 2956 3789 
553 400 420 401 3781 2954 3782 3789 2956 2955 
401 420 554 421 2955 3790 3791 2964 2968 3792 
534 554 535 401 3793 3794 3795 3788 3791 3796 
401 420 553 554 2955 3782 3789 3791 3790 3797 
534 554 401 553 3793 3791 3788 3784 3797 3789 
535 401 554 402 3796 3791 3794 3798 2966 3799 
554 401 421 402 3791 2964 3792 3799 2966 2965 
402 421 555 422 2965 3800 3801 2974 2978 3802 
535 555 536 402 3803 3804 3805 3798 3801 3806 
402 421 554 555 2965 3792 3799 3801 3800 3807 
535 555 402 554 3803 3801 3798 3794 3807 3799 
536 402 555 403 3806 3801 3804 3808 2976 3809 
555 402 422 403 3801 2974 3802 3809 2976 2975 
403 422 556 423 2975 3810 3811 2984 2988 3812 
536 556 537 403 3813 3814 3815 3808 3811 3816 
403 422 555 556 2975 3802 3809 3811 3810 3817 
536 556 403 555 3813 3811 3808 3804 3817 3809 
537 403 556 404 3816 3811 3814 3818 2986 3819 
556 403 423 404 3811 2984 3812 3819 2986 2985 
404 423 557 424 2985 3820 3821 2994 2998 3822 
537 557 538 404 3823 3824 3825 3818 3821 3826 
404 423 556 557 2985 3812 3819 3821 3820 3827 
537 557 404 556 3823 3821 3818 3814 3827 3819 
538 404 557 405 3826 3821 3824 3828 2996 3829 
557 404 424 405 3821 2994 3822 3829 2996 2995 
405 424 558 425 2995 3830 3831 3004 3008 3832 
538 558 539 405 3833 3834 3835 3828 3831 3836 
405 424 557 558 2995 3822 3829 3831 3830 3837 
538 558 405 557 3833 3831 3828 3824 3837 3829 
539 405 558 406 3836 3831 3834 3838 3006 3839 
558 405 425 406 3831 3004 3832 3839 3006 3005 
406 425 559 426 3005 3840 3841 3014 3018 3842 
539 559 540 406 3843 3844 3845 3838 3841 3846 
406 425 558 559 3005 3832 3839 3841 3840 3847 
539 559 406 558 3843 3841 3838 3834 3847 3839 
540 406 559 407 3846 3841 3844 3848 3016 3849 
559 406 426 407 3841 3014 3842 3849 3016 3015 
407 426 560 427 3015 3850 3851 3024 3028 3852 
540 560 541 407 3853 3854 3855 3848 3851 3856 
407 426 559 560 3015 3842 3849 3851 3850 3857 
540 560 407 559 3853 3851 3848 3844 3857 3849 
541 407 560 408 3856 3851 3854 3858 3026 3859 
560 407 427 408 3851 3024 3852 3859 3026 3025 
408 427 561 428 3025 3860 3861 3034 3038 3862 
541 561 542 408 3863 3864 3865 3858 3861 3866 
408 427 560 561 3025 3852 3859 3861 3860 3867 
541 561 408 560 3863 3861 3858 3854 3867 3859 
542 408 561 409 3866 3861 3864 3868 3036 3869 
561 408 428 409 3861 3034 3862 3869 3036 3035 
409 428 562 429 3035 3870 3871 3044 3048 3872 
542 562 543 409 3873 3874 3875 3868 3871 3876 
409 428 561 562 3035 3862 3869 3871 3870 3877 
542 562 409 561 3873 3871 3868 3864 3877 3869 
543 409 562 410 3876 3871 3874 3878 3046 3879 
562 409 429 410 3871 3044 3872 3879 3046 3045 
410 429 563 430 3045 3880 3881 3054 3058 3882 
543 563 544 410 3883 3884 3885 3878 3881 3886 
410 429 562 563 3045 3872 3879 3881 3880 3887 
543 563 410 562 3883 3881 3878 3874 3887 3879 
544 410 563 411 3886 3881 3884 3888 3056 3889 
563 410 430 411 3881 3054 3882 3889 3056 3055 
411 430 564 431 3055 3890 3891 3064 3068 3892 
544 564 545 411 3893 3894 3895 3888 3891 3896 
411 430 563 564 3055 3882 3889 3891 3890 3897 
544 564 411 563 3893 3891 3888 3884 3897 3889 
545 411 564 412 3896 3891 3894 3898 3066 3899 
564 411 431 412 3891 3064 3892 3899 3066 3065 
412 431 565 432 3065 3900 3901 3074 3078 3902 
545 565 546 412 3903 3904 3905 3898 3901 3906 
412 431 564 565 3065 3892 3899 3901 3900 3907 
545 565 412 564 3903 3901 3898 3894 3907 3899 
546 412 565 413 3906 3901 3904 3908 3076 3909 
565 412 432 413 3901 3074 3902 3909 3076 3075 
413 432 566 433 3075 3910 3911 3084 3088 3912 
546 566 547 413 3913 3914 3915 3908 3911 3916 
413 432 565 566 3075 3902 3909 3911 3910 3917 
546 566 413 565 3913 3911 3908 3904 3917 3909 
547 413 566 414 3916 3911 3914 3918 3086 3919 
566 413 433 414 3911 3084 3912 3919 3086 3085 
414 433 567 434 3085 3920 3921 3094 3098 3922 
547 567 548 414 3923 3924 3925 3918 3921 3926 
414 433 566 567 3085 3912 3919 3921 3920 3927 
547 567 414 566 3923 3921 3918 3914 3927 3919 
548 414 567 415 3926 3921 3924 3928 3096 3929 
567 414 434 415 3921 3094 3922 3929 3096 3095 
415 434 568 435 3095 3930 3931 3104 3108 3932 
548 568 549 415 3933 3934 3935 3928 3931 3936 
415 434 567 568 3095 3922 3929 3931 3930 3937 
548 568 415 567 3933 3931 3928 3924 3937 3929 
549 415 568 416 3936 3931 3934 3938 3106 3939 
568 415 435 416 3931 3104 3932 3939 3106 3105 
416 435 569 436 3105 3940 3941 3114 3118 3942 
549 569 550 416 3943 3944 3945 3938 3941 3946 
416 435 568 569 3105 3932 3939 3941 3940 3947 
549 569 416 568 3943 3941 3938 3934 3947 3939 
550 416 569 417 3946 3941 3944 3948 3116 3949 
569 416 436 417 3941 3114 3942 3949 3116 3115 
418 437 571 438 3129 3950 3951 3124 3128 3952 
551 571 552 418 3953 3954 3776 3774 3951 3766 
418 437 570 571 3129 3955 3956 3951 3950 3957 
551 571 418 570 3953 3951 3774 3958 3957 3956 
552 418 571 419 3766 3951 3954 3768 2947 3959 
571 418 438 419 3951 3124 3952 3959 2947 3125 
419 438 572 439 3125 3960 3961 3134 3136 3962 
552 572 553 419 3963 3964 3787 3768 3961 3780 
419 438 571 572 3125 3952 3959 3961 3960 3965 
552 572 419 571 3963 3961 3768 3954 3965 3959 
553 419 572 420 3780 3961 3964 3782 2958 3966 
572 419 439 420 3961 3134 3962 3966 2958 3135 
420 439 573 440 3135 3967 3968 3141 3143 3969 
553 573 554 420 3970 3971 3797 3782 3968 3790 
420 439 572 573 3135 3962 3966 3968 3967 3972 
553 573 420 572 3970 3968 3782 3964 3972 3966 
554 420 573 421 3790 3968 3971 3792 2968 3973 
573 420 440 421 3968 3141 3969 3973 2968 3142 
421 440 574 441 3142 3974 3975 3148 3150 3976 
554 574 555 421 3977 3978 3807 3792 3975 3800 
421 440 573 574 3142 3969 3973 3975 3974 3979 
554 574 421 573 3977 3975 3792 3971 3979 3973 
555 421 574 422 3800 3975 3978 3802 2978 3980 
574 421 441 422 3975 3148 3976 3980 2978 3149 
422 441 575 442 3149 3981 3982 3155 3157 3983 
555 575 556 422 3984 3985 3817 3802 3982 3810 
422 441 574 575 3149 3976 3980 3982 3981 3986 
555 575 422 574 3984 3982 3802 3978 3986 3980 
556 422 575 423 3810 3982 3985 3812 2988 3987 
575 422 442 423 3982 3155 3983 3987 2988 3156 
423 442 576 443 3156 3988 3989 3162 3164 3990 
556 576 557 423 3991 3992 3827 3812 3989 3820 
423 442 575 576 3156 3983 3987 3989 3988 3993 
556 576 423 575 3991 3989 3812 3985 3993 3987 
557 423 576 424 3820 3989 3992 3822 2998 3994 
576 423 443 424 3989 3162 3990 3994 2998 3163 
424 443 577 444 3163 3995 3996 3169 3171 3997 
557 577 558 424 3998 3999 3837 3822 3996 3830 
424 443 576 577 3163 3990 3994 3996 3995 4000 
557 577 424 576 3998 3996 3822 3992 4000 3994 
558 424 577 425 3830 3996 3999 3832 3008 4001 
577 424 444 425 3996 3169 3997 4001 3008 3170 
425 444 578 445 3170 4002 4003 3176 3178 4004 
558 578 559 425 4005 4006 3847 3832 4003 3840 
425 444 577 578 3170 3997 4001 4003 4002 4007 
558 578 425 577 4005 4003 3832 3999 4007 4001 
559 425 578 426 3840 4003 4006 3842 3018 4008 
578 425 445 426 4003 3176 4004 4008 3018 3177 
426 445 579 446 3177 4009 4010 3183 3185 4011 
559 579 560 426 4012 4013 3857 3842 4010 3850 
426 445 578 579 3177 4004 4008 4010 4009 4014 
559 579 426 578 4012 4010 3842 4006 4014 4008 
560 426 579 427 3850 4010 4013 3852 3028 4015 
579 426 446 427 4010 3183 4011 4015 3028 3184 
427 446 580 447 3184 4016 4017 3190 3192 4018 
560 580 561 427 4019 4020 3867 3852 4017 3860 
427 446 579 580 3184 4011 4015 4017 4016 4021 
560 580 427 579 4019 4017 3852 4013 4021 4015 
561 427 580 428 3860 4017 4020 3862 3038 4022 
580 427 447 428 4017 3190 4018 4022 3038 3191 
428 447 581 448 3191 4023 4024 3197 3199 4025 
561 581 562 428 4026 4027 3877 3862 4024 3870 
428 447 580 581 3191 4018 4022 4024 4023 4028 
561 581 428 580 4026 4024 3862 4020 4028 4022 
562 428 581 429 3870 4024 4027 3872 3048 4029 
581 428 448 429 4024 3197 4025 4029 3048 3198 
429 448 582 449 3198 4030 4031 3204 3206 4032 
562 582 563 429 4033 4034 3887 3872 4031 3880 
429 448 581 582 3198 4025 4029 4031 4030 4035 
562 582 429 581 4033 4031 3872 4027 4035 4029 
563 429 582 430 3880 4031 4034 3882 3058 4036 
582 429 449 430 4031 3204 4032 4036 3058 3205 
430 449 583 450 3205 4037 4038 3211 3213 4039 
563 583 564 430 4040 4041 3897 3882 4038 3890 
430 449 582 583 3205 4032 4036 4038 4037 4042 
563 583 430 582 4040 4038 3882 4034 4042 4036 
564 430 583 431 3890 4038 4041 3892 3068 4043 
583 430 450 431 4038 3211 4039 4043 3068 3212 
431 450 584 451 3212 4044 4045 3218 3220 4046 
564 584 565 431 4047 4048 3907 3892 4045 3900 
431 450 583 584 3212 4039 4043 4045 4044 4049 
564 584 431 583 4047 4045 3892 4041 4049 4043 
565 431 584 432 3900 4045 4048 3902 3078 4050 
584 431 451 432 4045 3218 4046 4050 3078 3219 
432 451 585 452 3219 4051 4052 3225 3227 4053 
565 585 566 432 4054 4055 3917 3902 4052 3910 
432 451 584 585 3219 4046 4050 4052 4051 4056 
565 585 432 584 4054 4052 3902 4048 4056 4050 
566 432 585 433 3910 4052 4055 3912 3088 4057 
585 432 452 433 4052 3225 4053 4057 3088 3226 
433 452 586 453 3226 4058 4059 3232 3234 4060 
566 586 567 433 4061 4062 3927 3912 4059 3920 
433 452 585 586 3226 4053 4057 4059 4058 4063 
566 586 433 585 4061 4059 3912 4055 4063 4057 
567 433 586 434 3920 4059 4062 3922 3098 4064 
586 433 453 434 4059 3232 4060 4064 3098 3233 
434 453 587 454 3233 4065 4066 3239 3241 4067 
567 587 568 434 4068 4069 3937 3922 4066 3930 
434 453 586 587 3233 4060 4064 4066 4065 4070 
567 587 434 586 4068 4066 3922 4062 4070 4064 
568 434 587 435 3930 4066 4069 3932 3108 4071 
587 434 454 435 4066 3239 4067 4071 3108 3240 
435 454 588 455 3240 4072 4073 3246 3248 4074 
568 588 569 435 4075 4076 3947 3932 4073 3940 
435 454 587 588 3240 4067 4071 4073 4072 4077 
568 588 435 587 4075 4073 3932 4069 4077 4071 
569 435 588 436 3940 4073 4076 3942 3118 4078 
588 435 455 436 4073 3246 4074 4078 3118 3247 
437 456 590 457 3258 4079 4080 3253 3257 4081 
570 590 571 437 4082 4083 3957 3955 4080 3950 
437 456 589 590 3258 4084 4085 4080 4079 4086 
570 590 437 589 4082 4080 3955 4087 4086 4085 
571 437 590 438 3950 4080 4083 3952 3128 4088 
590 437 457 438 4080 3253 4081 4088 3128 3254 
438 457 591 458 3254 4089 4090 3263 3265 4091 
571 591 572 438 4092 4093 3965 3952 4090 3960 
438 457 590 591 3254 4081 4088 4090 4089 4094 
571 591 438 590 4092 4090 3952 4083 4094 4088 
572 438 591 439 3960 4090 4093 3962 3136 4095 
591 438 458 439 4090 3263 4091 4095 3136 3264 
439 458 592 459 3264 4096 4097 3270 3272 4098 
572 592 573 439 4099 4100 3972 3962 4097 3967 
439 458 591 592 3264 4091 4095 4097 4096 4101 
572 592 439 591 4099 4097 3962 4093 4101 4095 
573 439 592 440 3967 4097 4100 3969 3143 4102 
592 439 459 440 4097 3270 4098 4102 3143 3271 
440 459 593 460 3271 4103 4104 3277 3279 4105 
573 593 574 440 4106 4107 3979 3969 4104 3974 
440 459 592 593 3271 4098 4102 4104 4103 4108 
573 593 440 592 4106 4104 3969 4100 4108 4102 
574 440 593 441 3974 4104 4107 3976 3150 4109 
593 440 460 441 4104 3277 4105 4109 3150 3278 
441 460 594 461 3278 4110 4111 3284 3286 4112 
574 594 575 441 4113 4114 3986 3976 4111 3981 
441 460 593 594 3278 4105 4109 4111 4110 4115 
574 594 441 593 4113 4111 3976 4107 4115 4109 
575 441 594 442 3981 4111 4114 3983 3157 4116 
594 441 461 442 4111 3284 4112 4116 3157 3285 
442 461 595 462 3285 4117 4118 3291 3293 4119 
575 595 576 442 4120 4121 3993 3983 4118 3988 
442 461 594 595 3285 4112 4116 4118 4117 4122 
575 595 442 594 4120 4118 3983 4114 4122 4116 
576 442 595 443 3988 4118 4121 3990 3164 4123 
595 442 462 443 4118 3291 4119 4123 3164 3292 
443 462 596 463 3292 4124 4125 3298 3300 4126 
576 596 577 443 4127 4128 4000 3990 4125 3995 
443 462 595 596 3292 4119 4123 4125 4124 4129 
576 596 443 595 4127 4125 3990 4121 4129 4123 
577 443 596 444 3995 4125 4128 3997 3171 4130 
596 443 463 444 4125 3298 4126 4130 3171 3299 
444 463 597 464 3299 4131 4132 3305 3307 4133 
577 597 578 444 4134 4135 4007 3997 4132 4002 
444 463 596 597 3299 4126 4130 4132 4131 4136 
577 597 444 596 4134 4132 3997 4128 4136 4130 
578 444 597 445 4002 4132 4135 4004 3178 4137 
597 444 464 445 4132 3305 4133 4137 3178 3306 
445 464 598 465 3306 4138 4139 3312 3314 4140 
578 598 579 445 4141 4142 4014 4004 4139 4009 
445 464 597 598 3306 4133 4137 4139 4138 4143 
578 598 445 597 4141 4139 4004 4135 4143 4137 
579 445 598 446 4009 4139 4142 4011 3185 4144 
598 445 465 446 4139 3312 4140 4144 3185 3313 
446 465 599 466 3313 4145 4146 3319 3321 4147 
579 599 580 446 4148 4149 4021 4011 4146 4016 
446 465 598 599 3313 4140 4144 4146 4145 4150 
579 599 446 598 4148 4146 4011 4142 4150 4144 
580 446 599 447 4016 4146 4149 4018 3192 4151 
599 446 466 447 4146 3319 4147 4151 3192 3320 
447 466 600 467 3320 4152 4153 3326 3328 4154 
580 600 581 447 4155 4156 4028 4018 4153 4023 
447 466 599 600 3320 4147 4151 4153 4152 4157 
580 600 447 599 4155 4153 4018 4149 4157 4151 
581 447 600 448 4023 4153 4156 4025 3199 4158 
600 447 467 448 4153 3326 4154 4158 3199 3327 
448 467 601 468 3327 4159 4160 3333 3335 4161 
581 601 582 448 4162 4163 4035 4025 4160 4030 
448 467 600 601 3327 4154 4158 4160 4159 4164 
581 601 448 600 4162 4160 4025 4156 4164 4158 
582 448 601 449 4030 4160 4163 4032 3206 4165 
601 448 468 449 4160 3333 4161 4165 3206 3334 
449 468 602 469 3334 4166 4167 3340 3342 4168 
582 602 583 449 4169 4170 4042 4032 4167 4037 
449 468 601 602 3334 4161 4165 4167 4166 4171 
582 602 449 601 4169 4167 4032 4163 4171 4165 
583 449 602 450 4037 4167 4170 4039 3213 4172 
602 449 469 450 4167 3340 4168 4172 3213 3341 
450 469 603 470 3341 4173 4174 3347 3349 4175 
583 603 584 450 4176 4177 4049 4039 4174 4044 
450 469 602 603 3341 4168 4172 4174 4173 4178 
583 603 450 602 4176 4174 4039 4170 4178 4172 
584 450 603 451 4044 4174 4177 4046 3220 4179 
603 450 470 451 4174 3347 4175 4179 3220 3348 
451 470 604 471 3348 4180 4181 3354 3356 4182 
584 604 585 451 4183 4184 4056 4046 4181 4051 
451 470 603 604 3348 4175 4179 4181 4180 4185 
584 604 451 603 4183 4181 4046 4177 4185 4179 
585 451 604 452 4051 4181 4184 4053 3227 4186 
604 451 471 452 4181 3354 4182 4186 3227 3355 
452 471 605 472 3355 4187 4188 3361 3363 4189 
585 605 586 452 4190 4191 4063 4053 4188 4058 
452 471 604 605 3355 4182 4186 4188 4187 4192 
585 605 452 604 4190 4188 4053 4184 4192 4186 
586 452 605 453 4058 4188 4191 4060 3234 4193 
605 452 472 453 4188 3361 4189 4193 3234 3362 
453 472 606 473 3362 4194 4195 3368 3370 4196 
586 606 587 453 4197 4198 4070 4060 4195 4065 
453 472 605 606 3362 4189 4193 4195 4194 4199 
586 606 453 605 4197 4195 4060 4191 4199 4193 
587 453 606 454 4065 4195 4198 4067 3241 4200 
606 453 473 454 4195 3368 4196 4200 3241 3369 
454 473 607 474 3369 4201 4202 3375 3377 4203 
587 607 588 454 4204 4205 4077 4067 4202 4072 
454 473 606 607 3369 4196 4200 4202 4201 4206 
587 607 454 606 4204 4202 4067 4198 4206 4200 
588 454 607 455 4072 4202 4205 4074 3248 4207 
607 454 474 455 4202 3375 4203 4207 3248 3376 
456 475 609 476 3387 4208 4209 3382 3386 4210 
589 609 590 456 4211 4212 4086 4084 4209 4079 
456 475 608 609 3387 4213 4214 4209 4208 4215 
589 609 456 608 4211 4209 4084 4216 4215 4214 
590 456 609 457 4079 4209 4212 4081 3257 4217 
609 456 476 457 4209 3382 4210 4217 3257 3383 
457 476 610 477 3383 4218 4219 3392 3394 4220 
590 610 591 457 4221 4222 4094 4081 4219 4089 
457 476 609 610 3383 4210 4217 4219 4218 4223 
590 610 457 609 4221 4219 4081 4212 4223 4217 
591 457 610 458 4089 4219 4222 4091 3265 4224 
610 457 477 458 4219 3392 4220 4224 3265 3393 
458 477 611 478 3393 4225 4226 3399 3401 4227 
591 611 592 458 4228 4229 4101 4091 4226 4096 
458 477 610 611 3393 4220 4224 4226 4225 4230 
591 611 458 610 4228 4226 4091 4222 4230 4224 
592 458 611 459 4096 4226 4229 4098 3272 4231 
611 458 478 459 4226 3399 4227 4231 3272 3400 
459 478 612 479 3400 4232 4233 3406 3408 4234 
592 612 593 459 4235 4236 4108 4098 4233 4103 
459 478 611 612 3400 4227 4231 4233 4232 4237 
592 612 459 611 4235 4233 4098 4229 4237 4231 
593 459 612 460 4103 4233 4236 4105 3279 4238 
612 459 479 460 4233 3406 4234 4238 3279 3407 
460 479 613 480 3407 4239 4240 3413 3415 4241 
593 613 594 460 4242 4243 4115 4105 4240 4110 
460 479 612 613 3407 4234 4238 4240 4239 4244 
593 613 460 612 4242 4240 4105 4236 4244 4238 
594 460 613 461 4110 4240 4243 4112 3286 4245 
613 460 480 461 4240 3413 4241 4245 3286 3414 
461 480 614 481 3414 4246 4247 3420 3422 4248 
594 614 595 461 4249 4250 4122 4112 4247 4117 
461 480 613 614 3414 4241 4245 4247 4246 4251 
594 614 461 613 4249 4247 4112 4243 4251 4245 
595 461 614 462 4117 4247 4250 4119 3293 4252 
614 461 481 462 4247 3420 4248 4252 3293 3421 
462 481 615 482 3421 4253 4254 3427 3429 4255 
595 615 596 462 4256 4257 4129 4119 4254 4124 
462 481 614 615 3421 4248 4252 4254 4253 4258 
595 615 462 614 4256 4254 4119 4250 4258 4252 
596 462 615 463 4124 4254 4257 4126 3300 4259 
615 462 482 463 4254 3427 4255 4259 3300 3428 
463 482 616 483 3428 4260 4261 3434 3436 4262 
596 616 597 463 4263 4264 4136 4126 4261 4131 
463 482 615 616 3428 4255 4259 4261 4260 4265 
596 616 463 615 4263 4261 4126 4257 4265 4259 
597 463 616 464 4131 4261 4264 4133 3307 4266 
616 463 483 464 4261 3434 4262 4266 3307 3435 
464 483 617 484 3435 4267 4268 3441 3443 4269 
597 617 598 464 4270 4271 4143 4133 4268 4138 
464 483 616 617 3435 4262 4266 4268 4267 4272 
597 617 464 616 4270 4268 4133 4264 4272 4266 
598 464 617 465 4138 4268 4271 4140 3314 4273 
617 464 484 465 4268 3441 4269 4273 3314 3442 
465 484 618 485 3442 4274 4275 3448 3450 4276 
598 618 599 465 4277 4278 4150 4140 4275 4145 
465 484 617 618 3442 4269 4273 4275 4274 4279 
598 618 465 617 4277 4275 4140 4271 4279 4273 
599 465 618 466 4145 4275 4278 4147 3321 4280 
618 465 485 466 4275 3448 4276 4280 3321 3449 
466 485 619 486 3449 4281 4282 3455 3457 4283 
599 619 600 466 4284 4285 4157 4147 4282 4152 
466 485 618 619 3449 4276 4280 4282 4281 4286 
599 619 466 618 4284 4282 4147 4278 4286 4280 
600 466 619 467 4152 4282 4285 4154 3328 4287 
619 466 486 467 4282 3455 4283 4287 3328 3456 
467 486 620 487 3456 4288 4289 3462 3464 4290 
600 620 601 467 4291 4292 4164 4154 4289 4159 
467 486 619 620 3456 4283 4287 4289 4288 4293 
600 620 467 619 4291 4289 4154 4285 4293 4287 
601 467 620 468 4159 4289 4292 4161 3335 4294 
620 467 487 468 4289 3462 4290 4294 3335 3463 
468 487 621 488 3463 4295 4296 3469 3471 4297 
601 621 602 468 4298 4299 4171 4161 4296 4166 
468 487 620 621 3463 4290 4294 4296 4295 4300 
601 621 468 620 4298 4296 4161 4292 4300 4294 
602 468 621 469 4166 4296 4299 4168 3342 4301 
621 468 488 469 4296 3469 4297 4301 3342 3470 
469 488 622 489 3470 4302 4303 3476 3478 4304 
602 622 603 469 4305 4306 4178 4168 4303 4173 
469 488 621 622 3470 4297 4301 4303 4302 4307 
602 622 469 621 4305 4303 4168 4299 4307 4301 
603 469 622 470 4173 4303 4306 4175 3349 4308 
622 469 489 470 4303 3476 4304 4308 3349 3477 
470 489 623 490 3477 4309 4310 3483 3485 4311 
603 623 604 470 4312 4313 4185 4175 4310 4180 
470 489 622 623 3477 4304 4308 4310 4309 4314 
603 623 470 622 4312 4310 4175 4306 4314 4308 
604 470 623 471 4180 4310 4313 4182 3356 4315 
623 470 490 471 4310 3483 4311 4315 3356 3484 
471 490 624 491 3484 4316 4317 3490 3492 4318 
604 624 605 471 4319 4320 4192 4182 4317 4187 
471 490 623 624 3484 4311 4315 4317 4316 4321 
604 624 471 623 4319 4317 4182 4313 4321 4315 
605 471 624 472 4187 4317 4320 4189 3363 4322 
624 471 491 472 4317 3490 4318 4322 3363 3491 
472 491 625 492 3491 4323 4324 3497 3499 4325 
605 625 606 472 4326 4327 4199 4189 4324 4194 
472 491 624 625 3491 4318 4322 4324 4323 4328 
605 625 472 624 4326 4324 4189 4320 4328 4322 
606 472 625 473 4194 4324 4327 4196 3370 4329 
625 472 492 473 4324 3497 4325 4329 3370 3498 
473 492 626 493 3498 4330 4331 3504 3506 4332 
606 626 607 473 4333 4334 4206 4196 4331 4201 
473 492 625 626 3498 4325 4329 4331 4330 4335 
606 626 473 625 4333 4331 4196 4327 4335 4329 
607 473 626 474 4201 4331 4334 4203 3377 4336 
626 473 493 474 4331 3504 4332 4336 3377 3505 
475 494 628 495 3516 4337 4338 3511 3515 4339 
608 628 609 475 4340 4341 4215 4213 4338 4208 
475 494 627 628 3516 4342 4343 4338 4337 4344 
608 628 475 627 4340 4338 4213 4345 4344 4343 
609 475 628 476 4208 4338 4341 4210 3386 4346 
628 475 495 476 4338 3511 4339 4346 3386 3512 
476 495 629 496 3512 4347 4348 3521 3523 4349 
609 629 610 476 4350 4351 4223 4210 4348 4218 
476 495 628 629 3512 4339 4346 4348 4347 4352 
609 629 476 628 4350 4348 4210 4341 4352 4346 
610 476 629 477 4218 4348 4351 4220 3394 4353 
629 476 496 477 4348 3521 4349 4353 3394 3522 
477 496 630 497 3522 4354 4355 3528 3530 4356 
610 630 611 477 4357 4358 4230 4220 4355 4225 
477 496 629 630 3522 4349 4353 4355 4354 4359 
610 630 477 629 4357 4355 4220 4351 4359 4353 
611 477 630 478 4225 4355 4358 4227 3401 4360 
630 477 497 478 4355 3528 4356 4360 3401 3529 
478 497 631 498 3529 4361 4362 3535 3537 4363 
611 631 612 478 4364 4365 4237 4227 4362 4232 
478 497 630 631 3529 4356 4360 4362 4361 4366 
611 631 478 630 4364 4362 4227 4358 4366 4360 
612 478 631 479 4232 4362 4365 4234 3408 4367 
631 478 498 479 4362 3535 4363 4367 3408 3536 
479 498 632 499 3536 4368 4369 3542 3544 4370 
612 632 613 479 4371 4372 4244 4234 4369 4239 
479 498 631 632 3536 4363 4367 4369 4368 4373 
612 632 479 631 4371 4369 4234 4365 4373 4367 
613 479 632 480 4239 4369 4372 4241 3415 4374 
632 479 499 480 4369 3542 4370 4374 3415 3543 
480 499 633 500 3543 4375 4376 3549 3551 4377 
613 633 614 480 4378 4379 4251 4241 4376 4246 
480 499 632 633 3543 4370 4374 4376 4375 4380 
613 633 480 632 4378 4376 4241 4372 4380 4374 
614 480 633 481 4246 4376 4379 4248 3422 4381 
633 480 500 481 4376 3549 4377 4381 3422 3550 
481 500 634 501 3550 4382 4383 3556 3558 4384 
614 634 615 481 4385 4386 4258 4248 4383 4253 
481 500 633 634 3550 4377 4381 4383 4382 4387 
614 634 481 633 4385 4383 4248 4379 4387 4381 
615 481 634 482 4253 4383 4386 4255 3429 4388 
634 481 501 482 4383 3556 4384 4388 3429 3557 
482 501 635 502 3557 4389 4390 3563 3565 4391 
615 635 616 482 4392 4393 4265 4255 4390 4260 
482 501 634 635 3557 4384 4388 4390 4389 4394 
615 635 482 634 4392 4390 4255 4386 4394 4388 
616 482 635 483 4260 4390 4393 4262 3436 4395 
635 482 502 483 4390 3563 4391 4395 3436 3564 
483 502 636 503 3564 4396 4397 3570 3572 4398 
616 636 617 483 4399 4400 4272 4262 4397 4267 
483 502 635 636 3564 4391 4395 4397 4396 4401 
616 636 483 635 4399 4397 4262 4393 4401 4395 
617 483 636 484 4267 4397 4400 4269 3443 4402 
636 483 503 484 4397 3570 4398 4402 3443 3571 
484 503 637 504 3571 4403 4404 3577 3579 4405 
617 637 618 484 4406 4407 4279 4269 4404 4274 
484 503 636 637 3571 4398 4402 4404 4403 4408 
617 637 484 636 4406 4404 4269 4400 4408 4402 
618 484 637 485 4274 4404 4407 4276 3450 4409 
637 484 504 485 4404 3577 4405 4409 3450 3578 
485 504 638 505 3578 4410 4411 3584 3586 4412 
618 638 619 485 4413 4414 4286 4276 4411 4281 
485 504 637 638 3578 4405 4409 4411 4410 4415 
618 638 485 637 4413 4411 4276 4407 4415 4409 
619 485 638 486 4281 4411 4414 4283 3457 4416 
638 485 505 486 4411 3584 4412 4416 3457 3585 
486 505 639 506 3585 4417 4418 3591 3593 4419 
619 639 620 486 4420 4421 4293 4283 4418 4288 
486 505 638 639 3585 4412 4416 4418 4417 4422 
619 639 486 638 4420 4418 4283 4414 4422 4416 
620 486 639 487 4288 4418 4421 4290 3464 4423 
639 486 506 487 4418 3591 4419 4423 3464 3592 
487 506 640 507 3592 4424 4425 3598 3600 4426 
620 640 621 487 4427 4428 4300 4290 4425 4295 
487 506 639 640 3592 4419 4423 4425 4424 4429 
620 640 487 639 4427 4425 4290 4421 4429 4423 
621 487 640 488 4295 4425 4428 4297 3471 4430 
640 487 507 488 4425 3598 4426 4430 3471 3599 
488 507 641 508 3599 4431 4432 3605 3607 4433 
621 641 622 488 4434 4435 4307 4297 4432 4302 
488 507 640 641 3599 4426 4430 4432 4431 4436 
621 641 488 640 4434 4432 4297 4428 4436 4430 
622 488 641 489 4302 4432 4435 4304 3478 4437 
641 488 508 489 4432 3605 4433 4437 3478 3606 
489 508 642 509 3606 4438 4439 3612 3614 4440 
622 642 623 489 4441 4442 4314 4304 4439 4309 
489 508 641 642 3606 4433 4437 4439 4438 4443 
622 642 489 641 4441 4439 4304 4435 4443 4437 
623 489 642 490 4309 4439 4442 4311 3485 4444 
642 489 509 490 4439 3612 4440 4444 3485 3613 
490 509 643 510 3613 4445 4446 3619 3621 4447 
623 643 624 490 4448 4449 4321 4311 4446 4316 
490 509 642 643 3613 4440 4444 4446 4445 4450 
623 643 490 642 4448 4446 4311 4442 4450 4444 
624 490 643 491 4316 4446 4449 4318 3492 4451 
643 490 510 491 4446 3619 4447 4451 3492 3620 
491 510 644 511 3620 4452 4453 3626 3628 4454 
624 644 625 491 4455 4456 4328 4318 4453 4323 
491 510 643 644 3620 4447 4451 4453 4452 4457 
624 644 491 643 4455 4453 4318 4449 4457 4451 
625 491 644 492 4323 4453 4456 4325 3499 4458 
644 491 511 492 4453 3626 4454 4458 3499 3627 
492 511 645 512 3627 4459 4460 3633 3635 4461 
625 645 626 492 4462 4463 4335 4325 4460 4330 
492 511 644 645 3627 4454 4458 4460 4459 4464 
625 645 492 644 4462 4460 4325 4456 4464 4458 
626 492 645 493 4330 4460 4463 4332 3506 4465 
645 492 512 493 4460 3633 4461 4465 3506 3634 
494 513 647 514 3645 4466 4467 3640 3644 4468 
627 647 628 494 4469 4470 4344 4342 4467 4337 
494 513 646 647 3645 4471 4472 4467 4466 4473 
627 647 494 646 4469 4467 4342 4474 4473 4472 
628 494 647 495 4337 4467 4470 4339 3515 4475 
647 494 514 495 4467 3640 4468 4475 3515 3641 
495 514 648 515 3641 4476 4477 3650 3652 4478 
628 648 629 495 4479 4480 4352 4339 4477 4347 
495 514 647 648 3641 4468 4475 4477 4476 4481 
628 648 495 647 4479 4477 4339 4470 4481 4475 
629 495 648 496 4347 4477 4480 4349 3523 4482 
648 495 515 496 4477 3650 4478 4482 3523 3651 
496 515 649 516 3651 4483 4484 3657 3659 4485 
629 649 630 496 4486 4487 4359 4349 4484 4354 
496 515 648 649 3651 4478 4482 4484 4483 4488 
629 649 496 648 4486 4484 4349 4480 4488 4482 
630 496 649 497 4354 4484 4487 4356 3530 4489 
649 496 516 497 4484 3657 4485 4489 3530 3658 
497 516 650 517 3658 4490 4491 3664 3666 4492 
630 650 631 497 4493 4494 4366 4356 4491 4361 
497 516 649 650 3658 4485 4489 4491 4490 4495 
630 650 497 649 4493 4491 4356 4487 4495 4489 
631 497 650 498 4361 4491 4494 4363 3537 4496 
650 497 517 498 4491 3664 4492 4496 3537 3665 
498 517 651 518 3665 4497 4498 3671 3673 4499 
631 651 632 498 4500 4501 4373 4363 4498 4368 
498 517 650 651 3665 4492 4496 4498 4497 4502 
631 651 498 650 4500 4498 4363 4494 4502 4496 
632 498 651 499 4368 4498 4501 4370 3544 4503 
651 498 518 499 4498 3671 4499 4503 3544 3672 
499 518 652 519 3672 4504 4505 3678 3680 4506 
632 652 633 499 4507 4508 4380 4370 4505 4375 
499 518 651 652 3672 4499 4503 4505 4504 4509 
632 652 499 651 4507 4505 4370 4501 4509 4503 
633 499 652 500 4375 4505 4508 4377 3551 4510 
652 499 519 500 4505 3678 4506 4510 3551 3679 
500 519 653 520 3679 4511 4512 3685 3687 4513 
633 653 634 500 4514 4515 4387 4377 4512 4382 
500 519 652 653 3679 4506 4510 4512 4511 4516 
633 653 500 652 4514 4512 4377 4508 4516 4510 
634 500 653 501 4382 4512 4515 4384 3558 4517 
653 500 520 501 4512 3685 4513 4517 3558 3686 
501 520 654 521 3686 4518 4519 3692 3694 4520 
634 654 635 501 4521 4522 4394 4384 4519 4389 
501 520 653 654 3686 4513 4517 4519 4518 4523 
634 654 501 653 4521 4519 4384 4515 4523 4517 
635 501 654 502 4389 4519 4522 4391 3565 4524 
654 501 521 502 4519 3692 4520 4524 3565 3693 
502 521 655 522 3693 4525 4526 3699 3701 4527 
635 655 636 502 4528 4529 4401 4391 4526 4396 
502 521 654 655 3693 4520 4524 4526 4525 4530 
635 655 502 654 4528 4526 4391 4522 4530 4524 
636 502 655 503 4396 4526 4529 4398 3572 4531 
655 502 522 503 4526 3699 4527 4531 3572 3700 
503 522 656 523 3700 4532 4533 3706 3708 4534 
636 656 637 503 4535 4536 4408 4398 4533 4403 
503 522 655 656 3700 4527 4531 4533 4532 4537 
636 656 503 655 4535 4533 4398 4529 4537 4531 
637 503 656 504 4403 4533 4536 4405 3579 4538 
656 503 523 504 4533 3706 4534 4538 3579 3707 
504 523 657 524 3707 4539 4540 3713 3715 4541 
637 657 638 504 4542 4543 4415 4405 4540 4410 
504 523 656 657 3707 4534 4538 4540 4539 4544 
637 657 504 656 4542 4540 4405 4536 4544 4538 
638 504 657 505 4410 4540 4543 4412 3586 4545 
657 504 524 505 4540 3713 4541 4545 3586 3714 
505 524 658 525 3714 4546 4547 3720 3722 4548 
638 658 639 505 4549 4550 4422 4412 4547 4417 
505 524 657 658 3714 4541 4545 4547 4546 4551 
638 658 505 657 4549 4547 4412 4543 4551 4545 
639 505 658 506 4417 4547 4550 4419 3593 4552 
658 505 525 506 4547 3720 4548 4552 3593 3721 
506 525 659 526 3721 4553 4554 3727 3729 4555 
639 659 640 506 4556 4557 4429 4419 4554 4424 
506 525 658 659 3721 4548 4552 4554 4553 4558 
639 659 506 658 4556 4554 4419 4550 4558 4552 
640 506 659 507 4424 4554 4557 4426 3600 4559 
659 506 526 507 4554 3727 4555 4559 3600 3728 
507 526 660 527 3728 4560 4561 3734 3736 4562 
640 660 641 507 4563 4564 4436 4426 4561 4431 
507 526 659 660 3728 4555 4559 4561 4560 4565 
640 660 507 659 4563 4561 4426 4557 4565 4559 
641 507 660 508 4431 4561 4564 4433 3607 4566 
660 507 527 508 4561 3734 4562 4566 3607 3735 
508 527 661 528 3735 4567 4568 3741 3743 4569 
641 661 642 508 4570 4571 4443 4433 4568 4438 
508 527 660 661 3735 4562 4566 4568 4567 4572 
641 661 508 660 4570 4568 4433 4564 4572 4566 
642 508 661 509 4438 4568 4571 4440 3614 4573 
661 508 528 509 4568 3741 4569 4573 3614 3742 
509 528 662 529 3742 4574 4575 3748 3750 4576 
642 662 643 509 4577 4578 4450 4440 4575 4445 
509 528 661 662 3742 4569 4573 4575 4574 4579 
642 662 509 661 4577 4575 4440 4571 4579 4573 
643 509 662 510 4445 4575 4578 4447 3621 4580 
662 509 529 510 4575 3748 4576 4580 3621 3749 
510 529 663 530 3749 4581 4582 3755 3757 4583 
643 663 644 510 4584 4585 4457 4447 4582 4452 
510 529 662 663 3749 4576 4580 4582 4581 4586 
643 663 510 662 4584 4582 4447 4578 4586 4580 
644 510 663 511 4452 4582 4585 4454 3628 4587 
663 510 530 511 4582 3755 4583 4587 3628 3756 
511 530 664 531 3756 4588 4589 3762 3764 4590 
644 664 645 511 4591 4592 4464 4454 4589 4459 
511 530 663 664 3756 4583 4587 4589 4588 4593 
644 664 511 663 4591 4589 4454 4585 4593 4587 
645 511 664 512 4459 4589 4592 4461 3635 4594 
664 511 531 512 4589 3762 4590 4594 3635 3763 
532 551 685 552 3777 4595 4596 3769 3776 4597 
665 685 666 532 4598 4599 4600 4601 4596 4602 
532 551 684 685 3777 4603 4604 4596 4595 4605 
665 685 532 684 4598 4596 4601 4606 4605 4604 
666 532 685 533 4602 4596 4599 4607 3771 4608 
685 532 552 533 4596 3769 4597 4608 3771 3770 
533 552 686 553 3770 4609 4610 3783 3787 4611 
666 686 667 533 4612 4613 4614 4607 4610 4615 
533 552 685 686 3770 4597 4608 4610 4609 4616 
666 686 533 685 4612 4610 4607 4599 4616 4608 
667 533 686 534 4615 4610 4613 4617 3785 4618 
686 533 553 534 4610 3783 4611 4618 3785 3784 
534 553 687 554 3784 4619 4620 3793 3797 4621 
667 687 668 534 4622 4623 4624 4617 4620 4625 
534 553 686 687 3784 4611 4618 4620 4619 4626 
667 687 534 686 4622 4620 4617 4613 4626 4618 
668 534 687 535 4625 4620 4623 4627 3795 4628 
687 534 554 535 4620 3793 4621 4628 3795 3794 
535 554 688 555 3794 4629 4630 3803 3807 4631 
668 688 669 535 4632 4633 4634 4627 4630 4635 
535 554 687 688 3794 4621 4628 4630 4629 4636 
668 688 535 687 4632 4630 4627 4623 4636 4628 
669 535 688 536 4635 4630 4633 4637 3805 4638 
688 535 555 536 4630 3803 4631 4638 3805 3804 
536 555 689 556 3804 4639 4640 3813 3817 4641 
669 689 670 536 4642 4643 4644 4637 4640 4645 
536 555 688 689 3804 4631 4638 4640 4639 4646 
669 689 536 688 4642 4640 4637 4633 4646 4638 
670 536 689 537 4645 4640 4643 4647 3815 4648 
689 536 556 537 4640 3813 4641 4648 3815 3814 
537 556 690 557 3814 4649 4650 3823 3827 4651 
670 690 671 537 4652 4653 4654 4647 4650 4655 
537 556 689 690 3814 4641 4648 4650 4649 4656 
670 690 537 689 4652 4650 4647 4643 4656 4648 
671 537 690 538 4655 4650 4653 4657 3825 4658 
690 537 557 538 4650 3823 4651 4658 3825 3824 
538 557 691 558 3824 4659 4660 3833 3837 4661 
671 691 672 538 4662 4663 4664 4657 4660 4665 
538 557 690 691 3824 4651 4658 4660 4659 4666 
671 691 538 690 4662 4660 4657 4653 4666 4658 
672 538 691 539 4665 4660 4663 4667 3835 4668 
691 538 558 539 4660 3833 4661 4668 3835 3834 
539 558 692 559 3834 4669 4670 3843 3847 4671 
672 692 673 539 4672 4673 4674 4667 4670 4675 
539 558 691 692 3834 4661 4668 4670 4669 4676 
672 692 539 691 4672 4670 4667 4663 4676 4668 
673 539 692 540 4675 4670 4673 4677 3845 4678 
692 539 559 540 4670 3843 4671 4678 3845 3844 
540 559 693 560 3844 4679 4680 3853 3857 4681 
673 693 674 540 4682 4683 4684 4677 4680 4685 
540 559 692 693 3844 4671 4678 4680 4679 4686 
673 693 540 692 4682 4680 4677 4673 4686 4678 
674 540 693 541 4685 4680 4683 4687 3855 4688 
693 540 560 541 4680 3853 4681 4688 3855 3854 
541 560 694 561 3854 4689 4690 3863 3867 4691 
674 694 675 541 4692 4693 4694 4687 4690 4695 
541 560 693 694 3854 4681 4688 4690 4689 4696 
674 694 541 693 4692 4690 4687 4683 4696 4688 
675 541 694 542 4695 4690 4693 4697 3865 4698 
694 541 561 542 4690 3863 4691 4698 3865 3864 
542 561 695 562 3864 4699 4700 3873 3877 4701 
675 695 676 542 4702 4703 4704 4697 4700 4705 
542 561 694 695 3864 4691 4698 4700 4699 4706 
675 695 542 694 4702 4700 4697 4693 4706 4698 
676 542 695 543 4705 4700 4703 4707 3875 4708 
695 542 562 543 4700 3873 4701 4708 3875 3874 
543 562 696 563 3874 4709 4710 3883 3887 4711 
676 696 677 543 4712 4713 4714 4707 4710 4715 
543 562 695 696 3874 4701 4708 4710 4709 4716 
676 696 543 695 4712 4710 4707 4703 4716 4708 
677 543 696 544 4715 4710 4713 4717 3885 4718 
696 543 563 544 4710 3883 4711 4718 3885 3884 
544 563 697 564 3884 4719 4720 3893 3897 4721 
677 697 678 544 4722 4723 4724 4717 4720 4725 
544 563 696 697 3884 4711 4718 4720 4719 4726 
677 697 544 696 4722 4720 4717 4713 4726 4718 
678 544 697 545 4725 4720 4723 4727 3895 4728 
697 544 564 545 4720 3893 4721 4728 3895 3894 
545 564 698 565 3894 4729 4730 3903 3907 4731 
678 698 679 545 4732 4733 4734 4727 4730 4735 
545 564 697 698 3894 4721 4728 4730 4729 4736 
678 698 545 697 4732 4730 4727 4723 4736 4728 
679 545 698 546 4735 4730 4733 4737 3905 4738 
698 545 565 546 4730 3903 4731 4738 3905 3904 
546 565 699 566 3904 4739 4740 3913 3917 4741 
679 699 680 546 4742 4743 4744 4737 4740 4745 
546 565 698 699 3904 4731 4738 4740 4739 4746 
679 699 546 698 4742 4740 4737 4733 4746 4738 
680 546 699 547 4745 4740 4743 4747 3915 4748 
699 546 566 547 4740 3913 4741 4748 3915 3914 
547 566 700 567 3914 4749 4750 3923 3927 4751 
680 700 681 547 4752 4753 4754 4747 4750 4755 
547 566 699 700 3914 4741 4748 4750 4749 4756 
680 700 547 699 4752 4750 4747 4743 4756 4748 
681 547 700 548 4755 4750 4753 4757 3925 4758 
700 547 567 548 4750 3923 4751 4758 3925 3924 
548 567 701 568 3924 4759 4760 3933 3937 4761 
681 701 682 548 4762 4763 4764 4757 4760 4765 
548 567 700 701 3924 4751 4758 4760 4759 4766 
681 701 548 700 4762 4760 4757 4753 4766 4758 
682 548 701 549 4765 4760 4763 4767 3935 4768 
701 548 568 549 4760 3933 4761 4768 3935 3934 
549 568 702 569 3934 4769 4770 3943 3947 4771 
682 702 683 549 4772 4773 4774 4767 4770 4775 
549 568 701 702 3934 4761 4768 4770 4769 4776 
682 702 549 701 4772 4770 4767 4763 4776 4768 
683 549 702 550 4775 4770 4773 4777 3945 4778 
702 549 569 550 4770 3943 4771 4778 3945 3944 
551 570 704 571 3958 4779 4780 3953 3957 4781 
684 704 685 551 4782 4783 4605 4603 4780 4595 
551 570 703 704 3958 4784 4785 4780 4779 4786 
684 704 551 703 4782 4780 4603 4787 4786 4785 
685 551 704 552 4595 4780 4783 4597 3776 4788 
704 551 571 552 4780 3953 4781 4788 3776 3954 
552 571 705 572 3954 4789 4790 3963 3965 4791 
685 705 686 552 4792 4793 4616 4597 4790 4609 
552 571 704 705 3954 4781 4788 4790 4789 4794 
685 705 552 704 4792 4790 4597 4783 4794 4788 
686 552 705 553 4609 4790 4793 4611 3787 4795 
705 552 572 553 4790 3963 4791 4795 3787 3964 
553 572 706 573 3964 4796 4797 3970 3972 4798 
686 706 687 553 4799 4800 4626 4611 4797 4619 
553 572 705 706 3964 4791 4795 4797 4796 4801 
686 706 553 705 4799 4797 4611 4793 4801 4795 
687 553 706 554 4619 4797 4800 4621 3797 4802 
706 553 573 554 4797 3970 4798 4802 3797 3971 
554 573 707 574 3971 4803 4804 3977 3979 4805 
687 707 688 554 4806 4807 4636 4621 4804 4629 
554 573 706 707 3971 4798 4802 4804 4803 4808 
687 707 554 706 4806 4804 4621 4800 4808 4802 
688 554 707 555 4629 4804 4807 4631 3807 4809 
707 554 574 555 4804 3977 4805 4809 3807 3978 
555 574 708 575 3978 4810 4811 3984 3986 4812 
688 708 689 555 4813 4814 4646 4631 4811 4639 
555 574 707 708 3978 4805 4809 4811 4810 4815 
688 708 555 707 4813 4811 4631 4807 4815 4809 
689 555 708 556 4639 4811 4814 4641 3817 4816 
708 555 575 556 4811 3984 4812 4816 3817 3985 
556 575 709 576 3985 4817 4818 3991 3993 4819 
689 709 690 556 4820 4821 4656 4641 4818 4649 
556 575 708 709 3985 4812 4816 4818 4817 4822 
689 709 556 708 4820 4818 4641 4814 4822 4816 
690 556 709 557 4649 4818 4821 4651 3827 4823 
709 556 576 557 4818 3991 4819 4823 3827 3992 
557 576 710 577 3992 4824 4825 3998 4000 4826 
690 710 691 557 4827 4828 4666 4651 4825 4659 
557 576 709 710 3992 4819 4823 4825 4824 4829 
690 710 557 709 4827 4825 4651 4821 4829 4823 
691 557 710 558 4659 4825 4828 4661 3837 4830 
710 557 577 558 4825 3998 4826 4830 3837 3999 
558 577 711 578 3999 4831 4832 4005 4007 4833 
691 711 692 558 4834 4835 4676 4661 4832 4669 
558 577 710 711 3999 4826 4830 4832 4831 4836 
691 711 558 710 4834 4832 4661 4828 4836 4830 
692 558 711 559 4669 4832 4835 4671 3847 4837 
711 558 578 559 4832 4005 4833 4837 3847 4006 
559 578 712 579 4006 4838 4839 4012 4014 4840 
692 712 693 559 4841 4842 4686 4671 4839 4679 
559 578 711 712 4006 4833 4837 4839 4838 4843 
692 712 559 711 4841 4839 4671 4835 4843 4837 
693 559 712 560 4679 4839 4842 4681 3857 4844 
712 559 579 560 4839 4012 4840 4844 3857 4013 
560 579 713 580 4013 4845 4846 4019 4021 4847 
693 713 694 560 4848 4849 4696 4681 4846 4689 
560 579 712 713 4013 4840 4844 4846 4845 4850 
693 713 560 712 4848 4846 4681 4842 4850 4844 
694 560 713 561 4689 4846 4849 4691 3867 4851 
713 560 580 561 4846 4019 4847 4851 3867 4020 
561 580 714 581 4020 4852 4853 4026 4028 4854 
694 714 695 561 4855 4856 4706 4691 4853 4699 
561 580 713 714 4020 4847 4851 4853 4852 4857 
694 714 561 713 4855 4853 4691 4849 4857 4851 
695 561 714 562 4699 4853 4856 4701 3877 4858 
714 561 581 562 4853 4026 4854 4858 3877 4027 
562 581 715 582 4027 4859 4860 4033 4035 4861 
695 715 696 562 4862 4863 4716 4701 4860 4709 
562 581 714 715 4027 4854 4858 4860 4859 4864 
695 715 562 714 4862 4860 4701 4856 4864 4858 
696 562 715 563 4709 4860 4863 4711 3887 4865 
715 562 582 563 4860 4033 4861 4865 3887 4034 
563 582 716 583 4034 4866 4867 4040 4042 4868 
696 716 697 563 4869 4870 4726 4711 4867 4719 
563 582 715 716 4034 4861 4865 4867 4866 4871 
696 716 563 715 4869 4867 4711 4863 4871 4865 
697 563 716 564 4719 4867 4870 4721 3897 4872 
716 563 583 564 4867 4040 4868 4872 3897 4041 
564 583 717 584 4041 4873 4874 4047 4049 4875 
697 717 698 564 4876 4877 4736 4721 4874 4729 
564 583 716 717 4041 4868 4872 4874 4873 4878 
697 717 564 716 4876 4874 4721 4870 4878 4872 
698 564 717 565 4729 4874 4877 4731 3907 4879 
717 564 584 565 4874 4047 4875 4879 3907 4048 
565 584 718 585 4048 4880 4881 4054 4056 4882 
698 718 699 565 4883 4884 4746 4731 4881 4739 
565 584 717 718 4048 4875 4879 4881 4880 4885 
698 718 565 717 4883 4881 4731 4877 4885 4879 
699 565 718 566 4739 4881 4884 4741 3917 4886 
718 565 585 566 4881 4054 4882 4886 3917 4055 
566 585 719 586 4055 4887 4888 4061 4063 4889 
699 719 700 566 4890 4891 4756 4741 4888 4749 
566 585 718 719 4055 4882 4886 4888 4887 4892 
699 719 566 718 4890 4888 4741 4884 4892 4886 
700 566 719 567 4749 4888 4891 4751 3927 4893 
719 566 586 567 4888 4061 4889 4893 3927 4062 
567 586 720 587 4062 4894 4895 4068 4070 4896 
700 720 701 567 4897 4898 4766 4751 4895 4759 
567 586 719 720 4062 4889 4893 4895 4894 4899 
700 720 567 719 4897 4895 4751 4891 4899 4893 
701 567 720 568 4759 4895 4898 4761 3937 4900 
720 567 587 568 4895 4068 4896 4900 3937 4069 
568 587 721 588 4069 4901 4902 4075 4077 4903 
701 721 702 568 4904 4905 4776 4761 4902 4769 
568 587 720 721 4069 4896 4900 4902 4901 4906 
701 721 568 720 4904 4902 4761 4898 4906 4900 
702 568 721 569 4769 4902 4905 4771 3947 4907 
721 568 588 569 4902 4075 4903 4907 3947 4076 
570 589 723 590 4087 4908 4909 4082 4086 4910 
703 723 704 570 4911 4912 4786 4784 4909 4779 
570 589 722 723 4087 4913 4914 4909 4908 4915 
703 723 570 722 4911 4909 4784 4916 4915 4914 
704 570 723 571 4779 4909 4912 4781 3957 4917 
723 570 590 571 4909 4082 4910 4917 3957 4083 
571 590 724 591 4083 4918 4919 4092 4094 4920 
704 724 705 571 4921 4922 4794 4781 4919 4789 
571 590 723 724 4083 4910 4917 4919 4918 4923 
704 724 571 723 4921 4919 4781 4912 4923 4917 
705 571 724 572 4789 4919 4922 4791 3965 4924 
724 571 591 572 4919 4092 4920 4924 3965 4093 
572 591 725 592 4093 4925 4926 4099 4101 4927 
705 725 706 572 4928 4929 4801 4791 4926 4796 
572 591 724 725 4093 4920 4924 4926 4925 4930 
705 725 572 724 4928 4926 4791 4922 4930 4924 
706 572 725 573 4796 4926 4929 4798 3972 4931 
725 572 592 573 4926 4099 4927 4931 3972 4100 
573 592 726 593 4100 4932 4933 4106 4108 4934 
706 726 707 573 4935 4936 4808 4798 4933 4803 
573 592 725 726 4100 4927 4931 4933 4932 4937 
706 726 573 725 4935 4933 4798 4929 4937 4931 
707 573 726 574 4803 4933 4936 4805 3979 4938 
726 573 593 574 4933 4106 4934 4938 3979 4107 
574 593 727 594 4107 4939 4940 4113 4115 4941 
707 727 708 574 4942 4943 4815 4805 4940 4810 
574 593 726 727 4107 4934 4938 4940 4939 4944 
707 727 574 726 4942 4940 4805 4936 4944 4938 
708 574 727 575 4810 4940 4943 4812 3986 4945 
727 574 594 575 4940 4113 4941 4945 3986 4114 
575 594 728 595 4114 4946 4947 4120 4122 4948 
708 728 709 575 4949 4950 4822 4812 4947 4817 
575 594 727 728 4114 4941 4945 4947 4946 4951 
708 728 575 727 4949 4947 4812 4943 4951 4945 
709 575 728 576 4817 4947 4950 4819 3993 4952 
728 575 595 576 4947 4120 4948 4952 3993 4121 
576 595 729 596 4121 4953 4954 4127 4129 4955 
709 729 710 576 4956 4957 4829 4819 4954 4824 
576 595 728 729 4121 4948 4952 4954 4953 4958 
709 729 576 728 4956 4954 4819 4950 4958 4952 
710 576 729 577 4824 4954 4957 4826 4000 4959 
729 576 596 577 4954 4127 4955 4959 4000 4128 
577 596 730 597 4128 4960 4961 4134 4136 4962 
710 730 711 577 4963 4964 4836 4826 4961 4831 
577 596 729 730 4128 4955 4959 4961 4960 4965 
710 730 577 729 4963 4961 4826 4957 4965 4959 
711 577 730 578 4831 4961 4964 4833 4007 4966 
730 577 597 578 4961 4134 4962 4966 4007 4135 
578 597 731 598 4135 4967 4968 4141 4143 4969 
711 731 712 578 4970 4971 4843 4833 4968 4838 
578 597 730 731 4135 4962 4966 4968 4967 4972 
711 731 578 730 4970 4968 4833 4964 4972 4966 
712 578 731 579 4838 4968 4971 4840 4014 4973 
731 578 598 579 4968 4141 4969 4973 4014 4142 
579 598 732 599 4142 4974 4975 4148 4150 4976 
712 732 713 579 4977 4978 4850 4840 4975 4845 
579 598 731 732 4142 4969 4973 4975 4974 4979 
712 732 579 731 4977 4975 4840 4971 4979 4973 
713 579 732 580 4845 4975 4978 4847 4021 4980 
732 579 599 580 4975 4148 4976 4980 4021 4149 
580 599 733 600 4149 4981 4982 4155 4157 4983 
713 733 714 580 4984 4985 4857 4847 4982 4852 
580 599 732 733 4149 4976 4980 4982 4981 4986 
713 733 580 732 4984 4982 4847 4978 4986 4980 
714 580 733 581 4852 4982 4985 4854 4028 4987 
733 580 600 581 4982 4155 4983 4987 4028 4156 
581 600 734 601 4156 4988 4989 4162 4164 4990 
714 734 715 581 4991 4992 4864 4854 4989 4859 
581 600 733 734 4156 4983 4987 4989 4988 4993 
714 734 581 733 4991 4989 4854 4985 4993 4987 
715 581 734 582 4859 4989 4992 4861 4035 4994 
734 581 601 582 4989 4162 4990 4994 4035 4163 
582 601 735 602 4163 4995 4996 4169 4171 4997 
715 735 716 582 4998 4999 4871 4861 4996 4866 
582 601 734 735 4163 4990 4994 4996 4995 5000 
715 735 582 734 4998 4996 4861 4992 5000 4994 
716 582 735 583 4866 4996 4999 4868 4042 5001 
735 582 602 583 4996 4169 4997 5001 4042 4170 
583 602 736 603 4170 5002 5003 4176 4178 5004 
716 736 717 583 5005 5006 4878 4868 5003 4873 
583 602 735 736 4170 4997 5001 5003 5002 5007 
716 736 583 735 5005 5003 4868 4999 5007 5001 
717 583 736 584 4873 5003 5006 4875 4049 5008 
736 583 603 584 5003 4176 5004 5008 4049 4177 
584 603 737 604 4177 5009 5010 4183 4185 5011 
717 737 718 584 5012 5013 4885 4875 5010 4880 
584 603 736 737 4177 5004 5008 5010 5009 5014 
717 737 584 736 5012 5010 4875 5006 5014 5008 
718 584 737 585 4880 5010 5013 4882 4056 5015 
737 584 604 585 5010 4183 5011 5015 4056 4184 
585 604 738 605 4184 5016 5017 4190 4192 5018 
718 738 719 585 5019 5020 4892 4882 5017 4887 
585 604 737 738 4184 5011 5015 5017 5016 5021 
718 738 585 737 5019 5017 4882 5013 5021 5015 
719 585 738 586 4887 5017 5020 4889 4063 5022 
738 585 605 586 5017 4190 5018 5022 4063 4191 
586 605 739 606 4191 5023 5024 4197 4199 5025 
719 739 720 586 5026 5027 4899 4889 5024 4894 
586 605 738 739 4191 5018 5022 5024 5023 5028 
719 739 586 738 5026 5024 4889 5020 5028 5022 
720 586 739 587 4894 5024 5027 4896 4070 5029 
739 586 606 587 5024 4197 5025 5029 4070 4198 
587 606 740 607 4198 5030 5031 4204 4206 5032 
720 740 721 587 5033 5034 4906 4896 5031 4901 
587 606 739 740 4198 5025 5029 5031 5030 5035 
720 740 587 739 5033 5031 4896 5027 5035 5029 
721 587 740 588 4901 5031 5034 4903 4077 5036 
740 587 607 588 5031 4204 5032 5036 4077 4205 
589 608 742 609 4216 5037 5038 4211 4215 5039 
722 742 723 589 5040 5041 4915 4913 5038 4908 
589 608 741 742 4216 5042 5043 5038 5037 5044 
722 742 589 741 5040 5038 4913 5045 5044 5043 
723 589 742 590 4908 5038 5041 4910 4086 5046 
742 589 609 590 5038 4211 5039 5046 4086 4212 
590 609 743 610 4212 5047 5048 4221 4223 5049 
723 743 724 590 5050 5051 4923 4910 5048 4918 
590 609 742 743 4212 5039 5046 5048 5047 5052 
723 743 590 742 5050 5048 4910 5041 5052 5046 
724 590 743 591 4918 5048 5051 4920 4094 5053 
743 590 610 591 5048 4221 5049 5053 4094 4222 
591 610 744 611 4222 5054 5055 4228 4230 5056 
724 744 725 591 5057 5058 4930 4920 5055 4925 
591 610 743 744 4222 5049 5053 5055 5054 5059 
724 744 591 743 5057 5055 4920 5051 5059 5053 
725 591 744 592 4925 5055 5058 4927 4101 5060 
744 591 611 592 5055 4228 5056 5060 4101 4229 
592 611 745 612 4229 5061 5062 4235 4237 5063 
725 745 726 592 5064 5065 4937 4927 5062 4932 
592 611 744 745 4229 5056 5060 5062 5061 5066 
725 745 592 744 5064 5062 4927 5058 5066 5060 
726 592 745 593 4932 5062 5065 4934 4108 5067 
745 592 612 593 5062 4235 5063 5067 4108 4236 
593 612 746 613 4236 5068 5069 4242 4244 5070 
726 746 727 593 5071 5072 4944 4934 5069 4939 
593 612 745 746 4236 5063 5067 5069 5068 5073 
726 746 593 745 5071 5069 4934 5065 5073 5067 
727 593 746 594 4939 5069 5072 4941 4115 5074 
746 593 613 594 5069 4242 5070 5074 4115 4243 
594 613 747 614 4243 5075 5076 4249 4251 5077 
727 747 728 594 5078 5079 4951 4941 5076 4946 
594 613 746 747 4243 5070 5074 5076 5075 5080 
727 747 594 746 5078 5076 4941 5072 5080 5074 
728 594 747 595 4946 5076 5079 4948 4122 5081 
747 594 614 595 5076 4249 5077 5081 4122 4250 
595 614 748 615 4250 5082 5083 4256 4258 5084 
728 748 729 595 5085 5086 4958 4948 5083 4953 
595 614 747 748 4250 5077 5081 5083 5082 5087 
728 748 595 747 5085 5083 4948 5079 5087 5081 
729 595 748 596 4953 5083 5086 4955 4129 5088 
748 595 615 596 5083 4256 5084 5088 4129 4257 
596 615 749 616 4257 5089 5090 4263 4265 5091 
729 749 730 596 5092 5093 4965 4955 5090 4960 
596 615 748 749 4257 5084 5088 5090 5089 5094 
729 749 596 748 5092 5090 4955 5086 5094 5088 
730 596 749 597 4960 5090 5093 4962 4136 5095 
749 596 616 597 5090 4263 5091 5095 4136 4264 
597 616 750 617 4264 5096 5097 4270 4272 5098 
730 750 731 597 5099 5100 4972 4962 5097 4967 
597 616 749 750 4264 5091 5095 5097 5096 5101 
730 750 597 749 5099 5097 4962 5093 5101 5095 
731 597 750 598 4967 5097 5100 4969 4143 5102 
750 597 617 598 5097 4270 5098 5102 4143 4271 
598 617 751 618 4271 5103 5104 4277 4279 5105 
731 751 732 598 5106 5107 4979 4969 5104 4974 
598 617 750 751 4271 5098 5102 5104 5103 5108 
731 751 598 750 5106 5104 4969 5100 5108 5102 
732 598 751 599 4974 5104 5107 4976 4150 5109 
751 598 618 599 5104 4277 5105 5109 4150 4278 
599 618 752 619 4278 5110 5111 4284 4286 5112 
732 752 733 599 5113 5114 4986 4976 5111 4981 
599 618 751 752 4278 5105 5109 5111 5110 5115 
732 752 599 751 5113 5111 4976 5107 5115 5109 
733 599 752 600 4981 5111 5114 4983 4157 5116 
752 599 619 600 5111 4284 5112 5116 4157 4285 
600 619 753 620 4285 5117 5118 4291 4293 5119 
733 753 734 600 5120 5121 4993 4983 5118 4988 
600 619 752 753 4285 5112 5116 5118 5117 5122 
733 753 600 752 5120 5118 4983 5114 5122 5116 
734 600 753 601 4988 5118 5121 4990 4164 5123 
753 600 620 601 5118 4291 5119 5123 4164 4292 
601 620 754 621 4292 5124 5125 4298 4300 5126 
734 754 735 601 5127 5128 5000 4990 5125 4995 
601 620 753 754 4292 5119 5123 5125 5124 5129 
734 754 601 753 5127 5125 4990 5121 5129 5123 
735 601 754 602 4995 5125 5128 4997 4171 5130 
754 601 621 602 5125 4298 5126 5130 4171 4299 
602 621 755 622 4299 5131 5132 4305 4307 5133 
735 755 736 602 5134 5135 5007 4997 5132 5002 
602 621 754 755 4299 5126 5130 5132 5131 5136 
735 755 602 754 5134 5132 4997 5128 5136 5130 
736 602 755 603 5002 5132 5135 5004 4178 5137 
755 602 622 603 5132 4305 5133 5137 4178 4306 
603 622 756 623 4306 5138 5139 4312 4314 5140 
736 756 737 603 5141 5142 5014 5004 5139 5009 
603 622 755 756 4306 5133 5137 5139 5138 5143 
736 756 603 755 5141 5139 5004 5135 5143 5137 
737 603 756 604 5009 5139 5142 5011 4185 5144 
756 603 623 604 5139 4312 5140 5144 4185 4313 
604 623 757 624 4313 5145 5146 4319 4321 5147 
737 757 738 604 5148 5149 5021 5011 5146 5016 
604 623 756 757 4313 5140 5144 5146 5145 5150 
737 757 604 756 5148 5146 5011 5142 5150 5144 
738 604 757 605 5016 5146 5149 5018 4192 5151 
757 604 624 605 5146 4319 5147 5151 4192 4320 
605 624 758 625 4320 5152 5153 4326 4328 5154 
738 758 739 605 5155 5156 5028 5018 5153 5023 
605 624 757 758 4320 5147 5151 5153 5152 5157 
738 758 605 757 5155 5153 5018 5149 5157 5151 
739 605 758 606 5023 5153 5156 5025 4199 5158 
758 605 625 606 5153 4326 5154 5158 4199 4327 
606 625 759 626 4327 5159 5160 4333 4335 5161 
739 759 740 606 5162 5163 5035 5025 5160 5030 
606 625 758 759 4327 5154 5158 5160 5159 5164 
739 759 606 758 5162 5160 5025 5156 5164 5158 
740 606 759 607 5030 5160 5163 5032 4206 5165 
759 606 626 607 5160 4333 5161 5165 4206 4334 
608 627 761 628 4345 5166 5167 4340 4344 5168 
741 761 742 608 5169 5170 5044 5042 5167 5037 
608 627 760 761 4345 5171 5172 5167 5166 5173 
741 761 608 760 5169 5167 5042 5174 5173 5172 
742 608 761 609 5037 5167 5170 5039 4215 5175 
761 608 628 609 5167 4340 5168 5175 4215 4341 
609 628 762 629 4341 5176 5177 4350 4352 5178 
742 762 743 609 5179 5180 5052 5039 5177 5047 
609 628 761 762 4341 5168 5175 5177 5176 5181 
742 762 609 761 5179 5177 5039 5170 5181 5175 
743 609 762 610 5047 5177 5180 5049 4223 5182 
762 609 629 610 5177 4350 5178 5182 4223 4351 
610 629 763 630 4351 5183 5184 4357 4359 5185 
743 763 744 610 5186 5187 5059 5049 5184 5054 
610 629 762 763 4351 5178 5182 5184 5183 5188 
743 763 610 762 5186 5184 5049 5180 5188 5182 
744 610 763 611 5054 5184 5187 5056 4230 5189 
763 610 630 611 5184 4357 5185 5189 4230 4358 
611 630 764 631 4358 5190 5191 4364 4366 5192 
744 764 745 611 5193 5194 5066 5056 5191 5061 
611 630 763 764 4358 5185 5189 5191 5190 5195 
744 764 611 763 5193 5191 5056 5187 5195 5189 
745 611 764 612 5061 5191 5194 5063 4237 5196 
764 611 631 612 5191 4364 5192 5196 4237 4365 
612 631 765 632 4365 5197 5198 4371 4373 5199 
745 765 746 612 5200 5201 5073 5063 5198 5068 
612 631 764 765 4365 5192 5196 5198 5197 5202 
745 765 612 764 5200 5198 5063 5194 5202 5196 
746 612 765 613 5068 5198 5201 5070 4244 5203 
765 612 632 613 5198 4371 5199 5203 4244 4372 
613 632 766 633 4372 5204 5205 4378 4380 5206 
746 766 747 613 5207 5208 5080 5070 5205 5075 
613 632 765 766 4372 5199 5203 5205 5204 5209 
746 766 613 765 5207 5205 5070 5201 5209 5203 
747 613 766 614 5075 5205 5208 5077 4251 5210 
766 613 633 614 5205 4378 5206 5210 4251 4379 
614 633 767 634 4379 5211 5212 4385 4387 5213 
747 767 748 614 5214 5215 5087 5077 5212 5082 
614 633 766 767 4379 5206 5210 5212 5211 5216 
747 767 614 766 5214 5212 5077 5208 5216 5210 
748 614 767 615 5082 5212 5215 5084 4258 5217 
767 614 634 615 5212 4385 5213 5217 4258 4386 
615 634 768 635 4386 5218 5219 4392 4394 5220 
748 768 749 615 5221 5222 5094 5084 5219 5089 
615 634 767 768 4386 5213 5217 5219 5218 5223 
748 768 615 767 5221 5219 5084 5215 5223 5217 
749 615 768 616 5089 5219 5222 5091 4265 5224 
768 615 635 616 5219 4392 5220 5224 4265 4393 
616 635 769 636 4393 5225 5226 4399 4401 5227 
749 769 750 616 5228 5229 5101 5091 5226 5096 
616 635 768 769 4393 5220 5224 5226 5225 5230 
749 769 616 768 5228 5226 5091 5222 5230 5224 
750 616 769 617 5096 5226 5229 5098 4272 5231 
769 616 636 617 5226 4399 5227 5231 4272 4400 
617 636 770 637 4400 5232 5233 4406 4408 5234 
750 770 751 617 5235 5236 5108 5098 5233 5103 
617 636 769 770 4400 5227 5231 5233 5232 5237 
750 770 617 769 5235 5233 5098 5229 5237 5231 
751 617 770 618 5103 5233 5236 5105 4279 5238 
770 617 637 618 5233 4406 5234 5238 4279 4407 
618 637 771 638 4407 5239 5240 4413 4415 5241 
751 771 752 618 5242 5243 5115 5105 5240 5110 
618 637 770 771 4407 5234 5238 5240 5239 5244 
751 771 618 770 5242 5240 5105 5236 5244 5238 
752 618 771 619 5110 5240 5243 5112 4286 5245 
771 618 638 619 5240 4413 5241 5245 4286 4414 
619 638 772 639 4414 5246 5247 4420 4422 5248 
752 772 753 619 5249 5250 5122 5112 5247 5117 
619 638 771 772 4414 5241 5245 5247 5246 5251 
752 772 619 771 5249 5247 5112 5243 5251 5245 
753 619 772 620 5117 5247 5250 5119 4293 5252 
772 619 639 620 5247 4420 5248 5252 4293 4421 
620 639 773 640 4421 5253 5254 4427 4429 5255 
753 773 754 620 5256 5257 5129 5119 5254 5124 
620 639 772 773 4421 5248 5252 5254 5253 5258 
753 773 620 772 5256 5254 5119 5250 5258 5252 
754 620 773 621 5124 5254 5257 5126 4300 5259 
773 620 640 621 5254 4427 5255 5259 4300 4428 
621 640 774 641 4428 5260 5261 4434 4436 5262 
754 774 755 621 5263 5264 5136 5126 5261 5131 
621 640 773 774 4428 5255 5259 5261 5260 5265 
754 774 621 773 5263 5261 5126 5257 5265 5259 
755 621 774 622 5131 5261 5264 5133 4307 5266 
774 621 641 622 5261 4434 5262 5266 4307 4435 
622 641 775 642 4435 5267 5268 4441 4443 5269 
755 775 756 622 5270 5271 5143 5133 5268 5138 
622 641 774 775 4435 5262 5266 5268 5267 5272 
755 775 622 774 5270 5268 5133 5264 5272 5266 
756 622 775 623 5138 5268 5271 5140 4314 5273 
775 622 642 623 5268 4441 5269 5273 4314 4442 
623 642 776 643 4442 5274 5275 4448 4450 5276 
756 776 757 623 5277 5278 5150 5140 5275 5145 
623 642 775 776 4442 5269 5273 5275 5274 5279 
756 776 623 775 5277 5275 5140 5271 5279 5273 
757 623 776 624 5145 5275 5278 5147 4321 5280 
776 623 643 624 5275 4448 5276 5280 4321 4449 
624 643 777 644 4449 5281 5282 4455 4457 5283 
757 777 758 624 5284 5285 5157 5147 5282 5152 
624 643 776 777 4449 5276 5280 5282 5281 5286 
757 777 624 776 5284 5282 5147 5278 5286 5280 
758 624 777 625 5152 5282 5285 5154 4328 5287 
777 624 644 625 5282 4455 5283 5287 4328 4456 
625 644 778 645 4456 5288 5289 4462 4464 5290 
758 778 759 625 5291 5292 5164 5154 5289 5159 
625 644 777 778 4456 5283 5287 5289 5288 5293 
758 778 625 777 5291 5289 5154 5285 5293 5287 
759 625 778 626 5159 5289 5292 5161 4335 5294 
778 625 645 626 5289 4462 5290 5294 4335 4463 
627 646 780 647 4474 5295 5296 4469 4473 5297 
760 780 761 627 5298 5299 5173 5171 5296 5166 
627 646 779 780 4474 5300 5301 5296 5295 5302 
760 780 627 779 5298 5296 5171 5303 5302 5301 
761 627 780 628 5166 5296 5299 5168 4344 5304 
780 627 647 628 5296 4469 5297 5304 4344 4470 
628 647 781 648 4470 5305 5306 4479 4481 5307 
761 781 762 628 5308 5309 5181 5168 5306 5176 
628 647 780 781 4470 5297 5304 5306 5305 5310 
761 781 628 780 5308 5306 5168 5299 5310 5304 
762 628 781 629 5176 5306 5309 5178 4352 5311 
781 628 648 629 5306 4479 5307 5311 4352 4480 
629 648 782 649 4480 5312 5313 4486 4488 5314 
762 782 763 629 5315 5316 5188 5178 5313 5183 
629 648 781 782 4480 5307 5311 5313 5312 5317 
762 782 629 781 5315 5313 5178 5309 5317 5311 
763 629 782 630 5183 5313 5316 5185 4359 5318 
782 629 649 630 5313 4486 5314 5318 4359 4487 
630 649 783 650 4487 5319 5320 4493 4495 5321 
763 783 764 630 5322 5323 5195 5185 5320 5190 
630 649 782 783 4487 5314 5318 5320 5319 5324 
763 783 630 782 5322 5320 5185 5316 5324 5318 
764 630 783 631 5190 5320 5323 5192 4366 5325 
783 630 650 631 5320 4493 5321 5325 4366 4494 
631 650 784 651 4494 5326 5327 4500 4502 5328 
764 784 765 631 5329 5330 5202 5192 5327 5197 
631 650 783 784 4494 5321 5325 5327 5326 5331 
764 784 631 783 5329 5327 5192 5323 5331 5325 
765 631 784 632 5197 5327 5330 5199 4373 5332 
784 631 651 632 5327 4500 5328 5332 4373 4501 
632 651 785 652 4501 5333 5334 4507 4509 5335 
765 785 766 632 5336 5337 5209 5199 5334 5204 
632 651 784 785 4501 5328 5332 5334 5333 5338 
765 785 632 784 5336 5334 5199 5330 5338 5332 
766 632 785 633 5204 5334 5337 5206 4380 5339 
785 632 652 633 5334 4507 5335 5339 4380 4508 
633 652 786 653 4508 5340 5341 4514 4516 5342 
766 786 767 633 5343 5344 5216 5206 5341 5211 
633 652 785 786 4508 5335 5339 5341 5340 5345 
766 786 633 785 5343 5341 5206 5337 5345 5339 
767 633 786 634 5211 5341 5344 5213 4387 5346 
786 633 653 634 5341 4514 5342 5346 4387 4515 
634 653 787 654 4515 5347 5348 4521 4523 5349 
767 787 768 634 5350 5351 5223 5213 5348 5218 
634 653 786 787 4515 5342 5346 5348 5347 5352 
767 787 634 786 5350 5348 5213 5344 5352 5346 
768 634 787 635 5218 5348 5351 5220 4394 5353 
787 634 654 635 5348 4521 5349 5353 4394 4522 
635 654 788 655 4522 5354 5355 4528 4530 5356 
768 788 769 635 5357 5358 5230 5220 5355 5225 
635 654 787 788 4522 5349 5353 5355 5354 5359 
768 788 635 787 5357 5355 5220 5351 5359 5353 
769 635 788 636 5225 5355 5358 5227 4401 5360 
788 635 655 636 5355 4528 5356 5360 4401 4529 
636 655 789 656 4529 5361 5362 4535 4537 5363 
769 789 770 636 5364 5365 5237 5227 5362 5232 
636 655 788 789 4529 5356 5360 5362 5361 5366 
769 789 636 788 5364 5362 5227 5358 5366 5360 
770 636 789 637 5232 5362 5365 5234 4408 5367 
789 636 656 637 5362 4535 5363 5367 4408 4536 
637 656 790 657 4536 5368 5369 4542 4544 5370 
770 790 771 637 5371 5372 5244 5234 5369 5239 
637 656 789 790 4536 5363 5367 5369 5368 5373 
770 790 637 789 5371 5369 5234 5365 5373 5367 
771 637 790 638 5239 5369 5372 5241 4415 5374 
790 637 657 638 5369 4542 5370 5374 4415 4543 
638 657 791 658 4543 5375 5376 4549 4551 5377 
771 791 772 638 5378 5379 5251 5241 5376 5246 
638 657 790 791 4543 5370 5374 5376 5375 5380 
771 791 638 790 5378 5376 5241 5372 5380 5374 
772 638 791 639 5246 5376 5379 5248 4422 5381 
791 638 658 639 5376 4549 5377 5381 4422 4550 
639 658 792 659 4550 5382 5383 4556 4558 5384 
772 792 773 639 5385 5386 5258 5248 5383 5253 
639 658 791 792 4550 5377 5381 5383 5382 5387 
772 792 639 791 5385 5383 5248 5379 5387 5381 
773 639 792 640 5253 5383 5386 5255 4429 5388 
792 639 659 640 5383 4556 5384 5388 4429 4557 
640 659 793 660 4557 5389 5390 4563 4565 5391 
773 793 774 640 5392 5393 5265 5255 5390 5260 
640 659 792 793 4557 5384 5388 5390 5389 5394 
773 793 640 792 5392 5390 5255 5386 5394 5388 
774 640 793 641 5260 5390 5393 5262 4436 5395 
793 640 660 641 5390 4563 5391 5395 4436 4564 
641 660 794 661 4564 5396 5397 4570 4572 5398 
774 794 775 641 5399 5400 5272 5262 5397 5267 
641 660 793 794 4564 5391 5395 5397 5396 5401 
774 794 641 793 5399 5397 5262 5393 5401 5395 
775 641 794 642 5267 5397 5400 5269 4443 5402 
794 641 661 642 5397 4570 5398 5402 4443 4571 
642 661 795 662 4571 5403 5404 4577 4579 5405 
775 795 776 642 5406 5407 5279 5269 5404 5274 
642 661 794 795 4571 5398 5402 5404 5403 5408 
775 795 642 794 5406 5404 5269 5400 5408 5402 
776 642 795 643 5274 5404 5407 5276 4450 5409 
795 642 662 643 5404 4577 5405 5409 4450 4578 
643 662 796 663 4578 5410 5411 4584 4586 5412 
776 796 777 643 5413 5414 5286 5276 5411 5281 
643 662 795 796 4578 5405 5409 5411 5410 5415 
776 796 643 795 5413 5411 5276 5407 5415 5409 
777 643 796 644 5281 5411 5414 5283 4457 5416 
796 643 663 644 5411 4584 5412 5416 4457 4585 
644 663 797 664 4585 5417 5418 4591 4593 5419 
777 797 778 644 5420 5421 5293 5283 5418 5288 
644 663 796 797 4585 5412 5416 5418 5417 5422 
777 797 644 796 5420 5418 5283 5414 5422 5416 
778 644 797 645 5288 5418 5421 5290 4464 5423 
797 644 664 645 5418 4591 5419 5423 4464 4592 
665 684 818 685 4606 5424 5425 4598 4605 5426 
798 818 799 665 5427 5428 5429 5430 5425 5431 
665 684 817 818 4606 5432 5433 5425 5424 5434 
798 818 665 817 5427 5425 5430 5435 5434 5433 
799 665 818 666 5431 5425 5428 5436 4600 5437 
818 665 685 666 5425 4598 5426 5437 4600 4599 
666 685 819 686 4599 5438 5439 4612 4616 5440 
799 819 800 666 5441 5442 5443 5436 5439 5444 
666 685 818 819 4599 5426 5437 5439 5438 5445 
799 819 666 818 5441 5439 5436 5428 5445 5437 
800 666 819 667 5444 5439 5442 5446 4614 5447 
819 666 686 667 5439 4612 5440 5447 4614 4613 
667 686 820 687 4613 5448 5449 4622 4626 5450 
800 820 801 667 5451 5452 5453 5446 5449 5454 
667 686 819 820 4613 5440 5447 5449 5448 5455 
800 820 667 819 5451 5449 5446 5442 5455 5447 
801 667 820 668 5454 5449 5452 5456 4624 5457 
820 667 687 668 5449 4622 5450 5457 4624 4623 
668 687 821 688 4623 5458 5459 4632 4636 5460 
801 821 802 668 5461 5462 5463 5456 5459 5464 
668 687 820 821 4623 5450 5457 5459 5458 5465 
801 821 668 820 5461 5459 5456 5452 5465 5457 
802 668 821 669 5464 5459 5462 5466 4634 5467 
821 668 688 669 5459 4632 5460 5467 4634 4633 
669 688 822 689 4633 5468 5469 4642 4646 5470 
802 822 803 669 5471 5472 5473 5466 5469 5474 
669 688 821 822 4633 5460 5467 5469 5468 5475 
802 822 669 821 5471 5469 5466 5462 5475 5467 
803 669 822 670 5474 5469 5472 5476 4644 5477 
822 669 689 670 5469 4642 5470 5477 4644 4643 
670 689 823 690 4643 5478 5479 4652 4656 5480 
803 823 804 670 5481 5482 5483 5476 5479 5484 
670 689 822 823 4643 5470 5477 5479 5478 5485 
803 823 670 822 5481 5479 5476 5472 5485 5477 
804 670 823 671 5484 5479 5482 5486 4654 5487 
823 670 690 671 5479 4652 5480 5487 4654 4653 
671 690 824 691 4653 5488 5489 4662 4666 5490 
804 824 805 671 5491 5492 5493 5486 5489 5494 
671 690 823 824 4653 5480 5487 5489 5488 5495 
804 824 671 823 5491 5489 5486 5482 5495 5487 
805 671 824 672 5494 5489 5492 5496 4664 5497 
824 671 691 672 5489 4662 5490 5497 4664 4663 
672 691 825 692 4663 5498 5499 4672 4676 5500 
805 825 806 672 5501 5502 5503 5496 5499 5504 
672 691 824 825 4663 5490 5497 5499 5498 5505 
805 825 672 824 5501 5499 5496 5492 5505 5497 
806 672 825 673 5504 5499 5502 5506 4674 5507 
825 672 692 673 5499 4672 5500 5507 4674 4673 
673 692 826 693 4673 5508 5509 4682 4686 5510 
806 826 807 673 5511 5512 5513 5506 5509 5514 
673 692 825 826 4673 5500 5507 5509 5508 5515 
806 826 673 825 5511 5509 5506 5502 5515 5507 
807 673 826 674 5514 5509 5512 5516 4684 5517 
826 673 693 674 5509 4682 5510 5517 4684 4683 
674 693 827 694 4683 5518 5519 4692 4696 5520 
807 827 808 674 5521 5522 5523 5516 5519 5524 
674 693 826 827 4683 5510 5517 5519 5518 5525 
807 827 674 826 5521 5519 5516 5512 5525 5517 
808 674 827 675 5524 5519 5522 5526 4694 5527 
827 674 694 675 5519 4692 5520 5527 4694 4693 
675 694 828 695 4693 5528 5529 4702 4706 5530 
808 828 809 675 5531 5532 5533 5526 5529 5534 
675 694 827 828 4693 5520 5527 5529 5528 5535 
808 828 675 827 5531 5529 5526 5522 5535 5527 
809 675 828 676 5534 5529 5532 5536 4704 5537 
828 675 695 676 5529 4702 5530 5537 4704 4703 
676 695 829 696 4703 5538 5539 4712 4716 5540 
809 829 810 676 5541 5542 5543 5536 5539 5544 
676 695 828 829 4703 5530 5537 5539 5538 5545 
809 829 676 828 5541 5539 5536 5532 5545 5537 
810 676 829 677 5544 5539 5542 5546 4714 5547 
829 676 696 677 5539 4712 5540 5547 4714 4713 
677 696 830 697 4713 5548 5549 4722 4726 5550 
810 830 811 677 5551 5552 5553 5546 5549 5554 
677 696 829 830 4713 5540 5547 5549 5548 5555 
810 830 677 829 5551 5549 5546 5542 5555 5547 
811 677 830 678 5554 5549 5552 5556 4724 5557 
830 677 697 678 5549 4722 5550 5557 4724 4723 
678 697 831 698 4723 5558 5559 4732 4736 5560 
811 831 812 678 5561 5562 5563 5556 5559 5564 
678 697 830 831 4723 5550 5557 5559 5558 5565 
811 831 678 830 5561 5559 5556 5552 5565 5557 
812 678 831 679 5564 5559 5562 5566 4734 5567 
831 678 698 679 5559 4732 5560 5567 4734 4733 
679 698 832 699 4733 5568 5569 4742 4746 5570 
812 832 813 679 5571 5572 5573 5566 5569 5574 
679 698 831 832 4733 5560 5567 5569 5568 5575 
812 832 679 831 5571 5569 5566 5562 5575 5567 
813 679 832 680 5574 5569 5572 5576 4744 5577 
832 679 699 680 5569 4742 5570 5577 4744 4743 
680 699 833 700 4743 5578 5579 4752 4756 5580 
813 833 814 680 5581 5582 5583 5576 5579 5584 
680 699 832 833 4743 5570 5577 5579 5578 5585 
813 833 680 832 5581 5579 5576 5572 5585 5577 
814 680 833 681 5584 5579 5582 5586 4754 5587 
833 680 700 681 5579 4752 5580 5587 4754 4753 
681 700 834 701 4753 5588 5589 4762 4766 5590 
814 834 815 681 5591 5592 5593 5586 5589 5594 
681 700 833 834 4753 5580 5587 5589 5588 5595 
814 834 681 833 5591 5589 5586 5582 5595 5587 
815 681 834 682 5594 5589 5592 5596 4764 5597 
834 681 701 682 5589 4762 5590 5597 4764 4763 
682 701 835 702 4763 5598 5599 4772 4776 5600 
815 835 816 682 5601 5602 5603 5596 5599 5604 
682 701 834 835 4763 5590 5597 5599 5598 5605 
815 835 682 834 5601 5599 5596 5592 5605 5597 
816 682 835 683 5604 5599 5602 5606 4774 5607 
835 682 702 683 5599 4772 5600 5607 4774 4773 
684 703 837 704 4787 5608 5609 4782 4786 5610 
817 837 818 684 5611 5612 5434 5432 5609 5424 
684 703 836 837 4787 5613 5614 5609 5608 5615 
817 837 684 836 5611 5609 5432 5616 5615 5614 
818 684 837 685 5424 5609 5612 5426 4605 5617 
837 684 704 685 5609 4782 5610 5617 4605 4783 
685 704 838 705 4783 5618 5619 4792 4794 5620 
818 838 819 685 5621 5622 5445 5426 5619 5438 
685 704 837 838 4783 5610 5617 5619 5618 5623 
818 838 685 837 5621 5619 5426 5612 5623 5617 
819 685 838 686 5438 5619 5622 5440 4616 5624 
838 685 705 686 5619 4792 5620 5624 4616 4793 
686 705 839 706 4793 5625 5626 4799 4801 5627 
819 839 820 686 5628 5629 5455 5440 5626 5448 
686 705 838 839 4793 5620 5624 5626 5625 5630 
819 839 686 838 5628 5626 5440 5622 5630 5624 
820 686 839 687 5448 5626 5629 5450 4626 5631 
839 686 706 687 5626 4799 5627 5631 4626 4800 
687 706 840 707 4800 5632 5633 4806 4808 5634 
820 840 821 687 5635 5636 5465 5450 5633 5458 
687 706 839 840 4800 5627 5631 5633 5632 5637 
820 840 687 839 5635 5633 5450 5629 5637 5631 
821 687 840 688 5458 5633 5636 5460 4636 5638 
840 687 707 688 5633 4806 5634 5638 4636 4807 
688 707 841 708 4807 5639 5640 4813 4815 5641 
821 841 822 688 5642 5643 5475 5460 5640 5468 
688 707 840 841 4807 5634 5638 5640 5639 5644 
821 841 688 840 5642 5640 5460 5636 5644 5638 
822 688 841 689 5468 5640 5643 5470 4646 5645 
841 688 708 689 5640 4813 5641 5645 4646 4814 
689 708 842 709 4814 5646 5647 4820 4822 5648 
822 842 823 689 5649 5650 5485 5470 5647 5478 
689 708 841 842 4814 5641 5645 5647 5646 5651 
822 842 689 841 5649 5647 5470 5643 5651 5645 
823 689 842 690 5478 5647 5650 5480 4656 5652 
842 689 709 690 5647 4820 5648 5652 4656 4821 
690 709 843 710 4821 5653 5654 4827 4829 5655 
823 843 824 690 5656 5657 5495 5480 5654 5488 
690 709 842 843 4821 5648 5652 5654 5653 5658 
823 843 690 842 5656 5654 5480 5650 5658 5652 
824 690 843 691 5488 5654 5657 5490 4666 5659 
843 690 710 691 5654 4827 5655 5659 4666 4828 
691 710 844 711 4828 5660 5661 4834 4836 5662 
824 844 825 691 5663 5664 5505 5490 5661 5498 
691 710 843 844 4828 5655 5659 5661 5660 5665 
824 844 691 843 5663 5661 5490 5657 5665 5659 
825 691 844 692 5498 5661 5664 5500 4676 5666 
844 691 711 692 5661 4834 5662 5666 4676 4835 
692 711 845 712 4835 5667 5668 4841 4843 5669 
825 845 826 692 5670 5671 5515 5500 5668 5508 
692 711 844 845 4835 5662 5666 5668 5667 5672 
825 845 692 844 5670 5668 5500 5664 5672 5666 
826 692 845 693 5508 5668 5671 5510 4686 5673 
845 692 712 693 5668 4841 5669 5673 4686 4842 
693 712 846 713 4842 5674 5675 4848 4850 5676 
826 846 827 693 5677 5678 5525 5510 5675 5518 
693 712 845 846 4842 5669 5673 5675 5674 5679 
826 846 693 845 5677 5675 5510 5671 5679 5673 
827 693 846 694 5518 5675 5678 5520 4696 5680 
846 693 713 694 5675 4848 5676 5680 4696 4849 
694 713 847 714 4849 5681 5682 4855 4857 5683 
827 847 828 694 5684 5685 5535 5520 5682 5528 
694 713 846 847 4849 5676 5680 5682 5681 5686 
827 847 694 846 5684 5682 5520 5678 5686 5680 
828 694 847 695 5528 5682 5685 5530 4706 5687 
847 694 714 695 5682 4855 5683 5687 4706 4856 
695 714 848 715 4856 5688 5689 4862 4864 5690 
828 848 829 695 5691 5692 5545 5530 5689 5538 
695 714 847 848 4856 5683 5687 5689 5688 5693 
828 848 695 847 5691 5689 5530 5685 5693 5687 
829 695 848 696 5538 5689 5692 5540 4716 5694 
848 695 715 696 5689 4862 5690 5694 4716 4863 
696 715 849 716 4863 5695 5696 4869 4871 5697 
829 849 830 696 5698 5699 5555 5540 5696 5548 
696 715 848 849 4863 5690 5694 5696 5695 5700 
829 849 696 848 5698 5696 5540 5692 5700 5694 
830 696 849 697 5548 5696 5699 5550 4726 5701 
849 696 716 697 5696 4869 5697 5701 4726 4870 
697 716 850 717 4870 5702 5703 4876 4878 5704 
830 850 831 697 5705 5706 5565 5550 5703 5558 
697 716 849 850 4870 5697 5701 5703 5702 5707 
830 850 697 849 5705 5703 5550 5699 5707 5701 
831 697 850 698 5558 5703 5706 5560 4736 5708 
850 697 717 698 5703 4876 5704 5708 4736 4877 
698 717 851 718 4877 5709 5710 4883 4885 5711 
831 851 832 698 5712 5713 5575 5560 5710 5568 
698 717 850 851 4877 5704 5708 5710 5709 5714 
831 851 698 850 5712 5710 5560 5706 5714 5708 
832 698 851 699 5568 5710 5713 5570 4746 5715 
851 698 718 699 5710 4883 5711 5715 4746 4884 
699 718 852 719 4884 5716 5717 4890 4892 5718 
832 852 833 699 5719 5720 5585 5570 5717 5578 
699 718 851 852 4884 5711 5715 5717 5716 5721 
832 852 699 851 5719 5717 5570 5713 5721 5715 
833 699 852 700 5578 5717 5720 5580 4756 5722 
852 699 719 700 5717 4890 5718 5722 4756 4891 
700 719 853 720 4891 5723 5724 4897 4899 5725 
833 853 834 700 5726 5727 5595 5580 5724 5588 
700 719 852 853 4891 5718 5722 5724 5723 5728 
833 853 700 852 5726 5724 5580 5720 5728 5722 
834 700 853 701 5588 5724 5727 5590 4766 5729 
853 700 720 701 5724 4897 5725 5729 4766 4898 
701 720 854 721 4898 5730 5731 4904 4906 5732 
834 854 835 701 5733 5734 5605 5590 5731 5598 
701 720 853 854 4898 5725 5729 5731 5730 5735 
834 854 701 853 5733 5731 5590 5727 5735 5729 
835 701 854 702 5598 5731 5734 5600 4776 5736 
854 701 721 702 5731 4904 5732 5736 4776 4905 
703 722 856 723 4916 5737 5738 4911 4915 5739 
836 856 837 703 5740 5741 5615 5613 5738 5608 
703 722 855 856 4916 5742 5743 5738 5737 5744 
836 856 703 855 5740 5738 5613 5745 5744 5743 
837 703 856 704 5608 5738 5741 5610 4786 5746 
856 703 723 704 5738 4911 5739 5746 4786 4912 
704 723 857 724 4912 5747 5748 4921 4923 5749 
837 857 838 704 5750 5751 5623 5610 5748 5618 
704 723 856 857 4912 5739 5746 5748 5747 5752 
837 857 704 856 5750 5748 5610 5741 5752 5746 
838 704 857 705 5618 5748 5751 5620 4794 5753 
857 704 724 705 5748 4921 5749 5753 4794 4922 
705 724 858 725 4922 5754 5755 4928 4930 5756 
838 858 839 705 5757 5758 5630 5620 5755 5625 
705 724 857 858 4922 5749 5753 5755 5754 5759 
838 858 705 857 5757 5755 5620 5751 5759 5753 
839 705 858 706 5625 5755 5758 5627 4801 5760 
858 705 725 706 5755 4928 5756 5760 4801 4929 
706 725 859 726 4929 5761 5762 4935 4937 5763 
839 859 840 706 5764 5765 5637 5627 5762 5632 
706 725 858 859 4929 5756 5760 5762 5761 5766 
839 859 706 858 5764 5762 5627 5758 5766 5760 
840 706 859 707 5632 5762 5765 5634 4808 5767 
859 706 726 707 5762 4935 5763 5767 4808 4936 
707 726 860 727 4936 5768 5769 4942 4944 5770 
840 860 841 707 5771 5772 5644 5634 5769 5639 
707 726 859 860 4936 5763 5767 5769 5768 5773 
840 860 707 859 5771 5769 5634 5765 5773 5767 
841 707 860 708 5639 5769 5772 5641 4815 5774 
860 707 727 708 5769 4942 5770 5774 4815 4943 
708 727 861 728 4943 5775 5776 4949 4951 5777 
841 861 842 708 5778 5779 5651 5641 5776 5646 
708 727 860 861 4943 5770 5774 5776 5775 5780 
841 861 708 860 5778 5776 5641 5772 5780 5774 
842 708 861 709 5646 5776 5779 5648 4822 5781 
861 708 728 709 5776 4949 5777 5781 4822 4950 
709 728 862 729 4950 5782 5783 4956 4958 5784 
842 862 843 709 5785 5786 5658 5648 5783 5653 
709 728 861 862 4950 5777 5781 5783 5782 5787 
842 862 709 861 5785 5783 5648 5779 5787 5781 
843 709 862 710 5653 5783 5786 5655 4829 5788 
862 709 729 710 5783 4956 5784 5788 4829 4957 
710 729 863 730 4957 5789 5790 4963 4965 5791 
843 863 844 710 5792 5793 5665 5655 5790 5660 
710 729 862 863 4957 5784 5788 5790 5789 5794 
843 863 710 862 5792 5790 5655 5786 5794 5788 
844 710 863 711 5660 5790 5793 5662 4836 5795 
863 710 730 711 5790 4963 5791 5795 4836 4964 
711 730 864 731 4964 5796 5797 4970 4972 5798 
844 864 845 711 5799 5800 5672 5662 5797 5667 
711 730 863 864 4964 5791 5795 5797 5796 5801 
844 864 711 863 5799 5797 5662 5793 5801 5795 
845 711 864 712 5667 5797 5800 5669 4843 5802 
864 711 731 712 5797 4970 5798 5802 4843 4971 
712 731 865 732 4971 5803 5804 4977 4979 5805 
845 865 846 712 5806 5807 5679 5669 5804 5674 
712 731 864 865 4971 5798 5802 5804 5803 5808 
845 865 712 864 5806 5804 5669 5800 5808 5802 
846 712 865 713 5674 5804 5807 5676 4850 5809 
865 712 732 713 5804 4977 5805 5809 4850 4978 
713 732 866 733 4978 5810 5811 4984 4986 5812 
846 866 847 713 5813 5814 5686 5676 5811 5681 
713 732 865 866 4978 5805 5809 5811 5810 5815 
846 866 713 865 5813 5811 5676 5807 5815 5809 
847 713 866 714 5681 5811 5814 5683 4857 5816 
866 713 733 714 5811 4984 5812 5816 4857 4985 
714 733 867 734 4985 5817 5818 4991 4993 5819 
847 867 848 714 5820 5821 5693 5683 5818 5688 
714 733 866 867 4985 5812 5816 5818 5817 5822 
847 867 714 866 5820 5818 5683 5814 5822 5816 
848 714 867 715 5688 5818 5821 5690 4864 5823 
867 714 734 715 5818 4991 5819 5823 4864 4992 
715 734 868 735 4992 5824 5825 4998 5000 5826 
848 868 849 715 5827 5828 5700 5690 5825 5695 
715 734 867 868 4992 5819 5823 5825 5824 5829 
848 868 715 867 5827 5825 5690 5821 5829 5823 
849 715 868 716 5695 5825 5828 5697 4871 5830 
868 715 735 716 5825 4998 5826 5830 4871 4999 
716 735 869 736 4999 5831 5832 5005 5007 5833 
849 869 850 716 5834 5835 5707 5697 5832 5702 
716 735 868 869 4999 5826 5830 5832 5831 5836 
849 869 716 868 5834 5832 5697 5828 5836 5830 
850 716 869 717 5702 5832 5835 5704 4878 5837 
869 716 736 717 5832 5005 5833 5837 4878 5006 
717 736 870 737 5006 5838 5839 5012 5014 5840 
850 870 851 717 5841 5842 5714 5704 5839 5709 
717 736 869 870 5006 5833 5837 5839 5838 5843 
850 870 717 869 5841 5839 5704 5835 5843 5837 
851 717 870 718 5709 5839 5842 5711 4885 5844 
870 717 737 718 5839 5012 5840 5844 4885 5013 
718 737 871 738 5013 5845 5846 5019 5021 5847 
851 871 852 718 5848 5849 5721 5711 5846 5716 
718 737 870 871 5013 5840 5844 5846 5845 5850 
851 871 718 870 5848 5846 5711 5842 5850 5844 
852 718 871 719 5716 5846 5849 5718 4892 5851 
871 718 738 719 5846 5019 5847 5851 4892 5020 
719 738 872 739 5020 5852 5853 5026 5028 5854 
852 872 853 719 5855 5856 5728 5718 5853 5723 
719 738 871 872 5020 5847 5851 5853 5852 5857 
852 872 719 871 5855 5853 5718 5849 5857 5851 
853 719 872 720 5723 5853 5856 5725 4899 5858 
872 719 739 720 5853 5026 5854 5858 4899 5027 
720 739 873 740 5027 5859 5860 5033 5035 5861 
853 873 854 720 5862 5863 5735 5725 5860 5730 
720 739 872 873 5027 5854 5858 5860 5859 5864 
853 873 720 872 5862 5860 5725 5856 5864 5858 
854 720 873 721 5730 5860 5863 5732 4906 5865 
873 720 740 721 5860 5033 5861 5865 4906 5034 
722 741 875 742 5045 5866 5867 5040 5044 5868 
855 875 856 722 5869 5870 5744 5742 5867 5737 
722 741 874 875 5045 5871 5872 5867 5866 5873 
855 875 722 874 5869 5867 5742 5874 5873 5872 
856 722 875 723 5737 5867 5870 5739 4915 5875 
875 722 742 723 5867 5040 5868 5875 4915 5041 
723 742 876 743 5041 5876 5877 5050 5052 5878 
856 876 857 723 5879 5880 5752 5739 5877 5747 
723 742 875 876 5041 5868 5875 5877 5876 5881 
856 876 723 875 5879 5877 5739 5870 5881 5875 
857 723 876 724 5747 5877 5880 5749 4923 5882 
876 723 743 724 5877 5050 5878 5882 4923 5051 
724 743 877 744 5051 5883 5884 5057 5059 5885 
857 877 858 724 5886 5887 5759 5749 5884 5754 
724 743 876 877 5051 5878 5882 5884 5883 5888 
857 877 724 876 5886 5884 5749 5880 5888 5882 
858 724 877 725 5754 5884 5887 5756 4930 5889 
877 724 744 725 5884 5057 5885 5889 4930 5058 
725 744 878 745 5058 5890 5891 5064 5066 5892 
858 878 859 725 5893 5894 5766 5756 5891 5761 
725 744 877 878 5058 5885 5889 5891 5890 5895 
858 878 725 877 5893 5891 5756 5887 5895 5889 
859 725 878 726 5761 5891 5894 5763 4937 5896 
878 725 745 726 5891 5064 5892 5896 4937 5065 
726 745 879 746 5065 5897 5898 5071 5073 5899 
859 879 860 726 5900 5901 5773 5763 5898 5768 
726 745 878 879 5065 5892 5896 5898 5897 5902 
859 879 726 878 5900 5898 5763 5894 5902 5896 
860 726 879 727 5768 5898 5901 5770 4944 5903 
879 726 746 727 5898 5071 5899 5903 4944 5072 
727 746 880 747 5072 5904 5905 5078 5080 5906 
860 880 861 727 5907 5908 5780 5770 5905 5775 
727 746 879 880 5072 5899 5903 5905 5904 5909 
860 880 727 879 5907 5905 5770 5901 5909 5903 
861 727 880 728 5775 5905 5908 5777 4951 5910 
880 727 747 728 5905 5078 5906 5910 4951 5079 
728 747 881 748 5079 5911 5912 5085 5087 5913 
861 881 862 728 5914 5915 5787 5777 5912 5782 
728 747 880 881 5079 5906 5910 5912 5911 5916 
861 881 728 880 5914 5912 5777 5908 5916 5910 
862 728 881 729 5782 5912 5915 5784 4958 5917 
881 728 748 729 5912 5085 5913 5917 4958 5086 
729 748 882 749 5086 5918 5919 5092 5094 5920 
862 882 863 729 5921 5922 5794 5784 5919 5789 
729 748 881 882 5086 5913 5917 5919 5918 5923 
862 882 729 881 5921 5919 5784 5915 5923 5917 
863 729 882 730 5789 5919 5922 5791 4965 5924 
882 729 749 730 5919 5092 5920 5924 4965 5093 
730 749 883 750 5093 5925 5926 5099 5101 5927 
863 883 864 730 5928 5929 5801 5791 5926 5796 
730 749 882 883 5093 5920 5924 5926 5925 5930 
863 883 730 882 5928 5926 5791 5922 5930 5924 
864 730 883 731 5796 5926 5929 5798 4972 5931 
883 730 750 731 5926 5099 5927 5931 4972 5100 
731 750 884 751 5100 5932 5933 5106 5108 5934 
864 884 865 731 5935 5936 5808 5798 5933 5803 
731 750 883 884 5100 5927 5931 5933 5932 5937 
864 884 731 883 5935 5933 5798 5929 5937 5931 
865 731 884 732 5803 5933 5936 5805 4979 5938 
884 731 751 732 5933 5106 5934 5938 4979 5107 
732 751 885 752 5107 5939 5940 5113 5115 5941 
865 885 866 732 5942 5943 5815 5805 5940 5810 
732 751 884 885 5107 5934 5938 5940 5939 5944 
865 885 732 884 5942 5940 5805 5936 5944 5938 
866 732 885 733 5810 5940 5943 5812 4986 5945 
885 732 752 733 5940 5113 5941 5945 4986 5114 
733 752 886 753 5114 5946 5947 5120 5122 5948 
866 886 867 733 5949 5950 5822 5812 5947 5817 
733 752 885 886 5114 5941 5945 5947 5946 5951 
866 886 733 885 5949 5947 5812 5943 5951 5945 
867 733 886 734 5817 5947 5950 5819 4993 5952 
886 733 753 734 5947 5120 5948 5952 4993 5121 
734 753 887 754 5121 5953 5954 5127 5129 5955 
867 887 868 734 5956 5957 5829 5819 5954 5824 
734 753 886 887 5121 5948 5952 5954 5953 5958 
867 887 734 886 5956 5954 5819 5950 5958 5952 
868 734 887 735 5824 5954 5957 5826 5000 5959 
887 734 754 735 5954 5127 5955 5959 5000 5128 
735 754 888 755 5128 5960 5961 5134 5136 5962 
868 888 869 735 5963 5964 5836 5826 5961 5831 
735 754 887 888 5128 5955 5959 5961 5960 5965 
868 888 735 887 5963 5961 5826 5957 5965 5959 
869 735 888 736 5831 5961 5964 5833 5007 5966 
888 735 755 736 5961 5134 5962 5966 5007 5135 
736 755 889 756 5135 5967 5968 5141 5143 5969 
869 889 870 736 5970 5971 5843 5833 5968 5838 
736 755 888 889 5135 5962 5966 5968 5967 5972 
869 889 736 888 5970 5968 5833 5964 5972 5966 
870 736 889 737 5838 5968 5971 5840 5014 5973 
889 736 756 737 5968 5141 5969 5973 5014 5142 
737 756 890 757 5142 5974 5975 5148 5150 5976 
870 890 871 737 5977 5978 5850 5840 5975 5845 
737 756 889 890 5142 5969 5973 5975 5974 5979 
870 890 737 889 5977 5975 5840 5971 5979 5973 
871 737 890 738 5845 5975 5978 5847 5021 5980 
890 737 757 738 5975 5148 5976 5980 5021 5149 
738 757 891 758 5149 5981 5982 5155 5157 5983 
871 891 872 738 5984 5985 5857 5847 5982 5852 
738 757 890 891 5149 5976 5980 5982 5981 5986 
871 891 738 890 5984 5982 5847 5978 5986 5980 
872 738 891 739 5852 5982 5985 5854 5028 5987 
891 738 758 739 5982 5155 5983 5987 5028 5156 
739 758 892 759 5156 5988 5989 5162 5164 5990 
872 892 873 739 5991 5992 5864 5854 5989 5859 
739 758 891 892 5156 5983 5987 5989 5988 5993 
872 892 739 891 5991 5989 5854 5985 5993 5987 
873 739 892 740 5859 5989 5992 5861 5035 5994 
892 739 759 740 5989 5162 5990 5994 5035 5163 
741 760 894 761 5174 5995 5996 5169 5173 5997 
874 894 875 741 5998 5999 5873 5871 5996 5866 
741 760 893 894 5174 6000 6001 5996 5995 6002 
874 894 741 893 5998 5996 5871 6003 6002 6001 
875 741 894 742 5866 5996 5999 5868 5044 6004 
894 741 761 742 5996 5169 5997 6004 5044 5170 
742 761 895 762 5170 6005 6006 5179 5181 6007 
875 895 876 742 6008 6009 5881 5868 6006 5876 
742 761 894 895 5170 5997 6004 6006 6005 6010 
875 895 742 894 6008 6006 5868 5999 6010 6004 
876 742 895 743 5876 6006 6009 5878 5052 6011 
895 742 762 743 6006 5179 6007 6011 5052 5180 
743 762 896 763 5180 6012 6013 5186 5188 6014 
876 896 877 743 6015 6016 5888 5878 6013 5883 
743 762 895 896 5180 6007 6011 6013 6012 6017 
876 896 743 895 6015 6013 5878 6009 6017 6011 
877 743 896 744 5883 6013 6016 5885 5059 6018 
896 743 763 744 6013 5186 6014 6018 5059 5187 
744 763 897 764 5187 6019 6020 5193 5195 6021 
877 897 878 744 6022 6023 5895 5885 6020 5890 
744 763 896 897 5187 6014 6018 6020 6019 6024 
877 897 744 896 6022 6020 5885 6016 6024 6018 
878 744 897 745 5890 6020 6023 5892 5066 6025 
897 744 764 745 6020 5193 6021 6025 5066 5194 
745 764 898 765 5194 6026 6027 5200 5202 6028 
878 898 879 745 6029 6030 5902 5892 6027 5897 
745 764 897 898 5194 6021 6025 6027 6026 6031 
878 898 745 897 6029 6027 5892 6023 6031 6025 
879 745 898 746 5897 6027 6030 5899 5073 6032 
898 745 765 746 6027 5200 6028 6032 5073 5201 
746 765 899 766 5201 6033 6034 5207 5209 6035 
879 899 880 746 6036 6037 5909 5899 6034 5904 
746 765 898 899 5201 6028 6032 6034 6033 6038 
879 899 746 898 6036 6034 5899 6030 6038 6032 
880 746 899 747 5904 6034 6037 5906 5080 6039 
899 746 766 747 6034 5207 6035 6039 5080 5208 
747 766 900 767 5208 6040 6041 5214 5216 6042 
880 900 881 747 6043 6044 5916 5906 6041 5911 
747 766 899 900 5208 6035 6039 6041 6040 6045 
880 900 747 899 6043 6041 5906 6037 6045 6039 
881 747 900 748 5911 6041 6044 5913 5087 6046 
900 747 767 748 6041 5214 6042 6046 5087 5215 
748 767 901 768 5215 6047 6048 5221 5223 6049 
881 901 882 748 6050 6051 5923 5913 6048 5918 
748 767 900 901 5215 6042 6046 6048 6047 6052 
881 901 748 900 6050 6048 5913 6044 6052 6046 
882 748 901 749 5918 6048 6051 5920 5094 6053 
901 748 768 749 6048 5221 6049 6053 5094 5222 
749 768 902 769 5222 6054 6055 5228 5230 6056 
882 902 883 749 6057 6058 5930 5920 6055 5925 
749 768 901 902 5222 6049 6053 6055 6054 6059 
882 902 749 901 6057 6055 5920 6051 6059 6053 
883 749 902 750 5925 6055 6058 5927 5101 6060 
902 749 769 750 6055 5228 6056 6060 5101 5229 
750 769 903 770 5229 6061 6062 5235 5237 6063 
883 903 884 750 6064 6065 5937 5927 6062 5932 
750 769 902 903 5229 6056 6060 6062 6061 6066 
883 903 750 902 6064 6062 5927 6058 6066 6060 
884 750 903 751 5932 6062 6065 5934 5108 6067 
903 750 770 751 6062 5235 6063 6067 5108 5236 
751 770 904 771 5236 6068 6069 5242 5244 6070 
884 904 885 751 6071 6072 5944 5934 6069 5939 
751 770 903 904 5236 6063 6067 6069 6068 6073 
884 904 751 903 6071 6069 5934 6065 6073 6067 
885 751 904 752 5939 6069 6072 5941 5115 6074 
904 751 771 752 6069 5242 6070 6074 5115 5243 
752 771 905 772 5243 6075 6076 5249 5251 6077 
885 905 886 752 6078 6079 5951 5941 6076 5946 
752 771 904 905 5243 6070 6074 6076 6075 6080 
885 905 752 904 6078 6076 5941 6072 6080 6074 
886 752 905 753 5946 6076 6079 5948 5122 6081 
905 752 772 753 6076 5249 6077 6081 5122 5250 
753 772 906 773 5250 6082 6083 5256 5258 6084 
886 906 887 753 6085 6086 5958 5948 6083 5953 
753 772 905 906 5250 6077 6081 6083 6082 6087 
886 906 753 905 6085 6083 5948 6079 6087 6081 
887 753 906 754 5953 6083 6086 5955 5129 6088 
906 753 773 754 6083 5256 6084 6088 5129 5257 
754 773 907 774 5257 6089 6090 5263 5265 6091 
887 907 888 754 6092 6093 5965 5955 6090 5960 
754 773 906 907 5257 6084 6088 6090 6089 6094 
887 907 754 906 6092 6090 5955 6086 6094 6088 
888 754 907 755 5960 6090 6093 5962 5136 6095 
907 754 774 755 6090 5263 6091 6095 5136 5264 
755 774 908 775 5264 6096 6097 5270 5272 6098 
888 908 889 755 6099 6100 5972 5962 6097 5967 
755 774 907 908 5264 6091 6095 6097 6096 6101 
888 908 755 907 6099 6097 5962 6093 6101 6095 
889 755 908 756 5967 6097 6100 5969 5143 6102 
908 755 775 756 6097 5270 6098 6102 5143 5271 
756 775 909 776 5271 6103 6104 5277 5279 6105 
889 909 890 756 6106 6107 5979 5969 6104 5974 
756 775 908 909 5271 6098 6102 6104 6103 6108 
889 909 756 908 6106 6104 5969 6100 6108 6102 
890 756 909 757 5974 6104 6107 5976 5150 6109 
909 756 776 757 6104 5277 6105 6109 5150 5278 
757 776 910 777 5278 6110 6111 5284 5286 6112 
890 910 891 757 6113 6114 5986 5976 6111 5981 
757 776 909 910 5278 6105 6109 6111 6110 6115 
890 910 757 909 6113 6111 5976 6107 6115 6109 
891 757 910 758 5981 6111 6114 5983 5157 6116 
910 757 777 758 6111 5284 6112 6116 5157 5285 
758 777 911 778 5285 6117 6118 5291 5293 6119 
891 911 892 758 6120 6121 5993 5983 6118 5988 
758 777 910 911 5285 6112 6116 6118 6117 6122 
891 911 758 910 6120 6118 5983 6114 6122 6116 
892 758 911 759 5988 6118 6121 5990 5164 6123 
911 758 778 759 6118 5291 6119 6123 5164 5292 
760 779 913 780 5303 6124 6125 5298 5302 6126 
893 913 894 760 6127 6128 6002 6000 6125 5995 
760 779 912 913 5303 6129 6130 6125 6124 6131 
893 913 760 912 6127 6125 6000 6132 6131 6130 
894 760 913 761 5995 6125 6128 5997 5173 6133 
913 760 780 761 6125 5298 6126 6133 5173 5299 
761 780 914 781 5299 6134 6135 5308 5310 6136 
894 914 895 761 6137 6138 6010 5997 6135 6005 
761 780 913 914 5299 6126 6133 6135 6134 6139 
894 914 761 913 6137 6135 5997 6128 6139 6133 
895 761 914 762 6005 6135 6138 6007 5181 6140 
914 761 781 762 6135 5308 6136 6140 5181 5309 
762 781 915 782 5309 6141 6142 5315 5317 6143 
895 915 896 762 6144 6145 6017 6007 6142 6012 
762 781 914 915 5309 6136 6140 6142 6141 6146 
895 915 762 914 6144 6142 6007 6138 6146 6140 
896 762 915 763 6012 6142 6145 6014 5188 6147 
915 762 782 763 6142 5315 6143 6147 5188 5316 
763 782 916 783 5316 6148 6149 5322 5324 6150 
896 916 897 763 6151 6152 6024 6014 6149 6019 
763 782 915 916 5316 6143 6147 6149 6148 6153 
896 916 763 915 6151 6149 6014 6145 6153 6147 
897 763 916 764 6019 6149 6152 6021 5195 6154 
916 763 783 764 6149 5322 6150 6154 5195 5323 
764 783 917 784 5323 6155 6156 5329 5331 6157 
897 917 898 764 6158 6159 6031 6021 6156 6026 
764 783 916 917 5323 6150 6154 6156 6155 6160 
897 917 764 916 6158 6156 6021 6152 6160 6154 
898 764 917 765 6026 6156 6159 6028 5202 6161 
917 764 784 765 6156 5329 6157 6161 5202 5330 
765 784 918 785 5330 6162 6163 5336 5338 6164 
898 918 899 765 6165 6166 6038 6028 6163 6033 
765 784 917 918 5330 6157 6161 6163 6162 6167 
898 918 765 917 6165 6163 6028 6159 6167 6161 
899 765 918 766 6033 6163 6166 6035 5209 6168 
918 765 785 766 6163 5336 6164 6168 5209 5337 
766 785 919 786 5337 6169 6170 5343 5345 6171 
899 919 900 766 6172 6173 6045 6035 6170 6040 
766 785 918 919 5337 6164 6168 6170 6169 6174 
899 919 766 918 6172 6170 6035 6166 6174 6168 
900 766 919 767 6040 6170 6173 6042 5216 6175 
919 766 786 767 6170 5343 6171 6175 5216 5344 
767 786 920 787 5344 6176 6177 5350 5352 6178 
900 920 901 767 6179 6180 6052 6042 6177 6047 
767 786 919 920 5344 6171 6175 6177 6176 6181 
900 920 767 919 6179 6177 6042 6173 6181 6175 
901 767 920 768 6047 6177 6180 6049 5223 6182 
920 767 787 768 6177 5350 6178 6182 5223 5351 
768 787 921 788 5351 6183 6184 5357 5359 6185 
901 921 902 768 6186 6187 6059 6049 6184 6054 
768 787 920 921 5351 6178 6182 6184 6183 6188 
901 921 768 920 6186 6184 6049 6180 6188 6182 
902 768 921 769 6054 6184 6187 6056 5230 6189 
921 768 788 769 6184 5357 6185 6189 5230 5358 
769 788 922 789 5358 6190 6191 5364 5366 6192 
902 922 903 769 6193 6194 6066 6056 6191 6061 
769 788 921 922 5358 6185 6189 6191 6190 6195 
902 922 769 921 6193 6191 6056 6187 6195 6189 
903 769 922 770 6061 6191 6194 6063 5237 6196 
922 769 789 770 6191 5364 6192 6196 5237 5365 
770 789 923 790 5365 6197 6198 5371 5373 6199 
903 923 904 770 6200 6201 6073 6063 6198 6068 
770 789 922 923 5365 6192 6196 6198 6197 6202 
903 923 770 922 6200 6198 6063 6194 6202 6196 
904 770 923 771 6068 6198 6201 6070 5244 6203 
923 770 790 771 6198 5371 6199 6203 5244 5372 
771 790 924 791 5372 6204 6205 5378 5380 6206 
904 924 905 771 6207 6208 6080 6070 6205 6075 
771 790 923 924 5372 6199 6203 6205 6204 6209 
904 924 771 923 6207 6205 6070 6201 6209 6203 
905 771 924 772 6075 6205 6208 6077 5251 6210 
924 771 791 772 6205 5378 6206 6210 5251 5379 
772 791 925 792 5379 6211 6212 5385 5387 6213 
905 925 906 772 6214 6215 6087 6077 6212 6082 
772 791 924 925 5379 6206 6210 6212 6211 6216 
905 925 772 924 6214 6212 6077 6208 6216 6210 
906 772 925 773 6082 6212 6215 6084 5258 6217 
925 772 792 773 6212 5385 6213 6217 5258 5386 
773 792 926 793 5386 6218 6219 5392 5394 6220 
906 926 907 773 6221 6222 6094 6084 6219 6089 
773 792 925 926 5386 6213 6217 6219 6218 6223 
906 926 773 925 6221 6219 6084 6215 6223 6217 
907 773 926 774 6089 6219 6222 6091 5265 6224 
926 773 793 774 6219 5392 6220 6224 5265 5393 
774 793 927 794 5393 6225 6226 5399 5401 6227 
907 927 908 774 6228 6229 6101 6091 6226 6096 
774 793 926 927 5393 6220 6224 6226 6225 6230 
907 927 774 926 6228 6226 6091 6222 6230 6224 
908 774 927 775 6096 6226 6229 6098 5272 6231 
927 774 794 775 6226 5399 6227 6231 5272 5400 
775 794 928 795 5400 6232 6233 5406 5408 6234 
908 928 909 775 6235 6236 6108 6098 6233 6103 
775 794 927 928 5400 6227 6231 6233 6232 6237 
908 928 775 927 6235 6233 6098 6229 6237 6231 
909 775 928 776 6103 6233 6236 6105 5279 6238 
928 775 795 776 6233 5406 6234 6238 5279 5407 
776 795 929 796 5407 6239 6240 5413 5415 6241 
909 929 910 776 6242 6243 6115 6105 6240 6110 
776 795 928 929 5407 6234 6238 6240 6239 6244 
909 929 776 928 6242 6240 6105 6236 6244 6238 
910 776 929 777 6110 6240 6243 6112 5286 6245 
929 776 796 777 6240 5413 6241 6245 5286 5414 
777 796 930 797 5414 6246 6247 5420 5422 6248 
910 930 911 777 6249 6250 6122 6112 6247 6117 
777 796 929 930 5414 6241 6245 6247 6246 6251 
910 930 777 929 6249 6247 6112 6243 6251 6245 
911 777 930 778 6117 6247 6250 6119 5293 6252 
930 777 797 778 6247 5420 6248 6252 5293 5421 
CELL_TYPES 3888
24 24 24 24 24 24 24 24 24 24 24 24 24 24 24 24 24 24 24 24 24 24 24 24 24 24 24 24 24 24 24 24 24 24 24 24 24 24 24 24 24 24 24 24 24 24 24 24 24 24 24 24 24 24 24 24 24 24 24 24 24 24 24 24 24 24 24 24 24 24 24 24 24 24 24 24 24 24 24 24 24 24 24 24 24 24 24 24 24 24 24 24 24 24 24 24 24 24 24 24 24 24 24 24 24 24 24 24 24 24 24 24 24 24 24 24 24 24 24 24 24 24 24 24 24 24 24 24 24 24 24 24 24 24 24 24 24 24 24 24 24 24 24 24 24 24 24 24 24 24 24 24 24 24 24 24 24 24 24 24 24 24 24 24 24 24 24 24 24 24 24 24 24 24 24 24 24 24 24 24 24 24 24 24 24 24 24 24 24 24 24 24 24 24 24 24 24 24 24 24 24 24 24 24 24 24 24 24 24 24 24 24 24 24 24 24 24 24 24 24 24 24 24 24 24 24 24 24 24 24 24 24 24 24 24 24 24 24 24 24 24 24 24 24 24 24 24 24 24 24 24 24 24 24 24 24 24 24 24 24 24 24 24 24 24 24 24 24 24 24 24 24 24 24 24 24 24 24 24 24 24 24 24 24 24 24 24 24 24 24 24 24 24 24 24 24 24 24 24 24 24 24 24 24 24 24 24 24 24 24 24 24 24 24 24 24 24 24 24 24 24 24 24 24 24 24 24 24 24 24 24 24 24 24 24 24 24 24 24 24 24 24 24 24 24 24 24 24 24 24 24 24 24 24 24 24 24 24 24 24 24 24 24 24 24 24 24 24 24 24 24 24 24 24 24 24 24 24 24 24 24 24 24 24 24 24 24 24 24 24 24 24 24 24 24 24 24 24 24 24 24 24 24 24 24 24 24 24 24 24 24 24 24 24 24 24 24 24 24 24 24 24 24 24 24 24 24 24 24 24 24 24 24 24 24 24 24 24 24 24 24 24 24 24 24 24 24 24 24 24 24 24 24 24 24 24 24 24 24 24 24 24 24 24 24 24 24 24 24 24 24 24 24 24 24 24 24 24 24 24 24 24 24 24 24 24 24 24 24 24 24 24 24 24 24 24 24 24 24 24 24 24 24 24 24 24 24 24 24 24 24 24 24 24 24 24 24 24 24 24 24 24 24 24 24 24 24 24 24 24 24 24 24 24 24 24 24 24 24 24 24 24 24 24 24 24 24 24 24 24 24 24 24 24 24 24 24 24 24 24 24 24 24 24 24 24 24 24 24 24 24 24 24 24 24 24 24 24 24 24 24 24 24 24 24 24 24 24 24 24 24 24 24 24 24 24 24 24 24 24 24 24 24 24 24 24 24 24 24 24 24 24 24 24 24 24 24 24 24 24 24 24 24 24 24 24 24 24 24 24 24 24 24 24 24 24 24 24 24 24 24 24 24 24 24 24 24 24 24 24 24 24 24 24 24 24 24 24 24 24 24 24 24 24 24 24 24 24 24 24 24 24 24 24 24 24 24 24 24 24 24 24 24 24 24 24 24 24 24 24 24 24 24 24 24 24 24 24 24 24 24 24 24 24 24 24 24 24 24 24 24 24 24 24 24 24 24 24 24 24 24 24 24 24 24 24 24 24 24 24 24 24 24 24 24 24 24 24 24 24 24 24 24 24 24 24 24 24 24 24 24 24 24 24 24 24 24 24 24 24 24 24 24 24 24 24 24 24 24 24 24 24 24 24 24 24 24 24 24 24 24 24 24 24 24 24 24 24 24 24 24 24 24 24 24 24 24 24 24 24 24 24 24 24 24 24 24 24 24 24 24 24 24 24 24 24 24 24 24 24 24 24 24 24 24 24 24 24 24 24 24 24 24 24 24 24 24 24 24 24 24 24 24 24 24 24 24 24 24 24 24 24 24 24 24 24 24 24 24 24 24 24 24 24 24 24 24 24 24 24 24 24 24 24 24 24 24 24 24 24 24 24 24 24 24 24 24 24 24 24 24 24 24 24 24 24 24 24 24 24 24 24 24 24 24 24 24 24 24 24 24 24 24 24 24 24 24 24 24 24 24 24 24 24 24 24 24 24 24 24 24 24 24 24 24 24 24 24 24 24 24 24 24 24 24 24 24 24 24 24 24 24 24 24 24 24 24 24 24 24 24 24 24 24 24 24 24 24 24 24 24 24 24 24 24 24 24 24 24 24 24 24 24 24 24 24 24 24 24 24 24 24 24 24 24 24 24 24 24 24 24 24 24 24 24 24 24 24 24 24 24 24 24 24 24 24 24 24 24 24 24 24 24 24 24 24 24 24 24 24 24 24 24 24 24 24 24 24 24 24 24 24 24 24 24 24 24 24 24 24 24 24 24 24 24 24 24 24 24 24 24 24 24 24 24 24 24 24 24 24 24 24 24 24 24 24 24 24 24 24 24 24 24 24 24 24 24 24 24 24 24 24 24 24 24 24 24 24 24 24 24 24 24 24 24 24 24 24 24 24 24 24 24 24 24 24 24 24 24 24 24 24 24 24 24 24 24 24 24 24 24 24 24 24 24 24 24 24 24 24 24 24 24 24 24 24 24 24 24 24 24 24 24 24 24 24 24 24 24 24 24 24 24 24 24 24 24 24 24 24 24 24 24 24 24 24 24 24 24 24 24 24 24 24 24 24 24 24 24 24 24 24 24 24 24 24 24 24 24 24 24 24 24 24 24 24 24 24 24 24 24 24 24 24 24 24 24 24 24 24 24 24 24 24 24 24 24 24 24 24 24 24 24 24 24 24 24 24 24 24 24 24 24 24 24 24 24 24 24 24 24 24 24 24 24 24 24 24 24 24 24 24 24 24 24 24 24 24 24 24 24 24 24 24 24 24 24 24 24 24 24 24 24 24 24 24 24 24 24 24 24 24 24 24 24 24 24 24 24 24 24 24 24 24 24 24 24 24 24 24 24 24 24 24 24 24 24 24 24 24 24 24 24 24 24 24 24 24 24 24 24 24 24 24 24 24 24 24 24 24 24 24 24 24 24 24 24 24 24 24 24 24 24 24 24 24 24 24 24 24 24 24 24 24 24 24 24 24 24 24 24 24 24 24 24 24 24 24 24 24 24 24 24 24 24 24 24 24 24 24 24 24 24 24 24 24 24 24 24 24 24 24 24 24 24 24 24 24 24 24 24 24 24 24 24 24 24 24 24 24 24 24 24 24 24 24 24 24 24 24 24 24 24 24 24 24 24 24 24 24 24 24 24 24 24 24 24 24 24 24 24 24 24 24 24 24 24 24 24 24 24 24 24 24 24 24 24 24 24 24 24 24 24 24 24 24 24 24 24 24 24 24 24 24 24 24 24 24 24 24 24 24 24 24 24 24 24 24 24 24 24 24 24 24 24 24 24 24 24 24 24 24 24 24 24 24 24 24 24 24 24 24 24 24 24 24 24 24 24 24 24 24 24 24 24 24 24 24 24 24 24 24 24 24 24 24 24 24 24 24 24 24 24 24 24 24 24 24 24 24 24 24 24 24 24 24 24 24 24 24 24 24 24 24 24 24 24 24 24 24 24 24 24 24 24 24 24 24 24 24 24 24 24 24 24 24 24 24 24 24 24 24 24 24 24 24 24 24 24 24 24 24 24 24 24 24 24 24 24 24 24 24 24 24 24 24 24 24 24 24 24 24 24 24 24 24 24 24 24 24 24 24 24 24 24 24 24 24 24 24 24 24 24 24 24 24 24 24 24 24 24 24 24 24 24 24 24 24 24 24 24 24 24 24 24 24 24 24 24 24 24 24 24 24 24 24 24 24 24 24 24 24 24 24 24 24 24 24 24 24 24 24 24 24 24 24 24 24 24 24 24 24 24 24 24 24 24 24 24 24 24 24 24 24 24 24 24 24 24 24 24 24 24 24 24 24 24 24 24 24 24 24 24 24 24 24 24 24 24 24 24 24 24 24 24 24 24 24 24 24 24 24 24 24 24 24 24 24 24 24 24 24 24 24 24 24 24 24 24 24 24 24 24 24 24 24 24 24 24 24 24 24 24 24 24 24 24 24 24 24 24 24 24 24 24 24 24 24 24 24 24 24 24 24 24 24 24 24 24 24 24 24 24 24 24 24 24 24 24 24 24 24 24 24 24 24 24 24 24 24 24 24 24 24 24 24 24 24 24 24 24 24 24 24 24 24 24 24 24 24 24 24 24 24 24 24 24 24 24 24 24 24 24 24 24 24 24 24 24 24 24 24 24 24 24 24 24 24 24 24 24 24 24 24 24 24 24 24 24 24 24 24 24 24 24 24 24 24 24 24 24 24 24 24 24 24 24 24 24 24 24 24 24 24 24 24 24 24 24 24 24 24 24 24 24 24 24 24 24 24 24 24 24 24 24 24 24 24 24 24 24 24 24 24 24 24 24 24 24 24 24 24 24 24 24 24 24 24 24 24 24 24 24 24 24 24 24 24 24 24 24 24 24 24 24 24 24 24 24 24 24 24 24 24 24 24 24 24 24 24 24 24 24 24 24 24 24 24 24 24 24 24 24 24 24 24 24 24 24 24 24 24 24 24 24 24 24 24 24 24 24 24 24 24 24 24 24 24 24 24 24 24 24 24 24 24 24 24 24 24 24 24 24 24 24 24 24 24 24 24 24 24 24 24 24 24 24 24 24 24 24 24 24 24 24 24 24 24 24 24 24 24 24 24 24 24 24 24 24 24 24 24 24 24 24 24 24 24 24 24 24 24 24 24 24 24 24 24 24 24 24 24 24 24 24 24 24 24 24 24 24 24 24 24 24 24 24 24 24 24 24 24 24 24 24 24 24 24 24 24 24 24 24 24 24 24 24 24 24 24 24 24 24 24 24 24 24 24 24 24 24 24 24 24 24 24 24 24 24 24 24 24 24 24 24 24 24 24 24 24 24 24 24 24 24 24 24 24 24 24 24 24 24 24 24 24 24 24 24 24 24 24 24 24 24 24 24 24 24 24 24 24 24 24 24 24 24 24 24 24 24 24 24 24 24 24 24 24 24 24 24 24 24 24 24 24 24 24 24 24 24 24 24 24 24 24 24 24 24 24 24 24 24 24 24 24 24 24 24 24 24 24 24 24 24 24 24 24 24 24 24 24 24 24 24 24 24 24 24 24 24 24 24 24 24 24 24 24 24 24 24 24 24 24 24 24 24 24 24 24 24 24 24 24 24 24 24 24 24 24 24 24 24 24 24 24 24 24 24 24 24 24 24 24 24 24 24 24 24 24 24 24 24 24 24 24 24 24 24 24 24 24 24 24 24 24 24 24 24 24 24 24 24 24 24 24 24 24 24 24 24 24 24 24 24 24 24 24 24 24 24 24 24 24 24 24 24 24 24 24 24 24 24 24 24 24 24 24 24 24 24 24 24 24 24 24 24 24 24 24 24 24 24 24 24 24 24 24 24 24 24 24 24 24 24 24 24 24 24 24 24 24 24 24 24 24 24 24 24 24 24 24 24 24 24 24 24 24 24 24 24 24 24 24 24 24 24 24 24 24 24 24 24 24 24 24 24 24 24 24 24 24 24 24 24 24 24 24 24 24 24 24 24 24 24 24 24 24 24 24 24 24 24 24 24 24 24 24 24 24 24 24 24 24 24 24 24 24 24 24 24 24 24 24 24 24 24 24 24 24 24 24 24 24 24 24 24 24 24 24 24 24 24 24 24 24 24 24 24 24 24 24 24 24 24 24 24 24 24 24 24 24 24 24 24 24 24 24 24 24 24 24 24 24 24 24 24 24 24 24 24 24 24 24 24 24 24 24 24 24 24 24 24 24 24 24 24 24 24 24 24 24 24 24 24 24 24 24 24 24 24 24 24 24 24 24 24 24 24 24 24 24 24 24 24 24 24 24 24 24 24 24 24 24 24 24 24 24 24 24 24 24 24 24 24 24 24 24 24 24 24 24 24 24 24 24 24 24 24 24 24 24 24 24 24 24 24 24 24 24 24 24 24 24 24 24 24 24 24 24 24 24 24 24 24 24 24 24 24 24 24 24 24 24 24 24 24 24 24 24 24 24 24 24 24 24 24 24 24 24 24 24 24 24 24 24 24 24 24 24 24 24 24 24 24 24 24 24 24 24 24 24 24 24 24 24 24 24 24 24 24 24 24 24 24 24 24 24 24 24 24 24 24 24 24 24 24 24 24 24 24 24 24 24 24 24 24 24 24 24 24 24 24 24 24 24 24 24 24 24 24 24 24 24 24 24 24 24 24 24 24 24 24 24 24 24 24 24 24 24 24 24 24 24 24 24 24 24 24 24 24 24 24 24 24 24 24 24 24 24 24 24 24 24 24 24 24 24 24 24 24 24 24 24 24 24 24 24 24 24 24 24 24 24 24 24 24 24 24 24 24 24 24 24 24 24 24 24 24 24 24 24 24 24 24 24 24 24 24 24 24 24 24 24 24 24 24 24 24 24 24 24 24 24 24 24 24 24 24 24 24 24 24 24 24 24 24 24 24 24 24 24 24 24 24 24 24 24 24 24 24 24 24 24 24 24 24 24 24 24 24 24 24 24 24 24 24 24 24 24 24 24 24 24 24 24 24 24 24 24 24 24 24 24 24 24 24 24 24 24 24 24 24 24 24 24 24 24 24 24 24 24 24 24 24 24 24 24 24 24 24 24 24 24 24 24 24 24 24 24 24 24 24 24 24 24 24 24 24 24 24 24 24 24 24 24 24 24 24 24 24 24 24 24 24 24 24 24 24 24 24 24 24 24 24 24 24 24 24 24 24 24 24 24 24 24 24 24 24 24 24 24 24 24 24 24 24 24 24 24 24 24 24 24 24 24 24 24 24 24 24 24 24 24 24 24 24 24 24 24 24 24 24 24 24 24 24 24 24 24 24 24 24 24 24 24 24 24 24 24 24 24 24 24 24 24 24 24 24 24 24 24 24 24 24 24 24 24 24 24 24 24 24 24 24 24 24 24 24 24 24 24 24 24 24 24 24 24 24 24 24 24 24 24 24 24 24 24 24 24 24 24 24 24 24 24 24 24 24 24 24 24 24 24 24 24 24 24 24 24 24 24 24 24 24 24 24 24 24 24 24 24 24 24 24 24 24 24 24 24 24 24 24 24 24 24 24 24 24 24 24 24 24 24 24 24 24 24 24 24 24 24 24 24 24 24 24 24 24 24 24 24 24 24 24 24 24 24 24 24 24 24 24 24 24 24 24 24 24 24 24 24 24 24 24 24 24 24 24 24 24 24 24 24 24 24 24 24 24 24 24 24 24 24 24 24 24 24 24 24 24 24 24 24 24 24 24 24 24 24 24 24 24 24 24 24 24 24 24 24 24 24 24 24 24 24 24 24 24 24 24 24 24 24 24 24 24 24 24 24 24 24 24 24 24 24 24 24 24 24 24 24 24 24 24 24 24 24 24 24 24 24 24 24 24 24 24 24 24 24 24 24 24 24 24 24 24 24 24 24 24 24 24 24 24 24 24 24 24 24 24 24 24 24 24 24 24 24 24 24 24 24 24 24 24 24 24 24 24 24 24 24 24 24 24 24 24 24 24 24 24 24 24 24 24 24 24 24 24 24 24 24 24 24 24 24 24 24 24 24 24 24 24 24 24 24 24 24 24 24 24 24 24 24 24 24 24 24 24 24 24 24 24 24 24 24 24 24 24 24 24 24 24 24 24 24 24 24 24 24 24 24 24 24 24 24 24 24 24 24 24 24 24 24 24 24 24 24 24 24 24 24 24 24 24 24 24 24 24 24 24 24 24 24 24 24 24 24 24 24 24 24 24 24 24 24 24 24 24 24 24 24 24 24 24 24 24 24 24 24 24 24 24 24 24 24 24 24 24 24 24 24 24 24 24 24 24 24 24 24 24 24 24 24 24 24 24 24 24 24 24 24 24 24 24 24 24 24 24 24 24 24 24 24 24 24 24 24 24 24 24 24 24 24 24 24 24 24 24 24 24 24 24 24 24 24 24 24 24 24 24 24 24 24 24 24 24 24 24 24 24 24 24 24 24 24 24 24 24 24 24 24 24 24 24 24 24 24 24 24 24 24 24 24 24 24 24 24 24 24 24 24 24 24 24 24 24 24 24 24 24 24 24 24 24 24 24 24 24 24 24 24 24 24 24 24 24 24 24 24 24 24 24 24 24 24 24 24 24 24 24 24 24 24 24 24 24 24 24 24 24 24 24 24 24 24 24 24 24 24 24 24 24 24 24 24 24 24 24 24 24 24 24 24 24 24 24 24 24 24 24 24 24 24 24 24 24 24 24 24 24 24 24 24 24 24 24 24 24 24 24 24 24 24 24 24 24 24 24 24 24 24 24 24 24 24 24 24 24 24 24 24 24 24 24 24 24 24 24 24 24 24 24 24 24 24 24 24 24 24 24 24 24 24 24 24 24 24 24 24 24 24 24 24 24 24 24 24 24 24 24 24 24 24 24 24 24 24 24 24 24 24 24 24 24 24 24 24 24 24 24 24 24 24 24 24 24 24 24 24 24 24 24 24 24 24 24 24 24 24 24 24 24 24 24 24 24 24 24 24 24 24 24 24 24 24 24 24 24 24 24 24 24 24 24 24 24 24 24 24 24 24 24 24 24 24 24 24 24 24 24 24 24 24 24 24 24 24 24 24 24 24 24 24 24 24 24 24 24 24 24 24 24 24 24 24 24 24 24 24 24 24 24 24 24 24 24 24 24 24 24 24 24 24 24 24 24 24 24 24 24 24 24 24 24 24 24 24 24 24 24 24 24 24 24 24 24 24 

POINT_DATA 6253
SCALARS weights float 1
LOOKUP_TABLE default
0.462963 0.617284 0.617284 0.617284 0.617284 0.617284 0.617284 0.617284 0.617284 0.617284 0.617284 0.617284 0.617284 0.617284 0.617284 0.617284 0.617284 0.617284 0.154321 0.617284 0.925926 0.925926 0.925926 0.925926 0.925926 0.925926 0.925926 0.925926 0.925925 0.925926 0.925926 0.925926 0.925927 0.925926 0.925926 0.925926 0.925926 0.308642 0.617284 0.925926 0.925926 0.925926 0.925926 0.925926 0.925926 0.925926 0.925926 0.925925 0.925926 0.925926 0.925926 0.925927 0.925926 0.925926 0.925926 0.925926 0.308642 0.617284 0.925926 0.925926 0.925926 0.925926 0.925926 0.925926 0.925926 0.925926 0.925925 0.925926 0.925926 0.925926 0.925927 0.925926 0.925926 0.925926 0.925926 0.308642 0.617284 0.925926 0.925926 0.925926 0.925925 0.925926 0.925926 0.925926 0.925926 0.925925 0.925925 0.925926 0.925926 0.925927 0.925926 0.925926 0.925926 0.925926 0.308642 0.617284 0.925926 0.925926 0.925926 0.925926 0.925926 0.925926 0.925926 0.925926 0.925925 0.925926 0.925926 0.925926 0.925927 0.925926 0.925926 0.925926 0.925926 0.308642 0.154321 0.308642 0.308642 0.308642 0.308642 0.308642 0.308642 0.308642 0.308642 0.308642 0.308642 0.308642 0.308642 0.308642 0.308642 0.308642 0.308642 0.308642 0.154321 0.617283 0.925925 0.925925 0.925925 0.925925 0.925925 0.925925 0.925925 0.925925 0.925925 0.925925 0.925925 0.925925 0.925925 0.925925 0.925925 0.925926 0.925925 0.308641 0.925925 1.85185 1.85185 1.85185 1.85185 1.85185 1.85185 1.85185 1.85185 1.85185 1.85185 1.85185 1.85185 1.85185 1.85185 1.85185 1.85185 1.85185 0.925925 0.925925 1.85185 1.85185 1.85185 1.85185 1.85185 1.85185 1.85185 1.85185 1.85185 1.85185 1.85185 1.85185 1.85185 1.85185 1.85185 1.85185 1.85185 0.925925 0.925925 1.85185 1.85185 1.85185 1.85185 1.85185 1.85185 1.85185 1.85185 1.85185 1.85185 1.85185 1.85185 1.85185 1.85185 1.85185 1.85185 1.85185 0.925925 0.925925 1.85185 1.85185 1.85185 1.85185 1.85185 1.85185 1.85185 1.85185 1.85185 1.85185 1.85185 1.85185 1.85185 1.85185 1.85185 1.85185 1.85185 0.925925 0.925925 1.85185 1.85185 1.85185 1.85185 1.85185 1.85185 1.85185 1.85185 1.85185 1.85185 1.85185 1.85185 1.85185 1.85185 1.85185 1.85185 1.85185 0.925925 0.308642 0.925925 0.925925 0.925925 0.925925 0.925925 0.925926 0.925926 0.925925 0.925925 0.925925 0.925925 0.925926 0.925926 0.925926 0.925925 0.925926 0.925926 0.617284 0.617284 0.925926 0.925926 0.925926 0.925926 0.925926 0.925926 0.925926 0.925926 0.925925 0.925926 0.925926 0.925926 0.925926 0.925926 0.925926 0.925927 0.925926 0.308641 0.925926 1.85185 1.85185 1.85185 1.85185 1.85185 1.85185 1.85185 1.85185 1.85185 1.85185 1.85185 1.85185 1.85185 1.85185 1.85185 1.85185 1.85185 0.925925 0.925927 1.85185 1.85185 1.85185 1.85185 1.85185 1.85185 1.85185 1.85185 1.85185 1.85185 1.85185 1.85185 1.85185 1.85185 1.85185 1.85185 1.85185 0.925925 0.925927 1.85185 1.85185 1.85185 1.85185 1.85185 1.85185 1.85185 1.85185 1.85185 1.85185 1.85185 1.85185 1.85185 1.85185 1.85185 1.85185 1.85185 0.925925 0.925926 1.85185 1.85185 1.85185 1.85185 1.85185 1.85185 1.85185 1.85185 1.85185 1.85185 1.85185 1.85185 1.85185 1.85185 1.85185 1.85185 1.85185 0.925925 0.925926 1.85185 1.85185 1.85185 1.85185 1.85185 1.85185 1.85185 1.85185 1.85185 1.85185 1.85185 1.85185 1.85185 1.85185 1.85185 1.85185 1.85185 0.925925 0.308642 0.925926 0.925926 0.925926 0.925926 0.925926 0.925926 0.925926 0.925926 0.925925 0.925926 0.925926 0.925926 0.925926 0.925927 0.925926 0.925926 0.925927 0.617283 0.617284 0.925927 0.925927 0.925926 0.925926 0.925927 0.925927 0.925927 0.925926 0.925926 0.925926 0.925926 0.925927 0.925927 0.925927 0.925927 0.925927 0.925927 0.308642 0.925927 1.85185 1.85185 1.85185 1.85185 1.85185 1.85185 1.85185 1.85185 1.85185 1.85185 1.85185 1.85185 1.85185 1.85185 1.85185 1.85186 1.85186 0.925927 0.925927 1.85185 1.85185 1.85185 1.85185 1.85185 1.85185 1.85185 1.85185 1.85185 1.85185 1.85185 1.85185 1.85185 1.85185 1.85185 1.85186 1.85186 0.925927 0.925927 1.85185 1.85185 1.85185 1.85185 1.85185 1.85185 1.85185 1.85185 1.85185 1.85185 1.85185 1.85185 1.85185 1.85186 1.85185 1.85186 1.85186 0.925927 0.925927 1.85185 1.85185 1.85185 1.85185 1.85185 1.85185 1.85185 1.85185 1.85185 1.85185 1.85185 1.85185 1.85185 1.85185 1.85185 1.85185 1.85186 0.925927 0.925927 1.85185 1.85185 1.85185 1.85185 1.85185 1.85185 1.85185 1.85185 1.85185 1.85185 1.85185 1.85185 1.85185 1.85185 1.85185 1.85185 1.85186 0.925927 0.308643 0.925927 0.925927 0.925927 0.925927 0.925927 0.925928 0.925928 0.925927 0.925927 0.925927 0.925927 0.925928 0.925928 0.925928 0.925927 0.925928 0.925928 0.617285 0.617284 0.925925 0.925925 0.925925 0.925925 0.925925 0.925926 0.925926 0.925925 0.925925 0.925925 0.925925 0.925925 0.925926 0.925925 0.925926 0.925926 0.925926 0.308641 0.925926 1.85185 1.85185 1.85185 1.85185 1.85185 1.85185 1.85185 1.85185 1.85185 1.85185 1.85185 1.85185 1.85185 1.85185 1.85185 1.85185 1.85185 0.925925 0.925926 1.85185 1.85185 1.85185 1.85185 1.85185 1.85185 1.85185 1.85185 1.85185 1.85185 1.85185 1.85185 1.85185 1.85185 1.85185 1.85185 1.85185 0.925925 0.925926 1.85185 1.85185 1.85185 1.85185 1.85185 1.85185 1.85185 1.85185 1.85185 1.85185 1.85185 1.85185 1.85185 1.85185 1.85185 1.85185 1.85185 0.925925 0.925926 1.85185 1.85185 1.85185 1.85185 1.85185 1.85185 1.85185 1.85185 1.85185 1.85185 1.85185 1.85185 1.85185 1.85185 1.85185 1.85185 1.85185 0.925925 0.925926 1.85185 1.85185 1.85185 1.85185 1.85185 1.85185 1.85185 1.85185 1.85185 1.85185 1.85185 1.85185 1.85185 1.85185 1.85185 1.85185 1.85185 0.925925 0.308642 0.925925 0.925925 0.925925 0.925925 0.925925 0.925926 0.925926 0.925925 0.925925 0.925925 0.925926 0.925926 0.925926 0.925926 0.925925 0.925926 0.925926 0.617283 0.617284 0.925925 0.925925 0.925925 0.925925 0.925925 0.925926 0.925925 0.925925 0.925925 0.925925 0.925925 0.925925 0.925926 0.925925 0.925926 0.925926 0.925926 0.308641 0.925926 1.85185 1.85185 1.85185 1.85185 1.85185 1.85185 1.85185 1.85185 1.85185 1.85185 1.85185 1.85185 1.85185 1.85185 1.85185 1.85185 1.85185 0.925925 0.925926 1.85185 1.85185 1.85185 1.85185 1.85185 1.85185 1.85185 1.85185 1.85185 1.85185 1.85185 1.85185 1.85185 1.85185 1.85185 1.85185 1.85185 0.925925 0.925926 1.85185 1.85185 1.85185 1.85185 1.85185 1.85185 1.85185 1.85185 1.85185 1.85185 1.85185 1.85185 1.85185 1.85185 1.85185 1.85185 1.85185 0.925925 0.925926 1.85185 1.85185 1.85185 1.85185 1.85185 1.85185 1.85185 1.85185 1.85185 1.85185 1.85185 1.85185 1.85185 1.85185 1.85185 1.85185 1.85185 0.925925 0.925926 1.85185 1.85185 1.85185 1.85185 1.85185 1.85185 1.85185 1.85185 1.85185 1.85185 1.85185 1.85185 1.85185 1.85185 1.85185 1.85185 1.85185 0.925925 0.308642 0.925926 0.925926 0.925926 0.925926 0.925926 0.925926 0.925926 0.925926 0.925925 0.925926 0.925926 0.925927 0.925926 0.925927 0.925926 0.925926 0.925926 0.617283 0.154321 0.308642 0.308642 0.308642 0.308642 0.308642 0.308642 0.308642 0.308642 0.308642 0.308642 0.308642 0.308642 0.308642 0.308642 0.308642 0.308642 0.308642 0.154321 0.308642 0.925925 0.925926 0.925926 0.925925 0.925925 0.925926 0.925926 0.925926 0.925925 0.925926 0.925926 0.925926 0.925926 0.925926 0.925926 0.925926 0.925926 0.617283 0.308642 0.925925 0.925926 0.925926 0.925926 0.925925 0.925926 0.925926 0.925926 0.925925 0.925926 0.925926 0.925926 0.925926 0.925926 0.925926 0.925926 0.925926 0.617283 0.308642 0.925926 0.925926 0.925926 0.925926 0.925925 0.925926 0.925926 0.925926 0.925925 0.925925 0.925926 0.925926 0.925926 0.925926 0.925926 0.925926 0.925926 0.617283 0.308642 0.925925 0.925925 0.925926 0.925925 0.925925 0.925926 0.925926 0.925925 0.925925 0.925925 0.925926 0.925926 0.925926 0.925926 0.925926 0.925926 0.925926 0.617283 0.308642 0.925925 0.925925 0.925925 0.925925 0.925925 0.925926 0.925926 0.925925 0.925925 0.925925 0.925926 0.925926 0.925926 0.925926 0.925926 0.925926 0.925926 0.617283 0.154321 0.617283 0.617283 0.617283 0.617283 0.617283 0.617284 0.617284 0.617283 0.617283 0.617283 0.617283 0.617284 0.617284 0.617284 0.617283 0.617284 0.617284 0.462962 0.154321 0.308642 0.462963 0.154321 0.231482 0.462963 0.308642 0.462963 0.231481 0.154321 0.154321 0.231481 0.154321 0.462962 0.231481 0.231481 0.154321 0.308642 0.231481 0.308642 0.462963 0.154321 0.231482 0.462963 0.308642 0.462963 0.231481 0.154321 0.462962 0.231481 0.154321 0.308642 0.231481 0.308642 0.462963 0.154321 0.231482 0.462963 0.308642 0.462963 0.231481 0.154321 0.462962 0.231481 0.154321 0.308642 0.231482 0.308642 0.462963 0.154321 0.231482 0.462963 0.308642 0.462963 0.231481 0.154321 0.462962 0.231481 0.154321 0.308642 0.231481 0.308642 0.462963 0.154321 0.231482 0.462963 0.308642 0.462963 0.231481 0.154321 0.462962 0.231481 0.154321 0.308642 0.231482 0.308642 0.462963 0.154321 0.231482 0.462963 0.308642 0.462963 0.231481 0.154321 0.462962 0.231481 0.154321 0.308642 0.231482 0.308642 0.462963 0.154321 0.231482 0.462963 0.308642 0.462963 0.231481 0.154321 0.462963 0.231481 0.154321 0.308642 0.231482 0.308642 0.462963 0.154321 0.231482 0.462963 0.308642 0.462963 0.231481 0.154321 0.462962 0.231481 0.154321 0.308642 0.231481 0.308642 0.462963 0.154321 0.231481 0.462963 0.308642 0.462963 0.231481 0.154321 0.462962 0.231481 0.154321 0.308642 0.231481 0.308642 0.462963 0.154321 0.231481 0.462963 0.308642 0.462963 0.231481 0.154321 0.462962 0.231481 0.154321 0.308642 0.231481 0.308642 0.462963 0.154321 0.231481 0.462963 0.308642 0.462963 0.231481 0.154321 0.462962 0.231481 0.154321 0.308642 0.231482 0.308642 0.462963 0.154321 0.231481 0.462963 0.308642 0.462963 0.231481 0.154321 0.462963 0.231481 0.154321 0.308642 0.231482 0.308642 0.462963 0.154321 0.231481 0.462963 0.308642 0.462963 0.231481 0.154321 0.462963 0.231481 0.154321 0.308642 0.231482 0.308643 0.462964 0.154321 0.231482 0.462963 0.308642 0.462963 0.231482 0.154321 0.462963 0.231481 0.154321 0.308642 0.231482 0.308642 0.462962 0.154321 0.231481 0.462963 0.308641 0.462963 0.231481 0.154321 0.462962 0.231482 0.154321 0.308642 0.231482 0.308642 0.462963 0.154321 0.231481 0.462963 0.308642 0.462963 0.231481 0.154321 0.462963 0.231481 0.154321 0.308642 0.231481 0.308642 0.462963 0.154321 0.231482 0.462963 0.308642 0.462963 0.231482 0.154321 0.462963 0.231482 0.154321 0.308642 0.231482 0.308642 0.462963 0.154321 0.231481 0.231481 0.308642 0.231481 0.231481 0.154321 0.462962 0.0771604 0.154321 0.154321 0.0771604 0.154321 0.308642 0.462963 0.154321 0.231482 0.462963 0.308642 0.462963 0.231481 0.154321 0.462962 0.231481 0.308642 0.231481 0.308642 0.462963 0.154321 0.231482 0.462963 0.308642 0.462963 0.462962 0.308642 0.231481 0.308642 0.462963 0.154321 0.231482 0.462963 0.308642 0.462963 0.462962 0.308642 0.231482 0.308642 0.462963 0.154321 0.231482 0.462963 0.308642 0.462963 0.462962 0.308642 0.231481 0.308642 0.462963 0.154321 0.231482 0.462963 0.308642 0.462963 0.462962 0.308642 0.231482 0.308642 0.462963 0.154321 0.231482 0.462963 0.308642 0.462963 0.462963 0.308642 0.231482 0.308642 0.462963 0.154321 0.231482 0.462963 0.308642 0.462963 0.462963 0.308642 0.231482 0.308642 0.462963 0.154321 0.231482 0.462963 0.308642 0.462963 0.462962 0.308642 0.231482 0.308642 0.462963 0.154321 0.231481 0.462963 0.308642 0.462963 0.462962 0.308642 0.231481 0.308642 0.462963 0.154321 0.231482 0.462963 0.308642 0.462963 0.462962 0.308642 0.231482 0.308642 0.462963 0.154321 0.231481 0.462963 0.308642 0.462963 0.462962 0.308642 0.231482 0.308642 0.462963 0.154321 0.231481 0.462963 0.308642 0.462963 0.462963 0.308642 0.231482 0.308642 0.462963 0.154321 0.231481 0.462963 0.308642 0.462963 0.462963 0.308642 0.231482 0.308643 0.462964 0.154321 0.231482 0.462963 0.308642 0.462963 0.462963 0.308642 0.231482 0.308642 0.462962 0.154321 0.231481 0.462963 0.308641 0.462963 0.462962 0.308642 0.231482 0.308642 0.462963 0.154321 0.231481 0.462963 0.308642 0.462963 0.462963 0.308642 0.231481 0.308642 0.462963 0.154321 0.231482 0.462963 0.308642 0.462963 0.462963 0.308642 0.231482 0.308642 0.462963 0.154321 0.231481 0.231481 0.308642 0.231481 0.462962 0.154321 0.0771604 0.154321 0.308642 0.462963 0.154321 0.231482 0.462963 0.308642 0.462963 0.231481 0.154321 0.462962 0.231481 0.308642 0.231481 0.308642 0.462963 0.154321 0.231482 0.462963 0.308642 0.462963 0.462962 0.308642 0.231481 0.308642 0.462963 0.154321 0.231482 0.462963 0.308642 0.462963 0.462962 0.308642 0.231481 0.308642 0.462963 0.154321 0.231482 0.462963 0.308642 0.462963 0.462962 0.308642 0.231481 0.308642 0.462963 0.154321 0.231482 0.462963 0.308642 0.462963 0.462962 0.308642 0.231481 0.308642 0.462963 0.154321 0.231482 0.462963 0.308642 0.462963 0.462963 0.308642 0.231482 0.308642 0.462963 0.154321 0.231482 0.462963 0.308642 0.462963 0.462963 0.308642 0.231482 0.308642 0.462963 0.154321 0.231482 0.462963 0.308642 0.462963 0.462962 0.308642 0.231481 0.308642 0.462963 0.154321 0.231481 0.462963 0.308641 0.462962 0.462962 0.308642 0.231481 0.308642 0.462963 0.154321 0.231482 0.462963 0.308642 0.462963 0.462962 0.308642 0.231481 0.308642 0.462963 0.154321 0.231481 0.462963 0.308642 0.462963 0.462962 0.308642 0.231482 0.308642 0.462963 0.154321 0.231481 0.462963 0.308642 0.462963 0.462963 0.308642 0.231482 0.308642 0.462963 0.154321 0.231481 0.462963 0.308642 0.462963 0.462963 0.308642 0.231482 0.308643 0.462963 0.154321 0.231482 0.462963 0.308642 0.462963 0.462963 0.308642 0.231482 0.308642 0.462962 0.154321 0.231481 0.462963 0.308641 0.462963 0.462962 0.308642 0.231482 0.308642 0.462963 0.154321 0.231481 0.462963 0.308642 0.462963 0.462963 0.308642 0.231481 0.308642 0.462963 0.154321 0.231482 0.462963 0.308642 0.462963 0.462963 0.308642 0.231482 0.308642 0.462963 0.154321 0.231481 0.231481 0.308642 0.231481 0.462962 0.154321 0.0771604 0.154321 0.308642 0.462963 0.154321 0.231482 0.462963 0.308642 0.462963 0.231481 0.154321 0.462962 0.231481 0.308642 0.231481 0.308642 0.462963 0.154321 0.231482 0.462963 0.308642 0.462963 0.462962 0.308642 0.231481 0.308642 0.462963 0.154321 0.231482 0.462963 0.308642 0.462963 0.462962 0.308642 0.231482 0.308642 0.462963 0.154321 0.231482 0.462963 0.308642 0.462963 0.462962 0.308642 0.231481 0.308642 0.462963 0.154321 0.231481 0.462963 0.308642 0.462963 0.462962 0.308642 0.231482 0.308642 0.462963 0.154321 0.231482 0.462963 0.308642 0.462963 0.462962 0.308642 0.231482 0.308642 0.462963 0.154321 0.231482 0.462963 0.308642 0.462963 0.462963 0.308642 0.231482 0.308642 0.462963 0.154321 0.231482 0.462963 0.308642 0.462963 0.462962 0.308642 0.231481 0.308642 0.462963 0.154321 0.231481 0.462962 0.308642 0.462963 0.462962 0.308642 0.231481 0.308642 0.462963 0.154321 0.231481 0.462963 0.308642 0.462963 0.462962 0.308642 0.231481 0.308642 0.462963 0.154321 0.231481 0.462963 0.308642 0.462963 0.462962 0.308642 0.231482 0.308642 0.462963 0.154321 0.231481 0.462963 0.308642 0.462963 0.462962 0.308642 0.231482 0.308642 0.462963 0.154321 0.231481 0.462963 0.308642 0.462963 0.462963 0.308642 0.231482 0.308642 0.462964 0.154321 0.231482 0.462963 0.308642 0.462963 0.462963 0.308642 0.231482 0.308642 0.462962 0.154321 0.231481 0.462963 0.308641 0.462963 0.462962 0.308642 0.231482 0.308642 0.462963 0.154321 0.231481 0.462963 0.308642 0.462963 0.462963 0.308642 0.231481 0.308642 0.462963 0.154321 0.231482 0.462963 0.308642 0.462963 0.462963 0.308642 0.231482 0.308642 0.462963 0.154321 0.231481 0.231481 0.308642 0.231481 0.462962 0.154321 0.0771604 0.154321 0.308642 0.462963 0.154321 0.231482 0.462963 0.308642 0.462963 0.231481 0.154321 0.462962 0.231481 0.308642 0.231481 0.308642 0.462963 0.154321 0.231482 0.462963 0.308642 0.462963 0.462962 0.308642 0.231481 0.308642 0.462963 0.154321 0.231482 0.462963 0.308642 0.462963 0.462962 0.308642 0.231482 0.308642 0.462963 0.154321 0.231482 0.462963 0.308642 0.462963 0.462962 0.308642 0.231481 0.308642 0.462963 0.154321 0.231482 0.462963 0.308642 0.462963 0.462962 0.308642 0.231482 0.308642 0.462963 0.154321 0.231482 0.462963 0.308642 0.462963 0.462962 0.308642 0.231482 0.308642 0.462963 0.154321 0.231482 0.462963 0.308642 0.462963 0.462963 0.308642 0.231482 0.308642 0.462963 0.154321 0.231482 0.462963 0.308642 0.462963 0.462962 0.308642 0.231482 0.308642 0.462963 0.154321 0.231481 0.462963 0.308641 0.462962 0.462962 0.308642 0.231481 0.308642 0.462963 0.154321 0.231482 0.462963 0.308642 0.462963 0.462962 0.308642 0.231481 0.308642 0.462963 0.154321 0.231481 0.462963 0.308642 0.462963 0.462962 0.308642 0.231482 0.308642 0.462963 0.154321 0.231481 0.462963 0.308642 0.462963 0.462962 0.308642 0.231482 0.308642 0.462963 0.154321 0.231481 0.462963 0.308642 0.462963 0.462963 0.308642 0.231482 0.308643 0.462963 0.154321 0.231482 0.462963 0.308642 0.462963 0.462963 0.308642 0.231482 0.308642 0.462962 0.154321 0.231481 0.462963 0.308641 0.462963 0.462962 0.308642 0.231482 0.308642 0.462963 0.154321 0.231481 0.462963 0.308642 0.462963 0.462963 0.308642 0.231481 0.308642 0.462963 0.154321 0.231482 0.462963 0.308642 0.462963 0.462963 0.308642 0.231482 0.308642 0.462963 0.154321 0.231481 0.231481 0.308642 0.231481 0.462962 0.154321 0.0771604 0.154321 0.154321 0.462963 0.154321 0.0771605 0.231481 0.308642 0.462963 0.0771604 0.154321 0.231481 0.231481 0.308642 0.231481 0.154321 0.462963 0.154321 0.0771606 0.231481 0.308642 0.462963 0.231481 0.308642 0.231481 0.154321 0.462963 0.154321 0.0771605 0.231481 0.308642 0.462963 0.231481 0.308642 0.231482 0.154321 0.462963 0.154321 0.0771606 0.231481 0.308642 0.462963 0.231481 0.308642 0.231481 0.154321 0.462963 0.154321 0.0771605 0.231481 0.308642 0.462963 0.231481 0.308642 0.231481 0.154321 0.462963 0.154321 0.0771606 0.231482 0.308642 0.462963 0.231481 0.308642 0.231482 0.154321 0.462963 0.154321 0.0771606 0.231482 0.308642 0.462963 0.231481 0.308642 0.231482 0.154321 0.462963 0.154321 0.0771606 0.231482 0.308642 0.462963 0.231481 0.308642 0.231481 0.154321 0.462963 0.154321 0.0771605 0.231481 0.308641 0.462963 0.231481 0.308642 0.231481 0.154321 0.462963 0.154321 0.0771606 0.231482 0.308642 0.462963 0.231481 0.308642 0.231481 0.154321 0.462963 0.154321 0.0771605 0.231481 0.308642 0.462963 0.231481 0.308642 0.231482 0.154321 0.462963 0.154321 0.0771606 0.231482 0.308642 0.462963 0.231481 0.308642 0.231482 0.154321 0.462963 0.154321 0.0771607 0.231482 0.308642 0.462963 0.231482 0.308642 0.231482 0.154321 0.462963 0.154321 0.0771607 0.231482 0.308642 0.462963 0.231481 0.308642 0.231482 0.154321 0.462962 0.154321 0.0771605 0.231481 0.308641 0.462963 0.231481 0.308642 0.231482 0.154321 0.462963 0.154321 0.0771606 0.231481 0.308642 0.462963 0.231482 0.308642 0.231481 0.154321 0.462963 0.154321 0.0771606 0.231482 0.308642 0.462963 0.231481 0.308642 0.231482 0.154321 0.462963 0.154321 0.0771606 0.154321 0.308642 0.231481 0.231481 0.154321 0.0771604 0.308642 0.462962 0.462962 0.308642 0.462963 0.231481 0.154321 0.154321 0.231481 0.154321 0.462963 0.231482 0.231481 0.308642 0.308642 0.462962 0.462962 0.308642 0.462963 0.231481 0.154321 0.462963 0.231481 0.308642 0.308642 0.462962 0.462962 0.308642 0.462963 0.231481 0.154321 0.462963 0.231481 0.308642 0.308642 0.462962 0.462962 0.308642 0.462963 0.231481 0.154321 0.462963 0.231481 0.308642 0.308642 0.462962 0.462962 0.308642 0.462963 0.231481 0.154321 0.462963 0.231481 0.308642 0.308642 0.462962 0.462963 0.308642 0.462963 0.231481 0.154321 0.462963 0.231481 0.308642 0.308642 0.462963 0.462963 0.308642 0.462963 0.231481 0.154321 0.462963 0.231481 0.308642 0.308642 0.462962 0.462962 0.308642 0.462963 0.231481 0.154321 0.462963 0.231481 0.308642 0.308641 0.462962 0.462962 0.308642 0.462963 0.231481 0.154321 0.462963 0.231481 0.308641 0.308642 0.462962 0.462963 0.308642 0.462963 0.231481 0.154321 0.462963 0.231481 0.308642 0.308642 0.462962 0.462962 0.308642 0.462963 0.231481 0.154321 0.462963 0.231481 0.308642 0.308642 0.462963 0.462963 0.308642 0.462963 0.231481 0.154321 0.462963 0.231481 0.308642 0.308642 0.462963 0.462963 0.308642 0.462963 0.231481 0.154321 0.462963 0.231481 0.308641 0.308642 0.462963 0.462963 0.308642 0.462963 0.231482 0.154321 0.462963 0.231481 0.308642 0.308641 0.462962 0.462963 0.308641 0.462963 0.231481 0.15432 0.462962 0.231481 0.308642 0.308642 0.462963 0.462962 0.308642 0.462963 0.231481 0.154321 0.462963 0.231481 0.308641 0.308642 0.462963 0.462963 0.308642 0.462963 0.231482 0.154321 0.462963 0.231481 0.308642 0.308642 0.462962 0.231481 0.308642 0.231481 0.231481 0.154321 0.462963 0.0771602 0.154321 0.308642 0.462962 0.462962 0.308642 0.462963 0.231481 0.154321 0.462963 0.231482 0.308642 0.308642 0.462962 0.462962 0.308642 0.462963 0.462963 0.308642 0.308642 0.462962 0.462962 0.308642 0.462963 0.462963 0.308642 0.308642 0.462962 0.462962 0.308642 0.462963 0.462963 0.308642 0.308642 0.462962 0.462962 0.308642 0.462963 0.462963 0.308642 0.308642 0.462963 0.462963 0.308642 0.462963 0.462963 0.308642 0.308642 0.462963 0.462963 0.308642 0.462963 0.462963 0.308642 0.308642 0.462962 0.462963 0.308642 0.462963 0.462963 0.308642 0.308642 0.462962 0.462962 0.308642 0.462963 0.462963 0.308641 0.308642 0.462962 0.462963 0.308642 0.462963 0.462963 0.308642 0.308642 0.462962 0.462962 0.308642 0.462963 0.462963 0.308642 0.308642 0.462963 0.462963 0.308642 0.462963 0.462963 0.308642 0.308642 0.462963 0.462963 0.308642 0.462963 0.462963 0.308641 0.308642 0.462963 0.462963 0.308642 0.462963 0.462964 0.308642 0.308641 0.462962 0.462963 0.308641 0.462963 0.462962 0.308642 0.308642 0.462963 0.462962 0.308642 0.462963 0.462963 0.308641 0.308642 0.462963 0.462963 0.308642 0.462963 0.462963 0.308642 0.308642 0.462962 0.231481 0.308642 0.231481 0.462963 0.154321 0.308642 0.462962 0.462962 0.308642 0.462963 0.231481 0.154321 0.462963 0.231482 0.308642 0.308642 0.462962 0.462962 0.308642 0.462963 0.462963 0.308642 0.308642 0.462962 0.462962 0.308642 0.462963 0.462963 0.308642 0.308642 0.462962 0.462962 0.308642 0.462963 0.462963 0.308642 0.308642 0.462962 0.462962 0.308642 0.462963 0.462963 0.308642 0.308642 0.462962 0.462963 0.308642 0.462963 0.462963 0.308642 0.308642 0.462963 0.462963 0.308642 0.462963 0.462963 0.308642 0.308642 0.462962 0.462963 0.308642 0.462963 0.462963 0.308642 0.308642 0.462962 0.462962 0.308642 0.462962 0.462963 0.308641 0.308642 0.462962 0.462962 0.308642 0.462963 0.462963 0.308642 0.308642 0.462962 0.462962 0.308642 0.462963 0.462963 0.308642 0.308642 0.462962 0.462963 0.308642 0.462963 0.462963 0.308642 0.308642 0.462963 0.462963 0.308642 0.462963 0.462963 0.308641 0.308642 0.462963 0.462963 0.308642 0.462963 0.462964 0.308642 0.308641 0.462962 0.462963 0.308641 0.462963 0.462962 0.308642 0.308642 0.462963 0.462962 0.308642 0.462963 0.462963 0.308641 0.308642 0.462963 0.462963 0.308642 0.462963 0.462963 0.308642 0.308642 0.462962 0.231481 0.308642 0.231481 0.462963 0.154321 0.308642 0.462962 0.462962 0.308642 0.462963 0.231481 0.154321 0.462963 0.231482 0.308642 0.308641 0.462962 0.462962 0.308642 0.462963 0.462963 0.308642 0.308641 0.462962 0.462962 0.308642 0.462963 0.462963 0.308642 0.308642 0.462963 0.462962 0.308642 0.462963 0.462963 0.308642 0.308641 0.462962 0.462962 0.308642 0.462963 0.462963 0.308642 0.308642 0.462963 0.462963 0.308642 0.462963 0.462963 0.308642 0.308642 0.462963 0.462962 0.308642 0.462963 0.462963 0.308642 0.308642 0.462962 0.462962 0.308642 0.462963 0.462963 0.308642 0.308641 0.462962 0.462962 0.308642 0.462963 0.462963 0.308641 0.308641 0.462962 0.462962 0.308642 0.462963 0.462963 0.308642 0.308641 0.462962 0.462962 0.308642 0.462963 0.462963 0.308642 0.308642 0.462963 0.462963 0.308642 0.462963 0.462963 0.308642 0.308642 0.462963 0.462962 0.308642 0.462963 0.462963 0.308641 0.308642 0.462963 0.462963 0.308642 0.462963 0.462963 0.308642 0.308641 0.462962 0.462963 0.308641 0.462963 0.462962 0.308642 0.308642 0.462963 0.462962 0.308642 0.462963 0.462963 0.308642 0.308642 0.462963 0.462963 0.308642 0.462963 0.462963 0.308642 0.308642 0.462962 0.231481 0.308642 0.231481 0.462963 0.154321 0.308642 0.462962 0.462962 0.308642 0.462963 0.231481 0.154321 0.462963 0.231482 0.308642 0.308642 0.462962 0.462962 0.308642 0.462963 0.462963 0.308642 0.308642 0.462962 0.462962 0.308642 0.462963 0.462963 0.308642 0.308642 0.462962 0.462962 0.308642 0.462963 0.462963 0.308641 0.308642 0.462962 0.462962 0.308642 0.462963 0.462963 0.308642 0.308642 0.462962 0.462963 0.308642 0.462963 0.462963 0.308642 0.308642 0.462963 0.462963 0.308642 0.462963 0.462963 0.308642 0.308642 0.462962 0.462962 0.308642 0.462963 0.462963 0.308642 0.308641 0.462962 0.462962 0.308642 0.462962 0.462963 0.308641 0.308642 0.462962 0.462962 0.308642 0.462963 0.462963 0.308642 0.308642 0.462962 0.462962 0.308642 0.462963 0.462963 0.308642 0.308642 0.462962 0.462963 0.308642 0.462963 0.462963 0.308642 0.308642 0.462963 0.462963 0.308642 0.462963 0.462963 0.308641 0.308642 0.462963 0.462963 0.308642 0.462963 0.462963 0.308642 0.308641 0.462962 0.462963 0.308641 0.462963 0.462962 0.308642 0.308642 0.462963 0.462962 0.308642 0.462963 0.462963 0.308641 0.308642 0.462963 0.462963 0.308642 0.462963 0.462963 0.308642 0.308642 0.462962 0.231481 0.308642 0.231481 0.462963 0.154321 0.154321 0.462962 0.231481 0.308642 0.462963 0.0771606 0.154321 0.231482 0.231482 0.308642 0.154321 0.462962 0.231481 0.308642 0.462963 0.231481 0.308642 0.154321 0.462962 0.231481 0.308642 0.462963 0.231481 0.308642 0.154321 0.462962 0.231481 0.308642 0.462963 0.231482 0.308642 0.154321 0.462962 0.231481 0.308642 0.462963 0.231481 0.308642 0.154321 0.462962 0.231482 0.308642 0.462963 0.231482 0.308642 0.154321 0.462963 0.231482 0.308642 0.462963 0.231482 0.308642 0.154321 0.462962 0.231482 0.308642 0.462963 0.231481 0.308642 0.154321 0.462962 0.231481 0.308642 0.462963 0.231481 0.308641 0.154321 0.462962 0.231482 0.308642 0.462963 0.231481 0.308642 0.154321 0.462962 0.231481 0.308642 0.462963 0.231482 0.308642 0.154321 0.462963 0.231482 0.308642 0.462963 0.231482 0.308642 0.154321 0.462963 0.231482 0.308642 0.462963 0.231482 0.308641 0.154321 0.462963 0.231482 0.308642 0.462963 0.231482 0.308642 0.154321 0.462962 0.231481 0.308641 0.462963 0.231481 0.308642 0.154321 0.462963 0.231481 0.308642 0.462963 0.231482 0.308641 0.154321 0.462963 0.231482 0.308642 0.462963 0.231482 0.308642 0.154321 0.462962 0.154321 0.308642 0.231481 0.231482 0.154321 0.308642 0.462964 0.462964 0.308643 0.462963 0.231482 0.154321 0.154321 0.231482 0.154321 0.462964 0.231482 0.231482 0.308642 0.308642 0.462964 0.462964 0.308643 0.462964 0.231482 0.154321 0.462964 0.231482 0.308642 0.308642 0.462964 0.462964 0.308643 0.462964 0.231482 0.154321 0.462964 0.231482 0.308642 0.308643 0.462964 0.462963 0.308643 0.462963 0.231482 0.154321 0.462964 0.231482 0.308642 0.308642 0.462964 0.462964 0.308642 0.462964 0.231482 0.154321 0.462964 0.231482 0.308642 0.308643 0.462964 0.462964 0.308643 0.462964 0.231482 0.154321 0.462964 0.231482 0.308642 0.308643 0.462964 0.462964 0.308643 0.462964 0.231482 0.154321 0.462964 0.231482 0.308642 0.308643 0.462964 0.462964 0.308643 0.462964 0.231482 0.154321 0.462964 0.231482 0.308642 0.308642 0.462963 0.462963 0.308642 0.462963 0.231482 0.154321 0.462964 0.231482 0.308642 0.308642 0.462963 0.462964 0.308643 0.462963 0.231482 0.154321 0.462964 0.231482 0.308642 0.308642 0.462963 0.462964 0.308642 0.462964 0.231482 0.154321 0.462964 0.231482 0.308642 0.308643 0.462964 0.462964 0.308643 0.462964 0.231482 0.154321 0.462964 0.231482 0.308642 0.308643 0.462964 0.462964 0.308643 0.462964 0.231482 0.154321 0.462964 0.231482 0.308642 0.308643 0.462964 0.462964 0.308643 0.462964 0.231482 0.154321 0.462965 0.231482 0.308643 0.308642 0.462963 0.462964 0.308642 0.462964 0.231481 0.154321 0.462963 0.231482 0.308643 0.308643 0.462964 0.462964 0.308643 0.462964 0.231482 0.154321 0.462964 0.231482 0.308642 0.308643 0.462964 0.462964 0.308643 0.462964 0.231482 0.154321 0.462964 0.231482 0.308643 0.308642 0.462963 0.231481 0.308643 0.231482 0.231482 0.154321 0.462964 0.0771603 0.154321 0.308642 0.462964 0.462964 0.308643 0.462964 0.231482 0.154321 0.462964 0.231482 0.308642 0.308642 0.462964 0.462964 0.308643 0.462964 0.462964 0.308642 0.308642 0.462964 0.462964 0.308643 0.462964 0.462964 0.308642 0.308643 0.462964 0.462964 0.308643 0.462963 0.462964 0.308642 0.308642 0.462964 0.462964 0.308643 0.462964 0.462964 0.308642 0.308643 0.462964 0.462964 0.308643 0.462964 0.462964 0.308642 0.308643 0.462964 0.462964 0.308643 0.462964 0.462964 0.308642 0.308643 0.462964 0.462964 0.308643 0.462964 0.462964 0.308642 0.308642 0.462963 0.462963 0.308642 0.462963 0.462964 0.308642 0.308642 0.462964 0.462964 0.308643 0.462964 0.462964 0.308642 0.308642 0.462963 0.462964 0.308642 0.462964 0.462964 0.308642 0.308643 0.462964 0.462964 0.308643 0.462964 0.462964 0.308642 0.308643 0.462964 0.462964 0.308643 0.462964 0.462964 0.308642 0.308643 0.462964 0.462964 0.308643 0.462964 0.462965 0.308643 0.308642 0.462963 0.462964 0.308642 0.462964 0.462963 0.308643 0.308643 0.462964 0.462964 0.308643 0.462964 0.462964 0.308642 0.308643 0.462964 0.462964 0.308643 0.462964 0.462964 0.308643 0.308642 0.462963 0.231481 0.308643 0.231482 0.462964 0.154321 0.308642 0.462964 0.462964 0.308643 0.462963 0.231482 0.154321 0.462964 0.231482 0.308642 0.308642 0.462964 0.462964 0.308643 0.462963 0.462964 0.308642 0.308642 0.462964 0.462964 0.308643 0.462963 0.462964 0.308642 0.308643 0.462964 0.462964 0.308643 0.462963 0.462964 0.308642 0.308642 0.462963 0.462964 0.308642 0.462963 0.462964 0.308642 0.308642 0.462964 0.462964 0.308643 0.462964 0.462964 0.308642 0.308643 0.462964 0.462964 0.308643 0.462964 0.462964 0.308642 0.308643 0.462964 0.462964 0.308643 0.462964 0.462964 0.308642 0.308642 0.462963 0.462963 0.308642 0.462963 0.462964 0.308642 0.308642 0.462963 0.462964 0.308642 0.462963 0.462964 0.308642 0.308642 0.462963 0.462964 0.308642 0.462964 0.462964 0.308642 0.308643 0.462964 0.462964 0.308643 0.462964 0.462964 0.308642 0.308643 0.462964 0.462964 0.308643 0.462963 0.462964 0.308642 0.308643 0.462964 0.462964 0.308643 0.462964 0.462965 0.308642 0.308642 0.462963 0.462964 0.308642 0.462964 0.462963 0.308643 0.308643 0.462964 0.462964 0.308643 0.462964 0.462964 0.308642 0.308643 0.462964 0.462964 0.308643 0.462964 0.462964 0.308643 0.308642 0.462963 0.231481 0.308643 0.231482 0.462964 0.154321 0.308642 0.462964 0.462963 0.308643 0.462964 0.231482 0.154321 0.462964 0.231482 0.308642 0.308642 0.462964 0.462964 0.308643 0.462964 0.462964 0.308642 0.308642 0.462964 0.462964 0.308643 0.462964 0.462964 0.308642 0.308642 0.462964 0.462963 0.308643 0.462963 0.462964 0.308642 0.308642 0.462964 0.462963 0.308643 0.462964 0.462964 0.308642 0.308642 0.462964 0.462964 0.308643 0.462964 0.462964 0.308642 0.308643 0.462964 0.462964 0.308643 0.462964 0.462964 0.308642 0.308642 0.462964 0.462964 0.308643 0.462964 0.462964 0.308642 0.308642 0.462963 0.462963 0.308642 0.462963 0.462964 0.308642 0.308642 0.462964 0.462964 0.308643 0.462964 0.462964 0.308642 0.308642 0.462964 0.462964 0.308643 0.462964 0.462964 0.308642 0.308643 0.462964 0.462964 0.308643 0.462964 0.462964 0.308642 0.308643 0.462964 0.462964 0.308643 0.462964 0.462964 0.308642 0.308643 0.462964 0.462964 0.308643 0.462964 0.462964 0.308643 0.308642 0.462963 0.462964 0.308642 0.462964 0.462963 0.308643 0.308643 0.462964 0.462963 0.308643 0.462964 0.462964 0.308642 0.308643 0.462964 0.462964 0.308643 0.462964 0.462964 0.308643 0.308642 0.462964 0.231481 0.308643 0.231482 0.462964 0.154321 0.308642 0.462964 0.462964 0.308643 0.462963 0.231482 0.154321 0.462964 0.231482 0.308642 0.308642 0.462964 0.462964 0.308643 0.462963 0.462964 0.308642 0.308642 0.462964 0.462964 0.308643 0.462963 0.462964 0.308642 0.308642 0.462964 0.462963 0.308643 0.462963 0.462964 0.308642 0.308642 0.462963 0.462964 0.308642 0.462963 0.462964 0.308642 0.308642 0.462964 0.462964 0.308643 0.462964 0.462964 0.308642 0.308643 0.462964 0.462964 0.308643 0.462964 0.462964 0.308642 0.308643 0.462963 0.462964 0.308643 0.462963 0.462964 0.308642 0.308642 0.462963 0.462963 0.308642 0.462963 0.462964 0.308642 0.308642 0.462963 0.462964 0.308643 0.462963 0.462964 0.308642 0.308642 0.462963 0.462964 0.308642 0.462964 0.462964 0.308642 0.308643 0.462964 0.462964 0.308643 0.462964 0.462964 0.308642 0.308643 0.462964 0.462964 0.308643 0.462963 0.462964 0.308642 0.308643 0.462964 0.462964 0.308643 0.462964 0.462964 0.308642 0.308642 0.462963 0.462964 0.308642 0.462964 0.462963 0.308643 0.308643 0.462964 0.462964 0.308643 0.462964 0.462964 0.308642 0.308643 0.462964 0.462964 0.308643 0.462964 0.462964 0.308643 0.308642 0.462963 0.231481 0.308643 0.231481 0.462964 0.154321 0.154321 0.462964 0.231482 0.308643 0.462963 0.0771607 0.154321 0.231482 0.231482 0.308642 0.154321 0.462964 0.231482 0.308643 0.462963 0.231482 0.308642 0.154321 0.462964 0.231482 0.308643 0.462964 0.231482 0.308642 0.154321 0.462964 0.231482 0.308643 0.462963 0.231482 0.308642 0.154321 0.462963 0.231482 0.308642 0.462963 0.231482 0.308642 0.154321 0.462964 0.231482 0.308643 0.462964 0.231482 0.308642 0.154321 0.462964 0.231482 0.308643 0.462964 0.231482 0.308642 0.154321 0.462964 0.231482 0.308643 0.462964 0.231482 0.308642 0.154321 0.462963 0.231482 0.308642 0.462963 0.231482 0.308642 0.154321 0.462963 0.231482 0.308643 0.462963 0.231482 0.308642 0.154321 0.462963 0.231482 0.308642 0.462964 0.231482 0.308642 0.154322 0.462964 0.231482 0.308643 0.462964 0.231482 0.308642 0.154322 0.462964 0.231482 0.308643 0.462963 0.231482 0.308642 0.154322 0.462964 0.231482 0.308643 0.462964 0.231482 0.308642 0.154321 0.462963 0.231482 0.308642 0.462964 0.231482 0.308643 0.154322 0.462964 0.231482 0.308643 0.462964 0.231482 0.308642 0.154321 0.462964 0.231482 0.308643 0.462964 0.231482 0.308643 0.154321 0.462963 0.154321 0.308643 0.231482 0.231482 0.154321 0.308642 0.462963 0.462963 0.308641 0.462963 0.231481 0.154321 0.154321 0.231481 0.154321 0.462962 0.231481 0.231481 0.308642 0.308642 0.462963 0.462963 0.308641 0.462963 0.231481 0.154321 0.462962 0.231481 0.308642 0.308642 0.462963 0.462963 0.308641 0.462963 0.231481 0.154321 0.462962 0.231481 0.308642 0.308642 0.462963 0.462963 0.308641 0.462963 0.231481 0.154321 0.462962 0.231481 0.308642 0.308642 0.462963 0.462963 0.308641 0.462963 0.231481 0.154321 0.462962 0.231481 0.308642 0.308642 0.462963 0.462963 0.308641 0.462963 0.231481 0.154321 0.462962 0.231481 0.308642 0.308642 0.462963 0.462963 0.308641 0.462963 0.231481 0.154321 0.462963 0.231481 0.308642 0.308642 0.462963 0.462963 0.308641 0.462963 0.231481 0.154321 0.462962 0.231481 0.308642 0.308642 0.462963 0.462963 0.308641 0.462962 0.231481 0.154321 0.462962 0.231481 0.308642 0.308642 0.462963 0.462963 0.308641 0.462963 0.231481 0.154321 0.462962 0.231481 0.308642 0.308642 0.462963 0.462963 0.308641 0.462963 0.231481 0.154321 0.462962 0.231481 0.308642 0.308642 0.462963 0.462963 0.308641 0.462963 0.231481 0.154321 0.462962 0.231481 0.308642 0.308642 0.462963 0.462963 0.308641 0.462963 0.231481 0.154321 0.462963 0.231481 0.308642 0.308643 0.462964 0.462963 0.308642 0.462963 0.231482 0.154321 0.462963 0.231481 0.308642 0.308642 0.462962 0.462963 0.308641 0.462963 0.231481 0.154321 0.462962 0.231481 0.308642 0.308642 0.462963 0.462963 0.308642 0.462963 0.231481 0.154321 0.462963 0.231481 0.308642 0.308642 0.462963 0.462963 0.308642 0.462963 0.231482 0.154321 0.462963 0.231481 0.308642 0.308642 0.462963 0.231482 0.308641 0.231481 0.231481 0.154321 0.462962 0.0771604 0.154321 0.308642 0.462963 0.462963 0.308641 0.462963 0.231481 0.154321 0.462962 0.231482 0.308642 0.308642 0.462963 0.462963 0.308641 0.462963 0.462962 0.308642 0.308642 0.462963 0.462963 0.308641 0.462963 0.462962 0.308642 0.308642 0.462963 0.462963 0.308641 0.462963 0.462962 0.308642 0.308642 0.462963 0.462963 0.308641 0.462963 0.462962 0.308642 0.308642 0.462963 0.462963 0.308641 0.462963 0.462962 0.308642 0.308642 0.462963 0.462963 0.308642 0.462963 0.462963 0.308642 0.308642 0.462963 0.462963 0.308641 0.462963 0.462962 0.308642 0.308642 0.462963 0.462963 0.308641 0.462962 0.462962 0.308642 0.308642 0.462963 0.462963 0.308641 0.462963 0.462962 0.308642 0.308642 0.462963 0.462963 0.308641 0.462963 0.462962 0.308642 0.308642 0.462963 0.462963 0.308641 0.462963 0.462962 0.308642 0.308642 0.462963 0.462963 0.308641 0.462963 0.462963 0.308642 0.308643 0.462964 0.462963 0.308642 0.462963 0.462963 0.308642 0.308642 0.462962 0.462963 0.308641 0.462963 0.462962 0.308642 0.308642 0.462963 0.462963 0.308642 0.462963 0.462963 0.308642 0.308642 0.462964 0.462963 0.308642 0.462963 0.462963 0.308642 0.308642 0.462963 0.231482 0.308641 0.231481 0.462962 0.154321 0.308642 0.462963 0.462963 0.308641 0.462963 0.231481 0.154321 0.462962 0.231481 0.308642 0.308642 0.462963 0.462963 0.308641 0.462963 0.462962 0.308642 0.308642 0.462963 0.462963 0.308641 0.462963 0.462962 0.308642 0.308642 0.462963 0.462963 0.308641 0.462962 0.462962 0.308642 0.308642 0.462963 0.462963 0.308641 0.462963 0.462962 0.308642 0.308642 0.462963 0.462963 0.308641 0.462963 0.462962 0.308642 0.308642 0.462963 0.462963 0.308641 0.462963 0.462963 0.308642 0.308642 0.462963 0.462963 0.308641 0.462963 0.462962 0.308642 0.308642 0.462963 0.462963 0.308641 0.462962 0.462962 0.308642 0.308642 0.462963 0.462963 0.308641 0.462963 0.462962 0.308642 0.308642 0.462963 0.462963 0.308641 0.462963 0.462962 0.308642 0.308642 0.462963 0.462963 0.308641 0.462963 0.462962 0.308642 0.308642 0.462963 0.462963 0.308641 0.462963 0.462963 0.308642 0.308643 0.462964 0.462963 0.308642 0.462963 0.462963 0.308642 0.308642 0.462962 0.462963 0.308641 0.462963 0.462962 0.308642 0.308642 0.462963 0.462963 0.308642 0.462963 0.462963 0.308642 0.308642 0.462963 0.462963 0.308642 0.462963 0.462963 0.308642 0.308642 0.462963 0.231482 0.308641 0.231481 0.462962 0.154321 0.308642 0.462963 0.462963 0.308641 0.462963 0.231481 0.154321 0.462962 0.231481 0.308642 0.308642 0.462963 0.462963 0.308641 0.462963 0.462962 0.308642 0.308642 0.462963 0.462963 0.308641 0.462963 0.462962 0.308642 0.308642 0.462963 0.462963 0.308641 0.462963 0.462962 0.308642 0.308642 0.462963 0.462963 0.308641 0.462963 0.462962 0.308642 0.308642 0.462963 0.462963 0.308641 0.462963 0.462962 0.308642 0.308642 0.462963 0.462963 0.308642 0.462963 0.462963 0.308642 0.308642 0.462963 0.462963 0.308641 0.462963 0.462962 0.308642 0.308642 0.462963 0.462963 0.308641 0.462962 0.462962 0.308642 0.308642 0.462963 0.462963 0.308641 0.462963 0.462962 0.308642 0.308642 0.462963 0.462963 0.308641 0.462963 0.462962 0.308642 0.308642 0.462963 0.462963 0.308641 0.462963 0.462962 0.308642 0.308642 0.462963 0.462963 0.308641 0.462963 0.462962 0.308642 0.308643 0.462964 0.462963 0.308642 0.462963 0.462963 0.308642 0.308642 0.462962 0.462963 0.308641 0.462963 0.462962 0.308642 0.308642 0.462963 0.462963 0.308642 0.462963 0.462963 0.308642 0.308642 0.462963 0.462963 0.308642 0.462963 0.462963 0.308642 0.308642 0.462963 0.231482 0.308641 0.231481 0.462962 0.154321 0.308642 0.462963 0.462963 0.308641 0.462962 0.231481 0.154321 0.462962 0.231481 0.308642 0.308642 0.462963 0.462963 0.308641 0.462962 0.462962 0.308642 0.308642 0.462963 0.462963 0.308641 0.462963 0.462962 0.308642 0.308642 0.462963 0.462963 0.308641 0.462962 0.462962 0.308642 0.308642 0.462963 0.462963 0.308641 0.462963 0.462962 0.308642 0.308642 0.462963 0.462963 0.308641 0.462963 0.462962 0.308642 0.308642 0.462963 0.462963 0.308641 0.462963 0.462963 0.308642 0.308642 0.462963 0.462963 0.308641 0.462963 0.462962 0.308642 0.308642 0.462963 0.462963 0.308641 0.462962 0.462962 0.308642 0.308642 0.462963 0.462963 0.308641 0.462963 0.462962 0.308642 0.308642 0.462963 0.462963 0.308641 0.462963 0.462962 0.308642 0.308642 0.462963 0.462963 0.308641 0.462963 0.462962 0.308642 0.308642 0.462963 0.462963 0.308641 0.462963 0.462963 0.308642 0.308643 0.462964 0.462963 0.308642 0.462963 0.462963 0.308642 0.308642 0.462962 0.462963 0.308641 0.462963 0.462962 0.308642 0.308642 0.462963 0.462963 0.308642 0.462963 0.462963 0.308642 0.308642 0.462963 0.462963 0.308642 0.462963 0.462963 0.308642 0.308642 0.462963 0.231482 0.308641 0.231481 0.462962 0.154321 0.154321 0.462963 0.231482 0.308641 0.462963 0.0771605 0.154321 0.231481 0.231481 0.308642 0.154321 0.462963 0.231482 0.308641 0.462963 0.231481 0.308642 0.154321 0.462963 0.231482 0.308641 0.462963 0.231481 0.308642 0.154321 0.462963 0.231482 0.308641 0.462962 0.231481 0.308642 0.154321 0.462963 0.231482 0.308641 0.462963 0.231481 0.308642 0.154321 0.462963 0.231482 0.308641 0.462963 0.231481 0.308642 0.154321 0.462963 0.231482 0.308641 0.462963 0.231481 0.308642 0.154321 0.462963 0.231482 0.308641 0.462963 0.231481 0.308642 0.154321 0.462963 0.231482 0.308641 0.462962 0.231481 0.308642 0.154321 0.462963 0.231482 0.308641 0.462963 0.231481 0.308642 0.154321 0.462963 0.231482 0.308641 0.462963 0.231481 0.308642 0.154321 0.462963 0.231482 0.308641 0.462963 0.231482 0.308642 0.154321 0.462963 0.231482 0.308641 0.462963 0.231482 0.308642 0.154321 0.462964 0.231482 0.308642 0.462963 0.231481 0.308642 0.154321 0.462962 0.231482 0.308641 0.462963 0.231481 0.308642 0.154321 0.462963 0.231482 0.308642 0.462963 0.231482 0.308642 0.154321 0.462963 0.231482 0.308642 0.462963 0.231481 0.308642 0.154321 0.462963 0.154321 0.308641 0.231481 0.231481 0.154321 0.308642 0.462963 0.462963 0.308642 0.462963 0.231481 0.154321 0.154321 0.231482 0.154321 0.462963 0.231481 0.231482 0.308642 0.308642 0.462963 0.462963 0.308642 0.462963 0.231481 0.154321 0.462963 0.231482 0.308642 0.308642 0.462963 0.462963 0.308642 0.462963 0.231481 0.154321 0.462963 0.231482 0.308642 0.308642 0.462963 0.462963 0.308642 0.462963 0.231481 0.154321 0.462963 0.231482 0.308642 0.308642 0.462963 0.462963 0.308642 0.462963 0.231481 0.154321 0.462963 0.231482 0.308642 0.308642 0.462963 0.462963 0.308642 0.462963 0.231481 0.154321 0.462963 0.231482 0.308642 0.308643 0.462964 0.462963 0.308642 0.462963 0.231481 0.154321 0.462963 0.231482 0.308642 0.308642 0.462963 0.462963 0.308642 0.462963 0.231481 0.154321 0.462963 0.231482 0.308642 0.308642 0.462963 0.462963 0.308642 0.462962 0.231481 0.154321 0.462963 0.231482 0.308642 0.308642 0.462963 0.462963 0.308642 0.462963 0.231481 0.154321 0.462963 0.231482 0.308642 0.308642 0.462963 0.462963 0.308642 0.462963 0.231481 0.154321 0.462963 0.231482 0.308642 0.308643 0.462963 0.462963 0.308642 0.462963 0.231481 0.154321 0.462963 0.231482 0.308642 0.308643 0.462963 0.462963 0.308642 0.462963 0.231481 0.154321 0.462963 0.231482 0.308642 0.308643 0.462964 0.462964 0.308642 0.462963 0.231482 0.154321 0.462963 0.231482 0.308642 0.308642 0.462963 0.462964 0.308641 0.462963 0.231481 0.154321 0.462962 0.231482 0.308642 0.308643 0.462964 0.462963 0.308642 0.462963 0.231481 0.154321 0.462963 0.231482 0.308642 0.308643 0.462964 0.462964 0.308642 0.462963 0.231482 0.154321 0.462963 0.231482 0.308642 0.308642 0.462963 0.231481 0.308642 0.231481 0.231481 0.154321 0.462963 0.0771604 0.15432 0.308642 0.462963 0.462963 0.308642 0.462963 0.231482 0.154321 0.462963 0.231481 0.308642 0.308642 0.462963 0.462963 0.308642 0.462963 0.462963 0.308642 0.308642 0.462963 0.462963 0.308642 0.462963 0.462963 0.308642 0.308642 0.462963 0.462963 0.308642 0.462963 0.462963 0.308642 0.308642 0.462963 0.462963 0.308642 0.462963 0.462963 0.308642 0.308642 0.462963 0.462963 0.308642 0.462963 0.462963 0.308642 0.308643 0.462964 0.462963 0.308642 0.462963 0.462963 0.308642 0.308642 0.462963 0.462963 0.308642 0.462963 0.462963 0.308642 0.308642 0.462963 0.462963 0.308642 0.462963 0.462963 0.308642 0.308642 0.462963 0.462963 0.308642 0.462963 0.462963 0.308642 0.308642 0.462963 0.462963 0.308642 0.462963 0.462963 0.308642 0.308643 0.462963 0.462963 0.308642 0.462963 0.462963 0.308642 0.308643 0.462963 0.462963 0.308642 0.462963 0.462963 0.308642 0.308643 0.462964 0.462964 0.308642 0.462963 0.462964 0.308642 0.308642 0.462963 0.462964 0.308641 0.462963 0.462962 0.308642 0.308643 0.462964 0.462963 0.308642 0.462963 0.462963 0.308642 0.308643 0.462964 0.462964 0.308642 0.462963 0.462963 0.308642 0.308642 0.462963 0.231481 0.308642 0.231481 0.462963 0.15432 0.308642 0.462963 0.462963 0.308642 0.462963 0.231482 0.154321 0.462963 0.231481 0.308642 0.308642 0.462963 0.462963 0.308642 0.462963 0.462963 0.308642 0.308642 0.462963 0.462963 0.308642 0.462963 0.462963 0.308642 0.308642 0.462963 0.462963 0.308642 0.462963 0.462963 0.308642 0.308642 0.462963 0.462963 0.308642 0.462963 0.462963 0.308642 0.308642 0.462963 0.462963 0.308642 0.462963 0.462963 0.308642 0.308643 0.462964 0.462963 0.308642 0.462963 0.462963 0.308642 0.308642 0.462963 0.462963 0.308642 0.462963 0.462963 0.308642 0.308642 0.462963 0.462963 0.308642 0.462962 0.462963 0.308642 0.308642 0.462963 0.462963 0.308642 0.462963 0.462963 0.308642 0.308642 0.462963 0.462963 0.308642 0.462963 0.462963 0.308642 0.308643 0.462963 0.462963 0.308642 0.462963 0.462963 0.308642 0.308643 0.462963 0.462963 0.308642 0.462963 0.462963 0.308642 0.308643 0.462964 0.462964 0.308642 0.462963 0.462964 0.308642 0.308642 0.462963 0.462964 0.308641 0.462963 0.462962 0.308642 0.308643 0.462964 0.462963 0.308642 0.462963 0.462963 0.308642 0.308643 0.462964 0.462964 0.308642 0.462963 0.462963 0.308642 0.308642 0.462963 0.231481 0.308642 0.231481 0.462963 0.15432 0.308642 0.462963 0.462963 0.308642 0.462963 0.231482 0.154321 0.462963 0.231481 0.308642 0.308642 0.462963 0.462963 0.308642 0.462963 0.462963 0.308642 0.308642 0.462963 0.462963 0.308642 0.462963 0.462963 0.308642 0.308642 0.462963 0.462963 0.308642 0.462963 0.462963 0.308642 0.308642 0.462963 0.462963 0.308642 0.462963 0.462963 0.308642 0.308642 0.462963 0.462963 0.308642 0.462963 0.462963 0.308642 0.308643 0.462964 0.462963 0.308642 0.462963 0.462963 0.308642 0.308642 0.462963 0.462963 0.308642 0.462963 0.462963 0.308642 0.308642 0.462963 0.462963 0.308642 0.462963 0.462963 0.308642 0.308642 0.462963 0.462963 0.308642 0.462963 0.462963 0.308642 0.308642 0.462963 0.462963 0.308642 0.462963 0.462963 0.308642 0.308642 0.462963 0.462963 0.308642 0.462963 0.462963 0.308642 0.308643 0.462963 0.462963 0.308642 0.462963 0.462963 0.308642 0.308643 0.462964 0.462963 0.308642 0.462963 0.462963 0.308642 0.308642 0.462963 0.462963 0.308641 0.462963 0.462962 0.308642 0.308643 0.462964 0.462963 0.308642 0.462963 0.462963 0.308642 0.308643 0.462964 0.462964 0.308642 0.462963 0.462963 0.308642 0.308642 0.462963 0.231481 0.308642 0.231481 0.462963 0.154321 0.308642 0.462963 0.462963 0.308642 0.462963 0.231482 0.154321 0.462963 0.231481 0.308642 0.308642 0.462963 0.462963 0.308642 0.462963 0.462963 0.308642 0.308642 0.462963 0.462963 0.308642 0.462963 0.462963 0.308642 0.308642 0.462963 0.462963 0.308642 0.462963 0.462963 0.308642 0.308642 0.462963 0.462963 0.308642 0.462963 0.462963 0.308642 0.308642 0.462963 0.462963 0.308642 0.462963 0.462963 0.308642 0.308643 0.462964 0.462963 0.308642 0.462963 0.462963 0.308642 0.308642 0.462963 0.462963 0.308642 0.462963 0.462963 0.308642 0.308642 0.462963 0.462963 0.308642 0.462962 0.462963 0.308642 0.308642 0.462963 0.462963 0.308642 0.462963 0.462963 0.308642 0.308642 0.462963 0.462963 0.308642 0.462963 0.462963 0.308642 0.308643 0.462963 0.462963 0.308642 0.462963 0.462963 0.308642 0.308643 0.462963 0.462963 0.308642 0.462963 0.462963 0.308642 0.308643 0.462964 0.462964 0.308642 0.462963 0.462963 0.308642 0.308642 0.462963 0.462964 0.308641 0.462963 0.462962 0.308642 0.308643 0.462964 0.462963 0.308642 0.462963 0.462963 0.308642 0.308643 0.462964 0.462964 0.308642 0.462963 0.462963 0.308642 0.308642 0.462963 0.231481 0.308642 0.231481 0.462963 0.15432 0.154321 0.462963 0.231481 0.308642 0.462963 0.0771608 0.154321 0.231482 0.231481 0.308642 0.154321 0.462963 0.231481 0.308642 0.462963 0.231482 0.308642 0.154321 0.462963 0.231481 0.308642 0.462963 0.231482 0.308642 0.154321 0.462963 0.231481 0.308642 0.462963 0.231482 0.308642 0.154321 0.462963 0.231481 0.308642 0.462963 0.231482 0.308642 0.154321 0.462963 0.231482 0.308642 0.462963 0.231482 0.308642 0.154321 0.462964 0.231482 0.308642 0.462963 0.231482 0.308642 0.154321 0.462963 0.231481 0.308642 0.462963 0.231482 0.308642 0.154321 0.462963 0.231481 0.308642 0.462962 0.231482 0.308642 0.154321 0.462963 0.231481 0.308642 0.462963 0.231482 0.308642 0.154321 0.462963 0.231481 0.308642 0.462963 0.231482 0.308642 0.154321 0.462963 0.231482 0.308642 0.462963 0.231482 0.308642 0.154322 0.462963 0.231482 0.308642 0.462963 0.231482 0.308642 0.154322 0.462964 0.231482 0.308642 0.462963 0.231482 0.308642 0.154321 0.462963 0.231481 0.308641 0.462963 0.231481 0.308642 0.154321 0.462964 0.231481 0.308642 0.462963 0.231482 0.308642 0.154321 0.462964 0.231482 0.308642 0.462963 0.231482 0.308642 0.154321 0.462963 0.154321 0.308642 0.231481 0.231482 0.15432 0.308642 0.462962 0.462962 0.154321 0.231481 0.0771606 0.154321 0.154321 0.231482 0.154321 0.231482 0.0771606 0.231482 0.308642 0.308642 0.462962 0.462962 0.154321 0.231482 0.0771606 0.154321 0.231482 0.231482 0.308642 0.308642 0.462962 0.462962 0.154321 0.231482 0.0771606 0.154321 0.231482 0.231482 0.308642 0.308642 0.462962 0.462962 0.154321 0.231481 0.0771606 0.154321 0.231482 0.231481 0.308641 0.308641 0.462962 0.462962 0.154321 0.231481 0.0771606 0.154321 0.231482 0.231482 0.308642 0.308642 0.462963 0.462963 0.154321 0.231482 0.0771606 0.154321 0.231482 0.231482 0.308642 0.308642 0.462963 0.462963 0.154321 0.231482 0.0771606 0.154321 0.231482 0.231482 0.308642 0.308642 0.462962 0.462962 0.154321 0.231482 0.0771606 0.154321 0.231482 0.231481 0.308642 0.308641 0.462962 0.462962 0.154321 0.231481 0.0771606 0.154321 0.231482 0.231481 0.308641 0.308641 0.462962 0.462962 0.154321 0.231482 0.0771606 0.154321 0.231482 0.231482 0.308642 0.308642 0.462962 0.462962 0.154321 0.231481 0.0771606 0.154321 0.231482 0.231482 0.308642 0.308642 0.462963 0.462963 0.154321 0.231482 0.0771607 0.154321 0.231482 0.231482 0.308642 0.308642 0.462963 0.462963 0.154321 0.231481 0.0771607 0.154321 0.231482 0.231481 0.308641 0.308642 0.462963 0.462963 0.154321 0.231482 0.0771608 0.154321 0.231482 0.231482 0.308642 0.308641 0.462962 0.462963 0.154321 0.231482 0.0771606 0.154321 0.231481 0.231482 0.308642 0.308642 0.462963 0.462962 0.154322 0.231482 0.0771608 0.154321 0.231482 0.231482 0.308641 0.308642 0.462963 0.462963 0.154321 0.231482 0.0771607 0.154321 0.231482 0.231482 0.308642 0.308642 0.462962 0.231481 0.154321 0.154321 0.0771607 0.154321 0.231482 0.0771602 0.15432 0.308642 0.462962 0.462962 0.154321 0.231481 0.231482 0.154321 0.231482 0.0771606 0.308641 0.308642 0.462962 0.462962 0.154321 0.231482 0.231482 0.308642 0.308642 0.462962 0.462962 0.154321 0.231482 0.231482 0.308642 0.308642 0.462962 0.462962 0.154321 0.231481 0.231482 0.308641 0.308642 0.462962 0.462962 0.154321 0.231481 0.231482 0.308642 0.308642 0.462963 0.462963 0.154321 0.231482 0.231482 0.308642 0.308642 0.462963 0.462963 0.154321 0.231482 0.231482 0.308642 0.308642 0.462962 0.462962 0.154321 0.231482 0.231482 0.308642 0.308642 0.462962 0.462962 0.154321 0.231481 0.231482 0.308641 0.308642 0.462962 0.462962 0.154321 0.231481 0.231482 0.308642 0.308642 0.462962 0.462962 0.154321 0.231481 0.231482 0.308642 0.308642 0.462963 0.462963 0.154321 0.231482 0.231482 0.308642 0.308642 0.462963 0.462963 0.154321 0.231481 0.231482 0.308641 0.308642 0.462963 0.462963 0.154321 0.231482 0.231482 0.308642 0.308641 0.462962 0.462963 0.154321 0.231482 0.231482 0.308642 0.308642 0.462963 0.462962 0.154322 0.231482 0.231482 0.308641 0.308642 0.462963 0.462963 0.154321 0.231482 0.231482 0.308642 0.308642 0.462962 0.231481 0.154321 0.154321 0.231482 0.15432 0.308642 0.462962 0.462962 0.154321 0.231481 0.231482 0.154321 0.231482 0.0771606 0.308641 0.308642 0.462962 0.462962 0.154321 0.231482 0.231482 0.308641 0.308642 0.462962 0.462962 0.154321 0.231481 0.231482 0.308642 0.308642 0.462962 0.462962 0.154321 0.231481 0.231482 0.308641 0.308642 0.462962 0.462962 0.154321 0.231481 0.231482 0.308641 0.308642 0.462962 0.462963 0.154321 0.231481 0.231482 0.308642 0.308642 0.462963 0.462963 0.154321 0.231482 0.231482 0.308642 0.308642 0.462962 0.462962 0.154321 0.231482 0.231482 0.308642 0.308641 0.462962 0.462962 0.154321 0.231481 0.231482 0.308641 0.308642 0.462962 0.462962 0.154321 0.231481 0.231482 0.308641 0.308642 0.462962 0.462962 0.154321 0.231481 0.231482 0.308641 0.308642 0.462962 0.462963 0.154321 0.231482 0.231482 0.308642 0.308642 0.462963 0.462962 0.154321 0.231481 0.231482 0.308641 0.308642 0.462963 0.462963 0.154321 0.231482 0.231482 0.308642 0.308641 0.462962 0.462963 0.154321 0.231482 0.231481 0.308642 0.308642 0.462963 0.462962 0.154322 0.231482 0.231482 0.308641 0.308642 0.462963 0.462963 0.154321 0.231482 0.231482 0.308642 0.308642 0.462962 0.231481 0.154321 0.154321 0.231482 0.15432 0.308641 0.462962 0.462962 0.154321 0.231482 0.231482 0.154321 0.231482 0.0771607 0.308642 0.308641 0.462962 0.462962 0.154321 0.231482 0.231482 0.308642 0.308641 0.462962 0.462962 0.154321 0.231482 0.231482 0.308642 0.308642 0.462962 0.462962 0.154321 0.231482 0.231482 0.308641 0.308641 0.462962 0.462962 0.154321 0.231482 0.231482 0.308642 0.308642 0.462963 0.462962 0.154321 0.231482 0.231482 0.308642 0.308642 0.462963 0.462962 0.154321 0.231482 0.231482 0.308642 0.308642 0.462962 0.462962 0.154321 0.231482 0.231482 0.308642 0.308641 0.462962 0.462962 0.154321 0.231481 0.231482 0.308641 0.308641 0.462962 0.462962 0.154321 0.231482 0.231482 0.308642 0.308641 0.462962 0.462962 0.154321 0.231482 0.231482 0.308642 0.308642 0.462963 0.462962 0.154321 0.231482 0.231482 0.308642 0.308642 0.462963 0.462962 0.154321 0.231481 0.231482 0.308641 0.308642 0.462963 0.462963 0.154321 0.231482 0.231482 0.308642 0.308641 0.462962 0.462963 0.154321 0.231482 0.231481 0.308642 0.308642 0.462963 0.462962 0.154322 0.231482 0.231482 0.308641 0.308642 0.462963 0.462963 0.154321 0.231482 0.231482 0.308642 0.308641 0.462962 0.231481 0.154321 0.154321 0.231482 0.15432 0.308642 0.462962 0.462962 0.154321 0.231481 0.231482 0.154321 0.231482 0.0771606 0.308641 0.308642 0.462962 0.462962 0.154321 0.231481 0.231482 0.308641 0.308642 0.462962 0.462962 0.154321 0.231481 0.231482 0.308641 0.308642 0.462962 0.462962 0.154321 0.231481 0.231482 0.308641 0.308641 0.462962 0.462962 0.154321 0.231481 0.231482 0.308641 0.308642 0.462962 0.462963 0.154321 0.231481 0.231482 0.308642 0.308642 0.462963 0.462963 0.154321 0.231481 0.231482 0.308642 0.308642 0.462962 0.462962 0.154321 0.231481 0.231482 0.308642 0.308641 0.462962 0.462962 0.154321 0.231481 0.231482 0.308641 0.308641 0.462962 0.462962 0.154321 0.231481 0.231482 0.308641 0.308642 0.462962 0.462962 0.154321 0.231481 0.231482 0.308641 0.308642 0.462962 0.462963 0.154321 0.231481 0.231482 0.308642 0.308642 0.462963 0.462962 0.154321 0.231481 0.231482 0.308641 0.308642 0.462963 0.462963 0.154321 0.231482 0.231482 0.308642 0.308641 0.462962 0.462963 0.154321 0.231482 0.231481 0.308642 0.308642 0.462963 0.462962 0.154322 0.231482 0.231482 0.308641 0.308642 0.462963 0.462963 0.154321 0.231482 0.231482 0.308642 0.308642 0.462962 0.231481 0.154321 0.154321 0.231482 0.15432 0.154321 0.462962 0.231481 0.154321 0.231481 0.0771605 0.154321 0.154321 0.0771606 0.308641 0.154321 0.462962 0.231481 0.154321 0.231481 0.154321 0.308641 0.154321 0.462962 0.231481 0.154321 0.231481 0.154321 0.308641 0.154321 0.462962 0.231481 0.154321 0.231481 0.154321 0.308641 0.154321 0.462962 0.231481 0.154321 0.231481 0.154321 0.308641 0.154321 0.462962 0.231481 0.154321 0.231481 0.154321 0.308642 0.154321 0.462963 0.231481 0.154321 0.231482 0.154321 0.308642 0.154321 0.462962 0.231481 0.154321 0.231482 0.154321 0.308642 0.154321 0.462962 0.231481 0.154321 0.231481 0.154321 0.308641 0.154321 0.462962 0.231481 0.154321 0.231481 0.154321 0.308641 0.154321 0.462962 0.231481 0.154321 0.231481 0.154321 0.308641 0.154321 0.462963 0.231481 0.154321 0.231481 0.154321 0.308642 0.154321 0.462963 0.231481 0.154321 0.231481 0.154321 0.308641 0.154321 0.462963 0.231481 0.154321 0.231482 0.154321 0.308642 0.154321 0.462962 0.231481 0.154321 0.231482 0.154321 0.308642 0.154321 0.462963 0.231481 0.154322 0.231482 0.154322 0.308641 0.154321 0.462963 0.231481 0.154321 0.231482 0.154321 0.308642 0.154321 0.462962 0.15432 0.154321 0.154321 0.154321 0.15432 
VECTORS u float
0 0 0  0.024966 0.225345 -0.105048  0.0349123 0.459457 -0.146725  0.0427539 0.690333 -0.107099  0.0484043 0.891397 0.0109982  0.0517399 1.0425 0.191076  0.0525047 1.11988 0.412715  0.0523368 1.11978 0.648177  0.0520463 1.0376 0.866277  0.0525995 0.888525 1.04429  0.0537975 0.688684 1.15662  0.0552856 0.463256 1.19593  0.0554855 0.239917 1.15314  0.0534024 0.0421009 1.03796  0.0466065 -0.103443 0.860759  0.0343859 -0.185019 0.642617  0.015492 -0.187942 0.408853  -0.00336218 -0.121649 0.184942  0 -3.57628e-07 -4.76837e-07  0 1.49012e-08 0  -0.0129828 0.178628 -0.0582693  -0.00846919 0.386525 -0.0650592  -0.0039658 0.581302 0.0028131  0.00158262 0.743661 0.132586  0.00313604 0.848417 0.311999  0.0046674 0.888467 0.517858  0.00366366 0.853224 0.723119  0.00459993 0.752631 0.905109  0.00437474 0.596217 1.03762  0.00647295 0.405648 1.11052  0.00656199 0.203945 1.11044  0.00718951 0.0132604 1.04327  0.00353289 -0.140657 0.913072  -0.00195813 -0.244844 0.737804  -0.0131207 -0.281938 0.536522  -0.0232263 -0.2531 0.329552  -0.0259655 -0.155802 0.146024  0 -1.93715e-07 -4.76837e-07  0 0 0  -0.00853936 0.173588 -0.00994563  -0.0068627 0.349378 0.0330069  -0.00108585 0.502907 0.136946  0.00288838 0.610656 0.29026  0.00518936 0.661401 0.472007  0.00575483 0.644647 0.661053  0.00577331 0.566681 0.832819  0.00596774 0.433988 0.965066  0.00673366 0.26684 1.04444  0.00775981 0.0837353 1.05879  0.00845003 -0.0921468 1.01097  0.00777531 -0.239538 0.903362  0.00510049 -0.342841 0.752522  -7.48634e-05 -0.387228 0.573489  -0.00684071 -0.371819 0.388329  -0.0122917 -0.294339 0.217385  -0.0109701 -0.168896 0.0823772  0 -8.9407e-08 -4.76837e-07  0 0 0  0.00697479 0.174335 0.0484915  0.0152342 0.320412 0.145713  0.022454 0.42747 0.291443  0.0271447 0.476193 0.467033  0.0289328 0.462451 0.649935  0.0292304 0.386376 0.817861  0.0289272 0.259454 0.947827  0.0291771 0.0960497 1.02552  0.0298431 -0.0812356 1.04172  0.0308601 -0.252912 0.994777  0.0311975 -0.396274 0.891913  0.0303602 -0.495721 0.744169  0.0276237 -0.538622 0.571528  0.0232403 -0.520266 0.392235  0.0174677 -0.444493 0.229824  0.0120323 -0.320577 0.100705  0.00689387 -0.168784 0.0221078  0 0 -4.76837e-07  0 0 0  0.0252166 0.168645 0.112451  0.0396874 0.284352 0.264796  0.0475948 0.34159 0.450651  0.0508431 0.330482 0.645391  0.0500159 0.252772 0.824784  0.0497311 0.119169 0.966894  0.0487537 -0.0530155 1.0526  0.0489365 -0.242579 1.07386  0.0494157 -0.426233 1.02762  0.0506072 -0.582091 0.920892  0.0505192 -0.690628 0.765903  0.0495772 -0.739742 0.582173  0.0462162 -0.722285 0.391643  0.0417082 -0.642098 0.217109  0.0352833 -0.508362 0.0804453  0.0282028 -0.340542 -0.00431561  0.017339 -0.164684 -0.0279703  0 1.19209e-07 -4.76837e-07  0 0 0  0.0367676 0.152437 0.175351  0.0489981 0.237498 0.37629  0.0539203 0.247723 0.597183  0.0524336 0.181825 0.807211  0.0513316 0.0459792 0.980524  0.0471895 -0.139949 1.10039  0.0473989 -0.351281 1.14508  0.0443921 -0.563745 1.1153  0.0477891 -0.752338 1.0138  0.0461627 -0.893704 0.852968  0.0486683 -0.970695 0.652292  0.0441658 -0.973821 0.436071  0.0429401 -0.902523 0.230665  0.0345879 -0.765634 0.0608554  0.0309136 -0.580293 -0.0526149  0.0217845 -0.371444 -0.0973735  0.0156798 -0.168252 -0.0721462  0 2.38419e-07 -4.76837e-07  0 0 0  0.0163297 0.119821 0.210232  0.0214738 0.179297 0.450125  0.0204845 0.156733 0.702366  0.0176952 0.0467255 0.932986  0.0113919 -0.131864 1.11037  0.00703597 -0.362123 1.21537  0.00509691 -0.611246 1.23632  0.00584269 -0.847028 1.16795  0.00728655 -1.04925 1.02412  0.00837839 -1.18392 0.818446  0.00812733 -1.24427 0.576339  0.00540423 -1.21307 0.329956  0.000238895 -1.10159 0.103387  -0.00658202 -0.918064 -0.0671494  -0.0133986 -0.687275 -0.170451  -0.0164163 -0.440439 -0.185015  -0.0153904 -0.200789 -0.120227  0 3.57628e-07 -4.76837e-07  0 0 0  0.0426603 0.180953 -0.140113  0.0612608 0.375376 -0.208919  0.0718536 0.575491 -0.205021  0.0778517 0.761398 -0.130854  0.0820587 0.910703 0.0029695  0.0829664 1.00436 0.181073  0.0835854 1.03298 0.379953  0.0828961 0.991448 0.575176  0.0835882 0.887838 0.743691  0.0839097 0.733719 0.864519  0.0855112 0.549127 0.925565  0.0855429 0.355434 0.918395  0.0847979 0.175177 0.846066  0.0800703 0.0296267 0.715344  0.0716574 -0.0657702 0.542561  0.0551133 -0.098872 0.347117  0.0313909 -0.0714959 0.15643  0 -3.57628e-07 -2.38419e-07  0 1.49012e-08 0  0.00922897 0.1425 -0.077379  0.0186706 0.30274 -0.107798  0.024075 0.46136 -0.0783083  0.0290042 0.599954 0.00675225  0.0312932 0.700931 0.133648  0.0328317 0.752035 0.289717  0.0326749 0.748129 0.452332  0.0331591 0.688313 0.603476  0.0331225 0.58326 0.723508  0.0342211 0.443597 0.798938  0.0344967 0.289182 0.822016  0.0348256 0.136067 0.789271  0.0327718 0.0037656 0.707087  0.0291753 -0.0934161 0.582628  0.0217724 -0.144513 0.432951  0.0119665 -0.142725 0.271946  0.00192046 -0.0907356 0.12094  0 -2.23517e-07 -2.38419e-07  0 0 0  0.00254087 0.124508 -0.0233104  0.00711274 0.252786 -0.00381923  0.0113667 0.366891 0.0603685  0.0146879 0.451982 0.161393  0.0172433 0.49816 0.286498  0.01803 0.498458 0.420455  0.0186 0.454349 0.546151  0.0185436 0.370432 0.647738  0.0191298 0.258673 0.713894  0.019363 0.132374 0.73605  0.0198357 0.00736031 0.713436  0.0191121 -0.101224 0.64806  0.0176287 -0.181342 0.549237  0.0142982 -0.222916 0.427862  0.00991559 -0.222943 0.298278  0.00436854 -0.180839 0.174205  0.000561714 -0.103358 0.0695026  0 -8.9407e-08 -2.38419e-07  0 0 0  0.00282763 0.114717 0.0320318  0.00864026 0.213034 0.102772  0.0133936 0.282294 0.204641  0.0166577 0.312098 0.325794  0.0184483 0.299454 0.450809  0.0189102 0.244944 0.563798  0.0190777 0.156555 0.651021  0.0191196 0.0448318 0.701273  0.0195539 -0.0758225 0.70978  0.0197891 -0.190524 0.674957  0.0198321 -0.285519 0.602375  0.0188873 -0.348745 0.500504  0.0171013 -0.373659 0.382313  0.0141802 -0.356832 0.26193  0.0107126 -0.302224 0.153139  0.0066154 -0.216671 0.0681462  0.0029645 -0.11227 0.0153863  0 0 -2.38419e-07  0 0 0  0.00595073 0.104057 0.0870821  0.0138812 0.174472 0.208318  0.0181197 0.199656 0.348675  0.0200887 0.175315 0.490133  0.0199348 0.103597 0.615205  0.0194669 -0.0055486 0.708348  0.0188682 -0.138825 0.756905  0.0188934 -0.278702 0.757179  0.019208 -0.408917 0.707684  0.0195912 -0.513262 0.616686  0.0192779 -0.578626 0.493527  0.0181036 -0.597927 0.355076  0.0157573 -0.567573 0.216995  0.0126846 -0.493287 0.0969598  0.00928617 -0.383176 0.00909257  0.00592613 -0.253817 -0.0373716  0.00260997 -0.120637 -0.0380859  0 1.19209e-07 -2.38419e-07  0 0 0  0.00612567 0.0906504 0.138171  0.0110401 0.135135 0.305776  0.0120184 0.119508 0.483165  0.0104601 0.0424857 0.645157  0.00773251 -0.0852957 0.771155  0.00592589 -0.247097 0.846846  0.00476336 -0.423242 0.860838  0.00443053 -0.591453 0.813682  0.00519753 -0.732201 0.711154  0.00541461 -0.828245 0.565724  0.00514805 -0.867872 0.395086  0.0032475 -0.845767 0.220131  0.000483036 -0.764813 0.062098  -0.00320959 -0.634732 -0.059171  -0.00602627 -0.472112 -0.129281  -0.00736809 -0.297429 -0.140001  -0.00417161 -0.1344 -0.0914159  0 2.38419e-07 -2.38419e-07  0 0 0  -0.0138292 0.0692911 0.174677  -0.0157643 0.091303 0.380008  -0.022235 0.0406101 0.592754  -0.0258783 -0.0788555 0.777003  -0.0325676 -0.25657 0.909369  -0.0345072 -0.465871 0.973999  -0.0357698 -0.683213 0.961695  -0.0340055 -0.88016 0.878561  -0.0342948 -1.03591 0.728606  -0.032266 -1.13068 0.536818  -0.0343318 -1.15116 0.320056  -0.0354034 -1.09792 0.110175  -0.0408142 -0.971842 -0.0707865  -0.0438604 -0.794544 -0.198555  -0.0478683 -0.581635 -0.256849  -0.0443099 -0.366309 -0.242025  -0.0351741 -0.168141 -0.151462  0 3.57628e-07 -2.38419e-07  0 0 0  0.0246718 0.109656 -0.162525  0.0413173 0.254026 -0.264836  0.0527248 0.422533 -0.310557  0.0600784 0.595149 -0.293432  0.0631247 0.751389 -0.216637  0.0648628 0.873313 -0.0905204  0.0650896 0.944759 0.0694497  0.06488 0.958603 0.243526  0.0646869 0.91281 0.410113  0.065143 0.814517 0.550342  0.0660378 0.675423 0.646947  0.0670156 0.512405 0.690095  0.0669386 0.344852 0.674002  0.0648568 0.191475 0.601694  0.059655 0.0707745 0.481354  0.0493381 -0.00471901 0.328223  0.0292847 -0.0278546 0.162449  0 -3.57628e-07 -2.38419e-07  0 1.49012e-08 0  0.00656204 0.0863589 -0.0944211  0.0152574 0.196604 -0.151819  0.0220244 0.319559 -0.166062  0.0262247 0.439183 -0.135785  0.0288657 0.540517 -0.0644169  0.0300428 0.612673 0.0377052  0.0306886 0.645338 0.157898  0.030683 0.636711 0.281543  0.0310102 0.587032 0.392873  0.0312949 0.504096 0.480278  0.0320288 0.397517 0.532177  0.0322051 0.280205 0.544688  0.0318539 0.166374 0.514992  0.0297101 0.0680868 0.448058  0.025948 -0.00205411 0.351047  0.0188892 -0.0379688 0.235578  0.00847197 -0.0348252 0.114679  0 -2.23517e-07 -2.38419e-07  0 0 0  0.00106865 0.0707119 -0.0366001  0.00540403 0.149057 -0.0456371  0.00953406 0.226319 -0.0251086  0.0126733 0.29171 0.0223284  0.0145162 0.337559 0.0906265  0.0157565 0.357716 0.171108  0.016083 0.350263 0.253252  0.0164484 0.316184 0.326942  0.0164437 0.260524 0.383597  0.0168642 0.1902 0.416596  0.0168856 0.114106 0.422729  0.0169809 0.0414113 0.401452  0.0161693 -0.0195183 0.355941  0.0149136 -0.0616353 0.291408  0.0124683 -0.0807814 0.215439  0.00901866 -0.0750536 0.136064  0.00422716 -0.0461786 0.061209  0 -1.19209e-07 -2.38419e-07  0 0 0  -0.000222981 0.0588601 0.0179567  0.00242323 0.107847 0.0586357  0.0054183 0.140571 0.115941  0.00747329 0.152133 0.183051  0.00885725 0.140573 0.251086  0.0092895 0.107214 0.311545  0.00964344 0.0564577 0.3564  0.00961542 -0.00521076 0.380408  0.00988579 -0.0698739 0.380904  0.00988877 -0.129434 0.358261  0.00993931 -0.176402 0.315533  0.00940609 -0.205135 0.258405  0.00873947 -0.212252 0.194006  0.00753021 -0.197476 0.130149  0.00645852 -0.16314 0.0742018  0.00483346 -0.114251 0.0316851  0.00288939 -0.0572444 0.00636077  0 0 -2.38419e-07  0 0 0  -6.98715e-05 0.0477211 0.0713797  0.00183707 0.0689045 0.161076  0.0033015 0.058965 0.255663  0.00370318 0.0174363 0.343302  0.0033685 -0.0514076 0.412416  0.00286329 -0.13872 0.454038  0.00262511 -0.233812 0.463007  0.0025084 -0.324366 0.43803  0.00274706 -0.399751 0.38284  0.00279093 -0.449975 0.304232  0.00258672 -0.469426 0.211953  0.00179529 -0.455019 0.117918  0.000810385 -0.409074 0.0332646  -0.000255346 -0.337283 -0.0309174  -0.000627041 -0.248897 -0.0678096  -0.000309229 -0.155651 -0.0732112  0.000560999 -0.0685013 -0.0490344  0 1.19209e-07 -2.38419e-07  0 0 0  -0.00162785 0.0362895 0.123866  -0.00324512 0.031907 0.259773  -0.00499305 -0.0186539 0.391258  -0.00738257 -0.112952 0.499628  -0.00960469 -0.237993 0.570821  -0.0112419 -0.37864 0.595552  -0.0120413 -0.518068 0.570275  -0.0121529 -0.638319 0.498291  -0.0116644 -0.725474 0.388957  -0.0116606 -0.768354 0.255194  -0.0119138 -0.762068 0.113943  -0.0132101 -0.706353 -0.0176544  -0.0144446 -0.608842 -0.123147  -0.0154762 -0.480807 -0.189186  -0.0147307 -0.339089 -0.208348  -0.0116835 -0.20085 -0.178168  -0.00534916 -0.0832269 -0.104799  0 2.38419e-07 0  0 0 0  -0.0152619 0.0253189 0.168211  -0.0242728 -0.00198412 0.347078  -0.0287466 -0.09159 0.516128  -0.0341069 -0.235308 0.648552  -0.0378734 -0.415125 0.725017  -0.0405603 -0.609016 0.735862  -0.0406078 -0.791944 0.679928  -0.0408057 -0.944291 0.564463  -0.0391794 -1.04571 0.404403  -0.0394874 -1.08477 0.21614  -0.0393765 -1.05667 0.0264492  -0.041867 -0.962542 -0.144603  -0.0433722 -0.816341 -0.273092  -0.0453484 -0.632808 -0.344079  -0.0429294 -0.438936 -0.348799  -0.037266 -0.255977 -0.286485  -0.0234141 -0.10838 -0.168923  0 3.57628e-07 0  0 0 0  -0.00228687 0.0365321 -0.170196  0.00179771 0.124404 -0.305231  0.00905704 0.25385 -0.402066  0.0148122 0.408939 -0.447495  0.0186211 0.570924 -0.436428  0.0201329 0.721353 -0.368963  0.0206403 0.840173 -0.254915  0.0200695 0.913994 -0.106987  0.0196464 0.933979 0.055372  0.0195217 0.898092 0.214479  0.0203991 0.811788 0.349947  0.0216691 0.684525 0.447184  0.0230556 0.533074 0.494195  0.0230761 0.373507 0.485815  0.0212123 0.225337 0.423757  0.018084 0.103847 0.315045  0.0121889 0.0245886 0.173437  0 -3.57628e-07 0  0 1.49012e-08 0  -0.000495002 0.0254471 -0.106676  0.00190911 0.0825592 -0.193371  0.00640005 0.166223 -0.254754  0.0101587 0.266969 -0.281191  0.0125027 0.370934 -0.270823  0.0138482 0.465929 -0.224554  0.0144794 0.540847 -0.149065  0.0146298 0.585851 -0.0532568  0.0145212 0.597391 0.0513282  0.0147016 0.57315 0.152195  0.0151548 0.517493 0.238236  0.0159369 0.436375 0.29845  0.0165381 0.339881 0.327128  0.016531 0.239185 0.319667  0.0151801 0.145249 0.278027  0.0125601 0.0687838 0.2064  0.00663042 0.0183338 0.112348  0 -2.23517e-07 0  0 0 0  -0.0014462 0.0134115 -0.049613  -0.000518352 0.0413897 -0.0883613  0.00184232 0.0811341 -0.113095  0.00423223 0.127712 -0.120594  0.00576442 0.175073 -0.110399  0.00687957 0.216667 -0.0838394  0.00748253 0.247936 -0.0449648  0.00768089 0.26513 0.00141263  0.00769901 0.266969 0.0500884  0.00779831 0.25329 0.0954092  0.00803816 0.226132 0.132417  0.00840926 0.188787 0.156819  0.00879145 0.145597 0.166163  0.00899792 0.101503 0.15915  0.00871563 0.0611376 0.136436  0.00754118 0.0287707 0.100197  0.00427604 0.00812837 0.053575  0 -1.19209e-07 0  0 0 0  -0.00248563 0.00234413 0.00515795  -0.00275126 0.00193387 0.0152698  -0.00189915 -0.00168544 0.0275028  -0.000937462 -0.00863868 0.0401123  -0.000203967 -0.0185978 0.0510809  0.000317097 -0.030899 0.0586135  0.000650764 -0.0437055 0.0611982  0.000751257 -0.0553084 0.0584986  0.000803232 -0.0637392 0.0512843  0.000851393 -0.0678659 0.040509  0.000883818 -0.0669225 0.0280173  0.000973225 -0.060831 0.015605  0.00122523 -0.0506369 0.0050962  0.00171876 -0.0377564 -0.00217152  0.00251389 -0.0242957 -0.00576806  0.00321031 -0.0123601 -0.00588775  0.00259662 -0.0036124 -0.00369549  0 0 0  0 0 0  -0.00238268 -0.00778568 0.0593104  -0.00380114 -0.0363119 0.118208  -0.00458685 -0.0829265 0.167458  -0.00526953 -0.143163 0.200593  -0.00591743 -0.210377 0.212603  -0.00631428 -0.276697 0.201735  -0.00650692 -0.333801 0.168341  -0.0065192 -0.374725 0.117136  -0.0064187 -0.394007 0.0540223  -0.00638664 -0.389187 -0.0128205  -0.00653684 -0.360538 -0.0751846  -0.00671291 -0.311404 -0.12472  -0.00660253 -0.247813 -0.155428  -0.00586915 -0.178 -0.163238  -0.00420499 -0.110575 -0.147627  -0.00169587 -0.0543497 -0.111184  0.000486612 -0.0154796 -0.0599244  0 1.19209e-07 0  0 0 0  -0.00216584 -0.0170838 0.114908  -0.00485083 -0.0727991 0.221407  -0.00816736 -0.162775 0.307459  -0.0108072 -0.277254 0.36062  -0.0130677 -0.40146 0.373919  -0.0144932 -0.521341 0.3442  -0.0147405 -0.622807 0.27486  -0.0149184 -0.692883 0.175345  -0.0145526 -0.723059 0.0568209  -0.0145137 -0.709007 -0.0660076  -0.0148785 -0.653368 -0.17813  -0.0153426 -0.560726 -0.264358  -0.0155983 -0.444275 -0.315414  -0.0145471 -0.317511 -0.322916  -0.0120611 -0.196591 -0.288624  -0.00776196 -0.0968505 -0.215351  -0.0028317 -0.0281585 -0.115219  0 2.38419e-07 0  0 0 0  -0.00501223 -0.0247736 0.171374  -0.00835437 -0.107463 0.325969  -0.0126103 -0.241384 0.449997  -0.0176044 -0.410489 0.523707  -0.0218849 -0.593315 0.536902  -0.0237972 -0.768035 0.488682  -0.024322 -0.913618 0.382553  -0.0238699 -1.01349 0.233931  -0.0226279 -1.05408 0.0587714  -0.0224469 -1.03149 -0.120925  -0.0227689 -0.947267 -0.28264  -0.0239412 -0.811009 -0.407087  -0.0245757 -0.640153 -0.477479  -0.0237892 -0.455432 -0.485409  -0.0201349 -0.281324 -0.430262  -0.0137315 -0.139091 -0.320454  -0.00641656 -0.0453822 -0.173343  0 3.57628e-07 0  0 0 0  -0.0261971 -0.0264095 -0.164163  -0.0349208 0.00354722 -0.33027  -0.0327076 0.0913349 -0.47785  -0.0302401 0.223638 -0.585108  -0.0268254 0.386391 -0.639898  -0.024376 0.559006 -0.634109  -0.0243175 0.722096 -0.569483  -0.02485 0.853106 -0.454107  -0.0261246 0.938555 -0.30069  -0.0264733 0.966822 -0.129372  -0.0261985 0.935914 0.0413005  -0.0243788 0.849747 0.188681  -0.0221558 0.718495 0.297592  -0.0198865 0.558997 0.353615  -0.0192435 0.387562 0.35152  -0.0194542 0.224107 0.290139  -0.0145419 0.0872295 0.174381  0 -3.57628e-07 0  0 1.49012e-08 0  -0.00431679 -0.0361644 -0.114934  -0.00865337 -0.032663 -0.23424  -0.00844553 0.0133723 -0.342435  -0.00612378 0.0944896 -0.427244  -0.00395471 0.200769 -0.477775  -0.00286084 0.320022 -0.488528  -0.00172627 0.436462 -0.457055  -0.00205708 0.537213 -0.388923  -0.00212896 0.608572 -0.291147  -0.00274765 0.644316 -0.175312  -0.00210392 0.638371 -0.0560169  -0.00143766 0.593327 0.0537984  0.000450373 0.513718 0.139416  0.00174022 0.409382 0.192647  0.0026567 0.29244 0.205026  0.00157356 0.174563 0.176167  0.000813723 0.0718248 0.106355  0 -2.23517e-07 0  0 0 0  -0.00287285 -0.0457491 -0.0614538  -0.00487393 -0.0686855 -0.131581  -0.00515226 -0.0652394 -0.202334  -0.00416297 -0.0370959 -0.265485  -0.0030123 0.0126035 -0.31352  -0.00206196 0.0764848 -0.340883  -0.00116956 0.147042 -0.344813  -0.000915408 0.216063 -0.325427  -0.00119507 0.275425 -0.284082  -0.00121999 0.318599 -0.225634  -0.00112319 0.339878 -0.157226  -0.000351667 0.337485 -0.086447  0.000752926 0.311277 -0.022171  0.00239778 0.264454 0.0285678  0.00381184 0.2024 0.0586171  0.0041244 0.131925 0.0645082  0.0025351 0.0617257 0.0443826  0 -1.19209e-07 2.38419e-07  0 0 0  -0.00417434 -0.0548994 -0.00692916  -0.0075658 -0.104777 -0.0269611  -0.00894845 -0.144189 -0.0598669  -0.00937349 -0.169638 -0.101638  -0.00930697 -0.178435 -0.14781  -0.00862682 -0.169866 -0.19334  -0.00828969 -0.14503 -0.233466  -0.00812757 -0.106581 -0.263407  -0.00814998 -0.058924 -0.278935  -0.00813293 -0.00743398 -0.278183  -0.00810647 0.0416717 -0.2609  -0.00764811 0.0828463 -0.228752  -0.00666714 0.110796 -0.185564  -0.00501227 0.12202 -0.136162  -0.00253916 0.114807 -0.0871427  2.83718e-05 0.0898566 -0.0448222  0.0013876 0.0503787 -0.0147457  0 0 2.38419e-07  0 0 0  -0.00387527 -0.0628546 0.0476089  -0.00842729 -0.141047 0.0775673  -0.0117226 -0.224213 0.0828176  -0.0139529 -0.303716 0.0620515  -0.0150744 -0.370545 0.0172317  -0.015667 -0.417096 -0.0472798  -0.0156105 -0.437564 -0.123738  -0.0153838 -0.428949 -0.202888  -0.0151943 -0.392425 -0.275427  -0.0152229 -0.332088 -0.332009  -0.0152926 -0.254859 -0.365626  -0.0152251 -0.16984 -0.371475  -0.0143023 -0.0875214 -0.348814  -0.0126352 -0.0185384 -0.300032  -0.0095365 0.0288334 -0.231303  -0.00543594 0.0480611 -0.151775  -0.0010128 0.0377114 -0.0715706  0 1.19209e-07 2.38419e-07  0 0 0  -5.48512e-05 -0.071339 0.105095  -0.00308749 -0.179678 0.184097  -0.00804982 -0.30835 0.225435  -0.0127156 -0.442441 0.223512  -0.0152432 -0.566422 0.178517  -0.0169153 -0.666009 0.0937276  -0.0172812 -0.729934 -0.019563  -0.0169368 -0.749572 -0.148137  -0.0166428 -0.722187 -0.27634  -0.0166386 -0.651555 -0.389009  -0.0170821 -0.545904 -0.471767  -0.0175064 -0.41626 -0.514126  -0.0169368 -0.280556 -0.510041  -0.0153046 -0.154224 -0.460021  -0.0117605 -0.0544792 -0.371138  -0.00795436 0.00791264 -0.25408  -0.00274777 0.0249111 -0.124733  0 2.38419e-07 2.38419e-07  0 0 0  0.0124024 -0.0860026 0.17082  0.01434 -0.224296 0.297721  0.00928599 -0.400348 0.374355  0.00288218 -0.590549 0.38786  -0.00193739 -0.772603 0.337507  -0.00359595 -0.923891 0.229951  -0.00469959 -1.0288 0.0768533  -0.00424039 -1.07239 -0.103173  -0.00326693 -1.0524 -0.288248  -0.00261939 -0.967173 -0.456373  -0.00292277 -0.829484 -0.586795  -0.00359404 -0.652968 -0.661343  -0.00386405 -0.461918 -0.672755  -0.00208449 -0.279743 -0.616925  0.00158072 -0.128764 -0.503973  0.00646973 -0.0288292 -0.347658  0.00816703 0.0104665 -0.171447  0 3.57628e-07 2.38419e-07  0 0 0  -0.034282 -0.077 -0.159626  -0.0467778 -0.100998 -0.356724  -0.0480818 -0.0512184 -0.550771  -0.0460063 0.0568878 -0.711809  -0.0444837 0.216366 -0.828149  -0.0424022 0.40493 -0.878538  -0.0432314 0.605194 -0.862343  -0.0445509 0.786498 -0.779791  -0.0459937 0.930385 -0.639701  -0.047338 1.01775 -0.460596  -0.0471665 1.03967 -0.262488  -0.0457727 0.993484 -0.071413  -0.0426292 0.885087 0.0920336  -0.0394559 0.728682 0.206659  -0.0372813 0.540548 0.261114  -0.0379019 0.343539 0.246674  -0.0346193 0.154841 0.159947  0 -3.57628e-07 2.38419e-07  0 1.49012e-08 0  0.000432029 -0.0989729 -0.123982  -0.00597641 -0.14557 -0.278194  -0.00756803 -0.134813 -0.434219  -0.00662923 -0.0696674 -0.574343  -0.0049513 0.0399193 -0.684147  -0.00300294 0.18171 -0.746897  -0.00278521 0.339318 -0.757901  -0.00272429 0.490855 -0.715568  -0.00415766 0.620788 -0.623734  -0.00449216 0.711502 -0.494554  -0.00507343 0.753692 -0.342196  -0.00355208 0.741893 -0.187165  -0.00181293 0.677984 -0.045831  0.00138998 0.570494 0.0629029  0.00278997 0.430843 0.128139  0.00213909 0.276293 0.140059  -0.00161576 0.123742 0.095547  0 -2.23517e-07 2.38419e-07  0 0 0  -0.00141315 -0.108492 -0.0722232  -0.00297236 -0.181126 -0.175447  -0.00525239 -0.212928 -0.294129  -0.00505537 -0.201405 -0.412539  -0.00414377 -0.1477 -0.518771  -0.00292999 -0.0613194 -0.599059  -0.00171983 0.0493468 -0.644943  -0.00189316 0.169649 -0.651876  -0.00215006 0.286938 -0.616844  -0.00301421 0.385444 -0.544898  -0.00274312 0.454918 -0.444007  -0.00225329 0.48603 -0.32747  -0.000116825 0.475904 -0.207712  0.00238967 0.425715 -0.100745  0.00558043 0.341077 -0.0179944  0.00636029 0.233598 0.0287461  0.00311208 0.114586 0.0350471  0 -1.49012e-07 2.38419e-07  0 0 0  -0.00688334 -0.114272 -0.0173705  -0.0133054 -0.211728 -0.0675085  -0.0163298 -0.286271 -0.145603  -0.0185338 -0.330014 -0.241454  -0.0186167 -0.338087 -0.34466  -0.0179188 -0.309128 -0.44356  -0.0171084 -0.247631 -0.526482  -0.0169365 -0.159737 -0.584283  -0.0172065 -0.0561679 -0.609319  -0.0171139 0.0505983 -0.597236  -0.0175471 0.148722 -0.55127  -0.0166255 0.224837 -0.474901  -0.0154002 0.271847 -0.37831  -0.0124288 0.281623 -0.272603  -0.00842476 0.254944 -0.1702  -0.00319123 0.193274 -0.0855446  -9.05991e-05 0.106026 -0.0268292  0 0 2.38419e-07  0 0 0  -0.00804073 -0.116778 0.0363495  -0.0187271 -0.241232 0.0396316  -0.0257613 -0.360166 0.00244308  -0.0301235 -0.459923 -0.0703752  -0.0321744 -0.527874 -0.171412  -0.0327007 -0.557313 -0.288919  -0.0324497 -0.543433 -0.409106  -0.0317364 -0.488216 -0.517512  -0.0317498 -0.397667 -0.601453  -0.0314218 -0.283184 -0.650419  -0.0321119 -0.156951 -0.657423  -0.0314656 -0.0351475 -0.622444  -0.0305567 0.067437 -0.548026  -0.0276246 0.138173 -0.444159  -0.0234604 0.167657 -0.322244  -0.0156267 0.152134 -0.198311  -0.00601578 0.0937865 -0.087393  0 1.19209e-07 2.38419e-07  0 0 0  -0.00102137 -0.123766 0.0914767  -0.0107578 -0.278444 0.145087  -0.021151 -0.443039 0.145203  -0.0283369 -0.596794 0.0914991  -0.0322853 -0.722226 -0.00939751  -0.0340545 -0.804323 -0.146423  -0.0339856 -0.834018 -0.303196  -0.0329263 -0.808185 -0.460064  -0.0325462 -0.727737 -0.599532  -0.0326591 -0.603488 -0.705085  -0.0332754 -0.449506 -0.761914  -0.0335356 -0.283818 -0.76355  -0.0328043 -0.127869 -0.708965  -0.0304024 -0.000527799 -0.604338  -0.0258496 0.0818281 -0.463163  -0.0197248 0.109507 -0.301844  -0.00976992 0.0778615 -0.141969  0 2.38419e-07 2.38419e-07  0 0 0  0.0258543 -0.148927 0.157498  0.0254052 -0.338212 0.25427  0.0142844 -0.548605 0.284576  0.00378692 -0.753918 0.241814  -0.00225693 -0.931032 0.134136  -0.00564146 -1.06042 -0.0259695  -0.0054853 -1.12432 -0.221402  -0.00467682 -1.11911 -0.425651  -0.00321996 -1.04116 -0.616366  -0.0037185 -0.902949 -0.77221  -0.00360537 -0.717191 -0.870582  -0.00465775 -0.508709 -0.900902  -0.00439548 -0.301798 -0.856761  -0.0023787 -0.123744 -0.746488  0.00219679 0.00408959 -0.580712  0.00781822 0.0665202 -0.383477  0.0109532 0.0568954 -0.17724  0 3.57628e-07 2.38419e-07  0 0 0  0.00464652 -0.129472 -0.19158  -0.0113474 -0.195891 -0.425531  -0.0116975 -0.176312 -0.659889  -0.00932819 -0.077712 -0.866253  -0.00490421 0.0851217 -1.02855  -0.00639451 0.298451 -1.1237  -0.00553274 0.529439 -1.14107  -0.00751638 0.751212 -1.07684  -0.00901973 0.946007 -0.940618  -0.0116081 1.07499 -0.75004  -0.0117102 1.13802 -0.522383  -0.0111229 1.11604 -0.296054  -0.00724387 1.02011 -0.0841677  -0.00365925 0.85972 0.0728769  0.000152588 0.650934 0.172242  -0.00216341 0.423005 0.189999  -0.00833106 0.190993 0.126758  0 -3.57628e-07 4.76837e-07  0 1.49012e-08 0  0.0333062 -0.16376 -0.155327  0.031417 -0.254776 -0.349011  0.0293657 -0.268913 -0.546598  0.0314541 -0.213726 -0.736462  0.0325549 -0.0970506 -0.893167  0.0349976 0.0689596 -1.0026  0.0362515 0.263692 -1.04527  0.0342357 0.46486 -1.02192  0.0338304 0.641165 -0.932146  0.0310924 0.781714 -0.785269  0.0314388 0.860537 -0.604869  0.0310347 0.875269 -0.404601  0.0345008 0.821369 -0.218556  0.0369923 0.70536 -0.058512  0.0408707 0.545243 0.0476255  0.0381727 0.352239 0.0957532  0.0298119 0.160166 0.0748658  0 -2.23517e-07 4.76837e-07  0 0 0  0.013394 -0.177277 -0.0873239  0.0177704 -0.296475 -0.225994  0.0148984 -0.360087 -0.391742  0.0153642 -0.3626 -0.564177  0.0166162 -0.305499 -0.725877  0.0189899 -0.194116 -0.858831  0.0195533 -0.0440771 -0.944756  0.0199763 0.127451 -0.976045  0.0182259 0.301318 -0.945191  0.0177882 0.454868 -0.85941  0.0162261 0.569821 -0.725516  0.0174646 0.633707 -0.563218  0.0187857 0.637032 -0.389334  0.0232959 0.582568 -0.226769  0.0269637 0.474175 -0.0944083  0.0294218 0.328803 -0.00720596  0.0223491 0.162873 0.0252237  0 -1.49012e-07 4.76837e-07  0 0 0  -0.0128888 -0.174972 -0.023876  -0.0205619 -0.320675 -0.104331  -0.024185 -0.431688 -0.226279  -0.0270971 -0.495811 -0.377347  -0.026689 -0.504262 -0.539315  -0.0264545 -0.455552 -0.693552  -0.0250771 -0.356572 -0.821862  -0.0248188 -0.219049 -0.909182  -0.0241125 -0.0566323 -0.944222  -0.025835 0.107063 -0.92258  -0.0256701 0.256184 -0.846904  -0.0260303 0.369506 -0.726761  -0.0233347 0.436245 -0.57488  -0.0199661 0.446455 -0.412035  -0.0127926 0.399811 -0.255268  -0.00476527 0.302616 -0.127269  0.000737667 0.167094 -0.0381632  0 0 4.76837e-07  0 0 0  -0.0295088 -0.164096 0.0285969  -0.0496807 -0.333554 0.00513935  -0.0610846 -0.489722 -0.0714118  -0.0667085 -0.612362 -0.194864  -0.0692957 -0.685408 -0.351706  -0.0695736 -0.700889 -0.522657  -0.068511 -0.655773 -0.688007  -0.067512 -0.555486 -0.827124  -0.0675713 -0.411755 -0.92619  -0.0674572 -0.243147 -0.969578  -0.0688082 -0.0664741 -0.953886  -0.0679359 0.0932546 -0.8798  -0.0668428 0.219449 -0.755329  -0.0622177 0.294132 -0.597195  -0.055769 0.309818 -0.421985  -0.043045 0.262758 -0.254363  -0.02496 0.159601 -0.109882  0 1.19209e-07 4.76837e-07  0 0 0  -0.0306761 -0.159648 0.0711608  -0.0545515 -0.354001 0.0998068  -0.0712827 -0.55264 0.0643573  -0.0805895 -0.72865 -0.0330317  -0.0850038 -0.859279 -0.183119  -0.0862024 -0.931447 -0.367359  -0.0854536 -0.935002 -0.564952  -0.0842484 -0.870232 -0.750306  -0.0838009 -0.744514 -0.903515  -0.0842599 -0.573161 -1.00649  -0.0849857 -0.374433 -1.04399  -0.0852345 -0.174429 -1.01268  -0.0844543 0.00338924 -0.914855  -0.0805161 0.13586 -0.762544  -0.0742979 0.207401 -0.574448  -0.0635781 0.208368 -0.373011  -0.043802 0.138441 -0.179735  0 2.38419e-07 4.76837e-07  0 0 0  0.00509036 -0.188762 0.122932  -0.0148161 -0.417923 0.188857  -0.0331929 -0.655464 0.183804  -0.0452626 -0.876278 0.0985494  -0.0536243 -1.05406 -0.051563  -0.0555706 -1.16751 -0.254298  -0.054813 -1.20601 -0.481071  -0.052797 -1.16357 -0.708376  -0.0535423 -1.04381 -0.907451  -0.0525846 -0.86207 -1.05562  -0.0537022 -0.639767 -1.13218  -0.0547669 -0.404069 -1.13001  -0.0546241 -0.181421 -1.04712  -0.0507007 -0.00348455 -0.892123  -0.0455394 0.111798 -0.687469  -0.0358469 0.146271 -0.455489  -0.0250003 0.102719 -0.222834  0 3.57628e-07 4.76837e-07  0 7.45058e-09 0  0.00237034 0.0768173 -0.0370674  0.00607421 0.0824485 -0.0513358  -0.00470653 0.0892132 -0.0433805  -0.00971063 0.0842936 -0.0347252  0.00362465 0.16408 -0.0683739  0.00674417 0.0706131 -0.0582478  0.0196608 0.15711 -0.108659  0.0227889 0.0921377 -0.0739124  0 0 0  0.0241713 0.109004 -0.0650244  0 1.49012e-08 0  0 7.45058e-09 0  0.00265677 0.064462 -0.0425379  0 7.45058e-09 0  0.0405162 0.208912 -0.124511  0.0141928 0.114122 -0.0537684  0.0148966 0.180253 -0.0963399  -0.00141618 0.194364 -0.0804377  0.00687769 0.254998 -0.0856562  0.0208288 0.280135 -0.124261  0.00133729 0.305916 -0.102225  -0.0119243 0.283817 -0.0692031  0.00972572 0.347955 -0.0866365  0.0266377 0.245691 -0.141348  0.0337625 0.335575 -0.15912  0.0521133 0.276508 -0.182045  0.0488469 0.314949 -0.15921  0.0140384 0.221862 -0.0993659  0.0551463 0.423829 -0.17833  0.0301245 0.341135 -0.133826  0.0255645 0.380997 -0.13395  0.00522575 0.416359 -0.107589  0.0132684 0.438437 -0.0691421  0.0298865 0.48102 -0.124818  0.00910398 0.525696 -0.0890079  -0.00664935 0.487343 -0.038203  0.0158385 0.524692 -0.0372498  0.0377303 0.426273 -0.159245  0.0418169 0.515536 -0.143543  0.0664306 0.4748 -0.215332  0.0608979 0.531679 -0.174692  0.0213751 0.383344 -0.0998192  0.0649308 0.639091 -0.15484  0.0398599 0.57582 -0.134799  0.0338084 0.578068 -0.0991616  0.0118459 0.630414 -0.0556664  0.0187673 0.603576 0.0111659  0.0364961 0.668106 -0.0550385  0.014474 0.726243 -0.000282049  -0.00123417 0.667421 0.0627043  0.0208113 0.674532 0.0713451  0.0444286 0.600235 -0.111496  0.0471589 0.678909 -0.0650995  0.0750469 0.67084 -0.176011  0.0680907 0.738958 -0.113424  0.0265412 0.53405 -0.0414431  0.0708241 0.831924 -0.0566642  0.0456734 0.794632 -0.0552256  0.0388417 0.750669 0.00313425  0.016778 0.813508 0.0662973  0.0226242 0.731887 0.144239  0.0406722 0.820691 0.0755877  0.0191461 0.884844 0.151633  0.00215751 0.803054 0.219211  0.0233566 0.777146 0.2252  0.0488748 0.747578 -0.005826  0.0503846 0.804967 0.0648451  0.0800895 0.840966 -0.0707545  0.0733596 0.91182 0.0165961  0.0304028 0.655506 0.0658655  0.0747328 0.980685 0.101986  0.0512648 0.972913 0.095345  0.0423645 0.878043 0.158661  0.0198115 0.943604 0.245211  0.024312 0.806028 0.314238  0.0427136 0.918284 0.251485  0.0201678 0.980977 0.350398  0.0037635 0.875364 0.414445  0.0245082 0.821459 0.406826  0.0508088 0.848804 0.144926  0.0514934 0.878925 0.231831  0.0826192 0.964499 0.0875499  0.0751946 1.03005 0.19909  0.0320137 0.732626 0.209585  0.0756025 1.06437 0.303058  0.0521501 1.08872 0.299016  0.0430008 0.943803 0.34998  0.0203301 1.00474 0.458378  0.0247853 0.81846 0.500038  0.0430267 0.950709 0.450947  0.0209789 1.00431 0.570059  0.00377679 0.878084 0.622859  0.0244244 0.801185 0.591165  0.0515764 0.893439 0.321846  0.051795 0.892107 0.412884  0.0832269 1.02681 0.278656  0.076022 1.07844 0.410965  0.0328445 0.756671 0.371175  0.0758704 1.07638 0.520559  0.0533696 1.128 0.530189  0.0434356 0.941277 0.551454  0.0203528 0.989147 0.679514  0.0246956 0.766464 0.67745  0.0429944 0.912803 0.64792  0.0201244 0.950487 0.783598  0.00382614 0.808344 0.818346  0.0246329 0.719507 0.75742  0.0514174 0.874696 0.501956  0.0516566 0.842622 0.587035  0.0831511 1.02034 0.478829  0.0753651 1.05219 0.626158  0.0327051 0.724141 0.530429  0.0753503 1.01231 0.726899  0.0519693 1.08617 0.760104  0.0429604 0.86969 0.738903  0.0200824 0.899939 0.880767  0.0249887 0.658386 0.825865  0.0430518 0.811126 0.819606  0.0210217 0.828902 0.964976  0.00406086 0.678313 0.977812  0.0249463 0.587941 0.883476  0.0516592 0.796923 0.664307  0.0520881 0.738705 0.73207  0.0830292 0.946941 0.663378  0.0757846 0.95477 0.817545  0.0331057 0.640604 0.6679  0.0759959 0.884019 0.898889  0.0531292 0.969345 0.960425  0.0438073 0.740613 0.889397  0.0208567 0.748251 1.03797  0.0256261 0.507507 0.926231  0.0438708 0.658406 0.943925  0.0213424 0.653403 1.09183  0.00519967 0.502333 1.08069  0.0260023 0.42188 0.956412  0.0521069 0.669681 0.788075  0.0527874 0.592127 0.831699  0.083619 0.816106 0.810287  0.0760469 0.799171 0.963225  0.0334405 0.51628 0.766929  0.0766989 0.705554 1.01377  0.0529659 0.792417 1.10746  0.0443795 0.568615 0.984999  0.0219216 0.553943 1.13292  0.0266193 0.332764 0.968837  0.0448796 0.473568 1.00845  0.0233188 0.447129 1.15111  0.00628066 0.30372 1.11781  0.0266219 0.24334 0.967166  0.0531486 0.509091 0.860732  0.0537956 0.422502 0.874667  0.0845612 0.644457 0.902686  0.0776781 0.604816 1.0455  0.0343895 0.367282 0.816873  0.078264 0.499871 1.06173  0.0554831 0.577518 1.18416  0.0458111 0.376265 1.01608  0.0232898 0.339996 1.15473  0.0269556 0.15555 0.947848  0.0456325 0.279485 1.00468  0.023399 0.233961 1.13477  0.0069021 0.105602 1.08278  0.0265796 0.0715196 0.915691  0.0537013 0.334902 0.872784  0.0539124 0.248407 0.856136  0.0855858 0.452519 0.930024  0.078204 0.394672 1.05613  0.0345862 0.211286 0.811785  0.0783157 0.291254 1.03451  0.0554409 0.350209 1.18228  0.0454595 0.185224 0.978286  0.0230906 0.132265 1.10216  0.0259421 -0.00416288 0.86767  0.0447052 0.097771 0.934975  0.0228887 0.0391602 1.04727  0.00535941 -0.0690227 0.983114  0.0242021 -0.071493 0.808643  0.0532877 0.166676 0.824743  0.0524881 0.0914465 0.779604  0.0852821 0.262971 0.889938  0.0780945 0.194045 0.993818  0.0340235 0.0667128 0.753646  0.0769506 0.103021 0.938649  0.0557191 0.137374 1.10255  0.0438321 0.018332 0.878121  0.0207148 -0.0452534 0.981037  0.0223401 -0.126658 0.736993  0.0412114 -0.0490511 0.806816  0.0177405 -0.114207 0.897204  0.000952721 -0.198671 0.828181  0.0192537 -0.171179 0.657683  0.0503771 0.0251643 0.721478  0.0481026 -0.0313669 0.652766  0.0827696 0.0977957 0.786961  0.074378 0.0254303 0.866344  0.0310843 -0.0495436 0.648769  0.0712175 -0.041319 0.782793  0.0504975 -0.0362928 0.954482  0.0379829 -0.105297 0.725557  0.0138381 -0.172101 0.806363  0.0157032 -0.199478 0.571451  0.0336244 -0.146054 0.635398  0.00912309 -0.209696 0.703597  -0.00770712 -0.270582 0.637901  0.0105484 -0.214721 0.481461  0.0443797 -0.0750778 0.575566  0.0399249 -0.105629 0.491893  0.076344 -0.0242917 0.633358  0.0670743 -0.0913142 0.68818  0.0258977 -0.124658 0.510133  0.0609844 -0.128142 0.58604  0.0420735 -0.151196 0.75499  0.0284579 -0.172255 0.539554  0.00240588 -0.233675 0.597104  0.0056541 -0.212941 0.389352  0.0214958 -0.180493 0.439955  -0.00561714 -0.234953 0.48655  -0.019006 -0.273944 0.431716  6.46114e-05 -0.197939 0.2972  0.0333974 -0.120927 0.403733  0.0263865 -0.122737 0.313396  0.0640924 -0.0891989 0.446899  0.0531542 -0.143532 0.479493  0.0170045 -0.149629 0.35275  0.0435238 -0.144677 0.370362  0.0253124 -0.193592 0.526625  0.0136809 -0.173622 0.339398  -0.0131004 -0.223508 0.376662  -0.00387049 -0.166811 0.21079  0.00701094 -0.150235 0.2426  -0.0176187 -0.189693 0.271451  -0.0260882 -0.21075 0.233829  -0.0060451 -0.122897 0.13002  0.0184343 -0.109591 0.225483  0.0108712 -0.0826972 0.141162  0.0435314 -0.0924656 0.251538  0.0336962 -0.127418 0.265375  0.00653863 -0.122664 0.194642  0.0220816 -0.0971046 0.163021  0.00676799 -0.162147 0.295146  0.00189042 -0.111888 0.150109  -0.021744 -0.142406 0.170052  -0.0046823 -0.0637107 0.0590799  -0.00150871 -0.0582734 0.0694184  -0.0107961 -0.0707504 0.0806952  -0.0115168 -0.0788459 0.0680115  0 -2.23517e-07 -2.38419e-07  0.00474882 -0.0444053 0.0648725  0 -2.90573e-07 -2.38419e-07  0.013495 -0.0448603 0.0737486  0.0070827 -0.0544067 0.0733497  0.000394106 -0.0475244 0.0552685  0 -3.57628e-07 -2.38419e-07  -0.00235796 -0.0602576 0.0828657  0 -2.90573e-07 -2.38419e-07  0 -2.6077e-07 -4.76837e-07  0 0 0  -1.08853e-05 0.0739538 -0.0108755  0.00106161 0.0746942 -0.0243163  -0.00980194 0.084363 -0.0240495  -0.00656758 0.0860122 -0.0109417  -0.00032194 0.150545 -0.0154641  0.00098265 0.0617989 -0.0280108  0.00442171 0.131619 -0.0495889  0 0 0  0 0 0  0.000500724 0.0606229 -0.0150769  0 0 0  -0.000284463 0.15466 -0.0418739  -0.0132814 0.173604 -0.0339093  0.00146908 0.226664 -0.0057106  0.00178489 0.237964 -0.0458994  -0.0137166 0.269921 -0.0321894  -0.00915717 0.263669 0.00478864  0.00264239 0.302155 0.0154977  0.00784117 0.20374 -0.058172  0.0106172 0.27546 -0.0558925  0.00484848 0.189216 -0.0184128  0.00336111 0.322034 -0.0361824  -0.0111877 0.364494 -0.0166707  0.00554797 0.371294 0.052357  0.00670767 0.402335 -0.00935841  -0.00913286 0.455602 0.01946  -0.00459954 0.430536 0.0796735  0.00767636 0.435391 0.100077  0.012668 0.345674 -0.038753  0.0150664 0.412003 -0.0097065  0.00895154 0.312202 0.0230997  0.00849062 0.477734 0.030026  -0.00641206 0.540184 0.0669897  0.0103929 0.487657 0.159443  0.0111834 0.543941 0.0831552  -0.00434822 0.613411 0.133133  0.000567734 0.562961 0.209871  0.0120013 0.531149 0.227241  0.016841 0.47214 0.0315461  0.0189322 0.524341 0.0824115  0.0128693 0.413362 0.107021  0.0130699 0.601405 0.146523  -0.0019787 0.675478 0.208028  0.013805 0.561024 0.301692  0.0149223 0.645637 0.220148  -0.00103837 0.721889 0.296553  0.0033772 0.643466 0.38034  0.0141571 0.579179 0.380438  0.0202535 0.56682 0.141972  0.021345 0.598545 0.208066  0.0160594 0.480418 0.221787  0.0153471 0.677528 0.300206  9.20892e-05 0.75556 0.388412  0.0152444 0.580846 0.461025  0.0163435 0.693612 0.384857  0.000345588 0.768445 0.487621  0.00504255 0.660085 0.567951  0.0153199 0.570537 0.541667  0.0217678 0.617814 0.27937  0.0224565 0.62515 0.352742  0.0175477 0.503688 0.35326  0.0165589 0.696785 0.471206  0.000967383 0.767548 0.585759  0.0158439 0.545742 0.618218  0.0170312 0.683315 0.556455  0.000542641 0.745955 0.683746  0.00489593 0.611775 0.751401  0.0152471 0.509396 0.689991  0.0225598 0.619595 0.42608  0.0227206 0.601779 0.497067  0.0182813 0.481791 0.485306  0.0164641 0.656516 0.638201  0.000674605 0.712739 0.775657  0.0157608 0.4596 0.752219  0.0168346 0.614941 0.712862  0.000525236 0.659299 0.859238  0.00529718 0.504616 0.904638  0.0156456 0.400928 0.806489  0.0225333 0.571392 0.563654  0.022909 0.530779 0.623797  0.0183438 0.416516 0.600374  0.0168278 0.562734 0.780194  0.00107384 0.596363 0.93293  0.01623 0.334079 0.848246  0.0173486 0.498833 0.835841  0.000975609 0.518153 0.993037  0.00547814 0.352133 1.01204  0.0158898 0.261612 0.878865  0.0229329 0.480601 0.675523  0.0232167 0.42275 0.717431  0.018723 0.317312 0.685853  0.0170606 0.427199 0.880183  0.00152445 0.435073 1.04106  0.0166544 0.185156 0.893607  0.0177469 0.349021 0.909671  0.00193548 0.342213 1.06977  0.00678873 0.174943 1.0586  0.0167866 0.107026 0.89664  0.02324 0.358274 0.747979  0.0238385 0.290197 0.767057  0.0190196 0.196457 0.730236  0.0180683 0.267479 0.926821  0.00287962 0.248384 1.08499  0.0174094 0.0306287 0.884916  0.0187303 0.184448 0.927662  0.00300252 0.151584 1.08015  0.00742042 -0.00745767 1.04149  0.0169169 -0.0430653 0.861152  0.0239744 0.220138 0.773678  0.0242249 0.150446 0.767952  0.0195582 0.0687847 0.730344  0.0183681 0.102631 0.915012  0.00343668 0.0585915 1.06308  0.0171897 -0.10978 0.822736  0.0186434 0.0251175 0.886888  0.00327301 -0.0297316 1.025  0.0078454 -0.17041 0.962286  0.0165107 -0.170584 0.774331  0.0239528 0.0827478 0.749381  0.0239828 0.0194086 0.719807  0.0193583 -0.0494861 0.685359  0.0181732 -0.0473697 0.847238  0.00319695 -0.110524 0.976064  0.0159907 -0.22087 0.715702  0.0176456 -0.110875 0.794126  0.00174022 -0.181046 0.909746  0.00587583 -0.297752 0.831007  0.0140474 -0.261775 0.649527  0.0232096 -0.0378114 0.679403  0.0222411 -0.0872155 0.629778  0.0184391 -0.145526 0.602264  0.0156958 -0.165211 0.731403  0.000209332 -0.241224 0.836474  0.0127058 -0.288227 0.576501  0.0140951 -0.206684 0.659457  -0.00247312 -0.284705 0.74981  0.00218439 -0.371779 0.664126  0.010222 -0.304135 0.499398  0.0204885 -0.12722 0.571477  0.0187826 -0.157265 0.507424  0.0159128 -0.206832 0.490525  0.0114284 -0.23735 0.58164  -0.00522208 -0.315893 0.659482  0.00797939 -0.30592 0.420991  0.00865722 -0.252788 0.499116  -0.00953746 -0.328353 0.561959  -0.00431871 -0.386481 0.479252  0.00443172 -0.296068 0.342391  0.0161574 -0.175981 0.438828  0.0131392 -0.183348 0.367749  0.0121968 -0.228214 0.363313  0.00442362 -0.255503 0.41439  -0.0137296 -0.328919 0.465325  0.00198984 -0.271301 0.267138  0.00102401 -0.242764 0.330548  -0.0181568 -0.308218 0.368231  -0.0105023 -0.338804 0.299384  -0.000757217 -0.236159 0.195297  0.00946045 -0.178139 0.295701  0.00598931 -0.162012 0.224841  0.0070219 -0.206472 0.234993  -0.00267982 -0.218376 0.248194  -0.0211136 -0.275695 0.276084  -0.00229812 -0.190069 0.131258  -0.00467277 -0.179523 0.17239  -0.0216694 -0.224545 0.191074  -0.0128505 -0.235302 0.143898  -0.00288868 -0.135092 0.0757158  0.00259399 -0.134546 0.157827  0.000252724 -0.0970129 0.0961804  0.00209141 -0.145981 0.118493  -0.00551486 -0.129678 0.103515  -0.0202324 -0.164604 0.114186  -0.00171638 -0.0701237 0.0324552  -0.00387597 -0.0677911 0.0459425  -0.00997806 -0.0854225 0.0536582  -0.00526333 -0.0879813 0.0359473  0 -8.9407e-08 -2.38419e-07  -0.000204563 -0.0503275 0.0425975  0 -1.78814e-07 -2.38419e-07  5.84126e-05 -0.0534017 0.0300078  0 -1.78814e-07 -2.38419e-07  0 -1.49012e-07 -4.76837e-07  0 0 0  0.00110852 0.0737481 0.0152619  0.000865333 0.0743456 0.00270748  -0.00197941 0.0884979 0.00289512  0.00293808 0.0896193 0.019495  0.00468414 0.144372 0.040761  0.000374831 0.0595329 -0.00101733  0.00227688 0.119388 0.00488782  0 0 0  0 0 0  0.000567533 0.0585781 0.0114262  0 0 0  0.00126758 0.146826 0.0128334  -0.00173044 0.173436 0.0183558  0.00814307 0.207768 0.0779834  0.00381932 0.216578 0.0358405  -0.000464186 0.257023 0.0460858  0.0105312 0.250701 0.0911691  0.0117071 0.266518 0.125289  0.00458294 0.177372 0.0229008  0.00691223 0.232074 0.0497515  0.00570083 0.166372 0.0634449  0.00586945 0.28334 0.0700815  0.00292623 0.334461 0.0878925  0.014928 0.31408 0.183167  0.00915226 0.341986 0.117215  0.00540993 0.404853 0.14481  0.0186057 0.378948 0.21386  0.0178559 0.35388 0.249171  0.00899366 0.281014 0.0868361  0.0111964 0.323584 0.132265  0.0110143 0.251367 0.150432  0.0114833 0.393846 0.173558  0.00908715 0.464718 0.212678  0.0199293 0.378587 0.320687  0.0142045 0.432717 0.239131  0.0109064 0.510984 0.291456  0.0244826 0.458507 0.376703  0.0217667 0.392684 0.397281  0.0128992 0.356876 0.1851  0.0145007 0.381032 0.24312  0.0150608 0.301962 0.263568  0.0156083 0.461734 0.311126  0.0136471 0.54466 0.376848  0.0229527 0.391493 0.473717  0.0173721 0.475592 0.386808  0.0140522 0.56102 0.468042  0.0276586 0.476601 0.559238  0.0237433 0.379196 0.550603  0.0158321 0.394383 0.304785  0.016819 0.397998 0.367981  0.0175543 0.310561 0.388389  0.0179996 0.479495 0.46434  0.0156873 0.563119 0.55959  0.0241344 0.352092 0.622475  0.018977 0.466731 0.54097  0.0154685 0.54728 0.651317  0.0285492 0.431379 0.736895  0.024175 0.313987 0.690504  0.0172197 0.389633 0.430598  0.017499 0.371063 0.491144  0.0187029 0.276675 0.509158  0.0187821 0.442811 0.615175  0.0164632 0.517527 0.73904  0.0241497 0.264617 0.747976  0.019243 0.405346 0.682213  0.0154099 0.471831 0.81936  0.0284432 0.327863 0.888193  0.0241718 0.2066 0.798516  0.0177933 0.342319 0.547173  0.0179543 0.305164 0.59762  0.0188426 0.204226 0.610567  0.018972 0.358939 0.743694  0.0161725 0.414775 0.890188  0.0242159 0.140886 0.835454  0.0194163 0.300872 0.793502  0.0156413 0.344605 0.949303  0.0283494 0.18101 0.993419  0.0242513 0.069497 0.862178  0.0178812 0.25957 0.639716  0.0179492 0.207712 0.673408  0.0189893 0.102829 0.680533  0.0190971 0.236118 0.834057  0.0166602 0.266651 0.996285  0.024457 -0.00367063 0.873672  0.0196447 0.165846 0.860483  0.0159729 0.181662 1.0274  0.028882 0.00772017 1.04079  0.024783 -0.0789559 0.874284  0.0182235 0.151154 0.697094  0.0184726 0.0918027 0.710978  0.0191538 -0.0148626 0.710202  0.0196187 0.0923578 0.876788  0.0171434 0.0941023 1.04407  0.0250734 -0.15138 0.859581  0.0202827 0.0175536 0.876799  0.0170969 0.00422138 1.04337  0.02978 -0.16882 1.02539  0.0252662 -0.221666 0.833409  0.0185173 0.0314324 0.71314  0.0186681 -0.0283185 0.70478  0.0195898 -0.134339 0.697139  0.0201404 -0.0564618 0.865421  0.0183846 -0.0839965 1.02859  0.0253597 -0.2836 0.794411  0.0206524 -0.125704 0.839756  0.0177716 -0.167458 0.997121  0.0305728 -0.32882 0.948972  0.0253649 -0.340318 0.745739  0.018883 -0.085315 0.685815  0.018921 -0.138236 0.65754  0.019709 -0.240498 0.642672  0.0203769 -0.191039 0.80429  0.0186623 -0.243878 0.953098  0.025019 -0.385129 0.687167  0.0204967 -0.247064 0.755538  0.0179257 -0.311103 0.894182  0.0303735 -0.451762 0.822396  0.0243371 -0.42122 0.62118  0.0185356 -0.184583 0.619694  0.0180602 -0.223916 0.574231  0.0193623 -0.320998 0.554343  0.0195205 -0.295485 0.698622  0.0181561 -0.368391 0.825603  0.0232968 -0.442901 0.550704  0.0189316 -0.331297 0.633748  0.0160859 -0.411575 0.747162  0.02862 -0.523893 0.659505  0.022027 -0.454666 0.476114  0.0174372 -0.254595 0.52238  0.0164723 -0.276556 0.466012  0.0179555 -0.365527 0.442887  0.017329 -0.358239 0.563842  0.0152807 -0.441666 0.663557  0.0203316 -0.451285 0.401528  0.0160179 -0.369714 0.489635  0.0125668 -0.455487 0.57418  0.0250013 -0.536527 0.481523  0.0183408 -0.436831 0.326805  0.0150161 -0.287592 0.40646  0.0134106 -0.288904 0.345477  0.0156469 -0.369842 0.321874  0.0135362 -0.370656 0.413935  0.0108469 -0.455712 0.483745  0.0161104 -0.409043 0.257699  0.0115995 -0.357204 0.340039  0.00689077 -0.439444 0.394444  0.0198755 -0.488332 0.307949  0.0138628 -0.371567 0.191833  0.0117366 -0.279807 0.284979  0.00973606 -0.261888 0.226308  0.0123863 -0.333425 0.205935  0.00880551 -0.334513 0.267674  0.00455809 -0.410095 0.309488  0.0114403 -0.323305 0.134983  0.00667715 -0.297559 0.201428  0.00110865 -0.36524 0.229856  0.0142453 -0.387042 0.160397  0.00910378 -0.267465 0.0853655  0.00749135 -0.233825 0.171774  0.00525165 -0.198299 0.121835  0.008641 -0.262317 0.107574  0.00389075 -0.252628 0.140546  -0.000537872 -0.309714 0.158379  0.00670123 -0.205801 0.0480883  0.00226903 -0.198447 0.0900846  -0.00265503 -0.243303 0.0990889  0.00929403 -0.246188 0.0556996  0.0045085 -0.140111 0.0197971  0.00341249 -0.155427 0.0786812  0.00180411 -0.107664 0.0429339  0.00463438 -0.16599 0.0378919  0.000585794 -0.138984 0.0474894  -0.00263643 -0.170583 0.0516279  0.00222278 -0.0714024 0.00480199  -0.000180244 -0.0719603 0.0182698  -0.00246954 -0.0894649 0.0207295  0.00216103 -0.0878353 0.00404  0 0 -2.38419e-07  0.000884771 -0.0550042 0.0166643  0 -5.96046e-08 -2.38419e-07  0.00132227 -0.0567107 0.00356388  0 -5.96046e-08 -2.38419e-07  0 -5.96046e-08 -4.76837e-07  0 0 0  0.00405711 0.0707924 0.0424259  0.00266189 0.0729787 0.0291853  0.00898142 0.0899552 0.0356057  0.0138728 0.0878803 0.0548189  0.0125171 0.135236 0.0985096  0.00117268 0.0568415 0.0249722  0.00434537 0.109671 0.0597847  0 0 0  0 0 0  0.00182625 0.054661 0.0377498  0 0 0  0.00793858 0.140155 0.069684  0.0165123 0.172376 0.0791328  0.0180532 0.186916 0.163292  0.013101 0.198138 0.120762  0.0224482 0.242668 0.136055  0.0327424 0.231123 0.183637  0.0234971 0.229195 0.236128  0.00790536 0.155375 0.104563  0.0112822 0.193907 0.155939  0.0101798 0.14375 0.144947  0.0176232 0.248389 0.180687  0.0284995 0.303949 0.204394  0.0269557 0.255859 0.315235  0.0213668 0.285521 0.249804  0.0325273 0.35107 0.283445  0.0440197 0.319687 0.354001  0.0299226 0.270062 0.39928  0.0139579 0.221876 0.214751  0.0160116 0.240694 0.277415  0.016367 0.192419 0.277371  0.024388 0.312513 0.324499  0.0367432 0.386578 0.370756  0.0311599 0.26807 0.482896  0.0264774 0.323643 0.4028  0.0387385 0.403255 0.461862  0.0494033 0.343368 0.546831  0.0324697 0.252686 0.56734  0.017646 0.24686 0.342901  0.0186982 0.242896 0.408731  0.0193436 0.192791 0.420051  0.0279977 0.322929 0.482892  0.0411245 0.405243 0.556823  0.0321975 0.221722 0.645571  0.0288592 0.306054 0.560786  0.0410824 0.389502 0.649549  0.0501915 0.299416 0.737579  0.0321326 0.178302 0.719368  0.0194142 0.226155 0.47286  0.0197483 0.200253 0.533602  0.020072 0.144268 0.5554  0.0292366 0.278502 0.635874  0.0419422 0.358848 0.73886  0.0314792 0.122839 0.78262  0.0292404 0.236594 0.703442  0.0412938 0.313335 0.820272  0.0496014 0.192089 0.899981  0.0314342 0.0569993 0.837189  0.0200129 0.163028 0.588164  0.0197821 0.118345 0.636286  0.0197794 0.0525892 0.665873  0.0291532 0.185142 0.7647  0.0417039 0.253475 0.894205  0.030764 -0.0160751 0.876345  0.0289817 0.12305 0.812831  0.0406957 0.183109 0.954273  0.0489463 0.0369579 1.01631  0.0307012 -0.0956141 0.904412  0.0197358 0.0652614 0.674201  0.0196834 0.00744462 0.703712  0.01903 -0.0703381 0.737679  0.0288057 0.0547817 0.852066  0.0410337 0.103161 1.00208  0.0301874 -0.176728 0.916628  0.0287021 -0.0192723 0.876208  0.0403341 0.0174455 1.03418  0.0483674 -0.14573 1.07063  0.030661 -0.260197 0.9153  0.0198221 -0.0546969 0.721073  0.0196918 -0.11817 0.728579  0.0188043 -0.208683 0.762578  0.0288701 -0.0962606 0.889188  0.041188 -0.0740502 1.05142  0.0306685 -0.339784 0.897792  0.0291296 -0.173157 0.885567  0.040809 -0.164929 1.05136  0.0489007 -0.335828 1.05839  0.03116 -0.417073 0.867696  0.0199121 -0.18158 0.722908  0.0200912 -0.243285 0.707701  0.0189691 -0.345602 0.737409  0.0293436 -0.248971 0.871024  0.041797 -0.255034 1.03598  0.0311023 -0.48553 0.824331  0.0295613 -0.319626 0.841292  0.0416757 -0.339562 1.00477  0.0497134 -0.507264 0.981246  0.0317637 -0.547237 0.769021  0.0204033 -0.300473 0.680457  0.0203347 -0.352413 0.644619  0.0194054 -0.46452 0.666542  0.0298697 -0.385433 0.800997  0.0428444 -0.419207 0.958658  0.0315725 -0.595674 0.703683  0.0299954 -0.440651 0.748041  0.0424392 -0.487342 0.899436  0.0504841 -0.64227 0.848302  0.0315831 -0.634382 0.630147  0.0203929 -0.395937 0.59878  0.0202128 -0.432104 0.546635  0.0194681 -0.550459 0.557809  0.0297996 -0.488101 0.687379  0.0430472 -0.545315 0.829125  0.0306991 -0.657886 0.55204  0.029318 -0.521998 0.618338  0.0421292 -0.588987 0.750053  0.049916 -0.721908 0.677403  0.0302925 -0.668728 0.469111  0.0199268 -0.45722 0.488215  0.019109 -0.472969 0.426564  0.0187804 -0.593651 0.425449  0.0286551 -0.545614 0.544344  0.0421669 -0.619694 0.662753  0.0287926 -0.663141 0.386964  0.0275948 -0.553149 0.467359  0.0402741 -0.633237 0.572673  0.0478981 -0.73852 0.486857  0.0274401 -0.645068 0.304799  0.0182624 -0.476053 0.362624  0.0170939 -0.469776 0.298625  0.0169888 -0.587815 0.285178  0.0260856 -0.550106 0.389529  0.0392437 -0.632209 0.480564  0.0251563 -0.612708 0.228917  0.024266 -0.531528 0.313905  0.0365303 -0.614902 0.390793  0.0438318 -0.689284 0.302626  0.0234511 -0.567902 0.157547  0.0158308 -0.451238 0.236888  0.014111 -0.423986 0.178712  0.0142603 -0.535113 0.15433  0.0222998 -0.502414 0.241133  0.0347841 -0.582648 0.303077  0.0207958 -0.511538 0.0972893  0.0201197 -0.459448 0.176313  0.0312123 -0.536038 0.224244  0.0384474 -0.580494 0.143875  0.0185597 -0.446216 0.0451555  0.0125368 -0.385875 0.126817  0.0107584 -0.341396 0.0808437  0.0109441 -0.441242 0.0490472  0.0176148 -0.408682 0.117634  0.0287733 -0.477495 0.153176  0.0155761 -0.374773 0.0067246  0.0150795 -0.348084 0.0703404  0.0248692 -0.408839 0.0941622  0.0316937 -0.427957 0.0322745  0.0133069 -0.297986 -0.0202763  0.00906515 -0.289345 0.044095  0.00701404 -0.234105 0.0155504  0.00754642 -0.319888 -0.019242  0.0124769 -0.282677 0.0318067  0.0222008 -0.331151 0.0461912  0.0101352 -0.220722 -0.032022  0.00964451 -0.212733 0.00788689  0.0174766 -0.250459 0.0146341  0.0231612 -0.252703 -0.0225163  0.00711179 -0.143137 -0.0325627  0.00521255 -0.174969 -0.001791  0.00316811 -0.115792 -0.0105152  0.00413966 -0.186576 -0.0425792  0.00639892 -0.141864 -0.00672197  0.0135767 -0.167186 -0.00459647  0.00366044 -0.0700373 -0.0205252  0.0026288 -0.07101 -0.00711226  0.00530887 -0.0857143 -0.00984597  0.00730252 -0.0828485 -0.021414  0 1.19209e-07 -2.38419e-07  0.00166202 -0.0569969 -0.00851655  0 5.96046e-08 -2.38419e-07  0.00128818 -0.0581436 -0.0224965  0 5.96046e-08 -2.38419e-07  0 5.96046e-08 -4.76837e-07  0 0 0  0.00634368 0.0627639 0.0686853  0.00503434 0.0673133 0.055609  0.0188245 0.0844016 0.072386  0.021198 0.0796816 0.0895834  0.0168946 0.119617 0.152308  0.00197357 0.0515499 0.0504808  0.00632533 0.0974527 0.11317  0 0 0  0 0 0  0.00198127 0.0477518 0.0627756  0 0 0  0.0147925 0.12793 0.126093  0.0329729 0.160965 0.143056  0.0214677 0.159993 0.241637  0.0212993 0.17463 0.204051  0.0414504 0.217788 0.22883  0.0433961 0.201201 0.2719  0.025966 0.18636 0.336645  0.0103025 0.131456 0.183777  0.0132062 0.15413 0.258966  0.00894153 0.118624 0.220178  0.0260266 0.207739 0.288579  0.0483732 0.261647 0.321499  0.0269907 0.19344 0.435694  0.0292602 0.224357 0.378507  0.052013 0.285585 0.420375  0.0519463 0.24877 0.484045  0.0288328 0.184914 0.536346  0.0154373 0.162612 0.338507  0.0164456 0.158507 0.417888  0.0117577 0.133809 0.39522  0.0314209 0.227041 0.470204  0.0548736 0.295355 0.525635  0.0282112 0.157449 0.631926  0.0321226 0.211764 0.560168  0.0555933 0.283543 0.626932  0.0536845 0.222654 0.702571  0.0274012 0.11462 0.723604  0.0171278 0.138627 0.495547  0.0169191 0.107446 0.569277  0.0115311 0.0869496 0.566801  0.0321718 0.182699 0.647665  0.0558713 0.25614 0.728594  0.0254322 0.0556301 0.804017  0.0314831 0.137248 0.727283  0.0554286 0.210139 0.820558  0.0516167 0.120772 0.898127  0.0247199 -0.0163817 0.874709  0.0164293 0.06217 0.635984  0.0156354 0.00727618 0.694395  0.00904453 -0.0166828 0.712965  0.0306534 0.079231 0.799208  0.0549214 0.148956 0.9052  0.0232783 -0.0988596 0.930693  0.0298799 0.00938392 0.85884  0.0535394 0.0745897 0.975589  0.0495159 -0.0409756 1.04674  0.0225455 -0.189726 0.973293  0.0152342 -0.0578684 0.741344  0.0143403 -0.128688 0.777989  0.00684732 -0.16385 0.814474  0.029418 -0.06872 0.906345  0.0528207 -0.0118632 1.03531  0.0212008 -0.28507 0.996473  0.0287731 -0.153629 0.93713  0.0521743 -0.105383 1.07503  0.0468683 -0.243486 1.13007  0.0213042 -0.383481 1.00421  0.0139824 -0.205186 0.799385  0.0134883 -0.28328 0.808419  0.005216 -0.334806 0.860615  0.0281161 -0.242264 0.954642  0.052573 -0.203921 1.10022  0.0205916 -0.480057 0.993743  0.0278431 -0.331489 0.955184  0.0517706 -0.303798 1.10606  0.0457839 -0.456792 1.13949  0.020514 -0.574426 0.966459  0.0135309 -0.361357 0.802595  0.0132304 -0.437087 0.784188  0.00451684 -0.508996 0.843678  0.0281564 -0.420001 0.940049  0.0511277 -0.405929 1.09443  0.0207896 -0.660965 0.923171  0.0285689 -0.503278 0.909153  0.0516472 -0.501836 1.06495  0.0458745 -0.661641 1.07238  0.0220008 -0.740116 0.865905  0.0137525 -0.507871 0.751103  0.0138143 -0.572015 0.707616  0.00481176 -0.66574 0.767658  0.0286191 -0.580918 0.865243  0.0531338 -0.59152 1.02052  0.0218807 -0.806285 0.795285  0.0289233 -0.648228 0.807774  0.0531658 -0.670402 0.960146  0.0471631 -0.828424 0.940965  0.0219328 -0.859838 0.713  0.0142297 -0.626656 0.652556  0.0140265 -0.671449 0.589043  0.00544322 -0.785673 0.642495  0.0293611 -0.705027 0.73865  0.05286 -0.73986 0.885019  0.0218414 -0.897218 0.623441  0.029516 -0.747784 0.66064  0.0532352 -0.793123 0.799924  0.0474275 -0.93991 0.756339  0.0223289 -0.919976 0.527821  0.0142937 -0.703181 0.517474  0.0138283 -0.723198 0.442074  0.0054369 -0.854424 0.481999  0.0289532 -0.777959 0.576279  0.054213 -0.83226 0.707493  0.0210719 -0.924212 0.430218  0.0283318 -0.79157 0.488052  0.0531815 -0.852909 0.609554  0.0467958 -0.981209 0.546546  0.0197411 -0.91142 0.331739  0.0134238 -0.728557 0.363914  0.0122206 -0.721026 0.28556  0.00442493 -0.863534 0.307254  0.0275528 -0.789742 0.397669  0.0514925 -0.857135 0.506376  0.0180511 -0.881686 0.23809  0.0262809 -0.771596 0.309376  0.050174 -0.842516 0.405894  0.0436194 -0.946313 0.331289  0.0169363 -0.837067 0.149171  0.0113654 -0.698507 0.209425  0.00979781 -0.664812 0.13791  0.00200582 -0.811104 0.138239  0.0242143 -0.740031 0.224392  0.0494235 -0.812794 0.308819  0.0141332 -0.777117 0.0708427  0.022171 -0.693442 0.147113  0.0464678 -0.76548 0.219442  0.0390859 -0.842253 0.14187  0.0115337 -0.703927 0.00269103  0.00835896 -0.618319 0.0737736  0.00632191 -0.562183 0.0178771  -0.00128293 -0.704533 -0.00311589  0.0200789 -0.634055 0.0782132  0.0429616 -0.702555 0.136512  0.00891757 -0.62133 -0.0505829  0.0177796 -0.563938 0.0214417  0.0400379 -0.627379 0.0680578  0.0326326 -0.677584 -0.00254393  0.00732756 -0.530832 -0.0909777  0.0049448 -0.496437 -0.0266433  0.00320697 -0.425639 -0.0603909  -0.00472498 -0.555867 -0.100158  0.0148439 -0.486362 -0.0242209  0.0380592 -0.543505 0.0116425  0.00465465 -0.436353 -0.113037  0.0123858 -0.402875 -0.0542727  0.0339203 -0.452112 -0.0274951  0.0263388 -0.479474 -0.0828371  0.00277948 -0.33866 -0.119481  0.0019083 -0.35038 -0.0804989  0.000335693 -0.273711 -0.0879588  -0.00700402 -0.385435 -0.141185  0.00992823 -0.315927 -0.0699623  0.0296204 -0.353629 -0.0521386  0.00200391 -0.244711 -0.107614  0.00779223 -0.230643 -0.0695817  0.0248759 -0.258378 -0.0585051  0.0191176 -0.268053 -0.0914199  0.00185037 -0.153611 -0.0834846  2.19345e-05 -0.197908 -0.0811031  -8.13007e-05 -0.125756 -0.0634811  -0.00636029 -0.213791 -0.121595  0.00546622 -0.146263 -0.0576787  0.0202084 -0.165245 -0.0516438  0.00170398 -0.0706534 -0.0448704  0.00230265 -0.0697106 -0.0315778  0.0101726 -0.080197 -0.0346293  0.00814152 -0.0787223 -0.0400834  0 2.38419e-07 -2.38419e-07  0.000388145 -0.0586699 -0.0343151  0 1.78814e-07 -2.38419e-07  -0.00125241 -0.0608765 -0.0486104  0 1.78814e-07 -2.38419e-07  0 2.38419e-07 -4.76837e-07  0 0 0  -0.00550035 0.0515721 0.0857487  0.00401556 0.0558489 0.0780826  0.0204584 0.0730965 0.103406  0.00910187 0.059718 0.105043  -0.00657201 0.0928348 0.185064  -0.00117855 0.0430409 0.0729454  0.000101134 0.0812855 0.15849  0 0 0  0 0 0  -0.0077183 0.038304 0.0814745  0 0 0  0.0113632 0.109376 0.17241  0.0339231 0.140175 0.197525  -0.00600085 0.122495 0.294097  0.0143841 0.144017 0.272069  0.039148 0.18308 0.306034  0.0187962 0.157271 0.328198  -0.00487542 0.136865 0.408226  0.00185615 0.104423 0.251286  0.0021266 0.113667 0.346797  -0.0152034 0.0863909 0.275853  0.0168869 0.163363 0.377593  0.0436041 0.210813 0.41952  -0.00571322 0.128025 0.526006  0.0170912 0.16264 0.486818  0.045671 0.214799 0.537652  0.022338 0.177029 0.576719  -0.00646424 0.100975 0.641991  0.00164372 0.104952 0.445649  0.000563443 0.0803567 0.541881  -0.0192403 0.0740232 0.489495  0.0172795 0.14352 0.595037  0.044925 0.202401 0.655904  -0.00777948 0.0534053 0.749728  0.0167636 0.105785 0.697366  0.0454668 0.166501 0.769305  0.0193456 0.1103 0.821263  -0.00967813 -0.0111777 0.851384  -6.34789e-05 0.0367643 0.632613  -0.00296986 -0.0195341 0.714425  -0.0236639 -0.0140759 0.689398  0.014465 0.0503387 0.7927  0.0433314 0.11262 0.875783  -0.0122182 -0.0950845 0.935874  0.0119266 -0.0216362 0.875453  0.0416914 0.0386941 0.970315  0.0144998 -0.0360127 1.02879  -0.0146939 -0.188454 1.00639  -0.00487846 -0.091685 0.785404  -0.00731081 -0.173517 0.843327  -0.0298213 -0.164531 0.850141  0.0101148 -0.106622 0.94489  0.038161 -0.0482179 1.04939  -0.0171334 -0.293299 1.05891  0.00863671 -0.201278 0.998335  0.0369784 -0.147548 1.11293  0.00924361 -0.24327 1.1705  -0.0192616 -0.407162 1.09448  -0.00795692 -0.264836 0.88465  -0.0095318 -0.359738 0.911865  -0.0333913 -0.359547 0.949245  0.00660479 -0.304059 1.03658  0.0345345 -0.256781 1.16064  -0.0207353 -0.525264 1.10648  0.00602627 -0.410274 1.05445  0.0341142 -0.372075 1.1861  0.00562418 -0.486319 1.23435  -0.0205309 -0.640669 1.10023  -0.00957775 -0.458889 0.920143  -0.0103645 -0.556668 0.912143  -0.0353268 -0.576647 0.975448  0.00594842 -0.517281 1.05307  0.0322872 -0.48779 1.19078  -0.0216396 -0.752185 1.07297  0.00592756 -0.621778 1.03401  0.0323541 -0.600862 1.17583  0.00465536 -0.731695 1.21082  -0.020571 -0.859028 1.02739  -0.00972581 -0.651514 0.885535  -0.0108755 -0.739294 0.844472  -0.0345623 -0.785488 0.9259  0.00520062 -0.721697 0.995485  0.0314729 -0.711072 1.13984  -0.0197047 -0.954596 0.960803  0.00558615 -0.813083 0.93974  0.0325904 -0.814888 1.08533  0.00664747 -0.953953 1.10373  -0.0187601 -1.03823 0.881427  -0.0100909 -0.818673 0.787255  -0.00944507 -0.886909 0.718201  -0.0346791 -0.965006 0.809123  0.00668716 -0.893443 0.870636  0.0328789 -0.90552 1.01447  -0.0194335 -1.10529 0.787951  0.00747097 -0.960364 0.788429  0.0339302 -0.981698 0.929613  0.00723708 -1.12435 0.926362  -0.0185069 -1.15659 0.683767  -0.00838697 -0.941245 0.636294  -0.00957739 -0.98092 0.547745  -0.0326574 -1.08986 0.634586  0.00684059 -1.01097 0.694024  0.0335245 -1.04192 0.830614  -0.0183071 -1.18584 0.570435  0.0067364 -1.04409 0.591717  0.0342624 -1.08528 0.721182  0.00861418 -1.22342 0.699594  -0.0184317 -1.19777 0.454952  -0.00930059 -1.0038 0.452082  -0.00948071 -1.01056 0.354455  -0.033648 -1.14981 0.42823  0.00698209 -1.06014 0.486267  0.0336725 -1.10817 0.60774  -0.0207214 -1.18786 0.339168  0.00642776 -1.05746 0.379194  0.0332603 -1.11092 0.492585  0.00631368 -1.23782 0.452077  -0.0216936 -1.15909 0.225366  -0.00959671 -0.998307 0.255791  -0.0121613 -0.970696 0.161542  -0.0341305 -1.1307 0.212304  0.00414729 -1.03457 0.273344  0.0311081 -1.09256 0.376959  -0.0236192 -1.1074 0.118681  0.0022285 -0.99318 0.172605  0.0296993 -1.05442 0.264117  0.00323319 -1.16568 0.212416  -0.0257764 -1.04132 0.0215213  -0.0133362 -0.925653 0.0725656  -0.014894 -0.867245 -0.00745153  -0.0385184 -1.04142 0.0137794  0.000693798 -0.936946 0.0805063  0.0269775 -0.998388 0.161372  -0.0298214 -0.958377 -0.0615246  -0.00146747 -0.865376 -0.000678062  0.024487 -0.925803 0.0703371  -0.00376272 -1.01592 0.0114913  -0.0322068 -0.86274 -0.130955  -0.0160928 -0.793704 -0.0758562  -0.0193713 -0.711611 -0.130965  -0.0417373 -0.885918 -0.140774  -0.00505328 -0.779568 -0.0678735  0.020659 -0.837351 -0.00752759  -0.0347047 -0.754271 -0.179874  -0.0075922 -0.683197 -0.119076  0.0179665 -0.735642 -0.0701289  -0.00992799 -0.805964 -0.127113  -0.0366511 -0.641586 -0.212676  -0.0204933 -0.619993 -0.170691  -0.0213952 -0.524201 -0.195018  -0.0466576 -0.689026 -0.236261  -0.00926828 -0.581473 -0.154398  0.0147228 -0.62742 -0.113919  -0.0387542 -0.525787 -0.223442  -0.0102191 -0.475833 -0.17143  0.0127432 -0.514816 -0.137941  -0.0161226 -0.563827 -0.186529  -0.0381322 -0.409717 -0.216357  -0.0207403 -0.425237 -0.200792  -0.0213177 -0.328154 -0.190996  -0.0458989 -0.472107 -0.25557  -0.0117733 -0.368729 -0.16892  0.0107591 -0.399519 -0.142446  -0.0350468 -0.297591 -0.184617  -0.0105383 -0.264842 -0.146982  0.0105202 -0.284469 -0.127088  -0.0159769 -0.318082 -0.160599  -0.032069 -0.189725 -0.139745  -0.0181804 -0.234812 -0.163543  -0.0140269 -0.146873 -0.120498  -0.0410314 -0.262987 -0.203597  -0.00929189 -0.165305 -0.110561  0.00848126 -0.176959 -0.0950727  -0.0196891 -0.0981551 -0.0733893  -0.00319076 -0.0743448 -0.0575175  0.00649571 -0.0818462 -0.0535011  -0.00861216 -0.100318 -0.0597398  0 3.57628e-07 -2.38419e-07  -0.00490928 -0.0663248 -0.0630538  0 2.98023e-07 -2.38419e-07  -0.0198278 -0.0859708 -0.0790272  0 2.98023e-07 -2.38419e-07  0 2.98023e-07 -4.76837e-07  0.00227707 0.0522584 -0.0467927  0.00480296 0.0568573 -0.0638161  0.0078357 0.115238 -0.0859156  0.00329006 0.0425171 -0.0679524  0.0120296 0.0964114 -0.127063  0.0123295 0.0530517 -0.0861452  0 0 0  0.017581 0.0746031 -0.0812619  0 1.49012e-08 0  0 7.45058e-09 0  0.00123133 0.0380146 -0.0513484  0 7.45058e-09 0  0.0357773 0.146702 -0.153375  0.0165541 0.127962 -0.118495  0.0134564 0.181256 -0.113685  0.0249546 0.20347 -0.15792  0.018819 0.250912 -0.129845  0.0184859 0.158173 -0.172474  0.0247405 0.224473 -0.206988  0.0330938 0.178587 -0.219393  0.0461155 0.229157 -0.202924  0.010569 0.139218 -0.128119  0.0551519 0.316531 -0.239504  0.0317557 0.281412 -0.184026  0.0223927 0.321885 -0.131953  0.0367756 0.363194 -0.194112  0.0252283 0.392249 -0.121725  0.0294643 0.296026 -0.227408  0.0338432 0.369924 -0.23702  0.046806 0.335682 -0.29434  0.0609557 0.407665 -0.256739  0.018882 0.25791 -0.163885  0.0660886 0.502152 -0.259271  0.0404707 0.444981 -0.190398  0.027705 0.459013 -0.0983396  0.0438366 0.524794 -0.171106  0.0298305 0.521302 -0.0638916  0.0364985 0.443871 -0.23115  0.0393884 0.515747 -0.213694  0.0561256 0.509378 -0.309091  0.0699906 0.593442 -0.243222  0.024151 0.380813 -0.15572  0.073131 0.681801 -0.212404  0.0461403 0.599648 -0.138969  0.0314486 0.575715 -0.0182347  0.0478091 0.667825 -0.0927629  0.0325888 0.622179 0.0359378  0.0405612 0.583181 -0.181831  0.0421218 0.644692 -0.140226  0.0611087 0.676291 -0.261535  0.0746482 0.761959 -0.165715  0.0274717 0.492845 -0.10384  0.0766786 0.834372 -0.105691  0.0492421 0.727009 -0.0364163  0.033135 0.657961 0.0980058  0.0500652 0.775382 0.0308211  0.0338103 0.683407 0.165275  0.0426759 0.697313 -0.0869968  0.0435427 0.741388 -0.0265698  0.0635259 0.817426 -0.158808  0.0772568 0.894137 -0.0338643  0.0293821 0.580625 -0.0159039  0.0783557 0.941892 0.0474181  0.0506115 0.811809 0.104481  0.0341227 0.695941 0.235673  0.0507119 0.834472 0.18415  0.0342239 0.697074 0.307084  0.0436105 0.773022 0.0416  0.0440367 0.793805 0.11314  0.0645287 0.915645 -0.0134182  0.0780162 0.973674 0.13514  0.0302637 0.633661 0.0969791  0.0784322 0.990751 0.227766  0.0509121 0.843847 0.265412  0.0340542 0.685216 0.377252  0.0508947 0.838283 0.347625  0.03429 0.662343 0.444399  0.0437204 0.800624 0.187401  0.0439852 0.796387 0.261351  0.0643408 0.958965 0.155925  0.0779365 0.991033 0.320797  0.0305066 0.645632 0.220534  0.078334 0.976025 0.41297  0.0509253 0.819615 0.42669  0.0344402 0.627851 0.505482  0.0508413 0.786876 0.501344  0.0345875 0.584189 0.559921  0.0437964 0.777977 0.333059  0.0441411 0.749216 0.400249  0.0642316 0.942588 0.328984  0.0777522 0.945084 0.499691  0.0306635 0.615882 0.339611  0.0782175 0.899852 0.580446  0.0511039 0.743147 0.568565  0.0346161 0.531548 0.605091  0.0513749 0.687578 0.626955  0.0351069 0.472529 0.640931  0.0440079 0.70824 0.460566  0.0445671 0.659047 0.513572  0.0641981 0.869542 0.484493  0.0780877 0.841774 0.650866  0.0309319 0.548536 0.44014  0.0789528 0.7726 0.710777  0.0517702 0.624102 0.674588  0.0354791 0.408463 0.664784  0.0520614 0.552666 0.709951  0.0357573 0.34156 0.67779  0.0447551 0.600427 0.555884  0.0454102 0.536721 0.588195  0.0650793 0.748818 0.60468  0.0789219 0.694708 0.756534  0.0315044 0.452383 0.51061  0.079839 0.609713 0.788614  0.0525695 0.477514 0.732725  0.0356981 0.27352 0.678016  0.0528793 0.398705 0.741225  0.0358534 0.206334 0.667132  0.0454421 0.46786 0.607477  0.0459585 0.39719 0.616014  0.0659461 0.595731 0.675431  0.0799372 0.521201 0.804678  0.0319808 0.338972 0.54304  0.0806744 0.430703 0.805786  0.0529969 0.320487 0.7366  0.0355463 0.142637 0.643818  0.0526149 0.243662 0.717441  0.0348015 0.0833158 0.61042  0.0457366 0.325818 0.610289  0.0456753 0.256617 0.593761  0.0666547 0.427883 0.688999  0.0800583 0.342218 0.790399  0.031997 0.221864 0.534203  0.0799038 0.256612 0.760211  0.0520082 0.171668 0.686354  0.0333476 0.0309607 0.566405  0.050719 0.105585 0.641814  0.0317924 -0.014078 0.514376  0.0444982 0.191387 0.563797  0.0434556 0.131226 0.524527  0.0655391 0.265408 0.644212  0.0782857 0.178188 0.715268  0.030771 0.114564 0.485163  0.0768182 0.107128 0.657751  0.048811 0.0478688 0.587679  0.0294566 -0.0487353 0.45501  0.0459149 0.000211231 0.523175  0.0263023 -0.0740822 0.390592  0.0412183 0.0792639 0.473811  0.0388284 0.0355287 0.416466  0.0620723 0.126424 0.546303  0.0733712 0.0480488 0.58873  0.0279109 0.029339 0.401966  0.0696335 -0.000201925 0.510149  0.0421941 -0.0365443 0.452699  0.0220373 -0.0875591 0.322524  0.0371649 -0.0603914 0.375665  0.0172718 -0.0905668 0.252616  0.034667 0.00296797 0.351414  0.0299432 -0.0201771 0.282919  0.0544925 0.0271799 0.407733  0.0635176 -0.0334684 0.425356  0.0225997 -0.0242341 0.294427  0.0560439 -0.0541737 0.335355  0.0304537 -0.0723578 0.296813  0.0116246 -0.0814791 0.183737  0.0224755 -0.0699856 0.216634  0.00599623 -0.0621356 0.116923  0.0228691 -0.0303347 0.210757  0.0153956 -0.0302662 0.139427  0.0393775 -0.0225094 0.245937  0.045047 -0.0591327 0.246662  0.0137594 -0.0406384 0.174706  0.0320737 -0.0512711 0.157196  0.0136671 -0.055976 0.139609  0.00179291 -0.0335582 0.0544696  0.00580812 -0.030631 0.0665567  0 -2.23517e-07 -2.38419e-07  0.00670362 -0.0196364 0.0678375  0 -2.90573e-07 -2.38419e-07  0.0116746 -0.024105 0.0821481  0.0141237 -0.0366493 0.0763192  0.00337815 -0.0201033 0.0549328  0 -3.57628e-07 -2.38419e-07  0 -2.90573e-07 -2.38419e-07  1.7561e-05 0.0474082 -0.0180991  0.000732578 0.049411 -0.0318277  0.0017013 0.0981764 -0.0298998  0.000134833 0.0354847 -0.0351262  0.00292304 0.077496 -0.0643172  0 0 0  0 0 0  -0.000452578 0.0335296 -0.0212915  0 0 0  0.00345862 0.10516 -0.0568216  0.0043357 0.149547 -0.0313601  0.00803146 0.164016 -0.0714495  0.00695312 0.201477 -0.0241981  0.0060294 0.123471 -0.0849559  0.00924328 0.171599 -0.0980761  0.00289127 0.10966 -0.0446243  0.0112243 0.2244 -0.0767703  0.008995 0.250754 -0.00754213  0.0139518 0.28475 -0.0696297  0.0112017 0.297171 0.0182812  0.0121607 0.221925 -0.100686  0.0145408 0.271579 -0.09532  0.00749689 0.188606 -0.0388067  0.0161582 0.342848 -0.052026  0.0131164 0.337483 0.0520914  0.0182465 0.396968 -0.0239439  0.0146921 0.372192 0.092731  0.0164365 0.319644 -0.0798874  0.0180929 0.364169 -0.0568552  0.0111873 0.260933 -0.00425363  0.0200058 0.445268 0.0134902  0.0158514 0.399328 0.138921  0.0214549 0.486416 0.0593135  0.0168446 0.417891 0.189528  0.0191033 0.404054 -0.0250907  0.0201635 0.437932 0.0123861  0.0136908 0.317687 0.0546904  0.0223769 0.518909 0.111259  0.0175033 0.427105 0.242563  0.0230065 0.542059 0.168833  0.0180235 0.427817 0.296608  0.0207999 0.464815 0.0564198  0.0214336 0.484395 0.103502  0.0151348 0.35089 0.130215  0.0235953 0.555174 0.229277  0.0181571 0.41937 0.349861  0.0239267 0.557497 0.291262  0.0183488 0.401733 0.400465  0.021601 0.494971 0.153811  0.0218698 0.49743 0.204346  0.0159938 0.357376 0.212959  0.023964 0.549494 0.351947  0.0184482 0.375631 0.446621  0.0239705 0.53098 0.410562  0.0186161 0.342601 0.487829  0.0219008 0.490592 0.25502  0.0221214 0.476397 0.303051  0.0161892 0.336032 0.2918  0.024164 0.503183 0.464592  0.0186026 0.303263 0.522412  0.0243305 0.466381 0.512731  0.0187744 0.258715 0.548995  0.0220442 0.453456 0.347637  0.0222249 0.424267 0.387097  0.0164579 0.290397 0.358075  0.0243678 0.422674 0.553162  0.0189379 0.210644 0.566751  0.0245067 0.372377 0.585264  0.0191859 0.160465 0.576269  0.0223051 0.388013 0.42068  0.0226325 0.34786 0.447524  0.0165538 0.226422 0.403215  0.0248482 0.318 0.607933  0.0192027 0.109673 0.57671  0.0251383 0.260464 0.620383  0.0192987 0.0599382 0.567724  0.0226724 0.303182 0.466181  0.0229264 0.256913 0.476937  0.0169066 0.151967 0.423119  0.0251802 0.202513 0.622599  0.0192308 0.0130125 0.549766  0.0251682 0.144664 0.614254  0.0190773 -0.0304513 0.524194  0.0229732 0.208855 0.47871  0.0231128 0.161941 0.472868  0.0168859 0.0766711 0.415148  0.0251319 0.0895305 0.596168  0.0185006 -0.0688521 0.491277  0.0247955 0.0382048 0.568204  0.0178225 -0.100736 0.451818  0.0227785 0.116509 0.457864  0.0224535 0.0746144 0.435805  0.0166678 0.00874218 0.381229  0.0239592 -0.00723657 0.532164  0.0168216 -0.125068 0.407199  0.0228088 -0.0461877 0.487988  0.0156364 -0.14224 0.358915  0.0216873 0.0367483 0.405635  0.0208192 0.00427437 0.370323  0.0155528 -0.0431868 0.325349  0.0214362 -0.0772036 0.438054  0.0139403 -0.151187 0.308077  0.0195868 -0.0993126 0.382803  0.0120978 -0.151497 0.256236  0.0193408 -0.0216035 0.328831  0.0177002 -0.0406403 0.284213  0.013814 -0.0742736 0.254001  0.0170915 -0.112212 0.325022  0.00988269 -0.143083 0.204777  0.0140438 -0.115168 0.264845  0.00750828 -0.127366 0.154839  0.0153716 -0.051887 0.235768  0.0127084 -0.056015 0.186682  0.0108554 -0.0807534 0.175471  0.0106912 -0.108819 0.205009  0.00493026 -0.103932 0.107563  0.00701642 -0.0924756 0.146402  0.0026865 -0.0739645 0.0651278  0.00930452 -0.0516502 0.136529  0.00585127 -0.0403008 0.0881259  0.00673127 -0.0630488 0.0972612  0.00374889 -0.0678638 0.0914524  0.0011785 -0.0380873 0.0288768  0.00127673 -0.0359066 0.0413976  0 -8.9407e-08 -2.38419e-07  0.00243974 -0.0219592 0.0412526  0 -1.78814e-07 -2.38419e-07  0.00201297 -0.0241051 0.0281587  0 -1.78814e-07 -2.38419e-07  -0.000229165 0.0440126 0.0085783  -0.000213109 0.0457795 -0.00440431  0.00100639 0.0867326 0.0246608  -0.00071644 0.0316848 -0.00715852  0.000125408 0.0645137 -0.00906515  0 0 0  0 0 0  -0.000824153 0.0299893 0.00597072  0 0 0  0.00101091 0.0920984 -0.00234103  0.00297642 0.125305 0.0492799  0.00308713 0.136906 0.00908184  0.00532353 0.160432 0.08073  0.0014894 0.0968655 -0.0039854  0.00332648 0.12789 0.00675654  0.000846088 0.0848382 0.0358512  0.00526506 0.180173 0.0283568  0.00733131 0.18888 0.118021  0.00732768 0.219038 0.0553181  0.00924981 0.211399 0.160478  0.00516319 0.156835 0.0237207  0.006809 0.18264 0.045496  0.00398648 0.12648 0.0856516  0.00912517 0.25332 0.0890872  0.0106015 0.225496 0.20629  0.0109312 0.280567 0.128953  0.0119194 0.231966 0.254696  0.0082764 0.204153 0.0723469  0.00943571 0.221114 0.102546  0.0065667 0.149064 0.148793  0.0123168 0.301254 0.173218  0.0127982 0.229632 0.303176  0.0135729 0.313545 0.22053  0.0134086 0.219751 0.351209  0.0104387 0.232529 0.135904  0.0111353 0.238377 0.170466  0.00827312 0.149061 0.217504  0.0143019 0.318265 0.269664  0.0136426 0.201319 0.396166  0.0148522 0.313681 0.318662  0.0139893 0.175713 0.437747  0.011656 0.237918 0.206047  0.0119936 0.231817 0.240674  0.00911576 0.126332 0.282686  0.0152159 0.301287 0.366237  0.0140224 0.143532 0.473495  0.0155138 0.281039 0.410758  0.0140858 0.106097 0.503754  0.012337 0.219852 0.273916  0.0124214 0.203023 0.304115  0.00950682 0.0835174 0.336174  0.0155506 0.253894 0.451274  0.0140051 0.0643803 0.525903  0.0156045 0.220015 0.485441  0.014222 0.0194855 0.5407  0.0125072 0.180965 0.330716  0.0125545 0.155379 0.35278  0.00960362 0.0265314 0.371089  0.0156995 0.181252 0.513288  0.0142659 -0.0265909 0.546757  0.0158924 0.138587 0.533661  0.0144111 -0.0731499 0.545154  0.0127294 0.126291 0.369928  0.0127386 0.0955114 0.381538  0.0097568 -0.0376989 0.383468  0.0159324 0.0932879 0.546475  0.0144037 -0.117742 0.53462  0.0160439 0.0469598 0.550121  0.0146315 -0.160113 0.516346  0.0128239 0.0630964 0.387033  0.0128782 0.0308694 0.386718  0.00987339 -0.100649 0.372259  0.0161575 0.000956476 0.545748  0.014582 -0.197795 0.490609  0.0163221 -0.0432869 0.533148  0.0145088 -0.231047 0.458662  0.0130243 -0.000926882 0.380402  0.0129528 -0.0305446 0.368738  0.00994849 -0.154797 0.338969  0.0162028 -0.0847768 0.513096  0.0141367 -0.25718 0.421173  0.0160328 -0.121318 0.485373  0.0138743 -0.276839 0.379195  0.0128703 -0.0576273 0.351374  0.0126734 -0.0810214 0.329709  0.00968564 -0.193166 0.288376  0.0157068 -0.15267 0.451777  0.0132368 -0.288346 0.334511  0.0153074 -0.177637 0.412977  0.0125113 -0.292767 0.28792  0.0124774 -0.100477 0.303729  0.0119972 -0.115142 0.275047  0.00911522 -0.211324 0.226589  0.0145063 -0.196053 0.370269  0.0114715 -0.288515 0.24159  0.0135715 -0.206062 0.324765  0.0105839 -0.276831 0.195996  0.011456 -0.124524 0.243562  0.0107648 -0.128733 0.211096  0.00812531 -0.207419 0.161625  0.0124779 -0.20878 0.278067  0.00940657 -0.257572 0.15335  0.0112929 -0.203639 0.231274  0.00820422 -0.232286 0.113735  0.0100789 -0.12752 0.17773  0.00911903 -0.121404 0.145232  0.00700974 -0.182318 0.100837  0.00974774 -0.191519 0.18556  0.0068047 -0.200847 0.0793769  0.0080409 -0.17162 0.142602  0.00557661 -0.165066 0.0502007  0.0080626 -0.109877 0.113623  0.00674868 -0.0942565 0.0843067  0.00567293 -0.140039 0.0510807  0.0063343 -0.145995 0.103075  0.00423932 -0.125591 0.0275102  0.0044837 -0.114772 0.0680146  0.00282049 -0.0842275 0.0110769  0.00532889 -0.0743755 0.0572925  0.00356483 -0.051698 0.0338829  0.00401902 -0.0861432 0.0168586  0.00281239 -0.079257 0.0381918  0.00149417 -0.041919 0.00227952  0.00128675 -0.0404494 0.0154495  0 0 -2.38419e-07  0.00186539 -0.026095 0.0144081  0 -5.96046e-08 -2.38419e-07  0.00164771 -0.0280448 0.000979662  0 -5.96046e-08 -2.38419e-07  0.000239767 0.039615 0.0346859  -1.16155e-05 0.042116 0.021821  0.00224501 0.0754212 0.0783479  -0.000713505 0.0281442 0.0194771  -0.000280157 0.0532111 0.0447061  0 0 0  0 0 0  -0.000600025 0.0259982 0.0326993  0 0 0  0.001436 0.0810667 0.0516303  0.00448945 0.102155 0.128861  0.00374302 0.113808 0.0893912  0.00683245 0.121512 0.184026  0.000740051 0.0732276 0.0754945  0.00209898 0.0882931 0.110006  0.00074333 0.061623 0.114828  0.00594711 0.14091 0.132553  0.0082438 0.130089 0.242109  0.00798565 0.15915 0.180592  0.0095104 0.129272 0.301683  0.0034042 0.0968664 0.14743  0.0044803 0.0994024 0.186105  0.00269485 0.0677841 0.208464  0.00960565 0.170036 0.231368  0.0100297 0.117506 0.359912  0.0107948 0.170857 0.283661  0.0105597 0.0965254 0.416264  0.00534922 0.0948576 0.225318  0.00588775 0.0841969 0.263479  0.00361747 0.0416487 0.30098  0.0116459 0.163647 0.335788  0.0104172 0.0653728 0.467395  0.0121908 0.146627 0.385704  0.0103899 0.0264394 0.513415  0.00634742 0.066559 0.299387  0.00647181 0.0438628 0.331916  0.00357628 -0.0143774 0.380505  0.012548 0.122312 0.432546  0.0100896 -0.0198609 0.550944  0.0125916 0.0897202 0.473718  0.00993192 -0.0716838 0.580912  0.00660163 0.0155076 0.359863  0.0065223 -0.0164479 0.382793  0.00311947 -0.0935625 0.436681  0.0126367 0.0511668 0.509358  0.00943029 -0.127566 0.600049  0.0124884 0.00701582 0.536652  0.00943589 -0.18581 0.609973  0.00665092 -0.0522133 0.399186  0.00654793 -0.0893821 0.409454  0.00271177 -0.18612 0.462254  0.0125244 -0.0406106 0.556649  0.0093354 -0.243846 0.608554  0.0124366 -0.0906227 0.56675  0.00945532 -0.301056 0.597692  0.00656676 -0.127675 0.412249  0.00650132 -0.165313 0.408821  0.00253999 -0.280257 0.454204  0.0125272 -0.141479 0.56873  0.00932086 -0.354487 0.57597  0.0125302 -0.191236 0.56068  0.00966573 -0.403899 0.545632  0.00671244 -0.201734 0.397879  0.00669575 -0.235168 0.381299  0.00258052 -0.364378 0.413409  0.0127472 -0.238956 0.544803  0.0097301 -0.445875 0.506685  0.0128006 -0.282197 0.51978  0.00988436 -0.481296 0.460908  0.00679731 -0.264708 0.35822  0.00673723 -0.289845 0.330658  0.00280201 -0.428042 0.345668  0.0128857 -0.320929 0.487885  0.00957251 -0.506854 0.409178  0.0127746 -0.352425 0.448955  0.00954592 -0.523925 0.353371  0.00682414 -0.309242 0.298113  0.00659835 -0.322812 0.263122  0.00269902 -0.463349 0.258909  0.0126799 -0.377425 0.405337  0.00906491 -0.52984 0.295772  0.0123084 -0.393244 0.357566  0.00857043 -0.526507 0.237105  0.00639224 -0.329363 0.225675  0.00597596 -0.329807 0.18764  0.00223649 -0.465964 0.164529  0.0118277 -0.401367 0.307467  0.00757027 -0.511974 0.180259  0.0110986 -0.399619 0.256605  0.00686121 -0.488606 0.125755  0.00568581 -0.322871 0.149498  0.00511742 -0.31019 0.113226  0.00127602 -0.435249 0.0738699  0.0103519 -0.390199 0.206365  0.0058043 -0.45582 0.0770652  0.0093708 -0.371372 0.158812  0.00487566 -0.41562 0.0335696  0.00463033 -0.290847 0.0795579  0.00404596 -0.26684 0.0493662  0.000229836 -0.375623 -0.00157619  0.00839019 -0.34557 0.114444  0.00373483 -0.368405 -0.00141406  0.00728774 -0.312125 0.0757229  0.00306177 -0.316528 -0.0289145  0.0037477 -0.23748 0.0237594  0.00328231 -0.205398 0.00314975  -0.000575542 -0.294238 -0.0526969  0.00633931 -0.273764 0.0423326  0.00239778 -0.261481 -0.0462525  0.00525022 -0.230422 0.0166912  0.00192118 -0.204985 -0.0549016  0.00302672 -0.170288 -0.0114765  0.00266051 -0.134409 -0.0206642  -0.000597239 -0.202137 -0.0740941  0.00439596 -0.184363 -0.00222898  0.0015049 -0.148628 -0.0532076  0.00331783 -0.136714 -0.0124509  0.00124288 -0.0943776 -0.0433137  0.0025773 -0.0976998 -0.0234203  0.00191689 -0.0625731 -0.0209401  0.000181675 -0.110545 -0.0640938  0.00256968 -0.0889981 -0.0156891  0.00100517 -0.0446538 -0.0242331  0.00137424 -0.0433394 -0.0104277  0 1.19209e-07 -2.38419e-07  0.00131869 -0.0296098 -0.0122638  0 5.96046e-08 -2.38419e-07  0.000749588 -0.0314487 -0.0263097  0 5.96046e-08 -2.38419e-07  4.97624e-05 0.0336093 0.0604742  0.000195593 0.0368301 0.0478039  0.00129536 0.0623777 0.129351  -0.000690036 0.0237473 0.0459664  -0.000517458 0.0417627 0.0973823  0 0 0  0 0 0  -0.00093478 0.0216437 0.0597055  0 0 0  0.00156285 0.0688471 0.103855  0.00177309 0.0782059 0.203632  0.00382987 0.0902388 0.167374  0.00244948 0.0831389 0.280959  -0.000162095 0.0503817 0.15317  0.000231177 0.0499821 0.210842  -0.00245227 0.0392798 0.191334  0.00533614 0.101828 0.233772  0.00192052 0.0732281 0.358826  0.0064449 0.101069 0.302166  0.00163108 0.0506996 0.434961  0.000478655 0.039439 0.268402  0.000310063 0.0195695 0.323999  -0.00401649 0.0119264 0.327086  0.00687009 0.0891306 0.369705  0.000475585 0.0137162 0.505395  0.00692868 0.0646335 0.434196  -0.000425935 -0.0340237 0.570459  6.07371e-05 -0.010674 0.375645  -0.00051856 -0.04824 0.421935  -0.0061571 -0.0618575 0.448881  0.00673288 0.0302409 0.494456  -0.0018453 -0.0929483 0.624798  0.00619286 -0.0150724 0.547237  -0.00280362 -0.159928 0.669683  -0.00102097 -0.0943385 0.460865  -0.00180739 -0.145365 0.491871  -0.00851637 -0.172887 0.540028  0.00552243 -0.0679826 0.592301  -0.0040009 -0.233447 0.70076  0.00490224 -0.128352 0.626426  -0.00447911 -0.310836 0.72044  -0.00217855 -0.201515 0.513003  -0.00275898 -0.259339 0.524858  -0.010552 -0.30778 0.588592  0.00441921 -0.192727 0.65091  -0.00529957 -0.389717 0.724384  0.00381434 -0.260357 0.662334  -0.00550699 -0.468345 0.715708  -0.00296533 -0.318767 0.52533  -0.00332642 -0.376586 0.516488  -0.0117161 -0.449589 0.588159  0.0035249 -0.328592 0.662546  -0.00586641 -0.542824 0.692089  0.00346863 -0.394893 0.649885  -0.00559127 -0.612827 0.656697  -0.00322711 -0.431621 0.496395  -0.00342035 -0.481901 0.467857  -0.0121052 -0.581307 0.538873  0.00354588 -0.45815 0.626484  -0.00565016 -0.674312 0.609003  0.00359786 -0.515669 0.591442  -0.00521696 -0.727245 0.55162  -0.00318825 -0.526147 0.429741  -0.00314343 -0.562961 0.385347  -0.0118723 -0.686448 0.447089  0.00376952 -0.566514 0.547451  -0.00515568 -0.767546 0.48532  0.00395286 -0.607675 0.494671  -0.0048399 -0.797118 0.41242  -0.00286281 -0.590645 0.334146  -0.00304174 -0.609385 0.279225  -0.0115613 -0.752175 0.323807  0.00402522 -0.639675 0.435383  -0.00522327 -0.812303 0.335704  0.00389206 -0.659886 0.37082  -0.0053823 -0.814749 0.256866  -0.00303078 -0.617343 0.220868  -0.00336814 -0.615647 0.16238  -0.0116428 -0.770908 0.184402  0.00356412 -0.669293 0.303659  -0.00613499 -0.801753 0.179366  0.00311339 -0.665684 0.235934  -0.00672567 -0.776431 0.103595  -0.00359142 -0.60268 0.104599  -0.00430143 -0.580564 0.0496883  -0.0124567 -0.739315 0.0461073  0.00239849 -0.65102 0.169113  -0.00801253 -0.737728 0.0343132  0.00150418 -0.624087 0.105867  -0.00897527 -0.688159 -0.0284865  -0.00477481 -0.54819 -0.000841141  -0.0054884 -0.508567 -0.0452764  -0.0137742 -0.661743 -0.0741737  0.000429869 -0.587476 0.047595  -0.0102308 -0.627807 -0.0800786  -0.000561714 -0.540766 -0.00263476  -0.0109975 -0.559462 -0.122513  -0.00587153 -0.461061 -0.0818534  -0.00646472 -0.408714 -0.110308  -0.015059 -0.547298 -0.16101  -0.00157142 -0.486512 -0.0450869  -0.0119569 -0.485464 -0.151189  -0.00243402 -0.425598 -0.076803  -0.0121319 -0.407677 -0.167963  -0.00647092 -0.351714 -0.12879  -0.00647759 -0.293458 -0.138016  -0.0152771 -0.410555 -0.204262  -0.00312281 -0.360879 -0.0985498  -0.0118158 -0.329369 -0.16914  -0.00335026 -0.294123 -0.107715  -0.0104828 -0.25103 -0.158494  -0.00574207 -0.234624 -0.13632  -0.00499463 -0.177691 -0.125456  -0.0136003 -0.268704 -0.198462  -0.00306916 -0.226908 -0.106267  -0.00857663 -0.177517 -0.133979  -0.00245976 -0.162128 -0.0927801  -0.00543499 -0.109475 -0.0981948  -0.00327635 -0.123818 -0.104412  -0.00157285 -0.0750095 -0.0763752  -0.00880027 -0.138988 -0.145907  -0.000855446 -0.100447 -0.0698981  -0.00145698 -0.0490305 -0.0514572  0.000141859 -0.0463794 -0.0372095  0 2.38419e-07 -2.38419e-07  2.38419e-05 -0.0333731 -0.0397468  0 1.78814e-07 -2.38419e-07  -0.0015409 -0.0361875 -0.0543897  0 1.78814e-07 -2.38419e-07  -0.00923703 0.032557 0.0823708  -0.001748 0.0303854 0.0716708  -0.01774 0.0488296 0.170238  -0.00317613 0.0193202 0.0719581  -0.00587651 0.0303464 0.146677  0 0 0  0 0 0  -0.00656338 0.0194254 0.0847886  0 0 0  -0.00354359 0.0555029 0.150595  -0.0210021 0.0547702 0.265415  -0.00477982 0.0664528 0.23668  -0.0243475 0.0462447 0.361478  -0.008103 0.028421 0.225744  -0.0102187 0.0144818 0.304338  -0.020004 0.0185379 0.258195  -0.00616065 0.0645727 0.323776  -0.0269487 0.018827 0.460522  -0.00723895 0.046366 0.411525  -0.0299199 -0.0231808 0.553154  -0.0116345 -0.0146837 0.382069  -0.0135351 -0.0553465 0.454383  -0.0265186 -0.0408679 0.434938  -0.00853935 0.0137305 0.495826  -0.0318215 -0.0837185 0.638299  -0.0105239 -0.0352738 0.573423  -0.0347836 -0.154606 0.712274  -0.0152172 -0.110945 0.519447  -0.0174499 -0.174759 0.574301  -0.0311398 -0.158774 0.588575  -0.0127357 -0.0952138 0.642842  -0.0371457 -0.24124 0.771641  -0.0145767 -0.167557 0.699615  -0.0394736 -0.333427 0.817224  -0.0188289 -0.248795 0.617517  -0.0205051 -0.327042 0.648246  -0.0361599 -0.323171 0.693637  -0.0161937 -0.24762 0.744648  -0.0401374 -0.43328 0.844614  -0.0175555 -0.33476 0.773784  -0.0413099 -0.535206 0.855455  -0.0215415 -0.410903 0.663733  -0.0226225 -0.494396 0.665654  -0.0391314 -0.512555 0.73866  -0.0183554 -0.425066 0.788621  -0.0418108 -0.637891 0.846912  -0.0188588 -0.515078 0.786141  -0.0424511 -0.735838 0.822765  -0.022801 -0.577516 0.651346  -0.023399 -0.655515 0.624767  -0.0403955 -0.70369 0.714764  -0.0193512 -0.603598 0.769555  -0.0417391 -0.828415 0.778954  -0.0196906 -0.687288 0.735467  -0.0413407 -0.910651 0.723084  -0.0232569 -0.728351 0.582928  -0.023284 -0.791637 0.530953  -0.0406934 -0.873829 0.6279  -0.0194753 -0.763614 0.688864  -0.0410624 -0.981992 0.650849  -0.0187881 -0.830061 0.629507  -0.0406457 -1.0405 0.569333  -0.0226033 -0.844778 0.466562  -0.0228441 -0.885686 0.395985  -0.039746 -1.0016 0.487017  -0.0185831 -0.885081 0.559466  -0.0397985 -1.08195 0.475131  -0.0185574 -0.925616 0.478946  -0.039826 -1.10763 0.378691  -0.0225118 -0.912782 0.316505  -0.0225586 -0.92632 0.235157  -0.0391227 -1.07333 0.310994  -0.0184919 -0.952972 0.393522  -0.0402744 -1.11464 0.27655  -0.0182885 -0.964452 0.30457  -0.0408878 -1.10563 0.175623  -0.0222826 -0.92423 0.150885  -0.0231537 -0.908843 0.0697055  -0.0390232 -1.07751 0.119103  -0.0188537 -0.960356 0.214731  -0.0413187 -1.0754 0.0757596  -0.0198076 -0.938341 0.126088  -0.0427426 -1.0317 -0.0155036  -0.0236459 -0.877098 -0.00946116  -0.0245388 -0.833876 -0.0812159  -0.0403744 -1.01624 -0.0638423  -0.020848 -0.903178 0.0422046  -0.0444942 -0.969944 -0.0991082  -0.0217035 -0.853625 -0.0341074  -0.0462942 -0.896962 -0.17131  -0.0249653 -0.776898 -0.145108  -0.0263302 -0.711979 -0.198035  -0.0423019 -0.893131 -0.214965  -0.0231934 -0.791825 -0.10111  -0.0472424 -0.808596 -0.228786  -0.0246363 -0.717235 -0.155333  -0.0487812 -0.715755 -0.271003  -0.0268486 -0.636092 -0.238689  -0.0272949 -0.556486 -0.266327  -0.0443718 -0.72644 -0.316561  -0.0257363 -0.635938 -0.197586  -0.0494843 -0.614551 -0.295354  -0.0258663 -0.549058 -0.224577  -0.0494893 -0.51248 -0.30417  -0.0264869 -0.471983 -0.278973  -0.026145 -0.38868 -0.278294  -0.0441473 -0.534571 -0.353287  -0.0259304 -0.458964 -0.236663  -0.0469725 -0.409298 -0.291464  -0.0249572 -0.368141 -0.230658  -0.0442514 -0.31216 -0.264919  -0.0239925 -0.305659 -0.261336  -0.0212657 -0.228117 -0.232101  -0.0405159 -0.343676 -0.324767  -0.0228491 -0.279743 -0.211507  -0.0386806 -0.221539 -0.219018  -0.0185344 -0.197363 -0.177518  -0.0308247 -0.138158 -0.161147  -0.0162628 -0.156843 -0.188746  -0.0114896 -0.0942483 -0.136003  -0.0307529 -0.177319 -0.231364  -0.012691 -0.12204 -0.129035  -0.0172496 -0.0691954 -0.0838504  -0.00432968 -0.0542141 -0.0666869  0 3.57628e-07 -2.38419e-07  -0.00373983 -0.0406734 -0.0700796  0 2.98023e-07 0  -0.0126929 -0.0522636 -0.0877438  0 2.98023e-07 -2.38419e-07  -0.000117488 0.0235262 -0.0535398  0.000473209 0.026267 -0.0701666  0.00200301 0.0561743 -0.100764  -0.000496916 0.011809 -0.0708365  -0.000653148 0.0317675 -0.136757  -0.0022491 0.0122333 -0.0881655  0 0 0  0.00399929 0.0320813 -0.0883341  0 1.49012e-08 0  0 7.45058e-09 0  -0.000804909 0.00902508 -0.0552418  0 7.45058e-09 0  0.0112635 0.0721777 -0.168838  0.00501816 0.063911 -0.132791  0.00515243 0.0951654 -0.140294  0.00943473 0.111301 -0.18472  0.00877059 0.140175 -0.172345  0.000244319 0.0642132 -0.194786  0.00233454 0.104143 -0.247376  -0.0010363 0.0760555 -0.240796  0.0162828 0.125891 -0.232992  -5.31673e-05 0.0506853 -0.15256  0.0222839 0.188695 -0.28834  0.0139724 0.164543 -0.227991  0.0120023 0.190335 -0.195303  0.0181151 0.225484 -0.260024  0.0147505 0.243439 -0.210011  0.00511649 0.15413 -0.290338  0.0081408 0.210094 -0.326087  0.00462148 0.185322 -0.358642  0.0268767 0.259762 -0.330312  0.00405055 0.122239 -0.22714  0.0318671 0.338638 -0.359766  0.021521 0.290353 -0.28247  0.0169331 0.298522 -0.213506  0.0244924 0.35881 -0.290941  0.0186453 0.353537 -0.20793  0.010632 0.272585 -0.348294  0.0128844 0.337384 -0.36183  0.0111719 0.329884 -0.431125  0.0352709 0.420249 -0.374046  0.00827593 0.21588 -0.27153  0.0384308 0.503787 -0.373484  0.0265353 0.427305 -0.288548  0.0200825 0.406294 -0.191432  0.0284799 0.494635 -0.272049  0.021329 0.456132 -0.167081  0.0143034 0.403823 -0.361077  0.0157866 0.469791 -0.351146  0.0161173 0.491114 -0.448212  0.0405607 0.585555 -0.358393  0.0112578 0.319284 -0.279781  0.0420983 0.663743 -0.328624  0.0295893 0.558275 -0.246138  0.0220446 0.500564 -0.1332  0.0306668 0.616167 -0.2076  0.0224526 0.539369 -0.0925817  0.0165659 0.53249 -0.327519  0.0173349 0.591535 -0.29486  0.0188059 0.649027 -0.408682  0.0427652 0.736421 -0.286472  0.0131812 0.420059 -0.25104  0.0435452 0.800689 -0.230823  0.0309452 0.667418 -0.160635  0.02288 0.569816 -0.0455534  0.0315127 0.709261 -0.104264  0.0232908 0.593018 0.00513244  0.0174669 0.642965 -0.250888  0.0179528 0.687752 -0.200798  0.0196428 0.786075 -0.315646  0.0438623 0.854665 -0.166019  0.0140284 0.506028 -0.189184  0.0441079 0.895878 -0.0927572  0.0317072 0.741926 -0.0435123  0.0233276 0.606113 0.0594211  0.0318832 0.762302 0.0229721  0.0231591 0.610766 0.114874  0.0179431 0.721642 -0.142567  0.0179379 0.746942 -0.0800788  0.0196644 0.883317 -0.183575  0.0436014 0.925446 -0.0138936  0.014537 0.566672 -0.102459  0.043488 0.939587 0.0696151  0.0314494 0.772324 0.0913322  0.0232625 0.605099 0.169709  0.0316424 0.769364 0.160664  0.0235094 0.591705 0.222632  0.0175301 0.759351 -0.0139849  0.0176942 0.762778 0.0524228  0.018973 0.930475 -0.0250959  0.0433263 0.940448 0.153245  0.014354 0.595117 -0.00105858  0.0434213 0.92604 0.234905  0.0316783 0.756687 0.227339  0.0235487 0.568325 0.271824  0.0319279 0.731029 0.290501  0.0235369 0.537787 0.316492  0.0176851 0.752717 0.11806  0.0178485 0.733365 0.181427  0.0187882 0.922459 0.13697  0.0430738 0.89937 0.313426  0.0145143 0.588639 0.102915  0.043368 0.857985 0.385522  0.0317363 0.69629 0.348461  0.0238634 0.499697 0.354105  0.0323012 0.650969 0.398885  0.0243633 0.456836 0.385316  0.0178157 0.701786 0.239266  0.0184177 0.663083 0.291584  0.019067 0.859417 0.286906  0.0437837 0.806306 0.449227  0.0146667 0.548102 0.197407  0.0444973 0.744299 0.501735  0.0327194 0.599838 0.441105  0.0245744 0.408587 0.407295  0.0332885 0.540858 0.472326  0.0246418 0.357558 0.421267  0.0188847 0.614389 0.334623  0.0194569 0.559949 0.370039  0.0203112 0.751752 0.404152  0.0447353 0.674663 0.54391  0.0154586 0.47886 0.27139  0.0454128 0.597863 0.57204  0.0332758 0.478093 0.49383  0.0248327 0.305023 0.424997  0.0337579 0.411792 0.502741  0.0249834 0.252623 0.42075  0.0196598 0.499438 0.393315  0.0202711 0.436794 0.407871  0.021641 0.609352 0.477003  0.0459096 0.518222 0.586942  0.0160449 0.388978 0.316275  0.0462863 0.437512 0.587029  0.0337861 0.345982 0.501708  0.0245636 0.201687 0.405943  0.0335956 0.280832 0.487156  0.0237119 0.153351 0.383204  0.0203719 0.372101 0.408825  0.0202663 0.307554 0.400332  0.0225561 0.452667 0.496477  0.045723 0.357277 0.574052  0.0165601 0.289236 0.326977  0.0450068 0.279978 0.546018  0.0324466 0.218581 0.462777  0.0227132 0.110031 0.351586  0.0313959 0.161277 0.426472  0.0214164 0.0714846 0.314099  0.0193634 0.245553 0.378602  0.0186307 0.18715 0.348878  0.0215077 0.296082 0.460018  0.0436366 0.208562 0.506007  0.0158005 0.190856 0.302031  0.0417571 0.145164 0.454036  0.0296454 0.110281 0.38299  0.0193574 0.0403328 0.269498  0.0274465 0.0678292 0.329865  0.0164409 0.01574 0.220694  0.0172215 0.134914 0.30763  0.015559 0.0884665 0.259836  0.0189378 0.160148 0.373836  0.0389528 0.0902226 0.392799  0.0140018 0.104803 0.244604  0.035023 0.0466365 0.32209  0.0236437 0.0334741 0.271443  0.0127032 0.000162572 0.168123  0.0192907 0.0100035 0.207113  0.00815892 -0.00790274 0.113605  0.012593 0.0516971 0.203285  0.00896549 0.0229898 0.142549  0.0147662 0.0583537 0.246248  0.030201 0.0148935 0.246848  0.00985217 0.0403336 0.161303  0.0219975 -0.00405401 0.167423  0.0128036 -0.00421146 0.140994  0.00348234 -0.00707325 0.0562074  0.00628781 -0.00614022 0.0711243  0 -2.23517e-07 0  0.00404763 0.00600246 0.073422  0 -2.90573e-07 0  0.00436473 0.00382739 0.0910265  0.0101473 -0.0134408 0.086247  0.00304437 0.0055971 0.057169  0 -3.57628e-07 0  0 -2.90573e-07 0  -0.00101444 0.0191173 -0.0237246  -0.000707902 0.0211531 -0.037719  -0.000647724 0.0420783 -0.0434384  -0.000927284 0.00680184 -0.0399055  -0.000940889 0.0191566 -0.0776968  0 0 0  0 0 0  -0.0013421 0.00486228 -0.0258808  0 0 0  0.000185937 0.0483708 -0.0714881  0.000688612 0.0678376 -0.057729  0.00289336 0.0809988 -0.098259  0.0024564 0.0956378 -0.0669582  -0.000343651 0.0380817 -0.110833  0.000791609 0.0615927 -0.140442  -0.00137135 0.0259235 -0.0704749  0.0052048 0.117167 -0.11936  0.00424069 0.124794 -0.0706208  0.00767311 0.156834 -0.132718  0.00602055 0.154041 -0.0688269  0.002637 0.0909754 -0.164248  0.00426739 0.123236 -0.183499  0.000567377 0.060436 -0.102529  0.00987697 0.197897 -0.139193  0.00739127 0.182822 -0.0613334  0.0115724 0.240001 -0.137447  0.00869536 0.209933 -0.0487261  0.00577366 0.159447 -0.194735  0.00716645 0.196866 -0.200682  0.00306815 0.104245 -0.118679  0.0129914 0.28107 -0.128542  0.00965321 0.234956 -0.0309749  0.0140558 0.320008 -0.111617  0.0105139 0.256394 -0.00944114  0.0081659 0.234987 -0.198402  0.00907856 0.272542 -0.1906  0.0050379 0.151899 -0.117272  0.0149973 0.355622 -0.0887384  0.011055 0.273967 0.0161743  0.0157256 0.386798 -0.0589738  0.0115889 0.287112 0.0441413  0.00975001 0.307929 -0.174816  0.0103412 0.340964 -0.154246  0.00635195 0.196875 -0.0985067  0.0162092 0.41295 -0.0247378  0.0119216 0.295465 0.0742557  0.0165378 0.432456 0.0136921  0.0121769 0.298885 0.104558  0.0106277 0.369409 -0.12741  0.0109817 0.393991 -0.0972507  0.0072118 0.233716 -0.065212  0.0168017 0.445738 0.0541031  0.0121953 0.296938 0.135204  0.0169326 0.451446 0.0966406  0.0123342 0.290259 0.164562  0.011068 0.411959 -0.0626831  0.0112156 0.425194 -0.0261838  0.00758266 0.258114 -0.0220709  0.0169532 0.450598 0.13914  0.0123959 0.2787 0.192347  0.0169808 0.442185 0.180443  0.0124732 0.263333 0.217057  0.0110636 0.431133 0.0120702  0.0111564 0.431994 0.0502927  0.00767708 0.267631 0.0260708  0.0170734 0.427813 0.21917  0.0124339 0.243677 0.238608  0.0171785 0.406358 0.254664  0.0126021 0.221218 0.256066  0.0111346 0.425011 0.0876412  0.0113244 0.413155 0.123411  0.00768769 0.261539 0.0735931  0.0172758 0.379931 0.285911  0.0127257 0.195982 0.269194  0.0174434 0.348421 0.311403  0.0128661 0.169712 0.277502  0.0113237 0.394517 0.155822  0.0116284 0.371942 0.184901  0.00787544 0.240755 0.115205  0.0176717 0.31393 0.331111  0.0128441 0.142059 0.28065  0.0178783 0.275935 0.343804  0.0129824 0.114711 0.278886  0.0118277 0.343792 0.208276  0.0122118 0.312783 0.227315  0.00815964 0.208077 0.146169  0.017983 0.236698 0.350101  0.0129802 0.0877672 0.272019  0.0180326 0.196983 0.348707  0.012913 0.0628301 0.26078  0.0123317 0.278505 0.239423  0.0126359 0.243099 0.246429  0.00858331 0.1673 0.163165  0.0179791 0.158408 0.340986  0.0125728 0.039826 0.244647  0.01772 0.121319 0.325559  0.0122969 0.0198502 0.224896  0.0126824 0.206766 0.245449  0.0127282 0.17069 0.239292  0.00887728 0.123202 0.164269  0.0171812 0.0870193 0.304418  0.011749 0.00309551 0.201359  0.0164068 0.0568725 0.276955  0.0110576 -0.00978217 0.175699  0.0123024 0.136176 0.225581  0.0118494 0.10364 0.207235  0.00892234 0.0805618 0.149176  0.0153689 0.0312562 0.245397  0.00993848 -0.018427 0.147321  0.0139139 0.0112094 0.208775  0.00867128 -0.0229429 0.118011  0.0109596 0.0749291 0.182076  0.00982547 0.0491983 0.15334  0.00826168 0.0439502 0.119328  0.0118475 -0.00346324 0.169689  0.00678444 -0.0229046 0.0875113  0.0091877 -0.0112729 0.127942  0.0045836 -0.0188179 0.057456  0.00788903 0.0290196 0.119482  0.0054307 0.0135417 0.0826898  0.00620818 0.0170344 0.0777311  0.00607324 -0.0130546 0.0854614  0.00226498 -0.0105847 0.027601  0.00279856 -0.00862391 0.0418997  0 -1.19209e-07 0  0.00259399 0.00452486 0.0420561  0 -1.78814e-07 0  0.00227189 0.00293386 0.0269608  0 -1.78814e-07 0  -0.00133537 0.0155568 0.00368071  -0.00128824 0.0172962 -0.00964689  -0.00155413 0.030485 0.0112953  -0.00154543 0.00309658 -0.0118604  -0.00208731 0.00767523 -0.0221469  0 0 0  0 0 0  -0.00172407 0.00155997 0.00157833  0 0 0  -0.00137451 0.0360555 -0.015837  -0.00122122 0.0436046 0.0224879  -0.000481695 0.055385 -0.0172796  -0.000339419 0.054975 0.0367613  -0.00207613 0.0140848 -0.0301554  -0.00172824 0.0214583 -0.0365438  -0.00286837 0.00255996 0.00972939  0.00068137 0.0749097 -0.0150859  0.000585467 0.0636753 0.0531104  0.00212803 0.0937106 -0.00858116  0.0016942 0.0695101 0.071605  -0.000906795 0.0302687 -0.040535  -0.000138313 0.0393852 -0.0427682  -0.00238687 0.000678241 0.0211549  0.0034495 0.111242 0.00137281  0.00247139 0.0723894 0.0911565  0.00461292 0.126997 0.014899  0.00323391 0.0718513 0.111527  0.000755906 0.0493608 -0.0422943  0.00149161 0.0591756 -0.0403104  -0.00137466 -0.00457847 0.0339711  0.005593 0.140421 0.031183  0.00373483 0.0681906 0.131577  0.00640363 0.151024 0.050046  0.00425994 0.0611268 0.151034  0.00223041 0.0690089 -0.0356288  0.00269574 0.0779545 -0.0298104  -0.00054276 -0.0131505 0.0460315  0.00703448 0.158348 0.0704875  0.00451547 0.0511268 0.16905  0.00751621 0.162119 0.0922341  0.00479853 0.0382575 0.185078  0.00322151 0.0858765 -0.0216379  0.00360286 0.0926719 -0.0128148  8.52942e-05 -0.024515 0.0555403  0.0079546 0.162407 0.114181  0.00487638 0.0233516 0.198534  0.00825846 0.159139 0.135862  0.00504279 0.00646198 0.208904  0.0039326 0.0979264 -0.00248122  0.00404549 0.101987 0.00781441  0.000545979 -0.0373562 0.0607402  0.00838506 0.152502 0.15624  0.00505185 -0.0115038 0.215988  0.00841582 0.142605 0.175034  0.00514424 -0.0302242 0.219563  0.00422966 0.103944 0.0189507  0.00426185 0.104875 0.0296528  0.000712514 -0.0498671 0.0606277  0.00853133 0.130061 0.191556  0.00511897 -0.0487364 0.219773  0.00862622 0.115112 0.205493  0.00523281 -0.0667923 0.216253  0.00432086 0.10373 0.0404587  0.00424993 0.101693 0.0504165  0.000802994 -0.0600751 0.0555539  0.00863814 0.0984421 0.216217  0.00522399 -0.0835597 0.209525  0.00862694 0.0803244 0.223596  0.00530243 -0.0986827 0.199512  0.004336 0.097556 0.0596218  0.00435507 0.0928731 0.0677402  0.00082767 -0.066562 0.0463262  0.00872946 0.0616251 0.227474  0.00523663 -0.111512 0.187032  0.00883603 0.0426843 0.227787  0.00528228 -0.12171 0.171947  0.00444794 0.0864495 0.074563  0.00443947 0.079838 0.0800967  0.000875592 -0.0682096 0.0344458  0.00882721 0.0244149 0.224524  0.00516713 -0.128968 0.15526  0.00878596 0.00704715 0.217775  0.00512958 -0.133034 0.137126  0.00459552 0.0719765 0.0837176  0.00470567 0.0642435 0.0861628  0.000904918 -0.0646562 0.0216482  0.00881433 -0.00867796 0.208004  0.00494838 -0.133984 0.118578  0.00881362 -0.022547 0.195327  0.00488877 -0.131532 0.0997024  0.00489497 0.0557829 0.0864949  0.0049727 0.0477376 0.0856943  0.00108218 -0.0563413 0.00998139  0.00865555 -0.0338899 0.180346  0.00470781 -0.126098 0.08146  0.00843167 -0.0426249 0.163215  0.00463629 -0.117663 0.064105  0.00520754 0.0396627 0.0825906  0.0053556 0.0320916 0.0786119  0.00142097 -0.0445154 0.000877619  0.00825858 -0.0485168 0.144772  0.00449324 -0.106898 0.0483329  0.00802541 -0.0514948 0.125157  0.00447488 -0.0937932 0.0343232  0.00556469 0.0250254 0.0724034  0.00559068 0.0185595 0.0654602  0.00209236 -0.0310531 -0.00455904  0.00761461 -0.0514809 0.105265  0.00433803 -0.0791038 0.0225043  0.0070312 -0.0485092 0.0851545  0.00414896 -0.0632365 0.0130064  0.00562477 0.0132463 0.0566025  0.00531912 0.00834575 0.0472481  0.00290513 -0.0179685 -0.00631928  0.00632906 -0.0428961 0.0657372  0.00366545 -0.0468653 0.00594592  0.00523067 -0.0348397 0.046885  0.00289512 -0.0302588 0.00141644  0.00473523 0.00497568 0.0363867  0.0035181 0.00238064 0.0248566  0.00320578 -0.00743005 -0.0050385  0.00387287 -0.0244517 0.0293825  0.00174499 -0.014459 -0.000515699  0.00205946 -0.0125653 0.0135939  0 0 0  0.00202513 0.00112638 0.0124929  0 -5.96046e-08 0  0.00173473 -0.000832647 -0.001966  0 -5.96046e-08 0  -0.00117987 0.0119102 0.0307131  -0.0013137 0.013764 0.0172989  -0.00144175 0.0195685 0.0650861  -0.00164276 0.00013715 0.0153184  -0.00260226 -0.0028109 0.0321369  0 0 0  0 0 0  -0.00147349 -0.00138384 0.0289261  0 0 0  -0.00175054 0.0249615 0.0381277  -0.001701 0.0207176 0.101451  -0.00145985 0.0320666 0.0622158  -0.00143677 0.0161405 0.139087  -0.00315353 -0.00862896 0.0495598  -0.00337991 -0.0172819 0.0667453  -0.00320064 -0.0196868 0.0892959  -0.000986665 0.0354802 0.0879803  -0.00129858 0.00502253 0.175596  -0.000264227 0.0341061 0.114714  -0.00110048 -0.0119245 0.210943  -0.00332612 -0.0286191 0.0828621  -0.0032998 -0.0424373 0.097553  -0.00418779 -0.0576896 0.144253  0.000295281 0.0285513 0.141458  -0.00118601 -0.0348487 0.242809  0.000806808 0.0183373 0.167328  -0.00124353 -0.0625986 0.271364  -0.00309443 -0.0583681 0.110336  -0.00308865 -0.0760937 0.120466  -0.00491351 -0.111773 0.186262  0.00113946 0.00419772 0.191671  -0.00149745 -0.0949606 0.294237  0.00136143 -0.01399 0.213102  -0.00165224 -0.130537 0.312063  -0.00297695 -0.0950995 0.127858  -0.00299245 -0.114714 0.131927  -0.00558138 -0.176459 0.209312  0.00154889 -0.0351706 0.231663  -0.00200641 -0.168257 0.322991  0.00161535 -0.0591702 0.246042  -0.00212938 -0.207237 0.327603  -0.00287175 -0.134624 0.132874  -0.00293213 -0.15399 0.130204  -0.00609344 -0.244132 0.209945  0.00161874 -0.0849462 0.256351  -0.00236762 -0.24581 0.324746  0.00159824 -0.111837 0.261493  -0.00232637 -0.283267 0.315603  -0.00278926 -0.172453 0.124115  -0.00278246 -0.188987 0.114791  -0.00643444 -0.306894 0.187423  0.00166321 -0.138822 0.26215  -0.00245059 -0.317768 0.299519  0.00165653 -0.16512 0.25744  -0.00236309 -0.34903 0.277703  -0.0027169 -0.203576 0.10255  -0.00279319 -0.215184 0.0877612  -0.00650585 -0.356617 0.144548  0.00165558 -0.189973 0.248419  -0.00241244 -0.375223 0.250321  0.00168967 -0.212324 0.23459  -0.00224745 -0.396367 0.218743  -0.0026654 -0.223866 0.0709138  -0.00266826 -0.229032 0.0525899  -0.00646222 -0.387151 0.0865021  0.00177133 -0.231834 0.217201  -0.00231886 -0.41086 0.183727  0.00179493 -0.24739 0.196096  -0.00219893 -0.419269 0.146171  -0.00259781 -0.230738 0.0332353  -0.00270164 -0.228628 0.0137396  -0.00635958 -0.394477 0.0205362  0.00177526 -0.259101 0.172506  -0.00235939 -0.420219 0.107567  0.00173581 -0.26584 0.146767  -0.00241268 -0.414744 0.0689993  -0.00264239 -0.223024 -0.00553322  -0.00271308 -0.213804 -0.0236931  -0.00643897 -0.377586 -0.0451055  0.00166285 -0.268228 0.120127  -0.0027355 -0.402039 0.0321198  0.00153315 -0.265305 0.0931847  -0.00284827 -0.383203 -0.00279474  -0.00270498 -0.201409 -0.0403726  -0.00281334 -0.186138 -0.0546751  -0.00662899 -0.338069 -0.101866  0.00134468 -0.258004 0.066848  -0.00315785 -0.358194 -0.0336671  0.00118136 -0.245735 0.0420742  -0.003268 -0.32857 -0.0604169  -0.00267148 -0.168577 -0.0665522  -0.00256467 -0.149225 -0.0752919  -0.00670815 -0.280857 -0.142658  0.00104833 -0.229839 0.0193782  -0.00346446 -0.294757 -0.0812171  0.000942469 -0.209972 -0.000136614  -0.0033114 -0.257891 -0.0965819  -0.0022769 -0.128688 -0.080847  -0.00201058 -0.107828 -0.0828075  -0.00632763 -0.213116 -0.162111  0.000902414 -0.187489 -0.016423  -0.00308681 -0.219189 -0.104925  0.000991821 -0.162587 -0.0283697  -0.00255227 -0.180012 -0.107314  -0.00136209 -0.0870789 -0.0814996  -0.000708342 -0.0673833 -0.0768263  -0.00515485 -0.143414 -0.158121  0.00126481 -0.136589 -0.0366025  -0.00187469 -0.141716 -0.102558  0.00154638 -0.110012 -0.0400021  -0.000934839 -0.10508 -0.0920174  0.000157118 -0.0490892 -0.0690143  0.000866175 -0.0332452 -0.0586379  -0.00300598 -0.0806744 -0.131464  0.00194907 -0.0837802 -0.0395331  3.93391e-05 -0.0715371 -0.0754087  0.00209928 -0.05896 -0.0345795  0.000638485 -0.0419909 -0.054358  0.00166988 -0.0197522 -0.0460467  0.00180411 -0.00934809 -0.0317485  -0.000315189 -0.0324168 -0.0868964  0.00210142 -0.0358511 -0.0262625  0.000810385 -0.0182067 -0.0283997  0.00142264 -0.0162366 -0.0141299  0 1.19209e-07 0  0.00139356 -0.00279129 -0.0158932  0 5.96046e-08 0  0.00089407 -0.00484031 -0.0302174  0 5.96046e-08 0  -0.001281 0.00778174 0.0584733  -0.00113639 0.00997144 0.0445895  -0.0022081 0.00872409 0.118751  -0.00128007 -0.00275201 0.0429993  -0.00219534 -0.0126207 0.0865405  0 0 0  0 0 0  -0.00106087 -0.00419134 0.0580137  0 0 0  -0.00192429 0.0141461 0.0917034  -0.00367238 -0.0013147 0.179252  -0.00218467 0.00965178 0.140821  -0.00464046 -0.0208873 0.239345  -0.00307088 -0.0303233 0.129091  -0.00404057 -0.0548023 0.169455  -0.00345308 -0.0408227 0.16979  -0.00261959 -0.00259531 0.189495  -0.00590211 -0.0515417 0.295521  -0.00295055 -0.0236909 0.236261  -0.0071736 -0.0905862 0.347775  -0.00494888 -0.0863921 0.205534  -0.00592607 -0.122935 0.237064  -0.00632381 -0.114699 0.267612  -0.0035691 -0.0516465 0.279831  -0.00859249 -0.139527 0.391924  -0.00409949 -0.0877368 0.317892  -0.00972569 -0.194468 0.428955  -0.00672019 -0.165037 0.261995  -0.00751847 -0.209974 0.280362  -0.00949568 -0.218317 0.338192  -0.00474542 -0.128808 0.350494  -0.0109816 -0.254907 0.454809  -0.00540662 -0.175587 0.3749  -0.0119402 -0.318751 0.471566  -0.00823051 -0.257725 0.290524  -0.00903767 -0.30576 0.293087  -0.0119109 -0.339163 0.372036  -0.00612807 -0.225126 0.392045  -0.0128565 -0.384061 0.475471  -0.00663251 -0.276807 0.399432  -0.0133581 -0.448758 0.469393  -0.00952625 -0.35355 0.28669  -0.00996524 -0.398853 0.273023  -0.0137981 -0.463023 0.363497  -0.00701356 -0.328547 0.398628  -0.0138075 -0.510963 0.450754  -0.00724578 -0.379075 0.387696  -0.0138854 -0.569192 0.422603  -0.0100608 -0.441007 0.250532  -0.0102329 -0.478144 0.221695  -0.0145283 -0.575293 0.313429  -0.00742543 -0.426717 0.36907  -0.0140673 -0.620403 0.383829  -0.00753415 -0.469583 0.341444  -0.0140327 -0.664513 0.337205  -0.010255 -0.509374 0.186271  -0.0102849 -0.533725 0.146448  -0.0147265 -0.662207 0.227779  -0.00749779 -0.507248 0.307344  -0.0140342 -0.698643 0.283206  -0.00740874 -0.537419 0.266309  -0.0137473 -0.723305 0.223783  -0.010156 -0.550045 0.101975  -0.010211 -0.558484 0.0556185  -0.0145165 -0.712892 0.117183  -0.00735545 -0.560161 0.220876  -0.0137515 -0.735945 0.160601  -0.00728798 -0.573647 0.171693  -0.0136842 -0.73818 0.0956798  -0.010075 -0.557711 0.0078876  -0.0100559 -0.549165 -0.0390954  -0.0142831 -0.720983 -0.00525093  -0.00724459 -0.579005 0.120632  -0.0138881 -0.728149 0.0316529  -0.00736225 -0.574277 0.0689294  -0.0139968 -0.70739 -0.0305905  -0.0100833 -0.531802 -0.0845447  -0.0103488 -0.507083 -0.126335  -0.0144302 -0.685845 -0.124394  -0.00762129 -0.561111 0.018729  -0.0144762 -0.675052 -0.0877669  -0.00785315 -0.538463 -0.0283463  -0.0148146 -0.633775 -0.139715  -0.0104572 -0.474357 -0.163111  -0.01062 -0.436336 -0.194277  -0.0149245 -0.610317 -0.224905  -0.00816 -0.508532 -0.0716088  -0.0153172 -0.583852 -0.18284  -0.00847888 -0.470703 -0.108813  -0.015475 -0.527143 -0.217847  -0.010639 -0.392874 -0.218485  -0.0106921 -0.346369 -0.235247  -0.0153687 -0.504414 -0.294612  -0.00877213 -0.427621 -0.139501  -0.0156446 -0.46513 -0.24135  -0.00880289 -0.379595 -0.16161  -0.0153215 -0.399962 -0.25519  -0.0103166 -0.297283 -0.24296  -0.00977635 -0.248115 -0.243075  -0.0150635 -0.380871 -0.324007  -0.00860858 -0.328753 -0.176183  -0.014729 -0.33421 -0.256694  -0.00817466 -0.276143 -0.181005  -0.0134852 -0.26882 -0.247785  -0.00881076 -0.19956 -0.234359  -0.00775433 -0.15382 -0.218176  -0.0133336 -0.255331 -0.310495  -0.00738597 -0.223943 -0.177616  -0.0119112 -0.207173 -0.22682  -0.00621486 -0.173868 -0.164592  -0.00960588 -0.149573 -0.196625  -0.00606823 -0.112132 -0.193467  -0.00441337 -0.0756835 -0.163352  -0.00993013 -0.143562 -0.255482  -0.00460696 -0.126878 -0.144227  -0.00699687 -0.0994299 -0.157069  -0.00284958 -0.0846858 -0.115809  -0.0039227 -0.0563025 -0.11021  -0.00234342 -0.0452129 -0.127121  -0.000758171 -0.0215392 -0.0875466  -0.00528669 -0.0585196 -0.167652  -0.00101662 -0.0483168 -0.0818264  -0.00100446 -0.0233032 -0.056711  0.000107527 -0.0203742 -0.0421221  0 2.38419e-07 0  0.000277519 -0.00722784 -0.0440187  0 1.78814e-07 0  -0.000582218 -0.00975382 -0.0584755  0 1.78814e-07 0  -0.0047591 0.00853884 0.0873835  -0.00213484 0.00597692 0.0727384  -0.0119223 0.00223637 0.170228  -0.00184674 -0.00569892 0.0729725  -0.00347894 -0.0219291 0.142881  0 0 0  0 0 0  -0.00147083 -0.00546092 0.0890462  0 0 0  -0.00518882 0.00453341 0.144922  -0.0148487 -0.0189377 0.255052  -0.00760825 -0.0115372 0.217196  -0.018476 -0.0527717 0.337117  -0.00501716 -0.0515391 0.21001  -0.00671616 -0.0908567 0.272669  -0.00658162 -0.0601515 0.25056  -0.00953704 -0.037811 0.288139  -0.0204517 -0.102587 0.415364  -0.0113999 -0.078539 0.354319  -0.0235001 -0.16423 0.484274  -0.00837737 -0.142902 0.32898  -0.0102986 -0.202374 0.377216  -0.00988072 -0.169075 0.392653  -0.0133071 -0.128013 0.41535  -0.0251431 -0.239327 0.542687  -0.0153412 -0.190092 0.465739  -0.0283254 -0.321364 0.587726  -0.0125178 -0.271461 0.413965  -0.0144914 -0.34386 0.440549  -0.0144921 -0.3231 0.493251  -0.0172584 -0.258302 0.507112  -0.0300432 -0.411402 0.617799  -0.018838 -0.333282 0.534549  -0.0324973 -0.503066 0.632967  -0.0161305 -0.420295 0.453062  -0.0172424 -0.496435 0.454277  -0.0194179 -0.501464 0.537619  -0.0201235 -0.410642 0.551524  -0.0330106 -0.596866 0.6312  -0.0212187 -0.490124 0.552048  -0.0344838 -0.688146 0.614264  -0.0181668 -0.572085 0.440226  -0.0189572 -0.643541 0.415489  -0.0224416 -0.682678 0.519916  -0.0219744 -0.568094 0.541049  -0.0340977 -0.774653 0.580269  -0.0225489 -0.642258 0.514328  -0.0346532 -0.85318 0.533211  -0.0194304 -0.709243 0.375896  -0.0195495 -0.766947 0.3282  -0.0235749 -0.84521 0.441376  -0.0227507 -0.71084 0.47724  -0.0341291 -0.922829 0.471684  -0.0226446 -0.77059 0.427041  -0.0344695 -0.9798 0.400865  -0.0195647 -0.814587 0.269165  -0.0196501 -0.851969 0.204654  -0.0236173 -0.969554 0.312165  -0.0225952 -0.821541 0.368715  -0.0333157 -1.02286 0.318738  -0.022414 -0.859649 0.300601  -0.0331794 -1.05141 0.232859  -0.0192522 -0.875398 0.132334  -0.0188746 -0.887339 0.0583448  -0.0227827 -1.04059 0.147689  -0.0221401 -0.886617 0.228086  -0.0325328 -1.06342 0.140409  -0.0219982 -0.898476 0.150524  -0.0330523 -1.05994 0.0483487  -0.0187204 -0.883934 -0.0182941  -0.0188205 -0.869206 -0.092659  -0.0219295 -1.04982 -0.0319467  -0.0220869 -0.898296 0.0721092  -0.0325787 -1.03921 -0.0431206  -0.0222518 -0.88216 -0.00528669  -0.0333663 -1.00393 -0.128162  -0.0191817 -0.839402 -0.164114  -0.0193834 -0.799546 -0.229142  -0.0219715 -0.996108 -0.204993  -0.0225477 -0.854752 -0.0789595  -0.0335945 -0.952111 -0.207696  -0.0230521 -0.812455 -0.146739  -0.035008 -0.888626 -0.276594  -0.0197616 -0.745952 -0.286284  -0.0202458 -0.685473 -0.334284  -0.0227225 -0.883907 -0.350219  -0.0237315 -0.760564 -0.207391  -0.0351074 -0.812543 -0.33392  -0.0242877 -0.697282 -0.256772  -0.0361979 -0.729539 -0.376707  -0.0207109 -0.615628 -0.370289  -0.0207024 -0.542473 -0.394907  -0.0237629 -0.728636 -0.449183  -0.0246334 -0.627997 -0.296189  -0.0360019 -0.638077 -0.404442  -0.0247474 -0.55149 -0.32124  -0.0364273 -0.544713 -0.416542  -0.0203688 -0.464334 -0.40451  -0.0197208 -0.387171 -0.402845  -0.0237911 -0.547843 -0.488605  -0.0244799 -0.472513 -0.334777  -0.0347009 -0.450129 -0.411483  -0.0235305 -0.392637 -0.332355  -0.033237 -0.359744 -0.391326  -0.0185208 -0.311057 -0.385993  -0.0165765 -0.240043 -0.358641  -0.0217018 -0.366067 -0.464837  -0.0218122 -0.314777 -0.318603  -0.02988 -0.273933 -0.354363  -0.0194278 -0.241318 -0.289671  -0.0264993 -0.196532 -0.304895  -0.0139339 -0.175357 -0.316894  -0.0112011 -0.118921 -0.26754  -0.0166273 -0.205557 -0.380366  -0.0162637 -0.173736 -0.250149  -0.0212531 -0.12987 -0.242414  -0.0123396 -0.115261 -0.199065  -0.0154662 -0.0754558 -0.171913  -0.00802207 -0.0728026 -0.207949  -0.00473785 -0.0373233 -0.144327  -0.00959468 -0.0860504 -0.249937  -0.0075562 -0.0661501 -0.140459  -0.00847697 -0.0337549 -0.0896058  -0.00274682 -0.0273395 -0.0725  0 3.57628e-07 0  -0.00120425 -0.0137011 -0.0729973  0 2.98023e-07 0  -0.00254917 -0.0179306 -0.0886695  0 2.98023e-07 0  -0.00172225 -0.00622351 -0.0557556  -0.00239775 -0.00412321 -0.0702846  -0.00327341 -0.00527146 -0.110607  -0.00228871 -0.0185369 -0.0690391  -0.0103365 -0.0311412 -0.139753  -0.0164955 -0.0219186 -0.0816851  0 0 0  -0.0119833 -0.00718877 -0.0853233  0 1.49012e-08 0  0 7.45058e-09 0  -0.00145333 -0.0208183 -0.0556841  0 7.45058e-09 0  -0.0159092 0.00220902 -0.168726  -0.00629573 -0.000958972 -0.138956  -0.00429733 0.00555596 -0.163264  -0.00834362 0.0167522 -0.203842  -0.00419784 0.0247777 -0.213327  -0.01437 -0.0285227 -0.211487  -0.0174004 -0.0143873 -0.282342  -0.0322252 -0.0179042 -0.249017  -0.0189198 0.0256634 -0.246735  -0.00715229 -0.0395175 -0.17482  -0.0184693 0.0616105 -0.319918  -0.00868878 0.0437468 -0.265479  -0.00335604 0.053593 -0.258019  -0.00755578 0.0826485 -0.320174  -0.00197062 0.0893506 -0.297582  -0.0172778 0.0141239 -0.34891  -0.0161782 0.0525567 -0.410071  -0.0345562 0.0426206 -0.40787  -0.0173633 0.110403 -0.386242  -0.00889057 -0.014053 -0.290087  -0.0151587 0.170425 -0.442617  -0.00604358 0.130003 -0.368145  -0.000244677 0.132327 -0.3287  -0.00355166 0.185897 -0.405669  0.00123912 0.179845 -0.353328  -0.0150862 0.102324 -0.461735  -0.0137551 0.159339 -0.505973  -0.0321687 0.153757 -0.536376  -0.0130618 0.23918 -0.487714  -0.00726986 0.0504899 -0.38774  -0.0108086 0.31515 -0.519689  -0.00226921 0.247091 -0.434373  0.0024938 0.231098 -0.367809  -5.6982e-05 0.312626 -0.450542  0.00350672 0.284748 -0.373841  -0.012391 0.224087 -0.537307  -0.011186 0.293844 -0.558241  -0.0285518 0.303643 -0.618656  -0.00872612 0.39624 -0.538727  -0.00500548 0.145195 -0.456851  -0.00723034 0.478864 -0.542164  0.000624239 0.380816 -0.455888  0.0043177 0.338483 -0.369165  0.00202942 0.448566 -0.447891  0.00481784 0.391682 -0.356396  -0.010218 0.366088 -0.564913  -0.00927854 0.439269 -0.560676  -0.0261855 0.473359 -0.643136  -0.00585175 0.561953 -0.531681  -0.00328451 0.259452 -0.487671  -0.00539839 0.641631 -0.505394  0.00243115 0.514974 -0.429247  0.00540853 0.44118 -0.333423  0.00320578 0.576671 -0.398215  0.00559235 0.487385 -0.303375  -0.00862658 0.510596 -0.54155  -0.00881076 0.578844 -0.512908  -0.0248485 0.643952 -0.606939  -0.00523591 0.717785 -0.466355  -0.00204313 0.378907 -0.477068  -0.00533557 0.783916 -0.415302  0.00275958 0.63327 -0.358438  0.00583863 0.526557 -0.265299  0.00334072 0.681285 -0.308755  0.00564206 0.560299 -0.221822  -0.00891352 0.63992 -0.471294  -0.00892067 0.694544 -0.42142  -0.0254698 0.792218 -0.51596  -0.00535154 0.842248 -0.353857  -0.00178456 0.488934 -0.42673  -0.00580323 0.887193 -0.282648  0.00293505 0.721326 -0.252179  0.0057112 0.584724 -0.173068  0.003075 0.749884 -0.189274  0.00546503 0.602179 -0.12095  -0.00897276 0.738113 -0.361298  -0.00972795 0.773084 -0.296034  -0.0261272 0.901863 -0.379048  -0.00631142 0.921576 -0.204187  -0.00189924 0.576128 -0.342904  -0.006791 0.940369 -0.123236  0.00219476 0.768904 -0.123019  0.00552833 0.609031 -0.0672131  0.00265622 0.775017 -0.054728  0.00538933 0.608277 -0.0128744  -0.0100529 0.794229 -0.225402  -0.0100032 0.805143 -0.15271  -0.0273464 0.958875 -0.215169  -0.00677514 0.946683 -0.0393574  -0.00246167 0.630461 -0.234711  -0.00687885 0.936537 0.0432675  0.00239921 0.770613 0.013658  0.00568748 0.596932 0.0394771  0.00290346 0.753329 0.0794628  0.00583375 0.57802 0.0898416  -0.009637 0.800996 -0.0793817  -0.00978863 0.786912 -0.00775051  -0.0270433 0.957028 -0.0413792  -0.00670779 0.913632 0.124561  -0.00233257 0.645709 -0.11571  -0.00638556 0.877309 0.197762  0.00257909 0.726518 0.141638  0.00632989 0.549875 0.134597  0.00365829 0.688451 0.197011  0.00668716 0.515385 0.174878  -0.00931346 0.758762 0.058975  -0.00844049 0.721429 0.120704  -0.0262941 0.897639 0.118818  -0.00540793 0.8294 0.265026  -0.00184238 0.619922 0.000375509  -0.00465155 0.769785 0.321016  0.00403786 0.64219 0.245716  0.00737619 0.473909 0.206856  0.0050745 0.587571 0.284144  0.00785017 0.427712 0.232407  -0.00725365 0.672088 0.173178  -0.00667644 0.616074 0.218019  -0.0238423 0.786819 0.248713  -0.00364923 0.701091 0.36755  -0.000384092 0.556976 0.0993946  -0.00290895 0.627115 0.399677  0.00515914 0.52779 0.313715  0.00843644 0.377772 0.247721  0.00629663 0.463499 0.330824  0.00864601 0.325518 0.255544  -0.00576162 0.552244 0.25009  -0.00476646 0.4843 0.272529  -0.0218043 0.640142 0.331538  -0.00177693 0.547814 0.419572  0.00115204 0.463866 0.16976  -0.00153661 0.466352 0.423764  0.006428 0.396874 0.337633  0.00886178 0.272795 0.252342  0.00674486 0.329875 0.331172  0.00849104 0.220101 0.241357  -0.00396943 0.412507 0.280172  -0.00414443 0.340031 0.277666  -0.0200245 0.471968 0.358613  -0.00138116 0.383426 0.41471  0.00255561 0.352009 0.203141  -0.00216961 0.305116 0.391284  0.00584769 0.264046 0.314618  0.00809646 0.170413 0.219771  0.00570083 0.201831 0.285567  0.00710011 0.123001 0.19138  -0.00443554 0.268651 0.260156  -0.00453782 0.19965 0.232692  -0.0205753 0.303364 0.326462  -0.00239229 0.229443 0.354882  0.00239778 0.233295 0.19487  -0.00303793 0.161913 0.30531  0.00478649 0.143854 0.247385  0.00613093 0.0818638 0.153863  0.00455642 0.0933648 0.198418  0.00463605 0.0458473 0.10988  -0.00416446 0.136311 0.190631  -0.00384641 0.0793303 0.13992  -0.0186107 0.150574 0.236641  -0.00195169 0.10116 0.244303  0.00131059 0.121223 0.145536  -0.00126195 0.0537631 0.175126  0.00319266 0.0504263 0.141907  0.00235057 0.0191154 0.0572984  0.00256348 0.0199304 0.0745285  0 -2.23517e-07 0  -0.00177145 0.0340124 0.0744224  0 -2.90573e-07 0  -0.00551462 0.0384734 0.0923579  0.0012598 0.018427 0.0927668  0.000658512 0.0314477 0.0563242  0 -3.57628e-07 0  0 -2.90573e-07 0  -0.00169853 -0.0101676 -0.02774  -0.00146149 -0.00818837 -0.0414937  -0.00258575 -0.0161228 -0.055717  -0.00131623 -0.0230843 -0.0427821  -0.00308761 -0.0409475 -0.0885913  0 0 0  0 0 0  -0.00174369 -0.0250702 -0.0292258  0 0 0  -0.00238264 -0.0107963 -0.0833397  -0.00313857 -0.017166 -0.0833986  -0.00290082 -0.00597614 -0.123369  -0.00321329 -0.0135958 -0.109914  -0.00433774 -0.0497148 -0.135693  -0.00549436 -0.0506974 -0.18322  -0.00407314 -0.060136 -0.0960414  -0.00302225 0.00551778 -0.161832  -0.00288495 -0.00472632 -0.134995  -0.00231758 0.0243721 -0.196707  -0.00215456 0.00789031 -0.157461  -0.00565249 -0.0418768 -0.229149  -0.00535139 -0.0259289 -0.272613  -0.00532186 -0.0697793 -0.167607  -0.00130442 0.0486214 -0.227814  -0.00135213 0.0251907 -0.176713  -0.000169098 0.0787575 -0.253049  -0.000354588 0.0451005 -0.192779  -0.00451696 -0.00150304 -0.311664  -0.00375545 0.0289213 -0.346587  -0.00473613 -0.0537097 -0.235188  0.000975311 0.112657 -0.273324  0.000273943 0.0685981 -0.204296  0.00196081 0.149996 -0.286337  0.000957131 0.0935318 -0.211771  -0.0028078 0.0656777 -0.374423  -0.00210381 0.106944 -0.395828  -0.00355786 -0.0142467 -0.291629  0.00271952 0.189424 -0.293009  0.00145721 0.119773 -0.213979  0.00339305 0.229447 -0.291716  0.0020498 0.146243 -0.212346  -0.00131601 0.151665 -0.40866  -0.000926018 0.198548 -0.414644  -0.0024873 0.0432509 -0.329727  0.00399125 0.269224 -0.284319  0.00238717 0.172297 -0.205416  0.0044204 0.307038 -0.269501  0.00268805 0.197203 -0.194984  -0.000396967 0.245544 -0.41118  5.93662e-05 0.292119 -0.400715  -0.00157297 0.11145 -0.34546  0.00469983 0.342639 -0.249024  0.00281549 0.219834 -0.180037  0.00488305 0.373563 -0.222614  0.00292385 0.240278 -0.162177  0.000281334 0.33567 -0.382005  0.00026536 0.376682 -0.356951  -0.000957251 0.182105 -0.337703  0.00494373 0.400412 -0.191777  0.00283611 0.257241 -0.14066  0.004861 0.421276 -0.156721  0.00277293 0.271027 -0.117223  2.76566e-05 0.411831 -0.324709  -5.80549e-05 0.442088 -0.287188  -0.00102186 0.24718 -0.306911  0.0047338 0.436745 -0.118711  0.00274301 0.280215 -0.0916708  0.00473809 0.444873 -0.0791748  0.00284588 0.285801 -0.0654526  -0.000153065 0.464776 -0.245325  -0.000203967 0.481371 -0.200319  -0.00125301 0.299123 -0.256357  0.0047996 0.447001 -0.0389175  0.00286257 0.286295 -0.0387332  0.00488007 0.441749 0.000658989  0.00300372 0.283045 -0.0126708  -0.000261426 0.48876 -0.153665  -8.9407e-06 0.488943 -0.106254  -0.00121546 0.331766 -0.19209  0.0050267 0.430413 0.0389616  0.00322831 0.274828 0.0119987  0.0053817 0.412366 0.0736568  0.00362682 0.263273 0.0348601  0.000358343 0.480494 -0.0604751  0.00083971 0.465246 -0.0162466  -0.000825047 0.341328 -0.121618  0.00580645 0.389146 0.105047  0.00394201 0.247315 0.0548275  0.00624132 0.360523 0.131142  0.00438309 0.22867 0.0718427  0.00136352 0.441776 0.0232947  0.00213027 0.412112 0.0587902  0.000146389 0.326851 -0.0531771  0.00666404 0.327849 0.152348  0.0048213 0.206849 0.0845721  0.00718021 0.292068 0.166418  0.00538325 0.183315 0.0937052  0.00295281 0.376686 0.0874195  0.00370502 0.336725 0.110508  0.00152898 0.289917 0.00507998  0.00760078 0.25413 0.174624  0.00570512 0.157969 0.0976546  0.0078063 0.215113 0.175134  0.00600219 0.132043 0.0975494  0.00427055 0.293218 0.124555  0.00470114 0.247115 0.131562  0.00317621 0.234803 0.0460663  0.00776243 0.175711 0.169306  0.00595379 0.106141 0.0918686  0.00743198 0.137932 0.155838  0.00570035 0.0806693 0.0824029  0.00470901 0.200609 0.12935  0.00425053 0.153495 0.120039  0.00424576 0.167832 0.0642724  0.00677395 0.101769 0.136617  0.0048151 0.0568199 0.0677164  0.00568962 0.0691499 0.110554  0.00363493 0.0349925 0.0492699  0.00330925 0.10912 0.101252  0.0022459 0.0670391 0.0749321  0.00360274 0.0964336 0.0573149  0.00417137 0.0404707 0.0791261  0.00198674 0.0161849 0.0259898  0.00215197 0.0177613 0.0416508  0 -1.19209e-07 0  0.00139403 0.0308083 0.0407505  0 -1.78814e-07 0  0.00159717 0.0294538 0.02458  0 -1.78814e-07 0  -0.00200097 -0.0129066 -0.000473022  -0.00189622 -0.0116882 -0.0139201  -0.00345846 -0.0261662 -0.00105047  -0.00200659 -0.0264133 -0.0158291  -0.00373168 -0.0505982 -0.0342612  0 0 0  0 0 0  -0.00226014 -0.0274314 -0.0024364  0 0 0  -0.00320978 -0.0213569 -0.0283589  -0.00455272 -0.039045 -0.00308299  -0.00383002 -0.0282283 -0.0430148  -0.00512558 -0.0515081 -0.00605416  -0.00499038 -0.0705693 -0.0558441  -0.0060887 -0.086732 -0.0795054  -0.00613622 -0.0806993 -0.0155718  -0.00412598 -0.0325844 -0.0580621  -0.00542581 -0.0624903 -0.010869  -0.00401422 -0.0338343 -0.072876  -0.00540969 -0.0730771 -0.0163686  -0.00653592 -0.0976864 -0.10515  -0.00680035 -0.104773 -0.131349  -0.00839695 -0.125488 -0.0423563  -0.00366199 -0.0327286 -0.0870395  -0.00534946 -0.081559 -0.0232353  -0.00316811 -0.0285013 -0.100052  -0.00509846 -0.089263 -0.0309615  -0.00662982 -0.106156 -0.157746  -0.00654095 -0.103445 -0.183824  -0.00922793 -0.158406 -0.0799088  -0.00267255 -0.0221792 -0.112056  -0.00493956 -0.0945089 -0.0394838  -0.00215775 -0.0130881 -0.122045  -0.00469834 -0.0985956 -0.0486312  -0.0060724 -0.0948579 -0.208205  -0.0057261 -0.0827096 -0.23086  -0.00937319 -0.175744 -0.124358  -0.00167423 -0.00253263 -0.130299  -0.00448477 -0.100134 -0.0578885  -0.00120252 0.00977817 -0.136087  -0.0041734 -0.100311 -0.0676436  -0.00520569 -0.0660496 -0.250333  -0.0049175 -0.0463707 -0.2672  -0.00895131 -0.175893 -0.170763  -0.000813603 0.0229979 -0.14006  -0.00397527 -0.0980944 -0.0768814  -0.000528693 0.0371075 -0.141366  -0.00380373 -0.0942665 -0.0863924  -0.00451195 -0.0235862 -0.27981  -0.00424218 0.00127167 -0.289204  -0.0083704 -0.159182 -0.213969  -0.000281572 0.0515198 -0.140798  -0.00377309 -0.0883004 -0.0946903  -0.000157356 0.0658359 -0.137537  -0.00367939 -0.0807492 -0.102619  -0.00402737 0.0276776 -0.293737  -0.00403261 0.054961 -0.294397  -0.00813985 -0.127206 -0.249675  -0.000114322 0.0798411 -0.13248  -0.00369251 -0.0715728 -0.108605  -0.000162482 0.0929545 -0.124836  -0.00366437 -0.0610687 -0.11392  -0.00400341 0.0819322 -0.289847  -0.00415969 0.108421 -0.281326  -0.00801802 -0.083679 -0.272685  -0.000147104 0.105075 -0.115546  -0.00369465 -0.0496941 -0.116941  -0.000146866 0.11542 -0.104383  -0.00365841 -0.037388 -0.118811  -0.00419688 0.133017 -0.2682  -0.00425398 0.15572 -0.251691  -0.00810492 -0.033448 -0.280282  -0.000169873 0.12431 -0.0920954  -0.00367522 -0.0250868 -0.118212  -0.000146031 0.130798 -0.0785112  -0.00358558 -0.0123264 -0.116319  -0.00414336 0.174712 -0.231502  -0.00410295 0.190781 -0.20876  -0.00810111 0.0174156 -0.271231  -1.66893e-05 0.135411 -0.064384  -0.0035274 -0.000469893 -0.112095  0.000171304 0.137348 -0.0499783  -0.00330567 0.0112234 -0.106382  -0.00387669 0.202349 -0.18373  -0.00356662 0.210138 -0.157321  -0.00789475 0.0632384 -0.246325  0.00039053 0.137306 -0.0356469  -0.00305462 0.0211202 -0.0987782  0.000698805 0.134385 -0.0218778  -0.00262976 0.0302644 -0.0899336  -0.0029974 0.212555 -0.130499  -0.00247383 0.210846 -0.103608  -0.00718498 0.0982658 -0.208245  0.00112271 0.129438 -0.00891423  -0.00219727 0.0369452 -0.0798719  0.00161052 0.121971 0.00250649  -0.00153065 0.0422174 -0.0688906  -0.00170565 0.203999 -0.0779059  -0.00089097 0.193024 -0.0536008  -0.00588226 0.118298 -0.161355  0.00212932 0.112734 0.0125163  -0.000815868 0.0445775 -0.057626  0.00270844 0.101352 0.0201652  0.000121117 0.0452628 -0.0461626  0.000196934 0.177481 -0.0325713  0.00111818 0.158317 -0.014241  -0.00382447 0.120377 -0.111454  0.00329757 0.0885792 0.0257039  0.000906467 0.0430395 -0.0354135  0.00374055 0.0745954 0.0283368  0.00178075 0.0387648 -0.025157  0.00203276 0.136057 -0.000302792  0.00258064 0.110902 0.00977659  -0.00116181 0.104311 -0.0649936  0.00399566 0.0597458 0.028578  0.00216508 0.0319406 -0.0165367  0.00382018 0.0444417 0.0257053  0.0021534 0.0233847 -0.00898814  0.00274706 0.0842749 0.0145853  0.00236773 0.0562244 0.0147405  0.00108957 0.0716957 -0.0283785  0.00322366 0.0293447 0.0200455  0.00154757 0.012423 -0.00350261  0.0019114 0.0143963 0.0113063  0 0 0  0.00157809 0.0279837 0.00977921  0 -5.96046e-08 2.38419e-07  0.00131822 0.0262229 -0.00526142  0 -5.96046e-08 0  -0.00169808 -0.0149375 0.0268159  -0.00197028 -0.0140702 0.0132656  -0.0031655 -0.0354198 0.0533659  -0.00219227 -0.0280656 0.0111594  -0.00433978 -0.0589146 0.0202045  0 0 0  0 0 0  -0.00184776 -0.0286548 0.0246446  0 0 0  -0.00358516 -0.0308027 0.0260088  -0.00463685 -0.0603077 0.076977  -0.00477378 -0.0497463 0.037019  -0.00591442 -0.0890001 0.0975804  -0.00645484 -0.0906585 0.0247827  -0.00843048 -0.122881 0.025311  -0.00614652 -0.100659 0.0651622  -0.00582382 -0.0702603 0.0457363  -0.00697693 -0.120349 0.113126  -0.00646666 -0.0914619 0.0514071  -0.00780708 -0.154008 0.124498  -0.00971994 -0.153818 0.020483  -0.0107681 -0.183961 0.0115368  -0.0102038 -0.182305 0.0831008  -0.00686741 -0.113469 0.0541821  -0.00859869 -0.188506 0.130205  -0.00712436 -0.135117 0.0537016  -0.00920939 -0.223723 0.130634  -0.011407 -0.211305 -0.00201941  -0.0119885 -0.236438 -0.0196445  -0.0128919 -0.264664 0.0755951  -0.00732738 -0.156495 0.050041  -0.00970888 -0.257801 0.125043  -0.00742769 -0.176323 0.043014  -0.0100463 -0.290535 0.114036  -0.0122371 -0.257144 -0.040741  -0.0124912 -0.274204 -0.0650477  -0.0145671 -0.3389 0.0424356  -0.007456 -0.194594 0.0329349  -0.0103198 -0.320118 0.0977252  -0.00747329 -0.210363 0.0200963  -0.0105026 -0.346659 0.0764244  -0.0124707 -0.286031 -0.0916386  -0.0124528 -0.293248 -0.11997  -0.0153217 -0.396478 -0.0129364  -0.00742167 -0.223625 0.00463772  -0.0106394 -0.36834 0.0508881  -0.00731993 -0.233512 -0.0128582  -0.0105816 -0.385223 0.0216458  -0.0122451 -0.294915 -0.148866  -0.0121859 -0.291306 -0.178155  -0.0156311 -0.430652 -0.0844195  -0.00721312 -0.239971 -0.0321448  -0.0105668 -0.396104 -0.00986934  -0.00719655 -0.242491 -0.0522268  -0.0105041 -0.401209 -0.043314  -0.0120341 -0.282096 -0.206139  -0.0120811 -0.267885 -0.232763  -0.0154035 -0.436779 -0.163351  -0.00719213 -0.241207 -0.0728273  -0.0104752 -0.399767 -0.0770733  -0.0071342 -0.235981 -0.0928876  -0.0103868 -0.392376 -0.110835  -0.0119348 -0.249003 -0.256176  -0.0119669 -0.225955 -0.276769  -0.0152366 -0.413889 -0.240257  -0.00710356 -0.227009 -0.112248  -0.0103818 -0.378889 -0.142599  -0.00710011 -0.21454 -0.129905  -0.0103788 -0.359838 -0.172311  -0.0119284 -0.199491 -0.292866  -0.0120074 -0.170127 -0.30481  -0.0151098 -0.36491 -0.305933  -0.00713289 -0.198901 -0.145541  -0.0104634 -0.335639 -0.198078  -0.00710082 -0.180589 -0.158299  -0.0105064 -0.306955 -0.21996  -0.0119538 -0.139298 -0.311304  -0.0120287 -0.107025 -0.31309  -0.0152349 -0.295221 -0.351722  -0.00715411 -0.159916 -0.168189  -0.0105664 -0.274878 -0.23635  -0.00711942 -0.137792 -0.174454  -0.0104692 -0.240018 -0.247537  -0.0118867 -0.075229 -0.309111  -0.0117139 -0.0439687 -0.300083  -0.0152719 -0.212893 -0.372  -0.00699353 -0.114641 -0.177104  -0.0103025 -0.203998 -0.25234  -0.00670218 -0.0915233 -0.175799  -0.00996375 -0.167333 -0.251337  -0.0112505 -0.0152676 -0.285949  -0.0107932 0.0111877 -0.267306  -0.0148113 -0.128 -0.363482  -0.00638461 -0.0687173 -0.170835  -0.00944471 -0.131914 -0.243951  -0.00588131 -0.0474492 -0.162154  -0.00862956 -0.0980744 -0.230874  -0.00998735 0.0332927 -0.244566  -0.00907612 0.0513335 -0.218337  -0.0135508 -0.0510357 -0.327391  -0.00515389 -0.0280344 -0.150127  -0.0075829 -0.0677415 -0.212152  -0.00418568 -0.0115098 -0.135106  -0.00630116 -0.040947 -0.188819  -0.00771117 0.0639144 -0.189842  -0.00629091 0.071457 -0.159558  -0.0111725 0.00795883 -0.267699  -0.00311804 0.00210792 -0.117754  -0.00476837 -0.0195614 -0.16132  -0.00186753 0.0118924 -0.0985343  -0.00295782 -0.00320375 -0.131007  -0.00446153 0.0730427 -0.128952  -0.00267577 0.0688444 -0.0986876  -0.00758958 0.0419886 -0.192277  -0.000462532 0.0178832 -0.0783148  -0.0012033 0.00672835 -0.0989037  0.000733137 0.0194715 -0.0577657  4.07696e-05 0.010958 -0.0655351  -0.000804186 0.0591656 -0.0700579  0.00056982 0.0443843 -0.0431361  -0.0029211 0.046374 -0.111523  0.00150371 0.0173479 -0.0372307  0.000762463 0.00806332 -0.0319932  0.00126481 0.0103539 -0.0176063  0 1.19209e-07 0  0.0010004 0.0241876 -0.0194521  0 5.96046e-08 2.38419e-07  0.000448942 0.0218754 -0.0338686  0 5.96046e-08 0  -0.000703424 -0.0175406 0.0560691  -0.00109389 -0.0160462 0.0414007  -0.00111206 -0.0448716 0.109718  -0.000988573 -0.0294268 0.0388575  -0.0021926 -0.0668966 0.0754306  0 0 0  0 0 0  2.03103e-05 -0.0306047 0.0543787  0 0 0  -0.00225703 -0.0398647 0.0811012  -0.00230014 -0.0823108 0.158464  -0.00344138 -0.0711918 0.117554  -0.00378564 -0.12677 0.202199  -0.00411543 -0.111325 0.106064  -0.00654098 -0.159952 0.130226  -0.00120717 -0.122733 0.148328  -0.00510031 -0.107816 0.14958  -0.00559238 -0.179518 0.23739  -0.00656509 -0.149763 0.175125  -0.00744581 -0.236275 0.265479  -0.00869024 -0.212041 0.145837  -0.0108278 -0.265627 0.153828  -0.00556782 -0.242907 0.209251  -0.00795841 -0.194899 0.194815  -0.00932354 -0.29746 0.282851  -0.00929058 -0.242793 0.206529  -0.0108382 -0.360363 0.291004  -0.0126672 -0.319638 0.152584  -0.0140942 -0.372185 0.142888  -0.0104932 -0.375913 0.22977  -0.0102224 -0.291607 0.210901  -0.0120388 -0.423099 0.287746  -0.0111015 -0.340276 0.206548  -0.0131511 -0.48417 0.274928  -0.0151715 -0.422097 0.124414  -0.0161251 -0.467802 0.0982575  -0.0139368 -0.50665 0.205871  -0.011881 -0.387115 0.194669  -0.0140842 -0.541449 0.250829  -0.0125349 -0.430644 0.174365  -0.0147369 -0.593698 0.217901  -0.0167447 -0.507701 0.064008  -0.0171041 -0.540935 0.023931  -0.0160472 -0.619871 0.140122  -0.0127719 -0.469971 0.147544  -0.0149224 -0.638742 0.175862  -0.0130911 -0.503461 0.113673  -0.0151098 -0.67586 0.126658  -0.0172282 -0.56628 -0.0217271  -0.0173601 -0.583392 -0.0708075  -0.0168446 -0.702851 0.0396428  -0.0131254 -0.530542 0.0745704  -0.0150732 -0.70308 0.0716193  -0.0131507 -0.549638 0.0311968  -0.0150448 -0.720474 0.0127954  -0.0171669 -0.590898 -0.122475  -0.0170844 -0.589291 -0.174562  -0.0169742 -0.745198 -0.08319  -0.0130228 -0.560967 -0.0147779  -0.0147716 -0.726424 -0.0484395  -0.0130179 -0.563178 -0.0624435  -0.0147492 -0.721678 -0.110326  -0.0169693 -0.577713 -0.225995  -0.0169418 -0.557611 -0.275066  -0.0165701 -0.74118 -0.213161  -0.0128618 -0.557222 -0.110187  -0.0146546 -0.705597 -0.170418  -0.0128769 -0.542414 -0.156232  -0.0147761 -0.679383 -0.227698  -0.0168072 -0.528638 -0.32002  -0.0168463 -0.492468 -0.3598  -0.0163645 -0.691493 -0.335459  -0.0127727 -0.519961 -0.199652  -0.014735 -0.643271 -0.279368  -0.012955 -0.489673 -0.238462  -0.0151044 -0.598539 -0.324726  -0.0169194 -0.449391 -0.392675  -0.0170486 -0.401202 -0.418107  -0.0164878 -0.602398 -0.434682  -0.0129956 -0.453207 -0.272016  -0.0152513 -0.545826 -0.36106  -0.0132042 -0.410699 -0.298627  -0.015493 -0.487544 -0.388691  -0.0171289 -0.348594 -0.434774  -0.0171682 -0.294052 -0.442479  -0.0171285 -0.482717 -0.498291  -0.0131615 -0.364301 -0.31809  -0.0153515 -0.425663 -0.405335  -0.0131166 -0.315227 -0.328814  -0.0152497 -0.361639 -0.41183  -0.0168266 -0.238965 -0.440386  -0.0163729 -0.185077 -0.42944  -0.0170498 -0.348182 -0.51759  -0.0127244 -0.265052 -0.331629  -0.0146308 -0.297619 -0.406163  -0.0122707 -0.215096 -0.325235  -0.0137906 -0.235353 -0.390469  -0.0156326 -0.133827 -0.408921  -0.0146334 -0.0873608 -0.380406  -0.0161068 -0.214949 -0.490077  -0.0112691 -0.167099 -0.311001  -0.0122929 -0.177746 -0.364098  -0.010129 -0.122981 -0.288375  -0.0107014 -0.125367 -0.328803  -0.0130217 -0.0470034 -0.344001  -0.0112522 -0.0136845 -0.301831  -0.0133834 -0.100467 -0.419524  -0.00846124 -0.0834993 -0.259147  -0.00874758 -0.0810608 -0.284407  -0.00683355 -0.0502613 -0.223065  -0.00676799 -0.0446278 -0.233958  -0.00921512 0.0113874 -0.253971  -0.00709224 0.0272822 -0.203681  -0.00967765 -0.0180874 -0.314707  -0.00481272 -0.0238868 -0.182789  -0.00444889 -0.0189757 -0.178344  -0.00267339 -0.0057404 -0.138672  -0.00213718 -0.00194502 -0.119723  -0.00423741 0.033582 -0.151157  -0.00169897 0.0312783 -0.0984912  -0.00536633 0.0214434 -0.189968  -0.000796318 0.00479305 -0.0926516  -0.000293255 0.00252414 -0.0596364  0.00016737 0.00558418 -0.0458305  0 2.38419e-07 0  -3.19481e-05 0.0188842 -0.0474789  0 1.78814e-07 2.38419e-07  -0.000577688 0.0159934 -0.0608885  0 1.78814e-07 0  0.00301465 -0.0224676 0.090513  0.000536501 -0.019627 0.073312  0.00409724 -0.0545749 0.172691  0.00188014 -0.0333357 0.0715864  0.00330663 -0.0784223 0.137297  0 0 0  0 0 0  0.00579821 -0.0375777 0.0889497  0 0 0  7.74115e-05 -0.0500174 0.141249  0.00448692 -0.104218 0.246783  -0.000959992 -0.0939192 0.201832  0.00339994 -0.165491 0.313999  0.00359914 -0.136371 0.192586  0.0022909 -0.201522 0.239571  0.0141785 -0.150377 0.238182  -0.00204015 -0.146469 0.256763  0.00202322 -0.23939 0.369078  -0.00418305 -0.210031 0.301412  -0.00109634 -0.321148 0.41407  -7.02441e-05 -0.275703 0.274147  -0.00249457 -0.353517 0.298651  0.012873 -0.308908 0.341984  -0.00614595 -0.27851 0.338584  -0.00312221 -0.409336 0.442513  -0.00895447 -0.353789 0.360846  -0.00675392 -0.501465 0.457379  -0.00570744 -0.434802 0.307737  -0.00814146 -0.515656 0.30477  0.00679582 -0.494183 0.38831  -0.0107586 -0.430555 0.372723  -0.00858426 -0.593588 0.454373  -0.0126898 -0.50782 0.369365  -0.0111335 -0.684473 0.438105  -0.0104458 -0.5939 0.286401  -0.0113913 -0.667945 0.257918  0.000568271 -0.68282 0.369267  -0.0135962 -0.583204 0.355857  -0.011292 -0.768909 0.405609  -0.0147623 -0.654044 0.327074  -0.0126799 -0.847655 0.359594  -0.0128255 -0.734663 0.214642  -0.0133396 -0.79375 0.162263  -0.00224787 -0.85131 0.28991  -0.0153577 -0.71932 0.288242  -0.0123733 -0.915174 0.299585  -0.0162947 -0.775911 0.236672  -0.0134377 -0.972696 0.229183  -0.0142267 -0.841103 0.098707  -0.0138257 -0.878297 0.0294104  -0.00375831 -0.981673 0.158289  -0.0159611 -0.823311 0.177964  -0.0125288 -1.015 0.150005  -0.016378 -0.857674 0.110343  -0.0129931 -1.04428 0.0643208  -0.01434 -0.900245 -0.0469379  -0.0137188 -0.910374 -0.124495  -0.00383306 -1.05706 -0.0105689  -0.0157779 -0.881258 0.0390792  -0.0120114 -1.05628 -0.0251691  -0.015714 -0.889964 -0.0363789  -0.0121521 -1.05409 -0.115954  -0.0136427 -0.904657 -0.203367  -0.0131687 -0.887259 -0.280928  -0.00327885 -1.06923 -0.195575  -0.01536 -0.887235 -0.11236  -0.0112699 -1.03396 -0.204685  -0.0156095 -0.868483 -0.186771  -0.0119066 -1.00018 -0.290106  -0.0134628 -0.853524 -0.353751  -0.0130221 -0.809753 -0.421562  -0.00241292 -1.01619 -0.374075  -0.0153548 -0.839277 -0.257944  -0.0113322 -0.950514 -0.366926  -0.0160708 -0.795646 -0.322284  -0.0122527 -0.888556 -0.436347  -0.0137568 -0.753113 -0.47956  -0.0135155 -0.688397 -0.528645  -0.00211346 -0.904207 -0.525588  -0.0160384 -0.7435 -0.379761  -0.0119083 -0.814318 -0.4921  -0.0167346 -0.679249 -0.425108  -0.0131218 -0.731674 -0.53612  -0.0146283 -0.61396 -0.563561  -0.0145726 -0.535524 -0.587302  -0.00261211 -0.744989 -0.629895  -0.0166802 -0.609672 -0.461181  -0.012692 -0.643115 -0.563258  -0.0173717 -0.533888 -0.482664  -0.0134614 -0.549948 -0.576587  -0.015054 -0.453885 -0.595219  -0.0140829 -0.372162 -0.591389  -0.00321817 -0.55935 -0.673889  -0.0167973 -0.456292 -0.493471  -0.0122237 -0.457305 -0.571688  -0.0165603 -0.377768 -0.487195  -0.0120327 -0.365917 -0.552401  -0.0141125 -0.292751 -0.570585  -0.0126534 -0.217965 -0.538759  -0.00250006 -0.369791 -0.651722  -0.015141 -0.301543 -0.47049  -0.00971389 -0.281692 -0.516468  -0.0141246 -0.230324 -0.438803  -0.00818348 -0.203184 -0.467451  -0.011389 -0.151116 -0.492832  -0.00858665 -0.0923079 -0.438239  0.00014329 -0.201071 -0.566689  -0.0116162 -0.165115 -0.397957  -0.00478959 -0.137333 -0.405483  -0.00947165 -0.110236 -0.344066  -0.00250506 -0.082051 -0.333939  -0.00699639 -0.0461265 -0.372508  -0.00442767 -0.0110538 -0.301855  0.00468874 -0.0733854 -0.430058  -0.00644565 -0.0643619 -0.283863  0.000574589 -0.0421413 -0.255549  -0.00448132 -0.0314852 -0.216208  0.00191402 -0.0158326 -0.171969  -0.00285482 0.00900233 -0.225578  -0.000581264 0.0170013 -0.149487  0.00856876 -0.00249481 -0.261442  -0.00176072 -0.00958443 -0.146326  0.00233269 -0.000970364 -0.0875576  -0.00119829 -0.000802815 -0.0737031  0 3.57628e-07 0  -0.000457048 0.012021 -0.0735006  0 2.98023e-07 2.38419e-07  0.00656509 0.0116069 -0.085326  0 2.98023e-07 0  -0.000684485 -0.0367399 -0.0560746  -0.00161632 -0.03353 -0.0681324  -0.00312088 -0.0665913 -0.118608  -0.000474252 -0.0493887 -0.0694396  -0.00937967 -0.0906274 -0.144979  -0.0196181 -0.0465431 -0.0750213  0 0 0  -0.0229111 -0.0355389 -0.0771396  0 1.49012e-08 0  0 7.45058e-09 0  0.00121293 -0.0524333 -0.0567062  0 7.45058e-09 0  -0.033899 -0.0530242 -0.160365  -0.0112983 -0.0608908 -0.141283  -0.00661024 -0.083522 -0.186277  -0.0173704 -0.0726039 -0.220421  -0.00926676 -0.088781 -0.254421  -0.0159294 -0.115198 -0.232838  -0.0208279 -0.124207 -0.322047  -0.0428675 -0.0964255 -0.258658  -0.0413432 -0.059513 -0.25202  -0.00339268 -0.128848 -0.200458  -0.0452717 -0.0501733 -0.342099  -0.02164 -0.0697721 -0.300164  -0.010497 -0.0802532 -0.321858  -0.0225453 -0.0514055 -0.377712  -0.0109008 -0.0611172 -0.386295  -0.0215714 -0.114253 -0.410635  -0.0217435 -0.0934419 -0.49625  -0.0477155 -0.0800725 -0.456906  -0.0467498 -0.0220466 -0.431551  -0.0074586 -0.14592 -0.35695  -0.0464559 0.0174086 -0.512849  -0.0229031 -0.022105 -0.450724  -0.010094 -0.0292025 -0.445379  -0.0216703 0.0215799 -0.51652  -0.0092746 0.0110351 -0.499421  -0.0207633 -0.0541512 -0.574521  -0.0203143 -0.00447686 -0.646606  -0.0478146 -0.00175341 -0.63518  -0.0449104 0.072261 -0.585616  -0.00766307 -0.10719 -0.506969  -0.0439908 0.136961 -0.647967  -0.0210026 0.0751521 -0.575199  -0.00808758 0.0613157 -0.544134  -0.019366 0.138607 -0.622608  -0.0073083 0.118325 -0.579947  -0.0189631 0.058711 -0.707764  -0.0181563 0.130661 -0.75912  -0.0452189 0.134319 -0.77559  -0.0426541 0.215027 -0.698461  -0.00556433 -0.019231 -0.633445  -0.0420938 0.29847 -0.735158  -0.0187153 0.209359 -0.65835  -0.00633979 0.181648 -0.603757  -0.0174895 0.286 -0.679802  -0.00582796 0.248328 -0.617417  -0.0169716 0.212016 -0.792534  -0.0163857 0.297056 -0.814756  -0.0436218 0.309718 -0.859026  -0.0407633 0.389153 -0.754462  -0.0040291 0.108283 -0.720835  -0.040125 0.480086 -0.758716  -0.0170949 0.365233 -0.688523  -0.00512815 0.316593 -0.61761  -0.0158162 0.445879 -0.681943  -0.00487006 0.38539 -0.608025  -0.0154819 0.38618 -0.818811  -0.0160784 0.47571 -0.81147  -0.0420306 0.506834 -0.875005  -0.0398108 0.574308 -0.745422  -0.00256586 0.259447 -0.758327  -0.0406582 0.662257 -0.719063  -0.0166054 0.524949 -0.663976  -0.00470233 0.450412 -0.58546  -0.0160899 0.598785 -0.630764  -0.00525427 0.511852 -0.553567  -0.0160009 0.561906 -0.784791  -0.0169991 0.642731 -0.747173  -0.0443228 0.699377 -0.826097  -0.0408397 0.745797 -0.675689  -0.00280738 0.416866 -0.742352  -0.0413415 0.81956 -0.620168  -0.0171111 0.666623 -0.586987  -0.00526428 0.565383 -0.510435  -0.0166074 0.725442 -0.53034  -0.00567222 0.613051 -0.459441  -0.0169239 0.714536 -0.693135  -0.0180763 0.779266 -0.630658  -0.0443615 0.862753 -0.712176  -0.0415615 0.884052 -0.549747  -0.00321984 0.558669 -0.67477  -0.04296 0.935297 -0.47349  -0.0180045 0.77543 -0.466222  -0.00581431 0.649478 -0.40077  -0.0177901 0.811669 -0.393661  -0.00641155 0.677058 -0.337341  -0.0183222 0.828986 -0.555024  -0.0192645 0.867499 -0.474661  -0.0472727 0.979982 -0.551579  -0.0432761 0.972326 -0.38694  -0.00456011 0.671199 -0.562229  -0.0435287 0.994049 -0.297611  -0.0187672 0.836443 -0.317035  -0.00619662 0.69134 -0.270532  -0.0178462 0.846062 -0.236545  -0.00607049 0.696057 -0.201662  -0.0187643 0.888595 -0.387827  -0.0191875 0.898846 -0.299259  -0.0464749 1.03357 -0.36056  -0.0430466 0.999149 -0.203021  -0.00473261 0.73807 -0.420347  -0.0434998 0.990427 -0.11258  -0.0185397 0.844099 -0.156168  -0.00551927 0.68722 -0.134285  -0.0174304 0.826192 -0.0783198  -0.00522721 0.668505 -0.0690324  -0.0183657 0.889224 -0.210483  -0.0181028 0.86799 -0.125344  -0.0470959 1.02201 -0.164227  -0.0425744 0.964211 -0.0236032  -0.00463498 0.753656 -0.263742  -0.0415578 0.924568 0.0577404  -0.0173454 0.796901 -0.00477338  -0.00414181 0.637393 -0.00976276  -0.0153732 0.753502 0.0619054  -0.00310493 0.597523 0.0448964  -0.016274 0.829296 -0.0465381  -0.0154302 0.781115 0.0266607  -0.0433433 0.942418 0.0141432  -0.0397377 0.868818 0.132284  -0.00263977 0.715419 -0.114475  -0.0390589 0.805052 0.194979  -0.0150027 0.701207 0.121107  -0.00183296 0.54807 0.0896821  -0.0131626 0.638205 0.168166  -0.00104022 0.492143 0.12662  -0.0135448 0.71759 0.0872891  -0.0125804 0.647187 0.137789  -0.0414228 0.809445 0.154862  -0.0373223 0.728713 0.24532  -0.000359297 0.628269 0.0129726  -0.0359633 0.646676 0.281413  -0.012589 0.568949 0.204768  0.000124454 0.430255 0.150904  -0.0107672 0.492825 0.22708  0.000583887 0.364106 0.166169  -0.0106473 0.567127 0.172477  -0.0104647 0.482783 0.196825  -0.0371983 0.634786 0.23882  -0.0344477 0.556016 0.302095  0.00262284 0.503822 0.100452  -0.0346994 0.466389 0.30852  -0.0109057 0.414065 0.237924  0.000771046 0.296272 0.167328  -0.0103703 0.333985 0.232497  -0.000171423 0.227732 0.158225  -0.0100784 0.394115 0.201631  -0.0113862 0.305627 0.193875  -0.03811 0.440915 0.260001  -0.034333 0.373514 0.297215  0.00299811 0.354306 0.140044  -0.0344164 0.284988 0.270606  -0.0112464 0.254844 0.214459  -0.000615358 0.162439 0.134854  -0.0101175 0.178884 0.179955  -0.000717163 0.0994387 0.101198  -0.0117476 0.219175 0.166781  -0.0119629 0.135752 0.127699  -0.0374968 0.246321 0.20801  -0.0319161 0.197857 0.22524  0.00072217 0.199474 0.124085  -0.0272825 0.121385 0.168731  -0.00901675 0.108117 0.134372  -0.000243187 0.0457755 0.0538688  -0.00390577 0.0484543 0.0709155  0 -2.23517e-07 2.38419e-07  -0.00725079 0.0627031 0.0665798  0 -2.90573e-07 2.38419e-07  -0.0135055 0.0734276 0.0823164  -0.0090034 0.0556479 0.0888472  -0.00165009 0.0570678 0.0503509  0 -3.57628e-07 2.38419e-07  0 -2.90573e-07 2.38419e-07  -0.00150377 -0.0414105 -0.0306685  -0.000852779 -0.0390083 -0.0438728  -0.00251165 -0.0765279 -0.0670087  -0.000100143 -0.0554056 -0.0456352  1.91182e-05 -0.103744 -0.0999217  0 0 0  0 0 0  -0.000894301 -0.0575208 -0.0314677  0 0 0  -0.00176048 -0.0714289 -0.0939324  -0.00387277 -0.104261 -0.10922  -0.00348349 -0.0938879 -0.148568  -0.00521892 -0.124542 -0.153665  -0.000948414 -0.138994 -0.163373  -0.00213626 -0.163479 -0.229287  -0.00224604 -0.149003 -0.122032  -0.00530851 -0.106516 -0.205292  -0.00611427 -0.135261 -0.200969  -0.00637281 -0.10771 -0.262624  -0.0065918 -0.138757 -0.247886  -0.00366086 -0.173698 -0.298182  -0.00403118 -0.173315 -0.366754  -0.00445098 -0.201379 -0.234551  -0.00661483 -0.0994361 -0.318383  -0.00645381 -0.132513 -0.294441  -0.00610805 -0.0804757 -0.371137  -0.00601751 -0.119232 -0.338794  -0.00406557 -0.158676 -0.432966  -0.00325882 -0.134342 -0.495651  -0.00566906 -0.211585 -0.354418  -0.00548029 -0.0532487 -0.420053  -0.00563931 -0.0963952 -0.37965  -0.00474924 -0.0167683 -0.462823  -0.00504839 -0.0677423 -0.415876  -0.00257289 -0.097407 -0.552758  -0.00184888 -0.0525245 -0.602988  -0.00477183 -0.178422 -0.46828  -0.00404501 0.0262475 -0.498577  -0.00451571 -0.0323471 -0.445918  -0.00329697 0.0756625 -0.525479  -0.00407594 0.00732285 -0.469754  -0.00128257 0.00199977 -0.643062  -0.000321805 0.0622181 -0.673809  -0.00361067 -0.107438 -0.562572  -0.00282878 0.129236 -0.543763  -0.00353229 0.0516275 -0.485653  -0.00233936 0.18566 -0.55177  -0.00313354 0.0978664 -0.494776  0.000200868 0.128283 -0.692374  0.000648022 0.196316 -0.701549  -0.00240219 -0.0074873 -0.626091  -0.00185311 0.242735 -0.551095  -0.00294375 0.145465 -0.495265  -0.00177801 0.299045 -0.540239  -0.00302207 0.192546 -0.48862  0.000520468 0.265078 -0.697484  0.000573516 0.332415 -0.682828  -0.00164235 0.109378 -0.652944  -0.00192189 0.353321 -0.520216  -0.00299001 0.238006 -0.472852  -0.00204599 0.402992 -0.490776  -0.00326753 0.280661 -0.450586  2.45571e-05 0.396108 -0.655447  -0.000173211 0.455448 -0.619022  -0.00211728 0.22981 -0.638463  -0.00223303 0.447545 -0.453942  -0.00353968 0.318755 -0.420371  -0.00255358 0.484898 -0.409793  -0.00367522 0.351807 -0.385399  -0.000774741 0.506558 -0.571797  -0.000811577 0.549583 -0.517683  -0.00264025 0.33908 -0.584149  -0.00275135 0.514731 -0.360057  -0.00350475 0.377608 -0.344731  -0.00272191 0.534936 -0.306193  -0.00346684 0.397091 -0.301031  -0.00116003 0.58171 -0.456377  -0.000901461 0.604738 -0.391132  -0.00303125 0.423948 -0.496602  -0.00252509 0.546444 -0.250119  -0.0032717 0.407921 -0.254294  -0.0022589 0.547678 -0.193206  -0.00279868 0.411707 -0.207194  -0.000784993 0.614471 -0.323103  3.86238e-05 0.613521 -0.255087  -0.00264955 0.474859 -0.38635  -0.00174558 0.539512 -0.136928  -0.00196767 0.406169 -0.160422  -0.000931978 0.521217 -0.0837264  -0.00115395 0.393674 -0.115419  0.000723839 0.599589 -0.188646  0.00200224 0.576027 -0.125051  -0.00136781 0.485317 -0.266817  4.69685e-05 0.49471 -0.0344169  -0.0002563 0.372414 -0.0736792  0.00105524 0.459615 0.00885177  0.000938416 0.34525 -0.0362291  0.00317049 0.540427 -0.0679309  0.00478983 0.496414 -0.0176427  0.000999212 0.454697 -0.151863  0.00214434 0.417506 0.045639  0.00221634 0.310973 -0.00517678  0.0031867 0.369336 0.0734224  0.00331378 0.272138 0.0201128  0.00597334 0.44339 0.0230734  0.00703573 0.384319 0.0555294  0.00402641 0.386436 -0.0559876  0.00402188 0.316987 0.0930455  0.00386524 0.228686 0.0368867  0.00408554 0.26165 0.102192  0.0040884 0.182948 0.0466902  0.00721836 0.320207 0.0751295  0.00650764 0.253196 0.0840404  0.00643325 0.289054 0.00970697  0.00363064 0.204489 0.10189  0.00345302 0.135734 0.046952  0.00243068 0.148079 0.0904818  0.00236726 0.0884975 0.0396917  0.00448942 0.18567 0.0800099  0.00210571 0.11851 0.0647047  0.0054698 0.174445 0.0367701  0.0012145 0.0936352 0.0697672  0.00106072 0.042953 0.0226531  0.00061965 0.0440868 0.0381534  0 -1.19209e-07 2.38419e-07  0.000566244 0.0565358 0.0358124  0 -1.78814e-07 2.38419e-07  0.00101519 0.0558735 0.0204897  0 -1.78814e-07 2.38419e-07  -0.00253879 -0.0427229 -0.00413036  -0.00221311 -0.0422621 -0.0174379  -0.00536449 -0.08434 -0.0125358  -0.00257201 -0.0583247 -0.0189266  -0.00501333 -0.111784 -0.0455263  0 0 0  0 0 0  -0.00308941 -0.0580508 -0.00529742  0 0 0  -0.00441694 -0.0806437 -0.0399821  -0.00798146 -0.122647 -0.0278368  -0.00601596 -0.113614 -0.0684063  -0.0100985 -0.158346 -0.0477371  -0.00686143 -0.157231 -0.0815523  -0.00799096 -0.196368 -0.122827  -0.0104658 -0.1646 -0.039351  -0.0073002 -0.141254 -0.101088  -0.0114313 -0.188417 -0.0739343  -0.00826976 -0.161864 -0.137632  -0.012499 -0.215256 -0.1033  -0.00939095 -0.22607 -0.171038  -0.0101947 -0.249349 -0.221198  -0.0148982 -0.251204 -0.104367  -0.00899315 -0.176862 -0.176019  -0.0132455 -0.23488 -0.136524  -0.0092814 -0.183811 -0.2159  -0.0137531 -0.249784 -0.172008  -0.0111806 -0.261394 -0.274621  -0.0113758 -0.265459 -0.328133  -0.0175186 -0.311467 -0.192175  -0.00936842 -0.184425 -0.255811  -0.0138636 -0.256592 -0.209126  -0.00911355 -0.176341 -0.294698  -0.0139104 -0.258033 -0.246639  -0.0111859 -0.257152 -0.381651  -0.0105442 -0.241936 -0.432598  -0.0185824 -0.337649 -0.292748  -0.00874227 -0.162539 -0.331454  -0.0135869 -0.2512 -0.283242  -0.00831866 -0.14149 -0.364818  -0.0133238 -0.239185 -0.318642  -0.0101432 -0.216156 -0.479667  -0.00956357 -0.183917 -0.521771  -0.0181939 -0.32712 -0.395032  -0.00787377 -0.11537 -0.394266  -0.0129498 -0.219876 -0.350732  -0.00744724 -0.0837651 -0.418348  -0.0127934 -0.195872 -0.380124  -0.00918341 -0.143148 -0.556975  -0.00864851 -0.0979475 -0.585854  -0.0173678 -0.281425 -0.486995  -0.00716889 -0.0486088 -0.437462  -0.0125916 -0.166112 -0.404156  -0.00694346 -0.0100103 -0.449826  -0.0125602 -0.132743 -0.423823  -0.00863636 -0.0469617 -0.605738  -0.00862455 0.00608101 -0.617789  -0.0168926 -0.205939 -0.55845  -0.00695252 0.0303023 -0.456049  -0.0124561 -0.0958518 -0.436354  -0.00703621 0.0714004 -0.454721  -0.0127188 -0.0571401 -0.44393  -0.00906086 0.0615211 -0.619078  -0.0089221 0.116269 -0.612157  -0.0169144 -0.109102 -0.600103  -0.00713944 0.111921 -0.446894  -0.0126501 -0.0176139 -0.44325  -0.00723338 0.150886 -0.431714  -0.0127466 0.0219262 -0.437398  -0.00923777 0.169144 -0.594458  -0.00938463 0.2187 -0.569885  -0.017086 -0.00264457 -0.606674  -0.00741422 0.187051 -0.410889  -0.0127251 0.0596454 -0.424002  -0.00740314 0.218855 -0.384112  -0.0128598 0.0954234 -0.405606  -0.00969934 0.26323 -0.535903  -0.00929332 0.301911 -0.496282  -0.0173321 0.101116 -0.57751  -0.00728858 0.246145 -0.352899  -0.0125407 0.126378 -0.380488  -0.00701249 0.267348 -0.317076  -0.0122266 0.15391 -0.351382  -0.00916135 0.332165 -0.449626  -0.00869191 0.355252 -0.399851  -0.017095 0.189167 -0.515574  -0.00669312 0.282657 -0.278763  -0.0116422 0.175036 -0.317645  -0.00606775 0.290636 -0.238692  -0.0110624 0.191215 -0.281393  -0.00817156 0.36835 -0.346174  -0.00688672 0.373133 -0.291905  -0.0160894 0.251673 -0.428156  -0.0052731 0.292111 -0.198126  -0.0100369 0.199145 -0.243065  -0.00425839 0.285744 -0.157988  -0.0088675 0.201606 -0.203956  -0.00572562 0.366863 -0.237722  -0.00423265 0.352764 -0.18576  -0.0139778 0.280319 -0.325823  -0.00320125 0.273004 -0.119781  -0.00738287 0.195797 -0.165371  -0.00180984 0.253276 -0.0850365  -0.00569272 0.184414 -0.128232  -0.00258493 0.328393 -0.137326  -0.000482082 0.296975 -0.0937796  -0.0106013 0.271914 -0.220361  -0.000458956 0.227983 -0.0541134  -0.00388646 0.16523 -0.0949526  0.000888586 0.19694 -0.0288146  -0.00179005 0.141183 -0.0647562  0.0012548 0.257374 -0.0575888  0.00249815 0.212714 -0.0283482  -0.00582361 0.22723 -0.125632  0.00189662 0.161935 -0.00914621  -0.000316381 0.111223 -0.0403695  0.00215507 0.123539 0.00339222  0.000623703 0.0776082 -0.0204952  0.00303793 0.162727 -0.00799012  0.00246406 0.109959 0.00373745  -0.000908136 0.152049 -0.0528142  0.00203848 0.0832022 0.00938439  0.000859976 0.039834 -0.0072248  0.00128675 0.0414383 0.00777221  0 0 2.38419e-07  0.00130177 0.0554329 0.00584769  0 -5.96046e-08 2.38419e-07  0.000633717 0.0547491 -0.00942278  0 -5.96046e-08 2.38419e-07  -0.00229105 -0.0420722 0.0223811  -0.00271915 -0.0425277 0.00921059  -0.00554912 -0.0902113 0.0415587  -0.0033206 -0.0571023 0.00741601  -0.00811003 -0.115543 0.00884748  0 0 0  0 0 0  -0.00308365 -0.0558322 0.0204611  0 0 0  -0.00593762 -0.0871824 0.0142558  -0.00893009 -0.140095 0.0534749  -0.00903632 -0.131266 0.0129504  -0.0124024 -0.192047 0.0580728  -0.0128668 -0.171631 0.00125408  -0.0168535 -0.2263 -0.0141809  -0.0134467 -0.178428 0.0425379  -0.0119083 -0.174951 0.00529528  -0.0151048 -0.242923 0.0535376  -0.0140205 -0.215453 -0.00971127  -0.0173278 -0.293205 0.0416532  -0.0197907 -0.276403 -0.0395479  -0.021962 -0.322639 -0.0714607  -0.0225459 -0.301786 0.0252345  -0.0155987 -0.253806 -0.0305026  -0.0190286 -0.339406 0.0217199  -0.0167475 -0.286847 -0.056915  -0.0205249 -0.382498 -0.00544024  -0.0236198 -0.361542 -0.110984  -0.0249367 -0.394467 -0.155532  -0.0280268 -0.412591 -0.0300364  -0.0176148 -0.315822 -0.0882521  -0.0213578 -0.418754 -0.0391169  -0.0181097 -0.337567 -0.123581  -0.0220619 -0.449494 -0.0783808  -0.0257455 -0.417497 -0.205215  -0.0261089 -0.432596 -0.257429  -0.0311239 -0.497739 -0.118232  -0.0183902 -0.353528 -0.161988  -0.0222965 -0.47181 -0.122036  -0.0184294 -0.36163 -0.202139  -0.0226647 -0.487079 -0.169198  -0.0261163 -0.437038 -0.31143  -0.0260978 -0.433255 -0.365571  -0.0323151 -0.54706 -0.228797  -0.0184312 -0.363159 -0.243354  -0.0226041 -0.492526 -0.217929  -0.0181949 -0.356587 -0.283895  -0.0224897 -0.489928 -0.267512  -0.0258737 -0.41853 -0.417693  -0.0254635 -0.395764 -0.467016  -0.0325696 -0.555153 -0.349217  -0.0179296 -0.343115 -0.323238  -0.0221096 -0.477793 -0.315222  -0.01775 -0.322333 -0.359197  -0.0221263 -0.457585 -0.360999  -0.0251081 -0.363392 -0.511058  -0.0250403 -0.324337 -0.550214  -0.0318614 -0.520415 -0.465003  -0.0177079 -0.295578 -0.391953  -0.0219808 -0.429109 -0.401911  -0.0176703 -0.263016 -0.418894  -0.0220463 -0.393782 -0.438848  -0.0249282 -0.278217 -0.580835  -0.0249797 -0.227466 -0.604686  -0.0314927 -0.446627 -0.562454  -0.0176269 -0.226015 -0.440974  -0.0218413 -0.352544 -0.468178  -0.0176212 -0.185694 -0.455657  -0.0220022 -0.306291 -0.491106  -0.0249827 -0.173137 -0.617834  -0.0249704 -0.116962 -0.6235  -0.031422 -0.342754 -0.629919  -0.0177982 -0.142799 -0.464158  -0.0221112 -0.25677 -0.504867  -0.0178558 -0.0991536 -0.464468  -0.0222998 -0.204625 -0.511028  -0.0250968 -0.0603912 -0.617802  -0.0253233 -0.00483114 -0.604159  -0.0316232 -0.22078 -0.658652  -0.0178832 -0.0551973 -0.45828  -0.0220964 -0.152795 -0.50769  -0.0176526 -0.0137335 -0.444345  -0.0219711 -0.101546 -0.496109  -0.0251209 0.0465088 -0.579932  -0.0246556 0.0941582 -0.54882  -0.0318255 -0.095043 -0.644495  -0.0174484 0.0256597 -0.424004  -0.021538 -0.053866 -0.47539  -0.0169945 0.0601732 -0.396883  -0.0210342 -0.00935447 -0.447252  -0.0240889 0.134664 -0.508839  -0.0234654 0.168985 -0.4634  -0.0309336 0.018793 -0.58934  -0.0163541 0.0904383 -0.36461  -0.0199876 0.0283629 -0.412014  -0.0153089 0.113508 -0.328019  -0.0188267 0.0599913 -0.370841  -0.0222147 0.193014 -0.412601  -0.0205581 0.209453 -0.358819  -0.0292428 0.106665 -0.499006  -0.0141702 0.130534 -0.287849  -0.0172126 0.0826467 -0.324894  -0.0126512 0.139152 -0.245588  -0.0154026 0.0979447 -0.275487  -0.0185974 0.21439 -0.302774  -0.0163758 0.210854 -0.246635  -0.0255511 0.157679 -0.384625  -0.0109081 0.140896 -0.20231  -0.0128958 0.102887 -0.224906  -0.00841904 0.134179 -0.160327  -0.00974083 0.0994471 -0.173975  -0.0131898 0.195714 -0.193126  -0.0094707 0.172693 -0.142297  -0.0200531 0.164751 -0.259988  -0.00583696 0.12041 -0.119727  -0.00633168 0.0857581 -0.125391  -0.00325465 0.09879 -0.0830722  -0.00282001 0.0647829 -0.0783823  -0.00528622 0.139784 -0.0970256  -0.00215173 0.100039 -0.0571616  -0.0105171 0.127553 -0.140842  -0.000464201 0.0715392 -0.0494273  -0.000129223 0.0351251 -0.0357358  0.000568867 0.0377628 -0.0214849  0 1.19209e-07 2.38419e-07  -6.91414e-06 0.0528925 -0.0237179  0 5.96046e-08 2.38419e-07  -0.00103474 0.0506631 -0.0381885  0 5.96046e-08 2.38419e-07  0.000182316 -0.0437106 0.0510116  -0.000980079 -0.0424446 0.0364499  0.000303417 -0.0985731 0.098134  -0.00154893 -0.0554211 0.0338743  -0.00543398 -0.11941 0.0632668  0 0 0  0 0 0  -8.73059e-05 -0.0564336 0.0481098  0 0 0  -0.00332069 -0.0938174 0.0688679  -0.00180209 -0.162187 0.136347  -0.00636439 -0.150333 0.0944135  -0.00474569 -0.231114 0.164679  -0.0109377 -0.187708 0.0831654  -0.0166267 -0.258411 0.092309  -0.00552498 -0.199012 0.124343  -0.009918 -0.210652 0.110945  -0.00841445 -0.303745 0.18034  -0.0133239 -0.272356 0.116784  -0.0121573 -0.377923 0.184851  -0.0215743 -0.329993 0.0885994  -0.0258774 -0.400062 0.0744586  -0.0160357 -0.360932 0.151205  -0.0164127 -0.334513 0.113403  -0.0153804 -0.451095 0.176476  -0.0188147 -0.394293 0.0996187  -0.0179132 -0.521719 0.156512  -0.0289822 -0.466286 0.0482953  -0.0315785 -0.527053 0.0119433  -0.025212 -0.522338 0.124443  -0.0207122 -0.451019 0.0761175  -0.0195107 -0.587111 0.124418  -0.0222284 -0.502119 0.0436943  -0.0209892 -0.64583 0.082577  -0.0333704 -0.57994 -0.0346446  -0.0345764 -0.624398 -0.0886292  -0.0304878 -0.663802 0.0458708  -0.0231118 -0.547141 0.00319386  -0.0216575 -0.695785 0.0312915  -0.0238119 -0.583493 -0.0443478  -0.0226229 -0.736403 -0.0280108  -0.0352873 -0.657953 -0.150106  -0.0357272 -0.681019 -0.215771  -0.0330755 -0.768723 -0.0746641  -0.0240954 -0.611593 -0.0973587  -0.0225012 -0.764947 -0.0936747  -0.0243649 -0.628838 -0.154614  -0.0228518 -0.782449 -0.163485  -0.0357914 -0.691006 -0.28466  -0.0357559 -0.689528 -0.35438  -0.0339206 -0.825353 -0.223492  -0.0243158 -0.636283 -0.214289  -0.022524 -0.786409 -0.234804  -0.0240334 -0.632625 -0.273842  -0.0222747 -0.778198 -0.306234  -0.0351361 -0.675083 -0.42223  -0.034891 -0.649473 -0.487073  -0.0334386 -0.827417 -0.382418  -0.0237476 -0.618467 -0.332427  -0.0218168 -0.756608 -0.374903  -0.0236934 -0.593813 -0.387515  -0.0218066 -0.723582 -0.439806  -0.0346382 -0.611715 -0.546545  -0.0347236 -0.564475 -0.599676  -0.0325941 -0.773756 -0.532799  -0.0236473 -0.559642 -0.438571  -0.0215448 -0.679392 -0.497888  -0.0236593 -0.517125 -0.482433  -0.0218661 -0.625643 -0.548382  -0.0346457 -0.508178 -0.643173  -0.0346191 -0.445478 -0.677486  -0.0323644 -0.669949 -0.656933  -0.0235707 -0.467217 -0.519208  -0.0216615 -0.563807 -0.588149  -0.0237542 -0.411628 -0.546319  -0.0222867 -0.495254 -0.617314  -0.0346522 -0.376981 -0.699343  -0.0350311 -0.30521 -0.710013  -0.0326337 -0.529289 -0.739634  -0.0238723 -0.351298 -0.564055  -0.022272 -0.422527 -0.634293  -0.0239928 -0.289005 -0.571083  -0.0226005 -0.347701 -0.63882  -0.0351504 -0.232469 -0.707726  -0.0350857 -0.161333 -0.693983  -0.0333003 -0.366666 -0.769237  -0.023864 -0.225998 -0.56769  -0.0221169 -0.273742 -0.629428  -0.0236013 -0.165059 -0.553125  -0.0219052 -0.201998 -0.608163  -0.0344019 -0.0939752 -0.667173  -0.0339031 -0.0315802 -0.629911  -0.0331669 -0.203713 -0.742608  -0.0230179 -0.106876 -0.528433  -0.0209391 -0.135357 -0.574847  -0.0221636 -0.0545146 -0.49429  -0.0199509 -0.0756235 -0.530646  -0.0328944 0.0226864 -0.581975  -0.0313795 0.0679572 -0.526047  -0.031698 -0.0597997 -0.661822  -0.0207865 -0.00876838 -0.45172  -0.0179098 -0.0258831 -0.47642  -0.0191352 0.0278748 -0.401902  -0.0160687 0.0143195 -0.414729  -0.0290303 0.101536 -0.462607  -0.0266485 0.124383 -0.394462  -0.0281641 0.0464508 -0.537178  -0.0170536 0.0555131 -0.346267  -0.0137317 0.0427342 -0.347186  -0.0146275 0.0725227 -0.287054  -0.0115678 0.0587696 -0.275941  -0.0236285 0.133651 -0.323248  -0.0196204 0.130684 -0.251714  -0.0228879 0.102381 -0.383794  -0.0117257 0.0786414 -0.226041  -0.0085392 0.0596125 -0.203528  -0.00818682 0.072834 -0.165374  -0.0045228 0.0499828 -0.13124  -0.0137849 0.11392 -0.181878  -0.00816679 0.0863417 -0.114984  -0.0152917 0.100178 -0.220563  -0.00371957 0.05756 -0.104978  -0.000982761 0.0281778 -0.0620508  -0.000829458 0.0319594 -0.0494175  0 2.38419e-07 2.38419e-07  -0.00217557 0.0466868 -0.0523305  0 1.78814e-07 2.38419e-07  -0.00269556 0.0426617 -0.0647526  0 1.78814e-07 2.38419e-07  0.0103753 -0.0550551 0.0861771  0.00374877 -0.0468711 0.069046  0.0211964 -0.118407 0.166279  0.00470062 -0.059918 0.0646806  0.00626214 -0.133102 0.124249  0 0 0  0 0 0  0.0116809 -0.0685092 0.0799172  0 0 0  0.00566557 -0.106486 0.131944  0.0232196 -0.196719 0.227274  0.00580558 -0.17743 0.181535  0.0231418 -0.283665 0.278282  0.00500828 -0.215775 0.168934  0.000874698 -0.304474 0.200123  0.0274694 -0.239579 0.212064  0.00406295 -0.255463 0.220601  0.0199364 -0.378543 0.309935  0.000518829 -0.339277 0.245337  0.0155382 -0.478058 0.330128  -0.00424707 -0.398058 0.215042  -0.00940269 -0.492427 0.216246  0.0206922 -0.44182 0.276531  -0.00309223 -0.42587 0.25727  0.0114273 -0.576908 0.328591  -0.00704372 -0.512691 0.253209  0.00734919 -0.675985 0.314503  -0.014814 -0.584661 0.199307  -0.0185145 -0.673141 0.169154  0.00890476 -0.652146 0.270251  -0.0101554 -0.597518 0.23634  0.00460774 -0.767608 0.28051  -0.0129269 -0.67607 0.203195  0.00200009 -0.855457 0.234447  -0.0212811 -0.753254 0.123013  -0.0228955 -0.825065 0.0655243  0.00076288 -0.845249 0.194382  -0.0139259 -0.748772 0.159734  0.000955522 -0.92875 0.172103  -0.0154576 -0.811922 0.103333  -0.000540912 -0.994597 0.099489  -0.0248283 -0.883993 -0.00475216  -0.0253614 -0.931772 -0.0827367  -0.00368434 -1.00079 0.059057  -0.0158933 -0.864941 0.0375848  -0.000734568 -1.04165 0.0152903  -0.0165373 -0.903297 -0.0374589  -0.000767946 -1.07833 -0.0752914  -0.026001 -0.962303 -0.169043  -0.0258448 -0.980329 -0.258891  -0.00573218 -1.09839 -0.121076  -0.01638 -0.930495 -0.117444  -3.57628e-07 -1.0937 -0.170164  -0.0169482 -0.940863 -0.201082  -0.000552893 -1.09587 -0.268038  -0.0257339 -0.980182 -0.349615  -0.0246507 -0.965605 -0.439963  -0.00474083 -1.12924 -0.3221  -0.0160124 -0.937925 -0.285312  0.000280499 -1.07752 -0.362684  -0.0156025 -0.9179 -0.367146  0.000890136 -1.04597 -0.45609  -0.0240796 -0.933025 -0.525492  -0.0236442 -0.887351 -0.605825  -0.00345969 -1.0872 -0.522961  -0.0148453 -0.885681 -0.445942  0.00126255 -0.994935 -0.539207  -0.015083 -0.838792 -0.517663  0.00101769 -0.932755 -0.617241  -0.0237261 -0.827103 -0.676289  -0.0236851 -0.756471 -0.737572  -0.00318158 -0.978195 -0.698767  -0.0148848 -0.780953 -0.58195  0.00152349 -0.856357 -0.67848  -0.0156085 -0.711547 -0.633442  0.000711322 -0.770311 -0.731046  -0.0241946 -0.675092 -0.783865  -0.0243493 -0.586835 -0.816791  -0.00315535 -0.814986 -0.826973  -0.0156572 -0.634841 -0.673822  0.000674248 -0.676642 -0.762684  -0.0166019 -0.551145 -0.699115  4.17233e-05 -0.577264 -0.782537  -0.0253983 -0.493706 -0.832244  -0.02514 -0.399124 -0.834106  -0.00391364 -0.614904 -0.892484  -0.016414 -0.464188 -0.71161  0.000526905 -0.478544 -0.780166  -0.0168319 -0.377038 -0.705827  -0.000219107 -0.378027 -0.764901  -0.025485 -0.306444 -0.816818  -0.0248351 -0.216856 -0.78564  -0.00399137 -0.405484 -0.886134  -0.0161684 -0.291697 -0.687517  0.000975609 -0.286337 -0.72908  -0.0158775 -0.21152 -0.653427  0.00189662 -0.198166 -0.680547  -0.0244555 -0.135844 -0.738275  -0.0224996 -0.0631108 -0.678757  -0.00325131 -0.20985 -0.808443  -0.0140994 -0.137603 -0.60738  0.00437665 -0.125079 -0.615792  -0.012747 -0.0754808 -0.547406  0.00556111 -0.0595222 -0.54011  -0.0208247 -0.00419354 -0.606264  -0.0179665 0.0432093 -0.525312  0.000424147 -0.0552255 -0.669287  -0.0102341 -0.023189 -0.479287  0.00867081 -0.0135601 -0.454927  -0.00823236 0.0150505 -0.402623  0.0109093 0.0208094 -0.362601  -0.0156868 0.0734601 -0.437686  -0.0119646 0.0891944 -0.345799  0.00536537 0.042096 -0.485543  -0.00521803 0.0404885 -0.32111  0.0134244 0.0343201 -0.267852  -0.00367403 0.0478815 -0.236353  0.0119824 0.0336347 -0.171204  -0.0093081 0.0861916 -0.25288  -0.00520325 0.0680975 -0.16251  0.0108259 0.0690457 -0.281775  -0.000892162 0.0420895 -0.153075  0.00947952 0.024137 -0.0833726  -0.0012579 0.0247058 -0.0741787  0 3.57628e-07 2.38419e-07  -0.0026629 0.0371051 -0.0762148  0 2.98023e-07 2.38419e-07  0.00910187 0.0340064 -0.0841575  0 2.98023e-07 2.38419e-07  0.00674885 -0.0693174 -0.0624287  0.00644919 -0.0625248 -0.0739636  0.010672 -0.130956 -0.13578  0.0141613 -0.0780121 -0.0883114  0.0275244 -0.151198 -0.181858  0.00594392 -0.0652316 -0.0939007  0 0 0  -0.014425 -0.0562837 -0.0783155  0 1.49012e-08 0  0 7.45058e-09 0  0.0132809 -0.084787 -0.0732169  0 7.45058e-09 0  -0.0220547 -0.100511 -0.166705  0.0025319 -0.119467 -0.155941  0.00926068 -0.172016 -0.220704  -0.00388288 -0.155148 -0.252598  0.00688803 -0.199539 -0.308346  0.0251819 -0.19489 -0.28449  0.0173269 -0.227007 -0.395254  -0.00326638 -0.165995 -0.306684  -0.0304043 -0.131013 -0.273875  0.035393 -0.21416 -0.249076  -0.0364591 -0.14781 -0.382599  -0.00816235 -0.175144 -0.351441  0.00446513 -0.208263 -0.398223  -0.00956112 -0.174102 -0.451089  0.00476176 -0.203914 -0.487205  0.0149761 -0.229678 -0.503731  0.0152658 -0.221707 -0.61094  -0.0127295 -0.187713 -0.544806  -0.038424 -0.137484 -0.494344  0.0293792 -0.268205 -0.447316  -0.0363152 -0.116821 -0.597882  -0.00957221 -0.160515 -0.548199  0.00498182 -0.179694 -0.572165  -0.00901937 -0.124925 -0.638596  0.00654161 -0.14473 -0.65142  0.0185455 -0.187884 -0.709507  0.0179155 -0.140878 -0.808114  -0.00914031 -0.130368 -0.763294  -0.0349925 -0.0713264 -0.693559  0.0298613 -0.246229 -0.641781  -0.0347323 -0.0148472 -0.781987  -0.00780356 -0.0764578 -0.721857  0.00695318 -0.093496 -0.722963  -0.00634617 -0.0131938 -0.795938  0.00768381 -0.0323757 -0.786858  0.018108 -0.075893 -0.891241  0.0204391 -0.000185356 -0.965942  -0.00858438 0.0031293 -0.949869  -0.0349584 0.0619967 -0.859254  0.0319967 -0.160779 -0.818714  -0.0307902 0.143518 -0.924017  -0.00583369 0.0598241 -0.859865  0.00892043 0.0408193 -0.836093  -0.0043847 0.145992 -0.905284  0.0102732 0.12106 -0.874423  0.0227252 0.0914185 -1.02004  0.0207118 0.191766 -1.06655  -0.00403464 0.188489 -1.07896  -0.0307496 0.240974 -0.967566  0.0335974 -0.0186912 -0.952044  -0.0319752 0.344891 -1.00017  -0.00348127 0.237255 -0.939481  0.0102144 0.207824 -0.895174  -0.00262928 0.335217 -0.953605  0.010577 0.297478 -0.903132  0.0216773 0.297144 -1.08563  0.0213985 0.404273 -1.09398  -0.00569916 0.415033 -1.13497  -0.0322322 0.454897 -1.00701  0.0351255 0.164373 -1.0303  -0.0304956 0.560199 -1.00304  -0.00330424 0.433931 -0.954646  0.0102304 0.386984 -0.893314  -0.00439191 0.532229 -0.933506  0.0102667 0.473524 -0.871673  0.0204144 0.510794 -1.07618  0.0200564 0.616722 -1.04801  -0.00581896 0.64109 -1.11256  -0.0335751 0.664687 -0.972738  0.0346118 0.36417 -1.039  -0.03405 0.76394 -0.931998  -0.00510967 0.625256 -0.900847  0.00908339 0.554457 -0.833017  -0.00495315 0.709111 -0.848587  0.00850713 0.629007 -0.781792  0.0196178 0.71159 -0.99438  0.0186971 0.800189 -0.932067  -0.00834739 0.851685 -1.00988  -0.0345819 0.854134 -0.866505  0.0334582 0.556067 -0.983868  -0.0337864 0.933517 -0.79592  -0.00572383 0.786231 -0.786924  0.00778711 0.691885 -0.71682  -0.00722003 0.848465 -0.707642  0.00777507 0.745037 -0.644942  0.0171628 0.870567 -0.850312  0.0164784 0.934197 -0.761157  -0.00969374 1.01317 -0.847546  -0.0369947 0.994329 -0.705764  0.0316663 0.714753 -0.862799  -0.0374709 1.04486 -0.611244  -0.00802422 0.899408 -0.623231  0.00687301 0.782973 -0.563951  -0.00747466 0.930795 -0.530051  0.00691354 0.807934 -0.477701  0.0164052 0.973106 -0.659915  0.0161736 1.0016 -0.556229  -0.0118784 1.1096 -0.635059  -0.0373793 1.07258 -0.503908  0.0304875 0.827848 -0.698201  -0.0357102 1.08884 -0.399765  -0.00751209 0.950985 -0.434187  0.00712967 0.815146 -0.388649  -0.00782609 0.948528 -0.334638  0.00829434 0.810462 -0.300694  0.0158921 1.00375 -0.449605  0.0166981 0.995967 -0.341807  -0.0109173 1.13051 -0.409154  -0.0374664 1.07836 -0.292776  0.0302843 0.873064 -0.505643  -0.0363761 1.05725 -0.189148  -0.00725615 0.93415 -0.238519  0.00874209 0.788276 -0.215615  -0.00519228 0.899226 -0.148336  0.0102131 0.752848 -0.134844  0.0183845 0.961641 -0.240705  0.0199103 0.917756 -0.144417  -0.00938034 1.06975 -0.187255  -0.0344746 1.01058 -0.0905185  0.0319154 0.855419 -0.309649  -0.0311959 0.957145 -0.00158095  -0.00371766 0.853993 -0.0632584  0.0116851 0.701928 -0.0633528  -0.00266337 0.789099 0.0101411  0.0138097 0.64239 -0.000272751  0.0211916 0.851732 -0.062609  0.0233464 0.777234 0.0137048  -0.00484514 0.942618 -0.00335455  -0.0315363 0.881436 0.0725436  0.0348766 0.767962 -0.135909  -0.0294268 0.799524 0.137252  -0.00109887 0.717017 0.0733516  0.0147791 0.571212 0.0494742  0.00123072 0.632691 0.119055  0.015738 0.492233 0.0879271  0.025466 0.686412 0.0681868  0.0267377 0.59094 0.113217  -0.00161409 0.754903 0.12564  -0.0275495 0.700889 0.182008  0.0385299 0.629662 0.000340939  -0.0249498 0.602856 0.215433  0.00202703 0.543175 0.154649  0.0156131 0.406984 0.109282  0.00136161 0.445507 0.168777  0.0146229 0.319565 0.118844  0.0256808 0.486524 0.133628  0.0247152 0.378113 0.144109  6.4373e-05 0.537777 0.184605  -0.0277553 0.495972 0.223414  0.0394783 0.451036 0.0765204  -0.0282114 0.389847 0.219678  3.45707e-05 0.347734 0.17011  0.0113983 0.232162 0.110802  -0.000986576 0.251483 0.149626  0.00695562 0.145226 0.087424  0.0218558 0.271005 0.127355  0.0177267 0.166416 0.0981369  -0.00494409 0.304401 0.160837  -0.0304804 0.281714 0.188044  0.0348494 0.255805 0.0934801  -0.0293887 0.181138 0.147071  -0.00431752 0.156609 0.116442  -0.000112057 0.0698945 0.0470388  -0.00714135 0.0746836 0.0592992  0 -2.23517e-07 2.38419e-07  0.0125673 0.080914 0.0534835  0 -2.90573e-07 4.76837e-07  -0.00721097 0.0969448 0.0619788  -0.0145578 0.0887873 0.0748127  0.0173612 0.0766265 0.0441298  0 -3.57628e-07 2.38419e-07  0 -2.90573e-07 2.38419e-07  0.00142156 -0.0764039 -0.0338557  0.00346368 -0.0731831 -0.0480881  0.00259195 -0.142694 -0.0798638  0.00867903 -0.0912835 -0.0550768  0.0263909 -0.171989 -0.122255  0 0 0  0 0 0  0.00519856 -0.0943222 -0.0380878  0 0 0  0.00803706 -0.137345 -0.108926  0.00305498 -0.194886 -0.137406  0.00876209 -0.184416 -0.180281  0.00291654 -0.237822 -0.20086  0.0305155 -0.230863 -0.200508  0.0306133 -0.277529 -0.288845  0.017486 -0.241658 -0.152028  0.00819778 -0.219529 -0.256354  0.00175366 -0.266959 -0.270975  0.00649184 -0.239689 -0.336858  0.000910163 -0.286119 -0.342994  0.0277458 -0.304828 -0.378556  0.0281851 -0.316238 -0.471768  0.01762 -0.334132 -0.306308  0.00633866 -0.245306 -0.417935  0.000576437 -0.289091 -0.416109  0.0062778 -0.235211 -0.496718  0.0011006 -0.281261 -0.48797  0.0283448 -0.310251 -0.562598  0.0294678 -0.288966 -0.652995  0.0157185 -0.368008 -0.477496  0.00727051 -0.212328 -0.572555  0.00151694 -0.258352 -0.557106  0.0079419 -0.175705 -0.643235  0.00207335 -0.225987 -0.621981  0.0297064 -0.251877 -0.736098  0.0313769 -0.201086 -0.812788  0.0167252 -0.339985 -0.646428  0.0094797 -0.128035 -0.707067  0.00282353 -0.1804 -0.679172  0.00956309 -0.068494 -0.760697  0.00356543 -0.127418 -0.728585  0.0320697 -0.13697 -0.878033  0.0332052 -0.061252 -0.933435  0.0184492 -0.254802 -0.795855  0.0107344 -0.00100651 -0.803328  0.00399756 -0.06475 -0.766129  0.0108303 0.074057 -0.832498  0.00443435 0.00264287 -0.794365  0.0329218 0.0224095 -0.972081  0.0345038 0.111724 -0.997711  0.0201644 -0.123009 -0.906625  0.0115038 0.152776 -0.850041  0.00469875 0.0750718 -0.809617  0.010924 0.233502 -0.852753  0.00447237 0.148779 -0.813699  0.0344558 0.20393 -1.00677  0.0341098 0.29826 -1.00033  0.0205711 0.0401275 -0.966539  0.0114294 0.313814 -0.842422  0.00388348 0.222586 -0.802152  0.0102562 0.39191 -0.817764  0.00372064 0.29393 -0.780812  0.0322405 0.388974 -0.977581  0.0326313 0.474445 -0.939467  0.0202932 0.214957 -0.966982  0.0102175 0.464465 -0.780349  0.00351882 0.36014 -0.745853  0.00910127 0.528792 -0.730752  0.00292277 0.419999 -0.701777  0.0320103 0.551836 -0.887496  0.0313483 0.620808 -0.822154  0.019008 0.380909 -0.90809  0.00936055 0.58442 -0.671505  0.00239801 0.470153 -0.646131  0.00839472 0.629222 -0.603027  0.00258625 0.511992 -0.584678  0.029608 0.676462 -0.747033  0.0303475 0.71815 -0.663853  0.0180186 0.51708 -0.796878  0.00883579 0.661655 -0.528619  0.00304365 0.541077 -0.516344  0.00854087 0.679852 -0.450318  0.0033803 0.559436 -0.445201  0.0305495 0.744697 -0.575351  0.0310247 0.756285 -0.482247  0.0176538 0.607636 -0.646902  0.00981379 0.685216 -0.370373  0.00398803 0.562874 -0.371495  0.0101135 0.676277 -0.290401  0.00542212 0.556144 -0.298758  0.0307143 0.75124 -0.390251  0.0329835 0.730538 -0.301151  0.0189631 0.641787 -0.476541  0.0118403 0.654119 -0.213858  0.00716376 0.535049 -0.22896  0.0128875 0.618366 -0.143527  0.00885534 0.503844 -0.163936  0.0347676 0.694481 -0.217748  0.036669 0.644163 -0.140416  0.0217285 0.615883 -0.306182  0.0152304 0.571652 -0.0801158  0.0105011 0.459494 -0.10663  0.0163207 0.513841 -0.0259836  0.0125513 0.407757 -0.0564909  0.0374515 0.581573 -0.0747085  0.0397983 0.508839 -0.0207899  0.0260253 0.533363 -0.156725  0.0179198 0.447862 0.017385  0.0138609 0.34706 -0.0180357  0.0178113 0.375345 0.0471354  0.0139005 0.281328 0.0106812  0.0404799 0.427642 0.0188608  0.0391965 0.339384 0.0457015  0.0293188 0.40487 -0.0458026  0.0172031 0.298367 0.065027  0.011651 0.210895 0.0255077  0.0138831 0.219261 0.06896  0.00830865 0.139263 0.0299184  0.0350823 0.249576 0.0563478  0.0297167 0.159998 0.0517616  0.0275512 0.247103 0.014987  0.0091784 0.140902 0.0590587  0.00176096 0.0690388 0.0184801  0.00122952 0.0683928 0.0323839  0 -1.49012e-07 2.38419e-07  0.0207124 0.0775283 0.0345521  0 -1.78814e-07 4.76837e-07  0.0141087 0.0809164 0.0211902  0 -1.78814e-07 2.38419e-07  -0.00435114 -0.07455 -0.00599504  -0.00297614 -0.0760873 -0.0196033  -0.00973609 -0.144676 -0.0223784  -0.00152591 -0.0941983 -0.018249  0.000325441 -0.177334 -0.0536129  0 0 0  0 0 0  -0.00450297 -0.0917986 -0.00365472  0 0 0  -0.00426178 -0.144305 -0.050514  -0.0137093 -0.207177 -0.0510578  -0.00615148 -0.20234 -0.0936778  -0.0170502 -0.265342 -0.0879016  -3.77446e-05 -0.249473 -0.101516  0.000601649 -0.310854 -0.162993  -0.0162325 -0.250842 -0.058413  -0.00618219 -0.252407 -0.144425  -0.0186996 -0.314122 -0.134867  -0.00747374 -0.291987 -0.202994  -0.0206536 -0.357058 -0.188133  -0.000477552 -0.36138 -0.231361  -0.00182423 -0.399211 -0.30793  -0.0211936 -0.380455 -0.160486  -0.00838947 -0.322801 -0.265963  -0.0218005 -0.388284 -0.247651  -0.00983387 -0.34048 -0.332645  -0.0230763 -0.410532 -0.310601  -0.00271749 -0.424035 -0.388041  -0.00268549 -0.432707 -0.471282  -0.024958 -0.469691 -0.298997  -0.00942308 -0.347114 -0.400316  -0.0232066 -0.419091 -0.37597  -0.0092445 -0.339766 -0.467892  -0.0232095 -0.418208 -0.442244  -0.0021655 -0.428043 -0.553608  -0.00185502 -0.408054 -0.634211  -0.0261593 -0.506707 -0.457498  -0.00872952 -0.322512 -0.533641  -0.0228034 -0.403374 -0.506762  -0.00884563 -0.292474 -0.594626  -0.0226011 -0.379521 -0.568175  -0.00139499 -0.375002 -0.71013  -0.000718236 -0.327528 -0.778681  -0.0258332 -0.486423 -0.618208  -0.00782156 -0.25354 -0.649687  -0.0219363 -0.343454 -0.623299  -0.0077306 -0.204108 -0.696431  -0.0217291 -0.299622 -0.672776  0.000232935 -0.270322 -0.838264  0.000514865 -0.202094 -0.886921  -0.0248511 -0.411808 -0.761227  -0.00699151 -0.148058 -0.73502  -0.0214458 -0.246219 -0.712767  -0.00719261 -0.0850689 -0.763009  -0.0216484 -0.187213 -0.744659  0.000899196 -0.127258 -0.923886  0.00118458 -0.0462157 -0.946356  -0.0240389 -0.29212 -0.870914  -0.00664663 -0.0184667 -0.780535  -0.021336 -0.122587 -0.763944  -0.0074147 0.0510929 -0.784977  -0.0215081 -0.0554141 -0.774144  0.00110185 0.0379506 -0.955736  0.000516176 0.123232 -0.948575  -0.0234454 -0.140115 -0.933137  -0.00716197 0.12053 -0.778116  -0.0216049 0.0121018 -0.770266  -0.00799918 0.187661 -0.758824  -0.0221059 0.0789317 -0.75702  -0.000163555 0.20568 -0.929002  -0.00054121 0.282953 -0.894279  -0.0239239 0.0254253 -0.940202  -0.00781965 0.250833 -0.729822  -0.0221276 0.142154 -0.731114  -0.00854957 0.308199 -0.689179  -0.0222185 0.201454 -0.696595  -0.000937819 0.354534 -0.847968  -0.00137389 0.416126 -0.788606  -0.0248394 0.184234 -0.891176  -0.00799966 0.358137 -0.640276  -0.0218912 0.251808 -0.650954  -0.00832772 0.398126 -0.583263  -0.0217389 0.295433 -0.598693  -0.00143456 0.467492 -0.721446  -0.000899792 0.505188 -0.646226  -0.0249602 0.31744 -0.791833  -0.0073905 0.428776 -0.521398  -0.0208299 0.327976 -0.539038  -0.00707889 0.447331 -0.454425  -0.0197794 0.351833 -0.475422  -7.65324e-05 0.530732 -0.565757  0.000980616 0.540442 -0.481973  -0.0239449 0.408995 -0.653934  -0.00536609 0.454847 -0.385942  -0.0181348 0.361474 -0.40893  -0.00433946 0.449326 -0.317631  -0.0164917 0.361585 -0.341792  0.0025897 0.536807 -0.398725  0.00492001 0.51792 -0.318154  -0.0209179 0.447983 -0.494264  -0.00204897 0.433416 -0.251632  -0.0139439 0.347975 -0.276111  -0.000231743 0.404734 -0.189702  -0.0109687 0.325237 -0.213079  0.00761819 0.48563 -0.241649  0.0102508 0.439733 -0.172644  -0.0158257 0.429595 -0.332022  0.00264645 0.366593 -0.133544  -0.00758123 0.289497 -0.1571  0.00465274 0.318613 -0.0863578  -0.00416899 0.246134 -0.107089  0.0131471 0.383316 -0.113379  0.0149364 0.318021 -0.0646706  -0.00817037 0.356392 -0.187522  0.00636959 0.264197 -0.0470648  -0.00151443 0.193432 -0.0665634  0.00639653 0.20277 -0.0192854  1.88351e-05 0.135261 -0.0331795  0.0155861 0.244548 -0.0283318  0.0133755 0.166375 -0.00391674  -0.00114346 0.238351 -0.0784893  0.00506639 0.137711 -0.000838518  0.000253916 0.0697483 -0.0123789  0.00189137 0.0695054 0.00379133  0 0 2.38419e-07  0.00993681 0.0839665 0.00573969  0 -5.96046e-08 4.76837e-07  0.00140357 0.0866972 -0.0133083  0 -5.96046e-08 2.38419e-07  -0.0065802 -0.068839 0.0193779  -0.00644182 -0.0721288 0.00627136  -0.015266 -0.141632 0.0314357  -0.0101935 -0.0869539 0.0135517  -0.0221903 -0.16907 0.00485849  0 0 0  0 0 0  -0.011682 -0.0826851 0.0238357  0 0 0  -0.0130336 -0.143162 0.00484538  -0.0231386 -0.214766 0.0313876  -0.0197019 -0.211182 -0.00893974  -0.0301665 -0.288352 0.0211051  -0.0306913 -0.251099 -0.0142732  -0.0365082 -0.327722 -0.0464013  -0.0397244 -0.249893 0.0234733  -0.0245302 -0.277059 -0.0325005  -0.0351287 -0.358474 -0.00239062  -0.028412 -0.336675 -0.0673146  -0.0393178 -0.425353 -0.0358851  -0.0409133 -0.399478 -0.0903966  -0.0437649 -0.462196 -0.145832  -0.055596 -0.414534 -0.027097  -0.0307831 -0.391436 -0.110901  -0.0420399 -0.484152 -0.080837  -0.032918 -0.436511 -0.163019  -0.0444714 -0.535944 -0.134095  -0.0459953 -0.51569 -0.211127  -0.0479463 -0.556204 -0.283783  -0.0637215 -0.556386 -0.128589  -0.0342782 -0.473662 -0.221488  -0.0455518 -0.57591 -0.195653  -0.0354938 -0.498254 -0.284918  -0.0469002 -0.605843 -0.262594  -0.0488667 -0.584465 -0.362418  -0.0491168 -0.597639 -0.444103  -0.0676321 -0.655595 -0.270444  -0.0356686 -0.512866 -0.351705  -0.0469978 -0.622207 -0.333815  -0.0359161 -0.514027 -0.419596  -0.0475149 -0.627749 -0.406863  -0.048822 -0.597187 -0.526897  -0.048961 -0.581552 -0.60785  -0.0689493 -0.700234 -0.436307  -0.0356961 -0.50476 -0.487133  -0.047107 -0.618428 -0.478948  -0.0355536 -0.482469 -0.550779  -0.0469903 -0.597839 -0.548967  -0.0481933 -0.552511 -0.685406  -0.0478961 -0.509445 -0.755529  -0.0686119 -0.685262 -0.607506  -0.0349437 -0.449988 -0.610743  -0.0462034 -0.564127 -0.613321  -0.0346789 -0.406365 -0.662878  -0.046087 -0.520006 -0.672211  -0.0471567 -0.454932 -0.818105  -0.0470439 -0.390099 -0.870078  -0.0674081 -0.611619 -0.761768  -0.0343639 -0.354613 -0.708735  -0.0456719 -0.465388 -0.721892  -0.0345036 -0.295169 -0.743385  -0.0460888 -0.403183 -0.763112  -0.0468602 -0.316534 -0.911383  -0.0468179 -0.236447 -0.937955  -0.0668122 -0.487832 -0.882642  -0.0342326 -0.230262 -0.769205  -0.0457183 -0.334608 -0.791054  -0.03434 -0.16231 -0.781416  -0.0458058 -0.261892 -0.808693  -0.0466456 -0.153465 -0.951463  -0.0476589 -0.0691447 -0.949729  -0.0669565 -0.329431 -0.954962  -0.0345469 -0.0920533 -0.783743  -0.0459851 -0.186703 -0.812479  -0.0349302 -0.0229422 -0.772827  -0.0466819 -0.111002 -0.804283  -0.0481055 0.015151 -0.934181  -0.0482286 0.0950789 -0.904152  -0.0676688 -0.154189 -0.969212  -0.034902 0.0450422 -0.751582  -0.0462463 -0.0388739 -0.782142  -0.034743 0.106175 -0.717829  -0.0459135 0.0292286 -0.749421  -0.0476816 0.168487 -0.861613  -0.0480043 0.23284 -0.806722  -0.0680721 0.0165946 -0.923527  -0.0343794 0.162476 -0.675107  -0.045233 0.0899747 -0.704517  -0.0338998 0.20913 -0.622968  -0.044873 0.143156 -0.650301  -0.0473146 0.287922 -0.741236  -0.0461018 0.330399 -0.66777  -0.067065 0.161701 -0.822734  -0.0328028 0.248094 -0.563806  -0.043103 0.184255 -0.587575  -0.0313032 0.273474 -0.499349  -0.0411813 0.215266 -0.519296  -0.0438087 0.359282 -0.588755  -0.0421028 0.373535 -0.506229  -0.0643773 0.263542 -0.679307  -0.0293806 0.289177 -0.431177  -0.0385025 0.232389 -0.446367  -0.0270829 0.291032 -0.361938  -0.0359576 0.237647 -0.371197  -0.0390112 0.373097 -0.421595  -0.0352209 0.358399 -0.338892  -0.0587981 0.309331 -0.510166  -0.0239332 0.282419 -0.292333  -0.0313704 0.227292 -0.297241  -0.0198452 0.259561 -0.227563  -0.0257292 0.20607 -0.225664  -0.0295851 0.328518 -0.261147  -0.0247347 0.286171 -0.189976  -0.0496855 0.293277 -0.336105  -0.0153596 0.227221 -0.166347  -0.0186541 0.170828 -0.159068  -0.010041 0.183399 -0.113196  -0.0117671 0.125329 -0.0970571  -0.0176532 0.230436 -0.127775  -0.0127826 0.166171 -0.0729201  -0.0341835 0.216505 -0.179057  -0.00567627 0.131474 -0.064755  -0.00329304 0.0667825 -0.0427175  -0.000792265 0.0692269 -0.0264752  0 1.19209e-07 2.38419e-07  -0.00490046 0.0871273 -0.0330722  0 5.96046e-08 4.76837e-07  -0.0129154 0.0849464 -0.0537326  0 5.96046e-08 2.38419e-07  -0.00414748 -0.0662125 0.044697  -0.00576276 -0.0676165 0.0304716  -0.0100088 -0.144143 0.0829306  -0.0143043 -0.0771813 0.0368776  -0.032452 -0.159085 0.0523152  0 0 0  0 0 0  -0.0130954 -0.0753646 0.0442829  0 0 0  -0.0135736 -0.141841 0.0571053  -0.017634 -0.230271 0.110335  -0.0225277 -0.22086 0.0713611  -0.0258292 -0.32013 0.123987  -0.0452412 -0.250324 0.0599875  -0.0557756 -0.341251 0.0545835  -0.042845 -0.256296 0.0931649  -0.030389 -0.302586 0.0733767  -0.0327038 -0.411674 0.121786  -0.0367127 -0.383147 0.0607259  -0.039451 -0.501969 0.105383  -0.0635935 -0.432481 0.0333433  -0.0702376 -0.519685 -0.00054121  -0.0634615 -0.45493 0.0891209  -0.0422664 -0.462113 0.0360126  -0.044368 -0.587758 0.0732932  -0.0460777 -0.534413 -0.00146413  -0.0479551 -0.666466 0.0282216  -0.0739596 -0.599492 -0.050391  -0.0776831 -0.669671 -0.110649  -0.0770156 -0.645299 0.0220928  -0.0493664 -0.599996 -0.0506883  -0.0502419 -0.735731 -0.0300059  -0.0513011 -0.654693 -0.11005  -0.0522779 -0.793655 -0.0982642  -0.0793089 -0.727747 -0.183674  -0.0809496 -0.772746 -0.264035  -0.0832928 -0.800482 -0.103557  -0.0525704 -0.699379 -0.177849  -0.052972 -0.838445 -0.175989  -0.0533384 -0.730585 -0.252109  -0.0540554 -0.869766 -0.260058  -0.0813858 -0.80221 -0.351309  -0.0819396 -0.817449 -0.441894  -0.0856001 -0.90288 -0.27295  -0.0538979 -0.749251 -0.331063  -0.0536743 -0.884799 -0.348229  -0.0538448 -0.752761 -0.410879  -0.0536873 -0.885069 -0.437635  -0.0811394 -0.8151 -0.534359  -0.0810808 -0.797772 -0.623957  -0.0858371 -0.941042 -0.466586  -0.0535815 -0.742839 -0.490965  -0.0528353 -0.869095 -0.524838  -0.0529242 -0.718527 -0.566864  -0.0523863 -0.838546 -0.608696  -0.080194 -0.763731 -0.709051  -0.0796812 -0.716131 -0.7872  -0.0845 -0.910415 -0.660496  -0.0523852 -0.68124 -0.638564  -0.0519236 -0.792687 -0.685752  -0.0519849 -0.63171 -0.702517  -0.0519273 -0.73428 -0.754502  -0.0791914 -0.654205 -0.856601  -0.0798547 -0.581795 -0.914715  -0.083824 -0.813569 -0.832495  -0.0521663 -0.571323 -0.758301  -0.0516807 -0.664505 -0.812299  -0.0522268 -0.502417 -0.801541  -0.0523851 -0.585702 -0.858162  -0.0796715 -0.499777 -0.958783  -0.080038 -0.411589 -0.989141  -0.0834976 -0.663073 -0.961816  -0.0523494 -0.426445 -0.833675  -0.052074 -0.499856 -0.889039  -0.0520968 -0.346297 -0.8512  -0.0528691 -0.408661 -0.904387  -0.079739 -0.317964 -1.00262  -0.080795 -0.223496 -1.00095  -0.0841771 -0.475341 -1.0332  -0.0527244 -0.262264 -0.855351  -0.0528483 -0.316273 -0.903748  -0.053058 -0.180038 -0.844479  -0.0531825 -0.225469 -0.888407  -0.0807036 -0.130732 -0.982386  -0.0808551 -0.0425413 -0.949205  -0.0850325 -0.272778 -1.0365  -0.0528713 -0.100218 -0.820554  -0.0526228 -0.138703 -0.856943  -0.051888 -0.0266503 -0.782914  -0.0523057 -0.0588056 -0.810946  -0.0796921 0.038545 -0.899667  -0.0794418 0.110204 -0.838415  -0.0848802 -0.0809986 -0.970707  -0.0514715 0.0408551 -0.73289  -0.0508831 0.0114666 -0.751376  -0.0503294 0.0968169 -0.672061  -0.0493598 0.070499 -0.681437  -0.0775433 0.169297 -0.764898  -0.0755305 0.215298 -0.683263  -0.0826597 0.076267 -0.843775  -0.048404 0.142225 -0.602786  -0.0465224 0.115852 -0.601887  -0.045393 0.173626 -0.527129  -0.0438046 0.146441 -0.515849  -0.0718415 0.244846 -0.593776  -0.0686922 0.259698 -0.501353  -0.0775347 0.179602 -0.670854  -0.0426178 0.192332 -0.445943  -0.0397875 0.160706 -0.425479  -0.0388238 0.194542 -0.363677  -0.0355716 0.159863 -0.333913  -0.0634339 0.256178 -0.407521  -0.0571806 0.237677 -0.315603  -0.0691528 0.216188 -0.473551  -0.0334117 0.18332 -0.281743  -0.0285952 0.141553 -0.243266  -0.0251737 0.156801 -0.203531  -0.0201585 0.107775 -0.155793  -0.0469141 0.200118 -0.2284  -0.0366127 0.151174 -0.146023  -0.054666 0.180403 -0.273724  -0.01688 0.117491 -0.127041  -0.00661445 0.0571123 -0.0707464  -0.00476527 0.0628107 -0.0570147  0 2.38419e-07 2.38419e-07  -0.0177348 0.0802318 -0.0748425  0 1.78814e-07 4.76837e-07  -0.0231814 0.0727751 -0.0927258  0 1.78814e-07 2.38419e-07  0.0111134 -0.0823854 0.0718098  0.00203806 -0.0704412 0.059082  0.0229938 -0.174165 0.14361  -0.00657979 -0.0753226 0.0545845  -0.0214479 -0.1661 0.0975499  0 0 0  0 0 0  0.00269662 -0.0853552 0.0613532  0 0 0  -0.00114839 -0.15322 0.113472  0.0197746 -0.277551 0.190336  -0.00667575 -0.247703 0.152206  0.0140826 -0.385499 0.224247  -0.0340006 -0.270656 0.128741  -0.0435916 -0.377652 0.145986  -0.00506647 -0.30167 0.162136  -0.0133221 -0.346761 0.175308  0.00643787 -0.497299 0.236438  -0.0202225 -0.448841 0.181476  -0.00119561 -0.609369 0.234294  -0.0523033 -0.487947 0.143723  -0.0603149 -0.596844 0.126748  -0.0245545 -0.537687 0.194432  -0.0273655 -0.55046 0.172355  -0.00792629 -0.717679 0.2076  -0.0331016 -0.648565 0.144152  -0.0126418 -0.822027 0.168092  -0.066539 -0.700648 0.0888071  -0.0713612 -0.797295 0.0372539  -0.0407487 -0.769062 0.148082  -0.0378852 -0.740464 0.102058  -0.0172205 -0.913768 0.108223  -0.0409171 -0.822078 0.0439277  -0.0202774 -0.997677 0.0371628  -0.0743706 -0.881364 -0.0318043  -0.0767035 -0.952892 -0.111748  -0.050153 -0.970707 0.0294142  -0.0430802 -0.893481 -0.0254986  -0.0220393 -1.06336 -0.0499837  -0.0444121 -0.95004 -0.107644  -0.0228086 -1.11753 -0.146141  -0.078232 -1.0081 -0.205006  -0.0784868 -1.04792 -0.304082  -0.0555253 -1.11773 -0.149757  -0.0450085 -0.992568 -0.19782  -0.0229369 -1.14885 -0.249722  -0.0452054 -1.01751 -0.293942  -0.022687 -1.16668 -0.35793  -0.0780286 -1.06778 -0.409848  -0.0777472 -1.07134 -0.516774  -0.0552878 -1.19489 -0.366803  -0.0451612 -1.02698 -0.392871  -0.0220777 -1.16066 -0.466119  -0.0441408 -1.01776 -0.49097  -0.0209792 -1.13991 -0.573879  -0.0766681 -1.05363 -0.622307  -0.0762582 -1.01978 -0.723317  -0.0542444 -1.19324 -0.596341  -0.0436441 -0.992118 -0.586873  -0.0209882 -1.09632 -0.673894  -0.0429884 -0.948551 -0.67641  -0.0205888 -1.03905 -0.767794  -0.0760012 -0.966192 -0.817184  -0.0761111 -0.898894 -0.900911  -0.053442 -1.11073 -0.81263  -0.043098 -0.891099 -0.758013  -0.021018 -0.963637 -0.84818  -0.0424826 -0.819162 -0.828176  -0.0201662 -0.877144 -0.918534  -0.0755962 -0.816153 -0.971382  -0.075752 -0.723777 -1.02868  -0.0538956 -0.957946 -0.988156  -0.0427674 -0.736381 -0.886603  -0.0200332 -0.779174 -0.967859  -0.04319 -0.644488 -0.928788  -0.0208797 -0.672074 -1.00419  -0.0764519 -0.620987 -1.06692  -0.0769854 -0.513677 -1.08826  -0.0527548 -0.753943 -1.10194  -0.0439091 -0.545766 -0.954684  -0.0220215 -0.561525 -1.01703  -0.0445045 -0.44371 -0.962515  -0.0218885 -0.449397 -1.01548  -0.0775862 -0.403789 -1.08954  -0.0776856 -0.295443 -1.07343  -0.0546232 -0.521284 -1.14023  -0.0444819 -0.342124 -0.954243  -0.0215049 -0.34114 -0.989791  -0.044533 -0.243473 -0.927084  -0.0220597 -0.23544 -0.949799  -0.0776577 -0.190863 -1.03684  -0.0774777 -0.0940117 -0.985141  -0.0544825 -0.289931 -1.09611  -0.0445752 -0.150516 -0.884606  -0.0211222 -0.142847 -0.888587  -0.0433543 -0.067827 -0.824641  -0.0188463 -0.0583485 -0.815165  -0.076112 -0.00919229 -0.914982  -0.0734489 0.0628111 -0.832985  -0.0532899 -0.0867437 -0.975635  -0.0410938 0.00385523 -0.75301  -0.0161154 0.00706649 -0.72653  -0.0388579 0.0611187 -0.669187  -0.0142815 0.0612313 -0.628692  -0.0709355 0.118501 -0.738384  -0.0679326 0.158489 -0.637226  -0.0478165 0.0613945 -0.793687  -0.0364046 0.104014 -0.577574  -0.010807 0.0917174 -0.522952  -0.0327015 0.127638 -0.479039  -0.00615978 0.107974 -0.412846  -0.0637097 0.177266 -0.529441  -0.0577145 0.178582 -0.420574  -0.0413547 0.137174 -0.572429  -0.0277889 0.135428 -0.378258  -0.00120664 0.101477 -0.303206  -0.0230749 0.124018 -0.276839  6.79493e-05 0.0792156 -0.19277  -0.0513861 0.158491 -0.311602  -0.0418129 0.122885 -0.206358  -0.0295129 0.131825 -0.338244  -0.0164371 0.0956317 -0.178152  0.00423241 0.0420939 -0.0888588  -0.00659537 0.0504702 -0.0817018  0 3.57628e-07 2.38419e-07  -0.0245929 0.0645062 -0.108106  0 2.98023e-07 4.76837e-07  -0.0136576 0.0529037 -0.113294  0 2.98023e-07 2.38419e-07  
SCALARS smooth_stress float 1
LOOKUP_TABLE default
2026 2555.27 2343.88 2293.8 2271.03 2261.84 2242.04 2223.11 2194.7 2171.57 2143.92 2123.56 2099.48 2080.9 2057.76 2060.37 2114.07 2360.24 656.676 2104.17 3374.62 3387.18 3355.75 3351.43 3345.19 3329.56 3299.2 3263.32 3223.43 3188.46 3156.99 3136.56 3126.03 3136.85 3195.38 3302.91 3525.46 1360.46 2000.19 3189.32 3396.15 3457.11 3479.59 3485.45 3459.36 3429.41 3385 3354.38 3321.3 3309.45 3300.97 3317.22 3334.8 3366.92 3331.92 3255 1208.63 2189.01 3394.37 3513.29 3564.14 3564.38 3542.65 3495.9 3447.65 3408.21 3378.44 3363.2 3356.89 3362.98 3370.77 3372.59 3339.68 3218.1 3018.25 1053.25 2549.82 3767.45 3632.85 3583.64 3527.7 3490.84 3425.18 3365.33 3343.67 3320.92 3322.45 3316.41 3328.88 3324.42 3322.57 3281.24 3204.24 3059.87 999.984 2807.62 4110.64 3821.25 3728.35 3663.45 3633.44 3591.04 3514.44 3532.8 3511.58 3533.66 3515.53 3540.65 3521.11 3542.85 3516.91 3565.75 3664.9 1113.37 722.668 1458.1 1355.08 1338.51 1320.65 1296.91 1306.1 1269.96 1282.18 1277.58 1286.55 1279.5 1288.07 1279.93 1287.7 1279.99 1297.91 1356.68 673.982 2518.36 3752.06 3312.06 3196.95 3157.09 3150.92 3128.42 3104.8 3065.59 3034.69 2995.56 2969.92 2938.21 2919.66 2885.17 2851.26 2819.57 2843.3 1032.7 2705.48 6262.11 5840.6 5650.39 5603.24 5582.27 5557.72 5501.7 5436.9 5360.23 5291.9 5226.37 5179.22 5142.94 5127.26 5146.74 5257.41 5446.29 3210.01 2126.65 4906.73 5042.69 5084.03 5109.01 5108.14 5087 5022.82 4959 4883.46 4829.08 4779.83 4763.16 4760.76 4792.74 4843.21 4911.08 4903.11 2861.88 2136.75 4893.74 5076.1 5186.41 5199.41 5174.6 5117.89 5031.09 4964.65 4900.55 4870.04 4846.73 4857.65 4868.77 4896.43 4889.53 4833.54 4645.37 2520.61 2571.62 5656.35 5626.1 5591.39 5521.41 5449.41 5361.6 5266.63 5210.4 5174.31 5165.05 5168.56 5189.71 5211.29 5231.02 5230.45 5205.53 5086.6 2533.41 3157.6 6796.11 6585.8 6470.56 6372.36 6319.05 6246.19 6158.04 6109.9 6125.53 6114.01 6153.03 6162.34 6217.14 6238.47 6307.97 6389.71 6646.09 3075.19 1201.06 3851.57 3697.58 3695.54 3655.28 3624.72 3611.6 3567.9 3539.14 3574.41 3554.54 3589.61 3575.46 3616.25 3609.38 3663.29 3695.57 3948.87 2647.72 2068.94 3336.43 3230.59 3204.69 3190.61 3198.3 3199.86 3183.78 3162.03 3132.24 3103.59 3072.39 3046.84 3022.81 2998.23 2937.14 2816.31 2711.59 937.396 2035.05 5118.81 4939.13 4819.46 4782.23 4780.23 4783.88 4747.12 4704.21 4638.7 4581.86 4515.45 4470.2 4425.84 4403.64 4358.31 4319.36 4313.96 2428.32 1147.3 3005.15 3029.12 2999.62 3015.44 3026.01 3018.86 2972.86 2922.06 2856.34 2802.66 2749.11 2721.11 2705.44 2719.02 2741.19 2793.23 2830.33 1724.37 1067.96 2564.42 2632.41 2660.28 2663.25 2642.31 2595.07 2534.4 2478.24 2436.18 2411.66 2403.68 2413.81 2436.44 2466.16 2491.37 2499.23 2440.28 1344.58 1706.6 3509.49 3594.32 3585.6 3546.81 3488.81 3430.51 3369.52 3330.99 3318.19 3328.73 3354.45 3392.92 3436.82 3478.9 3510.62 3521.89 3452.93 1636.69 2648.31 5201.18 5384.94 5416.66 5386.58 5346.11 5292.28 5248.51 5218.17 5240.09 5259.02 5315.44 5360.13 5433.18 5483.2 5542.78 5558.93 5604.8 2532.16 1085.92 3164.11 3311.83 3417.67 3435.75 3430.06 3406.51 3385.73 3367.7 3378.23 3394.63 3418.03 3448.83 3484.69 3525.44 3565.75 3608.31 3717.16 2484.56 1813.95 2956.95 3088.56 3186.85 3232.16 3260.13 3278.58 3275.27 3266.92 3248.98 3226.68 3197.68 3170.17 3143 3126.31 3107.9 3040.54 2948.34 1012.74 1797.59 4335.43 4455.21 4599.13 4656.89 4693.54 4732.27 4726.24 4712.55 4675.3 4633.94 4575.84 4526.68 4475.47 4446.2 4413.36 4344.37 4245.69 2357.24 798.349 2052.33 2107.13 2166.73 2210.94 2247.45 2278.71 2282.05 2273.67 2247 2211.24 2163.84 2121.2 2082.85 2061 2046.1 2038.62 2054.32 1260.17 628.592 1279.25 1297.31 1306.44 1305.2 1303.4 1302.31 1299.25 1297.95 1301 1301.56 1304.76 1304.45 1305.92 1304.66 1301.54 1286.48 1267.11 603.565 1424.04 2544.36 2620.04 2613.4 2573.85 2524.76 2488.56 2462.82 2464.74 2491.52 2530.3 2580.34 2623.39 2664.3 2683.68 2687.91 2663.92 2600.05 1049.04 2634.23 4792.45 5013.19 5087.79 5065.76 5012.79 4974.05 4939.89 4942.33 4981.69 5033.61 5097.25 5152.11 5199.58 5221.45 5201.36 5094.39 4924.98 2124.19 1111.56 3104.37 3295.51 3445.54 3476.44 3450.34 3428.54 3408.24 3404.2 3415.92 3445.89 3474.96 3515.8 3542.4 3570.55 3565.1 3523.89 3413.38 2175.54 1821.78 2829.4 2970.84 3050.45 3101.17 3137.85 3169.74 3164.99 3172.95 3159.33 3154.07 3125.2 3109.58 3078.86 3076.42 3096.43 3202.23 3355.39 1178.73 2158.71 4513.07 4554.05 4704.83 4796.14 4856.69 4920.73 4945.23 4949.31 4943.64 4920.58 4881.52 4835.58 4788.88 4752.05 4746.13 4804.22 4888.34 2652.08 1471.92 2902.65 2864.15 2885.82 2933.45 2968.91 3012.96 3055.02 3076.77 3091.98 3082.63 3060.04 3022.3 2984.5 2941.78 2894.62 2853.63 2866.57 1477.4 1287.27 2156.37 2143.16 2134.32 2128.54 2142.99 2176.41 2228.25 2277.05 2314.12 2341.23 2350.17 2345.2 2322.68 2300.07 2262.93 2207.29 2135.92 842.206 1785.22 2988.52 2965.29 2904.46 2856.09 2824.73 2829.55 2853.15 2901.66 2957.71 3008.71 3059.96 3093.5 3107.24 3106.94 3108.25 3140.58 3129.31 1200.45 2954.05 5087.28 5122.83 5053.51 4971.44 4902.05 4886.64 4890.04 4915.49 4991.55 5051.9 5114.47 5160.83 5179.14 5181.8 5153.03 5103.22 4987.19 2155.79 1223.21 3333.26 3410.61 3459.93 3422.97 3373.94 3345.97 3341.99 3340.33 3374.27 3408.29 3440.07 3468.13 3481.9 3481.37 3459.33 3394.46 3229.66 2014.68 2330.91 3063.46 3107.55 3095.95 3110.1 3141.71 3150.96 3159.29 3148.76 3158.07 3141.69 3139.48 3114.88 3106.58 3084.98 3105.98 3194.66 3567.39 1394.65 3237.07 5794 5564.03 5511.82 5541.92 5591.39 5627.96 5679.98 5671.01 5691.4 5668.5 5656.31 5606.41 5576.71 5515.81 5488.72 5497.88 5727.43 3206.81 2694.36 5006.59 4931.43 4838.29 4839.44 4870.01 4894.38 4955.15 4996.19 5011.39 5022.47 5000.41 4974.16 4926.91 4873.54 4761.34 4607.3 4515.47 2179.81 2403.08 4369.94 4490.5 4551 4558.25 4594.47 4617.64 4673.76 4736.57 4767.9 4807.41 4811.63 4806.19 4780.13 4758.85 4702.8 4564.99 4407.49 1833.13 2486.01 4481.09 4487.9 4521.2 4538.22 4558.92 4587.79 4621.35 4686.96 4739.56 4794.26 4841.57 4858.5 4875.66 4883.29 4939.12 5053.39 5227.06 2096.42 3272.69 5666.2 5468.31 5354.73 5296.69 5301.86 5330.68 5355.27 5398.74 5475.88 5525.46 5587.64 5638.04 5671.3 5693.44 5751.95 5914.46 6328.83 2772.76 1343.08 3615.38 3405.93 3293.12 3211.47 3181.97 3180.43 3194.93 3213.12 3248.35 3288.11 3307.15 3335.62 3345.54 3352.7 3358.2 3369.8 3357.39 2135.94 759.943 1185.83 1129.67 1127.38 1110.78 1133.08 1121.81 1128.02 1121.43 1126.8 1118.32 1121.6 1111.62 1113.31 1102.08 1108.32 1105.97 1113.59 685.672 1430.38 3706.93 3309.51 3210.5 3173.44 3212.83 3225.38 3240.81 3233.81 3233.65 3231.4 3219.21 3206.67 3186.96 3164.88 3138.67 3112.57 3068.32 2307.34 1206.63 3512.88 3351.6 3234.47 3197.96 3217.57 3233.45 3258.48 3283.64 3283 3288.83 3274.07 3262.72 3234.06 3205.29 3138.33 3037.5 2874.51 1852.15 1036.69 3052.24 3170.48 3248.29 3251.67 3270.74 3286.16 3310.18 3350.08 3364.91 3372.42 3379.75 3365.03 3354.14 3327.25 3289.17 3172.09 3042.6 1857.18 952.903 2794.19 2925.8 3047.27 3092.58 3119.78 3140.37 3149.48 3183.75 3209.58 3230.85 3260.36 3258.82 3268.21 3263.66 3290.57 3314.36 3427.76 2145.06 1049.56 2917.73 2931.03 2971.64 2991.53 3016.68 3042.03 3050.6 3064.09 3103.27 3128.15 3166.2 3188.44 3212.08 3227.83 3272.02 3389.66 3815.09 2608.85 650.183 2390.48 2197.42 2132.44 2121.7 2123.11 2145.6 2163.45 2172.46 2195.01 2217.73 2229.57 2251.3 2269.76 2284.29 2302.83 2350.16 2520.16 2054.65 579.312 1094.12 2026 646.354 812.814 1659.46 1325.61 1936.22 1132.06 697.177 769.88 778.084 609.763 1546.55 814.444 965.186 749.508 1330.38 964.012 1107.2 1805.77 618.196 886.969 1639.37 1131.76 1638 899.944 606.699 1491.28 850.549 626.077 1171.53 890.74 1081.42 1717.8 597.249 867.906 1603.06 1048.75 1567.01 842.438 575.1 1413.38 829.493 602.591 1137.62 874.055 1073.49 1691.21 590.618 869.017 1599.63 1029.9 1545.17 827.135 565.56 1392.03 815.008 590.249 1122.59 866.105 1068.77 1680.78 588.135 862.162 1591.08 1018.27 1536.48 819.208 560.31 1383.44 815.827 589.919 1119.59 863.746 1068.08 1671.93 584.718 865.562 1586.37 1018.47 1528.06 820.028 557.532 1383.4 803.694 582.273 1108.79 857.154 1059.15 1659.76 581.323 855.682 1569.03 1006.59 1513.48 810.088 551.928 1369.83 800.881 581.188 1101.73 850.901 1050.15 1641.93 575.104 852.167 1554.59 999.614 1495.93 805.643 546.277 1357.51 785.822 571.331 1085.98 840.219 1035.59 1623.37 569.333 838.141 1532.01 983.634 1477.3 793.051 539.393 1335.99 781.567 568.661 1076.05 831.537 1024.08 1602.91 562.123 832.527 1516.81 974.889 1459.17 787.681 533.391 1320.18 767.227 558.461 1060.26 820.662 1010.37 1585.46 556.367 819.217 1497.17 960.021 1443.03 776.172 527.291 1299.94 764.332 556.031 1051.61 812.934 1001.67 1567.53 549.683 815.801 1487.39 953.455 1428.56 772.552 522.268 1288 751.62 546.29 1037.69 803.616 992.613 1553.19 544.783 806.396 1475.76 941.07 1416.26 762.787 517.012 1274.18 749.9 544.247 1031.1 797.827 990.212 1536.66 538.012 808.625 1476.2 936.832 1402.81 760.573 511.791 1270.5 736.51 533.176 1017.39 790.557 991.922 1524.59 535.093 810.255 1489.2 923.658 1392.37 748.253 505.286 1266.31 738.758 530.697 1017.91 798.184 1019.7 1529.67 540.524 840.469 1535.88 923.542 1398.59 740.107 501.938 1288.4 742.679 523.429 1027.88 824.77 1069.84 1590.64 575.06 881.505 1613.85 937.025 1446.87 728.669 511.131 1337.06 765.751 546.625 1097.08 937.81 1190.98 1813.61 706.82 1010.54 1015.71 963.508 789.456 725.946 556.333 1404.84 306.75 656.676 656.676 349.926 513.269 974.207 1524.85 525.221 787.945 1476.72 884.138 1324.64 675.821 484.824 1212.74 584.268 1026.94 828.193 1045.24 1597.8 594.129 865.467 1590.66 856.28 1301.07 1242.47 1085.93 879.909 1083.9 1609.47 601.637 901.705 1619.6 843.746 1287.04 1256.9 1079.71 883.671 1094.3 1613.79 605.304 911.925 1630.76 840.323 1288.82 1262.9 1085.81 889.637 1100.38 1616.31 606.235 914.166 1631.99 840.476 1284.69 1272.07 1081.7 888.55 1102.12 1619.28 607.284 917.984 1626.2 842.331 1284.42 1269.73 1082.41 887.512 1092.36 1606.85 603.286 907.685 1610.44 833.475 1266.76 1259.18 1069.44 878.004 1081.92 1592.61 598.288 901.78 1592.77 825.134 1254.27 1241.07 1061.45 870.584 1067.26 1570.93 591.166 888.289 1573.92 810.798 1231.51 1223.71 1044.84 858.888 1056.9 1553.75 585.181 882.834 1559.14 800.704 1218.66 1205.54 1036.68 852.435 1046.53 1535.27 579.291 873.042 1547.77 788.104 1200.06 1193.22 1023.13 844.015 1042.68 1524.84 575.82 872.992 1543.66 781.858 1194.66 1183.39 1020.44 842.776 1041.22 1517.14 573.822 870.438 1545.39 775.711 1187.27 1182.62 1015.13 841.644 1047.68 1521.8 575.905 878.623 1554.94 778.054 1195.81 1186.38 1023.69 850.393 1057.11 1537.67 583.225 884.332 1570.81 783.519 1211.47 1199.09 1038.67 865.707 1073.69 1586.94 601.92 897.292 1580.29 808.713 1255.4 1219.04 1072.97 885.533 1064.57 1637.68 619.584 878.031 1570.68 838.983 1288.25 1227.56 1104.55 901.074 1049.9 1706.14 654.861 863.874 915.257 843.148 738.606 1208.01 653.643 344.753 536.425 1032.2 1486.92 560.077 874.988 1566.97 759.648 1175.46 704.104 465.907 1180.06 517.705 1015.81 847.135 1076.4 1573.18 603.058 900.682 1640.36 783.138 1223.51 1233.19 1085.05 903.785 1122.26 1650.77 633.07 938.503 1681.77 810.281 1259.05 1273.56 1119.48 925.591 1130.97 1671.74 641.693 944.929 1690.33 820.526 1267.48 1283.84 1129.52 934.671 1133.25 1678.03 644.389 943.639 1686.67 823.963 1266.43 1282.27 1131.3 935.48 1127.71 1682.74 645.8 938.258 1669.09 821.088 1257.31 1274.09 1123.82 925.479 1107.11 1653.86 635.893 921.47 1646.46 808.478 1238.48 1248.22 1112.47 917.189 1095.52 1643.72 631.733 911.581 1626.57 797.39 1221.23 1232.36 1098.1 903.94 1078.86 1612.63 621.352 899.28 1610.4 783.543 1203.54 1210.08 1087.22 897.631 1073.74 1607.2 619.094 895.138 1600.52 775.287 1192.11 1202.4 1077.19 889.115 1065.34 1586.03 612.399 889.433 1595.48 766.955 1183.53 1190.87 1072.91 888.691 1068.28 1592.4 614.574 891.876 1596.9 765.648 1183.1 1193.86 1071.14 886.876 1067.25 1585.21 612.788 891.593 1600.5 765.499 1186.15 1192.95 1075.71 893.208 1075.1 1605.14 620.015 897.405 1605 771.731 1194.68 1202.76 1081.05 895.529 1071.34 1605.79 620.743 892.859 1597.4 775.87 1199.89 1201.1 1086.47 898.825 1061.99 1616.88 623.543 881.156 1563.45 779.585 1191.41 1196.84 1071.02 873.601 1008.43 1549.09 594.407 825.859 1491.52 758.204 1146.69 1154.59 1025.16 820.436 943.795 1475.89 560.352 759.88 791.225 722.095 625.988 1103.4 553.766 293.37 609.916 1198.34 1652.58 650.948 1034.04 1788.28 809.397 1281.48 807.209 505.864 1352.16 571.718 1122 926.71 1157.65 1672.24 635.888 949.772 1732.74 843.214 1307.79 1383.56 1136.73 934.425 1153.19 1708.82 651.242 945.667 1724.65 856.253 1318.35 1374.5 1151.93 937.439 1132.1 1700.05 648.17 926.431 1702.17 851.116 1310.66 1350.55 1148.03 930.411 1114.93 1684.78 641.407 912.996 1682.16 842.654 1294.82 1329.9 1135.91 917.719 1100.29 1663.53 634.639 901.502 1655.13 829.051 1273.02 1309.28 1119.69 905.347 1078.91 1632.17 623.306 882.74 1628.13 812.113 1249.75 1281.22 1101.11 889.606 1062.49 1608.99 615.123 870.564 1610.5 797.588 1231.72 1261.39 1088.34 882.36 1056.47 1592.69 609.272 865.277 1600.99 788.895 1219.87 1251.53 1077.84 872.906 1049.1 1581.53 605.506 861.042 1595.99 781.686 1213.89 1243.81 1074.2 873.248 1051.47 1578.95 604.571 861.749 1596.51 781.086 1212.72 1245.67 1071.5 869.532 1049.33 1578.76 604.705 861.259 1598.63 780.46 1216.15 1246.23 1074.56 874.489 1055.29 1584.23 606.602 864.358 1602.53 785.237 1220.32 1254.13 1075.51 872.858 1052.43 1585.97 607.373 862.571 1600.99 785.875 1222.75 1255.85 1076.48 874.728 1051.42 1579.66 604.752 858.812 1592.94 785.874 1215.67 1258.69 1064.43 861.126 1032.95 1548 592.524 840.932 1563.96 772.985 1192.52 1250.9 1032.39 828.794 1000.25 1463.34 553.742 800.951 1503.32 750.465 1149.24 1242.72 972.263 766.857 938.78 1371.96 507.787 737.96 740.009 726.6 587.135 1206.27 492.898 262.025 708.572 1386.57 1939.9 772.419 1188.14 2053.37 975.174 1540.43 896.816 579.057 1611.83 711.267 1288.68 1029.39 1250.71 1806.7 670.172 983.03 1858.91 972.7 1480.16 1612.92 1195.68 954.45 1204.6 1748.66 648.097 948.727 1807.01 946.935 1443.15 1577.7 1169.93 932.554 1167.56 1700.53 630.361 922.907 1773.86 921.544 1416.98 1533.82 1143.29 912.535 1157.03 1670.86 621.298 912.747 1757.98 905.59 1398.15 1523.86 1133.04 907.174 1148.44 1660.12 616.108 906.48 1735.36 897.406 1377.1 1514.43 1110.4 887.314 1124.95 1618.33 601.238 884.167 1706.41 878.538 1353.17 1486.24 1089.57 866.633 1103.57 1592.98 589.968 865.869 1693.66 865.583 1342.41 1467.94 1081.03 867.893 1116.17 1590.74 591.04 881.21 1696.49 863.937 1336.35 1472.72 1076.16 858.886 1102.59 1582.73 586.378 866.325 1691.87 859.963 1337.72 1466.7 1075.59 864.706 1116.42 1588.16 589.88 881.298 1698.29 864.126 1339.45 1476.13 1075.54 858.647 1104.81 1585.13 586.975 867.278 1696.92 863.996 1346.36 1474.87 1077.94 865.892 1119.25 1593.14 590.949 881.896 1704.44 871.035 1351.37 1488.5 1078.39 859.315 1107.01 1587.2 586.997 866.439 1702.7 871.307 1357.96 1490.26 1077.12 862.767 1119.28 1585.27 586.649 878.296 1709.44 877.119 1362.54 1507.33 1069.75 847.368 1104.12 1561.3 573.787 856.848 1718.54 879.092 1371.26 1519.32 1055.47 839.332 1130.39 1534.51 556.003 875.198 1791.38 894.883 1389.12 1570.74 1039.19 818.591 1131.05 1492.06 528.156 853.391 809.091 895.382 654.305 1611.8 492.197 259.975 722.668 722.668 2099.05 791.764 383.859 1116.64 1128.02 1828.2 338.809 629.287 906.733 862.252 1409.45 1074.24 666.34 1893.12 678.066 341.467 1015 1135.69 1766.1 916.481 1277.98 1013.61 677.01 1883.77 668.499 340.079 994.703 1142.2 1764.33 936.509 1248.54 998.432 670.012 1847.07 664.155 343.809 992.719 1126.01 1737.05 925.506 1231.13 976.839 656.494 1828.01 644.936 327.929 962.327 1129.82 1734.8 927.591 1213.67 968.98 651.973 1813.52 650.032 334.582 978.3 1122.63 1718.89 914.406 1216.61 971.519 656.069 1797.25 633.378 327.801 945.712 1111.94 1702.68 919.504 1183.34 942.16 636.584 1763.64 626.296 324.25 953.367 1098.3 1688.8 896.974 1191.01 957.931 655.885 1799.04 635.659 328.814 951.526 1108.65 1707.27 915.614 1188.89 948.769 641.924 1771.49 629.065 326.057 957.015 1101.08 1695.12 902.411 1194.21 960.494 657.486 1802.63 636.659 329.536 953.26 1112.97 1717.18 919.171 1191.31 949.962 642.839 1775.59 629.533 326.238 958.372 1108.26 1709.75 907.34 1197.6 961.833 658.538 1807.48 636.827 329.699 954.09 1123.38 1736.03 926.128 1194.58 950.236 643.108 1779.9 628.566 325.845 958.335 1122.39 1735.15 915.9 1201.28 961.858 659.136 1813.65 635.29 329.368 954.093 1144.54 1770.82 938.375 1200.37 950.62 644.698 1791.25 625.766 325.895 961.362 1157.03 1800.21 933.995 1217.5 972.015 672.144 1869.57 644.077 336.548 986.974 1224.64 1982.51 979.388 1303.87 1020.13 712.604 1971.11 673.982 369.707 673.982 1349.9 884.466 1089.27 585.21 304.275 884.729 1821.18 1420.19 1081.96 1674.42 920.554 571.848 687.791 574.663 504.955 1210.88 675.362 915.892 1257.52 892.05 1654.81 1320.38 1039.6 1558.85 861.529 592.89 1231.2 831.621 1090.57 836.923 1561.57 1253.52 1022.76 1528.11 858.27 566.038 1204.92 802.806 1037.63 819.149 1525.02 1239.77 1011.02 1514.16 853.007 554.327 1187.83 792.71 1022.17 814.363 1514.95 1233.39 1006.13 1512.69 848.6 551.09 1185.85 794.418 1018.77 814.505 1515.89 1231.55 1011.75 1516.22 855.678 553.368 1189.69 790.264 1016.9 808.612 1504.69 1217.66 1006.16 1504.93 849.869 547.397 1184.59 785.679 1007.51 800.3 1493.83 1204.72 1001.97 1496.17 848.985 545.752 1175.1 776.606 998.457 788.336 1474.12 1185.17 989.893 1477.5 838.429 537.219 1160.08 769.714 985.647 777.444 1460.07 1170.4 982.285 1465.52 834.783 534.764 1145.47 760.223 975.611 765.458 1440.66 1152.85 969.267 1446.52 823.456 526.541 1128.6 754.339 964.112 756.63 1429.41 1142.85 962.142 1436.66 819.909 525.061 1115.02 746.858 956.597 748.442 1414.04 1131.97 951.338 1421.74 809.949 518.275 1102.43 742.826 947.829 744.609 1406.97 1128.48 946.861 1414.06 808.177 517.987 1094.95 734.107 941.193 739.925 1388.09 1122.28 933.302 1387.36 795.469 508.532 1085.63 718.781 926.099 742.572 1364.24 1135.28 909.609 1347.52 774.888 496.329 1072.05 692.313 911.397 763.937 1336.78 1162.55 868.14 1306.06 725.242 469.208 1067.13 670.487 905.236 794.859 1348.88 657.793 849.685 688.051 694.157 463.426 1082.48 243.239 476.362 625.327 1112.95 963.953 605.698 931.847 396.203 326.853 727.238 379.136 763.666 639.555 1119.88 964.478 609.062 928.126 740.985 749.433 629.089 1071.95 952.612 598.481 906.81 733.389 723.123 632.753 1066.94 955.665 594.151 907.595 736.578 722.426 637.719 1066.4 955.673 597.664 908.522 744.733 718.794 636.611 1071.27 951.222 600.855 910.914 746.523 720.298 630.93 1059.88 936.416 596.841 899.664 739.918 708.787 619.25 1049.36 921.446 590.433 889.83 726.245 702.033 608.703 1028.87 903.459 579.829 871.651 711.381 686.802 596.725 1014.93 890.009 570.381 858.743 695.277 679.107 588.767 995.735 877.632 559.067 841.123 681.575 665.882 581.734 986.228 872.606 551.043 832.362 670.296 662.25 580.781 975.268 871.088 543.947 822.686 665.189 655.493 582.113 976.74 877.164 541.882 823.457 665.123 659.386 589.045 977.746 886.62 540.754 822.959 671.06 661.963 599.541 998.86 905.17 544.014 836.984 681.42 683.374 611.496 1034.55 910.729 558.463 860.005 699.733 704.329 597.757 1048.51 529.745 565.588 498.172 696.454 398.844 574.655 866.557 892.149 386.136 606.828 384.974 256.847 589.476 237.362 598.754 602.878 892.635 921.569 391.37 617.801 613.321 615.875 615.943 908.487 933.458 397.729 624.476 626.878 623.403 622.949 920.496 934.745 404.095 629.975 633.922 626.897 620.216 926.534 927.673 407.833 632.692 631.647 627.891 612.008 919.392 913.914 406.092 624.225 621.522 620.733 599.548 906.659 895.11 397.818 610.769 605.71 610.899 586.423 886.43 879.125 387.042 593.835 587.363 598.244 575.771 870.891 865.641 376.353 579.554 573.897 588.558 568.478 854.33 858.077 366.776 566.26 563.108 579.077 564.484 845.746 854.115 359.663 558.824 559.019 574.681 564.12 838.786 856.159 355.626 554.842 558.27 571.902 566.774 841.447 860.481 355.596 558.175 564.019 574.851 570.904 845.478 867.439 359.01 563.834 570.825 578.403 574.407 855.601 871.235 364.544 573.286 579.848 584.789 574.238 861.852 869.541 370.789 579.054 584.573 586.012 563.877 856.354 843.645 373.368 573.331 582.197 575.15 534.945 816.617 457.584 357.966 334.408 552.584 315.184 697.768 914.944 1079.77 426.268 691.275 508.19 286.794 818.215 317.06 639.998 732.24 971.248 1099.19 447.53 710.068 857.84 659.316 726.027 979.044 1088.87 449.954 710.356 855.312 660.322 712.425 972.036 1074.49 447.673 704.575 844.504 655.523 701.021 957.76 1057.21 439.587 690.659 831.677 645.032 686.233 939.241 1039.76 428.744 675.611 813.405 633.619 673.597 917.41 1019.9 417.026 657.649 799.182 619.02 660.784 897.918 1007.47 405.592 645.887 784.323 608.969 656.094 884.484 1001.46 399.322 637.021 779.061 600.756 652.081 876.535 1000.13 395.811 637.479 778.066 598.255 655.103 875.007 1003.93 397.374 638.693 784.595 596.946 656.841 876.851 1010.45 400.408 647.648 792.16 600.567 664.412 883.791 1019.83 407.251 654.81 805.084 603.534 667.998 889.165 1028.4 412.881 665.466 815.551 608.275 675.08 893.99 1037.35 419.43 669.824 828.43 608.63 677.634 891.133 1043.55 421.736 672.452 835.785 606.61 686.117 881.852 1027.87 421.943 655.872 842.208 592.035 665.994 852.569 507.152 403.256 321.954 807.58 300.953 917.213 1192.69 1415.07 663.484 1046.11 683.524 392.812 1225.27 527.27 821.669 950.867 1234.43 1435.3 683.633 1058.11 1280.47 815.546 943.952 1202 1423.75 676.427 1050.89 1294.49 796.052 930.13 1173.9 1410.92 670.699 1038.97 1296.41 783.558 926.691 1158.04 1398.96 664.56 1026.07 1292.02 772.27 919.372 1142.53 1380.93 654.328 1012.67 1281.56 760.432 905.476 1124.17 1369.08 648.075 1000.01 1268.17 748.128 897.808 1107.53 1355.39 639.527 991.551 1258.86 741.96 895.902 1106.8 1360.82 638.901 992.876 1255.15 739.051 897.759 1101.92 1360.03 640.671 997.891 1263.86 740.829 901.595 1111.35 1372.83 647.391 1008.34 1270.04 743.661 907.977 1113.66 1378.96 654.508 1019.98 1286.44 749.906 916.199 1128.69 1397.71 664.884 1034.79 1298.96 755.943 926.358 1134.3 1408.79 674.419 1048.22 1319.99 764.034 938.616 1151.43 1432.56 686.16 1062.39 1335.15 771.992 956.28 1163.15 1457.45 696.487 1071.78 1355.54 786.204 984.733 1198.15 1517.27 706.32 1066.6 1365.94 802.253 1001.81 1191.33 698.666 678.062 480.79 1352.7 375.136 571.774 1549.52 836.043 955.831 1528.7 294.327 533.313 799.367 791.594 1059.12 591.434 1590.48 867.951 1011.14 1603.72 840.162 1080.56 617.569 1633.8 886.265 1059.34 1644.2 887.211 1092.95 627.795 1642.69 880.614 1078.64 1647.53 907.608 1083.45 628.126 1647.7 882.307 1080.95 1641.2 906.558 1081.41 624.738 1639.06 878.571 1074.64 1627.15 900.785 1072.53 620.392 1619.3 873.673 1061.78 1620.89 891.173 1068.87 616.55 1612.21 859.886 1061.7 1613.54 894.275 1055.16 613.256 1605.89 872.96 1054.19 1620.35 884.925 1070.43 620.984 1619.97 863.885 1069.74 1628.72 902.032 1061.3 617.332 1617.71 879.633 1067.14 1644.07 894.327 1080.72 627.846 1639.17 873.747 1088.13 1659.18 915.896 1076.02 626.766 1644.18 892.87 1090.71 1679.87 911.955 1099.71 639.754 1672.84 891.101 1115.93 1698.01 936.333 1099.88 642.596 1687.55 915.649 1121.11 1715.59 934.509 1128.51 659.242 1728.66 924.937 1144.6 1726.08 957.297 1141.65 676.348 1780.59 990.033 1144.58 1772.2 954.923 1229.91 748.217 1894.85 676.604 1179.78 783.086 1024.87 556.567 706.289 1497.09 1134.58 912.572 1423.98 766.573 473.023 562.865 445.029 424.11 1035.58 600.371 800.488 1047.33 738.064 1499.99 1151.27 944.729 1471.37 802.966 561.714 1061.96 813.472 1036.14 755.62 1537.44 1163.26 997.823 1525.88 846.881 578.802 1114.84 823.564 1045.81 758.225 1543.61 1163.77 1016.87 1542.92 863.912 581.816 1140.25 827.846 1048.02 760.479 1544.89 1167.07 1026.71 1553.18 874.54 582.131 1150.61 829.928 1047.48 765.175 1555.28 1172.49 1034.88 1567.01 880.69 587.977 1161.41 833.778 1055.63 765.333 1553.92 1167.67 1037.77 1561.85 882.522 584.706 1167.6 829.866 1048.94 760.734 1548.23 1160.47 1034.67 1560.73 881.491 585.474 1161.43 827.428 1047.32 754.085 1536.43 1147.46 1030.21 1547.72 877.593 579.067 1157.26 819.965 1035.11 745.051 1524.1 1134.44 1022.97 1539.79 873.103 577.628 1144.87 814.62 1029.6 735.553 1508.59 1118.65 1014.28 1521.66 865.698 569.963 1134.28 805.953 1015.86 725.371 1494.59 1105.99 1004.52 1511.33 858.877 567.848 1118.04 800.236 1010.01 717.252 1480.07 1094.17 995.111 1494.04 850.638 560.428 1107.25 792.896 998.148 710.65 1470.04 1087.58 986.946 1488.11 844.764 559.526 1094.63 788.706 994.809 705.687 1455.95 1075.22 980.442 1473.13 838.973 552.135 1089.74 774.885 978.252 693.733 1422.89 1051 965.685 1439.59 829.576 540.744 1077.29 743.548 947.281 677.822 1349.11 1034.7 920.277 1377.83 792.387 504.561 1047.19 711.367 906.624 685.649 1315.86 581.268 895.219 731.849 763.392 486.071 1044.12 249.344 473.969 346.069 785.023 544.381 472.232 729.989 182.704 218.106 469.337 301.466 547.465 357.493 813.319 558.059 482.083 759.113 476.156 562.807 363.309 828.708 566.623 505.147 784.553 494.67 569.776 367.945 832.904 573.8 518.023 797.684 509.14 571.741 376.185 840.468 580.397 525.31 806.791 522.231 574.935 379.559 848.305 583.451 532.589 815.515 530.883 578.557 378.988 846.428 575.964 534.849 814.006 535.674 573.678 371.77 839.941 567.48 532.514 811.385 531.779 569.571 365.19 828.226 552.635 529.137 802.627 528.702 559.396 354.636 815.96 539.899 522.685 793.004 518.038 551.899 346.178 800.474 524.253 514.812 778.623 507.955 540.2 336.392 787.474 514.85 505.653 767.254 493.72 533.628 331.774 775.671 506.877 498.101 755.336 484.514 525.699 328.295 769.702 507.391 491.897 749.851 475.415 524.531 330.878 766.147 508.739 489.213 745.166 473.966 521.241 333.431 763.042 515.587 486.219 740.805 472.727 519.499 342.901 764.516 525.988 480.132 740.037 474.684 525.408 345.11 778.213 341.454 488.904 433.616 485.105 307.416 232.947 371.964 393.264 143.273 254.742 161.423 88.2465 227.199 83.7868 261.595 245.142 382.11 402.833 143.628 262.129 237.077 270.035 251.469 395.535 407.511 153.628 272.782 241.304 276.89 254.043 406.812 406.528 162.807 283.196 242.354 282.096 252.054 415.606 403.6 170.84 292.706 239.99 286.184 247.144 417.085 394.361 175.568 298.916 238.531 284.292 237.914 410.203 382.732 178.211 301.175 236.903 277.488 228.385 396.861 372.027 176.49 299.539 235.55 268.798 221.47 384.537 365.16 175.397 295.26 237.024 259.595 216.779 369.85 360.837 169.355 287.187 237.589 250.608 215.645 358.633 360.975 163.958 278.11 239.625 243.374 216.699 348.778 363.358 156.055 268.698 240.583 238.712 220.96 345.845 369.354 151.317 261.579 242.411 237.916 225.892 346.479 375.368 146.504 256.929 242.675 240.221 231.421 353.281 381.372 146.224 254.587 242.944 245.208 234.708 360.552 382.734 145.031 252.67 239.932 250.036 234.116 369.66 375.47 146.356 256.822 233.971 252.965 219.684 359.862 206.005 148.007 174.052 223.508 162.182 441.075 445.623 690.591 216.704 374.18 361.117 151.897 581.862 210.175 312.201 466.294 475.963 709.651 233.74 383.925 618.587 320.868 467.688 479.723 711.165 232.229 379.813 621.18 321.486 464.712 475.465 704.132 226.732 370.611 615.003 317.663 457.503 464.605 691.572 217.633 358.801 602.285 310.486 446.986 450.302 679.414 210.155 350.357 589.12 301.301 439.43 435.414 667.774 205.069 344.484 582.612 292.16 432.558 422.813 662.457 203.705 344.55 577.837 285.739 432.128 417.917 662.767 207.251 350.314 583.985 282.907 434.387 417.088 669.708 213.627 358.652 593.81 284.315 441.916 424.221 678.942 221.908 369.569 606.574 287.749 448.912 431.726 691.008 229.9 379.388 619.994 293.952 459.098 444.54 702.685 237.41 388.176 632.276 300.441 466.274 453.761 713.081 241.66 392.623 640.718 306.993 474.097 464.063 718.452 243.724 393.979 644.842 311.186 475.384 467.001 716.77 241.135 387.566 640.866 312.137 473.945 466.065 696.906 235.148 380.437 631.166 304.944 451.261 441.106 303.327 223.039 139.777 605.935 136.482 775.64 881.351 1199.33 552.556 870.049 631.447 315.248 1130.31 472.478 595.526 815.265 920.223 1252.31 583.592 902.213 1194.24 611.12 841.168 927.223 1274.05 593.638 907.964 1238.36 613.888 853.583 931.065 1273.13 595.929 899.132 1249.63 609.131 848.32 923.249 1265.32 588.118 886.288 1236.63 601.854 841.911 909.265 1254.42 578.354 875.924 1223.87 594.408 836.073 901.734 1244.59 575.506 869.302 1216.37 587.791 829.825 892.788 1241.94 571.128 869.686 1206.81 584.614 829.954 893.303 1249.08 576.706 878.378 1215.78 586.964 838.579 900.654 1258.35 585.009 892.14 1228.21 593.275 844.113 913.055 1273.58 595.015 906.821 1241.35 601.605 857.728 927.228 1288.32 605.898 920.385 1259.55 611.122 866.107 942.66 1304.62 614.306 932.799 1271.6 620.931 879.64 957.093 1315.75 621.679 939.002 1284.6 629.488 884.832 969.482 1320.23 623.695 939.494 1285.58 635.606 888.263 975.012 1303.76 619.652 925.746 1276.12 635.643 870.429 970.102 1281.75 606.633 898.62 1236.4 623.515 843.748 926.983 557.745 576.418 377.118 1189.33 266.483 552.609 1437.52 774.423 967.371 1518.36 286.554 524.031 811.59 825.008 972.407 577.378 1514.72 834.144 1033.63 1609.08 852.287 1034.38 628.696 1611.06 876.264 1092.37 1653.7 915.582 1068 647.813 1647.54 886.506 1106.92 1653.56 936.371 1072.92 645.858 1640.28 881.578 1096.94 1638.78 929.976 1066.05 639.574 1629.05 876.275 1089.29 1630.27 921.992 1060.29 634.604 1617.11 872.154 1083.26 1618.46 917.625 1055.3 634.685 1611.24 870.568 1075.64 1620.09 913.54 1054.72 634.284 1612.36 870.308 1082.69 1628.59 917.029 1057.91 640.358 1631.24 880.335 1091.43 1642.74 922.818 1068.51 642.609 1637.24 884.42 1099.17 1660.83 929.707 1076.93 652.843 1664.23 897.704 1114.97 1675.9 942.196 1090.92 656.833 1674.76 904.175 1122.17 1689.38 948.847 1100.58 667.506 1701.71 918.096 1132.73 1694.34 958.117 1112.45 669.883 1706.19 920.899 1129.91 1686.02 958.176 1113.15 673.534 1712.68 924.735 1119.1 1646.92 952.229 1104.95 662.818 1674.17 911.7 1073.46 1578.18 923.502 1087.97 666.321 1655 589.716 1032.07 691.174 894.65 477.151 677.474 1340.93 1046.39 883.033 1348.43 698.186 447.011 497.48 460.548 403.903 1111.09 635.103 730.004 918.727 681.115 1389.89 1081.26 909.189 1417.22 763.597 530.625 1078.43 770.313 971.601 719.297 1472.12 1136.89 954.861 1476.68 799.805 557.424 1110.92 797.057 1019.6 747.027 1516.4 1164.99 974.187 1499.45 811.521 571.581 1143.16 814.707 1041.15 757.597 1540.4 1180.45 988.492 1523.61 827.938 582.492 1156.43 826.255 1056.38 767.645 1555.66 1193.88 1001.48 1542.4 833.985 586.736 1173.4 829.044 1064.92 774.485 1564.11 1196.88 1010.36 1542.12 838.682 587.915 1190.86 831.933 1067.55 772.83 1562.88 1195.67 1006.73 1544.96 837.183 588.341 1187.34 828.594 1065.39 772.023 1558 1191.37 1008.52 1538.76 837.567 585.851 1191.13 828.164 1062.42 766.774 1551.43 1182.56 1002.8 1535.46 834.391 584.526 1183.96 821.191 1055.38 760.429 1538.96 1170.59 999.689 1521.18 830.91 579.388 1179.73 817.134 1047.29 750.894 1526.02 1157.58 989.138 1512.18 824.071 575.905 1164.91 808.197 1037.29 743.191 1511.06 1145.43 983.658 1496.42 818.775 569.925 1157.07 804.198 1028.62 734.989 1499.47 1136.57 973.841 1491.49 812.461 567.01 1143.06 799.234 1021.83 732.048 1492.84 1134.96 975.081 1493.97 813.34 564.509 1141.82 805.196 1021.88 731.998 1494.04 1133.49 983.995 1523.17 824.631 568.195 1148.59 808.568 1018.08 724.378 1467.42 1112.42 1006.41 1549.26 852.728 561.441 1178.22 807.124 994.797 720.252 1444.59 607.762 1033.57 843.713 897.845 553.765 1200.61 280.888 526.666 335.749 752.191 536.411 578.957 873.358 245.225 223.775 687.05 423.219 506.042 329.385 741.294 537.017 556.154 852.906 671.56 511.828 339.734 770.609 556.098 556.905 866.486 667.998 534.821 350.054 795.147 572.611 567.519 884.916 674.717 550.87 359.655 809.958 583.396 576.047 894.502 685.659 558.645 365.94 822.681 595.815 584.142 908.179 692.684 567.253 373.071 831.354 602.671 592.093 915.489 705.526 568.852 374.361 829.125 605.487 593.615 918.349 711.852 568.675 376.76 829.921 605.478 595.594 920.324 718.002 566.44 373.878 822.863 600.135 595.032 914.578 719.57 561.082 369.668 814.838 591.537 590.282 907.422 714.922 553.609 361.958 801.248 580.516 584.192 895.603 707.43 545.485 355.56 791.322 570.179 576.886 886.167 697.494 538.071 348.376 780.007 560.408 570.819 875.304 688.07 532.532 344.087 775.881 552.635 566.067 870.235 678.099 530.763 340.49 775.273 548.227 567.797 875.894 668.608 533.163 339.677 776.499 547.881 579.406 896.852 667.055 531.811 345.536 785.978 307.91 597.003 487.425 682.065 302.398 165.363 314.179 296.03 362.288 549.081 191.218 101.22 505.351 295.184 213.554 164.788 308.625 289.975 359.752 547.483 502.997 211.39 162.382 313.807 288.736 357.905 545.748 500.076 215.635 160.146 320.882 287.782 356.958 549.998 495.847 222.738 158.617 330.317 290.466 360.69 558.372 493.382 229.516 161.012 338.034 297.967 364.906 567.355 498.637 236.723 167.884 348.859 309.01 373.393 581.634 510.414 243.688 176.001 356.409 319.517 382.128 590.326 525.534 247.656 184.091 363.024 328.558 387.677 597.761 537.359 250.045 189.099 363.037 333.432 391.588 598.75 545.919 248.392 192.895 360.297 335.973 390.756 596.673 551.533 244.638 193.757 353.009 333.87 388.874 589.824 552.511 238.653 192.304 345.378 329.227 383.141 581.539 548.991 232.391 188.315 336.119 322.617 378.168 572.023 542.462 225.971 183.238 328.348 314.353 370.224 557.729 534.388 219.244 175.156 318.225 304.388 359.964 538.9 520.565 213.441 166.122 309.505 293.501 348.126 528.042 502.424 212.34 161.022 313.615 103.927 348.915 252.596 485.683 118.746 401.185 383.383 610.098 385.075 564.046 369.7 158.279 725.58 333.918 242.908 423.501 404.046 620.681 389.356 554.833 741.695 243.898 420.204 395.276 610.712 379.247 543.572 722.7 237.572 411.77 384.841 596.966 373.244 535.89 708.289 229.999 401.708 373.116 584.746 367.087 531.281 695.905 223.158 394.922 367.108 579.723 367.754 536.678 692.218 222.356 394.531 370.504 580.271 374.341 548.054 697.109 225.928 395.899 378.438 588.259 383.576 562.745 705.43 232.937 404.405 390.837 601.418 393.385 575.674 721.582 241.81 413.919 403.554 614.502 400.916 587.393 734.337 250.015 422.825 415.947 629.308 408.384 597.176 747.277 258.124 432.004 426.047 639.002 413.137 602.7 757.963 263.265 438.131 431.807 646.242 414.397 600.971 765.054 265.756 440.594 432.58 646.079 412.027 599.297 763.745 265.084 439.628 429.691 643.481 409.279 594.302 763.237 262.4 435.132 422.642 640.005 404.7 588.521 760.13 255.431 432.391 411.141 629.426 399.542 580.496 773.142 249.61 424.499 400.844 230.814 387.132 211.657 757.974 73.6927 783.647 852.748 1198.5 634.129 966.011 678.912 318.403 1238.42 533.42 567.285 824.436 897.725 1245.52 654.782 959.383 1276.68 585.295 849.869 907.876 1257.24 640.487 937.668 1272.7 584.3 848.132 901.243 1244.5 624.826 919.414 1246.92 574.915 834.082 884.102 1226.89 612.229 905.152 1224.05 565.861 822.766 872.101 1218.14 608.435 904.435 1211.63 560.082 820.304 869.67 1212.89 609.674 906.871 1213.56 559.138 814.278 867.953 1213.66 613.162 916.24 1211.54 561.629 823.778 879.898 1231.59 624.194 933.006 1228.25 570.31 835.64 894.458 1248.86 634.444 945.666 1250.2 580.135 846.45 908.133 1263.81 642.797 963.84 1260.28 590.869 856.702 925.259 1277.39 654.095 971.825 1281.32 598.186 863.717 932.998 1282.95 657.314 979.699 1285.44 605.077 866.898 941.163 1284.43 659.573 977.172 1290.95 605.432 863.976 937.261 1269.74 656.382 977.645 1282.97 604.114 850.202 930.632 1236.06 654.985 980.906 1273.92 596.239 820.456 918.716 1187.37 667.18 998.801 1255.66 585.092 793.411 891.537 506.036 656.078 413.095 1236.66 238.257 587.531 1530.3 814.563 1089.82 1619.03 299.972 567.959 899.666 923.238 1010.67 611.984 1592.77 865.212 1101.05 1642.95 902.445 1060.98 650.125 1664.43 898.111 1112.2 1632.96 928.861 1084.04 656.478 1667.41 898.928 1090.3 1603.77 920.278 1076.1 648.782 1643.87 888.061 1070.37 1579.34 906.535 1062.45 641.493 1624.55 881.861 1056.84 1570.51 893.6 1055.82 639.391 1619.84 877.586 1057.47 1573.19 891.213 1050.6 635.077 1609.63 875.935 1055.13 1573.52 890.871 1050.3 639.151 1623.89 880.744 1066.55 1597.56 895.961 1061 641.038 1638.46 884.95 1086.64 1617.24 906.094 1071.13 645.595 1654.9 895.525 1094.7 1630.15 914.393 1084.84 656.255 1675.49 902.716 1104.81 1641.08 924.341 1091.48 657.063 1683.86 909.528 1110.77 1644.86 927.518 1098.61 662.815 1690.57 910.668 1107.65 1641.91 928.788 1096.75 657.866 1682.1 906.681 1103.88 1627.79 924.856 1087.92 652.156 1656.06 887.704 1084.34 1594.16 912.6 1056.92 626.304 1588.76 844.563 1052.6 1500.23 884.865 998.925 589.138 1508.22 520.541 988.002 679.79 814.354 437.545 820.236 1374.77 1220.34 1017.52 1457.37 728.829 488.487 472.524 624.403 466.219 1498.72 842.136 717.375 903.115 781.086 1401.21 1200.34 975.655 1481.66 778.103 519.616 1360.55 753.815 956.099 777.715 1436.93 1223.06 974.421 1485.33 787.9 529.252 1314.63 762.255 984.248 790.782 1453.59 1238.39 963.573 1496.7 770.607 534.594 1305.24 773.784 995.091 795.363 1474.94 1248.39 982.111 1514.35 788.614 546.007 1322.05 780.26 1009.17 805.259 1483.66 1266.03 978.431 1520.4 780.669 544.713 1327.17 788.655 1021.27 819.375 1506.71 1278.29 995.831 1529.81 795.98 551.379 1344.2 785.685 1024.02 816.894 1494.37 1276.95 983.016 1520.44 783.471 546.32 1345.3 790.42 1025.49 823.027 1507.17 1281.35 993.547 1529.61 794.079 550.593 1348.61 786.186 1024.78 817.92 1493.6 1274.84 984.546 1518.52 783.626 545.899 1348.95 787.699 1022.29 818.858 1498.48 1270.24 989.917 1520.34 791.249 547.562 1344.77 779.942 1016.21 807.711 1477.15 1256.87 976.769 1504.02 778.347 540.464 1336.61 778.624 1009.39 805.418 1477.31 1248.6 979.475 1502.28 784.056 540.62 1327.8 769.984 1001.38 793.608 1455.89 1235.46 965.156 1486.58 769.971 533.714 1316.35 771.599 996.516 793.937 1464.73 1234.47 971.937 1496.34 778.94 537.818 1308.15 777.825 1001.37 795.189 1477.89 1256.06 975.331 1527.62 778.223 546.559 1305.43 826.331 1035.65 832.068 1569.03 1323.46 1046.67 1675.04 844.605 591.981 1343.33 908.286 1108.35 874.764 1695.54 720.07 1222.7 997.349 1059.63 652.024 1489.39 335.02 624.968 600.222 1063.06 929.822 905.78 1336 489.683 355.616 1220.67 710.082 696.591 592.587 1007.16 907.38 854.603 1259.87 1212.66 657.528 577.819 977.143 894.75 813.277 1219.26 1179.77 652.774 574.561 980.35 902.644 801.628 1226.54 1160.82 662.367 580.632 988.539 907.892 810.16 1230.73 1172.77 664.819 581.926 996.202 917.402 809.496 1239.56 1169.98 675.208 590.734 1011.04 930.183 819.935 1252.81 1183.48 682.32 597.163 1015.37 939.314 823.265 1261.62 1194.19 685.734 603.642 1021.34 944.728 829.704 1261.86 1207.93 687.723 606.461 1022.39 946.095 827.713 1264.48 1206.03 686.477 604.748 1018.6 941.095 829.344 1255.81 1210.29 682.213 600.828 1010.01 933.732 820.769 1249.85 1198.74 675.956 594.696 1000.91 923.568 818.069 1236.21 1195.04 668.992 588.078 989.963 911.654 806.645 1224.67 1178.23 661.383 579.105 980.936 892.403 800.526 1202.07 1165.92 654.131 565.705 975.375 872.402 783.903 1187.42 1126.64 658.672 556.92 998.966 879.96 787.591 1205.24 1093.15 690.988 572.521 1048.43 438.826 831.431 630.141 1110.84 371.591 508.156 803.475 775.151 755.58 1124.17 448.005 285.633 1070.96 607.346 529.567 505.158 805.835 779.627 768.825 1158.97 1079.07 531.064 511.019 802.672 781.089 779.437 1152.67 1117.21 522.845 509.657 795.241 778.386 770.505 1150.45 1119.56 523.683 508.332 801.205 782.752 779.097 1161.99 1124.97 527.728 513.797 805.35 791.283 779.706 1162.15 1134.68 531.503 521.053 816.287 805.808 785.677 1179.32 1143.13 541.714 532.629 831.336 820.537 798.125 1191.38 1162.16 548.798 540.701 841.08 829.506 805.402 1200.55 1172.24 555.136 546.424 848.175 839.263 807.941 1204.02 1179.03 557.134 550.809 848.347 840.182 810.8 1203.83 1188.35 556.774 550.802 846.154 840.503 806.373 1196.76 1184.4 552.825 549.211 838.75 833.872 803.084 1189.2 1183.48 547.737 544.481 830.659 830.262 794.432 1176.29 1173.44 540.727 540.972 818.001 819.711 785.447 1151.81 1169.05 528.034 529.771 793.651 798.117 756.712 1097.26 1141.28 507.134 509.394 760.901 760.235 716.977 1044.79 1092.18 494.236 487.128 754.779 316.933 698.611 475.828 1040.37 232.463 601.043 800.872 897.435 727.29 1067.85 526.222 292.823 1117.28 581.495 520.655 597.253 805.911 879.159 726.756 1083.18 1106.07 516.966 581.16 802.706 863.227 745.663 1106.74 1114.64 515.492 573.9 799.755 855.926 754.573 1113.49 1120.8 513.28 570.131 794.914 854.248 755.651 1118.54 1126.44 512.612 571.934 800.767 860.896 763.15 1127.19 1134.47 518.374 579.043 812.449 870.348 770.253 1140 1143.47 527.086 585.558 827.197 885.398 781.708 1157.62 1154.51 537.18 597.558 841.673 899.531 791.236 1168.69 1172.62 544.97 604.696 850.445 912.209 795.879 1179.88 1182.08 552.954 614.043 863.125 922.207 806.98 1188.74 1201.67 557.938 618.394 865.988 930.572 805.214 1187.82 1202.62 560.311 624.633 868.998 931.988 807.965 1187.6 1212.89 558.339 621.393 862.926 933.954 802.695 1184.97 1207.73 557.36 625.505 862.963 940.779 805.579 1188.61 1219.28 555.75 628.879 856.456 963.894 800.152 1176.83 1230.93 549.789 650.02 843.433 961.394 784.395 1144.32 1267.96 535.072 638.378 811.951 386.506 745.706 468.722 1241.19 213.523 906.512 1081.6 1338.82 844.27 1231.94 792.39 391.772 1448.74 669.646 707.321 904.382 1088.8 1309.46 814.575 1183.55 1393.12 686.887 868.159 1048.08 1265.75 794.808 1172.97 1340.75 668.711 841.611 1027.47 1242.39 789.436 1167.39 1319.36 658.713 831.164 1014.94 1226.98 788.175 1174.24 1312.94 652.413 823.691 1012.8 1230.46 794.764 1180.47 1317.45 655.798 830.402 1020.93 1235.65 800.486 1185.04 1329.49 659.634 834.559 1027.72 1245.77 804.507 1199.13 1334.87 667.496 843.771 1045.23 1263.89 819.167 1217.67 1348.67 678.97 856.884 1059.04 1279.91 825.965 1229.08 1366.71 687.017 863.175 1072.47 1294.86 838.95 1248.73 1378.39 698.135 879.439 1086.19 1309.06 842.586 1251.57 1398.47 703.143 881.406 1093.83 1310.33 851.182 1263.91 1404.98 707.989 884.884 1094.97 1315.75 850.598 1265.4 1411.72 707.35 883.749 1097.82 1314.06 860.64 1286.52 1420 713.073 886.467 1107.23 1322.77 876.04 1338.42 1441.71 728.12 894.929 1151.93 1331.58 933.893 1433.65 1508.96 753.311 909.682 1146.25 584.461 938.384 601.212 1587.09 315.122 655.251 1741.72 900.516 1246.27 1707.59 323.544 639.312 1007.28 1019.54 1096.78 645.238 1684.34 888.976 1113.42 1596.97 919.985 1077.96 636.594 1641.24 875.227 1055.47 1543 874.894 1046.94 613.567 1585.91 849.027 1027.34 1516.69 845.754 1022.04 600.097 1560.61 836.464 1018.07 1514.33 831.172 1009.35 592.339 1545.96 830.214 1019.59 1521.59 828.618 1007.49 591.83 1552.44 831.277 1030.96 1528.78 834.872 1011.24 594.53 1556.72 834.737 1034.57 1543.04 835.34 1016.1 599.822 1574.05 844.282 1042.33 1560.72 843.346 1029.74 607.56 1598.7 855.437 1059.4 1577.57 855.103 1043.8 609.478 1607.17 860.824 1067.49 1584.9 861.425 1050.1 614.932 1626.53 865.123 1075.34 1605.15 865.354 1059.67 615.593 1630.29 869.254 1082.97 1607.11 869.175 1060.5 615.456 1631.05 865.941 1082.76 1616.75 870.012 1062.26 614.151 1629.24 864.628 1091.58 1620.96 872.611 1057.74 609.653 1622.67 853.54 1095.84 1643.41 872.844 1054.27 601.045 1612.34 826.548 1119.57 1651.91 878.94 1016.77 551.833 1545.36 506.468 1116.06 790.923 838.551 468.043 1252.77 1842.42 1722.69 759.943 894.147 357.839 759.943 607.938 1028.27 705.449 1090.09 402.104 827.986 1048.42 1090.66 1617.25 1588.32 577.887 842.292 291.678 566.856 878.904 837.989 1046.63 1013.02 1575.63 1550.38 562.811 841.395 287.375 566.879 818.721 840.008 1049.16 995.456 1545.79 1539.74 560.504 824.393 285.987 553.959 809.304 824.791 1031.45 1007.59 1565.71 1558.54 556.82 845.846 286.386 561.942 808.44 846.693 1057.83 1011.19 1572.83 1560.53 571.137 839.795 287.233 559.441 825.047 834.579 1050.24 1018 1581.63 1575.16 562.371 840.839 282.017 560.175 824.809 846.007 1063.11 1022.45 1577.63 1566.41 567.849 839.476 287.185 561.785 827.921 834.245 1048.8 1015 1574.87 1573.41 559.645 840.393 281.954 560.091 819.843 844.842 1062.06 1024.62 1577.81 1565.65 566.705 837.51 286.403 560.88 828.237 831.918 1047.71 1012.19 1570.37 1565.41 557.441 836.789 280.811 558.168 817.008 840.793 1057.22 1016.94 1568.28 1551.62 563.437 832.634 284.815 557.927 822.419 826.801 1040.57 1001.77 1557.91 1546.84 553.69 830.692 278.982 554.372 809.424 834.325 1047.86 1003.09 1552.54 1527.1 558.935 825.18 282.615 552.942 812.597 819.462 1029.47 985.648 1543.41 1516.49 549.136 824.786 276.897 549.863 797.391 831.418 1039.5 983.928 1549.22 1489.23 558.452 825.089 283.529 553.337 798.244 822.436 1031.4 971.417 1590.11 1463.78 552.629 825.222 280.876 570.033 779.318 832.712 1067.03 1021.16 1814.49 881.127 543.556 685.672 288.367 685.672 740.543 397.305 742.63 1060.65 1770.53 1606.7 724.929 985.6 866.347 612.307 920.574 340.285 1107.86 1052.25 1617.57 1585.54 645.791 873.538 892.524 1024.9 1034.9 1521.48 1547.66 594.333 825.569 861.24 978.347 1011.91 1488.79 1535.87 585.511 819.205 842.886 974.725 1017.21 1501.6 1549.51 586.023 822.071 845.989 984.061 1022.04 1506.6 1552.56 590.589 827.732 853.164 985.06 1027.78 1514.36 1570.59 592.81 831.257 856.641 995.044 1038.41 1527.67 1581.51 597.325 836.338 865.788 1000.9 1047.75 1528.33 1583.46 594.707 830.542 869 997.713 1043.05 1531.83 1585.77 596.943 836.582 866.476 1002.21 1048.26 1526.18 1579.24 592.368 826.42 868.407 993.611 1037.64 1520.96 1572.35 592.352 828.962 861.399 992.706 1036.87 1508.91 1558.58 585.719 816.45 859.037 980.702 1022.11 1498.04 1541.37 583.645 814.951 848.975 974.353 1012.35 1477.42 1501.95 573.387 797.01 839.369 953.647 973.935 1449.77 1441.51 564.389 784.032 811.962 932.701 931.986 1408.77 1360.87 538.791 737.669 775.976 887.755 890.532 1385.61 655.548 477.238 492.847 703.752 484.377 919.383 1494.59 1419.55 594.325 849.821 750.63 522.508 782.871 286.058 982.923 946.776 1520.11 1484.27 619.437 872.796 813.408 1012.38 1004.42 1551.52 1522.03 628.661 870.099 856.159 1012.01 1012.21 1544.52 1524.55 626.888 863.18 863.943 1004.58 1018.87 1549.44 1540.05 625.813 862.806 867.892 1012.66 1028.33 1558.62 1541.96 630.275 870.21 873.991 1014.29 1029.82 1567.44 1555.32 635.769 878.334 876.527 1025.62 1043.63 1588.68 1575.37 642.848 886.961 887.743 1036.88 1053.46 1601.06 1579.11 646.996 888.199 897.598 1039.33 1052.95 1596.86 1591 642.832 888.596 892.817 1042.76 1064.44 1605.87 1590.15 646.634 886.486 903.118 1040.09 1056.46 1593.22 1588.74 639.828 882.714 893.576 1036.65 1059.73 1591.83 1580.34 640.013 876.182 897.613 1028.61 1048.04 1572.09 1574.18 630.772 867.889 885.189 1019.64 1048.32 1558.99 1554.91 625.191 848.948 885.312 996.93 1020.56 1500.95 1502.32 598.942 811.757 858.006 950.055 975.443 1420.83 1461.91 566.475 761.99 818.697 890.823 936.933 1337.12 609.627 515.978 466.538 781.012 404.265 868.436 1347.73 1342.2 514.181 744.238 699.086 470.776 707.752 253.817 903.103 898.64 1399.67 1383.8 555.607 794.212 747.789 935.368 936.427 1472.83 1424.72 591.885 832.823 789.723 970.923 955.092 1500.03 1444.63 603.2 839.264 808.692 979.889 966.984 1509.86 1455.29 607.994 847.317 817.173 987.836 975.758 1524.76 1463.09 613.402 851.018 826.268 992.554 976.943 1529.53 1469.35 613.266 854.997 825.129 999.977 985.605 1545.5 1488.01 618.969 863.796 831.943 1012.32 996.163 1562.49 1498.13 626.717 871.03 840.42 1017.83 1003.98 1565.61 1513.07 625.117 872.44 845.34 1024.49 1015.47 1585.11 1527.09 633.875 880.312 852.96 1031.58 1019.94 1579.28 1528.05 628.59 874.199 856.567 1028.5 1021.49 1584.54 1535.03 632.093 877.113 856.069 1029.37 1023.64 1573.58 1535.68 625.777 869.853 858.128 1025.31 1028.7 1578.86 1558.71 628.806 872.175 859.689 1027.63 1046.24 1562.23 1590.56 618.73 852.443 871.357 1011.53 1069.63 1528.33 1708.79 602.528 840.755 878.207 1004.25 1120.28 1510.28 683.253 609.856 520.06 941.752 414.926 984.46 1378.3 1483.88 482.127 698.67 804.41 480.484 735.18 245.152 918.89 977.044 1398.53 1441.79 508.471 736.412 752.827 915.69 958.911 1419.49 1444.29 536.185 765.741 761.604 934.352 962.417 1436.58 1439.59 548.03 775.377 776.56 941.306 963.462 1447.99 1455.13 554.404 783.653 777.892 949.999 975.706 1459.69 1466.79 556.97 790.489 784.749 956.905 983.138 1465.23 1470.69 558.66 788.001 791.901 954.852 980.172 1467.53 1479.31 559.292 797.827 786.952 967.18 992.24 1489.43 1503.22 566.862 801.747 798.311 975.853 1004.92 1498.72 1510.46 568.867 812.285 805.4 986.314 1015.15 1520.08 1531.8 577.268 818.69 815.717 1000.09 1027.86 1528.96 1541.72 579.444 823.469 823.254 1001.91 1032.37 1537.48 1558.64 581.789 825.541 827.904 1010.49 1043.11 1543.18 1561.72 585.263 830.385 835.72 1012.5 1048.66 1556.63 1591.45 588.93 840.353 840.214 1030 1074.99 1590.45 1654.87 605.43 873.917 860.873 1071.04 1153.25 1681.74 1937.91 637.853 957.674 919.508 1198.91 1358.69 1853.39 835.594 751.351 634.78 1138.48 498.809 703.768 1810.65 953.681 569.078 786.612 335.801 650.183 650.183 314.382 1117.63 617.077 1646.69 846.693 532.257 770.901 579.825 1048.08 569.315 1582.18 806.124 529.826 775.589 550.724 1033.3 554.11 1575.27 794.39 542.187 777.054 550.253 1025.4 548.521 1567.55 792.741 539.777 783.935 546.432 1034.81 554.453 1587.71 799.596 548.814 790.439 555.561 1042.33 561.005 1602.29 807.149 552.444 798.413 557.891 1050 560.904 1605.09 813.052 553.945 798.247 561.16 1057.61 567.922 1618.98 819.198 557.442 808.448 567.368 1069.65 576.458 1645.64 827.98 568.319 813.708 576.037 1072.95 577.344 1649.75 834.618 568.047 822.864 572.087 1084.18 580.073 1665.66 839.914 573.697 831.575 579.815 1097.53 585.681 1678.94 845.237 579.221 838.88 585.645 1104.86 586.479 1692.09 849.036 587.438 844.432 590.822 1110.37 592.224 1700.56 856.115 586.959 854.511 592.204 1123.65 594.729 1731.37 868.187 604.422 879.702 602.272 1151.01 610.034 1811.56 906.501 638.193 994.87 618.793 1271.94 620.001 2054.65 590.584 825.074 755.465 708.599 609.574 
CELL_DATA 3888
SCALARS stress float 1
LOOKUP_TABLE default
283.68 383.046 295.632 314.131 386.834 362.674 306.924 291.893 294.414 286.459 314.805 311.271 295.478 274.28 283.991 261.464 300.82 301.771 294.617 271.311 277.667 257.362 294.249 296 292.037 266.49 278.068 254.269 293.821 296.098 292.327 267.651 275.321 254.355 289.881 292.392 289.383 262.68 275.38 251.133 289.248 291.94 287.905 262.145 271.057 249.488 284.132 287.199 283.545 256.52 269.475 245.169 282.873 285.788 281.342 255.711 264.408 242.983 277.68 280.781 277.043 250.583 262.838 238.963 276.708 279.323 275.3 250.36 258.311 237.265 271.907 274.383 271.74 245.808 257.493 233.905 271.205 273.043 270.748 245.879 254.036 232.816 265.912 267.264 268.715 240.967 254.579 229.631 264.319 266.378 275.901 243.131 255.905 231.308 258.807 264.623 292.239 247.327 267.908 236.545 263.805 282.821 356.894 249.584 298.095 252.363 306.75 349.926 260.181 250.716 253.088 231.736 264.094 265.04 293.575 226.369 269.578 228.229 279.491 300.554 302.745 228.419 276.61 229.271 273.536 298.892 305.756 226.357 279.023 228.256 274.851 299.549 307.974 226.805 282.114 229.292 271.865 298.261 308.025 226.453 282.265 229.305 273.976 299.259 306.837 224.536 281.415 227.76 269.851 296.449 303.463 221.747 278.092 225.048 269.438 294.825 300.555 218.587 275.204 221.988 263.985 290.611 296.852 215.473 271.425 218.814 262.856 288.33 294.828 212.779 269.277 216.216 257.711 284.463 292.668 210.71 266.885 214.074 257.349 283.152 292.86 209.687 266.764 213.176 253.694 280.962 293.607 209.848 267.075 213.396 255.579 282.298 297.897 212.416 270.198 215.614 256.212 285.328 305.154 220.09 275.225 221.902 267.8 296.767 309.974 230.038 278.792 229.606 279.656 309.61 310.108 227.104 281.356 233.932 308.89 344.753 281.898 211.353 254.527 211.38 249.585 278.179 299.247 214.002 269.708 218.334 268.082 303.811 315.472 223.178 284.502 228.66 281.362 317.598 319.701 225.342 288.292 232.232 284.177 321.992 322.383 226.106 290.296 233.055 284.186 322.006 321.837 225.832 291.638 233.472 285.996 323.963 316.849 222.307 284.667 229.193 281.804 319.044 313.883 219.898 284.262 227.361 280.467 317.85 309.066 216.052 277.024 222.758 275.448 312.286 307.477 214.259 277.868 221.617 274.366 311.616 304.816 211.797 272.683 218.522 270.631 307.583 305.567 211.808 275.541 219.158 271.318 309.007 305.243 211.566 272.626 218.193 270.033 307.545 308.304 213.688 277.359 220.768 273.305 311.711 308.517 214.807 275.3 220.729 274.209 312.226 308.605 216.109 277.995 222.037 277.201 314.938 293.641 208.514 265.022 213.86 267.291 300.766 266.982 198.041 252.689 204.413 260.396 293.37 332.66 220.97 277.256 228.608 274.802 318.289 315.335 226.561 293.086 235.825 280.882 320.552 318.682 231.814 295.19 240.102 290.471 332.56 315.097 230.821 289.782 239.118 292.155 333.073 311.294 229.427 286.043 236.755 291.143 330.113 306.286 226.163 281.319 233.339 288.069 328.353 302.053 222.221 274.94 228.33 283.368 321.253 296.674 218.128 271.679 224.811 279.249 318.449 295.563 216.27 268.348 222.295 276.505 313.709 292.201 214.037 266.995 220.635 274.355 313.306 293.64 214.151 266.303 220.237 273.687 310.93 291.936 213.633 266.666 220.219 273.54 312.769 294.593 215.037 267.127 221.124 274.341 312.009 292.989 214.716 267.86 221.3 274.717 314.384 293.657 214.275 266.687 220.695 273.246 311.095 286.582 208.776 263.449 216.641 266.61 305.941 271.334 199.956 251.519 208.315 249.81 282.408 245.763 193.251 238.686 201.359 230.874 262.025 398.661 260.806 309.91 269.147 327.622 373.758 334.484 250.477 321.147 266.151 298.749 335.688 315.58 244.847 303.182 258.065 294.468 332.517 307.042 239.21 292.996 249.949 288.014 323.32 302.461 234.732 286.754 245.206 282.865 318.837 300.84 232.736 287.497 243.836 279.948 315.268 294.721 227.744 277.326 237.854 274.169 306.518 285.642 224.568 274.473 234.411 269.564 304.326 290.384 223.503 273.182 233.957 269.059 300.656 284.613 222.831 273.617 232.832 267.076 301.765 290.006 223.295 272.935 233.812 268.235 299.874 284.835 223.547 273.939 233.489 267.184 302.14 290.214 224.541 273.539 235.077 269.029 300.735 284.543 224.45 274.036 234.59 267.128 302.454 288.156 224.417 272.156 235.381 266.663 298.492 278.863 223.495 270.013 234.582 259.426 294.924 278.259 225.521 266.15 234.967 251.873 277.744 268.181 222.109 272.666 236.907 232.222 259.975 383.859 296.427 338.809 290.478 381.571 407.905 341.467 283.131 324.873 295.101 311.947 336.599 340.079 281.114 336.931 292.499 304.728 328.42 343.809 272.006 326.204 289.189 295.519 320.346 327.929 274.531 328.565 286.697 293.278 317.007 334.582 269.914 317.391 285.995 290.19 315.451 327.801 269.036 328.268 282.699 283.87 305.576 324.25 265.274 312.334 281.557 278.181 302.047 328.814 268.619 327.071 283.711 283.981 306.845 326.057 265.654 315.868 282.195 278.704 303.008 329.536 269.31 327.95 284.546 284.168 307.124 326.238 266.889 316.601 283.414 279.148 303.295 329.699 270.946 328.839 286.316 284.554 307.128 325.845 269.26 317.263 285.639 279.175 302.721 329.368 274.749 329.768 289.62 284.217 305.922 325.895 277.131 318.803 291.432 278.113 299.872 336.548 296.572 335.595 303.918 289.41 307.529 369.707 309.265 342.897 364.034 280.935 304.275 256.349 310.857 243.964 260.991 376.933 372.085 257.23 281.021 250.569 257.937 311.868 296.183 237.808 273.08 235.847 246.673 292.958 275.2 232.033 267.693 227.315 242.155 286.634 269.19 230.164 265.715 225.989 240.361 285.375 267.343 229.989 267.467 224.478 241.576 285.9 266.477 228.252 264.515 224.67 239.849 282.882 264.526 226.138 264.096 221.398 238.701 281.655 261.843 222.974 259.659 219.667 235.292 277.56 258.971 220.226 258.763 215.726 233.391 276.001 255.969 217.087 254.339 213.758 229.884 272.202 253.387 214.823 253.875 210.262 228.262 271.185 251.007 212.42 250.233 208.965 225.44 268.042 248.937 211.122 250.308 206.374 224.476 267.679 247.015 209.004 245.302 205.373 221.126 263.23 244.056 209.117 239.339 202.601 216.212 256.99 239.986 214.617 226.402 205.501 208.921 242.806 238.536 228.438 220.187 216.401 207.494 243.239 233.123 183.556 172.823 168.976 157.877 211.593 218.131 188.495 170.628 174.976 158.966 213.623 213.187 183.493 164.133 169.261 153.362 199.135 202.563 184.197 162.7 170.066 151.358 197.101 201.513 185.232 163.218 171.574 152.238 194.992 199.146 185.587 163.737 171.985 152.672 196.301 200.986 183.962 162.379 171.279 151.733 193.311 197.217 181.585 160.441 168.526 149.733 192.322 196.754 178.441 157.694 165.901 147.056 188.001 191.782 175.688 155.127 162.651 144.368 186.366 190.729 173.047 152.403 160.338 141.675 182.209 186.063 171.365 150.366 158.068 139.542 181.179 185.708 170.422 148.807 157.292 138.07 178.25 182.427 170.959 148.288 157.112 137.705 178.826 183.851 172.393 147.967 158.528 138.182 177.581 183.096 176.609 148.987 161.233 140.052 181.868 190.111 181.327 153.879 166.467 144.928 189.94 198.012 179.501 153.788 167.109 149.268 196.232 202.612 162.167 114.538 144.157 112.689 158.258 174.748 170.453 114.268 150.985 114.764 161.815 180.349 175.301 115.129 157.119 116.59 161.205 183.142 178.499 116.863 160.634 118.421 161.626 184.453 178.935 117.458 161.522 119.297 163.455 185.867 177.008 117.073 159.787 118.782 161.966 184.777 174.113 114.815 157.402 116.589 160.875 182.865 170.656 112.168 153.491 113.667 156.971 179.476 167.731 109.337 150.899 110.898 155.024 177.001 165.418 107.029 148.001 108.532 151.357 173.992 164.046 105.094 146.924 106.803 150.289 172.59 163.512 104.208 145.845 105.958 148.093 171.169 164.013 104.106 146.597 106.043 148.962 171.728 164.916 105.141 147.137 107.025 148.901 172.358 165.897 106.486 148.704 108.439 151.639 174.437 165.527 108.421 148.876 109.838 153.278 175.912 161.33 108.879 146.996 109.826 154.822 174.5 152.09 103.516 139.885 105.943 147.632 167.551 181.285 115.848 161.825 124.969 152.482 178.534 193.629 120.507 177.721 131.26 160.933 187.198 193.792 120.788 179.258 131.926 162.735 190.545 190.427 120.574 175.969 131.073 163.243 190.75 187.424 118.251 172.753 128.777 161.508 189.047 183.15 115.808 168.71 125.768 159.406 186.399 179.003 112.565 165.056 122.757 155.469 182.559 175.341 109.629 161.45 119.543 152.647 179.308 173.583 107.593 159.16 117.855 149.548 176.746 171.904 106.708 157.809 116.652 148.351 175.111 172.285 106.462 157.865 116.929 147.051 174.414 172.143 107.212 158.11 117.371 147.551 174.465 173.81 108.351 159.573 118.978 147.814 175.266 173.967 109.748 160.412 120.042 149.104 175.892 175.029 110.782 161.705 121.575 149.024 175.875 173.705 111.196 161.925 121.806 148.639 173.863 172.837 110.481 162.123 121.985 145.069 169.356 168.98 105.027 159.775 117.834 137.943 163.01 228.62 167.054 213.501 179.312 187.604 216.601 237.909 168.506 231.34 186.123 192.384 218.163 231.203 165.229 223.507 181.492 187.748 212.82 224.082 162.314 216.984 178.5 183.714 208.302 221.299 160.249 214.949 176.592 180.594 204.353 219.165 157.306 213.196 174.127 177.067 201.669 215.529 155.751 209.361 172.335 173.786 197.411 212.187 153.42 207.249 169.682 170.572 194.417 212.818 153.207 207.085 169.886 170.144 193.658 211.675 153.545 205.62 169.629 168.822 192.625 213.539 154.882 207.836 171.546 170.071 193.479 213.366 156.525 207.582 172.528 170.064 193.595 216.116 158.798 210.838 175.409 172.231 195.301 216.611 161.002 211.299 177.112 172.617 195.656 220.085 163.717 215.258 180.504 174.629 197.236 222.728 166.682 216.916 183.21 175.322 198.287 230.344 170.68 224.739 187.856 180.477 204.052 236.391 162.077 234.378 183.346 175.162 199.974 277.447 231.038 294.327 238.986 244.055 263.67 296.507 237.985 294.927 256.473 243.633 260.953 307.079 246.605 310.49 265.485 242.637 261.505 310.114 248.978 317.682 271.124 240.085 254.703 312.329 250.631 315.797 272.869 239.812 256.259 311.02 248.687 313.718 271.617 238.325 255.696 308.537 245.756 311.855 266.658 234.83 251.669 303.083 245.16 313.467 268.906 233.213 248.381 304.833 243.342 308.423 265.148 232.657 251.491 304.347 246.421 316.636 269.644 234.042 248.881 306.675 246.127 310.657 267.724 234.093 252.437 307.325 250.466 320.521 273.665 236.562 250.629 310.973 251.568 315.793 273.033 237.677 255.142 312.998 257.178 326.756 280.139 241.269 254.495 318.987 259.496 323.609 280.504 243.778 261.181 323.761 266.473 335.481 288.073 250.163 264.704 339.875 271.219 336.472 290.311 258.431 284.279 382.338 268.74 365.879 321.324 262.301 294.266 211.811 251.473 202.56 221.55 311.392 298.305 221.178 260.669 209.206 228.427 301.045 279.463 223.513 273.102 216.308 239.325 305.7 279.49 222.282 275.39 218.15 242.474 306.426 278.888 222.294 277.005 218.291 244.416 305.126 277.759 223.181 279.294 219.087 245.508 308.683 279.528 223.212 277.935 220.26 247.16 306.771 278.583 221.613 278.145 218.637 244.95 307.329 277.56 219.987 275.251 217.578 244.848 303.816 274.954 217.215 274.524 214.717 241.625 303.104 272.916 215.036 270.854 212.92 240.662 299.109 270.008 212.075 269.745 209.639 237.1 298.103 267.93 210.247 266.131 207.978 236.003 294.298 265.419 208.12 265.615 205.448 232.984 293.912 263.957 206.545 262.296 204.442 232.498 289.839 260.329 201.752 257.5 200.539 227.546 283.244 252.306 195.95 242.589 194.016 217.716 261.972 236.868 197.378 236.727 195.115 212.668 249.344 224.625 115.605 130.017 105.655 112.452 161.901 159.393 119.506 136.757 109.566 116.604 170.922 159.963 120.023 142.005 110.528 121.394 173.795 160.963 120.145 144.366 111.075 123.943 173.427 159.947 122.074 146.045 113.534 124.832 173.849 160.134 122.997 147.639 114.509 126.442 175.268 161.45 122.586 147.525 115.108 126.731 174.336 160.144 120.86 146.939 113.237 125.961 173.544 159.399 118.729 145.429 111.882 124.746 171.09 156.35 116.16 143.835 109.077 122.878 169.285 154.726 113.715 141.353 107.136 120.753 166.244 151.274 111.41 139.329 104.285 118.398 164.327 149.726 109.985 137.142 103.036 116.539 161.885 147.085 109.258 136.025 101.582 115.148 161.058 146.632 109.586 135.105 101.944 114.897 159.594 145.02 110.32 133.601 102.019 114.607 157.841 144.655 113.16 131.47 103.387 113.617 156.387 146.496 114.381 133.891 106.04 116.485 159.264 148.152 69.6353 43.8396 55.0369 33.2095 80.9693 89.2731 72.2816 45.2079 57.7132 33.6392 83.2125 90.056 74.9562 48.1981 60.1151 36.6515 84.56 91.0537 76.6254 50.7658 62.0406 39.2357 85.9595 92.1854 77.3502 52.9158 62.6531 41.2981 87.661 93.7281 76.5445 53.9487 62.7251 42.07 88.1048 93.6922 74.2703 53.9315 60.6339 41.861 87.3631 92.1432 71.3939 52.527 57.8745 40.1074 85.1457 89.8125 68.8634 51.4756 55.1217 38.718 83.1043 87.2539 66.4935 49.0516 52.9132 36.3233 80.3477 84.7212 65.1917 47.1483 51.1572 34.3819 78.1791 82.5747 64.3955 44.6947 50.5135 32.1065 76.0031 81.0646 64.9081 43.5568 50.5257 31.1188 75.1961 80.5395 65.8363 42.5549 51.7066 30.4737 74.8995 81.008 67.4083 43.2804 52.9366 31.3767 76.0676 82.2111 68.5229 43.7057 54.5896 32.3401 77.387 84.0068 68.7905 45.928 54.7321 33.9104 80.4264 85.8727 65.2472 45.7672 52.5671 34.0986 78.9216 83.26 100.398 46.1819 91.6926 60.204 62.0931 85.0535 106.819 49.3078 99.8127 65.2413 65.8392 88.9439 107.122 49.0911 100.635 65.45 67.3071 90.1172 105.876 47.8588 99.7676 64.2942 67.5184 90.1493 103.821 45.5621 98.0109 61.9839 66.4888 88.738 100.895 43.5459 95.4979 59.7616 64.3282 86.2727 98.3485 41.481 93.0184 57.6815 61.5285 83.3556 95.9727 40.3829 90.7441 56.5323 58.7336 80.4478 95.2069 40.5091 90.1017 56.4559 56.9761 78.6672 94.8467 41.6043 89.7147 57.5489 55.7682 77.6049 96.2589 43.3818 91.6273 59.3149 55.9143 77.7234 97.4151 45.3398 92.6695 61.4414 56.4506 78.4096 99.9334 47.394 95.5643 63.5278 58.1322 79.9884 101.576 48.7847 97.038 65.2827 59.5648 81.5146 103.944 49.69 99.5812 66.3325 61.386 83.129 104.823 49.3656 100.26 66.4112 62.23 83.9111 105.625 48.3416 101.095 64.9004 62.2518 83.8512 101.411 44.3722 97.2255 61.6158 57.4976 78.9841 174.724 127.41 173.233 142.015 121.575 142.394 181.886 133.246 181.05 150.506 126.417 147.117 183.803 134.058 184.808 152.778 125.872 145.903 185.546 134.136 187.963 154.15 124.933 144.338 184.966 132.346 187.042 152.818 123.325 142.752 182.837 129.925 185.512 150.265 120.668 140.058 181.59 129.193 184.315 149.366 118.87 138.399 179.975 128.354 182.42 148.102 117.488 136.45 179.533 129.461 181.69 148.986 117.359 136.274 180.583 131.527 183.038 150.293 118.299 136.913 182.405 133.928 184.66 153.402 120.102 138.559 184.885 136.659 187.415 155.529 122.168 140.571 187.547 138.93 189.861 158.521 124.67 143.131 190.605 140.841 192.916 160.214 126.819 145.699 193.368 141.654 195.034 161.937 128.918 148.571 195.661 140.684 196.6 161.517 129.617 150.933 195.428 137.786 195.555 159.539 129.439 152.356 189.088 129.692 190.648 151.072 122.932 143.551 266.055 220.736 286.554 237.477 206.946 219.753 288.762 237.12 288.616 257.092 215.209 227.921 311.235 249.495 317.461 273.793 223.061 236.017 318.802 253.406 329.011 279.913 226.667 239.738 317.892 250.987 327.966 278.552 225.325 239.561 315.45 249.731 324.124 277.036 223.832 238.882 312.661 247.745 321.943 275.633 222.423 236.71 311.902 246.371 322.784 273.384 221.06 235.736 311.354 247.773 322.93 274.997 220.959 234.347 315.752 251.27 324.606 278.001 223.688 237.92 315.946 252.262 326.663 280.242 224.787 237.34 321.709 256.746 331.134 283.671 228.683 242.291 323.129 258.075 333.704 286.244 230.624 242.979 329.439 261.489 338.067 288.913 234.629 249.171 330.397 260.616 339.487 289.163 235.814 250.711 333.742 259.04 339.791 286.832 236.962 256.314 328.14 247.659 334.678 276.995 231.788 254.91 337.67 238.906 328.65 272.621 225.106 252.046 192.705 229.224 186.116 217.786 268.256 246.844 197.974 245.987 187.865 215.762 284.638 257.659 211.066 257.975 201.604 227.7 299.449 274.33 218.59 263.473 211.684 234.134 308.108 280.414 221.187 269.058 215.082 237.541 313.434 284.101 223.713 271.703 217.731 241.118 315.033 286.363 225.238 270.76 220.272 243.252 317.155 287.431 224.666 271.902 220.092 242.876 316.439 286.907 224.063 269.555 219.442 242.6 316.296 286.046 222.492 270.275 218.488 241.593 314.251 284.328 220.551 266.756 216.621 240.184 312.632 282.212 218.003 266.447 214.387 238.056 309.458 279.674 215.785 262.611 212.025 236.129 307.314 277.193 213.542 262.667 209.89 234.217 304.344 274.806 212.457 261.023 208.818 233.867 303.486 273.191 211.208 265.551 209.049 236.159 302.644 269.431 204.512 267.103 207.184 238.821 294.337 255.461 200.047 272.877 205.089 239.91 280.888 245.778 93.8425 145.829 95.1718 128.603 152.824 135.92 92.918 141.484 92.628 124.669 153.792 135.803 98.1195 144.116 96.1163 126.117 162.511 143.629 101.627 148.168 99.5544 129.126 168.585 148.087 104.367 150.721 102.605 131.593 170.606 150.066 106.212 153.029 104.177 133.797 173.171 152.295 107.37 154.784 106.212 135.574 174.19 153.223 107.036 154.416 105.925 135.514 173.656 152.578 106.998 155.138 106.58 135.861 173.38 151.964 105.623 153.937 105.642 135.454 171.858 150.349 104.159 153.014 104.624 134.252 170.243 148.547 101.781 150.683 102.3 132.518 167.821 146.144 100.129 149.327 100.786 130.734 166.054 144.292 98.2661 147.381 98.6034 129.122 164.176 142.459 97.6053 147.135 97.807 128.091 163.637 141.605 97.1996 148.16 97.0545 128.466 163.582 140.811 96.9147 151.337 98.0203 130.75 161.345 138.131 98.0667 153.18 99.4974 132.836 161.937 140.461 19.3876 80.0225 31.1897 70.0304 66.7123 46.8363 18.5479 78.2117 30.9096 69.0958 65.6268 46.2328 20.1523 77.6932 30.6715 68.8589 67.8045 48.6265 21.6215 78.3274 30.5405 68.6633 70.5452 51.1839 22.9281 79.7982 31.061 69.9479 72.8842 53.6976 24.3339 80.9954 32.0276 70.9063 74.5557 55.215 25.9372 83.4364 33.8491 73.1029 76.0519 56.4815 27.2849 84.9529 36.0061 75.1481 76.4464 56.571 28.5198 86.2651 38.0575 76.5809 76.917 56.6837 28.6266 86.5582 39.0462 77.3986 76.0541 55.3532 28.4776 86.0765 39.5755 77.409 74.8092 53.9498 27.5467 85.022 39.1792 76.6998 72.8541 51.7073 26.5582 83.4745 38.6159 75.476 71.171 50.0827 25.0897 82.0271 37.1803 73.957 69.479 48.3857 23.7821 80.2197 35.9296 72.177 68.4546 47.7848 21.6633 78.3618 33.4509 69.5536 67.8739 47.3216 19.2694 77.1525 31.0761 67.1699 67.5895 47.2479 18.7777 78.5891 30.3435 67.1589 69.3828 49.3631 73.5346 78.1857 76.4366 81.8425 36.5998 36.7836 78.8317 77.8204 85.0482 84.4766 37.5097 40.3595 78.4652 75.4874 84.5033 81.5257 36.0711 39.2231 77.0054 73.96 82.8921 79.3855 34.0235 37.574 74.8802 72.2862 80.7954 77.6057 32.3419 35.207 73.0646 72.578 78.7165 76.8929 32.0727 33.783 72.5475 74.4671 78.4707 78.0296 33.6302 33.3594 72.6788 76.9209 78.9046 80.0342 35.7886 34.1113 74.4054 79.2393 80.4615 82.5752 38.2747 35.8811 76.5055 81.2729 82.893 84.7609 40.1531 37.9682 78.8522 82.9747 85.1444 86.7488 41.8674 40.3593 80.9986 84.0744 87.4733 88.4241 42.9563 42.1201 82.8338 83.9702 89.1154 89.0736 43.1601 43.654 83.6348 83.3828 90.0788 88.8626 42.6624 43.9582 83.8815 82.1874 90.101 88.3625 41.339 43.8196 82.8618 80.5645 89.8105 87.4313 39.4771 42.4964 81.0163 78.9495 87.5571 85.9004 36.8275 40.8898 79.1445 76.1144 88.1938 83.6987 35.786 37.9067 163.508 141.816 166.955 151.448 109.398 119.623 172.928 145.076 178.007 160.257 114.545 126.911 178.585 142.879 184.276 159.563 114.356 128.216 180.253 139.462 185.414 156.313 112.41 127.39 177.561 136.361 182.295 152.82 109.671 125.393 175.231 135.203 179.728 151.068 107.938 122.933 174.525 135.762 178.507 150.705 107.751 122.421 172.96 136.499 177.757 151.209 107.816 121.712 174.67 139.566 178.476 153.625 109.972 123.589 177.053 142.142 180.624 156.124 112.378 126.136 179.418 144.243 183.358 158.263 114.585 128.266 182.448 146.568 186.547 161.47 116.964 131.261 183.94 147.679 187.836 162.125 118.504 132.916 185.933 147.65 190.136 163.522 119.231 134.691 185.454 146.905 189.261 162.249 118.741 134.652 184.009 145.253 188.746 161.975 117.207 133.442 179.025 147.733 183.439 162.15 116.084 130.284 171.159 143.398 178.879 159.844 113.763 124.494 287.559 243.97 299.972 267.986 209.214 221.6 306.579 253.701 305.405 274.451 219.8 232.836 324.328 259.064 325.797 282.543 227.944 244.752 327.447 254.767 329.031 282.311 227.697 246.157 323.458 249.943 325.324 276.921 224.284 243.941 320.832 246.367 320.661 273.559 221.44 241.687 320.049 246.685 319.342 273.346 220.586 239.832 317.372 245.119 317.704 272.477 218.441 238.513 319.102 248.782 320.05 273.293 221.851 240.814 320.21 253.351 320.828 277.508 224.612 241.947 322.802 255.923 322.793 281.776 227.75 243.859 327.391 257.458 328.863 284.371 230.248 247.16 328.899 259.693 328.164 285.904 232.248 248.952 331.137 257.972 331.678 285.735 232.857 251.191 329.526 257.324 328.34 284.367 231.937 250.605 325.606 250.119 326.55 278.831 227.329 247.624 311.829 240.345 314.474 267.492 217.647 236.974 293.379 232.989 295.76 248.545 210.383 227.162 208.298 231.287 209.019 257.2 241.237 227.725 201.211 248.234 206.25 227.904 271.381 246.229 207.249 249.359 205.414 233.075 279.893 261.937 212.416 250.709 210.766 231.652 283.885 264.164 213.689 255.331 212.475 234.568 290.676 268.204 216.992 254.102 214.803 235.483 290.611 271.671 222.468 257.335 218.276 240.71 294.045 273.878 219.316 253.68 218.134 237.96 292.64 272.64 222.533 256.414 218.845 241.366 294.18 273.833 218.998 253.722 218.482 238.285 292.178 271.938 220.972 255.184 217.837 240.337 292.378 271.776 216.043 251.432 215.92 236.133 289.033 268.592 217.175 252.199 214.377 237.393 288.421 267.743 212.363 248.514 212.172 233.048 285.2 264.595 214.485 251.207 211.529 235.192 286.611 265.706 214.301 255.462 213.297 235.753 291.097 267.984 225.547 281.291 222.627 253.943 310.69 274.935 230.84 317.005 242.135 280.591 335.02 289.948 139.992 214.391 154.623 200.993 188.528 164.533 134.47 197.048 151.034 192.496 176.577 155.531 131.739 189.735 144.243 181.176 175.317 154.933 132.623 188.444 143.178 179.347 179.156 157.603 134.37 189.164 144.597 181.01 180.035 159.363 135.232 191.018 144.783 180.639 182.446 162.084 137.418 192.866 146.902 183.776 185.765 164.317 138.466 194.028 148.218 184.02 185.415 165.22 139.49 195.338 149.706 185.393 186.312 165.104 140.336 194.799 150.911 185.395 185.64 165.305 139.228 194.897 149.998 185.533 185.152 163.789 138.369 192.631 149.489 183.783 183.117 162.622 136.356 191.916 147.387 182.831 181.95 160.469 135.038 189.141 146.158 180.416 179.932 159.278 132.945 188.3 143.433 178.74 179.622 157.896 131.557 186.286 141.544 175.069 181.305 159.614 132.717 193.165 141.071 176.682 190.729 164.602 138.679 202.507 148.052 187.605 199.283 172.309 103.485 171.097 121.669 163.964 134.51 108.75 104.204 173.742 120.296 166.011 133.341 108.241 104.876 171.981 121.669 167.814 129.855 106.477 103.998 169.643 121.112 165.401 129.117 105.969 103.807 171.508 121.401 167.195 130.156 107.137 105.124 171.309 122.523 167.911 130.602 107.881 106.735 173.647 124.086 168.934 132.766 110.119 109.791 175.722 127.088 171.741 134.758 112.237 111.283 178.188 128.826 172.977 136.258 113.548 113.035 178.232 130.598 174.732 136.983 114.596 113.091 178.96 131.041 174.514 136.563 114.179 113.565 177.338 131.344 174.688 135.632 113.588 112.23 176.77 130.654 172.952 134.183 111.961 111.493 174.293 129.483 172.111 132.589 110.691 109.454 172.064 128.196 169.251 130.662 108.373 106.506 164.979 124.622 164.376 127.625 105.543 100.961 157.559 118.99 154.975 125.573 102.842 98.543 157.952 114.756 151.064 127.839 104.624 122.055 163.533 130.02 162.802 119.469 102.991 124.353 162.396 137.439 160.755 118.262 102.706 121.088 165.437 134.184 161.815 119.037 101.146 119.294 166.467 132.189 163.121 118.08 100.604 117.833 166.206 131.864 162.731 116.918 99.362 118.201 168.232 132.197 164.135 117.919 100.083 119.68 170.137 134.235 166.137 120.096 102.164 121.628 173.075 136.131 168.695 122.675 104.993 124.366 175.597 138.101 171.41 124.994 107.204 126.007 176.499 140.187 172.585 126.293 108.875 128.129 178.727 142.215 175.572 127.951 110.532 129.369 178.17 144.01 175.446 127.723 111.27 130.366 178.615 144.959 176.359 127.712 110.987 129.564 177.273 144.428 175.212 126.232 110.218 129.827 177.584 144.845 176.066 125.738 108.903 129.481 175.376 144.961 176.148 123.267 107.224 129.985 169.883 145.37 173.928 119.561 104.707 127.562 160.062 148.751 162.053 113.766 99.7568 190.475 195.928 191.498 200.274 153.04 150.39 196.834 185.334 207.315 196.576 150.127 152.614 190.444 180.785 197.141 187.004 145.102 147.601 184.86 179.353 191.658 184.349 143.064 144.19 181.341 178.831 189.19 182.268 141.603 141.706 180.421 180.074 185.923 183.18 141.463 141.742 181.172 181.996 187.675 184.919 143.132 142.035 181.893 182.995 188.221 186.246 144.804 143.56 184.307 187.173 190.433 188.699 147.917 146.696 187.324 188.822 193.323 191.035 149.68 148.854 189.187 191.792 194.843 193.64 151.908 151.105 192.915 192.028 199.522 195.601 152.987 153.141 193.402 194.596 199.624 197.391 154.711 154.108 194.44 193.773 201.447 197.722 153.629 153.962 193.634 196.387 200.447 199.312 154.446 153.595 194.163 199.876 202.265 202.766 154.562 153.593 197.58 212.415 205.123 214.843 162.25 159.717 196.902 202.878 218.521 212.824 159.187 155.935 331.707 285.124 323.544 315.768 239.415 246.159 322.589 262.662 322.65 288.56 237.57 250.314 320.521 251.298 316.074 273.999 229.275 250.074 308.935 243.812 304.632 262.962 221.281 244.285 304.29 242.201 295.807 260.665 218.433 239.215 299.38 240.834 292.959 258.742 216.512 237.53 298.525 243.97 293.304 260.143 217.585 238.91 300.689 245.732 293.841 260.901 218.713 236.844 302.618 247.831 297.204 263.336 221.2 241.862 307.758 251.489 299.802 266.878 224.748 248.025 309.824 252.769 299.654 271.376 226.376 247.176 311.107 255.941 303.825 272.727 231.061 251.873 313.45 257.722 302.143 274.594 230.658 251.724 311.375 256.676 304.081 274.038 232.322 252.563 312.149 259.209 302.003 275.375 230.46 250.045 307.219 259.301 302.434 274.804 230.737 248.175 302.899 261.945 298.146 277.207 230.281 241.864 270.049 262.635 281.784 262.845 231.625 236.418 281.591 357.839 303.345 402.104 250.099 247.442 244.826 291.678 264.673 286.21 275.178 254.691 232.95 287.375 241.325 275.436 279.504 259.038 229.285 285.987 236.105 274.517 267.972 251.926 234.486 286.386 241.123 270.434 275.556 257.726 234.486 287.233 240.644 283.904 272.208 254.36 237.299 282.017 243.317 280.354 278.157 260.488 236.185 287.185 243.801 280.664 274.6 255.192 236.238 281.954 241.32 277.691 278.137 259.529 237.112 286.403 244.088 280.302 274.477 255.427 235.687 280.811 241.173 276.63 277.357 258.708 235.402 284.815 242.532 278.621 273.112 253.803 233.416 278.982 238.948 274.707 275.39 256.467 232.464 282.615 239.683 276.32 270.327 251.13 230.771 276.897 235.774 272.238 272.966 254.767 231.163 283.529 236.841 274.923 269.808 252.954 237.282 280.876 236.882 271.753 289.157 274.157 279.777 288.367 248.531 255.189 397.305 345.325 237.066 384.643 272.022 340.285 283.188 253.329 233.678 328.022 253.573 317.769 253.142 231.381 225.689 301.96 248.003 292.374 236.78 216.678 220.125 298.682 238.061 286.829 231.383 213.713 223.729 296.884 240.489 289.139 235.097 216.257 222.019 300.499 242.616 290.09 235.56 215.82 224.493 301.137 242.008 291.673 236.251 218.8 225.23 303.456 246.125 293.869 239.007 219.987 228.766 300.832 248.032 293.875 236.614 220.208 226.818 303.846 247.794 293.097 239.573 220.7 229.031 299.205 248.773 293.163 236.129 219.883 225.577 301.266 246.513 291.086 237.745 218.777 226.259 295.768 246.233 289.951 233.632 217.063 221.913 296.595 242.957 287.05 234.347 215.175 220.857 289.378 240.822 284.009 229.724 212.63 213.061 286.481 233.386 277.908 229.443 209.487 208.002 270.683 225.662 268.108 226.57 209.743 212.968 236.822 211.026 240.415 256.025 228.352 206.932 308.266 236.45 286.058 243.298 213.587 211.179 321.181 227.782 298.256 243.816 217.893 223.308 320.863 242.871 307.798 240.345 216.334 222.663 317.996 246.436 308.891 235.73 212.797 225.092 316.36 246.601 309.453 236.629 215.301 226.199 320.458 250.914 309.817 236.943 214.287 226.759 322.96 250.255 312.809 238.32 216.337 230.922 325.794 253.908 317.054 241.264 219.741 232.216 327.093 255.97 319.903 243.859 222.021 233.15 325.585 256.203 317.247 242.847 221.827 234.545 326.471 257.918 320.164 243.988 222.782 233.543 323.8 257.29 316.028 241.754 220.804 233.097 322.853 256.934 317.16 241.525 220.265 230.848 318.968 255.021 311.804 238.268 217.18 229.44 314.538 253.536 310.653 236.135 214.691 222.187 300.668 247.828 298.275 226.82 205.169 210.721 282.205 233.796 284.27 216.117 193.722 199.557 252.31 217.316 263.668 214.228 190.037 201.733 260.364 216.959 253.817 215.637 199.221 204.865 287.37 220.008 268.237 220.446 198.74 212.181 305.489 229.786 286.396 232.75 206.23 215.561 308.615 237.358 294.585 234.492 209.423 216.973 311.838 239.817 296.156 235.337 209.742 218.927 313.26 242.616 300.142 237.955 211.856 220.11 313.463 242.94 299.803 239.347 213.87 222.631 316.781 244.573 302.188 242.024 217.307 225.162 321.725 247.993 304.991 243.554 219.066 226.984 319.367 249.461 305.751 244.235 219.812 230.103 325.036 251.606 308.839 246.944 222.577 230.314 320.258 253.723 308.332 245.367 221.284 231.011 323.519 253.274 308.574 246.182 221.981 230.287 318.365 253.791 307.412 243.805 219.922 231.577 321.123 253.9 307.683 244.225 220.352 232.557 311.903 256.23 306.828 238.644 216.071 233.267 300.632 254.923 301.897 230.295 207.317 228.698 300.027 256.805 309.828 220.033 194.893 234.04 236.975 235.332 245.152 212.768 214.027 229.206 259.545 243.168 248.927 214.223 203.459 222.262 273.54 235.363 262.645 220.919 204.756 220.577 276.749 237.396 271.281 225.423 205.157 220.031 281.2 237.521 273.204 228.994 207.045 223.077 283.51 240.501 273.459 230.705 208.433 224.086 282.386 241.493 276.274 231.507 209.485 224.427 285.183 239.751 274.109 233.218 210.839 228.097 287.435 243.696 279.426 235.573 215.199 230.006 290.128 246.344 278.739 237.403 216.102 232.778 292.515 248.055 284.753 241.243 220.74 235.52 294.512 253.17 284.932 241.389 219.437 236.207 294.221 253.516 287.568 242.98 222.988 237.709 296.924 256.18 288.339 242.637 221.393 239.653 298.106 257.643 290.824 245.117 225.287 245.165 308.3 262.471 297.13 249.151 228.233 263.708 321.387 277.195 316.466 260.054 242.928 283.535 375.118 319.694 376.233 259.662 239.147 367.967 254.697 335.801 314.382 260.391 277.414 308.776 260.733 308.3 271.524 243.938 253.423 284.821 263.595 284.493 266.231 237.689 245.353 278.161 267.883 275.949 274.304 236.56 242.408 274.7 267.166 273.821 272.611 238.744 240.505 276.917 270.789 277.537 278.025 241.34 243.099 281.424 274.134 279.58 278.311 243.425 245.418 280.598 273.092 280.306 280.854 242.902 247.339 282.806 275.189 285.116 282.253 245.258 248.356 288.422 280.318 288.035 288.001 248.252 252.609 290.395 282.909 286.949 285.138 251.41 252.953 288.803 285.152 291.27 288.545 254.021 257.869 292.438 286.82 293.243 292.402 255.824 258.214 291.894 291.202 294.585 296.236 258.018 260.151 295.233 291.746 296.991 295.213 259.617 261.759 295.607 301.273 299.123 303.149 266.084 266.132 303.586 325.847 306.448 312.345 286.502 276.835 293.921 442.554 326.079 382.52 312.911 296.663 
SCALARS volume float 1
LOOKUP_TABLE default
0.0193107 0.0194722 0.0194031 0.019692 0.0194774 0.0194649 0.0193916 0.0193412 0.0192355 0.0191725 0.0193551 0.0195531 0.0194121 0.0193765 0.0192239 0.0192195 0.0194092 0.0195167 0.0193682 0.0193994 0.0192541 0.0192091 0.0193892 0.0195717 0.0194146 0.0193843 0.0192127 0.0192212 0.0194133 0.0195199 0.0193685 0.0193957 0.0192428 0.0191967 0.0193876 0.0195681 0.019412 0.0193745 0.0192095 0.0192096 0.0194043 0.0195148 0.0193656 0.0193854 0.0192401 0.0191896 0.0193803 0.0195609 0.0194077 0.0193671 0.0192103 0.0192076 0.0193967 0.0195086 0.0193621 0.0193802 0.0192412 0.0191917 0.0193757 0.0195543 0.0194028 0.0193653 0.0192102 0.0192092 0.0193929 0.0195042 0.0193574 0.01938 0.0192375 0.019192 0.0193722 0.0195515 0.0193967 0.0193674 0.019202 0.019205 0.0193906 0.0195021 0.019348 0.0193813 0.0192225 0.0191807 0.0193644 0.0195484 0.0193792 0.0193684 0.019177 0.0191871 0.0193822 0.019495 0.0193069 0.0193749 0.0191937 0.0191446 0.0193315 0.019529 0.0193087 0.0193163 0.0191358 0.0191212 0.0192768 0.019392 0.0192042 0.0190314 0.019114 0.0189719 0.0189245 0.019809 0.019045 0.019053 0.0190722 0.0191067 0.0191786 0.0191739 0.019157 0.0191153 0.0190708 0.0189217 0.0190856 0.01918 0.0191469 0.0190825 0.0190565 0.018946 0.0190668 0.0191778 0.0191281 0.0190904 0.0190131 0.0189458 0.0190731 0.0191705 0.0191335 0.0190833 0.0190199 0.018922 0.0190441 0.0191742 0.0191212 0.0190792 0.0189921 0.0189175 0.0190601 0.0191612 0.0191314 0.0190762 0.0190115 0.0189098 0.0190381 0.0191707 0.019127 0.0190788 0.0189984 0.0189172 0.0190622 0.0191657 0.0191389 0.0190803 0.0190223 0.0189172 0.019043 0.0191763 0.0191322 0.0190845 0.019008 0.0189262 0.0190669 0.0191704 0.0191385 0.0190835 0.0190262 0.0189225 0.0190432 0.0191756 0.0191231 0.0190825 0.0190022 0.0189244 0.0190595 0.0191615 0.019119 0.0190748 0.0190111 0.0189111 0.0190257 0.019157 0.01909 0.0190626 0.0189759 0.0189025 0.0190281 0.0191258 0.0190718 0.0190435 0.0189796 0.0188817 0.0189749 0.0191 0.0190383 0.0190097 0.0189489 0.0188646 0.0189743 0.0190588 0.0190855 0.0190018 0.0189936 0.0188549 0.0189483 0.0190838 0.0192054 0.0190634 0.0190097 0.0188945 0.0192408 0.0195676 0.0190898 0.0189656 0.0191168 0.0190006 0.0190835 0.0190414 0.0190377 0.0189597 0.0190668 0.0189018 0.0189729 0.0190192 0.0189787 0.0189335 0.0190126 0.0188618 0.0189474 0.0189943 0.0189778 0.0189207 0.018995 0.0188208 0.0189131 0.0189413 0.0189813 0.0189038 0.0189842 0.0188062 0.0189284 0.018941 0.0189516 0.0189012 0.0189737 0.0187807 0.0188985 0.0189142 0.0189766 0.0189018 0.0189945 0.0188013 0.0189275 0.0189427 0.0189683 0.0189085 0.0189901 0.0187908 0.0189104 0.0189299 0.0189945 0.0189129 0.0190107 0.0188169 0.0189402 0.0189609 0.0189811 0.018918 0.0190009 0.0188054 0.0189193 0.0189435 0.0189979 0.0189173 0.0190134 0.0188238 0.0189411 0.0189639 0.0189735 0.0189143 0.018995 0.0188037 0.01891 0.0189317 0.0189775 0.0189042 0.0189998 0.0188102 0.0189208 0.0189368 0.0189415 0.0188913 0.0189766 0.0187817 0.0188806 0.0188891 0.0189408 0.0188734 0.0189837 0.0187831 0.0188923 0.0188874 0.0189226 0.0188665 0.0189695 0.0187554 0.0188845 0.018874 0.0189964 0.0188961 0.0190039 0.0187852 0.0189815 0.019 0.0190646 0.0190009 0.0189766 0.018818 0.0190095 0.0190917 0.0192601 0.0190087 0.0193684 0.0191222 0.0191256 0.0191375 0.0191296 0.0189722 0.0191218 0.0189936 0.0190359 0.0190788 0.0190965 0.0189189 0.019101 0.01892 0.018998 0.0189931 0.0190983 0.0189365 0.0191081 0.018904 0.0189918 0.0189843 0.0191297 0.0189008 0.019107 0.0188851 0.0189992 0.019 0.0191194 0.0189173 0.0191357 0.0188954 0.0189979 0.0189845 0.0191316 0.0189064 0.0191384 0.0189072 0.0190156 0.0190103 0.0191286 0.0189304 0.0191526 0.018917 0.0190141 0.0190105 0.019147 0.0189211 0.0191459 0.0189202 0.0190293 0.0190339 0.0191386 0.0189404 0.0191583 0.0189301 0.0190198 0.019026 0.0191499 0.0189242 0.0191455 0.0189257 0.0190284 0.0190391 0.0191354 0.0189351 0.0191525 0.0189271 0.0190125 0.0190196 0.0191386 0.0189111 0.0191355 0.0189135 0.0190146 0.0190202 0.0191214 0.0189159 0.0191397 0.0189073 0.0189986 0.0189925 0.0191216 0.0188909 0.0191237 0.0188891 0.019005 0.0189879 0.0191097 0.0189077 0.0191294 0.0188798 0.0190068 0.0189772 0.0191288 0.0189207 0.0191172 0.0188664 0.0190419 0.0190145 0.0190351 0.0189696 0.0190927 0.0188458 0.0189561 0.0187548 0.0194579 0.0191496 0.0196903 0.0193847 0.0192877 0.0193969 0.0193245 0.0191102 0.0192792 0.0192063 0.019185 0.0193099 0.0193419 0.0190887 0.0193021 0.0191578 0.0191952 0.0192257 0.0193444 0.0190777 0.0193325 0.0191509 0.0192021 0.0192466 0.0194431 0.0190857 0.0193158 0.0191538 0.0192211 0.0192144 0.0193473 0.0190851 0.0193288 0.0191576 0.0192446 0.0192647 0.0193969 0.0190844 0.0193783 0.0191889 0.0192465 0.019346 0.0194411 0.0190964 0.019372 0.019198 0.0192486 0.0192545 0.0194179 0.0190973 0.0193691 0.019192 0.0192495 0.0193728 0.0194457 0.0191035 0.0193611 0.0192048 0.0192491 0.0192625 0.0194223 0.0190989 0.0193661 0.0191959 0.0192477 0.0193786 0.0194475 0.0190986 0.0193563 0.0192035 0.0192461 0.0192594 0.0194229 0.0190893 0.0193578 0.0191881 0.019238 0.0193751 0.0194466 0.0190841 0.0193446 0.019191 0.0192378 0.0192451 0.0194209 0.0190727 0.019343 0.0191704 0.0192267 0.0193617 0.0194478 0.0190682 0.019327 0.0191652 0.0192269 0.0192133 0.0193496 0.0190607 0.0193027 0.0191271 0.0191811 0.0192312 0.0191025 0.0190278 0.0193031 0.0190304 0.0191194 0.0186122 0.0195863 0.0192975 0.0190424 0.0195589 0.0194864 0.019634 0.0195209 0.0192907 0.019589 0.0195705 0.0194504 0.0196171 0.0197445 0.0193042 0.0195372 0.019489 0.019508 0.0195702 0.0195528 0.0193271 0.0196595 0.019553 0.0194838 0.0196061 0.019728 0.0193024 0.0196047 0.0194998 0.0195585 0.0195645 0.0195485 0.0193288 0.0196642 0.0195765 0.0194821 0.0196517 0.019644 0.0193221 0.0196099 0.01954 0.0195832 0.0196967 0.019557 0.0193535 0.01959 0.0195327 0.0195114 0.0196098 0.0196734 0.0193353 0.0195596 0.0195043 0.0195662 0.019704 0.019545 0.0193519 0.019577 0.0195358 0.0195071 0.0196125 0.0196688 0.0193322 0.0195528 0.0195011 0.0195648 0.0197046 0.0195413 0.0193441 0.0195707 0.019532 0.0195021 0.0196151 0.0196616 0.0193243 0.0195435 0.0194936 0.0195578 0.0197037 0.0195349 0.0193315 0.0195605 0.0195222 0.019492 0.0196195 0.0196522 0.0193106 0.0195297 0.0194823 0.0195414 0.0197068 0.0195237 0.0193122 0.0195432 0.0195104 0.0194776 0.0196337 0.019671 0.0192684 0.0195292 0.0194763 0.01951 0.0196064 0.0197062 0.0192244 0.0196246 0.0194979 0.0195206 0.0190016 0.0191697 0.0192459 0.0192288 0.0193225 0.0192549 0.0191914 0.0191059 0.0191109 0.0190539 0.0190951 0.0191605 0.0192217 0.019081 0.0191125 0.0189569 0.0190309 0.0191683 0.01915 0.0190856 0.0191311 0.0189328 0.0190423 0.0191414 0.0191546 0.0190671 0.0191063 0.0189221 0.019035 0.0191635 0.0191401 0.019067 0.0190999 0.0189187 0.0190148 0.0191166 0.0191415 0.0190536 0.0190842 0.0189025 0.0190144 0.0191469 0.019127 0.0190596 0.0190821 0.0189089 0.0190032 0.0191047 0.0191346 0.0190527 0.0190767 0.0189012 0.0190098 0.0191404 0.0191272 0.0190633 0.0190827 0.0189128 0.0190061 0.0191063 0.0191381 0.0190586 0.0190835 0.0189078 0.0190162 0.0191437 0.019133 0.0190677 0.0190929 0.0189184 0.0190136 0.0191133 0.0191416 0.0190597 0.0190931 0.0189095 0.019021 0.0191482 0.0191316 0.0190603 0.0190977 0.0189136 0.0190123 0.0191126 0.0191357 0.0190413 0.0190905 0.0188975 0.019013 0.0191376 0.019118 0.0190248 0.019088 0.018893 0.0190022 0.0190903 0.0191142 0.0189805 0.0190588 0.0188513 0.0189795 0.0190627 0.0190447 0.0189271 0.0189454 0.0187806 0.018887 0.0185765 0.0189892 0.0189882 0.0189878 0.0189231 0.0189151 0.0189585 0.0189597 0.0189435 0.018938 0.0188471 0.0188202 0.0189006 0.0189133 0.0189226 0.0189279 0.0188108 0.0187879 0.0188565 0.0189108 0.0188775 0.0189073 0.0187579 0.0187766 0.0188455 0.0189138 0.0188898 0.0189075 0.0187461 0.0187754 0.0188296 0.0188999 0.0188588 0.0188921 0.0187237 0.0187609 0.0188298 0.0188956 0.0188797 0.0188939 0.0187325 0.0187597 0.0188187 0.0188929 0.0188586 0.0188863 0.0187235 0.0187572 0.0188293 0.0188965 0.0188853 0.018896 0.0187397 0.0187633 0.018824 0.0188989 0.018867 0.0188922 0.0187332 0.0187636 0.0188365 0.0189041 0.0188917 0.0189031 0.0187465 0.0187698 0.0188301 0.0189033 0.0188687 0.0188975 0.0187351 0.0187666 0.0188377 0.0189027 0.0188867 0.0189042 0.0187413 0.0187674 0.018825 0.0188939 0.0188553 0.0188923 0.0187235 0.0187575 0.0188239 0.0188852 0.0188674 0.0188896 0.0187258 0.0187543 0.0188059 0.0188722 0.0188336 0.018875 0.0187074 0.0187413 0.0187948 0.0188658 0.0188559 0.0188585 0.0187128 0.0187461 0.0187671 0.0188637 0.0188435 0.0188523 0.0187149 0.0187392 0.0188299 0.0189608 0.0189505 0.0188564 0.0188618 0.0188018 0.0188372 0.0188721 0.0188875 0.0188334 0.0187859 0.0187394 0.0187622 0.0188214 0.0188317 0.0188093 0.0187305 0.0186975 0.018733 0.0187765 0.0188194 0.0187971 0.0187053 0.0186752 0.0187102 0.0187641 0.0188077 0.0187928 0.0186881 0.0186621 0.0187066 0.0187636 0.0188114 0.0187798 0.0186909 0.0186639 0.0186954 0.0187502 0.0188078 0.0187893 0.0186977 0.0186577 0.0187068 0.018765 0.0188202 0.0187827 0.0187056 0.0186702 0.0187037 0.0187612 0.0188175 0.0187949 0.0187118 0.0186672 0.018717 0.0187759 0.0188282 0.018789 0.0187163 0.0186772 0.0187115 0.0187693 0.0188214 0.0187994 0.0187159 0.018671 0.0187204 0.0187774 0.0188267 0.0187905 0.0187135 0.0186754 0.0187085 0.0187628 0.0188142 0.0187964 0.0187066 0.0186637 0.0187111 0.0187631 0.0188163 0.0187823 0.0186991 0.0186637 0.018695 0.0187438 0.0188043 0.0187861 0.0186919 0.0186519 0.0186954 0.0187488 0.0188139 0.0187696 0.0186857 0.018658 0.0186856 0.0187425 0.018822 0.0187907 0.0186986 0.0186621 0.0187158 0.0187774 0.0188475 0.0187954 0.018732 0.0186893 0.0187746 0.0188085 0.0189821 0.0188545 0.0189377 0.0188338 0.0188243 0.0189179 0.0189016 0.0188167 0.0188124 0.0187624 0.0187582 0.018857 0.018876 0.0187956 0.0187721 0.0187266 0.0187343 0.0188016 0.0188732 0.0187794 0.0187701 0.0187023 0.0187244 0.0187877 0.018882 0.0187826 0.0187809 0.0186999 0.0187232 0.0187812 0.0188899 0.018783 0.0187934 0.0187081 0.0187285 0.0187874 0.0188965 0.0187879 0.018805 0.0187092 0.018738 0.0187945 0.0189069 0.0187924 0.0188138 0.0187243 0.0187439 0.0188086 0.0189039 0.0187976 0.0188232 0.0187233 0.0187512 0.0188072 0.0189121 0.0187968 0.0188197 0.01873 0.0187501 0.0188154 0.0189037 0.0187993 0.018822 0.018723 0.0187511 0.0188054 0.0189077 0.0187946 0.0188123 0.0187238 0.0187438 0.0188054 0.0188945 0.0187935 0.0188073 0.0187113 0.0187393 0.0187887 0.0188976 0.0187862 0.018795 0.0187094 0.0187302 0.018787 0.0188868 0.0187862 0.0187895 0.0186986 0.0187291 0.0187739 0.0188954 0.0187849 0.0187844 0.0187046 0.0187258 0.0187835 0.0188952 0.0187984 0.0188 0.0187082 0.0187525 0.0187793 0.0188982 0.0188151 0.0188364 0.0187302 0.018786 0.0187788 0.019053 0.0189341 0.0190333 0.0189718 0.0189193 0.0190762 0.0190434 0.0189127 0.0189188 0.0189146 0.0188798 0.0189918 0.0190545 0.0188941 0.0189494 0.0189059 0.0188816 0.0189709 0.0190636 0.0188854 0.0189726 0.0188939 0.0188873 0.0189692 0.0190589 0.0188868 0.0189943 0.0189063 0.0188915 0.018982 0.0190708 0.018897 0.018995 0.018912 0.0189179 0.0189885 0.0190849 0.0189081 0.0190209 0.0189094 0.0189155 0.019008 0.0190951 0.0189144 0.0190179 0.0189322 0.0189255 0.0190123 0.0190936 0.0189235 0.0190278 0.0189282 0.0189226 0.0190119 0.0190931 0.0189171 0.0190215 0.0189316 0.0189258 0.0190152 0.0190886 0.0189206 0.0190207 0.018925 0.0189178 0.0190076 0.0190842 0.0189106 0.019009 0.0189229 0.0189153 0.0190045 0.0190766 0.0189099 0.0190018 0.0189116 0.018903 0.0189921 0.019069 0.018901 0.0189877 0.0189071 0.0188982 0.0189842 0.0190591 0.0189002 0.0189808 0.0188946 0.0188915 0.0189682 0.0190506 0.0189016 0.0189737 0.0188931 0.0188956 0.0189462 0.019048 0.0189027 0.0189901 0.0188834 0.0189079 0.0189095 0.0190495 0.0189057 0.0190541 0.0189124 0.0189484 0.0189911 0.0189632 0.0190935 0.0185962 0.0191443 0.0190598 0.0193071 0.0192524 0.0191155 0.0192267 0.0192011 0.019104 0.0193177 0.0193157 0.0190914 0.0192864 0.0192531 0.0191381 0.0193297 0.0193501 0.0190929 0.0192572 0.0192296 0.0191789 0.0193985 0.0193137 0.0190894 0.0193006 0.019258 0.0191541 0.0193501 0.0192958 0.0191021 0.0193592 0.0192314 0.0191881 0.0193717 0.0193171 0.0190997 0.0193396 0.0192705 0.0191987 0.019379 0.019398 0.0191194 0.0192881 0.0192478 0.0191865 0.0193636 0.0193458 0.0191316 0.0193504 0.0192764 0.0192019 0.0193605 0.019389 0.019119 0.0192721 0.0192447 0.0191728 0.0193605 0.0193331 0.0191197 0.0193316 0.0192707 0.0191903 0.0193587 0.0193764 0.0191069 0.0192537 0.019235 0.019159 0.019355 0.0193161 0.0191042 0.019309 0.0192577 0.0191723 0.0193503 0.0193593 0.0190932 0.0192336 0.0192211 0.0191395 0.0193403 0.0192946 0.019091 0.0192879 0.0192449 0.019157 0.0193262 0.019345 0.0190821 0.0192301 0.0192102 0.0191287 0.0193042 0.0192867 0.0191101 0.0193135 0.0192497 0.0192135 0.0192373 0.0195759 0.019142 0.0193375 0.0192567 0.0193458 0.019562 0.0190027 0.0190612 0.0189307 0.0189635 0.0190426 0.0190316 0.0189315 0.0190423 0.0188652 0.0190121 0.0190044 0.0190012 0.0188677 0.0189938 0.018769 0.0189959 0.0189735 0.0190019 0.0188581 0.0189615 0.01875 0.0189894 0.0189493 0.0190022 0.0188298 0.0189459 0.0187264 0.0189711 0.0189496 0.0189742 0.018835 0.0189284 0.0187219 0.0189584 0.0189268 0.0189746 0.0188037 0.0189159 0.0186999 0.0189492 0.018927 0.0189571 0.0188197 0.0189072 0.0187048 0.0189473 0.0189125 0.0189656 0.0187986 0.0189096 0.0186936 0.0189482 0.0189239 0.0189578 0.0188245 0.0189124 0.0187091 0.0189525 0.0189192 0.0189715 0.0188094 0.0189233 0.0187047 0.0189589 0.0189367 0.0189682 0.0188371 0.0189293 0.018723 0.0189627 0.0189341 0.0189805 0.0188213 0.0189397 0.0187183 0.0189681 0.0189487 0.0189735 0.018842 0.0189396 0.0187314 0.0189676 0.0189396 0.0189784 0.0188176 0.01894 0.0187214 0.0189627 0.0189458 0.0189658 0.0188326 0.0189413 0.0187343 0.0189616 0.0189372 0.0189724 0.0188155 0.0189651 0.0187317 0.0189681 0.0189482 0.0189481 0.0188026 0.018955 0.0186934 0.018893 0.0186775 0.0188245 0.0188402 0.0188951 0.0187387 0.018762 0.0187992 0.0188295 0.0188154 0.0188758 0.0187049 0.0187314 0.0187691 0.0187868 0.0187869 0.0188357 0.018661 0.0187129 0.0187335 0.0187551 0.0187663 0.0188211 0.018644 0.0187041 0.0187316 0.0187546 0.0187584 0.0188041 0.0186266 0.018699 0.0187106 0.0187477 0.0187416 0.0188003 0.018617 0.0186889 0.018712 0.0187438 0.018747 0.0187844 0.0186105 0.0186901 0.0186955 0.0187368 0.0187373 0.0187893 0.0186109 0.0186856 0.0187076 0.0187413 0.0187487 0.0187813 0.018613 0.0186892 0.0186969 0.0187399 0.0187434 0.0187931 0.0186173 0.0186898 0.0187142 0.0187476 0.0187558 0.0187886 0.0186201 0.0186952 0.0187057 0.0187459 0.01875 0.0188028 0.0186233 0.0186965 0.0187226 0.0187512 0.0187603 0.0187982 0.0186236 0.0187003 0.0187121 0.0187456 0.0187503 0.0188089 0.0186242 0.0186979 0.0187238 0.0187455 0.0187561 0.0187973 0.0186226 0.0186974 0.0187131 0.0187363 0.0187417 0.0188029 0.0186278 0.0186928 0.0187249 0.0187376 0.0187505 0.0187829 0.0186274 0.0186972 0.018707 0.0187253 0.0187243 0.0187574 0.018632 0.0186729 0.0186892 0.0187142 0.0187785 0.0187599 0.0186771 0.0186674 0.0186786 0.018712 0.018744 0.0187549 0.0186331 0.0186283 0.0186418 0.0186611 0.018726 0.0187314 0.0186044 0.0185995 0.0186119 0.0186378 0.0187162 0.0187223 0.0185875 0.0185911 0.018607 0.0186303 0.018709 0.0187117 0.0185803 0.0185829 0.0185951 0.0186227 0.0187083 0.0187087 0.0185781 0.01858 0.0185944 0.018624 0.0187087 0.0187056 0.0185808 0.0185805 0.0185903 0.018623 0.0187116 0.0187069 0.0185862 0.018585 0.0185979 0.0186303 0.0187132 0.0187079 0.0185893 0.0185872 0.0185958 0.0186302 0.0187154 0.0187101 0.0185927 0.0185879 0.0186035 0.0186353 0.0187166 0.0187117 0.0185926 0.0185891 0.0185998 0.0186318 0.0187175 0.018715 0.0185925 0.0185889 0.0186057 0.0186336 0.0187165 0.0187161 0.0185903 0.018589 0.0185997 0.0186269 0.0187162 0.0187177 0.0185882 0.0185879 0.0186034 0.0186271 0.0187149 0.0187164 0.0185878 0.0185895 0.0186 0.0186237 0.0187161 0.0187152 0.0185907 0.0185934 0.0186057 0.018632 0.0187151 0.0187113 0.018605 0.0186092 0.018614 0.0186387 0.0187261 0.0187088 0.0186343 0.0186131 0.0186486 0.0186544 0.0188087 0.0187362 0.0187208 0.0186871 0.0186635 0.0187229 0.018772 0.0187185 0.0186647 0.0186335 0.018626 0.01867 0.0187583 0.0187113 0.0186382 0.0186032 0.0186049 0.0186377 0.0187529 0.0187056 0.0186304 0.0185949 0.0185929 0.0186363 0.0187565 0.0187067 0.0186404 0.0185929 0.0185968 0.0186352 0.0187621 0.0187047 0.0186419 0.0186005 0.0185983 0.0186415 0.0187676 0.0187107 0.0186527 0.0186049 0.0186064 0.0186516 0.0187719 0.0187115 0.0186604 0.0186132 0.0186097 0.0186554 0.0187728 0.0187121 0.018659 0.0186157 0.018614 0.0186627 0.0187713 0.0187116 0.0186666 0.0186154 0.0186147 0.0186561 0.0187716 0.0187123 0.0186574 0.0186143 0.0186139 0.0186598 0.0187684 0.0187122 0.0186601 0.0186107 0.0186111 0.0186487 0.0187666 0.0187123 0.0186483 0.0186088 0.0186085 0.0186497 0.0187638 0.0187131 0.0186507 0.0186062 0.0186055 0.0186395 0.0187625 0.0187149 0.0186434 0.0186103 0.0186089 0.0186456 0.0187687 0.0187217 0.0186575 0.0186162 0.0186154 0.0186479 0.0187774 0.018728 0.0186768 0.0186416 0.0186433 0.0186734 0.0188052 0.0187447 0.0187356 0.0186729 0.0186884 0.0187089 0.0189078 0.0188253 0.0188112 0.0188053 0.0187339 0.0188405 0.0189 0.018805 0.018791 0.0187572 0.0187158 0.0187938 0.0188856 0.0187905 0.0187794 0.0187324 0.0187064 0.0187824 0.0188832 0.0187856 0.0187752 0.018731 0.0187007 0.0187843 0.0188817 0.0187876 0.0187886 0.0187389 0.0187074 0.0187917 0.018892 0.0187979 0.0187992 0.0187483 0.0187166 0.0188008 0.0188963 0.0187998 0.018815 0.0187477 0.0187282 0.0188081 0.0189076 0.0188151 0.0188249 0.0187613 0.0187324 0.0188164 0.0189154 0.0188074 0.0188295 0.01876 0.0187322 0.0188248 0.0189095 0.0188079 0.018828 0.0187576 0.0187331 0.0188106 0.0189104 0.0188048 0.0188278 0.0187552 0.0187279 0.0188176 0.018899 0.0188028 0.018816 0.0187493 0.0187241 0.0187968 0.0188982 0.0188004 0.0188112 0.0187437 0.0187171 0.0188013 0.0188881 0.0188006 0.0188028 0.018741 0.0187153 0.018781 0.0188911 0.018803 0.0188077 0.0187409 0.0187183 0.0187864 0.0188933 0.0188152 0.0188211 0.0187553 0.018738 0.0187743 0.0189319 0.0188285 0.0188583 0.018777 0.0187801 0.0188121 0.0189799 0.0188647 0.0189306 0.0188461 0.0188372 0.0189099 0.0189744 0.0190197 0.0187572 0.018987 0.0188694 0.0191071 0.0190329 0.0189602 0.0190265 0.0190429 0.018874 0.0191369 0.0190422 0.0189395 0.0189803 0.0190082 0.0188746 0.0191529 0.0190388 0.0189334 0.018981 0.0190092 0.0188865 0.0191453 0.0190588 0.0189451 0.0189919 0.0190095 0.0189117 0.0191468 0.0190594 0.0189371 0.0190274 0.0190289 0.0189145 0.019148 0.0190851 0.0189636 0.0190481 0.0190255 0.0189242 0.0191579 0.0191049 0.0189587 0.0190233 0.0190439 0.01894 0.0191714 0.0191158 0.0189797 0.0190204 0.0190272 0.0189398 0.0191686 0.0190698 0.0189702 0.0190298 0.0190279 0.0189231 0.01916 0.0190919 0.0189787 0.0190041 0.0190236 0.0189176 0.0191662 0.0190442 0.0189579 0.0189979 0.0190147 0.018902 0.0191527 0.0190658 0.0189662 0.018975 0.0190107 0.0188974 0.0191528 0.0190227 0.0189521 0.0189762 0.0190034 0.0188888 0.0191336 0.01906 0.0189668 0.0189691 0.0190088 0.0189017 0.0191297 0.0190376 0.0189633 0.0190017 0.0190218 0.0189193 0.019113 0.0191292 0.019015 0.0190284 0.0190601 0.0189991 0.0191535 0.0192464 0.0190575 0.0191465 0.0191405 0.0191318 0.0193362 0.0188909 0.0190296 0.0187794 0.0188028 0.0190266 0.0189648 0.0188661 0.0191256 0.0188329 0.0190766 0.0190402 0.0190178 0.0188327 0.0190857 0.0187861 0.0190965 0.0190404 0.019004 0.018811 0.0191192 0.018765 0.0190818 0.0190205 0.0189804 0.0187736 0.0190919 0.0187385 0.01911 0.0189864 0.0189966 0.018769 0.0190783 0.0187375 0.0190787 0.0190009 0.0189796 0.0187432 0.0190825 0.0187186 0.0190679 0.018968 0.0189903 0.0187449 0.0190665 0.018712 0.0190727 0.0189899 0.0189737 0.018736 0.019082 0.0187082 0.0190662 0.0189678 0.0189918 0.0187487 0.0190732 0.0187137 0.0190775 0.0189991 0.0189804 0.0187489 0.0190936 0.0187192 0.0190738 0.0189824 0.0190022 0.0187664 0.0190852 0.0187304 0.0190869 0.0190151 0.0189909 0.0187675 0.019103 0.018738 0.0190822 0.0189973 0.01901 0.0187808 0.0190873 0.0187472 0.0190911 0.0190202 0.0189935 0.0187723 0.0190948 0.018748 0.0190772 0.0189948 0.0190019 0.0187811 0.0190795 0.018753 0.0190754 0.0190188 0.0189876 0.0187947 0.0191001 0.0187624 0.0190743 0.0190435 0.0190079 0.018824 0.0190856 0.0187902 0.0190874 0.0190084 0.0188785 0.0187642 0.018889 0.0186649 0.01873 0.0187325 0.0187421 0.0187654 0.0188733 0.0186627 0.0187498 0.0187718 0.0187359 0.0187588 0.0188648 0.0186596 0.0187724 0.0187673 0.0187255 0.0187355 0.0188293 0.0186455 0.0187537 0.0187358 0.018718 0.0187363 0.018839 0.0186387 0.0187611 0.0187466 0.0187149 0.018723 0.0188206 0.0186333 0.0187472 0.0187266 0.0187097 0.0187208 0.0188146 0.0186235 0.01874 0.0187309 0.0187056 0.018714 0.0188031 0.0186244 0.0187368 0.018719 0.0187072 0.0187178 0.0188096 0.018617 0.0187416 0.0187265 0.0187069 0.0187176 0.0188053 0.018628 0.0187394 0.0187234 0.018713 0.0187238 0.0188169 0.0186216 0.0187468 0.0187358 0.0187143 0.0187266 0.0188177 0.0186356 0.0187476 0.018736 0.0187211 0.0187343 0.0188316 0.0186314 0.0187564 0.0187485 0.0187211 0.0187373 0.0188317 0.0186459 0.018756 0.0187472 0.0187244 0.0187415 0.0188378 0.0186423 0.0187602 0.0187557 0.0187188 0.0187432 0.0188303 0.0186585 0.0187537 0.0187541 0.0187187 0.018746 0.0188338 0.0186597 0.0187513 0.0187544 0.0187053 0.0187356 0.0188024 0.0186704 0.0187372 0.0187248 0.0186727 0.0186999 0.0187397 0.0186089 0.0186348 0.0186248 0.0186305 0.0186943 0.0187353 0.0185976 0.0186194 0.0186235 0.0186026 0.018693 0.0187378 0.0185919 0.0186233 0.0186151 0.0185903 0.0186894 0.0187294 0.0185857 0.018613 0.0186127 0.0185843 0.0186892 0.0187227 0.018583 0.0186134 0.0186043 0.0185844 0.0186862 0.0187194 0.0185831 0.0186067 0.0186034 0.0185788 0.0186865 0.0187119 0.0185863 0.0186054 0.0186013 0.0185808 0.0186871 0.0187132 0.0185837 0.0186056 0.0185991 0.0185839 0.0186872 0.0187147 0.0185899 0.0186061 0.0186064 0.0185841 0.0186889 0.0187137 0.0185882 0.0186039 0.0186007 0.018586 0.0186893 0.0187173 0.0185894 0.0186043 0.0186104 0.0185855 0.0186931 0.0187212 0.0185901 0.0186072 0.0186075 0.0185887 0.0186948 0.018728 0.0185935 0.0186114 0.0186178 0.0185887 0.0187005 0.0187335 0.0185959 0.018616 0.0186162 0.0185936 0.0187034 0.0187414 0.0186011 0.0186212 0.0186276 0.0185954 0.018711 0.0187467 0.0186083 0.0186272 0.0186335 0.0186034 0.0187107 0.0187525 0.0186253 0.0186386 0.0186378 0.018611 0.0187177 0.0187421 0.0186478 0.0186429 0.018652 0.0186201 0.0187347 0.0186964 0.0186656 0.0186523 0.0186083 0.018627 0.0187162 0.0186967 0.0186392 0.0186145 0.0185982 0.0185924 0.0187123 0.0187019 0.0186299 0.0186006 0.0185847 0.0185807 0.0187212 0.0187091 0.0186182 0.0185966 0.0185796 0.0185771 0.0187264 0.0187095 0.0186256 0.0186002 0.0185852 0.0185827 0.0187272 0.0187093 0.0186325 0.0186053 0.0185875 0.0185843 0.0187333 0.0187114 0.0186411 0.0186091 0.0185911 0.0185919 0.0187355 0.0187149 0.0186411 0.0186085 0.0185941 0.0185962 0.0187317 0.0187092 0.0186451 0.0186114 0.0185931 0.018594 0.018731 0.01871 0.0186457 0.0186089 0.0185932 0.0185954 0.0187327 0.0187077 0.0186409 0.0186093 0.0185933 0.018591 0.0187316 0.0187125 0.0186424 0.018608 0.0185943 0.0185922 0.0187331 0.0187142 0.0186414 0.0186115 0.0185957 0.0185895 0.018735 0.0187235 0.0186461 0.0186148 0.0185992 0.0185953 0.0187415 0.0187292 0.0186507 0.0186236 0.018607 0.0186012 0.0187513 0.0187444 0.0186637 0.0186331 0.0186199 0.0186172 0.0187644 0.0187551 0.0186882 0.0186595 0.0186456 0.0186434 0.0187924 0.0187754 0.0187359 0.0187013 0.0186832 0.0186862 0.0188782 0.0187912 0.0188233 0.0187921 0.0187022 0.0187404 0.0188346 0.0187788 0.0187701 0.0187195 0.0186642 0.0187064 0.0188185 0.018774 0.018757 0.018686 0.0186565 0.0186812 0.0188093 0.0187832 0.0187394 0.0186849 0.0186527 0.018695 0.0188234 0.0187911 0.0187595 0.0187075 0.0186646 0.0187017 0.0188353 0.0187969 0.0187526 0.0187183 0.0186726 0.0187215 0.0188453 0.0188008 0.0187948 0.018732 0.0186861 0.0187206 0.0188551 0.0188046 0.0187849 0.0187313 0.0186897 0.0187343 0.0188532 0.0188005 0.0187926 0.0187302 0.0186896 0.0187252 0.018836 0.018799 0.0187886 0.0187254 0.0186868 0.0187239 0.0188418 0.0187986 0.0187879 0.0187293 0.0186877 0.0187187 0.0188313 0.0188015 0.0187861 0.0187179 0.0186835 0.0187143 0.0188387 0.018802 0.0187869 0.0187316 0.0186895 0.0187096 0.0188345 0.0188117 0.018789 0.0187223 0.0186888 0.0187122 0.0188498 0.0188163 0.0188021 0.0187456 0.018705 0.0187171 0.0188628 0.0188378 0.0188202 0.0187528 0.0187215 0.0187431 0.0189055 0.0188505 0.0188576 0.0187967 0.018761 0.0187916 0.018947 0.0188933 0.0189171 0.0188697 0.0188192 0.0188742 0.0190568 0.0189893 0.0191643 0.0190203 0.0188212 0.0190002 0.0189378 0.0189026 0.0190284 0.0189815 0.0187819 0.0189908 0.0188924 0.0188793 0.0189066 0.018909 0.0187639 0.0189687 0.0188602 0.0189007 0.0189331 0.0188829 0.0187773 0.0189728 0.0189046 0.0189174 0.0189276 0.0189129 0.0187831 0.0189833 0.0189416 0.018962 0.0189558 0.0189378 0.0188144 0.0189801 0.0189175 0.0189517 0.0190047 0.0189163 0.018834 0.0190245 0.0189624 0.0189734 0.0189837 0.0189445 0.0188614 0.0190075 0.0189514 0.0189644 0.0189728 0.0189365 0.0188276 0.0190203 0.0189671 0.0189698 0.0189889 0.0189448 0.0188358 0.0190213 0.0189517 0.018954 0.0189889 0.0189152 0.0188057 0.019029 0.018943 0.0189769 0.0189607 0.0189258 0.018814 0.0190197 0.0189297 0.0189519 0.0189628 0.018911 0.0187986 0.0190196 0.0189382 0.0189848 0.0189602 0.01893 0.0188188 0.0190132 0.0189434 0.0189653 0.0189781 0.0189267 0.0188221 0.0190221 0.0189792 0.0190132 0.0190038 0.0189672 0.0188651 0.0190402 0.0190045 0.0190003 0.0190323 0.019003 0.0189042 0.0190952 0.0190248 0.0190675 0.0190666 0.0191203 0.019034 0.0191486 0.0189072 0.0192345 0.0189575 0.0188979 0.0193058 0.019088 0.0189704 0.0192922 0.0189797 0.0193064 0.0192624 0.0191412 0.0189646 0.0193471 0.0190251 0.0193121 0.0193474 0.0191729 0.0189507 0.0193824 0.0190189 0.019343 0.0192997 0.0191538 0.0189448 0.0193355 0.0190201 0.0193203 0.0192816 0.0191665 0.0189447 0.0194039 0.0190157 0.0193265 0.0192743 0.0191308 0.0188998 0.0194034 0.0189837 0.0193431 0.0192934 0.0191475 0.0189176 0.0193512 0.0189725 0.0193339 0.0192792 0.0191215 0.0188888 0.0194164 0.0189794 0.0193347 0.0192974 0.0191508 0.0189203 0.0193557 0.0189745 0.0193392 0.0192847 0.0191268 0.0188993 0.0194196 0.0189869 0.0193392 0.0193042 0.0191579 0.0189357 0.0193581 0.0189864 0.0193428 0.0192911 0.019135 0.0189174 0.0194177 0.0190011 0.0193424 0.0193081 0.0191642 0.0189504 0.0193546 0.018999 0.0193427 0.0192876 0.0191356 0.0189236 0.0194028 0.0190118 0.0193407 0.0192966 0.0191572 0.0189447 0.0193315 0.0189992 0.0193312 0.0192627 0.0191183 0.0189138 0.0193647 0.0190049 0.0193156 0.0192804 0.0191482 0.0189611 0.019278 0.018988 0.0193615 0.0194838 0.0191219 0.0187952 0.0189792 0.0187829 0.0188661 0.0188597 0.018755 0.0188301 0.0189649 0.0187703 0.0188748 0.0189101 0.0188125 0.0188235 0.0190118 0.0188042 0.0189261 0.0189401 0.0188022 0.0188182 0.0190088 0.0188 0.0189353 0.0189318 0.0188127 0.0188229 0.0190172 0.0188075 0.0189532 0.0189416 0.0188074 0.0188068 0.0190093 0.0188035 0.0189452 0.0189462 0.0188041 0.0187972 0.0189692 0.0188025 0.0189202 0.0189106 0.0187879 0.0187876 0.0189782 0.0187945 0.0189197 0.0189209 0.0187906 0.0187971 0.0189632 0.0187944 0.0189147 0.0189067 0.0187852 0.0187899 0.0189763 0.0187935 0.0189221 0.0189248 0.0187956 0.0187993 0.018969 0.0187992 0.0189196 0.0189131 0.0187924 0.0188002 0.0189875 0.0187998 0.0189296 0.0189349 0.0188061 0.0188143 0.0189844 0.0188096 0.0189314 0.0189259 0.018805 0.0188187 0.0190024 0.0188132 0.0189423 0.0189461 0.018818 0.018832 0.0189949 0.0188231 0.0189434 0.018932 0.0188121 0.0188392 0.0190047 0.0188278 0.0189496 0.0189388 0.0188168 0.0188473 0.0189757 0.0188345 0.0189314 0.0189005 0.0187997 0.0188308 0.0189333 0.0188002 0.0188995 0.0188921 0.0188115 0.0187248 0.0188174 0.0186632 0.0187103 0.0187161 0.0186497 0.0187501 0.0188211 0.0186925 0.0187368 0.0187359 0.0186483 0.0187487 0.018815 0.0187098 0.0187465 0.0187487 0.0186368 0.0187599 0.0188369 0.0187096 0.0187529 0.018763 0.01864 0.018755 0.0188114 0.0187182 0.0187436 0.0187532 0.018629 0.018755 0.0188142 0.018722 0.0187431 0.0187568 0.0186283 0.0187517 0.0188029 0.0187226 0.018736 0.0187519 0.0186254 0.018754 0.0188098 0.0187191 0.0187378 0.018755 0.01862 0.0187505 0.0188116 0.0187243 0.0187439 0.0187494 0.0186311 0.0187519 0.0188087 0.0187176 0.0187398 0.0187529 0.0186216 0.0187508 0.0188074 0.0187188 0.0187321 0.0187522 0.0186293 0.0187578 0.0188176 0.0187202 0.0187441 0.0187609 0.0186286 0.018762 0.0188234 0.0187263 0.0187444 0.0187628 0.0186407 0.0187743 0.0188385 0.0187296 0.018761 0.0187746 0.0186447 0.0187827 0.0188469 0.0187361 0.0187634 0.0187729 0.0186596 0.0188048 0.0188673 0.0187405 0.018785 0.0187848 0.0186741 0.0188133 0.0188741 0.0187613 0.0187878 0.0187701 0.0186884 0.0188024 0.0188757 0.0187667 0.0187674 0.0187587 0.0186903 0.0187505 0.018748 0.0187183 0.0186977 0.018665 0.0186304 0.0187683 0.0187728 0.0187272 0.0187038 0.0186903 0.0186216 0.0187771 0.0187813 0.0187263 0.0187285 0.0186838 0.018621 0.0187778 0.0187818 0.0187339 0.0187106 0.0186901 0.0186147 0.0187948 0.0187907 0.0187447 0.0187266 0.0187055 0.0186266 0.0187863 0.0187797 0.0187558 0.0187123 0.0187073 0.0186217 0.0187956 0.0187916 0.0187569 0.0187337 0.018707 0.0186257 0.0188015 0.0187871 0.0187637 0.0187216 0.0187075 0.0186258 0.0187909 0.0187868 0.0187604 0.0187238 0.0187043 0.0186257 0.0187946 0.0187818 0.0187616 0.0187205 0.0187026 0.0186247 0.0187844 0.0187861 0.0187565 0.0187135 0.0187036 0.0186208 0.0187974 0.0187868 0.0187562 0.0187144 0.0187067 0.0186251 0.0187917 0.0187978 0.018763 0.0187233 0.018712 0.0186306 0.0188131 0.018807 0.0187653 0.0187311 0.0187206 0.0186413 0.0188098 0.0188233 0.0187777 0.0187442 0.0187258 0.0186575 0.0188431 0.018845 0.0187712 0.0187554 0.0187372 0.0186823 0.0188511 0.0188656 0.0188027 0.0187878 0.0187484 0.0187192 0.0188646 0.0189273 0.0188613 0.0188214 0.0187878 0.0187629 0.0189043 0.0188116 0.0189526 0.0188534 0.0187447 0.0187296 0.0188756 0.0188537 0.0188558 0.0187645 0.0187439 0.0187121 0.0188713 0.0188582 0.0188684 0.0187871 0.0187374 0.0187182 0.0188997 0.0188829 0.0188645 0.0188095 0.018748 0.0187293 0.0189147 0.0188913 0.0188752 0.0188128 0.0187573 0.0187398 0.0189171 0.018894 0.0189156 0.0188428 0.0187848 0.0187548 0.0189105 0.0189005 0.0189188 0.0188469 0.0187738 0.0187605 0.0189394 0.0189026 0.0189204 0.0188567 0.0187873 0.0187642 0.0189177 0.0188952 0.0189156 0.0188483 0.0187776 0.018761 0.0189153 0.0188875 0.0189148 0.0188449 0.018781 0.018751 0.0189157 0.0188899 0.0189258 0.018835 0.0187751 0.0187502 0.0189206 0.018892 0.0189078 0.0188379 0.018787 0.0187469 0.0189144 0.0188955 0.0189252 0.0188422 0.0187822 0.0187581 0.0189386 0.0189127 0.0189171 0.0188536 0.0188028 0.0187623 0.0189347 0.0189188 0.0189418 0.0188628 0.0188002 0.0187878 0.0189664 0.0189409 0.0189278 0.0188796 0.0188288 0.0188067 0.0189695 0.0189455 0.018946 0.0188906 0.0188226 0.0188697 0.0189908 0.0190431 0.0190218 0.018995 0.0189377 0.0189548 0.0191787 0.0189948 0.0197101 0.0192352 0.0188705 0.0190074 0.0190321 0.0190055 0.0191174 0.0189923 0.018837 0.0189612 0.0189787 0.0190523 0.0190664 0.0189437 0.0188442 0.0189283 0.019076 0.0190827 0.0191262 0.0190119 0.0188653 0.0189536 0.0190639 0.0190844 0.0191852 0.0190454 0.0189173 0.0189532 0.0190779 0.0191083 0.0191869 0.0190172 0.0189321 0.0190106 0.0191558 0.0191106 0.0192106 0.0190754 0.018935 0.0189928 0.0190985 0.0191063 0.0192625 0.0190927 0.018944 0.0190337 0.0191288 0.0191024 0.0191897 0.0190745 0.0189453 0.0189777 0.0190785 0.0190909 0.0192462 0.0190451 0.0189319 0.0189836 0.0190698 0.0191144 0.0192707 0.0190678 0.0189218 0.0190133 0.0191262 0.0191238 0.0192403 0.019051 0.0189257 0.0189969 0.0190502 0.0191191 0.0192832 0.0190879 0.0189319 0.0190088 0.019134 0.0191481 0.0192526 0.01907 0.018938 0.0190134 0.0190599 0.0191355 0.0192923 0.0191069 0.0189497 0.0190364 0.0191487 0.0191639 0.0192632 0.0190906 0.0189567 0.0190563 0.019031 0.0191443 0.019312 0.0191551 0.0189361 0.0191016 0.0189894 0.0191726 0.0191833 0.0192273 0.0191288 0.019127 0.0190891 0.0195933 0.0194414 0.0197108 0.0197597 0.0194651 0.0191974 0.0196351 0.019398 0.0196111 0.0194744 0.0193516 0.0192758 0.0195287 0.0193661 0.0195046 0.0196586 0.0194762 0.0192463 0.0196486 0.0194739 0.0196457 0.0194899 0.0193662 0.0192723 0.0195331 0.0193141 0.0195257 0.0196282 0.0194204 0.0192942 0.019543 0.0194383 0.0195289 0.0196058 0.0193778 0.0192448 0.0197089 0.019342 0.0196123 0.0195859 0.0194347 0.0192282 0.0196294 0.0194126 0.019577 0.0195689 0.0194069 0.0192532 0.0197157 0.0193801 0.019577 0.0195873 0.0194436 0.0192309 0.0196376 0.0194225 0.0195835 0.0195714 0.019407 0.0192562 0.0197155 0.0193835 0.0195763 0.0195875 0.0194439 0.0192363 0.0196341 0.019425 0.0195812 0.0195699 0.0194077 0.0192625 0.0197085 0.0193868 0.0195737 0.0195841 0.0194446 0.0192436 0.019627 0.0194271 0.0195763 0.0195652 0.0194063 0.0192659 0.0196987 0.0193898 0.0195718 0.0195762 0.0194429 0.01924 0.0196144 0.0194274 0.0195716 0.0195559 0.0193913 0.0192318 0.0196816 0.0193623 0.0195701 0.0195354 0.0193914 0.0191029 0.0195215 0.0194737 0.0197628 0.0197309 0.0194413 0.018965 0.0192845 0.0191073 0.0194749 0.0193566 0.0189502 0.018977 0.0192388 0.0191337 0.0192675 0.0192529 0.018971 0.0189923 0.0193138 0.0191535 0.0192824 0.01933 0.0189929 0.0190041 0.0193292 0.0191817 0.01929 0.0193362 0.0189896 0.018994 0.0193716 0.0191794 0.019278 0.0193151 0.0190074 0.0189957 0.0193581 0.0191609 0.0193188 0.0193029 0.0189944 0.01899 0.0193262 0.0191724 0.0193228 0.0193428 0.0189856 0.0190017 0.0193699 0.0191464 0.0193004 0.0193342 0.0190083 0.0189885 0.0193435 0.0191361 0.0193142 0.019358 0.0189876 0.0189925 0.0193741 0.0191411 0.0193055 0.0193334 0.0190067 0.018991 0.0193412 0.019134 0.0193044 0.019357 0.0189909 0.0189995 0.0193724 0.0191425 0.0193037 0.0193337 0.0190143 0.0190053 0.0193419 0.0191392 0.0193059 0.0193583 0.0190051 0.0190184 0.019372 0.0191508 0.0193084 0.0193366 0.0190285 0.0190265 0.0193436 0.019151 0.0193121 0.0193602 0.0190236 0.0190426 0.0193645 0.0191669 0.0193218 0.0193318 0.019047 0.0190327 0.019298 0.0191533 0.0193062 0.0193153 0.0190052 0.0189547 0.0190414 0.0191012 0.0192963 0.0189436 0.0189863 0.0188448 0.0190676 0.0188544 0.0189962 0.0190739 0.0187675 0.0188646 0.0189935 0.0189868 0.0190412 0.019086 0.0187501 0.0188631 0.019017 0.0189785 0.0190129 0.0190741 0.0187398 0.018871 0.019063 0.0190007 0.0190273 0.0190767 0.0187314 0.01887 0.0190737 0.0189907 0.0190313 0.0190838 0.018739 0.0188602 0.0190483 0.0190027 0.0190144 0.0190875 0.0187335 0.0188713 0.0190153 0.0189938 0.0190488 0.0191096 0.0187367 0.0188514 0.0190491 0.0190158 0.0190266 0.0191121 0.0187235 0.0188672 0.0190255 0.0190028 0.0190057 0.0190964 0.0187322 0.0188634 0.0190326 0.0189972 0.0190353 0.0191059 0.018726 0.0188552 0.0190261 0.0189892 0.018991 0.0190927 0.0187219 0.01887 0.0190357 0.0189956 0.0190328 0.0191078 0.0187365 0.01887 0.0190399 0.0189957 0.0190012 0.0190998 0.0187433 0.0188926 0.0190524 0.0190051 0.0190488 0.0191169 0.0187637 0.0188986 0.0190647 0.0190081 0.0190266 0.0191143 0.0187774 0.0189348 0.0190762 0.0190188 0.0190771 0.0191233 0.0188156 0.0189535 0.0190772 0.0190392 0.0190648 0.0190853 0.018848 0.0189545 0.0189166 0.0189928 0.0190679 0.0188644 0.0188224 0.0188422 0.018927 0.0188161 0.0186612 0.0188981 0.0186989 0.0188935 0.0189169 0.0189413 0.0189625 0.0189601 0.01872 0.0189015 0.0189013 0.0189684 0.0189452 0.0189644 0.0187312 0.0189087 0.0189018 0.0189658 0.0189428 0.0189737 0.0187214 0.0189144 0.0188957 0.0189834 0.0189537 0.0189749 0.0187308 0.0189231 0.0189079 0.0189893 0.0189587 0.0189525 0.0187353 0.0189172 0.0189003 0.0189882 0.0189489 0.0189775 0.0187304 0.0189194 0.0189141 0.0189975 0.0189526 0.0189732 0.0187186 0.0189112 0.0188846 0.0189922 0.0189481 0.0189777 0.0187208 0.0189155 0.0188944 0.0189835 0.0189439 0.0189757 0.0187108 0.0189017 0.0188792 0.0189833 0.0189367 0.0189684 0.0187106 0.0189167 0.0189007 0.0189866 0.0189441 0.0189779 0.0187149 0.0189126 0.0188988 0.018991 0.018948 0.0189774 0.0187286 0.0189367 0.0189302 0.0190007 0.018966 0.018994 0.0187406 0.0189358 0.0189318 0.0190076 0.0189743 0.0189927 0.0187585 0.0189649 0.018972 0.0190144 0.0189974 0.0190137 0.0187855 0.019005 0.0190018 0.0190306 0.0190043 0.0190016 0.0188866 0.0190519 0.0191088 0.019082 0.0190915 0.0190104 0.0189568 0.0189865 0.0189093 0.0189943 0.0185892 0.0188808 0.0187824 0.0190324 0.0190645 0.0190465 0.0190248 0.0189622 0.0188597 0.0190711 0.0190846 0.0191531 0.0190752 0.0190066 0.0188685 0.0191112 0.0190914 0.019119 0.0190949 0.0190029 0.018904 0.019109 0.0191067 0.0191646 0.0190997 0.0190321 0.0189087 0.019119 0.0190957 0.0191566 0.0191152 0.0190014 0.0189362 0.0191352 0.0190953 0.0191844 0.0191093 0.0190258 0.0189312 0.0191407 0.0190865 0.0191538 0.0191512 0.0190133 0.0189294 0.0191173 0.0190888 0.0191795 0.0191031 0.0190227 0.0189281 0.0191175 0.0190728 0.0191512 0.0191494 0.018994 0.0189265 0.019118 0.0191036 0.0191703 0.0191321 0.0190156 0.0188961 0.0191178 0.0190733 0.0191549 0.0190989 0.019015 0.0189261 0.0191182 0.0191162 0.0191506 0.0191394 0.0190256 0.0189107 0.019148 0.019096 0.0191652 0.0191157 0.0190348 0.0189421 0.0191365 0.0191402 0.0191665 0.0191567 0.0190447 0.0189321 0.0191611 0.0191102 0.0191742 0.0191236 0.0190517 0.0189613 0.0191399 0.0192004 0.0191463 0.0191713 0.0190795 0.0190249 0.0192046 0.0194308 0.0192629 0.0192478 0.0193469 0.0192431 0.0193021 0.019021 0.0199162 0.0189203 0.0189638 0.0190837 0.0192765 0.0194124 0.0194561 0.0192608 0.0191603 0.0191742 0.0193729 0.0194266 0.0194494 0.01936 0.0191699 0.0191614 0.0194061 0.019444 0.0195426 0.0193723 0.0192218 0.0191775 0.0194271 0.0194096 0.0194998 0.0193985 0.0192016 0.0192275 0.0194689 0.0194396 0.0195272 0.0193718 0.0192477 0.019174 0.0193974 0.0194248 0.0195347 0.0193851 0.0192217 0.0192178 0.0194204 0.0193916 0.0195437 0.0193855 0.0192458 0.0191956 0.0194696 0.0194079 0.019499 0.0193494 0.0192055 0.0192111 0.0194377 0.0193881 0.0194822 0.0193612 0.0192562 0.0191744 0.0194293 0.0193749 0.0195435 0.0194116 0.0192159 0.01921 0.0194991 0.0194317 0.0195218 0.0193854 0.0192384 0.0191925 0.0194454 0.0193949 0.0195593 0.0194313 0.0192163 0.0192237 0.0194934 0.0194442 0.0195421 0.0194311 0.019253 0.0192164 0.0194478 0.0194024 0.0195548 0.0194387 0.0192304 0.0192342 0.0195004 0.0194542 0.0195438 0.0194363 0.0192612 0.0192203 0.0193937 0.0193878 0.0195515 0.0194685 0.0192045 0.0192444 0.0192845 0.0197501 0.0194531 0.0195012 0.0196999 0.0194631 
SCALARS volume_diff float 1
LOOKUP_TABLE default
0.018539 0.0187006 0.0186315 0.0189204 0.0187058 0.0186933 0.01862 0.0185696 0.0184639 0.0184008 0.0185835 0.0187815 0.0186405 0.0186049 0.0184523 0.0184479 0.0186376 0.0187451 0.0185966 0.0186278 0.0184825 0.0184375 0.0186176 0.0188001 0.018643 0.0186127 0.0184411 0.0184496 0.0186416 0.0187483 0.0185969 0.0186241 0.0184712 0.0184251 0.018616 0.0187965 0.0186404 0.0186029 0.0184379 0.018438 0.0186327 0.0187432 0.018594 0.0186138 0.0184685 0.018418 0.0186087 0.0187893 0.0186361 0.0185955 0.0184387 0.018436 0.0186251 0.018737 0.0185905 0.0186086 0.0184696 0.0184201 0.0186041 0.0187827 0.0186312 0.0185937 0.0184386 0.0184376 0.0186213 0.0187326 0.0185858 0.0186084 0.0184659 0.0184204 0.0186006 0.0187799 0.0186251 0.0185958 0.0184304 0.0184334 0.018619 0.0187305 0.0185764 0.0186097 0.0184509 0.0184091 0.0185928 0.0187768 0.0186076 0.0185968 0.0184054 0.0184155 0.0186106 0.0187234 0.0185353 0.0186033 0.0184221 0.018373 0.0185599 0.0187574 0.018537 0.0185447 0.0183642 0.0183496 0.0185052 0.0186204 0.0184326 0.0182598 0.0183424 0.0182003 0.0181529 0.0190374 0.0182734 0.0182814 0.0183006 0.0183351 0.018407 0.0184023 0.0183853 0.0183437 0.0182992 0.0181501 0.018314 0.0184084 0.0183753 0.0183109 0.0182849 0.0181744 0.0182952 0.0184062 0.0183565 0.0183187 0.0182415 0.0181742 0.0183015 0.0183989 0.0183619 0.0183117 0.0182483 0.0181504 0.0182725 0.0184026 0.0183496 0.0183076 0.0182205 0.0181459 0.0182885 0.0183896 0.0183598 0.0183046 0.0182399 0.0181382 0.0182665 0.0183991 0.0183554 0.0183072 0.0182268 0.0181456 0.0182906 0.0183941 0.0183673 0.0183087 0.0182507 0.0181456 0.0182714 0.0184047 0.0183606 0.0183129 0.0182364 0.0181546 0.0182953 0.0183988 0.0183669 0.0183119 0.0182546 0.0181509 0.0182716 0.018404 0.0183515 0.0183109 0.0182306 0.0181528 0.0182879 0.0183899 0.0183474 0.0183032 0.0182395 0.0181395 0.0182541 0.0183854 0.0183184 0.018291 0.0182043 0.0181309 0.0182565 0.0183542 0.0183002 0.0182719 0.018208 0.0181101 0.0182033 0.0183284 0.0182667 0.0182381 0.0181773 0.018093 0.0182027 0.0182872 0.0183139 0.0182302 0.018222 0.0180833 0.0181767 0.0183122 0.0184338 0.0182918 0.0182381 0.0181229 0.0184692 0.018796 0.0183182 0.018194 0.0183452 0.018229 0.0183119 0.0182698 0.0182661 0.0181881 0.0182952 0.0181302 0.0182013 0.0182476 0.0182071 0.0181619 0.018241 0.0180902 0.0181758 0.0182227 0.0182062 0.0181491 0.0182234 0.0180492 0.0181415 0.0181697 0.0182097 0.0181322 0.0182126 0.0180346 0.0181568 0.0181694 0.01818 0.0181296 0.018202 0.0180091 0.0181269 0.0181426 0.018205 0.0181302 0.0182229 0.0180297 0.0181559 0.0181711 0.0181967 0.0181369 0.0182185 0.0180192 0.0181388 0.0181583 0.0182229 0.0181413 0.0182391 0.0180453 0.0181686 0.0181893 0.0182095 0.0181464 0.0182293 0.0180338 0.0181477 0.0181719 0.0182263 0.0181457 0.0182418 0.0180522 0.0181695 0.0181923 0.0182019 0.0181426 0.0182234 0.0180321 0.0181384 0.0181601 0.0182059 0.0181326 0.0182282 0.0180386 0.0181492 0.0181652 0.0181699 0.0181197 0.018205 0.0180101 0.018109 0.0181175 0.0181692 0.0181018 0.0182121 0.0180115 0.0181207 0.0181158 0.018151 0.0180949 0.0181979 0.0179838 0.0181129 0.0181024 0.0182248 0.0181245 0.0182323 0.0180136 0.0182099 0.0182284 0.018293 0.0182293 0.018205 0.0180464 0.0182379 0.0183201 0.0184885 0.0182371 0.0185968 0.0183506 0.018354 0.0183659 0.018358 0.0182006 0.0183502 0.018222 0.0182643 0.0183072 0.0183249 0.0181473 0.0183294 0.0181484 0.0182264 0.0182215 0.0183267 0.0181649 0.0183365 0.0181324 0.0182202 0.0182127 0.0183581 0.0181292 0.0183354 0.0181135 0.0182276 0.0182284 0.0183478 0.0181457 0.0183641 0.0181238 0.0182263 0.0182129 0.01836 0.0181348 0.0183668 0.0181356 0.018244 0.0182387 0.018357 0.0181588 0.018381 0.0181454 0.0182425 0.0182389 0.0183754 0.0181495 0.0183743 0.0181486 0.0182577 0.0182623 0.018367 0.0181688 0.0183867 0.0181585 0.0182482 0.0182544 0.0183783 0.0181526 0.0183739 0.0181541 0.0182568 0.0182675 0.0183638 0.0181635 0.0183809 0.0181555 0.0182409 0.018248 0.018367 0.0181395 0.0183639 0.0181419 0.018243 0.0182486 0.0183498 0.0181443 0.0183681 0.0181357 0.018227 0.0182209 0.01835 0.0181193 0.0183521 0.0181175 0.0182334 0.0182163 0.0183381 0.0181361 0.0183578 0.0181082 0.0182352 0.0182056 0.0183572 0.0181491 0.0183456 0.0180948 0.0182703 0.0182429 0.0182635 0.018198 0.0183211 0.0180742 0.0181845 0.0179832 0.0186863 0.0183779 0.0189187 0.0186131 0.0185161 0.0186253 0.0185529 0.0183386 0.0185076 0.0184347 0.0184133 0.0185383 0.0185703 0.0183171 0.0185305 0.0183862 0.0184236 0.0184541 0.0185728 0.0183061 0.0185609 0.0183793 0.0184305 0.018475 0.0186715 0.0183141 0.0185442 0.0183822 0.0184495 0.0184428 0.0185757 0.0183135 0.0185572 0.018386 0.018473 0.0184931 0.0186253 0.0183128 0.0186067 0.0184173 0.0184749 0.0185744 0.0186695 0.0183248 0.0186004 0.0184264 0.018477 0.0184829 0.0186463 0.0183257 0.0185975 0.0184204 0.0184779 0.0186011 0.0186741 0.0183319 0.0185895 0.0184332 0.0184775 0.0184908 0.0186507 0.0183273 0.0185945 0.0184243 0.0184761 0.018607 0.0186759 0.018327 0.0185847 0.0184319 0.0184745 0.0184878 0.0186513 0.0183177 0.0185862 0.0184165 0.0184664 0.0186035 0.018675 0.0183125 0.018573 0.0184194 0.0184662 0.0184735 0.0186493 0.0183011 0.0185714 0.0183988 0.0184551 0.0185901 0.0186762 0.0182966 0.0185554 0.0183936 0.0184553 0.0184416 0.018578 0.018289 0.0185311 0.0183555 0.0184095 0.0184596 0.0183309 0.0182562 0.0185315 0.0182588 0.0183478 0.0178406 0.0188147 0.0185259 0.0182708 0.0187873 0.0187148 0.0188624 0.0187493 0.0185191 0.0188174 0.0187989 0.0186787 0.0188455 0.0189729 0.0185326 0.0187656 0.0187174 0.0187364 0.0187986 0.0187812 0.0185555 0.0188879 0.0187814 0.0187122 0.0188345 0.0189564 0.0185308 0.0188331 0.0187282 0.0187869 0.0187929 0.0187769 0.0185572 0.0188926 0.0188049 0.0187105 0.0188801 0.0188724 0.0185505 0.0188383 0.0187684 0.0188116 0.018925 0.0187854 0.0185819 0.0188184 0.0187611 0.0187398 0.0188382 0.0189018 0.0185637 0.018788 0.0187327 0.0187946 0.0189324 0.0187734 0.0185803 0.0188054 0.0187642 0.0187355 0.0188409 0.0188972 0.0185606 0.0187812 0.0187295 0.0187932 0.018933 0.0187697 0.0185725 0.0187991 0.0187604 0.0187305 0.0188435 0.01889 0.0185527 0.0187719 0.018722 0.0187862 0.0189321 0.0187633 0.0185599 0.0187889 0.0187506 0.0187204 0.0188479 0.0188806 0.018539 0.0187581 0.0187107 0.0187698 0.0189352 0.0187521 0.0185406 0.0187716 0.0187388 0.018706 0.0188621 0.0188994 0.0184968 0.0187576 0.0187047 0.0187384 0.0188348 0.0189346 0.0184528 0.018853 0.0187263 0.018749 0.01823 0.0183981 0.0184743 0.0184572 0.0185509 0.0184833 0.0184198 0.0183343 0.0183393 0.0182823 0.0183235 0.0183888 0.0184501 0.0183094 0.0183409 0.0181853 0.0182593 0.0183967 0.0183784 0.018314 0.0183595 0.0181611 0.0182707 0.0183698 0.018383 0.0182955 0.0183347 0.0181505 0.0182634 0.0183919 0.0183685 0.0182954 0.0183283 0.0181471 0.0182431 0.018345 0.0183699 0.018282 0.0183126 0.0181309 0.0182428 0.0183753 0.0183554 0.018288 0.0183105 0.0181373 0.0182316 0.0183331 0.018363 0.0182811 0.0183051 0.0181296 0.0182382 0.0183688 0.0183556 0.0182917 0.0183111 0.0181412 0.0182345 0.0183347 0.0183665 0.018287 0.0183119 0.0181362 0.0182446 0.0183721 0.0183614 0.018296 0.0183213 0.0181468 0.018242 0.0183417 0.01837 0.018288 0.0183215 0.0181379 0.0182494 0.0183766 0.01836 0.0182887 0.0183261 0.018142 0.0182407 0.018341 0.0183641 0.0182697 0.0183189 0.0181259 0.0182414 0.018366 0.0183464 0.0182532 0.0183164 0.0181214 0.0182306 0.0183187 0.0183426 0.0182089 0.0182872 0.0180797 0.0182079 0.0182911 0.0182731 0.0181555 0.0181737 0.018009 0.0181154 0.0178049 0.0182176 0.0182166 0.0182162 0.0181515 0.0181435 0.0181869 0.0181881 0.0181719 0.0181664 0.0180755 0.0180486 0.018129 0.0181417 0.018151 0.0181563 0.0180392 0.0180163 0.0180849 0.0181392 0.0181059 0.0181357 0.0179863 0.018005 0.0180739 0.0181422 0.0181182 0.0181359 0.0179745 0.0180038 0.018058 0.0181283 0.0180872 0.0181205 0.0179521 0.0179893 0.0180582 0.018124 0.0181081 0.0181223 0.0179609 0.0179881 0.0180471 0.0181213 0.018087 0.0181147 0.0179519 0.0179856 0.0180577 0.0181249 0.0181137 0.0181244 0.0179681 0.0179917 0.0180524 0.0181273 0.0180954 0.0181206 0.0179616 0.0179919 0.0180649 0.0181325 0.0181201 0.0181315 0.0179749 0.0179982 0.0180585 0.0181317 0.0180971 0.0181259 0.0179635 0.017995 0.0180661 0.0181311 0.0181151 0.0181326 0.0179697 0.0179958 0.0180534 0.0181223 0.0180837 0.0181207 0.0179519 0.0179859 0.0180523 0.0181136 0.0180958 0.018118 0.0179541 0.0179827 0.0180343 0.0181006 0.018062 0.0181034 0.0179358 0.0179697 0.0180232 0.0180942 0.0180842 0.0180869 0.0179411 0.0179745 0.0179955 0.0180921 0.0180719 0.0180807 0.0179433 0.0179676 0.0180583 0.0181892 0.0181789 0.0180848 0.0180902 0.0180301 0.0180655 0.0181005 0.0181159 0.0180618 0.0180143 0.0179678 0.0179906 0.0180497 0.0180601 0.0180377 0.0179589 0.0179259 0.0179614 0.0180049 0.0180478 0.0180255 0.0179337 0.0179036 0.0179386 0.0179925 0.0180361 0.0180212 0.0179165 0.0178905 0.017935 0.017992 0.0180398 0.0180082 0.0179193 0.0178923 0.0179238 0.0179786 0.0180362 0.0180177 0.0179261 0.0178861 0.0179352 0.0179934 0.0180486 0.0180111 0.017934 0.0178986 0.0179321 0.0179896 0.0180459 0.0180233 0.0179402 0.0178956 0.0179454 0.0180043 0.0180566 0.0180174 0.0179447 0.0179056 0.0179399 0.0179976 0.0180498 0.0180278 0.0179443 0.0178994 0.0179488 0.0180058 0.0180551 0.0180189 0.0179419 0.0179038 0.0179369 0.0179912 0.0180426 0.0180248 0.017935 0.0178921 0.0179395 0.0179915 0.0180447 0.0180106 0.0179275 0.0178921 0.0179234 0.0179722 0.0180327 0.0180145 0.0179203 0.0178803 0.0179238 0.0179772 0.0180423 0.017998 0.0179141 0.0178864 0.017914 0.0179709 0.0180504 0.0180191 0.017927 0.0178905 0.0179442 0.0180058 0.0180759 0.0180238 0.0179604 0.0179177 0.018003 0.0180369 0.0182105 0.0180829 0.0181661 0.0180622 0.0180527 0.0181463 0.01813 0.0180451 0.0180408 0.0179908 0.0179866 0.0180854 0.0181044 0.018024 0.0180005 0.017955 0.0179627 0.01803 0.0181016 0.0180078 0.0179985 0.0179307 0.0179528 0.0180161 0.0181104 0.018011 0.0180093 0.0179283 0.0179516 0.0180095 0.0181183 0.0180114 0.0180218 0.0179365 0.0179569 0.0180158 0.0181249 0.0180163 0.0180334 0.0179376 0.0179664 0.0180229 0.0181353 0.0180208 0.0180422 0.0179527 0.0179723 0.018037 0.0181323 0.018026 0.0180516 0.0179517 0.0179796 0.0180356 0.0181405 0.0180252 0.0180481 0.0179584 0.0179785 0.0180438 0.0181321 0.0180277 0.0180504 0.0179514 0.0179795 0.0180338 0.0181361 0.018023 0.0180407 0.0179522 0.0179722 0.0180338 0.0181229 0.0180219 0.0180357 0.0179397 0.0179677 0.0180171 0.018126 0.0180146 0.0180234 0.0179378 0.0179586 0.0180154 0.0181152 0.0180146 0.0180179 0.017927 0.0179575 0.0180023 0.0181238 0.0180133 0.0180128 0.017933 0.0179542 0.0180118 0.0181236 0.0180268 0.0180284 0.0179366 0.0179809 0.0180076 0.0181266 0.0180435 0.0180648 0.0179586 0.0180144 0.0180072 0.0182813 0.0181625 0.0182617 0.0182002 0.0181477 0.0183045 0.0182717 0.0181411 0.0181472 0.018143 0.0181082 0.0182202 0.0182829 0.0181225 0.0181778 0.0181343 0.01811 0.0181993 0.018292 0.0181138 0.018201 0.0181223 0.0181157 0.0181976 0.0182873 0.0181152 0.0182227 0.0181347 0.0181199 0.0182104 0.0182992 0.0181254 0.0182234 0.0181404 0.0181463 0.0182169 0.0183133 0.0181365 0.0182493 0.0181378 0.0181439 0.0182364 0.0183235 0.0181428 0.0182463 0.0181606 0.0181538 0.0182407 0.018322 0.0181519 0.0182562 0.0181566 0.018151 0.0182402 0.0183215 0.0181455 0.0182499 0.01816 0.0181542 0.0182436 0.018317 0.018149 0.0182491 0.0181534 0.0181462 0.018236 0.0183126 0.018139 0.0182374 0.0181513 0.0181437 0.0182329 0.0183049 0.0181383 0.0182302 0.01814 0.0181314 0.0182205 0.0182974 0.0181294 0.0182161 0.0181355 0.0181266 0.0182126 0.0182875 0.0181286 0.0182092 0.018123 0.0181199 0.0181966 0.018279 0.01813 0.0182021 0.0181215 0.018124 0.0181746 0.0182764 0.0181311 0.0182185 0.0181118 0.0181363 0.0181379 0.0182779 0.0181341 0.0182825 0.0181408 0.0181768 0.0182195 0.0181916 0.0183219 0.0178245 0.0183727 0.0182882 0.0185355 0.0184808 0.0183439 0.0184551 0.0184295 0.0183324 0.0185461 0.0185441 0.0183198 0.0185148 0.0184815 0.0183665 0.0185581 0.0185785 0.0183213 0.0184856 0.018458 0.0184072 0.0186269 0.0185421 0.0183178 0.018529 0.0184864 0.0183825 0.0185785 0.0185242 0.0183305 0.0185876 0.0184598 0.0184165 0.0186001 0.0185455 0.0183281 0.018568 0.0184989 0.0184271 0.0186074 0.0186264 0.0183477 0.0185165 0.0184762 0.0184149 0.018592 0.0185742 0.01836 0.0185788 0.0185048 0.0184302 0.0185889 0.0186174 0.0183474 0.0185005 0.0184731 0.0184012 0.0185889 0.0185615 0.0183481 0.01856 0.0184991 0.0184187 0.0185871 0.0186048 0.0183353 0.0184821 0.0184634 0.0183874 0.0185834 0.0185445 0.0183326 0.0185374 0.0184861 0.0184007 0.0185787 0.0185877 0.0183216 0.018462 0.0184495 0.0183678 0.0185687 0.018523 0.0183194 0.0185163 0.0184733 0.0183854 0.0185546 0.0185734 0.0183105 0.0184585 0.0184386 0.0183571 0.0185326 0.0185151 0.0183385 0.0185419 0.0184781 0.0184419 0.0184657 0.0188043 0.0183703 0.0185659 0.0184851 0.0185742 0.0187904 0.0182311 0.0182895 0.0181591 0.0181919 0.018271 0.01826 0.0181599 0.0182707 0.0180936 0.0182404 0.0182328 0.0182296 0.0180961 0.0182222 0.0179974 0.0182243 0.0182019 0.0182302 0.0180865 0.0181899 0.0179784 0.0182178 0.0181777 0.0182306 0.0180582 0.0181743 0.0179548 0.0181995 0.018178 0.0182026 0.0180634 0.0181568 0.0179503 0.0181867 0.0181552 0.018203 0.0180321 0.0181443 0.0179283 0.0181776 0.0181554 0.0181855 0.0180481 0.0181356 0.0179332 0.0181757 0.0181409 0.018194 0.018027 0.018138 0.017922 0.0181766 0.0181523 0.0181862 0.0180529 0.0181408 0.0179375 0.0181809 0.0181476 0.0181999 0.0180378 0.0181517 0.0179331 0.0181873 0.0181651 0.0181966 0.0180655 0.0181577 0.0179514 0.0181911 0.0181625 0.0182089 0.0180497 0.0181681 0.0179467 0.0181964 0.0181771 0.0182019 0.0180704 0.018168 0.0179598 0.018196 0.018168 0.0182068 0.018046 0.0181684 0.0179498 0.0181911 0.0181742 0.0181942 0.018061 0.0181697 0.0179627 0.01819 0.0181656 0.0182008 0.0180439 0.0181935 0.0179601 0.0181965 0.0181766 0.0181765 0.018031 0.0181834 0.0179218 0.0181214 0.0179059 0.0180529 0.0180686 0.0181235 0.0179671 0.0179904 0.0180276 0.0180579 0.0180438 0.0181042 0.0179333 0.0179598 0.0179975 0.0180152 0.0180153 0.0180641 0.0178894 0.0179413 0.0179619 0.0179835 0.0179947 0.0180495 0.0178724 0.0179325 0.01796 0.017983 0.0179868 0.0180325 0.017855 0.0179274 0.017939 0.0179761 0.0179699 0.0180287 0.0178453 0.0179173 0.0179404 0.0179722 0.0179754 0.0180128 0.0178389 0.0179185 0.0179239 0.0179652 0.0179657 0.0180177 0.0178393 0.017914 0.017936 0.0179697 0.0179771 0.0180097 0.0178414 0.0179176 0.0179253 0.0179682 0.0179718 0.0180215 0.0178457 0.0179182 0.0179426 0.017976 0.0179842 0.018017 0.0178485 0.0179236 0.0179341 0.0179743 0.0179784 0.0180312 0.0178516 0.0179249 0.017951 0.0179796 0.0179887 0.0180266 0.017852 0.0179287 0.0179405 0.017974 0.0179786 0.0180373 0.0178525 0.0179263 0.0179522 0.0179739 0.0179845 0.0180257 0.017851 0.0179258 0.0179415 0.0179647 0.0179701 0.0180313 0.0178562 0.0179212 0.0179533 0.017966 0.0179789 0.0180113 0.0178558 0.0179256 0.0179354 0.0179537 0.0179527 0.0179858 0.0178604 0.0179013 0.0179176 0.0179426 0.0180069 0.0179883 0.0179055 0.0178958 0.017907 0.0179404 0.0179724 0.0179833 0.0178615 0.0178567 0.0178702 0.0178895 0.0179543 0.0179598 0.0178327 0.0178279 0.0178402 0.0178662 0.0179446 0.0179507 0.0178159 0.0178195 0.0178354 0.0178587 0.0179374 0.0179401 0.0178087 0.0178113 0.0178235 0.0178511 0.0179367 0.0179371 0.0178065 0.0178084 0.0178228 0.0178524 0.0179371 0.017934 0.0178092 0.0178089 0.0178187 0.0178513 0.01794 0.0179353 0.0178146 0.0178134 0.0178263 0.0178587 0.0179416 0.0179363 0.0178177 0.0178156 0.0178242 0.0178586 0.0179438 0.0179385 0.0178211 0.0178163 0.0178319 0.0178637 0.017945 0.01794 0.017821 0.0178174 0.0178282 0.0178602 0.0179459 0.0179434 0.0178209 0.0178173 0.0178341 0.017862 0.0179449 0.0179445 0.0178186 0.0178174 0.0178281 0.0178553 0.0179445 0.0179461 0.0178166 0.0178163 0.0178318 0.0178555 0.0179433 0.0179448 0.0178162 0.0178179 0.0178284 0.0178521 0.0179445 0.0179436 0.0178191 0.0178217 0.0178341 0.0178603 0.0179435 0.0179397 0.0178334 0.0178376 0.0178424 0.0178671 0.0179545 0.0179372 0.0178627 0.0178415 0.017877 0.0178828 0.0180371 0.0179646 0.0179492 0.0179154 0.0178919 0.0179513 0.0180003 0.0179469 0.0178931 0.0178619 0.0178544 0.0178984 0.0179867 0.0179397 0.0178665 0.0178316 0.0178333 0.0178661 0.0179813 0.017934 0.0178588 0.0178233 0.0178213 0.0178647 0.0179849 0.0179351 0.0178688 0.0178213 0.0178252 0.0178636 0.0179905 0.0179331 0.0178703 0.0178289 0.0178267 0.0178699 0.017996 0.017939 0.0178811 0.0178333 0.0178348 0.01788 0.0180003 0.0179399 0.0178888 0.0178415 0.0178381 0.0178838 0.0180012 0.0179405 0.0178874 0.0178441 0.0178424 0.0178911 0.0179997 0.01794 0.017895 0.0178438 0.0178431 0.0178845 0.018 0.0179406 0.0178858 0.0178427 0.0178422 0.0178882 0.0179968 0.0179406 0.0178885 0.0178391 0.0178395 0.0178771 0.017995 0.0179407 0.0178767 0.0178371 0.0178369 0.0178781 0.0179922 0.0179415 0.0178791 0.0178346 0.0178338 0.0178679 0.0179909 0.0179432 0.0178718 0.0178387 0.0178373 0.017874 0.0179971 0.0179501 0.0178859 0.0178446 0.0178438 0.0178763 0.0180058 0.0179564 0.0179052 0.01787 0.0178717 0.0179018 0.0180336 0.0179731 0.017964 0.0179013 0.0179168 0.0179373 0.0181362 0.0180537 0.0180396 0.0180337 0.0179622 0.0180689 0.0181284 0.0180334 0.0180194 0.0179856 0.0179442 0.0180222 0.0181139 0.0180188 0.0180078 0.0179608 0.0179348 0.0180108 0.0181116 0.018014 0.0180036 0.0179594 0.0179291 0.0180127 0.0181101 0.018016 0.018017 0.0179673 0.0179358 0.0180201 0.0181204 0.0180263 0.0180275 0.0179767 0.017945 0.0180292 0.0181247 0.0180282 0.0180434 0.0179761 0.0179565 0.0180365 0.018136 0.0180435 0.0180533 0.0179897 0.0179608 0.0180448 0.0181438 0.0180358 0.0180579 0.0179884 0.0179606 0.0180532 0.0181379 0.0180363 0.0180564 0.017986 0.0179615 0.018039 0.0181388 0.0180332 0.0180562 0.0179836 0.0179563 0.018046 0.0181274 0.0180312 0.0180444 0.0179777 0.0179525 0.0180252 0.0181265 0.0180288 0.0180396 0.0179721 0.0179455 0.0180297 0.0181165 0.018029 0.0180312 0.0179694 0.0179437 0.0180094 0.0181195 0.0180314 0.018036 0.0179693 0.0179467 0.0180148 0.0181217 0.0180436 0.0180495 0.0179837 0.0179664 0.0180027 0.0181603 0.0180569 0.0180867 0.0180054 0.0180085 0.0180405 0.0182083 0.0180931 0.018159 0.0180745 0.0180656 0.0181383 0.0182028 0.0182481 0.0179856 0.0182154 0.0180978 0.0183355 0.0182613 0.0181886 0.0182549 0.0182713 0.0181024 0.0183653 0.0182706 0.0181679 0.0182087 0.0182366 0.018103 0.0183813 0.0182672 0.0181618 0.0182094 0.0182376 0.0181149 0.0183737 0.0182872 0.0181735 0.0182203 0.0182379 0.0181401 0.0183752 0.0182878 0.0181655 0.0182558 0.0182573 0.0181429 0.0183764 0.0183135 0.018192 0.0182765 0.0182539 0.0181526 0.0183863 0.0183333 0.0181871 0.0182517 0.0182723 0.0181683 0.0183998 0.0183442 0.0182081 0.0182488 0.0182556 0.0181682 0.018397 0.0182982 0.0181986 0.0182582 0.0182563 0.0181515 0.0183884 0.0183203 0.0182071 0.0182324 0.018252 0.018146 0.0183946 0.0182726 0.0181863 0.0182263 0.0182431 0.0181304 0.0183811 0.0182941 0.0181945 0.0182034 0.0182391 0.0181258 0.0183812 0.0182511 0.0181805 0.0182046 0.0182318 0.0181172 0.018362 0.0182884 0.0181952 0.0181975 0.0182372 0.0181301 0.0183581 0.018266 0.0181917 0.0182301 0.0182502 0.0181477 0.0183414 0.0183576 0.0182433 0.0182568 0.0182885 0.0182275 0.0183819 0.0184748 0.0182859 0.0183749 0.0183689 0.0183602 0.0185646 0.0181193 0.018258 0.0180078 0.0180312 0.018255 0.0181932 0.0180945 0.018354 0.0180613 0.018305 0.0182686 0.0182461 0.0180611 0.0183141 0.0180145 0.0183249 0.0182688 0.0182324 0.0180394 0.0183476 0.0179933 0.0183102 0.0182489 0.0182088 0.018002 0.0183203 0.0179669 0.0183384 0.0182148 0.018225 0.0179974 0.0183067 0.0179658 0.0183071 0.0182293 0.0182079 0.0179716 0.0183109 0.017947 0.0182963 0.0181964 0.0182186 0.0179733 0.0182949 0.0179404 0.0183011 0.0182183 0.0182021 0.0179644 0.0183104 0.0179366 0.0182946 0.0181962 0.0182202 0.017977 0.0183016 0.0179421 0.0183059 0.0182275 0.0182088 0.0179772 0.018322 0.0179476 0.0183022 0.0182108 0.0182306 0.0179947 0.0183136 0.0179588 0.0183153 0.0182435 0.0182193 0.0179959 0.0183314 0.0179664 0.0183106 0.0182257 0.0182384 0.0180092 0.0183157 0.0179756 0.0183195 0.0182486 0.0182219 0.0180007 0.0183232 0.0179764 0.0183056 0.0182232 0.0182303 0.0180095 0.0183079 0.0179814 0.0183038 0.0182472 0.018216 0.0180231 0.0183285 0.0179908 0.0183027 0.0182719 0.0182363 0.0180524 0.018314 0.0180186 0.0183158 0.0182368 0.0181069 0.0179926 0.0181174 0.0178933 0.0179584 0.0179609 0.0179705 0.0179938 0.0181017 0.0178911 0.0179782 0.0180002 0.0179643 0.0179872 0.0180932 0.017888 0.0180008 0.0179957 0.0179538 0.0179639 0.0180577 0.0178739 0.0179821 0.0179642 0.0179464 0.0179647 0.0180674 0.0178671 0.0179895 0.017975 0.0179433 0.0179514 0.018049 0.0178617 0.0179756 0.017955 0.0179381 0.0179492 0.018043 0.0178519 0.0179684 0.0179593 0.017934 0.0179424 0.0180315 0.0178528 0.0179652 0.0179474 0.0179356 0.0179462 0.018038 0.0178454 0.01797 0.0179549 0.0179353 0.017946 0.0180337 0.0178564 0.0179678 0.0179518 0.0179414 0.0179522 0.0180453 0.01785 0.0179752 0.0179642 0.0179427 0.017955 0.0180461 0.017864 0.017976 0.0179644 0.0179495 0.0179627 0.01806 0.0178598 0.0179848 0.0179768 0.0179495 0.0179657 0.01806 0.0178743 0.0179844 0.0179756 0.0179528 0.0179699 0.0180662 0.0178707 0.0179886 0.0179841 0.0179472 0.0179716 0.0180587 0.0178869 0.0179821 0.0179825 0.0179471 0.0179744 0.0180622 0.0178881 0.0179797 0.0179828 0.0179337 0.017964 0.0180308 0.0178988 0.0179656 0.0179532 0.0179011 0.0179283 0.0179681 0.0178373 0.0178632 0.0178532 0.0178589 0.0179227 0.0179637 0.017826 0.0178478 0.0178519 0.017831 0.0179214 0.0179662 0.0178203 0.0178517 0.0178435 0.0178187 0.0179178 0.0179578 0.0178141 0.0178414 0.0178411 0.0178127 0.0179176 0.0179511 0.0178114 0.0178418 0.0178327 0.0178128 0.0179146 0.0179478 0.0178115 0.0178351 0.0178318 0.0178072 0.0179149 0.0179403 0.0178147 0.0178338 0.0178297 0.0178092 0.0179155 0.0179416 0.017812 0.0178339 0.0178275 0.0178123 0.0179156 0.0179431 0.0178183 0.0178345 0.0178347 0.0178125 0.0179173 0.0179421 0.0178165 0.0178323 0.0178291 0.0178144 0.0179177 0.0179457 0.0178178 0.0178327 0.0178388 0.0178139 0.0179215 0.0179496 0.0178185 0.0178356 0.0178359 0.0178171 0.0179232 0.0179564 0.0178219 0.0178398 0.0178462 0.0178171 0.0179289 0.0179619 0.0178242 0.0178444 0.0178446 0.017822 0.0179318 0.0179698 0.0178295 0.0178496 0.017856 0.0178238 0.0179393 0.0179751 0.0178366 0.0178556 0.0178619 0.0178318 0.017939 0.0179809 0.0178537 0.017867 0.0178662 0.0178394 0.0179461 0.0179705 0.0178762 0.0178713 0.0178804 0.0178485 0.0179631 0.0179248 0.017894 0.0178807 0.0178367 0.0178554 0.0179446 0.0179251 0.0178676 0.0178429 0.0178266 0.0178208 0.0179406 0.0179303 0.0178582 0.017829 0.0178131 0.0178091 0.0179496 0.0179375 0.0178466 0.0178249 0.017808 0.0178055 0.0179548 0.0179379 0.017854 0.0178286 0.0178136 0.0178111 0.0179556 0.0179377 0.0178609 0.0178337 0.0178159 0.0178127 0.0179617 0.0179398 0.0178695 0.0178375 0.0178195 0.0178203 0.0179639 0.0179433 0.0178695 0.0178369 0.0178225 0.0178246 0.01796 0.0179376 0.0178735 0.0178398 0.0178215 0.0178223 0.0179594 0.0179384 0.0178741 0.0178373 0.0178216 0.0178238 0.017961 0.0179361 0.0178693 0.0178377 0.0178217 0.0178194 0.01796 0.0179409 0.0178708 0.0178364 0.0178227 0.0178206 0.0179615 0.0179426 0.0178698 0.0178399 0.0178241 0.0178179 0.0179634 0.0179519 0.0178745 0.0178432 0.0178276 0.0178237 0.0179699 0.0179576 0.0178791 0.017852 0.0178354 0.0178296 0.0179797 0.0179728 0.0178921 0.0178615 0.0178483 0.0178456 0.0179928 0.0179835 0.0179166 0.0178879 0.017874 0.0178717 0.0180208 0.0180038 0.0179643 0.0179297 0.0179115 0.0179146 0.0181066 0.0180196 0.0180517 0.0180205 0.0179306 0.0179688 0.018063 0.0180072 0.0179985 0.0179479 0.0178926 0.0179348 0.0180469 0.0180024 0.0179853 0.0179144 0.0178849 0.0179096 0.0180377 0.0180116 0.0179678 0.0179133 0.0178811 0.0179233 0.0180518 0.0180195 0.0179879 0.0179359 0.017893 0.01793 0.0180637 0.0180253 0.017981 0.0179467 0.017901 0.0179499 0.0180737 0.0180292 0.0180232 0.0179604 0.0179145 0.017949 0.0180835 0.0180329 0.0180133 0.0179597 0.0179181 0.0179626 0.0180816 0.0180288 0.018021 0.0179586 0.017918 0.0179536 0.0180644 0.0180274 0.018017 0.0179538 0.0179152 0.0179523 0.0180702 0.018027 0.0180163 0.0179577 0.0179161 0.0179471 0.0180597 0.0180299 0.0180145 0.0179463 0.0179119 0.0179427 0.0180671 0.0180304 0.0180153 0.01796 0.0179178 0.0179379 0.0180629 0.0180401 0.0180174 0.0179507 0.0179172 0.0179406 0.0180782 0.0180447 0.0180305 0.017974 0.0179334 0.0179455 0.0180912 0.0180662 0.0180486 0.0179812 0.0179499 0.0179715 0.0181339 0.0180789 0.018086 0.0180251 0.0179894 0.01802 0.0181754 0.0181217 0.0181455 0.0180981 0.0180475 0.0181026 0.0182852 0.0182177 0.0183927 0.0182487 0.0180496 0.0182286 0.0181662 0.018131 0.0182568 0.0182099 0.0180103 0.0182192 0.0181208 0.0181077 0.018135 0.0181374 0.0179923 0.0181971 0.0180886 0.0181291 0.0181615 0.0181113 0.0180057 0.0182011 0.018133 0.0181458 0.018156 0.0181413 0.0180115 0.0182117 0.01817 0.0181904 0.0181842 0.0181662 0.0180428 0.0182085 0.0181459 0.0181801 0.0182331 0.0181447 0.0180624 0.0182529 0.0181908 0.0182018 0.0182121 0.0181729 0.0180898 0.0182359 0.0181798 0.0181928 0.0182012 0.0181649 0.018056 0.0182487 0.0181955 0.0181982 0.0182173 0.0181732 0.0180642 0.0182496 0.0181801 0.0181824 0.0182173 0.0181436 0.0180341 0.0182574 0.0181714 0.0182053 0.0181891 0.0181542 0.0180424 0.0182481 0.018158 0.0181803 0.0181912 0.0181394 0.018027 0.018248 0.0181666 0.0182132 0.0181886 0.0181584 0.0180472 0.0182416 0.0181718 0.0181937 0.0182065 0.0181551 0.0180505 0.0182505 0.0182076 0.0182416 0.0182322 0.0181956 0.0180935 0.0182686 0.0182329 0.0182287 0.0182607 0.0182314 0.0181326 0.0183236 0.0182532 0.0182959 0.018295 0.0183487 0.0182624 0.018377 0.0181356 0.0184629 0.0181859 0.0181263 0.0185342 0.0183163 0.0181988 0.0185205 0.0182081 0.0185348 0.0184908 0.0183696 0.0181929 0.0185755 0.0182535 0.0185405 0.0185758 0.0184013 0.0181791 0.0186108 0.0182473 0.0185714 0.0185281 0.0183822 0.0181732 0.0185639 0.0182485 0.0185487 0.01851 0.0183949 0.0181731 0.0186323 0.0182441 0.0185549 0.0185027 0.0183592 0.0181282 0.0186318 0.0182121 0.0185715 0.0185218 0.0183759 0.018146 0.0185796 0.0182009 0.0185623 0.0185076 0.0183499 0.0181172 0.0186448 0.0182078 0.0185631 0.0185258 0.0183792 0.0181487 0.0185841 0.0182029 0.0185676 0.0185131 0.0183552 0.0181277 0.018648 0.0182153 0.0185676 0.0185326 0.0183863 0.0181641 0.0185865 0.0182148 0.0185712 0.0185195 0.0183634 0.0181458 0.018646 0.0182295 0.0185708 0.0185365 0.0183926 0.0181788 0.018583 0.0182274 0.0185711 0.018516 0.018364 0.018152 0.0186312 0.0182402 0.018569 0.018525 0.0183856 0.0181731 0.0185599 0.0182276 0.0185596 0.018491 0.0183467 0.0181422 0.0185931 0.0182333 0.018544 0.0185088 0.0183766 0.0181895 0.0185063 0.0182164 0.0185899 0.0187122 0.0183503 0.0180236 0.0182076 0.0180113 0.0180945 0.0180881 0.0179834 0.0180585 0.0181933 0.0179987 0.0181032 0.0181385 0.0180409 0.0180519 0.0182402 0.0180326 0.0181545 0.0181685 0.0180306 0.0180466 0.0182372 0.0180284 0.0181637 0.0181602 0.0180411 0.0180513 0.0182456 0.0180359 0.0181816 0.01817 0.0180358 0.0180352 0.0182377 0.0180319 0.0181735 0.0181746 0.0180325 0.0180256 0.0181976 0.0180309 0.0181486 0.018139 0.0180163 0.018016 0.0182066 0.0180229 0.018148 0.0181493 0.018019 0.0180255 0.0181916 0.0180228 0.0181431 0.0181351 0.0180136 0.0180183 0.0182047 0.0180219 0.0181505 0.0181532 0.018024 0.0180277 0.0181974 0.0180276 0.018148 0.0181415 0.0180208 0.0180286 0.0182159 0.0180282 0.018158 0.0181633 0.0180345 0.0180427 0.0182128 0.018038 0.0181598 0.0181543 0.0180334 0.0180471 0.0182308 0.0180416 0.0181707 0.0181745 0.0180464 0.0180604 0.0182233 0.0180514 0.0181718 0.0181604 0.0180405 0.0180676 0.0182331 0.0180562 0.018178 0.0181672 0.0180452 0.0180757 0.0182041 0.0180629 0.0181598 0.0181289 0.0180281 0.0180592 0.0181617 0.0180286 0.0181279 0.0181205 0.0180399 0.0179532 0.0180458 0.0178916 0.0179387 0.0179445 0.0178781 0.0179785 0.0180495 0.0179209 0.0179652 0.0179643 0.0178767 0.0179771 0.0180434 0.0179382 0.0179749 0.0179771 0.0178652 0.0179883 0.0180653 0.017938 0.0179813 0.0179914 0.0178684 0.0179834 0.0180398 0.0179466 0.017972 0.0179816 0.0178574 0.0179834 0.0180426 0.0179504 0.0179715 0.0179852 0.0178567 0.0179801 0.0180313 0.017951 0.0179644 0.0179803 0.0178538 0.0179824 0.0180382 0.0179475 0.0179662 0.0179834 0.0178484 0.0179789 0.01804 0.0179527 0.0179722 0.0179778 0.0178595 0.0179803 0.0180371 0.017946 0.0179682 0.0179813 0.01785 0.0179792 0.0180358 0.0179471 0.0179605 0.0179806 0.0178577 0.0179862 0.018046 0.0179486 0.0179725 0.0179893 0.017857 0.0179904 0.0180518 0.0179547 0.0179728 0.0179912 0.0178691 0.0180026 0.0180668 0.017958 0.0179893 0.018003 0.0178731 0.018011 0.0180753 0.0179645 0.0179918 0.0180013 0.017888 0.0180332 0.0180957 0.0179689 0.0180134 0.0180132 0.0179025 0.0180417 0.0181025 0.0179897 0.0180162 0.0179985 0.0179168 0.0180308 0.0181041 0.0179951 0.0179958 0.0179871 0.0179187 0.0179789 0.0179764 0.0179467 0.0179261 0.0178934 0.0178588 0.0179967 0.0180012 0.0179556 0.0179322 0.0179187 0.01785 0.0180055 0.0180097 0.0179547 0.0179569 0.0179122 0.0178494 0.0180062 0.0180102 0.0179623 0.017939 0.0179185 0.0178431 0.0180232 0.0180191 0.0179731 0.017955 0.0179339 0.017855 0.0180147 0.018008 0.0179842 0.0179407 0.0179357 0.0178501 0.018024 0.01802 0.0179853 0.0179621 0.0179354 0.0178541 0.0180299 0.0180155 0.0179921 0.0179499 0.0179358 0.0178542 0.0180193 0.0180152 0.0179888 0.0179522 0.0179327 0.0178541 0.018023 0.0180102 0.01799 0.0179489 0.017931 0.0178531 0.0180128 0.0180145 0.0179849 0.0179419 0.017932 0.0178492 0.0180258 0.0180152 0.0179846 0.0179428 0.0179351 0.0178535 0.0180201 0.0180262 0.0179914 0.0179517 0.0179404 0.017859 0.0180415 0.0180354 0.0179937 0.0179595 0.017949 0.0178697 0.0180382 0.0180516 0.0180061 0.0179726 0.0179542 0.0178859 0.0180715 0.0180734 0.0179996 0.0179838 0.0179656 0.0179107 0.0180795 0.018094 0.0180311 0.0180162 0.0179767 0.0179476 0.018093 0.0181557 0.0180897 0.0180498 0.0180162 0.0179913 0.0181327 0.01804 0.018181 0.0180818 0.0179731 0.017958 0.018104 0.0180821 0.0180842 0.0179929 0.0179723 0.0179405 0.0180997 0.0180866 0.0180968 0.0180155 0.0179658 0.0179466 0.0181281 0.0181113 0.0180929 0.0180379 0.0179764 0.0179577 0.0181431 0.0181197 0.0181035 0.0180412 0.0179857 0.0179682 0.0181455 0.0181224 0.018144 0.0180712 0.0180131 0.0179832 0.0181389 0.0181288 0.0181472 0.0180753 0.0180022 0.0179889 0.0181678 0.018131 0.0181488 0.0180851 0.0180157 0.0179926 0.0181461 0.0181236 0.018144 0.0180767 0.018006 0.0179894 0.0181437 0.0181159 0.0181432 0.0180733 0.0180094 0.0179794 0.0181441 0.0181183 0.0181542 0.0180634 0.0180035 0.0179786 0.018149 0.0181204 0.0181362 0.0180663 0.0180154 0.0179753 0.0181428 0.0181239 0.0181536 0.0180706 0.0180106 0.0179865 0.018167 0.0181411 0.0181455 0.0180819 0.0180312 0.0179907 0.0181631 0.0181472 0.0181702 0.0180912 0.0180286 0.0180162 0.0181948 0.0181693 0.0181562 0.018108 0.0180572 0.0180351 0.0181979 0.0181739 0.0181744 0.018119 0.018051 0.0180981 0.0182192 0.0182715 0.0182502 0.0182234 0.0181661 0.0181832 0.0184071 0.0182232 0.0189385 0.0184636 0.0180989 0.0182358 0.0182605 0.0182339 0.0183458 0.0182207 0.0180654 0.0181896 0.0182071 0.0182807 0.0182948 0.0181721 0.0180725 0.0181567 0.0183044 0.018311 0.0183546 0.0182403 0.0180937 0.018182 0.0182923 0.0183128 0.0184136 0.0182738 0.0181457 0.0181816 0.0183063 0.0183367 0.0184153 0.0182456 0.0181605 0.018239 0.0183842 0.018339 0.018439 0.0183038 0.0181633 0.0182212 0.0183269 0.0183347 0.0184909 0.0183211 0.0181723 0.0182621 0.0183572 0.0183308 0.0184181 0.0183029 0.0181737 0.0182061 0.0183069 0.0183193 0.0184746 0.0182735 0.0181603 0.018212 0.0182982 0.0183428 0.0184991 0.0182962 0.0181502 0.0182417 0.0183546 0.0183522 0.0184687 0.0182794 0.0181541 0.0182253 0.0182786 0.0183475 0.0185116 0.0183163 0.0181603 0.0182372 0.0183624 0.0183765 0.018481 0.0182984 0.0181664 0.0182418 0.0182883 0.0183639 0.0185207 0.0183353 0.0181781 0.0182648 0.018377 0.0183922 0.0184916 0.018319 0.0181851 0.0182847 0.0182594 0.0183727 0.0185403 0.0183835 0.0181645 0.01833 0.0182178 0.018401 0.0184117 0.0184557 0.0183572 0.0183554 0.0183175 0.0188217 0.0186698 0.0189392 0.0189881 0.0186935 0.0184258 0.0188635 0.0186264 0.0188395 0.0187028 0.01858 0.0185042 0.0187571 0.0185945 0.018733 0.018887 0.0187046 0.0184747 0.018877 0.0187022 0.0188741 0.0187183 0.0185946 0.0185007 0.0187615 0.0185425 0.0187541 0.0188566 0.0186488 0.0185226 0.0187714 0.0186667 0.0187573 0.0188342 0.0186062 0.0184732 0.0189373 0.0185704 0.0188407 0.0188143 0.0186631 0.0184566 0.0188578 0.018641 0.0188054 0.0187973 0.0186353 0.0184816 0.0189441 0.0186085 0.0188054 0.0188157 0.018672 0.0184593 0.018866 0.0186509 0.0188119 0.0187998 0.0186354 0.0184846 0.0189438 0.0186119 0.0188047 0.0188159 0.0186723 0.0184647 0.0188625 0.0186534 0.0188096 0.0187983 0.0186361 0.0184909 0.0189369 0.0186152 0.0188021 0.0188124 0.018673 0.018472 0.0188554 0.0186555 0.0188047 0.0187936 0.0186347 0.0184943 0.0189271 0.0186182 0.0188002 0.0188046 0.0186713 0.0184684 0.0188428 0.0186558 0.0188 0.0187843 0.0186197 0.0184602 0.0189099 0.0185907 0.0187984 0.0187638 0.0186198 0.0183313 0.0187499 0.0187021 0.0189912 0.0189593 0.0186697 0.0181934 0.0185129 0.0183357 0.0187032 0.018585 0.0181786 0.0182054 0.0184672 0.0183621 0.0184959 0.0184813 0.0181994 0.0182207 0.0185422 0.0183819 0.0185108 0.0185584 0.0182213 0.0182325 0.0185576 0.0184101 0.0185184 0.0185646 0.018218 0.0182224 0.0186 0.0184078 0.0185064 0.0185435 0.0182358 0.018224 0.0185865 0.0183893 0.0185472 0.0185312 0.0182228 0.0182184 0.0185546 0.0184008 0.0185512 0.0185712 0.018214 0.0182301 0.0185983 0.0183748 0.0185288 0.0185626 0.0182367 0.0182169 0.0185719 0.0183645 0.0185426 0.0185864 0.018216 0.0182209 0.0186025 0.0183695 0.0185339 0.0185618 0.0182351 0.0182194 0.0185696 0.0183624 0.0185328 0.0185854 0.0182193 0.0182279 0.0186008 0.0183709 0.0185321 0.0185621 0.0182427 0.0182337 0.0185703 0.0183676 0.0185343 0.0185867 0.0182335 0.0182468 0.0186004 0.0183792 0.0185368 0.018565 0.0182569 0.0182549 0.018572 0.0183794 0.0185405 0.0185886 0.018252 0.018271 0.0185928 0.0183953 0.0185502 0.0185602 0.0182754 0.0182611 0.0185264 0.0183817 0.0185346 0.0185437 0.0182336 0.0181831 0.0182698 0.0183296 0.0185247 0.018172 0.0182147 0.0180732 0.018296 0.0180828 0.0182246 0.0183023 0.0179959 0.018093 0.0182219 0.0182152 0.0182696 0.0183144 0.0179785 0.0180915 0.0182454 0.0182069 0.0182413 0.0183025 0.0179682 0.0180994 0.0182914 0.018229 0.0182557 0.0183051 0.0179598 0.0180984 0.0183021 0.0182191 0.0182597 0.0183122 0.0179674 0.0180886 0.0182767 0.0182311 0.0182428 0.0183159 0.0179619 0.0180997 0.0182437 0.0182222 0.0182772 0.018338 0.0179651 0.0180798 0.0182775 0.0182442 0.018255 0.0183405 0.0179519 0.0180956 0.0182538 0.0182312 0.0182341 0.0183248 0.0179606 0.0180918 0.018261 0.0182256 0.0182637 0.0183343 0.0179544 0.0180836 0.0182545 0.0182176 0.0182194 0.0183211 0.0179503 0.0180984 0.0182641 0.018224 0.0182612 0.0183362 0.0179649 0.0180984 0.0182683 0.0182241 0.0182296 0.0183282 0.0179717 0.018121 0.0182808 0.0182335 0.0182772 0.0183453 0.0179921 0.018127 0.0182931 0.0182365 0.018255 0.0183427 0.0180058 0.0181632 0.0183046 0.0182472 0.0183055 0.0183517 0.018044 0.0181819 0.0183056 0.0182676 0.0182931 0.0183137 0.0180764 0.0181829 0.018145 0.0182212 0.0182963 0.0180928 0.0180508 0.0180706 0.0181554 0.0180445 0.0178896 0.0181265 0.0179273 0.0181219 0.0181452 0.0181697 0.0181909 0.0181885 0.0179484 0.0181299 0.0181297 0.0181968 0.0181736 0.0181928 0.0179596 0.0181371 0.0181302 0.0181941 0.0181712 0.0182021 0.0179498 0.0181428 0.0181241 0.0182118 0.0181821 0.0182033 0.0179592 0.0181515 0.0181363 0.0182177 0.0181871 0.0181809 0.0179637 0.0181456 0.0181286 0.0182166 0.0181773 0.0182059 0.0179588 0.0181478 0.0181425 0.0182259 0.018181 0.0182016 0.017947 0.0181396 0.018113 0.0182206 0.0181765 0.0182061 0.0179492 0.0181439 0.0181228 0.0182118 0.0181723 0.0182041 0.0179392 0.0181301 0.0181076 0.0182117 0.0181651 0.0181968 0.017939 0.0181451 0.0181291 0.018215 0.0181725 0.0182063 0.0179433 0.018141 0.0181272 0.0182194 0.0181764 0.0182058 0.017957 0.0181651 0.0181586 0.0182291 0.0181944 0.0182224 0.017969 0.0181642 0.0181602 0.018236 0.0182026 0.0182211 0.0179869 0.0181933 0.0182004 0.0182428 0.0182258 0.0182421 0.0180139 0.0182334 0.0182302 0.018259 0.0182327 0.01823 0.018115 0.0182803 0.0183372 0.0183104 0.0183199 0.0182388 0.0181852 0.0182149 0.0181377 0.0182227 0.0178176 0.0181091 0.0180108 0.0182608 0.0182929 0.0182749 0.0182532 0.0181906 0.0180881 0.0182995 0.018313 0.0183815 0.0183036 0.018235 0.0180969 0.0183396 0.0183198 0.0183474 0.0183233 0.0182313 0.0181324 0.0183374 0.0183351 0.018393 0.0183281 0.0182605 0.0181371 0.0183474 0.0183241 0.018385 0.0183436 0.0182298 0.0181646 0.0183636 0.0183237 0.0184128 0.0183377 0.0182542 0.0181596 0.0183691 0.0183149 0.0183822 0.0183796 0.0182417 0.0181578 0.0183457 0.0183172 0.0184079 0.0183315 0.0182511 0.0181565 0.0183459 0.0183012 0.0183795 0.0183778 0.0182224 0.0181549 0.0183464 0.018332 0.0183987 0.0183605 0.018244 0.0181245 0.0183462 0.0183017 0.0183833 0.0183273 0.0182434 0.0181545 0.0183466 0.0183446 0.0183789 0.0183677 0.018254 0.0181391 0.0183764 0.0183244 0.0183936 0.0183441 0.0182632 0.0181705 0.0183649 0.0183685 0.0183949 0.0183851 0.0182731 0.0181605 0.0183895 0.0183386 0.0184026 0.018352 0.0182801 0.0181897 0.0183683 0.0184288 0.0183747 0.0183996 0.0183079 0.0182533 0.018433 0.0186592 0.0184913 0.0184762 0.0185753 0.0184715 0.0185305 0.0182494 0.0191446 0.0181487 0.0181922 0.0183121 0.0185048 0.0186408 0.0186845 0.0184892 0.0183887 0.0184026 0.0186013 0.0186549 0.0186778 0.0185884 0.0183983 0.0183898 0.0186345 0.0186724 0.018771 0.0186007 0.0184502 0.0184059 0.0186555 0.018638 0.0187281 0.0186269 0.01843 0.0184559 0.0186973 0.0186679 0.0187556 0.0186002 0.0184761 0.0184024 0.0186258 0.0186532 0.0187631 0.0186135 0.0184501 0.0184462 0.0186488 0.01862 0.0187721 0.0186139 0.0184742 0.018424 0.018698 0.0186363 0.0187274 0.0185778 0.0184339 0.0184395 0.0186661 0.0186165 0.0187106 0.0185896 0.0184846 0.0184028 0.0186577 0.0186033 0.0187719 0.01864 0.0184442 0.0184384 0.0187275 0.0186601 0.0187502 0.0186138 0.0184668 0.0184209 0.0186738 0.0186233 0.0187877 0.0186597 0.0184447 0.0184521 0.0187217 0.0186726 0.0187705 0.0186595 0.0184814 0.0184448 0.0186762 0.0186308 0.0187832 0.0186671 0.0184588 0.0184626 0.0187288 0.0186826 0.0187722 0.0186647 0.0184896 0.0184487 0.0186221 0.0186162 0.0187799 0.0186969 0.0184329 0.0184728 0.0185129 0.0189785 0.0186815 0.0187296 0.0189283 0.0186915 
