# vtk DataFile Version 5.1
vtk output
ASCII

DATASET UNSTRUCTURED_GRID
POINTS 6253 float
0 0 4.5
0.166667 0 4.5
0.333333 0 4.5
0.5 0 4.5
0.666667 0 4.5
0.833333 0 4.5
1 0 4.5
1.16667 0 4.5
1.33333 0 4.5
1.5 0 4.5
1.66667 0 4.5
1.83333 0 4.5
2 0 4.5
2.16667 0 4.5
2.33333 0 4.5
2.5 0 4.5
2.66667 0 4.5
2.83333 0 4.5
3 0 4.5
0 0.166667 4.5
0.166667 0.166667 4.5
0.333333 0.166667 4.5
0.5 0.166667 4.5
0.666667 0.166667 4.5
0.833333 0.166667 4.5
1 0.166667 4.5
1.16667 0.166667 4.5
1.33333 0.166667 4.5
1.5 0.166667 4.5
1.66667 0.166667 4.5
1.83333 0.166667 4.5
2 0.166667 4.5
2.16667 0.166667 4.5
2.33333 0.166667 4.5
2.5 0.166667 4.5
2.66667 0.166667 4.5
2.83333 0.166667 4.5
3 0.166667 4.5
0 0.333333 4.5
0.166667 0.333333 4.5
0.333333 0.333333 4.5
0.5 0.333333 4.5
0.666667 0.333333 4.5
0.833333 0.333333 4.5
1 0.333333 4.5
1.16667 0.333333 4.5
1.33333 0.333333 4.5
1.5 0.333333 4.5
1.66667 0.333333 4.5
1.83333 0.333333 4.5
2 0.333333 4.5
2.16667 0.333333 4.5
2.33333 0.333333 4.5
2.5 0.333333 4.5
2.66667 0.333333 4.5
2.83333 0.333333 4.5
3 0.333333 4.5
0 0.5 4.5
0.166667 0.5 4.5
0.333333 0.5 4.5
0.5 0.5 4.5
0.666667 0.5 4.5
0.833333 0.5 4.5
1 0.5 4.5
1.16667 0.5 4.5
1.33333 0.5 4.5
1.5 0.5 4.5
1.66667 0.5 4.5
1.83333 0.5 4.5
2 0.5 4.5
2.16667 0.5 4.5
2.33333 0.5 4.5
2.5 0.5 4.5
2.66667 0.5 4.5
2.83333 0.5 4.5
3 0.5 4.5
0 0.666667 4.5
0.166667 0.666667 4.5
0.333333 0.666667 4.5
0.5 0.666667 4.5
0.666667 0.666667 4.5
0.833333 0.666667 4.5
1 0.666667 4.5
1.16667 0.666667 4.5
1.33333 0.666667 4.5
1.5 0.666667 4.5
1.66667 0.666667 4.5
1.83333 0.666667 4.5
2 0.666667 4.5
2.16667 0.666667 4.5
2.33333 0.666667 4.5
2.5 0.666667 4.5
2.66667 0.666667 4.5
2.83333 0.666667 4.5
3 0.666667 4.5
0 0.833333 4.5
0.166667 0.833333 4.5
0.333333 0.833333 4.5
0.5 0.833333 4.5
0.666667 0.833333 4.5
0.833333 0.833333 4.5
1 0.833333 4.5
1.16667 0.833333 4.5
1.33333 0.833333 4.5
1.5 0.833333 4.5
1.66667 0.833333 4.5
1.83333 0.833333 4.5
2 0.833333 4.5
2.16667 0.833333 4.5
2.33333 0.833333 4.5
2.5 0.833333 4.5
2.66667 0.833333 4.5
2.83333 0.833333 4.5
3 0.833333 4.5
0 1 4.5
0.166667 1 4.5
0.333333 1 4.5
0.5 1 4.5
0.666667 1 4.5
0.833333 1 4.5
1 1 4.5
1.16667 1 4.5
1.33333 1 4.5
1.5 1 4.5
1.66667 1 4.5
1.83333 1 4.5
2 1 4.5
2.16667 1 4.5
2.33333 1 4.5
2.5 1 4.5
2.66667 1 4.5
2.83333 1 4.5
3 1 4.5
0 0 4.66667
0.166667 0 4.66667
0.333333 0 4.66667
0.5 0 4.66667
0.666667 0 4.66667
0.833333 0 4.66667
1 0 4.66667
1.16667 0 4.66667
1.33333 0 4.66667
1.5 0 4.66667
1.66667 0 4.66667
1.83333 0 4.66667
2 0 4.66667
2.16667 0 4.66667
2.33333 0 4.66667
2.5 0 4.66667
2.66667 0 4.66667
2.83333 0 4.66667
3 0 4.66667
0 0.166667 4.66667
0.166667 0.166667 4.66667
0.333333 0.166667 4.66667
0.5 0.166667 4.66667
0.666667 0.166667 4.66667
0.833333 0.166667 4.66667
1 0.166667 4.66667
1.16667 0.166667 4.66667
1.33333 0.166667 4.66667
1.5 0.166667 4.66667
1.66667 0.166667 4.66667
1.83333 0.166667 4.66667
2 0.166667 4.66667
2.16667 0.166667 4.66667
2.33333 0.166667 4.66667
2.5 0.166667 4.66667
2.66667 0.166667 4.66667
2.83333 0.166667 4.66667
3 0.166667 4.66667
0 0.333333 4.66667
0.166667 0.333333 4.66667
0.333333 0.333333 4.66667
0.5 0.333333 4.66667
0.666667 0.333333 4.66667
0.833333 0.333333 4.66667
1 0.333333 4.66667
1.16667 0.333333 4.66667
1.33333 0.333333 4.66667
1.5 0.333333 4.66667
1.66667 0.333333 4.66667
1.83333 0.333333 4.66667
2 0.333333 4.66667
2.16667 0.333333 4.66667
2.33333 0.333333 4.66667
2.5 0.333333 4.66667
2.66667 0.333333 4.66667
2.83333 0.333333 4.66667
3 0.333333 4.66667
0 0.5 4.66667
0.166667 0.5 4.66667
0.333333 0.5 4.66667
0.5 0.5 4.66667
0.666667 0.5 4.66667
0.833333 0.5 4.66667
1 0.5 4.66667
1.16667 0.5 4.66667
1.33333 0.5 4.66667
1.5 0.5 4.66667
1.66667 0.5 4.66667
1.83333 0.5 4.66667
2 0.5 4.66667
2.16667 0.5 4.66667
2.33333 0.5 4.66667
2.5 0.5 4.66667
2.66667 0.5 4.66667
2.83333 0.5 4.66667
3 0.5 4.66667
0 0.666667 4.66667
0.166667 0.666667 4.66667
0.333333 0.666667 4.66667
0.5 0.666667 4.66667
0.666667 0.666667 4.66667
0.833333 0.666667 4.66667
1 0.666667 4.66667
1.16667 0.666667 4.66667
1.33333 0.666667 4.66667
1.5 0.666667 4.66667
1.66667 0.666667 4.66667
1.83333 0.666667 4.66667
2 0.666667 4.66667
2.16667 0.666667 4.66667
2.33333 0.666667 4.66667
2.5 0.666667 4.66667
2.66667 0.666667 4.66667
2.83333 0.666667 4.66667
3 0.666667 4.66667
0 0.833333 4.66667
0.166667 0.833333 4.66667
0.333333 0.833333 4.66667
0.5 0.833333 4.66667
0.666667 0.833333 4.66667
0.833333 0.833333 4.66667
1 0.833333 4.66667
1.16667 0.833333 4.66667
1.33333 0.833333 4.66667
1.5 0.833333 4.66667
1.66667 0.833333 4.66667
1.83333 0.833333 4.66667
2 0.833333 4.66667
2.16667 0.833333 4.66667
2.33333 0.833333 4.66667
2.5 0.833333 4.66667
2.66667 0.833333 4.66667
2.83333 0.833333 4.66667
3 0.833333 4.66667
0 1 4.66667
0.166667 1 4.66667
0.333333 1 4.66667
0.5 1 4.66667
0.666667 1 4.66667
0.833333 1 4.66667
1 1 4.66667
1.16667 1 4.66667
1.33333 1 4.66667
1.5 1 4.66667
1.66667 1 4.66667
1.83333 1 4.66667
2 1 4.66667
2.16667 1 4.66667
2.33333 1 4.66667
2.5 1 4.66667
2.66667 1 4.66667
2.83333 1 4.66667
3 1 4.66667
0 0 4.83333
0.166667 0 4.83333
0.333333 0 4.83333
0.5 0 4.83333
0.666667 0 4.83333
0.833333 0 4.83333
1 0 4.83333
1.16667 0 4.83333
1.33333 0 4.83333
1.5 0 4.83333
1.66667 0 4.83333
1.83333 0 4.83333
2 0 4.83333
2.16667 0 4.83333
2.33333 0 4.83333
2.5 0 4.83333
2.66667 0 4.83333
2.83333 0 4.83333
3 0 4.83333
0 0.166667 4.83333
0.166667 0.166667 4.83333
0.333333 0.166667 4.83333
0.5 0.166667 4.83333
0.666667 0.166667 4.83333
0.833333 0.166667 4.83333
1 0.166667 4.83333
1.16667 0.166667 4.83333
1.33333 0.166667 4.83333
1.5 0.166667 4.83333
1.66667 0.166667 4.83333
1.83333 0.166667 4.83333
2 0.166667 4.83333
2.16667 0.166667 4.83333
2.33333 0.166667 4.83333
2.5 0.166667 4.83333
2.66667 0.166667 4.83333
2.83333 0.166667 4.83333
3 0.166667 4.83333
0 0.333333 4.83333
0.166667 0.333333 4.83333
0.333333 0.333333 4.83333
0.5 0.333333 4.83333
0.666667 0.333333 4.83333
0.833333 0.333333 4.83333
1 0.333333 4.83333
1.16667 0.333333 4.83333
1.33333 0.333333 4.83333
1.5 0.333333 4.83333
1.66667 0.333333 4.83333
1.83333 0.333333 4.83333
2 0.333333 4.83333
2.16667 0.333333 4.83333
2.33333 0.333333 4.83333
2.5 0.333333 4.83333
2.66667 0.333333 4.83333
2.83333 0.333333 4.83333
3 0.333333 4.83333
0 0.5 4.83333
0.166667 0.5 4.83333
0.333333 0.5 4.83333
0.5 0.5 4.83333
0.666667 0.5 4.83333
0.833333 0.5 4.83333
1 0.5 4.83333
1.16667 0.5 4.83333
1.33333 0.5 4.83333
1.5 0.5 4.83333
1.66667 0.5 4.83333
1.83333 0.5 4.83333
2 0.5 4.83333
2.16667 0.5 4.83333
2.33333 0.5 4.83333
2.5 0.5 4.83333
2.66667 0.5 4.83333
2.83333 0.5 4.83333
3 0.5 4.83333
0 0.666667 4.83333
0.166667 0.666667 4.83333
0.333333 0.666667 4.83333
0.5 0.666667 4.83333
0.666667 0.666667 4.83333
0.833333 0.666667 4.83333
1 0.666667 4.83333
1.16667 0.666667 4.83333
1.33333 0.666667 4.83333
1.5 0.666667 4.83333
1.66667 0.666667 4.83333
1.83333 0.666667 4.83333
2 0.666667 4.83333
2.16667 0.666667 4.83333
2.33333 0.666667 4.83333
2.5 0.666667 4.83333
2.66667 0.666667 4.83333
2.83333 0.666667 4.83333
3 0.666667 4.83333
0 0.833333 4.83333
0.166667 0.833333 4.83333
0.333333 0.833333 4.83333
0.5 0.833333 4.83333
0.666667 0.833333 4.83333
0.833333 0.833333 4.83333
1 0.833333 4.83333
1.16667 0.833333 4.83333
1.33333 0.833333 4.83333
1.5 0.833333 4.83333
1.66667 0.833333 4.83333
1.83333 0.833333 4.83333
2 0.833333 4.83333
2.16667 0.833333 4.83333
2.33333 0.833333 4.83333
2.5 0.833333 4.83333
2.66667 0.833333 4.83333
2.83333 0.833333 4.83333
3 0.833333 4.83333
0 1 4.83333
0.166667 1 4.83333
0.333333 1 4.83333
0.5 1 4.83333
0.666667 1 4.83333
0.833333 1 4.83333
1 1 4.83333
1.16667 1 4.83333
1.33333 1 4.83333
1.5 1 4.83333
1.66667 1 4.83333
1.83333 1 4.83333
2 1 4.83333
2.16667 1 4.83333
2.33333 1 4.83333
2.5 1 4.83333
2.66667 1 4.83333
2.83333 1 4.83333
3 1 4.83333
0 0 5
0.166667 0 5
0.333333 0 5
0.5 0 5
0.666667 0 5
0.833333 0 5
1 0 5
1.16667 0 5
1.33333 0 5
1.5 0 5
1.66667 0 5
1.83333 0 5
2 0 5
2.16667 0 5
2.33333 0 5
2.5 0 5
2.66667 0 5
2.83333 0 5
3 0 5
0 0.166667 5
0.166667 0.166667 5
0.333333 0.166667 5
0.5 0.166667 5
0.666667 0.166667 5
0.833333 0.166667 5
1 0.166667 5
1.16667 0.166667 5
1.33333 0.166667 5
1.5 0.166667 5
1.66667 0.166667 5
1.83333 0.166667 5
2 0.166667 5
2.16667 0.166667 5
2.33333 0.166667 5
2.5 0.166667 5
2.66667 0.166667 5
2.83333 0.166667 5
3 0.166667 5
0 0.333333 5
0.166667 0.333333 5
0.333333 0.333333 5
0.5 0.333333 5
0.666667 0.333333 5
0.833333 0.333333 5
1 0.333333 5
1.16667 0.333333 5
1.33333 0.333333 5
1.5 0.333333 5
1.66667 0.333333 5
1.83333 0.333333 5
2 0.333333 5
2.16667 0.333333 5
2.33333 0.333333 5
2.5 0.333333 5
2.66667 0.333333 5
2.83333 0.333333 5
3 0.333333 5
0 0.5 5
0.166667 0.5 5
0.333333 0.5 5
0.5 0.5 5
0.666667 0.5 5
0.833333 0.5 5
1 0.5 5
1.16667 0.5 5
1.33333 0.5 5
1.5 0.5 5
1.66667 0.5 5
1.83333 0.5 5
2 0.5 5
2.16667 0.5 5
2.33333 0.5 5
2.5 0.5 5
2.66667 0.5 5
2.83333 0.5 5
3 0.5 5
0 0.666667 5
0.166667 0.666667 5
0.333333 0.666667 5
0.5 0.666667 5
0.666667 0.666667 5
0.833333 0.666667 5
1 0.666667 5
1.16667 0.666667 5
1.33333 0.666667 5
1.5 0.666667 5
1.66667 0.666667 5
1.83333 0.666667 5
2 0.666667 5
2.16667 0.666667 5
2.33333 0.666667 5
2.5 0.666667 5
2.66667 0.666667 5
2.83333 0.666667 5
3 0.666667 5
0 0.833333 5
0.166667 0.833333 5
0.333333 0.833333 5
0.5 0.833333 5
0.666667 0.833333 5
0.833333 0.833333 5
1 0.833333 5
1.16667 0.833333 5
1.33333 0.833333 5
1.5 0.833333 5
1.66667 0.833333 5
1.83333 0.833333 5
2 0.833333 5
2.16667 0.833333 5
2.33333 0.833333 5
2.5 0.833333 5
2.66667 0.833333 5
2.83333 0.833333 5
3 0.833333 5
0 1 5
0.166667 1 5
0.333333 1 5
0.5 1 5
0.666667 1 5
0.833333 1 5
1 1 5
1.16667 1 5
1.33333 1 5
1.5 1 5
1.66667 1 5
1.83333 1 5
2 1 5
2.16667 1 5
2.33333 1 5
2.5 1 5
2.66667 1 5
2.83333 1 5
3 1 5
0 0 5.16667
0.166667 0 5.16667
0.333333 0 5.16667
0.5 0 5.16667
0.666667 0 5.16667
0.833333 0 5.16667
1 0 5.16667
1.16667 0 5.16667
1.33333 0 5.16667
1.5 0 5.16667
1.66667 0 5.16667
1.83333 0 5.16667
2 0 5.16667
2.16667 0 5.16667
2.33333 0 5.16667
2.5 0 5.16667
2.66667 0 5.16667
2.83333 0 5.16667
3 0 5.16667
0 0.166667 5.16667
0.166667 0.166667 5.16667
0.333333 0.166667 5.16667
0.5 0.166667 5.16667
0.666667 0.166667 5.16667
0.833333 0.166667 5.16667
1 0.166667 5.16667
1.16667 0.166667 5.16667
1.33333 0.166667 5.16667
1.5 0.166667 5.16667
1.66667 0.166667 5.16667
1.83333 0.166667 5.16667
2 0.166667 5.16667
2.16667 0.166667 5.16667
2.33333 0.166667 5.16667
2.5 0.166667 5.16667
2.66667 0.166667 5.16667
2.83333 0.166667 5.16667
3 0.166667 5.16667
0 0.333333 5.16667
0.166667 0.333333 5.16667
0.333333 0.333333 5.16667
0.5 0.333333 5.16667
0.666667 0.333333 5.16667
0.833333 0.333333 5.16667
1 0.333333 5.16667
1.16667 0.333333 5.16667
1.33333 0.333333 5.16667
1.5 0.333333 5.16667
1.66667 0.333333 5.16667
1.83333 0.333333 5.16667
2 0.333333 5.16667
2.16667 0.333333 5.16667
2.33333 0.333333 5.16667
2.5 0.333333 5.16667
2.66667 0.333333 5.16667
2.83333 0.333333 5.16667
3 0.333333 5.16667
0 0.5 5.16667
0.166667 0.5 5.16667
0.333333 0.5 5.16667
0.5 0.5 5.16667
0.666667 0.5 5.16667
0.833333 0.5 5.16667
1 0.5 5.16667
1.16667 0.5 5.16667
1.33333 0.5 5.16667
1.5 0.5 5.16667
1.66667 0.5 5.16667
1.83333 0.5 5.16667
2 0.5 5.16667
2.16667 0.5 5.16667
2.33333 0.5 5.16667
2.5 0.5 5.16667
2.66667 0.5 5.16667
2.83333 0.5 5.16667
3 0.5 5.16667
0 0.666667 5.16667
0.166667 0.666667 5.16667
0.333333 0.666667 5.16667
0.5 0.666667 5.16667
0.666667 0.666667 5.16667
0.833333 0.666667 5.16667
1 0.666667 5.16667
1.16667 0.666667 5.16667
1.33333 0.666667 5.16667
1.5 0.666667 5.16667
1.66667 0.666667 5.16667
1.83333 0.666667 5.16667
2 0.666667 5.16667
2.16667 0.666667 5.16667
2.33333 0.666667 5.16667
2.5 0.666667 5.16667
2.66667 0.666667 5.16667
2.83333 0.666667 5.16667
3 0.666667 5.16667
0 0.833333 5.16667
0.166667 0.833333 5.16667
0.333333 0.833333 5.16667
0.5 0.833333 5.16667
0.666667 0.833333 5.16667
0.833333 0.833333 5.16667
1 0.833333 5.16667
1.16667 0.833333 5.16667
1.33333 0.833333 5.16667
1.5 0.833333 5.16667
1.66667 0.833333 5.16667
1.83333 0.833333 5.16667
2 0.833333 5.16667
2.16667 0.833333 5.16667
2.33333 0.833333 5.16667
2.5 0.833333 5.16667
2.66667 0.833333 5.16667
2.83333 0.833333 5.16667
3 0.833333 5.16667
0 1 5.16667
0.166667 1 5.16667
0.333333 1 5.16667
0.5 1 5.16667
0.666667 1 5.16667
0.833333 1 5.16667
1 1 5.16667
1.16667 1 5.16667
1.33333 1 5.16667
1.5 1 5.16667
1.66667 1 5.16667
1.83333 1 5.16667
2 1 5.16667
2.16667 1 5.16667
2.33333 1 5.16667
2.5 1 5.16667
2.66667 1 5.16667
2.83333 1 5.16667
3 1 5.16667
0 0 5.33333
0.166667 0 5.33333
0.333333 0 5.33333
0.5 0 5.33333
0.666667 0 5.33333
0.833333 0 5.33333
1 0 5.33333
1.16667 0 5.33333
1.33333 0 5.33333
1.5 0 5.33333
1.66667 0 5.33333
1.83333 0 5.33333
2 0 5.33333
2.16667 0 5.33333
2.33333 0 5.33333
2.5 0 5.33333
2.66667 0 5.33333
2.83333 0 5.33333
3 0 5.33333
0 0.166667 5.33333
0.166667 0.166667 5.33333
0.333333 0.166667 5.33333
0.5 0.166667 5.33333
0.666667 0.166667 5.33333
0.833333 0.166667 5.33333
1 0.166667 5.33333
1.16667 0.166667 5.33333
1.33333 0.166667 5.33333
1.5 0.166667 5.33333
1.66667 0.166667 5.33333
1.83333 0.166667 5.33333
2 0.166667 5.33333
2.16667 0.166667 5.33333
2.33333 0.166667 5.33333
2.5 0.166667 5.33333
2.66667 0.166667 5.33333
2.83333 0.166667 5.33333
3 0.166667 5.33333
0 0.333333 5.33333
0.166667 0.333333 5.33333
0.333333 0.333333 5.33333
0.5 0.333333 5.33333
0.666667 0.333333 5.33333
0.833333 0.333333 5.33333
1 0.333333 5.33333
1.16667 0.333333 5.33333
1.33333 0.333333 5.33333
1.5 0.333333 5.33333
1.66667 0.333333 5.33333
1.83333 0.333333 5.33333
2 0.333333 5.33333
2.16667 0.333333 5.33333
2.33333 0.333333 5.33333
2.5 0.333333 5.33333
2.66667 0.333333 5.33333
2.83333 0.333333 5.33333
3 0.333333 5.33333
0 0.5 5.33333
0.166667 0.5 5.33333
0.333333 0.5 5.33333
0.5 0.5 5.33333
0.666667 0.5 5.33333
0.833333 0.5 5.33333
1 0.5 5.33333
1.16667 0.5 5.33333
1.33333 0.5 5.33333
1.5 0.5 5.33333
1.66667 0.5 5.33333
1.83333 0.5 5.33333
2 0.5 5.33333
2.16667 0.5 5.33333
2.33333 0.5 5.33333
2.5 0.5 5.33333
2.66667 0.5 5.33333
2.83333 0.5 5.33333
3 0.5 5.33333
0 0.666667 5.33333
0.166667 0.666667 5.33333
0.333333 0.666667 5.33333
0.5 0.666667 5.33333
0.666667 0.666667 5.33333
0.833333 0.666667 5.33333
1 0.666667 5.33333
1.16667 0.666667 5.33333
1.33333 0.666667 5.33333
1.5 0.666667 5.33333
1.66667 0.666667 5.33333
1.83333 0.666667 5.33333
2 0.666667 5.33333
2.16667 0.666667 5.33333
2.33333 0.666667 5.33333
2.5 0.666667 5.33333
2.66667 0.666667 5.33333
2.83333 0.666667 5.33333
3 0.666667 5.33333
0 0.833333 5.33333
0.166667 0.833333 5.33333
0.333333 0.833333 5.33333
0.5 0.833333 5.33333
0.666667 0.833333 5.33333
0.833333 0.833333 5.33333
1 0.833333 5.33333
1.16667 0.833333 5.33333
1.33333 0.833333 5.33333
1.5 0.833333 5.33333
1.66667 0.833333 5.33333
1.83333 0.833333 5.33333
2 0.833333 5.33333
2.16667 0.833333 5.33333
2.33333 0.833333 5.33333
2.5 0.833333 5.33333
2.66667 0.833333 5.33333
2.83333 0.833333 5.33333
3 0.833333 5.33333
0 1 5.33333
0.166667 1 5.33333
0.333333 1 5.33333
0.5 1 5.33333
0.666667 1 5.33333
0.833333 1 5.33333
1 1 5.33333
1.16667 1 5.33333
1.33333 1 5.33333
1.5 1 5.33333
1.66667 1 5.33333
1.83333 1 5.33333
2 1 5.33333
2.16667 1 5.33333
2.33333 1 5.33333
2.5 1 5.33333
2.66667 1 5.33333
2.83333 1 5.33333
3 1 5.33333
0 0 5.5
0.166667 0 5.5
0.333333 0 5.5
0.5 0 5.5
0.666667 0 5.5
0.833333 0 5.5
1 0 5.5
1.16667 0 5.5
1.33333 0 5.5
1.5 0 5.5
1.66667 0 5.5
1.83333 0 5.5
2 0 5.5
2.16667 0 5.5
2.33333 0 5.5
2.5 0 5.5
2.66667 0 5.5
2.83333 0 5.5
3 0 5.5
0 0.166667 5.5
0.166667 0.166667 5.5
0.333333 0.166667 5.5
0.5 0.166667 5.5
0.666667 0.166667 5.5
0.833333 0.166667 5.5
1 0.166667 5.5
1.16667 0.166667 5.5
1.33333 0.166667 5.5
1.5 0.166667 5.5
1.66667 0.166667 5.5
1.83333 0.166667 5.5
2 0.166667 5.5
2.16667 0.166667 5.5
2.33333 0.166667 5.5
2.5 0.166667 5.5
2.66667 0.166667 5.5
2.83333 0.166667 5.5
3 0.166667 5.5
0 0.333333 5.5
0.166667 0.333333 5.5
0.333333 0.333333 5.5
0.5 0.333333 5.5
0.666667 0.333333 5.5
0.833333 0.333333 5.5
1 0.333333 5.5
1.16667 0.333333 5.5
1.33333 0.333333 5.5
1.5 0.333333 5.5
1.66667 0.333333 5.5
1.83333 0.333333 5.5
2 0.333333 5.5
2.16667 0.333333 5.5
2.33333 0.333333 5.5
2.5 0.333333 5.5
2.66667 0.333333 5.5
2.83333 0.333333 5.5
3 0.333333 5.5
0 0.5 5.5
0.166667 0.5 5.5
0.333333 0.5 5.5
0.5 0.5 5.5
0.666667 0.5 5.5
0.833333 0.5 5.5
1 0.5 5.5
1.16667 0.5 5.5
1.33333 0.5 5.5
1.5 0.5 5.5
1.66667 0.5 5.5
1.83333 0.5 5.5
2 0.5 5.5
2.16667 0.5 5.5
2.33333 0.5 5.5
2.5 0.5 5.5
2.66667 0.5 5.5
2.83333 0.5 5.5
3 0.5 5.5
0 0.666667 5.5
0.166667 0.666667 5.5
0.333333 0.666667 5.5
0.5 0.666667 5.5
0.666667 0.666667 5.5
0.833333 0.666667 5.5
1 0.666667 5.5
1.16667 0.666667 5.5
1.33333 0.666667 5.5
1.5 0.666667 5.5
1.66667 0.666667 5.5
1.83333 0.666667 5.5
2 0.666667 5.5
2.16667 0.666667 5.5
2.33333 0.666667 5.5
2.5 0.666667 5.5
2.66667 0.666667 5.5
2.83333 0.666667 5.5
3 0.666667 5.5
0 0.833333 5.5
0.166667 0.833333 5.5
0.333333 0.833333 5.5
0.5 0.833333 5.5
0.666667 0.833333 5.5
0.833333 0.833333 5.5
1 0.833333 5.5
1.16667 0.833333 5.5
1.33333 0.833333 5.5
1.5 0.833333 5.5
1.66667 0.833333 5.5
1.83333 0.833333 5.5
2 0.833333 5.5
2.16667 0.833333 5.5
2.33333 0.833333 5.5
2.5 0.833333 5.5
2.66667 0.833333 5.5
2.83333 0.833333 5.5
3 0.833333 5.5
0 1 5.5
0.166667 1 5.5
0.333333 1 5.5
0.5 1 5.5
0.666667 1 5.5
0.833333 1 5.5
1 1 5.5
1.16667 1 5.5
1.33333 1 5.5
1.5 1 5.5
1.66667 1 5.5
1.83333 1 5.5
2 1 5.5
2.16667 1 5.5
2.33333 1 5.5
2.5 1 5.5
2.66667 1 5.5
2.83333 1 5.5
3 1 5.5
0 0.0833333 4.5
0.0833333 0.166667 4.58333
0.0833333 0.0833333 4.58333
0.0833333 0.0833333 4.5
0.0833333 0.166667 4.5
0.166667 0.166667 4.58333
0.0833333 0.0833333 4.66667
0.166667 0.0833333 4.66667
0.0833333 0 4.66667
0 0 4.58333
0.0833333 0 4.58333
0 0.166667 4.58333
0 0.0833333 4.58333
0.0833333 0.166667 4.66667
0 0.0833333 4.66667
0.166667 0 4.58333
0.0833333 0 4.5
0.166667 0.0833333 4.58333
0.166667 0.0833333 4.5
0.25 0.166667 4.58333
0.25 0.0833333 4.58333
0.25 0.0833333 4.5
0.25 0.166667 4.5
0.333333 0.166667 4.58333
0.25 0.0833333 4.66667
0.333333 0.0833333 4.66667
0.25 0 4.66667
0.25 0 4.58333
0.25 0.166667 4.66667
0.333333 0 4.58333
0.25 0 4.5
0.333333 0.0833333 4.58333
0.333333 0.0833333 4.5
0.416667 0.166667 4.58333
0.416667 0.0833333 4.58333
0.416667 0.0833333 4.5
0.416667 0.166667 4.5
0.5 0.166667 4.58333
0.416667 0.0833333 4.66667
0.5 0.0833333 4.66667
0.416667 0 4.66667
0.416667 0 4.58333
0.416667 0.166667 4.66667
0.5 0 4.58333
0.416667 0 4.5
0.5 0.0833333 4.58333
0.5 0.0833333 4.5
0.583333 0.166667 4.58333
0.583333 0.0833333 4.58333
0.583333 0.0833333 4.5
0.583333 0.166667 4.5
0.666667 0.166667 4.58333
0.583333 0.0833333 4.66667
0.666667 0.0833333 4.66667
0.583333 0 4.66667
0.583333 0 4.58333
0.583333 0.166667 4.66667
0.666667 0 4.58333
0.583333 0 4.5
0.666667 0.0833333 4.58333
0.666667 0.0833333 4.5
0.75 0.166667 4.58333
0.75 0.0833333 4.58333
0.75 0.0833333 4.5
0.75 0.166667 4.5
0.833333 0.166667 4.58333
0.75 0.0833333 4.66667
0.833333 0.0833333 4.66667
0.75 0 4.66667
0.75 0 4.58333
0.75 0.166667 4.66667
0.833333 0 4.58333
0.75 0 4.5
0.833333 0.0833333 4.58333
0.833333 0.0833333 4.5
0.916667 0.166667 4.58333
0.916667 0.0833333 4.58333
0.916667 0.0833333 4.5
0.916667 0.166667 4.5
1 0.166667 4.58333
0.916667 0.0833333 4.66667
1 0.0833333 4.66667
0.916667 0 4.66667
0.916667 0 4.58333
0.916667 0.166667 4.66667
1 0 4.58333
0.916667 0 4.5
1 0.0833333 4.58333
1 0.0833333 4.5
1.08333 0.166667 4.58333
1.08333 0.0833333 4.58333
1.08333 0.0833333 4.5
1.08333 0.166667 4.5
1.16667 0.166667 4.58333
1.08333 0.0833333 4.66667
1.16667 0.0833333 4.66667
1.08333 0 4.66667
1.08333 0 4.58333
1.08333 0.166667 4.66667
1.16667 0 4.58333
1.08333 0 4.5
1.16667 0.0833333 4.58333
1.16667 0.0833333 4.5
1.25 0.166667 4.58333
1.25 0.0833333 4.58333
1.25 0.0833333 4.5
1.25 0.166667 4.5
1.33333 0.166667 4.58333
1.25 0.0833333 4.66667
1.33333 0.0833333 4.66667
1.25 0 4.66667
1.25 0 4.58333
1.25 0.166667 4.66667
1.33333 0 4.58333
1.25 0 4.5
1.33333 0.0833333 4.58333
1.33333 0.0833333 4.5
1.41667 0.166667 4.58333
1.41667 0.0833333 4.58333
1.41667 0.0833333 4.5
1.41667 0.166667 4.5
1.5 0.166667 4.58333
1.41667 0.0833333 4.66667
1.5 0.0833333 4.66667
1.41667 0 4.66667
1.41667 0 4.58333
1.41667 0.166667 4.66667
1.5 0 4.58333
1.41667 0 4.5
1.5 0.0833333 4.58333
1.5 0.0833333 4.5
1.58333 0.166667 4.58333
1.58333 0.0833333 4.58333
1.58333 0.0833333 4.5
1.58333 0.166667 4.5
1.66667 0.166667 4.58333
1.58333 0.0833333 4.66667
1.66667 0.0833333 4.66667
1.58333 0 4.66667
1.58333 0 4.58333
1.58333 0.166667 4.66667
1.66667 0 4.58333
1.58333 0 4.5
1.66667 0.0833333 4.58333
1.66667 0.0833333 4.5
1.75 0.166667 4.58333
1.75 0.0833333 4.58333
1.75 0.0833333 4.5
1.75 0.166667 4.5
1.83333 0.166667 4.58333
1.75 0.0833333 4.66667
1.83333 0.0833333 4.66667
1.75 0 4.66667
1.75 0 4.58333
1.75 0.166667 4.66667
1.83333 0 4.58333
1.75 0 4.5
1.83333 0.0833333 4.58333
1.83333 0.0833333 4.5
1.91667 0.166667 4.58333
1.91667 0.0833333 4.58333
1.91667 0.0833333 4.5
1.91667 0.166667 4.5
2 0.166667 4.58333
1.91667 0.0833333 4.66667
2 0.0833333 4.66667
1.91667 0 4.66667
1.91667 0 4.58333
1.91667 0.166667 4.66667
2 0 4.58333
1.91667 0 4.5
2 0.0833333 4.58333
2 0.0833333 4.5
2.08333 0.166667 4.58333
2.08333 0.0833333 4.58333
2.08333 0.0833333 4.5
2.08333 0.166667 4.5
2.16667 0.166667 4.58333
2.08333 0.0833333 4.66667
2.16667 0.0833333 4.66667
2.08333 0 4.66667
2.08333 0 4.58333
2.08333 0.166667 4.66667
2.16667 0 4.58333
2.08333 0 4.5
2.16667 0.0833333 4.58333
2.16667 0.0833333 4.5
2.25 0.166667 4.58333
2.25 0.0833333 4.58333
2.25 0.0833333 4.5
2.25 0.166667 4.5
2.33333 0.166667 4.58333
2.25 0.0833333 4.66667
2.33333 0.0833333 4.66667
2.25 0 4.66667
2.25 0 4.58333
2.25 0.166667 4.66667
2.33333 0 4.58333
2.25 0 4.5
2.33333 0.0833333 4.58333
2.33333 0.0833333 4.5
2.41667 0.166667 4.58333
2.41667 0.0833333 4.58333
2.41667 0.0833333 4.5
2.41667 0.166667 4.5
2.5 0.166667 4.58333
2.41667 0.0833333 4.66667
2.5 0.0833333 4.66667
2.41667 0 4.66667
2.41667 0 4.58333
2.41667 0.166667 4.66667
2.5 0 4.58333
2.41667 0 4.5
2.5 0.0833333 4.58333
2.5 0.0833333 4.5
2.58333 0.166667 4.58333
2.58333 0.0833333 4.58333
2.58333 0.0833333 4.5
2.58333 0.166667 4.5
2.66667 0.166667 4.58333
2.58333 0.0833333 4.66667
2.66667 0.0833333 4.66667
2.58333 0 4.66667
2.58333 0 4.58333
2.58333 0.166667 4.66667
2.66667 0 4.58333
2.58333 0 4.5
2.66667 0.0833333 4.58333
2.66667 0.0833333 4.5
2.75 0.166667 4.58333
2.75 0.0833333 4.58333
2.75 0.0833333 4.5
2.75 0.166667 4.5
2.83333 0.166667 4.58333
2.75 0.0833333 4.66667
2.83333 0.0833333 4.66667
2.75 0 4.66667
2.75 0 4.58333
2.75 0.166667 4.66667
2.83333 0 4.58333
2.75 0 4.5
2.83333 0.0833333 4.58333
2.83333 0.0833333 4.5
2.91667 0.166667 4.58333
2.91667 0.0833333 4.58333
2.91667 0.0833333 4.5
2.91667 0.166667 4.5
3 0.166667 4.58333
2.91667 0.0833333 4.66667
3 0.0833333 4.66667
2.91667 0 4.66667
2.91667 0 4.58333
2.91667 0.166667 4.66667
3 0 4.58333
2.91667 0 4.5
3 0.0833333 4.58333
3 0.0833333 4.5
0 0.25 4.5
0.0833333 0.333333 4.58333
0.0833333 0.25 4.58333
0.0833333 0.25 4.5
0.0833333 0.333333 4.5
0.166667 0.333333 4.58333
0.0833333 0.25 4.66667
0.166667 0.25 4.66667
0 0.333333 4.58333
0 0.25 4.58333
0.0833333 0.333333 4.66667
0 0.25 4.66667
0.166667 0.25 4.58333
0.166667 0.25 4.5
0.25 0.333333 4.58333
0.25 0.25 4.58333
0.25 0.25 4.5
0.25 0.333333 4.5
0.333333 0.333333 4.58333
0.25 0.25 4.66667
0.333333 0.25 4.66667
0.25 0.333333 4.66667
0.333333 0.25 4.58333
0.333333 0.25 4.5
0.416667 0.333333 4.58333
0.416667 0.25 4.58333
0.416667 0.25 4.5
0.416667 0.333333 4.5
0.5 0.333333 4.58333
0.416667 0.25 4.66667
0.5 0.25 4.66667
0.416667 0.333333 4.66667
0.5 0.25 4.58333
0.5 0.25 4.5
0.583333 0.333333 4.58333
0.583333 0.25 4.58333
0.583333 0.25 4.5
0.583333 0.333333 4.5
0.666667 0.333333 4.58333
0.583333 0.25 4.66667
0.666667 0.25 4.66667
0.583333 0.333333 4.66667
0.666667 0.25 4.58333
0.666667 0.25 4.5
0.75 0.333333 4.58333
0.75 0.25 4.58333
0.75 0.25 4.5
0.75 0.333333 4.5
0.833333 0.333333 4.58333
0.75 0.25 4.66667
0.833333 0.25 4.66667
0.75 0.333333 4.66667
0.833333 0.25 4.58333
0.833333 0.25 4.5
0.916667 0.333333 4.58333
0.916667 0.25 4.58333
0.916667 0.25 4.5
0.916667 0.333333 4.5
1 0.333333 4.58333
0.916667 0.25 4.66667
1 0.25 4.66667
0.916667 0.333333 4.66667
1 0.25 4.58333
1 0.25 4.5
1.08333 0.333333 4.58333
1.08333 0.25 4.58333
1.08333 0.25 4.5
1.08333 0.333333 4.5
1.16667 0.333333 4.58333
1.08333 0.25 4.66667
1.16667 0.25 4.66667
1.08333 0.333333 4.66667
1.16667 0.25 4.58333
1.16667 0.25 4.5
1.25 0.333333 4.58333
1.25 0.25 4.58333
1.25 0.25 4.5
1.25 0.333333 4.5
1.33333 0.333333 4.58333
1.25 0.25 4.66667
1.33333 0.25 4.66667
1.25 0.333333 4.66667
1.33333 0.25 4.58333
1.33333 0.25 4.5
1.41667 0.333333 4.58333
1.41667 0.25 4.58333
1.41667 0.25 4.5
1.41667 0.333333 4.5
1.5 0.333333 4.58333
1.41667 0.25 4.66667
1.5 0.25 4.66667
1.41667 0.333333 4.66667
1.5 0.25 4.58333
1.5 0.25 4.5
1.58333 0.333333 4.58333
1.58333 0.25 4.58333
1.58333 0.25 4.5
1.58333 0.333333 4.5
1.66667 0.333333 4.58333
1.58333 0.25 4.66667
1.66667 0.25 4.66667
1.58333 0.333333 4.66667
1.66667 0.25 4.58333
1.66667 0.25 4.5
1.75 0.333333 4.58333
1.75 0.25 4.58333
1.75 0.25 4.5
1.75 0.333333 4.5
1.83333 0.333333 4.58333
1.75 0.25 4.66667
1.83333 0.25 4.66667
1.75 0.333333 4.66667
1.83333 0.25 4.58333
1.83333 0.25 4.5
1.91667 0.333333 4.58333
1.91667 0.25 4.58333
1.91667 0.25 4.5
1.91667 0.333333 4.5
2 0.333333 4.58333
1.91667 0.25 4.66667
2 0.25 4.66667
1.91667 0.333333 4.66667
2 0.25 4.58333
2 0.25 4.5
2.08333 0.333333 4.58333
2.08333 0.25 4.58333
2.08333 0.25 4.5
2.08333 0.333333 4.5
2.16667 0.333333 4.58333
2.08333 0.25 4.66667
2.16667 0.25 4.66667
2.08333 0.333333 4.66667
2.16667 0.25 4.58333
2.16667 0.25 4.5
2.25 0.333333 4.58333
2.25 0.25 4.58333
2.25 0.25 4.5
2.25 0.333333 4.5
2.33333 0.333333 4.58333
2.25 0.25 4.66667
2.33333 0.25 4.66667
2.25 0.333333 4.66667
2.33333 0.25 4.58333
2.33333 0.25 4.5
2.41667 0.333333 4.58333
2.41667 0.25 4.58333
2.41667 0.25 4.5
2.41667 0.333333 4.5
2.5 0.333333 4.58333
2.41667 0.25 4.66667
2.5 0.25 4.66667
2.41667 0.333333 4.66667
2.5 0.25 4.58333
2.5 0.25 4.5
2.58333 0.333333 4.58333
2.58333 0.25 4.58333
2.58333 0.25 4.5
2.58333 0.333333 4.5
2.66667 0.333333 4.58333
2.58333 0.25 4.66667
2.66667 0.25 4.66667
2.58333 0.333333 4.66667
2.66667 0.25 4.58333
2.66667 0.25 4.5
2.75 0.333333 4.58333
2.75 0.25 4.58333
2.75 0.25 4.5
2.75 0.333333 4.5
2.83333 0.333333 4.58333
2.75 0.25 4.66667
2.83333 0.25 4.66667
2.75 0.333333 4.66667
2.83333 0.25 4.58333
2.83333 0.25 4.5
2.91667 0.333333 4.58333
2.91667 0.25 4.58333
2.91667 0.25 4.5
2.91667 0.333333 4.5
3 0.333333 4.58333
2.91667 0.25 4.66667
3 0.25 4.66667
2.91667 0.333333 4.66667
3 0.25 4.58333
3 0.25 4.5
0 0.416667 4.5
0.0833333 0.5 4.58333
0.0833333 0.416667 4.58333
0.0833333 0.416667 4.5
0.0833333 0.5 4.5
0.166667 0.5 4.58333
0.0833333 0.416667 4.66667
0.166667 0.416667 4.66667
0 0.5 4.58333
0 0.416667 4.58333
0.0833333 0.5 4.66667
0 0.416667 4.66667
0.166667 0.416667 4.58333
0.166667 0.416667 4.5
0.25 0.5 4.58333
0.25 0.416667 4.58333
0.25 0.416667 4.5
0.25 0.5 4.5
0.333333 0.5 4.58333
0.25 0.416667 4.66667
0.333333 0.416667 4.66667
0.25 0.5 4.66667
0.333333 0.416667 4.58333
0.333333 0.416667 4.5
0.416667 0.5 4.58333
0.416667 0.416667 4.58333
0.416667 0.416667 4.5
0.416667 0.5 4.5
0.5 0.5 4.58333
0.416667 0.416667 4.66667
0.5 0.416667 4.66667
0.416667 0.5 4.66667
0.5 0.416667 4.58333
0.5 0.416667 4.5
0.583333 0.5 4.58333
0.583333 0.416667 4.58333
0.583333 0.416667 4.5
0.583333 0.5 4.5
0.666667 0.5 4.58333
0.583333 0.416667 4.66667
0.666667 0.416667 4.66667
0.583333 0.5 4.66667
0.666667 0.416667 4.58333
0.666667 0.416667 4.5
0.75 0.5 4.58333
0.75 0.416667 4.58333
0.75 0.416667 4.5
0.75 0.5 4.5
0.833333 0.5 4.58333
0.75 0.416667 4.66667
0.833333 0.416667 4.66667
0.75 0.5 4.66667
0.833333 0.416667 4.58333
0.833333 0.416667 4.5
0.916667 0.5 4.58333
0.916667 0.416667 4.58333
0.916667 0.416667 4.5
0.916667 0.5 4.5
1 0.5 4.58333
0.916667 0.416667 4.66667
1 0.416667 4.66667
0.916667 0.5 4.66667
1 0.416667 4.58333
1 0.416667 4.5
1.08333 0.5 4.58333
1.08333 0.416667 4.58333
1.08333 0.416667 4.5
1.08333 0.5 4.5
1.16667 0.5 4.58333
1.08333 0.416667 4.66667
1.16667 0.416667 4.66667
1.08333 0.5 4.66667
1.16667 0.416667 4.58333
1.16667 0.416667 4.5
1.25 0.5 4.58333
1.25 0.416667 4.58333
1.25 0.416667 4.5
1.25 0.5 4.5
1.33333 0.5 4.58333
1.25 0.416667 4.66667
1.33333 0.416667 4.66667
1.25 0.5 4.66667
1.33333 0.416667 4.58333
1.33333 0.416667 4.5
1.41667 0.5 4.58333
1.41667 0.416667 4.58333
1.41667 0.416667 4.5
1.41667 0.5 4.5
1.5 0.5 4.58333
1.41667 0.416667 4.66667
1.5 0.416667 4.66667
1.41667 0.5 4.66667
1.5 0.416667 4.58333
1.5 0.416667 4.5
1.58333 0.5 4.58333
1.58333 0.416667 4.58333
1.58333 0.416667 4.5
1.58333 0.5 4.5
1.66667 0.5 4.58333
1.58333 0.416667 4.66667
1.66667 0.416667 4.66667
1.58333 0.5 4.66667
1.66667 0.416667 4.58333
1.66667 0.416667 4.5
1.75 0.5 4.58333
1.75 0.416667 4.58333
1.75 0.416667 4.5
1.75 0.5 4.5
1.83333 0.5 4.58333
1.75 0.416667 4.66667
1.83333 0.416667 4.66667
1.75 0.5 4.66667
1.83333 0.416667 4.58333
1.83333 0.416667 4.5
1.91667 0.5 4.58333
1.91667 0.416667 4.58333
1.91667 0.416667 4.5
1.91667 0.5 4.5
2 0.5 4.58333
1.91667 0.416667 4.66667
2 0.416667 4.66667
1.91667 0.5 4.66667
2 0.416667 4.58333
2 0.416667 4.5
2.08333 0.5 4.58333
2.08333 0.416667 4.58333
2.08333 0.416667 4.5
2.08333 0.5 4.5
2.16667 0.5 4.58333
2.08333 0.416667 4.66667
2.16667 0.416667 4.66667
2.08333 0.5 4.66667
2.16667 0.416667 4.58333
2.16667 0.416667 4.5
2.25 0.5 4.58333
2.25 0.416667 4.58333
2.25 0.416667 4.5
2.25 0.5 4.5
2.33333 0.5 4.58333
2.25 0.416667 4.66667
2.33333 0.416667 4.66667
2.25 0.5 4.66667
2.33333 0.416667 4.58333
2.33333 0.416667 4.5
2.41667 0.5 4.58333
2.41667 0.416667 4.58333
2.41667 0.416667 4.5
2.41667 0.5 4.5
2.5 0.5 4.58333
2.41667 0.416667 4.66667
2.5 0.416667 4.66667
2.41667 0.5 4.66667
2.5 0.416667 4.58333
2.5 0.416667 4.5
2.58333 0.5 4.58333
2.58333 0.416667 4.58333
2.58333 0.416667 4.5
2.58333 0.5 4.5
2.66667 0.5 4.58333
2.58333 0.416667 4.66667
2.66667 0.416667 4.66667
2.58333 0.5 4.66667
2.66667 0.416667 4.58333
2.66667 0.416667 4.5
2.75 0.5 4.58333
2.75 0.416667 4.58333
2.75 0.416667 4.5
2.75 0.5 4.5
2.83333 0.5 4.58333
2.75 0.416667 4.66667
2.83333 0.416667 4.66667
2.75 0.5 4.66667
2.83333 0.416667 4.58333
2.83333 0.416667 4.5
2.91667 0.5 4.58333
2.91667 0.416667 4.58333
2.91667 0.416667 4.5
2.91667 0.5 4.5
3 0.5 4.58333
2.91667 0.416667 4.66667
3 0.416667 4.66667
2.91667 0.5 4.66667
3 0.416667 4.58333
3 0.416667 4.5
0 0.583333 4.5
0.0833333 0.666667 4.58333
0.0833333 0.583333 4.58333
0.0833333 0.583333 4.5
0.0833333 0.666667 4.5
0.166667 0.666667 4.58333
0.0833333 0.583333 4.66667
0.166667 0.583333 4.66667
0 0.666667 4.58333
0 0.583333 4.58333
0.0833333 0.666667 4.66667
0 0.583333 4.66667
0.166667 0.583333 4.58333
0.166667 0.583333 4.5
0.25 0.666667 4.58333
0.25 0.583333 4.58333
0.25 0.583333 4.5
0.25 0.666667 4.5
0.333333 0.666667 4.58333
0.25 0.583333 4.66667
0.333333 0.583333 4.66667
0.25 0.666667 4.66667
0.333333 0.583333 4.58333
0.333333 0.583333 4.5
0.416667 0.666667 4.58333
0.416667 0.583333 4.58333
0.416667 0.583333 4.5
0.416667 0.666667 4.5
0.5 0.666667 4.58333
0.416667 0.583333 4.66667
0.5 0.583333 4.66667
0.416667 0.666667 4.66667
0.5 0.583333 4.58333
0.5 0.583333 4.5
0.583333 0.666667 4.58333
0.583333 0.583333 4.58333
0.583333 0.583333 4.5
0.583333 0.666667 4.5
0.666667 0.666667 4.58333
0.583333 0.583333 4.66667
0.666667 0.583333 4.66667
0.583333 0.666667 4.66667
0.666667 0.583333 4.58333
0.666667 0.583333 4.5
0.75 0.666667 4.58333
0.75 0.583333 4.58333
0.75 0.583333 4.5
0.75 0.666667 4.5
0.833333 0.666667 4.58333
0.75 0.583333 4.66667
0.833333 0.583333 4.66667
0.75 0.666667 4.66667
0.833333 0.583333 4.58333
0.833333 0.583333 4.5
0.916667 0.666667 4.58333
0.916667 0.583333 4.58333
0.916667 0.583333 4.5
0.916667 0.666667 4.5
1 0.666667 4.58333
0.916667 0.583333 4.66667
1 0.583333 4.66667
0.916667 0.666667 4.66667
1 0.583333 4.58333
1 0.583333 4.5
1.08333 0.666667 4.58333
1.08333 0.583333 4.58333
1.08333 0.583333 4.5
1.08333 0.666667 4.5
1.16667 0.666667 4.58333
1.08333 0.583333 4.66667
1.16667 0.583333 4.66667
1.08333 0.666667 4.66667
1.16667 0.583333 4.58333
1.16667 0.583333 4.5
1.25 0.666667 4.58333
1.25 0.583333 4.58333
1.25 0.583333 4.5
1.25 0.666667 4.5
1.33333 0.666667 4.58333
1.25 0.583333 4.66667
1.33333 0.583333 4.66667
1.25 0.666667 4.66667
1.33333 0.583333 4.58333
1.33333 0.583333 4.5
1.41667 0.666667 4.58333
1.41667 0.583333 4.58333
1.41667 0.583333 4.5
1.41667 0.666667 4.5
1.5 0.666667 4.58333
1.41667 0.583333 4.66667
1.5 0.583333 4.66667
1.41667 0.666667 4.66667
1.5 0.583333 4.58333
1.5 0.583333 4.5
1.58333 0.666667 4.58333
1.58333 0.583333 4.58333
1.58333 0.583333 4.5
1.58333 0.666667 4.5
1.66667 0.666667 4.58333
1.58333 0.583333 4.66667
1.66667 0.583333 4.66667
1.58333 0.666667 4.66667
1.66667 0.583333 4.58333
1.66667 0.583333 4.5
1.75 0.666667 4.58333
1.75 0.583333 4.58333
1.75 0.583333 4.5
1.75 0.666667 4.5
1.83333 0.666667 4.58333
1.75 0.583333 4.66667
1.83333 0.583333 4.66667
1.75 0.666667 4.66667
1.83333 0.583333 4.58333
1.83333 0.583333 4.5
1.91667 0.666667 4.58333
1.91667 0.583333 4.58333
1.91667 0.583333 4.5
1.91667 0.666667 4.5
2 0.666667 4.58333
1.91667 0.583333 4.66667
2 0.583333 4.66667
1.91667 0.666667 4.66667
2 0.583333 4.58333
2 0.583333 4.5
2.08333 0.666667 4.58333
2.08333 0.583333 4.58333
2.08333 0.583333 4.5
2.08333 0.666667 4.5
2.16667 0.666667 4.58333
2.08333 0.583333 4.66667
2.16667 0.583333 4.66667
2.08333 0.666667 4.66667
2.16667 0.583333 4.58333
2.16667 0.583333 4.5
2.25 0.666667 4.58333
2.25 0.583333 4.58333
2.25 0.583333 4.5
2.25 0.666667 4.5
2.33333 0.666667 4.58333
2.25 0.583333 4.66667
2.33333 0.583333 4.66667
2.25 0.666667 4.66667
2.33333 0.583333 4.58333
2.33333 0.583333 4.5
2.41667 0.666667 4.58333
2.41667 0.583333 4.58333
2.41667 0.583333 4.5
2.41667 0.666667 4.5
2.5 0.666667 4.58333
2.41667 0.583333 4.66667
2.5 0.583333 4.66667
2.41667 0.666667 4.66667
2.5 0.583333 4.58333
2.5 0.583333 4.5
2.58333 0.666667 4.58333
2.58333 0.583333 4.58333
2.58333 0.583333 4.5
2.58333 0.666667 4.5
2.66667 0.666667 4.58333
2.58333 0.583333 4.66667
2.66667 0.583333 4.66667
2.58333 0.666667 4.66667
2.66667 0.583333 4.58333
2.66667 0.583333 4.5
2.75 0.666667 4.58333
2.75 0.583333 4.58333
2.75 0.583333 4.5
2.75 0.666667 4.5
2.83333 0.666667 4.58333
2.75 0.583333 4.66667
2.83333 0.583333 4.66667
2.75 0.666667 4.66667
2.83333 0.583333 4.58333
2.83333 0.583333 4.5
2.91667 0.666667 4.58333
2.91667 0.583333 4.58333
2.91667 0.583333 4.5
2.91667 0.666667 4.5
3 0.666667 4.58333
2.91667 0.583333 4.66667
3 0.583333 4.66667
2.91667 0.666667 4.66667
3 0.583333 4.58333
3 0.583333 4.5
0 0.75 4.5
0.0833333 0.833333 4.58333
0.0833333 0.75 4.58333
0.0833333 0.75 4.5
0.0833333 0.833333 4.5
0.166667 0.833333 4.58333
0.0833333 0.75 4.66667
0.166667 0.75 4.66667
0 0.833333 4.58333
0 0.75 4.58333
0.0833333 0.833333 4.66667
0 0.75 4.66667
0.166667 0.75 4.58333
0.166667 0.75 4.5
0.25 0.833333 4.58333
0.25 0.75 4.58333
0.25 0.75 4.5
0.25 0.833333 4.5
0.333333 0.833333 4.58333
0.25 0.75 4.66667
0.333333 0.75 4.66667
0.25 0.833333 4.66667
0.333333 0.75 4.58333
0.333333 0.75 4.5
0.416667 0.833333 4.58333
0.416667 0.75 4.58333
0.416667 0.75 4.5
0.416667 0.833333 4.5
0.5 0.833333 4.58333
0.416667 0.75 4.66667
0.5 0.75 4.66667
0.416667 0.833333 4.66667
0.5 0.75 4.58333
0.5 0.75 4.5
0.583333 0.833333 4.58333
0.583333 0.75 4.58333
0.583333 0.75 4.5
0.583333 0.833333 4.5
0.666667 0.833333 4.58333
0.583333 0.75 4.66667
0.666667 0.75 4.66667
0.583333 0.833333 4.66667
0.666667 0.75 4.58333
0.666667 0.75 4.5
0.75 0.833333 4.58333
0.75 0.75 4.58333
0.75 0.75 4.5
0.75 0.833333 4.5
0.833333 0.833333 4.58333
0.75 0.75 4.66667
0.833333 0.75 4.66667
0.75 0.833333 4.66667
0.833333 0.75 4.58333
0.833333 0.75 4.5
0.916667 0.833333 4.58333
0.916667 0.75 4.58333
0.916667 0.75 4.5
0.916667 0.833333 4.5
1 0.833333 4.58333
0.916667 0.75 4.66667
1 0.75 4.66667
0.916667 0.833333 4.66667
1 0.75 4.58333
1 0.75 4.5
1.08333 0.833333 4.58333
1.08333 0.75 4.58333
1.08333 0.75 4.5
1.08333 0.833333 4.5
1.16667 0.833333 4.58333
1.08333 0.75 4.66667
1.16667 0.75 4.66667
1.08333 0.833333 4.66667
1.16667 0.75 4.58333
1.16667 0.75 4.5
1.25 0.833333 4.58333
1.25 0.75 4.58333
1.25 0.75 4.5
1.25 0.833333 4.5
1.33333 0.833333 4.58333
1.25 0.75 4.66667
1.33333 0.75 4.66667
1.25 0.833333 4.66667
1.33333 0.75 4.58333
1.33333 0.75 4.5
1.41667 0.833333 4.58333
1.41667 0.75 4.58333
1.41667 0.75 4.5
1.41667 0.833333 4.5
1.5 0.833333 4.58333
1.41667 0.75 4.66667
1.5 0.75 4.66667
1.41667 0.833333 4.66667
1.5 0.75 4.58333
1.5 0.75 4.5
1.58333 0.833333 4.58333
1.58333 0.75 4.58333
1.58333 0.75 4.5
1.58333 0.833333 4.5
1.66667 0.833333 4.58333
1.58333 0.75 4.66667
1.66667 0.75 4.66667
1.58333 0.833333 4.66667
1.66667 0.75 4.58333
1.66667 0.75 4.5
1.75 0.833333 4.58333
1.75 0.75 4.58333
1.75 0.75 4.5
1.75 0.833333 4.5
1.83333 0.833333 4.58333
1.75 0.75 4.66667
1.83333 0.75 4.66667
1.75 0.833333 4.66667
1.83333 0.75 4.58333
1.83333 0.75 4.5
1.91667 0.833333 4.58333
1.91667 0.75 4.58333
1.91667 0.75 4.5
1.91667 0.833333 4.5
2 0.833333 4.58333
1.91667 0.75 4.66667
2 0.75 4.66667
1.91667 0.833333 4.66667
2 0.75 4.58333
2 0.75 4.5
2.08333 0.833333 4.58333
2.08333 0.75 4.58333
2.08333 0.75 4.5
2.08333 0.833333 4.5
2.16667 0.833333 4.58333
2.08333 0.75 4.66667
2.16667 0.75 4.66667
2.08333 0.833333 4.66667
2.16667 0.75 4.58333
2.16667 0.75 4.5
2.25 0.833333 4.58333
2.25 0.75 4.58333
2.25 0.75 4.5
2.25 0.833333 4.5
2.33333 0.833333 4.58333
2.25 0.75 4.66667
2.33333 0.75 4.66667
2.25 0.833333 4.66667
2.33333 0.75 4.58333
2.33333 0.75 4.5
2.41667 0.833333 4.58333
2.41667 0.75 4.58333
2.41667 0.75 4.5
2.41667 0.833333 4.5
2.5 0.833333 4.58333
2.41667 0.75 4.66667
2.5 0.75 4.66667
2.41667 0.833333 4.66667
2.5 0.75 4.58333
2.5 0.75 4.5
2.58333 0.833333 4.58333
2.58333 0.75 4.58333
2.58333 0.75 4.5
2.58333 0.833333 4.5
2.66667 0.833333 4.58333
2.58333 0.75 4.66667
2.66667 0.75 4.66667
2.58333 0.833333 4.66667
2.66667 0.75 4.58333
2.66667 0.75 4.5
2.75 0.833333 4.58333
2.75 0.75 4.58333
2.75 0.75 4.5
2.75 0.833333 4.5
2.83333 0.833333 4.58333
2.75 0.75 4.66667
2.83333 0.75 4.66667
2.75 0.833333 4.66667
2.83333 0.75 4.58333
2.83333 0.75 4.5
2.91667 0.833333 4.58333
2.91667 0.75 4.58333
2.91667 0.75 4.5
2.91667 0.833333 4.5
3 0.833333 4.58333
2.91667 0.75 4.66667
3 0.75 4.66667
2.91667 0.833333 4.66667
3 0.75 4.58333
3 0.75 4.5
0 0.916667 4.5
0.0833333 1 4.58333
0.0833333 0.916667 4.58333
0.0833333 0.916667 4.5
0.0833333 1 4.5
0.166667 1 4.58333
0.0833333 0.916667 4.66667
0.166667 0.916667 4.66667
0 1 4.58333
0 0.916667 4.58333
0.0833333 1 4.66667
0 0.916667 4.66667
0.166667 0.916667 4.58333
0.166667 0.916667 4.5
0.25 1 4.58333
0.25 0.916667 4.58333
0.25 0.916667 4.5
0.25 1 4.5
0.333333 1 4.58333
0.25 0.916667 4.66667
0.333333 0.916667 4.66667
0.25 1 4.66667
0.333333 0.916667 4.58333
0.333333 0.916667 4.5
0.416667 1 4.58333
0.416667 0.916667 4.58333
0.416667 0.916667 4.5
0.416667 1 4.5
0.5 1 4.58333
0.416667 0.916667 4.66667
0.5 0.916667 4.66667
0.416667 1 4.66667
0.5 0.916667 4.58333
0.5 0.916667 4.5
0.583333 1 4.58333
0.583333 0.916667 4.58333
0.583333 0.916667 4.5
0.583333 1 4.5
0.666667 1 4.58333
0.583333 0.916667 4.66667
0.666667 0.916667 4.66667
0.583333 1 4.66667
0.666667 0.916667 4.58333
0.666667 0.916667 4.5
0.75 1 4.58333
0.75 0.916667 4.58333
0.75 0.916667 4.5
0.75 1 4.5
0.833333 1 4.58333
0.75 0.916667 4.66667
0.833333 0.916667 4.66667
0.75 1 4.66667
0.833333 0.916667 4.58333
0.833333 0.916667 4.5
0.916667 1 4.58333
0.916667 0.916667 4.58333
0.916667 0.916667 4.5
0.916667 1 4.5
1 1 4.58333
0.916667 0.916667 4.66667
1 0.916667 4.66667
0.916667 1 4.66667
1 0.916667 4.58333
1 0.916667 4.5
1.08333 1 4.58333
1.08333 0.916667 4.58333
1.08333 0.916667 4.5
1.08333 1 4.5
1.16667 1 4.58333
1.08333 0.916667 4.66667
1.16667 0.916667 4.66667
1.08333 1 4.66667
1.16667 0.916667 4.58333
1.16667 0.916667 4.5
1.25 1 4.58333
1.25 0.916667 4.58333
1.25 0.916667 4.5
1.25 1 4.5
1.33333 1 4.58333
1.25 0.916667 4.66667
1.33333 0.916667 4.66667
1.25 1 4.66667
1.33333 0.916667 4.58333
1.33333 0.916667 4.5
1.41667 1 4.58333
1.41667 0.916667 4.58333
1.41667 0.916667 4.5
1.41667 1 4.5
1.5 1 4.58333
1.41667 0.916667 4.66667
1.5 0.916667 4.66667
1.41667 1 4.66667
1.5 0.916667 4.58333
1.5 0.916667 4.5
1.58333 1 4.58333
1.58333 0.916667 4.58333
1.58333 0.916667 4.5
1.58333 1 4.5
1.66667 1 4.58333
1.58333 0.916667 4.66667
1.66667 0.916667 4.66667
1.58333 1 4.66667
1.66667 0.916667 4.58333
1.66667 0.916667 4.5
1.75 1 4.58333
1.75 0.916667 4.58333
1.75 0.916667 4.5
1.75 1 4.5
1.83333 1 4.58333
1.75 0.916667 4.66667
1.83333 0.916667 4.66667
1.75 1 4.66667
1.83333 0.916667 4.58333
1.83333 0.916667 4.5
1.91667 1 4.58333
1.91667 0.916667 4.58333
1.91667 0.916667 4.5
1.91667 1 4.5
2 1 4.58333
1.91667 0.916667 4.66667
2 0.916667 4.66667
1.91667 1 4.66667
2 0.916667 4.58333
2 0.916667 4.5
2.08333 1 4.58333
2.08333 0.916667 4.58333
2.08333 0.916667 4.5
2.08333 1 4.5
2.16667 1 4.58333
2.08333 0.916667 4.66667
2.16667 0.916667 4.66667
2.08333 1 4.66667
2.16667 0.916667 4.58333
2.16667 0.916667 4.5
2.25 1 4.58333
2.25 0.916667 4.58333
2.25 0.916667 4.5
2.25 1 4.5
2.33333 1 4.58333
2.25 0.916667 4.66667
2.33333 0.916667 4.66667
2.25 1 4.66667
2.33333 0.916667 4.58333
2.33333 0.916667 4.5
2.41667 1 4.58333
2.41667 0.916667 4.58333
2.41667 0.916667 4.5
2.41667 1 4.5
2.5 1 4.58333
2.41667 0.916667 4.66667
2.5 0.916667 4.66667
2.41667 1 4.66667
2.5 0.916667 4.58333
2.5 0.916667 4.5
2.58333 1 4.58333
2.58333 0.916667 4.58333
2.58333 0.916667 4.5
2.58333 1 4.5
2.66667 1 4.58333
2.58333 0.916667 4.66667
2.66667 0.916667 4.66667
2.58333 1 4.66667
2.66667 0.916667 4.58333
2.66667 0.916667 4.5
2.75 1 4.58333
2.75 0.916667 4.58333
2.75 0.916667 4.5
2.75 1 4.5
2.83333 1 4.58333
2.75 0.916667 4.66667
2.83333 0.916667 4.66667
2.75 1 4.66667
2.83333 0.916667 4.58333
2.83333 0.916667 4.5
2.91667 1 4.58333
2.91667 0.916667 4.58333
2.91667 0.916667 4.5
2.91667 1 4.5
3 1 4.58333
2.91667 0.916667 4.66667
3 0.916667 4.66667
2.91667 1 4.66667
3 0.916667 4.58333
3 0.916667 4.5
0.0833333 0.166667 4.75
0.0833333 0.0833333 4.75
0.166667 0.166667 4.75
0.0833333 0.0833333 4.83333
0.166667 0.0833333 4.83333
0.0833333 0 4.83333
0 0 4.75
0.0833333 0 4.75
0 0.166667 4.75
0 0.0833333 4.75
0.0833333 0.166667 4.83333
0 0.0833333 4.83333
0.166667 0 4.75
0.166667 0.0833333 4.75
0.25 0.166667 4.75
0.25 0.0833333 4.75
0.333333 0.166667 4.75
0.25 0.0833333 4.83333
0.333333 0.0833333 4.83333
0.25 0 4.83333
0.25 0 4.75
0.25 0.166667 4.83333
0.333333 0 4.75
0.333333 0.0833333 4.75
0.416667 0.166667 4.75
0.416667 0.0833333 4.75
0.5 0.166667 4.75
0.416667 0.0833333 4.83333
0.5 0.0833333 4.83333
0.416667 0 4.83333
0.416667 0 4.75
0.416667 0.166667 4.83333
0.5 0 4.75
0.5 0.0833333 4.75
0.583333 0.166667 4.75
0.583333 0.0833333 4.75
0.666667 0.166667 4.75
0.583333 0.0833333 4.83333
0.666667 0.0833333 4.83333
0.583333 0 4.83333
0.583333 0 4.75
0.583333 0.166667 4.83333
0.666667 0 4.75
0.666667 0.0833333 4.75
0.75 0.166667 4.75
0.75 0.0833333 4.75
0.833333 0.166667 4.75
0.75 0.0833333 4.83333
0.833333 0.0833333 4.83333
0.75 0 4.83333
0.75 0 4.75
0.75 0.166667 4.83333
0.833333 0 4.75
0.833333 0.0833333 4.75
0.916667 0.166667 4.75
0.916667 0.0833333 4.75
1 0.166667 4.75
0.916667 0.0833333 4.83333
1 0.0833333 4.83333
0.916667 0 4.83333
0.916667 0 4.75
0.916667 0.166667 4.83333
1 0 4.75
1 0.0833333 4.75
1.08333 0.166667 4.75
1.08333 0.0833333 4.75
1.16667 0.166667 4.75
1.08333 0.0833333 4.83333
1.16667 0.0833333 4.83333
1.08333 0 4.83333
1.08333 0 4.75
1.08333 0.166667 4.83333
1.16667 0 4.75
1.16667 0.0833333 4.75
1.25 0.166667 4.75
1.25 0.0833333 4.75
1.33333 0.166667 4.75
1.25 0.0833333 4.83333
1.33333 0.0833333 4.83333
1.25 0 4.83333
1.25 0 4.75
1.25 0.166667 4.83333
1.33333 0 4.75
1.33333 0.0833333 4.75
1.41667 0.166667 4.75
1.41667 0.0833333 4.75
1.5 0.166667 4.75
1.41667 0.0833333 4.83333
1.5 0.0833333 4.83333
1.41667 0 4.83333
1.41667 0 4.75
1.41667 0.166667 4.83333
1.5 0 4.75
1.5 0.0833333 4.75
1.58333 0.166667 4.75
1.58333 0.0833333 4.75
1.66667 0.166667 4.75
1.58333 0.0833333 4.83333
1.66667 0.0833333 4.83333
1.58333 0 4.83333
1.58333 0 4.75
1.58333 0.166667 4.83333
1.66667 0 4.75
1.66667 0.0833333 4.75
1.75 0.166667 4.75
1.75 0.0833333 4.75
1.83333 0.166667 4.75
1.75 0.0833333 4.83333
1.83333 0.0833333 4.83333
1.75 0 4.83333
1.75 0 4.75
1.75 0.166667 4.83333
1.83333 0 4.75
1.83333 0.0833333 4.75
1.91667 0.166667 4.75
1.91667 0.0833333 4.75
2 0.166667 4.75
1.91667 0.0833333 4.83333
2 0.0833333 4.83333
1.91667 0 4.83333
1.91667 0 4.75
1.91667 0.166667 4.83333
2 0 4.75
2 0.0833333 4.75
2.08333 0.166667 4.75
2.08333 0.0833333 4.75
2.16667 0.166667 4.75
2.08333 0.0833333 4.83333
2.16667 0.0833333 4.83333
2.08333 0 4.83333
2.08333 0 4.75
2.08333 0.166667 4.83333
2.16667 0 4.75
2.16667 0.0833333 4.75
2.25 0.166667 4.75
2.25 0.0833333 4.75
2.33333 0.166667 4.75
2.25 0.0833333 4.83333
2.33333 0.0833333 4.83333
2.25 0 4.83333
2.25 0 4.75
2.25 0.166667 4.83333
2.33333 0 4.75
2.33333 0.0833333 4.75
2.41667 0.166667 4.75
2.41667 0.0833333 4.75
2.5 0.166667 4.75
2.41667 0.0833333 4.83333
2.5 0.0833333 4.83333
2.41667 0 4.83333
2.41667 0 4.75
2.41667 0.166667 4.83333
2.5 0 4.75
2.5 0.0833333 4.75
2.58333 0.166667 4.75
2.58333 0.0833333 4.75
2.66667 0.166667 4.75
2.58333 0.0833333 4.83333
2.66667 0.0833333 4.83333
2.58333 0 4.83333
2.58333 0 4.75
2.58333 0.166667 4.83333
2.66667 0 4.75
2.66667 0.0833333 4.75
2.75 0.166667 4.75
2.75 0.0833333 4.75
2.83333 0.166667 4.75
2.75 0.0833333 4.83333
2.83333 0.0833333 4.83333
2.75 0 4.83333
2.75 0 4.75
2.75 0.166667 4.83333
2.83333 0 4.75
2.83333 0.0833333 4.75
2.91667 0.166667 4.75
2.91667 0.0833333 4.75
3 0.166667 4.75
2.91667 0.0833333 4.83333
3 0.0833333 4.83333
2.91667 0 4.83333
2.91667 0 4.75
2.91667 0.166667 4.83333
3 0 4.75
3 0.0833333 4.75
0.0833333 0.333333 4.75
0.0833333 0.25 4.75
0.166667 0.333333 4.75
0.0833333 0.25 4.83333
0.166667 0.25 4.83333
0 0.333333 4.75
0 0.25 4.75
0.0833333 0.333333 4.83333
0 0.25 4.83333
0.166667 0.25 4.75
0.25 0.333333 4.75
0.25 0.25 4.75
0.333333 0.333333 4.75
0.25 0.25 4.83333
0.333333 0.25 4.83333
0.25 0.333333 4.83333
0.333333 0.25 4.75
0.416667 0.333333 4.75
0.416667 0.25 4.75
0.5 0.333333 4.75
0.416667 0.25 4.83333
0.5 0.25 4.83333
0.416667 0.333333 4.83333
0.5 0.25 4.75
0.583333 0.333333 4.75
0.583333 0.25 4.75
0.666667 0.333333 4.75
0.583333 0.25 4.83333
0.666667 0.25 4.83333
0.583333 0.333333 4.83333
0.666667 0.25 4.75
0.75 0.333333 4.75
0.75 0.25 4.75
0.833333 0.333333 4.75
0.75 0.25 4.83333
0.833333 0.25 4.83333
0.75 0.333333 4.83333
0.833333 0.25 4.75
0.916667 0.333333 4.75
0.916667 0.25 4.75
1 0.333333 4.75
0.916667 0.25 4.83333
1 0.25 4.83333
0.916667 0.333333 4.83333
1 0.25 4.75
1.08333 0.333333 4.75
1.08333 0.25 4.75
1.16667 0.333333 4.75
1.08333 0.25 4.83333
1.16667 0.25 4.83333
1.08333 0.333333 4.83333
1.16667 0.25 4.75
1.25 0.333333 4.75
1.25 0.25 4.75
1.33333 0.333333 4.75
1.25 0.25 4.83333
1.33333 0.25 4.83333
1.25 0.333333 4.83333
1.33333 0.25 4.75
1.41667 0.333333 4.75
1.41667 0.25 4.75
1.5 0.333333 4.75
1.41667 0.25 4.83333
1.5 0.25 4.83333
1.41667 0.333333 4.83333
1.5 0.25 4.75
1.58333 0.333333 4.75
1.58333 0.25 4.75
1.66667 0.333333 4.75
1.58333 0.25 4.83333
1.66667 0.25 4.83333
1.58333 0.333333 4.83333
1.66667 0.25 4.75
1.75 0.333333 4.75
1.75 0.25 4.75
1.83333 0.333333 4.75
1.75 0.25 4.83333
1.83333 0.25 4.83333
1.75 0.333333 4.83333
1.83333 0.25 4.75
1.91667 0.333333 4.75
1.91667 0.25 4.75
2 0.333333 4.75
1.91667 0.25 4.83333
2 0.25 4.83333
1.91667 0.333333 4.83333
2 0.25 4.75
2.08333 0.333333 4.75
2.08333 0.25 4.75
2.16667 0.333333 4.75
2.08333 0.25 4.83333
2.16667 0.25 4.83333
2.08333 0.333333 4.83333
2.16667 0.25 4.75
2.25 0.333333 4.75
2.25 0.25 4.75
2.33333 0.333333 4.75
2.25 0.25 4.83333
2.33333 0.25 4.83333
2.25 0.333333 4.83333
2.33333 0.25 4.75
2.41667 0.333333 4.75
2.41667 0.25 4.75
2.5 0.333333 4.75
2.41667 0.25 4.83333
2.5 0.25 4.83333
2.41667 0.333333 4.83333
2.5 0.25 4.75
2.58333 0.333333 4.75
2.58333 0.25 4.75
2.66667 0.333333 4.75
2.58333 0.25 4.83333
2.66667 0.25 4.83333
2.58333 0.333333 4.83333
2.66667 0.25 4.75
2.75 0.333333 4.75
2.75 0.25 4.75
2.83333 0.333333 4.75
2.75 0.25 4.83333
2.83333 0.25 4.83333
2.75 0.333333 4.83333
2.83333 0.25 4.75
2.91667 0.333333 4.75
2.91667 0.25 4.75
3 0.333333 4.75
2.91667 0.25 4.83333
3 0.25 4.83333
2.91667 0.333333 4.83333
3 0.25 4.75
0.0833333 0.5 4.75
0.0833333 0.416667 4.75
0.166667 0.5 4.75
0.0833333 0.416667 4.83333
0.166667 0.416667 4.83333
0 0.5 4.75
0 0.416667 4.75
0.0833333 0.5 4.83333
0 0.416667 4.83333
0.166667 0.416667 4.75
0.25 0.5 4.75
0.25 0.416667 4.75
0.333333 0.5 4.75
0.25 0.416667 4.83333
0.333333 0.416667 4.83333
0.25 0.5 4.83333
0.333333 0.416667 4.75
0.416667 0.5 4.75
0.416667 0.416667 4.75
0.5 0.5 4.75
0.416667 0.416667 4.83333
0.5 0.416667 4.83333
0.416667 0.5 4.83333
0.5 0.416667 4.75
0.583333 0.5 4.75
0.583333 0.416667 4.75
0.666667 0.5 4.75
0.583333 0.416667 4.83333
0.666667 0.416667 4.83333
0.583333 0.5 4.83333
0.666667 0.416667 4.75
0.75 0.5 4.75
0.75 0.416667 4.75
0.833333 0.5 4.75
0.75 0.416667 4.83333
0.833333 0.416667 4.83333
0.75 0.5 4.83333
0.833333 0.416667 4.75
0.916667 0.5 4.75
0.916667 0.416667 4.75
1 0.5 4.75
0.916667 0.416667 4.83333
1 0.416667 4.83333
0.916667 0.5 4.83333
1 0.416667 4.75
1.08333 0.5 4.75
1.08333 0.416667 4.75
1.16667 0.5 4.75
1.08333 0.416667 4.83333
1.16667 0.416667 4.83333
1.08333 0.5 4.83333
1.16667 0.416667 4.75
1.25 0.5 4.75
1.25 0.416667 4.75
1.33333 0.5 4.75
1.25 0.416667 4.83333
1.33333 0.416667 4.83333
1.25 0.5 4.83333
1.33333 0.416667 4.75
1.41667 0.5 4.75
1.41667 0.416667 4.75
1.5 0.5 4.75
1.41667 0.416667 4.83333
1.5 0.416667 4.83333
1.41667 0.5 4.83333
1.5 0.416667 4.75
1.58333 0.5 4.75
1.58333 0.416667 4.75
1.66667 0.5 4.75
1.58333 0.416667 4.83333
1.66667 0.416667 4.83333
1.58333 0.5 4.83333
1.66667 0.416667 4.75
1.75 0.5 4.75
1.75 0.416667 4.75
1.83333 0.5 4.75
1.75 0.416667 4.83333
1.83333 0.416667 4.83333
1.75 0.5 4.83333
1.83333 0.416667 4.75
1.91667 0.5 4.75
1.91667 0.416667 4.75
2 0.5 4.75
1.91667 0.416667 4.83333
2 0.416667 4.83333
1.91667 0.5 4.83333
2 0.416667 4.75
2.08333 0.5 4.75
2.08333 0.416667 4.75
2.16667 0.5 4.75
2.08333 0.416667 4.83333
2.16667 0.416667 4.83333
2.08333 0.5 4.83333
2.16667 0.416667 4.75
2.25 0.5 4.75
2.25 0.416667 4.75
2.33333 0.5 4.75
2.25 0.416667 4.83333
2.33333 0.416667 4.83333
2.25 0.5 4.83333
2.33333 0.416667 4.75
2.41667 0.5 4.75
2.41667 0.416667 4.75
2.5 0.5 4.75
2.41667 0.416667 4.83333
2.5 0.416667 4.83333
2.41667 0.5 4.83333
2.5 0.416667 4.75
2.58333 0.5 4.75
2.58333 0.416667 4.75
2.66667 0.5 4.75
2.58333 0.416667 4.83333
2.66667 0.416667 4.83333
2.58333 0.5 4.83333
2.66667 0.416667 4.75
2.75 0.5 4.75
2.75 0.416667 4.75
2.83333 0.5 4.75
2.75 0.416667 4.83333
2.83333 0.416667 4.83333
2.75 0.5 4.83333
2.83333 0.416667 4.75
2.91667 0.5 4.75
2.91667 0.416667 4.75
3 0.5 4.75
2.91667 0.416667 4.83333
3 0.416667 4.83333
2.91667 0.5 4.83333
3 0.416667 4.75
0.0833333 0.666667 4.75
0.0833333 0.583333 4.75
0.166667 0.666667 4.75
0.0833333 0.583333 4.83333
0.166667 0.583333 4.83333
0 0.666667 4.75
0 0.583333 4.75
0.0833333 0.666667 4.83333
0 0.583333 4.83333
0.166667 0.583333 4.75
0.25 0.666667 4.75
0.25 0.583333 4.75
0.333333 0.666667 4.75
0.25 0.583333 4.83333
0.333333 0.583333 4.83333
0.25 0.666667 4.83333
0.333333 0.583333 4.75
0.416667 0.666667 4.75
0.416667 0.583333 4.75
0.5 0.666667 4.75
0.416667 0.583333 4.83333
0.5 0.583333 4.83333
0.416667 0.666667 4.83333
0.5 0.583333 4.75
0.583333 0.666667 4.75
0.583333 0.583333 4.75
0.666667 0.666667 4.75
0.583333 0.583333 4.83333
0.666667 0.583333 4.83333
0.583333 0.666667 4.83333
0.666667 0.583333 4.75
0.75 0.666667 4.75
0.75 0.583333 4.75
0.833333 0.666667 4.75
0.75 0.583333 4.83333
0.833333 0.583333 4.83333
0.75 0.666667 4.83333
0.833333 0.583333 4.75
0.916667 0.666667 4.75
0.916667 0.583333 4.75
1 0.666667 4.75
0.916667 0.583333 4.83333
1 0.583333 4.83333
0.916667 0.666667 4.83333
1 0.583333 4.75
1.08333 0.666667 4.75
1.08333 0.583333 4.75
1.16667 0.666667 4.75
1.08333 0.583333 4.83333
1.16667 0.583333 4.83333
1.08333 0.666667 4.83333
1.16667 0.583333 4.75
1.25 0.666667 4.75
1.25 0.583333 4.75
1.33333 0.666667 4.75
1.25 0.583333 4.83333
1.33333 0.583333 4.83333
1.25 0.666667 4.83333
1.33333 0.583333 4.75
1.41667 0.666667 4.75
1.41667 0.583333 4.75
1.5 0.666667 4.75
1.41667 0.583333 4.83333
1.5 0.583333 4.83333
1.41667 0.666667 4.83333
1.5 0.583333 4.75
1.58333 0.666667 4.75
1.58333 0.583333 4.75
1.66667 0.666667 4.75
1.58333 0.583333 4.83333
1.66667 0.583333 4.83333
1.58333 0.666667 4.83333
1.66667 0.583333 4.75
1.75 0.666667 4.75
1.75 0.583333 4.75
1.83333 0.666667 4.75
1.75 0.583333 4.83333
1.83333 0.583333 4.83333
1.75 0.666667 4.83333
1.83333 0.583333 4.75
1.91667 0.666667 4.75
1.91667 0.583333 4.75
2 0.666667 4.75
1.91667 0.583333 4.83333
2 0.583333 4.83333
1.91667 0.666667 4.83333
2 0.583333 4.75
2.08333 0.666667 4.75
2.08333 0.583333 4.75
2.16667 0.666667 4.75
2.08333 0.583333 4.83333
2.16667 0.583333 4.83333
2.08333 0.666667 4.83333
2.16667 0.583333 4.75
2.25 0.666667 4.75
2.25 0.583333 4.75
2.33333 0.666667 4.75
2.25 0.583333 4.83333
2.33333 0.583333 4.83333
2.25 0.666667 4.83333
2.33333 0.583333 4.75
2.41667 0.666667 4.75
2.41667 0.583333 4.75
2.5 0.666667 4.75
2.41667 0.583333 4.83333
2.5 0.583333 4.83333
2.41667 0.666667 4.83333
2.5 0.583333 4.75
2.58333 0.666667 4.75
2.58333 0.583333 4.75
2.66667 0.666667 4.75
2.58333 0.583333 4.83333
2.66667 0.583333 4.83333
2.58333 0.666667 4.83333
2.66667 0.583333 4.75
2.75 0.666667 4.75
2.75 0.583333 4.75
2.83333 0.666667 4.75
2.75 0.583333 4.83333
2.83333 0.583333 4.83333
2.75 0.666667 4.83333
2.83333 0.583333 4.75
2.91667 0.666667 4.75
2.91667 0.583333 4.75
3 0.666667 4.75
2.91667 0.583333 4.83333
3 0.583333 4.83333
2.91667 0.666667 4.83333
3 0.583333 4.75
0.0833333 0.833333 4.75
0.0833333 0.75 4.75
0.166667 0.833333 4.75
0.0833333 0.75 4.83333
0.166667 0.75 4.83333
0 0.833333 4.75
0 0.75 4.75
0.0833333 0.833333 4.83333
0 0.75 4.83333
0.166667 0.75 4.75
0.25 0.833333 4.75
0.25 0.75 4.75
0.333333 0.833333 4.75
0.25 0.75 4.83333
0.333333 0.75 4.83333
0.25 0.833333 4.83333
0.333333 0.75 4.75
0.416667 0.833333 4.75
0.416667 0.75 4.75
0.5 0.833333 4.75
0.416667 0.75 4.83333
0.5 0.75 4.83333
0.416667 0.833333 4.83333
0.5 0.75 4.75
0.583333 0.833333 4.75
0.583333 0.75 4.75
0.666667 0.833333 4.75
0.583333 0.75 4.83333
0.666667 0.75 4.83333
0.583333 0.833333 4.83333
0.666667 0.75 4.75
0.75 0.833333 4.75
0.75 0.75 4.75
0.833333 0.833333 4.75
0.75 0.75 4.83333
0.833333 0.75 4.83333
0.75 0.833333 4.83333
0.833333 0.75 4.75
0.916667 0.833333 4.75
0.916667 0.75 4.75
1 0.833333 4.75
0.916667 0.75 4.83333
1 0.75 4.83333
0.916667 0.833333 4.83333
1 0.75 4.75
1.08333 0.833333 4.75
1.08333 0.75 4.75
1.16667 0.833333 4.75
1.08333 0.75 4.83333
1.16667 0.75 4.83333
1.08333 0.833333 4.83333
1.16667 0.75 4.75
1.25 0.833333 4.75
1.25 0.75 4.75
1.33333 0.833333 4.75
1.25 0.75 4.83333
1.33333 0.75 4.83333
1.25 0.833333 4.83333
1.33333 0.75 4.75
1.41667 0.833333 4.75
1.41667 0.75 4.75
1.5 0.833333 4.75
1.41667 0.75 4.83333
1.5 0.75 4.83333
1.41667 0.833333 4.83333
1.5 0.75 4.75
1.58333 0.833333 4.75
1.58333 0.75 4.75
1.66667 0.833333 4.75
1.58333 0.75 4.83333
1.66667 0.75 4.83333
1.58333 0.833333 4.83333
1.66667 0.75 4.75
1.75 0.833333 4.75
1.75 0.75 4.75
1.83333 0.833333 4.75
1.75 0.75 4.83333
1.83333 0.75 4.83333
1.75 0.833333 4.83333
1.83333 0.75 4.75
1.91667 0.833333 4.75
1.91667 0.75 4.75
2 0.833333 4.75
1.91667 0.75 4.83333
2 0.75 4.83333
1.91667 0.833333 4.83333
2 0.75 4.75
2.08333 0.833333 4.75
2.08333 0.75 4.75
2.16667 0.833333 4.75
2.08333 0.75 4.83333
2.16667 0.75 4.83333
2.08333 0.833333 4.83333
2.16667 0.75 4.75
2.25 0.833333 4.75
2.25 0.75 4.75
2.33333 0.833333 4.75
2.25 0.75 4.83333
2.33333 0.75 4.83333
2.25 0.833333 4.83333
2.33333 0.75 4.75
2.41667 0.833333 4.75
2.41667 0.75 4.75
2.5 0.833333 4.75
2.41667 0.75 4.83333
2.5 0.75 4.83333
2.41667 0.833333 4.83333
2.5 0.75 4.75
2.58333 0.833333 4.75
2.58333 0.75 4.75
2.66667 0.833333 4.75
2.58333 0.75 4.83333
2.66667 0.75 4.83333
2.58333 0.833333 4.83333
2.66667 0.75 4.75
2.75 0.833333 4.75
2.75 0.75 4.75
2.83333 0.833333 4.75
2.75 0.75 4.83333
2.83333 0.75 4.83333
2.75 0.833333 4.83333
2.83333 0.75 4.75
2.91667 0.833333 4.75
2.91667 0.75 4.75
3 0.833333 4.75
2.91667 0.75 4.83333
3 0.75 4.83333
2.91667 0.833333 4.83333
3 0.75 4.75
0.0833333 1 4.75
0.0833333 0.916667 4.75
0.166667 1 4.75
0.0833333 0.916667 4.83333
0.166667 0.916667 4.83333
0 1 4.75
0 0.916667 4.75
0.0833333 1 4.83333
0 0.916667 4.83333
0.166667 0.916667 4.75
0.25 1 4.75
0.25 0.916667 4.75
0.333333 1 4.75
0.25 0.916667 4.83333
0.333333 0.916667 4.83333
0.25 1 4.83333
0.333333 0.916667 4.75
0.416667 1 4.75
0.416667 0.916667 4.75
0.5 1 4.75
0.416667 0.916667 4.83333
0.5 0.916667 4.83333
0.416667 1 4.83333
0.5 0.916667 4.75
0.583333 1 4.75
0.583333 0.916667 4.75
0.666667 1 4.75
0.583333 0.916667 4.83333
0.666667 0.916667 4.83333
0.583333 1 4.83333
0.666667 0.916667 4.75
0.75 1 4.75
0.75 0.916667 4.75
0.833333 1 4.75
0.75 0.916667 4.83333
0.833333 0.916667 4.83333
0.75 1 4.83333
0.833333 0.916667 4.75
0.916667 1 4.75
0.916667 0.916667 4.75
1 1 4.75
0.916667 0.916667 4.83333
1 0.916667 4.83333
0.916667 1 4.83333
1 0.916667 4.75
1.08333 1 4.75
1.08333 0.916667 4.75
1.16667 1 4.75
1.08333 0.916667 4.83333
1.16667 0.916667 4.83333
1.08333 1 4.83333
1.16667 0.916667 4.75
1.25 1 4.75
1.25 0.916667 4.75
1.33333 1 4.75
1.25 0.916667 4.83333
1.33333 0.916667 4.83333
1.25 1 4.83333
1.33333 0.916667 4.75
1.41667 1 4.75
1.41667 0.916667 4.75
1.5 1 4.75
1.41667 0.916667 4.83333
1.5 0.916667 4.83333
1.41667 1 4.83333
1.5 0.916667 4.75
1.58333 1 4.75
1.58333 0.916667 4.75
1.66667 1 4.75
1.58333 0.916667 4.83333
1.66667 0.916667 4.83333
1.58333 1 4.83333
1.66667 0.916667 4.75
1.75 1 4.75
1.75 0.916667 4.75
1.83333 1 4.75
1.75 0.916667 4.83333
1.83333 0.916667 4.83333
1.75 1 4.83333
1.83333 0.916667 4.75
1.91667 1 4.75
1.91667 0.916667 4.75
2 1 4.75
1.91667 0.916667 4.83333
2 0.916667 4.83333
1.91667 1 4.83333
2 0.916667 4.75
2.08333 1 4.75
2.08333 0.916667 4.75
2.16667 1 4.75
2.08333 0.916667 4.83333
2.16667 0.916667 4.83333
2.08333 1 4.83333
2.16667 0.916667 4.75
2.25 1 4.75
2.25 0.916667 4.75
2.33333 1 4.75
2.25 0.916667 4.83333
2.33333 0.916667 4.83333
2.25 1 4.83333
2.33333 0.916667 4.75
2.41667 1 4.75
2.41667 0.916667 4.75
2.5 1 4.75
2.41667 0.916667 4.83333
2.5 0.916667 4.83333
2.41667 1 4.83333
2.5 0.916667 4.75
2.58333 1 4.75
2.58333 0.916667 4.75
2.66667 1 4.75
2.58333 0.916667 4.83333
2.66667 0.916667 4.83333
2.58333 1 4.83333
2.66667 0.916667 4.75
2.75 1 4.75
2.75 0.916667 4.75
2.83333 1 4.75
2.75 0.916667 4.83333
2.83333 0.916667 4.83333
2.75 1 4.83333
2.83333 0.916667 4.75
2.91667 1 4.75
2.91667 0.916667 4.75
3 1 4.75
2.91667 0.916667 4.83333
3 0.916667 4.83333
2.91667 1 4.83333
3 0.916667 4.75
0.0833333 0.166667 4.91667
0.0833333 0.0833333 4.91667
0.166667 0.166667 4.91667
0.0833333 0.0833333 5
0.166667 0.0833333 5
0.0833333 0 5
0 0 4.91667
0.0833333 0 4.91667
0 0.166667 4.91667
0 0.0833333 4.91667
0.0833333 0.166667 5
0 0.0833333 5
0.166667 0 4.91667
0.166667 0.0833333 4.91667
0.25 0.166667 4.91667
0.25 0.0833333 4.91667
0.333333 0.166667 4.91667
0.25 0.0833333 5
0.333333 0.0833333 5
0.25 0 5
0.25 0 4.91667
0.25 0.166667 5
0.333333 0 4.91667
0.333333 0.0833333 4.91667
0.416667 0.166667 4.91667
0.416667 0.0833333 4.91667
0.5 0.166667 4.91667
0.416667 0.0833333 5
0.5 0.0833333 5
0.416667 0 5
0.416667 0 4.91667
0.416667 0.166667 5
0.5 0 4.91667
0.5 0.0833333 4.91667
0.583333 0.166667 4.91667
0.583333 0.0833333 4.91667
0.666667 0.166667 4.91667
0.583333 0.0833333 5
0.666667 0.0833333 5
0.583333 0 5
0.583333 0 4.91667
0.583333 0.166667 5
0.666667 0 4.91667
0.666667 0.0833333 4.91667
0.75 0.166667 4.91667
0.75 0.0833333 4.91667
0.833333 0.166667 4.91667
0.75 0.0833333 5
0.833333 0.0833333 5
0.75 0 5
0.75 0 4.91667
0.75 0.166667 5
0.833333 0 4.91667
0.833333 0.0833333 4.91667
0.916667 0.166667 4.91667
0.916667 0.0833333 4.91667
1 0.166667 4.91667
0.916667 0.0833333 5
1 0.0833333 5
0.916667 0 5
0.916667 0 4.91667
0.916667 0.166667 5
1 0 4.91667
1 0.0833333 4.91667
1.08333 0.166667 4.91667
1.08333 0.0833333 4.91667
1.16667 0.166667 4.91667
1.08333 0.0833333 5
1.16667 0.0833333 5
1.08333 0 5
1.08333 0 4.91667
1.08333 0.166667 5
1.16667 0 4.91667
1.16667 0.0833333 4.91667
1.25 0.166667 4.91667
1.25 0.0833333 4.91667
1.33333 0.166667 4.91667
1.25 0.0833333 5
1.33333 0.0833333 5
1.25 0 5
1.25 0 4.91667
1.25 0.166667 5
1.33333 0 4.91667
1.33333 0.0833333 4.91667
1.41667 0.166667 4.91667
1.41667 0.0833333 4.91667
1.5 0.166667 4.91667
1.41667 0.0833333 5
1.5 0.0833333 5
1.41667 0 5
1.41667 0 4.91667
1.41667 0.166667 5
1.5 0 4.91667
1.5 0.0833333 4.91667
1.58333 0.166667 4.91667
1.58333 0.0833333 4.91667
1.66667 0.166667 4.91667
1.58333 0.0833333 5
1.66667 0.0833333 5
1.58333 0 5
1.58333 0 4.91667
1.58333 0.166667 5
1.66667 0 4.91667
1.66667 0.0833333 4.91667
1.75 0.166667 4.91667
1.75 0.0833333 4.91667
1.83333 0.166667 4.91667
1.75 0.0833333 5
1.83333 0.0833333 5
1.75 0 5
1.75 0 4.91667
1.75 0.166667 5
1.83333 0 4.91667
1.83333 0.0833333 4.91667
1.91667 0.166667 4.91667
1.91667 0.0833333 4.91667
2 0.166667 4.91667
1.91667 0.0833333 5
2 0.0833333 5
1.91667 0 5
1.91667 0 4.91667
1.91667 0.166667 5
2 0 4.91667
2 0.0833333 4.91667
2.08333 0.166667 4.91667
2.08333 0.0833333 4.91667
2.16667 0.166667 4.91667
2.08333 0.0833333 5
2.16667 0.0833333 5
2.08333 0 5
2.08333 0 4.91667
2.08333 0.166667 5
2.16667 0 4.91667
2.16667 0.0833333 4.91667
2.25 0.166667 4.91667
2.25 0.0833333 4.91667
2.33333 0.166667 4.91667
2.25 0.0833333 5
2.33333 0.0833333 5
2.25 0 5
2.25 0 4.91667
2.25 0.166667 5
2.33333 0 4.91667
2.33333 0.0833333 4.91667
2.41667 0.166667 4.91667
2.41667 0.0833333 4.91667
2.5 0.166667 4.91667
2.41667 0.0833333 5
2.5 0.0833333 5
2.41667 0 5
2.41667 0 4.91667
2.41667 0.166667 5
2.5 0 4.91667
2.5 0.0833333 4.91667
2.58333 0.166667 4.91667
2.58333 0.0833333 4.91667
2.66667 0.166667 4.91667
2.58333 0.0833333 5
2.66667 0.0833333 5
2.58333 0 5
2.58333 0 4.91667
2.58333 0.166667 5
2.66667 0 4.91667
2.66667 0.0833333 4.91667
2.75 0.166667 4.91667
2.75 0.0833333 4.91667
2.83333 0.166667 4.91667
2.75 0.0833333 5
2.83333 0.0833333 5
2.75 0 5
2.75 0 4.91667
2.75 0.166667 5
2.83333 0 4.91667
2.83333 0.0833333 4.91667
2.91667 0.166667 4.91667
2.91667 0.0833333 4.91667
3 0.166667 4.91667
2.91667 0.0833333 5
3 0.0833333 5
2.91667 0 5
2.91667 0 4.91667
2.91667 0.166667 5
3 0 4.91667
3 0.0833333 4.91667
0.0833333 0.333333 4.91667
0.0833333 0.25 4.91667
0.166667 0.333333 4.91667
0.0833333 0.25 5
0.166667 0.25 5
0 0.333333 4.91667
0 0.25 4.91667
0.0833333 0.333333 5
0 0.25 5
0.166667 0.25 4.91667
0.25 0.333333 4.91667
0.25 0.25 4.91667
0.333333 0.333333 4.91667
0.25 0.25 5
0.333333 0.25 5
0.25 0.333333 5
0.333333 0.25 4.91667
0.416667 0.333333 4.91667
0.416667 0.25 4.91667
0.5 0.333333 4.91667
0.416667 0.25 5
0.5 0.25 5
0.416667 0.333333 5
0.5 0.25 4.91667
0.583333 0.333333 4.91667
0.583333 0.25 4.91667
0.666667 0.333333 4.91667
0.583333 0.25 5
0.666667 0.25 5
0.583333 0.333333 5
0.666667 0.25 4.91667
0.75 0.333333 4.91667
0.75 0.25 4.91667
0.833333 0.333333 4.91667
0.75 0.25 5
0.833333 0.25 5
0.75 0.333333 5
0.833333 0.25 4.91667
0.916667 0.333333 4.91667
0.916667 0.25 4.91667
1 0.333333 4.91667
0.916667 0.25 5
1 0.25 5
0.916667 0.333333 5
1 0.25 4.91667
1.08333 0.333333 4.91667
1.08333 0.25 4.91667
1.16667 0.333333 4.91667
1.08333 0.25 5
1.16667 0.25 5
1.08333 0.333333 5
1.16667 0.25 4.91667
1.25 0.333333 4.91667
1.25 0.25 4.91667
1.33333 0.333333 4.91667
1.25 0.25 5
1.33333 0.25 5
1.25 0.333333 5
1.33333 0.25 4.91667
1.41667 0.333333 4.91667
1.41667 0.25 4.91667
1.5 0.333333 4.91667
1.41667 0.25 5
1.5 0.25 5
1.41667 0.333333 5
1.5 0.25 4.91667
1.58333 0.333333 4.91667
1.58333 0.25 4.91667
1.66667 0.333333 4.91667
1.58333 0.25 5
1.66667 0.25 5
1.58333 0.333333 5
1.66667 0.25 4.91667
1.75 0.333333 4.91667
1.75 0.25 4.91667
1.83333 0.333333 4.91667
1.75 0.25 5
1.83333 0.25 5
1.75 0.333333 5
1.83333 0.25 4.91667
1.91667 0.333333 4.91667
1.91667 0.25 4.91667
2 0.333333 4.91667
1.91667 0.25 5
2 0.25 5
1.91667 0.333333 5
2 0.25 4.91667
2.08333 0.333333 4.91667
2.08333 0.25 4.91667
2.16667 0.333333 4.91667
2.08333 0.25 5
2.16667 0.25 5
2.08333 0.333333 5
2.16667 0.25 4.91667
2.25 0.333333 4.91667
2.25 0.25 4.91667
2.33333 0.333333 4.91667
2.25 0.25 5
2.33333 0.25 5
2.25 0.333333 5
2.33333 0.25 4.91667
2.41667 0.333333 4.91667
2.41667 0.25 4.91667
2.5 0.333333 4.91667
2.41667 0.25 5
2.5 0.25 5
2.41667 0.333333 5
2.5 0.25 4.91667
2.58333 0.333333 4.91667
2.58333 0.25 4.91667
2.66667 0.333333 4.91667
2.58333 0.25 5
2.66667 0.25 5
2.58333 0.333333 5
2.66667 0.25 4.91667
2.75 0.333333 4.91667
2.75 0.25 4.91667
2.83333 0.333333 4.91667
2.75 0.25 5
2.83333 0.25 5
2.75 0.333333 5
2.83333 0.25 4.91667
2.91667 0.333333 4.91667
2.91667 0.25 4.91667
3 0.333333 4.91667
2.91667 0.25 5
3 0.25 5
2.91667 0.333333 5
3 0.25 4.91667
0.0833333 0.5 4.91667
0.0833333 0.416667 4.91667
0.166667 0.5 4.91667
0.0833333 0.416667 5
0.166667 0.416667 5
0 0.5 4.91667
0 0.416667 4.91667
0.0833333 0.5 5
0 0.416667 5
0.166667 0.416667 4.91667
0.25 0.5 4.91667
0.25 0.416667 4.91667
0.333333 0.5 4.91667
0.25 0.416667 5
0.333333 0.416667 5
0.25 0.5 5
0.333333 0.416667 4.91667
0.416667 0.5 4.91667
0.416667 0.416667 4.91667
0.5 0.5 4.91667
0.416667 0.416667 5
0.5 0.416667 5
0.416667 0.5 5
0.5 0.416667 4.91667
0.583333 0.5 4.91667
0.583333 0.416667 4.91667
0.666667 0.5 4.91667
0.583333 0.416667 5
0.666667 0.416667 5
0.583333 0.5 5
0.666667 0.416667 4.91667
0.75 0.5 4.91667
0.75 0.416667 4.91667
0.833333 0.5 4.91667
0.75 0.416667 5
0.833333 0.416667 5
0.75 0.5 5
0.833333 0.416667 4.91667
0.916667 0.5 4.91667
0.916667 0.416667 4.91667
1 0.5 4.91667
0.916667 0.416667 5
1 0.416667 5
0.916667 0.5 5
1 0.416667 4.91667
1.08333 0.5 4.91667
1.08333 0.416667 4.91667
1.16667 0.5 4.91667
1.08333 0.416667 5
1.16667 0.416667 5
1.08333 0.5 5
1.16667 0.416667 4.91667
1.25 0.5 4.91667
1.25 0.416667 4.91667
1.33333 0.5 4.91667
1.25 0.416667 5
1.33333 0.416667 5
1.25 0.5 5
1.33333 0.416667 4.91667
1.41667 0.5 4.91667
1.41667 0.416667 4.91667
1.5 0.5 4.91667
1.41667 0.416667 5
1.5 0.416667 5
1.41667 0.5 5
1.5 0.416667 4.91667
1.58333 0.5 4.91667
1.58333 0.416667 4.91667
1.66667 0.5 4.91667
1.58333 0.416667 5
1.66667 0.416667 5
1.58333 0.5 5
1.66667 0.416667 4.91667
1.75 0.5 4.91667
1.75 0.416667 4.91667
1.83333 0.5 4.91667
1.75 0.416667 5
1.83333 0.416667 5
1.75 0.5 5
1.83333 0.416667 4.91667
1.91667 0.5 4.91667
1.91667 0.416667 4.91667
2 0.5 4.91667
1.91667 0.416667 5
2 0.416667 5
1.91667 0.5 5
2 0.416667 4.91667
2.08333 0.5 4.91667
2.08333 0.416667 4.91667
2.16667 0.5 4.91667
2.08333 0.416667 5
2.16667 0.416667 5
2.08333 0.5 5
2.16667 0.416667 4.91667
2.25 0.5 4.91667
2.25 0.416667 4.91667
2.33333 0.5 4.91667
2.25 0.416667 5
2.33333 0.416667 5
2.25 0.5 5
2.33333 0.416667 4.91667
2.41667 0.5 4.91667
2.41667 0.416667 4.91667
2.5 0.5 4.91667
2.41667 0.416667 5
2.5 0.416667 5
2.41667 0.5 5
2.5 0.416667 4.91667
2.58333 0.5 4.91667
2.58333 0.416667 4.91667
2.66667 0.5 4.91667
2.58333 0.416667 5
2.66667 0.416667 5
2.58333 0.5 5
2.66667 0.416667 4.91667
2.75 0.5 4.91667
2.75 0.416667 4.91667
2.83333 0.5 4.91667
2.75 0.416667 5
2.83333 0.416667 5
2.75 0.5 5
2.83333 0.416667 4.91667
2.91667 0.5 4.91667
2.91667 0.416667 4.91667
3 0.5 4.91667
2.91667 0.416667 5
3 0.416667 5
2.91667 0.5 5
3 0.416667 4.91667
0.0833333 0.666667 4.91667
0.0833333 0.583333 4.91667
0.166667 0.666667 4.91667
0.0833333 0.583333 5
0.166667 0.583333 5
0 0.666667 4.91667
0 0.583333 4.91667
0.0833333 0.666667 5
0 0.583333 5
0.166667 0.583333 4.91667
0.25 0.666667 4.91667
0.25 0.583333 4.91667
0.333333 0.666667 4.91667
0.25 0.583333 5
0.333333 0.583333 5
0.25 0.666667 5
0.333333 0.583333 4.91667
0.416667 0.666667 4.91667
0.416667 0.583333 4.91667
0.5 0.666667 4.91667
0.416667 0.583333 5
0.5 0.583333 5
0.416667 0.666667 5
0.5 0.583333 4.91667
0.583333 0.666667 4.91667
0.583333 0.583333 4.91667
0.666667 0.666667 4.91667
0.583333 0.583333 5
0.666667 0.583333 5
0.583333 0.666667 5
0.666667 0.583333 4.91667
0.75 0.666667 4.91667
0.75 0.583333 4.91667
0.833333 0.666667 4.91667
0.75 0.583333 5
0.833333 0.583333 5
0.75 0.666667 5
0.833333 0.583333 4.91667
0.916667 0.666667 4.91667
0.916667 0.583333 4.91667
1 0.666667 4.91667
0.916667 0.583333 5
1 0.583333 5
0.916667 0.666667 5
1 0.583333 4.91667
1.08333 0.666667 4.91667
1.08333 0.583333 4.91667
1.16667 0.666667 4.91667
1.08333 0.583333 5
1.16667 0.583333 5
1.08333 0.666667 5
1.16667 0.583333 4.91667
1.25 0.666667 4.91667
1.25 0.583333 4.91667
1.33333 0.666667 4.91667
1.25 0.583333 5
1.33333 0.583333 5
1.25 0.666667 5
1.33333 0.583333 4.91667
1.41667 0.666667 4.91667
1.41667 0.583333 4.91667
1.5 0.666667 4.91667
1.41667 0.583333 5
1.5 0.583333 5
1.41667 0.666667 5
1.5 0.583333 4.91667
1.58333 0.666667 4.91667
1.58333 0.583333 4.91667
1.66667 0.666667 4.91667
1.58333 0.583333 5
1.66667 0.583333 5
1.58333 0.666667 5
1.66667 0.583333 4.91667
1.75 0.666667 4.91667
1.75 0.583333 4.91667
1.83333 0.666667 4.91667
1.75 0.583333 5
1.83333 0.583333 5
1.75 0.666667 5
1.83333 0.583333 4.91667
1.91667 0.666667 4.91667
1.91667 0.583333 4.91667
2 0.666667 4.91667
1.91667 0.583333 5
2 0.583333 5
1.91667 0.666667 5
2 0.583333 4.91667
2.08333 0.666667 4.91667
2.08333 0.583333 4.91667
2.16667 0.666667 4.91667
2.08333 0.583333 5
2.16667 0.583333 5
2.08333 0.666667 5
2.16667 0.583333 4.91667
2.25 0.666667 4.91667
2.25 0.583333 4.91667
2.33333 0.666667 4.91667
2.25 0.583333 5
2.33333 0.583333 5
2.25 0.666667 5
2.33333 0.583333 4.91667
2.41667 0.666667 4.91667
2.41667 0.583333 4.91667
2.5 0.666667 4.91667
2.41667 0.583333 5
2.5 0.583333 5
2.41667 0.666667 5
2.5 0.583333 4.91667
2.58333 0.666667 4.91667
2.58333 0.583333 4.91667
2.66667 0.666667 4.91667
2.58333 0.583333 5
2.66667 0.583333 5
2.58333 0.666667 5
2.66667 0.583333 4.91667
2.75 0.666667 4.91667
2.75 0.583333 4.91667
2.83333 0.666667 4.91667
2.75 0.583333 5
2.83333 0.583333 5
2.75 0.666667 5
2.83333 0.583333 4.91667
2.91667 0.666667 4.91667
2.91667 0.583333 4.91667
3 0.666667 4.91667
2.91667 0.583333 5
3 0.583333 5
2.91667 0.666667 5
3 0.583333 4.91667
0.0833333 0.833333 4.91667
0.0833333 0.75 4.91667
0.166667 0.833333 4.91667
0.0833333 0.75 5
0.166667 0.75 5
0 0.833333 4.91667
0 0.75 4.91667
0.0833333 0.833333 5
0 0.75 5
0.166667 0.75 4.91667
0.25 0.833333 4.91667
0.25 0.75 4.91667
0.333333 0.833333 4.91667
0.25 0.75 5
0.333333 0.75 5
0.25 0.833333 5
0.333333 0.75 4.91667
0.416667 0.833333 4.91667
0.416667 0.75 4.91667
0.5 0.833333 4.91667
0.416667 0.75 5
0.5 0.75 5
0.416667 0.833333 5
0.5 0.75 4.91667
0.583333 0.833333 4.91667
0.583333 0.75 4.91667
0.666667 0.833333 4.91667
0.583333 0.75 5
0.666667 0.75 5
0.583333 0.833333 5
0.666667 0.75 4.91667
0.75 0.833333 4.91667
0.75 0.75 4.91667
0.833333 0.833333 4.91667
0.75 0.75 5
0.833333 0.75 5
0.75 0.833333 5
0.833333 0.75 4.91667
0.916667 0.833333 4.91667
0.916667 0.75 4.91667
1 0.833333 4.91667
0.916667 0.75 5
1 0.75 5
0.916667 0.833333 5
1 0.75 4.91667
1.08333 0.833333 4.91667
1.08333 0.75 4.91667
1.16667 0.833333 4.91667
1.08333 0.75 5
1.16667 0.75 5
1.08333 0.833333 5
1.16667 0.75 4.91667
1.25 0.833333 4.91667
1.25 0.75 4.91667
1.33333 0.833333 4.91667
1.25 0.75 5
1.33333 0.75 5
1.25 0.833333 5
1.33333 0.75 4.91667
1.41667 0.833333 4.91667
1.41667 0.75 4.91667
1.5 0.833333 4.91667
1.41667 0.75 5
1.5 0.75 5
1.41667 0.833333 5
1.5 0.75 4.91667
1.58333 0.833333 4.91667
1.58333 0.75 4.91667
1.66667 0.833333 4.91667
1.58333 0.75 5
1.66667 0.75 5
1.58333 0.833333 5
1.66667 0.75 4.91667
1.75 0.833333 4.91667
1.75 0.75 4.91667
1.83333 0.833333 4.91667
1.75 0.75 5
1.83333 0.75 5
1.75 0.833333 5
1.83333 0.75 4.91667
1.91667 0.833333 4.91667
1.91667 0.75 4.91667
2 0.833333 4.91667
1.91667 0.75 5
2 0.75 5
1.91667 0.833333 5
2 0.75 4.91667
2.08333 0.833333 4.91667
2.08333 0.75 4.91667
2.16667 0.833333 4.91667
2.08333 0.75 5
2.16667 0.75 5
2.08333 0.833333 5
2.16667 0.75 4.91667
2.25 0.833333 4.91667
2.25 0.75 4.91667
2.33333 0.833333 4.91667
2.25 0.75 5
2.33333 0.75 5
2.25 0.833333 5
2.33333 0.75 4.91667
2.41667 0.833333 4.91667
2.41667 0.75 4.91667
2.5 0.833333 4.91667
2.41667 0.75 5
2.5 0.75 5
2.41667 0.833333 5
2.5 0.75 4.91667
2.58333 0.833333 4.91667
2.58333 0.75 4.91667
2.66667 0.833333 4.91667
2.58333 0.75 5
2.66667 0.75 5
2.58333 0.833333 5
2.66667 0.75 4.91667
2.75 0.833333 4.91667
2.75 0.75 4.91667
2.83333 0.833333 4.91667
2.75 0.75 5
2.83333 0.75 5
2.75 0.833333 5
2.83333 0.75 4.91667
2.91667 0.833333 4.91667
2.91667 0.75 4.91667
3 0.833333 4.91667
2.91667 0.75 5
3 0.75 5
2.91667 0.833333 5
3 0.75 4.91667
0.0833333 1 4.91667
0.0833333 0.916667 4.91667
0.166667 1 4.91667
0.0833333 0.916667 5
0.166667 0.916667 5
0 1 4.91667
0 0.916667 4.91667
0.0833333 1 5
0 0.916667 5
0.166667 0.916667 4.91667
0.25 1 4.91667
0.25 0.916667 4.91667
0.333333 1 4.91667
0.25 0.916667 5
0.333333 0.916667 5
0.25 1 5
0.333333 0.916667 4.91667
0.416667 1 4.91667
0.416667 0.916667 4.91667
0.5 1 4.91667
0.416667 0.916667 5
0.5 0.916667 5
0.416667 1 5
0.5 0.916667 4.91667
0.583333 1 4.91667
0.583333 0.916667 4.91667
0.666667 1 4.91667
0.583333 0.916667 5
0.666667 0.916667 5
0.583333 1 5
0.666667 0.916667 4.91667
0.75 1 4.91667
0.75 0.916667 4.91667
0.833333 1 4.91667
0.75 0.916667 5
0.833333 0.916667 5
0.75 1 5
0.833333 0.916667 4.91667
0.916667 1 4.91667
0.916667 0.916667 4.91667
1 1 4.91667
0.916667 0.916667 5
1 0.916667 5
0.916667 1 5
1 0.916667 4.91667
1.08333 1 4.91667
1.08333 0.916667 4.91667
1.16667 1 4.91667
1.08333 0.916667 5
1.16667 0.916667 5
1.08333 1 5
1.16667 0.916667 4.91667
1.25 1 4.91667
1.25 0.916667 4.91667
1.33333 1 4.91667
1.25 0.916667 5
1.33333 0.916667 5
1.25 1 5
1.33333 0.916667 4.91667
1.41667 1 4.91667
1.41667 0.916667 4.91667
1.5 1 4.91667
1.41667 0.916667 5
1.5 0.916667 5
1.41667 1 5
1.5 0.916667 4.91667
1.58333 1 4.91667
1.58333 0.916667 4.91667
1.66667 1 4.91667
1.58333 0.916667 5
1.66667 0.916667 5
1.58333 1 5
1.66667 0.916667 4.91667
1.75 1 4.91667
1.75 0.916667 4.91667
1.83333 1 4.91667
1.75 0.916667 5
1.83333 0.916667 5
1.75 1 5
1.83333 0.916667 4.91667
1.91667 1 4.91667
1.91667 0.916667 4.91667
2 1 4.91667
1.91667 0.916667 5
2 0.916667 5
1.91667 1 5
2 0.916667 4.91667
2.08333 1 4.91667
2.08333 0.916667 4.91667
2.16667 1 4.91667
2.08333 0.916667 5
2.16667 0.916667 5
2.08333 1 5
2.16667 0.916667 4.91667
2.25 1 4.91667
2.25 0.916667 4.91667
2.33333 1 4.91667
2.25 0.916667 5
2.33333 0.916667 5
2.25 1 5
2.33333 0.916667 4.91667
2.41667 1 4.91667
2.41667 0.916667 4.91667
2.5 1 4.91667
2.41667 0.916667 5
2.5 0.916667 5
2.41667 1 5
2.5 0.916667 4.91667
2.58333 1 4.91667
2.58333 0.916667 4.91667
2.66667 1 4.91667
2.58333 0.916667 5
2.66667 0.916667 5
2.58333 1 5
2.66667 0.916667 4.91667
2.75 1 4.91667
2.75 0.916667 4.91667
2.83333 1 4.91667
2.75 0.916667 5
2.83333 0.916667 5
2.75 1 5
2.83333 0.916667 4.91667
2.91667 1 4.91667
2.91667 0.916667 4.91667
3 1 4.91667
2.91667 0.916667 5
3 0.916667 5
2.91667 1 5
3 0.916667 4.91667
0.0833333 0.166667 5.08333
0.0833333 0.0833333 5.08333
0.166667 0.166667 5.08333
0.0833333 0.0833333 5.16667
0.166667 0.0833333 5.16667
0.0833333 0 5.16667
0 0 5.08333
0.0833333 0 5.08333
0 0.166667 5.08333
0 0.0833333 5.08333
0.0833333 0.166667 5.16667
0 0.0833333 5.16667
0.166667 0 5.08333
0.166667 0.0833333 5.08333
0.25 0.166667 5.08333
0.25 0.0833333 5.08333
0.333333 0.166667 5.08333
0.25 0.0833333 5.16667
0.333333 0.0833333 5.16667
0.25 0 5.16667
0.25 0 5.08333
0.25 0.166667 5.16667
0.333333 0 5.08333
0.333333 0.0833333 5.08333
0.416667 0.166667 5.08333
0.416667 0.0833333 5.08333
0.5 0.166667 5.08333
0.416667 0.0833333 5.16667
0.5 0.0833333 5.16667
0.416667 0 5.16667
0.416667 0 5.08333
0.416667 0.166667 5.16667
0.5 0 5.08333
0.5 0.0833333 5.08333
0.583333 0.166667 5.08333
0.583333 0.0833333 5.08333
0.666667 0.166667 5.08333
0.583333 0.0833333 5.16667
0.666667 0.0833333 5.16667
0.583333 0 5.16667
0.583333 0 5.08333
0.583333 0.166667 5.16667
0.666667 0 5.08333
0.666667 0.0833333 5.08333
0.75 0.166667 5.08333
0.75 0.0833333 5.08333
0.833333 0.166667 5.08333
0.75 0.0833333 5.16667
0.833333 0.0833333 5.16667
0.75 0 5.16667
0.75 0 5.08333
0.75 0.166667 5.16667
0.833333 0 5.08333
0.833333 0.0833333 5.08333
0.916667 0.166667 5.08333
0.916667 0.0833333 5.08333
1 0.166667 5.08333
0.916667 0.0833333 5.16667
1 0.0833333 5.16667
0.916667 0 5.16667
0.916667 0 5.08333
0.916667 0.166667 5.16667
1 0 5.08333
1 0.0833333 5.08333
1.08333 0.166667 5.08333
1.08333 0.0833333 5.08333
1.16667 0.166667 5.08333
1.08333 0.0833333 5.16667
1.16667 0.0833333 5.16667
1.08333 0 5.16667
1.08333 0 5.08333
1.08333 0.166667 5.16667
1.16667 0 5.08333
1.16667 0.0833333 5.08333
1.25 0.166667 5.08333
1.25 0.0833333 5.08333
1.33333 0.166667 5.08333
1.25 0.0833333 5.16667
1.33333 0.0833333 5.16667
1.25 0 5.16667
1.25 0 5.08333
1.25 0.166667 5.16667
1.33333 0 5.08333
1.33333 0.0833333 5.08333
1.41667 0.166667 5.08333
1.41667 0.0833333 5.08333
1.5 0.166667 5.08333
1.41667 0.0833333 5.16667
1.5 0.0833333 5.16667
1.41667 0 5.16667
1.41667 0 5.08333
1.41667 0.166667 5.16667
1.5 0 5.08333
1.5 0.0833333 5.08333
1.58333 0.166667 5.08333
1.58333 0.0833333 5.08333
1.66667 0.166667 5.08333
1.58333 0.0833333 5.16667
1.66667 0.0833333 5.16667
1.58333 0 5.16667
1.58333 0 5.08333
1.58333 0.166667 5.16667
1.66667 0 5.08333
1.66667 0.0833333 5.08333
1.75 0.166667 5.08333
1.75 0.0833333 5.08333
1.83333 0.166667 5.08333
1.75 0.0833333 5.16667
1.83333 0.0833333 5.16667
1.75 0 5.16667
1.75 0 5.08333
1.75 0.166667 5.16667
1.83333 0 5.08333
1.83333 0.0833333 5.08333
1.91667 0.166667 5.08333
1.91667 0.0833333 5.08333
2 0.166667 5.08333
1.91667 0.0833333 5.16667
2 0.0833333 5.16667
1.91667 0 5.16667
1.91667 0 5.08333
1.91667 0.166667 5.16667
2 0 5.08333
2 0.0833333 5.08333
2.08333 0.166667 5.08333
2.08333 0.0833333 5.08333
2.16667 0.166667 5.08333
2.08333 0.0833333 5.16667
2.16667 0.0833333 5.16667
2.08333 0 5.16667
2.08333 0 5.08333
2.08333 0.166667 5.16667
2.16667 0 5.08333
2.16667 0.0833333 5.08333
2.25 0.166667 5.08333
2.25 0.0833333 5.08333
2.33333 0.166667 5.08333
2.25 0.0833333 5.16667
2.33333 0.0833333 5.16667
2.25 0 5.16667
2.25 0 5.08333
2.25 0.166667 5.16667
2.33333 0 5.08333
2.33333 0.0833333 5.08333
2.41667 0.166667 5.08333
2.41667 0.0833333 5.08333
2.5 0.166667 5.08333
2.41667 0.0833333 5.16667
2.5 0.0833333 5.16667
2.41667 0 5.16667
2.41667 0 5.08333
2.41667 0.166667 5.16667
2.5 0 5.08333
2.5 0.0833333 5.08333
2.58333 0.166667 5.08333
2.58333 0.0833333 5.08333
2.66667 0.166667 5.08333
2.58333 0.0833333 5.16667
2.66667 0.0833333 5.16667
2.58333 0 5.16667
2.58333 0 5.08333
2.58333 0.166667 5.16667
2.66667 0 5.08333
2.66667 0.0833333 5.08333
2.75 0.166667 5.08333
2.75 0.0833333 5.08333
2.83333 0.166667 5.08333
2.75 0.0833333 5.16667
2.83333 0.0833333 5.16667
2.75 0 5.16667
2.75 0 5.08333
2.75 0.166667 5.16667
2.83333 0 5.08333
2.83333 0.0833333 5.08333
2.91667 0.166667 5.08333
2.91667 0.0833333 5.08333
3 0.166667 5.08333
2.91667 0.0833333 5.16667
3 0.0833333 5.16667
2.91667 0 5.16667
2.91667 0 5.08333
2.91667 0.166667 5.16667
3 0 5.08333
3 0.0833333 5.08333
0.0833333 0.333333 5.08333
0.0833333 0.25 5.08333
0.166667 0.333333 5.08333
0.0833333 0.25 5.16667
0.166667 0.25 5.16667
0 0.333333 5.08333
0 0.25 5.08333
0.0833333 0.333333 5.16667
0 0.25 5.16667
0.166667 0.25 5.08333
0.25 0.333333 5.08333
0.25 0.25 5.08333
0.333333 0.333333 5.08333
0.25 0.25 5.16667
0.333333 0.25 5.16667
0.25 0.333333 5.16667
0.333333 0.25 5.08333
0.416667 0.333333 5.08333
0.416667 0.25 5.08333
0.5 0.333333 5.08333
0.416667 0.25 5.16667
0.5 0.25 5.16667
0.416667 0.333333 5.16667
0.5 0.25 5.08333
0.583333 0.333333 5.08333
0.583333 0.25 5.08333
0.666667 0.333333 5.08333
0.583333 0.25 5.16667
0.666667 0.25 5.16667
0.583333 0.333333 5.16667
0.666667 0.25 5.08333
0.75 0.333333 5.08333
0.75 0.25 5.08333
0.833333 0.333333 5.08333
0.75 0.25 5.16667
0.833333 0.25 5.16667
0.75 0.333333 5.16667
0.833333 0.25 5.08333
0.916667 0.333333 5.08333
0.916667 0.25 5.08333
1 0.333333 5.08333
0.916667 0.25 5.16667
1 0.25 5.16667
0.916667 0.333333 5.16667
1 0.25 5.08333
1.08333 0.333333 5.08333
1.08333 0.25 5.08333
1.16667 0.333333 5.08333
1.08333 0.25 5.16667
1.16667 0.25 5.16667
1.08333 0.333333 5.16667
1.16667 0.25 5.08333
1.25 0.333333 5.08333
1.25 0.25 5.08333
1.33333 0.333333 5.08333
1.25 0.25 5.16667
1.33333 0.25 5.16667
1.25 0.333333 5.16667
1.33333 0.25 5.08333
1.41667 0.333333 5.08333
1.41667 0.25 5.08333
1.5 0.333333 5.08333
1.41667 0.25 5.16667
1.5 0.25 5.16667
1.41667 0.333333 5.16667
1.5 0.25 5.08333
1.58333 0.333333 5.08333
1.58333 0.25 5.08333
1.66667 0.333333 5.08333
1.58333 0.25 5.16667
1.66667 0.25 5.16667
1.58333 0.333333 5.16667
1.66667 0.25 5.08333
1.75 0.333333 5.08333
1.75 0.25 5.08333
1.83333 0.333333 5.08333
1.75 0.25 5.16667
1.83333 0.25 5.16667
1.75 0.333333 5.16667
1.83333 0.25 5.08333
1.91667 0.333333 5.08333
1.91667 0.25 5.08333
2 0.333333 5.08333
1.91667 0.25 5.16667
2 0.25 5.16667
1.91667 0.333333 5.16667
2 0.25 5.08333
2.08333 0.333333 5.08333
2.08333 0.25 5.08333
2.16667 0.333333 5.08333
2.08333 0.25 5.16667
2.16667 0.25 5.16667
2.08333 0.333333 5.16667
2.16667 0.25 5.08333
2.25 0.333333 5.08333
2.25 0.25 5.08333
2.33333 0.333333 5.08333
2.25 0.25 5.16667
2.33333 0.25 5.16667
2.25 0.333333 5.16667
2.33333 0.25 5.08333
2.41667 0.333333 5.08333
2.41667 0.25 5.08333
2.5 0.333333 5.08333
2.41667 0.25 5.16667
2.5 0.25 5.16667
2.41667 0.333333 5.16667
2.5 0.25 5.08333
2.58333 0.333333 5.08333
2.58333 0.25 5.08333
2.66667 0.333333 5.08333
2.58333 0.25 5.16667
2.66667 0.25 5.16667
2.58333 0.333333 5.16667
2.66667 0.25 5.08333
2.75 0.333333 5.08333
2.75 0.25 5.08333
2.83333 0.333333 5.08333
2.75 0.25 5.16667
2.83333 0.25 5.16667
2.75 0.333333 5.16667
2.83333 0.25 5.08333
2.91667 0.333333 5.08333
2.91667 0.25 5.08333
3 0.333333 5.08333
2.91667 0.25 5.16667
3 0.25 5.16667
2.91667 0.333333 5.16667
3 0.25 5.08333
0.0833333 0.5 5.08333
0.0833333 0.416667 5.08333
0.166667 0.5 5.08333
0.0833333 0.416667 5.16667
0.166667 0.416667 5.16667
0 0.5 5.08333
0 0.416667 5.08333
0.0833333 0.5 5.16667
0 0.416667 5.16667
0.166667 0.416667 5.08333
0.25 0.5 5.08333
0.25 0.416667 5.08333
0.333333 0.5 5.08333
0.25 0.416667 5.16667
0.333333 0.416667 5.16667
0.25 0.5 5.16667
0.333333 0.416667 5.08333
0.416667 0.5 5.08333
0.416667 0.416667 5.08333
0.5 0.5 5.08333
0.416667 0.416667 5.16667
0.5 0.416667 5.16667
0.416667 0.5 5.16667
0.5 0.416667 5.08333
0.583333 0.5 5.08333
0.583333 0.416667 5.08333
0.666667 0.5 5.08333
0.583333 0.416667 5.16667
0.666667 0.416667 5.16667
0.583333 0.5 5.16667
0.666667 0.416667 5.08333
0.75 0.5 5.08333
0.75 0.416667 5.08333
0.833333 0.5 5.08333
0.75 0.416667 5.16667
0.833333 0.416667 5.16667
0.75 0.5 5.16667
0.833333 0.416667 5.08333
0.916667 0.5 5.08333
0.916667 0.416667 5.08333
1 0.5 5.08333
0.916667 0.416667 5.16667
1 0.416667 5.16667
0.916667 0.5 5.16667
1 0.416667 5.08333
1.08333 0.5 5.08333
1.08333 0.416667 5.08333
1.16667 0.5 5.08333
1.08333 0.416667 5.16667
1.16667 0.416667 5.16667
1.08333 0.5 5.16667
1.16667 0.416667 5.08333
1.25 0.5 5.08333
1.25 0.416667 5.08333
1.33333 0.5 5.08333
1.25 0.416667 5.16667
1.33333 0.416667 5.16667
1.25 0.5 5.16667
1.33333 0.416667 5.08333
1.41667 0.5 5.08333
1.41667 0.416667 5.08333
1.5 0.5 5.08333
1.41667 0.416667 5.16667
1.5 0.416667 5.16667
1.41667 0.5 5.16667
1.5 0.416667 5.08333
1.58333 0.5 5.08333
1.58333 0.416667 5.08333
1.66667 0.5 5.08333
1.58333 0.416667 5.16667
1.66667 0.416667 5.16667
1.58333 0.5 5.16667
1.66667 0.416667 5.08333
1.75 0.5 5.08333
1.75 0.416667 5.08333
1.83333 0.5 5.08333
1.75 0.416667 5.16667
1.83333 0.416667 5.16667
1.75 0.5 5.16667
1.83333 0.416667 5.08333
1.91667 0.5 5.08333
1.91667 0.416667 5.08333
2 0.5 5.08333
1.91667 0.416667 5.16667
2 0.416667 5.16667
1.91667 0.5 5.16667
2 0.416667 5.08333
2.08333 0.5 5.08333
2.08333 0.416667 5.08333
2.16667 0.5 5.08333
2.08333 0.416667 5.16667
2.16667 0.416667 5.16667
2.08333 0.5 5.16667
2.16667 0.416667 5.08333
2.25 0.5 5.08333
2.25 0.416667 5.08333
2.33333 0.5 5.08333
2.25 0.416667 5.16667
2.33333 0.416667 5.16667
2.25 0.5 5.16667
2.33333 0.416667 5.08333
2.41667 0.5 5.08333
2.41667 0.416667 5.08333
2.5 0.5 5.08333
2.41667 0.416667 5.16667
2.5 0.416667 5.16667
2.41667 0.5 5.16667
2.5 0.416667 5.08333
2.58333 0.5 5.08333
2.58333 0.416667 5.08333
2.66667 0.5 5.08333
2.58333 0.416667 5.16667
2.66667 0.416667 5.16667
2.58333 0.5 5.16667
2.66667 0.416667 5.08333
2.75 0.5 5.08333
2.75 0.416667 5.08333
2.83333 0.5 5.08333
2.75 0.416667 5.16667
2.83333 0.416667 5.16667
2.75 0.5 5.16667
2.83333 0.416667 5.08333
2.91667 0.5 5.08333
2.91667 0.416667 5.08333
3 0.5 5.08333
2.91667 0.416667 5.16667
3 0.416667 5.16667
2.91667 0.5 5.16667
3 0.416667 5.08333
0.0833333 0.666667 5.08333
0.0833333 0.583333 5.08333
0.166667 0.666667 5.08333
0.0833333 0.583333 5.16667
0.166667 0.583333 5.16667
0 0.666667 5.08333
0 0.583333 5.08333
0.0833333 0.666667 5.16667
0 0.583333 5.16667
0.166667 0.583333 5.08333
0.25 0.666667 5.08333
0.25 0.583333 5.08333
0.333333 0.666667 5.08333
0.25 0.583333 5.16667
0.333333 0.583333 5.16667
0.25 0.666667 5.16667
0.333333 0.583333 5.08333
0.416667 0.666667 5.08333
0.416667 0.583333 5.08333
0.5 0.666667 5.08333
0.416667 0.583333 5.16667
0.5 0.583333 5.16667
0.416667 0.666667 5.16667
0.5 0.583333 5.08333
0.583333 0.666667 5.08333
0.583333 0.583333 5.08333
0.666667 0.666667 5.08333
0.583333 0.583333 5.16667
0.666667 0.583333 5.16667
0.583333 0.666667 5.16667
0.666667 0.583333 5.08333
0.75 0.666667 5.08333
0.75 0.583333 5.08333
0.833333 0.666667 5.08333
0.75 0.583333 5.16667
0.833333 0.583333 5.16667
0.75 0.666667 5.16667
0.833333 0.583333 5.08333
0.916667 0.666667 5.08333
0.916667 0.583333 5.08333
1 0.666667 5.08333
0.916667 0.583333 5.16667
1 0.583333 5.16667
0.916667 0.666667 5.16667
1 0.583333 5.08333
1.08333 0.666667 5.08333
1.08333 0.583333 5.08333
1.16667 0.666667 5.08333
1.08333 0.583333 5.16667
1.16667 0.583333 5.16667
1.08333 0.666667 5.16667
1.16667 0.583333 5.08333
1.25 0.666667 5.08333
1.25 0.583333 5.08333
1.33333 0.666667 5.08333
1.25 0.583333 5.16667
1.33333 0.583333 5.16667
1.25 0.666667 5.16667
1.33333 0.583333 5.08333
1.41667 0.666667 5.08333
1.41667 0.583333 5.08333
1.5 0.666667 5.08333
1.41667 0.583333 5.16667
1.5 0.583333 5.16667
1.41667 0.666667 5.16667
1.5 0.583333 5.08333
1.58333 0.666667 5.08333
1.58333 0.583333 5.08333
1.66667 0.666667 5.08333
1.58333 0.583333 5.16667
1.66667 0.583333 5.16667
1.58333 0.666667 5.16667
1.66667 0.583333 5.08333
1.75 0.666667 5.08333
1.75 0.583333 5.08333
1.83333 0.666667 5.08333
1.75 0.583333 5.16667
1.83333 0.583333 5.16667
1.75 0.666667 5.16667
1.83333 0.583333 5.08333
1.91667 0.666667 5.08333
1.91667 0.583333 5.08333
2 0.666667 5.08333
1.91667 0.583333 5.16667
2 0.583333 5.16667
1.91667 0.666667 5.16667
2 0.583333 5.08333
2.08333 0.666667 5.08333
2.08333 0.583333 5.08333
2.16667 0.666667 5.08333
2.08333 0.583333 5.16667
2.16667 0.583333 5.16667
2.08333 0.666667 5.16667
2.16667 0.583333 5.08333
2.25 0.666667 5.08333
2.25 0.583333 5.08333
2.33333 0.666667 5.08333
2.25 0.583333 5.16667
2.33333 0.583333 5.16667
2.25 0.666667 5.16667
2.33333 0.583333 5.08333
2.41667 0.666667 5.08333
2.41667 0.583333 5.08333
2.5 0.666667 5.08333
2.41667 0.583333 5.16667
2.5 0.583333 5.16667
2.41667 0.666667 5.16667
2.5 0.583333 5.08333
2.58333 0.666667 5.08333
2.58333 0.583333 5.08333
2.66667 0.666667 5.08333
2.58333 0.583333 5.16667
2.66667 0.583333 5.16667
2.58333 0.666667 5.16667
2.66667 0.583333 5.08333
2.75 0.666667 5.08333
2.75 0.583333 5.08333
2.83333 0.666667 5.08333
2.75 0.583333 5.16667
2.83333 0.583333 5.16667
2.75 0.666667 5.16667
2.83333 0.583333 5.08333
2.91667 0.666667 5.08333
2.91667 0.583333 5.08333
3 0.666667 5.08333
2.91667 0.583333 5.16667
3 0.583333 5.16667
2.91667 0.666667 5.16667
3 0.583333 5.08333
0.0833333 0.833333 5.08333
0.0833333 0.75 5.08333
0.166667 0.833333 5.08333
0.0833333 0.75 5.16667
0.166667 0.75 5.16667
0 0.833333 5.08333
0 0.75 5.08333
0.0833333 0.833333 5.16667
0 0.75 5.16667
0.166667 0.75 5.08333
0.25 0.833333 5.08333
0.25 0.75 5.08333
0.333333 0.833333 5.08333
0.25 0.75 5.16667
0.333333 0.75 5.16667
0.25 0.833333 5.16667
0.333333 0.75 5.08333
0.416667 0.833333 5.08333
0.416667 0.75 5.08333
0.5 0.833333 5.08333
0.416667 0.75 5.16667
0.5 0.75 5.16667
0.416667 0.833333 5.16667
0.5 0.75 5.08333
0.583333 0.833333 5.08333
0.583333 0.75 5.08333
0.666667 0.833333 5.08333
0.583333 0.75 5.16667
0.666667 0.75 5.16667
0.583333 0.833333 5.16667
0.666667 0.75 5.08333
0.75 0.833333 5.08333
0.75 0.75 5.08333
0.833333 0.833333 5.08333
0.75 0.75 5.16667
0.833333 0.75 5.16667
0.75 0.833333 5.16667
0.833333 0.75 5.08333
0.916667 0.833333 5.08333
0.916667 0.75 5.08333
1 0.833333 5.08333
0.916667 0.75 5.16667
1 0.75 5.16667
0.916667 0.833333 5.16667
1 0.75 5.08333
1.08333 0.833333 5.08333
1.08333 0.75 5.08333
1.16667 0.833333 5.08333
1.08333 0.75 5.16667
1.16667 0.75 5.16667
1.08333 0.833333 5.16667
1.16667 0.75 5.08333
1.25 0.833333 5.08333
1.25 0.75 5.08333
1.33333 0.833333 5.08333
1.25 0.75 5.16667
1.33333 0.75 5.16667
1.25 0.833333 5.16667
1.33333 0.75 5.08333
1.41667 0.833333 5.08333
1.41667 0.75 5.08333
1.5 0.833333 5.08333
1.41667 0.75 5.16667
1.5 0.75 5.16667
1.41667 0.833333 5.16667
1.5 0.75 5.08333
1.58333 0.833333 5.08333
1.58333 0.75 5.08333
1.66667 0.833333 5.08333
1.58333 0.75 5.16667
1.66667 0.75 5.16667
1.58333 0.833333 5.16667
1.66667 0.75 5.08333
1.75 0.833333 5.08333
1.75 0.75 5.08333
1.83333 0.833333 5.08333
1.75 0.75 5.16667
1.83333 0.75 5.16667
1.75 0.833333 5.16667
1.83333 0.75 5.08333
1.91667 0.833333 5.08333
1.91667 0.75 5.08333
2 0.833333 5.08333
1.91667 0.75 5.16667
2 0.75 5.16667
1.91667 0.833333 5.16667
2 0.75 5.08333
2.08333 0.833333 5.08333
2.08333 0.75 5.08333
2.16667 0.833333 5.08333
2.08333 0.75 5.16667
2.16667 0.75 5.16667
2.08333 0.833333 5.16667
2.16667 0.75 5.08333
2.25 0.833333 5.08333
2.25 0.75 5.08333
2.33333 0.833333 5.08333
2.25 0.75 5.16667
2.33333 0.75 5.16667
2.25 0.833333 5.16667
2.33333 0.75 5.08333
2.41667 0.833333 5.08333
2.41667 0.75 5.08333
2.5 0.833333 5.08333
2.41667 0.75 5.16667
2.5 0.75 5.16667
2.41667 0.833333 5.16667
2.5 0.75 5.08333
2.58333 0.833333 5.08333
2.58333 0.75 5.08333
2.66667 0.833333 5.08333
2.58333 0.75 5.16667
2.66667 0.75 5.16667
2.58333 0.833333 5.16667
2.66667 0.75 5.08333
2.75 0.833333 5.08333
2.75 0.75 5.08333
2.83333 0.833333 5.08333
2.75 0.75 5.16667
2.83333 0.75 5.16667
2.75 0.833333 5.16667
2.83333 0.75 5.08333
2.91667 0.833333 5.08333
2.91667 0.75 5.08333
3 0.833333 5.08333
2.91667 0.75 5.16667
3 0.75 5.16667
2.91667 0.833333 5.16667
3 0.75 5.08333
0.0833333 1 5.08333
0.0833333 0.916667 5.08333
0.166667 1 5.08333
0.0833333 0.916667 5.16667
0.166667 0.916667 5.16667
0 1 5.08333
0 0.916667 5.08333
0.0833333 1 5.16667
0 0.916667 5.16667
0.166667 0.916667 5.08333
0.25 1 5.08333
0.25 0.916667 5.08333
0.333333 1 5.08333
0.25 0.916667 5.16667
0.333333 0.916667 5.16667
0.25 1 5.16667
0.333333 0.916667 5.08333
0.416667 1 5.08333
0.416667 0.916667 5.08333
0.5 1 5.08333
0.416667 0.916667 5.16667
0.5 0.916667 5.16667
0.416667 1 5.16667
0.5 0.916667 5.08333
0.583333 1 5.08333
0.583333 0.916667 5.08333
0.666667 1 5.08333
0.583333 0.916667 5.16667
0.666667 0.916667 5.16667
0.583333 1 5.16667
0.666667 0.916667 5.08333
0.75 1 5.08333
0.75 0.916667 5.08333
0.833333 1 5.08333
0.75 0.916667 5.16667
0.833333 0.916667 5.16667
0.75 1 5.16667
0.833333 0.916667 5.08333
0.916667 1 5.08333
0.916667 0.916667 5.08333
1 1 5.08333
0.916667 0.916667 5.16667
1 0.916667 5.16667
0.916667 1 5.16667
1 0.916667 5.08333
1.08333 1 5.08333
1.08333 0.916667 5.08333
1.16667 1 5.08333
1.08333 0.916667 5.16667
1.16667 0.916667 5.16667
1.08333 1 5.16667
1.16667 0.916667 5.08333
1.25 1 5.08333
1.25 0.916667 5.08333
1.33333 1 5.08333
1.25 0.916667 5.16667
1.33333 0.916667 5.16667
1.25 1 5.16667
1.33333 0.916667 5.08333
1.41667 1 5.08333
1.41667 0.916667 5.08333
1.5 1 5.08333
1.41667 0.916667 5.16667
1.5 0.916667 5.16667
1.41667 1 5.16667
1.5 0.916667 5.08333
1.58333 1 5.08333
1.58333 0.916667 5.08333
1.66667 1 5.08333
1.58333 0.916667 5.16667
1.66667 0.916667 5.16667
1.58333 1 5.16667
1.66667 0.916667 5.08333
1.75 1 5.08333
1.75 0.916667 5.08333
1.83333 1 5.08333
1.75 0.916667 5.16667
1.83333 0.916667 5.16667
1.75 1 5.16667
1.83333 0.916667 5.08333
1.91667 1 5.08333
1.91667 0.916667 5.08333
2 1 5.08333
1.91667 0.916667 5.16667
2 0.916667 5.16667
1.91667 1 5.16667
2 0.916667 5.08333
2.08333 1 5.08333
2.08333 0.916667 5.08333
2.16667 1 5.08333
2.08333 0.916667 5.16667
2.16667 0.916667 5.16667
2.08333 1 5.16667
2.16667 0.916667 5.08333
2.25 1 5.08333
2.25 0.916667 5.08333
2.33333 1 5.08333
2.25 0.916667 5.16667
2.33333 0.916667 5.16667
2.25 1 5.16667
2.33333 0.916667 5.08333
2.41667 1 5.08333
2.41667 0.916667 5.08333
2.5 1 5.08333
2.41667 0.916667 5.16667
2.5 0.916667 5.16667
2.41667 1 5.16667
2.5 0.916667 5.08333
2.58333 1 5.08333
2.58333 0.916667 5.08333
2.66667 1 5.08333
2.58333 0.916667 5.16667
2.66667 0.916667 5.16667
2.58333 1 5.16667
2.66667 0.916667 5.08333
2.75 1 5.08333
2.75 0.916667 5.08333
2.83333 1 5.08333
2.75 0.916667 5.16667
2.83333 0.916667 5.16667
2.75 1 5.16667
2.83333 0.916667 5.08333
2.91667 1 5.08333
2.91667 0.916667 5.08333
3 1 5.08333
2.91667 0.916667 5.16667
3 0.916667 5.16667
2.91667 1 5.16667
3 0.916667 5.08333
0.0833333 0.166667 5.25
0.0833333 0.0833333 5.25
0.166667 0.166667 5.25
0.0833333 0.0833333 5.33333
0.166667 0.0833333 5.33333
0.0833333 0 5.33333
0 0 5.25
0.0833333 0 5.25
0 0.166667 5.25
0 0.0833333 5.25
0.0833333 0.166667 5.33333
0 0.0833333 5.33333
0.166667 0 5.25
0.166667 0.0833333 5.25
0.25 0.166667 5.25
0.25 0.0833333 5.25
0.333333 0.166667 5.25
0.25 0.0833333 5.33333
0.333333 0.0833333 5.33333
0.25 0 5.33333
0.25 0 5.25
0.25 0.166667 5.33333
0.333333 0 5.25
0.333333 0.0833333 5.25
0.416667 0.166667 5.25
0.416667 0.0833333 5.25
0.5 0.166667 5.25
0.416667 0.0833333 5.33333
0.5 0.0833333 5.33333
0.416667 0 5.33333
0.416667 0 5.25
0.416667 0.166667 5.33333
0.5 0 5.25
0.5 0.0833333 5.25
0.583333 0.166667 5.25
0.583333 0.0833333 5.25
0.666667 0.166667 5.25
0.583333 0.0833333 5.33333
0.666667 0.0833333 5.33333
0.583333 0 5.33333
0.583333 0 5.25
0.583333 0.166667 5.33333
0.666667 0 5.25
0.666667 0.0833333 5.25
0.75 0.166667 5.25
0.75 0.0833333 5.25
0.833333 0.166667 5.25
0.75 0.0833333 5.33333
0.833333 0.0833333 5.33333
0.75 0 5.33333
0.75 0 5.25
0.75 0.166667 5.33333
0.833333 0 5.25
0.833333 0.0833333 5.25
0.916667 0.166667 5.25
0.916667 0.0833333 5.25
1 0.166667 5.25
0.916667 0.0833333 5.33333
1 0.0833333 5.33333
0.916667 0 5.33333
0.916667 0 5.25
0.916667 0.166667 5.33333
1 0 5.25
1 0.0833333 5.25
1.08333 0.166667 5.25
1.08333 0.0833333 5.25
1.16667 0.166667 5.25
1.08333 0.0833333 5.33333
1.16667 0.0833333 5.33333
1.08333 0 5.33333
1.08333 0 5.25
1.08333 0.166667 5.33333
1.16667 0 5.25
1.16667 0.0833333 5.25
1.25 0.166667 5.25
1.25 0.0833333 5.25
1.33333 0.166667 5.25
1.25 0.0833333 5.33333
1.33333 0.0833333 5.33333
1.25 0 5.33333
1.25 0 5.25
1.25 0.166667 5.33333
1.33333 0 5.25
1.33333 0.0833333 5.25
1.41667 0.166667 5.25
1.41667 0.0833333 5.25
1.5 0.166667 5.25
1.41667 0.0833333 5.33333
1.5 0.0833333 5.33333
1.41667 0 5.33333
1.41667 0 5.25
1.41667 0.166667 5.33333
1.5 0 5.25
1.5 0.0833333 5.25
1.58333 0.166667 5.25
1.58333 0.0833333 5.25
1.66667 0.166667 5.25
1.58333 0.0833333 5.33333
1.66667 0.0833333 5.33333
1.58333 0 5.33333
1.58333 0 5.25
1.58333 0.166667 5.33333
1.66667 0 5.25
1.66667 0.0833333 5.25
1.75 0.166667 5.25
1.75 0.0833333 5.25
1.83333 0.166667 5.25
1.75 0.0833333 5.33333
1.83333 0.0833333 5.33333
1.75 0 5.33333
1.75 0 5.25
1.75 0.166667 5.33333
1.83333 0 5.25
1.83333 0.0833333 5.25
1.91667 0.166667 5.25
1.91667 0.0833333 5.25
2 0.166667 5.25
1.91667 0.0833333 5.33333
2 0.0833333 5.33333
1.91667 0 5.33333
1.91667 0 5.25
1.91667 0.166667 5.33333
2 0 5.25
2 0.0833333 5.25
2.08333 0.166667 5.25
2.08333 0.0833333 5.25
2.16667 0.166667 5.25
2.08333 0.0833333 5.33333
2.16667 0.0833333 5.33333
2.08333 0 5.33333
2.08333 0 5.25
2.08333 0.166667 5.33333
2.16667 0 5.25
2.16667 0.0833333 5.25
2.25 0.166667 5.25
2.25 0.0833333 5.25
2.33333 0.166667 5.25
2.25 0.0833333 5.33333
2.33333 0.0833333 5.33333
2.25 0 5.33333
2.25 0 5.25
2.25 0.166667 5.33333
2.33333 0 5.25
2.33333 0.0833333 5.25
2.41667 0.166667 5.25
2.41667 0.0833333 5.25
2.5 0.166667 5.25
2.41667 0.0833333 5.33333
2.5 0.0833333 5.33333
2.41667 0 5.33333
2.41667 0 5.25
2.41667 0.166667 5.33333
2.5 0 5.25
2.5 0.0833333 5.25
2.58333 0.166667 5.25
2.58333 0.0833333 5.25
2.66667 0.166667 5.25
2.58333 0.0833333 5.33333
2.66667 0.0833333 5.33333
2.58333 0 5.33333
2.58333 0 5.25
2.58333 0.166667 5.33333
2.66667 0 5.25
2.66667 0.0833333 5.25
2.75 0.166667 5.25
2.75 0.0833333 5.25
2.83333 0.166667 5.25
2.75 0.0833333 5.33333
2.83333 0.0833333 5.33333
2.75 0 5.33333
2.75 0 5.25
2.75 0.166667 5.33333
2.83333 0 5.25
2.83333 0.0833333 5.25
2.91667 0.166667 5.25
2.91667 0.0833333 5.25
3 0.166667 5.25
2.91667 0.0833333 5.33333
3 0.0833333 5.33333
2.91667 0 5.33333
2.91667 0 5.25
2.91667 0.166667 5.33333
3 0 5.25
3 0.0833333 5.25
0.0833333 0.333333 5.25
0.0833333 0.25 5.25
0.166667 0.333333 5.25
0.0833333 0.25 5.33333
0.166667 0.25 5.33333
0 0.333333 5.25
0 0.25 5.25
0.0833333 0.333333 5.33333
0 0.25 5.33333
0.166667 0.25 5.25
0.25 0.333333 5.25
0.25 0.25 5.25
0.333333 0.333333 5.25
0.25 0.25 5.33333
0.333333 0.25 5.33333
0.25 0.333333 5.33333
0.333333 0.25 5.25
0.416667 0.333333 5.25
0.416667 0.25 5.25
0.5 0.333333 5.25
0.416667 0.25 5.33333
0.5 0.25 5.33333
0.416667 0.333333 5.33333
0.5 0.25 5.25
0.583333 0.333333 5.25
0.583333 0.25 5.25
0.666667 0.333333 5.25
0.583333 0.25 5.33333
0.666667 0.25 5.33333
0.583333 0.333333 5.33333
0.666667 0.25 5.25
0.75 0.333333 5.25
0.75 0.25 5.25
0.833333 0.333333 5.25
0.75 0.25 5.33333
0.833333 0.25 5.33333
0.75 0.333333 5.33333
0.833333 0.25 5.25
0.916667 0.333333 5.25
0.916667 0.25 5.25
1 0.333333 5.25
0.916667 0.25 5.33333
1 0.25 5.33333
0.916667 0.333333 5.33333
1 0.25 5.25
1.08333 0.333333 5.25
1.08333 0.25 5.25
1.16667 0.333333 5.25
1.08333 0.25 5.33333
1.16667 0.25 5.33333
1.08333 0.333333 5.33333
1.16667 0.25 5.25
1.25 0.333333 5.25
1.25 0.25 5.25
1.33333 0.333333 5.25
1.25 0.25 5.33333
1.33333 0.25 5.33333
1.25 0.333333 5.33333
1.33333 0.25 5.25
1.41667 0.333333 5.25
1.41667 0.25 5.25
1.5 0.333333 5.25
1.41667 0.25 5.33333
1.5 0.25 5.33333
1.41667 0.333333 5.33333
1.5 0.25 5.25
1.58333 0.333333 5.25
1.58333 0.25 5.25
1.66667 0.333333 5.25
1.58333 0.25 5.33333
1.66667 0.25 5.33333
1.58333 0.333333 5.33333
1.66667 0.25 5.25
1.75 0.333333 5.25
1.75 0.25 5.25
1.83333 0.333333 5.25
1.75 0.25 5.33333
1.83333 0.25 5.33333
1.75 0.333333 5.33333
1.83333 0.25 5.25
1.91667 0.333333 5.25
1.91667 0.25 5.25
2 0.333333 5.25
1.91667 0.25 5.33333
2 0.25 5.33333
1.91667 0.333333 5.33333
2 0.25 5.25
2.08333 0.333333 5.25
2.08333 0.25 5.25
2.16667 0.333333 5.25
2.08333 0.25 5.33333
2.16667 0.25 5.33333
2.08333 0.333333 5.33333
2.16667 0.25 5.25
2.25 0.333333 5.25
2.25 0.25 5.25
2.33333 0.333333 5.25
2.25 0.25 5.33333
2.33333 0.25 5.33333
2.25 0.333333 5.33333
2.33333 0.25 5.25
2.41667 0.333333 5.25
2.41667 0.25 5.25
2.5 0.333333 5.25
2.41667 0.25 5.33333
2.5 0.25 5.33333
2.41667 0.333333 5.33333
2.5 0.25 5.25
2.58333 0.333333 5.25
2.58333 0.25 5.25
2.66667 0.333333 5.25
2.58333 0.25 5.33333
2.66667 0.25 5.33333
2.58333 0.333333 5.33333
2.66667 0.25 5.25
2.75 0.333333 5.25
2.75 0.25 5.25
2.83333 0.333333 5.25
2.75 0.25 5.33333
2.83333 0.25 5.33333
2.75 0.333333 5.33333
2.83333 0.25 5.25
2.91667 0.333333 5.25
2.91667 0.25 5.25
3 0.333333 5.25
2.91667 0.25 5.33333
3 0.25 5.33333
2.91667 0.333333 5.33333
3 0.25 5.25
0.0833333 0.5 5.25
0.0833333 0.416667 5.25
0.166667 0.5 5.25
0.0833333 0.416667 5.33333
0.166667 0.416667 5.33333
0 0.5 5.25
0 0.416667 5.25
0.0833333 0.5 5.33333
0 0.416667 5.33333
0.166667 0.416667 5.25
0.25 0.5 5.25
0.25 0.416667 5.25
0.333333 0.5 5.25
0.25 0.416667 5.33333
0.333333 0.416667 5.33333
0.25 0.5 5.33333
0.333333 0.416667 5.25
0.416667 0.5 5.25
0.416667 0.416667 5.25
0.5 0.5 5.25
0.416667 0.416667 5.33333
0.5 0.416667 5.33333
0.416667 0.5 5.33333
0.5 0.416667 5.25
0.583333 0.5 5.25
0.583333 0.416667 5.25
0.666667 0.5 5.25
0.583333 0.416667 5.33333
0.666667 0.416667 5.33333
0.583333 0.5 5.33333
0.666667 0.416667 5.25
0.75 0.5 5.25
0.75 0.416667 5.25
0.833333 0.5 5.25
0.75 0.416667 5.33333
0.833333 0.416667 5.33333
0.75 0.5 5.33333
0.833333 0.416667 5.25
0.916667 0.5 5.25
0.916667 0.416667 5.25
1 0.5 5.25
0.916667 0.416667 5.33333
1 0.416667 5.33333
0.916667 0.5 5.33333
1 0.416667 5.25
1.08333 0.5 5.25
1.08333 0.416667 5.25
1.16667 0.5 5.25
1.08333 0.416667 5.33333
1.16667 0.416667 5.33333
1.08333 0.5 5.33333
1.16667 0.416667 5.25
1.25 0.5 5.25
1.25 0.416667 5.25
1.33333 0.5 5.25
1.25 0.416667 5.33333
1.33333 0.416667 5.33333
1.25 0.5 5.33333
1.33333 0.416667 5.25
1.41667 0.5 5.25
1.41667 0.416667 5.25
1.5 0.5 5.25
1.41667 0.416667 5.33333
1.5 0.416667 5.33333
1.41667 0.5 5.33333
1.5 0.416667 5.25
1.58333 0.5 5.25
1.58333 0.416667 5.25
1.66667 0.5 5.25
1.58333 0.416667 5.33333
1.66667 0.416667 5.33333
1.58333 0.5 5.33333
1.66667 0.416667 5.25
1.75 0.5 5.25
1.75 0.416667 5.25
1.83333 0.5 5.25
1.75 0.416667 5.33333
1.83333 0.416667 5.33333
1.75 0.5 5.33333
1.83333 0.416667 5.25
1.91667 0.5 5.25
1.91667 0.416667 5.25
2 0.5 5.25
1.91667 0.416667 5.33333
2 0.416667 5.33333
1.91667 0.5 5.33333
2 0.416667 5.25
2.08333 0.5 5.25
2.08333 0.416667 5.25
2.16667 0.5 5.25
2.08333 0.416667 5.33333
2.16667 0.416667 5.33333
2.08333 0.5 5.33333
2.16667 0.416667 5.25
2.25 0.5 5.25
2.25 0.416667 5.25
2.33333 0.5 5.25
2.25 0.416667 5.33333
2.33333 0.416667 5.33333
2.25 0.5 5.33333
2.33333 0.416667 5.25
2.41667 0.5 5.25
2.41667 0.416667 5.25
2.5 0.5 5.25
2.41667 0.416667 5.33333
2.5 0.416667 5.33333
2.41667 0.5 5.33333
2.5 0.416667 5.25
2.58333 0.5 5.25
2.58333 0.416667 5.25
2.66667 0.5 5.25
2.58333 0.416667 5.33333
2.66667 0.416667 5.33333
2.58333 0.5 5.33333
2.66667 0.416667 5.25
2.75 0.5 5.25
2.75 0.416667 5.25
2.83333 0.5 5.25
2.75 0.416667 5.33333
2.83333 0.416667 5.33333
2.75 0.5 5.33333
2.83333 0.416667 5.25
2.91667 0.5 5.25
2.91667 0.416667 5.25
3 0.5 5.25
2.91667 0.416667 5.33333
3 0.416667 5.33333
2.91667 0.5 5.33333
3 0.416667 5.25
0.0833333 0.666667 5.25
0.0833333 0.583333 5.25
0.166667 0.666667 5.25
0.0833333 0.583333 5.33333
0.166667 0.583333 5.33333
0 0.666667 5.25
0 0.583333 5.25
0.0833333 0.666667 5.33333
0 0.583333 5.33333
0.166667 0.583333 5.25
0.25 0.666667 5.25
0.25 0.583333 5.25
0.333333 0.666667 5.25
0.25 0.583333 5.33333
0.333333 0.583333 5.33333
0.25 0.666667 5.33333
0.333333 0.583333 5.25
0.416667 0.666667 5.25
0.416667 0.583333 5.25
0.5 0.666667 5.25
0.416667 0.583333 5.33333
0.5 0.583333 5.33333
0.416667 0.666667 5.33333
0.5 0.583333 5.25
0.583333 0.666667 5.25
0.583333 0.583333 5.25
0.666667 0.666667 5.25
0.583333 0.583333 5.33333
0.666667 0.583333 5.33333
0.583333 0.666667 5.33333
0.666667 0.583333 5.25
0.75 0.666667 5.25
0.75 0.583333 5.25
0.833333 0.666667 5.25
0.75 0.583333 5.33333
0.833333 0.583333 5.33333
0.75 0.666667 5.33333
0.833333 0.583333 5.25
0.916667 0.666667 5.25
0.916667 0.583333 5.25
1 0.666667 5.25
0.916667 0.583333 5.33333
1 0.583333 5.33333
0.916667 0.666667 5.33333
1 0.583333 5.25
1.08333 0.666667 5.25
1.08333 0.583333 5.25
1.16667 0.666667 5.25
1.08333 0.583333 5.33333
1.16667 0.583333 5.33333
1.08333 0.666667 5.33333
1.16667 0.583333 5.25
1.25 0.666667 5.25
1.25 0.583333 5.25
1.33333 0.666667 5.25
1.25 0.583333 5.33333
1.33333 0.583333 5.33333
1.25 0.666667 5.33333
1.33333 0.583333 5.25
1.41667 0.666667 5.25
1.41667 0.583333 5.25
1.5 0.666667 5.25
1.41667 0.583333 5.33333
1.5 0.583333 5.33333
1.41667 0.666667 5.33333
1.5 0.583333 5.25
1.58333 0.666667 5.25
1.58333 0.583333 5.25
1.66667 0.666667 5.25
1.58333 0.583333 5.33333
1.66667 0.583333 5.33333
1.58333 0.666667 5.33333
1.66667 0.583333 5.25
1.75 0.666667 5.25
1.75 0.583333 5.25
1.83333 0.666667 5.25
1.75 0.583333 5.33333
1.83333 0.583333 5.33333
1.75 0.666667 5.33333
1.83333 0.583333 5.25
1.91667 0.666667 5.25
1.91667 0.583333 5.25
2 0.666667 5.25
1.91667 0.583333 5.33333
2 0.583333 5.33333
1.91667 0.666667 5.33333
2 0.583333 5.25
2.08333 0.666667 5.25
2.08333 0.583333 5.25
2.16667 0.666667 5.25
2.08333 0.583333 5.33333
2.16667 0.583333 5.33333
2.08333 0.666667 5.33333
2.16667 0.583333 5.25
2.25 0.666667 5.25
2.25 0.583333 5.25
2.33333 0.666667 5.25
2.25 0.583333 5.33333
2.33333 0.583333 5.33333
2.25 0.666667 5.33333
2.33333 0.583333 5.25
2.41667 0.666667 5.25
2.41667 0.583333 5.25
2.5 0.666667 5.25
2.41667 0.583333 5.33333
2.5 0.583333 5.33333
2.41667 0.666667 5.33333
2.5 0.583333 5.25
2.58333 0.666667 5.25
2.58333 0.583333 5.25
2.66667 0.666667 5.25
2.58333 0.583333 5.33333
2.66667 0.583333 5.33333
2.58333 0.666667 5.33333
2.66667 0.583333 5.25
2.75 0.666667 5.25
2.75 0.583333 5.25
2.83333 0.666667 5.25
2.75 0.583333 5.33333
2.83333 0.583333 5.33333
2.75 0.666667 5.33333
2.83333 0.583333 5.25
2.91667 0.666667 5.25
2.91667 0.583333 5.25
3 0.666667 5.25
2.91667 0.583333 5.33333
3 0.583333 5.33333
2.91667 0.666667 5.33333
3 0.583333 5.25
0.0833333 0.833333 5.25
0.0833333 0.75 5.25
0.166667 0.833333 5.25
0.0833333 0.75 5.33333
0.166667 0.75 5.33333
0 0.833333 5.25
0 0.75 5.25
0.0833333 0.833333 5.33333
0 0.75 5.33333
0.166667 0.75 5.25
0.25 0.833333 5.25
0.25 0.75 5.25
0.333333 0.833333 5.25
0.25 0.75 5.33333
0.333333 0.75 5.33333
0.25 0.833333 5.33333
0.333333 0.75 5.25
0.416667 0.833333 5.25
0.416667 0.75 5.25
0.5 0.833333 5.25
0.416667 0.75 5.33333
0.5 0.75 5.33333
0.416667 0.833333 5.33333
0.5 0.75 5.25
0.583333 0.833333 5.25
0.583333 0.75 5.25
0.666667 0.833333 5.25
0.583333 0.75 5.33333
0.666667 0.75 5.33333
0.583333 0.833333 5.33333
0.666667 0.75 5.25
0.75 0.833333 5.25
0.75 0.75 5.25
0.833333 0.833333 5.25
0.75 0.75 5.33333
0.833333 0.75 5.33333
0.75 0.833333 5.33333
0.833333 0.75 5.25
0.916667 0.833333 5.25
0.916667 0.75 5.25
1 0.833333 5.25
0.916667 0.75 5.33333
1 0.75 5.33333
0.916667 0.833333 5.33333
1 0.75 5.25
1.08333 0.833333 5.25
1.08333 0.75 5.25
1.16667 0.833333 5.25
1.08333 0.75 5.33333
1.16667 0.75 5.33333
1.08333 0.833333 5.33333
1.16667 0.75 5.25
1.25 0.833333 5.25
1.25 0.75 5.25
1.33333 0.833333 5.25
1.25 0.75 5.33333
1.33333 0.75 5.33333
1.25 0.833333 5.33333
1.33333 0.75 5.25
1.41667 0.833333 5.25
1.41667 0.75 5.25
1.5 0.833333 5.25
1.41667 0.75 5.33333
1.5 0.75 5.33333
1.41667 0.833333 5.33333
1.5 0.75 5.25
1.58333 0.833333 5.25
1.58333 0.75 5.25
1.66667 0.833333 5.25
1.58333 0.75 5.33333
1.66667 0.75 5.33333
1.58333 0.833333 5.33333
1.66667 0.75 5.25
1.75 0.833333 5.25
1.75 0.75 5.25
1.83333 0.833333 5.25
1.75 0.75 5.33333
1.83333 0.75 5.33333
1.75 0.833333 5.33333
1.83333 0.75 5.25
1.91667 0.833333 5.25
1.91667 0.75 5.25
2 0.833333 5.25
1.91667 0.75 5.33333
2 0.75 5.33333
1.91667 0.833333 5.33333
2 0.75 5.25
2.08333 0.833333 5.25
2.08333 0.75 5.25
2.16667 0.833333 5.25
2.08333 0.75 5.33333
2.16667 0.75 5.33333
2.08333 0.833333 5.33333
2.16667 0.75 5.25
2.25 0.833333 5.25
2.25 0.75 5.25
2.33333 0.833333 5.25
2.25 0.75 5.33333
2.33333 0.75 5.33333
2.25 0.833333 5.33333
2.33333 0.75 5.25
2.41667 0.833333 5.25
2.41667 0.75 5.25
2.5 0.833333 5.25
2.41667 0.75 5.33333
2.5 0.75 5.33333
2.41667 0.833333 5.33333
2.5 0.75 5.25
2.58333 0.833333 5.25
2.58333 0.75 5.25
2.66667 0.833333 5.25
2.58333 0.75 5.33333
2.66667 0.75 5.33333
2.58333 0.833333 5.33333
2.66667 0.75 5.25
2.75 0.833333 5.25
2.75 0.75 5.25
2.83333 0.833333 5.25
2.75 0.75 5.33333
2.83333 0.75 5.33333
2.75 0.833333 5.33333
2.83333 0.75 5.25
2.91667 0.833333 5.25
2.91667 0.75 5.25
3 0.833333 5.25
2.91667 0.75 5.33333
3 0.75 5.33333
2.91667 0.833333 5.33333
3 0.75 5.25
0.0833333 1 5.25
0.0833333 0.916667 5.25
0.166667 1 5.25
0.0833333 0.916667 5.33333
0.166667 0.916667 5.33333
0 1 5.25
0 0.916667 5.25
0.0833333 1 5.33333
0 0.916667 5.33333
0.166667 0.916667 5.25
0.25 1 5.25
0.25 0.916667 5.25
0.333333 1 5.25
0.25 0.916667 5.33333
0.333333 0.916667 5.33333
0.25 1 5.33333
0.333333 0.916667 5.25
0.416667 1 5.25
0.416667 0.916667 5.25
0.5 1 5.25
0.416667 0.916667 5.33333
0.5 0.916667 5.33333
0.416667 1 5.33333
0.5 0.916667 5.25
0.583333 1 5.25
0.583333 0.916667 5.25
0.666667 1 5.25
0.583333 0.916667 5.33333
0.666667 0.916667 5.33333
0.583333 1 5.33333
0.666667 0.916667 5.25
0.75 1 5.25
0.75 0.916667 5.25
0.833333 1 5.25
0.75 0.916667 5.33333
0.833333 0.916667 5.33333
0.75 1 5.33333
0.833333 0.916667 5.25
0.916667 1 5.25
0.916667 0.916667 5.25
1 1 5.25
0.916667 0.916667 5.33333
1 0.916667 5.33333
0.916667 1 5.33333
1 0.916667 5.25
1.08333 1 5.25
1.08333 0.916667 5.25
1.16667 1 5.25
1.08333 0.916667 5.33333
1.16667 0.916667 5.33333
1.08333 1 5.33333
1.16667 0.916667 5.25
1.25 1 5.25
1.25 0.916667 5.25
1.33333 1 5.25
1.25 0.916667 5.33333
1.33333 0.916667 5.33333
1.25 1 5.33333
1.33333 0.916667 5.25
1.41667 1 5.25
1.41667 0.916667 5.25
1.5 1 5.25
1.41667 0.916667 5.33333
1.5 0.916667 5.33333
1.41667 1 5.33333
1.5 0.916667 5.25
1.58333 1 5.25
1.58333 0.916667 5.25
1.66667 1 5.25
1.58333 0.916667 5.33333
1.66667 0.916667 5.33333
1.58333 1 5.33333
1.66667 0.916667 5.25
1.75 1 5.25
1.75 0.916667 5.25
1.83333 1 5.25
1.75 0.916667 5.33333
1.83333 0.916667 5.33333
1.75 1 5.33333
1.83333 0.916667 5.25
1.91667 1 5.25
1.91667 0.916667 5.25
2 1 5.25
1.91667 0.916667 5.33333
2 0.916667 5.33333
1.91667 1 5.33333
2 0.916667 5.25
2.08333 1 5.25
2.08333 0.916667 5.25
2.16667 1 5.25
2.08333 0.916667 5.33333
2.16667 0.916667 5.33333
2.08333 1 5.33333
2.16667 0.916667 5.25
2.25 1 5.25
2.25 0.916667 5.25
2.33333 1 5.25
2.25 0.916667 5.33333
2.33333 0.916667 5.33333
2.25 1 5.33333
2.33333 0.916667 5.25
2.41667 1 5.25
2.41667 0.916667 5.25
2.5 1 5.25
2.41667 0.916667 5.33333
2.5 0.916667 5.33333
2.41667 1 5.33333
2.5 0.916667 5.25
2.58333 1 5.25
2.58333 0.916667 5.25
2.66667 1 5.25
2.58333 0.916667 5.33333
2.66667 0.916667 5.33333
2.58333 1 5.33333
2.66667 0.916667 5.25
2.75 1 5.25
2.75 0.916667 5.25
2.83333 1 5.25
2.75 0.916667 5.33333
2.83333 0.916667 5.33333
2.75 1 5.33333
2.83333 0.916667 5.25
2.91667 1 5.25
2.91667 0.916667 5.25
3 1 5.25
2.91667 0.916667 5.33333
3 0.916667 5.33333
2.91667 1 5.33333
3 0.916667 5.25
0.0833333 0.166667 5.41667
0.0833333 0.0833333 5.41667
0.166667 0.166667 5.41667
0.0833333 0.0833333 5.5
0.166667 0.0833333 5.5
0.0833333 0 5.5
0 0 5.41667
0.0833333 0 5.41667
0 0.166667 5.41667
0 0.0833333 5.41667
0.0833333 0.166667 5.5
0 0.0833333 5.5
0.166667 0 5.41667
0.166667 0.0833333 5.41667
0.25 0.166667 5.41667
0.25 0.0833333 5.41667
0.333333 0.166667 5.41667
0.25 0.0833333 5.5
0.333333 0.0833333 5.5
0.25 0 5.5
0.25 0 5.41667
0.25 0.166667 5.5
0.333333 0 5.41667
0.333333 0.0833333 5.41667
0.416667 0.166667 5.41667
0.416667 0.0833333 5.41667
0.5 0.166667 5.41667
0.416667 0.0833333 5.5
0.5 0.0833333 5.5
0.416667 0 5.5
0.416667 0 5.41667
0.416667 0.166667 5.5
0.5 0 5.41667
0.5 0.0833333 5.41667
0.583333 0.166667 5.41667
0.583333 0.0833333 5.41667
0.666667 0.166667 5.41667
0.583333 0.0833333 5.5
0.666667 0.0833333 5.5
0.583333 0 5.5
0.583333 0 5.41667
0.583333 0.166667 5.5
0.666667 0 5.41667
0.666667 0.0833333 5.41667
0.75 0.166667 5.41667
0.75 0.0833333 5.41667
0.833333 0.166667 5.41667
0.75 0.0833333 5.5
0.833333 0.0833333 5.5
0.75 0 5.5
0.75 0 5.41667
0.75 0.166667 5.5
0.833333 0 5.41667
0.833333 0.0833333 5.41667
0.916667 0.166667 5.41667
0.916667 0.0833333 5.41667
1 0.166667 5.41667
0.916667 0.0833333 5.5
1 0.0833333 5.5
0.916667 0 5.5
0.916667 0 5.41667
0.916667 0.166667 5.5
1 0 5.41667
1 0.0833333 5.41667
1.08333 0.166667 5.41667
1.08333 0.0833333 5.41667
1.16667 0.166667 5.41667
1.08333 0.0833333 5.5
1.16667 0.0833333 5.5
1.08333 0 5.5
1.08333 0 5.41667
1.08333 0.166667 5.5
1.16667 0 5.41667
1.16667 0.0833333 5.41667
1.25 0.166667 5.41667
1.25 0.0833333 5.41667
1.33333 0.166667 5.41667
1.25 0.0833333 5.5
1.33333 0.0833333 5.5
1.25 0 5.5
1.25 0 5.41667
1.25 0.166667 5.5
1.33333 0 5.41667
1.33333 0.0833333 5.41667
1.41667 0.166667 5.41667
1.41667 0.0833333 5.41667
1.5 0.166667 5.41667
1.41667 0.0833333 5.5
1.5 0.0833333 5.5
1.41667 0 5.5
1.41667 0 5.41667
1.41667 0.166667 5.5
1.5 0 5.41667
1.5 0.0833333 5.41667
1.58333 0.166667 5.41667
1.58333 0.0833333 5.41667
1.66667 0.166667 5.41667
1.58333 0.0833333 5.5
1.66667 0.0833333 5.5
1.58333 0 5.5
1.58333 0 5.41667
1.58333 0.166667 5.5
1.66667 0 5.41667
1.66667 0.0833333 5.41667
1.75 0.166667 5.41667
1.75 0.0833333 5.41667
1.83333 0.166667 5.41667
1.75 0.0833333 5.5
1.83333 0.0833333 5.5
1.75 0 5.5
1.75 0 5.41667
1.75 0.166667 5.5
1.83333 0 5.41667
1.83333 0.0833333 5.41667
1.91667 0.166667 5.41667
1.91667 0.0833333 5.41667
2 0.166667 5.41667
1.91667 0.0833333 5.5
2 0.0833333 5.5
1.91667 0 5.5
1.91667 0 5.41667
1.91667 0.166667 5.5
2 0 5.41667
2 0.0833333 5.41667
2.08333 0.166667 5.41667
2.08333 0.0833333 5.41667
2.16667 0.166667 5.41667
2.08333 0.0833333 5.5
2.16667 0.0833333 5.5
2.08333 0 5.5
2.08333 0 5.41667
2.08333 0.166667 5.5
2.16667 0 5.41667
2.16667 0.0833333 5.41667
2.25 0.166667 5.41667
2.25 0.0833333 5.41667
2.33333 0.166667 5.41667
2.25 0.0833333 5.5
2.33333 0.0833333 5.5
2.25 0 5.5
2.25 0 5.41667
2.25 0.166667 5.5
2.33333 0 5.41667
2.33333 0.0833333 5.41667
2.41667 0.166667 5.41667
2.41667 0.0833333 5.41667
2.5 0.166667 5.41667
2.41667 0.0833333 5.5
2.5 0.0833333 5.5
2.41667 0 5.5
2.41667 0 5.41667
2.41667 0.166667 5.5
2.5 0 5.41667
2.5 0.0833333 5.41667
2.58333 0.166667 5.41667
2.58333 0.0833333 5.41667
2.66667 0.166667 5.41667
2.58333 0.0833333 5.5
2.66667 0.0833333 5.5
2.58333 0 5.5
2.58333 0 5.41667
2.58333 0.166667 5.5
2.66667 0 5.41667
2.66667 0.0833333 5.41667
2.75 0.166667 5.41667
2.75 0.0833333 5.41667
2.83333 0.166667 5.41667
2.75 0.0833333 5.5
2.83333 0.0833333 5.5
2.75 0 5.5
2.75 0 5.41667
2.75 0.166667 5.5
2.83333 0 5.41667
2.83333 0.0833333 5.41667
2.91667 0.166667 5.41667
2.91667 0.0833333 5.41667
3 0.166667 5.41667
2.91667 0.0833333 5.5
3 0.0833333 5.5
2.91667 0 5.5
2.91667 0 5.41667
2.91667 0.166667 5.5
3 0 5.41667
3 0.0833333 5.41667
0.0833333 0.333333 5.41667
0.0833333 0.25 5.41667
0.166667 0.333333 5.41667
0.0833333 0.25 5.5
0.166667 0.25 5.5
0 0.333333 5.41667
0 0.25 5.41667
0.0833333 0.333333 5.5
0 0.25 5.5
0.166667 0.25 5.41667
0.25 0.333333 5.41667
0.25 0.25 5.41667
0.333333 0.333333 5.41667
0.25 0.25 5.5
0.333333 0.25 5.5
0.25 0.333333 5.5
0.333333 0.25 5.41667
0.416667 0.333333 5.41667
0.416667 0.25 5.41667
0.5 0.333333 5.41667
0.416667 0.25 5.5
0.5 0.25 5.5
0.416667 0.333333 5.5
0.5 0.25 5.41667
0.583333 0.333333 5.41667
0.583333 0.25 5.41667
0.666667 0.333333 5.41667
0.583333 0.25 5.5
0.666667 0.25 5.5
0.583333 0.333333 5.5
0.666667 0.25 5.41667
0.75 0.333333 5.41667
0.75 0.25 5.41667
0.833333 0.333333 5.41667
0.75 0.25 5.5
0.833333 0.25 5.5
0.75 0.333333 5.5
0.833333 0.25 5.41667
0.916667 0.333333 5.41667
0.916667 0.25 5.41667
1 0.333333 5.41667
0.916667 0.25 5.5
1 0.25 5.5
0.916667 0.333333 5.5
1 0.25 5.41667
1.08333 0.333333 5.41667
1.08333 0.25 5.41667
1.16667 0.333333 5.41667
1.08333 0.25 5.5
1.16667 0.25 5.5
1.08333 0.333333 5.5
1.16667 0.25 5.41667
1.25 0.333333 5.41667
1.25 0.25 5.41667
1.33333 0.333333 5.41667
1.25 0.25 5.5
1.33333 0.25 5.5
1.25 0.333333 5.5
1.33333 0.25 5.41667
1.41667 0.333333 5.41667
1.41667 0.25 5.41667
1.5 0.333333 5.41667
1.41667 0.25 5.5
1.5 0.25 5.5
1.41667 0.333333 5.5
1.5 0.25 5.41667
1.58333 0.333333 5.41667
1.58333 0.25 5.41667
1.66667 0.333333 5.41667
1.58333 0.25 5.5
1.66667 0.25 5.5
1.58333 0.333333 5.5
1.66667 0.25 5.41667
1.75 0.333333 5.41667
1.75 0.25 5.41667
1.83333 0.333333 5.41667
1.75 0.25 5.5
1.83333 0.25 5.5
1.75 0.333333 5.5
1.83333 0.25 5.41667
1.91667 0.333333 5.41667
1.91667 0.25 5.41667
2 0.333333 5.41667
1.91667 0.25 5.5
2 0.25 5.5
1.91667 0.333333 5.5
2 0.25 5.41667
2.08333 0.333333 5.41667
2.08333 0.25 5.41667
2.16667 0.333333 5.41667
2.08333 0.25 5.5
2.16667 0.25 5.5
2.08333 0.333333 5.5
2.16667 0.25 5.41667
2.25 0.333333 5.41667
2.25 0.25 5.41667
2.33333 0.333333 5.41667
2.25 0.25 5.5
2.33333 0.25 5.5
2.25 0.333333 5.5
2.33333 0.25 5.41667
2.41667 0.333333 5.41667
2.41667 0.25 5.41667
2.5 0.333333 5.41667
2.41667 0.25 5.5
2.5 0.25 5.5
2.41667 0.333333 5.5
2.5 0.25 5.41667
2.58333 0.333333 5.41667
2.58333 0.25 5.41667
2.66667 0.333333 5.41667
2.58333 0.25 5.5
2.66667 0.25 5.5
2.58333 0.333333 5.5
2.66667 0.25 5.41667
2.75 0.333333 5.41667
2.75 0.25 5.41667
2.83333 0.333333 5.41667
2.75 0.25 5.5
2.83333 0.25 5.5
2.75 0.333333 5.5
2.83333 0.25 5.41667
2.91667 0.333333 5.41667
2.91667 0.25 5.41667
3 0.333333 5.41667
2.91667 0.25 5.5
3 0.25 5.5
2.91667 0.333333 5.5
3 0.25 5.41667
0.0833333 0.5 5.41667
0.0833333 0.416667 5.41667
0.166667 0.5 5.41667
0.0833333 0.416667 5.5
0.166667 0.416667 5.5
0 0.5 5.41667
0 0.416667 5.41667
0.0833333 0.5 5.5
0 0.416667 5.5
0.166667 0.416667 5.41667
0.25 0.5 5.41667
0.25 0.416667 5.41667
0.333333 0.5 5.41667
0.25 0.416667 5.5
0.333333 0.416667 5.5
0.25 0.5 5.5
0.333333 0.416667 5.41667
0.416667 0.5 5.41667
0.416667 0.416667 5.41667
0.5 0.5 5.41667
0.416667 0.416667 5.5
0.5 0.416667 5.5
0.416667 0.5 5.5
0.5 0.416667 5.41667
0.583333 0.5 5.41667
0.583333 0.416667 5.41667
0.666667 0.5 5.41667
0.583333 0.416667 5.5
0.666667 0.416667 5.5
0.583333 0.5 5.5
0.666667 0.416667 5.41667
0.75 0.5 5.41667
0.75 0.416667 5.41667
0.833333 0.5 5.41667
0.75 0.416667 5.5
0.833333 0.416667 5.5
0.75 0.5 5.5
0.833333 0.416667 5.41667
0.916667 0.5 5.41667
0.916667 0.416667 5.41667
1 0.5 5.41667
0.916667 0.416667 5.5
1 0.416667 5.5
0.916667 0.5 5.5
1 0.416667 5.41667
1.08333 0.5 5.41667
1.08333 0.416667 5.41667
1.16667 0.5 5.41667
1.08333 0.416667 5.5
1.16667 0.416667 5.5
1.08333 0.5 5.5
1.16667 0.416667 5.41667
1.25 0.5 5.41667
1.25 0.416667 5.41667
1.33333 0.5 5.41667
1.25 0.416667 5.5
1.33333 0.416667 5.5
1.25 0.5 5.5
1.33333 0.416667 5.41667
1.41667 0.5 5.41667
1.41667 0.416667 5.41667
1.5 0.5 5.41667
1.41667 0.416667 5.5
1.5 0.416667 5.5
1.41667 0.5 5.5
1.5 0.416667 5.41667
1.58333 0.5 5.41667
1.58333 0.416667 5.41667
1.66667 0.5 5.41667
1.58333 0.416667 5.5
1.66667 0.416667 5.5
1.58333 0.5 5.5
1.66667 0.416667 5.41667
1.75 0.5 5.41667
1.75 0.416667 5.41667
1.83333 0.5 5.41667
1.75 0.416667 5.5
1.83333 0.416667 5.5
1.75 0.5 5.5
1.83333 0.416667 5.41667
1.91667 0.5 5.41667
1.91667 0.416667 5.41667
2 0.5 5.41667
1.91667 0.416667 5.5
2 0.416667 5.5
1.91667 0.5 5.5
2 0.416667 5.41667
2.08333 0.5 5.41667
2.08333 0.416667 5.41667
2.16667 0.5 5.41667
2.08333 0.416667 5.5
2.16667 0.416667 5.5
2.08333 0.5 5.5
2.16667 0.416667 5.41667
2.25 0.5 5.41667
2.25 0.416667 5.41667
2.33333 0.5 5.41667
2.25 0.416667 5.5
2.33333 0.416667 5.5
2.25 0.5 5.5
2.33333 0.416667 5.41667
2.41667 0.5 5.41667
2.41667 0.416667 5.41667
2.5 0.5 5.41667
2.41667 0.416667 5.5
2.5 0.416667 5.5
2.41667 0.5 5.5
2.5 0.416667 5.41667
2.58333 0.5 5.41667
2.58333 0.416667 5.41667
2.66667 0.5 5.41667
2.58333 0.416667 5.5
2.66667 0.416667 5.5
2.58333 0.5 5.5
2.66667 0.416667 5.41667
2.75 0.5 5.41667
2.75 0.416667 5.41667
2.83333 0.5 5.41667
2.75 0.416667 5.5
2.83333 0.416667 5.5
2.75 0.5 5.5
2.83333 0.416667 5.41667
2.91667 0.5 5.41667
2.91667 0.416667 5.41667
3 0.5 5.41667
2.91667 0.416667 5.5
3 0.416667 5.5
2.91667 0.5 5.5
3 0.416667 5.41667
0.0833333 0.666667 5.41667
0.0833333 0.583333 5.41667
0.166667 0.666667 5.41667
0.0833333 0.583333 5.5
0.166667 0.583333 5.5
0 0.666667 5.41667
0 0.583333 5.41667
0.0833333 0.666667 5.5
0 0.583333 5.5
0.166667 0.583333 5.41667
0.25 0.666667 5.41667
0.25 0.583333 5.41667
0.333333 0.666667 5.41667
0.25 0.583333 5.5
0.333333 0.583333 5.5
0.25 0.666667 5.5
0.333333 0.583333 5.41667
0.416667 0.666667 5.41667
0.416667 0.583333 5.41667
0.5 0.666667 5.41667
0.416667 0.583333 5.5
0.5 0.583333 5.5
0.416667 0.666667 5.5
0.5 0.583333 5.41667
0.583333 0.666667 5.41667
0.583333 0.583333 5.41667
0.666667 0.666667 5.41667
0.583333 0.583333 5.5
0.666667 0.583333 5.5
0.583333 0.666667 5.5
0.666667 0.583333 5.41667
0.75 0.666667 5.41667
0.75 0.583333 5.41667
0.833333 0.666667 5.41667
0.75 0.583333 5.5
0.833333 0.583333 5.5
0.75 0.666667 5.5
0.833333 0.583333 5.41667
0.916667 0.666667 5.41667
0.916667 0.583333 5.41667
1 0.666667 5.41667
0.916667 0.583333 5.5
1 0.583333 5.5
0.916667 0.666667 5.5
1 0.583333 5.41667
1.08333 0.666667 5.41667
1.08333 0.583333 5.41667
1.16667 0.666667 5.41667
1.08333 0.583333 5.5
1.16667 0.583333 5.5
1.08333 0.666667 5.5
1.16667 0.583333 5.41667
1.25 0.666667 5.41667
1.25 0.583333 5.41667
1.33333 0.666667 5.41667
1.25 0.583333 5.5
1.33333 0.583333 5.5
1.25 0.666667 5.5
1.33333 0.583333 5.41667
1.41667 0.666667 5.41667
1.41667 0.583333 5.41667
1.5 0.666667 5.41667
1.41667 0.583333 5.5
1.5 0.583333 5.5
1.41667 0.666667 5.5
1.5 0.583333 5.41667
1.58333 0.666667 5.41667
1.58333 0.583333 5.41667
1.66667 0.666667 5.41667
1.58333 0.583333 5.5
1.66667 0.583333 5.5
1.58333 0.666667 5.5
1.66667 0.583333 5.41667
1.75 0.666667 5.41667
1.75 0.583333 5.41667
1.83333 0.666667 5.41667
1.75 0.583333 5.5
1.83333 0.583333 5.5
1.75 0.666667 5.5
1.83333 0.583333 5.41667
1.91667 0.666667 5.41667
1.91667 0.583333 5.41667
2 0.666667 5.41667
1.91667 0.583333 5.5
2 0.583333 5.5
1.91667 0.666667 5.5
2 0.583333 5.41667
2.08333 0.666667 5.41667
2.08333 0.583333 5.41667
2.16667 0.666667 5.41667
2.08333 0.583333 5.5
2.16667 0.583333 5.5
2.08333 0.666667 5.5
2.16667 0.583333 5.41667
2.25 0.666667 5.41667
2.25 0.583333 5.41667
2.33333 0.666667 5.41667
2.25 0.583333 5.5
2.33333 0.583333 5.5
2.25 0.666667 5.5
2.33333 0.583333 5.41667
2.41667 0.666667 5.41667
2.41667 0.583333 5.41667
2.5 0.666667 5.41667
2.41667 0.583333 5.5
2.5 0.583333 5.5
2.41667 0.666667 5.5
2.5 0.583333 5.41667
2.58333 0.666667 5.41667
2.58333 0.583333 5.41667
2.66667 0.666667 5.41667
2.58333 0.583333 5.5
2.66667 0.583333 5.5
2.58333 0.666667 5.5
2.66667 0.583333 5.41667
2.75 0.666667 5.41667
2.75 0.583333 5.41667
2.83333 0.666667 5.41667
2.75 0.583333 5.5
2.83333 0.583333 5.5
2.75 0.666667 5.5
2.83333 0.583333 5.41667
2.91667 0.666667 5.41667
2.91667 0.583333 5.41667
3 0.666667 5.41667
2.91667 0.583333 5.5
3 0.583333 5.5
2.91667 0.666667 5.5
3 0.583333 5.41667
0.0833333 0.833333 5.41667
0.0833333 0.75 5.41667
0.166667 0.833333 5.41667
0.0833333 0.75 5.5
0.166667 0.75 5.5
0 0.833333 5.41667
0 0.75 5.41667
0.0833333 0.833333 5.5
0 0.75 5.5
0.166667 0.75 5.41667
0.25 0.833333 5.41667
0.25 0.75 5.41667
0.333333 0.833333 5.41667
0.25 0.75 5.5
0.333333 0.75 5.5
0.25 0.833333 5.5
0.333333 0.75 5.41667
0.416667 0.833333 5.41667
0.416667 0.75 5.41667
0.5 0.833333 5.41667
0.416667 0.75 5.5
0.5 0.75 5.5
0.416667 0.833333 5.5
0.5 0.75 5.41667
0.583333 0.833333 5.41667
0.583333 0.75 5.41667
0.666667 0.833333 5.41667
0.583333 0.75 5.5
0.666667 0.75 5.5
0.583333 0.833333 5.5
0.666667 0.75 5.41667
0.75 0.833333 5.41667
0.75 0.75 5.41667
0.833333 0.833333 5.41667
0.75 0.75 5.5
0.833333 0.75 5.5
0.75 0.833333 5.5
0.833333 0.75 5.41667
0.916667 0.833333 5.41667
0.916667 0.75 5.41667
1 0.833333 5.41667
0.916667 0.75 5.5
1 0.75 5.5
0.916667 0.833333 5.5
1 0.75 5.41667
1.08333 0.833333 5.41667
1.08333 0.75 5.41667
1.16667 0.833333 5.41667
1.08333 0.75 5.5
1.16667 0.75 5.5
1.08333 0.833333 5.5
1.16667 0.75 5.41667
1.25 0.833333 5.41667
1.25 0.75 5.41667
1.33333 0.833333 5.41667
1.25 0.75 5.5
1.33333 0.75 5.5
1.25 0.833333 5.5
1.33333 0.75 5.41667
1.41667 0.833333 5.41667
1.41667 0.75 5.41667
1.5 0.833333 5.41667
1.41667 0.75 5.5
1.5 0.75 5.5
1.41667 0.833333 5.5
1.5 0.75 5.41667
1.58333 0.833333 5.41667
1.58333 0.75 5.41667
1.66667 0.833333 5.41667
1.58333 0.75 5.5
1.66667 0.75 5.5
1.58333 0.833333 5.5
1.66667 0.75 5.41667
1.75 0.833333 5.41667
1.75 0.75 5.41667
1.83333 0.833333 5.41667
1.75 0.75 5.5
1.83333 0.75 5.5
1.75 0.833333 5.5
1.83333 0.75 5.41667
1.91667 0.833333 5.41667
1.91667 0.75 5.41667
2 0.833333 5.41667
1.91667 0.75 5.5
2 0.75 5.5
1.91667 0.833333 5.5
2 0.75 5.41667
2.08333 0.833333 5.41667
2.08333 0.75 5.41667
2.16667 0.833333 5.41667
2.08333 0.75 5.5
2.16667 0.75 5.5
2.08333 0.833333 5.5
2.16667 0.75 5.41667
2.25 0.833333 5.41667
2.25 0.75 5.41667
2.33333 0.833333 5.41667
2.25 0.75 5.5
2.33333 0.75 5.5
2.25 0.833333 5.5
2.33333 0.75 5.41667
2.41667 0.833333 5.41667
2.41667 0.75 5.41667
2.5 0.833333 5.41667
2.41667 0.75 5.5
2.5 0.75 5.5
2.41667 0.833333 5.5
2.5 0.75 5.41667
2.58333 0.833333 5.41667
2.58333 0.75 5.41667
2.66667 0.833333 5.41667
2.58333 0.75 5.5
2.66667 0.75 5.5
2.58333 0.833333 5.5
2.66667 0.75 5.41667
2.75 0.833333 5.41667
2.75 0.75 5.41667
2.83333 0.833333 5.41667
2.75 0.75 5.5
2.83333 0.75 5.5
2.75 0.833333 5.5
2.83333 0.75 5.41667
2.91667 0.833333 5.41667
2.91667 0.75 5.41667
3 0.833333 5.41667
2.91667 0.75 5.5
3 0.75 5.5
2.91667 0.833333 5.5
3 0.75 5.41667
0.0833333 1 5.41667
0.0833333 0.916667 5.41667
0.166667 1 5.41667
0.0833333 0.916667 5.5
0.166667 0.916667 5.5
0 1 5.41667
0 0.916667 5.41667
0.0833333 1 5.5
0 0.916667 5.5
0.166667 0.916667 5.41667
0.25 1 5.41667
0.25 0.916667 5.41667
0.333333 1 5.41667
0.25 0.916667 5.5
0.333333 0.916667 5.5
0.25 1 5.5
0.333333 0.916667 5.41667
0.416667 1 5.41667
0.416667 0.916667 5.41667
0.5 1 5.41667
0.416667 0.916667 5.5
0.5 0.916667 5.5
0.416667 1 5.5
0.5 0.916667 5.41667
0.583333 1 5.41667
0.583333 0.916667 5.41667
0.666667 1 5.41667
0.583333 0.916667 5.5
0.666667 0.916667 5.5
0.583333 1 5.5
0.666667 0.916667 5.41667
0.75 1 5.41667
0.75 0.916667 5.41667
0.833333 1 5.41667
0.75 0.916667 5.5
0.833333 0.916667 5.5
0.75 1 5.5
0.833333 0.916667 5.41667
0.916667 1 5.41667
0.916667 0.916667 5.41667
1 1 5.41667
0.916667 0.916667 5.5
1 0.916667 5.5
0.916667 1 5.5
1 0.916667 5.41667
1.08333 1 5.41667
1.08333 0.916667 5.41667
1.16667 1 5.41667
1.08333 0.916667 5.5
1.16667 0.916667 5.5
1.08333 1 5.5
1.16667 0.916667 5.41667
1.25 1 5.41667
1.25 0.916667 5.41667
1.33333 1 5.41667
1.25 0.916667 5.5
1.33333 0.916667 5.5
1.25 1 5.5
1.33333 0.916667 5.41667
1.41667 1 5.41667
1.41667 0.916667 5.41667
1.5 1 5.41667
1.41667 0.916667 5.5
1.5 0.916667 5.5
1.41667 1 5.5
1.5 0.916667 5.41667
1.58333 1 5.41667
1.58333 0.916667 5.41667
1.66667 1 5.41667
1.58333 0.916667 5.5
1.66667 0.916667 5.5
1.58333 1 5.5
1.66667 0.916667 5.41667
1.75 1 5.41667
1.75 0.916667 5.41667
1.83333 1 5.41667
1.75 0.916667 5.5
1.83333 0.916667 5.5
1.75 1 5.5
1.83333 0.916667 5.41667
1.91667 1 5.41667
1.91667 0.916667 5.41667
2 1 5.41667
1.91667 0.916667 5.5
2 0.916667 5.5
1.91667 1 5.5
2 0.916667 5.41667
2.08333 1 5.41667
2.08333 0.916667 5.41667
2.16667 1 5.41667
2.08333 0.916667 5.5
2.16667 0.916667 5.5
2.08333 1 5.5
2.16667 0.916667 5.41667
2.25 1 5.41667
2.25 0.916667 5.41667
2.33333 1 5.41667
2.25 0.916667 5.5
2.33333 0.916667 5.5
2.25 1 5.5
2.33333 0.916667 5.41667
2.41667 1 5.41667
2.41667 0.916667 5.41667
2.5 1 5.41667
2.41667 0.916667 5.5
2.5 0.916667 5.5
2.41667 1 5.5
2.5 0.916667 5.41667
2.58333 1 5.41667
2.58333 0.916667 5.41667
2.66667 1 5.41667
2.58333 0.916667 5.5
2.66667 0.916667 5.5
2.58333 1 5.5
2.66667 0.916667 5.41667
2.75 1 5.41667
2.75 0.916667 5.41667
2.83333 1 5.41667
2.75 0.916667 5.5
2.83333 0.916667 5.5
2.75 1 5.5
2.83333 0.916667 5.41667
2.91667 1 5.41667
2.91667 0.916667 5.41667
3 1 5.41667
2.91667 0.916667 5.5
3 0.916667 5.5
2.91667 1 5.5
3 0.916667 5.41667

CELLS 3889 38880
OFFSETS vtktypeint64
0 10 20 30 40 50 60 70 80 90 100 110 120 130 140 150 160 170 180 190 200 210 220 230 240 250 260 270 280 290 300 310 320 330 340 350 360 370 380 390 400 410 420 430 440 450 460 470 480 490 500 510 520 530 540 550 560 570 580 590 600 610 620 630 640 650 660 670 680 690 700 710 720 730 740 750 760 770 780 790 800 810 820 830 840 850 860 870 880 890 900 910 920 930 940 950 960 970 980 990 1000 1010 1020 1030 1040 1050 1060 1070 1080 1090 1100 1110 1120 1130 1140 1150 1160 1170 1180 1190 1200 1210 1220 1230 1240 1250 1260 1270 1280 1290 1300 1310 1320 1330 1340 1350 1360 1370 1380 1390 1400 1410 1420 1430 1440 1450 1460 1470 1480 1490 1500 1510 1520 1530 1540 1550 1560 1570 1580 1590 1600 1610 1620 1630 1640 1650 1660 1670 1680 1690 1700 1710 1720 1730 1740 1750 1760 1770 1780 1790 1800 1810 1820 1830 1840 1850 1860 1870 1880 1890 1900 1910 1920 1930 1940 1950 1960 1970 1980 1990 2000 2010 2020 2030 2040 2050 2060 2070 2080 2090 2100 2110 2120 2130 2140 2150 2160 2170 2180 2190 2200 2210 2220 2230 2240 2250 2260 2270 2280 2290 2300 2310 2320 2330 2340 2350 2360 2370 2380 2390 2400 2410 2420 2430 2440 2450 2460 2470 2480 2490 2500 2510 2520 2530 2540 2550 2560 2570 2580 2590 2600 2610 2620 2630 2640 2650 2660 2670 2680 2690 2700 2710 2720 2730 2740 2750 2760 2770 2780 2790 2800 2810 2820 2830 2840 2850 2860 2870 2880 2890 2900 2910 2920 2930 2940 2950 2960 2970 2980 2990 3000 3010 3020 3030 3040 3050 3060 3070 3080 3090 3100 3110 3120 3130 3140 3150 3160 3170 3180 3190 3200 3210 3220 3230 3240 3250 3260 3270 3280 3290 3300 3310 3320 3330 3340 3350 3360 3370 3380 3390 3400 3410 3420 3430 3440 3450 3460 3470 3480 3490 3500 3510 3520 3530 3540 3550 3560 3570 3580 3590 3600 3610 3620 3630 3640 3650 3660 3670 3680 3690 3700 3710 3720 3730 3740 3750 3760 3770 3780 3790 3800 3810 3820 3830 3840 3850 3860 3870 3880 3890 3900 3910 3920 3930 3940 3950 3960 3970 3980 3990 4000 4010 4020 4030 4040 4050 4060 4070 4080 4090 4100 4110 4120 4130 4140 4150 4160 4170 4180 4190 4200 4210 4220 4230 4240 4250 4260 4270 4280 4290 4300 4310 4320 4330 4340 4350 4360 4370 4380 4390 4400 4410 4420 4430 4440 4450 4460 4470 4480 4490 4500 4510 4520 4530 4540 4550 4560 4570 4580 4590 4600 4610 4620 4630 4640 4650 4660 4670 4680 4690 4700 4710 4720 4730 4740 4750 4760 4770 4780 4790 4800 4810 4820 4830 4840 4850 4860 4870 4880 4890 4900 4910 4920 4930 4940 4950 4960 4970 4980 4990 5000 5010 5020 5030 5040 5050 5060 5070 5080 5090 5100 5110 5120 5130 5140 5150 5160 5170 5180 5190 5200 5210 5220 5230 5240 5250 5260 5270 5280 5290 5300 5310 5320 5330 5340 5350 5360 5370 5380 5390 5400 5410 5420 5430 5440 5450 5460 5470 5480 5490 5500 5510 5520 5530 5540 5550 5560 5570 5580 5590 5600 5610 5620 5630 5640 5650 5660 5670 5680 5690 5700 5710 5720 5730 5740 5750 5760 5770 5780 5790 5800 5810 5820 5830 5840 5850 5860 5870 5880 5890 5900 5910 5920 5930 5940 5950 5960 5970 5980 5990 6000 6010 6020 6030 6040 6050 6060 6070 6080 6090 6100 6110 6120 6130 6140 6150 6160 6170 6180 6190 6200 6210 6220 6230 6240 6250 6260 6270 6280 6290 6300 6310 6320 6330 6340 6350 6360 6370 6380 6390 6400 6410 6420 6430 6440 6450 6460 6470 6480 6490 6500 6510 6520 6530 6540 6550 6560 6570 6580 6590 6600 6610 6620 6630 6640 6650 6660 6670 6680 6690 6700 6710 6720 6730 6740 6750 6760 6770 6780 6790 6800 6810 6820 6830 6840 6850 6860 6870 6880 6890 6900 6910 6920 6930 6940 6950 6960 6970 6980 6990 7000 7010 7020 7030 7040 7050 7060 7070 7080 7090 7100 7110 7120 7130 7140 7150 7160 7170 7180 7190 7200 7210 7220 7230 7240 7250 7260 7270 7280 7290 7300 7310 7320 7330 7340 7350 7360 7370 7380 7390 7400 7410 7420 7430 7440 7450 7460 7470 7480 7490 7500 7510 7520 7530 7540 7550 7560 7570 7580 7590 7600 7610 7620 7630 7640 7650 7660 7670 7680 7690 7700 7710 7720 7730 7740 7750 7760 7770 7780 7790 7800 7810 7820 7830 7840 7850 7860 7870 7880 7890 7900 7910 7920 7930 7940 7950 7960 7970 7980 7990 8000 8010 8020 8030 8040 8050 8060 8070 8080 8090 8100 8110 8120 8130 8140 8150 8160 8170 8180 8190 8200 8210 8220 8230 8240 8250 8260 8270 8280 8290 8300 8310 8320 8330 8340 8350 8360 8370 8380 8390 8400 8410 8420 8430 8440 8450 8460 8470 8480 8490 8500 8510 8520 8530 8540 8550 8560 8570 8580 8590 8600 8610 8620 8630 8640 8650 8660 8670 8680 8690 8700 8710 8720 8730 8740 8750 8760 8770 8780 8790 8800 8810 8820 8830 8840 8850 8860 8870 8880 8890 8900 8910 8920 8930 8940 8950 8960 8970 8980 8990 9000 9010 9020 9030 9040 9050 9060 9070 9080 9090 9100 9110 9120 9130 9140 9150 9160 9170 9180 9190 9200 9210 9220 9230 9240 9250 9260 9270 9280 9290 9300 9310 9320 9330 9340 9350 9360 9370 9380 9390 9400 9410 9420 9430 9440 9450 9460 9470 9480 9490 9500 9510 9520 9530 9540 9550 9560 9570 9580 9590 9600 9610 9620 9630 9640 9650 9660 9670 9680 9690 9700 9710 9720 9730 9740 9750 9760 9770 9780 9790 9800 9810 9820 9830 9840 9850 9860 9870 9880 9890 9900 9910 9920 9930 9940 9950 9960 9970 9980 9990 10000 10010 10020 10030 10040 10050 10060 10070 10080 10090 10100 10110 10120 10130 10140 10150 10160 10170 10180 10190 10200 10210 10220 10230 10240 10250 10260 10270 10280 10290 10300 10310 10320 10330 10340 10350 10360 10370 10380 10390 10400 10410 10420 10430 10440 10450 10460 10470 10480 10490 10500 10510 10520 10530 10540 10550 10560 10570 10580 10590 10600 10610 10620 10630 10640 10650 10660 10670 10680 10690 10700 10710 10720 10730 10740 10750 10760 10770 10780 10790 10800 10810 10820 10830 10840 10850 10860 10870 10880 10890 10900 10910 10920 10930 10940 10950 10960 10970 10980 10990 11000 11010 11020 11030 11040 11050 11060 11070 11080 11090 11100 11110 11120 11130 11140 11150 11160 11170 11180 11190 11200 11210 11220 11230 11240 11250 11260 11270 11280 11290 11300 11310 11320 11330 11340 11350 11360 11370 11380 11390 11400 11410 11420 11430 11440 11450 11460 11470 11480 11490 11500 11510 11520 11530 11540 11550 11560 11570 11580 11590 11600 11610 11620 11630 11640 11650 11660 11670 11680 11690 11700 11710 11720 11730 11740 11750 11760 11770 11780 11790 11800 11810 11820 11830 11840 11850 11860 11870 11880 11890 11900 11910 11920 11930 11940 11950 11960 11970 11980 11990 12000 12010 12020 12030 12040 12050 12060 12070 12080 12090 12100 12110 12120 12130 12140 12150 12160 12170 12180 12190 12200 12210 12220 12230 12240 12250 12260 12270 12280 12290 12300 12310 12320 12330 12340 12350 12360 12370 12380 12390 12400 12410 12420 12430 12440 12450 12460 12470 12480 12490 12500 12510 12520 12530 12540 12550 12560 12570 12580 12590 12600 12610 12620 12630 12640 12650 12660 12670 12680 12690 12700 12710 12720 12730 12740 12750 12760 12770 12780 12790 12800 12810 12820 12830 12840 12850 12860 12870 12880 12890 12900 12910 12920 12930 12940 12950 12960 12970 12980 12990 13000 13010 13020 13030 13040 13050 13060 13070 13080 13090 13100 13110 13120 13130 13140 13150 13160 13170 13180 13190 13200 13210 13220 13230 13240 13250 13260 13270 13280 13290 13300 13310 13320 13330 13340 13350 13360 13370 13380 13390 13400 13410 13420 13430 13440 13450 13460 13470 13480 13490 13500 13510 13520 13530 13540 13550 13560 13570 13580 13590 13600 13610 13620 13630 13640 13650 13660 13670 13680 13690 13700 13710 13720 13730 13740 13750 13760 13770 13780 13790 13800 13810 13820 13830 13840 13850 13860 13870 13880 13890 13900 13910 13920 13930 13940 13950 13960 13970 13980 13990 14000 14010 14020 14030 14040 14050 14060 14070 14080 14090 14100 14110 14120 14130 14140 14150 14160 14170 14180 14190 14200 14210 14220 14230 14240 14250 14260 14270 14280 14290 14300 14310 14320 14330 14340 14350 14360 14370 14380 14390 14400 14410 14420 14430 14440 14450 14460 14470 14480 14490 14500 14510 14520 14530 14540 14550 14560 14570 14580 14590 14600 14610 14620 14630 14640 14650 14660 14670 14680 14690 14700 14710 14720 14730 14740 14750 14760 14770 14780 14790 14800 14810 14820 14830 14840 14850 14860 14870 14880 14890 14900 14910 14920 14930 14940 14950 14960 14970 14980 14990 15000 15010 15020 15030 15040 15050 15060 15070 15080 15090 15100 15110 15120 15130 15140 15150 15160 15170 15180 15190 15200 15210 15220 15230 15240 15250 15260 15270 15280 15290 15300 15310 15320 15330 15340 15350 15360 15370 15380 15390 15400 15410 15420 15430 15440 15450 15460 15470 15480 15490 15500 15510 15520 15530 15540 15550 15560 15570 15580 15590 15600 15610 15620 15630 15640 15650 15660 15670 15680 15690 15700 15710 15720 15730 15740 15750 15760 15770 15780 15790 15800 15810 15820 15830 15840 15850 15860 15870 15880 15890 15900 15910 15920 15930 15940 15950 15960 15970 15980 15990 16000 16010 16020 16030 16040 16050 16060 16070 16080 16090 16100 16110 16120 16130 16140 16150 16160 16170 16180 16190 16200 16210 16220 16230 16240 16250 16260 16270 16280 16290 16300 16310 16320 16330 16340 16350 16360 16370 16380 16390 16400 16410 16420 16430 16440 16450 16460 16470 16480 16490 16500 16510 16520 16530 16540 16550 16560 16570 16580 16590 16600 16610 16620 16630 16640 16650 16660 16670 16680 16690 16700 16710 16720 16730 16740 16750 16760 16770 16780 16790 16800 16810 16820 16830 16840 16850 16860 16870 16880 16890 16900 16910 16920 16930 16940 16950 16960 16970 16980 16990 17000 17010 17020 17030 17040 17050 17060 17070 17080 17090 17100 17110 17120 17130 17140 17150 17160 17170 17180 17190 17200 17210 17220 17230 17240 17250 17260 17270 17280 17290 17300 17310 17320 17330 17340 17350 17360 17370 17380 17390 17400 17410 17420 17430 17440 17450 17460 17470 17480 17490 17500 17510 17520 17530 17540 17550 17560 17570 17580 17590 17600 17610 17620 17630 17640 17650 17660 17670 17680 17690 17700 17710 17720 17730 17740 17750 17760 17770 17780 17790 17800 17810 17820 17830 17840 17850 17860 17870 17880 17890 17900 17910 17920 17930 17940 17950 17960 17970 17980 17990 18000 18010 18020 18030 18040 18050 18060 18070 18080 18090 18100 18110 18120 18130 18140 18150 18160 18170 18180 18190 18200 18210 18220 18230 18240 18250 18260 18270 18280 18290 18300 18310 18320 18330 18340 18350 18360 18370 18380 18390 18400 18410 18420 18430 18440 18450 18460 18470 18480 18490 18500 18510 18520 18530 18540 18550 18560 18570 18580 18590 18600 18610 18620 18630 18640 18650 18660 18670 18680 18690 18700 18710 18720 18730 18740 18750 18760 18770 18780 18790 18800 18810 18820 18830 18840 18850 18860 18870 18880 18890 18900 18910 18920 18930 18940 18950 18960 18970 18980 18990 19000 19010 19020 19030 19040 19050 19060 19070 19080 19090 19100 19110 19120 19130 19140 19150 19160 19170 19180 19190 19200 19210 19220 19230 19240 19250 19260 19270 19280 19290 19300 19310 19320 19330 19340 19350 19360 19370 19380 19390 19400 19410 19420 19430 19440 19450 19460 19470 19480 19490 19500 19510 19520 19530 19540 19550 19560 19570 19580 19590 19600 19610 19620 19630 19640 19650 19660 19670 19680 19690 19700 19710 19720 19730 19740 19750 19760 19770 19780 19790 19800 19810 19820 19830 19840 19850 19860 19870 19880 19890 19900 19910 19920 19930 19940 19950 19960 19970 19980 19990 20000 20010 20020 20030 20040 20050 20060 20070 20080 20090 20100 20110 20120 20130 20140 20150 20160 20170 20180 20190 20200 20210 20220 20230 20240 20250 20260 20270 20280 20290 20300 20310 20320 20330 20340 20350 20360 20370 20380 20390 20400 20410 20420 20430 20440 20450 20460 20470 20480 20490 20500 20510 20520 20530 20540 20550 20560 20570 20580 20590 20600 20610 20620 20630 20640 20650 20660 20670 20680 20690 20700 20710 20720 20730 20740 20750 20760 20770 20780 20790 20800 20810 20820 20830 20840 20850 20860 20870 20880 20890 20900 20910 20920 20930 20940 20950 20960 20970 20980 20990 21000 21010 21020 21030 21040 21050 21060 21070 21080 21090 21100 21110 21120 21130 21140 21150 21160 21170 21180 21190 21200 21210 21220 21230 21240 21250 21260 21270 21280 21290 21300 21310 21320 21330 21340 21350 21360 21370 21380 21390 21400 21410 21420 21430 21440 21450 21460 21470 21480 21490 21500 21510 21520 21530 21540 21550 21560 21570 21580 21590 21600 21610 21620 21630 21640 21650 21660 21670 21680 21690 21700 21710 21720 21730 21740 21750 21760 21770 21780 21790 21800 21810 21820 21830 21840 21850 21860 21870 21880 21890 21900 21910 21920 21930 21940 21950 21960 21970 21980 21990 22000 22010 22020 22030 22040 22050 22060 22070 22080 22090 22100 22110 22120 22130 22140 22150 22160 22170 22180 22190 22200 22210 22220 22230 22240 22250 22260 22270 22280 22290 22300 22310 22320 22330 22340 22350 22360 22370 22380 22390 22400 22410 22420 22430 22440 22450 22460 22470 22480 22490 22500 22510 22520 22530 22540 22550 22560 22570 22580 22590 22600 22610 22620 22630 22640 22650 22660 22670 22680 22690 22700 22710 22720 22730 22740 22750 22760 22770 22780 22790 22800 22810 22820 22830 22840 22850 22860 22870 22880 22890 22900 22910 22920 22930 22940 22950 22960 22970 22980 22990 23000 23010 23020 23030 23040 23050 23060 23070 23080 23090 23100 23110 23120 23130 23140 23150 23160 23170 23180 23190 23200 23210 23220 23230 23240 23250 23260 23270 23280 23290 23300 23310 23320 23330 23340 23350 23360 23370 23380 23390 23400 23410 23420 23430 23440 23450 23460 23470 23480 23490 23500 23510 23520 23530 23540 23550 23560 23570 23580 23590 23600 23610 23620 23630 23640 23650 23660 23670 23680 23690 23700 23710 23720 23730 23740 23750 23760 23770 23780 23790 23800 23810 23820 23830 23840 23850 23860 23870 23880 23890 23900 23910 23920 23930 23940 23950 23960 23970 23980 23990 24000 24010 24020 24030 24040 24050 24060 24070 24080 24090 24100 24110 24120 24130 24140 24150 24160 24170 24180 24190 24200 24210 24220 24230 24240 24250 24260 24270 24280 24290 24300 24310 24320 24330 24340 24350 24360 24370 24380 24390 24400 24410 24420 24430 24440 24450 24460 24470 24480 24490 24500 24510 24520 24530 24540 24550 24560 24570 24580 24590 24600 24610 24620 24630 24640 24650 24660 24670 24680 24690 24700 24710 24720 24730 24740 24750 24760 24770 24780 24790 24800 24810 24820 24830 24840 24850 24860 24870 24880 24890 24900 24910 24920 24930 24940 24950 24960 24970 24980 24990 25000 25010 25020 25030 25040 25050 25060 25070 25080 25090 25100 25110 25120 25130 25140 25150 25160 25170 25180 25190 25200 25210 25220 25230 25240 25250 25260 25270 25280 25290 25300 25310 25320 25330 25340 25350 25360 25370 25380 25390 25400 25410 25420 25430 25440 25450 25460 25470 25480 25490 25500 25510 25520 25530 25540 25550 25560 25570 25580 25590 25600 25610 25620 25630 25640 25650 25660 25670 25680 25690 25700 25710 25720 25730 25740 25750 25760 25770 25780 25790 25800 25810 25820 25830 25840 25850 25860 25870 25880 25890 25900 25910 25920 25930 25940 25950 25960 25970 25980 25990 26000 26010 26020 26030 26040 26050 26060 26070 26080 26090 26100 26110 26120 26130 26140 26150 26160 26170 26180 26190 26200 26210 26220 26230 26240 26250 26260 26270 26280 26290 26300 26310 26320 26330 26340 26350 26360 26370 26380 26390 26400 26410 26420 26430 26440 26450 26460 26470 26480 26490 26500 26510 26520 26530 26540 26550 26560 26570 26580 26590 26600 26610 26620 26630 26640 26650 26660 26670 26680 26690 26700 26710 26720 26730 26740 26750 26760 26770 26780 26790 26800 26810 26820 26830 26840 26850 26860 26870 26880 26890 26900 26910 26920 26930 26940 26950 26960 26970 26980 26990 27000 27010 27020 27030 27040 27050 27060 27070 27080 27090 27100 27110 27120 27130 27140 27150 27160 27170 27180 27190 27200 27210 27220 27230 27240 27250 27260 27270 27280 27290 27300 27310 27320 27330 27340 27350 27360 27370 27380 27390 27400 27410 27420 27430 27440 27450 27460 27470 27480 27490 27500 27510 27520 27530 27540 27550 27560 27570 27580 27590 27600 27610 27620 27630 27640 27650 27660 27670 27680 27690 27700 27710 27720 27730 27740 27750 27760 27770 27780 27790 27800 27810 27820 27830 27840 27850 27860 27870 27880 27890 27900 27910 27920 27930 27940 27950 27960 27970 27980 27990 28000 28010 28020 28030 28040 28050 28060 28070 28080 28090 28100 28110 28120 28130 28140 28150 28160 28170 28180 28190 28200 28210 28220 28230 28240 28250 28260 28270 28280 28290 28300 28310 28320 28330 28340 28350 28360 28370 28380 28390 28400 28410 28420 28430 28440 28450 28460 28470 28480 28490 28500 28510 28520 28530 28540 28550 28560 28570 28580 28590 28600 28610 28620 28630 28640 28650 28660 28670 28680 28690 28700 28710 28720 28730 28740 28750 28760 28770 28780 28790 28800 28810 28820 28830 28840 28850 28860 28870 28880 28890 28900 28910 28920 28930 28940 28950 28960 28970 28980 28990 29000 29010 29020 29030 29040 29050 29060 29070 29080 29090 29100 29110 29120 29130 29140 29150 29160 29170 29180 29190 29200 29210 29220 29230 29240 29250 29260 29270 29280 29290 29300 29310 29320 29330 29340 29350 29360 29370 29380 29390 29400 29410 29420 29430 29440 29450 29460 29470 29480 29490 29500 29510 29520 29530 29540 29550 29560 29570 29580 29590 29600 29610 29620 29630 29640 29650 29660 29670 29680 29690 29700 29710 29720 29730 29740 29750 29760 29770 29780 29790 29800 29810 29820 29830 29840 29850 29860 29870 29880 29890 29900 29910 29920 29930 29940 29950 29960 29970 29980 29990 30000 30010 30020 30030 30040 30050 30060 30070 30080 30090 30100 30110 30120 30130 30140 30150 30160 30170 30180 30190 30200 30210 30220 30230 30240 30250 30260 30270 30280 30290 30300 30310 30320 30330 30340 30350 30360 30370 30380 30390 30400 30410 30420 30430 30440 30450 30460 30470 30480 30490 30500 30510 30520 30530 30540 30550 30560 30570 30580 30590 30600 30610 30620 30630 30640 30650 30660 30670 30680 30690 30700 30710 30720 30730 30740 30750 30760 30770 30780 30790 30800 30810 30820 30830 30840 30850 30860 30870 30880 30890 30900 30910 30920 30930 30940 30950 30960 30970 30980 30990 31000 31010 31020 31030 31040 31050 31060 31070 31080 31090 31100 31110 31120 31130 31140 31150 31160 31170 31180 31190 31200 31210 31220 31230 31240 31250 31260 31270 31280 31290 31300 31310 31320 31330 31340 31350 31360 31370 31380 31390 31400 31410 31420 31430 31440 31450 31460 31470 31480 31490 31500 31510 31520 31530 31540 31550 31560 31570 31580 31590 31600 31610 31620 31630 31640 31650 31660 31670 31680 31690 31700 31710 31720 31730 31740 31750 31760 31770 31780 31790 31800 31810 31820 31830 31840 31850 31860 31870 31880 31890 31900 31910 31920 31930 31940 31950 31960 31970 31980 31990 32000 32010 32020 32030 32040 32050 32060 32070 32080 32090 32100 32110 32120 32130 32140 32150 32160 32170 32180 32190 32200 32210 32220 32230 32240 32250 32260 32270 32280 32290 32300 32310 32320 32330 32340 32350 32360 32370 32380 32390 32400 32410 32420 32430 32440 32450 32460 32470 32480 32490 32500 32510 32520 32530 32540 32550 32560 32570 32580 32590 32600 32610 32620 32630 32640 32650 32660 32670 32680 32690 32700 32710 32720 32730 32740 32750 32760 32770 32780 32790 32800 32810 32820 32830 32840 32850 32860 32870 32880 32890 32900 32910 32920 32930 32940 32950 32960 32970 32980 32990 33000 33010 33020 33030 33040 33050 33060 33070 33080 33090 33100 33110 33120 33130 33140 33150 33160 33170 33180 33190 33200 33210 33220 33230 33240 33250 33260 33270 33280 33290 33300 33310 33320 33330 33340 33350 33360 33370 33380 33390 33400 33410 33420 33430 33440 33450 33460 33470 33480 33490 33500 33510 33520 33530 33540 33550 33560 33570 33580 33590 33600 33610 33620 33630 33640 33650 33660 33670 33680 33690 33700 33710 33720 33730 33740 33750 33760 33770 33780 33790 33800 33810 33820 33830 33840 33850 33860 33870 33880 33890 33900 33910 33920 33930 33940 33950 33960 33970 33980 33990 34000 34010 34020 34030 34040 34050 34060 34070 34080 34090 34100 34110 34120 34130 34140 34150 34160 34170 34180 34190 34200 34210 34220 34230 34240 34250 34260 34270 34280 34290 34300 34310 34320 34330 34340 34350 34360 34370 34380 34390 34400 34410 34420 34430 34440 34450 34460 34470 34480 34490 34500 34510 34520 34530 34540 34550 34560 34570 34580 34590 34600 34610 34620 34630 34640 34650 34660 34670 34680 34690 34700 34710 34720 34730 34740 34750 34760 34770 34780 34790 34800 34810 34820 34830 34840 34850 34860 34870 34880 34890 34900 34910 34920 34930 34940 34950 34960 34970 34980 34990 35000 35010 35020 35030 35040 35050 35060 35070 35080 35090 35100 35110 35120 35130 35140 35150 35160 35170 35180 35190 35200 35210 35220 35230 35240 35250 35260 35270 35280 35290 35300 35310 35320 35330 35340 35350 35360 35370 35380 35390 35400 35410 35420 35430 35440 35450 35460 35470 35480 35490 35500 35510 35520 35530 35540 35550 35560 35570 35580 35590 35600 35610 35620 35630 35640 35650 35660 35670 35680 35690 35700 35710 35720 35730 35740 35750 35760 35770 35780 35790 35800 35810 35820 35830 35840 35850 35860 35870 35880 35890 35900 35910 35920 35930 35940 35950 35960 35970 35980 35990 36000 36010 36020 36030 36040 36050 36060 36070 36080 36090 36100 36110 36120 36130 36140 36150 36160 36170 36180 36190 36200 36210 36220 36230 36240 36250 36260 36270 36280 36290 36300 36310 36320 36330 36340 36350 36360 36370 36380 36390 36400 36410 36420 36430 36440 36450 36460 36470 36480 36490 36500 36510 36520 36530 36540 36550 36560 36570 36580 36590 36600 36610 36620 36630 36640 36650 36660 36670 36680 36690 36700 36710 36720 36730 36740 36750 36760 36770 36780 36790 36800 36810 36820 36830 36840 36850 36860 36870 36880 36890 36900 36910 36920 36930 36940 36950 36960 36970 36980 36990 37000 37010 37020 37030 37040 37050 37060 37070 37080 37090 37100 37110 37120 37130 37140 37150 37160 37170 37180 37190 37200 37210 37220 37230 37240 37250 37260 37270 37280 37290 37300 37310 37320 37330 37340 37350 37360 37370 37380 37390 37400 37410 37420 37430 37440 37450 37460 37470 37480 37490 37500 37510 37520 37530 37540 37550 37560 37570 37580 37590 37600 37610 37620 37630 37640 37650 37660 37670 37680 37690 37700 37710 37720 37730 37740 37750 37760 37770 37780 37790 37800 37810 37820 37830 37840 37850 37860 37870 37880 37890 37900 37910 37920 37930 37940 37950 37960 37970 37980 37990 38000 38010 38020 38030 38040 38050 38060 38070 38080 38090 38100 38110 38120 38130 38140 38150 38160 38170 38180 38190 38200 38210 38220 38230 38240 38250 38260 38270 38280 38290 38300 38310 38320 38330 38340 38350 38360 38370 38380 38390 38400 38410 38420 38430 38440 38450 38460 38470 38480 38490 38500 38510 38520 38530 38540 38550 38560 38570 38580 38590 38600 38610 38620 38630 38640 38650 38660 38670 38680 38690 38700 38710 38720 38730 38740 38750 38760 38770 38780 38790 38800 38810 38820 38830 38840 38850 38860 38870 38880 
CONNECTIVITY vtktypeint64
0 19 153 20 931 932 933 934 935 936 
133 153 134 0 937 938 939 940 933 941 
0 19 152 153 931 942 943 933 932 944 
133 153 0 152 937 933 940 945 944 943 
134 0 153 1 941 933 938 946 947 948 
153 0 20 1 933 934 936 948 947 949 
1 20 154 21 949 950 951 952 953 954 
134 154 135 1 955 956 957 946 951 958 
1 20 153 154 949 936 948 951 950 959 
134 154 1 153 955 951 946 938 959 948 
135 1 154 2 958 951 956 960 961 962 
154 1 21 2 951 952 954 962 961 963 
2 21 155 22 963 964 965 966 967 968 
135 155 136 2 969 970 971 960 965 972 
2 21 154 155 963 954 962 965 964 973 
135 155 2 154 969 965 960 956 973 962 
136 2 155 3 972 965 970 974 975 976 
155 2 22 3 965 966 968 976 975 977 
3 22 156 23 977 978 979 980 981 982 
136 156 137 3 983 984 985 974 979 986 
3 22 155 156 977 968 976 979 978 987 
136 156 3 155 983 979 974 970 987 976 
137 3 156 4 986 979 984 988 989 990 
156 3 23 4 979 980 982 990 989 991 
4 23 157 24 991 992 993 994 995 996 
137 157 138 4 997 998 999 988 993 1000 
4 23 156 157 991 982 990 993 992 1001 
137 157 4 156 997 993 988 984 1001 990 
138 4 157 5 1000 993 998 1002 1003 1004 
157 4 24 5 993 994 996 1004 1003 1005 
5 24 158 25 1005 1006 1007 1008 1009 1010 
138 158 139 5 1011 1012 1013 1002 1007 1014 
5 24 157 158 1005 996 1004 1007 1006 1015 
138 158 5 157 1011 1007 1002 998 1015 1004 
139 5 158 6 1014 1007 1012 1016 1017 1018 
158 5 25 6 1007 1008 1010 1018 1017 1019 
6 25 159 26 1019 1020 1021 1022 1023 1024 
139 159 140 6 1025 1026 1027 1016 1021 1028 
6 25 158 159 1019 1010 1018 1021 1020 1029 
139 159 6 158 1025 1021 1016 1012 1029 1018 
140 6 159 7 1028 1021 1026 1030 1031 1032 
159 6 26 7 1021 1022 1024 1032 1031 1033 
7 26 160 27 1033 1034 1035 1036 1037 1038 
140 160 141 7 1039 1040 1041 1030 1035 1042 
7 26 159 160 1033 1024 1032 1035 1034 1043 
140 160 7 159 1039 1035 1030 1026 1043 1032 
141 7 160 8 1042 1035 1040 1044 1045 1046 
160 7 27 8 1035 1036 1038 1046 1045 1047 
8 27 161 28 1047 1048 1049 1050 1051 1052 
141 161 142 8 1053 1054 1055 1044 1049 1056 
8 27 160 161 1047 1038 1046 1049 1048 1057 
141 161 8 160 1053 1049 1044 1040 1057 1046 
142 8 161 9 1056 1049 1054 1058 1059 1060 
161 8 28 9 1049 1050 1052 1060 1059 1061 
9 28 162 29 1061 1062 1063 1064 1065 1066 
142 162 143 9 1067 1068 1069 1058 1063 1070 
9 28 161 162 1061 1052 1060 1063 1062 1071 
142 162 9 161 1067 1063 1058 1054 1071 1060 
143 9 162 10 1070 1063 1068 1072 1073 1074 
162 9 29 10 1063 1064 1066 1074 1073 1075 
10 29 163 30 1075 1076 1077 1078 1079 1080 
143 163 144 10 1081 1082 1083 1072 1077 1084 
10 29 162 163 1075 1066 1074 1077 1076 1085 
143 163 10 162 1081 1077 1072 1068 1085 1074 
144 10 163 11 1084 1077 1082 1086 1087 1088 
163 10 30 11 1077 1078 1080 1088 1087 1089 
11 30 164 31 1089 1090 1091 1092 1093 1094 
144 164 145 11 1095 1096 1097 1086 1091 1098 
11 30 163 164 1089 1080 1088 1091 1090 1099 
144 164 11 163 1095 1091 1086 1082 1099 1088 
145 11 164 12 1098 1091 1096 1100 1101 1102 
164 11 31 12 1091 1092 1094 1102 1101 1103 
12 31 165 32 1103 1104 1105 1106 1107 1108 
145 165 146 12 1109 1110 1111 1100 1105 1112 
12 31 164 165 1103 1094 1102 1105 1104 1113 
145 165 12 164 1109 1105 1100 1096 1113 1102 
146 12 165 13 1112 1105 1110 1114 1115 1116 
165 12 32 13 1105 1106 1108 1116 1115 1117 
13 32 166 33 1117 1118 1119 1120 1121 1122 
146 166 147 13 1123 1124 1125 1114 1119 1126 
13 32 165 166 1117 1108 1116 1119 1118 1127 
146 166 13 165 1123 1119 1114 1110 1127 1116 
147 13 166 14 1126 1119 1124 1128 1129 1130 
166 13 33 14 1119 1120 1122 1130 1129 1131 
14 33 167 34 1131 1132 1133 1134 1135 1136 
147 167 148 14 1137 1138 1139 1128 1133 1140 
14 33 166 167 1131 1122 1130 1133 1132 1141 
147 167 14 166 1137 1133 1128 1124 1141 1130 
148 14 167 15 1140 1133 1138 1142 1143 1144 
167 14 34 15 1133 1134 1136 1144 1143 1145 
15 34 168 35 1145 1146 1147 1148 1149 1150 
148 168 149 15 1151 1152 1153 1142 1147 1154 
15 34 167 168 1145 1136 1144 1147 1146 1155 
148 168 15 167 1151 1147 1142 1138 1155 1144 
149 15 168 16 1154 1147 1152 1156 1157 1158 
168 15 35 16 1147 1148 1150 1158 1157 1159 
16 35 169 36 1159 1160 1161 1162 1163 1164 
149 169 150 16 1165 1166 1167 1156 1161 1168 
16 35 168 169 1159 1150 1158 1161 1160 1169 
149 169 16 168 1165 1161 1156 1152 1169 1158 
150 16 169 17 1168 1161 1166 1170 1171 1172 
169 16 36 17 1161 1162 1164 1172 1171 1173 
17 36 170 37 1173 1174 1175 1176 1177 1178 
150 170 151 17 1179 1180 1181 1170 1175 1182 
17 36 169 170 1173 1164 1172 1175 1174 1183 
150 170 17 169 1179 1175 1170 1166 1183 1172 
151 17 170 18 1182 1175 1180 1184 1185 1186 
170 17 37 18 1175 1176 1178 1186 1185 1187 
19 38 172 39 1188 1189 1190 1191 1192 1193 
152 172 153 19 1194 1195 944 942 1190 932 
19 38 171 172 1188 1196 1197 1190 1189 1198 
152 172 19 171 1194 1190 942 1199 1198 1197 
153 19 172 20 932 1190 1195 936 935 1200 
172 19 39 20 1190 1191 1193 1200 935 1201 
20 39 173 40 1201 1202 1203 1204 1205 1206 
153 173 154 20 1207 1208 959 936 1203 950 
20 39 172 173 1201 1193 1200 1203 1202 1209 
153 173 20 172 1207 1203 936 1195 1209 1200 
154 20 173 21 950 1203 1208 954 953 1210 
173 20 40 21 1203 1204 1206 1210 953 1211 
21 40 174 41 1211 1212 1213 1214 1215 1216 
154 174 155 21 1217 1218 973 954 1213 964 
21 40 173 174 1211 1206 1210 1213 1212 1219 
154 174 21 173 1217 1213 954 1208 1219 1210 
155 21 174 22 964 1213 1218 968 967 1220 
174 21 41 22 1213 1214 1216 1220 967 1221 
22 41 175 42 1221 1222 1223 1224 1225 1226 
155 175 156 22 1227 1228 987 968 1223 978 
22 41 174 175 1221 1216 1220 1223 1222 1229 
155 175 22 174 1227 1223 968 1218 1229 1220 
156 22 175 23 978 1223 1228 982 981 1230 
175 22 42 23 1223 1224 1226 1230 981 1231 
23 42 176 43 1231 1232 1233 1234 1235 1236 
156 176 157 23 1237 1238 1001 982 1233 992 
23 42 175 176 1231 1226 1230 1233 1232 1239 
156 176 23 175 1237 1233 982 1228 1239 1230 
157 23 176 24 992 1233 1238 996 995 1240 
176 23 43 24 1233 1234 1236 1240 995 1241 
24 43 177 44 1241 1242 1243 1244 1245 1246 
157 177 158 24 1247 1248 1015 996 1243 1006 
24 43 176 177 1241 1236 1240 1243 1242 1249 
157 177 24 176 1247 1243 996 1238 1249 1240 
158 24 177 25 1006 1243 1248 1010 1009 1250 
177 24 44 25 1243 1244 1246 1250 1009 1251 
25 44 178 45 1251 1252 1253 1254 1255 1256 
158 178 159 25 1257 1258 1029 1010 1253 1020 
25 44 177 178 1251 1246 1250 1253 1252 1259 
158 178 25 177 1257 1253 1010 1248 1259 1250 
159 25 178 26 1020 1253 1258 1024 1023 1260 
178 25 45 26 1253 1254 1256 1260 1023 1261 
26 45 179 46 1261 1262 1263 1264 1265 1266 
159 179 160 26 1267 1268 1043 1024 1263 1034 
26 45 178 179 1261 1256 1260 1263 1262 1269 
159 179 26 178 1267 1263 1024 1258 1269 1260 
160 26 179 27 1034 1263 1268 1038 1037 1270 
179 26 46 27 1263 1264 1266 1270 1037 1271 
27 46 180 47 1271 1272 1273 1274 1275 1276 
160 180 161 27 1277 1278 1057 1038 1273 1048 
27 46 179 180 1271 1266 1270 1273 1272 1279 
160 180 27 179 1277 1273 1038 1268 1279 1270 
161 27 180 28 1048 1273 1278 1052 1051 1280 
180 27 47 28 1273 1274 1276 1280 1051 1281 
28 47 181 48 1281 1282 1283 1284 1285 1286 
161 181 162 28 1287 1288 1071 1052 1283 1062 
28 47 180 181 1281 1276 1280 1283 1282 1289 
161 181 28 180 1287 1283 1052 1278 1289 1280 
162 28 181 29 1062 1283 1288 1066 1065 1290 
181 28 48 29 1283 1284 1286 1290 1065 1291 
29 48 182 49 1291 1292 1293 1294 1295 1296 
162 182 163 29 1297 1298 1085 1066 1293 1076 
29 48 181 182 1291 1286 1290 1293 1292 1299 
162 182 29 181 1297 1293 1066 1288 1299 1290 
163 29 182 30 1076 1293 1298 1080 1079 1300 
182 29 49 30 1293 1294 1296 1300 1079 1301 
30 49 183 50 1301 1302 1303 1304 1305 1306 
163 183 164 30 1307 1308 1099 1080 1303 1090 
30 49 182 183 1301 1296 1300 1303 1302 1309 
163 183 30 182 1307 1303 1080 1298 1309 1300 
164 30 183 31 1090 1303 1308 1094 1093 1310 
183 30 50 31 1303 1304 1306 1310 1093 1311 
31 50 184 51 1311 1312 1313 1314 1315 1316 
164 184 165 31 1317 1318 1113 1094 1313 1104 
31 50 183 184 1311 1306 1310 1313 1312 1319 
164 184 31 183 1317 1313 1094 1308 1319 1310 
165 31 184 32 1104 1313 1318 1108 1107 1320 
184 31 51 32 1313 1314 1316 1320 1107 1321 
32 51 185 52 1321 1322 1323 1324 1325 1326 
165 185 166 32 1327 1328 1127 1108 1323 1118 
32 51 184 185 1321 1316 1320 1323 1322 1329 
165 185 32 184 1327 1323 1108 1318 1329 1320 
166 32 185 33 1118 1323 1328 1122 1121 1330 
185 32 52 33 1323 1324 1326 1330 1121 1331 
33 52 186 53 1331 1332 1333 1334 1335 1336 
166 186 167 33 1337 1338 1141 1122 1333 1132 
33 52 185 186 1331 1326 1330 1333 1332 1339 
166 186 33 185 1337 1333 1122 1328 1339 1330 
167 33 186 34 1132 1333 1338 1136 1135 1340 
186 33 53 34 1333 1334 1336 1340 1135 1341 
34 53 187 54 1341 1342 1343 1344 1345 1346 
167 187 168 34 1347 1348 1155 1136 1343 1146 
34 53 186 187 1341 1336 1340 1343 1342 1349 
167 187 34 186 1347 1343 1136 1338 1349 1340 
168 34 187 35 1146 1343 1348 1150 1149 1350 
187 34 54 35 1343 1344 1346 1350 1149 1351 
35 54 188 55 1351 1352 1353 1354 1355 1356 
168 188 169 35 1357 1358 1169 1150 1353 1160 
35 54 187 188 1351 1346 1350 1353 1352 1359 
168 188 35 187 1357 1353 1150 1348 1359 1350 
169 35 188 36 1160 1353 1358 1164 1163 1360 
188 35 55 36 1353 1354 1356 1360 1163 1361 
36 55 189 56 1361 1362 1363 1364 1365 1366 
169 189 170 36 1367 1368 1183 1164 1363 1174 
36 55 188 189 1361 1356 1360 1363 1362 1369 
169 189 36 188 1367 1363 1164 1358 1369 1360 
170 36 189 37 1174 1363 1368 1178 1177 1370 
189 36 56 37 1363 1364 1366 1370 1177 1371 
38 57 191 58 1372 1373 1374 1375 1376 1377 
171 191 172 38 1378 1379 1198 1196 1374 1189 
38 57 190 191 1372 1380 1381 1374 1373 1382 
171 191 38 190 1378 1374 1196 1383 1382 1381 
172 38 191 39 1189 1374 1379 1193 1192 1384 
191 38 58 39 1374 1375 1377 1384 1192 1385 
39 58 192 59 1385 1386 1387 1388 1389 1390 
172 192 173 39 1391 1392 1209 1193 1387 1202 
39 58 191 192 1385 1377 1384 1387 1386 1393 
172 192 39 191 1391 1387 1193 1379 1393 1384 
173 39 192 40 1202 1387 1392 1206 1205 1394 
192 39 59 40 1387 1388 1390 1394 1205 1395 
40 59 193 60 1395 1396 1397 1398 1399 1400 
173 193 174 40 1401 1402 1219 1206 1397 1212 
40 59 192 193 1395 1390 1394 1397 1396 1403 
173 193 40 192 1401 1397 1206 1392 1403 1394 
174 40 193 41 1212 1397 1402 1216 1215 1404 
193 40 60 41 1397 1398 1400 1404 1215 1405 
41 60 194 61 1405 1406 1407 1408 1409 1410 
174 194 175 41 1411 1412 1229 1216 1407 1222 
41 60 193 194 1405 1400 1404 1407 1406 1413 
174 194 41 193 1411 1407 1216 1402 1413 1404 
175 41 194 42 1222 1407 1412 1226 1225 1414 
194 41 61 42 1407 1408 1410 1414 1225 1415 
42 61 195 62 1415 1416 1417 1418 1419 1420 
175 195 176 42 1421 1422 1239 1226 1417 1232 
42 61 194 195 1415 1410 1414 1417 1416 1423 
175 195 42 194 1421 1417 1226 1412 1423 1414 
176 42 195 43 1232 1417 1422 1236 1235 1424 
195 42 62 43 1417 1418 1420 1424 1235 1425 
43 62 196 63 1425 1426 1427 1428 1429 1430 
176 196 177 43 1431 1432 1249 1236 1427 1242 
43 62 195 196 1425 1420 1424 1427 1426 1433 
176 196 43 195 1431 1427 1236 1422 1433 1424 
177 43 196 44 1242 1427 1432 1246 1245 1434 
196 43 63 44 1427 1428 1430 1434 1245 1435 
44 63 197 64 1435 1436 1437 1438 1439 1440 
177 197 178 44 1441 1442 1259 1246 1437 1252 
44 63 196 197 1435 1430 1434 1437 1436 1443 
177 197 44 196 1441 1437 1246 1432 1443 1434 
178 44 197 45 1252 1437 1442 1256 1255 1444 
197 44 64 45 1437 1438 1440 1444 1255 1445 
45 64 198 65 1445 1446 1447 1448 1449 1450 
178 198 179 45 1451 1452 1269 1256 1447 1262 
45 64 197 198 1445 1440 1444 1447 1446 1453 
178 198 45 197 1451 1447 1256 1442 1453 1444 
179 45 198 46 1262 1447 1452 1266 1265 1454 
198 45 65 46 1447 1448 1450 1454 1265 1455 
46 65 199 66 1455 1456 1457 1458 1459 1460 
179 199 180 46 1461 1462 1279 1266 1457 1272 
46 65 198 199 1455 1450 1454 1457 1456 1463 
179 199 46 198 1461 1457 1266 1452 1463 1454 
180 46 199 47 1272 1457 1462 1276 1275 1464 
199 46 66 47 1457 1458 1460 1464 1275 1465 
47 66 200 67 1465 1466 1467 1468 1469 1470 
180 200 181 47 1471 1472 1289 1276 1467 1282 
47 66 199 200 1465 1460 1464 1467 1466 1473 
180 200 47 199 1471 1467 1276 1462 1473 1464 
181 47 200 48 1282 1467 1472 1286 1285 1474 
200 47 67 48 1467 1468 1470 1474 1285 1475 
48 67 201 68 1475 1476 1477 1478 1479 1480 
181 201 182 48 1481 1482 1299 1286 1477 1292 
48 67 200 201 1475 1470 1474 1477 1476 1483 
181 201 48 200 1481 1477 1286 1472 1483 1474 
182 48 201 49 1292 1477 1482 1296 1295 1484 
201 48 68 49 1477 1478 1480 1484 1295 1485 
49 68 202 69 1485 1486 1487 1488 1489 1490 
182 202 183 49 1491 1492 1309 1296 1487 1302 
49 68 201 202 1485 1480 1484 1487 1486 1493 
182 202 49 201 1491 1487 1296 1482 1493 1484 
183 49 202 50 1302 1487 1492 1306 1305 1494 
202 49 69 50 1487 1488 1490 1494 1305 1495 
50 69 203 70 1495 1496 1497 1498 1499 1500 
183 203 184 50 1501 1502 1319 1306 1497 1312 
50 69 202 203 1495 1490 1494 1497 1496 1503 
183 203 50 202 1501 1497 1306 1492 1503 1494 
184 50 203 51 1312 1497 1502 1316 1315 1504 
203 50 70 51 1497 1498 1500 1504 1315 1505 
51 70 204 71 1505 1506 1507 1508 1509 1510 
184 204 185 51 1511 1512 1329 1316 1507 1322 
51 70 203 204 1505 1500 1504 1507 1506 1513 
184 204 51 203 1511 1507 1316 1502 1513 1504 
185 51 204 52 1322 1507 1512 1326 1325 1514 
204 51 71 52 1507 1508 1510 1514 1325 1515 
52 71 205 72 1515 1516 1517 1518 1519 1520 
185 205 186 52 1521 1522 1339 1326 1517 1332 
52 71 204 205 1515 1510 1514 1517 1516 1523 
185 205 52 204 1521 1517 1326 1512 1523 1514 
186 52 205 53 1332 1517 1522 1336 1335 1524 
205 52 72 53 1517 1518 1520 1524 1335 1525 
53 72 206 73 1525 1526 1527 1528 1529 1530 
186 206 187 53 1531 1532 1349 1336 1527 1342 
53 72 205 206 1525 1520 1524 1527 1526 1533 
186 206 53 205 1531 1527 1336 1522 1533 1524 
187 53 206 54 1342 1527 1532 1346 1345 1534 
206 53 73 54 1527 1528 1530 1534 1345 1535 
54 73 207 74 1535 1536 1537 1538 1539 1540 
187 207 188 54 1541 1542 1359 1346 1537 1352 
54 73 206 207 1535 1530 1534 1537 1536 1543 
187 207 54 206 1541 1537 1346 1532 1543 1534 
188 54 207 55 1352 1537 1542 1356 1355 1544 
207 54 74 55 1537 1538 1540 1544 1355 1545 
55 74 208 75 1545 1546 1547 1548 1549 1550 
188 208 189 55 1551 1552 1369 1356 1547 1362 
55 74 207 208 1545 1540 1544 1547 1546 1553 
188 208 55 207 1551 1547 1356 1542 1553 1544 
189 55 208 56 1362 1547 1552 1366 1365 1554 
208 55 75 56 1547 1548 1550 1554 1365 1555 
57 76 210 77 1556 1557 1558 1559 1560 1561 
190 210 191 57 1562 1563 1382 1380 1558 1373 
57 76 209 210 1556 1564 1565 1558 1557 1566 
190 210 57 209 1562 1558 1380 1567 1566 1565 
191 57 210 58 1373 1558 1563 1377 1376 1568 
210 57 77 58 1558 1559 1561 1568 1376 1569 
58 77 211 78 1569 1570 1571 1572 1573 1574 
191 211 192 58 1575 1576 1393 1377 1571 1386 
58 77 210 211 1569 1561 1568 1571 1570 1577 
191 211 58 210 1575 1571 1377 1563 1577 1568 
192 58 211 59 1386 1571 1576 1390 1389 1578 
211 58 78 59 1571 1572 1574 1578 1389 1579 
59 78 212 79 1579 1580 1581 1582 1583 1584 
192 212 193 59 1585 1586 1403 1390 1581 1396 
59 78 211 212 1579 1574 1578 1581 1580 1587 
192 212 59 211 1585 1581 1390 1576 1587 1578 
193 59 212 60 1396 1581 1586 1400 1399 1588 
212 59 79 60 1581 1582 1584 1588 1399 1589 
60 79 213 80 1589 1590 1591 1592 1593 1594 
193 213 194 60 1595 1596 1413 1400 1591 1406 
60 79 212 213 1589 1584 1588 1591 1590 1597 
193 213 60 212 1595 1591 1400 1586 1597 1588 
194 60 213 61 1406 1591 1596 1410 1409 1598 
213 60 80 61 1591 1592 1594 1598 1409 1599 
61 80 214 81 1599 1600 1601 1602 1603 1604 
194 214 195 61 1605 1606 1423 1410 1601 1416 
61 80 213 214 1599 1594 1598 1601 1600 1607 
194 214 61 213 1605 1601 1410 1596 1607 1598 
195 61 214 62 1416 1601 1606 1420 1419 1608 
214 61 81 62 1601 1602 1604 1608 1419 1609 
62 81 215 82 1609 1610 1611 1612 1613 1614 
195 215 196 62 1615 1616 1433 1420 1611 1426 
62 81 214 215 1609 1604 1608 1611 1610 1617 
195 215 62 214 1615 1611 1420 1606 1617 1608 
196 62 215 63 1426 1611 1616 1430 1429 1618 
215 62 82 63 1611 1612 1614 1618 1429 1619 
63 82 216 83 1619 1620 1621 1622 1623 1624 
196 216 197 63 1625 1626 1443 1430 1621 1436 
63 82 215 216 1619 1614 1618 1621 1620 1627 
196 216 63 215 1625 1621 1430 1616 1627 1618 
197 63 216 64 1436 1621 1626 1440 1439 1628 
216 63 83 64 1621 1622 1624 1628 1439 1629 
64 83 217 84 1629 1630 1631 1632 1633 1634 
197 217 198 64 1635 1636 1453 1440 1631 1446 
64 83 216 217 1629 1624 1628 1631 1630 1637 
197 217 64 216 1635 1631 1440 1626 1637 1628 
198 64 217 65 1446 1631 1636 1450 1449 1638 
217 64 84 65 1631 1632 1634 1638 1449 1639 
65 84 218 85 1639 1640 1641 1642 1643 1644 
198 218 199 65 1645 1646 1463 1450 1641 1456 
65 84 217 218 1639 1634 1638 1641 1640 1647 
198 218 65 217 1645 1641 1450 1636 1647 1638 
199 65 218 66 1456 1641 1646 1460 1459 1648 
218 65 85 66 1641 1642 1644 1648 1459 1649 
66 85 219 86 1649 1650 1651 1652 1653 1654 
199 219 200 66 1655 1656 1473 1460 1651 1466 
66 85 218 219 1649 1644 1648 1651 1650 1657 
199 219 66 218 1655 1651 1460 1646 1657 1648 
200 66 219 67 1466 1651 1656 1470 1469 1658 
219 66 86 67 1651 1652 1654 1658 1469 1659 
67 86 220 87 1659 1660 1661 1662 1663 1664 
200 220 201 67 1665 1666 1483 1470 1661 1476 
67 86 219 220 1659 1654 1658 1661 1660 1667 
200 220 67 219 1665 1661 1470 1656 1667 1658 
201 67 220 68 1476 1661 1666 1480 1479 1668 
220 67 87 68 1661 1662 1664 1668 1479 1669 
68 87 221 88 1669 1670 1671 1672 1673 1674 
201 221 202 68 1675 1676 1493 1480 1671 1486 
68 87 220 221 1669 1664 1668 1671 1670 1677 
201 221 68 220 1675 1671 1480 1666 1677 1668 
202 68 221 69 1486 1671 1676 1490 1489 1678 
221 68 88 69 1671 1672 1674 1678 1489 1679 
69 88 222 89 1679 1680 1681 1682 1683 1684 
202 222 203 69 1685 1686 1503 1490 1681 1496 
69 88 221 222 1679 1674 1678 1681 1680 1687 
202 222 69 221 1685 1681 1490 1676 1687 1678 
203 69 222 70 1496 1681 1686 1500 1499 1688 
222 69 89 70 1681 1682 1684 1688 1499 1689 
70 89 223 90 1689 1690 1691 1692 1693 1694 
203 223 204 70 1695 1696 1513 1500 1691 1506 
70 89 222 223 1689 1684 1688 1691 1690 1697 
203 223 70 222 1695 1691 1500 1686 1697 1688 
204 70 223 71 1506 1691 1696 1510 1509 1698 
223 70 90 71 1691 1692 1694 1698 1509 1699 
71 90 224 91 1699 1700 1701 1702 1703 1704 
204 224 205 71 1705 1706 1523 1510 1701 1516 
71 90 223 224 1699 1694 1698 1701 1700 1707 
204 224 71 223 1705 1701 1510 1696 1707 1698 
205 71 224 72 1516 1701 1706 1520 1519 1708 
224 71 91 72 1701 1702 1704 1708 1519 1709 
72 91 225 92 1709 1710 1711 1712 1713 1714 
205 225 206 72 1715 1716 1533 1520 1711 1526 
72 91 224 225 1709 1704 1708 1711 1710 1717 
205 225 72 224 1715 1711 1520 1706 1717 1708 
206 72 225 73 1526 1711 1716 1530 1529 1718 
225 72 92 73 1711 1712 1714 1718 1529 1719 
73 92 226 93 1719 1720 1721 1722 1723 1724 
206 226 207 73 1725 1726 1543 1530 1721 1536 
73 92 225 226 1719 1714 1718 1721 1720 1727 
206 226 73 225 1725 1721 1530 1716 1727 1718 
207 73 226 74 1536 1721 1726 1540 1539 1728 
226 73 93 74 1721 1722 1724 1728 1539 1729 
74 93 227 94 1729 1730 1731 1732 1733 1734 
207 227 208 74 1735 1736 1553 1540 1731 1546 
74 93 226 227 1729 1724 1728 1731 1730 1737 
207 227 74 226 1735 1731 1540 1726 1737 1728 
208 74 227 75 1546 1731 1736 1550 1549 1738 
227 74 94 75 1731 1732 1734 1738 1549 1739 
76 95 229 96 1740 1741 1742 1743 1744 1745 
209 229 210 76 1746 1747 1566 1564 1742 1557 
76 95 228 229 1740 1748 1749 1742 1741 1750 
209 229 76 228 1746 1742 1564 1751 1750 1749 
210 76 229 77 1557 1742 1747 1561 1560 1752 
229 76 96 77 1742 1743 1745 1752 1560 1753 
77 96 230 97 1753 1754 1755 1756 1757 1758 
210 230 211 77 1759 1760 1577 1561 1755 1570 
77 96 229 230 1753 1745 1752 1755 1754 1761 
210 230 77 229 1759 1755 1561 1747 1761 1752 
211 77 230 78 1570 1755 1760 1574 1573 1762 
230 77 97 78 1755 1756 1758 1762 1573 1763 
78 97 231 98 1763 1764 1765 1766 1767 1768 
211 231 212 78 1769 1770 1587 1574 1765 1580 
78 97 230 231 1763 1758 1762 1765 1764 1771 
211 231 78 230 1769 1765 1574 1760 1771 1762 
212 78 231 79 1580 1765 1770 1584 1583 1772 
231 78 98 79 1765 1766 1768 1772 1583 1773 
79 98 232 99 1773 1774 1775 1776 1777 1778 
212 232 213 79 1779 1780 1597 1584 1775 1590 
79 98 231 232 1773 1768 1772 1775 1774 1781 
212 232 79 231 1779 1775 1584 1770 1781 1772 
213 79 232 80 1590 1775 1780 1594 1593 1782 
232 79 99 80 1775 1776 1778 1782 1593 1783 
80 99 233 100 1783 1784 1785 1786 1787 1788 
213 233 214 80 1789 1790 1607 1594 1785 1600 
80 99 232 233 1783 1778 1782 1785 1784 1791 
213 233 80 232 1789 1785 1594 1780 1791 1782 
214 80 233 81 1600 1785 1790 1604 1603 1792 
233 80 100 81 1785 1786 1788 1792 1603 1793 
81 100 234 101 1793 1794 1795 1796 1797 1798 
214 234 215 81 1799 1800 1617 1604 1795 1610 
81 100 233 234 1793 1788 1792 1795 1794 1801 
214 234 81 233 1799 1795 1604 1790 1801 1792 
215 81 234 82 1610 1795 1800 1614 1613 1802 
234 81 101 82 1795 1796 1798 1802 1613 1803 
82 101 235 102 1803 1804 1805 1806 1807 1808 
215 235 216 82 1809 1810 1627 1614 1805 1620 
82 101 234 235 1803 1798 1802 1805 1804 1811 
215 235 82 234 1809 1805 1614 1800 1811 1802 
216 82 235 83 1620 1805 1810 1624 1623 1812 
235 82 102 83 1805 1806 1808 1812 1623 1813 
83 102 236 103 1813 1814 1815 1816 1817 1818 
216 236 217 83 1819 1820 1637 1624 1815 1630 
83 102 235 236 1813 1808 1812 1815 1814 1821 
216 236 83 235 1819 1815 1624 1810 1821 1812 
217 83 236 84 1630 1815 1820 1634 1633 1822 
236 83 103 84 1815 1816 1818 1822 1633 1823 
84 103 237 104 1823 1824 1825 1826 1827 1828 
217 237 218 84 1829 1830 1647 1634 1825 1640 
84 103 236 237 1823 1818 1822 1825 1824 1831 
217 237 84 236 1829 1825 1634 1820 1831 1822 
218 84 237 85 1640 1825 1830 1644 1643 1832 
237 84 104 85 1825 1826 1828 1832 1643 1833 
85 104 238 105 1833 1834 1835 1836 1837 1838 
218 238 219 85 1839 1840 1657 1644 1835 1650 
85 104 237 238 1833 1828 1832 1835 1834 1841 
218 238 85 237 1839 1835 1644 1830 1841 1832 
219 85 238 86 1650 1835 1840 1654 1653 1842 
238 85 105 86 1835 1836 1838 1842 1653 1843 
86 105 239 106 1843 1844 1845 1846 1847 1848 
219 239 220 86 1849 1850 1667 1654 1845 1660 
86 105 238 239 1843 1838 1842 1845 1844 1851 
219 239 86 238 1849 1845 1654 1840 1851 1842 
220 86 239 87 1660 1845 1850 1664 1663 1852 
239 86 106 87 1845 1846 1848 1852 1663 1853 
87 106 240 107 1853 1854 1855 1856 1857 1858 
220 240 221 87 1859 1860 1677 1664 1855 1670 
87 106 239 240 1853 1848 1852 1855 1854 1861 
220 240 87 239 1859 1855 1664 1850 1861 1852 
221 87 240 88 1670 1855 1860 1674 1673 1862 
240 87 107 88 1855 1856 1858 1862 1673 1863 
88 107 241 108 1863 1864 1865 1866 1867 1868 
221 241 222 88 1869 1870 1687 1674 1865 1680 
88 107 240 241 1863 1858 1862 1865 1864 1871 
221 241 88 240 1869 1865 1674 1860 1871 1862 
222 88 241 89 1680 1865 1870 1684 1683 1872 
241 88 108 89 1865 1866 1868 1872 1683 1873 
89 108 242 109 1873 1874 1875 1876 1877 1878 
222 242 223 89 1879 1880 1697 1684 1875 1690 
89 108 241 242 1873 1868 1872 1875 1874 1881 
222 242 89 241 1879 1875 1684 1870 1881 1872 
223 89 242 90 1690 1875 1880 1694 1693 1882 
242 89 109 90 1875 1876 1878 1882 1693 1883 
90 109 243 110 1883 1884 1885 1886 1887 1888 
223 243 224 90 1889 1890 1707 1694 1885 1700 
90 109 242 243 1883 1878 1882 1885 1884 1891 
223 243 90 242 1889 1885 1694 1880 1891 1882 
224 90 243 91 1700 1885 1890 1704 1703 1892 
243 90 110 91 1885 1886 1888 1892 1703 1893 
91 110 244 111 1893 1894 1895 1896 1897 1898 
224 244 225 91 1899 1900 1717 1704 1895 1710 
91 110 243 244 1893 1888 1892 1895 1894 1901 
224 244 91 243 1899 1895 1704 1890 1901 1892 
225 91 244 92 1710 1895 1900 1714 1713 1902 
244 91 111 92 1895 1896 1898 1902 1713 1903 
92 111 245 112 1903 1904 1905 1906 1907 1908 
225 245 226 92 1909 1910 1727 1714 1905 1720 
92 111 244 245 1903 1898 1902 1905 1904 1911 
225 245 92 244 1909 1905 1714 1900 1911 1902 
226 92 245 93 1720 1905 1910 1724 1723 1912 
245 92 112 93 1905 1906 1908 1912 1723 1913 
93 112 246 113 1913 1914 1915 1916 1917 1918 
226 246 227 93 1919 1920 1737 1724 1915 1730 
93 112 245 246 1913 1908 1912 1915 1914 1921 
226 246 93 245 1919 1915 1724 1910 1921 1912 
227 93 246 94 1730 1915 1920 1734 1733 1922 
246 93 113 94 1915 1916 1918 1922 1733 1923 
95 114 248 115 1924 1925 1926 1927 1928 1929 
228 248 229 95 1930 1931 1750 1748 1926 1741 
95 114 247 248 1924 1932 1933 1926 1925 1934 
228 248 95 247 1930 1926 1748 1935 1934 1933 
229 95 248 96 1741 1926 1931 1745 1744 1936 
248 95 115 96 1926 1927 1929 1936 1744 1937 
96 115 249 116 1937 1938 1939 1940 1941 1942 
229 249 230 96 1943 1944 1761 1745 1939 1754 
96 115 248 249 1937 1929 1936 1939 1938 1945 
229 249 96 248 1943 1939 1745 1931 1945 1936 
230 96 249 97 1754 1939 1944 1758 1757 1946 
249 96 116 97 1939 1940 1942 1946 1757 1947 
97 116 250 117 1947 1948 1949 1950 1951 1952 
230 250 231 97 1953 1954 1771 1758 1949 1764 
97 116 249 250 1947 1942 1946 1949 1948 1955 
230 250 97 249 1953 1949 1758 1944 1955 1946 
231 97 250 98 1764 1949 1954 1768 1767 1956 
250 97 117 98 1949 1950 1952 1956 1767 1957 
98 117 251 118 1957 1958 1959 1960 1961 1962 
231 251 232 98 1963 1964 1781 1768 1959 1774 
98 117 250 251 1957 1952 1956 1959 1958 1965 
231 251 98 250 1963 1959 1768 1954 1965 1956 
232 98 251 99 1774 1959 1964 1778 1777 1966 
251 98 118 99 1959 1960 1962 1966 1777 1967 
99 118 252 119 1967 1968 1969 1970 1971 1972 
232 252 233 99 1973 1974 1791 1778 1969 1784 
99 118 251 252 1967 1962 1966 1969 1968 1975 
232 252 99 251 1973 1969 1778 1964 1975 1966 
233 99 252 100 1784 1969 1974 1788 1787 1976 
252 99 119 100 1969 1970 1972 1976 1787 1977 
100 119 253 120 1977 1978 1979 1980 1981 1982 
233 253 234 100 1983 1984 1801 1788 1979 1794 
100 119 252 253 1977 1972 1976 1979 1978 1985 
233 253 100 252 1983 1979 1788 1974 1985 1976 
234 100 253 101 1794 1979 1984 1798 1797 1986 
253 100 120 101 1979 1980 1982 1986 1797 1987 
101 120 254 121 1987 1988 1989 1990 1991 1992 
234 254 235 101 1993 1994 1811 1798 1989 1804 
101 120 253 254 1987 1982 1986 1989 1988 1995 
234 254 101 253 1993 1989 1798 1984 1995 1986 
235 101 254 102 1804 1989 1994 1808 1807 1996 
254 101 121 102 1989 1990 1992 1996 1807 1997 
102 121 255 122 1997 1998 1999 2000 2001 2002 
235 255 236 102 2003 2004 1821 1808 1999 1814 
102 121 254 255 1997 1992 1996 1999 1998 2005 
235 255 102 254 2003 1999 1808 1994 2005 1996 
236 102 255 103 1814 1999 2004 1818 1817 2006 
255 102 122 103 1999 2000 2002 2006 1817 2007 
103 122 256 123 2007 2008 2009 2010 2011 2012 
236 256 237 103 2013 2014 1831 1818 2009 1824 
103 122 255 256 2007 2002 2006 2009 2008 2015 
236 256 103 255 2013 2009 1818 2004 2015 2006 
237 103 256 104 1824 2009 2014 1828 1827 2016 
256 103 123 104 2009 2010 2012 2016 1827 2017 
104 123 257 124 2017 2018 2019 2020 2021 2022 
237 257 238 104 2023 2024 1841 1828 2019 1834 
104 123 256 257 2017 2012 2016 2019 2018 2025 
237 257 104 256 2023 2019 1828 2014 2025 2016 
238 104 257 105 1834 2019 2024 1838 1837 2026 
257 104 124 105 2019 2020 2022 2026 1837 2027 
105 124 258 125 2027 2028 2029 2030 2031 2032 
238 258 239 105 2033 2034 1851 1838 2029 1844 
105 124 257 258 2027 2022 2026 2029 2028 2035 
238 258 105 257 2033 2029 1838 2024 2035 2026 
239 105 258 106 1844 2029 2034 1848 1847 2036 
258 105 125 106 2029 2030 2032 2036 1847 2037 
106 125 259 126 2037 2038 2039 2040 2041 2042 
239 259 240 106 2043 2044 1861 1848 2039 1854 
106 125 258 259 2037 2032 2036 2039 2038 2045 
239 259 106 258 2043 2039 1848 2034 2045 2036 
240 106 259 107 1854 2039 2044 1858 1857 2046 
259 106 126 107 2039 2040 2042 2046 1857 2047 
107 126 260 127 2047 2048 2049 2050 2051 2052 
240 260 241 107 2053 2054 1871 1858 2049 1864 
107 126 259 260 2047 2042 2046 2049 2048 2055 
240 260 107 259 2053 2049 1858 2044 2055 2046 
241 107 260 108 1864 2049 2054 1868 1867 2056 
260 107 127 108 2049 2050 2052 2056 1867 2057 
108 127 261 128 2057 2058 2059 2060 2061 2062 
241 261 242 108 2063 2064 1881 1868 2059 1874 
108 127 260 261 2057 2052 2056 2059 2058 2065 
241 261 108 260 2063 2059 1868 2054 2065 2056 
242 108 261 109 1874 2059 2064 1878 1877 2066 
261 108 128 109 2059 2060 2062 2066 1877 2067 
109 128 262 129 2067 2068 2069 2070 2071 2072 
242 262 243 109 2073 2074 1891 1878 2069 1884 
109 128 261 262 2067 2062 2066 2069 2068 2075 
242 262 109 261 2073 2069 1878 2064 2075 2066 
243 109 262 110 1884 2069 2074 1888 1887 2076 
262 109 129 110 2069 2070 2072 2076 1887 2077 
110 129 263 130 2077 2078 2079 2080 2081 2082 
243 263 244 110 2083 2084 1901 1888 2079 1894 
110 129 262 263 2077 2072 2076 2079 2078 2085 
243 263 110 262 2083 2079 1888 2074 2085 2076 
244 110 263 111 1894 2079 2084 1898 1897 2086 
263 110 130 111 2079 2080 2082 2086 1897 2087 
111 130 264 131 2087 2088 2089 2090 2091 2092 
244 264 245 111 2093 2094 1911 1898 2089 1904 
111 130 263 264 2087 2082 2086 2089 2088 2095 
244 264 111 263 2093 2089 1898 2084 2095 2086 
245 111 264 112 1904 2089 2094 1908 1907 2096 
264 111 131 112 2089 2090 2092 2096 1907 2097 
112 131 265 132 2097 2098 2099 2100 2101 2102 
245 265 246 112 2103 2104 1921 1908 2099 1914 
112 131 264 265 2097 2092 2096 2099 2098 2105 
245 265 112 264 2103 2099 1908 2094 2105 2096 
246 112 265 113 1914 2099 2104 1918 1917 2106 
265 112 132 113 2099 2100 2102 2106 1917 2107 
133 152 286 153 945 2108 2109 937 944 2110 
266 286 267 133 2111 2112 2113 2114 2109 2115 
133 152 285 286 945 2116 2117 2109 2108 2118 
266 286 133 285 2111 2109 2114 2119 2118 2117 
267 133 286 134 2115 2109 2112 2120 939 2121 
286 133 153 134 2109 937 2110 2121 939 938 
134 153 287 154 938 2122 2123 955 959 2124 
267 287 268 134 2125 2126 2127 2120 2123 2128 
134 153 286 287 938 2110 2121 2123 2122 2129 
267 287 134 286 2125 2123 2120 2112 2129 2121 
268 134 287 135 2128 2123 2126 2130 957 2131 
287 134 154 135 2123 955 2124 2131 957 956 
135 154 288 155 956 2132 2133 969 973 2134 
268 288 269 135 2135 2136 2137 2130 2133 2138 
135 154 287 288 956 2124 2131 2133 2132 2139 
268 288 135 287 2135 2133 2130 2126 2139 2131 
269 135 288 136 2138 2133 2136 2140 971 2141 
288 135 155 136 2133 969 2134 2141 971 970 
136 155 289 156 970 2142 2143 983 987 2144 
269 289 270 136 2145 2146 2147 2140 2143 2148 
136 155 288 289 970 2134 2141 2143 2142 2149 
269 289 136 288 2145 2143 2140 2136 2149 2141 
270 136 289 137 2148 2143 2146 2150 985 2151 
289 136 156 137 2143 983 2144 2151 985 984 
137 156 290 157 984 2152 2153 997 1001 2154 
270 290 271 137 2155 2156 2157 2150 2153 2158 
137 156 289 290 984 2144 2151 2153 2152 2159 
270 290 137 289 2155 2153 2150 2146 2159 2151 
271 137 290 138 2158 2153 2156 2160 999 2161 
290 137 157 138 2153 997 2154 2161 999 998 
138 157 291 158 998 2162 2163 1011 1015 2164 
271 291 272 138 2165 2166 2167 2160 2163 2168 
138 157 290 291 998 2154 2161 2163 2162 2169 
271 291 138 290 2165 2163 2160 2156 2169 2161 
272 138 291 139 2168 2163 2166 2170 1013 2171 
291 138 158 139 2163 1011 2164 2171 1013 1012 
139 158 292 159 1012 2172 2173 1025 1029 2174 
272 292 273 139 2175 2176 2177 2170 2173 2178 
139 158 291 292 1012 2164 2171 2173 2172 2179 
272 292 139 291 2175 2173 2170 2166 2179 2171 
273 139 292 140 2178 2173 2176 2180 1027 2181 
292 139 159 140 2173 1025 2174 2181 1027 1026 
140 159 293 160 1026 2182 2183 1039 1043 2184 
273 293 274 140 2185 2186 2187 2180 2183 2188 
140 159 292 293 1026 2174 2181 2183 2182 2189 
273 293 140 292 2185 2183 2180 2176 2189 2181 
274 140 293 141 2188 2183 2186 2190 1041 2191 
293 140 160 141 2183 1039 2184 2191 1041 1040 
141 160 294 161 1040 2192 2193 1053 1057 2194 
274 294 275 141 2195 2196 2197 2190 2193 2198 
141 160 293 294 1040 2184 2191 2193 2192 2199 
274 294 141 293 2195 2193 2190 2186 2199 2191 
275 141 294 142 2198 2193 2196 2200 1055 2201 
294 141 161 142 2193 1053 2194 2201 1055 1054 
142 161 295 162 1054 2202 2203 1067 1071 2204 
275 295 276 142 2205 2206 2207 2200 2203 2208 
142 161 294 295 1054 2194 2201 2203 2202 2209 
275 295 142 294 2205 2203 2200 2196 2209 2201 
276 142 295 143 2208 2203 2206 2210 1069 2211 
295 142 162 143 2203 1067 2204 2211 1069 1068 
143 162 296 163 1068 2212 2213 1081 1085 2214 
276 296 277 143 2215 2216 2217 2210 2213 2218 
143 162 295 296 1068 2204 2211 2213 2212 2219 
276 296 143 295 2215 2213 2210 2206 2219 2211 
277 143 296 144 2218 2213 2216 2220 1083 2221 
296 143 163 144 2213 1081 2214 2221 1083 1082 
144 163 297 164 1082 2222 2223 1095 1099 2224 
277 297 278 144 2225 2226 2227 2220 2223 2228 
144 163 296 297 1082 2214 2221 2223 2222 2229 
277 297 144 296 2225 2223 2220 2216 2229 2221 
278 144 297 145 2228 2223 2226 2230 1097 2231 
297 144 164 145 2223 1095 2224 2231 1097 1096 
145 164 298 165 1096 2232 2233 1109 1113 2234 
278 298 279 145 2235 2236 2237 2230 2233 2238 
145 164 297 298 1096 2224 2231 2233 2232 2239 
278 298 145 297 2235 2233 2230 2226 2239 2231 
279 145 298 146 2238 2233 2236 2240 1111 2241 
298 145 165 146 2233 1109 2234 2241 1111 1110 
146 165 299 166 1110 2242 2243 1123 1127 2244 
279 299 280 146 2245 2246 2247 2240 2243 2248 
146 165 298 299 1110 2234 2241 2243 2242 2249 
279 299 146 298 2245 2243 2240 2236 2249 2241 
280 146 299 147 2248 2243 2246 2250 1125 2251 
299 146 166 147 2243 1123 2244 2251 1125 1124 
147 166 300 167 1124 2252 2253 1137 1141 2254 
280 300 281 147 2255 2256 2257 2250 2253 2258 
147 166 299 300 1124 2244 2251 2253 2252 2259 
280 300 147 299 2255 2253 2250 2246 2259 2251 
281 147 300 148 2258 2253 2256 2260 1139 2261 
300 147 167 148 2253 1137 2254 2261 1139 1138 
148 167 301 168 1138 2262 2263 1151 1155 2264 
281 301 282 148 2265 2266 2267 2260 2263 2268 
148 167 300 301 1138 2254 2261 2263 2262 2269 
281 301 148 300 2265 2263 2260 2256 2269 2261 
282 148 301 149 2268 2263 2266 2270 1153 2271 
301 148 168 149 2263 1151 2264 2271 1153 1152 
149 168 302 169 1152 2272 2273 1165 1169 2274 
282 302 283 149 2275 2276 2277 2270 2273 2278 
149 168 301 302 1152 2264 2271 2273 2272 2279 
282 302 149 301 2275 2273 2270 2266 2279 2271 
283 149 302 150 2278 2273 2276 2280 1167 2281 
302 149 169 150 2273 1165 2274 2281 1167 1166 
150 169 303 170 1166 2282 2283 1179 1183 2284 
283 303 284 150 2285 2286 2287 2280 2283 2288 
150 169 302 303 1166 2274 2281 2283 2282 2289 
283 303 150 302 2285 2283 2280 2276 2289 2281 
284 150 303 151 2288 2283 2286 2290 1181 2291 
303 150 170 151 2283 1179 2284 2291 1181 1180 
152 171 305 172 1199 2292 2293 1194 1198 2294 
285 305 286 152 2295 2296 2118 2116 2293 2108 
152 171 304 305 1199 2297 2298 2293 2292 2299 
285 305 152 304 2295 2293 2116 2300 2299 2298 
286 152 305 153 2108 2293 2296 2110 944 2301 
305 152 172 153 2293 1194 2294 2301 944 1195 
153 172 306 173 1195 2302 2303 1207 1209 2304 
286 306 287 153 2305 2306 2129 2110 2303 2122 
153 172 305 306 1195 2294 2301 2303 2302 2307 
286 306 153 305 2305 2303 2110 2296 2307 2301 
287 153 306 154 2122 2303 2306 2124 959 2308 
306 153 173 154 2303 1207 2304 2308 959 1208 
154 173 307 174 1208 2309 2310 1217 1219 2311 
287 307 288 154 2312 2313 2139 2124 2310 2132 
154 173 306 307 1208 2304 2308 2310 2309 2314 
287 307 154 306 2312 2310 2124 2306 2314 2308 
288 154 307 155 2132 2310 2313 2134 973 2315 
307 154 174 155 2310 1217 2311 2315 973 1218 
155 174 308 175 1218 2316 2317 1227 1229 2318 
288 308 289 155 2319 2320 2149 2134 2317 2142 
155 174 307 308 1218 2311 2315 2317 2316 2321 
288 308 155 307 2319 2317 2134 2313 2321 2315 
289 155 308 156 2142 2317 2320 2144 987 2322 
308 155 175 156 2317 1227 2318 2322 987 1228 
156 175 309 176 1228 2323 2324 1237 1239 2325 
289 309 290 156 2326 2327 2159 2144 2324 2152 
156 175 308 309 1228 2318 2322 2324 2323 2328 
289 309 156 308 2326 2324 2144 2320 2328 2322 
290 156 309 157 2152 2324 2327 2154 1001 2329 
309 156 176 157 2324 1237 2325 2329 1001 1238 
157 176 310 177 1238 2330 2331 1247 1249 2332 
290 310 291 157 2333 2334 2169 2154 2331 2162 
157 176 309 310 1238 2325 2329 2331 2330 2335 
290 310 157 309 2333 2331 2154 2327 2335 2329 
291 157 310 158 2162 2331 2334 2164 1015 2336 
310 157 177 158 2331 1247 2332 2336 1015 1248 
158 177 311 178 1248 2337 2338 1257 1259 2339 
291 311 292 158 2340 2341 2179 2164 2338 2172 
158 177 310 311 1248 2332 2336 2338 2337 2342 
291 311 158 310 2340 2338 2164 2334 2342 2336 
292 158 311 159 2172 2338 2341 2174 1029 2343 
311 158 178 159 2338 1257 2339 2343 1029 1258 
159 178 312 179 1258 2344 2345 1267 1269 2346 
292 312 293 159 2347 2348 2189 2174 2345 2182 
159 178 311 312 1258 2339 2343 2345 2344 2349 
292 312 159 311 2347 2345 2174 2341 2349 2343 
293 159 312 160 2182 2345 2348 2184 1043 2350 
312 159 179 160 2345 1267 2346 2350 1043 1268 
160 179 313 180 1268 2351 2352 1277 1279 2353 
293 313 294 160 2354 2355 2199 2184 2352 2192 
160 179 312 313 1268 2346 2350 2352 2351 2356 
293 313 160 312 2354 2352 2184 2348 2356 2350 
294 160 313 161 2192 2352 2355 2194 1057 2357 
313 160 180 161 2352 1277 2353 2357 1057 1278 
161 180 314 181 1278 2358 2359 1287 1289 2360 
294 314 295 161 2361 2362 2209 2194 2359 2202 
161 180 313 314 1278 2353 2357 2359 2358 2363 
294 314 161 313 2361 2359 2194 2355 2363 2357 
295 161 314 162 2202 2359 2362 2204 1071 2364 
314 161 181 162 2359 1287 2360 2364 1071 1288 
162 181 315 182 1288 2365 2366 1297 1299 2367 
295 315 296 162 2368 2369 2219 2204 2366 2212 
162 181 314 315 1288 2360 2364 2366 2365 2370 
295 315 162 314 2368 2366 2204 2362 2370 2364 
296 162 315 163 2212 2366 2369 2214 1085 2371 
315 162 182 163 2366 1297 2367 2371 1085 1298 
163 182 316 183 1298 2372 2373 1307 1309 2374 
296 316 297 163 2375 2376 2229 2214 2373 2222 
163 182 315 316 1298 2367 2371 2373 2372 2377 
296 316 163 315 2375 2373 2214 2369 2377 2371 
297 163 316 164 2222 2373 2376 2224 1099 2378 
316 163 183 164 2373 1307 2374 2378 1099 1308 
164 183 317 184 1308 2379 2380 1317 1319 2381 
297 317 298 164 2382 2383 2239 2224 2380 2232 
164 183 316 317 1308 2374 2378 2380 2379 2384 
297 317 164 316 2382 2380 2224 2376 2384 2378 
298 164 317 165 2232 2380 2383 2234 1113 2385 
317 164 184 165 2380 1317 2381 2385 1113 1318 
165 184 318 185 1318 2386 2387 1327 1329 2388 
298 318 299 165 2389 2390 2249 2234 2387 2242 
165 184 317 318 1318 2381 2385 2387 2386 2391 
298 318 165 317 2389 2387 2234 2383 2391 2385 
299 165 318 166 2242 2387 2390 2244 1127 2392 
318 165 185 166 2387 1327 2388 2392 1127 1328 
166 185 319 186 1328 2393 2394 1337 1339 2395 
299 319 300 166 2396 2397 2259 2244 2394 2252 
166 185 318 319 1328 2388 2392 2394 2393 2398 
299 319 166 318 2396 2394 2244 2390 2398 2392 
300 166 319 167 2252 2394 2397 2254 1141 2399 
319 166 186 167 2394 1337 2395 2399 1141 1338 
167 186 320 187 1338 2400 2401 1347 1349 2402 
300 320 301 167 2403 2404 2269 2254 2401 2262 
167 186 319 320 1338 2395 2399 2401 2400 2405 
300 320 167 319 2403 2401 2254 2397 2405 2399 
301 167 320 168 2262 2401 2404 2264 1155 2406 
320 167 187 168 2401 1347 2402 2406 1155 1348 
168 187 321 188 1348 2407 2408 1357 1359 2409 
301 321 302 168 2410 2411 2279 2264 2408 2272 
168 187 320 321 1348 2402 2406 2408 2407 2412 
301 321 168 320 2410 2408 2264 2404 2412 2406 
302 168 321 169 2272 2408 2411 2274 1169 2413 
321 168 188 169 2408 1357 2409 2413 1169 1358 
169 188 322 189 1358 2414 2415 1367 1369 2416 
302 322 303 169 2417 2418 2289 2274 2415 2282 
169 188 321 322 1358 2409 2413 2415 2414 2419 
302 322 169 321 2417 2415 2274 2411 2419 2413 
303 169 322 170 2282 2415 2418 2284 1183 2420 
322 169 189 170 2415 1367 2416 2420 1183 1368 
171 190 324 191 1383 2421 2422 1378 1382 2423 
304 324 305 171 2424 2425 2299 2297 2422 2292 
171 190 323 324 1383 2426 2427 2422 2421 2428 
304 324 171 323 2424 2422 2297 2429 2428 2427 
305 171 324 172 2292 2422 2425 2294 1198 2430 
324 171 191 172 2422 1378 2423 2430 1198 1379 
172 191 325 192 1379 2431 2432 1391 1393 2433 
305 325 306 172 2434 2435 2307 2294 2432 2302 
172 191 324 325 1379 2423 2430 2432 2431 2436 
305 325 172 324 2434 2432 2294 2425 2436 2430 
306 172 325 173 2302 2432 2435 2304 1209 2437 
325 172 192 173 2432 1391 2433 2437 1209 1392 
173 192 326 193 1392 2438 2439 1401 1403 2440 
306 326 307 173 2441 2442 2314 2304 2439 2309 
173 192 325 326 1392 2433 2437 2439 2438 2443 
306 326 173 325 2441 2439 2304 2435 2443 2437 
307 173 326 174 2309 2439 2442 2311 1219 2444 
326 173 193 174 2439 1401 2440 2444 1219 1402 
174 193 327 194 1402 2445 2446 1411 1413 2447 
307 327 308 174 2448 2449 2321 2311 2446 2316 
174 193 326 327 1402 2440 2444 2446 2445 2450 
307 327 174 326 2448 2446 2311 2442 2450 2444 
308 174 327 175 2316 2446 2449 2318 1229 2451 
327 174 194 175 2446 1411 2447 2451 1229 1412 
175 194 328 195 1412 2452 2453 1421 1423 2454 
308 328 309 175 2455 2456 2328 2318 2453 2323 
175 194 327 328 1412 2447 2451 2453 2452 2457 
308 328 175 327 2455 2453 2318 2449 2457 2451 
309 175 328 176 2323 2453 2456 2325 1239 2458 
328 175 195 176 2453 1421 2454 2458 1239 1422 
176 195 329 196 1422 2459 2460 1431 1433 2461 
309 329 310 176 2462 2463 2335 2325 2460 2330 
176 195 328 329 1422 2454 2458 2460 2459 2464 
309 329 176 328 2462 2460 2325 2456 2464 2458 
310 176 329 177 2330 2460 2463 2332 1249 2465 
329 176 196 177 2460 1431 2461 2465 1249 1432 
177 196 330 197 1432 2466 2467 1441 1443 2468 
310 330 311 177 2469 2470 2342 2332 2467 2337 
177 196 329 330 1432 2461 2465 2467 2466 2471 
310 330 177 329 2469 2467 2332 2463 2471 2465 
311 177 330 178 2337 2467 2470 2339 1259 2472 
330 177 197 178 2467 1441 2468 2472 1259 1442 
178 197 331 198 1442 2473 2474 1451 1453 2475 
311 331 312 178 2476 2477 2349 2339 2474 2344 
178 197 330 331 1442 2468 2472 2474 2473 2478 
311 331 178 330 2476 2474 2339 2470 2478 2472 
312 178 331 179 2344 2474 2477 2346 1269 2479 
331 178 198 179 2474 1451 2475 2479 1269 1452 
179 198 332 199 1452 2480 2481 1461 1463 2482 
312 332 313 179 2483 2484 2356 2346 2481 2351 
179 198 331 332 1452 2475 2479 2481 2480 2485 
312 332 179 331 2483 2481 2346 2477 2485 2479 
313 179 332 180 2351 2481 2484 2353 1279 2486 
332 179 199 180 2481 1461 2482 2486 1279 1462 
180 199 333 200 1462 2487 2488 1471 1473 2489 
313 333 314 180 2490 2491 2363 2353 2488 2358 
180 199 332 333 1462 2482 2486 2488 2487 2492 
313 333 180 332 2490 2488 2353 2484 2492 2486 
314 180 333 181 2358 2488 2491 2360 1289 2493 
333 180 200 181 2488 1471 2489 2493 1289 1472 
181 200 334 201 1472 2494 2495 1481 1483 2496 
314 334 315 181 2497 2498 2370 2360 2495 2365 
181 200 333 334 1472 2489 2493 2495 2494 2499 
314 334 181 333 2497 2495 2360 2491 2499 2493 
315 181 334 182 2365 2495 2498 2367 1299 2500 
334 181 201 182 2495 1481 2496 2500 1299 1482 
182 201 335 202 1482 2501 2502 1491 1493 2503 
315 335 316 182 2504 2505 2377 2367 2502 2372 
182 201 334 335 1482 2496 2500 2502 2501 2506 
315 335 182 334 2504 2502 2367 2498 2506 2500 
316 182 335 183 2372 2502 2505 2374 1309 2507 
335 182 202 183 2502 1491 2503 2507 1309 1492 
183 202 336 203 1492 2508 2509 1501 1503 2510 
316 336 317 183 2511 2512 2384 2374 2509 2379 
183 202 335 336 1492 2503 2507 2509 2508 2513 
316 336 183 335 2511 2509 2374 2505 2513 2507 
317 183 336 184 2379 2509 2512 2381 1319 2514 
336 183 203 184 2509 1501 2510 2514 1319 1502 
184 203 337 204 1502 2515 2516 1511 1513 2517 
317 337 318 184 2518 2519 2391 2381 2516 2386 
184 203 336 337 1502 2510 2514 2516 2515 2520 
317 337 184 336 2518 2516 2381 2512 2520 2514 
318 184 337 185 2386 2516 2519 2388 1329 2521 
337 184 204 185 2516 1511 2517 2521 1329 1512 
185 204 338 205 1512 2522 2523 1521 1523 2524 
318 338 319 185 2525 2526 2398 2388 2523 2393 
185 204 337 338 1512 2517 2521 2523 2522 2527 
318 338 185 337 2525 2523 2388 2519 2527 2521 
319 185 338 186 2393 2523 2526 2395 1339 2528 
338 185 205 186 2523 1521 2524 2528 1339 1522 
186 205 339 206 1522 2529 2530 1531 1533 2531 
319 339 320 186 2532 2533 2405 2395 2530 2400 
186 205 338 339 1522 2524 2528 2530 2529 2534 
319 339 186 338 2532 2530 2395 2526 2534 2528 
320 186 339 187 2400 2530 2533 2402 1349 2535 
339 186 206 187 2530 1531 2531 2535 1349 1532 
187 206 340 207 1532 2536 2537 1541 1543 2538 
320 340 321 187 2539 2540 2412 2402 2537 2407 
187 206 339 340 1532 2531 2535 2537 2536 2541 
320 340 187 339 2539 2537 2402 2533 2541 2535 
321 187 340 188 2407 2537 2540 2409 1359 2542 
340 187 207 188 2537 1541 2538 2542 1359 1542 
188 207 341 208 1542 2543 2544 1551 1553 2545 
321 341 322 188 2546 2547 2419 2409 2544 2414 
188 207 340 341 1542 2538 2542 2544 2543 2548 
321 341 188 340 2546 2544 2409 2540 2548 2542 
322 188 341 189 2414 2544 2547 2416 1369 2549 
341 188 208 189 2544 1551 2545 2549 1369 1552 
190 209 343 210 1567 2550 2551 1562 1566 2552 
323 343 324 190 2553 2554 2428 2426 2551 2421 
190 209 342 343 1567 2555 2556 2551 2550 2557 
323 343 190 342 2553 2551 2426 2558 2557 2556 
324 190 343 191 2421 2551 2554 2423 1382 2559 
343 190 210 191 2551 1562 2552 2559 1382 1563 
191 210 344 211 1563 2560 2561 1575 1577 2562 
324 344 325 191 2563 2564 2436 2423 2561 2431 
191 210 343 344 1563 2552 2559 2561 2560 2565 
324 344 191 343 2563 2561 2423 2554 2565 2559 
325 191 344 192 2431 2561 2564 2433 1393 2566 
344 191 211 192 2561 1575 2562 2566 1393 1576 
192 211 345 212 1576 2567 2568 1585 1587 2569 
325 345 326 192 2570 2571 2443 2433 2568 2438 
192 211 344 345 1576 2562 2566 2568 2567 2572 
325 345 192 344 2570 2568 2433 2564 2572 2566 
326 192 345 193 2438 2568 2571 2440 1403 2573 
345 192 212 193 2568 1585 2569 2573 1403 1586 
193 212 346 213 1586 2574 2575 1595 1597 2576 
326 346 327 193 2577 2578 2450 2440 2575 2445 
193 212 345 346 1586 2569 2573 2575 2574 2579 
326 346 193 345 2577 2575 2440 2571 2579 2573 
327 193 346 194 2445 2575 2578 2447 1413 2580 
346 193 213 194 2575 1595 2576 2580 1413 1596 
194 213 347 214 1596 2581 2582 1605 1607 2583 
327 347 328 194 2584 2585 2457 2447 2582 2452 
194 213 346 347 1596 2576 2580 2582 2581 2586 
327 347 194 346 2584 2582 2447 2578 2586 2580 
328 194 347 195 2452 2582 2585 2454 1423 2587 
347 194 214 195 2582 1605 2583 2587 1423 1606 
195 214 348 215 1606 2588 2589 1615 1617 2590 
328 348 329 195 2591 2592 2464 2454 2589 2459 
195 214 347 348 1606 2583 2587 2589 2588 2593 
328 348 195 347 2591 2589 2454 2585 2593 2587 
329 195 348 196 2459 2589 2592 2461 1433 2594 
348 195 215 196 2589 1615 2590 2594 1433 1616 
196 215 349 216 1616 2595 2596 1625 1627 2597 
329 349 330 196 2598 2599 2471 2461 2596 2466 
196 215 348 349 1616 2590 2594 2596 2595 2600 
329 349 196 348 2598 2596 2461 2592 2600 2594 
330 196 349 197 2466 2596 2599 2468 1443 2601 
349 196 216 197 2596 1625 2597 2601 1443 1626 
197 216 350 217 1626 2602 2603 1635 1637 2604 
330 350 331 197 2605 2606 2478 2468 2603 2473 
197 216 349 350 1626 2597 2601 2603 2602 2607 
330 350 197 349 2605 2603 2468 2599 2607 2601 
331 197 350 198 2473 2603 2606 2475 1453 2608 
350 197 217 198 2603 1635 2604 2608 1453 1636 
198 217 351 218 1636 2609 2610 1645 1647 2611 
331 351 332 198 2612 2613 2485 2475 2610 2480 
198 217 350 351 1636 2604 2608 2610 2609 2614 
331 351 198 350 2612 2610 2475 2606 2614 2608 
332 198 351 199 2480 2610 2613 2482 1463 2615 
351 198 218 199 2610 1645 2611 2615 1463 1646 
199 218 352 219 1646 2616 2617 1655 1657 2618 
332 352 333 199 2619 2620 2492 2482 2617 2487 
199 218 351 352 1646 2611 2615 2617 2616 2621 
332 352 199 351 2619 2617 2482 2613 2621 2615 
333 199 352 200 2487 2617 2620 2489 1473 2622 
352 199 219 200 2617 1655 2618 2622 1473 1656 
200 219 353 220 1656 2623 2624 1665 1667 2625 
333 353 334 200 2626 2627 2499 2489 2624 2494 
200 219 352 353 1656 2618 2622 2624 2623 2628 
333 353 200 352 2626 2624 2489 2620 2628 2622 
334 200 353 201 2494 2624 2627 2496 1483 2629 
353 200 220 201 2624 1665 2625 2629 1483 1666 
201 220 354 221 1666 2630 2631 1675 1677 2632 
334 354 335 201 2633 2634 2506 2496 2631 2501 
201 220 353 354 1666 2625 2629 2631 2630 2635 
334 354 201 353 2633 2631 2496 2627 2635 2629 
335 201 354 202 2501 2631 2634 2503 1493 2636 
354 201 221 202 2631 1675 2632 2636 1493 1676 
202 221 355 222 1676 2637 2638 1685 1687 2639 
335 355 336 202 2640 2641 2513 2503 2638 2508 
202 221 354 355 1676 2632 2636 2638 2637 2642 
335 355 202 354 2640 2638 2503 2634 2642 2636 
336 202 355 203 2508 2638 2641 2510 1503 2643 
355 202 222 203 2638 1685 2639 2643 1503 1686 
203 222 356 223 1686 2644 2645 1695 1697 2646 
336 356 337 203 2647 2648 2520 2510 2645 2515 
203 222 355 356 1686 2639 2643 2645 2644 2649 
336 356 203 355 2647 2645 2510 2641 2649 2643 
337 203 356 204 2515 2645 2648 2517 1513 2650 
356 203 223 204 2645 1695 2646 2650 1513 1696 
204 223 357 224 1696 2651 2652 1705 1707 2653 
337 357 338 204 2654 2655 2527 2517 2652 2522 
204 223 356 357 1696 2646 2650 2652 2651 2656 
337 357 204 356 2654 2652 2517 2648 2656 2650 
338 204 357 205 2522 2652 2655 2524 1523 2657 
357 204 224 205 2652 1705 2653 2657 1523 1706 
205 224 358 225 1706 2658 2659 1715 1717 2660 
338 358 339 205 2661 2662 2534 2524 2659 2529 
205 224 357 358 1706 2653 2657 2659 2658 2663 
338 358 205 357 2661 2659 2524 2655 2663 2657 
339 205 358 206 2529 2659 2662 2531 1533 2664 
358 205 225 206 2659 1715 2660 2664 1533 1716 
206 225 359 226 1716 2665 2666 1725 1727 2667 
339 359 340 206 2668 2669 2541 2531 2666 2536 
206 225 358 359 1716 2660 2664 2666 2665 2670 
339 359 206 358 2668 2666 2531 2662 2670 2664 
340 206 359 207 2536 2666 2669 2538 1543 2671 
359 206 226 207 2666 1725 2667 2671 1543 1726 
207 226 360 227 1726 2672 2673 1735 1737 2674 
340 360 341 207 2675 2676 2548 2538 2673 2543 
207 226 359 360 1726 2667 2671 2673 2672 2677 
340 360 207 359 2675 2673 2538 2669 2677 2671 
341 207 360 208 2543 2673 2676 2545 1553 2678 
360 207 227 208 2673 1735 2674 2678 1553 1736 
209 228 362 229 1751 2679 2680 1746 1750 2681 
342 362 343 209 2682 2683 2557 2555 2680 2550 
209 228 361 362 1751 2684 2685 2680 2679 2686 
342 362 209 361 2682 2680 2555 2687 2686 2685 
343 209 362 210 2550 2680 2683 2552 1566 2688 
362 209 229 210 2680 1746 2681 2688 1566 1747 
210 229 363 230 1747 2689 2690 1759 1761 2691 
343 363 344 210 2692 2693 2565 2552 2690 2560 
210 229 362 363 1747 2681 2688 2690 2689 2694 
343 363 210 362 2692 2690 2552 2683 2694 2688 
344 210 363 211 2560 2690 2693 2562 1577 2695 
363 210 230 211 2690 1759 2691 2695 1577 1760 
211 230 364 231 1760 2696 2697 1769 1771 2698 
344 364 345 211 2699 2700 2572 2562 2697 2567 
211 230 363 364 1760 2691 2695 2697 2696 2701 
344 364 211 363 2699 2697 2562 2693 2701 2695 
345 211 364 212 2567 2697 2700 2569 1587 2702 
364 211 231 212 2697 1769 2698 2702 1587 1770 
212 231 365 232 1770 2703 2704 1779 1781 2705 
345 365 346 212 2706 2707 2579 2569 2704 2574 
212 231 364 365 1770 2698 2702 2704 2703 2708 
345 365 212 364 2706 2704 2569 2700 2708 2702 
346 212 365 213 2574 2704 2707 2576 1597 2709 
365 212 232 213 2704 1779 2705 2709 1597 1780 
213 232 366 233 1780 2710 2711 1789 1791 2712 
346 366 347 213 2713 2714 2586 2576 2711 2581 
213 232 365 366 1780 2705 2709 2711 2710 2715 
346 366 213 365 2713 2711 2576 2707 2715 2709 
347 213 366 214 2581 2711 2714 2583 1607 2716 
366 213 233 214 2711 1789 2712 2716 1607 1790 
214 233 367 234 1790 2717 2718 1799 1801 2719 
347 367 348 214 2720 2721 2593 2583 2718 2588 
214 233 366 367 1790 2712 2716 2718 2717 2722 
347 367 214 366 2720 2718 2583 2714 2722 2716 
348 214 367 215 2588 2718 2721 2590 1617 2723 
367 214 234 215 2718 1799 2719 2723 1617 1800 
215 234 368 235 1800 2724 2725 1809 1811 2726 
348 368 349 215 2727 2728 2600 2590 2725 2595 
215 234 367 368 1800 2719 2723 2725 2724 2729 
348 368 215 367 2727 2725 2590 2721 2729 2723 
349 215 368 216 2595 2725 2728 2597 1627 2730 
368 215 235 216 2725 1809 2726 2730 1627 1810 
216 235 369 236 1810 2731 2732 1819 1821 2733 
349 369 350 216 2734 2735 2607 2597 2732 2602 
216 235 368 369 1810 2726 2730 2732 2731 2736 
349 369 216 368 2734 2732 2597 2728 2736 2730 
350 216 369 217 2602 2732 2735 2604 1637 2737 
369 216 236 217 2732 1819 2733 2737 1637 1820 
217 236 370 237 1820 2738 2739 1829 1831 2740 
350 370 351 217 2741 2742 2614 2604 2739 2609 
217 236 369 370 1820 2733 2737 2739 2738 2743 
350 370 217 369 2741 2739 2604 2735 2743 2737 
351 217 370 218 2609 2739 2742 2611 1647 2744 
370 217 237 218 2739 1829 2740 2744 1647 1830 
218 237 371 238 1830 2745 2746 1839 1841 2747 
351 371 352 218 2748 2749 2621 2611 2746 2616 
218 237 370 371 1830 2740 2744 2746 2745 2750 
351 371 218 370 2748 2746 2611 2742 2750 2744 
352 218 371 219 2616 2746 2749 2618 1657 2751 
371 218 238 219 2746 1839 2747 2751 1657 1840 
219 238 372 239 1840 2752 2753 1849 1851 2754 
352 372 353 219 2755 2756 2628 2618 2753 2623 
219 238 371 372 1840 2747 2751 2753 2752 2757 
352 372 219 371 2755 2753 2618 2749 2757 2751 
353 219 372 220 2623 2753 2756 2625 1667 2758 
372 219 239 220 2753 1849 2754 2758 1667 1850 
220 239 373 240 1850 2759 2760 1859 1861 2761 
353 373 354 220 2762 2763 2635 2625 2760 2630 
220 239 372 373 1850 2754 2758 2760 2759 2764 
353 373 220 372 2762 2760 2625 2756 2764 2758 
354 220 373 221 2630 2760 2763 2632 1677 2765 
373 220 240 221 2760 1859 2761 2765 1677 1860 
221 240 374 241 1860 2766 2767 1869 1871 2768 
354 374 355 221 2769 2770 2642 2632 2767 2637 
221 240 373 374 1860 2761 2765 2767 2766 2771 
354 374 221 373 2769 2767 2632 2763 2771 2765 
355 221 374 222 2637 2767 2770 2639 1687 2772 
374 221 241 222 2767 1869 2768 2772 1687 1870 
222 241 375 242 1870 2773 2774 1879 1881 2775 
355 375 356 222 2776 2777 2649 2639 2774 2644 
222 241 374 375 1870 2768 2772 2774 2773 2778 
355 375 222 374 2776 2774 2639 2770 2778 2772 
356 222 375 223 2644 2774 2777 2646 1697 2779 
375 222 242 223 2774 1879 2775 2779 1697 1880 
223 242 376 243 1880 2780 2781 1889 1891 2782 
356 376 357 223 2783 2784 2656 2646 2781 2651 
223 242 375 376 1880 2775 2779 2781 2780 2785 
356 376 223 375 2783 2781 2646 2777 2785 2779 
357 223 376 224 2651 2781 2784 2653 1707 2786 
376 223 243 224 2781 1889 2782 2786 1707 1890 
224 243 377 244 1890 2787 2788 1899 1901 2789 
357 377 358 224 2790 2791 2663 2653 2788 2658 
224 243 376 377 1890 2782 2786 2788 2787 2792 
357 377 224 376 2790 2788 2653 2784 2792 2786 
358 224 377 225 2658 2788 2791 2660 1717 2793 
377 224 244 225 2788 1899 2789 2793 1717 1900 
225 244 378 245 1900 2794 2795 1909 1911 2796 
358 378 359 225 2797 2798 2670 2660 2795 2665 
225 244 377 378 1900 2789 2793 2795 2794 2799 
358 378 225 377 2797 2795 2660 2791 2799 2793 
359 225 378 226 2665 2795 2798 2667 1727 2800 
378 225 245 226 2795 1909 2796 2800 1727 1910 
226 245 379 246 1910 2801 2802 1919 1921 2803 
359 379 360 226 2804 2805 2677 2667 2802 2672 
226 245 378 379 1910 2796 2800 2802 2801 2806 
359 379 226 378 2804 2802 2667 2798 2806 2800 
360 226 379 227 2672 2802 2805 2674 1737 2807 
379 226 246 227 2802 1919 2803 2807 1737 1920 
228 247 381 248 1935 2808 2809 1930 1934 2810 
361 381 362 228 2811 2812 2686 2684 2809 2679 
228 247 380 381 1935 2813 2814 2809 2808 2815 
361 381 228 380 2811 2809 2684 2816 2815 2814 
362 228 381 229 2679 2809 2812 2681 1750 2817 
381 228 248 229 2809 1930 2810 2817 1750 1931 
229 248 382 249 1931 2818 2819 1943 1945 2820 
362 382 363 229 2821 2822 2694 2681 2819 2689 
229 248 381 382 1931 2810 2817 2819 2818 2823 
362 382 229 381 2821 2819 2681 2812 2823 2817 
363 229 382 230 2689 2819 2822 2691 1761 2824 
382 229 249 230 2819 1943 2820 2824 1761 1944 
230 249 383 250 1944 2825 2826 1953 1955 2827 
363 383 364 230 2828 2829 2701 2691 2826 2696 
230 249 382 383 1944 2820 2824 2826 2825 2830 
363 383 230 382 2828 2826 2691 2822 2830 2824 
364 230 383 231 2696 2826 2829 2698 1771 2831 
383 230 250 231 2826 1953 2827 2831 1771 1954 
231 250 384 251 1954 2832 2833 1963 1965 2834 
364 384 365 231 2835 2836 2708 2698 2833 2703 
231 250 383 384 1954 2827 2831 2833 2832 2837 
364 384 231 383 2835 2833 2698 2829 2837 2831 
365 231 384 232 2703 2833 2836 2705 1781 2838 
384 231 251 232 2833 1963 2834 2838 1781 1964 
232 251 385 252 1964 2839 2840 1973 1975 2841 
365 385 366 232 2842 2843 2715 2705 2840 2710 
232 251 384 385 1964 2834 2838 2840 2839 2844 
365 385 232 384 2842 2840 2705 2836 2844 2838 
366 232 385 233 2710 2840 2843 2712 1791 2845 
385 232 252 233 2840 1973 2841 2845 1791 1974 
233 252 386 253 1974 2846 2847 1983 1985 2848 
366 386 367 233 2849 2850 2722 2712 2847 2717 
233 252 385 386 1974 2841 2845 2847 2846 2851 
366 386 233 385 2849 2847 2712 2843 2851 2845 
367 233 386 234 2717 2847 2850 2719 1801 2852 
386 233 253 234 2847 1983 2848 2852 1801 1984 
234 253 387 254 1984 2853 2854 1993 1995 2855 
367 387 368 234 2856 2857 2729 2719 2854 2724 
234 253 386 387 1984 2848 2852 2854 2853 2858 
367 387 234 386 2856 2854 2719 2850 2858 2852 
368 234 387 235 2724 2854 2857 2726 1811 2859 
387 234 254 235 2854 1993 2855 2859 1811 1994 
235 254 388 255 1994 2860 2861 2003 2005 2862 
368 388 369 235 2863 2864 2736 2726 2861 2731 
235 254 387 388 1994 2855 2859 2861 2860 2865 
368 388 235 387 2863 2861 2726 2857 2865 2859 
369 235 388 236 2731 2861 2864 2733 1821 2866 
388 235 255 236 2861 2003 2862 2866 1821 2004 
236 255 389 256 2004 2867 2868 2013 2015 2869 
369 389 370 236 2870 2871 2743 2733 2868 2738 
236 255 388 389 2004 2862 2866 2868 2867 2872 
369 389 236 388 2870 2868 2733 2864 2872 2866 
370 236 389 237 2738 2868 2871 2740 1831 2873 
389 236 256 237 2868 2013 2869 2873 1831 2014 
237 256 390 257 2014 2874 2875 2023 2025 2876 
370 390 371 237 2877 2878 2750 2740 2875 2745 
237 256 389 390 2014 2869 2873 2875 2874 2879 
370 390 237 389 2877 2875 2740 2871 2879 2873 
371 237 390 238 2745 2875 2878 2747 1841 2880 
390 237 257 238 2875 2023 2876 2880 1841 2024 
238 257 391 258 2024 2881 2882 2033 2035 2883 
371 391 372 238 2884 2885 2757 2747 2882 2752 
238 257 390 391 2024 2876 2880 2882 2881 2886 
371 391 238 390 2884 2882 2747 2878 2886 2880 
372 238 391 239 2752 2882 2885 2754 1851 2887 
391 238 258 239 2882 2033 2883 2887 1851 2034 
239 258 392 259 2034 2888 2889 2043 2045 2890 
372 392 373 239 2891 2892 2764 2754 2889 2759 
239 258 391 392 2034 2883 2887 2889 2888 2893 
372 392 239 391 2891 2889 2754 2885 2893 2887 
373 239 392 240 2759 2889 2892 2761 1861 2894 
392 239 259 240 2889 2043 2890 2894 1861 2044 
240 259 393 260 2044 2895 2896 2053 2055 2897 
373 393 374 240 2898 2899 2771 2761 2896 2766 
240 259 392 393 2044 2890 2894 2896 2895 2900 
373 393 240 392 2898 2896 2761 2892 2900 2894 
374 240 393 241 2766 2896 2899 2768 1871 2901 
393 240 260 241 2896 2053 2897 2901 1871 2054 
241 260 394 261 2054 2902 2903 2063 2065 2904 
374 394 375 241 2905 2906 2778 2768 2903 2773 
241 260 393 394 2054 2897 2901 2903 2902 2907 
374 394 241 393 2905 2903 2768 2899 2907 2901 
375 241 394 242 2773 2903 2906 2775 1881 2908 
394 241 261 242 2903 2063 2904 2908 1881 2064 
242 261 395 262 2064 2909 2910 2073 2075 2911 
375 395 376 242 2912 2913 2785 2775 2910 2780 
242 261 394 395 2064 2904 2908 2910 2909 2914 
375 395 242 394 2912 2910 2775 2906 2914 2908 
376 242 395 243 2780 2910 2913 2782 1891 2915 
395 242 262 243 2910 2073 2911 2915 1891 2074 
243 262 396 263 2074 2916 2917 2083 2085 2918 
376 396 377 243 2919 2920 2792 2782 2917 2787 
243 262 395 396 2074 2911 2915 2917 2916 2921 
376 396 243 395 2919 2917 2782 2913 2921 2915 
377 243 396 244 2787 2917 2920 2789 1901 2922 
396 243 263 244 2917 2083 2918 2922 1901 2084 
244 263 397 264 2084 2923 2924 2093 2095 2925 
377 397 378 244 2926 2927 2799 2789 2924 2794 
244 263 396 397 2084 2918 2922 2924 2923 2928 
377 397 244 396 2926 2924 2789 2920 2928 2922 
378 244 397 245 2794 2924 2927 2796 1911 2929 
397 244 264 245 2924 2093 2925 2929 1911 2094 
245 264 398 265 2094 2930 2931 2103 2105 2932 
378 398 379 245 2933 2934 2806 2796 2931 2801 
245 264 397 398 2094 2925 2929 2931 2930 2935 
378 398 245 397 2933 2931 2796 2927 2935 2929 
379 245 398 246 2801 2931 2934 2803 1921 2936 
398 245 265 246 2931 2103 2932 2936 1921 2104 
266 285 419 286 2119 2937 2938 2111 2118 2939 
399 419 400 266 2940 2941 2942 2943 2938 2944 
266 285 418 419 2119 2945 2946 2938 2937 2947 
399 419 266 418 2940 2938 2943 2948 2947 2946 
400 266 419 267 2944 2938 2941 2949 2113 2950 
419 266 286 267 2938 2111 2939 2950 2113 2112 
267 286 420 287 2112 2951 2952 2125 2129 2953 
400 420 401 267 2954 2955 2956 2949 2952 2957 
267 286 419 420 2112 2939 2950 2952 2951 2958 
400 420 267 419 2954 2952 2949 2941 2958 2950 
401 267 420 268 2957 2952 2955 2959 2127 2960 
420 267 287 268 2952 2125 2953 2960 2127 2126 
268 287 421 288 2126 2961 2962 2135 2139 2963 
401 421 402 268 2964 2965 2966 2959 2962 2967 
268 287 420 421 2126 2953 2960 2962 2961 2968 
401 421 268 420 2964 2962 2959 2955 2968 2960 
402 268 421 269 2967 2962 2965 2969 2137 2970 
421 268 288 269 2962 2135 2963 2970 2137 2136 
269 288 422 289 2136 2971 2972 2145 2149 2973 
402 422 403 269 2974 2975 2976 2969 2972 2977 
269 288 421 422 2136 2963 2970 2972 2971 2978 
402 422 269 421 2974 2972 2969 2965 2978 2970 
403 269 422 270 2977 2972 2975 2979 2147 2980 
422 269 289 270 2972 2145 2973 2980 2147 2146 
270 289 423 290 2146 2981 2982 2155 2159 2983 
403 423 404 270 2984 2985 2986 2979 2982 2987 
270 289 422 423 2146 2973 2980 2982 2981 2988 
403 423 270 422 2984 2982 2979 2975 2988 2980 
404 270 423 271 2987 2982 2985 2989 2157 2990 
423 270 290 271 2982 2155 2983 2990 2157 2156 
271 290 424 291 2156 2991 2992 2165 2169 2993 
404 424 405 271 2994 2995 2996 2989 2992 2997 
271 290 423 424 2156 2983 2990 2992 2991 2998 
404 424 271 423 2994 2992 2989 2985 2998 2990 
405 271 424 272 2997 2992 2995 2999 2167 3000 
424 271 291 272 2992 2165 2993 3000 2167 2166 
272 291 425 292 2166 3001 3002 2175 2179 3003 
405 425 406 272 3004 3005 3006 2999 3002 3007 
272 291 424 425 2166 2993 3000 3002 3001 3008 
405 425 272 424 3004 3002 2999 2995 3008 3000 
406 272 425 273 3007 3002 3005 3009 2177 3010 
425 272 292 273 3002 2175 3003 3010 2177 2176 
273 292 426 293 2176 3011 3012 2185 2189 3013 
406 426 407 273 3014 3015 3016 3009 3012 3017 
273 292 425 426 2176 3003 3010 3012 3011 3018 
406 426 273 425 3014 3012 3009 3005 3018 3010 
407 273 426 274 3017 3012 3015 3019 2187 3020 
426 273 293 274 3012 2185 3013 3020 2187 2186 
274 293 427 294 2186 3021 3022 2195 2199 3023 
407 427 408 274 3024 3025 3026 3019 3022 3027 
274 293 426 427 2186 3013 3020 3022 3021 3028 
407 427 274 426 3024 3022 3019 3015 3028 3020 
408 274 427 275 3027 3022 3025 3029 2197 3030 
427 274 294 275 3022 2195 3023 3030 2197 2196 
275 294 428 295 2196 3031 3032 2205 2209 3033 
408 428 409 275 3034 3035 3036 3029 3032 3037 
275 294 427 428 2196 3023 3030 3032 3031 3038 
408 428 275 427 3034 3032 3029 3025 3038 3030 
409 275 428 276 3037 3032 3035 3039 2207 3040 
428 275 295 276 3032 2205 3033 3040 2207 2206 
276 295 429 296 2206 3041 3042 2215 2219 3043 
409 429 410 276 3044 3045 3046 3039 3042 3047 
276 295 428 429 2206 3033 3040 3042 3041 3048 
409 429 276 428 3044 3042 3039 3035 3048 3040 
410 276 429 277 3047 3042 3045 3049 2217 3050 
429 276 296 277 3042 2215 3043 3050 2217 2216 
277 296 430 297 2216 3051 3052 2225 2229 3053 
410 430 411 277 3054 3055 3056 3049 3052 3057 
277 296 429 430 2216 3043 3050 3052 3051 3058 
410 430 277 429 3054 3052 3049 3045 3058 3050 
411 277 430 278 3057 3052 3055 3059 2227 3060 
430 277 297 278 3052 2225 3053 3060 2227 2226 
278 297 431 298 2226 3061 3062 2235 2239 3063 
411 431 412 278 3064 3065 3066 3059 3062 3067 
278 297 430 431 2226 3053 3060 3062 3061 3068 
411 431 278 430 3064 3062 3059 3055 3068 3060 
412 278 431 279 3067 3062 3065 3069 2237 3070 
431 278 298 279 3062 2235 3063 3070 2237 2236 
279 298 432 299 2236 3071 3072 2245 2249 3073 
412 432 413 279 3074 3075 3076 3069 3072 3077 
279 298 431 432 2236 3063 3070 3072 3071 3078 
412 432 279 431 3074 3072 3069 3065 3078 3070 
413 279 432 280 3077 3072 3075 3079 2247 3080 
432 279 299 280 3072 2245 3073 3080 2247 2246 
280 299 433 300 2246 3081 3082 2255 2259 3083 
413 433 414 280 3084 3085 3086 3079 3082 3087 
280 299 432 433 2246 3073 3080 3082 3081 3088 
413 433 280 432 3084 3082 3079 3075 3088 3080 
414 280 433 281 3087 3082 3085 3089 2257 3090 
433 280 300 281 3082 2255 3083 3090 2257 2256 
281 300 434 301 2256 3091 3092 2265 2269 3093 
414 434 415 281 3094 3095 3096 3089 3092 3097 
281 300 433 434 2256 3083 3090 3092 3091 3098 
414 434 281 433 3094 3092 3089 3085 3098 3090 
415 281 434 282 3097 3092 3095 3099 2267 3100 
434 281 301 282 3092 2265 3093 3100 2267 2266 
282 301 435 302 2266 3101 3102 2275 2279 3103 
415 435 416 282 3104 3105 3106 3099 3102 3107 
282 301 434 435 2266 3093 3100 3102 3101 3108 
415 435 282 434 3104 3102 3099 3095 3108 3100 
416 282 435 283 3107 3102 3105 3109 2277 3110 
435 282 302 283 3102 2275 3103 3110 2277 2276 
283 302 436 303 2276 3111 3112 2285 2289 3113 
416 436 417 283 3114 3115 3116 3109 3112 3117 
283 302 435 436 2276 3103 3110 3112 3111 3118 
416 436 283 435 3114 3112 3109 3105 3118 3110 
417 283 436 284 3117 3112 3115 3119 2287 3120 
436 283 303 284 3112 2285 3113 3120 2287 2286 
285 304 438 305 2300 3121 3122 2295 2299 3123 
418 438 419 285 3124 3125 2947 2945 3122 2937 
285 304 437 438 2300 3126 3127 3122 3121 3128 
418 438 285 437 3124 3122 2945 3129 3128 3127 
419 285 438 286 2937 3122 3125 2939 2118 3130 
438 285 305 286 3122 2295 3123 3130 2118 2296 
286 305 439 306 2296 3131 3132 2305 2307 3133 
419 439 420 286 3134 3135 2958 2939 3132 2951 
286 305 438 439 2296 3123 3130 3132 3131 3136 
419 439 286 438 3134 3132 2939 3125 3136 3130 
420 286 439 287 2951 3132 3135 2953 2129 3137 
439 286 306 287 3132 2305 3133 3137 2129 2306 
287 306 440 307 2306 3138 3139 2312 2314 3140 
420 440 421 287 3141 3142 2968 2953 3139 2961 
287 306 439 440 2306 3133 3137 3139 3138 3143 
420 440 287 439 3141 3139 2953 3135 3143 3137 
421 287 440 288 2961 3139 3142 2963 2139 3144 
440 287 307 288 3139 2312 3140 3144 2139 2313 
288 307 441 308 2313 3145 3146 2319 2321 3147 
421 441 422 288 3148 3149 2978 2963 3146 2971 
288 307 440 441 2313 3140 3144 3146 3145 3150 
421 441 288 440 3148 3146 2963 3142 3150 3144 
422 288 441 289 2971 3146 3149 2973 2149 3151 
441 288 308 289 3146 2319 3147 3151 2149 2320 
289 308 442 309 2320 3152 3153 2326 2328 3154 
422 442 423 289 3155 3156 2988 2973 3153 2981 
289 308 441 442 2320 3147 3151 3153 3152 3157 
422 442 289 441 3155 3153 2973 3149 3157 3151 
423 289 442 290 2981 3153 3156 2983 2159 3158 
442 289 309 290 3153 2326 3154 3158 2159 2327 
290 309 443 310 2327 3159 3160 2333 2335 3161 
423 443 424 290 3162 3163 2998 2983 3160 2991 
290 309 442 443 2327 3154 3158 3160 3159 3164 
423 443 290 442 3162 3160 2983 3156 3164 3158 
424 290 443 291 2991 3160 3163 2993 2169 3165 
443 290 310 291 3160 2333 3161 3165 2169 2334 
291 310 444 311 2334 3166 3167 2340 2342 3168 
424 444 425 291 3169 3170 3008 2993 3167 3001 
291 310 443 444 2334 3161 3165 3167 3166 3171 
424 444 291 443 3169 3167 2993 3163 3171 3165 
425 291 444 292 3001 3167 3170 3003 2179 3172 
444 291 311 292 3167 2340 3168 3172 2179 2341 
292 311 445 312 2341 3173 3174 2347 2349 3175 
425 445 426 292 3176 3177 3018 3003 3174 3011 
292 311 444 445 2341 3168 3172 3174 3173 3178 
425 445 292 444 3176 3174 3003 3170 3178 3172 
426 292 445 293 3011 3174 3177 3013 2189 3179 
445 292 312 293 3174 2347 3175 3179 2189 2348 
293 312 446 313 2348 3180 3181 2354 2356 3182 
426 446 427 293 3183 3184 3028 3013 3181 3021 
293 312 445 446 2348 3175 3179 3181 3180 3185 
426 446 293 445 3183 3181 3013 3177 3185 3179 
427 293 446 294 3021 3181 3184 3023 2199 3186 
446 293 313 294 3181 2354 3182 3186 2199 2355 
294 313 447 314 2355 3187 3188 2361 2363 3189 
427 447 428 294 3190 3191 3038 3023 3188 3031 
294 313 446 447 2355 3182 3186 3188 3187 3192 
427 447 294 446 3190 3188 3023 3184 3192 3186 
428 294 447 295 3031 3188 3191 3033 2209 3193 
447 294 314 295 3188 2361 3189 3193 2209 2362 
295 314 448 315 2362 3194 3195 2368 2370 3196 
428 448 429 295 3197 3198 3048 3033 3195 3041 
295 314 447 448 2362 3189 3193 3195 3194 3199 
428 448 295 447 3197 3195 3033 3191 3199 3193 
429 295 448 296 3041 3195 3198 3043 2219 3200 
448 295 315 296 3195 2368 3196 3200 2219 2369 
296 315 449 316 2369 3201 3202 2375 2377 3203 
429 449 430 296 3204 3205 3058 3043 3202 3051 
296 315 448 449 2369 3196 3200 3202 3201 3206 
429 449 296 448 3204 3202 3043 3198 3206 3200 
430 296 449 297 3051 3202 3205 3053 2229 3207 
449 296 316 297 3202 2375 3203 3207 2229 2376 
297 316 450 317 2376 3208 3209 2382 2384 3210 
430 450 431 297 3211 3212 3068 3053 3209 3061 
297 316 449 450 2376 3203 3207 3209 3208 3213 
430 450 297 449 3211 3209 3053 3205 3213 3207 
431 297 450 298 3061 3209 3212 3063 2239 3214 
450 297 317 298 3209 2382 3210 3214 2239 2383 
298 317 451 318 2383 3215 3216 2389 2391 3217 
431 451 432 298 3218 3219 3078 3063 3216 3071 
298 317 450 451 2383 3210 3214 3216 3215 3220 
431 451 298 450 3218 3216 3063 3212 3220 3214 
432 298 451 299 3071 3216 3219 3073 2249 3221 
451 298 318 299 3216 2389 3217 3221 2249 2390 
299 318 452 319 2390 3222 3223 2396 2398 3224 
432 452 433 299 3225 3226 3088 3073 3223 3081 
299 318 451 452 2390 3217 3221 3223 3222 3227 
432 452 299 451 3225 3223 3073 3219 3227 3221 
433 299 452 300 3081 3223 3226 3083 2259 3228 
452 299 319 300 3223 2396 3224 3228 2259 2397 
300 319 453 320 2397 3229 3230 2403 2405 3231 
433 453 434 300 3232 3233 3098 3083 3230 3091 
300 319 452 453 2397 3224 3228 3230 3229 3234 
433 453 300 452 3232 3230 3083 3226 3234 3228 
434 300 453 301 3091 3230 3233 3093 2269 3235 
453 300 320 301 3230 2403 3231 3235 2269 2404 
301 320 454 321 2404 3236 3237 2410 2412 3238 
434 454 435 301 3239 3240 3108 3093 3237 3101 
301 320 453 454 2404 3231 3235 3237 3236 3241 
434 454 301 453 3239 3237 3093 3233 3241 3235 
435 301 454 302 3101 3237 3240 3103 2279 3242 
454 301 321 302 3237 2410 3238 3242 2279 2411 
302 321 455 322 2411 3243 3244 2417 2419 3245 
435 455 436 302 3246 3247 3118 3103 3244 3111 
302 321 454 455 2411 3238 3242 3244 3243 3248 
435 455 302 454 3246 3244 3103 3240 3248 3242 
436 302 455 303 3111 3244 3247 3113 2289 3249 
455 302 322 303 3244 2417 3245 3249 2289 2418 
304 323 457 324 2429 3250 3251 2424 2428 3252 
437 457 438 304 3253 3254 3128 3126 3251 3121 
304 323 456 457 2429 3255 3256 3251 3250 3257 
437 457 304 456 3253 3251 3126 3258 3257 3256 
438 304 457 305 3121 3251 3254 3123 2299 3259 
457 304 324 305 3251 2424 3252 3259 2299 2425 
305 324 458 325 2425 3260 3261 2434 2436 3262 
438 458 439 305 3263 3264 3136 3123 3261 3131 
305 324 457 458 2425 3252 3259 3261 3260 3265 
438 458 305 457 3263 3261 3123 3254 3265 3259 
439 305 458 306 3131 3261 3264 3133 2307 3266 
458 305 325 306 3261 2434 3262 3266 2307 2435 
306 325 459 326 2435 3267 3268 2441 2443 3269 
439 459 440 306 3270 3271 3143 3133 3268 3138 
306 325 458 459 2435 3262 3266 3268 3267 3272 
439 459 306 458 3270 3268 3133 3264 3272 3266 
440 306 459 307 3138 3268 3271 3140 2314 3273 
459 306 326 307 3268 2441 3269 3273 2314 2442 
307 326 460 327 2442 3274 3275 2448 2450 3276 
440 460 441 307 3277 3278 3150 3140 3275 3145 
307 326 459 460 2442 3269 3273 3275 3274 3279 
440 460 307 459 3277 3275 3140 3271 3279 3273 
441 307 460 308 3145 3275 3278 3147 2321 3280 
460 307 327 308 3275 2448 3276 3280 2321 2449 
308 327 461 328 2449 3281 3282 2455 2457 3283 
441 461 442 308 3284 3285 3157 3147 3282 3152 
308 327 460 461 2449 3276 3280 3282 3281 3286 
441 461 308 460 3284 3282 3147 3278 3286 3280 
442 308 461 309 3152 3282 3285 3154 2328 3287 
461 308 328 309 3282 2455 3283 3287 2328 2456 
309 328 462 329 2456 3288 3289 2462 2464 3290 
442 462 443 309 3291 3292 3164 3154 3289 3159 
309 328 461 462 2456 3283 3287 3289 3288 3293 
442 462 309 461 3291 3289 3154 3285 3293 3287 
443 309 462 310 3159 3289 3292 3161 2335 3294 
462 309 329 310 3289 2462 3290 3294 2335 2463 
310 329 463 330 2463 3295 3296 2469 2471 3297 
443 463 444 310 3298 3299 3171 3161 3296 3166 
310 329 462 463 2463 3290 3294 3296 3295 3300 
443 463 310 462 3298 3296 3161 3292 3300 3294 
444 310 463 311 3166 3296 3299 3168 2342 3301 
463 310 330 311 3296 2469 3297 3301 2342 2470 
311 330 464 331 2470 3302 3303 2476 2478 3304 
444 464 445 311 3305 3306 3178 3168 3303 3173 
311 330 463 464 2470 3297 3301 3303 3302 3307 
444 464 311 463 3305 3303 3168 3299 3307 3301 
445 311 464 312 3173 3303 3306 3175 2349 3308 
464 311 331 312 3303 2476 3304 3308 2349 2477 
312 331 465 332 2477 3309 3310 2483 2485 3311 
445 465 446 312 3312 3313 3185 3175 3310 3180 
312 331 464 465 2477 3304 3308 3310 3309 3314 
445 465 312 464 3312 3310 3175 3306 3314 3308 
446 312 465 313 3180 3310 3313 3182 2356 3315 
465 312 332 313 3310 2483 3311 3315 2356 2484 
313 332 466 333 2484 3316 3317 2490 2492 3318 
446 466 447 313 3319 3320 3192 3182 3317 3187 
313 332 465 466 2484 3311 3315 3317 3316 3321 
446 466 313 465 3319 3317 3182 3313 3321 3315 
447 313 466 314 3187 3317 3320 3189 2363 3322 
466 313 333 314 3317 2490 3318 3322 2363 2491 
314 333 467 334 2491 3323 3324 2497 2499 3325 
447 467 448 314 3326 3327 3199 3189 3324 3194 
314 333 466 467 2491 3318 3322 3324 3323 3328 
447 467 314 466 3326 3324 3189 3320 3328 3322 
448 314 467 315 3194 3324 3327 3196 2370 3329 
467 314 334 315 3324 2497 3325 3329 2370 2498 
315 334 468 335 2498 3330 3331 2504 2506 3332 
448 468 449 315 3333 3334 3206 3196 3331 3201 
315 334 467 468 2498 3325 3329 3331 3330 3335 
448 468 315 467 3333 3331 3196 3327 3335 3329 
449 315 468 316 3201 3331 3334 3203 2377 3336 
468 315 335 316 3331 2504 3332 3336 2377 2505 
316 335 469 336 2505 3337 3338 2511 2513 3339 
449 469 450 316 3340 3341 3213 3203 3338 3208 
316 335 468 469 2505 3332 3336 3338 3337 3342 
449 469 316 468 3340 3338 3203 3334 3342 3336 
450 316 469 317 3208 3338 3341 3210 2384 3343 
469 316 336 317 3338 2511 3339 3343 2384 2512 
317 336 470 337 2512 3344 3345 2518 2520 3346 
450 470 451 317 3347 3348 3220 3210 3345 3215 
317 336 469 470 2512 3339 3343 3345 3344 3349 
450 470 317 469 3347 3345 3210 3341 3349 3343 
451 317 470 318 3215 3345 3348 3217 2391 3350 
470 317 337 318 3345 2518 3346 3350 2391 2519 
318 337 471 338 2519 3351 3352 2525 2527 3353 
451 471 452 318 3354 3355 3227 3217 3352 3222 
318 337 470 471 2519 3346 3350 3352 3351 3356 
451 471 318 470 3354 3352 3217 3348 3356 3350 
452 318 471 319 3222 3352 3355 3224 2398 3357 
471 318 338 319 3352 2525 3353 3357 2398 2526 
319 338 472 339 2526 3358 3359 2532 2534 3360 
452 472 453 319 3361 3362 3234 3224 3359 3229 
319 338 471 472 2526 3353 3357 3359 3358 3363 
452 472 319 471 3361 3359 3224 3355 3363 3357 
453 319 472 320 3229 3359 3362 3231 2405 3364 
472 319 339 320 3359 2532 3360 3364 2405 2533 
320 339 473 340 2533 3365 3366 2539 2541 3367 
453 473 454 320 3368 3369 3241 3231 3366 3236 
320 339 472 473 2533 3360 3364 3366 3365 3370 
453 473 320 472 3368 3366 3231 3362 3370 3364 
454 320 473 321 3236 3366 3369 3238 2412 3371 
473 320 340 321 3366 2539 3367 3371 2412 2540 
321 340 474 341 2540 3372 3373 2546 2548 3374 
454 474 455 321 3375 3376 3248 3238 3373 3243 
321 340 473 474 2540 3367 3371 3373 3372 3377 
454 474 321 473 3375 3373 3238 3369 3377 3371 
455 321 474 322 3243 3373 3376 3245 2419 3378 
474 321 341 322 3373 2546 3374 3378 2419 2547 
323 342 476 343 2558 3379 3380 2553 2557 3381 
456 476 457 323 3382 3383 3257 3255 3380 3250 
323 342 475 476 2558 3384 3385 3380 3379 3386 
456 476 323 475 3382 3380 3255 3387 3386 3385 
457 323 476 324 3250 3380 3383 3252 2428 3388 
476 323 343 324 3380 2553 3381 3388 2428 2554 
324 343 477 344 2554 3389 3390 2563 2565 3391 
457 477 458 324 3392 3393 3265 3252 3390 3260 
324 343 476 477 2554 3381 3388 3390 3389 3394 
457 477 324 476 3392 3390 3252 3383 3394 3388 
458 324 477 325 3260 3390 3393 3262 2436 3395 
477 324 344 325 3390 2563 3391 3395 2436 2564 
325 344 478 345 2564 3396 3397 2570 2572 3398 
458 478 459 325 3399 3400 3272 3262 3397 3267 
325 344 477 478 2564 3391 3395 3397 3396 3401 
458 478 325 477 3399 3397 3262 3393 3401 3395 
459 325 478 326 3267 3397 3400 3269 2443 3402 
478 325 345 326 3397 2570 3398 3402 2443 2571 
326 345 479 346 2571 3403 3404 2577 2579 3405 
459 479 460 326 3406 3407 3279 3269 3404 3274 
326 345 478 479 2571 3398 3402 3404 3403 3408 
459 479 326 478 3406 3404 3269 3400 3408 3402 
460 326 479 327 3274 3404 3407 3276 2450 3409 
479 326 346 327 3404 2577 3405 3409 2450 2578 
327 346 480 347 2578 3410 3411 2584 2586 3412 
460 480 461 327 3413 3414 3286 3276 3411 3281 
327 346 479 480 2578 3405 3409 3411 3410 3415 
460 480 327 479 3413 3411 3276 3407 3415 3409 
461 327 480 328 3281 3411 3414 3283 2457 3416 
480 327 347 328 3411 2584 3412 3416 2457 2585 
328 347 481 348 2585 3417 3418 2591 2593 3419 
461 481 462 328 3420 3421 3293 3283 3418 3288 
328 347 480 481 2585 3412 3416 3418 3417 3422 
461 481 328 480 3420 3418 3283 3414 3422 3416 
462 328 481 329 3288 3418 3421 3290 2464 3423 
481 328 348 329 3418 2591 3419 3423 2464 2592 
329 348 482 349 2592 3424 3425 2598 2600 3426 
462 482 463 329 3427 3428 3300 3290 3425 3295 
329 348 481 482 2592 3419 3423 3425 3424 3429 
462 482 329 481 3427 3425 3290 3421 3429 3423 
463 329 482 330 3295 3425 3428 3297 2471 3430 
482 329 349 330 3425 2598 3426 3430 2471 2599 
330 349 483 350 2599 3431 3432 2605 2607 3433 
463 483 464 330 3434 3435 3307 3297 3432 3302 
330 349 482 483 2599 3426 3430 3432 3431 3436 
463 483 330 482 3434 3432 3297 3428 3436 3430 
464 330 483 331 3302 3432 3435 3304 2478 3437 
483 330 350 331 3432 2605 3433 3437 2478 2606 
331 350 484 351 2606 3438 3439 2612 2614 3440 
464 484 465 331 3441 3442 3314 3304 3439 3309 
331 350 483 484 2606 3433 3437 3439 3438 3443 
464 484 331 483 3441 3439 3304 3435 3443 3437 
465 331 484 332 3309 3439 3442 3311 2485 3444 
484 331 351 332 3439 2612 3440 3444 2485 2613 
332 351 485 352 2613 3445 3446 2619 2621 3447 
465 485 466 332 3448 3449 3321 3311 3446 3316 
332 351 484 485 2613 3440 3444 3446 3445 3450 
465 485 332 484 3448 3446 3311 3442 3450 3444 
466 332 485 333 3316 3446 3449 3318 2492 3451 
485 332 352 333 3446 2619 3447 3451 2492 2620 
333 352 486 353 2620 3452 3453 2626 2628 3454 
466 486 467 333 3455 3456 3328 3318 3453 3323 
333 352 485 486 2620 3447 3451 3453 3452 3457 
466 486 333 485 3455 3453 3318 3449 3457 3451 
467 333 486 334 3323 3453 3456 3325 2499 3458 
486 333 353 334 3453 2626 3454 3458 2499 2627 
334 353 487 354 2627 3459 3460 2633 2635 3461 
467 487 468 334 3462 3463 3335 3325 3460 3330 
334 353 486 487 2627 3454 3458 3460 3459 3464 
467 487 334 486 3462 3460 3325 3456 3464 3458 
468 334 487 335 3330 3460 3463 3332 2506 3465 
487 334 354 335 3460 2633 3461 3465 2506 2634 
335 354 488 355 2634 3466 3467 2640 2642 3468 
468 488 469 335 3469 3470 3342 3332 3467 3337 
335 354 487 488 2634 3461 3465 3467 3466 3471 
468 488 335 487 3469 3467 3332 3463 3471 3465 
469 335 488 336 3337 3467 3470 3339 2513 3472 
488 335 355 336 3467 2640 3468 3472 2513 2641 
336 355 489 356 2641 3473 3474 2647 2649 3475 
469 489 470 336 3476 3477 3349 3339 3474 3344 
336 355 488 489 2641 3468 3472 3474 3473 3478 
469 489 336 488 3476 3474 3339 3470 3478 3472 
470 336 489 337 3344 3474 3477 3346 2520 3479 
489 336 356 337 3474 2647 3475 3479 2520 2648 
337 356 490 357 2648 3480 3481 2654 2656 3482 
470 490 471 337 3483 3484 3356 3346 3481 3351 
337 356 489 490 2648 3475 3479 3481 3480 3485 
470 490 337 489 3483 3481 3346 3477 3485 3479 
471 337 490 338 3351 3481 3484 3353 2527 3486 
490 337 357 338 3481 2654 3482 3486 2527 2655 
338 357 491 358 2655 3487 3488 2661 2663 3489 
471 491 472 338 3490 3491 3363 3353 3488 3358 
338 357 490 491 2655 3482 3486 3488 3487 3492 
471 491 338 490 3490 3488 3353 3484 3492 3486 
472 338 491 339 3358 3488 3491 3360 2534 3493 
491 338 358 339 3488 2661 3489 3493 2534 2662 
339 358 492 359 2662 3494 3495 2668 2670 3496 
472 492 473 339 3497 3498 3370 3360 3495 3365 
339 358 491 492 2662 3489 3493 3495 3494 3499 
472 492 339 491 3497 3495 3360 3491 3499 3493 
473 339 492 340 3365 3495 3498 3367 2541 3500 
492 339 359 340 3495 2668 3496 3500 2541 2669 
340 359 493 360 2669 3501 3502 2675 2677 3503 
473 493 474 340 3504 3505 3377 3367 3502 3372 
340 359 492 493 2669 3496 3500 3502 3501 3506 
473 493 340 492 3504 3502 3367 3498 3506 3500 
474 340 493 341 3372 3502 3505 3374 2548 3507 
493 340 360 341 3502 2675 3503 3507 2548 2676 
342 361 495 362 2687 3508 3509 2682 2686 3510 
475 495 476 342 3511 3512 3386 3384 3509 3379 
342 361 494 495 2687 3513 3514 3509 3508 3515 
475 495 342 494 3511 3509 3384 3516 3515 3514 
476 342 495 343 3379 3509 3512 3381 2557 3517 
495 342 362 343 3509 2682 3510 3517 2557 2683 
343 362 496 363 2683 3518 3519 2692 2694 3520 
476 496 477 343 3521 3522 3394 3381 3519 3389 
343 362 495 496 2683 3510 3517 3519 3518 3523 
476 496 343 495 3521 3519 3381 3512 3523 3517 
477 343 496 344 3389 3519 3522 3391 2565 3524 
496 343 363 344 3519 2692 3520 3524 2565 2693 
344 363 497 364 2693 3525 3526 2699 2701 3527 
477 497 478 344 3528 3529 3401 3391 3526 3396 
344 363 496 497 2693 3520 3524 3526 3525 3530 
477 497 344 496 3528 3526 3391 3522 3530 3524 
478 344 497 345 3396 3526 3529 3398 2572 3531 
497 344 364 345 3526 2699 3527 3531 2572 2700 
345 364 498 365 2700 3532 3533 2706 2708 3534 
478 498 479 345 3535 3536 3408 3398 3533 3403 
345 364 497 498 2700 3527 3531 3533 3532 3537 
478 498 345 497 3535 3533 3398 3529 3537 3531 
479 345 498 346 3403 3533 3536 3405 2579 3538 
498 345 365 346 3533 2706 3534 3538 2579 2707 
346 365 499 366 2707 3539 3540 2713 2715 3541 
479 499 480 346 3542 3543 3415 3405 3540 3410 
346 365 498 499 2707 3534 3538 3540 3539 3544 
479 499 346 498 3542 3540 3405 3536 3544 3538 
480 346 499 347 3410 3540 3543 3412 2586 3545 
499 346 366 347 3540 2713 3541 3545 2586 2714 
347 366 500 367 2714 3546 3547 2720 2722 3548 
480 500 481 347 3549 3550 3422 3412 3547 3417 
347 366 499 500 2714 3541 3545 3547 3546 3551 
480 500 347 499 3549 3547 3412 3543 3551 3545 
481 347 500 348 3417 3547 3550 3419 2593 3552 
500 347 367 348 3547 2720 3548 3552 2593 2721 
348 367 501 368 2721 3553 3554 2727 2729 3555 
481 501 482 348 3556 3557 3429 3419 3554 3424 
348 367 500 501 2721 3548 3552 3554 3553 3558 
481 501 348 500 3556 3554 3419 3550 3558 3552 
482 348 501 349 3424 3554 3557 3426 2600 3559 
501 348 368 349 3554 2727 3555 3559 2600 2728 
349 368 502 369 2728 3560 3561 2734 2736 3562 
482 502 483 349 3563 3564 3436 3426 3561 3431 
349 368 501 502 2728 3555 3559 3561 3560 3565 
482 502 349 501 3563 3561 3426 3557 3565 3559 
483 349 502 350 3431 3561 3564 3433 2607 3566 
502 349 369 350 3561 2734 3562 3566 2607 2735 
350 369 503 370 2735 3567 3568 2741 2743 3569 
483 503 484 350 3570 3571 3443 3433 3568 3438 
350 369 502 503 2735 3562 3566 3568 3567 3572 
483 503 350 502 3570 3568 3433 3564 3572 3566 
484 350 503 351 3438 3568 3571 3440 2614 3573 
503 350 370 351 3568 2741 3569 3573 2614 2742 
351 370 504 371 2742 3574 3575 2748 2750 3576 
484 504 485 351 3577 3578 3450 3440 3575 3445 
351 370 503 504 2742 3569 3573 3575 3574 3579 
484 504 351 503 3577 3575 3440 3571 3579 3573 
485 351 504 352 3445 3575 3578 3447 2621 3580 
504 351 371 352 3575 2748 3576 3580 2621 2749 
352 371 505 372 2749 3581 3582 2755 2757 3583 
485 505 486 352 3584 3585 3457 3447 3582 3452 
352 371 504 505 2749 3576 3580 3582 3581 3586 
485 505 352 504 3584 3582 3447 3578 3586 3580 
486 352 505 353 3452 3582 3585 3454 2628 3587 
505 352 372 353 3582 2755 3583 3587 2628 2756 
353 372 506 373 2756 3588 3589 2762 2764 3590 
486 506 487 353 3591 3592 3464 3454 3589 3459 
353 372 505 506 2756 3583 3587 3589 3588 3593 
486 506 353 505 3591 3589 3454 3585 3593 3587 
487 353 506 354 3459 3589 3592 3461 2635 3594 
506 353 373 354 3589 2762 3590 3594 2635 2763 
354 373 507 374 2763 3595 3596 2769 2771 3597 
487 507 488 354 3598 3599 3471 3461 3596 3466 
354 373 506 507 2763 3590 3594 3596 3595 3600 
487 507 354 506 3598 3596 3461 3592 3600 3594 
488 354 507 355 3466 3596 3599 3468 2642 3601 
507 354 374 355 3596 2769 3597 3601 2642 2770 
355 374 508 375 2770 3602 3603 2776 2778 3604 
488 508 489 355 3605 3606 3478 3468 3603 3473 
355 374 507 508 2770 3597 3601 3603 3602 3607 
488 508 355 507 3605 3603 3468 3599 3607 3601 
489 355 508 356 3473 3603 3606 3475 2649 3608 
508 355 375 356 3603 2776 3604 3608 2649 2777 
356 375 509 376 2777 3609 3610 2783 2785 3611 
489 509 490 356 3612 3613 3485 3475 3610 3480 
356 375 508 509 2777 3604 3608 3610 3609 3614 
489 509 356 508 3612 3610 3475 3606 3614 3608 
490 356 509 357 3480 3610 3613 3482 2656 3615 
509 356 376 357 3610 2783 3611 3615 2656 2784 
357 376 510 377 2784 3616 3617 2790 2792 3618 
490 510 491 357 3619 3620 3492 3482 3617 3487 
357 376 509 510 2784 3611 3615 3617 3616 3621 
490 510 357 509 3619 3617 3482 3613 3621 3615 
491 357 510 358 3487 3617 3620 3489 2663 3622 
510 357 377 358 3617 2790 3618 3622 2663 2791 
358 377 511 378 2791 3623 3624 2797 2799 3625 
491 511 492 358 3626 3627 3499 3489 3624 3494 
358 377 510 511 2791 3618 3622 3624 3623 3628 
491 511 358 510 3626 3624 3489 3620 3628 3622 
492 358 511 359 3494 3624 3627 3496 2670 3629 
511 358 378 359 3624 2797 3625 3629 2670 2798 
359 378 512 379 2798 3630 3631 2804 2806 3632 
492 512 493 359 3633 3634 3506 3496 3631 3501 
359 378 511 512 2798 3625 3629 3631 3630 3635 
492 512 359 511 3633 3631 3496 3627 3635 3629 
493 359 512 360 3501 3631 3634 3503 2677 3636 
512 359 379 360 3631 2804 3632 3636 2677 2805 
361 380 514 381 2816 3637 3638 2811 2815 3639 
494 514 495 361 3640 3641 3515 3513 3638 3508 
361 380 513 514 2816 3642 3643 3638 3637 3644 
494 514 361 513 3640 3638 3513 3645 3644 3643 
495 361 514 362 3508 3638 3641 3510 2686 3646 
514 361 381 362 3638 2811 3639 3646 2686 2812 
362 381 515 382 2812 3647 3648 2821 2823 3649 
495 515 496 362 3650 3651 3523 3510 3648 3518 
362 381 514 515 2812 3639 3646 3648 3647 3652 
495 515 362 514 3650 3648 3510 3641 3652 3646 
496 362 515 363 3518 3648 3651 3520 2694 3653 
515 362 382 363 3648 2821 3649 3653 2694 2822 
363 382 516 383 2822 3654 3655 2828 2830 3656 
496 516 497 363 3657 3658 3530 3520 3655 3525 
363 382 515 516 2822 3649 3653 3655 3654 3659 
496 516 363 515 3657 3655 3520 3651 3659 3653 
497 363 516 364 3525 3655 3658 3527 2701 3660 
516 363 383 364 3655 2828 3656 3660 2701 2829 
364 383 517 384 2829 3661 3662 2835 2837 3663 
497 517 498 364 3664 3665 3537 3527 3662 3532 
364 383 516 517 2829 3656 3660 3662 3661 3666 
497 517 364 516 3664 3662 3527 3658 3666 3660 
498 364 517 365 3532 3662 3665 3534 2708 3667 
517 364 384 365 3662 2835 3663 3667 2708 2836 
365 384 518 385 2836 3668 3669 2842 2844 3670 
498 518 499 365 3671 3672 3544 3534 3669 3539 
365 384 517 518 2836 3663 3667 3669 3668 3673 
498 518 365 517 3671 3669 3534 3665 3673 3667 
499 365 518 366 3539 3669 3672 3541 2715 3674 
518 365 385 366 3669 2842 3670 3674 2715 2843 
366 385 519 386 2843 3675 3676 2849 2851 3677 
499 519 500 366 3678 3679 3551 3541 3676 3546 
366 385 518 519 2843 3670 3674 3676 3675 3680 
499 519 366 518 3678 3676 3541 3672 3680 3674 
500 366 519 367 3546 3676 3679 3548 2722 3681 
519 366 386 367 3676 2849 3677 3681 2722 2850 
367 386 520 387 2850 3682 3683 2856 2858 3684 
500 520 501 367 3685 3686 3558 3548 3683 3553 
367 386 519 520 2850 3677 3681 3683 3682 3687 
500 520 367 519 3685 3683 3548 3679 3687 3681 
501 367 520 368 3553 3683 3686 3555 2729 3688 
520 367 387 368 3683 2856 3684 3688 2729 2857 
368 387 521 388 2857 3689 3690 2863 2865 3691 
501 521 502 368 3692 3693 3565 3555 3690 3560 
368 387 520 521 2857 3684 3688 3690 3689 3694 
501 521 368 520 3692 3690 3555 3686 3694 3688 
502 368 521 369 3560 3690 3693 3562 2736 3695 
521 368 388 369 3690 2863 3691 3695 2736 2864 
369 388 522 389 2864 3696 3697 2870 2872 3698 
502 522 503 369 3699 3700 3572 3562 3697 3567 
369 388 521 522 2864 3691 3695 3697 3696 3701 
502 522 369 521 3699 3697 3562 3693 3701 3695 
503 369 522 370 3567 3697 3700 3569 2743 3702 
522 369 389 370 3697 2870 3698 3702 2743 2871 
370 389 523 390 2871 3703 3704 2877 2879 3705 
503 523 504 370 3706 3707 3579 3569 3704 3574 
370 389 522 523 2871 3698 3702 3704 3703 3708 
503 523 370 522 3706 3704 3569 3700 3708 3702 
504 370 523 371 3574 3704 3707 3576 2750 3709 
523 370 390 371 3704 2877 3705 3709 2750 2878 
371 390 524 391 2878 3710 3711 2884 2886 3712 
504 524 505 371 3713 3714 3586 3576 3711 3581 
371 390 523 524 2878 3705 3709 3711 3710 3715 
504 524 371 523 3713 3711 3576 3707 3715 3709 
505 371 524 372 3581 3711 3714 3583 2757 3716 
524 371 391 372 3711 2884 3712 3716 2757 2885 
372 391 525 392 2885 3717 3718 2891 2893 3719 
505 525 506 372 3720 3721 3593 3583 3718 3588 
372 391 524 525 2885 3712 3716 3718 3717 3722 
505 525 372 524 3720 3718 3583 3714 3722 3716 
506 372 525 373 3588 3718 3721 3590 2764 3723 
525 372 392 373 3718 2891 3719 3723 2764 2892 
373 392 526 393 2892 3724 3725 2898 2900 3726 
506 526 507 373 3727 3728 3600 3590 3725 3595 
373 392 525 526 2892 3719 3723 3725 3724 3729 
506 526 373 525 3727 3725 3590 3721 3729 3723 
507 373 526 374 3595 3725 3728 3597 2771 3730 
526 373 393 374 3725 2898 3726 3730 2771 2899 
374 393 527 394 2899 3731 3732 2905 2907 3733 
507 527 508 374 3734 3735 3607 3597 3732 3602 
374 393 526 527 2899 3726 3730 3732 3731 3736 
507 527 374 526 3734 3732 3597 3728 3736 3730 
508 374 527 375 3602 3732 3735 3604 2778 3737 
527 374 394 375 3732 2905 3733 3737 2778 2906 
375 394 528 395 2906 3738 3739 2912 2914 3740 
508 528 509 375 3741 3742 3614 3604 3739 3609 
375 394 527 528 2906 3733 3737 3739 3738 3743 
508 528 375 527 3741 3739 3604 3735 3743 3737 
509 375 528 376 3609 3739 3742 3611 2785 3744 
528 375 395 376 3739 2912 3740 3744 2785 2913 
376 395 529 396 2913 3745 3746 2919 2921 3747 
509 529 510 376 3748 3749 3621 3611 3746 3616 
376 395 528 529 2913 3740 3744 3746 3745 3750 
509 529 376 528 3748 3746 3611 3742 3750 3744 
510 376 529 377 3616 3746 3749 3618 2792 3751 
529 376 396 377 3746 2919 3747 3751 2792 2920 
377 396 530 397 2920 3752 3753 2926 2928 3754 
510 530 511 377 3755 3756 3628 3618 3753 3623 
377 396 529 530 2920 3747 3751 3753 3752 3757 
510 530 377 529 3755 3753 3618 3749 3757 3751 
511 377 530 378 3623 3753 3756 3625 2799 3758 
530 377 397 378 3753 2926 3754 3758 2799 2927 
378 397 531 398 2927 3759 3760 2933 2935 3761 
511 531 512 378 3762 3763 3635 3625 3760 3630 
378 397 530 531 2927 3754 3758 3760 3759 3764 
511 531 378 530 3762 3760 3625 3756 3764 3758 
512 378 531 379 3630 3760 3763 3632 2806 3765 
531 378 398 379 3760 2933 3761 3765 2806 2934 
399 418 552 419 2948 3766 3767 2940 2947 3768 
532 552 533 399 3769 3770 3771 3772 3767 3773 
399 418 551 552 2948 3774 3775 3767 3766 3776 
532 552 399 551 3769 3767 3772 3777 3776 3775 
533 399 552 400 3773 3767 3770 3778 2942 3779 
552 399 419 400 3767 2940 3768 3779 2942 2941 
400 419 553 420 2941 3780 3781 2954 2958 3782 
533 553 534 400 3783 3784 3785 3778 3781 3786 
400 419 552 553 2941 3768 3779 3781 3780 3787 
533 553 400 552 3783 3781 3778 3770 3787 3779 
534 400 553 401 3786 3781 3784 3788 2956 3789 
553 400 420 401 3781 2954 3782 3789 2956 2955 
401 420 554 421 2955 3790 3791 2964 2968 3792 
534 554 535 401 3793 3794 3795 3788 3791 3796 
401 420 553 554 2955 3782 3789 3791 3790 3797 
534 554 401 553 3793 3791 3788 3784 3797 3789 
535 401 554 402 3796 3791 3794 3798 2966 3799 
554 401 421 402 3791 2964 3792 3799 2966 2965 
402 421 555 422 2965 3800 3801 2974 2978 3802 
535 555 536 402 3803 3804 3805 3798 3801 3806 
402 421 554 555 2965 3792 3799 3801 3800 3807 
535 555 402 554 3803 3801 3798 3794 3807 3799 
536 402 555 403 3806 3801 3804 3808 2976 3809 
555 402 422 403 3801 2974 3802 3809 2976 2975 
403 422 556 423 2975 3810 3811 2984 2988 3812 
536 556 537 403 3813 3814 3815 3808 3811 3816 
403 422 555 556 2975 3802 3809 3811 3810 3817 
536 556 403 555 3813 3811 3808 3804 3817 3809 
537 403 556 404 3816 3811 3814 3818 2986 3819 
556 403 423 404 3811 2984 3812 3819 2986 2985 
404 423 557 424 2985 3820 3821 2994 2998 3822 
537 557 538 404 3823 3824 3825 3818 3821 3826 
404 423 556 557 2985 3812 3819 3821 3820 3827 
537 557 404 556 3823 3821 3818 3814 3827 3819 
538 404 557 405 3826 3821 3824 3828 2996 3829 
557 404 424 405 3821 2994 3822 3829 2996 2995 
405 424 558 425 2995 3830 3831 3004 3008 3832 
538 558 539 405 3833 3834 3835 3828 3831 3836 
405 424 557 558 2995 3822 3829 3831 3830 3837 
538 558 405 557 3833 3831 3828 3824 3837 3829 
539 405 558 406 3836 3831 3834 3838 3006 3839 
558 405 425 406 3831 3004 3832 3839 3006 3005 
406 425 559 426 3005 3840 3841 3014 3018 3842 
539 559 540 406 3843 3844 3845 3838 3841 3846 
406 425 558 559 3005 3832 3839 3841 3840 3847 
539 559 406 558 3843 3841 3838 3834 3847 3839 
540 406 559 407 3846 3841 3844 3848 3016 3849 
559 406 426 407 3841 3014 3842 3849 3016 3015 
407 426 560 427 3015 3850 3851 3024 3028 3852 
540 560 541 407 3853 3854 3855 3848 3851 3856 
407 426 559 560 3015 3842 3849 3851 3850 3857 
540 560 407 559 3853 3851 3848 3844 3857 3849 
541 407 560 408 3856 3851 3854 3858 3026 3859 
560 407 427 408 3851 3024 3852 3859 3026 3025 
408 427 561 428 3025 3860 3861 3034 3038 3862 
541 561 542 408 3863 3864 3865 3858 3861 3866 
408 427 560 561 3025 3852 3859 3861 3860 3867 
541 561 408 560 3863 3861 3858 3854 3867 3859 
542 408 561 409 3866 3861 3864 3868 3036 3869 
561 408 428 409 3861 3034 3862 3869 3036 3035 
409 428 562 429 3035 3870 3871 3044 3048 3872 
542 562 543 409 3873 3874 3875 3868 3871 3876 
409 428 561 562 3035 3862 3869 3871 3870 3877 
542 562 409 561 3873 3871 3868 3864 3877 3869 
543 409 562 410 3876 3871 3874 3878 3046 3879 
562 409 429 410 3871 3044 3872 3879 3046 3045 
410 429 563 430 3045 3880 3881 3054 3058 3882 
543 563 544 410 3883 3884 3885 3878 3881 3886 
410 429 562 563 3045 3872 3879 3881 3880 3887 
543 563 410 562 3883 3881 3878 3874 3887 3879 
544 410 563 411 3886 3881 3884 3888 3056 3889 
563 410 430 411 3881 3054 3882 3889 3056 3055 
411 430 564 431 3055 3890 3891 3064 3068 3892 
544 564 545 411 3893 3894 3895 3888 3891 3896 
411 430 563 564 3055 3882 3889 3891 3890 3897 
544 564 411 563 3893 3891 3888 3884 3897 3889 
545 411 564 412 3896 3891 3894 3898 3066 3899 
564 411 431 412 3891 3064 3892 3899 3066 3065 
412 431 565 432 3065 3900 3901 3074 3078 3902 
545 565 546 412 3903 3904 3905 3898 3901 3906 
412 431 564 565 3065 3892 3899 3901 3900 3907 
545 565 412 564 3903 3901 3898 3894 3907 3899 
546 412 565 413 3906 3901 3904 3908 3076 3909 
565 412 432 413 3901 3074 3902 3909 3076 3075 
413 432 566 433 3075 3910 3911 3084 3088 3912 
546 566 547 413 3913 3914 3915 3908 3911 3916 
413 432 565 566 3075 3902 3909 3911 3910 3917 
546 566 413 565 3913 3911 3908 3904 3917 3909 
547 413 566 414 3916 3911 3914 3918 3086 3919 
566 413 433 414 3911 3084 3912 3919 3086 3085 
414 433 567 434 3085 3920 3921 3094 3098 3922 
547 567 548 414 3923 3924 3925 3918 3921 3926 
414 433 566 567 3085 3912 3919 3921 3920 3927 
547 567 414 566 3923 3921 3918 3914 3927 3919 
548 414 567 415 3926 3921 3924 3928 3096 3929 
567 414 434 415 3921 3094 3922 3929 3096 3095 
415 434 568 435 3095 3930 3931 3104 3108 3932 
548 568 549 415 3933 3934 3935 3928 3931 3936 
415 434 567 568 3095 3922 3929 3931 3930 3937 
548 568 415 567 3933 3931 3928 3924 3937 3929 
549 415 568 416 3936 3931 3934 3938 3106 3939 
568 415 435 416 3931 3104 3932 3939 3106 3105 
416 435 569 436 3105 3940 3941 3114 3118 3942 
549 569 550 416 3943 3944 3945 3938 3941 3946 
416 435 568 569 3105 3932 3939 3941 3940 3947 
549 569 416 568 3943 3941 3938 3934 3947 3939 
550 416 569 417 3946 3941 3944 3948 3116 3949 
569 416 436 417 3941 3114 3942 3949 3116 3115 
418 437 571 438 3129 3950 3951 3124 3128 3952 
551 571 552 418 3953 3954 3776 3774 3951 3766 
418 437 570 571 3129 3955 3956 3951 3950 3957 
551 571 418 570 3953 3951 3774 3958 3957 3956 
552 418 571 419 3766 3951 3954 3768 2947 3959 
571 418 438 419 3951 3124 3952 3959 2947 3125 
419 438 572 439 3125 3960 3961 3134 3136 3962 
552 572 553 419 3963 3964 3787 3768 3961 3780 
419 438 571 572 3125 3952 3959 3961 3960 3965 
552 572 419 571 3963 3961 3768 3954 3965 3959 
553 419 572 420 3780 3961 3964 3782 2958 3966 
572 419 439 420 3961 3134 3962 3966 2958 3135 
420 439 573 440 3135 3967 3968 3141 3143 3969 
553 573 554 420 3970 3971 3797 3782 3968 3790 
420 439 572 573 3135 3962 3966 3968 3967 3972 
553 573 420 572 3970 3968 3782 3964 3972 3966 
554 420 573 421 3790 3968 3971 3792 2968 3973 
573 420 440 421 3968 3141 3969 3973 2968 3142 
421 440 574 441 3142 3974 3975 3148 3150 3976 
554 574 555 421 3977 3978 3807 3792 3975 3800 
421 440 573 574 3142 3969 3973 3975 3974 3979 
554 574 421 573 3977 3975 3792 3971 3979 3973 
555 421 574 422 3800 3975 3978 3802 2978 3980 
574 421 441 422 3975 3148 3976 3980 2978 3149 
422 441 575 442 3149 3981 3982 3155 3157 3983 
555 575 556 422 3984 3985 3817 3802 3982 3810 
422 441 574 575 3149 3976 3980 3982 3981 3986 
555 575 422 574 3984 3982 3802 3978 3986 3980 
556 422 575 423 3810 3982 3985 3812 2988 3987 
575 422 442 423 3982 3155 3983 3987 2988 3156 
423 442 576 443 3156 3988 3989 3162 3164 3990 
556 576 557 423 3991 3992 3827 3812 3989 3820 
423 442 575 576 3156 3983 3987 3989 3988 3993 
556 576 423 575 3991 3989 3812 3985 3993 3987 
557 423 576 424 3820 3989 3992 3822 2998 3994 
576 423 443 424 3989 3162 3990 3994 2998 3163 
424 443 577 444 3163 3995 3996 3169 3171 3997 
557 577 558 424 3998 3999 3837 3822 3996 3830 
424 443 576 577 3163 3990 3994 3996 3995 4000 
557 577 424 576 3998 3996 3822 3992 4000 3994 
558 424 577 425 3830 3996 3999 3832 3008 4001 
577 424 444 425 3996 3169 3997 4001 3008 3170 
425 444 578 445 3170 4002 4003 3176 3178 4004 
558 578 559 425 4005 4006 3847 3832 4003 3840 
425 444 577 578 3170 3997 4001 4003 4002 4007 
558 578 425 577 4005 4003 3832 3999 4007 4001 
559 425 578 426 3840 4003 4006 3842 3018 4008 
578 425 445 426 4003 3176 4004 4008 3018 3177 
426 445 579 446 3177 4009 4010 3183 3185 4011 
559 579 560 426 4012 4013 3857 3842 4010 3850 
426 445 578 579 3177 4004 4008 4010 4009 4014 
559 579 426 578 4012 4010 3842 4006 4014 4008 
560 426 579 427 3850 4010 4013 3852 3028 4015 
579 426 446 427 4010 3183 4011 4015 3028 3184 
427 446 580 447 3184 4016 4017 3190 3192 4018 
560 580 561 427 4019 4020 3867 3852 4017 3860 
427 446 579 580 3184 4011 4015 4017 4016 4021 
560 580 427 579 4019 4017 3852 4013 4021 4015 
561 427 580 428 3860 4017 4020 3862 3038 4022 
580 427 447 428 4017 3190 4018 4022 3038 3191 
428 447 581 448 3191 4023 4024 3197 3199 4025 
561 581 562 428 4026 4027 3877 3862 4024 3870 
428 447 580 581 3191 4018 4022 4024 4023 4028 
561 581 428 580 4026 4024 3862 4020 4028 4022 
562 428 581 429 3870 4024 4027 3872 3048 4029 
581 428 448 429 4024 3197 4025 4029 3048 3198 
429 448 582 449 3198 4030 4031 3204 3206 4032 
562 582 563 429 4033 4034 3887 3872 4031 3880 
429 448 581 582 3198 4025 4029 4031 4030 4035 
562 582 429 581 4033 4031 3872 4027 4035 4029 
563 429 582 430 3880 4031 4034 3882 3058 4036 
582 429 449 430 4031 3204 4032 4036 3058 3205 
430 449 583 450 3205 4037 4038 3211 3213 4039 
563 583 564 430 4040 4041 3897 3882 4038 3890 
430 449 582 583 3205 4032 4036 4038 4037 4042 
563 583 430 582 4040 4038 3882 4034 4042 4036 
564 430 583 431 3890 4038 4041 3892 3068 4043 
583 430 450 431 4038 3211 4039 4043 3068 3212 
431 450 584 451 3212 4044 4045 3218 3220 4046 
564 584 565 431 4047 4048 3907 3892 4045 3900 
431 450 583 584 3212 4039 4043 4045 4044 4049 
564 584 431 583 4047 4045 3892 4041 4049 4043 
565 431 584 432 3900 4045 4048 3902 3078 4050 
584 431 451 432 4045 3218 4046 4050 3078 3219 
432 451 585 452 3219 4051 4052 3225 3227 4053 
565 585 566 432 4054 4055 3917 3902 4052 3910 
432 451 584 585 3219 4046 4050 4052 4051 4056 
565 585 432 584 4054 4052 3902 4048 4056 4050 
566 432 585 433 3910 4052 4055 3912 3088 4057 
585 432 452 433 4052 3225 4053 4057 3088 3226 
433 452 586 453 3226 4058 4059 3232 3234 4060 
566 586 567 433 4061 4062 3927 3912 4059 3920 
433 452 585 586 3226 4053 4057 4059 4058 4063 
566 586 433 585 4061 4059 3912 4055 4063 4057 
567 433 586 434 3920 4059 4062 3922 3098 4064 
586 433 453 434 4059 3232 4060 4064 3098 3233 
434 453 587 454 3233 4065 4066 3239 3241 4067 
567 587 568 434 4068 4069 3937 3922 4066 3930 
434 453 586 587 3233 4060 4064 4066 4065 4070 
567 587 434 586 4068 4066 3922 4062 4070 4064 
568 434 587 435 3930 4066 4069 3932 3108 4071 
587 434 454 435 4066 3239 4067 4071 3108 3240 
435 454 588 455 3240 4072 4073 3246 3248 4074 
568 588 569 435 4075 4076 3947 3932 4073 3940 
435 454 587 588 3240 4067 4071 4073 4072 4077 
568 588 435 587 4075 4073 3932 4069 4077 4071 
569 435 588 436 3940 4073 4076 3942 3118 4078 
588 435 455 436 4073 3246 4074 4078 3118 3247 
437 456 590 457 3258 4079 4080 3253 3257 4081 
570 590 571 437 4082 4083 3957 3955 4080 3950 
437 456 589 590 3258 4084 4085 4080 4079 4086 
570 590 437 589 4082 4080 3955 4087 4086 4085 
571 437 590 438 3950 4080 4083 3952 3128 4088 
590 437 457 438 4080 3253 4081 4088 3128 3254 
438 457 591 458 3254 4089 4090 3263 3265 4091 
571 591 572 438 4092 4093 3965 3952 4090 3960 
438 457 590 591 3254 4081 4088 4090 4089 4094 
571 591 438 590 4092 4090 3952 4083 4094 4088 
572 438 591 439 3960 4090 4093 3962 3136 4095 
591 438 458 439 4090 3263 4091 4095 3136 3264 
439 458 592 459 3264 4096 4097 3270 3272 4098 
572 592 573 439 4099 4100 3972 3962 4097 3967 
439 458 591 592 3264 4091 4095 4097 4096 4101 
572 592 439 591 4099 4097 3962 4093 4101 4095 
573 439 592 440 3967 4097 4100 3969 3143 4102 
592 439 459 440 4097 3270 4098 4102 3143 3271 
440 459 593 460 3271 4103 4104 3277 3279 4105 
573 593 574 440 4106 4107 3979 3969 4104 3974 
440 459 592 593 3271 4098 4102 4104 4103 4108 
573 593 440 592 4106 4104 3969 4100 4108 4102 
574 440 593 441 3974 4104 4107 3976 3150 4109 
593 440 460 441 4104 3277 4105 4109 3150 3278 
441 460 594 461 3278 4110 4111 3284 3286 4112 
574 594 575 441 4113 4114 3986 3976 4111 3981 
441 460 593 594 3278 4105 4109 4111 4110 4115 
574 594 441 593 4113 4111 3976 4107 4115 4109 
575 441 594 442 3981 4111 4114 3983 3157 4116 
594 441 461 442 4111 3284 4112 4116 3157 3285 
442 461 595 462 3285 4117 4118 3291 3293 4119 
575 595 576 442 4120 4121 3993 3983 4118 3988 
442 461 594 595 3285 4112 4116 4118 4117 4122 
575 595 442 594 4120 4118 3983 4114 4122 4116 
576 442 595 443 3988 4118 4121 3990 3164 4123 
595 442 462 443 4118 3291 4119 4123 3164 3292 
443 462 596 463 3292 4124 4125 3298 3300 4126 
576 596 577 443 4127 4128 4000 3990 4125 3995 
443 462 595 596 3292 4119 4123 4125 4124 4129 
576 596 443 595 4127 4125 3990 4121 4129 4123 
577 443 596 444 3995 4125 4128 3997 3171 4130 
596 443 463 444 4125 3298 4126 4130 3171 3299 
444 463 597 464 3299 4131 4132 3305 3307 4133 
577 597 578 444 4134 4135 4007 3997 4132 4002 
444 463 596 597 3299 4126 4130 4132 4131 4136 
577 597 444 596 4134 4132 3997 4128 4136 4130 
578 444 597 445 4002 4132 4135 4004 3178 4137 
597 444 464 445 4132 3305 4133 4137 3178 3306 
445 464 598 465 3306 4138 4139 3312 3314 4140 
578 598 579 445 4141 4142 4014 4004 4139 4009 
445 464 597 598 3306 4133 4137 4139 4138 4143 
578 598 445 597 4141 4139 4004 4135 4143 4137 
579 445 598 446 4009 4139 4142 4011 3185 4144 
598 445 465 446 4139 3312 4140 4144 3185 3313 
446 465 599 466 3313 4145 4146 3319 3321 4147 
579 599 580 446 4148 4149 4021 4011 4146 4016 
446 465 598 599 3313 4140 4144 4146 4145 4150 
579 599 446 598 4148 4146 4011 4142 4150 4144 
580 446 599 447 4016 4146 4149 4018 3192 4151 
599 446 466 447 4146 3319 4147 4151 3192 3320 
447 466 600 467 3320 4152 4153 3326 3328 4154 
580 600 581 447 4155 4156 4028 4018 4153 4023 
447 466 599 600 3320 4147 4151 4153 4152 4157 
580 600 447 599 4155 4153 4018 4149 4157 4151 
581 447 600 448 4023 4153 4156 4025 3199 4158 
600 447 467 448 4153 3326 4154 4158 3199 3327 
448 467 601 468 3327 4159 4160 3333 3335 4161 
581 601 582 448 4162 4163 4035 4025 4160 4030 
448 467 600 601 3327 4154 4158 4160 4159 4164 
581 601 448 600 4162 4160 4025 4156 4164 4158 
582 448 601 449 4030 4160 4163 4032 3206 4165 
601 448 468 449 4160 3333 4161 4165 3206 3334 
449 468 602 469 3334 4166 4167 3340 3342 4168 
582 602 583 449 4169 4170 4042 4032 4167 4037 
449 468 601 602 3334 4161 4165 4167 4166 4171 
582 602 449 601 4169 4167 4032 4163 4171 4165 
583 449 602 450 4037 4167 4170 4039 3213 4172 
602 449 469 450 4167 3340 4168 4172 3213 3341 
450 469 603 470 3341 4173 4174 3347 3349 4175 
583 603 584 450 4176 4177 4049 4039 4174 4044 
450 469 602 603 3341 4168 4172 4174 4173 4178 
583 603 450 602 4176 4174 4039 4170 4178 4172 
584 450 603 451 4044 4174 4177 4046 3220 4179 
603 450 470 451 4174 3347 4175 4179 3220 3348 
451 470 604 471 3348 4180 4181 3354 3356 4182 
584 604 585 451 4183 4184 4056 4046 4181 4051 
451 470 603 604 3348 4175 4179 4181 4180 4185 
584 604 451 603 4183 4181 4046 4177 4185 4179 
585 451 604 452 4051 4181 4184 4053 3227 4186 
604 451 471 452 4181 3354 4182 4186 3227 3355 
452 471 605 472 3355 4187 4188 3361 3363 4189 
585 605 586 452 4190 4191 4063 4053 4188 4058 
452 471 604 605 3355 4182 4186 4188 4187 4192 
585 605 452 604 4190 4188 4053 4184 4192 4186 
586 452 605 453 4058 4188 4191 4060 3234 4193 
605 452 472 453 4188 3361 4189 4193 3234 3362 
453 472 606 473 3362 4194 4195 3368 3370 4196 
586 606 587 453 4197 4198 4070 4060 4195 4065 
453 472 605 606 3362 4189 4193 4195 4194 4199 
586 606 453 605 4197 4195 4060 4191 4199 4193 
587 453 606 454 4065 4195 4198 4067 3241 4200 
606 453 473 454 4195 3368 4196 4200 3241 3369 
454 473 607 474 3369 4201 4202 3375 3377 4203 
587 607 588 454 4204 4205 4077 4067 4202 4072 
454 473 606 607 3369 4196 4200 4202 4201 4206 
587 607 454 606 4204 4202 4067 4198 4206 4200 
588 454 607 455 4072 4202 4205 4074 3248 4207 
607 454 474 455 4202 3375 4203 4207 3248 3376 
456 475 609 476 3387 4208 4209 3382 3386 4210 
589 609 590 456 4211 4212 4086 4084 4209 4079 
456 475 608 609 3387 4213 4214 4209 4208 4215 
589 609 456 608 4211 4209 4084 4216 4215 4214 
590 456 609 457 4079 4209 4212 4081 3257 4217 
609 456 476 457 4209 3382 4210 4217 3257 3383 
457 476 610 477 3383 4218 4219 3392 3394 4220 
590 610 591 457 4221 4222 4094 4081 4219 4089 
457 476 609 610 3383 4210 4217 4219 4218 4223 
590 610 457 609 4221 4219 4081 4212 4223 4217 
591 457 610 458 4089 4219 4222 4091 3265 4224 
610 457 477 458 4219 3392 4220 4224 3265 3393 
458 477 611 478 3393 4225 4226 3399 3401 4227 
591 611 592 458 4228 4229 4101 4091 4226 4096 
458 477 610 611 3393 4220 4224 4226 4225 4230 
591 611 458 610 4228 4226 4091 4222 4230 4224 
592 458 611 459 4096 4226 4229 4098 3272 4231 
611 458 478 459 4226 3399 4227 4231 3272 3400 
459 478 612 479 3400 4232 4233 3406 3408 4234 
592 612 593 459 4235 4236 4108 4098 4233 4103 
459 478 611 612 3400 4227 4231 4233 4232 4237 
592 612 459 611 4235 4233 4098 4229 4237 4231 
593 459 612 460 4103 4233 4236 4105 3279 4238 
612 459 479 460 4233 3406 4234 4238 3279 3407 
460 479 613 480 3407 4239 4240 3413 3415 4241 
593 613 594 460 4242 4243 4115 4105 4240 4110 
460 479 612 613 3407 4234 4238 4240 4239 4244 
593 613 460 612 4242 4240 4105 4236 4244 4238 
594 460 613 461 4110 4240 4243 4112 3286 4245 
613 460 480 461 4240 3413 4241 4245 3286 3414 
461 480 614 481 3414 4246 4247 3420 3422 4248 
594 614 595 461 4249 4250 4122 4112 4247 4117 
461 480 613 614 3414 4241 4245 4247 4246 4251 
594 614 461 613 4249 4247 4112 4243 4251 4245 
595 461 614 462 4117 4247 4250 4119 3293 4252 
614 461 481 462 4247 3420 4248 4252 3293 3421 
462 481 615 482 3421 4253 4254 3427 3429 4255 
595 615 596 462 4256 4257 4129 4119 4254 4124 
462 481 614 615 3421 4248 4252 4254 4253 4258 
595 615 462 614 4256 4254 4119 4250 4258 4252 
596 462 615 463 4124 4254 4257 4126 3300 4259 
615 462 482 463 4254 3427 4255 4259 3300 3428 
463 482 616 483 3428 4260 4261 3434 3436 4262 
596 616 597 463 4263 4264 4136 4126 4261 4131 
463 482 615 616 3428 4255 4259 4261 4260 4265 
596 616 463 615 4263 4261 4126 4257 4265 4259 
597 463 616 464 4131 4261 4264 4133 3307 4266 
616 463 483 464 4261 3434 4262 4266 3307 3435 
464 483 617 484 3435 4267 4268 3441 3443 4269 
597 617 598 464 4270 4271 4143 4133 4268 4138 
464 483 616 617 3435 4262 4266 4268 4267 4272 
597 617 464 616 4270 4268 4133 4264 4272 4266 
598 464 617 465 4138 4268 4271 4140 3314 4273 
617 464 484 465 4268 3441 4269 4273 3314 3442 
465 484 618 485 3442 4274 4275 3448 3450 4276 
598 618 599 465 4277 4278 4150 4140 4275 4145 
465 484 617 618 3442 4269 4273 4275 4274 4279 
598 618 465 617 4277 4275 4140 4271 4279 4273 
599 465 618 466 4145 4275 4278 4147 3321 4280 
618 465 485 466 4275 3448 4276 4280 3321 3449 
466 485 619 486 3449 4281 4282 3455 3457 4283 
599 619 600 466 4284 4285 4157 4147 4282 4152 
466 485 618 619 3449 4276 4280 4282 4281 4286 
599 619 466 618 4284 4282 4147 4278 4286 4280 
600 466 619 467 4152 4282 4285 4154 3328 4287 
619 466 486 467 4282 3455 4283 4287 3328 3456 
467 486 620 487 3456 4288 4289 3462 3464 4290 
600 620 601 467 4291 4292 4164 4154 4289 4159 
467 486 619 620 3456 4283 4287 4289 4288 4293 
600 620 467 619 4291 4289 4154 4285 4293 4287 
601 467 620 468 4159 4289 4292 4161 3335 4294 
620 467 487 468 4289 3462 4290 4294 3335 3463 
468 487 621 488 3463 4295 4296 3469 3471 4297 
601 621 602 468 4298 4299 4171 4161 4296 4166 
468 487 620 621 3463 4290 4294 4296 4295 4300 
601 621 468 620 4298 4296 4161 4292 4300 4294 
602 468 621 469 4166 4296 4299 4168 3342 4301 
621 468 488 469 4296 3469 4297 4301 3342 3470 
469 488 622 489 3470 4302 4303 3476 3478 4304 
602 622 603 469 4305 4306 4178 4168 4303 4173 
469 488 621 622 3470 4297 4301 4303 4302 4307 
602 622 469 621 4305 4303 4168 4299 4307 4301 
603 469 622 470 4173 4303 4306 4175 3349 4308 
622 469 489 470 4303 3476 4304 4308 3349 3477 
470 489 623 490 3477 4309 4310 3483 3485 4311 
603 623 604 470 4312 4313 4185 4175 4310 4180 
470 489 622 623 3477 4304 4308 4310 4309 4314 
603 623 470 622 4312 4310 4175 4306 4314 4308 
604 470 623 471 4180 4310 4313 4182 3356 4315 
623 470 490 471 4310 3483 4311 4315 3356 3484 
471 490 624 491 3484 4316 4317 3490 3492 4318 
604 624 605 471 4319 4320 4192 4182 4317 4187 
471 490 623 624 3484 4311 4315 4317 4316 4321 
604 624 471 623 4319 4317 4182 4313 4321 4315 
605 471 624 472 4187 4317 4320 4189 3363 4322 
624 471 491 472 4317 3490 4318 4322 3363 3491 
472 491 625 492 3491 4323 4324 3497 3499 4325 
605 625 606 472 4326 4327 4199 4189 4324 4194 
472 491 624 625 3491 4318 4322 4324 4323 4328 
605 625 472 624 4326 4324 4189 4320 4328 4322 
606 472 625 473 4194 4324 4327 4196 3370 4329 
625 472 492 473 4324 3497 4325 4329 3370 3498 
473 492 626 493 3498 4330 4331 3504 3506 4332 
606 626 607 473 4333 4334 4206 4196 4331 4201 
473 492 625 626 3498 4325 4329 4331 4330 4335 
606 626 473 625 4333 4331 4196 4327 4335 4329 
607 473 626 474 4201 4331 4334 4203 3377 4336 
626 473 493 474 4331 3504 4332 4336 3377 3505 
475 494 628 495 3516 4337 4338 3511 3515 4339 
608 628 609 475 4340 4341 4215 4213 4338 4208 
475 494 627 628 3516 4342 4343 4338 4337 4344 
608 628 475 627 4340 4338 4213 4345 4344 4343 
609 475 628 476 4208 4338 4341 4210 3386 4346 
628 475 495 476 4338 3511 4339 4346 3386 3512 
476 495 629 496 3512 4347 4348 3521 3523 4349 
609 629 610 476 4350 4351 4223 4210 4348 4218 
476 495 628 629 3512 4339 4346 4348 4347 4352 
609 629 476 628 4350 4348 4210 4341 4352 4346 
610 476 629 477 4218 4348 4351 4220 3394 4353 
629 476 496 477 4348 3521 4349 4353 3394 3522 
477 496 630 497 3522 4354 4355 3528 3530 4356 
610 630 611 477 4357 4358 4230 4220 4355 4225 
477 496 629 630 3522 4349 4353 4355 4354 4359 
610 630 477 629 4357 4355 4220 4351 4359 4353 
611 477 630 478 4225 4355 4358 4227 3401 4360 
630 477 497 478 4355 3528 4356 4360 3401 3529 
478 497 631 498 3529 4361 4362 3535 3537 4363 
611 631 612 478 4364 4365 4237 4227 4362 4232 
478 497 630 631 3529 4356 4360 4362 4361 4366 
611 631 478 630 4364 4362 4227 4358 4366 4360 
612 478 631 479 4232 4362 4365 4234 3408 4367 
631 478 498 479 4362 3535 4363 4367 3408 3536 
479 498 632 499 3536 4368 4369 3542 3544 4370 
612 632 613 479 4371 4372 4244 4234 4369 4239 
479 498 631 632 3536 4363 4367 4369 4368 4373 
612 632 479 631 4371 4369 4234 4365 4373 4367 
613 479 632 480 4239 4369 4372 4241 3415 4374 
632 479 499 480 4369 3542 4370 4374 3415 3543 
480 499 633 500 3543 4375 4376 3549 3551 4377 
613 633 614 480 4378 4379 4251 4241 4376 4246 
480 499 632 633 3543 4370 4374 4376 4375 4380 
613 633 480 632 4378 4376 4241 4372 4380 4374 
614 480 633 481 4246 4376 4379 4248 3422 4381 
633 480 500 481 4376 3549 4377 4381 3422 3550 
481 500 634 501 3550 4382 4383 3556 3558 4384 
614 634 615 481 4385 4386 4258 4248 4383 4253 
481 500 633 634 3550 4377 4381 4383 4382 4387 
614 634 481 633 4385 4383 4248 4379 4387 4381 
615 481 634 482 4253 4383 4386 4255 3429 4388 
634 481 501 482 4383 3556 4384 4388 3429 3557 
482 501 635 502 3557 4389 4390 3563 3565 4391 
615 635 616 482 4392 4393 4265 4255 4390 4260 
482 501 634 635 3557 4384 4388 4390 4389 4394 
615 635 482 634 4392 4390 4255 4386 4394 4388 
616 482 635 483 4260 4390 4393 4262 3436 4395 
635 482 502 483 4390 3563 4391 4395 3436 3564 
483 502 636 503 3564 4396 4397 3570 3572 4398 
616 636 617 483 4399 4400 4272 4262 4397 4267 
483 502 635 636 3564 4391 4395 4397 4396 4401 
616 636 483 635 4399 4397 4262 4393 4401 4395 
617 483 636 484 4267 4397 4400 4269 3443 4402 
636 483 503 484 4397 3570 4398 4402 3443 3571 
484 503 637 504 3571 4403 4404 3577 3579 4405 
617 637 618 484 4406 4407 4279 4269 4404 4274 
484 503 636 637 3571 4398 4402 4404 4403 4408 
617 637 484 636 4406 4404 4269 4400 4408 4402 
618 484 637 485 4274 4404 4407 4276 3450 4409 
637 484 504 485 4404 3577 4405 4409 3450 3578 
485 504 638 505 3578 4410 4411 3584 3586 4412 
618 638 619 485 4413 4414 4286 4276 4411 4281 
485 504 637 638 3578 4405 4409 4411 4410 4415 
618 638 485 637 4413 4411 4276 4407 4415 4409 
619 485 638 486 4281 4411 4414 4283 3457 4416 
638 485 505 486 4411 3584 4412 4416 3457 3585 
486 505 639 506 3585 4417 4418 3591 3593 4419 
619 639 620 486 4420 4421 4293 4283 4418 4288 
486 505 638 639 3585 4412 4416 4418 4417 4422 
619 639 486 638 4420 4418 4283 4414 4422 4416 
620 486 639 487 4288 4418 4421 4290 3464 4423 
639 486 506 487 4418 3591 4419 4423 3464 3592 
487 506 640 507 3592 4424 4425 3598 3600 4426 
620 640 621 487 4427 4428 4300 4290 4425 4295 
487 506 639 640 3592 4419 4423 4425 4424 4429 
620 640 487 639 4427 4425 4290 4421 4429 4423 
621 487 640 488 4295 4425 4428 4297 3471 4430 
640 487 507 488 4425 3598 4426 4430 3471 3599 
488 507 641 508 3599 4431 4432 3605 3607 4433 
621 641 622 488 4434 4435 4307 4297 4432 4302 
488 507 640 641 3599 4426 4430 4432 4431 4436 
621 641 488 640 4434 4432 4297 4428 4436 4430 
622 488 641 489 4302 4432 4435 4304 3478 4437 
641 488 508 489 4432 3605 4433 4437 3478 3606 
489 508 642 509 3606 4438 4439 3612 3614 4440 
622 642 623 489 4441 4442 4314 4304 4439 4309 
489 508 641 642 3606 4433 4437 4439 4438 4443 
622 642 489 641 4441 4439 4304 4435 4443 4437 
623 489 642 490 4309 4439 4442 4311 3485 4444 
642 489 509 490 4439 3612 4440 4444 3485 3613 
490 509 643 510 3613 4445 4446 3619 3621 4447 
623 643 624 490 4448 4449 4321 4311 4446 4316 
490 509 642 643 3613 4440 4444 4446 4445 4450 
623 643 490 642 4448 4446 4311 4442 4450 4444 
624 490 643 491 4316 4446 4449 4318 3492 4451 
643 490 510 491 4446 3619 4447 4451 3492 3620 
491 510 644 511 3620 4452 4453 3626 3628 4454 
624 644 625 491 4455 4456 4328 4318 4453 4323 
491 510 643 644 3620 4447 4451 4453 4452 4457 
624 644 491 643 4455 4453 4318 4449 4457 4451 
625 491 644 492 4323 4453 4456 4325 3499 4458 
644 491 511 492 4453 3626 4454 4458 3499 3627 
492 511 645 512 3627 4459 4460 3633 3635 4461 
625 645 626 492 4462 4463 4335 4325 4460 4330 
492 511 644 645 3627 4454 4458 4460 4459 4464 
625 645 492 644 4462 4460 4325 4456 4464 4458 
626 492 645 493 4330 4460 4463 4332 3506 4465 
645 492 512 493 4460 3633 4461 4465 3506 3634 
494 513 647 514 3645 4466 4467 3640 3644 4468 
627 647 628 494 4469 4470 4344 4342 4467 4337 
494 513 646 647 3645 4471 4472 4467 4466 4473 
627 647 494 646 4469 4467 4342 4474 4473 4472 
628 494 647 495 4337 4467 4470 4339 3515 4475 
647 494 514 495 4467 3640 4468 4475 3515 3641 
495 514 648 515 3641 4476 4477 3650 3652 4478 
628 648 629 495 4479 4480 4352 4339 4477 4347 
495 514 647 648 3641 4468 4475 4477 4476 4481 
628 648 495 647 4479 4477 4339 4470 4481 4475 
629 495 648 496 4347 4477 4480 4349 3523 4482 
648 495 515 496 4477 3650 4478 4482 3523 3651 
496 515 649 516 3651 4483 4484 3657 3659 4485 
629 649 630 496 4486 4487 4359 4349 4484 4354 
496 515 648 649 3651 4478 4482 4484 4483 4488 
629 649 496 648 4486 4484 4349 4480 4488 4482 
630 496 649 497 4354 4484 4487 4356 3530 4489 
649 496 516 497 4484 3657 4485 4489 3530 3658 
497 516 650 517 3658 4490 4491 3664 3666 4492 
630 650 631 497 4493 4494 4366 4356 4491 4361 
497 516 649 650 3658 4485 4489 4491 4490 4495 
630 650 497 649 4493 4491 4356 4487 4495 4489 
631 497 650 498 4361 4491 4494 4363 3537 4496 
650 497 517 498 4491 3664 4492 4496 3537 3665 
498 517 651 518 3665 4497 4498 3671 3673 4499 
631 651 632 498 4500 4501 4373 4363 4498 4368 
498 517 650 651 3665 4492 4496 4498 4497 4502 
631 651 498 650 4500 4498 4363 4494 4502 4496 
632 498 651 499 4368 4498 4501 4370 3544 4503 
651 498 518 499 4498 3671 4499 4503 3544 3672 
499 518 652 519 3672 4504 4505 3678 3680 4506 
632 652 633 499 4507 4508 4380 4370 4505 4375 
499 518 651 652 3672 4499 4503 4505 4504 4509 
632 652 499 651 4507 4505 4370 4501 4509 4503 
633 499 652 500 4375 4505 4508 4377 3551 4510 
652 499 519 500 4505 3678 4506 4510 3551 3679 
500 519 653 520 3679 4511 4512 3685 3687 4513 
633 653 634 500 4514 4515 4387 4377 4512 4382 
500 519 652 653 3679 4506 4510 4512 4511 4516 
633 653 500 652 4514 4512 4377 4508 4516 4510 
634 500 653 501 4382 4512 4515 4384 3558 4517 
653 500 520 501 4512 3685 4513 4517 3558 3686 
501 520 654 521 3686 4518 4519 3692 3694 4520 
634 654 635 501 4521 4522 4394 4384 4519 4389 
501 520 653 654 3686 4513 4517 4519 4518 4523 
634 654 501 653 4521 4519 4384 4515 4523 4517 
635 501 654 502 4389 4519 4522 4391 3565 4524 
654 501 521 502 4519 3692 4520 4524 3565 3693 
502 521 655 522 3693 4525 4526 3699 3701 4527 
635 655 636 502 4528 4529 4401 4391 4526 4396 
502 521 654 655 3693 4520 4524 4526 4525 4530 
635 655 502 654 4528 4526 4391 4522 4530 4524 
636 502 655 503 4396 4526 4529 4398 3572 4531 
655 502 522 503 4526 3699 4527 4531 3572 3700 
503 522 656 523 3700 4532 4533 3706 3708 4534 
636 656 637 503 4535 4536 4408 4398 4533 4403 
503 522 655 656 3700 4527 4531 4533 4532 4537 
636 656 503 655 4535 4533 4398 4529 4537 4531 
637 503 656 504 4403 4533 4536 4405 3579 4538 
656 503 523 504 4533 3706 4534 4538 3579 3707 
504 523 657 524 3707 4539 4540 3713 3715 4541 
637 657 638 504 4542 4543 4415 4405 4540 4410 
504 523 656 657 3707 4534 4538 4540 4539 4544 
637 657 504 656 4542 4540 4405 4536 4544 4538 
638 504 657 505 4410 4540 4543 4412 3586 4545 
657 504 524 505 4540 3713 4541 4545 3586 3714 
505 524 658 525 3714 4546 4547 3720 3722 4548 
638 658 639 505 4549 4550 4422 4412 4547 4417 
505 524 657 658 3714 4541 4545 4547 4546 4551 
638 658 505 657 4549 4547 4412 4543 4551 4545 
639 505 658 506 4417 4547 4550 4419 3593 4552 
658 505 525 506 4547 3720 4548 4552 3593 3721 
506 525 659 526 3721 4553 4554 3727 3729 4555 
639 659 640 506 4556 4557 4429 4419 4554 4424 
506 525 658 659 3721 4548 4552 4554 4553 4558 
639 659 506 658 4556 4554 4419 4550 4558 4552 
640 506 659 507 4424 4554 4557 4426 3600 4559 
659 506 526 507 4554 3727 4555 4559 3600 3728 
507 526 660 527 3728 4560 4561 3734 3736 4562 
640 660 641 507 4563 4564 4436 4426 4561 4431 
507 526 659 660 3728 4555 4559 4561 4560 4565 
640 660 507 659 4563 4561 4426 4557 4565 4559 
641 507 660 508 4431 4561 4564 4433 3607 4566 
660 507 527 508 4561 3734 4562 4566 3607 3735 
508 527 661 528 3735 4567 4568 3741 3743 4569 
641 661 642 508 4570 4571 4443 4433 4568 4438 
508 527 660 661 3735 4562 4566 4568 4567 4572 
641 661 508 660 4570 4568 4433 4564 4572 4566 
642 508 661 509 4438 4568 4571 4440 3614 4573 
661 508 528 509 4568 3741 4569 4573 3614 3742 
509 528 662 529 3742 4574 4575 3748 3750 4576 
642 662 643 509 4577 4578 4450 4440 4575 4445 
509 528 661 662 3742 4569 4573 4575 4574 4579 
642 662 509 661 4577 4575 4440 4571 4579 4573 
643 509 662 510 4445 4575 4578 4447 3621 4580 
662 509 529 510 4575 3748 4576 4580 3621 3749 
510 529 663 530 3749 4581 4582 3755 3757 4583 
643 663 644 510 4584 4585 4457 4447 4582 4452 
510 529 662 663 3749 4576 4580 4582 4581 4586 
643 663 510 662 4584 4582 4447 4578 4586 4580 
644 510 663 511 4452 4582 4585 4454 3628 4587 
663 510 530 511 4582 3755 4583 4587 3628 3756 
511 530 664 531 3756 4588 4589 3762 3764 4590 
644 664 645 511 4591 4592 4464 4454 4589 4459 
511 530 663 664 3756 4583 4587 4589 4588 4593 
644 664 511 663 4591 4589 4454 4585 4593 4587 
645 511 664 512 4459 4589 4592 4461 3635 4594 
664 511 531 512 4589 3762 4590 4594 3635 3763 
532 551 685 552 3777 4595 4596 3769 3776 4597 
665 685 666 532 4598 4599 4600 4601 4596 4602 
532 551 684 685 3777 4603 4604 4596 4595 4605 
665 685 532 684 4598 4596 4601 4606 4605 4604 
666 532 685 533 4602 4596 4599 4607 3771 4608 
685 532 552 533 4596 3769 4597 4608 3771 3770 
533 552 686 553 3770 4609 4610 3783 3787 4611 
666 686 667 533 4612 4613 4614 4607 4610 4615 
533 552 685 686 3770 4597 4608 4610 4609 4616 
666 686 533 685 4612 4610 4607 4599 4616 4608 
667 533 686 534 4615 4610 4613 4617 3785 4618 
686 533 553 534 4610 3783 4611 4618 3785 3784 
534 553 687 554 3784 4619 4620 3793 3797 4621 
667 687 668 534 4622 4623 4624 4617 4620 4625 
534 553 686 687 3784 4611 4618 4620 4619 4626 
667 687 534 686 4622 4620 4617 4613 4626 4618 
668 534 687 535 4625 4620 4623 4627 3795 4628 
687 534 554 535 4620 3793 4621 4628 3795 3794 
535 554 688 555 3794 4629 4630 3803 3807 4631 
668 688 669 535 4632 4633 4634 4627 4630 4635 
535 554 687 688 3794 4621 4628 4630 4629 4636 
668 688 535 687 4632 4630 4627 4623 4636 4628 
669 535 688 536 4635 4630 4633 4637 3805 4638 
688 535 555 536 4630 3803 4631 4638 3805 3804 
536 555 689 556 3804 4639 4640 3813 3817 4641 
669 689 670 536 4642 4643 4644 4637 4640 4645 
536 555 688 689 3804 4631 4638 4640 4639 4646 
669 689 536 688 4642 4640 4637 4633 4646 4638 
670 536 689 537 4645 4640 4643 4647 3815 4648 
689 536 556 537 4640 3813 4641 4648 3815 3814 
537 556 690 557 3814 4649 4650 3823 3827 4651 
670 690 671 537 4652 4653 4654 4647 4650 4655 
537 556 689 690 3814 4641 4648 4650 4649 4656 
670 690 537 689 4652 4650 4647 4643 4656 4648 
671 537 690 538 4655 4650 4653 4657 3825 4658 
690 537 557 538 4650 3823 4651 4658 3825 3824 
538 557 691 558 3824 4659 4660 3833 3837 4661 
671 691 672 538 4662 4663 4664 4657 4660 4665 
538 557 690 691 3824 4651 4658 4660 4659 4666 
671 691 538 690 4662 4660 4657 4653 4666 4658 
672 538 691 539 4665 4660 4663 4667 3835 4668 
691 538 558 539 4660 3833 4661 4668 3835 3834 
539 558 692 559 3834 4669 4670 3843 3847 4671 
672 692 673 539 4672 4673 4674 4667 4670 4675 
539 558 691 692 3834 4661 4668 4670 4669 4676 
672 692 539 691 4672 4670 4667 4663 4676 4668 
673 539 692 540 4675 4670 4673 4677 3845 4678 
692 539 559 540 4670 3843 4671 4678 3845 3844 
540 559 693 560 3844 4679 4680 3853 3857 4681 
673 693 674 540 4682 4683 4684 4677 4680 4685 
540 559 692 693 3844 4671 4678 4680 4679 4686 
673 693 540 692 4682 4680 4677 4673 4686 4678 
674 540 693 541 4685 4680 4683 4687 3855 4688 
693 540 560 541 4680 3853 4681 4688 3855 3854 
541 560 694 561 3854 4689 4690 3863 3867 4691 
674 694 675 541 4692 4693 4694 4687 4690 4695 
541 560 693 694 3854 4681 4688 4690 4689 4696 
674 694 541 693 4692 4690 4687 4683 4696 4688 
675 541 694 542 4695 4690 4693 4697 3865 4698 
694 541 561 542 4690 3863 4691 4698 3865 3864 
542 561 695 562 3864 4699 4700 3873 3877 4701 
675 695 676 542 4702 4703 4704 4697 4700 4705 
542 561 694 695 3864 4691 4698 4700 4699 4706 
675 695 542 694 4702 4700 4697 4693 4706 4698 
676 542 695 543 4705 4700 4703 4707 3875 4708 
695 542 562 543 4700 3873 4701 4708 3875 3874 
543 562 696 563 3874 4709 4710 3883 3887 4711 
676 696 677 543 4712 4713 4714 4707 4710 4715 
543 562 695 696 3874 4701 4708 4710 4709 4716 
676 696 543 695 4712 4710 4707 4703 4716 4708 
677 543 696 544 4715 4710 4713 4717 3885 4718 
696 543 563 544 4710 3883 4711 4718 3885 3884 
544 563 697 564 3884 4719 4720 3893 3897 4721 
677 697 678 544 4722 4723 4724 4717 4720 4725 
544 563 696 697 3884 4711 4718 4720 4719 4726 
677 697 544 696 4722 4720 4717 4713 4726 4718 
678 544 697 545 4725 4720 4723 4727 3895 4728 
697 544 564 545 4720 3893 4721 4728 3895 3894 
545 564 698 565 3894 4729 4730 3903 3907 4731 
678 698 679 545 4732 4733 4734 4727 4730 4735 
545 564 697 698 3894 4721 4728 4730 4729 4736 
678 698 545 697 4732 4730 4727 4723 4736 4728 
679 545 698 546 4735 4730 4733 4737 3905 4738 
698 545 565 546 4730 3903 4731 4738 3905 3904 
546 565 699 566 3904 4739 4740 3913 3917 4741 
679 699 680 546 4742 4743 4744 4737 4740 4745 
546 565 698 699 3904 4731 4738 4740 4739 4746 
679 699 546 698 4742 4740 4737 4733 4746 4738 
680 546 699 547 4745 4740 4743 4747 3915 4748 
699 546 566 547 4740 3913 4741 4748 3915 3914 
547 566 700 567 3914 4749 4750 3923 3927 4751 
680 700 681 547 4752 4753 4754 4747 4750 4755 
547 566 699 700 3914 4741 4748 4750 4749 4756 
680 700 547 699 4752 4750 4747 4743 4756 4748 
681 547 700 548 4755 4750 4753 4757 3925 4758 
700 547 567 548 4750 3923 4751 4758 3925 3924 
548 567 701 568 3924 4759 4760 3933 3937 4761 
681 701 682 548 4762 4763 4764 4757 4760 4765 
548 567 700 701 3924 4751 4758 4760 4759 4766 
681 701 548 700 4762 4760 4757 4753 4766 4758 
682 548 701 549 4765 4760 4763 4767 3935 4768 
701 548 568 549 4760 3933 4761 4768 3935 3934 
549 568 702 569 3934 4769 4770 3943 3947 4771 
682 702 683 549 4772 4773 4774 4767 4770 4775 
549 568 701 702 3934 4761 4768 4770 4769 4776 
682 702 549 701 4772 4770 4767 4763 4776 4768 
683 549 702 550 4775 4770 4773 4777 3945 4778 
702 549 569 550 4770 3943 4771 4778 3945 3944 
551 570 704 571 3958 4779 4780 3953 3957 4781 
684 704 685 551 4782 4783 4605 4603 4780 4595 
551 570 703 704 3958 4784 4785 4780 4779 4786 
684 704 551 703 4782 4780 4603 4787 4786 4785 
685 551 704 552 4595 4780 4783 4597 3776 4788 
704 551 571 552 4780 3953 4781 4788 3776 3954 
552 571 705 572 3954 4789 4790 3963 3965 4791 
685 705 686 552 4792 4793 4616 4597 4790 4609 
552 571 704 705 3954 4781 4788 4790 4789 4794 
685 705 552 704 4792 4790 4597 4783 4794 4788 
686 552 705 553 4609 4790 4793 4611 3787 4795 
705 552 572 553 4790 3963 4791 4795 3787 3964 
553 572 706 573 3964 4796 4797 3970 3972 4798 
686 706 687 553 4799 4800 4626 4611 4797 4619 
553 572 705 706 3964 4791 4795 4797 4796 4801 
686 706 553 705 4799 4797 4611 4793 4801 4795 
687 553 706 554 4619 4797 4800 4621 3797 4802 
706 553 573 554 4797 3970 4798 4802 3797 3971 
554 573 707 574 3971 4803 4804 3977 3979 4805 
687 707 688 554 4806 4807 4636 4621 4804 4629 
554 573 706 707 3971 4798 4802 4804 4803 4808 
687 707 554 706 4806 4804 4621 4800 4808 4802 
688 554 707 555 4629 4804 4807 4631 3807 4809 
707 554 574 555 4804 3977 4805 4809 3807 3978 
555 574 708 575 3978 4810 4811 3984 3986 4812 
688 708 689 555 4813 4814 4646 4631 4811 4639 
555 574 707 708 3978 4805 4809 4811 4810 4815 
688 708 555 707 4813 4811 4631 4807 4815 4809 
689 555 708 556 4639 4811 4814 4641 3817 4816 
708 555 575 556 4811 3984 4812 4816 3817 3985 
556 575 709 576 3985 4817 4818 3991 3993 4819 
689 709 690 556 4820 4821 4656 4641 4818 4649 
556 575 708 709 3985 4812 4816 4818 4817 4822 
689 709 556 708 4820 4818 4641 4814 4822 4816 
690 556 709 557 4649 4818 4821 4651 3827 4823 
709 556 576 557 4818 3991 4819 4823 3827 3992 
557 576 710 577 3992 4824 4825 3998 4000 4826 
690 710 691 557 4827 4828 4666 4651 4825 4659 
557 576 709 710 3992 4819 4823 4825 4824 4829 
690 710 557 709 4827 4825 4651 4821 4829 4823 
691 557 710 558 4659 4825 4828 4661 3837 4830 
710 557 577 558 4825 3998 4826 4830 3837 3999 
558 577 711 578 3999 4831 4832 4005 4007 4833 
691 711 692 558 4834 4835 4676 4661 4832 4669 
558 577 710 711 3999 4826 4830 4832 4831 4836 
691 711 558 710 4834 4832 4661 4828 4836 4830 
692 558 711 559 4669 4832 4835 4671 3847 4837 
711 558 578 559 4832 4005 4833 4837 3847 4006 
559 578 712 579 4006 4838 4839 4012 4014 4840 
692 712 693 559 4841 4842 4686 4671 4839 4679 
559 578 711 712 4006 4833 4837 4839 4838 4843 
692 712 559 711 4841 4839 4671 4835 4843 4837 
693 559 712 560 4679 4839 4842 4681 3857 4844 
712 559 579 560 4839 4012 4840 4844 3857 4013 
560 579 713 580 4013 4845 4846 4019 4021 4847 
693 713 694 560 4848 4849 4696 4681 4846 4689 
560 579 712 713 4013 4840 4844 4846 4845 4850 
693 713 560 712 4848 4846 4681 4842 4850 4844 
694 560 713 561 4689 4846 4849 4691 3867 4851 
713 560 580 561 4846 4019 4847 4851 3867 4020 
561 580 714 581 4020 4852 4853 4026 4028 4854 
694 714 695 561 4855 4856 4706 4691 4853 4699 
561 580 713 714 4020 4847 4851 4853 4852 4857 
694 714 561 713 4855 4853 4691 4849 4857 4851 
695 561 714 562 4699 4853 4856 4701 3877 4858 
714 561 581 562 4853 4026 4854 4858 3877 4027 
562 581 715 582 4027 4859 4860 4033 4035 4861 
695 715 696 562 4862 4863 4716 4701 4860 4709 
562 581 714 715 4027 4854 4858 4860 4859 4864 
695 715 562 714 4862 4860 4701 4856 4864 4858 
696 562 715 563 4709 4860 4863 4711 3887 4865 
715 562 582 563 4860 4033 4861 4865 3887 4034 
563 582 716 583 4034 4866 4867 4040 4042 4868 
696 716 697 563 4869 4870 4726 4711 4867 4719 
563 582 715 716 4034 4861 4865 4867 4866 4871 
696 716 563 715 4869 4867 4711 4863 4871 4865 
697 563 716 564 4719 4867 4870 4721 3897 4872 
716 563 583 564 4867 4040 4868 4872 3897 4041 
564 583 717 584 4041 4873 4874 4047 4049 4875 
697 717 698 564 4876 4877 4736 4721 4874 4729 
564 583 716 717 4041 4868 4872 4874 4873 4878 
697 717 564 716 4876 4874 4721 4870 4878 4872 
698 564 717 565 4729 4874 4877 4731 3907 4879 
717 564 584 565 4874 4047 4875 4879 3907 4048 
565 584 718 585 4048 4880 4881 4054 4056 4882 
698 718 699 565 4883 4884 4746 4731 4881 4739 
565 584 717 718 4048 4875 4879 4881 4880 4885 
698 718 565 717 4883 4881 4731 4877 4885 4879 
699 565 718 566 4739 4881 4884 4741 3917 4886 
718 565 585 566 4881 4054 4882 4886 3917 4055 
566 585 719 586 4055 4887 4888 4061 4063 4889 
699 719 700 566 4890 4891 4756 4741 4888 4749 
566 585 718 719 4055 4882 4886 4888 4887 4892 
699 719 566 718 4890 4888 4741 4884 4892 4886 
700 566 719 567 4749 4888 4891 4751 3927 4893 
719 566 586 567 4888 4061 4889 4893 3927 4062 
567 586 720 587 4062 4894 4895 4068 4070 4896 
700 720 701 567 4897 4898 4766 4751 4895 4759 
567 586 719 720 4062 4889 4893 4895 4894 4899 
700 720 567 719 4897 4895 4751 4891 4899 4893 
701 567 720 568 4759 4895 4898 4761 3937 4900 
720 567 587 568 4895 4068 4896 4900 3937 4069 
568 587 721 588 4069 4901 4902 4075 4077 4903 
701 721 702 568 4904 4905 4776 4761 4902 4769 
568 587 720 721 4069 4896 4900 4902 4901 4906 
701 721 568 720 4904 4902 4761 4898 4906 4900 
702 568 721 569 4769 4902 4905 4771 3947 4907 
721 568 588 569 4902 4075 4903 4907 3947 4076 
570 589 723 590 4087 4908 4909 4082 4086 4910 
703 723 704 570 4911 4912 4786 4784 4909 4779 
570 589 722 723 4087 4913 4914 4909 4908 4915 
703 723 570 722 4911 4909 4784 4916 4915 4914 
704 570 723 571 4779 4909 4912 4781 3957 4917 
723 570 590 571 4909 4082 4910 4917 3957 4083 
571 590 724 591 4083 4918 4919 4092 4094 4920 
704 724 705 571 4921 4922 4794 4781 4919 4789 
571 590 723 724 4083 4910 4917 4919 4918 4923 
704 724 571 723 4921 4919 4781 4912 4923 4917 
705 571 724 572 4789 4919 4922 4791 3965 4924 
724 571 591 572 4919 4092 4920 4924 3965 4093 
572 591 725 592 4093 4925 4926 4099 4101 4927 
705 725 706 572 4928 4929 4801 4791 4926 4796 
572 591 724 725 4093 4920 4924 4926 4925 4930 
705 725 572 724 4928 4926 4791 4922 4930 4924 
706 572 725 573 4796 4926 4929 4798 3972 4931 
725 572 592 573 4926 4099 4927 4931 3972 4100 
573 592 726 593 4100 4932 4933 4106 4108 4934 
706 726 707 573 4935 4936 4808 4798 4933 4803 
573 592 725 726 4100 4927 4931 4933 4932 4937 
706 726 573 725 4935 4933 4798 4929 4937 4931 
707 573 726 574 4803 4933 4936 4805 3979 4938 
726 573 593 574 4933 4106 4934 4938 3979 4107 
574 593 727 594 4107 4939 4940 4113 4115 4941 
707 727 708 574 4942 4943 4815 4805 4940 4810 
574 593 726 727 4107 4934 4938 4940 4939 4944 
707 727 574 726 4942 4940 4805 4936 4944 4938 
708 574 727 575 4810 4940 4943 4812 3986 4945 
727 574 594 575 4940 4113 4941 4945 3986 4114 
575 594 728 595 4114 4946 4947 4120 4122 4948 
708 728 709 575 4949 4950 4822 4812 4947 4817 
575 594 727 728 4114 4941 4945 4947 4946 4951 
708 728 575 727 4949 4947 4812 4943 4951 4945 
709 575 728 576 4817 4947 4950 4819 3993 4952 
728 575 595 576 4947 4120 4948 4952 3993 4121 
576 595 729 596 4121 4953 4954 4127 4129 4955 
709 729 710 576 4956 4957 4829 4819 4954 4824 
576 595 728 729 4121 4948 4952 4954 4953 4958 
709 729 576 728 4956 4954 4819 4950 4958 4952 
710 576 729 577 4824 4954 4957 4826 4000 4959 
729 576 596 577 4954 4127 4955 4959 4000 4128 
577 596 730 597 4128 4960 4961 4134 4136 4962 
710 730 711 577 4963 4964 4836 4826 4961 4831 
577 596 729 730 4128 4955 4959 4961 4960 4965 
710 730 577 729 4963 4961 4826 4957 4965 4959 
711 577 730 578 4831 4961 4964 4833 4007 4966 
730 577 597 578 4961 4134 4962 4966 4007 4135 
578 597 731 598 4135 4967 4968 4141 4143 4969 
711 731 712 578 4970 4971 4843 4833 4968 4838 
578 597 730 731 4135 4962 4966 4968 4967 4972 
711 731 578 730 4970 4968 4833 4964 4972 4966 
712 578 731 579 4838 4968 4971 4840 4014 4973 
731 578 598 579 4968 4141 4969 4973 4014 4142 
579 598 732 599 4142 4974 4975 4148 4150 4976 
712 732 713 579 4977 4978 4850 4840 4975 4845 
579 598 731 732 4142 4969 4973 4975 4974 4979 
712 732 579 731 4977 4975 4840 4971 4979 4973 
713 579 732 580 4845 4975 4978 4847 4021 4980 
732 579 599 580 4975 4148 4976 4980 4021 4149 
580 599 733 600 4149 4981 4982 4155 4157 4983 
713 733 714 580 4984 4985 4857 4847 4982 4852 
580 599 732 733 4149 4976 4980 4982 4981 4986 
713 733 580 732 4984 4982 4847 4978 4986 4980 
714 580 733 581 4852 4982 4985 4854 4028 4987 
733 580 600 581 4982 4155 4983 4987 4028 4156 
581 600 734 601 4156 4988 4989 4162 4164 4990 
714 734 715 581 4991 4992 4864 4854 4989 4859 
581 600 733 734 4156 4983 4987 4989 4988 4993 
714 734 581 733 4991 4989 4854 4985 4993 4987 
715 581 734 582 4859 4989 4992 4861 4035 4994 
734 581 601 582 4989 4162 4990 4994 4035 4163 
582 601 735 602 4163 4995 4996 4169 4171 4997 
715 735 716 582 4998 4999 4871 4861 4996 4866 
582 601 734 735 4163 4990 4994 4996 4995 5000 
715 735 582 734 4998 4996 4861 4992 5000 4994 
716 582 735 583 4866 4996 4999 4868 4042 5001 
735 582 602 583 4996 4169 4997 5001 4042 4170 
583 602 736 603 4170 5002 5003 4176 4178 5004 
716 736 717 583 5005 5006 4878 4868 5003 4873 
583 602 735 736 4170 4997 5001 5003 5002 5007 
716 736 583 735 5005 5003 4868 4999 5007 5001 
717 583 736 584 4873 5003 5006 4875 4049 5008 
736 583 603 584 5003 4176 5004 5008 4049 4177 
584 603 737 604 4177 5009 5010 4183 4185 5011 
717 737 718 584 5012 5013 4885 4875 5010 4880 
584 603 736 737 4177 5004 5008 5010 5009 5014 
717 737 584 736 5012 5010 4875 5006 5014 5008 
718 584 737 585 4880 5010 5013 4882 4056 5015 
737 584 604 585 5010 4183 5011 5015 4056 4184 
585 604 738 605 4184 5016 5017 4190 4192 5018 
718 738 719 585 5019 5020 4892 4882 5017 4887 
585 604 737 738 4184 5011 5015 5017 5016 5021 
718 738 585 737 5019 5017 4882 5013 5021 5015 
719 585 738 586 4887 5017 5020 4889 4063 5022 
738 585 605 586 5017 4190 5018 5022 4063 4191 
586 605 739 606 4191 5023 5024 4197 4199 5025 
719 739 720 586 5026 5027 4899 4889 5024 4894 
586 605 738 739 4191 5018 5022 5024 5023 5028 
719 739 586 738 5026 5024 4889 5020 5028 5022 
720 586 739 587 4894 5024 5027 4896 4070 5029 
739 586 606 587 5024 4197 5025 5029 4070 4198 
587 606 740 607 4198 5030 5031 4204 4206 5032 
720 740 721 587 5033 5034 4906 4896 5031 4901 
587 606 739 740 4198 5025 5029 5031 5030 5035 
720 740 587 739 5033 5031 4896 5027 5035 5029 
721 587 740 588 4901 5031 5034 4903 4077 5036 
740 587 607 588 5031 4204 5032 5036 4077 4205 
589 608 742 609 4216 5037 5038 4211 4215 5039 
722 742 723 589 5040 5041 4915 4913 5038 4908 
589 608 741 742 4216 5042 5043 5038 5037 5044 
722 742 589 741 5040 5038 4913 5045 5044 5043 
723 589 742 590 4908 5038 5041 4910 4086 5046 
742 589 609 590 5038 4211 5039 5046 4086 4212 
590 609 743 610 4212 5047 5048 4221 4223 5049 
723 743 724 590 5050 5051 4923 4910 5048 4918 
590 609 742 743 4212 5039 5046 5048 5047 5052 
723 743 590 742 5050 5048 4910 5041 5052 5046 
724 590 743 591 4918 5048 5051 4920 4094 5053 
743 590 610 591 5048 4221 5049 5053 4094 4222 
591 610 744 611 4222 5054 5055 4228 4230 5056 
724 744 725 591 5057 5058 4930 4920 5055 4925 
591 610 743 744 4222 5049 5053 5055 5054 5059 
724 744 591 743 5057 5055 4920 5051 5059 5053 
725 591 744 592 4925 5055 5058 4927 4101 5060 
744 591 611 592 5055 4228 5056 5060 4101 4229 
592 611 745 612 4229 5061 5062 4235 4237 5063 
725 745 726 592 5064 5065 4937 4927 5062 4932 
592 611 744 745 4229 5056 5060 5062 5061 5066 
725 745 592 744 5064 5062 4927 5058 5066 5060 
726 592 745 593 4932 5062 5065 4934 4108 5067 
745 592 612 593 5062 4235 5063 5067 4108 4236 
593 612 746 613 4236 5068 5069 4242 4244 5070 
726 746 727 593 5071 5072 4944 4934 5069 4939 
593 612 745 746 4236 5063 5067 5069 5068 5073 
726 746 593 745 5071 5069 4934 5065 5073 5067 
727 593 746 594 4939 5069 5072 4941 4115 5074 
746 593 613 594 5069 4242 5070 5074 4115 4243 
594 613 747 614 4243 5075 5076 4249 4251 5077 
727 747 728 594 5078 5079 4951 4941 5076 4946 
594 613 746 747 4243 5070 5074 5076 5075 5080 
727 747 594 746 5078 5076 4941 5072 5080 5074 
728 594 747 595 4946 5076 5079 4948 4122 5081 
747 594 614 595 5076 4249 5077 5081 4122 4250 
595 614 748 615 4250 5082 5083 4256 4258 5084 
728 748 729 595 5085 5086 4958 4948 5083 4953 
595 614 747 748 4250 5077 5081 5083 5082 5087 
728 748 595 747 5085 5083 4948 5079 5087 5081 
729 595 748 596 4953 5083 5086 4955 4129 5088 
748 595 615 596 5083 4256 5084 5088 4129 4257 
596 615 749 616 4257 5089 5090 4263 4265 5091 
729 749 730 596 5092 5093 4965 4955 5090 4960 
596 615 748 749 4257 5084 5088 5090 5089 5094 
729 749 596 748 5092 5090 4955 5086 5094 5088 
730 596 749 597 4960 5090 5093 4962 4136 5095 
749 596 616 597 5090 4263 5091 5095 4136 4264 
597 616 750 617 4264 5096 5097 4270 4272 5098 
730 750 731 597 5099 5100 4972 4962 5097 4967 
597 616 749 750 4264 5091 5095 5097 5096 5101 
730 750 597 749 5099 5097 4962 5093 5101 5095 
731 597 750 598 4967 5097 5100 4969 4143 5102 
750 597 617 598 5097 4270 5098 5102 4143 4271 
598 617 751 618 4271 5103 5104 4277 4279 5105 
731 751 732 598 5106 5107 4979 4969 5104 4974 
598 617 750 751 4271 5098 5102 5104 5103 5108 
731 751 598 750 5106 5104 4969 5100 5108 5102 
732 598 751 599 4974 5104 5107 4976 4150 5109 
751 598 618 599 5104 4277 5105 5109 4150 4278 
599 618 752 619 4278 5110 5111 4284 4286 5112 
732 752 733 599 5113 5114 4986 4976 5111 4981 
599 618 751 752 4278 5105 5109 5111 5110 5115 
732 752 599 751 5113 5111 4976 5107 5115 5109 
733 599 752 600 4981 5111 5114 4983 4157 5116 
752 599 619 600 5111 4284 5112 5116 4157 4285 
600 619 753 620 4285 5117 5118 4291 4293 5119 
733 753 734 600 5120 5121 4993 4983 5118 4988 
600 619 752 753 4285 5112 5116 5118 5117 5122 
733 753 600 752 5120 5118 4983 5114 5122 5116 
734 600 753 601 4988 5118 5121 4990 4164 5123 
753 600 620 601 5118 4291 5119 5123 4164 4292 
601 620 754 621 4292 5124 5125 4298 4300 5126 
734 754 735 601 5127 5128 5000 4990 5125 4995 
601 620 753 754 4292 5119 5123 5125 5124 5129 
734 754 601 753 5127 5125 4990 5121 5129 5123 
735 601 754 602 4995 5125 5128 4997 4171 5130 
754 601 621 602 5125 4298 5126 5130 4171 4299 
602 621 755 622 4299 5131 5132 4305 4307 5133 
735 755 736 602 5134 5135 5007 4997 5132 5002 
602 621 754 755 4299 5126 5130 5132 5131 5136 
735 755 602 754 5134 5132 4997 5128 5136 5130 
736 602 755 603 5002 5132 5135 5004 4178 5137 
755 602 622 603 5132 4305 5133 5137 4178 4306 
603 622 756 623 4306 5138 5139 4312 4314 5140 
736 756 737 603 5141 5142 5014 5004 5139 5009 
603 622 755 756 4306 5133 5137 5139 5138 5143 
736 756 603 755 5141 5139 5004 5135 5143 5137 
737 603 756 604 5009 5139 5142 5011 4185 5144 
756 603 623 604 5139 4312 5140 5144 4185 4313 
604 623 757 624 4313 5145 5146 4319 4321 5147 
737 757 738 604 5148 5149 5021 5011 5146 5016 
604 623 756 757 4313 5140 5144 5146 5145 5150 
737 757 604 756 5148 5146 5011 5142 5150 5144 
738 604 757 605 5016 5146 5149 5018 4192 5151 
757 604 624 605 5146 4319 5147 5151 4192 4320 
605 624 758 625 4320 5152 5153 4326 4328 5154 
738 758 739 605 5155 5156 5028 5018 5153 5023 
605 624 757 758 4320 5147 5151 5153 5152 5157 
738 758 605 757 5155 5153 5018 5149 5157 5151 
739 605 758 606 5023 5153 5156 5025 4199 5158 
758 605 625 606 5153 4326 5154 5158 4199 4327 
606 625 759 626 4327 5159 5160 4333 4335 5161 
739 759 740 606 5162 5163 5035 5025 5160 5030 
606 625 758 759 4327 5154 5158 5160 5159 5164 
739 759 606 758 5162 5160 5025 5156 5164 5158 
740 606 759 607 5030 5160 5163 5032 4206 5165 
759 606 626 607 5160 4333 5161 5165 4206 4334 
608 627 761 628 4345 5166 5167 4340 4344 5168 
741 761 742 608 5169 5170 5044 5042 5167 5037 
608 627 760 761 4345 5171 5172 5167 5166 5173 
741 761 608 760 5169 5167 5042 5174 5173 5172 
742 608 761 609 5037 5167 5170 5039 4215 5175 
761 608 628 609 5167 4340 5168 5175 4215 4341 
609 628 762 629 4341 5176 5177 4350 4352 5178 
742 762 743 609 5179 5180 5052 5039 5177 5047 
609 628 761 762 4341 5168 5175 5177 5176 5181 
742 762 609 761 5179 5177 5039 5170 5181 5175 
743 609 762 610 5047 5177 5180 5049 4223 5182 
762 609 629 610 5177 4350 5178 5182 4223 4351 
610 629 763 630 4351 5183 5184 4357 4359 5185 
743 763 744 610 5186 5187 5059 5049 5184 5054 
610 629 762 763 4351 5178 5182 5184 5183 5188 
743 763 610 762 5186 5184 5049 5180 5188 5182 
744 610 763 611 5054 5184 5187 5056 4230 5189 
763 610 630 611 5184 4357 5185 5189 4230 4358 
611 630 764 631 4358 5190 5191 4364 4366 5192 
744 764 745 611 5193 5194 5066 5056 5191 5061 
611 630 763 764 4358 5185 5189 5191 5190 5195 
744 764 611 763 5193 5191 5056 5187 5195 5189 
745 611 764 612 5061 5191 5194 5063 4237 5196 
764 611 631 612 5191 4364 5192 5196 4237 4365 
612 631 765 632 4365 5197 5198 4371 4373 5199 
745 765 746 612 5200 5201 5073 5063 5198 5068 
612 631 764 765 4365 5192 5196 5198 5197 5202 
745 765 612 764 5200 5198 5063 5194 5202 5196 
746 612 765 613 5068 5198 5201 5070 4244 5203 
765 612 632 613 5198 4371 5199 5203 4244 4372 
613 632 766 633 4372 5204 5205 4378 4380 5206 
746 766 747 613 5207 5208 5080 5070 5205 5075 
613 632 765 766 4372 5199 5203 5205 5204 5209 
746 766 613 765 5207 5205 5070 5201 5209 5203 
747 613 766 614 5075 5205 5208 5077 4251 5210 
766 613 633 614 5205 4378 5206 5210 4251 4379 
614 633 767 634 4379 5211 5212 4385 4387 5213 
747 767 748 614 5214 5215 5087 5077 5212 5082 
614 633 766 767 4379 5206 5210 5212 5211 5216 
747 767 614 766 5214 5212 5077 5208 5216 5210 
748 614 767 615 5082 5212 5215 5084 4258 5217 
767 614 634 615 5212 4385 5213 5217 4258 4386 
615 634 768 635 4386 5218 5219 4392 4394 5220 
748 768 749 615 5221 5222 5094 5084 5219 5089 
615 634 767 768 4386 5213 5217 5219 5218 5223 
748 768 615 767 5221 5219 5084 5215 5223 5217 
749 615 768 616 5089 5219 5222 5091 4265 5224 
768 615 635 616 5219 4392 5220 5224 4265 4393 
616 635 769 636 4393 5225 5226 4399 4401 5227 
749 769 750 616 5228 5229 5101 5091 5226 5096 
616 635 768 769 4393 5220 5224 5226 5225 5230 
749 769 616 768 5228 5226 5091 5222 5230 5224 
750 616 769 617 5096 5226 5229 5098 4272 5231 
769 616 636 617 5226 4399 5227 5231 4272 4400 
617 636 770 637 4400 5232 5233 4406 4408 5234 
750 770 751 617 5235 5236 5108 5098 5233 5103 
617 636 769 770 4400 5227 5231 5233 5232 5237 
750 770 617 769 5235 5233 5098 5229 5237 5231 
751 617 770 618 5103 5233 5236 5105 4279 5238 
770 617 637 618 5233 4406 5234 5238 4279 4407 
618 637 771 638 4407 5239 5240 4413 4415 5241 
751 771 752 618 5242 5243 5115 5105 5240 5110 
618 637 770 771 4407 5234 5238 5240 5239 5244 
751 771 618 770 5242 5240 5105 5236 5244 5238 
752 618 771 619 5110 5240 5243 5112 4286 5245 
771 618 638 619 5240 4413 5241 5245 4286 4414 
619 638 772 639 4414 5246 5247 4420 4422 5248 
752 772 753 619 5249 5250 5122 5112 5247 5117 
619 638 771 772 4414 5241 5245 5247 5246 5251 
752 772 619 771 5249 5247 5112 5243 5251 5245 
753 619 772 620 5117 5247 5250 5119 4293 5252 
772 619 639 620 5247 4420 5248 5252 4293 4421 
620 639 773 640 4421 5253 5254 4427 4429 5255 
753 773 754 620 5256 5257 5129 5119 5254 5124 
620 639 772 773 4421 5248 5252 5254 5253 5258 
753 773 620 772 5256 5254 5119 5250 5258 5252 
754 620 773 621 5124 5254 5257 5126 4300 5259 
773 620 640 621 5254 4427 5255 5259 4300 4428 
621 640 774 641 4428 5260 5261 4434 4436 5262 
754 774 755 621 5263 5264 5136 5126 5261 5131 
621 640 773 774 4428 5255 5259 5261 5260 5265 
754 774 621 773 5263 5261 5126 5257 5265 5259 
755 621 774 622 5131 5261 5264 5133 4307 5266 
774 621 641 622 5261 4434 5262 5266 4307 4435 
622 641 775 642 4435 5267 5268 4441 4443 5269 
755 775 756 622 5270 5271 5143 5133 5268 5138 
622 641 774 775 4435 5262 5266 5268 5267 5272 
755 775 622 774 5270 5268 5133 5264 5272 5266 
756 622 775 623 5138 5268 5271 5140 4314 5273 
775 622 642 623 5268 4441 5269 5273 4314 4442 
623 642 776 643 4442 5274 5275 4448 4450 5276 
756 776 757 623 5277 5278 5150 5140 5275 5145 
623 642 775 776 4442 5269 5273 5275 5274 5279 
756 776 623 775 5277 5275 5140 5271 5279 5273 
757 623 776 624 5145 5275 5278 5147 4321 5280 
776 623 643 624 5275 4448 5276 5280 4321 4449 
624 643 777 644 4449 5281 5282 4455 4457 5283 
757 777 758 624 5284 5285 5157 5147 5282 5152 
624 643 776 777 4449 5276 5280 5282 5281 5286 
757 777 624 776 5284 5282 5147 5278 5286 5280 
758 624 777 625 5152 5282 5285 5154 4328 5287 
777 624 644 625 5282 4455 5283 5287 4328 4456 
625 644 778 645 4456 5288 5289 4462 4464 5290 
758 778 759 625 5291 5292 5164 5154 5289 5159 
625 644 777 778 4456 5283 5287 5289 5288 5293 
758 778 625 777 5291 5289 5154 5285 5293 5287 
759 625 778 626 5159 5289 5292 5161 4335 5294 
778 625 645 626 5289 4462 5290 5294 4335 4463 
627 646 780 647 4474 5295 5296 4469 4473 5297 
760 780 761 627 5298 5299 5173 5171 5296 5166 
627 646 779 780 4474 5300 5301 5296 5295 5302 
760 780 627 779 5298 5296 5171 5303 5302 5301 
761 627 780 628 5166 5296 5299 5168 4344 5304 
780 627 647 628 5296 4469 5297 5304 4344 4470 
628 647 781 648 4470 5305 5306 4479 4481 5307 
761 781 762 628 5308 5309 5181 5168 5306 5176 
628 647 780 781 4470 5297 5304 5306 5305 5310 
761 781 628 780 5308 5306 5168 5299 5310 5304 
762 628 781 629 5176 5306 5309 5178 4352 5311 
781 628 648 629 5306 4479 5307 5311 4352 4480 
629 648 782 649 4480 5312 5313 4486 4488 5314 
762 782 763 629 5315 5316 5188 5178 5313 5183 
629 648 781 782 4480 5307 5311 5313 5312 5317 
762 782 629 781 5315 5313 5178 5309 5317 5311 
763 629 782 630 5183 5313 5316 5185 4359 5318 
782 629 649 630 5313 4486 5314 5318 4359 4487 
630 649 783 650 4487 5319 5320 4493 4495 5321 
763 783 764 630 5322 5323 5195 5185 5320 5190 
630 649 782 783 4487 5314 5318 5320 5319 5324 
763 783 630 782 5322 5320 5185 5316 5324 5318 
764 630 783 631 5190 5320 5323 5192 4366 5325 
783 630 650 631 5320 4493 5321 5325 4366 4494 
631 650 784 651 4494 5326 5327 4500 4502 5328 
764 784 765 631 5329 5330 5202 5192 5327 5197 
631 650 783 784 4494 5321 5325 5327 5326 5331 
764 784 631 783 5329 5327 5192 5323 5331 5325 
765 631 784 632 5197 5327 5330 5199 4373 5332 
784 631 651 632 5327 4500 5328 5332 4373 4501 
632 651 785 652 4501 5333 5334 4507 4509 5335 
765 785 766 632 5336 5337 5209 5199 5334 5204 
632 651 784 785 4501 5328 5332 5334 5333 5338 
765 785 632 784 5336 5334 5199 5330 5338 5332 
766 632 785 633 5204 5334 5337 5206 4380 5339 
785 632 652 633 5334 4507 5335 5339 4380 4508 
633 652 786 653 4508 5340 5341 4514 4516 5342 
766 786 767 633 5343 5344 5216 5206 5341 5211 
633 652 785 786 4508 5335 5339 5341 5340 5345 
766 786 633 785 5343 5341 5206 5337 5345 5339 
767 633 786 634 5211 5341 5344 5213 4387 5346 
786 633 653 634 5341 4514 5342 5346 4387 4515 
634 653 787 654 4515 5347 5348 4521 4523 5349 
767 787 768 634 5350 5351 5223 5213 5348 5218 
634 653 786 787 4515 5342 5346 5348 5347 5352 
767 787 634 786 5350 5348 5213 5344 5352 5346 
768 634 787 635 5218 5348 5351 5220 4394 5353 
787 634 654 635 5348 4521 5349 5353 4394 4522 
635 654 788 655 4522 5354 5355 4528 4530 5356 
768 788 769 635 5357 5358 5230 5220 5355 5225 
635 654 787 788 4522 5349 5353 5355 5354 5359 
768 788 635 787 5357 5355 5220 5351 5359 5353 
769 635 788 636 5225 5355 5358 5227 4401 5360 
788 635 655 636 5355 4528 5356 5360 4401 4529 
636 655 789 656 4529 5361 5362 4535 4537 5363 
769 789 770 636 5364 5365 5237 5227 5362 5232 
636 655 788 789 4529 5356 5360 5362 5361 5366 
769 789 636 788 5364 5362 5227 5358 5366 5360 
770 636 789 637 5232 5362 5365 5234 4408 5367 
789 636 656 637 5362 4535 5363 5367 4408 4536 
637 656 790 657 4536 5368 5369 4542 4544 5370 
770 790 771 637 5371 5372 5244 5234 5369 5239 
637 656 789 790 4536 5363 5367 5369 5368 5373 
770 790 637 789 5371 5369 5234 5365 5373 5367 
771 637 790 638 5239 5369 5372 5241 4415 5374 
790 637 657 638 5369 4542 5370 5374 4415 4543 
638 657 791 658 4543 5375 5376 4549 4551 5377 
771 791 772 638 5378 5379 5251 5241 5376 5246 
638 657 790 791 4543 5370 5374 5376 5375 5380 
771 791 638 790 5378 5376 5241 5372 5380 5374 
772 638 791 639 5246 5376 5379 5248 4422 5381 
791 638 658 639 5376 4549 5377 5381 4422 4550 
639 658 792 659 4550 5382 5383 4556 4558 5384 
772 792 773 639 5385 5386 5258 5248 5383 5253 
639 658 791 792 4550 5377 5381 5383 5382 5387 
772 792 639 791 5385 5383 5248 5379 5387 5381 
773 639 792 640 5253 5383 5386 5255 4429 5388 
792 639 659 640 5383 4556 5384 5388 4429 4557 
640 659 793 660 4557 5389 5390 4563 4565 5391 
773 793 774 640 5392 5393 5265 5255 5390 5260 
640 659 792 793 4557 5384 5388 5390 5389 5394 
773 793 640 792 5392 5390 5255 5386 5394 5388 
774 640 793 641 5260 5390 5393 5262 4436 5395 
793 640 660 641 5390 4563 5391 5395 4436 4564 
641 660 794 661 4564 5396 5397 4570 4572 5398 
774 794 775 641 5399 5400 5272 5262 5397 5267 
641 660 793 794 4564 5391 5395 5397 5396 5401 
774 794 641 793 5399 5397 5262 5393 5401 5395 
775 641 794 642 5267 5397 5400 5269 4443 5402 
794 641 661 642 5397 4570 5398 5402 4443 4571 
642 661 795 662 4571 5403 5404 4577 4579 5405 
775 795 776 642 5406 5407 5279 5269 5404 5274 
642 661 794 795 4571 5398 5402 5404 5403 5408 
775 795 642 794 5406 5404 5269 5400 5408 5402 
776 642 795 643 5274 5404 5407 5276 4450 5409 
795 642 662 643 5404 4577 5405 5409 4450 4578 
643 662 796 663 4578 5410 5411 4584 4586 5412 
776 796 777 643 5413 5414 5286 5276 5411 5281 
643 662 795 796 4578 5405 5409 5411 5410 5415 
776 796 643 795 5413 5411 5276 5407 5415 5409 
777 643 796 644 5281 5411 5414 5283 4457 5416 
796 643 663 644 5411 4584 5412 5416 4457 4585 
644 663 797 664 4585 5417 5418 4591 4593 5419 
777 797 778 644 5420 5421 5293 5283 5418 5288 
644 663 796 797 4585 5412 5416 5418 5417 5422 
777 797 644 796 5420 5418 5283 5414 5422 5416 
778 644 797 645 5288 5418 5421 5290 4464 5423 
797 644 664 645 5418 4591 5419 5423 4464 4592 
665 684 818 685 4606 5424 5425 4598 4605 5426 
798 818 799 665 5427 5428 5429 5430 5425 5431 
665 684 817 818 4606 5432 5433 5425 5424 5434 
798 818 665 817 5427 5425 5430 5435 5434 5433 
799 665 818 666 5431 5425 5428 5436 4600 5437 
818 665 685 666 5425 4598 5426 5437 4600 4599 
666 685 819 686 4599 5438 5439 4612 4616 5440 
799 819 800 666 5441 5442 5443 5436 5439 5444 
666 685 818 819 4599 5426 5437 5439 5438 5445 
799 819 666 818 5441 5439 5436 5428 5445 5437 
800 666 819 667 5444 5439 5442 5446 4614 5447 
819 666 686 667 5439 4612 5440 5447 4614 4613 
667 686 820 687 4613 5448 5449 4622 4626 5450 
800 820 801 667 5451 5452 5453 5446 5449 5454 
667 686 819 820 4613 5440 5447 5449 5448 5455 
800 820 667 819 5451 5449 5446 5442 5455 5447 
801 667 820 668 5454 5449 5452 5456 4624 5457 
820 667 687 668 5449 4622 5450 5457 4624 4623 
668 687 821 688 4623 5458 5459 4632 4636 5460 
801 821 802 668 5461 5462 5463 5456 5459 5464 
668 687 820 821 4623 5450 5457 5459 5458 5465 
801 821 668 820 5461 5459 5456 5452 5465 5457 
802 668 821 669 5464 5459 5462 5466 4634 5467 
821 668 688 669 5459 4632 5460 5467 4634 4633 
669 688 822 689 4633 5468 5469 4642 4646 5470 
802 822 803 669 5471 5472 5473 5466 5469 5474 
669 688 821 822 4633 5460 5467 5469 5468 5475 
802 822 669 821 5471 5469 5466 5462 5475 5467 
803 669 822 670 5474 5469 5472 5476 4644 5477 
822 669 689 670 5469 4642 5470 5477 4644 4643 
670 689 823 690 4643 5478 5479 4652 4656 5480 
803 823 804 670 5481 5482 5483 5476 5479 5484 
670 689 822 823 4643 5470 5477 5479 5478 5485 
803 823 670 822 5481 5479 5476 5472 5485 5477 
804 670 823 671 5484 5479 5482 5486 4654 5487 
823 670 690 671 5479 4652 5480 5487 4654 4653 
671 690 824 691 4653 5488 5489 4662 4666 5490 
804 824 805 671 5491 5492 5493 5486 5489 5494 
671 690 823 824 4653 5480 5487 5489 5488 5495 
804 824 671 823 5491 5489 5486 5482 5495 5487 
805 671 824 672 5494 5489 5492 5496 4664 5497 
824 671 691 672 5489 4662 5490 5497 4664 4663 
672 691 825 692 4663 5498 5499 4672 4676 5500 
805 825 806 672 5501 5502 5503 5496 5499 5504 
672 691 824 825 4663 5490 5497 5499 5498 5505 
805 825 672 824 5501 5499 5496 5492 5505 5497 
806 672 825 673 5504 5499 5502 5506 4674 5507 
825 672 692 673 5499 4672 5500 5507 4674 4673 
673 692 826 693 4673 5508 5509 4682 4686 5510 
806 826 807 673 5511 5512 5513 5506 5509 5514 
673 692 825 826 4673 5500 5507 5509 5508 5515 
806 826 673 825 5511 5509 5506 5502 5515 5507 
807 673 826 674 5514 5509 5512 5516 4684 5517 
826 673 693 674 5509 4682 5510 5517 4684 4683 
674 693 827 694 4683 5518 5519 4692 4696 5520 
807 827 808 674 5521 5522 5523 5516 5519 5524 
674 693 826 827 4683 5510 5517 5519 5518 5525 
807 827 674 826 5521 5519 5516 5512 5525 5517 
808 674 827 675 5524 5519 5522 5526 4694 5527 
827 674 694 675 5519 4692 5520 5527 4694 4693 
675 694 828 695 4693 5528 5529 4702 4706 5530 
808 828 809 675 5531 5532 5533 5526 5529 5534 
675 694 827 828 4693 5520 5527 5529 5528 5535 
808 828 675 827 5531 5529 5526 5522 5535 5527 
809 675 828 676 5534 5529 5532 5536 4704 5537 
828 675 695 676 5529 4702 5530 5537 4704 4703 
676 695 829 696 4703 5538 5539 4712 4716 5540 
809 829 810 676 5541 5542 5543 5536 5539 5544 
676 695 828 829 4703 5530 5537 5539 5538 5545 
809 829 676 828 5541 5539 5536 5532 5545 5537 
810 676 829 677 5544 5539 5542 5546 4714 5547 
829 676 696 677 5539 4712 5540 5547 4714 4713 
677 696 830 697 4713 5548 5549 4722 4726 5550 
810 830 811 677 5551 5552 5553 5546 5549 5554 
677 696 829 830 4713 5540 5547 5549 5548 5555 
810 830 677 829 5551 5549 5546 5542 5555 5547 
811 677 830 678 5554 5549 5552 5556 4724 5557 
830 677 697 678 5549 4722 5550 5557 4724 4723 
678 697 831 698 4723 5558 5559 4732 4736 5560 
811 831 812 678 5561 5562 5563 5556 5559 5564 
678 697 830 831 4723 5550 5557 5559 5558 5565 
811 831 678 830 5561 5559 5556 5552 5565 5557 
812 678 831 679 5564 5559 5562 5566 4734 5567 
831 678 698 679 5559 4732 5560 5567 4734 4733 
679 698 832 699 4733 5568 5569 4742 4746 5570 
812 832 813 679 5571 5572 5573 5566 5569 5574 
679 698 831 832 4733 5560 5567 5569 5568 5575 
812 832 679 831 5571 5569 5566 5562 5575 5567 
813 679 832 680 5574 5569 5572 5576 4744 5577 
832 679 699 680 5569 4742 5570 5577 4744 4743 
680 699 833 700 4743 5578 5579 4752 4756 5580 
813 833 814 680 5581 5582 5583 5576 5579 5584 
680 699 832 833 4743 5570 5577 5579 5578 5585 
813 833 680 832 5581 5579 5576 5572 5585 5577 
814 680 833 681 5584 5579 5582 5586 4754 5587 
833 680 700 681 5579 4752 5580 5587 4754 4753 
681 700 834 701 4753 5588 5589 4762 4766 5590 
814 834 815 681 5591 5592 5593 5586 5589 5594 
681 700 833 834 4753 5580 5587 5589 5588 5595 
814 834 681 833 5591 5589 5586 5582 5595 5587 
815 681 834 682 5594 5589 5592 5596 4764 5597 
834 681 701 682 5589 4762 5590 5597 4764 4763 
682 701 835 702 4763 5598 5599 4772 4776 5600 
815 835 816 682 5601 5602 5603 5596 5599 5604 
682 701 834 835 4763 5590 5597 5599 5598 5605 
815 835 682 834 5601 5599 5596 5592 5605 5597 
816 682 835 683 5604 5599 5602 5606 4774 5607 
835 682 702 683 5599 4772 5600 5607 4774 4773 
684 703 837 704 4787 5608 5609 4782 4786 5610 
817 837 818 684 5611 5612 5434 5432 5609 5424 
684 703 836 837 4787 5613 5614 5609 5608 5615 
817 837 684 836 5611 5609 5432 5616 5615 5614 
818 684 837 685 5424 5609 5612 5426 4605 5617 
837 684 704 685 5609 4782 5610 5617 4605 4783 
685 704 838 705 4783 5618 5619 4792 4794 5620 
818 838 819 685 5621 5622 5445 5426 5619 5438 
685 704 837 838 4783 5610 5617 5619 5618 5623 
818 838 685 837 5621 5619 5426 5612 5623 5617 
819 685 838 686 5438 5619 5622 5440 4616 5624 
838 685 705 686 5619 4792 5620 5624 4616 4793 
686 705 839 706 4793 5625 5626 4799 4801 5627 
819 839 820 686 5628 5629 5455 5440 5626 5448 
686 705 838 839 4793 5620 5624 5626 5625 5630 
819 839 686 838 5628 5626 5440 5622 5630 5624 
820 686 839 687 5448 5626 5629 5450 4626 5631 
839 686 706 687 5626 4799 5627 5631 4626 4800 
687 706 840 707 4800 5632 5633 4806 4808 5634 
820 840 821 687 5635 5636 5465 5450 5633 5458 
687 706 839 840 4800 5627 5631 5633 5632 5637 
820 840 687 839 5635 5633 5450 5629 5637 5631 
821 687 840 688 5458 5633 5636 5460 4636 5638 
840 687 707 688 5633 4806 5634 5638 4636 4807 
688 707 841 708 4807 5639 5640 4813 4815 5641 
821 841 822 688 5642 5643 5475 5460 5640 5468 
688 707 840 841 4807 5634 5638 5640 5639 5644 
821 841 688 840 5642 5640 5460 5636 5644 5638 
822 688 841 689 5468 5640 5643 5470 4646 5645 
841 688 708 689 5640 4813 5641 5645 4646 4814 
689 708 842 709 4814 5646 5647 4820 4822 5648 
822 842 823 689 5649 5650 5485 5470 5647 5478 
689 708 841 842 4814 5641 5645 5647 5646 5651 
822 842 689 841 5649 5647 5470 5643 5651 5645 
823 689 842 690 5478 5647 5650 5480 4656 5652 
842 689 709 690 5647 4820 5648 5652 4656 4821 
690 709 843 710 4821 5653 5654 4827 4829 5655 
823 843 824 690 5656 5657 5495 5480 5654 5488 
690 709 842 843 4821 5648 5652 5654 5653 5658 
823 843 690 842 5656 5654 5480 5650 5658 5652 
824 690 843 691 5488 5654 5657 5490 4666 5659 
843 690 710 691 5654 4827 5655 5659 4666 4828 
691 710 844 711 4828 5660 5661 4834 4836 5662 
824 844 825 691 5663 5664 5505 5490 5661 5498 
691 710 843 844 4828 5655 5659 5661 5660 5665 
824 844 691 843 5663 5661 5490 5657 5665 5659 
825 691 844 692 5498 5661 5664 5500 4676 5666 
844 691 711 692 5661 4834 5662 5666 4676 4835 
692 711 845 712 4835 5667 5668 4841 4843 5669 
825 845 826 692 5670 5671 5515 5500 5668 5508 
692 711 844 845 4835 5662 5666 5668 5667 5672 
825 845 692 844 5670 5668 5500 5664 5672 5666 
826 692 845 693 5508 5668 5671 5510 4686 5673 
845 692 712 693 5668 4841 5669 5673 4686 4842 
693 712 846 713 4842 5674 5675 4848 4850 5676 
826 846 827 693 5677 5678 5525 5510 5675 5518 
693 712 845 846 4842 5669 5673 5675 5674 5679 
826 846 693 845 5677 5675 5510 5671 5679 5673 
827 693 846 694 5518 5675 5678 5520 4696 5680 
846 693 713 694 5675 4848 5676 5680 4696 4849 
694 713 847 714 4849 5681 5682 4855 4857 5683 
827 847 828 694 5684 5685 5535 5520 5682 5528 
694 713 846 847 4849 5676 5680 5682 5681 5686 
827 847 694 846 5684 5682 5520 5678 5686 5680 
828 694 847 695 5528 5682 5685 5530 4706 5687 
847 694 714 695 5682 4855 5683 5687 4706 4856 
695 714 848 715 4856 5688 5689 4862 4864 5690 
828 848 829 695 5691 5692 5545 5530 5689 5538 
695 714 847 848 4856 5683 5687 5689 5688 5693 
828 848 695 847 5691 5689 5530 5685 5693 5687 
829 695 848 696 5538 5689 5692 5540 4716 5694 
848 695 715 696 5689 4862 5690 5694 4716 4863 
696 715 849 716 4863 5695 5696 4869 4871 5697 
829 849 830 696 5698 5699 5555 5540 5696 5548 
696 715 848 849 4863 5690 5694 5696 5695 5700 
829 849 696 848 5698 5696 5540 5692 5700 5694 
830 696 849 697 5548 5696 5699 5550 4726 5701 
849 696 716 697 5696 4869 5697 5701 4726 4870 
697 716 850 717 4870 5702 5703 4876 4878 5704 
830 850 831 697 5705 5706 5565 5550 5703 5558 
697 716 849 850 4870 5697 5701 5703 5702 5707 
830 850 697 849 5705 5703 5550 5699 5707 5701 
831 697 850 698 5558 5703 5706 5560 4736 5708 
850 697 717 698 5703 4876 5704 5708 4736 4877 
698 717 851 718 4877 5709 5710 4883 4885 5711 
831 851 832 698 5712 5713 5575 5560 5710 5568 
698 717 850 851 4877 5704 5708 5710 5709 5714 
831 851 698 850 5712 5710 5560 5706 5714 5708 
832 698 851 699 5568 5710 5713 5570 4746 5715 
851 698 718 699 5710 4883 5711 5715 4746 4884 
699 718 852 719 4884 5716 5717 4890 4892 5718 
832 852 833 699 5719 5720 5585 5570 5717 5578 
699 718 851 852 4884 5711 5715 5717 5716 5721 
832 852 699 851 5719 5717 5570 5713 5721 5715 
833 699 852 700 5578 5717 5720 5580 4756 5722 
852 699 719 700 5717 4890 5718 5722 4756 4891 
700 719 853 720 4891 5723 5724 4897 4899 5725 
833 853 834 700 5726 5727 5595 5580 5724 5588 
700 719 852 853 4891 5718 5722 5724 5723 5728 
833 853 700 852 5726 5724 5580 5720 5728 5722 
834 700 853 701 5588 5724 5727 5590 4766 5729 
853 700 720 701 5724 4897 5725 5729 4766 4898 
701 720 854 721 4898 5730 5731 4904 4906 5732 
834 854 835 701 5733 5734 5605 5590 5731 5598 
701 720 853 854 4898 5725 5729 5731 5730 5735 
834 854 701 853 5733 5731 5590 5727 5735 5729 
835 701 854 702 5598 5731 5734 5600 4776 5736 
854 701 721 702 5731 4904 5732 5736 4776 4905 
703 722 856 723 4916 5737 5738 4911 4915 5739 
836 856 837 703 5740 5741 5615 5613 5738 5608 
703 722 855 856 4916 5742 5743 5738 5737 5744 
836 856 703 855 5740 5738 5613 5745 5744 5743 
837 703 856 704 5608 5738 5741 5610 4786 5746 
856 703 723 704 5738 4911 5739 5746 4786 4912 
704 723 857 724 4912 5747 5748 4921 4923 5749 
837 857 838 704 5750 5751 5623 5610 5748 5618 
704 723 856 857 4912 5739 5746 5748 5747 5752 
837 857 704 856 5750 5748 5610 5741 5752 5746 
838 704 857 705 5618 5748 5751 5620 4794 5753 
857 704 724 705 5748 4921 5749 5753 4794 4922 
705 724 858 725 4922 5754 5755 4928 4930 5756 
838 858 839 705 5757 5758 5630 5620 5755 5625 
705 724 857 858 4922 5749 5753 5755 5754 5759 
838 858 705 857 5757 5755 5620 5751 5759 5753 
839 705 858 706 5625 5755 5758 5627 4801 5760 
858 705 725 706 5755 4928 5756 5760 4801 4929 
706 725 859 726 4929 5761 5762 4935 4937 5763 
839 859 840 706 5764 5765 5637 5627 5762 5632 
706 725 858 859 4929 5756 5760 5762 5761 5766 
839 859 706 858 5764 5762 5627 5758 5766 5760 
840 706 859 707 5632 5762 5765 5634 4808 5767 
859 706 726 707 5762 4935 5763 5767 4808 4936 
707 726 860 727 4936 5768 5769 4942 4944 5770 
840 860 841 707 5771 5772 5644 5634 5769 5639 
707 726 859 860 4936 5763 5767 5769 5768 5773 
840 860 707 859 5771 5769 5634 5765 5773 5767 
841 707 860 708 5639 5769 5772 5641 4815 5774 
860 707 727 708 5769 4942 5770 5774 4815 4943 
708 727 861 728 4943 5775 5776 4949 4951 5777 
841 861 842 708 5778 5779 5651 5641 5776 5646 
708 727 860 861 4943 5770 5774 5776 5775 5780 
841 861 708 860 5778 5776 5641 5772 5780 5774 
842 708 861 709 5646 5776 5779 5648 4822 5781 
861 708 728 709 5776 4949 5777 5781 4822 4950 
709 728 862 729 4950 5782 5783 4956 4958 5784 
842 862 843 709 5785 5786 5658 5648 5783 5653 
709 728 861 862 4950 5777 5781 5783 5782 5787 
842 862 709 861 5785 5783 5648 5779 5787 5781 
843 709 862 710 5653 5783 5786 5655 4829 5788 
862 709 729 710 5783 4956 5784 5788 4829 4957 
710 729 863 730 4957 5789 5790 4963 4965 5791 
843 863 844 710 5792 5793 5665 5655 5790 5660 
710 729 862 863 4957 5784 5788 5790 5789 5794 
843 863 710 862 5792 5790 5655 5786 5794 5788 
844 710 863 711 5660 5790 5793 5662 4836 5795 
863 710 730 711 5790 4963 5791 5795 4836 4964 
711 730 864 731 4964 5796 5797 4970 4972 5798 
844 864 845 711 5799 5800 5672 5662 5797 5667 
711 730 863 864 4964 5791 5795 5797 5796 5801 
844 864 711 863 5799 5797 5662 5793 5801 5795 
845 711 864 712 5667 5797 5800 5669 4843 5802 
864 711 731 712 5797 4970 5798 5802 4843 4971 
712 731 865 732 4971 5803 5804 4977 4979 5805 
845 865 846 712 5806 5807 5679 5669 5804 5674 
712 731 864 865 4971 5798 5802 5804 5803 5808 
845 865 712 864 5806 5804 5669 5800 5808 5802 
846 712 865 713 5674 5804 5807 5676 4850 5809 
865 712 732 713 5804 4977 5805 5809 4850 4978 
713 732 866 733 4978 5810 5811 4984 4986 5812 
846 866 847 713 5813 5814 5686 5676 5811 5681 
713 732 865 866 4978 5805 5809 5811 5810 5815 
846 866 713 865 5813 5811 5676 5807 5815 5809 
847 713 866 714 5681 5811 5814 5683 4857 5816 
866 713 733 714 5811 4984 5812 5816 4857 4985 
714 733 867 734 4985 5817 5818 4991 4993 5819 
847 867 848 714 5820 5821 5693 5683 5818 5688 
714 733 866 867 4985 5812 5816 5818 5817 5822 
847 867 714 866 5820 5818 5683 5814 5822 5816 
848 714 867 715 5688 5818 5821 5690 4864 5823 
867 714 734 715 5818 4991 5819 5823 4864 4992 
715 734 868 735 4992 5824 5825 4998 5000 5826 
848 868 849 715 5827 5828 5700 5690 5825 5695 
715 734 867 868 4992 5819 5823 5825 5824 5829 
848 868 715 867 5827 5825 5690 5821 5829 5823 
849 715 868 716 5695 5825 5828 5697 4871 5830 
868 715 735 716 5825 4998 5826 5830 4871 4999 
716 735 869 736 4999 5831 5832 5005 5007 5833 
849 869 850 716 5834 5835 5707 5697 5832 5702 
716 735 868 869 4999 5826 5830 5832 5831 5836 
849 869 716 868 5834 5832 5697 5828 5836 5830 
850 716 869 717 5702 5832 5835 5704 4878 5837 
869 716 736 717 5832 5005 5833 5837 4878 5006 
717 736 870 737 5006 5838 5839 5012 5014 5840 
850 870 851 717 5841 5842 5714 5704 5839 5709 
717 736 869 870 5006 5833 5837 5839 5838 5843 
850 870 717 869 5841 5839 5704 5835 5843 5837 
851 717 870 718 5709 5839 5842 5711 4885 5844 
870 717 737 718 5839 5012 5840 5844 4885 5013 
718 737 871 738 5013 5845 5846 5019 5021 5847 
851 871 852 718 5848 5849 5721 5711 5846 5716 
718 737 870 871 5013 5840 5844 5846 5845 5850 
851 871 718 870 5848 5846 5711 5842 5850 5844 
852 718 871 719 5716 5846 5849 5718 4892 5851 
871 718 738 719 5846 5019 5847 5851 4892 5020 
719 738 872 739 5020 5852 5853 5026 5028 5854 
852 872 853 719 5855 5856 5728 5718 5853 5723 
719 738 871 872 5020 5847 5851 5853 5852 5857 
852 872 719 871 5855 5853 5718 5849 5857 5851 
853 719 872 720 5723 5853 5856 5725 4899 5858 
872 719 739 720 5853 5026 5854 5858 4899 5027 
720 739 873 740 5027 5859 5860 5033 5035 5861 
853 873 854 720 5862 5863 5735 5725 5860 5730 
720 739 872 873 5027 5854 5858 5860 5859 5864 
853 873 720 872 5862 5860 5725 5856 5864 5858 
854 720 873 721 5730 5860 5863 5732 4906 5865 
873 720 740 721 5860 5033 5861 5865 4906 5034 
722 741 875 742 5045 5866 5867 5040 5044 5868 
855 875 856 722 5869 5870 5744 5742 5867 5737 
722 741 874 875 5045 5871 5872 5867 5866 5873 
855 875 722 874 5869 5867 5742 5874 5873 5872 
856 722 875 723 5737 5867 5870 5739 4915 5875 
875 722 742 723 5867 5040 5868 5875 4915 5041 
723 742 876 743 5041 5876 5877 5050 5052 5878 
856 876 857 723 5879 5880 5752 5739 5877 5747 
723 742 875 876 5041 5868 5875 5877 5876 5881 
856 876 723 875 5879 5877 5739 5870 5881 5875 
857 723 876 724 5747 5877 5880 5749 4923 5882 
876 723 743 724 5877 5050 5878 5882 4923 5051 
724 743 877 744 5051 5883 5884 5057 5059 5885 
857 877 858 724 5886 5887 5759 5749 5884 5754 
724 743 876 877 5051 5878 5882 5884 5883 5888 
857 877 724 876 5886 5884 5749 5880 5888 5882 
858 724 877 725 5754 5884 5887 5756 4930 5889 
877 724 744 725 5884 5057 5885 5889 4930 5058 
725 744 878 745 5058 5890 5891 5064 5066 5892 
858 878 859 725 5893 5894 5766 5756 5891 5761 
725 744 877 878 5058 5885 5889 5891 5890 5895 
858 878 725 877 5893 5891 5756 5887 5895 5889 
859 725 878 726 5761 5891 5894 5763 4937 5896 
878 725 745 726 5891 5064 5892 5896 4937 5065 
726 745 879 746 5065 5897 5898 5071 5073 5899 
859 879 860 726 5900 5901 5773 5763 5898 5768 
726 745 878 879 5065 5892 5896 5898 5897 5902 
859 879 726 878 5900 5898 5763 5894 5902 5896 
860 726 879 727 5768 5898 5901 5770 4944 5903 
879 726 746 727 5898 5071 5899 5903 4944 5072 
727 746 880 747 5072 5904 5905 5078 5080 5906 
860 880 861 727 5907 5908 5780 5770 5905 5775 
727 746 879 880 5072 5899 5903 5905 5904 5909 
860 880 727 879 5907 5905 5770 5901 5909 5903 
861 727 880 728 5775 5905 5908 5777 4951 5910 
880 727 747 728 5905 5078 5906 5910 4951 5079 
728 747 881 748 5079 5911 5912 5085 5087 5913 
861 881 862 728 5914 5915 5787 5777 5912 5782 
728 747 880 881 5079 5906 5910 5912 5911 5916 
861 881 728 880 5914 5912 5777 5908 5916 5910 
862 728 881 729 5782 5912 5915 5784 4958 5917 
881 728 748 729 5912 5085 5913 5917 4958 5086 
729 748 882 749 5086 5918 5919 5092 5094 5920 
862 882 863 729 5921 5922 5794 5784 5919 5789 
729 748 881 882 5086 5913 5917 5919 5918 5923 
862 882 729 881 5921 5919 5784 5915 5923 5917 
863 729 882 730 5789 5919 5922 5791 4965 5924 
882 729 749 730 5919 5092 5920 5924 4965 5093 
730 749 883 750 5093 5925 5926 5099 5101 5927 
863 883 864 730 5928 5929 5801 5791 5926 5796 
730 749 882 883 5093 5920 5924 5926 5925 5930 
863 883 730 882 5928 5926 5791 5922 5930 5924 
864 730 883 731 5796 5926 5929 5798 4972 5931 
883 730 750 731 5926 5099 5927 5931 4972 5100 
731 750 884 751 5100 5932 5933 5106 5108 5934 
864 884 865 731 5935 5936 5808 5798 5933 5803 
731 750 883 884 5100 5927 5931 5933 5932 5937 
864 884 731 883 5935 5933 5798 5929 5937 5931 
865 731 884 732 5803 5933 5936 5805 4979 5938 
884 731 751 732 5933 5106 5934 5938 4979 5107 
732 751 885 752 5107 5939 5940 5113 5115 5941 
865 885 866 732 5942 5943 5815 5805 5940 5810 
732 751 884 885 5107 5934 5938 5940 5939 5944 
865 885 732 884 5942 5940 5805 5936 5944 5938 
866 732 885 733 5810 5940 5943 5812 4986 5945 
885 732 752 733 5940 5113 5941 5945 4986 5114 
733 752 886 753 5114 5946 5947 5120 5122 5948 
866 886 867 733 5949 5950 5822 5812 5947 5817 
733 752 885 886 5114 5941 5945 5947 5946 5951 
866 886 733 885 5949 5947 5812 5943 5951 5945 
867 733 886 734 5817 5947 5950 5819 4993 5952 
886 733 753 734 5947 5120 5948 5952 4993 5121 
734 753 887 754 5121 5953 5954 5127 5129 5955 
867 887 868 734 5956 5957 5829 5819 5954 5824 
734 753 886 887 5121 5948 5952 5954 5953 5958 
867 887 734 886 5956 5954 5819 5950 5958 5952 
868 734 887 735 5824 5954 5957 5826 5000 5959 
887 734 754 735 5954 5127 5955 5959 5000 5128 
735 754 888 755 5128 5960 5961 5134 5136 5962 
868 888 869 735 5963 5964 5836 5826 5961 5831 
735 754 887 888 5128 5955 5959 5961 5960 5965 
868 888 735 887 5963 5961 5826 5957 5965 5959 
869 735 888 736 5831 5961 5964 5833 5007 5966 
888 735 755 736 5961 5134 5962 5966 5007 5135 
736 755 889 756 5135 5967 5968 5141 5143 5969 
869 889 870 736 5970 5971 5843 5833 5968 5838 
736 755 888 889 5135 5962 5966 5968 5967 5972 
869 889 736 888 5970 5968 5833 5964 5972 5966 
870 736 889 737 5838 5968 5971 5840 5014 5973 
889 736 756 737 5968 5141 5969 5973 5014 5142 
737 756 890 757 5142 5974 5975 5148 5150 5976 
870 890 871 737 5977 5978 5850 5840 5975 5845 
737 756 889 890 5142 5969 5973 5975 5974 5979 
870 890 737 889 5977 5975 5840 5971 5979 5973 
871 737 890 738 5845 5975 5978 5847 5021 5980 
890 737 757 738 5975 5148 5976 5980 5021 5149 
738 757 891 758 5149 5981 5982 5155 5157 5983 
871 891 872 738 5984 5985 5857 5847 5982 5852 
738 757 890 891 5149 5976 5980 5982 5981 5986 
871 891 738 890 5984 5982 5847 5978 5986 5980 
872 738 891 739 5852 5982 5985 5854 5028 5987 
891 738 758 739 5982 5155 5983 5987 5028 5156 
739 758 892 759 5156 5988 5989 5162 5164 5990 
872 892 873 739 5991 5992 5864 5854 5989 5859 
739 758 891 892 5156 5983 5987 5989 5988 5993 
872 892 739 891 5991 5989 5854 5985 5993 5987 
873 739 892 740 5859 5989 5992 5861 5035 5994 
892 739 759 740 5989 5162 5990 5994 5035 5163 
741 760 894 761 5174 5995 5996 5169 5173 5997 
874 894 875 741 5998 5999 5873 5871 5996 5866 
741 760 893 894 5174 6000 6001 5996 5995 6002 
874 894 741 893 5998 5996 5871 6003 6002 6001 
875 741 894 742 5866 5996 5999 5868 5044 6004 
894 741 761 742 5996 5169 5997 6004 5044 5170 
742 761 895 762 5170 6005 6006 5179 5181 6007 
875 895 876 742 6008 6009 5881 5868 6006 5876 
742 761 894 895 5170 5997 6004 6006 6005 6010 
875 895 742 894 6008 6006 5868 5999 6010 6004 
876 742 895 743 5876 6006 6009 5878 5052 6011 
895 742 762 743 6006 5179 6007 6011 5052 5180 
743 762 896 763 5180 6012 6013 5186 5188 6014 
876 896 877 743 6015 6016 5888 5878 6013 5883 
743 762 895 896 5180 6007 6011 6013 6012 6017 
876 896 743 895 6015 6013 5878 6009 6017 6011 
877 743 896 744 5883 6013 6016 5885 5059 6018 
896 743 763 744 6013 5186 6014 6018 5059 5187 
744 763 897 764 5187 6019 6020 5193 5195 6021 
877 897 878 744 6022 6023 5895 5885 6020 5890 
744 763 896 897 5187 6014 6018 6020 6019 6024 
877 897 744 896 6022 6020 5885 6016 6024 6018 
878 744 897 745 5890 6020 6023 5892 5066 6025 
897 744 764 745 6020 5193 6021 6025 5066 5194 
745 764 898 765 5194 6026 6027 5200 5202 6028 
878 898 879 745 6029 6030 5902 5892 6027 5897 
745 764 897 898 5194 6021 6025 6027 6026 6031 
878 898 745 897 6029 6027 5892 6023 6031 6025 
879 745 898 746 5897 6027 6030 5899 5073 6032 
898 745 765 746 6027 5200 6028 6032 5073 5201 
746 765 899 766 5201 6033 6034 5207 5209 6035 
879 899 880 746 6036 6037 5909 5899 6034 5904 
746 765 898 899 5201 6028 6032 6034 6033 6038 
879 899 746 898 6036 6034 5899 6030 6038 6032 
880 746 899 747 5904 6034 6037 5906 5080 6039 
899 746 766 747 6034 5207 6035 6039 5080 5208 
747 766 900 767 5208 6040 6041 5214 5216 6042 
880 900 881 747 6043 6044 5916 5906 6041 5911 
747 766 899 900 5208 6035 6039 6041 6040 6045 
880 900 747 899 6043 6041 5906 6037 6045 6039 
881 747 900 748 5911 6041 6044 5913 5087 6046 
900 747 767 748 6041 5214 6042 6046 5087 5215 
748 767 901 768 5215 6047 6048 5221 5223 6049 
881 901 882 748 6050 6051 5923 5913 6048 5918 
748 767 900 901 5215 6042 6046 6048 6047 6052 
881 901 748 900 6050 6048 5913 6044 6052 6046 
882 748 901 749 5918 6048 6051 5920 5094 6053 
901 748 768 749 6048 5221 6049 6053 5094 5222 
749 768 902 769 5222 6054 6055 5228 5230 6056 
882 902 883 749 6057 6058 5930 5920 6055 5925 
749 768 901 902 5222 6049 6053 6055 6054 6059 
882 902 749 901 6057 6055 5920 6051 6059 6053 
883 749 902 750 5925 6055 6058 5927 5101 6060 
902 749 769 750 6055 5228 6056 6060 5101 5229 
750 769 903 770 5229 6061 6062 5235 5237 6063 
883 903 884 750 6064 6065 5937 5927 6062 5932 
750 769 902 903 5229 6056 6060 6062 6061 6066 
883 903 750 902 6064 6062 5927 6058 6066 6060 
884 750 903 751 5932 6062 6065 5934 5108 6067 
903 750 770 751 6062 5235 6063 6067 5108 5236 
751 770 904 771 5236 6068 6069 5242 5244 6070 
884 904 885 751 6071 6072 5944 5934 6069 5939 
751 770 903 904 5236 6063 6067 6069 6068 6073 
884 904 751 903 6071 6069 5934 6065 6073 6067 
885 751 904 752 5939 6069 6072 5941 5115 6074 
904 751 771 752 6069 5242 6070 6074 5115 5243 
752 771 905 772 5243 6075 6076 5249 5251 6077 
885 905 886 752 6078 6079 5951 5941 6076 5946 
752 771 904 905 5243 6070 6074 6076 6075 6080 
885 905 752 904 6078 6076 5941 6072 6080 6074 
886 752 905 753 5946 6076 6079 5948 5122 6081 
905 752 772 753 6076 5249 6077 6081 5122 5250 
753 772 906 773 5250 6082 6083 5256 5258 6084 
886 906 887 753 6085 6086 5958 5948 6083 5953 
753 772 905 906 5250 6077 6081 6083 6082 6087 
886 906 753 905 6085 6083 5948 6079 6087 6081 
887 753 906 754 5953 6083 6086 5955 5129 6088 
906 753 773 754 6083 5256 6084 6088 5129 5257 
754 773 907 774 5257 6089 6090 5263 5265 6091 
887 907 888 754 6092 6093 5965 5955 6090 5960 
754 773 906 907 5257 6084 6088 6090 6089 6094 
887 907 754 906 6092 6090 5955 6086 6094 6088 
888 754 907 755 5960 6090 6093 5962 5136 6095 
907 754 774 755 6090 5263 6091 6095 5136 5264 
755 774 908 775 5264 6096 6097 5270 5272 6098 
888 908 889 755 6099 6100 5972 5962 6097 5967 
755 774 907 908 5264 6091 6095 6097 6096 6101 
888 908 755 907 6099 6097 5962 6093 6101 6095 
889 755 908 756 5967 6097 6100 5969 5143 6102 
908 755 775 756 6097 5270 6098 6102 5143 5271 
756 775 909 776 5271 6103 6104 5277 5279 6105 
889 909 890 756 6106 6107 5979 5969 6104 5974 
756 775 908 909 5271 6098 6102 6104 6103 6108 
889 909 756 908 6106 6104 5969 6100 6108 6102 
890 756 909 757 5974 6104 6107 5976 5150 6109 
909 756 776 757 6104 5277 6105 6109 5150 5278 
757 776 910 777 5278 6110 6111 5284 5286 6112 
890 910 891 757 6113 6114 5986 5976 6111 5981 
757 776 909 910 5278 6105 6109 6111 6110 6115 
890 910 757 909 6113 6111 5976 6107 6115 6109 
891 757 910 758 5981 6111 6114 5983 5157 6116 
910 757 777 758 6111 5284 6112 6116 5157 5285 
758 777 911 778 5285 6117 6118 5291 5293 6119 
891 911 892 758 6120 6121 5993 5983 6118 5988 
758 777 910 911 5285 6112 6116 6118 6117 6122 
891 911 758 910 6120 6118 5983 6114 6122 6116 
892 758 911 759 5988 6118 6121 5990 5164 6123 
911 758 778 759 6118 5291 6119 6123 5164 5292 
760 779 913 780 5303 6124 6125 5298 5302 6126 
893 913 894 760 6127 6128 6002 6000 6125 5995 
760 779 912 913 5303 6129 6130 6125 6124 6131 
893 913 760 912 6127 6125 6000 6132 6131 6130 
894 760 913 761 5995 6125 6128 5997 5173 6133 
913 760 780 761 6125 5298 6126 6133 5173 5299 
761 780 914 781 5299 6134 6135 5308 5310 6136 
894 914 895 761 6137 6138 6010 5997 6135 6005 
761 780 913 914 5299 6126 6133 6135 6134 6139 
894 914 761 913 6137 6135 5997 6128 6139 6133 
895 761 914 762 6005 6135 6138 6007 5181 6140 
914 761 781 762 6135 5308 6136 6140 5181 5309 
762 781 915 782 5309 6141 6142 5315 5317 6143 
895 915 896 762 6144 6145 6017 6007 6142 6012 
762 781 914 915 5309 6136 6140 6142 6141 6146 
895 915 762 914 6144 6142 6007 6138 6146 6140 
896 762 915 763 6012 6142 6145 6014 5188 6147 
915 762 782 763 6142 5315 6143 6147 5188 5316 
763 782 916 783 5316 6148 6149 5322 5324 6150 
896 916 897 763 6151 6152 6024 6014 6149 6019 
763 782 915 916 5316 6143 6147 6149 6148 6153 
896 916 763 915 6151 6149 6014 6145 6153 6147 
897 763 916 764 6019 6149 6152 6021 5195 6154 
916 763 783 764 6149 5322 6150 6154 5195 5323 
764 783 917 784 5323 6155 6156 5329 5331 6157 
897 917 898 764 6158 6159 6031 6021 6156 6026 
764 783 916 917 5323 6150 6154 6156 6155 6160 
897 917 764 916 6158 6156 6021 6152 6160 6154 
898 764 917 765 6026 6156 6159 6028 5202 6161 
917 764 784 765 6156 5329 6157 6161 5202 5330 
765 784 918 785 5330 6162 6163 5336 5338 6164 
898 918 899 765 6165 6166 6038 6028 6163 6033 
765 784 917 918 5330 6157 6161 6163 6162 6167 
898 918 765 917 6165 6163 6028 6159 6167 6161 
899 765 918 766 6033 6163 6166 6035 5209 6168 
918 765 785 766 6163 5336 6164 6168 5209 5337 
766 785 919 786 5337 6169 6170 5343 5345 6171 
899 919 900 766 6172 6173 6045 6035 6170 6040 
766 785 918 919 5337 6164 6168 6170 6169 6174 
899 919 766 918 6172 6170 6035 6166 6174 6168 
900 766 919 767 6040 6170 6173 6042 5216 6175 
919 766 786 767 6170 5343 6171 6175 5216 5344 
767 786 920 787 5344 6176 6177 5350 5352 6178 
900 920 901 767 6179 6180 6052 6042 6177 6047 
767 786 919 920 5344 6171 6175 6177 6176 6181 
900 920 767 919 6179 6177 6042 6173 6181 6175 
901 767 920 768 6047 6177 6180 6049 5223 6182 
920 767 787 768 6177 5350 6178 6182 5223 5351 
768 787 921 788 5351 6183 6184 5357 5359 6185 
901 921 902 768 6186 6187 6059 6049 6184 6054 
768 787 920 921 5351 6178 6182 6184 6183 6188 
901 921 768 920 6186 6184 6049 6180 6188 6182 
902 768 921 769 6054 6184 6187 6056 5230 6189 
921 768 788 769 6184 5357 6185 6189 5230 5358 
769 788 922 789 5358 6190 6191 5364 5366 6192 
902 922 903 769 6193 6194 6066 6056 6191 6061 
769 788 921 922 5358 6185 6189 6191 6190 6195 
902 922 769 921 6193 6191 6056 6187 6195 6189 
903 769 922 770 6061 6191 6194 6063 5237 6196 
922 769 789 770 6191 5364 6192 6196 5237 5365 
770 789 923 790 5365 6197 6198 5371 5373 6199 
903 923 904 770 6200 6201 6073 6063 6198 6068 
770 789 922 923 5365 6192 6196 6198 6197 6202 
903 923 770 922 6200 6198 6063 6194 6202 6196 
904 770 923 771 6068 6198 6201 6070 5244 6203 
923 770 790 771 6198 5371 6199 6203 5244 5372 
771 790 924 791 5372 6204 6205 5378 5380 6206 
904 924 905 771 6207 6208 6080 6070 6205 6075 
771 790 923 924 5372 6199 6203 6205 6204 6209 
904 924 771 923 6207 6205 6070 6201 6209 6203 
905 771 924 772 6075 6205 6208 6077 5251 6210 
924 771 791 772 6205 5378 6206 6210 5251 5379 
772 791 925 792 5379 6211 6212 5385 5387 6213 
905 925 906 772 6214 6215 6087 6077 6212 6082 
772 791 924 925 5379 6206 6210 6212 6211 6216 
905 925 772 924 6214 6212 6077 6208 6216 6210 
906 772 925 773 6082 6212 6215 6084 5258 6217 
925 772 792 773 6212 5385 6213 6217 5258 5386 
773 792 926 793 5386 6218 6219 5392 5394 6220 
906 926 907 773 6221 6222 6094 6084 6219 6089 
773 792 925 926 5386 6213 6217 6219 6218 6223 
906 926 773 925 6221 6219 6084 6215 6223 6217 
907 773 926 774 6089 6219 6222 6091 5265 6224 
926 773 793 774 6219 5392 6220 6224 5265 5393 
774 793 927 794 5393 6225 6226 5399 5401 6227 
907 927 908 774 6228 6229 6101 6091 6226 6096 
774 793 926 927 5393 6220 6224 6226 6225 6230 
907 927 774 926 6228 6226 6091 6222 6230 6224 
908 774 927 775 6096 6226 6229 6098 5272 6231 
927 774 794 775 6226 5399 6227 6231 5272 5400 
775 794 928 795 5400 6232 6233 5406 5408 6234 
908 928 909 775 6235 6236 6108 6098 6233 6103 
775 794 927 928 5400 6227 6231 6233 6232 6237 
908 928 775 927 6235 6233 6098 6229 6237 6231 
909 775 928 776 6103 6233 6236 6105 5279 6238 
928 775 795 776 6233 5406 6234 6238 5279 5407 
776 795 929 796 5407 6239 6240 5413 5415 6241 
909 929 910 776 6242 6243 6115 6105 6240 6110 
776 795 928 929 5407 6234 6238 6240 6239 6244 
909 929 776 928 6242 6240 6105 6236 6244 6238 
910 776 929 777 6110 6240 6243 6112 5286 6245 
929 776 796 777 6240 5413 6241 6245 5286 5414 
777 796 930 797 5414 6246 6247 5420 5422 6248 
910 930 911 777 6249 6250 6122 6112 6247 6117 
777 796 929 930 5414 6241 6245 6247 6246 6251 
910 930 777 929 6249 6247 6112 6243 6251 6245 
911 777 930 778 6117 6247 6250 6119 5293 6252 
930 777 797 778 6247 5420 6248 6252 5293 5421 
CELL_TYPES 3888
24 24 24 24 24 24 24 24 24 24 24 24 24 24 24 24 24 24 24 24 24 24 24 24 24 24 24 24 24 24 24 24 24 24 24 24 24 24 24 24 24 24 24 24 24 24 24 24 24 24 24 24 24 24 24 24 24 24 24 24 24 24 24 24 24 24 24 24 24 24 24 24 24 24 24 24 24 24 24 24 24 24 24 24 24 24 24 24 24 24 24 24 24 24 24 24 24 24 24 24 24 24 24 24 24 24 24 24 24 24 24 24 24 24 24 24 24 24 24 24 24 24 24 24 24 24 24 24 24 24 24 24 24 24 24 24 24 24 24 24 24 24 24 24 24 24 24 24 24 24 24 24 24 24 24 24 24 24 24 24 24 24 24 24 24 24 24 24 24 24 24 24 24 24 24 24 24 24 24 24 24 24 24 24 24 24 24 24 24 24 24 24 24 24 24 24 24 24 24 24 24 24 24 24 24 24 24 24 24 24 24 24 24 24 24 24 24 24 24 24 24 24 24 24 24 24 24 24 24 24 24 24 24 24 24 24 24 24 24 24 24 24 24 24 24 24 24 24 24 24 24 24 24 24 24 24 24 24 24 24 24 24 24 24 24 24 24 24 24 24 24 24 24 24 24 24 24 24 24 24 24 24 24 24 24 24 24 24 24 24 24 24 24 24 24 24 24 24 24 24 24 24 24 24 24 24 24 24 24 24 24 24 24 24 24 24 24 24 24 24 24 24 24 24 24 24 24 24 24 24 24 24 24 24 24 24 24 24 24 24 24 24 24 24 24 24 24 24 24 24 24 24 24 24 24 24 24 24 24 24 24 24 24 24 24 24 24 24 24 24 24 24 24 24 24 24 24 24 24 24 24 24 24 24 24 24 24 24 24 24 24 24 24 24 24 24 24 24 24 24 24 24 24 24 24 24 24 24 24 24 24 24 24 24 24 24 24 24 24 24 24 24 24 24 24 24 24 24 24 24 24 24 24 24 24 24 24 24 24 24 24 24 24 24 24 24 24 24 24 24 24 24 24 24 24 24 24 24 24 24 24 24 24 24 24 24 24 24 24 24 24 24 24 24 24 24 24 24 24 24 24 24 24 24 24 24 24 24 24 24 24 24 24 24 24 24 24 24 24 24 24 24 24 24 24 24 24 24 24 24 24 24 24 24 24 24 24 24 24 24 24 24 24 24 24 24 24 24 24 24 24 24 24 24 24 24 24 24 24 24 24 24 24 24 24 24 24 24 24 24 24 24 24 24 24 24 24 24 24 24 24 24 24 24 24 24 24 24 24 24 24 24 24 24 24 24 24 24 24 24 24 24 24 24 24 24 24 24 24 24 24 24 24 24 24 24 24 24 24 24 24 24 24 24 24 24 24 24 24 24 24 24 24 24 24 24 24 24 24 24 24 24 24 24 24 24 24 24 24 24 24 24 24 24 24 24 24 24 24 24 24 24 24 24 24 24 24 24 24 24 24 24 24 24 24 24 24 24 24 24 24 24 24 24 24 24 24 24 24 24 24 24 24 24 24 24 24 24 24 24 24 24 24 24 24 24 24 24 24 24 24 24 24 24 24 24 24 24 24 24 24 24 24 24 24 24 24 24 24 24 24 24 24 24 24 24 24 24 24 24 24 24 24 24 24 24 24 24 24 24 24 24 24 24 24 24 24 24 24 24 24 24 24 24 24 24 24 24 24 24 24 24 24 24 24 24 24 24 24 24 24 24 24 24 24 24 24 24 24 24 24 24 24 24 24 24 24 24 24 24 24 24 24 24 24 24 24 24 24 24 24 24 24 24 24 24 24 24 24 24 24 24 24 24 24 24 24 24 24 24 24 24 24 24 24 24 24 24 24 24 24 24 24 24 24 24 24 24 24 24 24 24 24 24 24 24 24 24 24 24 24 24 24 24 24 24 24 24 24 24 24 24 24 24 24 24 24 24 24 24 24 24 24 24 24 24 24 24 24 24 24 24 24 24 24 24 24 24 24 24 24 24 24 24 24 24 24 24 24 24 24 24 24 24 24 24 24 24 24 24 24 24 24 24 24 24 24 24 24 24 24 24 24 24 24 24 24 24 24 24 24 24 24 24 24 24 24 24 24 24 24 24 24 24 24 24 24 24 24 24 24 24 24 24 24 24 24 24 24 24 24 24 24 24 24 24 24 24 24 24 24 24 24 24 24 24 24 24 24 24 24 24 24 24 24 24 24 24 24 24 24 24 24 24 24 24 24 24 24 24 24 24 24 24 24 24 24 24 24 24 24 24 24 24 24 24 24 24 24 24 24 24 24 24 24 24 24 24 24 24 24 24 24 24 24 24 24 24 24 24 24 24 24 24 24 24 24 24 24 24 24 24 24 24 24 24 24 24 24 24 24 24 24 24 24 24 24 24 24 24 24 24 24 24 24 24 24 24 24 24 24 24 24 24 24 24 24 24 24 24 24 24 24 24 24 24 24 24 24 24 24 24 24 24 24 24 24 24 24 24 24 24 24 24 24 24 24 24 24 24 24 24 24 24 24 24 24 24 24 24 24 24 24 24 24 24 24 24 24 24 24 24 24 24 24 24 24 24 24 24 24 24 24 24 24 24 24 24 24 24 24 24 24 24 24 24 24 24 24 24 24 24 24 24 24 24 24 24 24 24 24 24 24 24 24 24 24 24 24 24 24 24 24 24 24 24 24 24 24 24 24 24 24 24 24 24 24 24 24 24 24 24 24 24 24 24 24 24 24 24 24 24 24 24 24 24 24 24 24 24 24 24 24 24 24 24 24 24 24 24 24 24 24 24 24 24 24 24 24 24 24 24 24 24 24 24 24 24 24 24 24 24 24 24 24 24 24 24 24 24 24 24 24 24 24 24 24 24 24 24 24 24 24 24 24 24 24 24 24 24 24 24 24 24 24 24 24 24 24 24 24 24 24 24 24 24 24 24 24 24 24 24 24 24 24 24 24 24 24 24 24 24 24 24 24 24 24 24 24 24 24 24 24 24 24 24 24 24 24 24 24 24 24 24 24 24 24 24 24 24 24 24 24 24 24 24 24 24 24 24 24 24 24 24 24 24 24 24 24 24 24 24 24 24 24 24 24 24 24 24 24 24 24 24 24 24 24 24 24 24 24 24 24 24 24 24 24 24 24 24 24 24 24 24 24 24 24 24 24 24 24 24 24 24 24 24 24 24 24 24 24 24 24 24 24 24 24 24 24 24 24 24 24 24 24 24 24 24 24 24 24 24 24 24 24 24 24 24 24 24 24 24 24 24 24 24 24 24 24 24 24 24 24 24 24 24 24 24 24 24 24 24 24 24 24 24 24 24 24 24 24 24 24 24 24 24 24 24 24 24 24 24 24 24 24 24 24 24 24 24 24 24 24 24 24 24 24 24 24 24 24 24 24 24 24 24 24 24 24 24 24 24 24 24 24 24 24 24 24 24 24 24 24 24 24 24 24 24 24 24 24 24 24 24 24 24 24 24 24 24 24 24 24 24 24 24 24 24 24 24 24 24 24 24 24 24 24 24 24 24 24 24 24 24 24 24 24 24 24 24 24 24 24 24 24 24 24 24 24 24 24 24 24 24 24 24 24 24 24 24 24 24 24 24 24 24 24 24 24 24 24 24 24 24 24 24 24 24 24 24 24 24 24 24 24 24 24 24 24 24 24 24 24 24 24 24 24 24 24 24 24 24 24 24 24 24 24 24 24 24 24 24 24 24 24 24 24 24 24 24 24 24 24 24 24 24 24 24 24 24 24 24 24 24 24 24 24 24 24 24 24 24 24 24 24 24 24 24 24 24 24 24 24 24 24 24 24 24 24 24 24 24 24 24 24 24 24 24 24 24 24 24 24 24 24 24 24 24 24 24 24 24 24 24 24 24 24 24 24 24 24 24 24 24 24 24 24 24 24 24 24 24 24 24 24 24 24 24 24 24 24 24 24 24 24 24 24 24 24 24 24 24 24 24 24 24 24 24 24 24 24 24 24 24 24 24 24 24 24 24 24 24 24 24 24 24 24 24 24 24 24 24 24 24 24 24 24 24 24 24 24 24 24 24 24 24 24 24 24 24 24 24 24 24 24 24 24 24 24 24 24 24 24 24 24 24 24 24 24 24 24 24 24 24 24 24 24 24 24 24 24 24 24 24 24 24 24 24 24 24 24 24 24 24 24 24 24 24 24 24 24 24 24 24 24 24 24 24 24 24 24 24 24 24 24 24 24 24 24 24 24 24 24 24 24 24 24 24 24 24 24 24 24 24 24 24 24 24 24 24 24 24 24 24 24 24 24 24 24 24 24 24 24 24 24 24 24 24 24 24 24 24 24 24 24 24 24 24 24 24 24 24 24 24 24 24 24 24 24 24 24 24 24 24 24 24 24 24 24 24 24 24 24 24 24 24 24 24 24 24 24 24 24 24 24 24 24 24 24 24 24 24 24 24 24 24 24 24 24 24 24 24 24 24 24 24 24 24 24 24 24 24 24 24 24 24 24 24 24 24 24 24 24 24 24 24 24 24 24 24 24 24 24 24 24 24 24 24 24 24 24 24 24 24 24 24 24 24 24 24 24 24 24 24 24 24 24 24 24 24 24 24 24 24 24 24 24 24 24 24 24 24 24 24 24 24 24 24 24 24 24 24 24 24 24 24 24 24 24 24 24 24 24 24 24 24 24 24 24 24 24 24 24 24 24 24 24 24 24 24 24 24 24 24 24 24 24 24 24 24 24 24 24 24 24 24 24 24 24 24 24 24 24 24 24 24 24 24 24 24 24 24 24 24 24 24 24 24 24 24 24 24 24 24 24 24 24 24 24 24 24 24 24 24 24 24 24 24 24 24 24 24 24 24 24 24 24 24 24 24 24 24 24 24 24 24 24 24 24 24 24 24 24 24 24 24 24 24 24 24 24 24 24 24 24 24 24 24 24 24 24 24 24 24 24 24 24 24 24 24 24 24 24 24 24 24 24 24 24 24 24 24 24 24 24 24 24 24 24 24 24 24 24 24 24 24 24 24 24 24 24 24 24 24 24 24 24 24 24 24 24 24 24 24 24 24 24 24 24 24 24 24 24 24 24 24 24 24 24 24 24 24 24 24 24 24 24 24 24 24 24 24 24 24 24 24 24 24 24 24 24 24 24 24 24 24 24 24 24 24 24 24 24 24 24 24 24 24 24 24 24 24 24 24 24 24 24 24 24 24 24 24 24 24 24 24 24 24 24 24 24 24 24 24 24 24 24 24 24 24 24 24 24 24 24 24 24 24 24 24 24 24 24 24 24 24 24 24 24 24 24 24 24 24 24 24 24 24 24 24 24 24 24 24 24 24 24 24 24 24 24 24 24 24 24 24 24 24 24 24 24 24 24 24 24 24 24 24 24 24 24 24 24 24 24 24 24 24 24 24 24 24 24 24 24 24 24 24 24 24 24 24 24 24 24 24 24 24 24 24 24 24 24 24 24 24 24 24 24 24 24 24 24 24 24 24 24 24 24 24 24 24 24 24 24 24 24 24 24 24 24 24 24 24 24 24 24 24 24 24 24 24 24 24 24 24 24 24 24 24 24 24 24 24 24 24 24 24 24 24 24 24 24 24 24 24 24 24 24 24 24 24 24 24 24 24 24 24 24 24 24 24 24 24 24 24 24 24 24 24 24 24 24 24 24 24 24 24 24 24 24 24 24 24 24 24 24 24 24 24 24 24 24 24 24 24 24 24 24 24 24 24 24 24 24 24 24 24 24 24 24 24 24 24 24 24 24 24 24 24 24 24 24 24 24 24 24 24 24 24 24 24 24 24 24 24 24 24 24 24 24 24 24 24 24 24 24 24 24 24 24 24 24 24 24 24 24 24 24 24 24 24 24 24 24 24 24 24 24 24 24 24 24 24 24 24 24 24 24 24 24 24 24 24 24 24 24 24 24 24 24 24 24 24 24 24 24 24 24 24 24 24 24 24 24 24 24 24 24 24 24 24 24 24 24 24 24 24 24 24 24 24 24 24 24 24 24 24 24 24 24 24 24 24 24 24 24 24 24 24 24 24 24 24 24 24 24 24 24 24 24 24 24 24 24 24 24 24 24 24 24 24 24 24 24 24 24 24 24 24 24 24 24 24 24 24 24 24 24 24 24 24 24 24 24 24 24 24 24 24 24 24 24 24 24 24 24 24 24 24 24 24 24 24 24 24 24 24 24 24 24 24 24 24 24 24 24 24 24 24 24 24 24 24 24 24 24 24 24 24 24 24 24 24 24 24 24 24 24 24 24 24 24 24 24 24 24 24 24 24 24 24 24 24 24 24 24 24 24 24 24 24 24 24 24 24 24 24 24 24 24 24 24 24 24 24 24 24 24 24 24 24 24 24 24 24 24 24 24 24 24 24 24 24 24 24 24 24 24 24 24 24 24 24 24 24 24 24 24 24 24 24 24 24 24 24 24 24 24 24 24 24 24 24 24 24 24 24 24 24 24 24 24 24 24 24 24 24 24 24 24 24 24 24 24 24 24 24 24 24 24 24 24 24 24 24 24 24 24 24 24 24 24 24 24 24 24 24 24 24 24 24 24 24 24 24 24 24 24 24 24 24 24 24 24 24 24 24 24 24 24 24 24 24 24 24 24 24 24 24 24 24 24 24 24 24 24 24 24 24 24 24 24 24 24 24 24 24 24 24 24 24 24 24 24 24 24 24 24 24 24 24 24 24 24 24 24 24 24 24 24 24 24 24 24 24 24 24 24 24 24 24 24 24 24 24 24 24 24 24 24 24 24 24 24 24 24 24 24 24 24 24 24 24 24 24 24 24 24 24 24 24 24 24 24 24 24 24 24 24 24 24 24 24 24 24 24 24 24 24 24 24 24 24 24 24 24 24 24 24 24 24 24 24 24 24 24 24 24 24 24 24 24 24 24 24 24 24 24 24 24 24 24 24 24 24 24 24 24 24 24 24 24 24 24 24 24 24 24 24 24 24 24 24 24 24 24 24 24 24 24 24 24 24 24 24 24 24 24 24 24 24 24 24 24 24 24 24 24 24 24 24 24 24 24 24 24 24 24 24 24 24 24 24 24 24 24 24 24 24 24 24 24 24 24 24 24 24 24 24 24 24 24 24 24 24 24 24 24 24 24 24 24 24 24 24 24 24 24 24 24 24 24 24 24 24 24 24 24 24 24 24 24 24 24 24 24 24 24 24 24 24 24 24 24 24 24 24 24 24 24 24 24 24 24 24 24 24 24 24 24 24 24 24 24 24 24 24 24 24 24 24 24 24 24 24 24 24 24 24 24 24 24 24 24 24 24 24 24 24 24 24 24 24 24 24 24 24 24 24 24 24 24 24 24 24 24 24 24 24 24 24 24 24 24 24 24 24 24 24 24 24 24 24 24 24 24 24 24 24 24 24 24 24 24 24 24 24 24 24 24 24 24 24 24 24 24 24 24 24 24 24 24 24 24 24 24 24 24 24 24 24 24 24 24 24 24 24 24 24 24 24 24 24 24 24 24 24 24 24 24 24 24 24 24 24 24 24 24 24 24 24 24 24 24 24 24 24 24 24 24 24 24 24 24 24 24 24 24 24 24 24 24 24 24 24 24 24 24 24 24 24 24 24 24 24 24 24 24 24 24 24 24 24 24 24 24 24 24 24 24 24 24 24 24 24 24 24 24 24 24 24 24 24 24 24 24 24 24 24 24 24 24 24 24 24 24 24 24 24 24 24 24 24 24 24 24 24 24 24 24 24 24 24 24 24 24 24 24 24 24 24 24 24 24 24 24 24 24 24 24 24 24 24 24 24 24 24 24 24 24 24 24 24 24 24 24 24 24 24 24 24 24 24 24 24 24 24 24 24 24 24 24 24 24 24 24 24 24 24 24 24 24 24 24 24 24 24 24 24 24 24 24 24 24 24 24 24 24 24 24 24 24 24 24 24 24 24 24 24 24 24 24 24 24 24 24 24 24 24 24 24 24 24 24 24 24 24 24 24 24 24 24 24 24 24 24 24 24 24 24 24 24 24 24 24 24 24 24 24 24 24 24 24 24 24 24 24 24 24 24 24 24 24 24 24 24 24 24 24 24 24 24 24 24 24 24 24 24 24 24 24 24 24 24 24 24 24 24 24 24 24 24 24 24 24 24 24 24 24 24 24 24 24 24 24 24 24 24 24 24 24 24 24 24 24 24 24 24 24 24 24 24 24 24 24 24 24 24 24 24 24 24 24 24 24 24 24 24 24 24 24 24 24 24 24 24 24 24 24 24 24 24 24 24 24 24 24 24 24 24 24 24 24 24 24 24 24 24 24 24 24 24 24 24 24 24 24 24 24 24 24 24 24 24 24 24 24 24 24 24 24 24 24 24 24 24 24 24 24 24 24 24 24 24 24 24 24 24 24 24 24 24 24 24 24 24 24 24 24 24 24 24 24 24 24 24 24 24 24 24 24 24 24 24 24 24 24 24 24 24 24 24 24 24 24 24 24 24 24 24 24 24 24 24 24 24 24 24 24 24 24 24 24 24 24 24 24 24 24 24 24 24 24 24 24 24 24 24 24 24 24 24 24 24 24 24 24 24 24 24 24 24 24 24 24 24 24 24 24 24 24 24 24 24 24 24 24 24 24 24 24 24 24 24 24 24 24 24 24 24 24 24 24 24 24 24 24 24 24 24 24 24 24 24 24 24 24 24 24 24 24 24 24 24 24 24 24 24 24 24 24 24 24 24 24 24 24 24 24 24 24 24 24 24 24 24 24 24 24 24 24 24 24 24 24 24 24 24 24 24 24 24 24 24 24 24 24 

POINT_DATA 6253
SCALARS weights float 1
LOOKUP_TABLE default
0.462962 0.617282 0.617282 0.617282 0.617282 0.617282 0.617283 0.617282 0.617282 0.617282 0.617282 0.617282 0.617282 0.617283 0.617282 0.617282 0.617283 0.617282 0.15432 0.617282 0.925923 0.925923 0.925923 0.925923 0.925923 0.925923 0.925923 0.925923 0.925922 0.925922 0.925923 0.925923 0.925924 0.925923 0.925923 0.925923 0.925923 0.30864 0.617282 0.925923 0.925923 0.925923 0.925922 0.925923 0.925923 0.925923 0.925923 0.925922 0.925922 0.925923 0.925923 0.925923 0.925923 0.925923 0.925923 0.925923 0.30864 0.617282 0.925923 0.925923 0.925923 0.925922 0.925923 0.925923 0.925923 0.925923 0.925922 0.925922 0.925923 0.925923 0.925923 0.925923 0.925923 0.925923 0.925923 0.30864 0.617282 0.925922 0.925922 0.925923 0.925922 0.925923 0.925923 0.925923 0.925922 0.925922 0.925922 0.925923 0.925923 0.925923 0.925923 0.925923 0.925923 0.925923 0.30864 0.617282 0.925923 0.925923 0.925923 0.925922 0.925923 0.925923 0.925923 0.925923 0.925922 0.925922 0.925923 0.925923 0.925923 0.925923 0.925923 0.925923 0.925923 0.30864 0.15432 0.30864 0.30864 0.308641 0.30864 0.308641 0.308641 0.308641 0.308641 0.30864 0.308641 0.308641 0.308641 0.308641 0.308641 0.308641 0.30864 0.308641 0.15432 0.617284 0.925927 0.925927 0.925927 0.925926 0.925927 0.925927 0.925927 0.925926 0.925926 0.925926 0.925926 0.925927 0.925927 0.925927 0.925927 0.925927 0.925927 0.308642 0.925927 1.85185 1.85185 1.85185 1.85185 1.85185 1.85185 1.85185 1.85185 1.85185 1.85185 1.85185 1.85185 1.85185 1.85185 1.85185 1.85185 1.85185 0.925925 0.925927 1.85185 1.85185 1.85185 1.85185 1.85185 1.85185 1.85185 1.85185 1.85185 1.85185 1.85185 1.85185 1.85185 1.85185 1.85185 1.85185 1.85185 0.925925 0.925927 1.85185 1.85185 1.85185 1.85185 1.85185 1.85185 1.85185 1.85185 1.85185 1.85185 1.85185 1.85185 1.85185 1.85185 1.85185 1.85185 1.85185 0.925925 0.925926 1.85185 1.85185 1.85185 1.85185 1.85185 1.85185 1.85185 1.85185 1.85185 1.85185 1.85185 1.85185 1.85185 1.85185 1.85185 1.85185 1.85185 0.925925 0.925926 1.85185 1.85185 1.85185 1.85185 1.85185 1.85185 1.85185 1.85185 1.85185 1.85185 1.85185 1.85185 1.85185 1.85185 1.85185 1.85185 1.85185 0.925925 0.308642 0.925925 0.925925 0.925925 0.925925 0.925925 0.925925 0.925926 0.925925 0.925925 0.925925 0.925925 0.925926 0.925926 0.925926 0.925925 0.925925 0.925926 0.617283 0.617283 0.925925 0.925925 0.925925 0.925925 0.925925 0.925926 0.925926 0.925925 0.925925 0.925925 0.925925 0.925925 0.925926 0.925925 0.925926 0.925926 0.925926 0.308642 0.925926 1.85185 1.85185 1.85185 1.85185 1.85185 1.85185 1.85185 1.85185 1.85185 1.85185 1.85185 1.85185 1.85185 1.85185 1.85185 1.85185 1.85185 0.925927 0.925926 1.85185 1.85185 1.85185 1.85185 1.85185 1.85185 1.85185 1.85185 1.85185 1.85185 1.85185 1.85185 1.85185 1.85185 1.85185 1.85185 1.85185 0.925927 0.925926 1.85185 1.85185 1.85185 1.85185 1.85185 1.85185 1.85185 1.85185 1.85185 1.85185 1.85185 1.85185 1.85185 1.85185 1.85185 1.85185 1.85185 0.925927 0.925926 1.85185 1.85185 1.85185 1.85185 1.85185 1.85185 1.85185 1.85185 1.85185 1.85185 1.85185 1.85185 1.85185 1.85185 1.85185 1.85185 1.85185 0.925927 0.925926 1.85185 1.85185 1.85185 1.85185 1.85185 1.85185 1.85185 1.85185 1.85185 1.85185 1.85185 1.85185 1.85185 1.85185 1.85185 1.85185 1.85185 0.925927 0.308643 0.925928 0.925928 0.925928 0.925928 0.925928 0.925928 0.925928 0.925928 0.925927 0.925928 0.925928 0.925928 0.925928 0.925928 0.925928 0.925928 0.925928 0.617285 0.617283 0.925923 0.925923 0.925924 0.925923 0.925923 0.925924 0.925924 0.925923 0.925923 0.925923 0.925923 0.925924 0.925924 0.925923 0.925924 0.925924 0.925924 0.30864 0.925924 1.85185 1.85185 1.85185 1.85185 1.85185 1.85185 1.85185 1.85185 1.85185 1.85185 1.85185 1.85185 1.85185 1.85185 1.85185 1.85185 1.85185 0.925923 0.925924 1.85185 1.85185 1.85185 1.85185 1.85185 1.85185 1.85185 1.85185 1.85185 1.85185 1.85185 1.85185 1.85185 1.85185 1.85185 1.85185 1.85185 0.925923 0.925924 1.85185 1.85185 1.85185 1.85185 1.85185 1.85185 1.85185 1.85185 1.85185 1.85185 1.85185 1.85185 1.85185 1.85185 1.85185 1.85185 1.85185 0.925923 0.925924 1.85185 1.85185 1.85185 1.85185 1.85185 1.85185 1.85185 1.85185 1.85185 1.85185 1.85185 1.85185 1.85185 1.85185 1.85185 1.85185 1.85185 0.925923 0.925924 1.85185 1.85185 1.85185 1.85185 1.85185 1.85185 1.85185 1.85185 1.85185 1.85185 1.85185 1.85185 1.85185 1.85185 1.85185 1.85185 1.85185 0.925923 0.308641 0.925924 0.925924 0.925924 0.925924 0.925924 0.925924 0.925924 0.925924 0.925923 0.925924 0.925924 0.925925 0.925924 0.925925 0.925924 0.925924 0.925925 0.617283 0.617285 0.925927 0.925927 0.925927 0.925927 0.925927 0.925928 0.925927 0.925927 0.925927 0.925927 0.925927 0.925927 0.925928 0.925927 0.925928 0.925928 0.925928 0.308642 0.925928 1.85185 1.85185 1.85185 1.85185 1.85185 1.85185 1.85185 1.85185 1.85185 1.85185 1.85185 1.85185 1.85185 1.85186 1.85185 1.85186 1.85186 0.925926 0.925928 1.85185 1.85185 1.85185 1.85185 1.85185 1.85185 1.85185 1.85185 1.85185 1.85185 1.85185 1.85185 1.85185 1.85185 1.85185 1.85185 1.85186 0.925926 0.925928 1.85185 1.85185 1.85185 1.85185 1.85185 1.85185 1.85185 1.85185 1.85185 1.85185 1.85185 1.85185 1.85185 1.85185 1.85185 1.85185 1.85186 0.925926 0.925927 1.85185 1.85185 1.85185 1.85185 1.85185 1.85185 1.85185 1.85185 1.85185 1.85185 1.85185 1.85185 1.85185 1.85185 1.85185 1.85185 1.85186 0.925926 0.925928 1.85185 1.85185 1.85185 1.85185 1.85185 1.85185 1.85185 1.85185 1.85185 1.85185 1.85185 1.85185 1.85185 1.85185 1.85185 1.85185 1.85186 0.925926 0.308643 0.925927 0.925927 0.925927 0.925927 0.925927 0.925927 0.925927 0.925927 0.925926 0.925927 0.925927 0.925927 0.925927 0.925928 0.925927 0.925927 0.925927 0.617284 0.617283 0.925925 0.925925 0.925925 0.925925 0.925925 0.925926 0.925925 0.925925 0.925925 0.925925 0.925925 0.925925 0.925926 0.925925 0.925926 0.925926 0.925926 0.308642 0.925926 1.85185 1.85185 1.85185 1.85185 1.85185 1.85185 1.85185 1.85185 1.85185 1.85185 1.85185 1.85185 1.85185 1.85185 1.85185 1.85185 1.85185 0.925926 0.925926 1.85185 1.85185 1.85185 1.85185 1.85185 1.85185 1.85185 1.85185 1.85185 1.85185 1.85185 1.85185 1.85185 1.85185 1.85185 1.85185 1.85185 0.925926 0.925926 1.85185 1.85185 1.85185 1.85185 1.85185 1.85185 1.85185 1.85185 1.85185 1.85185 1.85185 1.85185 1.85185 1.85185 1.85185 1.85185 1.85185 0.925926 0.925925 1.85185 1.85185 1.85185 1.85185 1.85185 1.85185 1.85185 1.85185 1.85185 1.85185 1.85185 1.85185 1.85185 1.85185 1.85185 1.85185 1.85185 0.925926 0.925926 1.85185 1.85185 1.85185 1.85185 1.85185 1.85185 1.85185 1.85185 1.85185 1.85185 1.85185 1.85185 1.85185 1.85185 1.85185 1.85185 1.85185 0.925926 0.308642 0.925927 0.925927 0.925927 0.925927 0.925927 0.925927 0.925927 0.925927 0.925926 0.925927 0.925927 0.925928 0.925927 0.925928 0.925927 0.925927 0.925928 0.617284 0.15432 0.30864 0.308641 0.30864 0.30864 0.30864 0.308641 0.308641 0.30864 0.30864 0.30864 0.308641 0.308641 0.30864 0.308641 0.308641 0.308641 0.308641 0.15432 0.308641 0.925923 0.925923 0.925923 0.925923 0.925923 0.925923 0.925923 0.925923 0.925923 0.925923 0.925923 0.925924 0.925923 0.925924 0.925923 0.925924 0.925924 0.617282 0.308641 0.925923 0.925923 0.925923 0.925923 0.925923 0.925923 0.925923 0.925923 0.925923 0.925923 0.925923 0.925924 0.925923 0.925924 0.925923 0.925924 0.925924 0.617282 0.308641 0.925923 0.925923 0.925923 0.925923 0.925923 0.925923 0.925923 0.925923 0.925923 0.925923 0.925923 0.925924 0.925923 0.925924 0.925923 0.925924 0.925924 0.617282 0.308641 0.925923 0.925923 0.925923 0.925923 0.925923 0.925923 0.925923 0.925923 0.925923 0.925923 0.925923 0.925924 0.925923 0.925924 0.925923 0.925924 0.925924 0.617282 0.308641 0.925923 0.925923 0.925923 0.925923 0.925923 0.925923 0.925923 0.925923 0.925923 0.925923 0.925923 0.925924 0.925923 0.925924 0.925923 0.925924 0.925924 0.617282 0.154321 0.617283 0.617283 0.617283 0.617283 0.617283 0.617283 0.617283 0.617283 0.617282 0.617283 0.617283 0.617283 0.617283 0.617283 0.617283 0.617283 0.617283 0.462962 0.15432 0.308641 0.462962 0.15432 0.23148 0.462962 0.308642 0.462963 0.231482 0.154321 0.154321 0.231482 0.154321 0.462963 0.231482 0.231481 0.15432 0.308641 0.23148 0.308641 0.462962 0.15432 0.23148 0.462962 0.308642 0.462963 0.231482 0.154321 0.462963 0.231481 0.15432 0.308641 0.23148 0.308641 0.462962 0.15432 0.23148 0.462962 0.308642 0.462963 0.231482 0.154321 0.462963 0.231481 0.15432 0.308641 0.231481 0.308641 0.462962 0.15432 0.23148 0.462962 0.308642 0.462963 0.231482 0.154321 0.462963 0.231481 0.15432 0.308641 0.23148 0.308641 0.462962 0.15432 0.23148 0.462962 0.308642 0.462963 0.231482 0.154321 0.462963 0.231481 0.15432 0.308641 0.23148 0.308641 0.462962 0.15432 0.23148 0.462962 0.308642 0.462963 0.231482 0.154321 0.462963 0.231481 0.15432 0.308641 0.231481 0.308642 0.462962 0.15432 0.231481 0.462962 0.308643 0.462963 0.231482 0.154321 0.462964 0.231481 0.15432 0.308641 0.231481 0.308641 0.462962 0.15432 0.23148 0.462962 0.308642 0.462963 0.231482 0.154321 0.462963 0.231481 0.15432 0.308641 0.23148 0.308641 0.462962 0.15432 0.23148 0.462962 0.308642 0.462963 0.231482 0.154321 0.462963 0.231481 0.15432 0.308641 0.23148 0.308641 0.462962 0.15432 0.23148 0.462962 0.308642 0.462963 0.231482 0.154321 0.462963 0.231481 0.15432 0.308641 0.23148 0.308641 0.462962 0.15432 0.23148 0.462962 0.308642 0.462963 0.231482 0.154321 0.462963 0.231481 0.15432 0.308641 0.231481 0.308641 0.462962 0.15432 0.23148 0.462962 0.308642 0.462963 0.231482 0.154321 0.462963 0.231481 0.15432 0.308641 0.231481 0.308642 0.462962 0.15432 0.23148 0.462962 0.308642 0.462963 0.231482 0.154321 0.462963 0.231481 0.15432 0.308641 0.231481 0.308642 0.462963 0.15432 0.231481 0.462962 0.308643 0.462963 0.231482 0.154321 0.462964 0.231481 0.154321 0.308641 0.231481 0.308641 0.462961 0.15432 0.23148 0.462962 0.308642 0.462963 0.231482 0.154321 0.462963 0.231482 0.15432 0.308641 0.231481 0.308642 0.462962 0.15432 0.23148 0.462962 0.308643 0.462963 0.231482 0.154321 0.462964 0.231481 0.15432 0.308641 0.23148 0.308642 0.462962 0.15432 0.231481 0.462962 0.308643 0.462964 0.231482 0.154321 0.462964 0.231482 0.154321 0.308641 0.231481 0.308641 0.462962 0.15432 0.23148 0.23148 0.308642 0.231481 0.231482 0.154321 0.462963 0.0771602 0.15432 0.15432 0.0771599 0.154321 0.308641 0.462962 0.15432 0.23148 0.462962 0.308642 0.462963 0.231482 0.154321 0.462963 0.231482 0.308641 0.23148 0.308641 0.462962 0.15432 0.23148 0.462962 0.308642 0.462963 0.462963 0.308641 0.23148 0.308641 0.462962 0.15432 0.23148 0.462962 0.308642 0.462963 0.462963 0.308641 0.231481 0.308641 0.462962 0.15432 0.23148 0.462962 0.308642 0.462963 0.462963 0.308641 0.23148 0.308641 0.462962 0.15432 0.23148 0.462962 0.308642 0.462963 0.462963 0.308641 0.231481 0.308641 0.462962 0.15432 0.23148 0.462962 0.308642 0.462963 0.462963 0.308641 0.231481 0.308642 0.462962 0.15432 0.231481 0.462962 0.308643 0.462963 0.462964 0.308641 0.231481 0.308641 0.462962 0.15432 0.23148 0.462962 0.308642 0.462963 0.462963 0.308641 0.23148 0.308641 0.462962 0.15432 0.23148 0.462962 0.308642 0.462963 0.462963 0.308641 0.23148 0.308641 0.462962 0.15432 0.23148 0.462962 0.308642 0.462963 0.462963 0.308641 0.23148 0.308641 0.462962 0.15432 0.23148 0.462962 0.308642 0.462963 0.462963 0.308641 0.231481 0.308642 0.462962 0.15432 0.23148 0.462962 0.308642 0.462963 0.462963 0.308641 0.231481 0.308642 0.462962 0.15432 0.23148 0.462962 0.308642 0.462963 0.462964 0.308641 0.231481 0.308642 0.462963 0.15432 0.231481 0.462962 0.308643 0.462964 0.462964 0.308641 0.231481 0.308641 0.462961 0.15432 0.23148 0.462962 0.308642 0.462963 0.462963 0.308641 0.231481 0.308642 0.462962 0.15432 0.23148 0.462962 0.308643 0.462963 0.462964 0.308641 0.23148 0.308642 0.462962 0.15432 0.231481 0.462962 0.308643 0.462964 0.462964 0.308641 0.231481 0.308641 0.462962 0.15432 0.23148 0.23148 0.308642 0.231481 0.462963 0.15432 0.0771599 0.15432 0.308641 0.462962 0.15432 0.23148 0.462962 0.308642 0.462963 0.231482 0.154321 0.462963 0.231482 0.308641 0.23148 0.308641 0.462962 0.15432 0.23148 0.462962 0.308642 0.462963 0.462963 0.308641 0.23148 0.308641 0.462962 0.15432 0.23148 0.462962 0.308642 0.462963 0.462963 0.308641 0.23148 0.308641 0.462962 0.15432 0.23148 0.462962 0.308642 0.462963 0.462963 0.308641 0.23148 0.308641 0.462962 0.15432 0.23148 0.462962 0.308642 0.462963 0.462963 0.308641 0.23148 0.308641 0.462962 0.15432 0.23148 0.462962 0.308642 0.462963 0.462963 0.308641 0.231481 0.308642 0.462962 0.15432 0.231481 0.462962 0.308642 0.462963 0.462964 0.308641 0.231481 0.308641 0.462962 0.15432 0.23148 0.462962 0.308642 0.462963 0.462963 0.308641 0.23148 0.308641 0.462962 0.15432 0.23148 0.462962 0.308642 0.462963 0.462963 0.308641 0.23148 0.308641 0.462962 0.15432 0.23148 0.462962 0.308642 0.462963 0.462963 0.308641 0.23148 0.308641 0.462962 0.15432 0.23148 0.462962 0.308642 0.462963 0.462963 0.308641 0.231481 0.308641 0.462962 0.15432 0.23148 0.462962 0.308642 0.462963 0.462963 0.308641 0.231481 0.308642 0.462962 0.15432 0.23148 0.462962 0.308642 0.462963 0.462964 0.308641 0.231481 0.308642 0.462962 0.15432 0.231481 0.462962 0.308643 0.462963 0.462964 0.308641 0.23148 0.308641 0.462961 0.15432 0.23148 0.462962 0.308642 0.462963 0.462963 0.308641 0.23148 0.308642 0.462962 0.15432 0.23148 0.462962 0.308643 0.462963 0.462964 0.308641 0.23148 0.308642 0.462962 0.15432 0.231481 0.462962 0.308643 0.462964 0.462964 0.308641 0.231481 0.308641 0.462962 0.15432 0.23148 0.23148 0.308642 0.231481 0.462963 0.15432 0.0771599 0.15432 0.308641 0.462962 0.15432 0.23148 0.462962 0.308642 0.462963 0.231481 0.154321 0.462963 0.231482 0.308641 0.23148 0.308641 0.462962 0.15432 0.23148 0.462962 0.308642 0.462963 0.462963 0.308641 0.23148 0.308641 0.462962 0.15432 0.23148 0.462962 0.308642 0.462963 0.462963 0.308641 0.23148 0.308641 0.462962 0.15432 0.23148 0.462962 0.308642 0.462963 0.462963 0.308641 0.23148 0.308641 0.462962 0.15432 0.23148 0.462962 0.308642 0.462963 0.462963 0.308641 0.23148 0.308641 0.462962 0.15432 0.23148 0.462962 0.308642 0.462963 0.462963 0.308641 0.231481 0.308641 0.462962 0.15432 0.231481 0.462962 0.308643 0.462963 0.462964 0.308641 0.231481 0.308641 0.462962 0.15432 0.23148 0.462962 0.308642 0.462963 0.462963 0.308641 0.23148 0.308641 0.462962 0.15432 0.23148 0.462961 0.308642 0.462963 0.462963 0.308641 0.23148 0.308641 0.462962 0.15432 0.23148 0.462962 0.308642 0.462963 0.462963 0.308641 0.23148 0.308641 0.462962 0.15432 0.23148 0.462962 0.308642 0.462963 0.462963 0.308641 0.231481 0.308641 0.462962 0.15432 0.23148 0.462962 0.308642 0.462963 0.462963 0.308641 0.231481 0.308641 0.462962 0.15432 0.23148 0.462962 0.308642 0.462963 0.462963 0.308641 0.231481 0.308642 0.462963 0.15432 0.231481 0.462962 0.308643 0.462964 0.462964 0.308641 0.231481 0.308641 0.462961 0.15432 0.23148 0.462962 0.308642 0.462963 0.462963 0.308641 0.231481 0.308641 0.462962 0.15432 0.23148 0.462962 0.308643 0.462963 0.462964 0.308641 0.23148 0.308642 0.462962 0.15432 0.231481 0.462962 0.308643 0.462964 0.462964 0.308642 0.231481 0.308641 0.462962 0.15432 0.23148 0.23148 0.308642 0.231481 0.462963 0.15432 0.0771599 0.15432 0.308641 0.462962 0.15432 0.23148 0.462962 0.308642 0.462963 0.231482 0.154321 0.462963 0.231482 0.308641 0.23148 0.308641 0.462962 0.15432 0.23148 0.462962 0.308642 0.462963 0.462963 0.308641 0.23148 0.308641 0.462962 0.15432 0.23148 0.462962 0.308642 0.462963 0.462963 0.308641 0.231481 0.308641 0.462962 0.15432 0.23148 0.462962 0.308642 0.462963 0.462963 0.308641 0.23148 0.308641 0.462962 0.15432 0.23148 0.462962 0.308642 0.462963 0.462963 0.308641 0.231481 0.308641 0.462962 0.15432 0.23148 0.462962 0.308642 0.462963 0.462963 0.308641 0.231481 0.308642 0.462962 0.15432 0.231481 0.462962 0.308642 0.462963 0.462964 0.308641 0.231481 0.308641 0.462962 0.15432 0.23148 0.462962 0.308642 0.462963 0.462963 0.308641 0.23148 0.308641 0.462962 0.15432 0.23148 0.462962 0.308642 0.462963 0.462963 0.308641 0.23148 0.308641 0.462962 0.15432 0.23148 0.462962 0.308642 0.462963 0.462963 0.308641 0.23148 0.308641 0.462962 0.15432 0.23148 0.462962 0.308642 0.462963 0.462963 0.308641 0.231481 0.308641 0.462962 0.15432 0.23148 0.462962 0.308642 0.462963 0.462963 0.308641 0.231481 0.308642 0.462962 0.15432 0.23148 0.462962 0.308642 0.462963 0.462963 0.308641 0.231481 0.308642 0.462962 0.15432 0.231481 0.462962 0.308643 0.462963 0.462964 0.308641 0.231481 0.308641 0.462961 0.15432 0.23148 0.462962 0.308642 0.462963 0.462963 0.308641 0.231481 0.308642 0.462962 0.15432 0.23148 0.462962 0.308643 0.462963 0.462964 0.308641 0.23148 0.308642 0.462962 0.15432 0.231481 0.462962 0.308643 0.462964 0.462964 0.308641 0.231481 0.308641 0.462962 0.15432 0.23148 0.23148 0.308642 0.231481 0.462963 0.15432 0.0771599 0.15432 0.15432 0.462962 0.15432 0.0771601 0.23148 0.308642 0.462963 0.0771604 0.154321 0.231481 0.231482 0.308641 0.23148 0.15432 0.462962 0.15432 0.0771601 0.23148 0.308642 0.462963 0.231481 0.308641 0.23148 0.15432 0.462962 0.15432 0.07716 0.23148 0.308642 0.462963 0.231481 0.308641 0.23148 0.154321 0.462962 0.15432 0.0771601 0.23148 0.308642 0.462963 0.231482 0.308641 0.23148 0.15432 0.462962 0.15432 0.07716 0.23148 0.308642 0.462963 0.231481 0.308641 0.23148 0.15432 0.462962 0.15432 0.0771601 0.231481 0.308642 0.462963 0.231482 0.308641 0.231481 0.154321 0.462962 0.15432 0.0771601 0.231481 0.308643 0.462963 0.231482 0.308641 0.231481 0.15432 0.462962 0.15432 0.0771601 0.231481 0.308642 0.462963 0.231481 0.308641 0.23148 0.15432 0.462962 0.15432 0.07716 0.23148 0.308642 0.462963 0.231481 0.308641 0.23148 0.15432 0.462962 0.15432 0.0771601 0.23148 0.308642 0.462963 0.231481 0.308641 0.23148 0.15432 0.462962 0.15432 0.07716 0.23148 0.308642 0.462963 0.231482 0.308641 0.231481 0.154321 0.462962 0.15432 0.0771601 0.231481 0.308642 0.462963 0.231482 0.308641 0.231481 0.154321 0.462962 0.15432 0.0771602 0.231481 0.308642 0.462963 0.231482 0.308641 0.231481 0.154321 0.462963 0.15432 0.0771602 0.231481 0.308643 0.462963 0.231482 0.308641 0.231481 0.15432 0.462961 0.15432 0.07716 0.23148 0.308642 0.462963 0.231481 0.308641 0.231481 0.154321 0.462962 0.15432 0.0771601 0.23148 0.308643 0.462963 0.231482 0.308641 0.23148 0.15432 0.462962 0.15432 0.0771601 0.231481 0.308643 0.462964 0.231482 0.308641 0.231481 0.15432 0.462962 0.15432 0.0771602 0.15432 0.308642 0.231481 0.231481 0.15432 0.0771599 0.308642 0.462963 0.462963 0.308643 0.462964 0.231482 0.154321 0.154321 0.231482 0.154321 0.462964 0.231482 0.231481 0.308642 0.308642 0.462963 0.462963 0.308643 0.462964 0.231482 0.154321 0.462964 0.231481 0.308642 0.308642 0.462963 0.462963 0.308643 0.462964 0.231482 0.154321 0.462964 0.231482 0.308642 0.308642 0.462963 0.462963 0.308643 0.462964 0.231482 0.154321 0.462964 0.231481 0.308642 0.308642 0.462963 0.462963 0.308643 0.462964 0.231482 0.154321 0.462964 0.231482 0.308642 0.308642 0.462963 0.462963 0.308643 0.462964 0.231482 0.154321 0.462964 0.231482 0.308642 0.308642 0.462964 0.462963 0.308643 0.462964 0.231482 0.154321 0.462964 0.231482 0.308642 0.308642 0.462963 0.462963 0.308643 0.462964 0.231482 0.154321 0.462964 0.231481 0.308642 0.308642 0.462963 0.462963 0.308643 0.462964 0.231481 0.154321 0.462963 0.231481 0.308642 0.308642 0.462963 0.462963 0.308643 0.462964 0.231481 0.154321 0.462963 0.231482 0.308642 0.308642 0.462963 0.462963 0.308643 0.462964 0.231481 0.154321 0.462963 0.231482 0.308642 0.308642 0.462963 0.462963 0.308643 0.462964 0.231481 0.154321 0.462964 0.231482 0.308642 0.308642 0.462964 0.462963 0.308643 0.462964 0.231481 0.154321 0.462964 0.231481 0.308642 0.308643 0.462964 0.462964 0.308643 0.462964 0.231482 0.154321 0.462964 0.231482 0.308642 0.308642 0.462963 0.462964 0.308642 0.462964 0.231481 0.154321 0.462963 0.231482 0.308643 0.308642 0.462964 0.462963 0.308643 0.462964 0.231482 0.154321 0.462964 0.231482 0.308642 0.308643 0.462964 0.462964 0.308643 0.462964 0.231482 0.154321 0.462964 0.231482 0.308643 0.308642 0.462963 0.231482 0.308643 0.231482 0.231481 0.154321 0.462963 0.0771605 0.154321 0.308642 0.462963 0.462963 0.308643 0.462964 0.231482 0.154321 0.462964 0.231482 0.308642 0.308642 0.462963 0.462963 0.308643 0.462964 0.462964 0.308642 0.308642 0.462963 0.462963 0.308643 0.462964 0.462964 0.308642 0.308642 0.462963 0.462963 0.308643 0.462964 0.462964 0.308642 0.308642 0.462963 0.462963 0.308643 0.462964 0.462964 0.308642 0.308642 0.462963 0.462964 0.308643 0.462964 0.462964 0.308642 0.308643 0.462964 0.462963 0.308643 0.462964 0.462964 0.308642 0.308642 0.462963 0.462963 0.308643 0.462964 0.462964 0.308642 0.308642 0.462963 0.462963 0.308643 0.462964 0.462963 0.308642 0.308642 0.462963 0.462963 0.308643 0.462964 0.462964 0.308642 0.308642 0.462963 0.462963 0.308643 0.462964 0.462964 0.308642 0.308642 0.462963 0.462964 0.308643 0.462964 0.462964 0.308642 0.308643 0.462964 0.462963 0.308643 0.462964 0.462964 0.308642 0.308643 0.462964 0.462964 0.308643 0.462964 0.462964 0.308643 0.308642 0.462963 0.462964 0.308642 0.462964 0.462963 0.308643 0.308643 0.462964 0.462963 0.308643 0.462964 0.462964 0.308642 0.308643 0.462964 0.462964 0.308643 0.462964 0.462964 0.308643 0.308642 0.462963 0.231482 0.308643 0.231482 0.462964 0.154321 0.308642 0.462963 0.462963 0.308643 0.462964 0.231482 0.154321 0.462964 0.231482 0.308642 0.308642 0.462963 0.462963 0.308643 0.462964 0.462964 0.308642 0.308642 0.462963 0.462963 0.308643 0.462964 0.462964 0.308642 0.308642 0.462963 0.462963 0.308643 0.462964 0.462964 0.308642 0.308642 0.462963 0.462963 0.308643 0.462964 0.462964 0.308642 0.308642 0.462963 0.462964 0.308643 0.462964 0.462964 0.308642 0.308642 0.462964 0.462963 0.308643 0.462964 0.462964 0.308642 0.308642 0.462963 0.462963 0.308643 0.462964 0.462964 0.308642 0.308642 0.462963 0.462963 0.308643 0.462964 0.462963 0.308642 0.308642 0.462963 0.462963 0.308643 0.462964 0.462963 0.308642 0.308642 0.462963 0.462963 0.308643 0.462964 0.462964 0.308642 0.308642 0.462963 0.462964 0.308643 0.462964 0.462964 0.308642 0.308642 0.462963 0.462963 0.308643 0.462964 0.462964 0.308642 0.308643 0.462964 0.462964 0.308643 0.462964 0.462964 0.308642 0.308642 0.462963 0.462964 0.308642 0.462964 0.462963 0.308643 0.308642 0.462964 0.462963 0.308643 0.462964 0.462964 0.308642 0.308643 0.462964 0.462964 0.308643 0.462964 0.462964 0.308643 0.308642 0.462963 0.231482 0.308643 0.231482 0.462964 0.154321 0.308642 0.462963 0.462963 0.308643 0.462964 0.231481 0.154321 0.462964 0.231482 0.308642 0.308642 0.462963 0.462963 0.308643 0.462964 0.462964 0.308642 0.308642 0.462963 0.462963 0.308643 0.462964 0.462964 0.308642 0.308642 0.462963 0.462963 0.308643 0.462964 0.462964 0.308642 0.308642 0.462963 0.462963 0.308643 0.462964 0.462963 0.308642 0.308642 0.462963 0.462963 0.308643 0.462964 0.462964 0.308642 0.308642 0.462964 0.462963 0.308643 0.462964 0.462964 0.308642 0.308642 0.462963 0.462963 0.308643 0.462964 0.462964 0.308642 0.308642 0.462963 0.462963 0.308643 0.462964 0.462963 0.308642 0.308642 0.462963 0.462963 0.308643 0.462964 0.462963 0.308642 0.308642 0.462963 0.462963 0.308643 0.462964 0.462963 0.308642 0.308642 0.462963 0.462963 0.308643 0.462964 0.462964 0.308642 0.308642 0.462964 0.462963 0.308643 0.462964 0.462964 0.308642 0.308643 0.462964 0.462964 0.308643 0.462964 0.462964 0.308643 0.308642 0.462963 0.462964 0.308642 0.462964 0.462963 0.308643 0.308642 0.462964 0.462963 0.308643 0.462964 0.462964 0.308642 0.308642 0.462964 0.462964 0.308643 0.462964 0.462964 0.308643 0.308642 0.462963 0.231482 0.308643 0.231482 0.462963 0.154321 0.308642 0.462963 0.462963 0.308643 0.462964 0.231482 0.154321 0.462964 0.231482 0.308642 0.308642 0.462963 0.462963 0.308643 0.462964 0.462964 0.308642 0.308642 0.462963 0.462963 0.308643 0.462964 0.462964 0.308642 0.308642 0.462963 0.462963 0.308643 0.462964 0.462964 0.308642 0.308642 0.462963 0.462963 0.308643 0.462964 0.462963 0.308642 0.308642 0.462963 0.462964 0.308643 0.462964 0.462964 0.308642 0.308642 0.462964 0.462963 0.308643 0.462964 0.462964 0.308642 0.308642 0.462963 0.462963 0.308643 0.462964 0.462964 0.308642 0.308642 0.462963 0.462963 0.308642 0.462963 0.462963 0.308642 0.308642 0.462963 0.462963 0.308643 0.462964 0.462963 0.308642 0.308642 0.462963 0.462963 0.308643 0.462964 0.462963 0.308642 0.308642 0.462963 0.462963 0.308643 0.462964 0.462964 0.308642 0.308642 0.462963 0.462963 0.308643 0.462964 0.462964 0.308642 0.308643 0.462964 0.462964 0.308643 0.462964 0.462964 0.308642 0.308642 0.462963 0.462964 0.308642 0.462964 0.462963 0.308643 0.308642 0.462964 0.462963 0.308643 0.462964 0.462964 0.308642 0.308643 0.462964 0.462964 0.308643 0.462964 0.462964 0.308643 0.308642 0.462963 0.231482 0.308643 0.231482 0.462963 0.154321 0.154321 0.462963 0.231482 0.308643 0.462964 0.0771606 0.154321 0.231482 0.231482 0.308642 0.154321 0.462963 0.231482 0.308643 0.462964 0.231482 0.308642 0.154321 0.462963 0.231482 0.308643 0.462964 0.231482 0.308642 0.154321 0.462963 0.231482 0.308643 0.462964 0.231482 0.308642 0.154321 0.462963 0.231482 0.308643 0.462964 0.231482 0.308642 0.154321 0.462963 0.231482 0.308643 0.462964 0.231482 0.308642 0.154321 0.462964 0.231482 0.308643 0.462964 0.231482 0.308642 0.154321 0.462963 0.231482 0.308643 0.462964 0.231482 0.308642 0.154321 0.462963 0.231482 0.308643 0.462964 0.231482 0.308642 0.154321 0.462963 0.231482 0.308643 0.462964 0.231482 0.308642 0.154321 0.462963 0.231482 0.308643 0.462964 0.231482 0.308642 0.154321 0.462963 0.231482 0.308643 0.462964 0.231482 0.308642 0.154322 0.462964 0.231482 0.308643 0.462964 0.231482 0.308642 0.154322 0.462964 0.231482 0.308643 0.462964 0.231482 0.308642 0.154321 0.462963 0.231482 0.308642 0.462964 0.231482 0.308643 0.154321 0.462964 0.231482 0.308643 0.462964 0.231483 0.308642 0.154321 0.462964 0.231482 0.308643 0.462964 0.231482 0.308643 0.154321 0.462963 0.154321 0.308643 0.231482 0.231482 0.154321 0.308642 0.462962 0.462962 0.30864 0.462961 0.23148 0.15432 0.15432 0.23148 0.15432 0.462961 0.231481 0.23148 0.308641 0.308642 0.462962 0.462962 0.30864 0.462961 0.23148 0.15432 0.462961 0.23148 0.308641 0.308642 0.462962 0.462962 0.30864 0.462961 0.23148 0.15432 0.462961 0.23148 0.308641 0.308642 0.462962 0.462962 0.30864 0.462961 0.23148 0.15432 0.462961 0.23148 0.308641 0.308642 0.462962 0.462962 0.30864 0.462961 0.23148 0.15432 0.462961 0.23148 0.308641 0.308642 0.462962 0.462963 0.30864 0.462961 0.23148 0.15432 0.462961 0.23148 0.308642 0.308642 0.462963 0.462962 0.30864 0.462961 0.231481 0.15432 0.462961 0.23148 0.308642 0.308642 0.462962 0.462962 0.30864 0.462961 0.23148 0.15432 0.462961 0.23148 0.308642 0.308642 0.462962 0.462962 0.30864 0.462961 0.23148 0.15432 0.462961 0.23148 0.308641 0.308642 0.462962 0.462962 0.30864 0.462961 0.23148 0.15432 0.462961 0.23148 0.308641 0.308642 0.462962 0.462962 0.30864 0.462961 0.23148 0.15432 0.462961 0.23148 0.308641 0.308642 0.462962 0.462962 0.30864 0.462961 0.23148 0.15432 0.462961 0.23148 0.308642 0.308642 0.462963 0.462962 0.30864 0.462961 0.23148 0.15432 0.462961 0.23148 0.308641 0.308642 0.462963 0.462963 0.308641 0.462961 0.231481 0.154321 0.462962 0.23148 0.308642 0.308641 0.462962 0.462963 0.30864 0.462961 0.23148 0.15432 0.462961 0.23148 0.308642 0.308642 0.462963 0.462962 0.308641 0.462961 0.23148 0.15432 0.462962 0.23148 0.308641 0.308642 0.462963 0.462963 0.308641 0.462962 0.231481 0.154321 0.462962 0.23148 0.308642 0.308642 0.462962 0.231482 0.30864 0.23148 0.23148 0.15432 0.462961 0.0771602 0.154321 0.308642 0.462962 0.462962 0.30864 0.462961 0.23148 0.15432 0.462961 0.231481 0.308641 0.308642 0.462962 0.462962 0.30864 0.462961 0.462961 0.308641 0.308642 0.462962 0.462962 0.30864 0.462961 0.462961 0.308641 0.308642 0.462962 0.462962 0.30864 0.462961 0.462961 0.308641 0.308642 0.462962 0.462962 0.30864 0.462961 0.462961 0.308641 0.308642 0.462962 0.462963 0.30864 0.462961 0.462961 0.308642 0.308642 0.462963 0.462963 0.30864 0.462961 0.462961 0.308642 0.308642 0.462962 0.462962 0.30864 0.462961 0.462961 0.308642 0.308642 0.462962 0.462962 0.30864 0.462961 0.462961 0.308641 0.308642 0.462962 0.462962 0.30864 0.462961 0.462961 0.308641 0.308642 0.462962 0.462962 0.30864 0.462961 0.462961 0.308641 0.308642 0.462962 0.462963 0.30864 0.462961 0.462961 0.308642 0.308642 0.462963 0.462962 0.30864 0.462961 0.462961 0.308641 0.308642 0.462963 0.462963 0.308641 0.462961 0.462962 0.308642 0.308641 0.462962 0.462963 0.30864 0.462961 0.462961 0.308642 0.308642 0.462963 0.462962 0.308641 0.462961 0.462962 0.308641 0.308642 0.462963 0.462963 0.308641 0.462962 0.462962 0.308642 0.308642 0.462962 0.231482 0.30864 0.23148 0.462961 0.154321 0.308642 0.462962 0.462962 0.30864 0.462961 0.23148 0.15432 0.462961 0.231481 0.308641 0.308642 0.462962 0.462962 0.30864 0.462961 0.462961 0.308641 0.308642 0.462962 0.462962 0.30864 0.462961 0.462961 0.308641 0.308642 0.462962 0.462962 0.30864 0.462961 0.462961 0.308641 0.308642 0.462962 0.462962 0.30864 0.462961 0.462961 0.308641 0.308642 0.462962 0.462963 0.30864 0.462961 0.462961 0.308642 0.308642 0.462963 0.462962 0.30864 0.462961 0.462961 0.308641 0.308642 0.462962 0.462962 0.30864 0.462961 0.462961 0.308642 0.308642 0.462962 0.462962 0.30864 0.462961 0.462961 0.308641 0.308642 0.462962 0.462962 0.30864 0.462961 0.462961 0.308641 0.308642 0.462962 0.462962 0.30864 0.462961 0.462961 0.308641 0.308642 0.462962 0.462963 0.30864 0.462961 0.462961 0.308641 0.308642 0.462963 0.462962 0.30864 0.462961 0.462961 0.308641 0.308642 0.462963 0.462963 0.308641 0.462961 0.462962 0.308642 0.308641 0.462962 0.462963 0.30864 0.462961 0.462961 0.308642 0.308642 0.462963 0.462962 0.308641 0.462961 0.462962 0.308641 0.308642 0.462963 0.462963 0.308641 0.462961 0.462962 0.308642 0.308642 0.462962 0.231482 0.30864 0.23148 0.462961 0.154321 0.308642 0.462962 0.462962 0.30864 0.462961 0.23148 0.15432 0.462961 0.231481 0.308641 0.308642 0.462962 0.462962 0.30864 0.462961 0.462961 0.308642 0.308642 0.462962 0.462962 0.30864 0.462961 0.462961 0.308642 0.308642 0.462962 0.462962 0.30864 0.462961 0.462961 0.308641 0.308641 0.462962 0.462962 0.30864 0.462961 0.462961 0.308641 0.308642 0.462962 0.462962 0.30864 0.462961 0.462961 0.308642 0.308642 0.462963 0.462962 0.30864 0.462961 0.462961 0.308642 0.308642 0.462962 0.462962 0.30864 0.462961 0.462961 0.308642 0.308641 0.462962 0.462962 0.30864 0.462961 0.462961 0.308641 0.308641 0.462962 0.462962 0.30864 0.462961 0.462961 0.308642 0.308641 0.462962 0.462962 0.30864 0.462961 0.462961 0.308642 0.308642 0.462963 0.462962 0.30864 0.462961 0.462961 0.308642 0.308642 0.462963 0.462962 0.30864 0.462961 0.462961 0.308641 0.308642 0.462963 0.462963 0.308641 0.462961 0.462962 0.308642 0.308641 0.462962 0.462963 0.30864 0.462961 0.462961 0.308642 0.308642 0.462963 0.462962 0.308641 0.462961 0.462961 0.308641 0.308642 0.462963 0.462963 0.308641 0.462962 0.462962 0.308642 0.308642 0.462962 0.231482 0.30864 0.23148 0.462961 0.154321 0.308642 0.462962 0.462962 0.30864 0.462961 0.23148 0.15432 0.462961 0.231481 0.308641 0.308642 0.462962 0.462962 0.30864 0.462961 0.462961 0.308641 0.308642 0.462962 0.462962 0.30864 0.462961 0.462961 0.308641 0.308642 0.462962 0.462962 0.30864 0.462961 0.462961 0.308641 0.308642 0.462962 0.462962 0.30864 0.462961 0.462961 0.308641 0.308642 0.462962 0.462963 0.30864 0.462961 0.462961 0.308642 0.308642 0.462963 0.462962 0.30864 0.462961 0.462961 0.308641 0.308642 0.462962 0.462962 0.30864 0.462961 0.462961 0.308642 0.308642 0.462962 0.462962 0.30864 0.462961 0.462961 0.308641 0.308642 0.462962 0.462962 0.30864 0.462961 0.462961 0.308641 0.308642 0.462962 0.462962 0.30864 0.462961 0.462961 0.308641 0.308642 0.462962 0.462962 0.30864 0.462961 0.462961 0.308641 0.308642 0.462962 0.462962 0.30864 0.462961 0.462961 0.308641 0.308642 0.462963 0.462963 0.308641 0.462961 0.462962 0.308642 0.308641 0.462962 0.462963 0.30864 0.462961 0.462961 0.308642 0.308642 0.462963 0.462962 0.30864 0.462961 0.462961 0.308641 0.308642 0.462963 0.462963 0.308641 0.462961 0.462962 0.308642 0.308642 0.462962 0.231482 0.30864 0.23148 0.462961 0.154321 0.154321 0.462962 0.231482 0.30864 0.462961 0.0771605 0.15432 0.231481 0.231481 0.308641 0.154321 0.462962 0.231482 0.30864 0.462961 0.231481 0.308641 0.154321 0.462962 0.231482 0.30864 0.462961 0.231481 0.308641 0.154322 0.462962 0.231482 0.30864 0.462961 0.231481 0.308641 0.154321 0.462962 0.231482 0.30864 0.462961 0.231481 0.308641 0.154322 0.462962 0.231482 0.30864 0.462961 0.231481 0.308642 0.154322 0.462963 0.231482 0.30864 0.462961 0.231481 0.308641 0.154321 0.462962 0.231482 0.30864 0.462961 0.231481 0.308642 0.154321 0.462962 0.231482 0.30864 0.462961 0.231481 0.308641 0.154321 0.462962 0.231482 0.30864 0.462961 0.231481 0.308641 0.154321 0.462962 0.231482 0.30864 0.462961 0.231481 0.308641 0.154322 0.462962 0.231482 0.30864 0.462961 0.231481 0.308641 0.154322 0.462962 0.231482 0.30864 0.462961 0.231481 0.308641 0.154322 0.462963 0.231483 0.308641 0.462961 0.231481 0.308642 0.154321 0.462962 0.231482 0.30864 0.462961 0.23148 0.308642 0.154322 0.462963 0.231482 0.30864 0.462961 0.231481 0.308641 0.154321 0.462963 0.231483 0.308641 0.462962 0.231481 0.308642 0.154322 0.462962 0.154322 0.30864 0.23148 0.231481 0.154321 0.308642 0.462963 0.462963 0.308643 0.462964 0.231482 0.154322 0.154321 0.231482 0.154321 0.462964 0.231482 0.231482 0.308642 0.308642 0.462963 0.462963 0.308643 0.462964 0.231482 0.154321 0.462964 0.231482 0.308642 0.308642 0.462963 0.462963 0.308643 0.462964 0.231482 0.154321 0.462964 0.231482 0.308642 0.308642 0.462963 0.462963 0.308643 0.462964 0.231482 0.154321 0.462964 0.231482 0.308642 0.308642 0.462963 0.462963 0.308643 0.462964 0.231482 0.154321 0.462964 0.231482 0.308642 0.308642 0.462963 0.462963 0.308643 0.462964 0.231482 0.154321 0.462964 0.231482 0.308642 0.308642 0.462963 0.462963 0.308643 0.462964 0.231482 0.154321 0.462964 0.231482 0.308642 0.308642 0.462963 0.462963 0.308643 0.462964 0.231482 0.154321 0.462964 0.231482 0.308642 0.308642 0.462963 0.462963 0.308642 0.462963 0.231482 0.154321 0.462964 0.231482 0.308642 0.308642 0.462963 0.462963 0.308643 0.462964 0.231482 0.154321 0.462964 0.231482 0.308642 0.308642 0.462963 0.462963 0.308643 0.462964 0.231482 0.154321 0.462964 0.231482 0.308642 0.308642 0.462963 0.462963 0.308643 0.462964 0.231482 0.154321 0.462964 0.231482 0.308642 0.308642 0.462963 0.462963 0.308643 0.462964 0.231482 0.154321 0.462964 0.231482 0.308642 0.308643 0.462964 0.462963 0.308643 0.462964 0.231482 0.154321 0.462964 0.231482 0.308642 0.308642 0.462963 0.462963 0.308642 0.462964 0.231481 0.154321 0.462963 0.231482 0.308642 0.308642 0.462964 0.462963 0.308643 0.462964 0.231482 0.154321 0.462964 0.231482 0.308642 0.308642 0.462964 0.462963 0.308643 0.462964 0.231482 0.154321 0.462964 0.231482 0.308642 0.308642 0.462963 0.231481 0.308643 0.231481 0.231482 0.154321 0.462964 0.0771602 0.15432 0.308642 0.462963 0.462963 0.308643 0.462964 0.231482 0.154321 0.462964 0.231482 0.308642 0.308642 0.462963 0.462963 0.308643 0.462964 0.462964 0.308642 0.308642 0.462963 0.462963 0.308643 0.462964 0.462964 0.308642 0.308642 0.462963 0.462963 0.308643 0.462964 0.462964 0.308642 0.308642 0.462963 0.462963 0.308643 0.462964 0.462964 0.308642 0.308642 0.462963 0.462963 0.308643 0.462964 0.462964 0.308642 0.308642 0.462963 0.462963 0.308643 0.462964 0.462964 0.308642 0.308642 0.462963 0.462963 0.308643 0.462964 0.462964 0.308642 0.308642 0.462963 0.462963 0.308642 0.462964 0.462964 0.308642 0.308642 0.462963 0.462963 0.308643 0.462964 0.462964 0.308642 0.308642 0.462963 0.462963 0.308643 0.462964 0.462964 0.308642 0.308642 0.462963 0.462963 0.308643 0.462964 0.462964 0.308642 0.308642 0.462963 0.462963 0.308643 0.462964 0.462964 0.308642 0.308643 0.462964 0.462963 0.308643 0.462964 0.462965 0.308642 0.308642 0.462963 0.462963 0.308642 0.462964 0.462963 0.308642 0.308642 0.462964 0.462963 0.308643 0.462964 0.462964 0.308642 0.308642 0.462964 0.462964 0.308643 0.462964 0.462964 0.308642 0.308642 0.462963 0.231481 0.308643 0.231481 0.462964 0.15432 0.308642 0.462963 0.462963 0.308643 0.462964 0.231482 0.154321 0.462964 0.231482 0.308642 0.308642 0.462963 0.462963 0.308643 0.462964 0.462964 0.308642 0.308642 0.462963 0.462963 0.308643 0.462964 0.462964 0.308642 0.308642 0.462963 0.462963 0.308643 0.462964 0.462964 0.308642 0.308642 0.462963 0.462963 0.308642 0.462964 0.462964 0.308642 0.308642 0.462963 0.462963 0.308643 0.462964 0.462964 0.308642 0.308642 0.462963 0.462963 0.308643 0.462964 0.462964 0.308642 0.308642 0.462963 0.462963 0.308643 0.462964 0.462964 0.308642 0.308642 0.462963 0.462963 0.308642 0.462963 0.462964 0.308642 0.308642 0.462963 0.462963 0.308643 0.462964 0.462964 0.308642 0.308642 0.462963 0.462963 0.308642 0.462964 0.462964 0.308642 0.308642 0.462963 0.462963 0.308643 0.462964 0.462964 0.308642 0.308642 0.462963 0.462963 0.308643 0.462964 0.462964 0.308642 0.308643 0.462964 0.462963 0.308643 0.462964 0.462964 0.308642 0.308642 0.462963 0.462963 0.308642 0.462964 0.462963 0.308642 0.308642 0.462963 0.462963 0.308643 0.462964 0.462964 0.308642 0.308642 0.462964 0.462963 0.308643 0.462964 0.462964 0.308642 0.308642 0.462963 0.231481 0.308643 0.231481 0.462964 0.15432 0.308642 0.462963 0.462963 0.308643 0.462964 0.231482 0.154321 0.462964 0.231482 0.308642 0.308642 0.462963 0.462963 0.308643 0.462964 0.462964 0.308642 0.308642 0.462963 0.462963 0.308643 0.462964 0.462964 0.308642 0.308642 0.462963 0.462963 0.308643 0.462964 0.462964 0.308642 0.308642 0.462963 0.462963 0.308643 0.462964 0.462964 0.308642 0.308642 0.462963 0.462963 0.308643 0.462964 0.462964 0.308642 0.308642 0.462963 0.462963 0.308643 0.462964 0.462964 0.308642 0.308642 0.462963 0.462963 0.308643 0.462964 0.462964 0.308642 0.308642 0.462963 0.462963 0.308642 0.462964 0.462963 0.308642 0.308642 0.462963 0.462963 0.308643 0.462964 0.462964 0.308642 0.308642 0.462963 0.462963 0.308643 0.462964 0.462964 0.308642 0.308642 0.462963 0.462963 0.308643 0.462964 0.462964 0.308642 0.308642 0.462963 0.462963 0.308643 0.462964 0.462964 0.308642 0.308643 0.462964 0.462963 0.308643 0.462964 0.462964 0.308642 0.308642 0.462963 0.462963 0.308642 0.462964 0.462963 0.308642 0.308642 0.462964 0.462963 0.308643 0.462964 0.462964 0.308642 0.308642 0.462964 0.462963 0.308643 0.462964 0.462964 0.308642 0.308642 0.462963 0.231481 0.308643 0.231481 0.462964 0.15432 0.308642 0.462963 0.462963 0.308643 0.462964 0.231482 0.154321 0.462964 0.231482 0.308642 0.308642 0.462963 0.462963 0.308643 0.462964 0.462964 0.308642 0.308642 0.462963 0.462963 0.308643 0.462964 0.462964 0.308642 0.308642 0.462963 0.462963 0.308643 0.462964 0.462964 0.308642 0.308642 0.462963 0.462963 0.308642 0.462964 0.462964 0.308642 0.308642 0.462963 0.462963 0.308643 0.462964 0.462964 0.308642 0.308642 0.462963 0.462963 0.308643 0.462964 0.462964 0.308642 0.308642 0.462963 0.462963 0.308643 0.462964 0.462964 0.308642 0.308642 0.462963 0.462963 0.308642 0.462963 0.462964 0.308642 0.308642 0.462963 0.462963 0.308643 0.462964 0.462964 0.308642 0.308642 0.462963 0.462963 0.308642 0.462964 0.462964 0.308642 0.308642 0.462963 0.462963 0.308643 0.462964 0.462964 0.308642 0.308642 0.462963 0.462963 0.308643 0.462964 0.462964 0.308642 0.308643 0.462964 0.462963 0.308643 0.462964 0.462964 0.308642 0.308642 0.462962 0.462963 0.308642 0.462964 0.462963 0.308642 0.308642 0.462963 0.462963 0.308643 0.462964 0.462964 0.308642 0.308642 0.462964 0.462963 0.308643 0.462964 0.462964 0.308642 0.308642 0.462963 0.231481 0.308643 0.231481 0.462964 0.15432 0.154321 0.462963 0.231481 0.308643 0.462964 0.0771606 0.154321 0.231482 0.231482 0.308642 0.154321 0.462963 0.231481 0.308643 0.462964 0.231482 0.308642 0.154321 0.462963 0.231481 0.308643 0.462964 0.231482 0.308642 0.154321 0.462963 0.231481 0.308643 0.462964 0.231482 0.308642 0.154321 0.462963 0.231481 0.308642 0.462964 0.231482 0.308642 0.154321 0.462963 0.231481 0.308643 0.462964 0.231482 0.308642 0.154321 0.462963 0.231481 0.308643 0.462964 0.231482 0.308642 0.154321 0.462963 0.231481 0.308643 0.462964 0.231482 0.308642 0.154321 0.462963 0.231481 0.308642 0.462963 0.231482 0.308642 0.154321 0.462963 0.231481 0.308643 0.462964 0.231482 0.308642 0.154321 0.462963 0.231481 0.308642 0.462964 0.231482 0.308642 0.154321 0.462963 0.231481 0.308643 0.462964 0.231482 0.308642 0.154321 0.462963 0.231481 0.308643 0.462964 0.231482 0.308642 0.154321 0.462964 0.231481 0.308643 0.462964 0.231482 0.308642 0.154321 0.462963 0.231481 0.308642 0.462964 0.231482 0.308642 0.154321 0.462963 0.231481 0.308643 0.462964 0.231482 0.308642 0.154321 0.462964 0.231481 0.308643 0.462964 0.231482 0.308642 0.154321 0.462963 0.15432 0.308643 0.231481 0.231482 0.15432 0.308642 0.462963 0.462963 0.308642 0.462963 0.231481 0.154321 0.154321 0.231482 0.154321 0.462963 0.231482 0.231482 0.308642 0.308642 0.462963 0.462963 0.308642 0.462963 0.231481 0.154321 0.462963 0.231482 0.308642 0.308642 0.462963 0.462963 0.308642 0.462963 0.231482 0.154321 0.462963 0.231482 0.308642 0.308643 0.462963 0.462963 0.308642 0.462963 0.231482 0.154321 0.462963 0.231482 0.308642 0.308642 0.462963 0.462963 0.308642 0.462963 0.231481 0.154321 0.462963 0.231482 0.308642 0.308643 0.462963 0.462964 0.308642 0.462963 0.231482 0.154321 0.462964 0.231482 0.308642 0.308643 0.462964 0.462964 0.308643 0.462963 0.231482 0.154321 0.462964 0.231482 0.308642 0.308643 0.462963 0.462963 0.308642 0.462963 0.231482 0.154321 0.462963 0.231482 0.308642 0.308642 0.462963 0.462963 0.308642 0.462963 0.231481 0.154321 0.462963 0.231482 0.308642 0.308642 0.462963 0.462963 0.308642 0.462963 0.231481 0.154321 0.462963 0.231482 0.308642 0.308642 0.462963 0.462963 0.308642 0.462963 0.231481 0.154321 0.462963 0.231482 0.308642 0.308643 0.462964 0.462964 0.308642 0.462964 0.231481 0.154321 0.462964 0.231482 0.308642 0.308643 0.462964 0.462963 0.308642 0.462963 0.231481 0.154321 0.462964 0.231482 0.308642 0.308643 0.462964 0.462964 0.308643 0.462964 0.231482 0.154321 0.462964 0.231482 0.308642 0.308642 0.462963 0.462964 0.308642 0.462963 0.231481 0.154321 0.462963 0.231482 0.308642 0.308643 0.462964 0.462963 0.308643 0.462963 0.231482 0.154321 0.462964 0.231482 0.308642 0.308643 0.462964 0.462964 0.308643 0.462964 0.231482 0.154321 0.462964 0.231482 0.308643 0.308642 0.462963 0.231481 0.308642 0.231482 0.231481 0.154321 0.462963 0.0771604 0.154321 0.308643 0.462963 0.462963 0.308642 0.462963 0.231482 0.154321 0.462963 0.231482 0.308642 0.308643 0.462963 0.462963 0.308642 0.462963 0.462963 0.308642 0.308642 0.462963 0.462963 0.308642 0.462963 0.462963 0.308642 0.308643 0.462963 0.462963 0.308642 0.462963 0.462964 0.308642 0.308642 0.462963 0.462963 0.308642 0.462963 0.462963 0.308642 0.308643 0.462964 0.462964 0.308642 0.462963 0.462964 0.308642 0.308643 0.462964 0.462964 0.308643 0.462963 0.462964 0.308642 0.308643 0.462963 0.462963 0.308642 0.462963 0.462963 0.308642 0.308642 0.462963 0.462963 0.308642 0.462963 0.462963 0.308642 0.308642 0.462963 0.462963 0.308642 0.462963 0.462963 0.308642 0.308642 0.462963 0.462963 0.308642 0.462963 0.462963 0.308642 0.308643 0.462964 0.462964 0.308642 0.462964 0.462964 0.308642 0.308643 0.462964 0.462964 0.308642 0.462963 0.462964 0.308642 0.308643 0.462964 0.462964 0.308643 0.462964 0.462964 0.308642 0.308642 0.462963 0.462964 0.308642 0.462964 0.462963 0.308642 0.308643 0.462964 0.462963 0.308643 0.462963 0.462964 0.308642 0.308643 0.462964 0.462964 0.308643 0.462964 0.462964 0.308643 0.308642 0.462963 0.231481 0.308642 0.231482 0.462963 0.154321 0.308642 0.462963 0.462963 0.308642 0.462963 0.231482 0.154321 0.462963 0.231482 0.308642 0.308642 0.462963 0.462963 0.308642 0.462963 0.462963 0.308642 0.308642 0.462963 0.462963 0.308642 0.462963 0.462963 0.308642 0.308643 0.462963 0.462963 0.308642 0.462963 0.462963 0.308642 0.308642 0.462963 0.462963 0.308642 0.462963 0.462963 0.308642 0.308643 0.462963 0.462964 0.308642 0.462963 0.462964 0.308642 0.308643 0.462964 0.462964 0.308643 0.462963 0.462964 0.308642 0.308643 0.462963 0.462963 0.308642 0.462963 0.462963 0.308642 0.308642 0.462963 0.462963 0.308642 0.462963 0.462963 0.308642 0.308642 0.462963 0.462963 0.308642 0.462963 0.462963 0.308642 0.308642 0.462963 0.462963 0.308642 0.462963 0.462963 0.308642 0.308643 0.462963 0.462964 0.308642 0.462963 0.462964 0.308642 0.308643 0.462964 0.462964 0.308642 0.462963 0.462964 0.308642 0.308643 0.462964 0.462964 0.308643 0.462964 0.462964 0.308642 0.308642 0.462963 0.462964 0.308642 0.462963 0.462963 0.308642 0.308643 0.462964 0.462963 0.308643 0.462963 0.462964 0.308642 0.308643 0.462964 0.462964 0.308643 0.462964 0.462964 0.308642 0.308642 0.462963 0.231481 0.308642 0.231481 0.462963 0.154321 0.308642 0.462963 0.462963 0.308642 0.462963 0.231482 0.154321 0.462963 0.231482 0.308642 0.308642 0.462963 0.462963 0.308642 0.462963 0.462963 0.308642 0.308642 0.462963 0.462963 0.308642 0.462963 0.462963 0.308642 0.308642 0.462963 0.462963 0.308642 0.462963 0.462963 0.308642 0.308642 0.462963 0.462963 0.308642 0.462963 0.462963 0.308642 0.308642 0.462964 0.462963 0.308642 0.462964 0.462963 0.308642 0.308643 0.462964 0.462963 0.308643 0.462964 0.462964 0.308642 0.308642 0.462963 0.462963 0.308642 0.462963 0.462963 0.308642 0.308642 0.462963 0.462963 0.308642 0.462963 0.462963 0.308642 0.308642 0.462963 0.462963 0.308642 0.462963 0.462963 0.308642 0.308642 0.462963 0.462963 0.308642 0.462963 0.462963 0.308642 0.308643 0.462964 0.462963 0.308642 0.462964 0.462964 0.308642 0.308643 0.462964 0.462963 0.308642 0.462963 0.462964 0.308642 0.308643 0.462964 0.462964 0.308643 0.462964 0.462964 0.308642 0.308642 0.462963 0.462964 0.308642 0.462964 0.462963 0.308643 0.308643 0.462964 0.462963 0.308643 0.462963 0.462964 0.308642 0.308643 0.462964 0.462964 0.308643 0.462964 0.462964 0.308643 0.308642 0.462963 0.231481 0.308642 0.231482 0.462963 0.154321 0.308642 0.462963 0.462963 0.308642 0.462963 0.231482 0.154321 0.462963 0.231482 0.308642 0.308642 0.462963 0.462963 0.308642 0.462963 0.462963 0.308642 0.308642 0.462963 0.462963 0.308642 0.462963 0.462963 0.308642 0.308643 0.462963 0.462963 0.308642 0.462963 0.462963 0.308642 0.308642 0.462963 0.462963 0.308642 0.462963 0.462963 0.308642 0.308643 0.462963 0.462964 0.308642 0.462963 0.462964 0.308642 0.308643 0.462964 0.462964 0.308643 0.462963 0.462964 0.308642 0.308643 0.462963 0.462963 0.308642 0.462963 0.462963 0.308642 0.308642 0.462963 0.462963 0.308642 0.462963 0.462963 0.308642 0.308642 0.462963 0.462963 0.308642 0.462963 0.462963 0.308642 0.308642 0.462963 0.462963 0.308642 0.462963 0.462963 0.308642 0.308643 0.462963 0.462964 0.308642 0.462963 0.462964 0.308642 0.308643 0.462963 0.462963 0.308642 0.462963 0.462964 0.308642 0.308643 0.462964 0.462964 0.308643 0.462964 0.462964 0.308642 0.308642 0.462963 0.462964 0.308642 0.462963 0.462963 0.308642 0.308643 0.462964 0.462963 0.308643 0.462963 0.462964 0.308642 0.308643 0.462964 0.462964 0.308643 0.462964 0.462964 0.308642 0.308642 0.462963 0.231481 0.308642 0.231481 0.462963 0.154321 0.154321 0.462963 0.231482 0.308642 0.462963 0.0771607 0.154321 0.231482 0.231482 0.308642 0.154321 0.462963 0.231482 0.308642 0.462963 0.231482 0.308642 0.154321 0.462963 0.231482 0.308642 0.462963 0.231482 0.308642 0.154321 0.462963 0.231482 0.308642 0.462963 0.231482 0.308642 0.154321 0.462963 0.231482 0.308642 0.462963 0.231482 0.308642 0.154321 0.462963 0.231482 0.308642 0.462963 0.231482 0.308642 0.154321 0.462964 0.231482 0.308643 0.462963 0.231482 0.308642 0.154321 0.462963 0.231482 0.308642 0.462963 0.231482 0.308642 0.154321 0.462963 0.231482 0.308642 0.462963 0.231482 0.308642 0.154321 0.462963 0.231482 0.308642 0.462963 0.231482 0.308642 0.154321 0.462963 0.231482 0.308642 0.462963 0.231482 0.308642 0.154322 0.462964 0.231482 0.308642 0.462964 0.231482 0.308642 0.154322 0.462964 0.231482 0.308642 0.462963 0.231482 0.308642 0.154322 0.462964 0.231482 0.308643 0.462964 0.231482 0.308642 0.154321 0.462963 0.231482 0.308642 0.462964 0.231482 0.308642 0.154321 0.462964 0.231482 0.308643 0.462963 0.231482 0.308642 0.154321 0.462964 0.231482 0.308643 0.462964 0.231482 0.308642 0.154321 0.462963 0.154321 0.308642 0.231482 0.231482 0.154321 0.308641 0.462962 0.462962 0.15432 0.23148 0.07716 0.15432 0.15432 0.231481 0.154321 0.231481 0.0771601 0.23148 0.308641 0.308641 0.462962 0.462962 0.15432 0.231481 0.07716 0.15432 0.231481 0.231481 0.308641 0.308641 0.462962 0.462962 0.15432 0.23148 0.07716 0.15432 0.231481 0.23148 0.308641 0.308642 0.462962 0.462962 0.15432 0.23148 0.07716 0.15432 0.231481 0.23148 0.308641 0.308641 0.462962 0.462962 0.15432 0.23148 0.07716 0.15432 0.23148 0.23148 0.308641 0.308642 0.462962 0.462962 0.15432 0.231481 0.07716 0.15432 0.231481 0.231481 0.308642 0.308642 0.462963 0.462962 0.15432 0.231481 0.07716 0.154321 0.231481 0.231481 0.308642 0.308642 0.462962 0.462962 0.15432 0.231481 0.07716 0.15432 0.23148 0.23148 0.308642 0.308641 0.462962 0.462962 0.15432 0.23148 0.0771599 0.15432 0.23148 0.23148 0.308641 0.308641 0.462962 0.462962 0.15432 0.23148 0.07716 0.15432 0.23148 0.23148 0.308641 0.308641 0.462962 0.462962 0.15432 0.23148 0.07716 0.15432 0.231481 0.231481 0.308641 0.308642 0.462962 0.462962 0.15432 0.231481 0.0771601 0.15432 0.231481 0.231481 0.308642 0.308642 0.462962 0.462962 0.15432 0.23148 0.0771601 0.15432 0.231481 0.23148 0.308641 0.308642 0.462963 0.462962 0.15432 0.231481 0.0771602 0.154321 0.231481 0.231481 0.308642 0.308641 0.462962 0.462962 0.15432 0.231481 0.07716 0.15432 0.23148 0.231481 0.308642 0.308642 0.462963 0.462962 0.154321 0.231481 0.0771601 0.15432 0.231481 0.231481 0.308641 0.308642 0.462963 0.462963 0.15432 0.231481 0.0771601 0.154321 0.231481 0.231481 0.308642 0.308641 0.462962 0.231481 0.15432 0.15432 0.0771601 0.15432 0.231481 0.0771603 0.154321 0.308642 0.462962 0.462962 0.15432 0.23148 0.231481 0.154321 0.231481 0.0771601 0.308641 0.308641 0.462962 0.462962 0.15432 0.231481 0.231481 0.308641 0.308642 0.462962 0.462962 0.15432 0.23148 0.231481 0.308641 0.308642 0.462962 0.462962 0.15432 0.23148 0.231481 0.308641 0.308641 0.462962 0.462962 0.15432 0.23148 0.23148 0.308641 0.308642 0.462962 0.462962 0.15432 0.23148 0.231481 0.308642 0.308642 0.462963 0.462962 0.15432 0.231481 0.231481 0.308642 0.308642 0.462962 0.462962 0.15432 0.231481 0.23148 0.308642 0.308641 0.462962 0.462962 0.15432 0.23148 0.231481 0.308641 0.308641 0.462962 0.462962 0.15432 0.23148 0.23148 0.308641 0.308641 0.462962 0.462962 0.15432 0.23148 0.231481 0.308641 0.308642 0.462962 0.462962 0.15432 0.231481 0.231481 0.308642 0.308642 0.462962 0.462962 0.15432 0.23148 0.231481 0.308641 0.308642 0.462963 0.462962 0.15432 0.231481 0.231481 0.308642 0.308641 0.462962 0.462963 0.15432 0.231481 0.23148 0.308642 0.308642 0.462963 0.462962 0.154321 0.231481 0.231481 0.308641 0.308642 0.462963 0.462963 0.15432 0.231481 0.231481 0.308642 0.308641 0.462962 0.231481 0.15432 0.15432 0.231481 0.154321 0.308641 0.462962 0.462962 0.15432 0.23148 0.231481 0.154321 0.231481 0.0771601 0.308641 0.308641 0.462962 0.462962 0.15432 0.231481 0.231481 0.308641 0.308641 0.462962 0.462962 0.15432 0.23148 0.231481 0.308641 0.308642 0.462962 0.462962 0.15432 0.23148 0.231481 0.308641 0.308641 0.462962 0.462962 0.15432 0.23148 0.23148 0.308641 0.308642 0.462962 0.462962 0.15432 0.23148 0.231481 0.308641 0.308642 0.462962 0.462962 0.15432 0.231481 0.231481 0.308641 0.308642 0.462962 0.462962 0.15432 0.231481 0.23148 0.308642 0.308641 0.462962 0.462962 0.15432 0.23148 0.23148 0.308641 0.308641 0.462962 0.462962 0.15432 0.23148 0.23148 0.308641 0.308641 0.462962 0.462962 0.15432 0.23148 0.231481 0.308641 0.308642 0.462962 0.462962 0.15432 0.231481 0.231481 0.308641 0.308642 0.462962 0.462962 0.15432 0.23148 0.231481 0.308641 0.308642 0.462963 0.462962 0.15432 0.231481 0.231481 0.308642 0.308641 0.462962 0.462963 0.15432 0.231481 0.23148 0.308642 0.308642 0.462963 0.462962 0.154321 0.231481 0.231481 0.308641 0.308642 0.462963 0.462963 0.15432 0.231481 0.231481 0.308642 0.308642 0.462962 0.231481 0.15432 0.15432 0.231481 0.154321 0.308641 0.462962 0.462962 0.15432 0.231481 0.23148 0.154321 0.23148 0.0771601 0.308641 0.308641 0.462962 0.462962 0.15432 0.231481 0.23148 0.308641 0.308641 0.462962 0.462962 0.15432 0.231481 0.23148 0.308642 0.308641 0.462962 0.462962 0.15432 0.23148 0.231481 0.308641 0.308641 0.462962 0.462962 0.15432 0.231481 0.23148 0.308641 0.308641 0.462962 0.462962 0.15432 0.231481 0.23148 0.308642 0.308642 0.462963 0.462962 0.15432 0.231481 0.231481 0.308642 0.308641 0.462962 0.462962 0.15432 0.231481 0.23148 0.308642 0.308641 0.462962 0.462962 0.15432 0.23148 0.23148 0.308641 0.308641 0.462962 0.462962 0.15432 0.231481 0.23148 0.308641 0.308641 0.462962 0.462962 0.15432 0.231481 0.231481 0.308641 0.308642 0.462962 0.462962 0.15432 0.231481 0.231481 0.308642 0.308642 0.462962 0.462962 0.15432 0.23148 0.231481 0.308641 0.308642 0.462963 0.462962 0.15432 0.231481 0.231481 0.308642 0.308641 0.462962 0.462962 0.15432 0.231481 0.23148 0.308642 0.308642 0.462963 0.462962 0.154321 0.231481 0.231481 0.308641 0.308642 0.462963 0.462962 0.15432 0.231481 0.231481 0.308642 0.308641 0.462962 0.231481 0.15432 0.15432 0.23148 0.154321 0.308641 0.462962 0.462962 0.15432 0.23148 0.231481 0.154321 0.231481 0.0771601 0.308641 0.308641 0.462962 0.462962 0.15432 0.23148 0.23148 0.308641 0.308641 0.462962 0.462962 0.15432 0.23148 0.231481 0.308641 0.308642 0.462962 0.462962 0.15432 0.23148 0.231481 0.308641 0.308641 0.462962 0.462962 0.15432 0.23148 0.23148 0.308641 0.308642 0.462962 0.462962 0.15432 0.23148 0.23148 0.308641 0.308642 0.462962 0.462962 0.15432 0.23148 0.231481 0.308641 0.308642 0.462962 0.462962 0.15432 0.23148 0.23148 0.308641 0.308641 0.462962 0.462962 0.15432 0.23148 0.23148 0.308641 0.308641 0.462962 0.462962 0.15432 0.23148 0.23148 0.308641 0.308641 0.462962 0.462962 0.15432 0.23148 0.231481 0.308641 0.308642 0.462962 0.462962 0.15432 0.23148 0.231481 0.308641 0.308642 0.462962 0.462962 0.15432 0.23148 0.231481 0.308641 0.308642 0.462963 0.462962 0.15432 0.231481 0.231481 0.308642 0.308641 0.462962 0.462962 0.15432 0.231481 0.23148 0.308642 0.308642 0.462963 0.462962 0.15432 0.231481 0.231481 0.308641 0.308642 0.462963 0.462963 0.15432 0.231481 0.231481 0.308642 0.308641 0.462962 0.231482 0.15432 0.15432 0.23148 0.154321 0.154321 0.462962 0.231482 0.15432 0.23148 0.0771604 0.154321 0.154321 0.0771601 0.308641 0.154321 0.462962 0.231482 0.15432 0.23148 0.15432 0.308641 0.154321 0.462962 0.231482 0.15432 0.23148 0.154321 0.308641 0.154321 0.462962 0.231482 0.15432 0.23148 0.154321 0.308641 0.154321 0.462962 0.231482 0.15432 0.23148 0.15432 0.308641 0.154321 0.462962 0.231482 0.15432 0.23148 0.154321 0.308642 0.154321 0.462962 0.231482 0.15432 0.231481 0.154321 0.308641 0.154321 0.462962 0.231482 0.15432 0.231481 0.15432 0.308641 0.154321 0.462962 0.231481 0.15432 0.23148 0.154321 0.308641 0.154321 0.462962 0.231482 0.15432 0.23148 0.15432 0.308641 0.154321 0.462962 0.231482 0.15432 0.23148 0.154321 0.308641 0.154321 0.462962 0.231482 0.15432 0.23148 0.154321 0.308641 0.154321 0.462962 0.231482 0.15432 0.23148 0.154321 0.308641 0.154321 0.462963 0.231482 0.15432 0.231481 0.154321 0.308642 0.154321 0.462962 0.231482 0.15432 0.231481 0.15432 0.308642 0.154321 0.462963 0.231482 0.154321 0.231481 0.154321 0.308641 0.154321 0.462963 0.231482 0.15432 0.231481 0.15432 0.308642 0.154321 0.462962 0.154321 0.15432 0.15432 0.15432 0.154321 
VECTORS u float
0 0 0  0.016739 0.199544 -0.10256  0.00763148 0.427821 -0.164627  0.0028522 0.662872 -0.147216  0.000967979 0.876519 -0.0504999  0.000275254 1.04336 0.113592  9.41753e-06 1.14337 0.324887  -0.000104785 1.16459 0.557542  -0.000116825 1.10459 0.783175  2.86102e-06 0.970772 0.974314  0.000279069 0.779522 1.10771  0.000677347 0.554147 1.16714  0.00105834 0.322069 1.14534  0.00113034 0.111522 1.04482  0.000333786 -0.0517991 0.877502  -0.00255585 -0.147774 0.663168  -0.0106692 -0.163924 0.426764  -0.0266249 -0.100201 0.19545  0 -3.57628e-07 -4.76837e-07  0 1.49012e-08 0  -0.0291523 0.162035 -0.0661821  -0.0400264 0.361542 -0.0858908  -0.0439003 0.561134 -0.0390224  -0.0451291 0.732944 0.0733414  -0.045499 0.855532 0.237806  -0.0456151 0.914015 0.434245  -0.0456462 0.901403 0.63868  -0.0455981 0.819353 0.826195  -0.0454395 0.677957 0.973978  -0.0451632 0.494498 1.06407  -0.0448215 0.291331 1.08552  -0.0445495 0.0931967 1.03566  -0.0445871 -0.0757063 0.920435  -0.0453489 -0.194539 0.753679  -0.0475345 -0.248304 0.555489  -0.0506973 -0.229725 0.348765  -0.0430598 -0.140355 0.155654  0 -1.93715e-07 -4.76837e-07  0 0 0  -0.0267758 0.163549 -0.0238318  -0.0358023 0.333815 0.00601387  -0.0380936 0.490737 0.0931721  -0.0385554 0.610521 0.230126  -0.0386184 0.676345 0.400249  -0.0386102 0.679683 0.582549  -0.0385759 0.62018 0.754717  -0.0384843 0.505219 0.895795  -0.0383027 0.3489 0.988662  -0.0380362 0.170302 1.02206  -0.0377359 -0.00881141 0.99192  -0.0374953 -0.166586 0.901844  -0.0374458 -0.283648 0.762671  -0.0377183 -0.345435 0.591231  -0.0380003 -0.344197 0.408134  -0.0355833 -0.280168 0.234672  -0.0225115 -0.161807 0.0920062  0 -8.9407e-08 -4.76837e-07  0 0 0  -0.00415935 0.168639 0.0313993  -0.00248846 0.311689 0.115887  -0.0010547 0.422378 0.247024  -0.000555336 0.483227 0.409215  -0.000457823 0.484993 0.582355  -0.000454247 0.427176 0.745223  -0.000427127 0.316975 0.878011  -0.000323772 0.167982 0.964654  -0.000125289 -0.00157583 0.994715  0.000147343 -0.171033 0.964583  0.000445485 -0.319742 0.877911  0.000709295 -0.429518 0.745171  0.000878096 -0.486813 0.582436  0.000964642 -0.484494 0.409501  0.00131106 -0.423151 0.247416  0.00274014 -0.311903 0.11583  0.0047102 -0.167671 0.0300484  0 0 -4.76837e-07  0 0 0  0.0247942 0.162359 0.0944257  0.0364988 0.279391 0.234524  0.0391247 0.342867 0.407909  0.0390374 0.343245 0.591303  0.0386488 0.280697 0.762697  0.0384178 0.163141 0.901605  0.0383728 0.00514269 0.991343  0.0384878 -0.173911 1.02116  0.0387237 -0.352176 0.987555  0.0390286 -0.507945 0.894654  0.0393411 -0.622244 0.753747  0.0395913 -0.681079 0.581929  0.0396969 -0.677148 0.400069  0.0395176 -0.610841 0.230348  0.0386329 -0.490593 0.0935941  0.035213 -0.33309 0.00654554  0.0228167 -0.163243 -0.0232658  0 1.19209e-07 -4.76837e-07  0 0 0  0.0437406 0.139499 0.157158  0.0516818 0.228897 0.348301  0.0491823 0.246329 0.555635  0.0469493 0.191534 0.753817  0.0458226 0.0720952 0.920162  0.0453776 -0.0970918 1.03489  0.0453234 -0.295207 1.08426  0.0454972 -0.498043 1.06245  0.0457997 -0.680898 0.972198  0.0461402 -0.821517 0.824536  0.0464324 -0.902764 0.637417  0.0465736 -0.914667 0.433572  0.0464127 -0.855629 0.237774  0.0456438 -0.732628 0.0738215  0.0434394 -0.560362 -0.0383573  0.0370474 -0.359962 -0.0852418  0.0203102 -0.161992 -0.0651422  0 2.38419e-07 -4.76837e-07  0 0 0  0.0257022 0.097988 0.192189  0.0118267 0.162331 0.426817  0.00415045 0.145192 0.662771  0.000988543 0.0488085 0.876546  -0.000289798 -0.114697 1.04342  -0.000695288 -0.325218 1.1436  -0.00065589 -0.55704 1.16518  -0.000381589 -0.781937 1.10573  -1.07288e-06 -0.972558 0.972567  0.000380993 -1.10572 0.781946  0.000656605 -1.16518 0.55705  0.000694036 -1.1436 0.325225  0.000285149 -1.04342 0.114701  -0.000991344 -0.876542 -0.0488052  -0.00415349 -0.662767 -0.145189  -0.0118294 -0.426814 -0.162331  -0.0257034 -0.192187 -0.0979896  0 3.57628e-07 -4.76837e-07  0 0 0  0.0436201 0.156896 -0.142514  0.0499159 0.348825 -0.23064  0.0480824 0.554732 -0.247438  0.0468561 0.752277 -0.192613  0.04636 0.918388 -0.0730834  0.0461619 1.033 0.0963235  0.0460629 1.08229 0.294753  0.0460294 1.06036 0.49792  0.0460958 0.97002 0.681059  0.0462955 0.82233 0.821883  0.0466224 0.635303 0.903259  0.0469913 0.431688 0.915266  0.0471961 0.236229 0.856337  0.0468478 0.0726979 0.733448  0.0451217 -0.0389481 0.561331  0.0395916 -0.085462 0.361237  0.023432 -0.0649165 0.160373  0 -3.57628e-07 -4.76837e-07  0 1.49012e-08 0  0.00423706 0.126823 -0.0880017  0.00211719 0.284368 -0.132646  0.000745296 0.447942 -0.120355  0.000338614 0.597455 -0.0528798  0.000282466 0.71459 0.0621004  0.000278592 0.784911 0.21046  0.000273466 0.799877 0.373931  0.000298262 0.757765 0.532501  0.000396132 0.663802 0.666837  0.000586629 0.529495 0.760594  0.000850677 0.37123 0.802372  0.00112081 0.208294 0.78705  0.00129032 0.0605933 0.716408  0.00120163 -0.0537103 0.598972  0.000527382 -0.120441 0.449102  -0.00138259 -0.131577 0.28502  -0.0032444 -0.0869691 0.126301  0 -2.23517e-07 -4.76837e-07  0 0 0  -0.00430427 0.115471 -0.0331206  -0.0078952 0.24024 -0.0279918  -0.00850242 0.357995 0.0191345  -0.00795293 0.454145 0.104379  -0.00751668 0.515605 0.217931  -0.00732899 0.534258 0.3458  -0.00726223 0.507788 0.472217  -0.00720561 0.43953 0.581722  -0.00710082 0.33789 0.660995  -0.00693357 0.215304 0.7004  -0.00671792 0.0867416 0.695138  -0.00647569 -0.0320729 0.645812  -0.00620413 -0.126537 0.558373  -0.00585985 -0.184981 0.443442  -0.00535464 -0.200299 0.314933  -0.00437093 -0.171226 0.187912  -0.0017786 -0.102329 0.0769405  0 -8.9407e-08 -4.76837e-07  0 0 0  -0.00360149 0.109852 0.0225849  -0.00335738 0.204581 0.0807257  -0.00180838 0.27653 0.167212  -0.000635922 0.316429 0.273454  -9.53674e-05 0.317886 0.387074  8.69036e-05 0.280222 0.494148  0.000154495 0.208065 0.581569  0.000230074 0.110337 0.638714  0.000354528 -0.000971854 0.658683  0.000522256 -0.112262 0.639074  0.000714898 -0.209936 0.582268  0.000930786 -0.282011 0.495155  0.00121737 -0.319587 0.388335  0.00168657 -0.318077 0.274849  0.00243974 -0.278146 0.168423  0.00328255 -0.20592 0.0813408  0.00303793 -0.110961 0.0228868  0 0 -4.76837e-07  0 0 0  0.00132994 0.102229 0.0765634  0.00482664 0.170715 0.186934  0.00660664 0.199651 0.313807  0.00716764 0.184154 0.44269  0.00729287 0.125325 0.558051  0.00732017 0.0303949 0.645825  0.00737369 -0.0888552 0.695389  0.00749373 -0.217757 0.70081  0.00767207 -0.340555 0.661516  0.00787497 -0.44228 0.582329  0.00806606 -0.510509 0.472882  0.00822783 -0.536853 0.346487  0.0083847 -0.517988 0.218575  0.00856733 -0.456218 0.104875  0.00861835 -0.359575 0.0194087  0.0076952 -0.241217 -0.0278282  0.00409603 -0.116579 -0.0331783  0 1.19209e-07 -4.76837e-07  0 0 0  0.00353156 0.0882065 0.126035  0.00302014 0.132657 0.283773  0.00119811 0.121433 0.448847  9.12547e-05 0.053962 0.599717  -0.000379205 -0.0613707 0.717784  -0.000512302 -0.210159 0.788729  -0.000447035 -0.374084 0.804061  -0.000256538 -0.533119 0.762056  -3.57628e-07 -0.667908 0.667916  0.000255108 -0.762049 0.533127  0.000445843 -0.804055 0.374091  0.000509262 -0.788724 0.210163  0.000375509 -0.717779 0.0613737  -9.41753e-05 -0.599713 -0.0539613  -0.0012002 -0.448842 -0.12143  -0.00302052 -0.283771 -0.132657  -0.00353098 -0.126035 -0.0882063  0 2.38419e-07 -4.76837e-07  0 0 0  -0.0203108 0.0651423 0.161994  -0.037049 0.0852413 0.359966  -0.0434435 0.0383602 0.560366  -0.0456464 -0.0738194 0.732632  -0.0464158 -0.237771 0.855634  -0.0465752 -0.433567 0.914671  -0.0464324 -0.637408 0.902771  -0.0461411 -0.824528 0.821526  -0.0458003 -0.97219 0.680906  -0.0454985 -1.06244 0.498052  -0.0453231 -1.08426 0.295216  -0.0453804 -1.03489 0.0970974  -0.0458257 -0.920159 -0.0720921  -0.0469527 -0.753813 -0.191533  -0.049185 -0.55563 -0.246327  -0.0516829 -0.348299 -0.228896  -0.0437396 -0.157159 -0.139498  0 3.57628e-07 -4.76837e-07  0 0 0  0.0244754 0.0922664 -0.164074  0.036464 0.234039 -0.280871  0.0389035 0.407058 -0.343955  0.0390617 0.589683 -0.344242  0.0390725 0.76066 -0.281732  0.0390834 0.89942 -0.164119  0.039061 0.989134 -0.00594616  0.0390297 1.01898 0.173364  0.0390528 0.985433 0.351912  0.0391853 0.892642 0.507954  0.0394516 0.751924 0.622497  0.0398173 0.580386 0.681562  0.0401576 0.398883 0.677856  0.0402374 0.229544 0.611735  0.0396948 0.093188 0.491621  0.0370433 0.00657776 0.33462  0.0257185 -0.023008 0.165144  0 -3.57628e-07 0  0 1.49012e-08 0  0.00287372 0.0770927 -0.103148  0.00471723 0.186755 -0.172055  0.00627494 0.313559 -0.200717  0.00705022 0.441752 -0.184664  0.00747341 0.556442 -0.125555  0.00767457 0.6437 -0.0304503  0.00774693 0.69286 0.0889297  0.0077796 0.697985 0.217907  0.00784087 0.658529 0.340714  0.00796902 0.579352 0.442389  0.00817764 0.470113 0.510546  0.00846076 0.344116 0.536841  0.00881338 0.216748 0.517974  0.00926137 0.103641 0.456244  0.00973868 0.018687 0.359653  0.00918484 -0.0280603 0.241367  0.00498152 -0.0325339 0.116867  0 -2.23517e-07 0  0 0 0  -0.00222036 0.0645608 -0.0446749  -0.00332215 0.14239 -0.0655837  -0.00250056 0.223244 -0.0591908  -0.00133061 0.297388 -0.0255489  -0.000489414 0.355727 0.0316768  -6.33597e-05 0.390877 0.105605  0.00011003 0.398463 0.187135  0.000187516 0.377601 0.266257  0.000261784 0.330894 0.333312  0.000376344 0.264078 0.380134  0.000558019 0.18532 0.401015  0.000849009 0.104252 0.393379  0.00133538 0.0308258 0.358116  0.00212455 -0.0259331 0.299556  0.00315309 -0.0591787 0.225019  0.00375915 -0.0653012 0.143745  0.00283766 -0.0443671 0.0652528  0 -1.19209e-07 0  0 0 0  -0.00339754 0.0545704 0.0110903  -0.0040977 0.102533 0.0398817  -0.00303593 0.1387 0.0834227  -0.00169182 0.158599 0.136911  -0.000773549 0.15925 0.194134  -0.000302732 0.140258 0.248093  -9.29832e-05 0.10392 0.292157  1.81198e-05 0.0547316 0.320957  0.000114679 -0.00125644 0.331014  0.000231743 -0.0571892 0.321124  0.000396132 -0.106218 0.292498  0.000670433 -0.142315 0.248621  0.00117826 -0.161021 0.194856  0.00205708 -0.160064 0.137788  0.00324869 -0.139784 0.0843129  0.00411725 -0.103126 0.0405741  0.00337863 -0.0548399 0.0112176  0 0 0  0 0 0  -0.00280698 0.044448 0.064929  -0.00327179 0.0646892 0.14304  -0.00244567 0.0581253 0.224188  -0.00147349 0.0245987 0.298797  -0.000821531 -0.0324733 0.357522  -0.000471473 -0.106225 0.392968  -0.000279665 -0.187566 0.400771  -0.000137329 -0.266501 0.380047  1.19209e-07 -0.333381 0.333387  0.000136733 -0.380042 0.266507  0.000277996 -0.400764 0.18757  0.000469208 -0.39296 0.106228  0.000818729 -0.357517 0.032475  0.00147152 -0.298791 -0.0245972  0.00244522 -0.224185 -0.0581241  0.00327158 -0.143038 -0.0646887  0.00280738 -0.0649284 -0.0444474  0 1.19209e-07 0  0 0 0  -0.00409596 0.0331787 0.11658  -0.00769573 0.0278299 0.24122  -0.00862029 -0.0194077 0.359579  -0.0085693 -0.104874 0.456223  -0.00838786 -0.218574 0.517995  -0.00823146 -0.346484 0.53686  -0.00806797 -0.472876 0.510516  -0.00787604 -0.582322 0.442286  -0.00767255 -0.66151 0.340563  -0.00749457 -0.700805 0.217764  -0.00737488 -0.695384 0.08886  -0.00732172 -0.64582 -0.0303907  -0.00729585 -0.558044 -0.125323  -0.00717044 -0.442684 -0.184152  -0.0066092 -0.313803 -0.199649  -0.00482702 -0.186933 -0.170716  -0.00133014 -0.076562 -0.102229  0 2.38419e-07 0  0 0 0  -0.0228159 0.0232666 0.163245  -0.0352149 -0.00654525 0.333093  -0.0386357 -0.0935941 0.490595  -0.0395215 -0.230348 0.610846  -0.0397009 -0.400067 0.677154  -0.0395939 -0.581924 0.681085  -0.0393426 -0.753739 0.622252  -0.0390301 -0.894645 0.507954  -0.0387242 -0.987548 0.352183  -0.038488 -1.02116 0.173919  -0.0383737 -0.991339 -0.00513601  -0.0384206 -0.901601 -0.163136  -0.0386517 -0.762693 -0.280695  -0.0390406 -0.591299 -0.343243  -0.0391271 -0.407905 -0.342865  -0.0364997 -0.234521 -0.279392  -0.0247941 -0.0944244 -0.162359  0 3.57628e-07 0  0 0 0  -0.00482562 0.0295094 -0.169635  -0.00205734 0.114747 -0.312533  3.98159e-05 0.245937 -0.42308  0.000699878 0.40766 -0.483804  0.000987053 0.580236 -0.485584  0.00116968 0.742729 -0.427838  0.00124383 0.875352 -0.317673  0.00124431 0.961999 -0.168644  0.00124443 0.992186 0.00102234  0.00131762 0.962283 0.17065  0.00151098 0.875927 0.319575  0.00182891 0.743582 0.429606  0.00221205 0.581321 0.487186  0.0025506 0.408954 0.485141  0.00296259 0.247495 0.423974  0.00437999 0.116496 0.313053  0.00609708 0.0311356 0.170979  0 -3.57628e-07 0  0 1.49012e-08 0  -0.00269668 0.0231581 -0.111548  -0.00384372 0.0802338 -0.206015  -0.00251049 0.166915 -0.27825  -0.0012604 0.273167 -0.317813  -0.000566065 0.386467 -0.318734  -0.000228107 0.493133 -0.28054  -8.58307e-05 0.580132 -0.207896  -3.3617e-05 0.636872 -0.10976  4.64916e-06 0.656484 0.00185728  8.28505e-05 0.636603 0.113341  0.000238776 0.579643 0.211095  0.000505686 0.492516 0.283143  0.000930071 0.385845 0.320583  0.00159192 0.272685 0.318832  0.00264406 0.166688 0.278563  0.00398159 0.0800226 0.206001  0.00344849 0.0224367 0.11116  0 -2.23517e-07 0  0 0 0  -0.00311968 0.0110905 -0.0551672  -0.00421458 0.0392102 -0.103271  -0.00329286 0.0824392 -0.139807  -0.00189638 0.13565 -0.159734  -0.000868022 0.192547 -0.160217  -0.00030762 0.246217 -0.141003  -5.60284e-05 0.290065 -0.104427  4.70877e-05 0.318734 -0.054996  0.00010705 0.328747 0.00123501  0.000185728 0.318903 0.0574083  0.000337958 0.290405 0.106672  0.000644445 0.246725 0.142986  0.00123191 0.19321 0.161871  0.0022254 0.136425 0.161035  0.00354028 0.0832337 0.140796  0.00445056 0.0397998 0.103994  0.00341368 0.0111065 0.0552444  0 -1.19209e-07 0  0 0 0  -0.00363278 -0.000201553 -9.44138e-05  -0.00462356 -0.00072819 -8.4877e-05  -0.0036729 -0.0010311 -5.72205e-06  -0.00224429 -0.00119269 0.000164509  -0.0011515 -0.00127092 0.000389099  -0.00052911 -0.00130314 0.000623703  -0.000228286 -0.00129712 0.00083971  -8.59499e-05 -0.00124821 0.00102234  -3.57628e-07 -0.00115409 0.0011611  8.40425e-05 -0.00101444 0.00125217  0.00022614 -0.000832111 0.00129986  0.000527143 -0.000616223 0.00130606  0.00114989 -0.000381917 0.00127316  0.00224423 -0.000160843 0.00119352  0.00367355 5.66244e-06 0.00103188  0.00462461 8.2612e-05 0.00072813  0.0036335 9.44138e-05 0.000201702  0 0 0  0 0 0  -0.00337815 -0.0112165 0.0548391  -0.00411683 -0.0405744 0.103127  -0.00324887 -0.084312 0.139786  -0.00205767 -0.137787 0.160067  -0.00118005 -0.194854 0.161027  -0.00067234 -0.248619 0.142323  -0.000397801 -0.292495 0.106227  -0.000233173 -0.32112 0.0571966  -0.000115991 -0.331009 0.00126314  -1.96695e-05 -0.320952 -0.0547261  9.05991e-05 -0.292151 -0.103915  0.000300646 -0.248087 -0.140255  0.000771523 -0.194128 -0.159249  0.00169086 -0.136907 -0.158597  0.00303578 -0.08342 -0.138699  0.00409794 -0.0398813 -0.102532  0.00339794 -0.0110899 -0.0545697  0 1.19209e-07 0  0 0 0  -0.00303809 -0.0228866 0.110962  -0.00328365 -0.0813411 0.205921  -0.00244188 -0.168422 0.278149  -0.00168812 -0.274848 0.318082  -0.00121969 -0.388332 0.319593  -0.000932515 -0.495152 0.282019  -0.000716329 -0.582264 0.209945  -0.000523329 -0.639068 0.11227  -0.000355721 -0.658677 0.0009799  -0.000231862 -0.638709 -0.11033  -0.000156641 -0.581564 -0.208059  -9.0003e-05 -0.494144 -0.280219  9.25064e-05 -0.387069 -0.317884  0.000633717 -0.273449 -0.316426  0.00180793 -0.167208 -0.27653  0.00335741 -0.0807247 -0.204579  0.00360179 -0.0225863 -0.10985  0 2.38419e-07 0  0 0 0  -0.00471132 -0.0300477 0.167673  -0.00274193 -0.11583 0.311906  -0.00131375 -0.247417 0.423153  -0.000969529 -0.409502 0.484498  -0.000881255 -0.582435 0.48682  -0.000710964 -0.745167 0.429525  -0.000447392 -0.877905 0.31975  -0.000148058 -0.964577 0.171042  0.000124097 -0.994709 0.00158501  0.000322461 -0.964652 -0.167973  0.0004251 -0.878007 -0.316968  0.000450611 -0.745219 -0.427171  0.000454187 -0.582352 -0.484992  0.000554085 -0.409211 -0.483225  0.00105453 -0.24702 -0.422376  0.00248909 -0.115885 -0.311687  0.0041585 -0.031399 -0.168638  0 3.57628e-07 0  0 0 0  -0.0273695 -0.0250218 -0.16369  -0.0356945 0.0050769 -0.334231  -0.0375756 0.0922117 -0.491113  -0.037778 0.228843 -0.610762  -0.0376192 0.398434 -0.676476  -0.0374045 0.580199 -0.679815  -0.0372729 0.75199 -0.620389  -0.0372437 0.892896 -0.505506  -0.0372546 0.985779 -0.349217  -0.0372237 1.01934 -0.170581  -0.0370928 0.989472 0.00862789  -0.0368536 0.899758 0.16654  -0.0365705 0.761026 0.283778  -0.0363853 0.590127 0.345782  -0.0362961 0.407819 0.344801  -0.0344067 0.235272 0.280953  -0.0232029 0.0930261 0.164401  0 -3.57628e-07 0  0 1.49012e-08 0  -0.0044587 -0.0330586 -0.116454  -0.00878486 -0.0288736 -0.240938  -0.00949657 0.017976 -0.359137  -0.00890023 0.103245 -0.455467  -0.00833941 0.216699 -0.516726  -0.00800031 0.344354 -0.535057  -0.00782692 0.47056 -0.508257  -0.00775874 0.579911 -0.439668  -0.00773454 0.659092 -0.337687  -0.00769401 0.698454 -0.214759  -0.00758314 0.693182 -0.0858836  -0.00735986 0.643871 0.0331812  -0.00699019 0.556491 0.1278  -0.0064702 0.441702 0.186296  -0.00584078 0.313443 0.201609  -0.00477839 0.186469 0.172396  -0.00205922 0.0753654 0.103074  0 -2.23517e-07 0  0 0 0  -0.00268409 -0.0445401 -0.0647726  -0.00357687 -0.0661906 -0.142787  -0.00299522 -0.0601663 -0.223885  -0.00184977 -0.0268056 -0.298158  -0.00094527 0.0300924 -0.356416  -0.000419796 0.103686 -0.391402  -0.000162125 0.184945 -0.398816  -5.06639e-05 0.263901 -0.377784  -1.19209e-06 0.330907 -0.330903  4.80413e-05 0.37779 -0.263898  0.000159979 0.398823 -0.184945  0.000418425 0.391409 -0.103686  0.000944614 0.356421 -0.0300927  0.00184989 0.29816 0.0268068  0.00299573 0.223883 0.0601668  0.00357723 0.142786 0.0661902  0.00268412 0.0647696 0.0445414  0 -1.19209e-07 0  0 0 0  -0.0034136 -0.0552436 -0.0111089  -0.00445071 -0.103994 -0.0398016  -0.00354061 -0.140795 -0.0832348  -0.0022254 -0.161033 -0.136424  -0.00123274 -0.161869 -0.193204  -0.000645697 -0.142983 -0.246716  -0.000339389 -0.106669 -0.290396  -0.000187159 -0.0574053 -0.318894  -0.000108242 -0.00123039 -0.328739  -4.91142e-05 0.0550019 -0.31873  5.43594e-05 0.104432 -0.290064  0.000305653 0.141008 -0.246216  0.000867128 0.160223 -0.192546  0.00189662 0.159737 -0.135648  0.00329351 0.139806 -0.0824385  0.004215 0.10327 -0.0392108  0.00311995 0.0551658 -0.0110903  0 0 0  0 0 0  -0.0028374 -0.0652526 0.0443659  -0.00375953 -0.143745 0.0653  -0.00315359 -0.225018 0.0591798  -0.00212544 -0.299555 0.0259342  -0.00133657 -0.358113 -0.0308218  -0.000850499 -0.393376 -0.104244  -0.000559449 -0.401013 -0.18531  -0.000377893 -0.38013 -0.26407  -0.000263691 -0.333308 -0.330888  -0.000189424 -0.266253 -0.377596  -0.000112057 -0.187131 -0.39846  6.12736e-05 -0.105601 -0.390876  0.000488281 -0.0316724 -0.355727  0.00133085 0.0255519 -0.297388  0.00250053 0.0591921 -0.223243  0.00332165 0.0655835 -0.14239  0.00222015 0.0446745 -0.0645609  0 1.19209e-07 0  0 0 0  0.00177845 -0.0769413 0.10233  0.00436923 -0.187913 0.171227  0.00535262 -0.314932 0.2003  0.00585788 -0.443441 0.184983  0.00620162 -0.55837 0.126541  0.00647354 -0.645808 0.0320807  0.00671732 -0.695134 -0.0867314  0.0069325 -0.700395 -0.215294  0.00709939 -0.66099 -0.337882  0.00720334 -0.581719 -0.439523  0.00725985 -0.472213 -0.507783  0.00732636 -0.345796 -0.534255  0.00751424 -0.217926 -0.515604  0.00795269 -0.104375 -0.454144  0.00850272 -0.0191326 -0.357995  0.00789547 0.0279925 -0.240239  0.00430465 0.0331199 -0.115469  0 2.38419e-07 0  0 0 0  0.0225113 -0.0920045 0.161809  0.0355812 -0.234673 0.28017  0.0379966 -0.408134 0.344201  0.0377135 -0.59123 0.345438  0.0374418 -0.762667 0.283652  0.0374924 -0.90184 0.166594  0.037734 -0.991915 0.00882244  0.0380355 -1.02205 -0.17029  0.0383015 -0.988659 -0.348889  0.0384822 -0.895794 -0.505211  0.0385728 -0.754714 -0.620174  0.0386066 -0.582547 -0.67968  0.0386157 -0.400246 -0.676342  0.0385542 -0.230121 -0.610519  0.0380931 -0.0931696 -0.490736  0.0358021 -0.00601268 -0.333814  0.0267754 0.0238327 -0.163548  0 3.57628e-07 0  0 0 0  -0.0276482 -0.0661335 -0.161998  -0.0402035 -0.0864726 -0.361959  -0.0445493 -0.0396669 -0.561371  -0.0456817 0.0722658 -0.732975  -0.0457733 0.236152 -0.855421  -0.0456007 0.432 -0.913872  -0.0454533 0.635961 -0.901333  -0.04541 0.823209 -0.819404  -0.0454315 0.97094 -0.678106  -0.0454316 1.06115 -0.494675  -0.0453436 1.08284 -0.291472  -0.0451722 1.03331 -0.0932708  -0.0450451 0.918483 0.075717  -0.0452635 0.752206 0.194677  -0.0463459 0.554605 0.248741  -0.0481389 0.349014 0.23102  -0.0429602 0.156746 0.142234  0 -3.57628e-07 0  0 1.49012e-08 0  0.00373261 -0.0892277 -0.124782  0.00153765 -0.134192 -0.284237  -0.000286192 -0.122705 -0.448501  -0.000651836 -0.055554 -0.598569  -0.000493586 0.0593421 -0.716055  -0.000258684 0.207744 -0.786577  -8.85725e-05 0.371412 -0.801618  -1.27554e-05 0.530348 -0.759423  -1.3113e-06 0.665168 -0.665164  1.15633e-05 0.759429 -0.530347  8.76188e-05 0.801626 -0.371412  0.000259399 0.786582 -0.207745  0.000494957 0.71606 -0.0593424  0.000653267 0.598568 0.0555539  0.000287056 0.448498 0.122705  -0.00153708 0.284235 0.134192  -0.00373268 0.124781 0.0892286  0 -2.23517e-07 4.76837e-07  0 0 0  0.00205964 -0.103073 -0.0753684  0.00477836 -0.172396 -0.186471  0.00584114 -0.20161 -0.313447  0.00647086 -0.186296 -0.441703  0.00699091 -0.127802 -0.556488  0.00735974 -0.033182 -0.643866  0.0075829 0.0858838 -0.693176  0.00769281 0.214762 -0.698448  0.00773251 0.337691 -0.659088  0.00775659 0.439673 -0.57991  0.00782561 0.508265 -0.470561  0.00799894 0.535066 -0.344356  0.00833941 0.516731 -0.216699  0.00890088 0.455469 -0.103243  0.0094974 0.359136 -0.0179749  0.00878501 0.240934 0.0288754  0.0044589 0.116453 0.0330586  0 -1.49012e-07 4.76837e-07  0 0 0  -0.00344831 -0.11116 -0.0224385  -0.00398177 -0.206001 -0.0800247  -0.00264454 -0.278564 -0.166688  -0.00159281 -0.318832 -0.272684  -0.000930846 -0.320583 -0.385841  -0.000506282 -0.283142 -0.492509  -0.000239491 -0.211094 -0.579636  -8.39233e-05 -0.113339 -0.636596  -5.96046e-06 -0.00185326 -0.656477  3.1352e-05 0.109764 -0.63687  8.39233e-05 0.207903 -0.580132  0.000226736 0.280546 -0.493133  0.000564814 0.318742 -0.386467  0.001261 0.317816 -0.273165  0.0025115 0.278249 -0.166914  0.00384426 0.206013 -0.0802331  0.00269675 0.111547 -0.0231581  0 0 4.76837e-07  0 0 0  -0.00498196 -0.116867 0.0325346  -0.00918555 -0.241368 0.028059  -0.00974014 -0.359653 -0.0186868  -0.00926286 -0.456243 -0.10364  -0.00881469 -0.517972 -0.216744  -0.0084613 -0.536839 -0.34411  -0.00817847 -0.510545 -0.470105  -0.00797045 -0.442387 -0.579343  -0.00784278 -0.340711 -0.658523  -0.00778186 -0.217903 -0.697981  -0.00774908 -0.0889256 -0.692857  -0.00767684 0.0304554 -0.643699  -0.00747442 0.12556 -0.556441  -0.00705004 0.184668 -0.441751  -0.00627398 0.20072 -0.313557  -0.0047164 0.172054 -0.186754  -0.00287271 0.103147 -0.0770917  0 1.19209e-07 4.76837e-07  0 0 0  0.00324357 -0.126302 0.0869699  0.00138062 -0.285022 0.131578  -0.000529617 -0.449103 0.120441  -0.00120384 -0.598971 0.0537109  -0.00129271 -0.716406 -0.0605922  -0.0011223 -0.787046 -0.20829  -0.000850081 -0.802369 -0.37122  -0.000586987 -0.760593 -0.529485  -0.000397086 -0.666834 -0.663795  -0.000301123 -0.532498 -0.75776  -0.000275612 -0.373927 -0.799873  -0.00028038 -0.210455 -0.784909  -0.000284433 -0.0620944 -0.714587  -0.000339508 0.0528842 -0.597453  -0.000745058 0.120358 -0.44794  -0.0021162 0.132645 -0.284366  -0.00423694 0.0880015 -0.126821  0 2.38419e-07 4.76837e-07  0 0 0  0.043059 -0.155657 0.140357  0.0506944 -0.348767 0.229728  0.0475303 -0.55549 0.248306  0.0453454 -0.753678 0.194541  0.0445834 -0.920432 0.0757084  0.0445471 -1.03566 -0.0931907  0.0448215 -1.08551 -0.291319  0.0451629 -1.06407 -0.494486  0.0454381 -0.973975 -0.677949  0.045595 -0.826194 -0.819346  0.0456423 -0.638677 -0.901399  0.0456126 -0.434243 -0.914014  0.0454967 -0.237803 -0.85553  0.0451279 -0.0733373 -0.732942  0.0438995 0.0390257 -0.561134  0.0400267 0.0858923 -0.36154  0.0291517 0.0661811 -0.162034  0 3.57628e-07 4.76837e-07  0 0 0  0.0155269 -0.0995108 -0.197256  0.00630915 -0.165042 -0.42714  0.00155365 -0.148427 -0.662832  -1.40667e-05 -0.0522981 -0.876637  -0.000306427 0.111267 -1.0436  -0.000178576 0.322147 -1.14376  -1.60933e-05 0.554561 -1.16516  3.6478e-05 0.78019 -1.10531  -2.74181e-06 0.971551 -0.971547  -4.06504e-05 1.10532 -0.780188  1.68085e-05 1.16517 -0.554561  0.000179768 1.14377 -0.322147  0.000309229 1.0436 -0.111267  1.45435e-05 0.876635 0.0523009  -0.00155425 0.662827 0.148428  -0.00631142 0.427134 0.165042  -0.0155272 0.197254 0.0995102  0 -3.57628e-07 4.76837e-07  0 1.49012e-08 0  0.04296 -0.142235 -0.156748  0.048139 -0.231019 -0.349017  0.0463458 -0.248742 -0.554606  0.0452645 -0.194677 -0.752206  0.0450463 -0.0757164 -0.91848  0.0451733 0.0932703 -1.0333  0.0453428 0.291474 -1.08283  0.0454296 0.494677 -1.06115  0.045428 0.67811 -0.970938  0.0454069 0.819409 -0.823207  0.0454524 0.901339 -0.635961  0.0456007 0.913879 -0.432  0.0457752 0.855425 -0.236153  0.0456829 0.732975 -0.0722628  0.0445487 0.561369 0.0396667  0.0402031 0.361955 0.086473  0.0276482 0.161997 0.0661349  0 -2.23517e-07 4.76837e-07  0 0 0  0.0232027 -0.164402 -0.0930266  0.0344066 -0.280954 -0.235275  0.0362959 -0.344801 -0.407822  0.0363858 -0.345781 -0.590127  0.0365716 -0.283778 -0.761023  0.0368549 -0.16654 -0.899753  0.0370936 -0.00862718 -0.989466  0.0372224 0.170583 -1.01933  0.0372516 0.34922 -0.985775  0.0372405 0.505511 -0.892894  0.0372711 0.620396 -0.75199  0.0374045 0.679824 -0.580199  0.0376205 0.676481 -0.398431  0.0377803 0.610762 -0.228841  0.0375774 0.491111 -0.0922093  0.0356948 0.33423 -0.00507545  0.0273697 0.163688 0.025023  0 -1.49012e-07 4.76837e-07  0 0 0  -0.00609718 -0.170981 -0.0311365  -0.00438032 -0.313054 -0.116498  -0.00296405 -0.423974 -0.247496  -0.0025512 -0.485139 -0.408952  -0.00221187 -0.487185 -0.581316  -0.00182766 -0.429605 -0.743576  -0.00151026 -0.319575 -0.875919  -0.00131786 -0.17065 -0.962276  -0.00124645 -0.00102052 -0.992181  -0.00124681 0.168648 -0.961996  -0.00124598 0.317679 -0.875351  -0.0011704 0.427845 -0.74273  -0.000986099 0.48559 -0.580235  -0.00069809 0.483808 -0.407658  -3.71933e-05 0.423079 -0.245934  0.00205827 0.312531 -0.114747  0.00482583 0.169632 -0.0295091  0 0 4.76837e-07  0 0 0  -0.0257196 -0.165145 0.0230088  -0.0370452 -0.33462 -0.00657701  -0.0396962 -0.49162 -0.0931873  -0.0402384 -0.611733 -0.229541  -0.0401582 -0.677854 -0.39888  -0.0398167 -0.681562 -0.580379  -0.0394509 -0.622496 -0.751914  -0.0391854 -0.507954 -0.892632  -0.0390542 -0.351912 -0.985425  -0.0390322 -0.173362 -1.01898  -0.0390621 0.00594962 -0.989131  -0.039085 0.164124 -0.899418  -0.0390728 0.281737 -0.760659  -0.0390599 0.344246 -0.589681  -0.0389025 0.343957 -0.407055  -0.0364633 0.280872 -0.234038  -0.0244758 0.164071 -0.0922651  0 1.19209e-07 4.76837e-07  0 0 0  -0.0234336 -0.160375 0.0649176  -0.0395941 -0.361237 0.085463  -0.045124 -0.561332 0.0389485  -0.0468487 -0.733446 -0.0726962  -0.047198 -0.856335 -0.236227  -0.0469909 -0.915263 -0.431682  -0.0466214 -0.903258 -0.635293  -0.0462948 -0.821881 -0.82232  -0.0460966 -0.681058 -0.970012  -0.0460312 -0.497918 -1.06036  -0.0460651 -0.294748 -1.08228  -0.0461632 -0.0963203 -1.033  -0.0463617 0.0730888 -0.918387  -0.0468562 0.192617 -0.752275  -0.0480809 0.247441 -0.554729  -0.0499146 0.230641 -0.348823  -0.0436196 0.142514 -0.156895  0 2.38419e-07 4.76837e-07  0 0 0  0.0266234 -0.195453 0.100202  0.0106646 -0.426767 0.163925  0.00255048 -0.663169 0.147776  -0.000335038 -0.8775 0.0518026  -0.00113243 -1.04481 -0.111517  -0.00105995 -1.14534 -0.322061  -0.00067687 -1.16714 -0.554137  -0.000279903 -1.10771 -0.77951  -4.29153e-06 -0.974313 -0.970763  0.000113845 -0.783174 -1.10458  0.000100613 -0.557539 -1.16459  -1.26362e-05 -0.324884 -1.14337  -0.000277758 -0.113588 -1.04336  -0.000969172 0.0505046 -0.876517  -0.00285244 0.147218 -0.66287  -0.00763083 0.164627 -0.427819  -0.0167387 0.102561 -0.199543  0 3.57628e-07 4.76837e-07  0 7.45058e-09 0  0.000367515 0.0680004 -0.0417104  0.00453479 0.0717406 -0.0536122  -0.00954871 0.0780883 -0.0448422  -0.0180644 0.0752598 -0.0403128  -0.00543034 0.147595 -0.0784779  0.00580416 0.060413 -0.0611291  0.0170274 0.136727 -0.115452  0.0235446 0.0799206 -0.0742478  0 0 0  0.0236217 0.0952514 -0.0648632  0 1.49012e-08 0  0 7.45058e-09 0  0.00113647 0.0564227 -0.0468216  0 7.45058e-09 0  0.0370921 0.183668 -0.124624  0.0110461 0.0994468 -0.0531626  0.00863197 0.15953 -0.101118  -0.0130896 0.173692 -0.0834322  -0.00986303 0.234842 -0.101189  0.0073472 0.255577 -0.135592  -0.0190316 0.278883 -0.111505  -0.0357601 0.260743 -0.0827184  -0.0128861 0.326277 -0.110485  0.0190211 0.223242 -0.155235  0.0197757 0.313002 -0.182257  0.047612 0.250223 -0.193913  0.0379213 0.28774 -0.169666  0.00310543 0.203754 -0.116282  0.0361642 0.395024 -0.19872  0.0115966 0.311746 -0.141975  0.00497156 0.355543 -0.155367  -0.0234085 0.387907 -0.12591  -0.0142844 0.418413 -0.102115  0.00314748 0.457236 -0.155857  -0.0253037 0.498288 -0.118165  -0.0423579 0.46353 -0.069386  -0.0155641 0.507998 -0.08004  0.0183168 0.40596 -0.191557  0.0182104 0.498374 -0.185732  0.0483852 0.451652 -0.247559  0.0339999 0.505746 -0.206333  0.000885606 0.366979 -0.132887  0.0327555 0.615331 -0.196288  0.00518611 0.546242 -0.165128  0.00204331 0.557346 -0.140401  -0.0276259 0.606066 -0.0957589  -0.0159461 0.591942 -0.0404754  0.00109291 0.652679 -0.106064  -0.0278461 0.706863 -0.0508204  -0.0445921 0.651573 0.0114207  -0.0164543 0.668531 0.0110216  0.0171553 0.588402 -0.162775  0.0174173 0.672787 -0.125511  0.0468204 0.656175 -0.228175  0.0314006 0.72113 -0.165518  6.65188e-05 0.525739 -0.0924687  0.0310954 0.820079 -0.118418  0.00210464 0.77361 -0.107282  0.000800073 0.741067 -0.0572219  -0.0291409 0.800113 0.006989  -0.0164499 0.733727 0.0771356  0.000329912 0.818601 0.00782967  -0.0287601 0.8791 0.0837388  -0.0452905 0.800467 0.151765  -0.0167156 0.7879 0.151841  0.0166943 0.749218 -0.0728765  0.0171452 0.815495 -0.00882244  0.0460179 0.840589 -0.139555  0.0303326 0.908573 -0.0531063  -9.10759e-05 0.660892 0.000183582  0.0304456 0.985096 0.0251279  0.000908196 0.966475 0.0249748  0.000348568 0.884666 0.084065  -0.0296648 0.946634 0.16996  -0.0165932 0.826317 0.236362  6.09159e-05 0.934999 0.171811  -0.0290834 0.994312 0.269113  -0.0455044 0.891916 0.334601  -0.0167981 0.851467 0.32511  0.0165345 0.869029 0.0669637  0.0170444 0.909167 0.149907  0.0456955 0.982904 0.00716114  0.0299302 1.0456 0.116889  -9.78112e-05 0.755824 0.133832  0.0301907 1.09047 0.216627  0.000458002 1.10174 0.215323  0.000179648 0.970762 0.266079  -0.0298556 1.02803 0.373207  -0.0166419 0.858454 0.417652  -4.64916e-05 0.987819 0.365745  -0.0292088 1.03868 0.482639  -0.0455737 0.914892 0.53758  -0.0168247 0.851565 0.509586  0.0164629 0.933315 0.23948  0.0169936 0.942473 0.331135  0.0455508 1.06592 0.193843  0.0297619 1.11568 0.323555  -0.000100493 0.798919 0.292  0.030077 1.12351 0.432581  0.00027287 1.16318 0.44042  0.000109911 0.988986 0.466511  -0.029929 1.03456 0.591908  -0.016642 0.82633 0.598836  -7.98702e-05 0.970754 0.565911  -0.0292403 1.00696 0.698268  -0.0455682 0.86673 0.735953  -0.0167916 0.788296 0.682745  0.0164331 0.934352 0.42351  0.0169924 0.911469 0.512676  0.0454801 1.07967 0.397594  0.0296932 1.11043 0.541602  -9.52482e-05 0.785002 0.45528  0.0300535 1.08033 0.646609  0.000204802 1.14349 0.672773  0.000116467 0.937241 0.660882  -0.0299104 0.965562 0.799398  -0.0165665 0.733967 0.757829  -2.38419e-05 0.885996 0.747902  -0.0291648 0.903133 0.889734  -0.0454668 0.753408 0.905569  -0.0166669 0.669463 0.823502  0.0164716 0.872127 0.596579  0.0170788 0.820035 0.672395  0.0454917 1.02259 0.593537  0.0297244 1.03062 0.744432  -3.71933e-05 0.715873 0.603733  0.0301464 0.966298 0.832635  0.000254154 1.0452 0.884068  0.000227809 0.821931 0.825512  -0.0297705 0.82955 0.970418  -0.0163898 0.592695 0.875288  0.000149608 0.743952 0.889565  -0.028955 0.739932 1.03374  -0.0452455 0.588807 1.0258  -0.0164387 0.509603 0.914742  0.0166129 0.754303 0.737612  0.0172771 0.679377 0.790855  0.0456233 0.901729 0.757812  0.0298882 0.886047 0.907356  0.000106335 0.600031 0.719281  0.0303828 0.795379 0.968025  0.000452518 0.880381 1.04859  0.000462532 0.657168 0.940378  -0.0294937 0.643156 1.08417  -0.0161207 0.419759 0.936938  0.000437737 0.561968 0.973678  -0.0286229 0.537275 1.11279  -0.044924 0.393009 1.08205  -0.0161433 0.328209 0.945376  0.0168632 0.595275 0.829456  0.0175709 0.506647 0.853654  0.0458918 0.731855 0.870433  0.0301917 0.694376 1.01056  0.000337362 0.451629 0.787874  0.0307405 0.588408 1.03632  0.000800967 0.66915 1.14634  0.000787735 0.463042 0.991518  -0.029127 0.429097 1.12684  -0.0158266 0.236236 0.935269  0.000770807 0.362209 0.99  -0.0282606 0.319839 1.11725  -0.0445943 0.189861 1.06744  -0.0158808 0.14738 0.911641  0.0171746 0.414415 0.86093  0.0178783 0.32287 0.853124  0.0462543 0.53365 0.917684  0.0305698 0.478943 1.04147  0.00061214 0.288758 0.801155  0.0311086 0.370566 1.02917  0.00121522 0.437223 1.16541  0.00109196 0.263182 0.972678  -0.0288124 0.213428 1.09318  -0.0156381 0.0645037 0.870415  0.000988007 0.168996 0.936477  -0.0280728 0.114102 1.04649  -0.044441 0.00412759 0.983666  -0.0158188 -0.010796 0.817538  0.0174272 0.233739 0.828141  0.0180364 0.150425 0.789229  0.046571 0.331216 0.893747  0.0308483 0.265948 0.996263  0.000842333 0.131285 0.757447  0.0312471 0.168335 0.947337  0.00148821 0.212813 1.10339  0.00116181 0.0819351 0.886045  -0.0288267 0.0224357 0.98716  -0.0157552 -0.0744002 0.750151  0.000808239 0.00590955 0.819484  -0.0284438 -0.05479 0.908942  -0.0448024 -0.141418 0.840768  -0.0162108 -0.126849 0.674385  0.0174167 0.075295 0.734958  0.0177667 0.0104071 0.669615  0.0465639 0.149176 0.801384  0.0306964 0.0812893 0.880243  0.000905037 -0.00150011 0.661986  0.0307114 0.00630839 0.800528  0.00120354 0.0232492 0.967589  0.000633478 -0.0585136 0.741991  -0.0296714 -0.120431 0.82146  -0.0164828 -0.163284 0.588994  -0.000277281 -0.107011 0.653079  -0.0301456 -0.165946 0.721128  -0.04634 -0.22871 0.656014  -0.0174606 -0.186282 0.499437  0.0167713 -0.0414437 0.592644  0.016453 -0.0799393 0.508867  0.0457053 0.00974422 0.651603  0.0295117 -0.0525207 0.707108  0.00060463 -0.0931867 0.5264  0.0285387 -0.0957785 0.606093  -0.000512838 -0.108225 0.77408  -0.00122476 -0.140831 0.557829  -0.0323386 -0.197315 0.615953  -0.0182085 -0.19106 0.406274  -0.00325155 -0.155807 0.457219  -0.0346017 -0.205292 0.505517  -0.0496769 -0.246721 0.451394  -0.0195341 -0.181524 0.313213  0.0145245 -0.102115 0.418719  0.0125363 -0.109881 0.326804  0.0425651 -0.070019 0.46267  0.025866 -0.119034 0.497167  -0.000521898 -0.132498 0.367363  0.0221162 -0.125709 0.386875  -0.00602555 -0.165126 0.545678  -0.00566959 -0.154721 0.355264  -0.0381017 -0.198104 0.394487  -0.0193577 -0.154211 0.22289  -0.00858378 -0.134736 0.254902  -0.0408533 -0.167649 0.286386  -0.0493958 -0.191845 0.249037  -0.0166378 -0.113351 0.136993  0.00883198 -0.100199 0.234849  0.00486851 -0.0771814 0.145953  0.0322685 -0.0824747 0.259466  0.0157223 -0.111724 0.275961  -0.00260448 -0.115308 0.20397  0.00641441 -0.0821798 0.169785  -0.0199556 -0.141061 0.309107  -0.0103719 -0.098728 0.157543  -0.0406816 -0.122437 0.180826  -0.00924563 -0.0578389 0.0630779  -0.00707173 -0.0500938 0.0733395  -0.0159731 -0.0598283 0.0869408  -0.0163105 -0.0709057 0.0748096  0 -2.23517e-07 -4.76837e-07  0.00195026 -0.0411259 0.0669956  0 -2.90573e-07 -4.76837e-07  0.00958085 -0.0392438 0.0741153  -0.000897408 -0.0430348 0.0773768  -0.00178814 -0.0458998 0.0576038  0 -3.57628e-07 -4.76837e-07  -0.00902796 -0.0467975 0.0896606  0 -2.90573e-07 -4.76837e-07  0 -2.6077e-07 -4.76837e-07  0 0 0  -0.00299422 0.0682708 -0.0167542  -0.001617 0.0674994 -0.0298071  -0.0193023 0.0770411 -0.032115  -0.0168593 0.0807955 -0.0214062  -0.0109441 0.140886 -0.0272985  -0.00101523 0.0554237 -0.0325565  -0.00173306 0.119496 -0.0605845  0 0 0  0 0 0  -0.00181987 0.0558499 -0.019412  0 0 0  -0.0107324 0.141965 -0.0530968  -0.0305555 0.160958 -0.0461092  -0.0152399 0.213557 -0.024354  -0.0155938 0.222146 -0.0636373  -0.0380158 0.252419 -0.0507307  -0.0328484 0.2491 -0.0154257  -0.0181602 0.287691 -0.00995398  -0.00380425 0.189352 -0.0761943  -0.00541297 0.260796 -0.0811615  -0.00667034 0.177443 -0.0354924  -0.0191756 0.304538 -0.0613027  -0.0419211 0.345344 -0.0420132  -0.0188045 0.357804 0.0181985  -0.0203804 0.386094 -0.0437436  -0.044322 0.437168 -0.0149159  -0.0377278 0.41565 0.0438156  -0.0196177 0.42439 0.0572681  -0.00680548 0.332521 -0.0724697  -0.00697717 0.401611 -0.0522132  -0.00876287 0.30073 -0.00944757  -0.0215896 0.464177 -0.0134702  -0.0454951 0.52417 0.0240917  -0.0191728 0.482097 0.108513  -0.0216015 0.535692 0.0314941  -0.046128 0.602165 0.0817666  -0.0388553 0.556264 0.157614  -0.0195905 0.531919 0.168268  -0.00744861 0.466755 -0.0193172  -0.0070551 0.525047 0.0236607  -0.00852585 0.409608 0.057703  -0.0221159 0.599066 0.0868835  -0.0464772 0.67105 0.148208  -0.019014 0.568878 0.236606  -0.0218014 0.650917 0.153969  -0.0465893 0.724566 0.229422  -0.0390524 0.650234 0.313467  -0.0194423 0.595236 0.309904  -0.00732201 0.575073 0.0772023  -0.00688058 0.615098 0.137756  -0.00795013 0.489714 0.158682  -0.0221824 0.691434 0.227843  -0.0467175 0.766501 0.315435  -0.0189028 0.606451 0.386853  -0.0218101 0.717016 0.308718  -0.0466961 0.788792 0.41009  -0.0390648 0.684992 0.492157  -0.0193713 0.605994 0.464697  -0.00717312 0.643618 0.205336  -0.00677794 0.660353 0.275993  -0.00763464 0.530337 0.281263  -0.0221803 0.729641 0.391998  -0.0467685 0.79861 0.5052  -0.0188571 0.590056 0.540758  -0.0218023 0.725837 0.476696  -0.0467144 0.786995 0.601679  -0.0390443 0.65621 0.671741  -0.0193344 0.562882 0.613628  -0.00710785 0.663862 0.34925  -0.00673735 0.655281 0.421325  -0.00751758 0.526292 0.410315  -0.0221673 0.709072 0.559186  -0.0467609 0.76354 0.694297  -0.018813 0.5218 0.679505  -0.0217743 0.676409 0.637354  -0.0466785 0.719505 0.780833  -0.0389843 0.56752 0.830323  -0.0192679 0.471281 0.738532  -0.00707173 0.633405 0.491277  -0.00669122 0.600604 0.555964  -0.00746369 0.478148 0.530006  -0.0221128 0.632352 0.708999  -0.0466868 0.665688 0.859683  -0.018716 0.410115 0.786221  -0.0216854 0.574863 0.771124  -0.0465596 0.594653 0.925758  -0.0388477 0.429845 0.948638  -0.0191331 0.342444 0.824239  -0.00700092 0.556061 0.614086  -0.00658894 0.503076 0.663509  -0.00738621 0.391879 0.625751  -0.0219821 0.508923 0.823211  -0.0465163 0.517072 0.981256  -0.0185441 0.268675 0.847949  -0.0215107 0.433642 0.861742  -0.0463369 0.427716 1.01885  -0.038618 0.260017 1.01233  -0.0189275 0.192112 0.860343  -0.00686133 0.441324 0.702731  -0.00641167 0.374633 0.730883  -0.00725055 0.278065 0.685912  -0.0217682 0.353873 0.887944  -0.046248 0.335843 1.04426  -0.0183145 0.114743 0.857194  -0.0212637 0.269987 0.8982  -0.0460359 0.23906 1.04879  -0.0383251 0.0787465 1.01369  -0.0186856 0.0386271 0.842449  -0.00665212 0.303212 0.746434  -0.00617552 0.230953 0.749886  -0.00705874 0.150611 0.703178  -0.0215058 0.186115 0.895328  -0.0459346 0.144087 1.04103  -0.0180739 -0.032892 0.812809  -0.021001 0.103856 0.876045  -0.0457385 0.051668 1.01194  -0.0380447 -0.0918735 0.952498  -0.0184641 -0.099256 0.772684  -0.00640237 0.158576 0.739861  -0.00592113 0.0895734 0.718167  -0.00683117 0.0250879 0.675427  -0.0212729 0.0261183 0.844418  -0.0456873 -0.0348329 0.971902  -0.0178788 -0.156146 0.720129  -0.0208156 -0.0444474 0.797907  -0.0455871 -0.11158 0.912663  -0.0378969 -0.230975 0.83613  -0.0183144 -0.204587 0.659455  -0.0061574 0.0251004 0.683751  -0.00569367 -0.0321746 0.639513  -0.00657988 -0.0831231 0.605989  -0.0211706 -0.10651 0.741316  -0.0456796 -0.179017 0.845151  -0.0177619 -0.239814 0.590361  -0.0208166 -0.156684 0.673198  -0.0457971 -0.230612 0.762901  -0.0380428 -0.321411 0.678641  -0.0182271 -0.264295 0.516476  -0.0059526 -0.0808055 0.584869  -0.00553465 -0.11926 0.523454  -0.00627494 -0.160682 0.503278  -0.0212889 -0.195365 0.598459  -0.0461431 -0.270601 0.676015  -0.0176477 -0.273524 0.439196  -0.0210581 -0.218893 0.516964  -0.0465977 -0.290592 0.580657  -0.0384865 -0.351935 0.499043  -0.0179138 -0.270984 0.360951  -0.00580978 -0.146028 0.45526  -0.0054872 -0.16092 0.384094  -0.00582743 -0.19802 0.379789  -0.0215547 -0.22929 0.432965  -0.0471349 -0.298006 0.484723  -0.0169225 -0.253274 0.284475  -0.0211351 -0.223177 0.34774  -0.0473824 -0.283847 0.387377  -0.0377831 -0.318598 0.318473  -0.0159373 -0.224254 0.211017  -0.00569892 -0.1626 0.310637  -0.00537252 -0.152288 0.237892  -0.00503349 -0.19085 0.250318  -0.0208235 -0.203901 0.264003  -0.0467644 -0.257482 0.29323  -0.013257 -0.181927 0.143888  -0.018492 -0.168996 0.184998  -0.0430105 -0.210828 0.205137  -0.0300016 -0.224824 0.158235  -0.00882936 -0.131023 0.0843191  -0.00491047 -0.128948 0.167892  -0.00359726 -0.0953725 0.102095  -0.00322318 -0.140798 0.129588  -0.0147169 -0.123733 0.111628  -0.0354598 -0.153691 0.124481  -0.00432205 -0.0687146 0.0359817  -0.00793505 -0.0648458 0.0494156  -0.0146031 -0.0800459 0.0604801  -0.00896502 -0.0856234 0.0412936  0 -8.9407e-08 -4.76837e-07  -0.00150752 -0.0500803 0.0450892  0 -1.78814e-07 -4.76837e-07  -0.000560045 -0.0538889 0.0329113  0 -1.78814e-07 -4.76837e-07  0 -1.49012e-07 -4.76837e-07  0 0 0  -0.00200938 0.0710499 0.00944948  -0.0017845 0.0705324 -0.00305605  -0.0107313 0.0853859 -0.00854588  -0.00375511 0.0874919 0.00809383  -0.00377209 0.139466 0.0288033  -0.00195038 0.0560274 -0.00517273  -0.00420344 0.112795 -0.00470829  0 0 0  0 0 0  -0.00178576 0.0563016 0.00737047  0 0 0  -0.00839029 0.140177 0.000961781  -0.0165939 0.166502 0.00186014  -0.00373286 0.199943 0.0602412  -0.0108937 0.206415 0.0178852  -0.0199669 0.246422 0.0238566  -0.0041026 0.242815 0.0678673  -0.00305036 0.257245 0.100852  -0.00589217 0.16803 0.00678015  -0.00654525 0.221783 0.0263677  -0.0038911 0.159004 0.0479093  -0.0123565 0.271659 0.0451598  -0.0208281 0.322951 0.0584931  -0.00216505 0.305623 0.151459  -0.0119133 0.33092 0.0843277  -0.021814 0.394502 0.107838  -0.00238127 0.372307 0.176768  -0.00148153 0.347291 0.209549  -0.0066742 0.271428 0.0557666  -0.00618419 0.316263 0.0928373  -0.00271586 0.24369 0.120955  -0.0120694 0.385069 0.132465  -0.0211519 0.457419 0.167568  -0.000910699 0.376879 0.273825  -0.0111858 0.428739 0.190274  -0.0218492 0.509194 0.239254  -0.00147206 0.459855 0.325502  -0.00064975 0.396851 0.342925  -0.00576377 0.354137 0.137801  -0.00519103 0.384292 0.188269  -0.00122422 0.300713 0.218576  -0.011366 0.464006 0.254393  -0.0209286 0.548514 0.317621  -0.000397921 0.402981 0.413416  -0.0106561 0.485501 0.323899  -0.0217262 0.572828 0.402799  -0.00122142 0.491741 0.495734  -0.000369489 0.398123 0.485193  -0.00494385 0.404832 0.243684  -0.0045945 0.415969 0.301577  -0.000384867 0.321856 0.330061  -0.0110091 0.496736 0.396321  -0.0207912 0.582883 0.490001  -0.000258744 0.379694 0.553364  -0.0104465 0.493043 0.468935  -0.0216627 0.576477 0.578199  -0.00118953 0.46326 0.66633  -0.000305057 0.350451 0.61901  -0.00455338 0.416263 0.360676  -0.00435716 0.406804 0.418852  -6.33001e-05 0.303569 0.442024  -0.0108857 0.478681 0.540744  -0.0207339 0.555929 0.663455  -0.000227332 0.309724 0.676555  -0.0103791 0.450258 0.607558  -0.0216265 0.51963 0.743931  -0.00118268 0.377925 0.816438  -0.000273228 0.259717 0.728055  -0.00441194 0.386768 0.474383  -0.00427115 0.357892 0.525696  3.77893e-05 0.247898 0.540724  -0.0108339 0.4121 0.669965  -0.0206851 0.471056 0.816829  -0.000177622 0.201739 0.767996  -0.0103256 0.362486 0.722853  -0.0215588 0.409371 0.879826  -0.00112057 0.246309 0.927849  -0.000191927 0.137129 0.799102  -0.00434351 0.320021 0.570886  -0.00420117 0.275308 0.609086  9.93013e-05 0.161739 0.614112  -0.0107574 0.305251 0.768271  -0.0205835 0.338761 0.931514  -6.13928e-05 0.069015 0.816624  -0.0102206 0.240544 0.800828  -0.0214148 0.259254 0.969413  -0.000967741 0.0845621 0.987109  -3.94583e-05 -0.00229421 0.823583  -0.00425494 0.224263 0.63845  -0.00408912 0.1692 0.658906  0.000197172 0.0557017 0.653295  -0.0106179 0.171244 0.823758  -0.0203962 0.175246 0.993639  0.000120878 -0.0722262 0.816576  -0.0100485 0.0993471 0.832041  -0.0211829 0.0876194 1.00186  -0.000726581 -0.0875735 0.987084  0.000166893 -0.141538 0.798553  -0.00411677 0.111226 0.668887  -0.00392604 0.0525389 0.669116  0.000343919 -0.0572371 0.653548  -0.0104177 0.0264391 0.829704  -0.020131 0.000453949 0.995695  0.000339866 -0.204753 0.767871  -0.00982797 -0.0438735 0.812706  -0.0208921 -0.0846133 0.973233  -0.000434399 -0.249127 0.927799  0.000389695 -0.263611 0.727045  -0.00393367 -0.00528315 0.658499  -0.00372469 -0.0604235 0.638465  0.000524044 -0.163286 0.614851  -0.0101895 -0.111494 0.785376  -0.0198337 -0.164322 0.937426  0.000556827 -0.312372 0.676404  -0.00959814 -0.171621 0.745144  -0.0206015 -0.236445 0.886988  -0.000148416 -0.38039 0.816422  0.000599384 -0.353555 0.617708  -0.0037179 -0.111016 0.608529  -0.00349021 -0.155847 0.57065  0.000724196 -0.249468 0.541897  -0.00996852 -0.225675 0.696111  -0.0195698 -0.298967 0.825848  0.000755548 -0.38185 0.553257  -0.00938296 -0.268214 0.637515  -0.0203829 -0.349289 0.75352  6.77109e-05 -0.465257 0.666427  0.000804663 -0.400249 0.483813  -0.00345612 -0.192982 0.525024  -0.00318766 -0.221969 0.473895  0.000966787 -0.305176 0.443544  -0.00975513 -0.302028 0.572703  -0.0194113 -0.386925 0.674415  0.000978947 -0.404586 0.413403  -0.00914955 -0.321707 0.502862  -0.0202909 -0.409223 0.588952  0.000187635 -0.493206 0.496007  0.00110793 -0.397916 0.341688  -0.00307822 -0.241056 0.418142  -0.00271678 -0.250648 0.359976  0.00134063 -0.323523 0.331783  -0.00944948 -0.331081 0.430125  -0.0193713 -0.417276 0.501447  0.00138354 -0.377932 0.273827  -0.00871658 -0.325531 0.357477  -0.0201778 -0.408848 0.413161  0.000425577 -0.460768 0.325869  0.00175858 -0.347308 0.208608  -0.00244093 -0.249408 0.300894  -0.00191975 -0.238652 0.24262  0.00198531 -0.302434 0.220236  -0.00872302 -0.309485 0.28557  -0.019062 -0.386425 0.327784  0.00222945 -0.306023 0.151186  -0.00759339 -0.279762 0.218659  -0.0190682 -0.348616 0.247262  0.00157499 -0.372449 0.17677  0.00294614 -0.256314 0.100263  -0.00137925 -0.217575 0.187225  -0.000695229 -0.188384 0.13547  0.00290918 -0.245312 0.122144  -0.00691128 -0.241128 0.156079  -0.0168459 -0.299086 0.174131  0.00324941 -0.199578 0.0595512  -0.00514078 -0.191695 0.102483  -0.0145459 -0.23745 0.111551  0.00398588 -0.241788 0.0671015  0.00351119 -0.13806 0.0282421  4.41074e-05 -0.150447 0.0899358  0.000529528 -0.10703 0.0508571  0.0034163 -0.16037 0.0482974  -0.00375128 -0.13672 0.0567136  -0.00997257 -0.168013 0.0599914  0.0021503 -0.0719902 0.00881386  -0.00196815 -0.0721941 0.0223966  -0.00524378 -0.0897177 0.0257401  0.0012784 -0.0895121 0.00746059  0 0 -4.76837e-07  0.000679731 -0.0556521 0.0204434  0 -5.96046e-08 -4.76837e-07  0.00160384 -0.057086 0.00696278  0 -5.96046e-08 -4.76837e-07  0 -5.96046e-08 -4.76837e-07  0 0 0  0.00217365 0.0695477 0.0350771  0.000706993 0.0719443 0.0229836  0.0050903 0.0884886 0.024117  0.0126641 0.086163 0.0441594  0.00884017 0.132255 0.0846119  -0.000905156 0.0557401 0.0207167  -0.00114542 0.106752 0.0503006  0 0 0  0 0 0  -2.07797e-05 0.053919 0.0329351  0 0 0  0.00182734 0.136892 0.0572834  0.0105593 0.166851 0.0606704  0.0131931 0.182483 0.144663  0.00432909 0.192268 0.103135  0.0145285 0.236572 0.111706  0.031137 0.225999 0.159752  0.0167222 0.224256 0.211447  -0.000495002 0.15013 0.0896177  0.000594556 0.187633 0.134781  0.00317731 0.140424 0.129179  0.00643346 0.241184 0.156736  0.0180143 0.297413 0.173318  0.0178825 0.252813 0.284425  0.00834692 0.279559 0.219328  0.0193668 0.347968 0.246232  0.0377248 0.318336 0.318136  0.0189369 0.269912 0.361541  0.0017367 0.216403 0.186743  0.00259078 0.237455 0.241762  0.00593555 0.18994 0.249487  0.00932509 0.308918 0.286393  0.0210068 0.385206 0.326842  0.018831 0.272455 0.438975  0.0100957 0.324414 0.358085  0.0207936 0.408518 0.412063  0.0386665 0.351054 0.498878  0.0191655 0.262247 0.517174  0.00338942 0.247558 0.300408  0.0037241 0.249118 0.359255  0.00700045 0.196797 0.378912  0.0103276 0.329581 0.431178  0.0216599 0.415893 0.500916  0.0187932 0.23815 0.590266  0.0105749 0.319752 0.503475  0.0209655 0.408733 0.588382  0.0383379 0.319721 0.67892  0.0190309 0.201686 0.66004  0.00414973 0.238716 0.417632  0.00416923 0.220062 0.473354  0.00727171 0.159165 0.502574  0.0105399 0.299538 0.573789  0.0216521 0.385087 0.674186  0.0186555 0.153921 0.720119  0.0106399 0.265499 0.63806  0.0208823 0.348342 0.753526  0.0380105 0.228497 0.83655  0.0189284 0.0956989 0.772962  0.00441021 0.190276 0.524438  0.00430954 0.153588 0.570235  0.0073154 0.0812782 0.605488  0.0105497 0.222323 0.696998  0.0215687 0.296675 0.825779  0.0186027 0.0302148 0.812799  0.010639 0.168298 0.745495  0.0208281 0.234941 0.887456  0.0378696 0.0887829 0.952826  0.0189341 -0.0425751 0.842308  0.00449765 0.108086 0.607845  0.00437844 0.0579095 0.638139  0.0073427 -0.0272381 0.675098  0.0105678 0.107516 0.785885  0.0215596 0.161665 0.937425  0.0186653 -0.117707 0.85712  0.010691 0.0401717 0.812767  0.020875 0.0825608 0.974019  0.0379053 -0.0822166 1.01379  0.0190527 -0.196138 0.859759  0.00457418 0.00230128 0.657736  0.00447547 -0.0551813 0.66887  0.00742614 -0.152978 0.702991  0.0106605 -0.0307354 0.829734  0.0216619 -0.0033375 0.995696  0.0188313 -0.271726 0.847798  0.0108256 -0.103155 0.83178  0.0210358 -0.0901321 1.00282  0.0380856 -0.263598 1.01217  0.0192591 -0.34623 0.823287  0.00469613 -0.114081 0.66811  0.00462294 -0.171836 0.658763  0.00757718 -0.280527 0.685866  0.0108331 -0.175519 0.823299  0.0218725 -0.178179 0.993621  0.0190635 -0.413059 0.786036  0.0110276 -0.244184 0.800288  0.0212909 -0.262083 0.970432  0.038362 -0.433262 0.948249  0.0195062 -0.474563 0.737371  0.0048629 -0.226838 0.637763  0.00480425 -0.277818 0.609082  0.00777113 -0.394318 0.625872  0.0110546 -0.309184 0.767403  0.022158 -0.341565 0.931504  0.0193101 -0.524483 0.679361  0.0112576 -0.365717 0.722129  0.0215956 -0.412351 0.880824  0.0386779 -0.570553 0.829812  0.019742 -0.565486 0.612453  0.00504971 -0.322207 0.570398  0.00499392 -0.360178 0.525867  0.00797045 -0.480475 0.530324  0.0112826 -0.41542 0.668831  0.0224657 -0.47359 0.816888  0.0195205 -0.592384 0.540727  0.0114735 -0.4529 0.606784  0.0218945 -0.522605 0.744855  0.0389667 -0.658713 0.671235  0.0199201 -0.607844 0.463699  0.00523818 -0.388512 0.474198  0.00518632 -0.408801 0.419229  0.00814605 -0.528452 0.41084  0.0114832 -0.481203 0.53953  0.0227382 -0.558113 0.663654  0.0196571 -0.608377 0.386978  0.0116556 -0.494991 0.46825  0.0221288 -0.579315 0.579003  0.0391576 -0.686895 0.491753  0.0200117 -0.596343 0.309217  0.0054462 -0.417566 0.360871  0.00542665 -0.417646 0.30217  0.00830317 -0.532299 0.281971  0.0116556 -0.498367 0.395221  0.0229166 -0.584702 0.49039  0.019695 -0.570397 0.236866  0.0118232 -0.486737 0.323417  0.0222485 -0.575447 0.403423  0.0391669 -0.651496 0.313185  0.0199671 -0.53235 0.167937  0.00574446 -0.405737 0.244277  0.0058012 -0.385649 0.189034  0.00848532 -0.491459 0.159493  0.0118308 -0.464786 0.253561  0.0229516 -0.550065 0.318195  0.0195131 -0.483199 0.108818  0.0119886 -0.429338 0.190032  0.0222049 -0.511574 0.239576  0.0388165 -0.556745 0.157376  0.0194869 -0.424204 0.0572643  0.0061934 -0.354676 0.138724  0.00627828 -0.317242 0.0936589  0.00866866 -0.411102 0.0584846  0.0119104 -0.385205 0.131955  0.0227549 -0.458926 0.168113  0.0184417 -0.35844 0.0185423  0.011801 -0.331039 0.084353  0.0216618 -0.396593 0.107715  0.0371807 -0.415095 0.0437632  0.0173163 -0.286905 -0.0095892  0.00653076 -0.271552 0.0568895  0.00617075 -0.222223 0.0272698  0.00838208 -0.30194 -0.00883579  0.0110278 -0.271517 0.0449133  0.0215147 -0.324464 0.0585003  0.014385 -0.213865 -0.0238409  0.00959253 -0.206597 0.0182853  0.0183234 -0.247949 0.0236244  0.0298309 -0.248802 -0.0149169  0.0104854 -0.139963 -0.0267806  0.00554681 -0.168004 0.00765085  0.00374722 -0.113331 -0.00384235  0.0062151 -0.178646 -0.035368  0.00703692 -0.140053 0.000801086  0.0150988 -0.167267 0.00150394  0.00538135 -0.0698069 -0.0174651  0.00331926 -0.0715055 -0.00319099  0.00571537 -0.0874471 -0.00723124  0.00920177 -0.0836827 -0.0203733  0 1.19209e-07 -4.76837e-07  0.0021162 -0.0565273 -0.00490284  0 5.96046e-08 -4.76837e-07  0.00190687 -0.0567864 -0.0199661  0 5.96046e-08 -4.76837e-07  0 5.96046e-08 -4.76837e-07  0 0 0  0.00583125 0.0603184 0.0604782  0.00413203 0.06589 0.0483532  0.0193989 0.0805101 0.0621977  0.0236136 0.0740446 0.0801263  0.0170643 0.113383 0.13662  0.000671834 0.0510294 0.0449491  0.00299384 0.0954454 0.101789  0 0 0  0 0 0  0.000978366 0.0470058 0.0568318  0 0 0  0.0128205 0.123598 0.111555  0.036148 0.151496 0.12433  0.0201562 0.154156 0.222661  0.0185901 0.169737 0.185315  0.0439367 0.210889 0.204787  0.0489409 0.191978 0.248999  0.0215436 0.180687 0.312759  0.00471279 0.128873 0.167395  0.00576717 0.152041 0.236787  0.00374925 0.116349 0.203555  0.0217002 0.203533 0.263501  0.0486259 0.256127 0.291747  0.0202848 0.190681 0.405537  0.0227139 0.222828 0.347834  0.0493265 0.284566 0.386182  0.0503228 0.246525 0.450616  0.019607 0.184776 0.499087  0.00645208 0.161785 0.310485  0.00646955 0.160557 0.383399  0.0021154 0.133147 0.367033  0.0229914 0.22824 0.432609  0.0496923 0.296661 0.483715  0.018403 0.162443 0.588628  0.0227139 0.217771 0.517123  0.0489534 0.291099 0.580284  0.0477584 0.227797 0.656257  0.0180638 0.124739 0.674072  0.00667089 0.144602 0.455481  0.00637263 0.118441 0.523308  0.000569642 0.0932529 0.526855  0.0224401 0.193637 0.598235  0.048625 0.268712 0.675251  0.0172856 0.0729585 0.750102  0.0221621 0.154848 0.673485  0.0479936 0.230359 0.763377  0.046097 0.139573 0.84142  0.0173115 0.00821531 0.81712  0.00653094 0.0787078 0.585206  0.0062176 0.0307355 0.639708  -0.000187695 0.000639319 0.663033  0.021947 0.104227 0.741095  0.0478121 0.176738 0.844407  0.0167962 -0.0665305 0.870525  0.021822 0.0419477 0.798203  0.0474159 0.110429 0.913706  0.0453338 -0.00677651 0.984329  0.0170369 -0.15028 0.911054  0.00642461 -0.0278301 0.684003  0.00616109 -0.0916286 0.718543  -0.000469327 -0.133164 0.75876  0.0217246 -0.0288163 0.844121  0.0474327 0.0323337 0.971148  0.0166762 -0.238759 0.935408  0.0217178 -0.106885 0.876215  0.0472001 -0.0537061 1.01328  0.0450963 -0.193134 1.06791  0.0170476 -0.331235 0.94461  0.00642383 -0.161792 0.739905  0.00621653 -0.233528 0.75032  -0.000494599 -0.291574 0.802448  0.0217153 -0.189055 0.894916  0.0473603 -0.14667 1.04028  0.0167817 -0.422612 0.937021  0.0217921 -0.27333 0.898156  0.0472363 -0.241873 1.05019  0.0451641 -0.396661 1.08221  0.0172328 -0.512532 0.913848  0.00652945 -0.306687 0.746211  0.00636983 -0.377567 0.731288  -0.000361204 -0.455164 0.788926  0.0218589 -0.356848 0.887431  0.0474929 -0.338358 1.04356  0.0170221 -0.595671 0.875293  0.0219908 -0.437044 0.861475  0.0474406 -0.431104 1.02011  0.0454102 -0.592543 1.02562  0.0175136 -0.672092 0.822609  0.0067184 -0.444795 0.702257  0.0065856 -0.506176 0.663851  -0.000131488 -0.603993 0.719959  0.0220981 -0.511732 0.822672  0.0477567 -0.51937 0.980703  0.01732 -0.736874 0.757801  0.0222536 -0.57808 0.770701  0.0477406 -0.598363 0.926771  0.0457405 -0.756942 0.905107  0.0178118 -0.790496 0.682027  0.00694633 -0.559286 0.613454  0.00681543 -0.60369 0.556252  0.000130534 -0.719952 0.604001  0.0223706 -0.634846 0.708556  0.0480777 -0.667671 0.859394  0.0175973 -0.829028 0.59885  0.0225174 -0.679262 0.636894  0.0480609 -0.723286 0.781538  0.0460666 -0.869843 0.735341  0.0180509 -0.85331 0.509202  0.00716293 -0.636208 0.490623  0.00700879 -0.658207 0.421583  0.000360012 -0.78892 0.455172  0.0226111 -0.711179 0.55896  0.0483818 -0.765192 0.694382  0.0177745 -0.860866 0.417766  0.0227151 -0.728221 0.476309  0.0483223 -0.790622 0.602057  0.0462956 -0.917455 0.53695  0.0181468 -0.852803 0.325145  0.00732148 -0.66614 0.348705  0.00712609 -0.663008 0.276235  0.000492692 -0.802443 0.291579  0.0227523 -0.731358 0.392063  0.0485821 -0.799985 0.505705  0.0177546 -0.828393 0.236586  0.0227773 -0.718882 0.308479  0.0484257 -0.79207 0.410126  0.0463061 -0.893863 0.334037  0.0179808 -0.788899 0.152279  0.00739121 -0.645328 0.204999  0.00714207 -0.617387 0.137963  0.00046587 -0.758756 0.133168  0.0227103 -0.692793 0.228197  0.0485566 -0.767681 0.316289  0.0173738 -0.735408 0.0774384  0.0225904 -0.652242 0.153904  0.0482023 -0.727307 0.229098  0.045892 -0.801735 0.151275  0.0173054 -0.669236 0.0117435  0.00733328 -0.576194 0.0771246  0.00698137 -0.526843 0.0237947  0.000184298 -0.663029 -0.000638008  0.0222821 -0.600122 0.0874457  0.048059 -0.672092 0.149197  0.0162354 -0.593124 -0.0400748  0.0218172 -0.536472 0.031651  0.0472267 -0.604159 0.0811038  0.0445514 -0.651987 0.0109749  0.0154812 -0.508327 -0.0791969  0.00697732 -0.467236 -0.0190873  0.00633025 -0.402653 -0.0520587  -0.000572443 -0.52685 -0.0932508  0.0208194 -0.464986 -0.0128374  0.0464125 -0.525011 0.0247989  0.0134203 -0.419049 -0.101351  0.019438 -0.386512 -0.0431199  0.044014 -0.438294 -0.015625  0.040607 -0.462873 -0.0695844  0.011296 -0.325838 -0.109443  0.00581217 -0.332319 -0.0717764  0.00448298 -0.260814 -0.0803781  -0.00211668 -0.367029 -0.133145  0.0168355 -0.305064 -0.0606155  0.0411196 -0.345761 -0.0419259  0.00792599 -0.235313 -0.0997968  0.0135374 -0.222832 -0.0623021  0.0339434 -0.253242 -0.0511813  0.0290725 -0.260756 -0.0828519  0.00463772 -0.146676 -0.0766935  0.00336552 -0.188865 -0.0753655  0.00169969 -0.119654 -0.060029  -0.00374937 -0.203553 -0.11635  0.00964355 -0.141511 -0.0521317  0.0256264 -0.160845 -0.0459943  0.00311852 -0.0678589 -0.041748  0.00436497 -0.0680084 -0.0287232  0.0120859 -0.0782609 -0.0330539  0.0100036 -0.0744906 -0.0379176  0 2.38419e-07 -4.76837e-07  0.00123692 -0.0559734 -0.0319715  0 1.78814e-07 -4.76837e-07  -0.000977993 -0.0568318 -0.0470052  0 1.78814e-07 -4.76837e-07  0 2.38419e-07 -4.76837e-07  0 0 0  -0.00526325 0.0470469 0.0754085  0.00242073 0.0520187 0.0707378  0.022437 0.0638486 0.0942225  0.014104 0.0503169 0.0958409  -0.00620453 0.080838 0.168705  -0.00311861 0.0417482 0.0678601  -0.00463799 0.0766938 0.146678  0 0 0  0 0 0  -0.0100039 0.0379174 0.074492  0 0 0  0.00964867 0.0984914 0.157558  0.0402029 0.120839 0.180691  -0.0136209 0.11193 0.275631  0.00937709 0.134045 0.254721  0.0404741 0.168344 0.285591  0.01906 0.140842 0.307613  -0.0201875 0.124295 0.386724  -0.00792636 0.0997962 0.235314  -0.0112971 0.109443 0.32584  -0.029073 0.0828518 0.260758  0.00806266 0.153513 0.354874  0.039057 0.197071 0.3945  -0.0234503 0.118772 0.496922  0.00513238 0.154922 0.456922  0.0359753 0.206065 0.505447  0.0076777 0.165307 0.545823  -0.0260687 0.0939381 0.605545  -0.0134224 0.101353 0.419053  -0.0154847 0.0791999 0.508332  -0.0406101 0.0695852 0.462877  0.00322372 0.13874 0.557383  0.0334638 0.194849 0.615702  -0.0275902 0.0519197 0.707115  0.00174582 0.105661 0.653074  0.0318379 0.165651 0.722105  0.0023672 0.107702 0.774545  -0.0285631 -0.00853026 0.799743  -0.0162386 0.0400771 0.593129  -0.0173086 -0.0117428 0.66924  -0.0445555 -0.0109723 0.651992  0.000752032 0.0558631 0.741278  0.0304243 0.11718 0.820697  -0.02928 -0.0825227 0.880575  0.000151753 -0.00791663 0.819615  0.0297794 0.0532907 0.910347  0.000246644 -0.0245191 0.96828  -0.0295938 -0.170869 0.946375  -0.0173771 -0.0774369 0.735413  -0.0179846 -0.152275 0.788904  -0.0458949 -0.151273 0.801739  -0.000262856 -0.0849053 0.885024  0.0291032 -0.0259712 0.985872  -0.0299028 -0.267932 0.996746  -0.00046736 -0.171626 0.936545  0.0289299 -0.116703 1.04793  -0.000548601 -0.214902 1.1042  -0.0298969 -0.373288 1.02803  -0.0177575 -0.236582 0.828398  -0.0181491 -0.32514 0.852808  -0.0463085 -0.334034 0.893867  -0.000584304 -0.266264 0.971365  0.0286412 -0.216936 1.09144  -0.0299931 -0.481593 1.04191  -0.000591278 -0.365298 0.989864  0.0287077 -0.323354 1.11843  -0.000708938 -0.440059 1.16616  -0.0298198 -0.591124 1.03504  -0.0177754 -0.41776 0.86087  -0.0180519 -0.509193 0.853315  -0.0462961 -0.536943 0.917461  -0.00054872 -0.466007 0.989982  0.0286231 -0.432304 1.12479  -0.029803 -0.697486 1.01083  -0.000448346 -0.565266 0.973285  0.0288215 -0.541409 1.11351  -0.000537634 -0.672522 1.14686  -0.0295442 -0.797879 0.966724  -0.0175979 -0.598842 0.829035  -0.0178126 -0.682019 0.790504  -0.0460671 -0.735332 0.869851  -0.000319362 -0.659787 0.938764  0.0288453 -0.645811 1.08201  -0.0294747 -0.889363 0.907421  -0.000164747 -0.747192 0.888956  0.0291133 -0.744322 1.03391  -0.000197291 -0.884011 1.04882  -0.0291865 -0.96842 0.831487  -0.0173203 -0.757792 0.736881  -0.0175139 -0.822601 0.6721  -0.0457412 -0.905098 0.75695  -1.19209e-07 -0.82403 0.824038  0.0291857 -0.831478 0.968428  -0.0291141 -1.0339 0.744332  0.000163913 -0.888948 0.7472  0.0294739 -0.907412 0.889371  0.000196576 -1.04881 0.88402  -0.028846 -1.08201 0.645821  -0.0170226 -0.875286 0.59568  -0.0172338 -0.913842 0.51254  -0.045411 -1.02561 0.592552  0.000319123 -0.938757 0.659795  0.0295435 -0.966716 0.797887  -0.0288216 -1.11351 0.541419  0.000447869 -0.973279 0.565275  0.0298024 -1.01082 0.697495  0.000537872 -1.14686 0.672532  -0.0286235 -1.12478 0.432314  -0.0167819 -0.937015 0.422621  -0.0170481 -0.944605 0.331243  -0.0451643 -1.0822 0.39667  0.000548363 -0.989976 0.466016  0.0298195 -1.03504 0.591133  -0.0287088 -1.11843 0.323361  0.000590324 -0.98986 0.365304  0.0299925 -1.04191 0.4816  0.000708938 -1.16615 0.440067  -0.0286437 -1.09144 0.216942  -0.016677 -0.935404 0.238765  -0.0170394 -0.911051 0.150285  -0.0450972 -1.06791 0.193141  0.000582695 -0.971361 0.26627  0.0298955 -1.02803 0.373293  -0.0289338 -1.04792 0.116707  0.000464201 -0.936541 0.17163  0.0298996 -0.996742 0.267936  0.000545263 -1.1042 0.214907  -0.0291071 -0.985869 0.0259748  -0.016799 -0.870521 0.0665336  -0.0173147 -0.817116 -0.00821257  -0.045337 -0.984326 0.00677967  0.000259876 -0.88502 0.084909  0.0295899 -0.946371 0.170873  -0.029783 -0.910345 -0.0532889  -0.000154972 -0.819612 0.00791883  0.0292768 -0.880571 0.0825257  -0.000250101 -0.968277 0.0245218  -0.0304282 -0.820693 -0.117178  -0.0172887 -0.750098 -0.072957  -0.0180671 -0.674068 -0.124739  -0.0461001 -0.841417 -0.139573  -0.00075531 -0.741274 -0.0558624  0.0285609 -0.79974 0.00853252  -0.0318415 -0.7221 -0.16565  -0.00174928 -0.653069 -0.105659  0.0275872 -0.70711 -0.0519171  -0.00237036 -0.77454 -0.1077  -0.0334668 -0.615697 -0.194847  -0.0184059 -0.588623 -0.162441  -0.0196097 -0.499082 -0.184774  -0.0477612 -0.656252 -0.227796  -0.00322628 -0.557378 -0.138738  0.0260661 -0.605541 -0.0939355  -0.0359778 -0.505443 -0.206064  -0.00513458 -0.456918 -0.15492  0.023447 -0.496918 -0.118771  -0.00768089 -0.545819 -0.165306  -0.0390592 -0.394497 -0.197071  -0.0202863 -0.405533 -0.190678  -0.0215447 -0.312757 -0.180686  -0.0503244 -0.450612 -0.246524  -0.00806403 -0.354871 -0.153513  0.0201852 -0.386721 -0.124295  -0.0404751 -0.285589 -0.168344  -0.00937772 -0.254718 -0.134046  0.0136197 -0.275629 -0.11193  -0.0190616 -0.307611 -0.140842  -0.0402033 -0.180689 -0.120839  -0.0201564 -0.222659 -0.154156  -0.0170639 -0.13662 -0.113382  -0.0489414 -0.248998 -0.191977  -0.0096488 -0.157557 -0.0984917  0.00620365 -0.168702 -0.0808387  -0.022438 -0.0942221 -0.0638494  -0.0024209 -0.070737 -0.0520191  0.00526261 -0.0754081 -0.0470471  -0.0141044 -0.0958402 -0.0503173  0 3.57628e-07 -4.76837e-07  -0.00583053 -0.0604775 -0.0603185  0 2.98023e-07 -4.76837e-07  -0.0236132 -0.0801262 -0.0740447  0 2.98023e-07 -4.76837e-07  0 2.98023e-07 -4.76837e-07  0.00104976 0.0453532 -0.0509562  0.00372334 0.0483448 -0.0665298  0.0040088 0.102418 -0.096324  0.00233983 0.03555 -0.070528  0.00955011 0.0835553 -0.132957  0.0122309 0.0439466 -0.0868535  0 0 0  0.0172317 0.0636858 -0.0815086  0 1.49012e-08 0  0 7.45058e-09 0  -6.45742e-05 0.0325447 -0.0548205  0 7.45058e-09 0  0.0354917 0.125539 -0.154809  0.0141098 0.111224 -0.124911  0.00545385 0.166765 -0.129978  0.0194327 0.184852 -0.170833  0.00624165 0.236901 -0.153299  0.0135808 0.144036 -0.183123  0.0166916 0.210243 -0.225227  0.030913 0.159172 -0.22706  0.0435225 0.206104 -0.212391  0.00362062 0.128914 -0.141635  0.0473397 0.293322 -0.258235  0.0217651 0.263486 -0.205058  0.00631404 0.309452 -0.1632  0.022058 0.347177 -0.224073  0.00652778 0.382652 -0.161405  0.0177283 0.283601 -0.253432  0.0185844 0.359829 -0.271184  0.037428 0.318154 -0.319267  0.0477799 0.387585 -0.285207  0.00555214 0.249258 -0.190974  0.0479183 0.483907 -0.297483  0.0221596 0.431583 -0.22939  0.00663966 0.453989 -0.145908  0.0220089 0.51605 -0.218766  0.00681275 0.521815 -0.119084  0.0185631 0.437776 -0.273217  0.0189755 0.514926 -0.263678  0.0383901 0.498432 -0.351715  0.0473858 0.580632 -0.290789  0.00654638 0.378463 -0.197513  0.0474526 0.674503 -0.269095  0.0220492 0.596612 -0.194727  0.00688398 0.583397 -0.0799007  0.0219254 0.672017 -0.155608  0.00703537 0.637746 -0.0312967  0.0188119 0.588623 -0.238837  0.0191575 0.657577 -0.20327  0.0384378 0.677828 -0.320146  0.0469771 0.762666 -0.229496  0.00710857 0.50156 -0.159435  0.0472283 0.843083 -0.176824  0.0220347 0.739208 -0.105248  0.007038 0.682016 0.0267878  0.021915 0.79642 -0.0424738  0.00714445 0.71627 0.0911689  0.0189457 0.718116 -0.154487  0.0192482 0.770536 -0.0973053  0.0384501 0.834969 -0.228696  0.0468107 0.91207 -0.109236  0.00741118 0.603877 -0.0812078  0.0471365 0.96936 -0.0321231  0.0220361 0.842102 0.0279655  0.00709867 0.737813 0.160971  0.021902 0.874164 0.106616  0.00717914 0.747821 0.233199  0.0189962 0.810531 -0.030623  0.0192698 0.840051 0.0411077  0.0384412 0.950862 -0.0887299  0.0467274 1.01081 0.0550756  0.00753832 0.672944 0.0275569  0.0470726 1.03806 0.147153  0.0220208 0.892809 0.188459  0.00712061 0.744046 0.306133  0.0218869 0.895862 0.273313  0.00720608 0.728633 0.377364  0.0190016 0.854659 0.117467  0.019274 0.857727 0.194946  0.0384067 1.0115 0.0825105  0.04667 1.04699 0.243249  0.00758195 0.700369 0.153451  0.0470383 1.04093 0.33903  0.0220207 0.885249 0.356538  0.00716674 0.700049 0.444516  0.0219135 0.858977 0.437224  0.00728309 0.661136 0.506063  0.0190209 0.84522 0.271636  0.0193214 0.821506 0.345404  0.0383958 1.00959 0.264071  0.0466673 1.01631 0.432288  0.0076226 0.682884 0.281045  0.0470806 0.977746 0.520097  0.0220853 0.820446 0.511682  0.00728106 0.611259 0.559251  0.0220259 0.768088 0.578373  0.00744009 0.553611 0.603626  0.0191073 0.783444 0.413078  0.0194545 0.735863 0.474155  0.0384692 0.94548 0.433817  0.0467674 0.922618 0.599158  0.00771379 0.622689 0.394772  0.047245 0.856265 0.668311  0.022249 0.706361 0.635004  0.00747824 0.488533 0.63638  0.0222414 0.634307 0.679585  0.00767434 0.41918 0.658182  0.0192878 0.67689 0.524575  0.0196856 0.611241 0.565528  0.0386679 0.826997 0.571085  0.0469985 0.777354 0.723551  0.00788009 0.527149 0.480784  0.0475399 0.691305 0.765635  0.022509 0.556908 0.7115  0.00773859 0.34683 0.6665  0.0225332 0.473927 0.728532  0.00795174 0.274221 0.663052  0.0195568 0.538529 0.592535  0.01999 0.462794 0.608356  0.0389891 0.668566 0.659146  0.0473375 0.59821 0.790313  0.00812304 0.407905 0.528586  0.0479069 0.502932 0.800203  0.0228133 0.390275 0.731832  0.00801849 0.20343 0.645884  0.0228198 0.30647 0.719193  0.00821996 0.136441 0.617555  0.0198703 0.385192 0.608606  0.0203052 0.308598 0.597315  0.0393527 0.489455 0.68721  0.0476763 0.406978 0.791262  0.00843573 0.279493 0.532286  0.0481842 0.314041 0.767718  0.0230534 0.226752 0.693428  0.00827122 0.0758943 0.576968  0.0229628 0.152364 0.652613  0.0084188 0.0227756 0.527206  0.0201626 0.235584 0.570733  0.0205545 0.167516 0.533688  0.0395772 0.311469 0.651764  0.0477843 0.226921 0.726195  0.00883389 0.157628 0.49136  0.0480645 0.147619 0.67202  0.0230613 0.0863444 0.600888  0.00840545 -0.0200328 0.468262  0.0227263 0.0305253 0.536975  0.00831079 -0.0527195 0.403332  0.0203521 0.10805 0.483664  0.020555 0.056928 0.425718  0.039396 0.156372 0.557214  0.0472715 0.0799851 0.603053  0.00934386 0.0573002 0.410983  0.046906 0.02403 0.524904  0.0223882 -0.0136672 0.465821  0.00782633 -0.0725903 0.333677  0.0212381 -0.0441298 0.387163  0.00673366 -0.0810331 0.261873  0.0199044 0.0182093 0.359115  0.0189905 -0.00990708 0.288639  0.0381174 0.0433262 0.416258  0.0450902 -0.0158649 0.43752  0.00954103 -0.00930552 0.301897  0.0423894 -0.0419376 0.345814  0.0192044 -0.0613865 0.306024  0.00476885 -0.0762728 0.1904  0.0156555 -0.0634767 0.22319  0.00235176 -0.0602043 0.120742  0.0160716 -0.0239002 0.214746  0.011945 -0.0269656 0.141777  0.03175 -0.0151153 0.25009  0.0367422 -0.0506562 0.252745  0.00737858 -0.0350633 0.178765  0.0269365 -0.0462814 0.160741  0.0102501 -0.0525606 0.14283  0.000519037 -0.0329334 0.0561481  0.00436044 -0.0289906 0.0677738  0 -2.23517e-07 0  0.00537658 -0.0176571 0.0690889  0 -2.90573e-07 0  0.0101798 -0.0209392 0.0823741  0.0113728 -0.0322134 0.0766621  0.0021162 -0.0191795 0.0559397  0 -3.57628e-07 0  0 -2.90573e-07 0  -0.0013806 0.0427353 -0.0219431  -0.000630222 0.0435913 -0.0359035  -0.00281046 0.090315 -0.0389562  -0.00100951 0.0310357 -0.0385113  -0.000544056 0.0700773 -0.073235  0 0 0  0 0 0  -0.00162081 0.0298614 -0.0246339  0 0 0  -0.000901818 0.0950676 -0.0670667  -0.00403687 0.140239 -0.0468192  -0.000424325 0.152849 -0.0879264  -0.00440079 0.191995 -0.0464697  -0.000428751 0.115243 -0.0990772  -0.000410318 0.163875 -0.11833  -0.0031299 0.102419 -0.0582252  -0.000979871 0.213247 -0.0999198  -0.00457042 0.242377 -0.0373154  -0.00121999 0.274825 -0.100585  -0.00418624 0.291283 -0.0195346  4.75049e-05 0.215344 -0.127789  0.00040406 0.26753 -0.129836  -0.00306234 0.182998 -0.0656376  -0.00125712 0.335658 -0.0910749  -0.0037576 0.336124 0.00654173  -0.000907063 0.394098 -0.0704412  -0.00326407 0.376246 0.0400672  0.000805259 0.319168 -0.121367  0.00123376 0.368693 -0.105369  -0.00196952 0.261768 -0.0453682  -0.000754356 0.448003 -0.0406227  -0.00287962 0.409664 0.0802064  -0.000387311 0.495887 -0.000945091  -0.00258791 0.435904 0.125564  0.00153273 0.41438 -0.0796542  0.00184721 0.455345 -0.047523  -0.00092572 0.329048 0.000772953  -0.000298917 0.536254 0.0456958  -0.00238997 0.453513 0.17485  -5.42402e-05 0.567541 0.0995398  -0.0022679 0.462545 0.226493  0.00199515 0.489405 -0.0075717  0.00217104 0.51679 0.036757  -0.000301361 0.376454 0.0673695  -6.41942e-05 0.589368 0.157272  -0.00218856 0.462122 0.278835  9.01222e-05 0.600198 0.218613  -0.00214481 0.452844 0.330412  0.00220919 0.535014 0.0860262  0.00230348 0.545474 0.137083  -2.12193e-05 0.398066 0.146271  2.72989e-05 0.600828 0.280323  -0.00210726 0.434468 0.379384  0.000148892 0.589915 0.341621  -0.00207818 0.408054 0.424588  0.00229347 0.545653 0.189604  0.00236392 0.537942 0.241122  9.0003e-05 0.39125 0.227775  7.96318e-05 0.569316 0.399751  -0.00203729 0.374005 0.464215  0.000209808 0.538035 0.453521  -0.00199151 0.333709 0.497541  0.00235105 0.52009 0.290473  0.00243247 0.495182 0.336162  0.000158429 0.356896 0.301906  0.000161886 0.498756 0.500984  -0.00192785 0.288166 0.523003  0.000321507 0.450949 0.540679  -0.00185513 0.238919 0.540397  0.00244153 0.461499 0.376326  0.00255239 0.422449 0.410623  0.000248075 0.299246 0.359628  0.000305295 0.397799 0.571701  -0.00176334 0.187448 0.548595  0.000499606 0.339305 0.592491  -0.00166106 0.135265 0.547933  0.00259507 0.377052 0.436709  0.00274527 0.328626 0.455431  0.000391006 0.225356 0.393914  0.000513911 0.278773 0.603292  -0.00153589 0.0841585 0.537861  0.000741005 0.21673 0.602631  -0.00139296 0.0354269 0.519197  0.00283134 0.27705 0.464245  0.00303459 0.22516 0.465085  0.000617504 0.144255 0.400571  0.000785589 0.156204 0.59187  -0.00121331 -0.0090481 0.492061  0.00104618 0.0982025 0.569807  -0.00099802 -0.0483288 0.457645  0.00318551 0.173714 0.45552  0.00347042 0.124724 0.438337  0.000993013 0.0658779 0.378743  0.00113559 0.0451069 0.538757  -0.000720978 -0.0806949 0.416743  0.00144386 -0.00172269 0.497964  -0.000391722 -0.105675 0.370791  0.00372744 0.0797192 0.411554  0.0041244 0.0396676 0.378475  0.00162864 -0.000138611 0.331068  0.0016005 -0.0408323 0.450414  -1.09673e-05 -0.121968 0.321137  0.00193882 -0.0707126 0.395926  0.000399828 -0.129669 0.269303  0.0044992 0.00659236 0.337863  0.00492382 -0.0196412 0.293154  0.00259018 -0.0457023 0.263463  0.0020721 -0.0910444 0.337806  0.000722885 -0.128073 0.216908  0.00222588 -0.100358 0.276405  0.00100231 -0.117934 0.165356  0.00516486 -0.0369398 0.243949  0.00513673 -0.0463971 0.193387  0.00355387 -0.0655054 0.184418  0.00197077 -0.0996681 0.214818  0.00107503 -0.0989413 0.116146  0.00154734 -0.0876159 0.153999  0.00110865 -0.0729272 0.0708928  0.00446963 -0.0462481 0.141634  0.00337386 -0.0382939 0.0913744  0.0035162 -0.0577985 0.103395  0.000949144 -0.0666338 0.0962653  0.000885248 -0.0387533 0.0313172  0.000434637 -0.0360315 0.0437579  0 -8.9407e-08 0  0.00158715 -0.0215645 0.0429106  0 -1.78814e-07 0  0.00164056 -0.0240186 0.0298758  0 -1.78814e-07 0  -0.00177141 0.0411896 0.00540018  -0.00164974 0.0420613 -0.00772905  -0.00330402 0.08213 0.0169015  -0.00184828 0.0286037 -0.00990057  -0.00297326 0.0594503 -0.0163245  0 0 0  0 0 0  -0.00203637 0.027507 0.00332642  0 0 0  -0.00315486 0.0861968 -0.0104227  -0.00409046 0.11928 0.0356169  -0.00438909 0.129479 -0.00519991  -0.00377366 0.153684 0.0604105  -0.00379945 0.0907795 -0.0167661  -0.00416607 0.122021 -0.0125484  -0.00406721 0.079551 0.0235138  -0.00489521 0.172208 0.00702  -0.00337502 0.183099 0.0905991  -0.00462875 0.211955 0.0267811  -0.00253999 0.207739 0.125558  -0.00380969 0.151995 -0.00229454  -0.00332212 0.180209 0.0122633  -0.00367689 0.122268 0.0601616  -0.00422218 0.248584 0.0527658  -0.0019207 0.225825 0.164071  -0.00344062 0.279994 0.0851073  -0.00127017 0.237531 0.205489  -0.00259233 0.205388 0.0321927  -0.00203162 0.227091 0.0555682  -0.00232852 0.150836 0.109348  -0.0029369 0.30598 0.122244  -0.00088954 0.241593 0.24789  -0.00237101 0.324703 0.163504  -0.000523984 0.238487 0.290897  -0.00142866 0.244167 0.0830278  -0.00109547 0.256625 0.112494  -0.00117058 0.161326 0.165512  -0.00209427 0.336483 0.207437  -0.000372648 0.227786 0.332064  -0.00179958 0.339951 0.252625  -0.000188053 0.210082 0.371367  -0.000728786 0.26329 0.144192  -0.00061059 0.264879 0.176168  -0.000496686 0.152031 0.221928  -0.00170726 0.335901 0.297951  -0.000156403 0.1859 0.406276  -0.001562 0.323637 0.341539  -4.51803e-05 0.155773 0.437044  -0.000404716 0.260262 0.208215  -0.000402451 0.250775 0.238771  -0.000181198 0.123951 0.271669  -0.00155425 0.304252 0.382671  -5.10216e-05 0.121102 0.461451  -0.00146008 0.277782 0.419338  4.87566e-05 0.0822735 0.479935  -0.000266671 0.235455 0.267248  -0.000303149 0.216076 0.292645  -3.62396e-05 0.0805447 0.308646  -0.00147045 0.245471 0.451251  4.51803e-05 0.0413759 0.490889  -0.00137734 0.208057 0.47654  0.00015676 -0.00139028 0.494854  -0.000182033 0.191948 0.314083  -0.000217795 0.165065 0.331231  6.04391e-05 0.0271666 0.328367  -0.00137603 0.166795 0.495356  0.000167012 -0.0435083 0.491038  -0.00126457 0.12302 0.506196  0.000294566 -0.0849849 0.480012  -8.59499e-05 0.135088 0.343027  -0.000103474 0.103997 0.349839  0.000163674 -0.0296356 0.328456  -0.00124335 0.0778543 0.509631  0.000321865 -0.123174 0.461894  -0.00110722 0.0330705 0.504705  0.000468969 -0.158287 0.437213  5.3525e-05 0.0718383 0.350558  7.08103e-05 0.0403429 0.346202  0.0002985 -0.0829105 0.308918  -0.00106025 -0.0104781 0.492336  0.000525475 -0.187864 0.406998  -0.000887752 -0.0507863 0.472233  0.000716209 -0.212295 0.371657  0.000276923 0.00994056 0.33575  0.000364065 -0.0180936 0.320743  0.000505805 -0.126126 0.272131  -0.000792027 -0.0873762 0.445549  0.000840425 -0.229613 0.333026  -0.000549078 -0.11825 0.412707  0.00112867 -0.240333 0.291339  0.000669718 -0.0430003 0.300385  0.000887394 -0.0641168 0.276548  0.000879765 -0.153955 0.222579  -0.000352383 -0.143367 0.374948  0.00138164 -0.243262 0.249009  1.85966e-05 -0.160999 0.333371  0.00183058 -0.238987 0.206096  0.00136089 -0.0804619 0.248775  0.0017643 -0.0920798 0.219037  0.00156617 -0.162961 0.166319  0.000373363 -0.171566 0.28916  0.00223827 -0.227271 0.165188  0.000894308 -0.173848 0.243902  0.00281644 -0.208793 0.126244  0.00241804 -0.0979209 0.187265  0.00293326 -0.098747 0.155265  0.00264096 -0.15213 0.110218  0.00136423 -0.168748 0.198615  0.00323892 -0.184142 0.0914922  0.00186896 -0.155657 0.155033  0.00363016 -0.154278 0.0609193  0.00354433 -0.0936038 0.123304  0.00377917 -0.0838074 0.092814  0.00379705 -0.123139 0.0609384  0.00219464 -0.135954 0.113919  0.00361085 -0.119936 0.0360456  0.00226569 -0.109502 0.0769  0.00312424 -0.0825254 0.017046  0.00375509 -0.0685553 0.0642085  0.00306225 -0.0495679 0.0388346  0.0040195 -0.0799865 0.0238628  0.00205588 -0.078019 0.0446534  0.00187969 -0.0421878 0.00510788  0.00128365 -0.0409975 0.0187111  0 0 0  0.00184011 -0.0258359 0.0169702  0 -5.96046e-08 0  0.00198674 -0.0276164 0.003232  0 -5.96046e-08 0  -0.00118255 0.0380292 0.031384  -0.00136478 0.0400879 0.0187726  -0.00137168 0.0729575 0.0703855  -0.00182778 0.0260867 0.0171423  -0.00308903 0.0496514 0.0382791  0 0 0  0 0 0  -0.00170062 0.0243343 0.0302033  0 0 0  -0.00232176 0.0778812 0.0441828  -0.00125274 0.0985999 0.115329  -0.00261509 0.109013 0.0761681  -0.000439405 0.117561 0.164465  -0.00368175 0.0685776 0.0637469  -0.00363439 0.0835144 0.0918775  -0.00331965 0.0575634 0.102951  -0.00222901 0.135503 0.112961  -3.3617e-05 0.127305 0.215877  -0.00139049 0.154707 0.154195  0.000625849 0.129018 0.268568  -0.00316238 0.0931188 0.122652  -0.0025492 0.0979947 0.154332  -0.00293443 0.0646361 0.183804  -0.000640184 0.167854 0.197743  0.000901997 0.120881 0.320206  6.89626e-05 0.172405 0.242967  0.00132936 0.104673 0.370431  -0.00180173 0.0969117 0.186769  -0.0012843 0.0909473 0.218284  -0.00193375 0.044337 0.262829  0.000629425 0.170285 0.288539  0.00142699 0.0793378 0.416009  0.000981152 0.15926 0.33245  0.00170648 0.0468389 0.457602  -0.000703037 0.0789336 0.248467  -0.000442863 0.0626132 0.276042  -0.00110525 -0.00161034 0.330453  0.00128955 0.141682 0.374561  0.0016908 0.00738633 0.491566  0.00141758 0.116284 0.411906  0.0018965 -0.0374416 0.519366  -7.64728e-05 0.040991 0.300232  -7.689e-06 0.0162166 0.320484  -0.000618041 -0.0679601 0.378196  0.00157642 0.0852972 0.445347  0.00183582 -0.086129 0.537598  0.00161099 0.0486352 0.471598  0.00202143 -0.137742 0.548216  0.000225782 -0.0123641 0.335708  0.000202417 -0.0425555 0.346157  -0.000362992 -0.146607 0.400111  0.00171375 0.0080663 0.492274  0.00195813 -0.18967 0.54854  0.00172663 -0.0353413 0.50426  0.00215256 -0.24173 0.540721  0.000382304 -0.0745711 0.350581  0.000330687 -0.106465 0.349969  -0.000205159 -0.227872 0.393548  0.00182354 -0.0804953 0.509676  0.00210118 -0.290544 0.523138  0.00184429 -0.125326 0.505966  0.00230801 -0.336692 0.497867  0.000498891 -0.137991 0.343082  0.000445962 -0.167679 0.331505  -6.83069e-05 -0.301803 0.359377  0.00195134 -0.169536 0.495489  0.00226378 -0.376437 0.46454  0.00198376 -0.21031 0.476554  0.00247335 -0.411043 0.424906  0.000617743 -0.194863 0.314164  0.000571728 -0.218713 0.293041  6.81877e-05 -0.359372 0.301809  0.00209928 -0.248177 0.451472  0.0024271 -0.436863 0.3799  0.00214159 -0.279911 0.419621  0.00263357 -0.455691 0.330727  0.000753641 -0.23823 0.267366  0.000726581 -0.253317 0.239275  0.000204086 -0.393543 0.227877  0.002267 -0.306803 0.382987  0.00258791 -0.464408 0.279531  0.00232899 -0.325593 0.342099  0.00280404 -0.465122 0.226814  0.000941157 -0.262762 0.208402  0.000969172 -0.267213 0.176773  0.000360847 -0.400104 0.14661  0.00248432 -0.338194 0.298375  0.00278711 -0.455631 0.175691  0.00260067 -0.341706 0.253448  0.003052 -0.438097 0.125896  0.00126839 -0.265403 0.144483  0.00141954 -0.258647 0.113194  0.000615597 -0.37819 0.0679626  0.00283408 -0.338436 0.207983  0.00311756 -0.411548 0.0811205  0.00306082 -0.326233 0.164529  0.0034759 -0.377937 0.0404072  0.00187635 -0.2458 0.0834575  0.00221968 -0.228682 0.0563502  0.00110292 -0.330448 0.00161076  0.00342226 -0.307528 0.122921  0.00366116 -0.337673 0.00743103  0.00376582 -0.281246 0.0862274  0.00406885 -0.29234 -0.0191941  0.00285387 -0.206471 0.0327749  0.00332665 -0.181221 0.0131097  0.00193238 -0.262825 -0.0443363  0.00420856 -0.24965 0.053544  0.00426388 -0.243476 -0.036602  0.00444913 -0.212871 0.0278187  0.00436759 -0.192437 -0.046196  0.00393224 -0.152567 -0.00168371  0.00409746 -0.122511 -0.0117459  0.00293422 -0.183802 -0.0646358  0.00466442 -0.172703 0.00776577  0.00407028 -0.140997 -0.0464206  0.00422931 -0.130187 -0.00446272  0.00312114 -0.090637 -0.0387177  0.00410175 -0.0909106 -0.0164132  0.00320101 -0.0597401 -0.016005  0.00331998 -0.10295 -0.0575633  0.00353932 -0.0865497 -0.0100884  0.0017128 -0.0432692 -0.0222974  0.00190711 -0.0428388 -0.00760889  0 1.19209e-07 0  0.00197959 -0.0288166 -0.00982094  0 5.96046e-08 0  0.00170088 -0.0302036 -0.0243344  0 5.96046e-08 0  -0.00123632 0.0319716 0.0559735  -0.000899076 0.0355804 0.0438004  -0.00169921 0.0600291 0.119655  -0.0017133 0.0222971 0.0432696  -0.00312158 0.038718 0.0906382  0 0 0  0 0 0  -0.00190654 0.0199665 0.0567865  0 0 0  -0.00160564 0.0666463 0.0953903  -0.00336553 0.0753655 0.188867  -0.00116488 0.0871829 0.153377  -0.00448355 0.0803788 0.260816  -0.00407059 0.0464208 0.140998  -0.00436804 0.0461971 0.192439  -0.00621532 0.0353682 0.178648  -0.00112954 0.0990766 0.213715  -0.00581351 0.0717778 0.332322  -0.000863045 0.0993175 0.275814  -0.00633207 0.0520605 0.402657  -0.00426471 0.0366018 0.243479  -0.00407028 0.019195 0.292344  -0.00838336 0.00883609 0.301943  -0.000750273 0.0903372 0.336948  -0.00697953 0.0190892 0.467241  -0.000708222 0.0693578 0.395309  -0.00698435 -0.0237932 0.526848  -0.00366318 -0.00742996 0.337677  -0.00347841 -0.0404061 0.377942  -0.00867081 -0.0584834 0.411106  -0.000614166 0.0399003 0.449865  -0.00733626 -0.0771229 0.576199  -0.000600934 8.41022e-05 0.497411  -0.00714546 -0.137961 0.617392  -0.00312018 -0.0811194 0.411554  -0.00305516 -0.125894 0.438103  -0.00848788 -0.159491 0.491465  -0.000534892 -0.0464191 0.538479  -0.00739473 -0.204996 0.645333  -0.00050962 -0.100179 0.569357  -0.00712967 -0.27623 0.663013  -0.00278991 -0.175688 0.455637  -0.00280666 -0.226811 0.465128  -0.00830662 -0.281969 0.532305  -0.000455081 -0.157954 0.591834  -0.00732374 -0.3487 0.666146  -0.000409365 -0.219012 0.602271  -0.00701058 -0.421577 0.658214  -0.0025897 -0.279527 0.464415  -0.00263536 -0.330722 0.455698  -0.00814867 -0.410836 0.528458  -0.000344515 -0.280925 0.603444  -0.00716412 -0.490616 0.636215  -0.000273228 -0.341782 0.592209  -0.00681663 -0.556245 0.603697  -0.00242817 -0.379895 0.43687  -0.00247407 -0.424899 0.411049  -0.00797188 -0.530318 0.480482  -0.000188589 -0.400253 0.571992  -0.00694716 -0.613447 0.559294  -9.70364e-05 -0.453478 0.540495  -0.00658631 -0.663845 0.506184  -0.0022639 -0.464534 0.376444  -0.00230801 -0.497861 0.336698  -0.00777185 -0.625865 0.394325  0 -0.50138 0.501387  -0.00671887 -0.702251 0.444803  9.64403e-05 -0.540489 0.453485  -0.00637066 -0.731283 0.377575  -0.00210142 -0.523132 0.290551  -0.0021534 -0.540716 0.241736  -0.00757778 -0.685861 0.280534  0.000187874 -0.571986 0.400259  -0.00653052 -0.746206 0.306693  0.000272393 -0.592203 0.341788  -0.00621831 -0.750315 0.233534  -0.0019592 -0.548535 0.189675  -0.00202358 -0.54821 0.137746  -0.00742745 -0.702986 0.152984  0.000342965 -0.603438 0.28093  -0.0064255 -0.7399 0.161797  0.000407338 -0.602264 0.219017  -0.00616336 -0.718538 0.0916319  -0.00183797 -0.537592 0.086133  -0.001899 -0.519359 0.0374451  -0.00734437 -0.675093 0.0272427  0.000452995 -0.591828 0.157957  -0.00642729 -0.683998 0.027832  0.000506401 -0.569351 0.100182  -0.00622082 -0.639702 -0.0307336  -0.00169373 -0.49156 -0.00738335  -0.00170946 -0.457596 -0.0468373  -0.00731778 -0.605483 -0.0812759  0.00053215 -0.538474 0.0464206  -0.00653386 -0.585201 -0.0787063  0.000598192 -0.497406 -8.29697e-05  -0.00637555 -0.523304 -0.11844  -0.00142956 -0.416004 -0.0793371  -0.00133157 -0.370425 -0.104672  -0.00727487 -0.502569 -0.159164  0.00061202 -0.44986 -0.0398993  -0.00667357 -0.455476 -0.144601  0.000705957 -0.395305 -0.0693564  -0.00647187 -0.383395 -0.160555  -0.000904083 -0.320201 -0.12088  -0.000627041 -0.268564 -0.129017  -0.00700355 -0.378908 -0.196795  0.000748873 -0.336944 -0.0903363  -0.00645328 -0.310481 -0.161784  0.000861883 -0.27581 -0.0993171  -0.00576782 -0.236785 -0.152041  3.26633e-05 -0.215874 -0.127305  0.00043869 -0.164463 -0.117561  -0.00593686 -0.249484 -0.189939  0.00112939 -0.213713 -0.0990763  -0.00471306 -0.167394 -0.128874  0.00116444 -0.153375 -0.0871825  -0.0029943 -0.101789 -0.0954452  0.00125241 -0.115327 -0.0985994  0.00137138 -0.0703846 -0.072957  -0.0031774 -0.129177 -0.140424  0.00160527 -0.0953892 -0.0666461  -0.00067234 -0.0449482 -0.0510292  0.0008986 -0.0437998 -0.0355806  0 2.38419e-07 0  0.00118279 -0.0313835 -0.0380292  0 1.78814e-07 0  2.0504e-05 -0.0329342 -0.0539188  0 1.78814e-07 0  -0.0120862 0.0330547 0.0782619  -0.00436492 0.0287229 0.0680089  -0.0256269 0.045994 0.160847  -0.00538115 0.0174648 0.0698075  -0.0104858 0.0267811 0.139965  0 0 0  0 0 0  -0.00920133 0.020373 0.083683  0 0 0  -0.00964294 0.0521309 0.141512  -0.0339444 0.0511817 0.253244  -0.0135379 0.0623018 0.222833  -0.0411216 0.0419263 0.345764  -0.014386 0.0238406 0.213866  -0.0173178 0.00959015 0.286908  -0.0298311 0.0149175 0.248804  -0.0168367 0.060616 0.305066  -0.0440168 0.0156257 0.438298  -0.0194401 0.0431209 0.386516  -0.046416 -0.0247974 0.525014  -0.0184434 -0.0185417 0.358442  -0.0194891 -0.0572636 0.424207  -0.0371831 -0.0437637 0.415098  -0.0208216 0.0128388 0.46499  -0.0472299 -0.0811028 0.604163  -0.0218201 -0.0316493 0.536477  -0.0480627 -0.149195 0.672096  -0.0195158 -0.108817 0.483203  -0.0199705 -0.167937 0.532355  -0.0388198 -0.157377 0.556748  -0.0222856 -0.0874451 0.600127  -0.048206 -0.229096 0.727312  -0.022594 -0.153903 0.652247  -0.04856 -0.316287 0.767685  -0.0196983 -0.236865 0.570403  -0.0200155 -0.309216 0.596349  -0.0391711 -0.313184 0.651501  -0.0227137 -0.228195 0.692798  -0.0484286 -0.410124 0.792074  -0.0227807 -0.308476 0.718887  -0.0485846 -0.5057 0.79999  -0.0196604 -0.386975 0.608384  -0.0199231 -0.463695 0.607851  -0.0391613 -0.49175 0.686901  -0.0227545 -0.392058 0.731363  -0.0483234 -0.602051 0.790629  -0.0227166 -0.476304 0.728227  -0.0483832 -0.694375 0.7652  -0.0195223 -0.540722 0.59239  -0.0197442 -0.612447 0.565493  -0.0389686 -0.671229 0.65872  -0.0226123 -0.558953 0.711186  -0.048062 -0.781531 0.723293  -0.0225183 -0.636886 0.679268  -0.0480797 -0.859386 0.66768  -0.0193117 -0.679354 0.524491  -0.0195074 -0.737364 0.474571  -0.0386795 -0.829805 0.57056  -0.0223714 -0.708549 0.634853  -0.0477415 -0.926764 0.598371  -0.0222547 -0.770694 0.578088  -0.0477576 -0.980696 0.519378  -0.0190643 -0.786029 0.413066  -0.0192598 -0.823281 0.346238  -0.038363 -0.948242 0.43327  -0.0220985 -0.822665 0.51174  -0.0474414 -1.02011 0.431113  -0.0219915 -0.861468 0.437052  -0.0474936 -1.04356 0.338367  -0.018832 -0.847792 0.271733  -0.0190538 -0.859753 0.196145  -0.0380857 -1.01217 0.263606  -0.0218594 -0.887425 0.356856  -0.0472364 -1.05019 0.241881  -0.0217929 -0.898151 0.273338  -0.0473608 -1.04028 0.146678  -0.0186661 -0.857115 0.117714  -0.0189356 -0.842303 0.0425811  -0.0379063 -1.01379 0.0822248  -0.0217164 -0.894912 0.189061  -0.0472014 -1.01328 0.0537124  -0.0217195 -0.876211 0.106891  -0.0474354 -0.971145 -0.0323286  -0.0186042 -0.812794 -0.0302095  -0.0189308 -0.772957 -0.0956945  -0.0378715 -0.952823 -0.0887771  -0.0217271 -0.844117 0.02882  -0.0474188 -0.913703 -0.110426  -0.0218248 -0.798198 -0.0419455  -0.0478156 -0.844404 -0.176735  -0.0186582 -0.720114 -0.153919  -0.0190337 -0.660035 -0.201684  -0.0380137 -0.836546 -0.228495  -0.02195 -0.741091 -0.104225  -0.0479965 -0.763374 -0.230358  -0.0221653 -0.673481 -0.154847  -0.0486283 -0.675248 -0.268711  -0.0187962 -0.590262 -0.238148  -0.0191684 -0.517169 -0.262246  -0.0383413 -0.678917 -0.31972  -0.0224431 -0.598231 -0.193636  -0.0489569 -0.580279 -0.291099  -0.0227172 -0.517119 -0.217769  -0.0496955 -0.483711 -0.29666  -0.0188336 -0.438971 -0.272453  -0.018939 -0.361537 -0.269911  -0.0386698 -0.498874 -0.351053  -0.0229938 -0.432604 -0.228239  -0.0493288 -0.386178 -0.284566  -0.0227156 -0.34783 -0.222827  -0.0486271 -0.291744 -0.256127  -0.0178835 -0.284422 -0.252813  -0.0167229 -0.211445 -0.224257  -0.0377264 -0.318132 -0.318336  -0.0217011 -0.263498 -0.203533  -0.043937 -0.204785 -0.210889  -0.0185905 -0.185313 -0.169736  -0.0361478 -0.124329 -0.151496  -0.0131931 -0.144662 -0.182484  -0.00884032 -0.0846107 -0.132254  -0.0311372 -0.159749 -0.225999  -0.0128202 -0.111554 -0.123598  -0.0193989 -0.0621968 -0.0805101  -0.00413203 -0.0483523 -0.0658903  0 3.57628e-07 0  -0.00217342 -0.035076 -0.0695477  0 2.98023e-07 0  -0.0126643 -0.0441587 -0.0861626  0 2.98023e-07 0  -0.00113928 0.0199088 -0.0562029  -0.000490002 0.021883 -0.0719862  -0.00108711 0.0501762 -0.107789  -0.00147388 0.00959972 -0.0717449  -0.00340448 0.0276907 -0.13984  -0.00371463 0.00820751 -0.087903  0 0 0  0.0024544 0.0258396 -0.0884461  0 1.49012e-08 0  0 7.45058e-09 0  -0.00162195 0.00744434 -0.0569777  0 7.45058e-09 0  0.00969169 0.0597031 -0.169133  0.0023236 0.0553068 -0.137463  -0.000332043 0.0881892 -0.151553  0.00505266 0.101473 -0.193208  0.000757903 0.133898 -0.189268  -0.00347507 0.0593258 -0.20052  -0.00279173 0.0994238 -0.257515  -0.00409202 0.0670325 -0.243326  0.0136805 0.111386 -0.23782  -0.00419515 0.0475455 -0.16083  0.0178772 0.173233 -0.299932  0.00734794 0.154744 -0.242468  0.00152439 0.185364 -0.218299  0.00869542 0.217235 -0.280929  0.00250709 0.24087 -0.239523  -0.00180855 0.150267 -0.305935  -0.00106844 0.207827 -0.347862  -0.00166124 0.17586 -0.372658  0.0192907 0.245862 -0.349405  -0.00329134 0.120712 -0.245061  0.0204971 0.326605 -0.386786  0.00940084 0.284148 -0.31033  0.00297469 0.298983 -0.249775  0.00991648 0.3558 -0.326261  0.00354046 0.358174 -0.251119  -0.000590265 0.272227 -0.377345  -0.00019455 0.340762 -0.397658  -0.000513196 0.324306 -0.460228  0.0205297 0.411561 -0.409536  -0.00184685 0.218423 -0.301811  0.0209599 0.499944 -0.416936  0.0100488 0.428471 -0.331303  0.00379324 0.416194 -0.240913  0.0103935 0.501114 -0.321847  0.0041253 0.472144 -0.221823  -1.54376e-05 0.411344 -0.40357  0.000226378 0.482613 -0.399133  -0.000115454 0.493991 -0.492083  0.0207865 0.587346 -0.409344  -0.000905335 0.329633 -0.322468  0.0211402 0.672663 -0.385924  0.0103824 0.570942 -0.301591  0.00421458 0.523073 -0.192219  0.0106446 0.63581 -0.267654  0.00441146 0.568987 -0.154972  0.000289083 0.550879 -0.380373  0.000449896 0.616218 -0.351631  0.000116646 0.664062 -0.463628  0.0209287 0.751987 -0.348675  -0.000415206 0.441089 -0.303655  0.0212545 0.823946 -0.297334  0.0105604 0.69433 -0.224547  0.0043999 0.606592 -0.109595  0.0107579 0.743504 -0.170308  0.00452423 0.63687 -0.0587983  0.000440598 0.673822 -0.310473  0.000545025 0.725264 -0.260982  0.000244617 0.813824 -0.378342  0.0209938 0.885533 -0.235032  -0.000190973 0.539224 -0.247535  0.0212862 0.935412 -0.162089  0.0106269 0.783593 -0.109681  0.00446749 0.656573 -0.00324965  0.01079 0.811099 -0.0418396  0.00456703 0.667551 0.0548463  0.000493169 0.765195 -0.202517  0.000571966 0.796494 -0.138365  0.000275493 0.925074 -0.24675  0.0209901 0.971796 -0.0824199  -0.000104785 0.61207 -0.16104  0.021271 0.993564 0.00319004  0.0106437 0.827906 0.0288553  0.00450563 0.666983 0.11376  0.0108078 0.830435 0.101988  0.00461566 0.657359 0.172055  0.000510216 0.813916 -0.069757  0.000594258 0.821288 0.00121212  0.000268102 0.984329 -0.0849791  0.0209767 1.00036 0.0904732  -6.74725e-05 0.650785 -0.0547957  0.0212808 0.991411 0.178303  0.0106781 0.821953 0.174114  0.00457621 0.636614 0.227144  0.0108716 0.799227 0.243618  0.00471711 0.607576 0.278538  0.000553131 0.8141 0.0715933  0.00066936 0.796663 0.140734  0.000299335 0.984429 0.0872269  0.0210252 0.967826 0.26256  -1.56164e-05 0.650691 0.0582204  0.0213814 0.929274 0.341918  0.0107795 0.766509 0.308393  0.00471473 0.569188 0.323092  0.0110192 0.721303 0.365804  0.00489891 0.524271 0.361317  0.000668168 0.765739 0.204309  0.000832677 0.725608 0.263194  0.000431776 0.925382 0.24889  0.0211886 0.878182 0.412882  9.52482e-05 0.611811 0.164232  0.0216106 0.814727 0.474111  0.0109742 0.668332 0.415336  0.00494218 0.47291 0.389888  0.0112623 0.606135 0.45364  0.00517941 0.417575 0.410252  0.000881195 0.674695 0.312189  0.00109982 0.616734 0.353608  0.000691295 0.814352 0.380293  0.0214831 0.742333 0.523112  0.000298619 0.538859 0.25029  0.0219584 0.661678 0.558743  0.0112605 0.539343 0.481866  0.00528049 0.359499 0.419312  0.0115857 0.467718 0.496336  0.00558758 0.300508 0.419269  0.00119996 0.552019 0.381982  0.00147367 0.483283 0.400809  0.00104809 0.664811 0.465333  0.021862 0.576783 0.579744  0.000635147 0.440706 0.305809  0.0223391 0.488723 0.585379  0.0116184 0.395239 0.499748  0.00577855 0.242822 0.407687  0.0119708 0.322933 0.488573  0.00618625 0.187425 0.387267  0.00163627 0.41266 0.405046  0.00199294 0.341569 0.398947  0.00139451 0.494959 0.493505  0.0221994 0.401687 0.575778  0.00117278 0.329341 0.323918  0.0225811 0.316966 0.550671  0.0120499 0.253642 0.466729  0.00652814 0.137181 0.356606  0.0124538 0.189481 0.43145  0.0070262 0.0921144 0.318686  0.00229073 0.273569 0.378656  0.00288558 0.208813 0.348669  0.00164843 0.325467 0.461409  0.0223303 0.238401 0.511833  0.00204182 0.218336 0.302543  0.022578 0.167478 0.459248  0.0126162 0.131887 0.387361  0.00739717 0.0553017 0.273301  0.0130141 0.0835069 0.333115  0.00749254 0.0256863 0.223389  0.00349903 0.15134 0.306979  0.00442767 0.100557 0.258008  0.00235248 0.176859 0.3738  0.0222938 0.10691 0.396849  0.00334692 0.120858 0.245123  0.0221157 0.0586309 0.32459  0.0127625 0.0444075 0.273481  0.00672936 0.00617929 0.169552  0.0120339 0.0170218 0.20826  0.00491619 -0.00492895 0.114039  0.0049305 0.0599921 0.201259  0.00463152 0.0284085 0.140694  0.00441504 0.067216 0.244696  0.0210614 0.0230076 0.24845  0.00415945 0.0478009 0.160278  0.0169201 0.00151522 0.16806  0.0090642 0.000215337 0.141417  0.00230002 -0.00591601 0.0563622  0.00539136 -0.00408583 0.0715761  0 -2.23517e-07 0  0.00264692 0.00880282 0.0730319  0 -2.90573e-07 0  0.00239706 0.00774835 0.0901208  0.00877762 -0.00984793 0.0864921  0.00198364 0.00726548 0.0564866  0 -3.57628e-07 0  0 -2.90573e-07 0  -0.00192627 0.0163899 -0.026402  -0.00158103 0.0180661 -0.040463  -0.00318252 0.0378799 -0.0501928  -0.00160693 0.00525835 -0.0416965  -0.00281607 0.0169737 -0.0829787  0 0 0  0 0 0  -0.0019564 0.00331861 -0.0278945  0 0 0  -0.00250039 0.0435396 -0.0786195  -0.00366165 0.0629213 -0.0692916  -0.00201151 0.0754075 -0.109972  -0.00365543 0.0911737 -0.0841622  -0.00365765 0.0354382 -0.120216  -0.00391483 0.0595481 -0.154493  -0.00411703 0.0231988 -0.080358  -0.00188181 0.11213 -0.136626  -0.00342157 0.121607 -0.0941234  -0.00151345 0.153077 -0.156163  -0.00266761 0.153184 -0.0989671  -0.00332025 0.0900039 -0.183908  -0.00285181 0.124525 -0.208952  -0.00391537 0.0594217 -0.123218  -0.000846624 0.196579 -0.169277  -0.00214022 0.185338 -0.0980873  -0.000370085 0.241739 -0.174025  -0.00137162 0.216715 -0.0920453  -0.00210476 0.163173 -0.226658  -0.00158471 0.204234 -0.238745  -0.0025937 0.108287 -0.151821  0.000184298 0.286982 -0.171755  -0.000926435 0.246706 -0.0801225  0.000596702 0.331062 -0.160748  -0.0004071 0.274152 -0.063663  -0.00106561 0.246628 -0.242255  -0.000741959 0.289325 -0.239525  -0.00133431 0.164105 -0.162167  0.000943601 0.372755 -0.143084  -0.000183821 0.298247 -0.0420737  0.0011822 0.410363 -0.11751  0.000110984 0.318373 -0.0171309  -0.000437856 0.33037 -0.228202  -0.000291109 0.36952 -0.210898  -0.000549376 0.220155 -0.152659  0.00135708 0.443423 -0.0865221  0.000166655 0.333587 0.0114684  0.0014596 0.469932 -0.04952  0.000335455 0.343917 0.0418272  -0.00012958 0.404182 -0.186092  -8.98838e-05 0.434999 -0.156343  -0.000164747 0.269578 -0.124363  0.0015353 0.490313 -0.00902367  0.000309348 0.348395 0.0739141  0.00157082 0.502492 0.034843  0.00042963 0.347685 0.105958  -1.54972e-06 0.45904 -0.121113  -8.9407e-06 0.477774 -0.0825868  -3.69549e-06 0.306316 -0.0807567  0.00160873 0.507728 0.0798655  0.000380635 0.340899 0.137603  0.00162804 0.504118 0.125222  0.000496268 0.329258 0.167418  5.48363e-05 0.488275 -0.0412536  4.06504e-05 0.492661 0.00133848  6.77109e-05 0.3259 -0.0271974  0.00166643 0.493597 0.169268  0.000455737 0.312054 0.194764  0.0017004 0.474657 0.210582  0.000591516 0.290914 0.218715  0.000112057 0.488353 0.0437303  0.000118017 0.477867 0.0851941  0.000128984 0.325965 0.0297718  0.00176215 0.449677 0.248284  0.000581026 0.265397 0.238431  0.00183082 0.417723 0.28052  0.00075984 0.237341 0.253593  0.000220537 0.459277 0.123475  0.000270844 0.435194 0.158749  0.000235438 0.306514 0.0832047  0.00193405 0.381331 0.307279  0.000808716 0.206626 0.263269  0.00205827 0.340255 0.326491  0.00106978 0.175085 0.26777  0.000432372 0.404578 0.188234  0.000560999 0.369827 0.212987  0.00045073 0.269916 0.126573  0.00223184 0.296885 0.339015  0.00123215 0.142929 0.266201  0.00244713 0.251705 0.342826  0.00163794 0.111779 0.25947  0.000825882 0.33092 0.230042  0.00108433 0.289749 0.241209  0.000881672 0.220637 0.154539  0.00274467 0.206665 0.339544  0.00198531 0.082128 0.246837  0.00310302 0.162914 0.327477  0.00258541 0.0551929 0.229736  0.0015111 0.247315 0.243729  0.00194907 0.204779 0.239969  0.00167346 0.164725 0.163646  0.00358462 0.12174 0.308813  0.00312233 0.0316582 0.207649  0.00410724 0.0847358 0.282458  0.00381637 0.0121349 0.18243  0.00255966 0.163967 0.227741  0.00313997 0.125199 0.209785  0.00288606 0.109022 0.152868  0.00470161 0.0524174 0.25097  0.00424552 -0.00255159 0.153745  0.00517535 0.0264957 0.213852  0.00456619 -0.0125614 0.123625  0.00376105 0.0907506 0.184594  0.00413036 0.0601364 0.15519  0.00414491 0.0601569 0.123853  0.00533724 0.00667974 0.173924  0.00419402 -0.0168833 0.0918255  0.00495386 -0.0052916 0.130821  0.00342107 -0.0164571 0.0602756  0.00410151 0.0358685 0.120455  0.0033412 0.0168659 0.0831084  0.00426006 0.0236146 0.0805497  0.00384426 -0.0105666 0.0871859  0.00199389 -0.0101535 0.0289145  0.00208831 -0.00802451 0.0427027  0 -1.19209e-07 0  0.00190353 0.00555697 0.0421982  0 -1.78814e-07 0  0.00207472 0.00361297 0.0277581  0 -1.78814e-07 0  -0.00216119 0.0133474 0.00150442  -0.00208555 0.0148502 -0.0119247  -0.00362895 0.0270156 0.00535965  -0.00205266 0.00148794 -0.0136156  -0.00341095 0.00528619 -0.0274463  0 0 0  0 0 0  -0.00221326 -5.98431e-05 -0.000166893  0 0 0  -0.00343522 0.0322836 -0.0221429  -0.0044298 0.0395519 0.0115175  -0.00406173 0.051036 -0.0285778  -0.00443792 0.050929 0.019865  -0.00416745 0.0113136 -0.040092  -0.00449696 0.0190973 -0.0517139  -0.00444348 -0.000407845 -0.000139236  -0.00427479 0.0707696 -0.0322061  -0.00421038 0.0608584 0.0298929  -0.00400543 0.0908135 -0.032084  -0.00349337 0.0689252 0.0416698  -0.00407118 0.0291634 -0.0615878  -0.00357807 0.0405256 -0.0700154  -0.0042876 -0.000805467 -6.91414e-05  -0.00340322 0.110673 -0.028841  -0.0028795 0.0750793 0.0545883  -0.00271171 0.129716 -0.0218959  -0.00210255 0.0788195 0.0685143  -0.00275463 0.0534324 -0.0758748  -0.00214022 0.067051 -0.0799646  -0.00295532 -0.00102529 0.000115395  -0.00202203 0.147367 -0.0120497  -0.00161093 0.0802946 0.0828381  -0.00143534 0.16304 0.00103903  -0.00106412 0.0791135 0.0972676  -0.00143456 0.0812682 -0.0810003  -0.00104117 0.0955126 -0.0801487  -0.00164002 -0.00116965 0.000360489  -0.000960827 0.17631 0.0164061  -0.000817478 0.0756322 0.111248  -0.000630319 0.1866 0.0341225  -0.000491202 0.0695974 0.124402  -0.000585318 0.109285 -0.076189  -0.000423014 0.122413 -0.070457  -0.00078845 -0.00125882 0.000611782  -0.000377417 0.193806 0.0531526  -0.000421047 0.0615675 0.136322  -0.000235677 0.197415 0.0733395  -0.000222683 0.0514139 0.14658  -0.000154257 0.134039 -0.061975  -0.000133991 0.144435 -0.0520625  -0.00034833 -0.00130513 0.000843048  -0.000114918 0.197662 0.0936885  -0.000238061 0.0398278 0.15499  -6.49691e-05 0.194149 0.113875  -9.15527e-05 0.0268142 0.161104  3.69549e-05 0.152487 -0.0400949  -6.67572e-06 0.158884 -0.0272222  -0.000143766 -0.00131032 0.0010376  1.66893e-06 0.187424 0.133047  -0.000135064 0.0130978 0.164989  2.36034e-05 0.177232 0.150768  -2.38419e-07 -0.00117436 0.166222  0.000127077 0.162383 -0.0132322  6.61612e-05 0.164011 0.00102663  -3.94583e-05 -0.00126937 0.00118351  7.98702e-05 0.164373 0.166426  -4.42266e-05 -0.0153375 0.165119  0.000105619 0.148758 0.179525  0.000100255 -0.0291167 0.161327  0.00019753 0.162536 0.0153356  0.000148296 0.159205 0.0292435  3.82662e-05 -0.00117677 0.00127459  0.000175714 0.131346 0.189764  7.64132e-05 -0.04199 0.15538  0.000229478 0.112222 0.196649  0.000256538 -0.053584 0.147026  0.000305295 0.15294 0.0421309  0.000299335 0.145062 0.0539932  0.00014174 -0.00103047 0.00131369  0.000340462 0.0923872 0.200221  0.000290036 -0.0635854 0.136964  0.000457168 0.0720975 0.200047  0.000556707 -0.0715602 0.125066  0.000524402 0.134771 0.0638847  0.00061655 0.12331 0.0722442  0.000346303 -0.000835687 0.00130749  0.000659227 0.0522724 0.196503  0.000716686 -0.0774555 0.112119  0.000901461 0.0333083 0.189282  0.00115061 -0.0808173 0.0981355  0.0009799 0.110256 0.0779228  0.00124907 0.0966194 0.0817451  0.000786781 -0.000604421 0.00126123  0.00127292 0.0159344 0.179044  0.00152159 -0.0818825 0.0838823  0.00171614 0.000624985 0.165659  0.00217962 -0.0802374 0.0695329  0.00182724 0.0824064 0.0825081  0.0023222 0.0682655 0.081337  0.00163913 -0.000355184 0.00117064  0.00231194 -0.01217 0.149993  0.00276232 -0.0763671 0.0556946  0.00294733 -0.0219935 0.132102  0.00352311 -0.0700195 0.0426898  0.0030961 0.0546312 0.0771103  0.00368643 0.0416768 0.071157  0.00295544 -0.000113636 0.00102568  0.00363255 -0.0287154 0.112975  0.00403643 -0.0617645 0.03088  0.00417352 -0.0320017 0.092742  0.0044291 -0.0516174 0.0206308  0.00434899 0.0302261 0.0624957  0.00456262 0.0199552 0.0525746  0.00428867 6.83665e-05 0.000805378  0.00444865 -0.0319916 0.0725093  0.00422025 -0.0400716 0.0120945  0.00423479 -0.0285004 0.0522704  0.00354576 -0.0274121 0.00570202  0.00444436 0.0119433 0.0405602  0.00360179 0.00561723 0.0278454  0.0044446 0.000137925 0.000407696  0.00351501 -0.0219159 0.0332861  0.00211859 -0.0139472 0.00166082  0.00209069 -0.01223 0.0155797  0 0 0  0.0021553 0.00193447 0.0140948  0 -5.96046e-08 0  0.00221348 0.000166237 5.96046e-05  0 -5.96046e-08 0  -0.00197932 0.00982052 0.0288162  -0.00208337 0.0117028 0.0155077  -0.00320072 0.0160053 0.0597401  -0.00211832 -0.00166041 0.0139465  -0.00354549 -0.0057016 0.0274119  0 0 0  0 0 0  -0.00198644 -0.00323236 0.0276155  0 0 0  -0.00347114 0.021584 0.0327201  -0.00410143 0.0164127 0.0909109  -0.00414577 0.0279763 0.0516648  -0.00409755 0.0117456 0.122512  -0.00421953 -0.0120946 0.040071  -0.00442818 -0.020631 0.0516171  -0.00401881 -0.023863 0.0799861  -0.00428641 0.031301 0.0713954  -0.00393209 0.00168318 0.152568  -0.00391605 0.031037 0.0917535  -0.00332683 -0.0131091 0.181223  -0.00403592 -0.0308797 0.0617657  -0.00352341 -0.0426894 0.0700212  -0.00379694 -0.0609382 0.12314  -0.00334769 0.0276849 0.111762  -0.00285447 -0.0327749 0.206474  -0.0026561 0.0206901 0.130981  -0.00222105 -0.0563494 0.228686  -0.00276297 -0.0556937 0.0763702  -0.00218028 -0.0695323 0.0802412  -0.00264144 -0.110217 0.152133  -0.00202423 0.0108736 0.148872  -0.00187838 -0.0834568 0.245805  -0.00148004 -0.00218356 0.1646  -0.00142169 -0.113192 0.258652  -0.00152278 -0.0838809 0.0818882  -0.00115204 -0.0981337 0.0808244  -0.00156736 -0.166317 0.162966  -0.00105584 -0.0174729 0.178113  -0.00127029 -0.144481 0.265409  -0.000743389 -0.0350845 0.188397  -0.000971198 -0.17677 0.26722  -0.000718474 -0.112117 0.0774636  -0.000558496 -0.125064 0.071568  -0.000881672 -0.222576 0.153962  -0.000517845 -0.0540408 0.195821  -0.000943303 -0.208399 0.262769  -0.000364065 -0.0740582 0.199395  -0.000728607 -0.239272 0.253324  -0.000291586 -0.136962 0.0635939  -0.000258923 -0.147024 0.0535927  -0.000507712 -0.272128 0.126133  -0.000252247 -0.0943567 0.199814  -0.000755072 -0.267362 0.238236  -0.000172257 -0.11432 0.196258  -0.000572801 -0.293036 0.218719  -7.86781e-05 -0.155377 0.0419979  -0.000102043 -0.161324 0.0291243  -0.000300169 -0.308914 0.0829182  -0.000107169 -0.133465 0.18964  -0.000618577 -0.314158 0.194869  -5.23329e-05 -0.150929 0.179409  -0.000446916 -0.331499 0.167685  4.3273e-05 -0.165116 0.0153446  -1.19209e-06 -0.166217 0.00118113  -0.000164866 -0.328452 0.0296426  -7.15256e-07 -0.166575 0.16658  -0.000499964 -0.343076 0.137996  5.10216e-05 -0.179404 0.150934  -0.000332117 -0.349964 0.10647  0.000133634 -0.164984 -0.013092  8.92878e-05 -0.161098 -0.0268097  -6.18696e-05 -0.328362 -0.0271606  0.000105262 -0.189635 0.133468  -0.000383973 -0.350575 0.0745754  0.000170469 -0.196252 0.114323  -0.000204802 -0.346151 0.0425591  0.000235558 -0.154985 -0.039824  0.000219822 -0.146574 -0.0514107  3.43323e-05 -0.30864 -0.0805397  0.000249624 -0.199808 0.0943594  -0.000228167 -0.335701 0.0123672  0.000361681 -0.199388 0.0740609  5.00679e-06 -0.320477 -0.0162139  0.000418663 -0.136316 -0.0615649  0.000488997 -0.124396 -0.0695949  0.000178933 -0.271664 -0.123948  0.000515699 -0.195814 0.0540428  7.43866e-05 -0.300225 -0.0409889  0.00074172 -0.188391 0.0350862  0.000440359 -0.276036 -0.0626121  0.00081563 -0.111242 -0.0756302  0.00106239 -0.0972622 -0.0791116  0.000494719 -0.221923 -0.15203  0.00105357 -0.178108 0.0174737  0.000701189 -0.248461 -0.0789323  0.00147843 -0.164596 0.00218439  0.00128269 -0.218279 -0.0909462  0.00160956 -0.0828339 -0.0802941  0.00210142 -0.0685112 -0.0788188  0.00116897 -0.165507 -0.161325  0.00202322 -0.148868 -0.0108733  0.00180125 -0.186766 -0.0969105  0.00265527 -0.130979 -0.02069  0.00254869 -0.154329 -0.0979939  0.00287938 -0.054586 -0.0750794  0.00349355 -0.0416682 -0.0689249  0.00232816 -0.109344 -0.150836  0.00334692 -0.111759 -0.0276847  0.00316238 -0.122649 -0.0931177  0.00391626 -0.0917521 -0.0310373  0.00363445 -0.0918759 -0.0835142  0.00421071 -0.029892 -0.0608587  0.00443792 -0.0198653 -0.0509291  0.00367713 -0.0601598 -0.122268  0.00428653 -0.0713944 -0.031301  0.0036819 -0.063747 -0.0685768  0.0041461 -0.0516647 -0.027976  0.00308895 -0.0382786 -0.0496511  0.00443006 -0.0115175 -0.0395522  0.00362921 -0.00535899 -0.0270157  0.00406742 -0.0235139 -0.0795507  0.00347137 -0.0327193 -0.021584  0.00182796 -0.0171423 -0.0260868  0.0020833 -0.0155083 -0.011703  0 1.19209e-07 0  0.00216126 -0.00150418 -0.0133476  0 5.96046e-08 0  0.00203657 -0.00332648 -0.0275073  0 5.96046e-08 0  -0.00211591 0.00490248 0.0565281  -0.00190733 0.00760835 0.0428391  -0.00374739 0.00384229 0.113333  -0.00188021 -0.00510865 0.0421877  -0.00312458 -0.0170453 0.0825257  0 0 0  0 0 0  -0.00160376 -0.00696367 0.0570865  0 0 0  -0.00353926 0.010088 0.0865507  -0.00554726 -0.00765163 0.168005  -0.00422914 0.00446248 0.130188  -0.00617203 -0.0272696 0.222224  -0.00361101 -0.0360457 0.119937  -0.00363061 -0.0609199 0.154279  -0.0034164 -0.0482983 0.160372  -0.00466508 -0.00776619 0.172705  -0.00653225 -0.0568906 0.271554  -0.00445005 -0.0278193 0.212873  -0.00628027 -0.0936589 0.317244  -0.00323957 -0.0914922 0.184143  -0.0028173 -0.126243 0.208795  -0.00291076 -0.122144 0.245315  -0.00420961 -0.0535444 0.249652  -0.00619519 -0.138725 0.354679  -0.00376689 -0.0862268 0.28125  -0.00580347 -0.189033 0.385654  -0.00223911 -0.165187 0.227273  -0.00183159 -0.206094 0.23899  -0.00198728 -0.220236 0.302437  -0.00342375 -0.122921 0.307533  -0.00574654 -0.244277 0.405742  -0.0030629 -0.164528 0.326238  -0.00542927 -0.302168 0.417652  -0.00138307 -0.249008 0.243268  -0.00113058 -0.291337 0.240338  -0.00134254 -0.331782 0.323528  -0.00283653 -0.207982 0.338441  -0.00544864 -0.360869 0.417572  -0.00260311 -0.253445 0.341712  -0.00518924 -0.419226 0.408807  -0.000842273 -0.333024 0.22962  -0.000718117 -0.371654 0.212302  -0.000968754 -0.443541 0.305183  -0.00248653 -0.298373 0.3382  -0.0052402 -0.474195 0.388519  -0.0023309 -0.342096 0.325601  -0.00499558 -0.525862 0.360185  -0.000527382 -0.406995 0.187872  -0.000470877 -0.43721 0.158296  -0.000725985 -0.541893 0.249475  -0.00226879 -0.382984 0.306809  -0.00505066 -0.570392 0.322214  -0.00214314 -0.419616 0.279917  -0.00480545 -0.609076 0.277824  -0.000322938 -0.46189 0.123182  -0.000295401 -0.480007 0.0849929  -0.000525355 -0.614846 0.163294  -0.00210047 -0.451466 0.248184  -0.00486362 -0.637756 0.226845  -0.00198448 -0.476548 0.210317  -0.00462377 -0.658757 0.171844  -0.000168085 -0.491032 0.0435157  -0.000157714 -0.494849 0.00139713  -0.000344872 -0.653542 0.0572453  -0.00195169 -0.495483 0.169541  -0.0046972 -0.668105 0.114087  -0.00184488 -0.505961 0.125332  -0.00447679 -0.668865 0.0551877  -4.6134e-05 -0.490883 -0.041369  -5.03063e-05 -0.47993 -0.0822678  -0.000198483 -0.65329 -0.0556946  -0.00182486 -0.50967 0.0805001  -0.00457585 -0.65773 -0.00229597  -0.00172842 -0.504255 0.0353465  -0.00438035 -0.638134 -0.0579047  4.93526e-05 -0.461445 -0.121096  4.27961e-05 -0.437039 -0.155768  -0.000101328 -0.614108 -0.161733  -0.00171602 -0.492268 -0.00806236  -0.00449979 -0.607839 -0.108082  -0.0016135 -0.471592 -0.0486317  -0.00431216 -0.57023 -0.153584  0.000154257 -0.406271 -0.185896  0.000185728 -0.371362 -0.210079  -4.05312e-05 -0.54072 -0.247894  -0.00157928 -0.44534 -0.0852947  -0.00441289 -0.524432 -0.190274  -0.00142026 -0.4119 -0.116282  -0.00417256 -0.473349 -0.22006  0.000370502 -0.332059 -0.227783  0.000522137 -0.290892 -0.238485  6.05583e-05 -0.44202 -0.303566  -0.00129199 -0.374555 -0.141681  -0.0041523 -0.417625 -0.238715  -0.000983477 -0.332445 -0.159258  -0.00372696 -0.359249 -0.249117  0.000887871 -0.247886 -0.241591  0.0012691 -0.205485 -0.237529  0.000382423 -0.330057 -0.321855  -0.000631332 -0.288533 -0.170284  -0.00339174 -0.300403 -0.247556  -7.00951e-05 -0.242963 -0.172404  -0.00259233 -0.241759 -0.237453  0.00192022 -0.164067 -0.225824  0.00253987 -0.125555 -0.207738  0.00122261 -0.218572 -0.300712  0.000639677 -0.19774 -0.167853  -0.00173712 -0.18674 -0.216402  0.00139046 -0.154192 -0.154706  -0.000594616 -0.13478 -0.187634  0.00337481 -0.0905971 -0.183098  0.00377369 -0.0604101 -0.153684  0.00271583 -0.120953 -0.24369  0.00222921 -0.112959 -0.135503  0.000494957 -0.0896168 -0.150129  0.00261521 -0.0761676 -0.109013  0.00114489 -0.0503 -0.106751  0.00409055 -0.0356173 -0.119279  0.00330424 -0.0169023 -0.082129  0.00389147 -0.0479098 -0.159002  0.0023222 -0.044182 -0.0778804  0.000905275 -0.020716 -0.0557394  0.00136471 -0.0187722 -0.0400877  0 2.38419e-07 0  0.00177169 -0.0054003 -0.0411892  0 1.78814e-07 0  0.00178576 -0.00737065 -0.0563016  0 1.78814e-07 0  -0.00571551 0.00723171 0.0874472  -0.00331985 0.0031904 0.0715065  -0.0150996 -0.00150353 0.167268  -0.00215077 -0.00881505 0.071991  -0.00351204 -0.0282418 0.138062  0 0 0  0 0 0  -0.00127875 -0.00746089 0.0895119  0 0 0  -0.0070378 -0.000801444 0.140055  -0.0183247 -0.0236242 0.247951  -0.00959398 -0.0182857 0.206599  -0.0215166 -0.0585011 0.324467  -0.00325045 -0.0595523 0.199579  -0.0029473 -0.100263 0.256317  -0.00398706 -0.0671014 0.24179  -0.0110295 -0.0449141 0.271519  -0.0216643 -0.107716 0.396596  -0.0118026 -0.0843536 0.331041  -0.022758 -0.168114 0.458929  -0.00223139 -0.151186 0.306026  -0.00176114 -0.208608 0.347311  -0.00157735 -0.17677 0.372452  -0.0119128 -0.131956 0.385208  -0.022208 -0.239578 0.511578  -0.011992 -0.190033 0.42934  -0.0229561 -0.318196 0.550068  -0.0013867 -0.273828 0.377935  -0.00111097 -0.341687 0.397921  -0.000429332 -0.32587 0.460771  -0.0118342 -0.253562 0.464791  -0.022253 -0.403422 0.575452  -0.0118263 -0.323415 0.486742  -0.0229208 -0.490389 0.584707  -0.000981152 -0.413401 0.404591  -0.000807345 -0.483811 0.400255  -0.000191629 -0.496007 0.493211  -0.0116591 -0.39522 0.498373  -0.0221326 -0.579001 0.579322  -0.0116586 -0.468248 0.494998  -0.0227411 -0.66365 0.558119  -0.000757635 -0.553254 0.381856  -0.000601292 -0.617705 0.353562  -7.01547e-05 -0.666425 0.465263  -0.011486 -0.539527 0.481209  -0.0218966 -0.74485 0.522613  -0.011476 -0.60678 0.452907  -0.0224682 -0.816881 0.473598  -0.000558496 -0.6764 0.312379  -0.000391483 -0.72704 0.263619  0.000146627 -0.816417 0.380398  -0.0112847 -0.668826 0.415427  -0.0215976 -0.880818 0.412359  -0.011259 -0.722123 0.365725  -0.0221596 -0.931498 0.341573  -0.0003407 -0.767865 0.204762  -0.000167727 -0.798547 0.141547  0.000433087 -0.927793 0.249136  -0.0110559 -0.767396 0.309191  -0.0212921 -0.970426 0.262091  -0.0110288 -0.800281 0.244191  -0.0218737 -0.993616 0.178187  -0.000121713 -0.81657 0.0722346  3.83854e-05 -0.823577 0.00230265  0.000725746 -0.987079 0.0875826  -0.0108339 -0.823293 0.175526  -0.0210369 -1.00281 0.0901394  -0.0108268 -0.831775 0.103162  -0.0216632 -0.995693 0.00334549  6.05583e-05 -0.816618 -0.0690069  0.000190616 -0.799098 -0.137121  0.000966549 -0.987105 -0.0845537  -0.010662 -0.829729 0.0307422  -0.0208764 -0.974016 -0.0825539  -0.0106925 -0.812762 -0.0401654  -0.0215615 -0.937421 -0.161659  0.000176072 -0.767992 -0.201732  0.000271082 -0.72805 -0.259711  0.00111914 -0.927846 -0.246302  -0.0105696 -0.78588 -0.107511  -0.0208309 -0.887453 -0.234936  -0.010641 -0.74549 -0.168293  -0.0215724 -0.825776 -0.296671  0.000225186 -0.676551 -0.30972  0.000302553 -0.619007 -0.350447  0.00117981 -0.816435 -0.37792  -0.010552 -0.696993 -0.222319  -0.0208862 -0.753522 -0.348341  -0.0106425 -0.638056 -0.265497  -0.0216556 -0.674183 -0.385086  0.000256062 -0.55336 -0.379692  0.000366688 -0.485189 -0.398121  0.00118613 -0.666328 -0.463258  -0.0105431 -0.573784 -0.299537  -0.0209684 -0.588377 -0.408733  -0.0105774 -0.50347 -0.319751  -0.0216625 -0.500911 -0.415892  0.000395536 -0.413412 -0.402979  0.000648022 -0.34292 -0.396849  0.00121903 -0.495731 -0.49174  -0.0103297 -0.431172 -0.32958  -0.0207956 -0.412057 -0.408518  -0.010097 -0.35808 -0.324413  -0.0210083 -0.326837 -0.385205  0.000909328 -0.273821 -0.376878  0.00148129 -0.209546 -0.347291  0.00147152 -0.325498 -0.459854  -0.00932598 -0.286389 -0.308917  -0.0193672 -0.246227 -0.347968  -0.00834703 -0.219324 -0.279559  -0.0180144 -0.173316 -0.297414  0.00216579 -0.151456 -0.305622  0.00305104 -0.100851 -0.257244  0.0023818 -0.176765 -0.372306  -0.00643349 -0.156734 -0.241184  -0.0145283 -0.111705 -0.236571  -0.00432944 -0.103133 -0.192267  -0.0105591 -0.06067 -0.16685  0.0037334 -0.0602413 -0.199942  0.00377226 -0.0288039 -0.139464  0.00410247 -0.0678657 -0.242814  -0.00182796 -0.057282 -0.13689  -0.00509048 -0.0241163 -0.0884876  -0.000706911 -0.0229828 -0.0719438  0 3.57628e-07 0  0.00200963 -0.0094493 -0.0710497  0 2.98023e-07 0  0.00375414 -0.00809419 -0.0874915  0 2.98023e-07 0  -0.00217059 -0.00644186 -0.0566902  -0.0028942 -0.00435934 -0.0704851  -0.00470284 -0.00491354 -0.113775  -0.00263992 -0.0170187 -0.068933  -0.0111745 -0.0280442 -0.141035  -0.0164368 -0.0211005 -0.0804734  0 0 0  -0.0127772 -0.00795732 -0.0845008  0 1.49012e-08 0  0 7.45058e-09 0  -0.00148422 -0.0192362 -0.0559669  0 7.45058e-09 0  -0.0177071 -0.000534301 -0.168213  -0.00825845 -0.00111882 -0.140827  -0.00662464 0.00558358 -0.169193  -0.0109084 0.0161339 -0.207744  -0.00733197 0.0255774 -0.222585  -0.0156144 -0.0247751 -0.214521  -0.0183293 -0.0105727 -0.288019  -0.0329014 -0.0160573 -0.249227  -0.0212002 0.0220593 -0.247928  -0.00769533 -0.035975 -0.178783  -0.0216789 0.0568483 -0.32551  -0.0121762 0.0432419 -0.272694  -0.00730577 0.0548374 -0.272274  -0.0119265 0.0824547 -0.332133  -0.00682619 0.0918819 -0.317498  -0.0192387 0.0177265 -0.358366  -0.0196039 0.0565446 -0.424719  -0.0375677 0.0427185 -0.415517  -0.0223161 0.105342 -0.396931  -0.00970474 -0.0102381 -0.301709  -0.0218798 0.166402 -0.459856  -0.0120739 0.130662 -0.38608  -0.00627935 0.136658 -0.35491  -0.0113297 0.188153 -0.430071  -0.00585657 0.187193 -0.385582  -0.0194669 0.107507 -0.482286  -0.0194228 0.167227 -0.532131  -0.0384555 0.155822 -0.556022  -0.0220686 0.236906 -0.512101  -0.00924999 0.0566071 -0.410473  -0.0216746 0.316537 -0.550624  -0.0115715 0.252342 -0.465044  -0.00541037 0.242163 -0.405547  -0.0108486 0.321564 -0.48702  -0.00521672 0.300257 -0.417078  -0.0191665 0.234971 -0.568923  -0.0191134 0.308337 -0.595268  -0.038446 0.310969 -0.650131  -0.0218183 0.400775 -0.575869  -0.00854796 0.157275 -0.490475  -0.0214404 0.488826 -0.584701  -0.011204 0.393943 -0.497882  -0.00492495 0.358762 -0.416883  -0.0105314 0.466499 -0.494697  -0.00487262 0.417284 -0.407653  -0.0188808 0.384597 -0.606478  -0.0188664 0.462553 -0.605919  -0.0382386 0.489041 -0.685187  -0.0215712 0.576557 -0.579445  -0.00809371 0.279503 -0.530937  -0.0212271 0.662236 -0.557436  -0.0109582 0.538179 -0.47994  -0.00468457 0.472156 -0.387286  -0.0103459 0.605191 -0.451941  -0.00471449 0.523934 -0.358445  -0.0186849 0.538006 -0.590168  -0.0187222 0.611018 -0.562801  -0.0380582 0.668246 -0.656799  -0.0214024 0.742763 -0.522293  -0.0078454 0.408232 -0.526738  -0.021116 0.815632 -0.472149  -0.0108323 0.667411 -0.413398  -0.00458455 0.56847 -0.32043  -0.0102694 0.72071 -0.364048  -0.0046556 0.607196 -0.275544  -0.0185932 0.676468 -0.522049  -0.0186718 0.735642 -0.471246  -0.0379827 0.82676 -0.568489  -0.0213456 0.87916 -0.411454  -0.00773275 0.527707 -0.478456  -0.0210985 0.930358 -0.339326  -0.0107924 0.765901 -0.306469  -0.00454736 0.63598 -0.224545  -0.0102501 0.799013 -0.241819  -0.00462627 0.656953 -0.169103  -0.018572 0.783125 -0.410487  -0.0186632 0.821263 -0.342457  -0.0379825 0.945294 -0.431077  -0.0213511 0.969172 -0.260511  -0.00769448 0.623366 -0.39204  -0.0211045 0.992487 -0.175209  -0.0107776 0.821691 -0.172241  -0.00451076 0.666487 -0.111347  -0.0102236 0.830595 -0.100178  -0.00456989 0.667153 -0.0521102  -0.0185586 0.844999 -0.269104  -0.0186303 0.857456 -0.192142  -0.0379791 1.00943 -0.261337  -0.0213364 1.00187 -0.0878882  -0.00767004 0.683561 -0.278049  -0.0210547 0.994479 0.00019455  -0.0107269 0.828004 -0.0270791  -0.00442314 0.656273 0.00536013  -0.0101359 0.811612 0.0436106  -0.00444019 0.636538 0.061162  -0.018492 0.854546 -0.11514  -0.0185202 0.839791 -0.0386319  -0.0378987 1.01135 -0.0799642  -0.021232 0.973289 0.0853763  -0.00760245 0.70095 -0.150385  -0.020895 0.936085 0.165513  -0.0105954 0.784056 0.111315  -0.00424182 0.606552 0.111321  -0.00995266 0.744341 0.171993  -0.00419235 0.5688 0.156845  -0.0183324 0.810565 0.0326109  -0.0183072 0.770365 0.0993075  -0.0377069 0.950799 0.0909233  -0.0210038 0.886876 0.238154  -0.00744355 0.673379 -0.0246367  -0.0206127 0.824355 0.300561  -0.0103577 0.695148 0.226013  -0.00391841 0.523345 0.193522  -0.00965953 0.636921 0.269218  -0.00376892 0.472174 0.223143  -0.0180674 0.71836 0.156047  -0.0179918 0.657583 0.204721  -0.0374324 0.835064 0.230429  -0.0206697 0.753082 0.351748  -0.00715065 0.604161 0.0837817  -0.0202515 0.672811 0.388739  -0.00999784 0.572068 0.302884  -0.00338507 0.416791 0.241792  -0.00924516 0.502415 0.323263  -0.00309467 0.35847 0.251871  -0.0177093 0.589127 0.239948  -0.0175815 0.515183 0.264549  -0.0372005 0.67816 0.321369  -0.0203114 0.588127 0.412138  -0.00668645 0.501716 0.161502  -0.0199111 0.499882 0.419057  -0.00946879 0.429819 0.332381  -0.00253677 0.299886 0.250222  -0.00861621 0.357165 0.32748  -0.00207162 0.241444 0.239776  -0.0172501 0.43855 0.273947  -0.0169427 0.360431 0.271482  -0.0372131 0.499099 0.35245  -0.0200028 0.412016 0.411822  -0.00603819 0.378547 0.198944  -0.0195091 0.326616 0.38778  -0.00851893 0.285624 0.311059  -0.00115752 0.186534 0.218321  -0.00721836 0.218358 0.281881  -0.000445604 0.134495 0.189331  -0.0162919 0.284401 0.25403  -0.0149758 0.211175 0.225229  -0.0370355 0.319044 0.3198  -0.019125 0.245817 0.351123  -0.00512648 0.249315 0.191746  -0.0172014 0.173719 0.299667  -0.00617671 0.156148 0.242764  0.000881433 0.0894758 0.15133  -0.00367713 0.101836 0.19372  0.00159073 0.0498113 0.107662  -0.0125518 0.144137 0.183542  -0.00898194 0.0841119 0.133186  -0.0316396 0.158956 0.227971  -0.0138998 0.109765 0.239218  -0.00329947 0.128661 0.141608  -0.00868893 0.0600252 0.169073  -0.00165844 0.0559893 0.137824  0.00134063 0.0208687 0.0559945  0.00101376 0.0223435 0.0727706  0 -2.23517e-07 0  -0.00383902 0.0360355 0.0711517  0 -2.90573e-07 0  -0.00797868 0.0418754 0.0877705  -0.000869989 0.0222887 0.0903435  -0.000236034 0.0326067 0.0543604  0 -3.57628e-07 0  0 -2.90573e-07 0  -0.00198339 -0.0107863 -0.0291271  -0.00181279 -0.00854842 -0.0425801  -0.00331846 -0.0166686 -0.0599604  -0.00131252 -0.0221094 -0.0433674  -0.00299636 -0.0388948 -0.0909967  0 0 0  0 0 0  -0.00166464 -0.0244899 -0.0300603  0 0 0  -0.00338563 -0.0108546 -0.0870385  -0.00415611 -0.0175412 -0.0915122  -0.00452691 -0.00588968 -0.130608  -0.00442472 -0.0134635 -0.122699  -0.0042652 -0.0470098 -0.141471  -0.00506964 -0.0475014 -0.192613  -0.00345252 -0.0583243 -0.10296  -0.00526342 0.00606641 -0.173293  -0.00425676 -0.00344136 -0.15298  -0.00502512 0.0258374 -0.213209  -0.0036194 0.0109833 -0.181235  -0.00503105 -0.0379567 -0.243401  -0.00482208 -0.0208404 -0.292243  -0.00354549 -0.0662902 -0.183688  -0.00456855 0.0516973 -0.24997  -0.00310177 0.030727 -0.206489  -0.00404167 0.0839938 -0.281273  -0.00234336 0.0540465 -0.228367  -0.00422007 0.00548217 -0.337024  -0.00380975 0.0386607 -0.377377  -0.00247091 -0.0464669 -0.262409  -0.00345522 0.121028 -0.307384  -0.00189954 0.0812657 -0.245328  -0.00303638 0.162168 -0.325879  -0.00135714 0.110771 -0.257903  -0.00331694 0.0787794 -0.410479  -0.00304395 0.123974 -0.436952  -0.00136095 -0.000755668 -0.329624  -0.00264657 0.206001 -0.337729  -0.00111932 0.14221 -0.264402  -0.00240326 0.251047 -0.340914  -0.000794888 0.1743 -0.266008  -0.0027352 0.173086 -0.454181  -0.00260973 0.224689 -0.463405  -0.000639439 0.0654308 -0.376927  -0.00219029 0.296321 -0.336902  -0.000722051 0.206105 -0.261234  -0.00207925 0.339746 -0.324335  -0.000529766 0.236828 -0.251664  -0.00242472 0.27678 -0.462621  -0.00239539 0.328445 -0.453482  -0.00026238 0.14399 -0.398433  -0.00197458 0.380902 -0.304949  -0.000548124 0.265098 -0.236218  -0.00193858 0.417389 -0.27819  -0.00041914 0.290698 -0.216662  -0.00228357 0.377132 -0.434797  -0.00230658 0.422542 -0.408439  -9.13143e-05 0.225266 -0.391522  -0.00188756 0.449402 -0.245829  -0.000475645 0.311981 -0.192446  -0.00188172 0.474503 -0.208165  -0.0003649 0.329339 -0.165301  -0.00222933 0.461879 -0.374155  -0.00227022 0.4955 -0.333809  -2.14577e-05 0.299305 -0.357071  -0.00184524 0.49348 -0.16679  -0.000424385 0.341044 -0.135271  -0.00183761 0.504142 -0.122821  -0.000301719 0.348048 -0.103849  -0.00219655 0.520692 -0.288114  -0.00222671 0.538427 -0.238703  1.90735e-05 0.357076 -0.299303  -0.00178719 0.507773 -0.0774808  -0.00033462 0.348747 -0.0716672  -0.0017494 0.502694 -0.0325699  -0.000167966 0.344539 -0.0398059  -0.00212848 0.546397 -0.187171  -0.00211847 0.546073 -0.134726  8.9407e-05 0.391528 -0.225265  -0.00165761 0.49053 0.0112014  -0.000135422 0.334136 -0.00940084  -0.00155902 0.470315 0.0515637  0.000124693 0.31922 0.0189934  -0.00196421 0.535832 -0.0836515  -0.00187933 0.51747 -0.0345898  0.000260711 0.39844 -0.143991  -0.00138688 0.443822 0.0883994  0.000284672 0.298974 0.0438857  -0.00118279 0.410924 0.119249  0.000711918 0.275176 0.0653148  -0.00162673 0.490246 0.00975895  -0.00142384 0.456068 0.0494018  0.000638723 0.376933 -0.0654321  -0.000868559 0.373333 0.144601  0.00107646 0.247565 0.0816245  -0.000506878 0.331772 0.162131  0.00172782 0.217815 0.0934796  -0.00102162 0.415195 0.0815535  -0.00067234 0.369395 0.1069  0.00136113 0.329627 0.00075531  1.62125e-05 0.287695 0.172885  0.00229979 0.186243 0.0992289  0.000542402 0.242535 0.175002  0.00306773 0.154161 0.100205  -0.000124931 0.319926 0.122921  0.000299692 0.268124 0.130986  0.00247145 0.262409 0.0464673  0.00125313 0.197324 0.170013  0.00356269 0.122489 0.0948172  0.00180459 0.153872 0.156692  0.0039618 0.0918266 0.0850439  0.000778198 0.216055 0.129056  0.00104094 0.164357 0.119245  0.00354624 0.183686 0.0662904  0.00237465 0.112765 0.137076  0.00376511 0.0637137 0.0694809  0.00262618 0.0760215 0.110219  0.00326467 0.0381271 0.0501671  0.0011723 0.115691 0.0999069  0.00099349 0.0700073 0.073597  0.00345302 0.102957 0.0583248  0.00246334 0.0438275 0.0786486  0.0018909 0.0169637 0.0263524  0.00156903 0.0187353 0.0412345  0 -1.19209e-07 0  0.000876904 0.0314481 0.0398841  0 -1.78814e-07 0  0.00166464 0.0300592 0.0244904  0 -1.78814e-07 0  -0.0021555 -0.0140946 -0.00193548  -0.0020945 -0.0125526 -0.0152922  -0.00360124 -0.0278454 -0.00561857  -0.00189104 -0.0263526 -0.0169649  -0.00326459 -0.0501665 -0.0381289  0 0 0  0 0 0  -0.00207464 -0.0277584 -0.00361395  0 0 0  -0.00349356 -0.0224577 -0.0328546  -0.00444375 -0.0405597 -0.0119448  -0.00423582 -0.0291201 -0.0517178  -0.0045622 -0.0525745 -0.0199566  -0.0037646 -0.0694808 -0.0637159  -0.00396127 -0.0850436 -0.0918283  -0.00425999 -0.0805497 -0.0236168  -0.00445607 -0.0329795 -0.0716119  -0.00434884 -0.0624954 -0.0302267  -0.00415528 -0.032977 -0.0917892  -0.00368625 -0.0711563 -0.0416775  -0.00356206 -0.0948177 -0.12249  -0.00306731 -0.100205 -0.154163  -0.00414494 -0.123853 -0.0601578  -0.00359261 -0.029935 -0.111822  -0.00309622 -0.0771093 -0.0546303  -0.00289512 -0.023109 -0.13084  -0.0023222 -0.0813362 -0.0682631  -0.00229955 -0.099229 -0.186243  -0.00172758 -0.0934789 -0.217813  -0.00288641 -0.152867 -0.109022  -0.00221652 -0.0134172 -0.148621  -0.00182772 -0.0825069 -0.0824022  -0.00161278 -0.000447184 -0.164131  -0.00124943 -0.0817432 -0.0966134  -0.00107646 -0.0816244 -0.247562  -0.000712454 -0.0653139 -0.275171  -0.00167364 -0.163646 -0.164722  -0.0011332 0.0148047 -0.17747  -0.000981092 -0.0779198 -0.110248  -0.000768363 0.032393 -0.187528  -0.000618041 -0.0722413 -0.123302  -0.000285506 -0.0438851 -0.298969  -0.000125766 -0.0189922 -0.319212  -0.000882626 -0.154537 -0.220631  -0.000505507 0.0513652 -0.194759  -0.000525832 -0.0638825 -0.134762  -0.00032568 0.0714109 -0.198111  -0.000301242 -0.0539907 -0.145054  0.00013423 0.00940141 -0.334129  0.000166535 0.039807 -0.344532  -0.000451803 -0.126571 -0.269907  -0.000202298 0.0917701 -0.198346  -0.000307083 -0.0421283 -0.152931  -0.000123024 0.111806 -0.19458  -0.000149846 -0.0292402 -0.159197  0.00033319 0.0716689 -0.34874  0.000300288 0.103853 -0.348041  -0.00023663 -0.083203 -0.306506  -6.80685e-05 0.131056 -0.187798  -0.000199318 -0.0153309 -0.162528  -3.11136e-05 0.148628 -0.177382  -6.73532e-05 -0.00102121 -0.164003  0.000422716 0.135275 -0.341037  0.00036335 0.165306 -0.329333  -0.000130296 -0.0297679 -0.325958  -4.76837e-07 0.164422 -0.164416  -0.000128388 0.0132381 -0.162377  2.96831e-05 0.17739 -0.148623  4.64916e-06 0.0272284 -0.15888  0.000473738 0.192452 -0.311977  0.000417233 0.216668 -0.290695  -6.90222e-05 0.0272024 -0.325895  6.63996e-05 0.187805 -0.131052  -3.88622e-05 0.0401012 -0.152484  0.000121474 0.194587 -0.111803  0.000131965 0.0520684 -0.144433  0.000546694 0.236225 -0.265097  0.000527978 0.251671 -0.236828  1.78814e-06 0.0807624 -0.306314  0.000200391 0.198353 -0.0917678  0.000152588 0.061981 -0.134037  0.000323653 0.198118 -0.0714092  0.000421524 0.0704634 -0.122411  0.000720024 0.261241 -0.206105  0.000793219 0.266014 -0.1743  0.000162601 0.124369 -0.269577  0.000504017 0.194767 -0.0513635  0.000584126 0.0761954 -0.109284  0.000766993 0.187534 -0.0323915  0.00104022 0.0801554 -0.095511  0.00111842 0.264409 -0.142211  0.0013566 0.257909 -0.110771  0.000548124 0.152665 -0.220155  0.00113273 0.177476 -0.0148029  0.00143433 0.0810053 -0.0812669  0.00161266 0.164135 0.000448704  0.00214052 0.0799677 -0.06705  0.00189972 0.245333 -0.081265  0.00234389 0.22837 -0.0540452  0.00133443 0.162172 -0.164104  0.00221682 0.148623 0.0134182  0.0027554 0.0758761 -0.053432  0.00289559 0.130841 0.0231094  0.0035789 0.0700149 -0.040525  0.0031023 0.20649 -0.0307255  0.00362015 0.181235 -0.0109825  0.00259447 0.151823 -0.108286  0.00359297 0.111821 0.0299354  0.00407219 0.0615864 -0.0291634  0.00415587 0.0917879 0.0329771  0.00449848 0.0517118 -0.0190973  0.00425744 0.152979 0.00344229  0.00442553 0.122698 0.0134635  0.00391579 0.123216 -0.0594211  0.004457 0.0716104 0.03298  0.00416851 0.04009 -0.0113134  0.00423646 0.0517151 0.0291204  0.00341129 0.0274451 -0.00528574  0.00415659 0.0915101 0.0175414  0.00331879 0.0599583 0.0166693  0.00411797 0.0803567 -0.0231986  0.00349402 0.032853 0.0224576  0.00205255 0.013615 -0.00148821  0.00209475 0.0152908 0.0125523  0 0 0  0.0019834 0.0291255 0.0107865  0 -5.96046e-08 0  0.00195646 0.0278931 -0.00331831  0 -5.96046e-08 0  -0.00184005 -0.0169707 0.025835  -0.00209058 -0.0155794 0.0122294  -0.00306199 -0.0388344 0.0495667  -0.00199386 -0.0289143 0.0101533  -0.00342125 -0.0602751 0.0164557  0 0 0  0 0 0  -0.00164034 -0.0298759 0.0240183  0 0 0  -0.00351484 -0.0332856 0.021915  -0.00375523 -0.0642081 0.0685539  -0.00423421 -0.0522701 0.0284991  -0.00377917 -0.0928144 0.0838075  -0.00419429 -0.091825 0.0168824  -0.00456637 -0.123625 0.0125604  -0.00351594 -0.103395 0.0577974  -0.00444788 -0.0725091 0.031991  -0.00354436 -0.123304 0.0936046  -0.0041734 -0.0927418 0.0320015  -0.00293401 -0.155265 0.0987487  -0.00424552 -0.153745 0.00255156  -0.00381693 -0.18243 -0.0121346  -0.00355414 -0.184418 0.0655055  -0.00363308 -0.112974 0.0287166  -0.00241899 -0.187264 0.0979228  -0.00294822 -0.132101 0.0219951  -0.00176531 -0.219036 0.0920825  -0.00312316 -0.207649 -0.0316567  -0.0025866 -0.229735 -0.0551915  -0.00259101 -0.263462 0.0457029  -0.0023129 -0.149992 0.0121737  -0.00136214 -0.248774 0.0804663  -0.00171709 -0.165658 -0.000620365  -0.000889003 -0.276546 0.0641227  -0.00198632 -0.246836 -0.0821242  -0.00163943 -0.259468 -0.111774  -0.00162965 -0.331066 0.000141144  -0.00127453 -0.179042 -0.0159278  -0.000671506 -0.300382 0.0430074  -0.000903428 -0.18928 -0.0333009  -0.000365973 -0.320741 0.0181017  -0.00123316 -0.266199 -0.142923  -0.00107139 -0.267768 -0.175076  -0.000994205 -0.378741 -0.0658722  -0.000660837 -0.196501 -0.0522633  -0.000278711 -0.335748 -0.00993204  -0.000459075 -0.200045 -0.0720882  -7.27177e-05 -0.346199 -0.0403337  -0.000810027 -0.263268 -0.206617  -0.000761867 -0.253592 -0.237332  -0.000618935 -0.400569 -0.144247  -0.00034225 -0.200219 -0.0923781  -5.53131e-05 -0.350555 -0.0718298  -0.000231385 -0.196646 -0.112213  0.000102043 -0.349835 -0.103989  -0.000582695 -0.238431 -0.265388  -0.000593543 -0.218712 -0.290906  -0.000392556 -0.393911 -0.225348  -0.000177741 -0.189762 -0.131337  8.4877e-05 -0.343022 -0.135081  -0.000107527 -0.179522 -0.14875  0.000216484 -0.331226 -0.165058  -0.000457287 -0.194761 -0.312046  -0.000497937 -0.167414 -0.329251  -0.000249863 -0.359624 -0.299239  -8.15392e-05 -0.166422 -0.164365  0.000180244 -0.314079 -0.191941  -2.53916e-05 -0.150763 -0.177226  0.000301242 -0.292641 -0.21607  -0.000381827 -0.1376 -0.340894  -0.000431538 -0.105954 -0.347681  -0.000160098 -0.301901 -0.356891  -4.17233e-06 -0.133043 -0.187418  0.000264645 -0.267243 -0.23545  6.25849e-05 -0.11387 -0.194145  0.000400186 -0.238767 -0.250771  -0.000311613 -0.0739099 -0.348392  -0.000337958 -0.0418233 -0.343915  -9.20296e-05 -0.227771 -0.391246  0.000112414 -0.0936845 -0.197659  0.000402451 -0.208211 -0.260259  0.000233769 -0.0733349 -0.197412  0.000608444 -0.176163 -0.264877  -0.000168681 -0.0114642 -0.333587  -0.00011313 0.0171351 -0.318373  1.89543e-05 -0.146267 -0.398064  0.000375509 -0.0531479 -0.193805  0.000726938 -0.144188 -0.263288  0.00062871 -0.0341178 -0.186599  0.0010941 -0.112489 -0.256623  0.00018239 0.0420783 -0.298248  0.000406027 0.0636681 -0.274152  0.000299692 -0.0673646 -0.376453  0.000959158 -0.0164012 -0.176309  0.00142765 -0.0830238 -0.244166  0.00143456 -0.00103492 -0.163039  0.00203133 -0.0555646 -0.22709  0.000926018 0.0801268 -0.246706  0.00137162 0.0920482 -0.216714  0.000925303 -0.000768602 -0.329048  0.00202179 0.0120526 -0.147367  0.00259233 -0.0321901 -0.205387  0.00271225 0.0218976 -0.129715  0.00332212 -0.0122613 -0.180208  0.00214052 0.0980896 -0.185338  0.00266767 0.0989679 -0.153183  0.00196981 0.0453708 -0.261767  0.00340366 0.0288416 -0.110673  0.00380993 0.00229591 -0.151994  0.00400567 0.0320836 -0.0908132  0.00416589 0.0125487 -0.12202  0.00342131 0.0941232 -0.121607  0.0036552 0.0841613 -0.0911736  0.00306225 0.0656385 -0.182997  0.00427508 0.0322053 -0.0707698  0.0037992 0.0167661 -0.0907793  0.0040617 0.0285767 -0.0510364  0.00297308 0.0163247 -0.0594497  0.00366187 0.0692912 -0.062921  0.00318265 0.0501924 -0.0378799  0.00312972 0.0582241 -0.102418  0.00343537 0.0221426 -0.0322838  0.00184822 0.00990009 -0.0286036  0.00208545 0.0119242 -0.0148501  0 1.19209e-07 0  0.00192618 0.0264015 -0.0163898  0 5.96046e-08 0  0.00162101 0.0246336 -0.029861  0 5.96046e-08 0  -0.000679485 -0.0204441 0.0556531  -0.00128365 -0.0187115 0.0409975  -0.000529617 -0.050858 0.107031  -0.000885703 -0.0313182 0.0387535  -0.00110909 -0.0708935 0.072927  0 0 0  0 0 0  0.000560142 -0.0329121 0.0538898  0 0 0  -0.00205559 -0.0446541 0.0780191  -4.45247e-05 -0.0899363 0.150449  -0.00226586 -0.0769005 0.109502  0.000693947 -0.135471 0.188385  -0.00107561 -0.116147 0.0989418  -0.00100315 -0.165357 0.117935  0.00322241 -0.129589 0.140799  -0.00219491 -0.11392 0.135955  0.00137767 -0.187226 0.217577  -0.00186935 -0.155033 0.155657  0.0019179 -0.24262 0.238654  -0.000723898 -0.216909 0.128074  -0.00040096 -0.269302 0.12967  0.00503156 -0.250319 0.190851  -0.00136453 -0.198614 0.168749  0.00243938 -0.300894 0.24941  -0.000895143 -0.243901 0.17385  0.00271529 -0.359976 0.250651  9.29832e-06 -0.321138 0.121969  0.000389874 -0.37079 0.105676  0.00582552 -0.379788 0.198021  -0.000374615 -0.289159 0.171568  0.00307637 -0.418141 0.241061  -2.03848e-05 -0.333369 0.161003  0.00318557 -0.473893 0.221974  0.000718951 -0.416742 0.080698  0.000995994 -0.457643 0.0483327  0.00627279 -0.503276 0.160685  0.000350654 -0.374946 0.143373  0.00345415 -0.525021 0.192989  0.000547111 -0.412705 0.118257  0.00348818 -0.570647 0.155855  0.00121129 -0.492058 0.00905371  0.00139117 -0.519195 -0.0354195  0.00657773 -0.605987 0.0831289  0.000790358 -0.445546 0.0873842  0.00371623 -0.608525 0.111025  0.000886321 -0.47223 0.0507951  0.00372362 -0.638461 0.0604329  0.0015347 -0.537858 -0.0841498  0.00165951 -0.54793 -0.135256  0.00682974 -0.675424 -0.0250793  0.00105894 -0.492332 0.0104871  0.00393307 -0.658494 0.00529289  0.00110602 -0.504701 -0.033061  0.00392532 -0.669111 -0.0525298  0.00176227 -0.548592 -0.187439  0.0018537 -0.540393 -0.23891  0.00705802 -0.703174 -0.150602  0.00124228 -0.509627 -0.0778456  0.00411606 -0.668881 -0.111217  0.00126326 -0.506191 -0.123012  0.00408816 -0.658901 -0.169192  0.00192678 -0.522998 -0.288158  0.00199032 -0.497536 -0.333702  0.00724971 -0.685908 -0.278057  0.00137544 -0.495351 -0.166787  0.00425375 -0.638446 -0.224256  0.00137579 -0.476535 -0.20805  0.00419962 -0.609082 -0.275301  0.00203562 -0.46421 -0.373999  0.00207639 -0.424584 -0.408048  0.00738478 -0.625747 -0.391872  0.0014689 -0.451247 -0.245464  0.00434136 -0.570881 -0.320014  0.00145829 -0.419334 -0.277775  0.00426877 -0.525692 -0.357887  0.00210524 -0.37938 -0.434463  0.00214231 -0.330409 -0.45284  0.00746131 -0.530002 -0.478143  0.0015521 -0.382667 -0.304247  0.00440955 -0.474379 -0.386764  0.00155973 -0.341535 -0.323633  0.00435448 -0.418848 -0.406801  0.00218606 -0.278831 -0.462119  0.00226545 -0.226489 -0.462543  0.00751507 -0.41031 -0.526289  0.00170517 -0.297946 -0.335898  0.0045507 -0.360672 -0.416261  0.0017972 -0.252621 -0.339949  0.00459146 -0.301572 -0.415967  0.002388 -0.174846 -0.453512  0.00258636 -0.125559 -0.435904  0.00763226 -0.281258 -0.530336  0.00209236 -0.207431 -0.336481  0.00494194 -0.24368 -0.40483  0.00236988 -0.163499 -0.324702  0.00519013 -0.188265 -0.38429  0.0028789 -0.0802016 -0.409663  0.00326395 -0.040063 -0.376245  0.00794911 -0.158677 -0.489713  0.0029366 -0.12224 -0.305979  0.00576353 -0.137797 -0.354136  0.00344086 -0.0851045 -0.279993  0.00618434 -0.0928348 -0.316262  0.00375819 -0.00653815 -0.336123  0.00418639 0.0195367 -0.291282  0.00852609 -0.0576994 -0.409606  0.00422263 -0.0527635 -0.248583  0.00667453 -0.0557644 -0.271427  0.0046289 -0.0267794 -0.211954  0.00654554 -0.0263668 -0.221782  0.00457025 0.0373172 -0.242376  0.00440049 0.04647 -0.191994  0.00876307 0.00944966 -0.30073  0.00489545 -0.00701946 -0.172207  0.00589299 -0.00677997 -0.168029  0.00438881 0.00519997 -0.129478  0.0042038 0.00470787 -0.112793  0.00403666 0.046819 -0.140238  0.00281024 0.0389556 -0.0903139  0.00667071 0.0354924 -0.177442  0.00315499 0.0104228 -0.0861959  0.00195074 0.00517207 -0.0560269  0.00164986 0.00772864 -0.0420604  0 2.38419e-07 0  0.00138044 0.0219429 -0.0427341  0 1.78814e-07 0  0.00182009 0.0194117 -0.0558491  0 1.78814e-07 0  0.00524387 -0.0257403 0.0897183  0.00196771 -0.0223969 0.0721951  0.00997196 -0.0599913 0.168015  0.00432201 -0.0359822 0.0687156  0.00882882 -0.0843189 0.131025  0 0 0  0 0 0  0.0089647 -0.041293 0.0856242  0 0 0  0.00375073 -0.0567142 0.136722  0.0145447 -0.111552 0.237452  0.00513983 -0.102484 0.191696  0.016844 -0.174131 0.299088  0.0132561 -0.14389 0.181929  0.0159355 -0.211018 0.224256  0.0300007 -0.158235 0.224827  0.00690949 -0.15608 0.241129  0.0190652 -0.247262 0.348619  0.00759065 -0.21866 0.279765  0.0190586 -0.327784 0.386428  0.0169196 -0.284477 0.253276  0.0179107 -0.360951 0.270986  0.0377802 -0.318475 0.318602  0.00871974 -0.28557 0.309488  0.0201739 -0.413162 0.408852  0.00871342 -0.357477 0.325533  0.0193669 -0.501448 0.41728  0.0176445 -0.439196 0.273525  0.0182239 -0.516475 0.264296  0.038482 -0.499044 0.351938  0.00944692 -0.430125 0.331083  0.0202869 -0.58895 0.409228  0.00914735 -0.50286 0.321712  0.0194083 -0.674413 0.38693  0.0177594 -0.59036 0.239817  0.0183111 -0.659452 0.204591  0.0380388 -0.67864 0.321414  0.00975251 -0.572701 0.302032  0.0203801 -0.753517 0.349295  0.00938052 -0.637512 0.26822  0.0195671 -0.825844 0.298975  0.0178761 -0.720126 0.156151  0.0184621 -0.77268 0.0992632  0.0378934 -0.836127 0.23098  0.00996649 -0.696107 0.225683  0.0205997 -0.886984 0.236454  0.00959623 -0.74514 0.171629  0.0198317 -0.937421 0.164331  0.0180722 -0.812805 0.0329003  0.0186843 -0.842445 -0.0386171  0.0380423 -0.952495 0.0918827  0.0101881 -0.785371 0.111503  0.0208913 -0.973228 0.0846243  0.00982749 -0.812701 0.0438838  0.0201303 -0.99569 -0.000442505  0.0183141 -0.85719 -0.114732  0.0189265 -0.860338 -0.192102  0.038324 -1.01368 -0.0787349  0.0104171 -0.829698 -0.0264292  0.0211823 -1.00185 -0.0876093  0.0100476 -0.832036 -0.0993371  0.0203955 -0.993635 -0.175237  0.0185432 -0.847944 -0.268665  0.0191318 -0.824234 -0.342435  0.0386169 -1.01233 -0.260007  0.0106169 -0.823753 -0.171235  0.0214138 -0.96941 -0.259245  0.0102196 -0.800824 -0.240536  0.0205821 -0.931512 -0.338752  0.0187144 -0.786216 -0.410108  0.019266 -0.738529 -0.471274  0.0388457 -0.948636 -0.429836  0.0107558 -0.768268 -0.305243  0.0215571 -0.879823 -0.409364  0.0103235 -0.722849 -0.36248  0.0206823 -0.816826 -0.47105  0.0188104 -0.679502 -0.521794  0.0193315 -0.613624 -0.562877  0.0389817 -0.830321 -0.567514  0.0108312 -0.669961 -0.412094  0.0216236 -0.743929 -0.519626  0.0103767 -0.607555 -0.450253  0.0207303 -0.663453 -0.555926  0.0188544 -0.540755 -0.590053  0.0193682 -0.464694 -0.605991  0.0390408 -0.671739 -0.656207  0.0108831 -0.54074 -0.478678  0.0216596 -0.578196 -0.576474  0.0104439 -0.468931 -0.49304  0.0207884 -0.489998 -0.582881  0.0188999 -0.386849 -0.606449  0.0194399 -0.3099 -0.595234  0.039062 -0.492153 -0.68499  0.0110068 -0.396317 -0.496733  0.0217242 -0.402795 -0.572827  0.0106537 -0.323894 -0.485498  0.020927 -0.317616 -0.548512  0.0190122 -0.236601 -0.568876  0.0195897 -0.168264 -0.531918  0.0390508 -0.313463 -0.650234  0.0113645 -0.254388 -0.464005  0.0218482 -0.239251 -0.509193  0.0111852 -0.19027 -0.428738  0.0211515 -0.167565 -0.457418  0.0191727 -0.108509 -0.482095  0.0196176 -0.0572656 -0.42439  0.0388544 -0.157609 -0.556262  0.0120695 -0.132462 -0.385068  0.0218143 -0.107835 -0.3945  0.0119138 -0.0843256 -0.330919  0.0208285 -0.0584922 -0.32295  0.0188046 -0.0181962 -0.357803  0.0181599 0.00995493 -0.28769  0.0377276 -0.0438128 -0.415649  0.012357 -0.0451583 -0.271657  0.0199671 -0.0238562 -0.246419  0.0108941 -0.017885 -0.206413  0.0165937 -0.0018599 -0.1665  0.0152402 0.0243543 -0.213556  0.0109444 0.0272983 -0.140884  0.0328479 0.0154264 -0.249098  0.00839067 -0.00096184 -0.140175  0.0107307 0.00854623 -0.0853853  0.0017848 0.00305557 -0.0705318  0 3.57628e-07 0  0.00299454 0.0167542 -0.0682697  0 2.98023e-07 0  0.0168591 0.0214068 -0.0807948  0 2.98023e-07 0  -0.000412136 -0.0338763 -0.0562716  -0.00115663 -0.0298939 -0.067894  -0.00209747 -0.061172 -0.119823  0.000442833 -0.0424762 -0.0690041  -0.00553033 -0.0788613 -0.146938  -0.0169204 -0.0400981 -0.0755405  0 0 0  -0.0203343 -0.0319216 -0.0766988  0 1.49012e-08 0  0 7.45058e-09 0  0.00223633 -0.0467531 -0.0568657  0 7.45058e-09 0  -0.0314092 -0.0481504 -0.161761  -0.0102562 -0.0544528 -0.142862  -0.00469902 -0.0771754 -0.189682  -0.0159793 -0.0645604 -0.223342  -0.00646165 -0.081913 -0.260788  -0.0102743 -0.101184 -0.235839  -0.0137796 -0.110619 -0.327176  -0.0353105 -0.0834265 -0.260508  -0.0392922 -0.0526137 -0.253224  0.00214332 -0.117547 -0.203188  -0.0436538 -0.0433956 -0.34673  -0.0197281 -0.0618999 -0.305393  -0.00759506 -0.0735021 -0.33255  -0.0212028 -0.0446773 -0.386794  -0.00786939 -0.0535503 -0.401964  -0.0156061 -0.102342 -0.418912  -0.0170364 -0.0801144 -0.50873  -0.0426157 -0.0704607 -0.462918  -0.0458544 -0.0176999 -0.43835  3.20673e-05 -0.135015 -0.367051  -0.0473301 0.0230597 -0.525653  -0.0224536 -0.0140053 -0.464781  -0.00782967 -0.0209129 -0.466766  -0.0222878 0.0301593 -0.536154  -0.0076794 0.0219621 -0.525584  -0.0172331 -0.04114 -0.592082  -0.017875 0.0106257 -0.668888  -0.0448584 0.00963874 -0.65091  -0.047538 0.0786481 -0.603923  -0.000657976 -0.0952666 -0.526356  -0.0480987 0.147261 -0.672393  -0.0228303 0.086072 -0.599398  -0.0074448 0.0750316 -0.575203  -0.0222718 0.152175 -0.651337  -0.00729555 0.135697 -0.615676  -0.0174922 0.0758782 -0.733641  -0.0178919 0.150939 -0.787856  -0.0453081 0.149199 -0.800003  -0.0477498 0.226361 -0.72687  -0.000596881 -0.0029349 -0.662053  -0.0480663 0.314358 -0.767561  -0.0226807 0.226546 -0.691497  -0.00709933 0.202661 -0.643915  -0.0220525 0.306485 -0.717455  -0.00700849 0.273599 -0.66095  -0.0173566 0.234475 -0.826104  -0.0177072 0.323599 -0.851102  -0.0452166 0.331353 -0.891814  -0.0475873 0.407301 -0.791455  -0.000365496 0.13064 -0.757416  -0.047868 0.503886 -0.799364  -0.0224601 0.390141 -0.729515  -0.00687325 0.346225 -0.664363  -0.0218549 0.474127 -0.72634  -0.00684011 0.418722 -0.655908  -0.0171714 0.415197 -0.858228  -0.0175517 0.50749 -0.851013  -0.0450418 0.533879 -0.915262  -0.0474025 0.599346 -0.789799  -0.000158906 0.288951 -0.800811  -0.0477266 0.692755 -0.76399  -0.0223072 0.556838 -0.708859  -0.00675678 0.488128 -0.634112  -0.021751 0.63463 -0.676981  -0.00677001 0.553333 -0.601235  -0.0170631 0.595979 -0.826187  -0.0174894 0.680194 -0.787671  -0.0449489 0.732119 -0.867592  -0.0473161 0.779117 -0.72217  -3.89814e-05 0.452598 -0.78703  -0.0476904 0.857977 -0.665814  -0.0222502 0.706316 -0.632124  -0.00671983 0.611054 -0.556907  -0.0217288 0.768441 -0.575448  -0.00675321 0.661021 -0.503629  -0.0170413 0.75479 -0.733937  -0.0174925 0.820666 -0.668828  -0.0449476 0.901938 -0.754663  -0.0473156 0.924727 -0.596858  -2.38419e-06 0.601609 -0.71781  -0.047706 0.979438 -0.516841  -0.0222472 0.820372 -0.508696  -0.00670719 0.700021 -0.442181  -0.0217267 0.859261 -0.434139  -0.00672829 0.728656 -0.375002  -0.0170493 0.872275 -0.592743  -0.0174863 0.91178 -0.50898  -0.0449678 1.02265 -0.590263  -0.0473248 1.01845 -0.429163  3.57628e-07 0.717814 -0.601607  -0.0476904 1.04235 -0.335244  -0.0222288 0.885108 -0.353631  -0.00665665 0.744174 -0.303928  -0.0216767 0.896014 -0.270285  -0.00663829 0.747973 -0.231045  -0.0170112 0.934105 -0.419824  -0.0174072 0.942415 -0.327621  -0.0449252 1.07953 -0.394441  -0.0472651 1.04885 -0.239533  3.80278e-05 0.787037 -0.452598  -0.0475827 1.03902 -0.143155  -0.0221364 0.892614 -0.18584  -0.00651884 0.738101 -0.15902  -0.0215364 0.874189 -0.103878  -0.00644529 0.716578 -0.0893412  -0.0168847 0.932721 -0.236266  -0.0172416 0.908797 -0.146871  -0.0447855 1.06563 -0.191066  -0.0471033 1.01222 -0.0510859  0.000158668 0.800817 -0.288951  -0.0473857 0.969821 0.0359993  -0.0219512 0.841928 -0.0258107  -0.00626826 0.682492 -0.0251832  -0.0213144 0.796386 0.0447383  -0.00613666 0.638245 0.0327396  -0.0166967 0.86823 -0.0644722  -0.0170627 0.814939 0.0111814  -0.0446115 0.982561 -0.00494862  -0.0468862 0.912916 0.113173  0.000366449 0.757421 -0.130641  -0.0471928 0.84305 0.180297  -0.0217049 0.739156 0.106846  -0.00590467 0.584079 0.0811195  -0.0210822 0.672009 0.1573  -0.00573277 0.522499 0.120148  -0.0165734 0.74839 0.0745111  -0.0170591 0.672165 0.127096  -0.0446255 0.840323 0.141109  -0.0467732 0.762912 0.233082  0.000598431 0.662055 0.00293493  -0.0472057 0.674015 0.271902  -0.0214684 0.596752 0.195758  -0.00547576 0.454883 0.146718  -0.0209641 0.516115 0.219865  -0.0053699 0.383463 0.1621  -0.0167959 0.587702 0.163528  -0.0176036 0.49776 0.186473  -0.0453081 0.656116 0.229053  -0.0470321 0.580283 0.29374  0.000658751 0.526355 0.0952668  -0.0476451 0.483115 0.299263  -0.0212777 0.431917 0.229863  -0.00512385 0.310561 0.163597  -0.0208566 0.347232 0.224644  -0.00524044 0.237632 0.15371  -0.0178392 0.405459 0.19155  -0.0189459 0.312464 0.182112  -0.0474129 0.451977 0.247886  -0.0475597 0.386638 0.287337  -3.14713e-05 0.367048 0.135015  -0.0474393 0.292802 0.258483  -0.0205002 0.263849 0.204962  -0.00436878 0.167943 0.130057  -0.0184226 0.184359 0.17089  -0.0033505 0.101572 0.0967345  -0.0190206 0.222571 0.154898  -0.0170612 0.13691 0.114856  -0.0490177 0.250439 0.194079  -0.0444219 0.203934 0.213799  -0.00214338 0.203186 0.117548  -0.0356517 0.124871 0.154897  -0.0143049 0.110985 0.124879  -0.000969648 0.046421 0.0512462  -0.00599074 0.0495726 0.065794  0 -2.23517e-07 0  -0.00930047 0.0631882 0.0598011  0 -2.90573e-07 4.76837e-07  -0.0156624 0.0748512 0.0733533  -0.0114462 0.0581121 0.0821061  -0.00223637 0.0568648 0.0467539  0 -3.57628e-07 0  0 -2.90573e-07 0  -0.000876464 -0.0398836 -0.0314493  -0.000226989 -0.0367744 -0.0443144  -0.000993133 -0.0735959 -0.0700107  0.000970066 -0.051245 -0.046422  0.00335047 -0.0967331 -0.101574  0 0 0  0 0 0  0.000236362 -0.0543598 -0.032608  0 0 0  -0.000384212 -0.0675215 -0.0956626  -0.00117213 -0.0999058 -0.115693  -0.0012113 -0.088578 -0.153524  -0.00104079 -0.119245 -0.164359  0.00436878 -0.130056 -0.167944  0.00524086 -0.15371 -0.237635  0.0032998 -0.141606 -0.128663  -0.00204462 -0.100554 -0.213946  -0.000777751 -0.129056 -0.216056  -0.00194609 -0.101249 -0.275656  -0.000299513 -0.130987 -0.268125  0.00512412 -0.163597 -0.310564  0.00537032 -0.162101 -0.383466  0.00512683 -0.191746 -0.249318  -0.00202265 -0.0919092 -0.336549  0.000125647 -0.12292 -0.319926  -0.00158304 -0.0715281 -0.394789  0.000672817 -0.106899 -0.369394  0.00547659 -0.146718 -0.454884  0.00573325 -0.120148 -0.5225  0.00603849 -0.198944 -0.378548  -0.00129616 -0.0416744 -0.448816  0.0010221 -0.0815541 -0.415193  -0.000957668 -0.00243989 -0.496486  0.00142413 -0.0494028 -0.456064  0.00590527 -0.0811196 -0.584076  0.00613737 -0.0327405 -0.638241  0.00668734 -0.161502 -0.501715  -0.000695229 0.0443179 -0.536857  0.00162667 -0.00976041 -0.49024  -0.000487328 0.0976512 -0.568031  0.00187886 0.0345886 -0.517464  0.00626904 0.0251822 -0.682487  0.00644529 0.0893397 -0.716573  0.00715107 -0.0837833 -0.604156  -0.000322104 0.155522 -0.589746  0.00196362 0.0836509 -0.535825  -0.000205398 0.216391 -0.60059  0.00211692 0.134725 -0.546067  0.00651896 0.15902 -0.738096  0.00663757 0.231044 -0.747967  0.00744319 0.0246363 -0.673372  -0.00011909 0.27825 -0.601012  0.00212717 0.187172 -0.54639  -6.48499e-05 0.339187 -0.590223  0.00222528 0.238705 -0.53842  0.00665617 0.303928 -0.744167  0.00672686 0.375003 -0.72865  0.00760198 0.150385 -0.700943  -3.08752e-05 0.397464 -0.56933  0.002195 0.288117 -0.520687  -1.23978e-05 0.451021 -0.538244  0.00226831 0.333813 -0.495496  0.00670588 0.442183 -0.700016  0.00675106 0.503633 -0.661018  0.00766885 0.278051 -0.683556  -8.34465e-07 0.498604 -0.4986  0.00222743 0.374159 -0.461876  1.03712e-05 0.538249 -0.451018  0.00230443 0.408445 -0.42254  0.00671804 0.556911 -0.611052  0.00676811 0.60124 -0.553332  0.00769234 0.392044 -0.623363  2.89679e-05 0.569336 -0.397462  0.00228167 0.434803 -0.377131  6.35386e-05 0.590229 -0.339187  0.00239384 0.453488 -0.328446  0.00675547 0.634118 -0.488128  0.0068388 0.655915 -0.418722  0.00773084 0.478462 -0.527707  0.000118136 0.601019 -0.278251  0.00242352 0.462627 -0.276782  0.000204563 0.600597 -0.216393  0.0026083 0.463412 -0.224691  0.00687242 0.66437 -0.346226  0.00700808 0.660956 -0.273601  0.00784421 0.526745 -0.408233  0.000321627 0.589752 -0.155524  0.00273442 0.454187 -0.173087  0.000487328 0.568037 -0.0976524  0.00304341 0.436956 -0.123974  0.00709963 0.643921 -0.202662  0.00729632 0.615682 -0.135697  0.00809288 0.530944 -0.279503  0.000695467 0.536862 -0.0443182  0.00331712 0.410482 -0.0787787  0.000958204 0.496488 0.00244045  0.00381041 0.377379 -0.03866  0.00744605 0.575206 -0.0750313  0.00768018 0.525586 -0.0219612  0.00854874 0.490479 -0.157274  0.00129676 0.448816 0.0416746  0.00422049 0.337025 -0.00548172  0.00158405 0.394789 0.071528  0.00482249 0.292241 0.0208406  0.00783086 0.466765 0.0209131  0.00786996 0.401962 0.0535512  0.0092504 0.410475 -0.0566063  0.00202322 0.336547 0.0919089  0.00503182 0.243399 0.0379572  0.00194621 0.275653 0.10125  0.00507045 0.19261 0.047502  0.00759554 0.332547 0.0735025  0.00646186 0.260786 0.0819135  0.00970507 0.301707 0.0102391  0.00204515 0.213943 0.100554  0.00426555 0.141469 0.0470099  0.00121164 0.153522 0.0885782  0.00299644 0.090995 0.0388951  0.00469947 0.189679 0.0771756  0.00209761 0.119822 0.0611725  0.00769615 0.178781 0.0359759  0.000384569 0.0956602 0.067522  0.00131249 0.0433665 0.0221095  0.000227213 0.0443133 0.0367751  0 -1.19209e-07 0  0.000412703 0.0562711 0.0338769  0 -1.78814e-07 4.76837e-07  0.00148439 0.0559662 0.0192361  0 -1.78814e-07 0  -0.00190333 -0.0421984 -0.00555801  -0.00156882 -0.0412346 -0.0187364  -0.00334135 -0.0831077 -0.0168681  -0.0013407 -0.0559947 -0.0208697  -0.00159046 -0.107661 -0.0498128  0 0 0  0 0 0  -0.00198359 -0.0564874 -0.00726652  0 0 0  -0.00246274 -0.0786481 -0.0438294  -0.00410156 -0.120455 -0.0358706  -0.00262597 -0.110219 -0.0760241  -0.00413084 -0.15519 -0.0601382  -0.000881553 -0.15133 -0.0894771  0.000445336 -0.189331 -0.134497  -0.00415921 -0.160278 -0.0478029  -0.0023742 -0.137076 -0.112768  -0.00376084 -0.184595 -0.0907521  -0.00180459 -0.156692 -0.153874  -0.00314027 -0.209785 -0.125201  0.00115785 -0.218322 -0.186535  0.00207144 -0.239777 -0.241446  -0.00334716 -0.245123 -0.12086  -0.0012534 -0.170014 -0.197325  -0.00256008 -0.22774 -0.163967  -0.0005427 -0.175002 -0.242535  -0.00194961 -0.239968 -0.204779  0.00253624 -0.250222 -0.299887  0.00309455 -0.251871 -0.358469  -0.00204307 -0.302543 -0.218336  -1.63317e-05 -0.172885 -0.287694  -0.00151181 -0.243728 -0.247313  0.000506938 -0.162131 -0.33177  -0.0010854 -0.241208 -0.289745  0.00338459 -0.241792 -0.416789  0.00376886 -0.223143 -0.47217  -0.00117373 -0.323918 -0.329339  0.000868201 -0.144601 -0.373329  -0.000826836 -0.23004 -0.330914  0.00118226 -0.119249 -0.410919  -0.000562131 -0.212985 -0.369819  0.00391847 -0.193523 -0.52334  0.00419223 -0.156845 -0.568793  -0.000635743 -0.305808 -0.440701  0.00138605 -0.0883991 -0.443815  -0.000433445 -0.188233 -0.40457  0.00155795 -0.0515635 -0.470308  -0.000272274 -0.158747 -0.435186  0.00424159 -0.111321 -0.606546  0.00443947 -0.0611614 -0.636532  -0.000299215 -0.250289 -0.538852  0.00165629 -0.0112008 -0.490522  -0.00022161 -0.123473 -0.459269  0.0017482 0.0325717 -0.502687  -0.000119448 -0.0851917 -0.47786  0.00442255 -0.00535911 -0.656266  0.00456917 0.0521125 -0.667146  -9.62019e-05 -0.164232 -0.611804  0.00178587 0.0774832 -0.507766  -0.000113368 -0.0437272 -0.488346  0.00183606 0.122825 -0.504135  -4.22001e-05 -0.00133479 -0.492654  0.00450981 0.11135 -0.666481  0.00462484 0.169107 -0.656948  1.44243e-05 -0.0582176 -0.650684  0.00184369 0.166794 -0.493474  -5.66244e-05 0.0412576 -0.48827  0.00188005 0.20817 -0.474499  6.67572e-06 0.0825915 -0.477772  0.00454545 0.224549 -0.635977  0.00465345 0.275549 -0.607194  6.55651e-05 0.0547998 -0.65078  0.00188565 0.245834 -0.449399  -4.76837e-07 0.121119 -0.459039  0.00193691 0.278196 -0.417387  8.74996e-05 0.156349 -0.434999  0.00458252 0.320436 -0.56847  0.00471282 0.358452 -0.523934  0.000102639 0.161045 -0.612069  0.00197291 0.304956 -0.380902  0.000127673 0.186098 -0.404182  0.00207782 0.324342 -0.339746  0.00028944 0.210904 -0.36952  0.00468349 0.387293 -0.472156  0.00487161 0.407661 -0.417284  0.000189066 0.247541 -0.539225  0.00218916 0.336908 -0.296321  0.000436783 0.228209 -0.33037  0.00240207 0.340921 -0.251047  0.000740767 0.239532 -0.289324  0.00492382 0.416891 -0.358761  0.00521636 0.417085 -0.300256  0.000413895 0.303662 -0.441089  0.00264597 0.337736 -0.206001  0.00106525 0.24226 -0.246627  0.00303626 0.325884 -0.162166  0.00158453 0.238749 -0.204233  0.00541091 0.405552 -0.242161  0.00585747 0.385585 -0.187191  0.000905275 0.322473 -0.329632  0.00345564 0.307387 -0.121027  0.00210524 0.22666 -0.163172  0.00404215 0.281273 -0.083993  0.00285244 0.208951 -0.124524  0.00628018 0.354911 -0.136657  0.00682712 0.317497 -0.0918808  0.00184751 0.301812 -0.218422  0.00456905 0.249969 -0.0516963  0.00332117 0.183907 -0.090003  0.00502563 0.213207 -0.0258365  0.00391531 0.154491 -0.0595474  0.00730658 0.272272 -0.0548358  0.00733256 0.222582 -0.0255761  0.00329208 0.245059 -0.120711  0.00526428 0.173291 -0.00606537  0.00365829 0.120215 -0.0354381  0.00452757 0.130606 0.00588989  0.0028162 0.0829777 -0.0169735  0.00662518 0.169191 -0.00558281  0.00470328 0.113774 0.00491333  0.00419569 0.160828 -0.047545  0.00338602 0.0870367 0.0108547  0.00160718 0.0416958 -0.00525808  0.00181317 0.0425789 0.00854826  0 0 0  0.00217104 0.0566891 0.00644207  0 -5.96046e-08 4.76837e-07  0.00162196 0.0569767 -0.0074439  0 -5.96046e-08 0  -0.00158679 -0.0429111 0.0215645  -0.00208806 -0.0427029 0.00802422  -0.00337449 -0.0913745 0.0382934  -0.00230008 -0.0563626 0.00591516  -0.00491622 -0.114039 0.00492764  0 0 0  0 0 0  -0.00211632 -0.0559402 0.0191789  0 0 0  -0.00384411 -0.087185 0.0105658  -0.00447012 -0.141634 0.046247  -0.00495407 -0.13082 0.00529003  -0.00513726 -0.193387 0.0463958  -0.00672919 -0.169552 -0.00618029  -0.00749311 -0.223389 -0.0256877  -0.00737913 -0.178767 0.0350628  -0.00533769 -0.173924 -0.00668049  -0.00516534 -0.24395 0.0369387  -0.00517577 -0.213853 -0.0264969  -0.00492501 -0.293154 0.0196414  -0.0073975 -0.273301 -0.0553026  -0.00702727 -0.318685 -0.0921144  -0.00954187 -0.301898 0.00930452  -0.00470239 -0.25097 -0.0524173  -0.00450021 -0.337863 -0.00659227  -0.00410867 -0.282458 -0.0847354  -0.00412577 -0.378474 -0.0396671  -0.00652939 -0.356606 -0.13718  -0.0061878 -0.387267 -0.187424  -0.00934535 -0.410982 -0.0572996  -0.00358611 -0.308812 -0.121739  -0.00372875 -0.411552 -0.0797167  -0.00310433 -0.327476 -0.16291  -0.00347173 -0.438335 -0.124721  -0.00577998 -0.407687 -0.242819  -0.00558931 -0.419268 -0.300503  -0.00883502 -0.491359 -0.157627  -0.00274646 -0.339543 -0.20666  -0.00318688 -0.455517 -0.17371  -0.00244844 -0.342825 -0.251699  -0.00303584 -0.465083 -0.225154  -0.00528133 -0.419311 -0.359493  -0.0051803 -0.410251 -0.417568  -0.00843674 -0.532284 -0.279488  -0.00223315 -0.339014 -0.296877  -0.00283229 -0.464244 -0.277043  -0.00205922 -0.32649 -0.340247  -0.00274658 -0.45543 -0.328617  -0.00494254 -0.389888 -0.472901  -0.00489998 -0.361316 -0.524263  -0.00812376 -0.528586 -0.407898  -0.00193536 -0.307278 -0.381322  -0.00259626 -0.436708 -0.377043  -0.00183225 -0.280519 -0.417715  -0.0025537 -0.410621 -0.422441  -0.00471568 -0.323091 -0.569179  -0.00471866 -0.278537 -0.607568  -0.00788105 -0.480783 -0.527141  -0.00176382 -0.248283 -0.449669  -0.00244296 -0.376323 -0.461492  -0.00170243 -0.21058 -0.474649  -0.00243449 -0.336158 -0.495175  -0.00457764 -0.227143 -0.636606  -0.00461757 -0.172052 -0.657352  -0.00771534 -0.39477 -0.622682  -0.00166833 -0.169266 -0.49359  -0.00235283 -0.290469 -0.520085  -0.00162995 -0.125219 -0.504112  -0.00236595 -0.241119 -0.537938  -0.00450766 -0.113757 -0.666978  -0.00456941 -0.0548432 -0.667548  -0.00762498 -0.281042 -0.682879  -0.00161099 -0.0798627 -0.507725  -0.00229573 -0.189601 -0.54565  -0.0015732 -0.0348395 -0.50249  -0.00230598 -0.137079 -0.545471  -0.00446939 0.00325304 -0.656571  -0.00452673 0.0588027 -0.636868  -0.00758398 -0.153448 -0.700366  -0.0015378 0.00902754 -0.490312  -0.00221109 -0.0860214 -0.535012  -0.00146163 0.0495244 -0.469932  -0.00217295 -0.0367524 -0.516789  -0.00440204 0.1096 -0.606592  -0.00441349 0.154977 -0.568986  -0.00754046 -0.0275522 -0.672943  -0.00135863 0.0865263 -0.443423  -0.00199652 0.00757658 -0.489404  -0.00118303 0.117515 -0.410363  -0.00184798 0.0475276 -0.455344  -0.00421572 0.192224 -0.523073  -0.00412631 0.221829 -0.472143  -0.00741291 0.0812132 -0.603876  -0.000944614 0.143089 -0.372755  -0.00153303 0.0796587 -0.414379  -0.000597239 0.160752 -0.331062  -0.00123358 0.105372 -0.368692  -0.00379372 0.240917 -0.416193  -0.00354028 0.251122 -0.358173  -0.00710917 0.159439 -0.501559  -0.000184536 0.171758 -0.286982  -0.000804901 0.12137 -0.319167  0.000370264 0.174026 -0.241738  -0.000404119 0.129838 -0.267529  -0.00297403 0.249777 -0.298982  -0.00250626 0.239524 -0.240869  -0.00654554 0.197515 -0.378461  0.000847101 0.169279 -0.196579  -4.72069e-05 0.12779 -0.215343  0.00151396 0.156163 -0.153077  0.000410557 0.118329 -0.163874  -0.00152326 0.218299 -0.185364  -0.000757217 0.189267 -0.133897  -0.0055511 0.190974 -0.249256  0.00188208 0.136625 -0.11213  0.000429153 0.0990763 -0.115242  0.00201201 0.109972 -0.075407  0.00054431 0.0732345 -0.0700769  0.000333071 0.151552 -0.0881886  0.00108767 0.107788 -0.0501757  -0.00361967 0.141633 -0.128913  0.00250077 0.0786192 -0.0435395  0.0010097 0.0385106 -0.0310354  0.00158143 0.0404624 -0.0180659  0 1.19209e-07 0  0.00113964 0.0562019 -0.0199084  0 5.96046e-08 4.76837e-07  6.50883e-05 0.0548193 -0.0325437  0 5.96046e-08 0  0.00150776 -0.0450893 0.0500813  -0.00043495 -0.0437581 0.0360317  0.00359662 -0.102096 0.0953732  -0.000519559 -0.0561486 0.0329337  -0.00235248 -0.120743 0.0602045  0 0 0  0 0 0  0.00178784 -0.0576046 0.0459003  0 0 0  -0.000949636 -0.0962661 0.0666337  0.00490978 -0.167893 0.12895  -0.0015482 -0.154 0.087616  0.00537032 -0.237893 0.152288  -0.0047701 -0.190401 0.0762725  -0.00673503 -0.261875 0.0810328  0.00260282 -0.203972 0.115309  -0.0019719 -0.214819 0.099668  0.00569639 -0.310639 0.162601  -0.00222757 -0.276406 0.100357  0.00548464 -0.384094 0.160921  -0.00782746 -0.333678 0.0725899  -0.00831214 -0.403332 0.0527191  0.000519723 -0.367365 0.132498  -0.00207341 -0.337806 0.0910444  0.0058077 -0.45526 0.146029  -0.00194031 -0.395926 0.070713  0.00553244 -0.523453 0.119261  -0.00840694 -0.468262 0.0200334  -0.00842041 -0.527205 -0.0227752  -0.000606775 -0.5264 0.0931878  -0.00160182 -0.450414 0.0408325  0.00595069 -0.584868 0.0808077  -0.00144547 -0.497963 0.00172472  0.00569165 -0.63951 0.032177  -0.00827312 -0.576967 -0.0758929  -0.00822192 -0.617553 -0.136438  -0.000907004 -0.661984 0.00150108  -0.00113726 -0.538755 -0.045104  0.00615585 -0.683748 -0.0250964  -0.00104761 -0.569804 -0.0981984  0.00591958 -0.718163 -0.0895677  -0.00801992 -0.645882 -0.203426  -0.00795263 -0.663049 -0.274216  -0.000843942 -0.757444 -0.131281  -0.000786543 -0.591868 -0.156199  0.0064019 -0.739857 -0.158569  -0.000741363 -0.602628 -0.216722  0.00617528 -0.749883 -0.230943  -0.00773835 -0.666498 -0.346823  -0.00767469 -0.65818 -0.419171  -0.000612497 -0.801152 -0.288751  -0.000514865 -0.603289 -0.278764  0.00665176 -0.746431 -0.303202  -0.000500321 -0.592488 -0.339296  0.00641108 -0.73088 -0.374624  -0.00747836 -0.636378 -0.488523  -0.00744045 -0.603624 -0.553602  -0.000337601 -0.787872 -0.451619  -0.000305891 -0.571698 -0.39779  0.00686097 -0.702727 -0.441316  -0.000322461 -0.540677 -0.450941  0.00658751 -0.663506 -0.503068  -0.00728202 -0.559248 -0.611251  -0.00728428 -0.50606 -0.661128  -0.000106812 -0.719279 -0.600023  -0.000162959 -0.50098 -0.498748  0.00699961 -0.614082 -0.556055  -0.000211477 -0.453517 -0.538029  0.00668883 -0.555961 -0.600598  -0.00716865 -0.444512 -0.700043  -0.00720882 -0.37736 -0.728628  3.56436e-05 -0.60373 -0.715867  -8.17776e-05 -0.399747 -0.569311  0.00706947 -0.491274 -0.633401  -0.000151277 -0.341618 -0.589911  0.00673473 -0.421322 -0.655277  -0.00712264 -0.30613 -0.744041  -0.00718105 -0.233195 -0.747818  9.25064e-05 -0.455277 -0.784998  -2.95639e-05 -0.280319 -0.600825  0.00710618 -0.349246 -0.663859  -9.2268e-05 -0.218609 -0.600195  0.00677586 -0.275989 -0.660351  -0.0071007 -0.160966 -0.73781  -0.00714648 -0.0911641 -0.716269  9.87053e-05 -0.291997 -0.798916  6.24657e-05 -0.157267 -0.589366  0.00717187 -0.20533 -0.643616  5.26905e-05 -0.0995346 -0.56754  0.00687885 -0.137751 -0.615097  -0.00703979 -0.0267827 -0.682014  -0.00703645 0.0313026 -0.637743  9.60827e-05 -0.133826 -0.755823  0.000297785 -0.0456908 -0.536253  0.0073216 -0.0771974 -0.575072  0.000386715 0.0009498 -0.495886  0.00705481 -0.0236565 -0.525045  -0.00688457 0.0799055 -0.583395  -0.00681305 0.119088 -0.521813  8.98838e-05 -0.000179052 -0.660891  0.000754356 0.0406272 -0.448002  0.00744891 0.0193213 -0.466754  0.000907421 0.0704448 -0.394096  0.00697732 0.0522158 -0.40161  -0.00663948 0.145912 -0.453987  -0.00652719 0.161407 -0.38265  -6.69956e-05 0.0924727 -0.525737  0.00125766 0.0910775 -0.335657  0.00680566 0.0724715 -0.33252  0.00122023 0.100587 -0.274824  0.00541329 0.0811619 -0.260795  -0.00631356 0.163202 -0.309451  -0.00624132 0.153298 -0.236899  -0.00088501 0.132889 -0.366977  0.000980139 0.0999199 -0.213246  0.00380445 0.0761937 -0.18935  0.000424385 0.0879258 -0.152848  0.0017333 0.0605845 -0.119495  -0.00545359 0.129977 -0.166764  -0.00400829 0.0963233 -0.102417  -0.00310469 0.116281 -0.203753  0.000902176 0.0670667 -0.0950665  0.00101566 0.0325566 -0.0554228  0.000630379 0.0359032 -0.0435905  0 2.38419e-07 0  -0.00104928 0.0509555 -0.045352  0 1.78814e-07 4.76837e-07  -0.0011363 0.0468215 -0.0564218  0 1.78814e-07 0  0.0146034 -0.0604804 0.0800471  0.00793511 -0.0494155 0.064847  0.0354594 -0.124482 0.153693  0.00924551 -0.0630785 0.0578399  0.0166368 -0.136995 0.113352  0 0 0  0 0 0  0.0163101 -0.0748099 0.0709066  0 0 0  0.0147164 -0.111629 0.123734  0.0430088 -0.205138 0.21083  0.0184907 -0.184999 0.168998  0.0467614 -0.293231 0.257484  0.0193561 -0.222892 0.154212  0.0195317 -0.313215 0.181525  0.0493939 -0.249038 0.191847  0.020821 -0.264005 0.203903  0.0473786 -0.387378 0.28385  0.0211323 -0.347742 0.223179  0.0471308 -0.484724 0.298008  0.0182057 -0.406275 0.191061  0.0174571 -0.499438 0.186283  0.049673 -0.451395 0.246723  0.0215516 -0.432966 0.229291  0.0465941 -0.580657 0.290595  0.0210552 -0.516964 0.218894  0.0461393 -0.676014 0.270603  0.01648 -0.588993 0.163286  0.0162078 -0.674384 0.126851  0.0463362 -0.656015 0.228713  0.0212861 -0.598459 0.195367  0.0457942 -0.762899 0.230616  0.0208141 -0.673196 0.156687  0.0456759 -0.845149 0.17902  0.0157527 -0.750149 0.0744019  0.0158158 -0.817535 0.010797  0.0447991 -0.840766 0.141421  0.0211675 -0.741314 0.106513  0.0455841 -0.912661 0.111586  0.0208134 -0.797904 0.0444517  0.0456845 -0.971898 0.0348396  0.015636 -0.870412 -0.0645003  0.0158789 -0.911636 -0.147375  0.0444381 -0.983663 -0.00412369  0.021271 -0.844414 -0.0261126  0.0457364 -1.01193 -0.0516591  0.021 -0.876041 -0.103848  0.0459335 -1.04102 -0.144075  0.0158262 -0.935265 -0.236228  0.0161433 -0.945373 -0.328198  0.0445924 -1.06744 -0.189852  0.0215055 -0.895324 -0.186105  0.0460358 -1.04879 -0.239048  0.021264 -0.898197 -0.269976  0.046248 -1.04425 -0.335832  0.016121 -0.936936 -0.419748  0.0164382 -0.91474 -0.509593  0.0449239 -1.08204 -0.392997  0.0217677 -0.887941 -0.353862  0.0463367 -1.01884 -0.427707  0.0215104 -0.861739 -0.433633  0.0465155 -0.981254 -0.517063  0.0163893 -0.875286 -0.592685  0.0166659 -0.823498 -0.669455  0.0452445 -1.0258 -0.588798  0.0219814 -0.823207 -0.508914  0.0465581 -0.925756 -0.594645  0.0216841 -0.771121 -0.574856  0.046685 -0.859681 -0.665681  0.0165652 -0.757827 -0.73396  0.016789 -0.682742 -0.78829  0.0454648 -0.905568 -0.753401  0.0221109 -0.708996 -0.632346  0.046676 -0.780832 -0.7195  0.0217717 -0.637351 -0.676404  0.0467573 -0.694294 -0.763536  0.0166389 -0.598833 -0.826325  0.0168214 -0.509583 -0.851562  0.0455648 -0.735952 -0.866725  0.0221645 -0.559182 -0.709068  0.0467116 -0.601677 -0.786992  0.0218002 -0.476693 -0.725834  0.046766 -0.505198 -0.798608  0.0166396 -0.417649 -0.858451  0.0167959 -0.325107 -0.851466  0.0455701 -0.537578 -0.91489  0.0221779 -0.391995 -0.72964  0.046694 -0.410087 -0.788792  0.0218081 -0.308714 -0.717014  0.0467155 -0.315432 -0.7665  0.0165913 -0.236357 -0.826315  0.0167131 -0.151837 -0.787898  0.0455019 -0.334597 -0.891915  0.0221806 -0.227839 -0.691433  0.0465884 -0.229418 -0.724566  0.0218003 -0.153964 -0.650917  0.0464761 -0.148203 -0.671049  0.0164483 -0.0771309 -0.733726  0.0164528 -0.011017 -0.668529  0.0452888 -0.151762 -0.800467  0.022115 -0.0868793 -0.599064  0.0461276 -0.0817621 -0.602164  0.0216012 -0.0314901 -0.535691  0.0454943 -0.0240892 -0.524169  0.0159454 0.0404788 -0.59194  0.0155642 0.0800428 -0.507997  0.0445912 -0.0114167 -0.651571  0.0215895 0.0134728 -0.464176  0.044322 0.014919 -0.437168  0.0203807 0.0437455 -0.386094  0.0419214 0.0420146 -0.345343  0.0142848 0.102117 -0.418413  0.0128858 0.110486 -0.326275  0.0423579 0.0693884 -0.463529  0.0191758 0.0613043 -0.304536  0.0380156 0.0507312 -0.252418  0.0155938 0.0636373 -0.222145  0.030555 0.046109 -0.160957  0.00986314 0.101189 -0.234841  0.00542998 0.078477 -0.147593  0.0357594 0.0827187 -0.260742  0.0107324 0.053096 -0.141964  0.0193019 0.0321161 -0.0770407  0.00161767 0.0298074 -0.0674982  0 3.57628e-07 0  -0.000367165 0.0417101 -0.0679994  0 2.98023e-07 4.76837e-07  0.018064 0.0403125 -0.0752587  0 2.98023e-07 0  0.00930055 -0.0598005 -0.063189  0.00895178 -0.0510017 -0.0742092  0.0170617 -0.114856 -0.136912  0.0165382 -0.0639748 -0.0885115  0.03814 -0.124313 -0.18397  0.0133944 -0.0486986 -0.0963602  0 0 0  -0.0103427 -0.0441137 -0.080513  0 1.49012e-08 0  0 7.45058e-09 0  0.0156628 -0.0733529 -0.0748525  0 7.45058e-09 0  -0.0145777 -0.0810607 -0.171324  0.0087878 -0.0998272 -0.158504  0.0190215 -0.154897 -0.222574  0.00644615 -0.135168 -0.255029  0.0189463 -0.182112 -0.312467  0.0380192 -0.170258 -0.287035  0.0347761 -0.199405 -0.39525  0.0107011 -0.140518 -0.309771  -0.0194091 -0.111908 -0.277016  0.0490176 -0.194078 -0.250442  -0.0241653 -0.125697 -0.386659  0.00395885 -0.154638 -0.354948  0.0178397 -0.19155 -0.405462  0.00211555 -0.155778 -0.456767  0.0176039 -0.186475 -0.497763  0.0327793 -0.207211 -0.505948  0.0308831 -0.197532 -0.615571  0.00349703 -0.165043 -0.545754  -0.0263425 -0.119583 -0.497156  0.0474124 -0.247886 -0.45198  -0.028231 -0.0963517 -0.605337  0.000856757 -0.14033 -0.556804  0.0167967 -0.163528 -0.587703  0.000156283 -0.106603 -0.652041  0.0170603 -0.127096 -0.672165  0.0299469 -0.166712 -0.721353  0.0293543 -0.120169 -0.820384  0.000565529 -0.107782 -0.773168  -0.0289344 -0.052973 -0.706215  0.0453085 -0.229054 -0.656116  -0.0294834 0.00564538 -0.799465  -0.00020206 -0.0579121 -0.740317  0.0165749 -0.0745114 -0.748388  -0.000340819 0.00648794 -0.817777  0.0170637 -0.011182 -0.814937  0.0290785 -0.0547786 -0.90871  0.0290266 0.0229487 -0.985461  -0.000237823 0.0237334 -0.965808  -0.0295846 0.0808976 -0.878861  0.0446265 -0.141109 -0.84032  -0.0296623 0.167846 -0.946034  -0.000350773 0.0825281 -0.88372  0.0166975 0.0644714 -0.868226  -0.000293553 0.169621 -0.934113  0.0172423 0.146869 -0.908792  0.029017 0.114723 -1.04569  0.0291306 0.214095 -1.09089  -0.000260472 0.213267 -1.10096  -0.0295601 0.265714 -0.994517  0.0446128 0.00494884 -0.982557  -0.0295159 0.370379 -1.02758  -0.000209212 0.263687 -0.969768  0.0168847 0.236265 -0.932715  -0.000124693 0.36279 -0.987052  0.0174063 0.327621 -0.942407  0.0291754 0.320971 -1.11579  0.0292914 0.42983 -1.12401  -8.92878e-05 0.437617 -1.16246  -0.0293924 0.478913 -1.03938  0.0447857 0.191066 -1.06562  -0.0293658 0.588547 -1.0344  -5.65052e-05 0.463389 -0.988139  0.0170103 0.419824 -0.9341  -1.26362e-05 0.56241 -0.970265  0.0174845 0.508981 -0.911775  0.0292975 0.538767 -1.11062  0.0293623 0.64384 -1.0809  2.32458e-05 0.669426 -1.14299  -0.0292912 0.694528 -1.00813  0.0449245 0.394441 -1.07952  -0.0293196 0.795786 -0.965749  7.7486e-06 0.657279 -0.93669  0.0170468 0.592745 -0.872271  7.86781e-06 0.744153 -0.885863  0.0174896 0.668831 -0.820663  0.0293188 0.741565 -1.03088  0.0293447 0.830047 -0.966851  2.21729e-05 0.880461 -1.045  -0.0292902 0.886306 -0.904647  0.044965 0.590266 -1.02264  -0.0293491 0.966854 -0.830044  -1.66893e-06 0.821731 -0.821728  0.0170387 0.733942 -0.754788  -1.14441e-05 0.885867 -0.744151  0.0174872 0.787677 -0.680193  0.0292856 0.904651 -0.886303  0.0293163 0.965753 -0.795784  -2.76566e-05 1.045 -0.880458  -0.0293232 1.03088 -0.741563  0.044944 0.754667 -0.901936  -0.0293658 1.0809 -0.643837  -1.06096e-05 0.936695 -0.657278  0.0170615 0.826194 -0.595979  1.09673e-05 0.970272 -0.56241  0.0175502 0.85102 -0.507491  0.0292892 1.00814 -0.694528  0.0293654 1.0344 -0.588547  -2.49147e-05 1.143 -0.669425  -0.0292991 1.11063 -0.538766  0.0449469 0.867598 -0.732118  -0.0292916 1.12402 -0.42983  5.53131e-05 0.988146 -0.463389  0.0171708 0.858235 -0.415197  0.000124812 0.987058 -0.36279  0.0177073 0.851109 -0.323599  0.0293922 1.03939 -0.478912  0.0295165 1.02759 -0.370379  9.0003e-05 1.16247 -0.437617  -0.0291746 1.1158 -0.320971  0.0450414 0.915269 -0.533878  -0.0291291 1.0909 -0.214096  0.00020957 0.969774 -0.263688  0.0173576 0.82611 -0.234476  0.000294924 0.934117 -0.169622  0.0178936 0.787861 -0.150939  0.0295618 0.994521 -0.265714  0.0296643 0.946036 -0.167846  0.000262499 1.10096 -0.213266  -0.0290153 1.0457 -0.114723  0.045218 0.89182 -0.331353  -0.0290244 0.985464 -0.0229492  0.000351906 0.883723 -0.0825286  0.017494 0.733644 -0.0758777  0.000342607 0.817778 -0.00648785  0.0178766 0.668887 -0.0106249  0.0295858 0.878862 -0.0808964  0.0294847 0.799463 -0.00564289  0.000239611 0.965809 -0.0237317  -0.0290771 0.908713 0.0547791  0.0453103 0.800005 -0.149198  -0.0293531 0.820383 0.120169  0.000203371 0.740317 0.0579123  0.0172341 0.592081 0.0411401  -0.00015521 0.652039 0.106604  0.0170372 0.508729 0.0801134  0.0289347 0.706213 0.0529747  0.0282307 0.605332 0.0963516  -0.000565052 0.773165 0.107784  -0.0299459 0.721352 0.166713  0.0448594 0.650909 -0.00963688  -0.0308831 0.615569 0.197532  -0.0008564 0.556801 0.140328  0.0156069 0.41891 0.102343  -0.00211549 0.456763 0.155777  0.0137799 0.327173 0.11062  0.0263419 0.497152 0.119582  0.0241644 0.386655 0.125698  -0.00349832 0.545748 0.165043  -0.0327797 0.505944 0.20721  0.0426157 0.462916 0.0704613  -0.0347767 0.395246 0.199405  -0.0039587 0.354945 0.154638  0.0102744 0.235837 0.101185  -0.00644588 0.255026 0.13517  0.00553036 0.146937 0.0788627  0.0194087 0.277013 0.11191  0.0145781 0.171323 0.0810614  -0.0107017 0.309767 0.14052  -0.0380194 0.287032 0.170259  0.0353103 0.260505 0.0834274  -0.0381401 0.183969 0.124312  -0.00878739 0.158503 0.0998278  -0.000442982 0.0690032 0.0424771  -0.00895166 0.074207 0.0510025  0 -2.23517e-07 4.76837e-07  0.0103428 0.080511 0.0441141  0 -2.90573e-07 4.76837e-07  -0.0133944 0.0963577 0.0486994  -0.0165381 0.088509 0.0639758  0.0169208 0.0755387 0.0400987  0 -3.57628e-07 4.76837e-07  0 -2.90573e-07 4.76837e-07  0.00383928 -0.0711514 -0.0360365  0.00599102 -0.0657936 -0.0495734  0.00898203 -0.133186 -0.0841136  0.0114461 -0.0821059 -0.0581121  0.035651 -0.154897 -0.124873  0 0 0  0 0 0  0.00797877 -0.0877706 -0.0418763  0 0 0  0.014305 -0.124879 -0.110987  0.0125516 -0.183541 -0.144139  0.0184225 -0.170889 -0.184361  0.0149755 -0.225229 -0.211178  0.0444218 -0.213798 -0.203937  0.0474391 -0.258483 -0.292806  0.0316392 -0.227971 -0.158958  0.0205008 -0.204962 -0.263852  0.0162919 -0.25403 -0.284404  0.0208571 -0.224645 -0.347235  0.0169432 -0.271483 -0.360435  0.0475596 -0.287337 -0.386641  0.047645 -0.299264 -0.483118  0.0370354 -0.3198 -0.319047  0.0212781 -0.229865 -0.431921  0.0172504 -0.273947 -0.438551  0.0209648 -0.219865 -0.516116  0.0175819 -0.264549 -0.515183  0.0470323 -0.29374 -0.580284  0.0472065 -0.271902 -0.674016  0.0372127 -0.352449 -0.4991  0.0214691 -0.195758 -0.596752  0.0177103 -0.239949 -0.589125  0.0210832 -0.1573 -0.672008  0.017993 -0.204723 -0.65758  0.0467744 -0.233081 -0.762909  0.0471935 -0.180298 -0.843047  0.0372013 -0.321368 -0.678157  0.021706 -0.106847 -0.739153  0.0180682 -0.156048 -0.718355  0.021315 -0.0447397 -0.796382  0.0183077 -0.0993089 -0.77036  0.0468875 -0.113174 -0.912911  0.0473866 -0.035999 -0.969815  0.0374339 -0.230429 -0.835059  0.0219516 0.0258099 -0.841923  0.0183327 -0.0326113 -0.810559  0.0215368 0.103877 -0.874183  0.0185206 0.0386316 -0.839785  0.0471038 0.0510856 -1.01221  0.0475829 0.143156 -1.03902  0.0377078 -0.0909237 -0.950793  0.0221362 0.185839 -0.892607  0.018492 0.11514 -0.854539  0.0216761 0.270285 -0.896008  0.0186292 0.192144 -0.85745  0.0472651 0.239534 -1.04885  0.0476885 0.335245 -1.04234  0.0378989 0.0799647 -1.01135  0.0222272 0.353632 -0.885102  0.0185568 0.269106 -0.844995  0.0217246 0.434141 -0.859256  0.018661 0.342461 -0.821259  0.0473223 0.429166 -1.01844  0.0477027 0.516845 -0.979434  0.0379771 0.261339 -1.00942  0.0222448 0.508699 -0.820369  0.0185694 0.410492 -0.783123  0.0217259 0.575453 -0.768439  0.0186694 0.471252 -0.735641  0.0473125 0.596862 -0.924725  0.0476872 0.665819 -0.857975  0.0379797 0.43108 -0.945292  0.0222476 0.632129 -0.706315  0.0185909 0.522055 -0.676468  0.0217491 0.676988 -0.63463  0.0187204 0.562809 -0.611019  0.0473133 0.722175 -0.779116  0.047725 0.763996 -0.692755  0.0379804 0.568495 -0.826759  0.0223056 0.708867 -0.556838  0.0186838 0.590176 -0.538008  0.0218542 0.726348 -0.474127  0.0188658 0.605928 -0.462554  0.0474015 0.789805 -0.599346  0.0478678 0.799371 -0.503885  0.0380572 0.656806 -0.668246  0.0224595 0.729522 -0.390142  0.0188808 0.606485 -0.384597  0.0220528 0.717462 -0.306485  0.0191143 0.595274 -0.308337  0.0475881 0.791461 -0.4073  0.048068 0.767566 -0.314358  0.0382392 0.685193 -0.48904  0.0226815 0.691502 -0.226547  0.0191679 0.568926 -0.234971  0.0222733 0.65134 -0.152175  0.0194244 0.532133 -0.167226  0.0477524 0.726872 -0.22636  0.0481 0.672394 -0.147259  0.038449 0.650134 -0.310967  0.0228317 0.599399 -0.086071  0.0194688 0.482287 -0.107506  0.022289 0.536153 -0.030159  0.0196052 0.424719 -0.0565434  0.047539 0.603922 -0.0786467  0.0473309 0.525652 -0.0230589  0.0384579 0.556022 -0.155819  0.0224543 0.46478 0.0140052  0.0192394 0.358365 -0.0177259  0.0212035 0.386791 0.0446782  0.0183299 0.288017 0.0105739  0.0458546 0.438348 0.0177002  0.0436537 0.346728 0.0433965  0.0375693 0.415516 -0.0427175  0.0197284 0.305391 0.0619006  0.0156147 0.214519 0.024776  0.01598 0.22334 0.0645609  0.0111749 0.141033 0.0280447  0.0392921 0.253221 0.0526142  0.031409 0.16176 0.0481515  0.0329015 0.249225 0.0160584  0.0102563 0.14286 0.0544534  0.00263977 0.0689322 0.0170188  0.00115681 0.067893 0.0298944  0 -1.49012e-07 4.76837e-07  0.0203345 0.0766979 0.0319219  0 -1.78814e-07 4.76837e-07  0.0164371 0.0804726 0.021101  0 -1.78814e-07 4.76837e-07  -0.0026469 -0.0730329 -0.00880384  -0.00101381 -0.0727707 -0.0223441  -0.00463161 -0.140695 -0.0284104  0.000870056 -0.090344 -0.0222893  0.00868873 -0.169074 -0.0600262  0 0 0  0 0 0  -0.00239698 -0.0901214 -0.0077486  0 0 0  0.00165835 -0.137824 -0.0559907  -0.00493065 -0.201259 -0.0599937  0.00367695 -0.19372 -0.101837  -0.00442812 -0.258009 -0.100559  0.0138993 -0.239219 -0.109766  0.0172012 -0.299668 -0.173721  -0.00441533 -0.244697 -0.0672174  0.0061765 -0.242765 -0.15615  -0.00349993 -0.306979 -0.151341  0.00721776 -0.281882 -0.218361  -0.00288662 -0.34867 -0.208814  0.0191246 -0.351123 -0.245819  0.0195084 -0.38778 -0.326618  -0.00235343 -0.3738 -0.176861  0.00851852 -0.31106 -0.285626  -0.00229198 -0.378656 -0.273569  0.00861603 -0.32748 -0.357166  -0.00199395 -0.398947 -0.341568  0.0200021 -0.411821 -0.412016  0.0199111 -0.419055 -0.499882  -0.00165021 -0.461408 -0.325466  0.0094685 -0.332381 -0.429819  -0.0016371 -0.405045 -0.412658  0.00924516 -0.323263 -0.502414  -0.00147402 -0.400809 -0.48328  0.0203112 -0.412137 -0.588124  0.0202523 -0.388738 -0.672807  -0.00139499 -0.493504 -0.494956  0.0099979 -0.302884 -0.572065  -0.00120008 -0.381981 -0.552015  0.00966007 -0.269219 -0.636917  -0.00109965 -0.353607 -0.616728  0.0206706 -0.351748 -0.753077  0.0206143 -0.300561 -0.824349  -0.00104713 -0.465333 -0.664806  0.0103577 -0.226013 -0.695143  -0.000881195 -0.312188 -0.674688  0.00995278 -0.171993 -0.744335  -0.000833035 -0.263193 -0.725601  0.0210046 -0.238153 -0.886869  0.0208957 -0.165512 -0.936078  -0.000690579 -0.380293 -0.814345  0.0105951 -0.111314 -0.78405  -0.000668764 -0.204309 -0.765732  0.0101355 -0.0436096 -0.811605  -0.000670314 -0.140732 -0.796656  0.021232 -0.0853751 -0.973281  0.021054 -0.000193775 -0.994472  -0.000431538 -0.24889 -0.925374  0.0107262 0.0270813 -0.827998  -0.000554323 -0.0715913 -0.814094  0.0102223 0.10018 -0.83059  -0.000596285 -0.00120935 -0.821283  0.0213348 0.0878905 -1.00186  0.0211024 0.175212 -0.992483  -0.000300407 -0.0872266 -0.984423  0.0107756 0.172244 -0.821687  -0.0005126 0.0697604 -0.813912  0.0102475 0.241824 -0.79901  -0.000574231 0.13837 -0.796492  0.021348 0.260515 -0.969167  0.0210958 0.339331 -0.930356  -0.000270605 0.0849817 -0.984324  0.0107896 0.306475 -0.765899  -0.000495553 0.202521 -0.765194  0.0102671 0.364055 -0.720709  -0.000547528 0.260989 -0.725265  0.0213426 0.41146 -0.879158  0.0211139 0.472155 -0.815632  -0.000277996 0.246754 -0.925073  0.0108303 0.413406 -0.667411  -0.000442386 0.310481 -0.673822  0.0103449 0.451948 -0.605192  -0.000451207 0.351638 -0.616218  0.0214007 0.522299 -0.742763  0.0212269 0.557443 -0.662235  -0.000246286 0.378349 -0.813824  0.0109572 0.479949 -0.53818  -0.000289917 0.38038 -0.550878  0.0105307 0.494705 -0.466498  -0.000226974 0.399141 -0.482612  0.0215714 0.579452 -0.576556  0.0214419 0.584707 -0.488823  -0.000116587 0.463635 -0.664062  0.011204 0.497889 -0.393942  1.57356e-05 0.403575 -0.411344  0.0108492 0.487025 -0.321563  0.000195265 0.397661 -0.340761  0.0218201 0.575874 -0.400773  0.0216773 0.550626 -0.316535  0.000117302 0.492087 -0.49399  0.0115728 0.465047 -0.25234  0.000591516 0.377346 -0.272225  0.0113311 0.430072 -0.188151  0.00107002 0.347861 -0.207826  0.0220711 0.512101 -0.236903  0.0218821 0.459854 -0.1664  0.000515699 0.460229 -0.324303  0.0120752 0.386079 -0.130661  0.0018096 0.305933 -0.150266  0.0119278 0.332131 -0.0824537  0.0027926 0.257513 -0.0994229  0.0223174 0.396929 -0.10534  0.0216799 0.325508 -0.0568471  0.00166321 0.372656 -0.175858  0.012177 0.272692 -0.043241  0.00347543 0.200518 -0.0593252  0.0109091 0.207741 -0.0161333  0.00340486 0.139838 -0.0276904  0.0212011 0.247926 -0.022058  0.0177073 0.168211 0.000535488  0.00409245 0.243323 -0.0670314  0.00825882 0.140825 0.00111914  0.00147367 0.0717441 -0.00959921  0.00289416 0.0704841 0.00435972  0 0 4.76837e-07  0.0127769 0.0844997 0.00795794  0 -5.96046e-08 4.76837e-07  0.0037148 0.0879014 -0.00820684  0 -5.96046e-08 4.76837e-07  -0.00537679 -0.0690898 0.0176563  -0.00539125 -0.0715772 0.00408506  -0.0119459 -0.141778 0.0269661  -0.00877798 -0.0864927 0.00984716  -0.016921 -0.168061 -0.00151634  0 0 0  0 0 0  -0.0101803 -0.0823752 0.0209384  0 0 0  -0.0090645 -0.141417 -0.000216484  -0.0160725 -0.214748 0.0238996  -0.0120344 -0.208261 -0.0170226  -0.0189916 -0.28864 0.00990677  -0.0210621 -0.248451 -0.0230079  -0.0221171 -0.32459 -0.0586319  -0.0317513 -0.250092 0.0151153  -0.0127637 -0.273481 -0.0444078  -0.0199057 -0.359115 -0.0182099  -0.0130153 -0.333115 -0.0835075  -0.0205567 -0.425719 -0.0569277  -0.0222947 -0.396848 -0.106911  -0.0225798 -0.459247 -0.167478  -0.038119 -0.416259 -0.0433273  -0.0126178 -0.387361 -0.131887  -0.0203537 -0.483664 -0.108049  -0.0124552 -0.43145 -0.18948  -0.0205564 -0.533686 -0.167515  -0.0223321 -0.511831 -0.2384  -0.022583 -0.550669 -0.316964  -0.0393975 -0.557213 -0.156371  -0.0120518 -0.466728 -0.25364  -0.0201637 -0.570731 -0.235583  -0.011972 -0.488572 -0.32293  -0.0203061 -0.597314 -0.308594  -0.0222006 -0.575776 -0.401683  -0.0223398 -0.585378 -0.488719  -0.0395781 -0.651762 -0.311466  -0.0116196 -0.499748 -0.395235  -0.0198707 -0.608605 -0.385188  -0.0115862 -0.496335 -0.467712  -0.0199901 -0.608355 -0.462789  -0.0218622 -0.579744 -0.576776  -0.0219583 -0.558742 -0.661671  -0.0393522 -0.687208 -0.48945  -0.011261 -0.481866 -0.539337  -0.0195569 -0.592534 -0.538522  -0.0112623 -0.45364 -0.606127  -0.019686 -0.565528 -0.611232  -0.0214822 -0.523113 -0.742324  -0.0216106 -0.474111 -0.814718  -0.0389885 -0.659145 -0.668558  -0.0109749 -0.415336 -0.668323  -0.0192882 -0.524575 -0.676881  -0.0110198 -0.365805 -0.721295  -0.0194551 -0.474155 -0.735854  -0.021189 -0.412884 -0.878172  -0.0213822 -0.341919 -0.929265  -0.0386678 -0.571085 -0.826987  -0.010781 -0.308393 -0.766501  -0.0191085 -0.413077 -0.783436  -0.0108731 -0.243618 -0.79922  -0.0193231 -0.345403 -0.8215  -0.0210261 -0.262561 -0.967818  -0.0212829 -0.178303 -0.991405  -0.03847 -0.433817 -0.945471  -0.0106801 -0.174112 -0.821946  -0.0190234 -0.271634 -0.845215  -0.0108101 -0.101985 -0.830431  -0.0192765 -0.194943 -0.857723  -0.0209794 -0.0904728 -1.00036  -0.0212737 -0.00318784 -0.99356  -0.0383979 -0.26407 -1.00959  -0.0106466 -0.0288527 -0.827903  -0.0190036 -0.117464 -0.854656  -0.010792 0.0418427 -0.811097  -0.0192719 -0.0411038 -0.840048  -0.0209925 0.0824218 -0.971793  -0.0212885 0.162093 -0.93541  -0.0384088 -0.0825077 -1.01149  -0.0106292 0.109685 -0.783592  -0.0189983 0.0306275 -0.810529  -0.0107599 0.170313 -0.743504  -0.0192502 0.0973107 -0.770535  -0.0209957 0.235035 -0.885533  -0.0212561 0.297339 -0.823946  -0.0384426 0.0887339 -0.950861  -0.0105623 0.224552 -0.69433  -0.0189471 0.154492 -0.718115  -0.0106456 0.26766 -0.63581  -0.0191584 0.203275 -0.657576  -0.0209296 0.34868 -0.751987  -0.0211399 0.385929 -0.672662  -0.0384514 0.228701 -0.834968  -0.0103834 0.301597 -0.570941  -0.0188119 0.238842 -0.588621  -0.0103931 0.321852 -0.501113  -0.0189748 0.263681 -0.514924  -0.0207853 0.409348 -0.587346  -0.0209584 0.416939 -0.499942  -0.0384371 0.320151 -0.677826  -0.0100482 0.331306 -0.428471  -0.0185616 0.27322 -0.437774  -0.00991559 0.326262 -0.355798  -0.0185835 0.271186 -0.359827  -0.0205286 0.409537 -0.411559  -0.0204957 0.386785 -0.326603  -0.0383883 0.351717 -0.498429  -0.00939989 0.310331 -0.284147  -0.0177271 0.253433 -0.283599  -0.00869393 0.280928 -0.217235  -0.0166907 0.225227 -0.210242  -0.019289 0.349404 -0.245862  -0.0178766 0.299931 -0.173233  -0.0374269 0.319267 -0.318151  -0.00734735 0.242467 -0.154744  -0.0135803 0.183121 -0.144035  -0.00505209 0.193206 -0.101472  -0.00954986 0.132956 -0.0835543  -0.0136802 0.237818 -0.111385  -0.00969219 0.16913 -0.0597019  -0.0309126 0.227059 -0.159171  -0.00232339 0.137462 -0.0553064  -0.00233984 0.0705273 -0.0355492  0.00048995 0.0719853 -0.0218821  0 1.19209e-07 4.76837e-07  -0.00245476 0.0884457 -0.0258393  0 5.96046e-08 4.76837e-07  -0.0122311 0.0868521 -0.0439458  0 5.96046e-08 4.76837e-07  -0.00195037 -0.0669969 0.0411272  -0.00436102 -0.0677745 0.0289912  -0.00486971 -0.145954 0.0771823  -0.0113742 -0.0766631 0.0322137  -0.0269384 -0.160743 0.0462828  0 0 0  0 0 0  -0.00958112 -0.0741162 0.0392456  0 0 0  -0.0102511 -0.142832 0.0525613  -0.00883402 -0.234851 0.1002  -0.0156572 -0.223192 0.063477  -0.0125388 -0.326805 0.109881  -0.0367442 -0.252747 0.0506563  -0.0423917 -0.345815 0.0419378  -0.0322708 -0.259468 0.0824757  -0.019206 -0.306025 0.0613866  -0.014527 -0.41872 0.102115  -0.0212395 -0.387164 0.0441294  -0.0164553 -0.508868 0.0799394  -0.045092 -0.437521 0.0158639  -0.0469075 -0.524905 -0.0240302  -0.0425679 -0.462672 0.0700192  -0.0223895 -0.465822 0.0136666  -0.0167734 -0.592644 0.0414448  -0.0227277 -0.536975 -0.0305247  -0.0177686 -0.669614 -0.010406  -0.0472727 -0.603052 -0.0799851  -0.0480654 -0.672019 -0.147617  -0.0457073 -0.651603 -0.00974321  -0.0230629 -0.600887 -0.0863438  -0.0174185 -0.734956 -0.0752931  -0.022965 -0.652612 -0.152363  -0.0180389 -0.789228 -0.150422  -0.0477859 -0.726193 -0.226919  -0.0481855 -0.767717 -0.314039  -0.0465648 -0.801382 -0.149173  -0.0230549 -0.693427 -0.22675  -0.0174285 -0.82814 -0.233735  -0.0228202 -0.719193 -0.306465  -0.0178789 -0.853121 -0.322865  -0.0476767 -0.79126 -0.406974  -0.0479064 -0.800201 -0.502926  -0.0465723 -0.893746 -0.331212  -0.0228133 -0.73183 -0.39027  -0.0171742 -0.860928 -0.414408  -0.0225328 -0.728531 -0.47392  -0.0175704 -0.853652 -0.506638  -0.0473367 -0.790312 -0.598203  -0.0475389 -0.765634 -0.691296  -0.0462534 -0.917682 -0.533642  -0.0225086 -0.711499 -0.5569  -0.0168628 -0.829455 -0.595265  -0.0222409 -0.679584 -0.634297  -0.0172768 -0.790854 -0.679367  -0.0469977 -0.72355 -0.777343  -0.0472447 -0.66831 -0.856255  -0.0458912 -0.870432 -0.731844  -0.0222489 -0.635002 -0.706351  -0.016613 -0.73761 -0.754294  -0.0220267 -0.578372 -0.76808  -0.0170798 -0.672393 -0.820028  -0.0467678 -0.599157 -0.922609  -0.0470816 -0.520097 -0.977738  -0.0456232 -0.757812 -0.901719  -0.0220864 -0.51168 -0.820439  -0.0164729 -0.596577 -0.87212  -0.0219153 -0.437222 -0.858972  -0.0169947 -0.512674 -0.911464  -0.0466689 -0.432286 -1.01631  -0.0470406 -0.339028 -1.04093  -0.0454932 -0.593536 -1.02258  -0.0220231 -0.356535 -0.885244  -0.0164354 -0.423506 -0.934348  -0.021889 -0.273309 -0.895858  -0.0169959 -0.331131 -0.94247  -0.0466726 -0.243247 -1.04698  -0.0470748 -0.147149 -1.03805  -0.0454824 -0.397591 -1.07966  -0.0220228 -0.188455 -0.892806  -0.0164647 -0.239476 -0.933313  -0.0219038 -0.106612 -0.874162  -0.0170461 -0.149903 -0.909165  -0.0467287 -0.0550725 -1.01081  -0.047138 0.0321276 -0.969358  -0.0455527 -0.19384 -1.06592  -0.0220379 -0.0279608 -0.842101  -0.0165365 -0.0669587 -0.869027  -0.0219166 0.0424793 -0.796419  -0.0171473 0.00882787 -0.815493  -0.0468123 0.109241 -0.912068  -0.0472295 0.17683 -0.843081  -0.0456975 -0.00715655 -0.982903  -0.0220363 0.105254 -0.739207  -0.0166953 0.0728816 -0.749216  -0.0219262 0.155613 -0.672016  -0.0174179 0.125516 -0.672785  -0.046977 0.2295 -0.762664  -0.0474513 0.269098 -0.6745  -0.0460186 0.139559 -0.840588  -0.0220487 0.194731 -0.59661  -0.0171552 0.162779 -0.5884  -0.0220079 0.218769 -0.516047  -0.0182097 0.185735 -0.498372  -0.0473845 0.290792 -0.580629  -0.0479169 0.297485 -0.483904  -0.0468199 0.228179 -0.656173  -0.0221584 0.229393 -0.431581  -0.0183158 0.191559 -0.405958  -0.0220571 0.224075 -0.347175  -0.0197747 0.182257 -0.313001  -0.0477791 0.285208 -0.387582  -0.0473385 0.258236 -0.29332  -0.0483842 0.24756 -0.451649  -0.021764 0.205058 -0.263484  -0.0190203 0.155235 -0.22324  -0.0194321 0.170833 -0.184851  -0.0170274 0.115452 -0.136725  -0.0435216 0.21239 -0.206103  -0.0354919 0.154807 -0.125537  -0.0476108 0.193912 -0.250222  -0.0141094 0.124911 -0.111222  -0.00580406 0.0611289 -0.0604119  -0.00372338 0.0665292 -0.0483437  0 2.38419e-07 4.76837e-07  -0.0172324 0.0815077 -0.0636849  0 1.78814e-07 4.76837e-07  -0.0235445 0.0742471 -0.0799203  0 1.78814e-07 4.76837e-07  0.0159728 -0.0869408 0.0598292  0.00707147 -0.0733405 0.0500941  0.0406805 -0.180828 0.122438  0.000897035 -0.0773779 0.0430355  -0.0064169 -0.169787 0.082181  0 0 0  0 0 0  0.0090276 -0.0896613 0.0467982  0 0 0  0.0103703 -0.157544 0.0987291  0.0408507 -0.286388 0.167651  0.00858158 -0.254904 0.134737  0.0380976 -0.39449 0.198106  -0.0157256 -0.275964 0.111725  -0.02212 -0.386877 0.12571  0.0199527 -0.30911 0.141062  0.00566649 -0.355266 0.154722  0.0345977 -0.505519 0.205294  0.00324839 -0.45722 0.155808  0.032334 -0.615955 0.197317  -0.0258694 -0.497169 0.119035  -0.0285429 -0.606094 0.0957789  0.00602072 -0.54568 0.165128  0.001221 -0.55783 0.140832  0.0301421 -0.721129 0.165948  0.000274897 -0.653078 0.107013  0.0296692 -0.82146 0.120433  -0.0295138 -0.707108 0.0525217  -0.0307129 -0.800525 -0.00630617  0.000508547 -0.77408 0.108228  -0.000635803 -0.741989 0.0585151  0.0284419 -0.90894 0.0547938  -0.000809789 -0.819482 -0.00590658  0.0288239 -0.987158 -0.0224328  -0.0306976 -0.880241 -0.0812864  -0.0312493 -0.947335 -0.168331  -0.00120491 -0.967588 -0.0232453  -0.00116438 -0.886043 -0.0819325  0.0280709 -1.04649 -0.114096  -0.000989914 -0.936474 -0.168991  0.0288103 -1.09318 -0.213421  -0.0308493 -0.99626 -0.265943  -0.0311092 -1.02917 -0.37056  -0.00148904 -1.10339 -0.212807  -0.00109315 -0.972675 -0.263176  0.02826 -1.11725 -0.31983  -0.000770807 -0.989997 -0.3622  0.0291268 -1.12684 -0.429086  -0.0305696 -1.04147 -0.478934  -0.0307399 -1.03631 -0.588398  -0.00121582 -1.16541 -0.437215  -0.000787377 -0.991515 -0.463032  0.0286235 -1.11279 -0.537264  -0.000437379 -0.973676 -0.561957  0.0294937 -1.08417 -0.643145  -0.0301909 -1.01056 -0.694365  -0.0303829 -0.968024 -0.795368  -0.000800252 -1.14634 -0.669139  -0.000462532 -0.940377 -0.657158  0.0289545 -1.03374 -0.739923  -0.000149608 -0.889564 -0.743943  0.0297695 -0.970417 -0.829543  -0.0298885 -0.907355 -0.886036  -0.0301476 -0.832634 -0.966289  -0.000454307 -1.04859 -0.880372  -0.000228763 -0.82551 -0.821923  0.0291631 -0.889733 -0.903127  2.28882e-05 -0.7479 -0.885989  0.0299081 -0.799396 -0.965556  -0.0297257 -0.744431 -1.03061  -0.0300561 -0.646607 -1.08032  -0.0002563 -0.884067 -1.04519  -0.000118613 -0.660879 -0.937235  0.0292373 -0.698267 -1.00696  7.70092e-05 -0.565909 -0.970749  0.029925 -0.591906 -1.03455  -0.029696 -0.541599 -1.11043  -0.0300806 -0.432578 -1.1235  -0.000208259 -0.672771 -1.14348  -0.00011301 -0.466508 -0.988983  0.0292059 -0.482637 -1.03868  4.43459e-05 -0.365741 -0.987817  0.0298529 -0.373205 -1.02803  -0.0297647 -0.323553 -1.11568  -0.0301929 -0.216623 -1.09047  -0.000276089 -0.440418 -1.16318  -0.000181794 -0.266076 -0.97076  0.0290811 -0.26911 -0.994311  -6.27041e-05 -0.171807 -0.934998  0.0296624 -0.169957 -0.946633  -0.0299315 -0.116886 -1.0456  -0.0304482 -0.025124 -0.985095  -0.000460386 -0.215321 -1.10174  -0.000351191 -0.0840601 -0.884665  0.0287583 -0.083735 -0.879099  -0.00033164 -0.00782496 -0.818599  0.0291393 -0.00698501 -0.800111  -0.0303338 0.0531104 -0.908572  -0.0310967 0.118423 -0.820077  -0.000909805 -0.0249717 -0.966474  -0.000801563 0.057227 -0.741066  0.0278451 0.0508243 -0.706862  -0.00109339 0.106068 -0.652677  0.0276258 0.095762 -0.606065  -0.0314012 0.165522 -0.721128  -0.0327547 0.19629 -0.615329  -0.00210547 0.107286 -0.773608  -0.00204253 0.140404 -0.557344  0.0253043 0.118167 -0.498287  -0.00314617 0.155858 -0.457234  0.0234094 0.125912 -0.387906  -0.0339985 0.206335 -0.505744  -0.0361643 0.198721 -0.395022  -0.00518537 0.165129 -0.54624  -0.00497127 0.155368 -0.355542  0.0190318 0.111506 -0.278882  -0.00734687 0.135593 -0.255576  0.0130894 0.0834323 -0.173692  -0.0379207 0.169666 -0.287739  -0.037092 0.124625 -0.183667  -0.0115964 0.141976 -0.311745  -0.00863218 0.101119 -0.159529  0.00954866 0.0448432 -0.0780878  -0.00453496 0.0536122 -0.0717397  0 3.57628e-07 4.76837e-07  -0.0236216 0.0648634 -0.0952506  0 2.98023e-07 4.76837e-07  -0.0110455 0.0531631 -0.0994458  0 2.98023e-07 4.76837e-07  
SCALARS smooth_stress float 1
LOOKUP_TABLE default
1764.5 2259.15 2186.05 2190.27 2195.99 2198.19 2198.11 2197.12 2195.99 2195.04 2194.36 2193.97 2193.54 2191.93 2186.62 2183 2243.03 2487.76 700.634 1883.53 2982.45 3133.23 3200.51 3222.94 3229.02 3229.26 3227.67 3225.67 3223.78 3222.2 3221.33 3221.63 3224.19 3234.66 3279.67 3421.88 3676.87 1424.15 1842.45 2936.37 3228.48 3362.57 3402.02 3408.73 3407.19 3404.27 3401.53 3399.4 3398.17 3398.51 3401.48 3409.3 3425.1 3445.47 3432.66 3365.61 1247.11 2030.13 3196.75 3402.39 3492.7 3502.38 3494.13 3486.62 3481.74 3478.85 3477.32 3477.12 3478.42 3481.29 3484.7 3480.95 3438.95 3293.13 3053.57 1065.86 2328.75 3541.43 3432.26 3373.48 3333.42 3315.12 3307.53 3304.17 3302.71 3302.36 3302.91 3304.21 3305.51 3304.53 3294.08 3256.18 3157.85 2966.95 981.253 2474.91 3741.51 3417.57 3307.04 3278.4 3274.01 3273.16 3272.47 3272.01 3272 3272.49 3273.37 3273.77 3271.98 3266.06 3264.54 3321.4 3388.95 1035.72 621.433 1305.75 1189.48 1155.9 1155.01 1157.05 1157.8 1157.76 1157.57 1157.47 1157.54 1157.78 1157.94 1157.38 1155.09 1152.87 1172.89 1236.87 611.514 2341.74 3528.88 3203.31 3116.16 3100.47 3098.2 3097.16 3095.8 3094.27 3092.83 3091.77 3091.18 3090.75 3088.82 3078.53 3045.25 3002.74 2967.26 1072.2 2524.48 5699.74 5460.32 5413.74 5420.79 5427.66 5428.67 5426.59 5423.41 5420.06 5417.12 5415.1 5414.42 5415 5415.85 5425.79 5506.41 5694.12 3349.28 1971.26 4486.73 4684.29 4848.95 4921.78 4941.24 4942.26 4938.72 4934.49 4930.59 4927.61 4926.45 4928.65 4936.63 4953.58 4983.8 5029.02 5080.55 2971.91 1983.18 4501.33 4748.29 4949.39 5003.84 5002.39 4992.58 4984.87 4979.66 4976.36 4974.85 4975.53 4978.88 4984.65 4987.62 4965.46 4870.32 4681.23 2560.95 2370.31 5202.5 5234.3 5245.19 5205.2 5175.43 5160.68 5153.68 5150.24 5148.83 5148.94 5150.47 5152.82 5154.35 5150.56 5131.53 5078.72 4920.54 2470.81 2868.17 6197.79 6060.65 5914.11 5858.98 5846.76 5843.38 5841.21 5839.7 5839.12 5839.6 5841.08 5843.19 5846.38 5857.36 5907.53 6055.86 6236.9 2877.03 1076.27 3440.93 3342.42 3279.77 3284.53 3292.07 3294.46 3294.22 3293.43 3292.87 3292.83 3293.32 3294.08 3294.78 3297.45 3318.03 3408.9 3656.72 2442.68 2039.32 3318.27 3282.4 3241.15 3217.77 3209.71 3206.66 3204.9 3203.41 3202 3200.87 3200.31 3200.2 3199.38 3189.63 3133.52 2969.42 2795.45 956.904 2027.8 5005.27 4924.17 4807.4 4762.4 4749.62 4745.28 4742.62 4739.94 4737.05 4734.31 4732.28 4731.44 4731.11 4723.82 4681.36 4577.4 4484.97 2490.19 1104.53 2883.04 2905.12 2902.53 2916.66 2921.85 2920.68 2917.72 2914.43 2911.12 2908.21 2906.5 2907.03 2910.72 2915.93 2915.98 2913.61 2931.84 1791.78 961.349 2311.44 2364.74 2426.71 2452.68 2451.69 2444.96 2439.5 2435.8 2433.41 2432.26 2432.73 2435.49 2441.1 2447.87 2447.28 2425.41 2375.27 1359.83 1589.28 3205.54 3273.93 3309.82 3308.66 3297.91 3289.95 3285.43 3283.15 3282.41 3283.01 3285.07 3289.25 3296.89 3308.27 3314.54 3291.51 3229.47 1558.51 2521.97 4890.67 5104.2 5180.01 5206.1 5211.85 5210.52 5207.98 5206.23 5205.96 5207.27 5210.53 5217.05 5230.54 5257.74 5296.32 5294.88 5274.07 2380.46 1052.86 2978.51 3158.83 3279.94 3328.58 3342.39 3344.11 3342.87 3341.52 3340.88 3341.13 3342.47 3345.5 3352.09 3367.65 3403.17 3461.46 3547.58 2328.98 1833.01 2995.12 3175.02 3269.56 3285.57 3285.63 3284.62 3283.76 3282.83 3281.74 3280.72 3280.29 3281.22 3284.32 3289.51 3280.39 3171.22 2974.64 1015.27 1858.86 4437.53 4602.57 4731.92 4746.26 4740.76 4737.29 4735.59 4734.06 4732.06 4729.75 4727.98 4728.01 4731.07 4735.8 4721.39 4607.96 4364.74 2374.07 855.811 2178.58 2228.6 2267.85 2273.53 2271.36 2269.35 2268.27 2267.26 2265.72 2263.76 2262.09 2261.88 2264.33 2267.8 2261.66 2228.28 2179.5 1297.61 617.404 1232.57 1255.73 1276.48 1282.2 1278.35 1273.72 1271.14 1270.2 1270.07 1270.41 1271.49 1274.09 1278.78 1283.18 1278.87 1259.38 1234.65 610.23 1399.37 2394.66 2455.95 2484.94 2487.83 2481.17 2475.16 2472.06 2471.42 2472.48 2474.84 2478.43 2483.64 2490.24 2492.29 2470.78 2413.87 2349.12 952.483 2610.2 4694.21 4920.34 5035.11 5062.71 5060.36 5054.08 5050.26 5049.34 5050.64 5053.82 5058.82 5066.04 5074.99 5076.21 5026.15 4835.37 4589.84 1986.14 1113.39 3061.22 3282.46 3462.63 3517.86 3524.65 3521.53 3518.43 3516.92 3516.94 3518.32 3521.02 3525.5 3532.53 3540.83 3535.29 3460.33 3270.15 2047.1 1830.08 2863 3023.46 3125.91 3157.99 3164 3164.83 3164.92 3164.78 3164.3 3163.6 3163.13 3163.86 3167.78 3180.48 3222.07 3315.35 3336.35 1152.74 2164.13 4617.41 4712.53 4874.21 4938.63 4950.52 4951.9 4952.45 4952.66 4952.05 4950.58 4948.96 4948.77 4952.3 4962.49 4988.84 5044.99 4995.15 2631.94 1487.45 3024.22 3048.92 3078.99 3091.37 3090.83 3089.57 3090.09 3091.18 3091.73 3091.3 3090.29 3089.79 3091.01 3091.64 3078.98 3046.41 3025.19 1510.85 1295.23 2218.5 2268.22 2302.95 2310.11 2306.77 2304.19 2304.34 2306.06 2308.09 2309.71 2310.85 2312.16 2314.72 2318.3 2315 2277.64 2226.86 891.36 1803.92 2983.25 2968.93 2968.41 2967.66 2962.02 2957.91 2957.16 2958.78 2961.62 2964.88 2968.16 2971.21 2973.03 2970.21 2960.82 2968.57 2948.87 1134.77 2973.83 5131.35 5099.24 5049 5014.59 4995.85 4987.06 4984.5 4985.56 4988.44 4992.32 4996.54 5000.17 4999.75 4982.97 4917.71 4760.78 4573.21 1988.47 1226.3 3361.64 3436.27 3465.84 3446.56 3429.29 3420.52 3416.98 3416.4 3417.48 3419.52 3422.2 3425.17 3427.25 3422.89 3391.57 3279.15 3022.29 1865.35 2277.25 3115.97 3149.34 3180.84 3195.58 3199.27 3199.61 3199.44 3199.36 3199.28 3199.21 3199.19 3199.32 3199.55 3200.12 3212.16 3293.05 3511.78 1333.68 3113.23 5831.44 5716.11 5683.36 5698.41 5704.02 5704.91 5705.65 5706.52 5706.94 5706.62 5705.82 5704.91 5703.69 5697.25 5677.91 5687.62 5812.04 3135.47 2629.31 5022.16 5101.6 5049.24 5021.43 5010.54 5006.5 5006.38 5007.9 5009.41 5010.17 5010.1 5009.63 5008.4 4997.29 4933.82 4763.64 4648.13 2204.7 2379.77 4399.99 4651.56 4780.62 4799.48 4795.3 4792.18 4792.08 4793.86 4796.2 4798.26 4799.95 4801.86 4805.9 4813.68 4806.32 4685.66 4502.87 1905.35 2490.93 4539.33 4619.93 4724.32 4769.11 4776.91 4777.29 4778.19 4780.31 4783.09 4785.96 4788.63 4791.37 4795.94 4810 4860.62 4992.34 5077.03 2081.23 3293.59 5777.08 5567.62 5465.99 5452.65 5451.73 5451.28 5452.05 5454.21 5457.17 5460.52 5463.71 5465.82 5465 5458.69 5454.02 5511.3 5753.94 2582.54 1338.42 3665.38 3446.45 3284.02 3227.75 3214.54 3211.55 3211.2 3212.11 3213.66 3215.52 3217.52 3219.21 3219.48 3215.05 3197.68 3146.69 3004.33 1921.42 734.926 1190.66 1132.83 1134.21 1137.62 1138.94 1139.04 1138.87 1138.72 1138.67 1138.71 1138.91 1139.17 1139.35 1138.77 1137.03 1132.05 1101.87 648.887 1348.98 3632.73 3363.9 3270.99 3258.04 3257.41 3257.15 3257.01 3257.07 3257.19 3257.26 3257.39 3257.58 3257.26 3252.94 3234.35 3187.76 3114.43 2245.7 1161.86 3436.76 3404.45 3321.18 3281.11 3268.74 3264.65 3263.73 3264.16 3264.89 3265.44 3265.7 3265.8 3265.01 3258.3 3221.41 3103.82 2913.27 1857.81 1024.77 3035.97 3246.32 3362.57 3374.51 3369.95 3366.94 3366.01 3366.44 3367.52 3368.69 3369.8 3370.99 3372.66 3374.19 3361.48 3267.11 3077.53 1886.3 960.045 2828.24 3026.9 3186.23 3240.2 3249.5 3250.22 3250.31 3250.93 3252.11 3253.55 3255.1 3256.99 3260.31 3269.51 3298.56 3359.23 3408.57 2114.94 1067.9 2983.46 3061.7 3094.1 3120.98 3129.99 3131.75 3132.15 3132.8 3133.92 3135.36 3136.91 3138.22 3139.06 3140.68 3155.8 3248.51 3588.35 2429.09 653.682 2433.81 2280.98 2188.22 2180.48 2184.49 2186.31 2186.92 2187.43 2188.17 2189.13 2190.26 2191.28 2191.53 2189.72 2184.99 2184.44 2253.07 1802.25 511.191 970.123 1764.5 543.493 705.456 1451.34 1208.4 1760.16 1034.12 624.204 666.877 709.045 554.127 1427.23 759.857 863.358 629.103 1150.73 827.277 987.673 1630.05 548.816 791.182 1493.2 1069.03 1551.98 872.873 559.602 1378.55 794.476 568.516 1081 823.026 1013.49 1617.53 561.275 819.001 1522.33 1004.94 1507.14 817.982 543.771 1343.29 789.486 568.543 1081.91 830.1 1023.57 1621.73 565.044 827.342 1532.85 995.045 1501.29 806.954 543.318 1341.18 790.739 570.689 1085.58 833.409 1027.58 1625.3 566.372 829.962 1536.23 994.399 1501.26 805.285 544.039 1343.57 791.543 571.843 1087.35 834.59 1028.61 1626.35 566.617 830.437 1536.65 994.459 1501.17 804.916 544.23 1344.55 791.577 572.061 1087.61 834.674 1028.46 1626.05 566.429 830.177 1536 994.222 1500.61 804.573 544.076 1344.42 791.258 571.863 1087.19 834.311 1027.93 1625.26 566.124 829.728 1535.08 993.762 1499.86 804.185 543.807 1343.77 790.845 571.554 1086.6 833.859 1027.31 1624.44 565.845 829.248 1534.18 993.258 1499.1 803.79 543.54 1342.96 790.494 571.286 1086.08 833.461 1026.74 1623.75 565.614 828.801 1533.41 992.82 1498.5 803.486 543.342 1342.15 790.237 571.081 1085.67 833.136 1026.25 1623.27 565.454 828.426 1532.91 992.493 1498.11 803.285 543.229 1341.45 790.109 570.982 1085.44 832.947 1025.98 1622.99 565.342 828.233 1532.8 992.306 1497.83 803.226 543.192 1341 789.975 570.914 1085.25 832.789 1025.97 1622.63 565.176 828.328 1533.39 992.069 1497.09 803.163 543.117 1340.85 789.374 570.776 1084.79 832.414 1026.43 1621.15 564.559 829.048 1536.19 991.017 1493.87 802.526 542.585 1340.83 787.185 570.142 1083.33 831.311 1029.12 1616.48 562.796 832.676 1548.54 986.966 1485.58 799.061 540.499 1341.23 784.168 568.125 1082.04 832.986 1045.97 1614.88 564.639 851.946 1593.02 980.199 1485.13 789.038 536.328 1350.45 793.666 565.851 1096.88 866.803 1112.8 1677.18 604.142 917.368 1683.13 994.12 1518.81 779.172 542.01 1401.58 799.756 582.565 1156.6 987.369 1238.95 1905.19 748.402 1051.06 1067.63 995.625 824.145 744.658 582.759 1457.5 327.542 700.634 700.634 373.091 469.029 892.623 1372.34 466.769 719.298 1338.4 814.98 1206.97 623.545 446.639 1122.68 542.456 912.571 739.928 959.212 1449.72 538.711 807.053 1482.57 789.601 1209.87 1138.71 1000.27 821.026 1031.63 1519.02 570.651 867.883 1556.36 796.998 1229.79 1187.65 1033.59 850.844 1062.73 1551.41 582.078 890.941 1581.42 808.89 1240.91 1219.94 1044.94 860.12 1072 1562.19 585.372 897.011 1587.43 813.984 1244.65 1230.87 1048.09 862.347 1073.62 1564.46 585.943 897.791 1587.73 815.139 1245.06 1232.87 1048.43 862.432 1073.21 1564.15 585.76 897.286 1586.7 814.95 1244.41 1232.36 1047.92 861.941 1072.36 1563.18 585.387 896.563 1585.45 814.402 1243.52 1231.32 1047.23 861.346 1071.53 1562.08 585.005 895.911 1584.37 813.779 1242.58 1230.24 1046.53 860.797 1070.84 1561.07 584.66 895.408 1583.6 813.169 1241.74 1229.29 1045.92 860.362 1070.45 1560.26 584.411 895.185 1583.43 812.656 1241.19 1228.67 1045.55 860.186 1070.65 1559.96 584.351 895.495 1584.34 812.404 1241.22 1228.71 1045.65 860.498 1071.89 1560.61 584.673 896.767 1587.33 812.639 1242.37 1229.97 1046.77 861.751 1075.16 1563.45 585.814 899.905 1593.82 813.863 1246.04 1233.4 1050.76 865.798 1082.57 1574.3 590.231 906.647 1604.87 818.282 1257.86 1240.71 1064.09 879.188 1095.44 1614.01 606.819 916.175 1615.89 834.613 1293.22 1253.71 1100.2 911.484 1101.37 1703.13 644.235 911.26 1629.78 873.307 1344.64 1264.81 1153.57 942.675 1090.57 1772.13 680.21 890.589 946.926 876.857 765.61 1259.38 675.752 356.52 499.606 957.742 1373.42 513.696 806.558 1450.55 702.344 1076.06 657.268 436.13 1099.23 480.245 936.397 790.918 1014.93 1477.14 573.989 862.763 1567.55 720.634 1146.77 1136.03 1036.83 878.03 1091.51 1600.4 621.313 920.946 1639.94 768.206 1202.6 1210.23 1092.81 915.268 1112.4 1643.84 636.377 935.502 1656.69 790.356 1221.83 1235.66 1109.55 923.589 1112.21 1650.96 638.388 934.934 1655.78 794.736 1224.82 1236.6 1112.12 923.518 1109.09 1649.38 637.616 932.46 1652.66 794.082 1223.77 1233.19 1111.37 922.168 1106.79 1646.97 636.664 930.636 1650.24 792.864 1222.3 1230.52 1110.19 921.007 1105.33 1645.04 635.95 929.489 1648.65 791.849 1221.04 1228.8 1109.18 920.167 1104.45 1643.62 635.439 928.824 1647.7 791.082 1220.07 1227.7 1108.43 919.621 1104.01 1642.69 635.129 928.502 1647.34 790.531 1219.45 1227.09 1108 919.383 1104.03 1642.4 635.061 928.609 1647.68 790.308 1219.41 1226.99 1108.05 919.586 1104.63 1643.14 635.396 929.19 1648.84 790.575 1220.33 1227.54 1108.92 920.373 1105.79 1645.49 636.316 930.286 1650.57 791.706 1222.8 1228.76 1111.16 922.062 1107.15 1650.78 638.3 931.433 1650.44 794.255 1227.06 1230.33 1115.2 924.624 1105.3 1659.39 641.513 929.147 1638.61 798.018 1229.96 1228.83 1118.36 924.43 1086.93 1659.64 641.451 909.665 1595.16 797.454 1217.58 1212.27 1105.56 905.514 1029.56 1605 618.909 847.312 1517.85 774.646 1174.16 1163.32 1058.01 845.246 952.64 1511.68 572.796 765.679 802.464 743.37 645.722 1112.77 566.9 300.184 566.304 1102.19 1530.52 599.09 946.92 1654.99 750.305 1177.69 742.653 473.298 1249.38 533.009 1047.86 883.444 1101.04 1599.28 620.263 909.924 1643.49 779.067 1222.05 1278.21 1093.57 913.893 1098.87 1661.59 643.316 899.224 1640.46 806.032 1247.08 1280.64 1118.35 917.255 1075.3 1656.48 640.634 880.149 1623.06 806.89 1247.1 1260.67 1118.27 910.76 1061.55 1643.29 635.535 870.231 1612.3 801.487 1242.22 1246.97 1114.01 905.89 1056.05 1635.68 632.637 866.286 1607.39 797.849 1238.76 1240.97 1111 903.317 1053.94 1631.99 631.209 864.721 1605.16 796.013 1236.8 1238.55 1109.28 902.014 1053.05 1630.1 630.477 864.031 1604.12 795.061 1235.71 1237.47 1108.33 901.378 1052.73 1629.19 630.122 863.774 1603.74 794.567 1235.15 1237.02 1107.87 901.12 1052.73 1628.88 630.008 863.795 1603.83 794.368 1235.03 1236.94 1107.8 901.166 1053.02 1629.23 630.151 864.062 1604.35 794.479 1235.38 1237.2 1108.19 901.541 1053.53 1630.22 630.539 864.5 1604.99 794.909 1236.17 1237.69 1108.97 902.161 1053.91 1631.72 631.132 864.861 1604.94 795.5 1236.87 1238 1109.76 902.696 1053.02 1632.35 631.476 864.154 1601.54 795.463 1235.04 1236.97 1108.26 901.363 1047.32 1624.89 629.099 859.146 1589.04 791.104 1222.69 1231.65 1095.83 890.667 1028.58 1585.37 614.667 840.447 1558.47 772.803 1186.2 1218.3 1054.31 850.664 987.849 1477.96 567.816 792.631 1475.88 735.331 1126.14 1200.24 973.772 770.033 911.944 1361.01 508.246 717.855 730.642 711.811 582.276 1157.9 493.067 263.399 639.178 1236.17 1762.45 701.043 1055.39 1865.23 888.849 1408.82 798.087 525.516 1447.22 652.002 1200.4 976.518 1164.12 1711.06 640.892 905.609 1698.35 891.314 1353.88 1483.92 1111.54 889.541 1074.4 1608.44 601.59 836.36 1626.87 857.763 1319.07 1418.55 1072.8 852.869 1044.53 1557 582.059 816.135 1602.5 838.526 1302.76 1394.94 1054.69 840.136 1039.89 1542.51 576.542 813.378 1597.19 832.644 1297.1 1391.72 1048.43 836.534 1039.75 1539 575.116 813.401 1595.99 831.16 1295.15 1391.76 1046.32 835.425 1039.78 1537.93 574.636 813.428 1595.43 830.673 1294.31 1391.65 1045.5 834.977 1039.69 1537.44 574.41 813.386 1595.11 830.41 1293.91 1391.34 1045.15 834.808 1039.66 1537.3 574.349 813.376 1595.04 830.291 1293.78 1391.15 1045.09 834.825 1039.76 1537.46 574.415 813.475 1595.22 830.321 1293.94 1391.13 1045.28 835.015 1040 1537.95 574.599 813.717 1595.61 830.495 1294.3 1391.31 1045.68 835.359 1040.3 1538.61 574.857 813.992 1595.86 830.722 1294.63 1391.57 1046.04 835.656 1040.33 1538.85 575.025 814.046 1595.4 830.655 1294.48 1391.65 1045.75 835.436 1039.37 1536.97 574.619 813.26 1594 829.665 1293.39 1391.52 1043.02 833.399 1036.83 1528.57 572.274 810.642 1597.29 827.295 1292.94 1394.07 1034.69 826.698 1037.11 1506.37 563.809 806.932 1630.7 827.367 1299 1414.8 1018.1 806.744 1057.9 1466.74 537.233 809.691 1671.03 842.238 1306.57 1484.14 985.719 773.214 1042.44 1404.29 501.472 785.11 760.421 840.829 621.049 1495.56 473.007 250.611 621.433 621.433 1835.73 693.432 335.077 999.136 1001.12 1646.15 286.356 545.311 795.636 789.918 1265.24 970.678 612.322 1709.61 611.108 306.618 897.602 1022.56 1602.18 842.646 1127.61 882.861 578.371 1622.42 574.67 291.877 863.411 1021.41 1586.1 830.259 1090.03 864.027 581.233 1617.81 570.891 292.493 861.384 1025.59 1587.53 835.618 1084.54 862.518 584.119 1622.12 571.913 293.626 862.99 1028.93 1589.9 839.188 1085.18 863.424 585.137 1624.1 572.542 294.061 863.691 1029.95 1590.5 840.273 1085.62 863.737 585.256 1624.33 572.636 294.107 863.713 1029.87 1590.23 840.276 1085.57 863.653 585.125 1624.07 572.573 294.047 863.584 1029.54 1589.83 840.018 1085.43 863.524 584.999 1623.82 572.507 293.988 863.486 1029.28 1589.59 839.797 1085.36 863.482 584.963 1623.8 572.533 293.984 863.527 1029.16 1589.61 839.689 1085.43 863.556 585.007 1624 572.646 294.013 863.701 1029.16 1589.91 839.709 1085.67 863.771 585.138 1624.29 572.8 294.083 863.89 1029.21 1590.33 839.859 1085.81 863.859 585.142 1624.12 572.777 294.052 863.699 1029.13 1591.09 839.992 1085.47 863.323 584.598 1622.5 572.111 293.676 862.538 1029.18 1594.77 840.136 1084.51 861.417 582.982 1619.4 570.101 292.555 860.989 1033.25 1614.98 842.061 1086.92 860.319 582.772 1627.2 568.241 291.884 868.835 1061.19 1684.07 855.988 1113.58 881.01 604.653 1707.72 586.105 304.06 900.659 1155.46 1848.42 907.642 1197.77 932.813 650.768 1806.05 611.514 336.214 611.514 1257.67 817.359 1013.81 534.249 275.3 845.067 1717.54 1349.73 1050.91 1631.58 891.924 547.769 648.098 554.794 485.241 1192.95 668.802 895.842 1196.86 859.541 1631.4 1277.1 1050.68 1574.16 877.822 596.105 1228.24 833.348 1075.43 812.929 1535.96 1225.24 1032.69 1535.13 872.238 563.338 1203.96 802.066 1024.27 801.93 1508.7 1214.57 1017.79 1518.52 862.589 553.08 1187.83 793.893 1012.05 800.269 1502.77 1213.17 1012.59 1513.45 858.791 550.704 1182.4 792.029 1009.66 800.061 1501.37 1212.84 1010.86 1511.73 857.427 550.047 1180.66 791.411 1008.99 799.841 1500.67 1212.35 1010.12 1510.82 856.785 549.713 1179.9 791.003 1008.52 799.463 1499.97 1211.67 1009.58 1510.07 856.324 549.442 1179.28 790.62 1008.02 798.976 1499.24 1210.89 1009.11 1509.34 855.937 549.182 1178.6 790.25 1007.52 798.451 1498.55 1210.17 1008.64 1508.71 855.585 548.958 1177.87 789.989 1007.11 797.984 1498.05 1209.64 1008.32 1508.31 855.367 548.823 1177.23 789.843 1006.86 797.66 1497.78 1209.37 1008.13 1508.13 855.298 548.78 1176.79 789.75 1006.72 797.483 1497.54 1209.17 1007.97 1507.77 855.239 548.762 1176.55 789.201 1006.35 797.139 1496.28 1207.43 1007.04 1504.4 854.523 548.339 1175.94 785.599 1003.86 794.837 1488.81 1201.01 1000.84 1485.66 849.373 545.111 1170.83 770.63 993.217 789.702 1462.02 1196.74 973.547 1430.27 824.505 531.338 1149.74 738.437 970.72 798.029 1420.03 1214.79 914.022 1359.89 761.636 501.569 1115.66 703.79 954.998 818.243 1388.33 678.479 869.622 703.378 708.849 474.626 1108.33 248.055 489.441 585.805 1055.58 899.619 598.143 914.838 368.339 310.306 699.459 373.782 721.344 594.45 1061.01 900.157 602.324 913.229 713.502 712.68 596.132 1036.59 907.389 595.362 900.932 710.316 702.578 608.93 1040.98 917.677 592.929 897.02 717.191 702.339 614.452 1045.46 921.365 592.744 896.158 720.652 703.136 615.493 1046.6 921.659 592.455 895.601 720.927 703.2 615.163 1046.3 920.95 592.043 895.001 720.246 702.853 614.531 1045.56 920.041 591.586 894.327 719.394 702.363 613.884 1044.71 919.149 591.09 893.544 718.536 701.789 613.281 1043.82 918.416 590.55 892.782 717.683 701.245 612.861 1043.06 918.064 590.073 892.19 717.029 700.857 612.829 1042.63 918.404 589.75 891.975 716.797 700.764 613.466 1042.78 919.821 589.671 892.2 717.276 701.169 615.085 1043.67 922.364 589.626 892.007 718.602 701.958 617.791 1044.96 925.828 587.997 888.493 719.831 703.352 621.887 1050.43 932.615 582.54 884.033 719.286 712.028 627.305 1077.81 943.886 581.556 892.829 721.2 735.497 624.109 1090.6 554.059 583.873 513.387 724.334 414.073 531.705 805.26 814.194 358.353 560.034 350.935 236.473 532.195 214.625 551.473 542.529 818.682 838.861 361.469 570.088 542.126 570.87 570.051 853.136 866.247 370.411 581.082 563.419 587.453 581.816 875.149 876.291 377.458 587.964 574.146 596.029 581.709 879.509 876.023 379.269 589.099 574.36 597.583 579.487 878.3 873.921 378.687 588.201 572.049 597.045 577.869 876.597 872.297 377.793 587.088 570.146 596.252 576.887 875.244 871.21 377.032 586.086 568.901 595.534 576.266 874.198 870.503 376.39 585.235 568.055 594.94 575.903 873.396 870.146 375.869 584.597 567.53 594.511 575.819 872.974 870.21 375.548 584.363 567.377 594.391 576.068 873.164 870.813 375.574 584.809 567.708 594.785 576.698 874.385 871.961 376.146 586.261 568.69 595.988 577.501 876.961 872.969 377.389 588.546 570.35 597.989 577.108 880.318 871.112 378.858 590.039 571.743 599.523 571.344 880.368 861.158 378.932 587.899 569.314 596.819 555.072 866.208 837.323 375.204 579.885 558.77 584.829 535.097 841.328 467.003 367.979 348.601 544.231 328.737 645.227 845.665 984.941 383.784 618.114 468.922 265.039 751.545 289.055 583.256 660.171 875.494 1000.49 391.681 629.888 766.468 599.805 662.689 897.944 1003.86 398.82 638.829 775.044 608.162 655.475 896.617 998.992 399.357 639.745 773.771 608.335 649.446 889.664 994.06 397.327 637.433 770.309 605.99 646.569 885.183 991.296 395.591 635.338 767.953 604.151 645.339 882.957 989.908 394.53 634.032 766.639 603.079 644.75 881.807 989.208 393.915 633.3 765.916 602.468 644.486 881.173 988.922 393.568 632.933 765.583 602.131 644.424 880.89 988.933 393.44 632.904 765.579 602.022 644.552 880.969 989.257 393.55 633.256 765.887 602.16 644.844 881.449 989.965 393.919 634.064 766.551 602.562 645.204 882.18 991.186 394.592 635.349 767.801 603.024 645.476 882.519 993.178 395.485 636.622 770.178 602.802 645.378 879.793 995.396 395.895 635.642 774.132 599.641 644.91 868.045 994.104 393.742 628.16 777.575 589.966 644.812 845.314 978.12 387.76 613.989 773.143 572.104 632.837 825.893 488.757 380.59 312.238 757.517 298.045 838.494 1094.65 1305.27 612.619 961.565 631.036 362.933 1142.5 495.998 750.656 874.224 1120.44 1328.86 620.787 974.421 1196.97 740.166 867.627 1090.54 1324.62 623.556 979.54 1224.78 727.935 867.042 1077 1322.73 627.763 981.034 1241.41 722.648 868.92 1074.38 1322.59 629.729 980.675 1247.69 720.643 869.734 1073.94 1322.23 630.024 979.907 1248.89 719.774 869.69 1073.56 1321.71 629.765 979.256 1248.52 719.291 869.402 1073.16 1321.29 629.475 978.874 1247.96 719.023 869.203 1072.94 1321.11 629.337 978.808 1247.65 718.926 869.149 1072.93 1321.21 629.39 979.064 1247.69 718.995 869.27 1073.15 1321.65 629.654 979.68 1248.12 719.214 869.582 1073.54 1322.6 630.181 980.871 1249.09 719.552 870.196 1073.97 1324.93 631.284 983.31 1251.23 720.046 872.045 1074.54 1331.55 633.919 988.246 1256.55 721.151 878.716 1077.02 1349.18 639.811 995.698 1268.93 725.002 898.854 1088.16 1381.28 648.746 999.825 1289.06 735.975 933.313 1115.74 1426.18 652.08 989.931 1295.01 749.923 940.234 1118.28 655.386 636.64 451.803 1273.27 353.992 530.963 1418.08 762.549 900.713 1453.2 280.639 503.041 762.762 772.217 975.593 553.133 1476.53 802.56 970.002 1548.21 808.064 1004.64 579.932 1524.49 821.73 1030.1 1599.31 858.899 1016.52 589.958 1549.62 827.539 1056.8 1619.37 881.672 1023.38 593.179 1558.78 829.676 1064.3 1624.38 888.338 1026.12 593.849 1560.76 830.086 1065.36 1624.56 889.467 1026.59 593.754 1560.48 829.869 1064.87 1623.81 889.19 1026.32 593.518 1559.82 829.568 1064.31 1623.19 888.764 1025.97 593.33 1559.35 829.367 1063.98 1623.03 888.483 1025.78 593.235 1559.15 829.323 1063.96 1623.37 888.437 1025.82 593.279 1559.31 829.459 1064.28 1624.33 888.681 1026.12 593.488 1559.87 829.797 1065.13 1626.39 889.312 1026.8 593.927 1561.13 830.521 1067.13 1630.9 890.663 1028.43 595.031 1564.85 832.889 1072.26 1641.02 893.736 1033.34 599.161 1578.45 842.643 1084.98 1659.35 901.182 1048.68 614.878 1623.23 874.054 1107.75 1670.96 916.446 1084.51 651.355 1711.36 935.188 1115.29 1682.18 930.21 1153.14 698.838 1775.16 636.635 1109.39 738.637 953.712 520.755 719.727 1491.55 1144.65 924.122 1436.49 768.219 478.595 558.294 461.064 430.116 1067.93 611.41 808.866 1041.63 751.631 1530.5 1175.57 969.322 1516.13 819.994 577.86 1093.95 835.999 1059.38 769.882 1571.23 1182.67 1027.14 1565.97 870.274 594.213 1152.92 843.435 1067.16 766.671 1566.85 1174.29 1040.36 1572.01 882.857 592.865 1167.52 840.457 1060.92 763.338 1561.29 1170.03 1040.93 1570.86 884.109 591.18 1167.54 838.825 1057.64 761.901 1558.89 1168.41 1040.45 1569.96 883.956 590.505 1166.58 838.146 1056.34 761.326 1557.83 1167.67 1040.13 1569.41 883.717 590.165 1166.14 837.75 1055.68 760.958 1557.11 1167.04 1039.85 1568.91 883.482 589.919 1165.83 837.403 1055.17 760.572 1556.46 1166.39 1039.52 1568.32 883.209 589.686 1165.43 837.072 1054.71 760.135 1555.81 1165.74 1039.14 1567.74 882.919 589.462 1164.87 836.799 1054.29 759.716 1555.3 1165.26 1038.82 1567.36 882.71 589.312 1164.29 836.704 1054.04 759.436 1555.1 1165.13 1038.75 1567.53 882.742 589.313 1163.97 836.835 1054.04 759.434 1555.15 1165.43 1039.07 1568.5 883.132 589.415 1164.25 837.086 1054.19 759.59 1554.94 1164.71 1039.81 1569.96 883.869 589.391 1165.4 835.857 1053.2 757.49 1549.51 1154.31 1039.32 1564.46 883.813 587.247 1165.9 823.354 1042.89 742.812 1513.52 1115.68 1023.23 1515.77 872.242 571.966 1153.28 777.519 999.839 707.03 1406.48 1063.78 954.844 1406.95 815.365 524.225 1097.88 726.715 931.151 691.18 1330.02 588.469 896.712 737.471 761.744 493.108 1048.13 253.526 482.278 352.589 804.2 553.922 500.448 771.779 190.441 224.685 502.036 317.596 558.476 363.006 831.015 563.706 509.298 795.858 511.904 573.271 366.394 844.669 567.674 529.662 814.702 525.459 577.915 368.168 843.07 567.068 535.078 816.57 530.383 574.552 368.816 841.476 566.363 535.113 815.469 530.936 572.752 368.609 840.605 565.631 534.764 814.859 530.57 572.001 368.199 840.047 564.941 534.62 814.645 530.27 571.599 367.754 839.541 564.243 534.514 814.381 530.03 571.213 367.275 838.926 563.496 534.278 813.937 529.658 570.766 366.749 838.216 562.771 533.921 813.363 529.125 570.311 366.312 837.555 562.283 533.523 812.853 528.553 569.936 366.098 837.105 562.317 533.254 812.722 528.174 569.819 366.327 837.159 563.08 533.369 813.35 528.39 570.101 367.018 837.624 563.892 534.031 814.495 529.425 570.297 367.17 836.049 561.688 534.25 812.586 530.333 567.111 364.256 823.867 554.077 528.336 797.202 526.908 554.846 360.156 800.66 549.81 508.539 768.651 515.394 542.866 360.667 794.63 352.583 496.36 437.811 507.216 312.88 202.846 362.404 345.937 163.575 282.492 140.098 83.2773 217.358 96.0437 253.269 207.616 369.121 352.746 165.369 287.653 222.98 258.863 215.19 378.235 360.599 170.116 292.751 229.031 262.836 219.292 383.897 363.424 172.419 294.006 232.102 264.381 219.18 384.776 362.703 172.378 293.417 231.218 264.223 217.813 383.675 361.177 171.817 292.781 229.513 263.536 216.677 382.49 359.973 171.454 292.444 228.455 262.871 215.928 381.52 359.203 171.245 292.21 228.016 262.284 215.456 380.667 358.749 171.03 291.894 227.914 261.738 215.209 379.889 358.582 170.73 291.507 227.978 261.277 215.195 379.334 358.796 170.435 291.227 228.185 261.039 215.501 379.219 359.567 170.298 291.381 228.683 261.214 216.25 379.855 361.02 170.607 292.325 229.76 262.011 217.481 381.426 362.546 171.54 293.701 231.486 263.236 218.527 382.96 362.005 172.434 293.247 232.524 263.649 217.38 381.826 358.114 171.155 288.931 229.653 261.795 213.01 377.675 350.84 167.433 285.717 223.382 258.84 207.374 373.929 206.268 166.322 187.146 216.817 169.723 408.112 395.789 631.845 196.913 333.311 341.741 138.245 554.919 203.006 270.608 419.346 405.014 648.974 201.597 340.747 571.493 275.856 427.73 413.659 658.567 205.992 344.929 583.964 280.146 430.756 415.962 660.697 206.927 345.189 587.364 280.868 430.472 414.277 659.618 205.769 343.429 586.237 279.73 429.506 412.212 658.221 204.525 341.871 584.549 278.536 428.753 410.791 657.303 203.811 341.058 583.481 277.746 428.335 409.972 656.887 203.567 340.865 583.086 277.324 428.211 409.604 656.855 203.664 341.094 583.204 277.164 428.334 409.618 657.173 204.018 341.643 583.697 277.231 428.676 409.987 657.869 204.56 342.493 584.488 277.556 429.287 410.784 659.127 205.346 343.745 585.654 278.217 430.363 412.155 661.224 206.487 345.437 587.407 279.307 432.194 414.192 663.374 207.898 346.711 589.675 280.57 434.19 416.007 661.475 208.258 344.824 589.912 280.669 432.875 414.385 650.499 204.651 337.152 580.956 277.546 423.772 407.04 636.704 197.712 330.838 561.395 272.199 414.514 399.289 280.817 192.753 122.725 548.942 128.022 738.554 831.307 1145.86 537.582 833.014 607.25 303.514 1107.23 470.477 553.142 777.674 850.942 1210.78 556.636 865.55 1165.56 570.991 820.697 877.083 1248.75 576.502 880.577 1222.29 581.63 840.679 892.089 1262.04 583.725 883.689 1241.57 585.289 845.452 896.149 1264.21 584.392 882.761 1243.45 585.618 845.484 896.109 1263.51 583.534 881.454 1241.76 585.122 844.797 895.362 1262.65 582.818 880.72 1240.35 584.672 844.303 894.853 1262.23 582.548 880.59 1239.74 584.47 844.141 894.727 1262.3 582.65 880.921 1239.77 584.506 844.325 894.977 1262.86 583.015 881.634 1240.32 584.798 844.836 895.598 1263.96 583.629 882.726 1241.36 585.339 845.787 896.669 1265.89 584.561 884.338 1242.96 586.275 847.581 898.668 1269.12 586.059 886.6 1245.43 587.959 850.969 902.556 1273.24 588.181 887.901 1248.59 590.507 855.65 908.294 1270.89 588.528 880.803 1248.18 592.005 853.482 909.371 1240.74 578.432 854.703 1226.46 587.043 823.778 891.673 1202.88 552.478 822.323 1157.97 573.635 798.19 864.213 523.544 534.017 347.757 1114.84 247.041 549.815 1394.93 752.361 949.704 1500.27 290.094 519.767 808.588 823.301 941.229 571.241 1481.34 823.404 1031.01 1609.37 849.686 1018.22 631.061 1603.95 873.772 1099.59 1665.16 923.702 1063.41 653.378 1651.06 890.625 1119.52 1677.84 949.397 1078.9 658.444 1660.93 894.15 1120.63 1677.16 953.344 1081.72 658.792 1660.89 894.169 1118.75 1674.87 952.497 1081.32 658.32 1659.49 893.627 1117.33 1673.42 951.386 1080.62 657.928 1658.5 893.216 1116.66 1672.97 950.738 1080.21 657.721 1658.1 893.095 1116.6 1673.28 950.56 1080.21 657.789 1658.4 893.294 1117.04 1674.21 950.816 1080.62 658.115 1659.3 893.845 1117.89 1675.76 951.42 1081.47 658.783 1661.08 894.965 1119.25 1678.09 952.441 1083.02 660.076 1664.49 897.222 1121.39 1681.26 954.051 1085.79 662.595 1671.07 901.612 1124.15 1682.92 956.299 1089.99 667.021 1681.39 908.275 1124.06 1669.63 957.39 1091.55 670.349 1682.51 908.023 1104.51 1605.14 947.162 1072.23 654.318 1624.71 882.509 1032.55 1487.93 899.706 1031.18 627.785 1562.94 553.82 969.72 655.468 837.812 449.595 696.265 1354.42 1080.25 889.995 1366.87 703.647 453.382 500.621 473.343 408.269 1121.3 632.352 738.635 928.708 705.355 1418.04 1123.29 926.624 1448.35 768.904 538.8 1114.4 788.611 995.412 750.778 1519.02 1178.47 977.578 1514.48 813.114 574.605 1156.14 820.726 1048.48 770.339 1555.85 1195.3 999.514 1536.02 829.147 586.505 1182.28 829.457 1063.23 773.851 1562.26 1197.42 1004.39 1540.02 832.547 588.542 1188.51 830.813 1065.22 773.994 1562.69 1197.4 1005.15 1540.61 833.028 588.776 1189.31 830.939 1065.24 773.937 1562.52 1197.29 1005.31 1540.7 833.075 588.743 1189.53 830.873 1065.09 773.874 1562.3 1197.14 1005.34 1540.64 833.067 588.661 1189.67 830.716 1064.86 773.747 1561.95 1196.79 1005.25 1540.37 832.983 588.536 1189.66 830.502 1064.56 773.439 1561.46 1196.28 1005.04 1539.94 832.829 588.359 1189.38 830.273 1064.2 773.078 1561 1195.86 1004.78 1539.57 832.671 588.231 1188.93 830.188 1063.96 772.862 1560.87 1195.94 1004.68 1539.74 832.684 588.271 1188.57 830.557 1064.15 773.176 1561.64 1197.17 1005.22 1541.33 833.213 588.683 1188.96 831.953 1065.26 774.539 1564.1 1200.46 1007.34 1546.39 835.012 589.835 1191.02 835.744 1068.26 777.661 1569.79 1206.01 1013.51 1561.32 840.297 592.538 1196.89 843.691 1073.98 779.846 1573.22 1199.36 1029.4 1588.99 855.361 595.929 1212.22 840.084 1066.29 761.283 1521.45 1141.47 1038.8 1569.51 875.469 578.12 1231.27 805.945 1008.33 721.844 1432.56 606.237 1016.47 828.239 874.945 545.365 1197.46 277.799 522.161 358.034 786.392 579.99 591.443 908.558 257.732 232.036 703.209 425.604 537.396 362.442 788.454 584.469 587.72 900.138 716.258 541.79 371.141 816.919 600.045 590.248 913.055 717.695 562.324 375.636 830.352 605.52 595.836 920.727 719.352 569.343 376.279 832.444 605.898 596.982 921.888 718.729 570.086 376.077 832.333 605.697 596.911 921.95 717.938 570.039 376.021 832.335 605.753 596.995 922.195 717.828 570.073 376.091 832.372 605.85 597.169 922.398 718.096 570.05 376.092 832.275 605.772 597.266 922.397 718.357 569.893 375.953 831.906 605.483 597.15 922.094 718.378 569.581 375.685 831.4 605.129 596.893 921.691 718.134 569.281 375.484 831.07 605.004 596.666 921.532 717.868 569.242 375.582 831.389 605.42 596.84 922.099 717.931 569.81 376.171 832.902 606.144 597.828 923.349 718.649 571.283 376.846 835.734 605.459 599.992 924.943 719.221 573.499 375.805 836.712 600.091 604.35 930.507 717.095 572.256 370.809 823.227 585.908 611.688 930.682 715.004 553.509 361.424 796.133 315.835 602.317 488.021 706.996 303.902 176.872 347.774 313.873 373.269 575.021 197.04 109.517 514.111 298.662 239.261 177.394 350.849 316.834 383.158 590.481 523.127 241.765 180.749 357.129 321.212 388.398 595.989 536.422 245.823 182.179 360.012 321.899 389.193 596.493 540.821 247.076 181.293 359.51 320.628 388.377 595.571 540.146 246.786 180.28 358.594 319.72 387.728 595.054 539.045 246.503 179.929 358.293 319.58 387.628 595.158 538.788 246.521 180.06 358.419 319.903 387.849 595.527 539.138 246.655 180.395 358.605 320.333 388.141 595.844 539.725 246.714 180.722 358.626 320.691 388.316 595.975 540.245 246.657 180.991 358.501 320.985 388.339 595.913 540.623 246.532 181.252 358.396 321.369 388.301 595.894 540.898 246.52 181.682 358.668 322.006 388.368 596.187 541.277 246.82 182.301 359.51 322.515 388.639 596.241 541.894 247.176 182.396 359.99 321.437 388.217 592.088 541.905 246.171 180.237 357.055 317.02 384.016 578.458 537.409 242.603 175.589 350.097 309.316 375.355 572.385 522.427 240.193 171.258 345.646 113.577 372.363 267.033 510.75 127.705 399.474 381.262 594.36 386.915 563.333 373.979 160.34 731.891 336.753 233.887 407.555 386.782 601.427 389.831 566.633 733.935 237.143 411.154 392.354 603.335 394.329 574.323 731.656 239.231 410.877 394.097 601.946 397.549 576.921 732.256 239.048 409.221 392.671 599.585 397.53 576.18 731.066 237.761 407.843 391.009 598.008 396.869 575.393 729.661 236.815 407.197 390.25 597.461 396.668 575.361 729.107 236.515 407.132 390.271 597.653 396.885 575.85 729.304 236.686 407.43 390.774 598.258 397.338 576.586 729.937 237.108 407.942 391.515 599.101 397.848 577.332 730.768 237.641 408.57 392.341 600.067 398.315 578.037 731.627 238.228 409.305 393.287 601.112 398.751 578.744 732.472 238.911 410.118 394.461 601.81 399.21 579.538 733.228 239.717 410.54 395.679 600.283 399.624 580.394 733.31 240.265 408.461 395.444 593.013 399.564 581.206 730.924 239.376 401.064 391.098 583.387 398.449 579.133 725.912 235.747 392.842 382.68 570.814 394.122 573.794 729.104 231.352 385.856 374.706 205.437 383.42 211.912 717.425 66.8115 785.455 854.627 1197.08 642.783 964.143 679.673 324.072 1253.83 541.801 554.833 820.768 874.582 1237.74 649.518 954.498 1277.62 571.5 845.748 894.741 1251.3 641.866 943.96 1268.98 576.466 846.736 897.476 1249.32 636.553 939.033 1254.65 575.67 842.935 894.585 1245.3 633.376 935.963 1246.48 573.824 840.273 891.887 1242.76 631.583 934.326 1242.7 572.573 839.031 890.515 1241.74 630.911 933.904 1241.32 572.069 838.726 890.216 1241.74 630.95 934.265 1241.24 572.113 838.938 890.581 1242.31 631.379 935.002 1241.83 572.484 839.466 891.327 1243.28 631.969 935.918 1242.74 573.058 840.246 892.327 1244.5 632.61 936.868 1243.83 573.776 841.227 893.586 1245.85 633.223 937.677 1244.9 574.616 842.313 895.115 1246.47 633.619 937.7 1245.54 575.363 842.596 896.171 1242.56 632.929 934.678 1244.01 574.638 837.623 892.529 1221.76 628.544 924.449 1234.59 568.165 814.505 874.567 1162.88 618.021 914.509 1205.08 553.478 761.608 845.264 1095.39 616.137 920.357 1155.97 535.563 735.766 820.183 466.46 607.227 381.577 1140.43 217.195 593.628 1532.48 816.597 1092.68 1640.64 304.807 571.53 904.404 921.498 1013.15 620.467 1608.1 877.419 1119.22 1645.33 913.515 1069.7 661.985 1678.45 909.285 1109.57 1625.66 930.903 1090.03 668.569 1683.5 913.456 1091.3 1609.08 924.021 1089.44 666.065 1675.41 911.227 1081.94 1600.89 917.172 1085.88 663.857 1669.95 909.253 1078.22 1597.46 913.805 1083.58 662.664 1667.36 908.205 1076.9 1596.45 912.327 1082.59 662.16 1666.54 907.864 1076.73 1596.66 911.879 1082.48 662.131 1666.78 908.014 1077.14 1597.45 912.021 1082.84 662.399 1667.64 908.503 1077.82 1598.55 912.472 1083.55 662.876 1669.01 909.28 1078.67 1599.81 913.115 1084.54 663.55 1670.78 910.367 1079.49 1600.95 913.855 1085.72 664.443 1672.85 911.737 1079.93 1601 914.512 1086.64 665.278 1673.84 912.365 1078.47 1596.19 914.335 1084.88 664.097 1666.48 906.742 1070.03 1574.57 910.255 1070.95 652.662 1626.28 878.111 1041.6 1508.55 892.492 1022.25 613.235 1513.46 807.625 974.818 1374.14 840.526 934.464 552.107 1406.67 484.156 906.352 629.269 751.928 406.894 813.865 1376.7 1240.03 1014.11 1500.84 743.483 494.082 482.788 617.223 457.298 1455.75 798.843 727.223 915.781 806.131 1420.72 1238.21 997.676 1511.69 783.57 519.975 1405.17 762.001 966.536 806.661 1465.95 1259.85 995.266 1532.32 795.923 540.549 1358.33 782.281 1003.21 817.36 1492.07 1273.55 1001.54 1542.62 801.604 548.577 1356.68 789.426 1016.56 820.919 1499.39 1277.07 1004.31 1545.39 803.361 550.532 1358.26 790.954 1019.51 821.535 1500.64 1277.73 1004.91 1545.86 803.584 550.796 1358.59 791.148 1019.96 821.758 1500.86 1278.07 1004.98 1545.9 803.492 550.79 1358.8 791.158 1020.05 821.965 1500.98 1278.31 1005.02 1545.95 803.424 550.789 1359.07 791.156 1020.1 822.094 1500.99 1278.32 1005.04 1545.92 803.402 550.767 1359.3 791.101 1020.01 822.01 1500.81 1278.09 1005 1545.8 803.386 550.711 1359.31 790.992 1019.83 821.773 1500.5 1277.7 1004.91 1545.62 803.376 550.635 1359.12 790.873 1019.61 821.491 1500.27 1277.4 1004.79 1545.51 803.372 550.611 1358.83 790.906 1019.56 821.484 1500.62 1277.55 1004.76 1545.57 803.426 550.81 1358.56 791.435 1020.14 822.161 1502.61 1278.15 1004.95 1546.02 803.509 551.623 1358.12 793.796 1022.44 824.363 1509.72 1281.89 1006.34 1551.66 804.271 554.697 1356.34 805.386 1032.47 833.73 1538.08 1310 1017.75 1589.78 812.345 567.655 1356.5 850.894 1070.75 867.462 1619.91 1345.55 1077.42 1689.09 860.485 609.873 1393.59 891.895 1114.81 872.047 1654.94 711.363 1177.24 957.869 1009.18 626.948 1466.24 324.505 607.379 598.705 1058.43 946.552 887.322 1340.87 485.576 350.552 1196.6 684.33 708.592 616.708 1048.99 952.287 883.409 1308.3 1242.46 688.227 611.629 1026.49 946.728 847.316 1273.52 1229.23 684.178 607.677 1025.12 945.798 835.141 1266.85 1213.82 687.65 605.765 1025.04 944.874 832.159 1265.33 1207.77 688.614 604.829 1024.58 944.36 831.222 1264.86 1205.54 688.76 604.637 1024.59 944.504 831.097 1265.04 1205.03 688.993 604.868 1024.93 944.919 831.315 1265.39 1205.32 689.229 605.148 1025.22 945.237 831.552 1265.66 1205.76 689.332 605.29 1025.23 945.286 831.656 1265.67 1206.07 689.233 605.222 1024.97 945.106 831.573 1265.47 1206.11 688.993 605.061 1024.6 944.894 831.389 1265.12 1205.99 688.758 604.997 1024.51 944.791 831.15 1264.48 1205.8 688.652 605.047 1024.83 943.279 830.483 1261.38 1205.11 687.994 603.551 1024.63 934.066 826.988 1248.86 1199.4 685.611 595.753 1024.62 916.239 815.978 1226.87 1173.89 690.306 587.232 1044.42 922.584 811.228 1233.17 1126.3 712.368 590.827 1052.9 447.685 827.114 624.325 1132.69 371.464 506.201 804.111 784.269 744.818 1128.54 444.364 283.437 1057.32 595.355 537.483 517.454 832.466 814.317 786.351 1197.8 1104.06 556.938 538.826 848.051 830.681 811.293 1209.78 1167.36 558.405 545.384 848.193 833.035 810.524 1204.43 1183.15 556.414 545.453 845.773 832.036 807.432 1200.87 1183.2 554.922 544.879 844.31 831.412 805.991 1199.5 1182.1 554.284 544.798 843.99 831.545 805.632 1199.32 1181.8 554.288 545.088 844.317 832.067 805.815 1199.73 1182.1 554.576 545.51 844.831 832.656 806.163 1200.22 1182.69 554.877 545.881 845.208 833.127 806.463 1200.58 1183.25 555.055 546.146 845.345 833.418 806.631 1200.77 1183.69 555.065 546.31 845.333 833.743 806.706 1200.86 1184.02 555.034 546.565 845.385 834.62 806.781 1201.01 1184.51 555.096 547.253 845.565 836.492 806.708 1199.9 1185.71 554.594 548.097 843.502 836.4 803.641 1186.91 1186.74 548.878 544.269 829.359 819.028 785.006 1137.59 1174.93 531.415 523.961 798.72 792.218 738.18 1084.56 1117 525.994 511.773 793.597 333.802 724.368 491.794 1079.75 243.208 605.173 799.526 903.912 719.169 1068.86 530.231 292.595 1116.52 575.469 521.814 600.961 815.498 895.995 739.745 1119.29 1126.76 532.75 599.473 837.779 899.843 779.502 1163.52 1160.71 545.051 603.981 849.331 903.464 795.699 1175.28 1182.97 548.683 605.337 850.902 903.723 797.981 1176.05 1188.38 548.565 605.324 850.425 903.472 797.863 1175.75 1189.02 548.21 605.395 850.368 903.704 797.868 1175.88 1189.24 548.286 605.743 850.811 904.305 798.16 1176.4 1189.71 548.649 606.236 851.494 905.074 798.595 1177.06 1190.37 549.113 606.78 852.19 905.823 799.041 1177.7 1191.11 549.552 607.276 852.798 906.481 799.431 1178.29 1191.78 549.931 607.721 853.333 907.021 799.813 1178.99 1192.41 550.313 608.126 853.999 907.562 800.421 1180.5 1193.2 550.973 608.508 855.249 908.925 801.971 1184.72 1194.96 552.524 609.39 857.651 915.011 805.674 1194.04 1200.78 555.503 613.995 859.574 933.856 809.7 1192.26 1218.81 552.704 626.888 844.756 928.407 791.881 1153.51 1248.49 540.53 618.419 822.733 378.49 759.292 483.674 1219.07 220.034 915.946 1093.19 1358.47 845.87 1246.49 798.505 395.627 1457.23 667.898 712.495 911.703 1093.67 1310.35 829.377 1207.68 1424.19 693.062 870.386 1066.94 1273.95 817.893 1210.8 1365.29 683.164 852.714 1059.1 1261.55 822.339 1218.31 1353.65 681.474 847.772 1056.54 1257.67 824.509 1220.28 1353.09 680.599 846.36 1055.19 1256.39 824.889 1220.56 1353.13 680.081 846.063 1054.85 1256.3 825.089 1220.9 1353.3 680.088 846.309 1055.23 1256.85 825.458 1221.5 1353.76 680.462 846.818 1055.97 1257.67 825.942 1222.23 1354.49 680.993 847.43 1056.84 1258.61 826.458 1223 1355.3 681.566 848.075 1057.68 1259.51 826.929 1223.67 1356.14 682.104 848.634 1058.43 1260.09 827.309 1224.17 1356.81 682.501 848.83 1058.89 1259.62 827.588 1224.53 1357 682.551 847.767 1058.46 1256.02 827.983 1225.82 1356.08 681.844 843.027 1056.22 1245.53 830.292 1235.08 1353.66 681.399 831.36 1055.67 1221.7 842.754 1281.05 1355.34 690.282 816.293 1080.13 1213.38 889.696 1348.08 1390.22 704.908 836.862 1075.16 539.016 888.128 576.861 1466.66 298.686 654.775 1752.36 915.647 1252.88 1737.46 321.901 641.135 1012.28 1016.52 1117.36 662.179 1716.3 897.26 1137.81 1610.19 939.009 1077.5 626.887 1629.39 863.376 1058.18 1551.9 868.747 1040.91 604.268 1584.75 845.886 1038.4 1539.51 842.359 1025.92 597.249 1571.58 840.082 1036.08 1537.72 836.744 1021.14 595.416 1568.11 838.244 1036.03 1537.63 835.682 1019.67 594.862 1567.27 837.735 1036.24 1537.96 835.505 1019.45 594.821 1567.54 837.838 1036.63 1538.6 835.672 1019.81 595.04 1568.31 838.235 1037.15 1539.38 836.038 1020.39 595.364 1569.3 838.764 1037.72 1540.28 836.475 1021.08 595.748 1570.38 839.343 1038.33 1541.21 836.968 1021.78 596.123 1571.34 839.884 1038.84 1541.88 837.443 1022.34 596.41 1571.74 840.066 1038.98 1541.63 837.779 1022.22 596.231 1570.04 838.8 1038.02 1538.74 837.513 1019.75 594.266 1561.72 832.601 1034.49 1529.66 835.421 1010.42 586.497 1536.91 812.345 1026.75 1505.86 828.485 983.668 562.633 1478.31 756.899 1006.77 1440.41 807.017 916.686 499.768 1401.49 458.68 993.368 728.285 734.451 428.28 1187.95 1783.17 1708.7 734.926 899.553 359.104 734.926 609.17 973.156 653.97 1024.48 375.822 831.554 1069.82 1112.82 1645.26 1628.76 581.488 845.546 291.105 565.681 889.592 841.727 1067.93 1043.71 1603.77 1587.22 567.152 846.182 287.287 566.171 837.589 846.923 1070.36 1029.94 1602.64 1581.24 568.039 848.975 288.028 568.394 827.824 849.595 1073.25 1027.99 1604.55 1580.71 569.23 850.163 288.648 569.435 826.536 850.293 1074.27 1027.6 1604.96 1580.61 569.506 850.29 288.778 569.564 826.252 850.266 1074.37 1027.57 1604.88 1580.68 569.481 850.158 288.754 569.471 826.175 850.111 1074.26 1027.69 1604.79 1580.86 569.394 850.033 288.707 569.371 826.178 850.01 1074.19 1027.83 1604.78 1580.98 569.346 849.992 288.685 569.339 826.219 849.982 1074.18 1027.89 1604.78 1581.02 569.328 849.997 288.675 569.337 826.246 850.035 1074.19 1027.87 1604.83 1581.02 569.372 850.121 288.713 569.403 826.251 850.196 1074.25 1027.83 1604.94 1580.96 569.506 850.295 288.788 569.506 826.325 850.385 1074.33 1027.71 1605.04 1580.46 569.666 850.406 288.878 569.615 826.388 850.47 1074.26 1027.07 1604.69 1576.92 569.733 849.89 288.942 569.524 826.137 849.824 1073.28 1023.63 1602.81 1562.83 569.241 847.769 288.875 568.88 823.751 848.155 1070.59 1013.59 1602.51 1529.08 568.149 843.702 289.261 569.125 814.972 842.789 1069.25 1000.72 1629.81 1492.72 562.925 828.794 288.349 578.731 792.915 813.519 1075.78 1015.83 1759.4 856.205 523.137 648.887 273.073 648.887 740.61 375.814 706.734 1025.26 1697.17 1592.73 695.008 959.969 837.354 580.666 884.06 324.502 1091.45 1065.43 1634.82 1625.58 640.038 881.052 897.821 1054.74 1064.36 1561.04 1599.15 601.665 839.398 882.632 1013.14 1048.72 1532.86 1584.11 589.769 828.863 868.137 1002.79 1042.63 1525.56 1579.1 586.806 826.614 863.027 1000.46 1040.43 1523.3 1577.4 585.927 826.02 861.226 999.838 1039.77 1522.74 1577.14 585.683 825.949 860.642 999.852 1039.82 1522.88 1577.47 585.701 826.062 860.625 1000.06 1040.09 1523.2 1577.9 585.79 826.172 860.809 1000.25 1040.36 1523.41 1578.24 585.84 826.226 860.982 1000.33 1040.49 1523.43 1578.37 585.858 826.239 861.095 1000.31 1040.54 1523.38 1578.38 585.896 826.255 861.167 1000.21 1040.44 1523.16 1577.77 585.914 826.078 861.164 999.75 1039.7 1522.02 1573.15 585.616 824.505 860.638 997.073 1034.38 1514.95 1548.39 582.861 816.569 856.456 985.171 1008.92 1488.02 1475.14 570.892 792.334 836.342 953.441 945.864 1431.36 1386.46 536.769 744.01 782.793 909.397 904.015 1383.81 660 475.003 486.299 711.516 478.797 908.807 1459.41 1422.96 581.19 841.772 746.976 508.683 771.241 277.796 975.76 967.526 1538.13 1532.44 625.037 887 826.876 1037.61 1041.95 1598.56 1585.91 644.238 891.997 884.669 1046.87 1060.2 1599.75 1592.8 642.014 885.22 896.481 1040.9 1061.12 1594.96 1591.38 639.828 881.948 896.621 1037.58 1060.45 1592.56 1590.32 638.845 880.699 895.92 1036.29 1060.15 1591.74 1590.1 638.451 880.372 895.536 1036.01 1060.22 1591.81 1590.45 638.425 880.466 895.521 1036.23 1060.56 1592.26 1591.06 638.574 880.708 895.756 1036.56 1060.97 1592.76 1591.67 638.754 880.943 896.072 1036.86 1061.36 1593.14 1592.3 638.912 881.11 896.387 1037.07 1061.74 1593.41 1593.03 639.042 881.249 896.717 1037.21 1062.25 1593.63 1594.32 639.157 881.206 897.135 1037.19 1063.23 1593.33 1596.65 638.905 879.82 897.716 1035.74 1064.26 1587.52 1593.85 635.907 870.114 897.521 1023.74 1054.87 1551.49 1547.03 618.998 833.009 887.073 977.562 998.124 1446.64 1470.89 570.564 770.397 836.246 908.921 949.773 1366.08 628.078 521.238 474.007 784.215 415.289 873.693 1340.05 1366.56 516.089 749.691 706.514 468.354 711.993 253.531 904.219 924.728 1429.86 1436.05 570.216 823.513 767.337 969.364 980.699 1535.39 1492.77 616.145 867.534 825.925 1016.2 1007.17 1572.8 1513.1 629.507 878.131 848.974 1028.06 1013.26 1578.88 1516.71 631.388 879.07 853.727 1029.18 1014.13 1579.2 1517.06 631.425 878.844 854.311 1029.01 1014.29 1579.17 1517.21 631.357 878.744 854.356 1028.98 1014.48 1579.41 1517.62 631.394 878.877 854.434 1029.22 1014.84 1579.95 1518.26 631.566 879.188 854.666 1029.63 1015.3 1580.63 1518.99 631.824 879.54 855.021 1030.08 1015.79 1581.31 1519.75 632.099 879.937 855.413 1030.55 1016.32 1582.08 1520.67 632.461 880.445 855.877 1031.14 1017.09 1583.24 1522.44 633.001 881.312 856.554 1032.26 1018.9 1585.76 1528.15 634.06 883.339 858.023 1035.19 1024.95 1591.58 1549.08 636.311 886.886 862.596 1041.13 1045.05 1596.27 1603.23 637.568 879.373 876.636 1034.96 1081.05 1554.11 1665.12 615.677 846.677 896.774 1005.67 1089.02 1509.09 681.638 599.922 520.223 913.083 426.002 991.406 1385.24 1522.25 491.69 720.855 819.847 478.777 740.356 248.052 939.069 1017.56 1450.03 1498.48 534.239 771.117 792.107 947.885 995.981 1477.88 1493.51 562.594 801.869 798.719 970.785 998.915 1500.24 1500.96 573.188 813.679 806.347 982.98 1002.36 1507.4 1504.36 575.467 816.316 809.323 986.003 1003.4 1508.76 1505.17 575.675 816.664 809.913 986.512 1003.65 1509.04 1505.48 575.651 816.71 809.963 986.697 1003.86 1509.36 1505.89 575.69 816.857 810.051 986.977 1004.21 1509.9 1506.51 575.837 817.139 810.266 987.387 1004.65 1510.58 1507.26 576.074 817.506 810.592 987.872 1005.17 1511.33 1508.01 576.345 817.914 810.979 988.363 1005.61 1512.08 1508.51 576.661 818.353 811.357 988.844 1005.8 1512.94 1508.4 577.067 819.048 811.608 989.535 1005.49 1514.68 1507.83 577.963 821.154 811.694 991.758 1005.41 1521.39 1512.81 581.361 830.341 812.65 1002.26 1014.09 1550.8 1559.54 596.17 866.196 822.766 1045.2 1080.96 1647.41 1766.72 641.66 941.384 880.245 1140.58 1239.42 1746.62 779.096 706.179 605.854 1044.14 483.486 697.281 1827.19 974.015 589.122 806.115 326.14 653.682 653.682 327.542 1147.41 640.37 1714.9 861.407 561.291 812.952 606.623 1079.32 568.964 1625.41 812.276 562.022 809.865 566.08 1057.23 558.05 1615.95 806.255 564.737 811.415 562.806 1057.69 559.164 1619.15 807.281 565.901 812.684 564.524 1059.42 560.081 1620.7 807.942 566.168 813.022 565.343 1060.06 560.441 1621.2 808.255 566.156 813.06 565.606 1060.32 560.648 1621.55 808.535 566.154 813.17 565.722 1060.63 560.847 1622.09 808.868 566.277 813.43 565.872 1061.05 561.076 1622.78 809.251 566.489 813.797 566.08 1061.56 561.35 1623.61 809.699 566.76 814.218 566.346 1062.15 561.657 1624.4 810.088 567.032 814.533 566.658 1062.59 561.904 1624.74 810.224 567.101 814.422 566.88 1062.52 561.869 1623.85 809.589 566.657 813.347 566.783 1061.19 561.053 1620.78 807.477 565.47 811.637 565.875 1058.47 558.507 1619.75 802.765 566.765 817.465 564.212 1059.17 549.777 1653.21 791.566 593.044 896.808 564.694 1110.25 518.24 1802.25 519.929 725.146 682.467 599.854 558.863 
CELL_DATA 3888
SCALARS stress float 1
LOOKUP_TABLE default
242.13 339.137 269.061 285.066 327.74 301.363 266.726 273.175 259.187 262.443 286.426 282.089 276.495 260.008 264.442 248.042 283.763 284.78 278.931 258.741 266.39 246.981 284.577 286.113 279.698 258.87 267.598 247.293 285.169 286.674 279.848 258.938 268.068 247.437 285.292 286.769 279.77 258.873 268.135 247.412 285.203 286.659 279.621 258.755 268.03 247.299 285.052 286.502 279.477 258.622 267.88 247.171 284.918 286.368 279.352 258.523 267.741 247.053 284.819 286.262 279.253 258.448 267.621 246.97 284.781 286.201 279.203 258.417 267.543 246.912 284.775 286.139 279.164 258.353 267.487 246.847 284.764 286.012 278.973 258.029 267.429 246.581 284.556 285.586 278.285 256.885 267.441 245.744 283.614 284.511 279.583 255.533 268.892 245.021 280.795 285.056 301.955 261.631 279.792 251.24 280.379 302.187 375.311 255.217 309.871 264.161 327.542 373.091 234.676 227.699 234.354 212.285 231.233 232.093 266.267 209.748 241.569 207.676 252.011 272.444 286.901 213.799 261.68 214.133 258.756 283.749 295.162 216.754 271.933 219.152 261.494 286.917 297.603 217.789 275.601 220.929 262.495 287.769 298.061 217.984 276.517 221.314 262.706 287.882 297.98 217.924 276.57 221.268 262.627 287.78 297.766 217.789 276.395 221.12 262.486 287.621 297.555 217.636 276.17 220.953 262.321 287.451 297.377 217.484 275.97 220.793 262.166 287.283 297.263 217.355 275.815 220.658 262.025 287.148 297.257 217.295 275.781 220.595 261.937 287.094 297.466 217.361 275.938 220.677 261.958 287.207 298.045 217.722 276.499 221.105 262.307 287.768 299.94 219.291 278.089 222.591 264.1 290.291 306.535 225.415 282.362 227.338 272.079 300.284 321.116 238.762 290.084 237.752 292.294 323.119 323.689 234.537 295.866 242.289 319.231 356.52 258.8 193.868 240.806 195.324 229.726 254.896 284.968 199.612 251.054 200.721 251.764 289.021 310.974 212.401 278.034 218.01 270.644 310.338 318.503 217.734 286.427 225.399 277.905 317.874 318.837 218.943 286.878 226.892 279.858 319.551 317.997 218.937 285.97 226.742 280.111 319.619 317.3 218.719 285.249 226.392 279.942 319.364 316.858 218.497 284.785 226.101 279.705 319.092 316.578 218.307 284.497 225.885 279.495 318.861 316.429 218.163 284.331 225.741 279.331 318.699 316.402 218.114 284.282 225.684 279.262 318.659 316.553 218.215 284.373 225.759 279.395 318.842 316.907 218.596 284.624 226.06 279.892 319.409 317.552 219.507 285.101 226.761 281.111 320.748 318.319 221.024 285.558 227.786 283.512 323.195 316.998 221.352 284.237 227.412 285.188 324.453 305.369 213.565 275.692 220.229 276.604 313.54 272.612 204.297 259.094 208.773 266.716 300.184 305.988 203.48 260.316 212.982 254.656 293.102 309.226 212.155 281.116 218.986 266.758 311.037 315.524 220.321 287.332 228.444 282.18 327.792 309.687 221.419 279.776 228.601 286.053 330.947 305.351 220.578 274.462 226.805 285.912 330.184 303.432 219.87 272.274 225.644 285.258 329.205 302.647 219.464 271.466 225.075 284.774 328.563 302.303 219.229 271.148 224.79 284.458 328.174 302.164 219.088 271.04 224.655 284.287 327.959 302.14 219.042 271.022 224.601 284.205 327.867 302.211 219.083 271.087 224.643 284.268 327.939 302.38 219.223 271.222 224.76 284.478 328.159 302.597 219.416 271.406 224.926 284.844 328.535 302.68 219.407 271.48 224.9 285.085 328.796 301.82 217.87 270.747 223.628 283.549 327.28 296.63 211.07 266.758 218.244 274.629 318.038 277.349 197.025 255.277 206.361 251.476 290.467 244.847 191.265 234.719 197.109 229.669 263.399 359.417 236.582 279.761 245.755 299.306 341.626 320.894 229.999 313.997 245.475 280.7 319.998 291.776 222.128 277.767 233.072 273.886 309.814 279.793 217.644 263.262 225.839 268.196 302.266 277.337 216.065 260.533 223.699 265.674 299.205 277.007 215.596 260.322 223.224 264.745 298.109 276.953 215.438 260.362 223.102 264.391 297.683 276.92 215.366 260.374 223.047 264.238 297.491 276.926 215.336 260.391 223.033 264.186 297.424 276.971 215.361 260.431 223.048 264.21 297.445 277.06 215.415 260.51 223.11 264.311 297.539 277.181 215.484 260.639 223.187 264.444 297.676 277.256 215.41 260.724 223.194 264.495 297.769 277.119 214.887 260.548 222.941 263.974 297.5 276.399 213.299 259.5 222.044 261.452 295.874 274.172 211.014 256.651 220.713 254.18 289.638 264.097 213.076 253.009 221.274 242.147 273.135 250.861 209.981 249.218 221.218 222.396 250.611 335.077 259.371 286.356 258.955 337.616 358.355 306.618 249.008 305.704 263.561 280.225 304.49 291.877 243.062 286.495 256.403 261.79 282.793 292.493 243.527 288.74 256.704 257.944 278.399 293.626 244.263 290.493 257.701 257.754 278.287 294.061 244.513 291.077 258.059 257.913 278.481 294.107 244.519 291.149 258.082 257.947 278.529 294.047 244.456 291.077 258.018 257.941 278.525 293.988 244.413 291.011 257.954 257.931 278.519 293.984 244.399 290.979 257.931 257.955 278.55 294.013 244.406 290.993 257.934 258.024 278.633 294.083 244.386 291.055 257.958 258.093 278.717 294.052 244.28 291.089 257.907 258.065 278.725 293.676 244 290.922 257.759 257.706 278.435 292.555 244.23 290.427 257.945 256.696 277.546 291.884 249.881 290.888 261.787 256.403 276.357 304.06 277.246 300.593 280.228 263.548 282.046 336.214 283.411 314.553 337.619 258.949 275.3 242.119 295.2 232.672 252.569 352.898 342.079 245.285 284.54 243.479 258.404 311.566 288.132 228.897 273.356 227.31 248.427 289.982 267.992 225.551 268.638 222.847 243.446 284.442 263.771 225.146 267.379 221.762 242.071 283.325 263.091 225.135 267.019 221.555 241.685 283.028 262.95 225.1 266.85 221.482 241.533 282.863 262.837 225.001 266.719 221.396 241.421 282.723 262.707 224.884 266.594 221.287 241.303 282.588 262.581 224.765 266.475 221.16 241.188 282.484 262.479 224.657 266.403 221.05 241.101 282.419 262.418 224.575 266.373 220.975 241.051 282.407 262.403 224.484 266.337 220.906 241.007 282.425 262.385 224.249 265.999 220.76 240.777 282.34 262.157 223.369 263.903 220.01 239.356 281.209 260.967 221.713 255.764 217.384 233.657 275.573 257.931 225.158 240.12 214.472 222.744 261.449 256.092 234.861 226.571 221.687 215.769 248.055 241.386 171.948 170.04 158.224 152.082 200.237 203.049 173.44 167.631 163.878 154.18 203.146 198.737 174.265 163.409 160.98 149.817 193.313 194.802 178.446 162.565 164.84 149.623 190.966 194.538 180.354 162.525 166.838 149.996 190.836 194.911 180.815 162.473 167.323 150.065 190.898 195.025 180.784 162.386 167.292 149.986 190.873 194.975 180.627 162.279 167.139 149.867 190.787 194.865 180.458 162.148 166.973 149.739 190.657 194.732 180.296 162.015 166.806 149.594 190.511 194.596 180.169 161.898 166.671 149.468 190.378 194.474 180.126 161.821 166.617 149.387 190.289 194.389 180.227 161.797 166.692 149.395 190.296 194.375 180.581 161.734 166.991 149.508 190.396 194.456 181.399 161.076 167.561 149.545 190.382 195 183.516 159.545 168.611 149.359 191.061 198.344 188.077 160.488 171.551 151.072 197.912 208.715 188.19 159.463 174.391 154.479 202.232 211.841 151.705 106.858 133.216 103.257 148.776 161.448 154.09 106.926 136.207 105.043 150.206 166.21 164.813 108.696 146.357 108.097 152.191 172.981 169.787 110.402 151.391 110.89 155.242 177.437 170.191 110.928 151.666 111.684 156.331 178.709 169.604 110.866 150.963 111.58 156.489 178.799 169.115 110.702 150.42 111.336 156.386 178.638 168.802 110.535 150.096 111.132 156.23 178.448 168.607 110.383 149.892 110.963 156.07 178.282 168.486 110.253 149.758 110.83 155.926 178.142 168.439 110.178 149.695 110.748 155.842 178.072 168.49 110.2 149.716 110.761 155.886 178.111 168.682 110.388 149.865 110.923 156.159 178.368 169.015 110.776 150.168 111.293 156.737 178.972 169.199 111.233 150.484 111.797 157.597 180.009 167.942 111.369 150.066 111.852 158.392 180.747 162.847 110.351 147.219 110.461 157.325 178.004 155.591 107.501 141.622 107.877 154.028 174.709 168.567 104.14 151.46 113.578 142.644 165.276 175.801 106.347 159.494 115.843 145.884 172.125 179.029 108.067 163.543 118.253 150.814 178.238 176.756 108.126 160.988 118.122 152.512 180.114 174.311 107.581 158.401 117.308 152.271 179.792 173.104 107.151 157.188 116.738 151.769 179.232 172.608 106.898 156.718 116.431 151.436 178.866 172.394 106.75 156.515 116.262 151.239 178.647 172.305 106.659 156.414 116.169 151.107 178.518 172.273 106.621 156.378 116.128 151.038 178.453 172.298 106.641 156.387 116.144 151.045 178.455 172.374 106.723 156.444 116.216 151.139 178.552 172.464 106.867 156.529 116.342 151.284 178.695 172.431 107.001 156.587 116.458 151.317 178.725 171.782 106.83 156.409 116.351 150.596 177.825 169.547 105.675 155.652 115.568 147.662 173.942 165.913 103.507 154.281 114.081 141.499 166.033 162.095 101.181 152.402 112.171 136.703 161.342 208.635 152.14 197.612 165.321 173.06 197.877 217.555 150.852 212.026 167.694 174.025 198.285 209.357 149.613 202.469 165.388 170.505 193.206 205.095 149.791 198.916 165.308 167.94 189.948 204.311 149.981 198.959 165.801 166.753 188.57 204.271 149.991 199.296 166.024 166.286 188.069 204.256 149.923 199.385 166.033 166.09 187.877 204.211 149.853 199.347 165.976 165.988 187.786 204.179 149.823 199.307 165.942 165.944 187.743 204.173 149.832 199.295 165.945 165.941 187.739 204.196 149.889 199.323 165.991 165.979 187.774 204.239 149.989 199.37 166.092 166.036 187.812 204.278 150.187 199.417 166.287 166.025 187.773 204.369 150.659 199.491 166.756 165.799 187.468 205.068 151.877 199.946 167.937 165.31 186.884 208.288 154.326 202.307 170.501 165.386 187.352 215.97 156.924 209.213 174.024 167.694 191.918 220.958 153.019 217.251 173.06 165.321 188.672 250.324 211.023 280.639 222.402 221.224 232.472 273.38 223.362 279.753 242.144 221.281 236.609 287.361 235.096 292.571 254.175 220.706 234.584 290.174 240.992 299.785 261.447 222.04 235.181 290.994 242.709 302.185 263.976 222.941 235.971 291.138 242.973 302.711 264.5 223.195 236.239 291.045 242.869 302.709 264.446 223.18 236.228 290.923 242.74 302.596 264.311 223.103 236.147 290.831 242.665 302.499 264.218 223.053 236.08 290.779 242.65 302.456 264.189 223.031 236.046 290.781 242.703 302.498 264.242 223.048 236.037 290.847 242.869 302.641 264.395 223.104 236.017 290.995 243.276 302.932 264.75 223.226 235.95 291.455 244.482 303.576 265.677 223.703 235.961 293.689 247.859 305.473 268.2 225.843 237.388 303.313 255.196 311.565 273.883 233.063 246.206 326.82 262.656 324.535 280.707 245.474 271.167 361.637 256.268 337.202 299.303 245.756 274.999 211.933 252.779 204.3 225.816 305.516 291.209 223.111 269.204 210.757 234.147 308.657 284.625 225.717 280.525 219.285 246.817 313.688 285.193 223.37 281.254 219.783 248.492 311.612 282.339 222.112 280.792 218.918 248.053 310.388 281.024 221.63 280.618 218.411 247.819 309.886 280.522 221.438 280.525 218.194 247.735 309.64 280.294 221.312 280.444 218.081 247.666 309.475 280.13 221.209 280.344 217.983 247.584 309.342 280.001 221.092 280.24 217.878 247.49 309.222 279.889 220.988 280.171 217.772 247.406 309.141 279.822 220.911 280.186 217.701 247.377 309.127 279.798 220.855 280.281 217.688 247.428 309.134 279.767 220.743 280.384 217.719 247.568 309.007 279.518 219.843 279.517 217.345 247.333 307.73 277.741 215.011 272.341 214.14 243.284 299.625 269.115 203.417 250.45 203.654 227.444 273.775 247.742 198.53 239.582 196.277 213.358 253.526 228.752 115.392 138.387 106.308 118.376 165.107 160.629 119.19 143.467 110.562 122.178 174.296 161.322 119.884 148.028 111.428 126.226 176.852 162.251 120.195 148.457 112.141 126.671 175.061 160.545 120.422 148.183 112.524 126.422 174.125 159.8 120.398 148.059 112.533 126.295 173.801 159.519 120.284 148.019 112.441 126.24 173.675 159.387 120.156 147.978 112.332 126.205 173.588 159.284 120.027 147.901 112.211 126.131 173.479 159.176 119.888 147.799 112.082 126.028 173.367 159.053 119.768 147.699 111.967 125.925 173.258 158.939 119.693 147.642 111.894 125.845 173.182 158.849 119.699 147.683 111.923 125.866 173.208 158.78 119.757 147.827 112.062 126.051 173.3 158.627 119.594 147.543 112.111 126.259 172.759 157.782 118.6 144.556 111.295 125.275 169.105 155.037 117.777 137.638 109.542 121.161 162.321 152.22 118.24 135.187 109.491 118.834 161.187 151.692 62.8446 49.3791 48.5238 34.7535 81.5097 85.3934 63.5939 49.8339 50.3701 35.996 83.4204 85.9065 66.6004 51.161 52.3518 37.1845 83.9204 87.0171 68.278 51.5894 54.0096 37.8889 84.2431 87.8881 68.4685 51.5908 54.2798 37.9701 84.2782 88.1883 68.1261 51.5185 53.9455 37.8105 84.1594 88.1154 67.7929 51.453 53.6015 37.6601 84.0204 87.962 67.5559 51.3789 53.3501 37.5381 83.8879 87.8091 67.3813 51.285 53.1673 37.4192 83.7513 87.6624 67.2568 51.1666 53.0321 37.2919 83.613 87.529 67.1906 51.0652 52.9496 37.1854 83.5119 87.4312 67.2041 51.0197 52.9459 37.1498 83.491 87.4083 67.3331 51.1046 53.0582 37.2565 83.6011 87.5016 67.5944 51.3547 53.3255 37.5828 83.8434 87.7255 67.8666 51.5301 53.6435 38.0232 83.935 87.9616 67.7456 50.9794 53.65 38.1023 83.3827 87.966 66.7694 50.0103 52.9417 37.5048 82.8268 87.6221 65.529 50.2858 51.1808 37.2099 82.6513 87.072 90.9003 37.9059 84.5766 53.6687 53.5721 75.1657 93.1524 39.0562 87.1695 54.7006 54.5963 76.3388 94.4183 40.0233 88.6469 56.2739 56.2148 78.0823 94.4975 40.1549 89.2461 56.6025 56.8491 78.6116 94.0988 39.8102 89.0879 56.3189 56.6212 78.3396 93.7281 39.4858 88.7759 55.9935 56.2557 77.973 93.4872 39.2979 88.5265 55.7808 55.9843 77.7144 93.3478 39.2109 88.3737 55.6732 55.8116 77.555 93.2837 39.2047 88.3033 55.6541 55.7029 77.4555 93.281 39.267 88.3026 55.7029 55.6536 77.4109 93.3352 39.3818 88.3551 55.8117 55.6728 77.4302 93.4566 39.5703 88.468 55.9854 55.7802 77.5235 93.6773 39.8623 88.659 56.254 55.9961 77.706 94.053 40.241 88.982 56.6225 56.3203 77.9736 94.5488 40.4156 89.4297 56.8465 56.6009 78.1656 94.7921 39.7148 89.6906 56.2115 56.2693 77.707 94.0597 38.5981 88.9758 54.5938 54.7013 76.1118 92.8842 36.9966 87.816 53.5703 53.6673 74.3548 163.861 120.466 166.816 136.698 112.169 131.297 169.196 124.943 168.179 141.497 114.081 133.046 174.903 129.098 176.207 147.656 115.566 133.652 178.646 130.659 181.817 150.595 116.354 134.019 179.885 130.827 183.598 151.319 116.458 134.062 180.041 130.662 183.814 151.284 116.34 133.968 179.946 130.522 183.683 151.131 116.217 133.863 179.851 130.471 183.553 151.04 116.143 133.795 179.805 130.497 183.49 151.041 116.127 133.766 179.821 130.583 183.51 151.104 116.168 133.792 179.907 130.72 183.6 151.238 116.265 133.867 180.087 130.93 183.767 151.44 116.432 134.013 180.483 131.288 184.063 151.768 116.738 134.328 181.395 131.846 184.619 152.275 117.312 135.109 183.168 132.095 185.574 152.511 118.117 136.829 184.932 130.143 186.249 150.81 118.25 138.988 183.174 124.896 183.927 145.878 115.84 137.957 177.099 120.236 177.197 142.64 113.578 133.463 259.721 210.76 290.094 229.673 197.117 207.567 286.168 233.939 285.073 251.473 206.36 218.328 312.153 251.344 318.908 274.625 218.242 228.681 320.44 256.585 332.938 283.552 223.632 233.917 322.176 257.069 336.268 285.08 224.899 235.436 322.255 256.703 336.537 284.843 224.925 235.629 322.035 256.405 336.285 284.483 224.762 235.521 321.857 256.259 336.071 284.268 224.64 235.404 321.767 256.246 335.955 284.207 224.6 235.331 321.792 256.34 335.998 284.283 224.655 235.328 321.941 256.535 336.174 284.458 224.794 235.398 322.277 256.855 336.507 284.772 225.078 235.594 322.981 257.395 337.094 285.256 225.64 236.128 324.482 258.145 338.113 285.906 226.811 237.618 327.508 258.304 339.512 286.047 228.603 241.415 330.997 253.852 339.352 282.184 228.449 247.676 324.968 237.692 329.35 266.755 218.984 246.963 317.208 230.911 310.578 254.652 212.982 236.613 196.998 233.71 188.596 219.673 266.911 248.529 202.629 251.353 192.896 220.372 287.447 263.344 218.478 266.176 209.633 234.989 308.429 281.32 224.055 271.46 217.894 240.838 315.045 286.559 224.854 272.46 219.674 241.953 316.083 287.234 224.814 272.638 219.811 242.092 316.137 287.2 224.746 272.674 219.78 242.127 316.069 287.122 224.698 272.667 219.758 242.136 315.993 287.044 224.641 272.622 219.721 242.1 315.914 286.951 224.546 272.546 219.65 242.042 315.813 286.865 224.448 272.49 219.553 241.969 315.74 286.799 224.387 272.514 219.485 241.933 315.758 286.798 224.447 272.747 219.539 242.052 315.936 286.916 224.728 273.481 219.869 242.535 316.353 287.131 225.304 275.41 220.798 243.98 317.129 287.168 224.511 279.126 222.248 247.437 316.804 283.097 214.301 275.853 218.958 247.427 302.267 262.648 199.409 267.567 207.307 236.112 277.799 244.363 100.112 151.819 99.108 132.928 158.852 143.573 101.091 149.446 101.442 133.528 160.385 142.562 105.245 152.518 104.062 134.782 170.15 150.162 107.07 154.54 105.919 136.093 173.85 152.88 107.375 154.923 106.375 136.238 174.4 153.133 107.352 154.951 106.381 136.172 174.418 153.058 107.331 154.991 106.371 136.192 174.42 153.03 107.325 155.018 106.391 136.231 174.401 153.007 107.289 155.019 106.39 136.253 174.367 152.957 107.219 154.96 106.352 136.216 174.283 152.875 107.126 154.884 106.272 136.15 174.193 152.774 107.059 154.836 106.218 136.096 174.154 152.708 107.08 154.927 106.244 136.136 174.263 152.74 107.24 155.299 106.427 136.381 174.643 152.913 107.428 156.2 106.768 136.96 175.359 153.02 106.992 157.807 106.997 138.123 175.28 151.513 104.56 158.361 106.307 139.156 169.663 145.18 100.902 152.663 103.776 134.89 162.465 141.437 25.2715 85.1253 36.0187 73.4985 73.689 54.1711 25.4922 85.7162 35.9438 75.4572 74.1925 54.0469 26.2383 85.9666 36.9293 76.596 75.8668 55.5318 26.7477 85.9285 37.501 76.9234 76.7189 56.1926 26.6198 85.7019 37.3904 76.7737 76.827 56.1971 26.3905 85.5702 37.1501 76.6121 76.773 56.0978 26.2908 85.565 37.0544 76.578 76.7547 56.0498 26.298 85.6156 37.0849 76.6312 76.7595 56.0303 26.3307 85.6668 37.1625 76.7028 76.7471 55.9948 26.3433 85.6817 37.2276 76.7448 76.7 55.9283 26.3426 85.6584 37.2713 76.7578 76.6288 55.8422 26.3509 85.6278 37.3069 76.7541 76.5791 55.7777 26.4468 85.6409 37.3895 76.7739 76.6174 55.7994 26.6641 85.7253 37.5732 76.8302 76.7784 55.9385 26.8018 85.7245 37.7389 76.7199 76.9259 56.079 26.3027 85.2197 37.2974 75.8686 76.5959 55.7709 25.2533 84.4877 36.0402 74.1961 75.4552 54.6645 24.6178 83.2502 36.3876 73.6859 73.4961 54.2085 71.6439 78.3741 77.6931 82.6474 37.2082 33.6949 73.2777 78.4547 80.1603 82.8235 37.5033 34.5623 74.5618 79.4814 81.6965 83.3809 38.0996 35.1333 74.8906 79.9079 82.0648 83.933 38.0221 35.279 74.6806 79.705 81.9065 83.8407 37.5781 34.9596 74.4207 79.4834 81.624 83.5995 37.2556 34.6254 74.2788 79.4315 81.4441 83.4902 37.1519 34.4531 74.2522 79.4894 81.3977 83.5128 37.1875 34.4311 74.3086 79.6062 81.4491 83.6181 37.2956 34.4967 74.4253 79.7303 81.5616 83.7543 37.4205 34.6228 74.5782 79.8392 81.7094 83.8884 37.5376 34.7879 74.7821 79.9358 81.8828 84.0201 37.6582 35.008 75.0471 80.033 82.0853 84.1597 37.8128 35.3235 75.3296 80.0959 82.3026 84.2783 37.9675 35.7051 75.2473 79.9638 82.3505 84.242 37.8912 35.7489 74.0295 79.4493 81.818 83.918 37.1872 34.6957 71.435 78.297 80.4431 83.4214 35.9985 33.0854 70.1254 75.5015 80.7573 81.5105 34.7508 32.0607 163.731 142.261 170.047 154.024 107.877 116.687 169.253 143.657 172.942 157.328 110.46 120.943 176.216 143.044 181.711 158.386 111.852 123.531 178.299 142.128 183.487 157.596 111.794 124.172 178.214 141.343 182.971 156.733 111.29 124.033 177.809 140.879 182.35 156.152 110.919 123.779 177.553 140.714 181.99 155.885 110.76 123.613 177.472 140.732 181.857 155.84 110.75 123.565 177.501 140.842 181.868 155.929 110.83 123.611 177.607 140.994 181.976 156.067 110.962 123.722 177.778 141.152 182.145 156.23 111.13 123.892 178.043 141.3 182.366 156.388 111.34 124.148 178.424 141.405 182.636 156.492 111.581 124.578 178.849 141.224 182.872 156.332 111.684 125.21 178.517 139.975 182.504 155.24 110.889 125.405 174.691 137.123 179.685 152.186 108.093 122.788 165.252 135.922 172.392 150.204 105.042 116.452 157.197 131.722 165.298 148.772 103.251 113.944 288.821 242.903 304.807 266.723 208.774 220.45 313.14 258.343 307.326 276.602 220.23 232.463 330.169 260.41 331.816 285.189 227.411 243.453 332.906 257.161 335.663 283.498 227.79 246.481 331.996 254.99 334.069 281.102 226.759 246.49 331.116 254.054 332.742 279.885 226.06 246.09 330.618 253.735 332.046 279.385 225.753 245.825 330.399 253.71 331.762 279.255 225.687 245.732 330.398 253.826 331.733 279.324 225.743 245.754 330.536 253.999 331.863 279.484 225.885 245.878 330.788 254.22 332.089 279.701 226.103 246.104 331.162 254.422 332.388 279.943 226.396 246.464 331.701 254.51 332.742 280.116 226.743 247.038 332.28 253.986 332.998 279.865 226.889 247.817 331.83 251.204 332.267 277.902 225.397 247.877 325.626 242.121 327.035 270.637 218.007 242.851 303.602 223.243 309.634 251.762 200.721 224.497 272.581 217.952 279.526 229.72 195.319 211.575 207.914 241.55 204.766 252.533 241.238 228.699 206.475 250.848 210.707 235.136 269.126 248.425 213.53 256.494 212.604 236.38 284.055 262.884 218.869 259.237 217.283 238.989 289.34 268.348 220.37 260.057 218.845 240.029 290.475 269.613 220.626 260.196 219.144 240.282 290.599 269.79 220.691 260.202 219.223 240.347 290.588 269.813 220.721 260.205 219.284 240.365 290.584 269.816 220.738 260.197 219.322 240.375 290.57 269.791 220.698 260.179 219.301 240.353 290.533 269.75 220.625 260.145 219.237 240.315 290.489 269.691 220.553 260.118 219.163 240.266 290.493 269.677 220.6 260.167 219.144 240.246 290.642 269.824 220.955 260.457 219.334 240.336 291.166 270.364 222.106 261.82 220.102 240.81 292.877 272.01 225.896 268.367 223.439 244.142 299.289 276.946 234.237 291.545 234.45 260.06 318.328 281.288 229.917 302.443 244.075 271.123 324.505 282.873 140.7 213.882 151.976 198.576 187.304 165.996 142.247 206.233 156.116 199.176 182.716 162.499 140.407 197.601 152.62 190.392 182.927 162.542 140.432 195.843 151.32 187.389 185.366 164.772 140.397 195.539 150.931 186.581 186.165 165.424 140.277 195.447 150.692 186.332 186.318 165.511 140.254 195.463 150.624 186.308 186.381 165.557 140.314 195.526 150.681 186.373 186.433 165.606 140.366 195.577 150.754 186.435 186.457 165.628 140.375 195.579 150.791 186.456 186.432 165.599 140.332 195.54 150.77 186.433 186.37 165.527 140.273 195.471 150.718 186.377 186.303 165.461 140.271 195.407 150.675 186.319 186.334 165.507 140.382 195.282 150.641 186.171 186.589 165.768 140.418 194.761 150.262 185.375 187.395 166.415 139.976 194.01 148.872 182.93 190.386 168.444 141.055 199.605 148.764 182.713 199.17 173.115 141.871 199.483 152.782 187.301 198.572 172.892 104.191 171.136 120.973 162.464 134.893 110.455 107.82 179.186 122.475 169.661 139.159 114.165 111.48 180.48 128.332 175.282 138.122 114.355 112.314 178.972 130.562 175.365 136.953 114.027 112.256 178.066 130.789 174.645 136.372 113.646 112.139 177.729 130.645 174.259 136.132 113.406 112.131 177.667 130.595 174.15 136.092 113.354 112.204 177.727 130.648 174.194 136.146 113.398 112.305 177.813 130.746 174.286 136.215 113.466 112.387 177.873 130.833 174.363 136.251 113.503 112.433 177.89 130.9 174.402 136.231 113.49 112.455 177.88 130.927 174.418 136.19 113.464 112.49 177.875 130.96 174.42 136.177 113.463 112.587 177.788 131.048 174.408 136.237 113.497 112.511 176.78 131.009 173.851 136.09 113.261 110.933 172.12 129.375 170.152 134.785 111.994 106.2 163.887 124.252 160.384 133.527 110.471 105.141 163.253 123.144 158.852 132.922 110.286 122.696 162.207 131.41 161.185 118.831 103.198 124.264 165.998 137.465 162.32 121.162 104.29 124.806 173.739 138.199 169.1 125.275 106.66 125.793 176.248 140.355 172.761 126.259 107.915 126.017 176.355 141.218 173.291 126.054 107.967 125.989 176.232 141.341 173.203 125.863 107.797 125.998 176.227 141.369 173.181 125.845 107.748 126.079 176.312 141.438 173.254 125.924 107.804 126.2 176.424 141.551 173.37 126.035 107.913 126.338 176.531 141.679 173.486 126.131 108.025 126.464 176.616 141.804 173.592 126.198 108.124 126.589 176.688 141.928 173.682 126.24 108.206 126.721 176.82 142.062 173.804 126.295 108.296 126.87 177.19 142.248 174.134 126.428 108.38 127.059 177.905 142.65 175.066 126.672 108.3 127.454 177.729 143.679 176.852 126.232 107.628 126.892 171.326 144.554 174.29 122.183 105.511 124.749 165.113 147.729 165.108 118.375 101.659 194.382 196.589 193.395 202.232 154.478 152.116 196.574 188.16 207.987 197.914 151.072 151.959 191.067 187.11 198.97 191.061 149.358 149.369 188.039 188.286 194.061 190.376 149.547 148.791 186.843 188.599 192.744 190.392 149.503 148.456 186.371 188.605 192.35 190.29 149.389 148.18 186.236 188.644 192.227 190.284 149.384 148.076 186.264 188.757 192.249 190.378 149.469 148.114 186.377 188.887 192.363 190.516 149.597 148.23 186.527 189.025 192.505 190.66 149.739 148.381 186.691 189.132 192.661 190.785 149.875 148.538 186.846 189.213 192.814 190.877 149.991 148.689 186.935 189.273 192.921 190.9 150.07 148.787 186.74 189.389 192.856 190.838 150.001 148.634 185.652 190.06 192.245 190.964 149.621 147.678 182.928 193.045 190.794 193.307 149.816 145.783 181.767 201.26 191.539 203.144 154.181 148.244 180.128 193.86 202.249 200.234 152.082 146.605 332.875 285.876 321.901 319.235 242.293 250.18 329.587 269.392 332.592 292.295 237.75 254.683 313.898 253.013 312.989 272.081 227.336 250.07 304.86 248.025 299.408 264.091 222.589 245.778 302.001 247.082 295.248 262.303 221.103 243.842 301.177 246.964 294.238 261.952 220.675 243.101 300.895 247.009 293.966 261.931 220.591 242.881 300.863 247.128 293.958 262.021 220.667 242.899 300.964 247.28 294.076 262.165 220.797 243.031 301.124 247.443 294.24 262.32 220.954 243.217 301.325 247.597 294.422 262.49 221.126 243.419 301.524 247.702 294.599 262.638 221.272 243.604 301.654 247.661 294.756 262.704 221.313 243.653 301.472 247.237 294.759 262.493 220.935 243.147 300.086 245.977 294.18 261.487 219.153 240.838 294.82 243.504 291.677 258.75 214.134 234.022 279.13 235.308 283.503 252.009 207.68 220.683 242.683 242.202 257.085 231.237 212.283 215.997 268.162 359.104 278.148 375.822 250.066 251.867 253.545 291.105 277.505 290.383 274.575 258.146 241.847 287.287 255.34 279.865 278.884 260.544 241.317 288.028 250.919 280.01 280.365 262.001 241.707 288.648 250.306 280.582 280.787 262.517 241.827 288.778 250.234 280.728 280.786 262.602 241.859 288.754 250.252 280.726 280.717 262.574 241.893 288.707 250.281 280.687 280.664 262.555 241.916 288.685 250.31 280.661 280.654 262.55 241.922 288.675 250.324 280.653 280.662 262.545 241.905 288.713 250.318 280.659 280.69 262.541 241.871 288.788 250.305 280.718 280.718 262.536 241.829 288.878 250.286 280.789 280.737 262.522 241.689 288.942 250.212 280.792 280.582 262.47 241.262 288.875 249.859 280.366 280.005 262.446 241.129 289.261 249.249 278.888 279.864 264.114 247.255 288.349 250.69 274.577 290.382 278.557 272.757 273.073 256.775 250.064 375.814 330.921 229.59 370.506 256.164 324.502 271.129 245.275 238.522 321.704 256.716 318.334 260.067 239.479 233.563 302.384 255.917 299.28 244.14 225.759 229.473 296.895 250.371 292.874 240.81 222.436 228.233 295.649 248.391 291.157 240.329 221.807 227.8 295.291 247.69 290.637 240.243 221.644 227.684 295.196 247.465 290.487 240.262 221.643 227.72 295.211 247.457 290.49 240.309 221.695 227.788 295.248 247.513 290.542 240.353 221.751 227.843 295.269 247.572 290.571 240.374 221.778 227.848 295.274 247.598 290.584 240.371 221.752 227.83 295.302 247.596 290.594 240.352 221.711 227.776 295.313 247.543 290.601 240.282 221.648 227.586 295.133 247.336 290.483 240.038 221.443 226.429 293.526 246.257 289.334 238.985 220.422 221.643 286.834 241.706 284.058 236.379 217.395 211.822 267.648 230.546 269.12 235.131 217.088 214.061 233.772 215.947 241.231 252.527 226.269 202.004 303.394 230.887 277.796 236.111 209.214 215.469 322.771 228.168 302.266 247.426 222.034 230.791 327.435 251.346 316.803 247.44 224.74 233.503 324.893 257.573 317.121 243.979 222.683 233.281 323.479 257.891 316.348 242.522 221.44 233.059 322.899 257.674 315.946 242.04 220.944 233.003 322.691 257.543 315.76 241.933 220.811 233.041 322.677 257.52 315.747 241.968 220.854 233.133 322.753 257.586 315.821 242.039 220.931 233.227 322.838 257.674 315.916 242.106 221 233.299 322.913 257.759 315.999 242.132 221.04 233.36 322.977 257.829 316.065 242.136 221.048 233.433 323.02 257.886 316.137 242.1 221.053 233.546 322.819 257.952 316.086 241.959 220.966 233.285 320.865 257.773 315.043 240.831 219.726 229.398 310.579 254.768 308.419 234.993 213.336 215.166 283.126 241.795 287.438 220.369 198.744 206.643 254.337 222.907 266.901 219.67 195.619 199.46 262.558 214.824 253.531 213.358 196.317 208.42 296.442 220.77 273.774 227.446 203.007 220.739 316.52 239.285 299.625 243.294 215.925 226.562 321.787 249.261 307.72 247.338 220.128 227.766 322.382 251.59 309.006 247.563 220.57 227.941 322.3 251.923 309.125 247.419 220.487 228.011 322.233 251.977 309.124 247.372 220.449 228.092 322.254 252.016 309.139 247.406 220.502 228.199 322.349 252.092 309.217 247.496 220.6 228.32 322.481 252.196 309.343 247.588 220.704 228.423 322.628 252.315 309.47 247.67 220.801 228.547 322.823 252.443 309.639 247.734 220.896 228.737 323.111 252.625 309.889 247.818 221.06 229.189 323.677 252.998 310.383 248.056 221.458 230.511 324.705 254.069 311.606 248.499 222.193 233.66 323.887 256.756 313.682 246.823 221.458 234.538 307.013 258.016 308.664 234.149 211.726 228.885 294.407 254.282 305.515 225.816 200.186 234.941 243.638 230.725 248.052 215.77 212.109 235.652 272.792 249.744 261.446 222.746 207.651 227.821 287.015 241.909 275.579 233.659 211.9 228.022 291.993 244.031 281.195 239.35 215.654 228.788 293.131 245.639 282.336 240.774 216.73 229.067 293.263 246.088 282.412 241.005 216.927 229.175 293.255 246.184 282.396 241.044 216.987 229.253 293.279 246.255 282.411 241.097 217.069 229.364 293.356 246.33 282.481 241.191 217.175 229.479 293.482 246.43 282.592 241.307 217.294 229.601 293.627 246.554 282.718 241.422 217.41 229.708 293.795 246.666 282.866 241.531 217.511 229.779 294.041 246.776 283.026 241.687 217.636 229.827 294.642 246.891 283.321 242.073 217.93 230.224 296.922 247.317 284.439 243.448 219.044 233.256 306.199 249.793 289.972 248.431 223.146 249.84 330.094 262.058 311.566 258.398 235.453 263.115 353.287 293.841 352.892 252.567 230.919 371.141 261.58 326.14 327.542 264.161 276.625 314.121 280.917 326.249 280.374 251.243 261.998 283.677 281.23 285.288 280.792 245.02 249.408 278.859 281.122 279.191 283.615 245.74 247.425 279.193 281.348 279.971 284.553 246.582 247.499 279.492 281.413 280.589 284.755 246.836 247.618 279.608 281.383 280.833 284.773 246.91 247.693 279.694 281.385 280.954 284.768 246.963 247.791 279.797 281.455 281.05 284.822 247.057 247.91 279.915 281.57 281.161 284.918 247.174 248.042 280.056 281.708 281.294 285.052 247.304 248.192 280.206 281.826 281.451 285.206 247.412 248.296 280.318 281.806 281.586 285.295 247.44 248.298 280.261 281.482 281.608 285.176 247.29 248.029 279.754 280.895 281.299 284.576 246.979 247.274 278.058 283.001 280.449 283.763 248.041 246.435 271.505 306.62 278.271 286.423 262.445 247.948 246.128 397.404 272.112 327.742 285.062 273.8 
SCALARS volume float 1
LOOKUP_TABLE default
0.0193331 0.0195532 0.0192727 0.0196201 0.0194978 0.019517 0.0194042 0.019397 0.0192466 0.0192042 0.0193732 0.0195125 0.0194138 0.0194035 0.0192359 0.0192283 0.019389 0.0195319 0.0194244 0.0194173 0.0192416 0.019246 0.0194028 0.0195418 0.0194298 0.0194253 0.0192458 0.0192547 0.0194091 0.0195462 0.019432 0.0194287 0.0192477 0.0192589 0.0194117 0.0195479 0.0194327 0.0194298 0.0192485 0.0192606 0.0194125 0.0195485 0.0194327 0.01943 0.0192488 0.0192612 0.0194127 0.0195485 0.0194326 0.01943 0.019249 0.0192614 0.0194126 0.0195485 0.0194326 0.01943 0.0192491 0.0192615 0.0194126 0.0195484 0.0194325 0.0194302 0.0192491 0.0192616 0.0194126 0.0195484 0.0194323 0.0194304 0.0192486 0.0192612 0.0194127 0.0195486 0.0194316 0.0194305 0.019247 0.0192602 0.0194124 0.0195487 0.0194297 0.0194293 0.0192433 0.0192577 0.0194107 0.0195478 0.0194242 0.019426 0.0192353 0.0192537 0.0194067 0.0195422 0.0194067 0.0194203 0.0192215 0.0192458 0.0193922 0.0195169 0.0193379 0.0193882 0.0192187 0.0192144 0.01929 0.0194264 0.019452 0.0191855 0.0193169 0.0191484 0.0192467 0.0200643 0.0189441 0.0189867 0.018808 0.0189122 0.0190933 0.0190974 0.0190634 0.0190432 0.0189789 0.0188854 0.0190526 0.0191653 0.0190845 0.0190704 0.0189762 0.018916 0.0190536 0.0191927 0.0190993 0.0190818 0.0189604 0.0189167 0.0190618 0.0192083 0.019108 0.0190896 0.0189555 0.0189202 0.019067 0.0192155 0.0191117 0.0190936 0.0189556 0.0189236 0.0190695 0.0192182 0.0191131 0.0190954 0.0189566 0.0189256 0.0190706 0.0192189 0.0191136 0.019096 0.0189574 0.0189265 0.0190711 0.0192191 0.0191139 0.0190964 0.0189582 0.0189271 0.0190714 0.0192192 0.019114 0.0190966 0.0189587 0.0189274 0.0190717 0.0192194 0.0191138 0.0190966 0.0189585 0.0189273 0.0190715 0.0192193 0.0191126 0.019096 0.0189573 0.0189264 0.0190702 0.0192186 0.0191094 0.0190942 0.0189544 0.0189242 0.0190668 0.0192159 0.0191028 0.0190902 0.0189493 0.0189201 0.0190588 0.0192087 0.0190885 0.019082 0.0189429 0.0189146 0.0190395 0.0191885 0.0190597 0.0190636 0.0189436 0.0189096 0.0190004 0.019145 0.0190466 0.0190349 0.0189858 0.0189193 0.019045 0.0191514 0.0193006 0.0191831 0.0190627 0.018992 0.0194553 0.0198064 0.0188678 0.0188378 0.0188216 0.0187659 0.0188707 0.018894 0.0188699 0.0188373 0.0189157 0.0187935 0.0188602 0.0188634 0.018849 0.0188365 0.0188765 0.0187358 0.0188346 0.018823 0.0188567 0.0188391 0.0188816 0.0187001 0.0188274 0.0188134 0.0188658 0.0188431 0.0188929 0.0186907 0.0188273 0.0188148 0.0188715 0.0188463 0.0189004 0.0186917 0.0188287 0.018817 0.0188745 0.0188483 0.0189044 0.018694 0.0188303 0.0188186 0.0188761 0.0188494 0.0189064 0.0186959 0.0188314 0.0188197 0.0188769 0.0188501 0.0189075 0.018697 0.0188321 0.0188207 0.0188774 0.0188505 0.0189078 0.0186976 0.0188323 0.0188212 0.018877 0.0188504 0.0189076 0.0186977 0.0188318 0.0188208 0.0188758 0.0188494 0.0189067 0.0186969 0.0188299 0.0188191 0.0188728 0.018847 0.0189051 0.0186952 0.018826 0.0188144 0.0188675 0.0188428 0.0189038 0.0186929 0.0188196 0.0188059 0.0188609 0.0188363 0.0189065 0.0186928 0.0188145 0.0187964 0.0188665 0.0188329 0.018923 0.0187028 0.0188402 0.0188142 0.0189379 0.0188713 0.0189608 0.0187321 0.0189817 0.01894 0.019102 0.0190343 0.0189567 0.0187656 0.0190588 0.0191543 0.0191114 0.0188469 0.0191668 0.0189145 0.0189413 0.0190108 0.0189765 0.0188077 0.019008 0.0188834 0.0189105 0.0188636 0.0189745 0.0187841 0.0189876 0.0187898 0.01889 0.0187918 0.0189976 0.0187788 0.0190348 0.0187592 0.0188879 0.0187832 0.0190107 0.0187806 0.0190588 0.0187571 0.0188899 0.018789 0.0190172 0.0187837 0.0190672 0.0187613 0.0188922 0.0187949 0.0190203 0.0187861 0.0190701 0.0187651 0.018894 0.0187987 0.0190218 0.0187877 0.019071 0.0187674 0.0188953 0.018801 0.0190224 0.0187886 0.0190713 0.0187688 0.0188959 0.0188024 0.0190227 0.018789 0.0190712 0.0187694 0.0188961 0.0188032 0.0190228 0.0187889 0.019071 0.0187696 0.0188956 0.0188034 0.0190223 0.018788 0.0190703 0.0187692 0.0188945 0.0188029 0.0190212 0.018786 0.0190695 0.0187684 0.0188929 0.0188013 0.0190191 0.0187827 0.0190689 0.0187672 0.0188922 0.0187989 0.0190164 0.0187803 0.0190696 0.0187668 0.018899 0.018801 0.0190242 0.0187929 0.0190732 0.0187692 0.0189316 0.0188242 0.01907 0.0188526 0.0190711 0.0187679 0.0189947 0.018876 0.0190279 0.0189398 0.0190519 0.0187222 0.0188976 0.0186354 0.0194724 0.0190245 0.0196173 0.0192862 0.0192056 0.0193585 0.0192767 0.0189888 0.0191388 0.0191144 0.0191399 0.0191684 0.0193409 0.0189712 0.0192431 0.0190713 0.0191534 0.0191809 0.0193624 0.0189695 0.019294 0.0190838 0.0191644 0.0192024 0.019367 0.0189726 0.0193019 0.0190925 0.0191689 0.0192128 0.0193687 0.0189764 0.0193024 0.0190973 0.019171 0.0192178 0.0193695 0.0189791 0.0193025 0.0191001 0.0191722 0.0192202 0.0193698 0.0189806 0.0193024 0.0191015 0.0191728 0.0192214 0.0193699 0.0189813 0.0193024 0.0191023 0.0191731 0.019222 0.01937 0.0189816 0.0193024 0.0191026 0.0191731 0.0192224 0.01937 0.0189815 0.0193021 0.0191025 0.0191728 0.0192227 0.0193699 0.0189808 0.0193017 0.0191023 0.0191724 0.0192229 0.0193694 0.0189791 0.0193007 0.0191014 0.0191716 0.0192221 0.0193683 0.0189765 0.019299 0.0190991 0.0191713 0.0192188 0.0193663 0.0189753 0.0192956 0.0190933 0.0191723 0.0192124 0.0193647 0.0189835 0.0192845 0.0190795 0.0191726 0.0191954 0.0193511 0.019006 0.0192583 0.0190451 0.0191517 0.01909 0.0191071 0.0189763 0.01932 0.0189554 0.0190371 0.0185458 0.0196691 0.0192953 0.0191685 0.0194909 0.0195292 0.0197199 0.0196139 0.0193454 0.0194779 0.0194419 0.0194668 0.0195487 0.0196525 0.0193404 0.0196432 0.0194662 0.0194796 0.0195977 0.0196498 0.0193409 0.0196198 0.019485 0.0194855 0.0196076 0.0196493 0.019343 0.019611 0.0194879 0.0194883 0.0196099 0.0196496 0.0193453 0.0196098 0.0194893 0.0194896 0.0196108 0.0196497 0.0193467 0.0196098 0.0194902 0.0194903 0.0196112 0.0196498 0.0193473 0.0196098 0.0194905 0.0194905 0.0196112 0.0196498 0.0193475 0.0196098 0.0194907 0.0194906 0.0196112 0.0196498 0.0193475 0.0196098 0.0194907 0.0194907 0.0196112 0.0196498 0.0193474 0.0196098 0.0194906 0.0194905 0.0196112 0.0196498 0.0193469 0.0196097 0.0194904 0.0194901 0.0196112 0.0196495 0.0193458 0.0196094 0.0194897 0.0194893 0.0196112 0.0196492 0.0193443 0.0196084 0.0194883 0.0194879 0.0196122 0.0196495 0.0193441 0.0196055 0.0194856 0.0194849 0.0196199 0.0196493 0.0193456 0.0195947 0.0194797 0.0194661 0.0196408 0.0196141 0.0193269 0.0195491 0.0194669 0.019442 0.0194849 0.019827 0.0192387 0.0197264 0.0195293 0.0194908 0.0191945 0.0191341 0.0192986 0.0191798 0.0192644 0.0193027 0.0192543 0.0190879 0.019129 0.018995 0.0190222 0.0191255 0.0191292 0.0190592 0.0191005 0.018933 0.0189661 0.0191333 0.0191372 0.0190642 0.0191066 0.0189274 0.0189638 0.0191478 0.0191494 0.0190717 0.0191149 0.0189312 0.0189674 0.0191556 0.0191565 0.0190765 0.01912 0.0189348 0.0189705 0.0191593 0.0191602 0.0190788 0.0191222 0.0189369 0.0189724 0.0191609 0.0191619 0.0190798 0.019123 0.0189379 0.0189733 0.0191613 0.0191626 0.0190803 0.0191233 0.0189386 0.0189738 0.0191616 0.0191628 0.0190805 0.0191236 0.0189389 0.0189743 0.0191619 0.0191631 0.0190809 0.0191242 0.0189391 0.0189746 0.0191623 0.0191632 0.019081 0.0191247 0.0189387 0.0189744 0.0191627 0.0191629 0.0190802 0.0191247 0.0189374 0.018973 0.0191622 0.0191618 0.0190772 0.0191233 0.0189346 0.0189704 0.0191594 0.01916 0.0190706 0.01912 0.0189305 0.0189683 0.0191533 0.0191587 0.0190622 0.0191202 0.0189273 0.0189758 0.0191464 0.0191604 0.019046 0.0191216 0.018921 0.0189865 0.0190946 0.0191455 0.0190278 0.0190291 0.0188945 0.0189024 0.018772 0.0191312 0.0189044 0.0189067 0.0187949 0.0187932 0.018902 0.0188501 0.0188483 0.0188787 0.0187547 0.0187246 0.0188006 0.018832 0.0188152 0.0188459 0.0187175 0.0187119 0.0188026 0.0188391 0.0188061 0.0188384 0.0186888 0.0186985 0.0188013 0.0188372 0.0188079 0.0188403 0.0186796 0.0186938 0.0188032 0.0188388 0.0188115 0.0188436 0.0186795 0.0186941 0.0188055 0.018841 0.0188141 0.0188459 0.0186813 0.0186958 0.0188071 0.0188428 0.0188155 0.0188472 0.0186828 0.0186971 0.0188081 0.0188438 0.0188164 0.0188479 0.0186838 0.0186979 0.0188087 0.0188444 0.0188169 0.0188483 0.0186843 0.0186984 0.0188091 0.0188447 0.0188171 0.0188486 0.0186843 0.0186984 0.018809 0.0188444 0.0188166 0.0188484 0.0186834 0.0186977 0.018808 0.0188433 0.018815 0.0188474 0.0186815 0.0186961 0.0188056 0.0188409 0.0188116 0.0188454 0.0186794 0.0186942 0.0188022 0.018838 0.0188071 0.0188441 0.0186796 0.0186947 0.0187991 0.0188372 0.0188064 0.0188496 0.0186856 0.0187044 0.0187967 0.0188473 0.018821 0.0188624 0.0187004 0.0187273 0.0188028 0.0188819 0.0188986 0.0188936 0.0187403 0.0187555 0.0189348 0.0190037 0.0188339 0.0187616 0.0186878 0.0186445 0.0186931 0.0187009 0.0187473 0.0187333 0.0186581 0.018621 0.0186544 0.0187089 0.0187211 0.0187062 0.0186243 0.0185899 0.0186393 0.0186695 0.0187187 0.0186994 0.0186099 0.0185625 0.0186296 0.0186491 0.0187233 0.0186999 0.0186106 0.0185528 0.0186277 0.018644 0.0187276 0.018702 0.0186144 0.0185517 0.0186287 0.0186445 0.0187304 0.0187039 0.0186174 0.0185532 0.0186302 0.0186461 0.018732 0.0187051 0.0186192 0.0185547 0.0186313 0.0186475 0.0187327 0.0187058 0.0186203 0.0185558 0.018632 0.0186482 0.018733 0.0187062 0.0186206 0.0185562 0.0186322 0.0186485 0.018733 0.0187064 0.0186204 0.0185561 0.0186318 0.0186481 0.0187324 0.018706 0.0186194 0.0185554 0.0186306 0.018647 0.0187309 0.018705 0.0186178 0.0185542 0.0186287 0.0186449 0.0187288 0.0187033 0.0186165 0.0185537 0.0186275 0.0186438 0.0187287 0.0187021 0.0186179 0.018557 0.0186301 0.018649 0.0187385 0.0187076 0.018626 0.0185703 0.0186428 0.0186723 0.0187764 0.0187329 0.018647 0.0185973 0.0186884 0.0187206 0.0188355 0.0187902 0.0186821 0.0186216 0.0187631 0.0187331 0.0188618 0.0187394 0.0187541 0.0186721 0.0186667 0.0187511 0.0187735 0.0187036 0.0186892 0.0186515 0.0186528 0.0187262 0.0187559 0.0186828 0.0186664 0.0186108 0.0186367 0.0186736 0.018753 0.0186769 0.0186722 0.0185874 0.0186292 0.0186563 0.0187552 0.0186772 0.0186793 0.0185814 0.0186283 0.018655 0.0187581 0.018679 0.0186834 0.0185819 0.0186298 0.0186573 0.0187603 0.0186807 0.0186859 0.0185838 0.0186314 0.0186596 0.0187618 0.0186819 0.0186875 0.0185854 0.0186325 0.018661 0.0187624 0.0186826 0.0186883 0.0185863 0.0186331 0.0186618 0.0187626 0.0186828 0.0186885 0.0185866 0.0186331 0.018662 0.0187622 0.0186826 0.0186882 0.0185863 0.0186326 0.0186615 0.0187611 0.0186819 0.0186871 0.0185854 0.0186312 0.0186602 0.0187592 0.0186806 0.0186854 0.0185842 0.0186297 0.0186585 0.0187577 0.0186792 0.0186833 0.0185834 0.0186292 0.0186579 0.0187602 0.0186801 0.0186823 0.0185857 0.0186333 0.0186633 0.0187771 0.0186913 0.0186877 0.0185956 0.0186499 0.0186795 0.0188143 0.018724 0.0187111 0.0186116 0.0186867 0.0186951 0.0188477 0.0187593 0.0187406 0.0186158 0.0187013 0.0186608 0.0189643 0.0188368 0.0188737 0.0188453 0.0187665 0.0189817 0.0189356 0.0188062 0.0188005 0.0188306 0.018777 0.0188967 0.0189313 0.0187816 0.0188481 0.0188036 0.0187825 0.0188698 0.0189288 0.0187693 0.0188756 0.018792 0.0187863 0.0188736 0.0189304 0.0187678 0.018882 0.0187899 0.0187896 0.0188795 0.0189334 0.0187698 0.0188842 0.0187912 0.0187922 0.0188835 0.0189357 0.0187719 0.018886 0.018793 0.0187938 0.0188857 0.0189369 0.0187733 0.0188872 0.0187942 0.0187948 0.0188869 0.0189374 0.0187738 0.0188877 0.018795 0.0187951 0.0188874 0.0189374 0.0187739 0.0188877 0.0187952 0.018795 0.0188873 0.0189369 0.0187734 0.0188871 0.0187948 0.0187943 0.0188868 0.0189356 0.0187722 0.0188859 0.0187938 0.0187929 0.0188856 0.0189334 0.0187703 0.0188836 0.0187922 0.0187911 0.0188837 0.0189306 0.0187689 0.0188796 0.0187895 0.0187899 0.0188811 0.0189287 0.0187708 0.0188733 0.0187863 0.018792 0.0188744 0.0189315 0.018782 0.0188699 0.0187826 0.0188036 0.0188491 0.0189422 0.0187999 0.0188989 0.0187769 0.0188307 0.0188055 0.0189872 0.0188155 0.0189843 0.0187665 0.0188453 0.0188655 0.0189927 0.0190593 0.0184759 0.0190371 0.0189555 0.0193075 0.0192754 0.019036 0.0190896 0.0191518 0.0190451 0.0192607 0.0193033 0.0189904 0.0192063 0.0191726 0.0190795 0.0192844 0.0193143 0.0189814 0.0192191 0.0191724 0.0190934 0.0192938 0.0193199 0.0189841 0.019223 0.0191714 0.0190991 0.0192968 0.019322 0.0189875 0.0192255 0.0191718 0.0191014 0.0192985 0.0193226 0.0189896 0.0192263 0.0191725 0.0191023 0.0192994 0.0193225 0.0189906 0.0192261 0.019173 0.0191025 0.0193 0.0193223 0.0189908 0.0192257 0.0191732 0.0191025 0.0193002 0.0193221 0.0189907 0.0192253 0.0191731 0.0191022 0.0193003 0.0193219 0.01899 0.0192247 0.0191729 0.0191015 0.0193003 0.0193211 0.0189886 0.0192235 0.0191723 0.0191 0.0193002 0.0193194 0.0189864 0.019221 0.0191711 0.0190972 0.0193001 0.0193158 0.0189837 0.0192159 0.019169 0.0190925 0.0192997 0.0193073 0.018982 0.0192053 0.0191643 0.0190837 0.0192925 0.0192822 0.0189813 0.0191848 0.0191535 0.0190714 0.0192445 0.0192444 0.0189748 0.0191789 0.0191399 0.0191145 0.0191412 0.0195364 0.0190041 0.0193785 0.0192056 0.0192862 0.0195647 0.0189787 0.0190448 0.0188811 0.0188836 0.0190732 0.0190296 0.0188888 0.0189835 0.0188259 0.0189541 0.0189477 0.0189463 0.0188192 0.0189197 0.0187179 0.0189193 0.0189136 0.0189192 0.0188059 0.0189039 0.0186891 0.018906 0.0189158 0.0189183 0.0188094 0.0189044 0.0186862 0.0189026 0.01892 0.0189208 0.0188137 0.0189065 0.0186883 0.0189021 0.0189222 0.0189227 0.0188164 0.0189078 0.0186904 0.0189021 0.0189232 0.0189239 0.0188176 0.0189083 0.0186915 0.0189022 0.0189236 0.0189246 0.0188183 0.0189088 0.0186922 0.0189026 0.0189241 0.018925 0.018819 0.0189094 0.0186927 0.018903 0.0189247 0.0189254 0.0188194 0.0189098 0.0186931 0.0189033 0.0189251 0.0189254 0.0188198 0.0189098 0.018693 0.018903 0.0189251 0.0189246 0.0188191 0.0189086 0.0186919 0.0189014 0.0189239 0.0189226 0.0188162 0.0189062 0.0186899 0.0188982 0.0189213 0.01892 0.0188113 0.0189062 0.0186898 0.0188947 0.018921 0.0189219 0.0188149 0.0189227 0.0187008 0.0189039 0.0189402 0.018942 0.0188475 0.0189722 0.0187344 0.0189481 0.0189798 0.0189698 0.0188639 0.0189862 0.0187493 0.0189455 0.0187812 0.0188933 0.0187788 0.01885 0.0186535 0.0186851 0.0187471 0.0187408 0.018731 0.0188078 0.0186136 0.0186645 0.0186774 0.0186893 0.0186879 0.0187615 0.0185726 0.0186421 0.0186533 0.0186803 0.0186726 0.0187393 0.0185461 0.0186299 0.0186461 0.0186753 0.0186705 0.0187358 0.0185338 0.0186259 0.0186455 0.0186746 0.0186722 0.0187373 0.0185314 0.0186259 0.0186467 0.0186756 0.0186741 0.0187389 0.0185322 0.018627 0.0186481 0.0186768 0.0186753 0.0187399 0.0185334 0.018628 0.0186489 0.0186777 0.0186761 0.0187405 0.0185342 0.0186286 0.0186494 0.0186783 0.0186765 0.0187409 0.0185347 0.018629 0.0186498 0.0186785 0.0186768 0.0187412 0.0185347 0.0186289 0.0186497 0.0186781 0.0186766 0.018741 0.0185339 0.0186283 0.0186489 0.0186772 0.0186756 0.0187403 0.0185327 0.018627 0.0186473 0.0186757 0.0186739 0.0187386 0.018532 0.0186258 0.0186468 0.0186747 0.0186729 0.0187376 0.018536 0.0186269 0.0186529 0.0186783 0.0186805 0.0187459 0.0185513 0.0186367 0.0186735 0.0186944 0.0187054 0.0187709 0.0185779 0.0186627 0.0187011 0.0187194 0.0187355 0.0187798 0.0186116 0.0186827 0.0187368 0.0187349 0.0186976 0.0187015 0.0185663 0.018572 0.0185857 0.0185926 0.0186496 0.0186752 0.0185286 0.01854 0.018541 0.0185646 0.0186278 0.0186451 0.0185042 0.0185103 0.0185215 0.0185445 0.0186211 0.0186318 0.0184859 0.0184904 0.0185099 0.0185305 0.0186207 0.0186293 0.0184771 0.0184829 0.0185056 0.0185263 0.018622 0.0186301 0.0184755 0.0184821 0.0185053 0.0185265 0.0186234 0.0186313 0.0184765 0.0184832 0.0185062 0.0185277 0.0186243 0.0186321 0.0184776 0.0184843 0.0185071 0.0185287 0.0186248 0.0186326 0.0184783 0.018485 0.0185076 0.0185292 0.0186252 0.0186327 0.0184786 0.0184852 0.0185077 0.0185294 0.018625 0.0186328 0.0184784 0.018485 0.0185072 0.0185288 0.0186245 0.0186325 0.0184775 0.0184843 0.0185063 0.0185278 0.0186237 0.0186318 0.0184763 0.0184835 0.018505 0.0185267 0.0186229 0.018631 0.0184762 0.0184839 0.0185058 0.0185277 0.0186241 0.0186315 0.0184804 0.0184885 0.0185133 0.018535 0.0186325 0.0186389 0.0184939 0.0185017 0.0185318 0.0185536 0.0186551 0.0186596 0.0185177 0.0185264 0.0185624 0.0185786 0.0186884 0.0186856 0.0185534 0.0185535 0.0186144 0.018598 0.0187249 0.0186674 0.0185942 0.0185786 0.0185524 0.0185921 0.0186821 0.0186414 0.0185634 0.0185413 0.0185259 0.0185664 0.018661 0.0186185 0.0185455 0.0185094 0.0185036 0.0185387 0.0186513 0.0186106 0.0185302 0.018491 0.0184898 0.0185255 0.018649 0.0186095 0.0185238 0.0184843 0.018485 0.0185227 0.0186497 0.0186105 0.0185231 0.0184838 0.0184847 0.0185236 0.018651 0.0186115 0.0185244 0.0184851 0.0184857 0.0185252 0.0186519 0.0186122 0.0185257 0.0184863 0.0184866 0.0185261 0.0186523 0.0186124 0.0185265 0.0184869 0.018487 0.0185266 0.0186523 0.0186124 0.0185266 0.0184869 0.018487 0.0185265 0.0186518 0.0186122 0.0185262 0.0184865 0.0184864 0.0185257 0.018651 0.0186115 0.0185251 0.0184856 0.0184852 0.0185244 0.0186498 0.0186105 0.0185237 0.0184847 0.0184839 0.0185231 0.0186489 0.0186099 0.0185228 0.0184849 0.0184845 0.0185237 0.0186502 0.0186116 0.0185256 0.0184898 0.0184911 0.0185299 0.0186577 0.0186217 0.0185394 0.0185035 0.0185094 0.0185456 0.0186786 0.0186462 0.0185671 0.0185257 0.0185414 0.0185641 0.018723 0.0186755 0.0185937 0.0185524 0.0185787 0.0185924 0.018844 0.0187628 0.0186614 0.0187012 0.0186158 0.0187369 0.0188115 0.0187222 0.0186954 0.0186865 0.0186116 0.0187085 0.018767 0.0186931 0.0186806 0.0186498 0.0185955 0.018685 0.0187481 0.0186834 0.0186639 0.0186331 0.0185857 0.0186798 0.018746 0.0186826 0.0186579 0.018629 0.0185834 0.0186809 0.0187481 0.018684 0.0186582 0.0186296 0.0185841 0.0186831 0.01875 0.0186853 0.0186599 0.0186312 0.0185854 0.0186848 0.0187511 0.018686 0.0186612 0.0186324 0.0185862 0.0186858 0.0187513 0.0186861 0.0186617 0.018633 0.0185865 0.0186862 0.0187512 0.018686 0.0186616 0.018633 0.0185863 0.0186859 0.0187504 0.0186854 0.0186608 0.0186323 0.0185853 0.0186851 0.018749 0.0186843 0.0186593 0.0186312 0.0185837 0.0186835 0.0187467 0.0186827 0.018657 0.0186297 0.0185818 0.018681 0.0187435 0.0186813 0.0186547 0.0186282 0.0185813 0.0186772 0.0187405 0.0186816 0.0186563 0.0186289 0.0185874 0.0186708 0.0187436 0.0186886 0.0186744 0.0186365 0.0186107 0.0186665 0.018768 0.0187125 0.0187262 0.0186526 0.0186516 0.0186878 0.0188554 0.0187529 0.0187457 0.0186666 0.018672 0.0187502 0.0188938 0.0190014 0.0186009 0.0188975 0.0187221 0.0190552 0.0189379 0.0188781 0.0188899 0.0189946 0.0187678 0.0190749 0.018892 0.018823 0.0188326 0.0189315 0.0187691 0.0190713 0.0188891 0.0188134 0.0188032 0.0188988 0.0187668 0.0190665 0.0188943 0.0188157 0.0187989 0.0188921 0.0187671 0.0190659 0.0188972 0.0188187 0.018801 0.0188928 0.0187684 0.0190667 0.0188982 0.0188206 0.0188026 0.0188945 0.0187692 0.0190676 0.0188984 0.0188215 0.0188029 0.0188955 0.0187695 0.0190682 0.0188981 0.0188217 0.0188028 0.018896 0.0187694 0.0190685 0.0188975 0.0188214 0.018802 0.0188958 0.0187688 0.0190685 0.0188962 0.0188206 0.0188006 0.0188952 0.0187674 0.0190682 0.0188939 0.0188192 0.0187984 0.018894 0.0187649 0.0190673 0.0188895 0.0188169 0.0187946 0.0188921 0.0187611 0.0190647 0.0188813 0.0188138 0.0187888 0.0188898 0.018757 0.019057 0.0188694 0.0188109 0.0187832 0.0188877 0.0187591 0.019034 0.0188642 0.0188105 0.0187934 0.0188899 0.0187897 0.0189872 0.0189231 0.0188197 0.0188686 0.0189104 0.0188835 0.0189988 0.0190904 0.0188683 0.0190226 0.0189411 0.0189145 0.0191495 0.0188825 0.0190039 0.0187606 0.0187483 0.0190145 0.0189023 0.0188268 0.0190604 0.0188008 0.0190232 0.0189866 0.0189348 0.018755 0.0190482 0.0187242 0.0190417 0.0189629 0.0189275 0.0187262 0.0190481 0.0186823 0.019048 0.0189615 0.0189289 0.0187235 0.0190497 0.0186739 0.0190501 0.0189635 0.0189302 0.0187263 0.0190502 0.0186749 0.0190504 0.0189642 0.0189309 0.0187284 0.0190501 0.0186764 0.0190503 0.0189643 0.0189313 0.0187294 0.01905 0.0186772 0.0190502 0.0189643 0.0189315 0.01873 0.0190502 0.0186776 0.0190504 0.0189647 0.0189319 0.0187305 0.0190505 0.0186781 0.0190506 0.0189652 0.0189321 0.018731 0.0190505 0.0186784 0.0190507 0.0189654 0.0189319 0.0187308 0.0190496 0.0186782 0.0190502 0.0189646 0.0189307 0.0187296 0.0190468 0.0186768 0.0190484 0.0189615 0.0189282 0.0187262 0.0190417 0.0186738 0.0190447 0.0189561 0.0189248 0.0187213 0.0190359 0.018671 0.0190387 0.0189516 0.0189241 0.0187247 0.019041 0.018676 0.0190335 0.0189694 0.0189426 0.0187758 0.0190795 0.0187118 0.0190664 0.0190593 0.0190003 0.0188603 0.0191263 0.0187986 0.0191682 0.0190921 0.0189298 0.0187341 0.0188747 0.0186328 0.0187077 0.0186997 0.0186884 0.0187041 0.0188195 0.0186057 0.0187089 0.0187029 0.0186763 0.0186737 0.0187849 0.018583 0.0187002 0.0186787 0.0186541 0.0186589 0.0187674 0.0185637 0.0186925 0.0186677 0.0186471 0.0186552 0.0187643 0.0185538 0.0186917 0.0186662 0.0186464 0.018656 0.0187659 0.0185515 0.0186931 0.0186673 0.0186476 0.0186573 0.0187673 0.0185522 0.0186946 0.0186683 0.0186485 0.0186582 0.0187681 0.0185531 0.0186954 0.0186689 0.0186492 0.0186587 0.0187685 0.0185537 0.0186958 0.0186693 0.0186494 0.0186589 0.0187687 0.0185539 0.018696 0.0186695 0.0186495 0.018659 0.0187687 0.0185538 0.0186959 0.0186693 0.0186491 0.0186586 0.0187684 0.0185533 0.0186952 0.0186684 0.0186483 0.0186577 0.018767 0.018552 0.0186939 0.0186666 0.0186468 0.0186564 0.0187643 0.0185511 0.0186921 0.0186651 0.0186462 0.0186565 0.018761 0.0185541 0.0186914 0.0186692 0.018648 0.018664 0.0187622 0.0185686 0.0186947 0.0186896 0.0186579 0.0186925 0.0187839 0.0185979 0.0187094 0.0187232 0.0186842 0.0187309 0.0188142 0.0186315 0.0187416 0.01875 0.0186912 0.0186609 0.0187277 0.0185622 0.0186068 0.0185799 0.0185619 0.0186315 0.0186872 0.0185353 0.0185725 0.0185517 0.018531 0.0186137 0.0186624 0.0185141 0.0185468 0.018534 0.0185055 0.0186069 0.0186515 0.0184984 0.0185266 0.0185241 0.0184922 0.0186057 0.018649 0.0184904 0.0185196 0.0185205 0.0184882 0.0186063 0.0186497 0.0184884 0.0185195 0.0185203 0.0184885 0.018607 0.0186506 0.0184888 0.0185207 0.0185211 0.0184895 0.0186075 0.0186511 0.0184897 0.0185218 0.0185218 0.0184904 0.0186078 0.0186512 0.0184903 0.0185221 0.0185221 0.0184907 0.0186077 0.0186512 0.0184903 0.0185222 0.018522 0.0184906 0.0186075 0.018651 0.0184901 0.0185219 0.0185216 0.01849 0.0186069 0.0186505 0.0184893 0.0185212 0.0185206 0.0184892 0.0186059 0.0186495 0.0184882 0.0185204 0.0185193 0.0184887 0.0186052 0.0186488 0.0184881 0.0185206 0.0185196 0.0184907 0.0186069 0.0186509 0.018492 0.0185242 0.0185264 0.0184978 0.018616 0.0186606 0.0185053 0.0185341 0.0185467 0.0185128 0.0186376 0.0186841 0.018531 0.0185518 0.0185725 0.018535 0.0186678 0.0187135 0.0185617 0.01858 0.0186066 0.0185616 0.0186979 0.0186794 0.0186019 0.0186145 0.0185536 0.0185529 0.0186652 0.018654 0.0185785 0.0185624 0.0185265 0.0185167 0.0186434 0.0186328 0.018554 0.018532 0.0185018 0.0184925 0.0186357 0.0186262 0.0185353 0.0185134 0.0184886 0.0184793 0.0186348 0.0186263 0.0185275 0.0185059 0.018484 0.0184753 0.0186357 0.0186274 0.0185265 0.0185052 0.0184837 0.0184756 0.0186365 0.0186281 0.0185275 0.0185064 0.0184845 0.0184768 0.0186369 0.0186283 0.0185285 0.0185075 0.0184851 0.0184775 0.0186369 0.0186282 0.0185291 0.0185079 0.0184853 0.0184778 0.0186366 0.018628 0.0185291 0.0185077 0.0184851 0.0184775 0.0186361 0.0186275 0.0185285 0.0185072 0.0184844 0.0184767 0.0186351 0.0186267 0.0185276 0.0185064 0.0184833 0.0184755 0.0186334 0.0186256 0.0185264 0.0185055 0.0184822 0.0184747 0.0186315 0.018625 0.0185263 0.0185057 0.0184831 0.0184762 0.0186309 0.0186282 0.0185303 0.01851 0.0184905 0.0184846 0.018637 0.0186426 0.0185437 0.0185217 0.0185105 0.0185026 0.0186604 0.0186737 0.0185633 0.0185411 0.0185401 0.0185272 0.0186995 0.0187121 0.0185956 0.0185858 0.0185721 0.0185664 0.0188482 0.0187707 0.0187413 0.0187632 0.0186216 0.0186809 0.0187762 0.0187285 0.018726 0.0186884 0.0185972 0.0186446 0.018733 0.0187087 0.0186747 0.0186429 0.0185702 0.0186229 0.0187232 0.0187039 0.0186504 0.0186302 0.018557 0.0186153 0.018724 0.0187053 0.0186446 0.0186276 0.0185537 0.0186142 0.0187263 0.0187072 0.0186459 0.0186288 0.0185542 0.0186154 0.0187277 0.0187081 0.018648 0.0186307 0.0185554 0.018617 0.0187282 0.0187084 0.0186493 0.0186319 0.0185561 0.018618 0.0187282 0.0187082 0.0186497 0.0186323 0.0185561 0.0186182 0.0187278 0.0187079 0.0186494 0.018632 0.0185557 0.0186178 0.0187269 0.0187071 0.0186486 0.0186314 0.0185546 0.0186168 0.0187253 0.0187059 0.0186473 0.0186303 0.0185531 0.018615 0.0187225 0.0187039 0.0186458 0.0186288 0.0185516 0.0186121 0.0187185 0.0187015 0.0186455 0.0186278 0.0185527 0.0186085 0.0187145 0.0187008 0.0186509 0.0186296 0.0185624 0.0186078 0.0187181 0.0187103 0.0186712 0.0186395 0.0185898 0.0186217 0.0187468 0.0187455 0.0187063 0.0186545 0.0186211 0.0186544 0.0188197 0.0187996 0.0186992 0.0186933 0.0186444 0.0186887 0.0190206 0.0190415 0.0191736 0.0190589 0.0187656 0.0189664 0.0188216 0.0188879 0.0189615 0.0189818 0.0187321 0.0189627 0.018742 0.0188641 0.0188192 0.0188403 0.0187026 0.018921 0.0187392 0.0188666 0.0187973 0.0188147 0.0186927 0.0189046 0.0187484 0.0188713 0.0188067 0.0188198 0.0186929 0.0189022 0.0187548 0.0188748 0.0188158 0.0188261 0.0186952 0.0189035 0.0187581 0.0188768 0.0188206 0.0188301 0.0186969 0.0189051 0.0187594 0.0188776 0.0188224 0.018832 0.0186976 0.018906 0.0187594 0.0188776 0.0188228 0.0188326 0.0186976 0.0189062 0.0187588 0.0188774 0.0188223 0.0188323 0.018697 0.0189059 0.0187576 0.0188766 0.0188214 0.0188316 0.0186958 0.018905 0.0187558 0.0188755 0.0188203 0.0188305 0.018694 0.018903 0.018753 0.0188731 0.0188187 0.018829 0.0186916 0.0188991 0.0187489 0.0188691 0.0188167 0.0188274 0.0186907 0.0188919 0.0187462 0.018863 0.0188157 0.0188275 0.0186999 0.0188798 0.0187581 0.0188581 0.0188257 0.0188347 0.0187358 0.0188719 0.018813 0.0188615 0.018866 0.0188603 0.0187935 0.0189062 0.0187856 0.0188954 0.0188986 0.0188709 0.0187658 0.018832 0.0189214 0.0192246 0.018976 0.0189272 0.0192646 0.0190164 0.0189313 0.0192997 0.0189761 0.0192353 0.0192612 0.0190768 0.018913 0.0193152 0.0189671 0.019265 0.0192575 0.019082 0.0188989 0.0193279 0.0189492 0.0192753 0.0192588 0.0190855 0.0188973 0.0193328 0.0189463 0.0192792 0.0192605 0.0190873 0.0188994 0.0193338 0.0189486 0.0192802 0.019261 0.0190879 0.0189008 0.0193339 0.0189503 0.0192805 0.019261 0.0190881 0.0189013 0.0193339 0.0189509 0.0192806 0.0192611 0.0190883 0.0189015 0.019334 0.0189511 0.0192807 0.0192613 0.0190885 0.0189018 0.0193342 0.0189512 0.0192808 0.0192615 0.0190887 0.0189018 0.0193341 0.0189515 0.0192808 0.0192615 0.0190883 0.0189013 0.0193333 0.0189512 0.0192803 0.0192608 0.0190871 0.018899 0.0193312 0.0189498 0.0192791 0.019258 0.0190843 0.0188943 0.0193268 0.0189462 0.0192762 0.0192517 0.01908 0.018886 0.0193184 0.01894 0.0192714 0.0192394 0.0190741 0.0188759 0.0193084 0.0189347 0.0192641 0.0192268 0.0190712 0.0188863 0.0193102 0.0189341 0.0192581 0.0192649 0.0191275 0.0189961 0.0193532 0.0189836 0.0194209 0.0195823 0.019219 0.0188049 0.0190033 0.0188162 0.0189098 0.0188839 0.0187558 0.0187784 0.0189282 0.0187659 0.0188806 0.0188969 0.0187695 0.0187601 0.018934 0.0187522 0.0188806 0.0188922 0.0187522 0.0187525 0.01894 0.0187464 0.0188826 0.0188883 0.0187459 0.0187513 0.0189453 0.0187439 0.0188869 0.0188893 0.0187469 0.0187526 0.018949 0.0187448 0.0188906 0.0188913 0.0187487 0.018754 0.0189509 0.0187465 0.0188926 0.0188926 0.0187498 0.0187547 0.0189514 0.0187477 0.0188933 0.0188932 0.0187501 0.0187549 0.0189514 0.018748 0.0188934 0.0188934 0.0187503 0.0187549 0.0189514 0.0187481 0.0188934 0.0188934 0.0187502 0.0187546 0.0189513 0.018748 0.0188932 0.0188932 0.0187498 0.018754 0.0189508 0.0187476 0.0188927 0.0188925 0.0187488 0.0187526 0.0189489 0.0187466 0.0188914 0.0188906 0.018747 0.0187512 0.0189449 0.0187451 0.0188893 0.018887 0.018746 0.0187524 0.0189381 0.0187448 0.0188883 0.0188825 0.0187475 0.0187611 0.0189302 0.0187531 0.0188922 0.0188806 0.0187517 0.0187829 0.0189261 0.0187729 0.0188969 0.0188807 0.0187646 0.0188291 0.018947 0.0187537 0.0188839 0.0189098 0.0188172 0.0187289 0.0188487 0.01869 0.0187502 0.0187415 0.0186335 0.0187076 0.0187744 0.0186843 0.0187232 0.0187093 0.0185984 0.0186867 0.0187516 0.0186591 0.0186896 0.0186946 0.0185682 0.0186824 0.0187519 0.0186481 0.0186693 0.0186914 0.018554 0.0186833 0.0187546 0.0186455 0.0186651 0.0186921 0.0185514 0.0186846 0.0187568 0.0186462 0.0186667 0.0186938 0.0185525 0.0186853 0.0187581 0.0186476 0.0186686 0.0186952 0.0185538 0.0186856 0.0187583 0.0186485 0.0186694 0.0186957 0.0185545 0.0186855 0.0187583 0.0186489 0.0186696 0.0186958 0.0185546 0.0186853 0.0187581 0.0186488 0.0186694 0.0186957 0.0185543 0.0186848 0.0187577 0.0186485 0.018669 0.0186953 0.0185537 0.0186839 0.0187569 0.0186479 0.0186684 0.0186944 0.0185528 0.0186825 0.0187554 0.018647 0.0186673 0.018693 0.0185521 0.0186817 0.0187538 0.018646 0.0186662 0.0186916 0.0185543 0.0186857 0.0187555 0.0186463 0.0186677 0.0186924 0.0185629 0.0187026 0.0187687 0.018653 0.0186787 0.0187001 0.0185807 0.018732 0.0188022 0.0186785 0.018703 0.0187088 0.0186037 0.0187564 0.0188413 0.0186892 0.0186998 0.0187076 0.0186334 0.0187599 0.0187722 0.0187423 0.0187368 0.0186829 0.0186128 0.0187361 0.0187538 0.0187184 0.0187012 0.0186629 0.018577 0.0187154 0.0187243 0.0186956 0.0186736 0.0186369 0.0185497 0.0187097 0.0187196 0.0186798 0.018653 0.0186271 0.0185344 0.018711 0.0187221 0.0186759 0.0186468 0.0186259 0.0185307 0.0187127 0.018724 0.0186769 0.0186474 0.0186272 0.0185315 0.0187135 0.0187248 0.0186785 0.018649 0.0186285 0.0185329 0.0187136 0.0187247 0.0186796 0.0186498 0.0186291 0.0185336 0.0187134 0.0187243 0.0186799 0.0186499 0.0186291 0.0185336 0.0187129 0.0187239 0.0186797 0.0186495 0.0186288 0.0185332 0.0187121 0.0187233 0.0186792 0.018649 0.0186282 0.0185323 0.0187109 0.0187222 0.0186783 0.0186481 0.0186271 0.0185312 0.0187088 0.0187206 0.0186771 0.0186468 0.018626 0.0185303 0.0187067 0.0187192 0.0186761 0.0186455 0.0186261 0.0185325 0.0187083 0.018723 0.0186762 0.0186462 0.01863 0.0185438 0.0187232 0.0187446 0.0186789 0.0186534 0.0186423 0.0185689 0.0187591 0.0187971 0.018688 0.0186774 0.0186648 0.0186096 0.0187826 0.0188636 0.0187501 0.0187472 0.0186852 0.0186546 0.0189342 0.0188441 0.0190308 0.0189348 0.0187555 0.0187424 0.0188436 0.0188526 0.0188847 0.0188027 0.0187273 0.0186974 0.0188293 0.0188413 0.0188494 0.0187967 0.0187044 0.0186826 0.0188302 0.0188376 0.0188404 0.0187991 0.0186947 0.0186773 0.0188344 0.0188404 0.0188415 0.0188021 0.0186941 0.0186774 0.0188376 0.0188427 0.0188449 0.0188057 0.018696 0.0186797 0.0188391 0.0188437 0.0188475 0.018808 0.0186977 0.0186816 0.0188394 0.0188436 0.0188486 0.018809 0.0186985 0.0186824 0.0188392 0.0188433 0.0188488 0.0188091 0.0186984 0.0186824 0.0188388 0.0188428 0.0188486 0.0188088 0.0186979 0.0186819 0.018838 0.018842 0.018848 0.0188081 0.0186971 0.0186809 0.0188365 0.0188407 0.018847 0.0188072 0.0186956 0.0186793 0.018834 0.0188382 0.0188454 0.0188055 0.0186941 0.0186774 0.0188304 0.0188346 0.0188433 0.0188032 0.0186938 0.0186773 0.0188278 0.0188326 0.0188416 0.0188013 0.0186985 0.0186854 0.0188338 0.0188425 0.0188414 0.0188026 0.0187119 0.0187123 0.0188538 0.0188871 0.0188289 0.0188006 0.0187247 0.0187494 0.018888 0.0189695 0.0188626 0.0189021 0.0187932 0.0187954 0.0193008 0.0191288 0.0198815 0.0194553 0.018992 0.0190699 0.0190121 0.0190502 0.0191652 0.019045 0.0189193 0.0189808 0.0190418 0.0190831 0.0191478 0.0190005 0.0189096 0.0189379 0.0190773 0.0190972 0.0191942 0.0190396 0.0189146 0.0189384 0.0190922 0.0191038 0.0192159 0.0190588 0.0189201 0.0189452 0.0190986 0.0191075 0.0192236 0.0190668 0.0189241 0.0189504 0.0191016 0.019109 0.0192265 0.0190703 0.0189264 0.0189533 0.0191026 0.0191095 0.0192272 0.0190715 0.0189273 0.0189545 0.0191028 0.0191095 0.0192273 0.0190718 0.0189274 0.0189547 0.0191026 0.0191092 0.0192271 0.0190715 0.0189271 0.0189543 0.0191024 0.0191088 0.0192269 0.0190712 0.0189265 0.0189535 0.0191019 0.0191081 0.0192268 0.0190707 0.0189255 0.0189525 0.0191008 0.0191061 0.0192261 0.0190696 0.0189235 0.0189513 0.0190969 0.0191018 0.0192237 0.019067 0.0189202 0.0189507 0.019087 0.0190936 0.0192167 0.0190618 0.0189166 0.0189536 0.0190692 0.0190812 0.0192012 0.0190538 0.0189161 0.0189666 0.0190385 0.0190674 0.0191716 0.0190526 0.0188854 0.0189705 0.0188554 0.0190737 0.019097 0.0190934 0.0189122 0.0188206 0.0191526 0.0195555 0.0195875 0.0198676 0.0197796 0.0193637 0.0191953 0.0194799 0.019295 0.0195413 0.0195564 0.0193047 0.0192217 0.0194826 0.0193008 0.0195268 0.0195378 0.0193047 0.0192292 0.0194911 0.0193119 0.0195329 0.0195378 0.0193121 0.0192337 0.0194942 0.0193171 0.0195373 0.019539 0.019316 0.0192364 0.0194953 0.0193203 0.019539 0.0195395 0.0193174 0.0192375 0.0194958 0.0193219 0.0195397 0.0195398 0.019318 0.0192377 0.0194961 0.0193224 0.0195398 0.0195399 0.0193181 0.0192378 0.0194961 0.0193225 0.01954 0.01954 0.0193182 0.0192378 0.0194962 0.0193224 0.0195399 0.0195401 0.0193182 0.0192378 0.0194961 0.0193224 0.0195399 0.0195399 0.019318 0.0192375 0.0194958 0.0193223 0.0195397 0.0195397 0.0193174 0.0192364 0.0194953 0.0193218 0.0195394 0.019539 0.0193159 0.0192335 0.019494 0.0193206 0.0195389 0.0195374 0.0193129 0.0192277 0.0194907 0.0193171 0.0195377 0.0195329 0.0193077 0.019217 0.0194829 0.0193116 0.0195378 0.0195268 0.0192971 0.0191963 0.019478 0.0193143 0.0195564 0.0195415 0.0192888 0.0191474 0.0195313 0.0193744 0.0197796 0.0198677 0.019553 0.019002 0.0193468 0.0192291 0.0195822 0.0194209 0.0189808 0.0189393 0.0192524 0.0191311 0.0192647 0.0192582 0.0189302 0.0189271 0.0192749 0.0190702 0.0192267 0.019264 0.018932 0.018934 0.0192894 0.0190729 0.0192393 0.0192714 0.0189395 0.0189398 0.0192976 0.0190788 0.0192516 0.0192762 0.0189465 0.0189438 0.0193017 0.0190833 0.019258 0.0192789 0.0189505 0.0189459 0.0193035 0.0190862 0.0192607 0.0192803 0.018952 0.0189466 0.0193041 0.0190874 0.0192614 0.0192808 0.0189523 0.0189464 0.0193042 0.0190877 0.0192614 0.0192808 0.0189522 0.0189463 0.019304 0.0190875 0.0192611 0.0192807 0.018952 0.018946 0.0193039 0.0190873 0.019261 0.0192805 0.0189518 0.0189455 0.0193039 0.0190872 0.0192609 0.0192804 0.0189511 0.0189444 0.0193037 0.019087 0.0192609 0.0192802 0.0189495 0.0189428 0.0193026 0.0190864 0.0192604 0.0192792 0.0189473 0.018944 0.0192978 0.0190847 0.0192587 0.0192752 0.0189497 0.0189557 0.0192863 0.0190826 0.0192575 0.0192649 0.018966 0.0189762 0.0192605 0.0190794 0.0192611 0.0192353 0.0189733 0.0189382 0.0190498 0.0190268 0.0192646 0.0189272 0.0189702 0.0188905 0.0191191 0.0189196 0.019092 0.0191681 0.018798 0.0188538 0.0189976 0.0190014 0.0190591 0.0190664 0.0187118 0.0188104 0.0189675 0.0189434 0.0189694 0.0190334 0.0186739 0.0188061 0.0189713 0.0189249 0.0189517 0.0190385 0.0186691 0.01881 0.0189784 0.0189258 0.018956 0.0190446 0.0186725 0.0188129 0.0189833 0.0189295 0.0189616 0.0190483 0.0186758 0.0188141 0.0189857 0.0189321 0.0189645 0.01905 0.0186774 0.0188141 0.0189864 0.0189332 0.0189653 0.0190506 0.0186776 0.0188137 0.0189862 0.0189334 0.0189652 0.0190504 0.0186773 0.0188133 0.0189858 0.0189331 0.0189646 0.0190502 0.0186768 0.0188128 0.0189856 0.0189328 0.0189643 0.0190501 0.0186763 0.0188119 0.0189857 0.0189326 0.0189642 0.0190502 0.0186756 0.0188103 0.0189855 0.0189322 0.0189641 0.0190502 0.0186741 0.0188082 0.0189845 0.0189315 0.0189634 0.01905 0.018673 0.0188109 0.0189833 0.0189297 0.0189615 0.0190479 0.0186805 0.0188344 0.0189891 0.0189276 0.018963 0.0190416 0.0187202 0.0188917 0.0190082 0.0189362 0.0189866 0.0190231 0.0187945 0.0188986 0.018886 0.0189137 0.0190144 0.0187482 0.0187623 0.0189188 0.0189619 0.0188728 0.0187811 0.0189457 0.0187474 0.0189159 0.018912 0.0189692 0.0189797 0.0189482 0.0187321 0.0188849 0.0188646 0.0189476 0.0189402 0.018904 0.0186971 0.0188791 0.0188557 0.0189283 0.018921 0.0188949 0.0186862 0.018883 0.0188579 0.0189264 0.0189211 0.0188984 0.0186866 0.0188858 0.0188602 0.0189292 0.0189238 0.0189016 0.0186887 0.0188866 0.0188611 0.0189313 0.0189252 0.0189032 0.0186897 0.0188864 0.0188609 0.0189321 0.0189251 0.0189034 0.0186899 0.0188858 0.0188602 0.018932 0.0189246 0.0189031 0.0186894 0.0188853 0.0188597 0.0189316 0.018924 0.0189027 0.0186889 0.0188846 0.0188591 0.0189312 0.0189236 0.0189024 0.0186882 0.0188836 0.0188584 0.0189305 0.0189232 0.0189022 0.0186871 0.0188814 0.0188566 0.0189294 0.0189222 0.0189022 0.018685 0.0188778 0.0188536 0.0189274 0.0189198 0.0189027 0.0186827 0.0188755 0.0188521 0.0189245 0.0189157 0.018906 0.0186849 0.0188877 0.0188705 0.0189233 0.0189136 0.0189194 0.0187126 0.0189405 0.0189553 0.018948 0.0189476 0.0189543 0.0188164 0.018988 0.0190544 0.0190471 0.0190731 0.0188836 0.0188815 0.0190981 0.0189987 0.0191305 0.0187719 0.0189023 0.0188903 0.0191025 0.019108 0.0191437 0.0190945 0.0189865 0.0189168 0.0191158 0.0191096 0.019167 0.0191463 0.0189757 0.0189236 0.0191215 0.0191121 0.0191662 0.0191532 0.0189683 0.018928 0.0191264 0.0191159 0.0191671 0.0191592 0.0189703 0.0189324 0.019129 0.0191174 0.019169 0.0191621 0.018973 0.0189353 0.0191298 0.0191172 0.0191701 0.0191627 0.0189743 0.0189367 0.0191298 0.0191167 0.0191703 0.0191622 0.0189745 0.0189369 0.0191294 0.0191161 0.0191701 0.0191618 0.0189742 0.0189366 0.0191292 0.0191159 0.0191699 0.0191615 0.0189738 0.0189362 0.0191288 0.0191155 0.0191696 0.0191613 0.0189733 0.0189357 0.0191279 0.0191146 0.019169 0.0191608 0.0189724 0.0189346 0.0191257 0.0191122 0.0191674 0.0191592 0.0189705 0.0189323 0.0191212 0.0191066 0.0191639 0.0191555 0.0189675 0.0189285 0.0191138 0.0190971 0.0191568 0.0191476 0.0189637 0.0189241 0.0191069 0.0190879 0.0191438 0.0191332 0.018966 0.0189288 0.0191231 0.0191239 0.0191294 0.0191255 0.0190223 0.0189873 0.0191554 0.0194014 0.0192742 0.0193027 0.0192644 0.0191692 0.0195024 0.0191952 0.0201553 0.0192467 0.0191485 0.0193074 0.0193802 0.0194107 0.0194224 0.01929 0.0192144 0.0192082 0.0194654 0.0194345 0.0195188 0.0193923 0.0192457 0.0192131 0.019483 0.0194374 0.0195474 0.0194068 0.0192537 0.0192282 0.0194869 0.0194395 0.0195535 0.0194106 0.0192577 0.0192365 0.0194883 0.0194403 0.0195545 0.0194124 0.0192602 0.0192403 0.0194888 0.0194403 0.0195544 0.0194127 0.0192613 0.0192419 0.019489 0.0194401 0.0195542 0.0194126 0.0192616 0.0192424 0.019489 0.01944 0.0195541 0.0194125 0.0192615 0.0192424 0.0194892 0.01944 0.0195542 0.0194126 0.0192614 0.0192424 0.0194892 0.0194401 0.0195543 0.0194126 0.0192611 0.0192421 0.0194893 0.0194399 0.0195543 0.0194125 0.0192606 0.0192418 0.0194886 0.0194387 0.0195538 0.0194116 0.0192589 0.0192409 0.0194864 0.0194353 0.0195522 0.0194091 0.0192547 0.0192386 0.0194808 0.0194274 0.0195482 0.0194026 0.0192459 0.0192335 0.0194677 0.0194134 0.0195389 0.019389 0.0192282 0.0192269 0.0194325 0.0194055 0.0195187 0.0193732 0.0192042 0.0192395 0.0192956 0.019718 0.0195083 0.0194977 0.0196202 0.0192599 
SCALARS volume_diff float 1
LOOKUP_TABLE default
0.0185615 0.0187816 0.0185011 0.0188485 0.0187262 0.0187454 0.0186326 0.0186254 0.018475 0.0184326 0.0186016 0.0187409 0.0186422 0.0186319 0.0184643 0.0184567 0.0186174 0.0187603 0.0186528 0.0186457 0.01847 0.0184744 0.0186311 0.0187702 0.0186582 0.0186537 0.0184742 0.0184831 0.0186375 0.0187746 0.0186604 0.0186571 0.0184761 0.0184873 0.0186401 0.0187763 0.0186611 0.0186582 0.0184769 0.018489 0.0186409 0.0187769 0.0186611 0.0186584 0.0184772 0.0184896 0.0186411 0.0187769 0.018661 0.0186584 0.0184774 0.0184898 0.018641 0.0187769 0.018661 0.0186584 0.0184775 0.0184899 0.018641 0.0187768 0.0186609 0.0186586 0.0184775 0.01849 0.018641 0.0187768 0.0186607 0.0186588 0.018477 0.0184896 0.0186411 0.018777 0.01866 0.0186589 0.0184754 0.0184886 0.0186408 0.0187771 0.0186581 0.0186577 0.0184717 0.0184861 0.0186391 0.0187762 0.0186526 0.0186544 0.0184637 0.0184821 0.0186351 0.0187706 0.0186351 0.0186487 0.0184499 0.0184742 0.0186206 0.0187453 0.0185663 0.0186166 0.018447 0.0184428 0.0185184 0.0186548 0.0186804 0.0184139 0.0185453 0.0183768 0.0184751 0.0192927 0.0181725 0.0182151 0.0180364 0.0181406 0.0183217 0.0183258 0.0182918 0.0182716 0.0182073 0.0181138 0.018281 0.0183937 0.0183129 0.0182988 0.0182046 0.0181444 0.018282 0.0184211 0.0183277 0.0183102 0.0181888 0.0181451 0.0182902 0.0184367 0.0183364 0.018318 0.0181839 0.0181486 0.0182954 0.0184439 0.0183401 0.018322 0.0181839 0.018152 0.0182979 0.0184466 0.0183415 0.0183238 0.018185 0.0181539 0.018299 0.0184473 0.018342 0.0183244 0.0181858 0.0181549 0.0182995 0.0184475 0.0183423 0.0183248 0.0181866 0.0181555 0.0182998 0.0184476 0.0183424 0.018325 0.0181871 0.0181558 0.0183001 0.0184478 0.0183422 0.018325 0.0181869 0.0181557 0.0182999 0.0184477 0.018341 0.0183244 0.0181857 0.0181548 0.0182986 0.018447 0.0183378 0.0183226 0.0181828 0.0181526 0.0182952 0.0184443 0.0183312 0.0183186 0.0181776 0.0181485 0.0182872 0.0184371 0.0183169 0.0183104 0.0181713 0.018143 0.0182679 0.0184169 0.0182881 0.018292 0.018172 0.018138 0.0182288 0.0183734 0.018275 0.0182633 0.0182142 0.0181477 0.0182734 0.0183798 0.018529 0.0184115 0.0182911 0.0182204 0.0186837 0.0190348 0.0180962 0.0180662 0.01805 0.0179943 0.0180991 0.0181224 0.0180983 0.0180657 0.0181441 0.0180219 0.0180886 0.0180918 0.0180774 0.0180649 0.0181049 0.0179642 0.018063 0.0180514 0.0180851 0.0180675 0.01811 0.0179285 0.0180558 0.0180418 0.0180942 0.0180715 0.0181213 0.0179191 0.0180557 0.0180432 0.0180999 0.0180747 0.0181288 0.0179201 0.0180571 0.0180454 0.0181029 0.0180767 0.0181328 0.0179224 0.0180587 0.018047 0.0181045 0.0180778 0.0181348 0.0179243 0.0180598 0.0180481 0.0181053 0.0180785 0.0181359 0.0179254 0.0180605 0.0180491 0.0181058 0.0180789 0.0181362 0.017926 0.0180607 0.0180496 0.0181054 0.0180788 0.018136 0.0179261 0.0180602 0.0180492 0.0181042 0.0180778 0.0181351 0.0179253 0.0180583 0.0180475 0.0181012 0.0180754 0.0181335 0.0179236 0.0180544 0.0180428 0.0180959 0.0180712 0.0181322 0.0179213 0.018048 0.0180343 0.0180893 0.0180647 0.0181349 0.0179212 0.0180429 0.0180248 0.0180949 0.0180613 0.0181513 0.0179312 0.0180686 0.0180426 0.0181663 0.0180997 0.0181892 0.0179605 0.0182101 0.0181684 0.0183304 0.0182627 0.0181851 0.017994 0.0182872 0.0183827 0.0183398 0.0180753 0.0183952 0.0181429 0.0181697 0.0182392 0.0182049 0.0180361 0.0182364 0.0181118 0.0181389 0.018092 0.0182029 0.0180125 0.018216 0.0180182 0.0181184 0.0180202 0.018226 0.0180072 0.0182632 0.0179876 0.0181163 0.0180116 0.0182391 0.018009 0.0182872 0.0179855 0.0181183 0.0180174 0.0182456 0.0180121 0.0182956 0.0179896 0.0181206 0.0180233 0.0182487 0.0180145 0.0182985 0.0179935 0.0181224 0.0180271 0.0182502 0.018016 0.0182994 0.0179958 0.0181237 0.0180294 0.0182508 0.018017 0.0182997 0.0179972 0.0181243 0.0180308 0.0182511 0.0180174 0.0182996 0.0179978 0.0181245 0.0180316 0.0182512 0.0180173 0.0182994 0.017998 0.018124 0.0180318 0.0182507 0.0180164 0.0182987 0.0179976 0.0181229 0.0180313 0.0182496 0.0180144 0.0182979 0.0179968 0.0181213 0.0180297 0.0182474 0.0180111 0.0182973 0.0179956 0.0181205 0.0180273 0.0182448 0.0180087 0.018298 0.0179952 0.0181274 0.0180294 0.0182526 0.0180213 0.0183016 0.0179976 0.01816 0.0180526 0.0182984 0.018081 0.0182995 0.0179962 0.0182231 0.0181044 0.0182563 0.0181682 0.0182803 0.0179506 0.018126 0.0178638 0.0187008 0.0182529 0.0188457 0.0185146 0.018434 0.0185869 0.0185051 0.0182172 0.0183671 0.0183428 0.0183683 0.0183968 0.0185692 0.0181996 0.0184715 0.0182997 0.0183818 0.0184093 0.0185908 0.0181979 0.0185224 0.0183122 0.0183928 0.0184308 0.0185954 0.018201 0.0185303 0.0183209 0.0183973 0.0184412 0.0185971 0.0182048 0.0185308 0.0183257 0.0183994 0.0184462 0.0185979 0.0182075 0.0185309 0.0183285 0.0184006 0.0184486 0.0185982 0.018209 0.0185308 0.0183299 0.0184012 0.0184498 0.0185983 0.0182097 0.0185308 0.0183307 0.0184015 0.0184504 0.0185984 0.01821 0.0185308 0.018331 0.0184015 0.0184508 0.0185984 0.0182099 0.0185305 0.0183309 0.0184012 0.0184511 0.0185983 0.0182092 0.0185301 0.0183307 0.0184008 0.0184513 0.0185978 0.0182075 0.0185291 0.0183298 0.0184 0.0184505 0.0185967 0.0182049 0.0185274 0.0183275 0.0183997 0.0184472 0.0185947 0.0182037 0.018524 0.0183217 0.0184007 0.0184408 0.0185931 0.0182119 0.0185129 0.0183079 0.018401 0.0184238 0.0185795 0.0182344 0.0184867 0.0182735 0.0183801 0.0183184 0.0183355 0.0182047 0.0185484 0.0181838 0.0182655 0.0177742 0.0188975 0.0185237 0.0183969 0.0187193 0.0187576 0.0189483 0.0188423 0.0185738 0.0187063 0.0186703 0.0186952 0.0187771 0.0188809 0.0185688 0.0188716 0.0186946 0.018708 0.0188261 0.0188782 0.0185692 0.0188482 0.0187134 0.0187139 0.018836 0.0188777 0.0185714 0.0188394 0.0187163 0.0187167 0.0188383 0.018878 0.0185737 0.0188382 0.0187177 0.018718 0.0188392 0.0188781 0.0185751 0.0188382 0.0187186 0.0187187 0.0188396 0.0188782 0.0185757 0.0188382 0.0187189 0.0187189 0.0188396 0.0188782 0.0185759 0.0188382 0.0187191 0.018719 0.0188396 0.0188782 0.0185759 0.0188382 0.0187191 0.0187191 0.0188396 0.0188782 0.0185758 0.0188382 0.018719 0.0187189 0.0188396 0.0188782 0.0185753 0.0188381 0.0187188 0.0187185 0.0188396 0.0188779 0.0185742 0.0188378 0.0187181 0.0187177 0.0188396 0.0188776 0.0185727 0.0188368 0.0187167 0.0187163 0.0188406 0.0188779 0.0185725 0.0188339 0.018714 0.0187133 0.0188483 0.0188777 0.018574 0.0188231 0.0187081 0.0186945 0.0188692 0.0188425 0.0185552 0.0187775 0.0186953 0.0186704 0.0187133 0.0190554 0.0184671 0.0189548 0.0187577 0.0187192 0.0184229 0.0183625 0.018527 0.0184082 0.0184928 0.0185311 0.0184827 0.0183163 0.0183574 0.0182234 0.0182506 0.0183539 0.0183575 0.0182876 0.0183289 0.0181614 0.0181945 0.0183617 0.0183656 0.0182926 0.018335 0.0181558 0.0181922 0.0183761 0.0183778 0.0183001 0.0183433 0.0181596 0.0181958 0.018384 0.0183849 0.0183049 0.0183484 0.0181632 0.0181989 0.0183877 0.0183886 0.0183072 0.0183506 0.0181653 0.0182008 0.0183893 0.0183903 0.0183082 0.0183514 0.0181663 0.0182017 0.0183897 0.018391 0.0183087 0.0183517 0.018167 0.0182022 0.01839 0.0183912 0.0183089 0.018352 0.0181673 0.0182027 0.0183903 0.0183915 0.0183093 0.0183526 0.0181675 0.018203 0.0183907 0.0183916 0.0183093 0.0183531 0.0181671 0.0182028 0.0183911 0.0183913 0.0183086 0.0183531 0.0181658 0.0182014 0.0183906 0.0183902 0.0183056 0.0183517 0.018163 0.0181988 0.0183878 0.0183884 0.018299 0.0183484 0.0181589 0.0181967 0.0183817 0.0183871 0.0182906 0.0183486 0.0181557 0.0182042 0.0183748 0.0183888 0.0182744 0.0183499 0.0181493 0.0182148 0.0183229 0.0183739 0.0182562 0.0182575 0.0181229 0.0181308 0.0180004 0.0183596 0.0181328 0.0181351 0.0180233 0.0180216 0.0181304 0.0180785 0.0180766 0.0181071 0.0179831 0.017953 0.018029 0.0180604 0.0180436 0.0180743 0.0179459 0.0179403 0.018031 0.0180675 0.0180345 0.0180668 0.0179172 0.0179269 0.0180297 0.0180656 0.0180363 0.0180687 0.017908 0.0179222 0.0180316 0.0180672 0.0180399 0.018072 0.0179078 0.0179225 0.0180339 0.0180694 0.0180425 0.0180743 0.0179097 0.0179242 0.0180355 0.0180712 0.0180439 0.0180756 0.0179112 0.0179255 0.0180365 0.0180722 0.0180448 0.0180763 0.0179122 0.0179263 0.0180371 0.0180728 0.0180453 0.0180767 0.0179127 0.0179268 0.0180375 0.0180731 0.0180455 0.018077 0.0179127 0.0179268 0.0180374 0.0180728 0.018045 0.0180768 0.0179118 0.0179261 0.0180364 0.0180717 0.0180434 0.0180758 0.0179099 0.0179245 0.018034 0.0180693 0.01804 0.0180738 0.0179078 0.0179226 0.0180306 0.0180663 0.0180355 0.0180725 0.017908 0.0179231 0.0180275 0.0180656 0.0180348 0.018078 0.017914 0.0179328 0.0180251 0.0180757 0.0180494 0.0180908 0.0179288 0.0179557 0.0180312 0.0181103 0.0181269 0.018122 0.0179687 0.0179839 0.0181632 0.0182321 0.0180623 0.01799 0.0179162 0.0178729 0.0179215 0.0179293 0.0179757 0.0179617 0.0178865 0.0178494 0.0178828 0.0179373 0.0179495 0.0179346 0.0178527 0.0178183 0.0178677 0.0178979 0.0179471 0.0179277 0.0178383 0.0177909 0.017858 0.0178775 0.0179517 0.0179283 0.017839 0.0177812 0.0178561 0.0178723 0.017956 0.0179304 0.0178428 0.0177801 0.0178571 0.0178729 0.0179588 0.0179323 0.0178458 0.0177816 0.0178586 0.0178745 0.0179604 0.0179335 0.0178476 0.0177831 0.0178597 0.0178758 0.0179611 0.0179342 0.0178487 0.0177842 0.0178604 0.0178766 0.0179614 0.0179346 0.017849 0.0177846 0.0178606 0.0178769 0.0179614 0.0179348 0.0178487 0.0177845 0.0178602 0.0178765 0.0179608 0.0179344 0.0178478 0.0177838 0.017859 0.0178754 0.0179593 0.0179334 0.0178462 0.0177826 0.0178571 0.0178733 0.0179572 0.0179317 0.0178449 0.0177821 0.0178559 0.0178722 0.0179571 0.0179304 0.0178463 0.0177854 0.0178585 0.0178774 0.0179669 0.017936 0.0178544 0.0177986 0.0178712 0.0179007 0.0180048 0.0179613 0.0178754 0.0178257 0.0179168 0.017949 0.0180639 0.0180186 0.0179105 0.01785 0.0179915 0.0179615 0.0180902 0.0179678 0.0179825 0.0179005 0.0178951 0.0179795 0.0180019 0.017932 0.0179176 0.0178799 0.0178812 0.0179546 0.0179842 0.0179112 0.0178948 0.0178392 0.0178651 0.017902 0.0179814 0.0179053 0.0179006 0.0178158 0.0178575 0.0178847 0.0179836 0.0179056 0.0179077 0.0178098 0.0178567 0.0178834 0.0179865 0.0179074 0.0179118 0.0178103 0.0178582 0.0178857 0.0179887 0.0179091 0.0179143 0.0178122 0.0178598 0.017888 0.0179902 0.0179103 0.0179159 0.0178138 0.0178609 0.0178894 0.0179908 0.017911 0.0179167 0.0178147 0.0178615 0.0178902 0.017991 0.0179112 0.0179169 0.017815 0.0178615 0.0178904 0.0179906 0.017911 0.0179165 0.0178147 0.017861 0.0178899 0.0179895 0.0179103 0.0179155 0.0178138 0.0178596 0.0178886 0.0179876 0.017909 0.0179138 0.0178126 0.0178581 0.0178869 0.0179861 0.0179076 0.0179116 0.0178118 0.0178576 0.0178863 0.0179886 0.0179085 0.0179107 0.0178141 0.0178617 0.0178917 0.0180055 0.0179197 0.0179161 0.017824 0.0178783 0.0179079 0.0180427 0.0179524 0.0179395 0.01784 0.0179151 0.0179235 0.0180761 0.0179877 0.017969 0.0178442 0.0179297 0.0178892 0.0181927 0.0180652 0.0181021 0.0180737 0.0179949 0.0182101 0.018164 0.0180346 0.0180289 0.018059 0.0180054 0.0181251 0.0181597 0.01801 0.0180764 0.018032 0.0180109 0.0180982 0.0181572 0.0179976 0.018104 0.0180204 0.0180146 0.018102 0.0181588 0.0179962 0.0181104 0.0180183 0.018018 0.0181079 0.0181618 0.0179982 0.0181126 0.0180196 0.0180206 0.0181119 0.0181641 0.0180003 0.0181144 0.0180214 0.0180222 0.0181141 0.0181653 0.0180017 0.0181156 0.0180226 0.0180232 0.0181153 0.0181658 0.0180022 0.0181161 0.0180234 0.0180235 0.0181158 0.0181658 0.0180023 0.0181161 0.0180236 0.0180234 0.0181157 0.0181653 0.0180018 0.0181155 0.0180232 0.0180227 0.0181152 0.018164 0.0180006 0.0181143 0.0180222 0.0180213 0.018114 0.0181618 0.0179987 0.018112 0.0180206 0.0180195 0.0181121 0.018159 0.0179973 0.018108 0.0180179 0.0180183 0.0181095 0.0181571 0.0179992 0.0181017 0.0180147 0.0180204 0.0181028 0.0181599 0.0180104 0.0180983 0.018011 0.018032 0.0180775 0.0181706 0.0180283 0.0181273 0.0180053 0.0180591 0.0180339 0.0182156 0.0180439 0.0182127 0.0179949 0.0180737 0.0180939 0.0182211 0.0182877 0.0177043 0.0182655 0.0181839 0.0185359 0.0185038 0.0182644 0.018318 0.0183802 0.0182735 0.0184891 0.0185317 0.0182188 0.0184347 0.018401 0.0183079 0.0185128 0.0185427 0.0182098 0.0184475 0.0184008 0.0183218 0.0185222 0.0185483 0.0182125 0.0184514 0.0183998 0.0183275 0.0185252 0.0185504 0.0182159 0.0184539 0.0184002 0.0183298 0.0185268 0.018551 0.018218 0.0184547 0.0184009 0.0183307 0.0185278 0.0185509 0.018219 0.0184545 0.0184014 0.0183309 0.0185284 0.0185507 0.0182192 0.0184541 0.0184016 0.0183309 0.0185285 0.0185505 0.0182191 0.0184537 0.0184015 0.0183306 0.0185287 0.0185503 0.0182184 0.018453 0.0184013 0.0183299 0.0185287 0.0185495 0.018217 0.0184519 0.0184007 0.0183284 0.0185286 0.0185478 0.0182148 0.0184494 0.0183995 0.0183256 0.0185285 0.0185442 0.0182121 0.0184443 0.0183973 0.0183209 0.0185281 0.0185357 0.0182104 0.0184337 0.0183927 0.0183121 0.0185209 0.0185106 0.0182097 0.0184132 0.0183819 0.0182998 0.0184729 0.0184728 0.0182032 0.0184073 0.0183683 0.0183429 0.0183696 0.0187648 0.0182325 0.0186069 0.018434 0.0185146 0.0187931 0.0182071 0.0182732 0.0181095 0.018112 0.0183016 0.018258 0.0181172 0.0182119 0.0180543 0.0181825 0.018176 0.0181747 0.0180476 0.0181481 0.0179463 0.0181477 0.018142 0.0181476 0.0180343 0.0181323 0.0179175 0.0181344 0.0181442 0.0181467 0.0180378 0.0181328 0.0179146 0.018131 0.0181484 0.0181492 0.0180421 0.0181349 0.0179167 0.0181305 0.0181506 0.0181511 0.0180448 0.0181362 0.0179188 0.0181305 0.0181516 0.0181523 0.018046 0.0181367 0.0179199 0.0181306 0.018152 0.018153 0.0180467 0.0181372 0.0179206 0.018131 0.0181525 0.0181534 0.0180473 0.0181378 0.0179211 0.0181314 0.0181531 0.0181538 0.0180478 0.0181382 0.0179215 0.0181317 0.0181535 0.0181538 0.0180482 0.0181382 0.0179214 0.0181314 0.0181535 0.018153 0.0180475 0.018137 0.0179203 0.0181298 0.0181523 0.018151 0.0180446 0.0181346 0.0179183 0.0181266 0.0181496 0.0181484 0.0180397 0.0181346 0.0179182 0.0181231 0.0181494 0.0181503 0.0180433 0.0181511 0.0179292 0.0181323 0.0181686 0.0181704 0.0180759 0.0182006 0.0179628 0.0181765 0.0182082 0.0181982 0.0180923 0.0182146 0.0179777 0.0181739 0.0180096 0.0181217 0.0180072 0.0180784 0.0178819 0.0179135 0.0179755 0.0179692 0.0179594 0.0180362 0.017842 0.0178929 0.0179058 0.0179177 0.0179163 0.0179899 0.017801 0.0178705 0.0178817 0.0179087 0.017901 0.0179677 0.0177745 0.0178583 0.0178745 0.0179037 0.0178988 0.0179642 0.0177622 0.0178543 0.0178739 0.017903 0.0179006 0.0179657 0.0177598 0.0178543 0.0178751 0.017904 0.0179025 0.0179673 0.0177606 0.0178554 0.0178765 0.0179052 0.0179037 0.0179684 0.0177618 0.0178564 0.0178773 0.0179061 0.0179045 0.0179689 0.0177626 0.017857 0.0178778 0.0179067 0.0179049 0.0179693 0.0177631 0.0178574 0.0178782 0.0179069 0.0179052 0.0179696 0.0177631 0.0178573 0.0178781 0.0179065 0.017905 0.0179694 0.0177623 0.0178567 0.0178773 0.0179056 0.017904 0.0179687 0.0177611 0.0178554 0.0178757 0.0179041 0.0179022 0.017967 0.0177604 0.0178542 0.0178752 0.0179031 0.0179012 0.017966 0.0177644 0.0178553 0.0178813 0.0179067 0.0179089 0.0179743 0.0177797 0.0178651 0.0179019 0.0179228 0.0179337 0.0179994 0.0178063 0.0178911 0.0179295 0.0179478 0.0179639 0.0180082 0.0178399 0.0179111 0.0179652 0.0179632 0.017926 0.0179299 0.0177947 0.0178004 0.0178141 0.017821 0.017878 0.0179036 0.017757 0.0177684 0.0177694 0.017793 0.0178562 0.0178735 0.0177326 0.0177387 0.0177499 0.0177729 0.0178495 0.0178602 0.0177143 0.0177188 0.0177383 0.0177589 0.0178491 0.0178577 0.0177055 0.0177113 0.017734 0.0177547 0.0178504 0.0178585 0.0177039 0.0177105 0.0177337 0.0177549 0.0178518 0.0178597 0.0177049 0.0177116 0.0177346 0.0177561 0.0178527 0.0178605 0.017706 0.0177127 0.0177355 0.0177571 0.0178532 0.017861 0.0177067 0.0177134 0.017736 0.0177576 0.0178536 0.0178611 0.017707 0.0177136 0.0177361 0.0177578 0.0178534 0.0178612 0.0177068 0.0177134 0.0177356 0.0177572 0.0178529 0.0178609 0.0177059 0.0177127 0.0177347 0.0177562 0.0178521 0.0178602 0.0177047 0.0177119 0.0177334 0.0177551 0.0178513 0.0178594 0.0177046 0.0177124 0.0177342 0.0177561 0.0178525 0.0178599 0.0177088 0.0177169 0.0177417 0.0177634 0.0178609 0.0178673 0.0177223 0.0177301 0.0177602 0.017782 0.0178834 0.017888 0.0177461 0.0177548 0.0177907 0.017807 0.0179168 0.017914 0.0177818 0.0177819 0.0178428 0.0178264 0.0179533 0.0178958 0.0178226 0.017807 0.0177808 0.0178205 0.0179105 0.0178698 0.0177917 0.0177697 0.0177542 0.0177948 0.0178894 0.0178469 0.0177739 0.0177378 0.017732 0.0177671 0.0178796 0.017839 0.0177586 0.0177194 0.0177182 0.0177539 0.0178774 0.0178379 0.0177522 0.0177127 0.0177134 0.0177511 0.0178781 0.0178389 0.0177515 0.0177122 0.0177131 0.017752 0.0178794 0.0178399 0.0177528 0.0177135 0.0177141 0.0177536 0.0178803 0.0178406 0.0177541 0.0177147 0.017715 0.0177545 0.0178807 0.0178408 0.0177549 0.0177153 0.0177154 0.017755 0.0178807 0.0178408 0.017755 0.0177153 0.0177154 0.0177549 0.0178802 0.0178406 0.0177546 0.0177149 0.0177148 0.0177541 0.0178794 0.0178399 0.0177535 0.017714 0.0177136 0.0177528 0.0178782 0.0178389 0.017752 0.0177131 0.0177123 0.0177515 0.0178773 0.0178383 0.0177512 0.0177133 0.0177129 0.0177521 0.0178786 0.01784 0.017754 0.0177182 0.0177195 0.0177583 0.0178861 0.0178501 0.0177678 0.0177319 0.0177378 0.017774 0.017907 0.0178746 0.0177955 0.0177541 0.0177698 0.0177925 0.0179514 0.0179039 0.0178221 0.0177808 0.0178071 0.0178208 0.0180724 0.0179912 0.0178898 0.0179296 0.0178442 0.0179653 0.0180399 0.0179506 0.0179238 0.0179149 0.0178399 0.0179368 0.0179954 0.0179215 0.017909 0.0178782 0.0178238 0.0179134 0.0179765 0.0179118 0.0178923 0.0178615 0.0178141 0.0179082 0.0179744 0.017911 0.0178863 0.0178574 0.0178118 0.0179093 0.0179765 0.0179124 0.0178866 0.017858 0.0178125 0.0179115 0.0179784 0.0179137 0.0178883 0.0178596 0.0178138 0.0179132 0.0179794 0.0179144 0.0178896 0.0178608 0.0178146 0.0179142 0.0179797 0.0179145 0.0178901 0.0178614 0.0178149 0.0179146 0.0179795 0.0179144 0.0178899 0.0178614 0.0178147 0.0179143 0.0179788 0.0179138 0.0178892 0.0178607 0.0178137 0.0179135 0.0179774 0.0179127 0.0178877 0.0178596 0.0178121 0.0179118 0.017975 0.0179111 0.0178854 0.0178581 0.0178102 0.0179094 0.0179718 0.0179097 0.0178831 0.0178566 0.0178097 0.0179056 0.0179689 0.01791 0.0178847 0.0178574 0.0178158 0.0178992 0.017972 0.017917 0.0179028 0.0178649 0.0178391 0.0178949 0.0179964 0.0179409 0.0179545 0.017881 0.01788 0.0179162 0.0180838 0.0179813 0.0179741 0.017895 0.0179004 0.0179786 0.0181222 0.0182298 0.0178293 0.0181259 0.0179505 0.0182836 0.0181662 0.0181065 0.0181183 0.018223 0.0179962 0.0183033 0.0181204 0.0180514 0.018061 0.0181599 0.0179975 0.0182997 0.0181175 0.0180418 0.0180316 0.0181272 0.0179952 0.0182949 0.0181227 0.0180441 0.0180273 0.0181205 0.0179955 0.0182943 0.0181256 0.0180471 0.0180294 0.0181212 0.0179968 0.0182951 0.0181266 0.018049 0.018031 0.0181229 0.0179976 0.018296 0.0181268 0.0180499 0.0180313 0.018124 0.0179979 0.0182966 0.0181265 0.0180501 0.0180312 0.0181244 0.0179978 0.0182969 0.0181258 0.0180498 0.0180303 0.0181242 0.0179972 0.0182969 0.0181246 0.018049 0.018029 0.0181236 0.0179958 0.0182966 0.0181223 0.0180476 0.0180268 0.0181224 0.0179933 0.0182957 0.0181179 0.0180453 0.018023 0.0181205 0.0179895 0.0182931 0.0181097 0.0180422 0.0180172 0.0181182 0.0179854 0.0182854 0.0180978 0.0180393 0.0180116 0.0181162 0.0179875 0.0182624 0.0180926 0.0180389 0.0180218 0.0181183 0.0180181 0.0182156 0.0181515 0.0180481 0.018097 0.0181388 0.0181118 0.0182272 0.0183188 0.0180967 0.018251 0.0181695 0.0181429 0.0183779 0.0181109 0.0182323 0.017989 0.0179767 0.0182429 0.0181307 0.0180552 0.0182888 0.0180292 0.0182516 0.018215 0.0181632 0.0179834 0.0182766 0.0179526 0.0182701 0.0181913 0.0181559 0.0179546 0.0182765 0.0179107 0.0182764 0.0181899 0.0181573 0.0179519 0.0182781 0.0179023 0.0182785 0.0181919 0.0181586 0.0179547 0.0182786 0.0179033 0.0182788 0.0181926 0.0181593 0.0179568 0.0182785 0.0179048 0.0182787 0.0181927 0.0181597 0.0179578 0.0182784 0.0179056 0.0182786 0.0181927 0.0181599 0.0179584 0.0182786 0.017906 0.0182788 0.0181931 0.0181603 0.0179589 0.0182789 0.0179065 0.018279 0.0181936 0.0181605 0.0179594 0.0182789 0.0179068 0.0182791 0.0181938 0.0181603 0.0179592 0.018278 0.0179066 0.0182785 0.018193 0.0181591 0.017958 0.0182752 0.0179052 0.0182768 0.0181899 0.0181566 0.0179546 0.0182701 0.0179022 0.0182731 0.0181845 0.0181532 0.0179497 0.0182643 0.0178994 0.018267 0.01818 0.0181525 0.0179531 0.0182694 0.0179044 0.0182619 0.0181978 0.018171 0.0180042 0.0183079 0.0179402 0.0182948 0.0182877 0.0182287 0.0180886 0.0183547 0.018027 0.0183966 0.0183205 0.0181582 0.0179625 0.0181031 0.0178612 0.0179361 0.0179281 0.0179168 0.0179325 0.0180478 0.0178341 0.0179373 0.0179313 0.0179047 0.0179021 0.0180132 0.0178114 0.0179286 0.017907 0.0178825 0.0178873 0.0179958 0.0177921 0.0179209 0.0178961 0.0178755 0.0178836 0.0179927 0.0177822 0.0179201 0.0178946 0.0178748 0.0178844 0.0179943 0.0177799 0.0179215 0.0178957 0.017876 0.0178857 0.0179957 0.0177806 0.017923 0.0178967 0.0178769 0.0178866 0.0179965 0.0177815 0.0179238 0.0178973 0.0178776 0.0178871 0.0179969 0.0177821 0.0179242 0.0178977 0.0178778 0.0178873 0.0179971 0.0177823 0.0179244 0.0178979 0.0178779 0.0178874 0.0179971 0.0177822 0.0179242 0.0178977 0.0178775 0.017887 0.0179968 0.0177816 0.0179236 0.0178968 0.0178767 0.0178861 0.0179954 0.0177804 0.0179223 0.017895 0.0178753 0.0178848 0.0179927 0.0177795 0.0179205 0.0178935 0.0178746 0.0178849 0.0179894 0.0177825 0.0179198 0.0178976 0.0178764 0.0178924 0.0179906 0.017797 0.0179231 0.017918 0.0178863 0.0179209 0.0180122 0.0178263 0.0179378 0.0179516 0.0179126 0.0179593 0.0180426 0.0178599 0.01797 0.0179784 0.0179196 0.0178893 0.017956 0.0177906 0.0178352 0.0178083 0.0177903 0.0178599 0.0179156 0.0177637 0.0178009 0.0177801 0.0177594 0.0178421 0.0178908 0.0177425 0.0177751 0.0177624 0.0177339 0.0178353 0.0178799 0.0177268 0.017755 0.0177525 0.0177206 0.0178341 0.0178774 0.0177188 0.017748 0.0177489 0.0177166 0.0178347 0.017878 0.0177167 0.0177479 0.0177487 0.0177169 0.0178354 0.017879 0.0177172 0.0177491 0.0177495 0.0177179 0.0178359 0.0178795 0.0177181 0.0177501 0.0177501 0.0177188 0.0178362 0.0178796 0.0177187 0.0177505 0.0177505 0.0177191 0.0178361 0.0178796 0.0177187 0.0177506 0.0177504 0.017719 0.0178359 0.0178794 0.0177184 0.0177503 0.01775 0.0177184 0.0178353 0.0178788 0.0177177 0.0177496 0.017749 0.0177176 0.0178343 0.0178779 0.0177166 0.0177488 0.0177477 0.0177171 0.0178336 0.0178772 0.0177164 0.017749 0.017748 0.017719 0.0178353 0.0178792 0.0177204 0.0177526 0.0177548 0.0177262 0.0178444 0.017889 0.0177337 0.0177625 0.0177751 0.0177412 0.017866 0.0179124 0.0177594 0.0177802 0.0178009 0.0177634 0.0178962 0.0179419 0.0177901 0.0178084 0.017835 0.01779 0.0179263 0.0179078 0.0178303 0.0178429 0.017782 0.0177813 0.0178936 0.0178824 0.0178069 0.0177908 0.0177549 0.0177451 0.0178718 0.0178612 0.0177824 0.0177604 0.0177302 0.0177209 0.0178641 0.0178546 0.0177637 0.0177418 0.017717 0.0177077 0.0178632 0.0178547 0.0177559 0.0177343 0.0177124 0.0177037 0.0178641 0.0178558 0.0177549 0.0177336 0.0177121 0.017704 0.0178649 0.0178565 0.0177559 0.0177348 0.0177129 0.0177052 0.0178653 0.0178567 0.0177569 0.0177359 0.0177135 0.0177059 0.0178653 0.0178566 0.0177575 0.0177363 0.0177137 0.0177062 0.017865 0.0178564 0.0177575 0.0177361 0.0177135 0.0177059 0.0178645 0.0178559 0.0177569 0.0177356 0.0177128 0.0177051 0.0178635 0.0178551 0.0177559 0.0177348 0.0177117 0.0177039 0.0178618 0.017854 0.0177548 0.0177339 0.0177105 0.0177031 0.0178599 0.0178533 0.0177547 0.0177341 0.0177115 0.0177046 0.0178593 0.0178565 0.0177587 0.0177384 0.0177189 0.017713 0.0178654 0.017871 0.0177721 0.0177501 0.0177389 0.017731 0.0178888 0.017902 0.0177917 0.0177695 0.0177685 0.0177556 0.0179279 0.0179405 0.017824 0.0178142 0.0178005 0.0177948 0.0180766 0.0179991 0.0179697 0.0179916 0.01785 0.0179093 0.0180046 0.0179569 0.0179544 0.0179168 0.0178256 0.017873 0.0179614 0.017937 0.0179031 0.0178713 0.0177986 0.0178513 0.0179516 0.0179323 0.0178788 0.0178586 0.0177854 0.0178437 0.0179524 0.0179337 0.017873 0.017856 0.0177821 0.0178426 0.0179547 0.0179356 0.0178743 0.0178572 0.0177826 0.0178438 0.0179561 0.0179365 0.0178764 0.0178591 0.0177838 0.0178454 0.0179566 0.0179368 0.0178777 0.0178603 0.0177845 0.0178464 0.0179566 0.0179366 0.0178781 0.0178607 0.0177845 0.0178466 0.0179562 0.0179363 0.0178778 0.0178604 0.0177841 0.0178462 0.0179553 0.0179355 0.017877 0.0178598 0.017783 0.0178452 0.0179537 0.0179343 0.0178757 0.0178587 0.0177815 0.0178434 0.0179509 0.0179323 0.0178742 0.0178572 0.01778 0.0178405 0.0179469 0.0179299 0.0178739 0.0178561 0.0177811 0.0178368 0.0179429 0.0179292 0.0178793 0.017858 0.0177908 0.0178362 0.0179465 0.0179387 0.0178996 0.0178678 0.0178182 0.0178501 0.0179752 0.0179739 0.0179347 0.0178829 0.0178495 0.0178828 0.0180481 0.0180279 0.0179276 0.0179217 0.0178728 0.0179171 0.018249 0.0182699 0.0184019 0.0182873 0.017994 0.0181947 0.0180499 0.0181163 0.0181899 0.0182102 0.0179605 0.0181911 0.0179704 0.0180925 0.0180476 0.0180687 0.017931 0.0181494 0.0179676 0.018095 0.0180257 0.0180431 0.0179211 0.018133 0.0179768 0.0180997 0.0180351 0.0180481 0.0179213 0.0181306 0.0179832 0.0181032 0.0180442 0.0180545 0.0179236 0.0181319 0.0179865 0.0181052 0.018049 0.0180585 0.0179253 0.0181335 0.0179878 0.018106 0.0180508 0.0180604 0.017926 0.0181344 0.0179878 0.018106 0.0180511 0.0180609 0.017926 0.0181346 0.0179872 0.0181057 0.0180507 0.0180607 0.0179254 0.0181343 0.017986 0.018105 0.0180498 0.01806 0.0179242 0.0181334 0.0179842 0.0181039 0.0180487 0.0180589 0.0179223 0.0181314 0.0179814 0.0181015 0.0180471 0.0180574 0.01792 0.0181275 0.0179773 0.0180974 0.0180451 0.0180558 0.0179191 0.0181203 0.0179746 0.0180914 0.0180441 0.0180559 0.0179283 0.0181082 0.0179865 0.0180865 0.018054 0.0180631 0.0179642 0.0181003 0.0180414 0.0180899 0.0180943 0.0180887 0.0180219 0.0181346 0.018014 0.0181237 0.018127 0.0180993 0.0179942 0.0180604 0.0181498 0.018453 0.0182044 0.0181556 0.018493 0.0182448 0.0181597 0.0185281 0.0182045 0.0184637 0.0184896 0.0183052 0.0181414 0.0185435 0.0181955 0.0184934 0.0184859 0.0183104 0.0181272 0.0185563 0.0181776 0.0185037 0.0184872 0.0183138 0.0181257 0.0185612 0.0181747 0.0185076 0.0184889 0.0183157 0.0181278 0.0185622 0.018177 0.0185086 0.0184893 0.0183163 0.0181292 0.0185623 0.0181787 0.0185089 0.0184894 0.0183165 0.0181297 0.0185623 0.0181793 0.018509 0.0184894 0.0183167 0.0181299 0.0185624 0.0181795 0.0185091 0.0184897 0.0183169 0.0181302 0.0185626 0.0181796 0.0185092 0.0184899 0.0183171 0.0181302 0.0185625 0.0181798 0.0185092 0.0184899 0.0183167 0.0181297 0.0185616 0.0181796 0.0185087 0.0184892 0.0183155 0.0181274 0.0185596 0.0181781 0.0185075 0.0184864 0.0183127 0.0181227 0.0185552 0.0181745 0.0185046 0.01848 0.0183084 0.0181144 0.0185467 0.0181684 0.0184998 0.0184678 0.0183025 0.0181043 0.0185368 0.0181631 0.0184925 0.0184552 0.0182996 0.0181147 0.0185386 0.0181624 0.0184865 0.0184933 0.0183559 0.0182244 0.0185816 0.018212 0.0186493 0.0188107 0.0184474 0.0180333 0.0182317 0.0180446 0.0181382 0.0181123 0.0179842 0.0180068 0.0181566 0.0179943 0.018109 0.0181253 0.0179979 0.0179885 0.0181624 0.0179806 0.018109 0.0181206 0.0179806 0.0179809 0.0181684 0.0179748 0.0181109 0.0181167 0.0179743 0.0179797 0.0181737 0.0179723 0.0181153 0.0181177 0.0179753 0.017981 0.0181774 0.0179732 0.018119 0.0181197 0.0179771 0.0179824 0.0181793 0.0179749 0.018121 0.018121 0.0179782 0.0179831 0.0181798 0.0179761 0.0181217 0.0181216 0.0179785 0.0179833 0.0181798 0.0179764 0.0181218 0.0181218 0.0179787 0.0179833 0.0181798 0.0179765 0.0181218 0.0181218 0.0179786 0.017983 0.0181797 0.0179764 0.0181216 0.0181216 0.0179782 0.0179824 0.0181792 0.017976 0.0181211 0.0181209 0.0179772 0.017981 0.0181773 0.017975 0.0181198 0.018119 0.0179754 0.0179796 0.0181733 0.0179735 0.0181177 0.0181154 0.0179744 0.0179808 0.0181665 0.0179731 0.0181167 0.0181109 0.0179759 0.0179895 0.0181586 0.0179815 0.0181206 0.018109 0.0179801 0.0180113 0.0181544 0.0180013 0.0181253 0.0181091 0.017993 0.0180575 0.0181754 0.0179821 0.0181123 0.0181382 0.0180456 0.0179573 0.0180771 0.0179184 0.0179786 0.0179699 0.0178619 0.017936 0.0180028 0.0179127 0.0179516 0.0179377 0.0178268 0.0179151 0.01798 0.0178874 0.017918 0.017923 0.0177966 0.0179108 0.0179803 0.0178765 0.0178977 0.0179198 0.0177824 0.0179117 0.017983 0.0178739 0.0178935 0.0179205 0.0177798 0.017913 0.0179852 0.0178746 0.0178951 0.0179222 0.0177809 0.0179137 0.0179865 0.017876 0.017897 0.0179235 0.0177822 0.017914 0.0179867 0.0178769 0.0178978 0.0179241 0.0177828 0.0179139 0.0179867 0.0178773 0.017898 0.0179242 0.017783 0.0179137 0.0179865 0.0178772 0.0178978 0.0179241 0.0177827 0.0179132 0.0179861 0.0178769 0.0178974 0.0179236 0.0177821 0.0179122 0.0179853 0.0178763 0.0178968 0.0179228 0.0177812 0.0179109 0.0179838 0.0178754 0.0178957 0.0179214 0.0177805 0.01791 0.0179822 0.0178744 0.0178946 0.01792 0.0177827 0.0179141 0.0179839 0.0178746 0.0178961 0.0179208 0.0177913 0.017931 0.0179971 0.0178814 0.0179071 0.0179285 0.0178091 0.0179604 0.0180306 0.0179068 0.0179314 0.0179372 0.0178321 0.0179848 0.0180696 0.0179176 0.0179282 0.017936 0.0178618 0.0179883 0.0180006 0.0179707 0.0179652 0.0179113 0.0178412 0.0179644 0.0179822 0.0179468 0.0179296 0.0178913 0.0178054 0.0179438 0.0179527 0.017924 0.017902 0.0178653 0.0177781 0.0179381 0.017948 0.0179082 0.0178814 0.0178555 0.0177628 0.0179394 0.0179505 0.0179043 0.0178752 0.0178543 0.0177591 0.0179411 0.0179524 0.0179053 0.0178758 0.0178556 0.0177599 0.0179419 0.0179532 0.0179069 0.0178774 0.0178569 0.0177613 0.017942 0.0179531 0.017908 0.0178782 0.0178575 0.017762 0.0179418 0.0179527 0.0179083 0.0178783 0.0178575 0.017762 0.0179413 0.0179523 0.0179081 0.0178779 0.0178572 0.0177616 0.0179405 0.0179517 0.0179076 0.0178774 0.0178566 0.0177607 0.0179393 0.0179506 0.0179067 0.0178765 0.0178555 0.0177596 0.0179372 0.0179489 0.0179055 0.0178752 0.0178544 0.0177587 0.0179351 0.0179476 0.0179045 0.0178739 0.0178545 0.0177609 0.0179367 0.0179513 0.0179045 0.0178746 0.0178584 0.0177722 0.0179515 0.017973 0.0179073 0.0178818 0.0178707 0.0177973 0.0179875 0.0180255 0.0179164 0.0179058 0.0178932 0.0178379 0.018011 0.018092 0.0179785 0.0179756 0.0179136 0.017883 0.0181626 0.0180725 0.0182592 0.0181632 0.0179839 0.0179708 0.018072 0.018081 0.0181131 0.0180311 0.0179557 0.0179258 0.0180577 0.0180697 0.0180778 0.0180251 0.0179328 0.017911 0.0180586 0.018066 0.0180688 0.0180275 0.0179231 0.0179057 0.0180628 0.0180688 0.0180699 0.0180305 0.0179225 0.0179058 0.018066 0.0180711 0.0180733 0.0180341 0.0179244 0.0179081 0.0180675 0.0180721 0.0180759 0.0180364 0.0179261 0.0179099 0.0180678 0.018072 0.018077 0.0180374 0.0179269 0.0179108 0.0180676 0.0180717 0.0180772 0.0180375 0.0179268 0.0179108 0.0180672 0.0180712 0.018077 0.0180372 0.0179263 0.0179103 0.0180664 0.0180704 0.0180764 0.0180365 0.0179255 0.0179093 0.0180649 0.0180691 0.0180754 0.0180355 0.017924 0.0179077 0.0180624 0.0180666 0.0180738 0.0180339 0.0179225 0.0179058 0.0180588 0.018063 0.0180717 0.0180316 0.0179222 0.0179057 0.0180562 0.018061 0.01807 0.0180297 0.0179269 0.0179138 0.0180622 0.0180708 0.0180698 0.018031 0.0179403 0.0179407 0.0180822 0.0181155 0.0180573 0.018029 0.0179531 0.0179778 0.0181163 0.0181979 0.018091 0.0181304 0.0180216 0.0180238 0.0185292 0.0183572 0.0191099 0.0186837 0.0182204 0.0182983 0.0182405 0.0182786 0.0183936 0.0182734 0.0181477 0.0182092 0.0182702 0.0183115 0.0183762 0.0182289 0.018138 0.0181663 0.0183057 0.0183256 0.0184226 0.018268 0.018143 0.0181668 0.0183206 0.0183322 0.0184443 0.0182872 0.0181485 0.0181735 0.018327 0.0183359 0.018452 0.0182952 0.0181525 0.0181788 0.01833 0.0183374 0.0184549 0.0182987 0.0181548 0.0181817 0.018331 0.0183379 0.0184556 0.0182999 0.0181557 0.0181829 0.0183312 0.0183379 0.0184557 0.0183002 0.0181558 0.0181831 0.018331 0.0183376 0.0184555 0.0182999 0.0181555 0.0181827 0.0183308 0.0183372 0.0184553 0.0182996 0.0181549 0.0181819 0.0183303 0.0183365 0.0184551 0.0182991 0.0181539 0.0181809 0.0183292 0.0183345 0.0184545 0.018298 0.0181519 0.0181797 0.0183253 0.0183302 0.0184521 0.0182954 0.0181486 0.0181791 0.0183154 0.0183219 0.0184451 0.0182902 0.018145 0.018182 0.0182976 0.0183096 0.0184295 0.0182821 0.0181445 0.018195 0.0182669 0.0182958 0.0184 0.018281 0.0181138 0.0181989 0.0180838 0.018302 0.0183254 0.0183218 0.0181406 0.0180489 0.018381 0.0187839 0.0188159 0.019096 0.019008 0.0185921 0.0184237 0.0187083 0.0185234 0.0187697 0.0187848 0.0185331 0.0184501 0.018711 0.0185292 0.0187552 0.0187662 0.0185331 0.0184576 0.0187195 0.0185403 0.0187613 0.0187662 0.0185405 0.0184621 0.0187226 0.0185455 0.0187657 0.0187674 0.0185444 0.0184648 0.0187237 0.0185486 0.0187674 0.0187678 0.0185458 0.0184658 0.0187242 0.0185503 0.0187681 0.0187682 0.0185464 0.0184661 0.0187245 0.0185508 0.0187682 0.0187683 0.0185465 0.0184662 0.0187245 0.0185509 0.0187684 0.0187684 0.0185466 0.0184662 0.0187246 0.0185508 0.0187683 0.0187685 0.0185466 0.0184662 0.0187245 0.0185508 0.0187683 0.0187683 0.0185464 0.0184659 0.0187242 0.0185507 0.0187681 0.0187681 0.0185458 0.0184647 0.0187237 0.0185502 0.0187678 0.0187674 0.0185443 0.0184619 0.0187224 0.0185489 0.0187673 0.0187658 0.0185413 0.0184561 0.0187191 0.0185455 0.0187661 0.0187613 0.0185361 0.0184454 0.0187113 0.01854 0.0187662 0.0187552 0.0185255 0.0184247 0.0187064 0.0185427 0.0187848 0.0187698 0.0185172 0.0183758 0.0187597 0.0186028 0.019008 0.0190961 0.0187814 0.0182304 0.0185752 0.0184575 0.0188106 0.0186493 0.0182092 0.0181677 0.0184808 0.0183595 0.0184931 0.0184866 0.0181585 0.0181555 0.0185033 0.0182986 0.0184551 0.0184924 0.0181604 0.0181624 0.0185178 0.0183013 0.0184677 0.0184998 0.0181678 0.0181682 0.018526 0.0183072 0.01848 0.0185046 0.0181749 0.0181722 0.0185301 0.0183117 0.0184864 0.0185073 0.0181789 0.0181743 0.0185319 0.0183146 0.0184891 0.0185087 0.0181804 0.0181749 0.0185325 0.0183158 0.0184898 0.0185092 0.0181807 0.0181748 0.0185326 0.0183161 0.0184898 0.0185092 0.0181806 0.0181747 0.0185324 0.0183159 0.0184895 0.0185091 0.0181804 0.0181744 0.0185323 0.0183157 0.0184894 0.0185089 0.0181802 0.0181739 0.0185323 0.0183156 0.0184893 0.0185088 0.0181795 0.0181728 0.0185321 0.0183154 0.0184893 0.0185086 0.0181779 0.0181712 0.018531 0.0183148 0.0184888 0.0185076 0.0181757 0.0181724 0.0185262 0.0183131 0.0184871 0.0185036 0.018178 0.0181841 0.0185147 0.018311 0.0184859 0.0184933 0.0181944 0.0182046 0.0184889 0.0183078 0.0184895 0.0184637 0.0182017 0.0181666 0.0182782 0.0182552 0.018493 0.0181556 0.0181986 0.0181189 0.0183475 0.018148 0.0183204 0.0183965 0.0180264 0.0180822 0.018226 0.0182298 0.0182875 0.0182948 0.0179402 0.0180388 0.0181959 0.0181718 0.0181977 0.0182617 0.0179023 0.0180345 0.0181997 0.0181533 0.0181801 0.0182669 0.0178975 0.0180384 0.0182068 0.0181542 0.0181844 0.018273 0.0179009 0.0180413 0.0182117 0.0181579 0.01819 0.0182767 0.0179042 0.0180425 0.0182141 0.0181604 0.0181929 0.0182784 0.0179058 0.0180425 0.0182148 0.0181616 0.0181937 0.018279 0.017906 0.0180421 0.0182146 0.0181618 0.0181936 0.0182788 0.0179057 0.0180417 0.0182142 0.0181615 0.018193 0.0182786 0.0179052 0.0180412 0.018214 0.0181612 0.0181927 0.0182785 0.0179047 0.0180403 0.0182141 0.0181609 0.0181926 0.0182786 0.017904 0.0180387 0.0182139 0.0181606 0.0181925 0.0182786 0.0179025 0.0180366 0.0182129 0.0181599 0.0181918 0.0182784 0.0179014 0.0180393 0.0182117 0.0181581 0.0181899 0.0182763 0.0179089 0.0180628 0.0182175 0.0181559 0.0181914 0.01827 0.0179486 0.0181201 0.0182366 0.0181646 0.018215 0.0182515 0.0180229 0.0181269 0.0181144 0.0181421 0.0182428 0.0179766 0.0179907 0.0181472 0.0181903 0.0181012 0.0180095 0.0181741 0.0179758 0.0181443 0.0181404 0.0181976 0.0182081 0.0181766 0.0179605 0.0181133 0.018093 0.018176 0.0181686 0.0181324 0.0179255 0.0181075 0.0180841 0.0181567 0.0181494 0.0181233 0.0179146 0.0181114 0.0180863 0.0181548 0.0181495 0.0181268 0.017915 0.0181142 0.0180886 0.0181576 0.0181522 0.01813 0.0179171 0.018115 0.0180895 0.0181597 0.0181536 0.0181316 0.0179181 0.0181148 0.0180893 0.0181605 0.0181535 0.0181318 0.0179183 0.0181142 0.0180886 0.0181604 0.018153 0.0181315 0.0179178 0.0181137 0.0180881 0.01816 0.0181524 0.0181311 0.0179173 0.018113 0.0180875 0.0181596 0.018152 0.0181308 0.0179166 0.018112 0.0180868 0.0181589 0.0181515 0.0181306 0.0179155 0.0181098 0.018085 0.0181577 0.0181506 0.0181306 0.0179134 0.0181062 0.018082 0.0181558 0.0181482 0.0181311 0.0179111 0.0181039 0.0180805 0.0181529 0.0181441 0.0181344 0.0179133 0.0181161 0.0180989 0.0181517 0.018142 0.0181478 0.017941 0.0181689 0.0181837 0.0181764 0.018176 0.0181827 0.0180448 0.0182164 0.0182828 0.0182755 0.0183015 0.018112 0.0181099 0.0183265 0.0182271 0.0183589 0.0180003 0.0181307 0.0181187 0.0183309 0.0183364 0.0183721 0.0183229 0.0182149 0.0181452 0.0183442 0.018338 0.0183954 0.0183747 0.0182041 0.018152 0.0183498 0.0183405 0.0183946 0.0183816 0.0181967 0.0181564 0.0183548 0.0183443 0.0183955 0.0183876 0.0181987 0.0181608 0.0183574 0.0183458 0.0183974 0.0183905 0.0182014 0.0181636 0.0183582 0.0183456 0.0183985 0.0183911 0.0182027 0.0181651 0.0183582 0.0183451 0.0183987 0.0183906 0.0182029 0.0181653 0.0183578 0.0183445 0.0183985 0.0183902 0.0182026 0.018165 0.0183576 0.0183443 0.0183983 0.0183899 0.0182022 0.0181646 0.0183572 0.0183439 0.018398 0.0183897 0.0182017 0.0181641 0.0183563 0.018343 0.0183974 0.0183892 0.0182007 0.018163 0.0183541 0.0183406 0.0183958 0.0183876 0.0181989 0.0181607 0.0183496 0.018335 0.0183922 0.0183839 0.0181959 0.0181569 0.0183422 0.0183255 0.0183852 0.018376 0.0181921 0.0181525 0.0183352 0.0183163 0.0183722 0.0183616 0.0181944 0.0181572 0.0183515 0.0183523 0.0183578 0.0183539 0.0182507 0.0182156 0.0183838 0.0186298 0.0185026 0.0185311 0.0184928 0.0183976 0.0187308 0.0184236 0.0193837 0.0184751 0.0183768 0.0185358 0.0186086 0.0186391 0.0186508 0.0185184 0.0184428 0.0184366 0.0186938 0.0186629 0.0187472 0.0186207 0.0184741 0.0184415 0.0187114 0.0186658 0.0187758 0.0186352 0.0184821 0.0184566 0.0187153 0.0186679 0.0187819 0.018639 0.0184861 0.0184649 0.0187167 0.0186687 0.0187829 0.0186408 0.0184886 0.0184687 0.0187172 0.0186687 0.0187828 0.0186411 0.0184897 0.0184703 0.0187174 0.0186685 0.0187826 0.018641 0.01849 0.0184708 0.0187174 0.0186684 0.0187825 0.0186409 0.0184899 0.0184708 0.0187176 0.0186684 0.0187826 0.018641 0.0184898 0.0184708 0.0187176 0.0186685 0.0187827 0.018641 0.0184895 0.0184705 0.0187176 0.0186683 0.0187827 0.0186409 0.018489 0.0184702 0.018717 0.0186671 0.0187822 0.01864 0.0184873 0.0184693 0.0187148 0.0186637 0.0187806 0.0186375 0.0184831 0.0184669 0.0187092 0.0186558 0.0187766 0.018631 0.0184743 0.0184619 0.0186961 0.0186418 0.0187673 0.0186174 0.0184566 0.0184553 0.0186609 0.0186339 0.0187471 0.0186016 0.0184326 0.0184679 0.018524 0.0189464 0.0187367 0.0187261 0.0188485 0.0184883 
