# vtk DataFile Version 5.1
vtk output
ASCII

DATASET UNSTRUCTURED_GRID
POINTS 931 float
0 0 1.5
0.166667 0 1.5
0.333333 0 1.5
0.5 0 1.5
0.666667 0 1.5
0.833333 0 1.5
1 0 1.5
1.16667 0 1.5
1.33333 0 1.5
1.5 0 1.5
1.66667 0 1.5
1.83333 0 1.5
2 0 1.5
2.16667 0 1.5
2.33333 0 1.5
2.5 0 1.5
2.66667 0 1.5
2.83333 0 1.5
3 0 1.5
0 0.166667 1.5
0.166667 0.166667 1.5
0.333333 0.166667 1.5
0.5 0.166667 1.5
0.666667 0.166667 1.5
0.833333 0.166667 1.5
1 0.166667 1.5
1.16667 0.166667 1.5
1.33333 0.166667 1.5
1.5 0.166667 1.5
1.66667 0.166667 1.5
1.83333 0.166667 1.5
2 0.166667 1.5
2.16667 0.166667 1.5
2.33333 0.166667 1.5
2.5 0.166667 1.5
2.66667 0.166667 1.5
2.83333 0.166667 1.5
3 0.166667 1.5
0 0.333333 1.5
0.166667 0.333333 1.5
0.333333 0.333333 1.5
0.5 0.333333 1.5
0.666667 0.333333 1.5
0.833333 0.333333 1.5
1 0.333333 1.5
1.16667 0.333333 1.5
1.33333 0.333333 1.5
1.5 0.333333 1.5
1.66667 0.333333 1.5
1.83333 0.333333 1.5
2 0.333333 1.5
2.16667 0.333333 1.5
2.33333 0.333333 1.5
2.5 0.333333 1.5
2.66667 0.333333 1.5
2.83333 0.333333 1.5
3 0.333333 1.5
0 0.5 1.5
0.166667 0.5 1.5
0.333333 0.5 1.5
0.5 0.5 1.5
0.666667 0.5 1.5
0.833333 0.5 1.5
1 0.5 1.5
1.16667 0.5 1.5
1.33333 0.5 1.5
1.5 0.5 1.5
1.66667 0.5 1.5
1.83333 0.5 1.5
2 0.5 1.5
2.16667 0.5 1.5
2.33333 0.5 1.5
2.5 0.5 1.5
2.66667 0.5 1.5
2.83333 0.5 1.5
3 0.5 1.5
0 0.666667 1.5
0.166667 0.666667 1.5
0.333333 0.666667 1.5
0.5 0.666667 1.5
0.666667 0.666667 1.5
0.833333 0.666667 1.5
1 0.666667 1.5
1.16667 0.666667 1.5
1.33333 0.666667 1.5
1.5 0.666667 1.5
1.66667 0.666667 1.5
1.83333 0.666667 1.5
2 0.666667 1.5
2.16667 0.666667 1.5
2.33333 0.666667 1.5
2.5 0.666667 1.5
2.66667 0.666667 1.5
2.83333 0.666667 1.5
3 0.666667 1.5
0 0.833333 1.5
0.166667 0.833333 1.5
0.333333 0.833333 1.5
0.5 0.833333 1.5
0.666667 0.833333 1.5
0.833333 0.833333 1.5
1 0.833333 1.5
1.16667 0.833333 1.5
1.33333 0.833333 1.5
1.5 0.833333 1.5
1.66667 0.833333 1.5
1.83333 0.833333 1.5
2 0.833333 1.5
2.16667 0.833333 1.5
2.33333 0.833333 1.5
2.5 0.833333 1.5
2.66667 0.833333 1.5
2.83333 0.833333 1.5
3 0.833333 1.5
0 1 1.5
0.166667 1 1.5
0.333333 1 1.5
0.5 1 1.5
0.666667 1 1.5
0.833333 1 1.5
1 1 1.5
1.16667 1 1.5
1.33333 1 1.5
1.5 1 1.5
1.66667 1 1.5
1.83333 1 1.5
2 1 1.5
2.16667 1 1.5
2.33333 1 1.5
2.5 1 1.5
2.66667 1 1.5
2.83333 1 1.5
3 1 1.5
0 0 1.66667
0.166667 0 1.66667
0.333333 0 1.66667
0.5 0 1.66667
0.666667 0 1.66667
0.833333 0 1.66667
1 0 1.66667
1.16667 0 1.66667
1.33333 0 1.66667
1.5 0 1.66667
1.66667 0 1.66667
1.83333 0 1.66667
2 0 1.66667
2.16667 0 1.66667
2.33333 0 1.66667
2.5 0 1.66667
2.66667 0 1.66667
2.83333 0 1.66667
3 0 1.66667
0 0.166667 1.66667
0.166667 0.166667 1.66667
0.333333 0.166667 1.66667
0.5 0.166667 1.66667
0.666667 0.166667 1.66667
0.833333 0.166667 1.66667
1 0.166667 1.66667
1.16667 0.166667 1.66667
1.33333 0.166667 1.66667
1.5 0.166667 1.66667
1.66667 0.166667 1.66667
1.83333 0.166667 1.66667
2 0.166667 1.66667
2.16667 0.166667 1.66667
2.33333 0.166667 1.66667
2.5 0.166667 1.66667
2.66667 0.166667 1.66667
2.83333 0.166667 1.66667
3 0.166667 1.66667
0 0.333333 1.66667
0.166667 0.333333 1.66667
0.333333 0.333333 1.66667
0.5 0.333333 1.66667
0.666667 0.333333 1.66667
0.833333 0.333333 1.66667
1 0.333333 1.66667
1.16667 0.333333 1.66667
1.33333 0.333333 1.66667
1.5 0.333333 1.66667
1.66667 0.333333 1.66667
1.83333 0.333333 1.66667
2 0.333333 1.66667
2.16667 0.333333 1.66667
2.33333 0.333333 1.66667
2.5 0.333333 1.66667
2.66667 0.333333 1.66667
2.83333 0.333333 1.66667
3 0.333333 1.66667
0 0.5 1.66667
0.166667 0.5 1.66667
0.333333 0.5 1.66667
0.5 0.5 1.66667
0.666667 0.5 1.66667
0.833333 0.5 1.66667
1 0.5 1.66667
1.16667 0.5 1.66667
1.33333 0.5 1.66667
1.5 0.5 1.66667
1.66667 0.5 1.66667
1.83333 0.5 1.66667
2 0.5 1.66667
2.16667 0.5 1.66667
2.33333 0.5 1.66667
2.5 0.5 1.66667
2.66667 0.5 1.66667
2.83333 0.5 1.66667
3 0.5 1.66667
0 0.666667 1.66667
0.166667 0.666667 1.66667
0.333333 0.666667 1.66667
0.5 0.666667 1.66667
0.666667 0.666667 1.66667
0.833333 0.666667 1.66667
1 0.666667 1.66667
1.16667 0.666667 1.66667
1.33333 0.666667 1.66667
1.5 0.666667 1.66667
1.66667 0.666667 1.66667
1.83333 0.666667 1.66667
2 0.666667 1.66667
2.16667 0.666667 1.66667
2.33333 0.666667 1.66667
2.5 0.666667 1.66667
2.66667 0.666667 1.66667
2.83333 0.666667 1.66667
3 0.666667 1.66667
0 0.833333 1.66667
0.166667 0.833333 1.66667
0.333333 0.833333 1.66667
0.5 0.833333 1.66667
0.666667 0.833333 1.66667
0.833333 0.833333 1.66667
1 0.833333 1.66667
1.16667 0.833333 1.66667
1.33333 0.833333 1.66667
1.5 0.833333 1.66667
1.66667 0.833333 1.66667
1.83333 0.833333 1.66667
2 0.833333 1.66667
2.16667 0.833333 1.66667
2.33333 0.833333 1.66667
2.5 0.833333 1.66667
2.66667 0.833333 1.66667
2.83333 0.833333 1.66667
3 0.833333 1.66667
0 1 1.66667
0.166667 1 1.66667
0.333333 1 1.66667
0.5 1 1.66667
0.666667 1 1.66667
0.833333 1 1.66667
1 1 1.66667
1.16667 1 1.66667
1.33333 1 1.66667
1.5 1 1.66667
1.66667 1 1.66667
1.83333 1 1.66667
2 1 1.66667
2.16667 1 1.66667
2.33333 1 1.66667
2.5 1 1.66667
2.66667 1 1.66667
2.83333 1 1.66667
3 1 1.66667
0 0 1.83333
0.166667 0 1.83333
0.333333 0 1.83333
0.5 0 1.83333
0.666667 0 1.83333
0.833333 0 1.83333
1 0 1.83333
1.16667 0 1.83333
1.33333 0 1.83333
1.5 0 1.83333
1.66667 0 1.83333
1.83333 0 1.83333
2 0 1.83333
2.16667 0 1.83333
2.33333 0 1.83333
2.5 0 1.83333
2.66667 0 1.83333
2.83333 0 1.83333
3 0 1.83333
0 0.166667 1.83333
0.166667 0.166667 1.83333
0.333333 0.166667 1.83333
0.5 0.166667 1.83333
0.666667 0.166667 1.83333
0.833333 0.166667 1.83333
1 0.166667 1.83333
1.16667 0.166667 1.83333
1.33333 0.166667 1.83333
1.5 0.166667 1.83333
1.66667 0.166667 1.83333
1.83333 0.166667 1.83333
2 0.166667 1.83333
2.16667 0.166667 1.83333
2.33333 0.166667 1.83333
2.5 0.166667 1.83333
2.66667 0.166667 1.83333
2.83333 0.166667 1.83333
3 0.166667 1.83333
0 0.333333 1.83333
0.166667 0.333333 1.83333
0.333333 0.333333 1.83333
0.5 0.333333 1.83333
0.666667 0.333333 1.83333
0.833333 0.333333 1.83333
1 0.333333 1.83333
1.16667 0.333333 1.83333
1.33333 0.333333 1.83333
1.5 0.333333 1.83333
1.66667 0.333333 1.83333
1.83333 0.333333 1.83333
2 0.333333 1.83333
2.16667 0.333333 1.83333
2.33333 0.333333 1.83333
2.5 0.333333 1.83333
2.66667 0.333333 1.83333
2.83333 0.333333 1.83333
3 0.333333 1.83333
0 0.5 1.83333
0.166667 0.5 1.83333
0.333333 0.5 1.83333
0.5 0.5 1.83333
0.666667 0.5 1.83333
0.833333 0.5 1.83333
1 0.5 1.83333
1.16667 0.5 1.83333
1.33333 0.5 1.83333
1.5 0.5 1.83333
1.66667 0.5 1.83333
1.83333 0.5 1.83333
2 0.5 1.83333
2.16667 0.5 1.83333
2.33333 0.5 1.83333
2.5 0.5 1.83333
2.66667 0.5 1.83333
2.83333 0.5 1.83333
3 0.5 1.83333
0 0.666667 1.83333
0.166667 0.666667 1.83333
0.333333 0.666667 1.83333
0.5 0.666667 1.83333
0.666667 0.666667 1.83333
0.833333 0.666667 1.83333
1 0.666667 1.83333
1.16667 0.666667 1.83333
1.33333 0.666667 1.83333
1.5 0.666667 1.83333
1.66667 0.666667 1.83333
1.83333 0.666667 1.83333
2 0.666667 1.83333
2.16667 0.666667 1.83333
2.33333 0.666667 1.83333
2.5 0.666667 1.83333
2.66667 0.666667 1.83333
2.83333 0.666667 1.83333
3 0.666667 1.83333
0 0.833333 1.83333
0.166667 0.833333 1.83333
0.333333 0.833333 1.83333
0.5 0.833333 1.83333
0.666667 0.833333 1.83333
0.833333 0.833333 1.83333
1 0.833333 1.83333
1.16667 0.833333 1.83333
1.33333 0.833333 1.83333
1.5 0.833333 1.83333
1.66667 0.833333 1.83333
1.83333 0.833333 1.83333
2 0.833333 1.83333
2.16667 0.833333 1.83333
2.33333 0.833333 1.83333
2.5 0.833333 1.83333
2.66667 0.833333 1.83333
2.83333 0.833333 1.83333
3 0.833333 1.83333
0 1 1.83333
0.166667 1 1.83333
0.333333 1 1.83333
0.5 1 1.83333
0.666667 1 1.83333
0.833333 1 1.83333
1 1 1.83333
1.16667 1 1.83333
1.33333 1 1.83333
1.5 1 1.83333
1.66667 1 1.83333
1.83333 1 1.83333
2 1 1.83333
2.16667 1 1.83333
2.33333 1 1.83333
2.5 1 1.83333
2.66667 1 1.83333
2.83333 1 1.83333
3 1 1.83333
0 0 2
0.166667 0 2
0.333333 0 2
0.5 0 2
0.666667 0 2
0.833333 0 2
1 0 2
1.16667 0 2
1.33333 0 2
1.5 0 2
1.66667 0 2
1.83333 0 2
2 0 2
2.16667 0 2
2.33333 0 2
2.5 0 2
2.66667 0 2
2.83333 0 2
3 0 2
0 0.166667 2
0.166667 0.166667 2
0.333333 0.166667 2
0.5 0.166667 2
0.666667 0.166667 2
0.833333 0.166667 2
1 0.166667 2
1.16667 0.166667 2
1.33333 0.166667 2
1.5 0.166667 2
1.66667 0.166667 2
1.83333 0.166667 2
2 0.166667 2
2.16667 0.166667 2
2.33333 0.166667 2
2.5 0.166667 2
2.66667 0.166667 2
2.83333 0.166667 2
3 0.166667 2
0 0.333333 2
0.166667 0.333333 2
0.333333 0.333333 2
0.5 0.333333 2
0.666667 0.333333 2
0.833333 0.333333 2
1 0.333333 2
1.16667 0.333333 2
1.33333 0.333333 2
1.5 0.333333 2
1.66667 0.333333 2
1.83333 0.333333 2
2 0.333333 2
2.16667 0.333333 2
2.33333 0.333333 2
2.5 0.333333 2
2.66667 0.333333 2
2.83333 0.333333 2
3 0.333333 2
0 0.5 2
0.166667 0.5 2
0.333333 0.5 2
0.5 0.5 2
0.666667 0.5 2
0.833333 0.5 2
1 0.5 2
1.16667 0.5 2
1.33333 0.5 2
1.5 0.5 2
1.66667 0.5 2
1.83333 0.5 2
2 0.5 2
2.16667 0.5 2
2.33333 0.5 2
2.5 0.5 2
2.66667 0.5 2
2.83333 0.5 2
3 0.5 2
0 0.666667 2
0.166667 0.666667 2
0.333333 0.666667 2
0.5 0.666667 2
0.666667 0.666667 2
0.833333 0.666667 2
1 0.666667 2
1.16667 0.666667 2
1.33333 0.666667 2
1.5 0.666667 2
1.66667 0.666667 2
1.83333 0.666667 2
2 0.666667 2
2.16667 0.666667 2
2.33333 0.666667 2
2.5 0.666667 2
2.66667 0.666667 2
2.83333 0.666667 2
3 0.666667 2
0 0.833333 2
0.166667 0.833333 2
0.333333 0.833333 2
0.5 0.833333 2
0.666667 0.833333 2
0.833333 0.833333 2
1 0.833333 2
1.16667 0.833333 2
1.33333 0.833333 2
1.5 0.833333 2
1.66667 0.833333 2
1.83333 0.833333 2
2 0.833333 2
2.16667 0.833333 2
2.33333 0.833333 2
2.5 0.833333 2
2.66667 0.833333 2
2.83333 0.833333 2
3 0.833333 2
0 1 2
0.166667 1 2
0.333333 1 2
0.5 1 2
0.666667 1 2
0.833333 1 2
1 1 2
1.16667 1 2
1.33333 1 2
1.5 1 2
1.66667 1 2
1.83333 1 2
2 1 2
2.16667 1 2
2.33333 1 2
2.5 1 2
2.66667 1 2
2.83333 1 2
3 1 2
0 0 2.16667
0.166667 0 2.16667
0.333333 0 2.16667
0.5 0 2.16667
0.666667 0 2.16667
0.833333 0 2.16667
1 0 2.16667
1.16667 0 2.16667
1.33333 0 2.16667
1.5 0 2.16667
1.66667 0 2.16667
1.83333 0 2.16667
2 0 2.16667
2.16667 0 2.16667
2.33333 0 2.16667
2.5 0 2.16667
2.66667 0 2.16667
2.83333 0 2.16667
3 0 2.16667
0 0.166667 2.16667
0.166667 0.166667 2.16667
0.333333 0.166667 2.16667
0.5 0.166667 2.16667
0.666667 0.166667 2.16667
0.833333 0.166667 2.16667
1 0.166667 2.16667
1.16667 0.166667 2.16667
1.33333 0.166667 2.16667
1.5 0.166667 2.16667
1.66667 0.166667 2.16667
1.83333 0.166667 2.16667
2 0.166667 2.16667
2.16667 0.166667 2.16667
2.33333 0.166667 2.16667
2.5 0.166667 2.16667
2.66667 0.166667 2.16667
2.83333 0.166667 2.16667
3 0.166667 2.16667
0 0.333333 2.16667
0.166667 0.333333 2.16667
0.333333 0.333333 2.16667
0.5 0.333333 2.16667
0.666667 0.333333 2.16667
0.833333 0.333333 2.16667
1 0.333333 2.16667
1.16667 0.333333 2.16667
1.33333 0.333333 2.16667
1.5 0.333333 2.16667
1.66667 0.333333 2.16667
1.83333 0.333333 2.16667
2 0.333333 2.16667
2.16667 0.333333 2.16667
2.33333 0.333333 2.16667
2.5 0.333333 2.16667
2.66667 0.333333 2.16667
2.83333 0.333333 2.16667
3 0.333333 2.16667
0 0.5 2.16667
0.166667 0.5 2.16667
0.333333 0.5 2.16667
0.5 0.5 2.16667
0.666667 0.5 2.16667
0.833333 0.5 2.16667
1 0.5 2.16667
1.16667 0.5 2.16667
1.33333 0.5 2.16667
1.5 0.5 2.16667
1.66667 0.5 2.16667
1.83333 0.5 2.16667
2 0.5 2.16667
2.16667 0.5 2.16667
2.33333 0.5 2.16667
2.5 0.5 2.16667
2.66667 0.5 2.16667
2.83333 0.5 2.16667
3 0.5 2.16667
0 0.666667 2.16667
0.166667 0.666667 2.16667
0.333333 0.666667 2.16667
0.5 0.666667 2.16667
0.666667 0.666667 2.16667
0.833333 0.666667 2.16667
1 0.666667 2.16667
1.16667 0.666667 2.16667
1.33333 0.666667 2.16667
1.5 0.666667 2.16667
1.66667 0.666667 2.16667
1.83333 0.666667 2.16667
2 0.666667 2.16667
2.16667 0.666667 2.16667
2.33333 0.666667 2.16667
2.5 0.666667 2.16667
2.66667 0.666667 2.16667
2.83333 0.666667 2.16667
3 0.666667 2.16667
0 0.833333 2.16667
0.166667 0.833333 2.16667
0.333333 0.833333 2.16667
0.5 0.833333 2.16667
0.666667 0.833333 2.16667
0.833333 0.833333 2.16667
1 0.833333 2.16667
1.16667 0.833333 2.16667
1.33333 0.833333 2.16667
1.5 0.833333 2.16667
1.66667 0.833333 2.16667
1.83333 0.833333 2.16667
2 0.833333 2.16667
2.16667 0.833333 2.16667
2.33333 0.833333 2.16667
2.5 0.833333 2.16667
2.66667 0.833333 2.16667
2.83333 0.833333 2.16667
3 0.833333 2.16667
0 1 2.16667
0.166667 1 2.16667
0.333333 1 2.16667
0.5 1 2.16667
0.666667 1 2.16667
0.833333 1 2.16667
1 1 2.16667
1.16667 1 2.16667
1.33333 1 2.16667
1.5 1 2.16667
1.66667 1 2.16667
1.83333 1 2.16667
2 1 2.16667
2.16667 1 2.16667
2.33333 1 2.16667
2.5 1 2.16667
2.66667 1 2.16667
2.83333 1 2.16667
3 1 2.16667
0 0 2.33333
0.166667 0 2.33333
0.333333 0 2.33333
0.5 0 2.33333
0.666667 0 2.33333
0.833333 0 2.33333
1 0 2.33333
1.16667 0 2.33333
1.33333 0 2.33333
1.5 0 2.33333
1.66667 0 2.33333
1.83333 0 2.33333
2 0 2.33333
2.16667 0 2.33333
2.33333 0 2.33333
2.5 0 2.33333
2.66667 0 2.33333
2.83333 0 2.33333
3 0 2.33333
0 0.166667 2.33333
0.166667 0.166667 2.33333
0.333333 0.166667 2.33333
0.5 0.166667 2.33333
0.666667 0.166667 2.33333
0.833333 0.166667 2.33333
1 0.166667 2.33333
1.16667 0.166667 2.33333
1.33333 0.166667 2.33333
1.5 0.166667 2.33333
1.66667 0.166667 2.33333
1.83333 0.166667 2.33333
2 0.166667 2.33333
2.16667 0.166667 2.33333
2.33333 0.166667 2.33333
2.5 0.166667 2.33333
2.66667 0.166667 2.33333
2.83333 0.166667 2.33333
3 0.166667 2.33333
0 0.333333 2.33333
0.166667 0.333333 2.33333
0.333333 0.333333 2.33333
0.5 0.333333 2.33333
0.666667 0.333333 2.33333
0.833333 0.333333 2.33333
1 0.333333 2.33333
1.16667 0.333333 2.33333
1.33333 0.333333 2.33333
1.5 0.333333 2.33333
1.66667 0.333333 2.33333
1.83333 0.333333 2.33333
2 0.333333 2.33333
2.16667 0.333333 2.33333
2.33333 0.333333 2.33333
2.5 0.333333 2.33333
2.66667 0.333333 2.33333
2.83333 0.333333 2.33333
3 0.333333 2.33333
0 0.5 2.33333
0.166667 0.5 2.33333
0.333333 0.5 2.33333
0.5 0.5 2.33333
0.666667 0.5 2.33333
0.833333 0.5 2.33333
1 0.5 2.33333
1.16667 0.5 2.33333
1.33333 0.5 2.33333
1.5 0.5 2.33333
1.66667 0.5 2.33333
1.83333 0.5 2.33333
2 0.5 2.33333
2.16667 0.5 2.33333
2.33333 0.5 2.33333
2.5 0.5 2.33333
2.66667 0.5 2.33333
2.83333 0.5 2.33333
3 0.5 2.33333
0 0.666667 2.33333
0.166667 0.666667 2.33333
0.333333 0.666667 2.33333
0.5 0.666667 2.33333
0.666667 0.666667 2.33333
0.833333 0.666667 2.33333
1 0.666667 2.33333
1.16667 0.666667 2.33333
1.33333 0.666667 2.33333
1.5 0.666667 2.33333
1.66667 0.666667 2.33333
1.83333 0.666667 2.33333
2 0.666667 2.33333
2.16667 0.666667 2.33333
2.33333 0.666667 2.33333
2.5 0.666667 2.33333
2.66667 0.666667 2.33333
2.83333 0.666667 2.33333
3 0.666667 2.33333
0 0.833333 2.33333
0.166667 0.833333 2.33333
0.333333 0.833333 2.33333
0.5 0.833333 2.33333
0.666667 0.833333 2.33333
0.833333 0.833333 2.33333
1 0.833333 2.33333
1.16667 0.833333 2.33333
1.33333 0.833333 2.33333
1.5 0.833333 2.33333
1.66667 0.833333 2.33333
1.83333 0.833333 2.33333
2 0.833333 2.33333
2.16667 0.833333 2.33333
2.33333 0.833333 2.33333
2.5 0.833333 2.33333
2.66667 0.833333 2.33333
2.83333 0.833333 2.33333
3 0.833333 2.33333
0 1 2.33333
0.166667 1 2.33333
0.333333 1 2.33333
0.5 1 2.33333
0.666667 1 2.33333
0.833333 1 2.33333
1 1 2.33333
1.16667 1 2.33333
1.33333 1 2.33333
1.5 1 2.33333
1.66667 1 2.33333
1.83333 1 2.33333
2 1 2.33333
2.16667 1 2.33333
2.33333 1 2.33333
2.5 1 2.33333
2.66667 1 2.33333
2.83333 1 2.33333
3 1 2.33333
0 0 2.5
0.166667 0 2.5
0.333333 0 2.5
0.5 0 2.5
0.666667 0 2.5
0.833333 0 2.5
1 0 2.5
1.16667 0 2.5
1.33333 0 2.5
1.5 0 2.5
1.66667 0 2.5
1.83333 0 2.5
2 0 2.5
2.16667 0 2.5
2.33333 0 2.5
2.5 0 2.5
2.66667 0 2.5
2.83333 0 2.5
3 0 2.5
0 0.166667 2.5
0.166667 0.166667 2.5
0.333333 0.166667 2.5
0.5 0.166667 2.5
0.666667 0.166667 2.5
0.833333 0.166667 2.5
1 0.166667 2.5
1.16667 0.166667 2.5
1.33333 0.166667 2.5
1.5 0.166667 2.5
1.66667 0.166667 2.5
1.83333 0.166667 2.5
2 0.166667 2.5
2.16667 0.166667 2.5
2.33333 0.166667 2.5
2.5 0.166667 2.5
2.66667 0.166667 2.5
2.83333 0.166667 2.5
3 0.166667 2.5
0 0.333333 2.5
0.166667 0.333333 2.5
0.333333 0.333333 2.5
0.5 0.333333 2.5
0.666667 0.333333 2.5
0.833333 0.333333 2.5
1 0.333333 2.5
1.16667 0.333333 2.5
1.33333 0.333333 2.5
1.5 0.333333 2.5
1.66667 0.333333 2.5
1.83333 0.333333 2.5
2 0.333333 2.5
2.16667 0.333333 2.5
2.33333 0.333333 2.5
2.5 0.333333 2.5
2.66667 0.333333 2.5
2.83333 0.333333 2.5
3 0.333333 2.5
0 0.5 2.5
0.166667 0.5 2.5
0.333333 0.5 2.5
0.5 0.5 2.5
0.666667 0.5 2.5
0.833333 0.5 2.5
1 0.5 2.5
1.16667 0.5 2.5
1.33333 0.5 2.5
1.5 0.5 2.5
1.66667 0.5 2.5
1.83333 0.5 2.5
2 0.5 2.5
2.16667 0.5 2.5
2.33333 0.5 2.5
2.5 0.5 2.5
2.66667 0.5 2.5
2.83333 0.5 2.5
3 0.5 2.5
0 0.666667 2.5
0.166667 0.666667 2.5
0.333333 0.666667 2.5
0.5 0.666667 2.5
0.666667 0.666667 2.5
0.833333 0.666667 2.5
1 0.666667 2.5
1.16667 0.666667 2.5
1.33333 0.666667 2.5
1.5 0.666667 2.5
1.66667 0.666667 2.5
1.83333 0.666667 2.5
2 0.666667 2.5
2.16667 0.666667 2.5
2.33333 0.666667 2.5
2.5 0.666667 2.5
2.66667 0.666667 2.5
2.83333 0.666667 2.5
3 0.666667 2.5
0 0.833333 2.5
0.166667 0.833333 2.5
0.333333 0.833333 2.5
0.5 0.833333 2.5
0.666667 0.833333 2.5
0.833333 0.833333 2.5
1 0.833333 2.5
1.16667 0.833333 2.5
1.33333 0.833333 2.5
1.5 0.833333 2.5
1.66667 0.833333 2.5
1.83333 0.833333 2.5
2 0.833333 2.5
2.16667 0.833333 2.5
2.33333 0.833333 2.5
2.5 0.833333 2.5
2.66667 0.833333 2.5
2.83333 0.833333 2.5
3 0.833333 2.5
0 1 2.5
0.166667 1 2.5
0.333333 1 2.5
0.5 1 2.5
0.666667 1 2.5
0.833333 1 2.5
1 1 2.5
1.16667 1 2.5
1.33333 1 2.5
1.5 1 2.5
1.66667 1 2.5
1.83333 1 2.5
2 1 2.5
2.16667 1 2.5
2.33333 1 2.5
2.5 1 2.5
2.66667 1 2.5
2.83333 1 2.5
3 1 2.5

CELLS 3889 15552
OFFSETS vtktypeint64
0 4 8 12 16 20 24 28 32 36 40 44 48 52 56 60 64 68 72 76 80 84 88 92 96 100 104 108 112 116 120 124 128 132 136 140 144 148 152 156 160 164 168 172 176 180 184 188 192 196 200 204 208 212 216 220 224 228 232 236 240 244 248 252 256 260 264 268 272 276 280 284 288 292 296 300 304 308 312 316 320 324 328 332 336 340 344 348 352 356 360 364 368 372 376 380 384 388 392 396 400 404 408 412 416 420 424 428 432 436 440 444 448 452 456 460 464 468 472 476 480 484 488 492 496 500 504 508 512 516 520 524 528 532 536 540 544 548 552 556 560 564 568 572 576 580 584 588 592 596 600 604 608 612 616 620 624 628 632 636 640 644 648 652 656 660 664 668 672 676 680 684 688 692 696 700 704 708 712 716 720 724 728 732 736 740 744 748 752 756 760 764 768 772 776 780 784 788 792 796 800 804 808 812 816 820 824 828 832 836 840 844 848 852 856 860 864 868 872 876 880 884 888 892 896 900 904 908 912 916 920 924 928 932 936 940 944 948 952 956 960 964 968 972 976 980 984 988 992 996 1000 1004 1008 1012 1016 1020 1024 1028 1032 1036 1040 1044 1048 1052 1056 1060 1064 1068 1072 1076 1080 1084 1088 1092 1096 1100 1104 1108 1112 1116 1120 1124 1128 1132 1136 1140 1144 1148 1152 1156 1160 1164 1168 1172 1176 1180 1184 1188 1192 1196 1200 1204 1208 1212 1216 1220 1224 1228 1232 1236 1240 1244 1248 1252 1256 1260 1264 1268 1272 1276 1280 1284 1288 1292 1296 1300 1304 1308 1312 1316 1320 1324 1328 1332 1336 1340 1344 1348 1352 1356 1360 1364 1368 1372 1376 1380 1384 1388 1392 1396 1400 1404 1408 1412 1416 1420 1424 1428 1432 1436 1440 1444 1448 1452 1456 1460 1464 1468 1472 1476 1480 1484 1488 1492 1496 1500 1504 1508 1512 1516 1520 1524 1528 1532 1536 1540 1544 1548 1552 1556 1560 1564 1568 1572 1576 1580 1584 1588 1592 1596 1600 1604 1608 1612 1616 1620 1624 1628 1632 1636 1640 1644 1648 1652 1656 1660 1664 1668 1672 1676 1680 1684 1688 1692 1696 1700 1704 1708 1712 1716 1720 1724 1728 1732 1736 1740 1744 1748 1752 1756 1760 1764 1768 1772 1776 1780 1784 1788 1792 1796 1800 1804 1808 1812 1816 1820 1824 1828 1832 1836 1840 1844 1848 1852 1856 1860 1864 1868 1872 1876 1880 1884 1888 1892 1896 1900 1904 1908 1912 1916 1920 1924 1928 1932 1936 1940 1944 1948 1952 1956 1960 1964 1968 1972 1976 1980 1984 1988 1992 1996 2000 2004 2008 2012 2016 2020 2024 2028 2032 2036 2040 2044 2048 2052 2056 2060 2064 2068 2072 2076 2080 2084 2088 2092 2096 2100 2104 2108 2112 2116 2120 2124 2128 2132 2136 2140 2144 2148 2152 2156 2160 2164 2168 2172 2176 2180 2184 2188 2192 2196 2200 2204 2208 2212 2216 2220 2224 2228 2232 2236 2240 2244 2248 2252 2256 2260 2264 2268 2272 2276 2280 2284 2288 2292 2296 2300 2304 2308 2312 2316 2320 2324 2328 2332 2336 2340 2344 2348 2352 2356 2360 2364 2368 2372 2376 2380 2384 2388 2392 2396 2400 2404 2408 2412 2416 2420 2424 2428 2432 2436 2440 2444 2448 2452 2456 2460 2464 2468 2472 2476 2480 2484 2488 2492 2496 2500 2504 2508 2512 2516 2520 2524 2528 2532 2536 2540 2544 2548 2552 2556 2560 2564 2568 2572 2576 2580 2584 2588 2592 2596 2600 2604 2608 2612 2616 2620 2624 2628 2632 2636 2640 2644 2648 2652 2656 2660 2664 2668 2672 2676 2680 2684 2688 2692 2696 2700 2704 2708 2712 2716 2720 2724 2728 2732 2736 2740 2744 2748 2752 2756 2760 2764 2768 2772 2776 2780 2784 2788 2792 2796 2800 2804 2808 2812 2816 2820 2824 2828 2832 2836 2840 2844 2848 2852 2856 2860 2864 2868 2872 2876 2880 2884 2888 2892 2896 2900 2904 2908 2912 2916 2920 2924 2928 2932 2936 2940 2944 2948 2952 2956 2960 2964 2968 2972 2976 2980 2984 2988 2992 2996 3000 3004 3008 3012 3016 3020 3024 3028 3032 3036 3040 3044 3048 3052 3056 3060 3064 3068 3072 3076 3080 3084 3088 3092 3096 3100 3104 3108 3112 3116 3120 3124 3128 3132 3136 3140 3144 3148 3152 3156 3160 3164 3168 3172 3176 3180 3184 3188 3192 3196 3200 3204 3208 3212 3216 3220 3224 3228 3232 3236 3240 3244 3248 3252 3256 3260 3264 3268 3272 3276 3280 3284 3288 3292 3296 3300 3304 3308 3312 3316 3320 3324 3328 3332 3336 3340 3344 3348 3352 3356 3360 3364 3368 3372 3376 3380 3384 3388 3392 3396 3400 3404 3408 3412 3416 3420 3424 3428 3432 3436 3440 3444 3448 3452 3456 3460 3464 3468 3472 3476 3480 3484 3488 3492 3496 3500 3504 3508 3512 3516 3520 3524 3528 3532 3536 3540 3544 3548 3552 3556 3560 3564 3568 3572 3576 3580 3584 3588 3592 3596 3600 3604 3608 3612 3616 3620 3624 3628 3632 3636 3640 3644 3648 3652 3656 3660 3664 3668 3672 3676 3680 3684 3688 3692 3696 3700 3704 3708 3712 3716 3720 3724 3728 3732 3736 3740 3744 3748 3752 3756 3760 3764 3768 3772 3776 3780 3784 3788 3792 3796 3800 3804 3808 3812 3816 3820 3824 3828 3832 3836 3840 3844 3848 3852 3856 3860 3864 3868 3872 3876 3880 3884 3888 3892 3896 3900 3904 3908 3912 3916 3920 3924 3928 3932 3936 3940 3944 3948 3952 3956 3960 3964 3968 3972 3976 3980 3984 3988 3992 3996 4000 4004 4008 4012 4016 4020 4024 4028 4032 4036 4040 4044 4048 4052 4056 4060 4064 4068 4072 4076 4080 4084 4088 4092 4096 4100 4104 4108 4112 4116 4120 4124 4128 4132 4136 4140 4144 4148 4152 4156 4160 4164 4168 4172 4176 4180 4184 4188 4192 4196 4200 4204 4208 4212 4216 4220 4224 4228 4232 4236 4240 4244 4248 4252 4256 4260 4264 4268 4272 4276 4280 4284 4288 4292 4296 4300 4304 4308 4312 4316 4320 4324 4328 4332 4336 4340 4344 4348 4352 4356 4360 4364 4368 4372 4376 4380 4384 4388 4392 4396 4400 4404 4408 4412 4416 4420 4424 4428 4432 4436 4440 4444 4448 4452 4456 4460 4464 4468 4472 4476 4480 4484 4488 4492 4496 4500 4504 4508 4512 4516 4520 4524 4528 4532 4536 4540 4544 4548 4552 4556 4560 4564 4568 4572 4576 4580 4584 4588 4592 4596 4600 4604 4608 4612 4616 4620 4624 4628 4632 4636 4640 4644 4648 4652 4656 4660 4664 4668 4672 4676 4680 4684 4688 4692 4696 4700 4704 4708 4712 4716 4720 4724 4728 4732 4736 4740 4744 4748 4752 4756 4760 4764 4768 4772 4776 4780 4784 4788 4792 4796 4800 4804 4808 4812 4816 4820 4824 4828 4832 4836 4840 4844 4848 4852 4856 4860 4864 4868 4872 4876 4880 4884 4888 4892 4896 4900 4904 4908 4912 4916 4920 4924 4928 4932 4936 4940 4944 4948 4952 4956 4960 4964 4968 4972 4976 4980 4984 4988 4992 4996 5000 5004 5008 5012 5016 5020 5024 5028 5032 5036 5040 5044 5048 5052 5056 5060 5064 5068 5072 5076 5080 5084 5088 5092 5096 5100 5104 5108 5112 5116 5120 5124 5128 5132 5136 5140 5144 5148 5152 5156 5160 5164 5168 5172 5176 5180 5184 5188 5192 5196 5200 5204 5208 5212 5216 5220 5224 5228 5232 5236 5240 5244 5248 5252 5256 5260 5264 5268 5272 5276 5280 5284 5288 5292 5296 5300 5304 5308 5312 5316 5320 5324 5328 5332 5336 5340 5344 5348 5352 5356 5360 5364 5368 5372 5376 5380 5384 5388 5392 5396 5400 5404 5408 5412 5416 5420 5424 5428 5432 5436 5440 5444 5448 5452 5456 5460 5464 5468 5472 5476 5480 5484 5488 5492 5496 5500 5504 5508 5512 5516 5520 5524 5528 5532 5536 5540 5544 5548 5552 5556 5560 5564 5568 5572 5576 5580 5584 5588 5592 5596 5600 5604 5608 5612 5616 5620 5624 5628 5632 5636 5640 5644 5648 5652 5656 5660 5664 5668 5672 5676 5680 5684 5688 5692 5696 5700 5704 5708 5712 5716 5720 5724 5728 5732 5736 5740 5744 5748 5752 5756 5760 5764 5768 5772 5776 5780 5784 5788 5792 5796 5800 5804 5808 5812 5816 5820 5824 5828 5832 5836 5840 5844 5848 5852 5856 5860 5864 5868 5872 5876 5880 5884 5888 5892 5896 5900 5904 5908 5912 5916 5920 5924 5928 5932 5936 5940 5944 5948 5952 5956 5960 5964 5968 5972 5976 5980 5984 5988 5992 5996 6000 6004 6008 6012 6016 6020 6024 6028 6032 6036 6040 6044 6048 6052 6056 6060 6064 6068 6072 6076 6080 6084 6088 6092 6096 6100 6104 6108 6112 6116 6120 6124 6128 6132 6136 6140 6144 6148 6152 6156 6160 6164 6168 6172 6176 6180 6184 6188 6192 6196 6200 6204 6208 6212 6216 6220 6224 6228 6232 6236 6240 6244 6248 6252 6256 6260 6264 6268 6272 6276 6280 6284 6288 6292 6296 6300 6304 6308 6312 6316 6320 6324 6328 6332 6336 6340 6344 6348 6352 6356 6360 6364 6368 6372 6376 6380 6384 6388 6392 6396 6400 6404 6408 6412 6416 6420 6424 6428 6432 6436 6440 6444 6448 6452 6456 6460 6464 6468 6472 6476 6480 6484 6488 6492 6496 6500 6504 6508 6512 6516 6520 6524 6528 6532 6536 6540 6544 6548 6552 6556 6560 6564 6568 6572 6576 6580 6584 6588 6592 6596 6600 6604 6608 6612 6616 6620 6624 6628 6632 6636 6640 6644 6648 6652 6656 6660 6664 6668 6672 6676 6680 6684 6688 6692 6696 6700 6704 6708 6712 6716 6720 6724 6728 6732 6736 6740 6744 6748 6752 6756 6760 6764 6768 6772 6776 6780 6784 6788 6792 6796 6800 6804 6808 6812 6816 6820 6824 6828 6832 6836 6840 6844 6848 6852 6856 6860 6864 6868 6872 6876 6880 6884 6888 6892 6896 6900 6904 6908 6912 6916 6920 6924 6928 6932 6936 6940 6944 6948 6952 6956 6960 6964 6968 6972 6976 6980 6984 6988 6992 6996 7000 7004 7008 7012 7016 7020 7024 7028 7032 7036 7040 7044 7048 7052 7056 7060 7064 7068 7072 7076 7080 7084 7088 7092 7096 7100 7104 7108 7112 7116 7120 7124 7128 7132 7136 7140 7144 7148 7152 7156 7160 7164 7168 7172 7176 7180 7184 7188 7192 7196 7200 7204 7208 7212 7216 7220 7224 7228 7232 7236 7240 7244 7248 7252 7256 7260 7264 7268 7272 7276 7280 7284 7288 7292 7296 7300 7304 7308 7312 7316 7320 7324 7328 7332 7336 7340 7344 7348 7352 7356 7360 7364 7368 7372 7376 7380 7384 7388 7392 7396 7400 7404 7408 7412 7416 7420 7424 7428 7432 7436 7440 7444 7448 7452 7456 7460 7464 7468 7472 7476 7480 7484 7488 7492 7496 7500 7504 7508 7512 7516 7520 7524 7528 7532 7536 7540 7544 7548 7552 7556 7560 7564 7568 7572 7576 7580 7584 7588 7592 7596 7600 7604 7608 7612 7616 7620 7624 7628 7632 7636 7640 7644 7648 7652 7656 7660 7664 7668 7672 7676 7680 7684 7688 7692 7696 7700 7704 7708 7712 7716 7720 7724 7728 7732 7736 7740 7744 7748 7752 7756 7760 7764 7768 7772 7776 7780 7784 7788 7792 7796 7800 7804 7808 7812 7816 7820 7824 7828 7832 7836 7840 7844 7848 7852 7856 7860 7864 7868 7872 7876 7880 7884 7888 7892 7896 7900 7904 7908 7912 7916 7920 7924 7928 7932 7936 7940 7944 7948 7952 7956 7960 7964 7968 7972 7976 7980 7984 7988 7992 7996 8000 8004 8008 8012 8016 8020 8024 8028 8032 8036 8040 8044 8048 8052 8056 8060 8064 8068 8072 8076 8080 8084 8088 8092 8096 8100 8104 8108 8112 8116 8120 8124 8128 8132 8136 8140 8144 8148 8152 8156 8160 8164 8168 8172 8176 8180 8184 8188 8192 8196 8200 8204 8208 8212 8216 8220 8224 8228 8232 8236 8240 8244 8248 8252 8256 8260 8264 8268 8272 8276 8280 8284 8288 8292 8296 8300 8304 8308 8312 8316 8320 8324 8328 8332 8336 8340 8344 8348 8352 8356 8360 8364 8368 8372 8376 8380 8384 8388 8392 8396 8400 8404 8408 8412 8416 8420 8424 8428 8432 8436 8440 8444 8448 8452 8456 8460 8464 8468 8472 8476 8480 8484 8488 8492 8496 8500 8504 8508 8512 8516 8520 8524 8528 8532 8536 8540 8544 8548 8552 8556 8560 8564 8568 8572 8576 8580 8584 8588 8592 8596 8600 8604 8608 8612 8616 8620 8624 8628 8632 8636 8640 8644 8648 8652 8656 8660 8664 8668 8672 8676 8680 8684 8688 8692 8696 8700 8704 8708 8712 8716 8720 8724 8728 8732 8736 8740 8744 8748 8752 8756 8760 8764 8768 8772 8776 8780 8784 8788 8792 8796 8800 8804 8808 8812 8816 8820 8824 8828 8832 8836 8840 8844 8848 8852 8856 8860 8864 8868 8872 8876 8880 8884 8888 8892 8896 8900 8904 8908 8912 8916 8920 8924 8928 8932 8936 8940 8944 8948 8952 8956 8960 8964 8968 8972 8976 8980 8984 8988 8992 8996 9000 9004 9008 9012 9016 9020 9024 9028 9032 9036 9040 9044 9048 9052 9056 9060 9064 9068 9072 9076 9080 9084 9088 9092 9096 9100 9104 9108 9112 9116 9120 9124 9128 9132 9136 9140 9144 9148 9152 9156 9160 9164 9168 9172 9176 9180 9184 9188 9192 9196 9200 9204 9208 9212 9216 9220 9224 9228 9232 9236 9240 9244 9248 9252 9256 9260 9264 9268 9272 9276 9280 9284 9288 9292 9296 9300 9304 9308 9312 9316 9320 9324 9328 9332 9336 9340 9344 9348 9352 9356 9360 9364 9368 9372 9376 9380 9384 9388 9392 9396 9400 9404 9408 9412 9416 9420 9424 9428 9432 9436 9440 9444 9448 9452 9456 9460 9464 9468 9472 9476 9480 9484 9488 9492 9496 9500 9504 9508 9512 9516 9520 9524 9528 9532 9536 9540 9544 9548 9552 9556 9560 9564 9568 9572 9576 9580 9584 9588 9592 9596 9600 9604 9608 9612 9616 9620 9624 9628 9632 9636 9640 9644 9648 9652 9656 9660 9664 9668 9672 9676 9680 9684 9688 9692 9696 9700 9704 9708 9712 9716 9720 9724 9728 9732 9736 9740 9744 9748 9752 9756 9760 9764 9768 9772 9776 9780 9784 9788 9792 9796 9800 9804 9808 9812 9816 9820 9824 9828 9832 9836 9840 9844 9848 9852 9856 9860 9864 9868 9872 9876 9880 9884 9888 9892 9896 9900 9904 9908 9912 9916 9920 9924 9928 9932 9936 9940 9944 9948 9952 9956 9960 9964 9968 9972 9976 9980 9984 9988 9992 9996 10000 10004 10008 10012 10016 10020 10024 10028 10032 10036 10040 10044 10048 10052 10056 10060 10064 10068 10072 10076 10080 10084 10088 10092 10096 10100 10104 10108 10112 10116 10120 10124 10128 10132 10136 10140 10144 10148 10152 10156 10160 10164 10168 10172 10176 10180 10184 10188 10192 10196 10200 10204 10208 10212 10216 10220 10224 10228 10232 10236 10240 10244 10248 10252 10256 10260 10264 10268 10272 10276 10280 10284 10288 10292 10296 10300 10304 10308 10312 10316 10320 10324 10328 10332 10336 10340 10344 10348 10352 10356 10360 10364 10368 10372 10376 10380 10384 10388 10392 10396 10400 10404 10408 10412 10416 10420 10424 10428 10432 10436 10440 10444 10448 10452 10456 10460 10464 10468 10472 10476 10480 10484 10488 10492 10496 10500 10504 10508 10512 10516 10520 10524 10528 10532 10536 10540 10544 10548 10552 10556 10560 10564 10568 10572 10576 10580 10584 10588 10592 10596 10600 10604 10608 10612 10616 10620 10624 10628 10632 10636 10640 10644 10648 10652 10656 10660 10664 10668 10672 10676 10680 10684 10688 10692 10696 10700 10704 10708 10712 10716 10720 10724 10728 10732 10736 10740 10744 10748 10752 10756 10760 10764 10768 10772 10776 10780 10784 10788 10792 10796 10800 10804 10808 10812 10816 10820 10824 10828 10832 10836 10840 10844 10848 10852 10856 10860 10864 10868 10872 10876 10880 10884 10888 10892 10896 10900 10904 10908 10912 10916 10920 10924 10928 10932 10936 10940 10944 10948 10952 10956 10960 10964 10968 10972 10976 10980 10984 10988 10992 10996 11000 11004 11008 11012 11016 11020 11024 11028 11032 11036 11040 11044 11048 11052 11056 11060 11064 11068 11072 11076 11080 11084 11088 11092 11096 11100 11104 11108 11112 11116 11120 11124 11128 11132 11136 11140 11144 11148 11152 11156 11160 11164 11168 11172 11176 11180 11184 11188 11192 11196 11200 11204 11208 11212 11216 11220 11224 11228 11232 11236 11240 11244 11248 11252 11256 11260 11264 11268 11272 11276 11280 11284 11288 11292 11296 11300 11304 11308 11312 11316 11320 11324 11328 11332 11336 11340 11344 11348 11352 11356 11360 11364 11368 11372 11376 11380 11384 11388 11392 11396 11400 11404 11408 11412 11416 11420 11424 11428 11432 11436 11440 11444 11448 11452 11456 11460 11464 11468 11472 11476 11480 11484 11488 11492 11496 11500 11504 11508 11512 11516 11520 11524 11528 11532 11536 11540 11544 11548 11552 11556 11560 11564 11568 11572 11576 11580 11584 11588 11592 11596 11600 11604 11608 11612 11616 11620 11624 11628 11632 11636 11640 11644 11648 11652 11656 11660 11664 11668 11672 11676 11680 11684 11688 11692 11696 11700 11704 11708 11712 11716 11720 11724 11728 11732 11736 11740 11744 11748 11752 11756 11760 11764 11768 11772 11776 11780 11784 11788 11792 11796 11800 11804 11808 11812 11816 11820 11824 11828 11832 11836 11840 11844 11848 11852 11856 11860 11864 11868 11872 11876 11880 11884 11888 11892 11896 11900 11904 11908 11912 11916 11920 11924 11928 11932 11936 11940 11944 11948 11952 11956 11960 11964 11968 11972 11976 11980 11984 11988 11992 11996 12000 12004 12008 12012 12016 12020 12024 12028 12032 12036 12040 12044 12048 12052 12056 12060 12064 12068 12072 12076 12080 12084 12088 12092 12096 12100 12104 12108 12112 12116 12120 12124 12128 12132 12136 12140 12144 12148 12152 12156 12160 12164 12168 12172 12176 12180 12184 12188 12192 12196 12200 12204 12208 12212 12216 12220 12224 12228 12232 12236 12240 12244 12248 12252 12256 12260 12264 12268 12272 12276 12280 12284 12288 12292 12296 12300 12304 12308 12312 12316 12320 12324 12328 12332 12336 12340 12344 12348 12352 12356 12360 12364 12368 12372 12376 12380 12384 12388 12392 12396 12400 12404 12408 12412 12416 12420 12424 12428 12432 12436 12440 12444 12448 12452 12456 12460 12464 12468 12472 12476 12480 12484 12488 12492 12496 12500 12504 12508 12512 12516 12520 12524 12528 12532 12536 12540 12544 12548 12552 12556 12560 12564 12568 12572 12576 12580 12584 12588 12592 12596 12600 12604 12608 12612 12616 12620 12624 12628 12632 12636 12640 12644 12648 12652 12656 12660 12664 12668 12672 12676 12680 12684 12688 12692 12696 12700 12704 12708 12712 12716 12720 12724 12728 12732 12736 12740 12744 12748 12752 12756 12760 12764 12768 12772 12776 12780 12784 12788 12792 12796 12800 12804 12808 12812 12816 12820 12824 12828 12832 12836 12840 12844 12848 12852 12856 12860 12864 12868 12872 12876 12880 12884 12888 12892 12896 12900 12904 12908 12912 12916 12920 12924 12928 12932 12936 12940 12944 12948 12952 12956 12960 12964 12968 12972 12976 12980 12984 12988 12992 12996 13000 13004 13008 13012 13016 13020 13024 13028 13032 13036 13040 13044 13048 13052 13056 13060 13064 13068 13072 13076 13080 13084 13088 13092 13096 13100 13104 13108 13112 13116 13120 13124 13128 13132 13136 13140 13144 13148 13152 13156 13160 13164 13168 13172 13176 13180 13184 13188 13192 13196 13200 13204 13208 13212 13216 13220 13224 13228 13232 13236 13240 13244 13248 13252 13256 13260 13264 13268 13272 13276 13280 13284 13288 13292 13296 13300 13304 13308 13312 13316 13320 13324 13328 13332 13336 13340 13344 13348 13352 13356 13360 13364 13368 13372 13376 13380 13384 13388 13392 13396 13400 13404 13408 13412 13416 13420 13424 13428 13432 13436 13440 13444 13448 13452 13456 13460 13464 13468 13472 13476 13480 13484 13488 13492 13496 13500 13504 13508 13512 13516 13520 13524 13528 13532 13536 13540 13544 13548 13552 13556 13560 13564 13568 13572 13576 13580 13584 13588 13592 13596 13600 13604 13608 13612 13616 13620 13624 13628 13632 13636 13640 13644 13648 13652 13656 13660 13664 13668 13672 13676 13680 13684 13688 13692 13696 13700 13704 13708 13712 13716 13720 13724 13728 13732 13736 13740 13744 13748 13752 13756 13760 13764 13768 13772 13776 13780 13784 13788 13792 13796 13800 13804 13808 13812 13816 13820 13824 13828 13832 13836 13840 13844 13848 13852 13856 13860 13864 13868 13872 13876 13880 13884 13888 13892 13896 13900 13904 13908 13912 13916 13920 13924 13928 13932 13936 13940 13944 13948 13952 13956 13960 13964 13968 13972 13976 13980 13984 13988 13992 13996 14000 14004 14008 14012 14016 14020 14024 14028 14032 14036 14040 14044 14048 14052 14056 14060 14064 14068 14072 14076 14080 14084 14088 14092 14096 14100 14104 14108 14112 14116 14120 14124 14128 14132 14136 14140 14144 14148 14152 14156 14160 14164 14168 14172 14176 14180 14184 14188 14192 14196 14200 14204 14208 14212 14216 14220 14224 14228 14232 14236 14240 14244 14248 14252 14256 14260 14264 14268 14272 14276 14280 14284 14288 14292 14296 14300 14304 14308 14312 14316 14320 14324 14328 14332 14336 14340 14344 14348 14352 14356 14360 14364 14368 14372 14376 14380 14384 14388 14392 14396 14400 14404 14408 14412 14416 14420 14424 14428 14432 14436 14440 14444 14448 14452 14456 14460 14464 14468 14472 14476 14480 14484 14488 14492 14496 14500 14504 14508 14512 14516 14520 14524 14528 14532 14536 14540 14544 14548 14552 14556 14560 14564 14568 14572 14576 14580 14584 14588 14592 14596 14600 14604 14608 14612 14616 14620 14624 14628 14632 14636 14640 14644 14648 14652 14656 14660 14664 14668 14672 14676 14680 14684 14688 14692 14696 14700 14704 14708 14712 14716 14720 14724 14728 14732 14736 14740 14744 14748 14752 14756 14760 14764 14768 14772 14776 14780 14784 14788 14792 14796 14800 14804 14808 14812 14816 14820 14824 14828 14832 14836 14840 14844 14848 14852 14856 14860 14864 14868 14872 14876 14880 14884 14888 14892 14896 14900 14904 14908 14912 14916 14920 14924 14928 14932 14936 14940 14944 14948 14952 14956 14960 14964 14968 14972 14976 14980 14984 14988 14992 14996 15000 15004 15008 15012 15016 15020 15024 15028 15032 15036 15040 15044 15048 15052 15056 15060 15064 15068 15072 15076 15080 15084 15088 15092 15096 15100 15104 15108 15112 15116 15120 15124 15128 15132 15136 15140 15144 15148 15152 15156 15160 15164 15168 15172 15176 15180 15184 15188 15192 15196 15200 15204 15208 15212 15216 15220 15224 15228 15232 15236 15240 15244 15248 15252 15256 15260 15264 15268 15272 15276 15280 15284 15288 15292 15296 15300 15304 15308 15312 15316 15320 15324 15328 15332 15336 15340 15344 15348 15352 15356 15360 15364 15368 15372 15376 15380 15384 15388 15392 15396 15400 15404 15408 15412 15416 15420 15424 15428 15432 15436 15440 15444 15448 15452 15456 15460 15464 15468 15472 15476 15480 15484 15488 15492 15496 15500 15504 15508 15512 15516 15520 15524 15528 15532 15536 15540 15544 15548 15552 
CONNECTIVITY vtktypeint64
0 19 153 20 
133 153 134 0 
0 19 152 153 
133 153 0 152 
134 0 153 1 
153 0 20 1 
1 20 154 21 
134 154 135 1 
1 20 153 154 
134 154 1 153 
135 1 154 2 
154 1 21 2 
2 21 155 22 
135 155 136 2 
2 21 154 155 
135 155 2 154 
136 2 155 3 
155 2 22 3 
3 22 156 23 
136 156 137 3 
3 22 155 156 
136 156 3 155 
137 3 156 4 
156 3 23 4 
4 23 157 24 
137 157 138 4 
4 23 156 157 
137 157 4 156 
138 4 157 5 
157 4 24 5 
5 24 158 25 
138 158 139 5 
5 24 157 158 
138 158 5 157 
139 5 158 6 
158 5 25 6 
6 25 159 26 
139 159 140 6 
6 25 158 159 
139 159 6 158 
140 6 159 7 
159 6 26 7 
7 26 160 27 
140 160 141 7 
7 26 159 160 
140 160 7 159 
141 7 160 8 
160 7 27 8 
8 27 161 28 
141 161 142 8 
8 27 160 161 
141 161 8 160 
142 8 161 9 
161 8 28 9 
9 28 162 29 
142 162 143 9 
9 28 161 162 
142 162 9 161 
143 9 162 10 
162 9 29 10 
10 29 163 30 
143 163 144 10 
10 29 162 163 
143 163 10 162 
144 10 163 11 
163 10 30 11 
11 30 164 31 
144 164 145 11 
11 30 163 164 
144 164 11 163 
145 11 164 12 
164 11 31 12 
12 31 165 32 
145 165 146 12 
12 31 164 165 
145 165 12 164 
146 12 165 13 
165 12 32 13 
13 32 166 33 
146 166 147 13 
13 32 165 166 
146 166 13 165 
147 13 166 14 
166 13 33 14 
14 33 167 34 
147 167 148 14 
14 33 166 167 
147 167 14 166 
148 14 167 15 
167 14 34 15 
15 34 168 35 
148 168 149 15 
15 34 167 168 
148 168 15 167 
149 15 168 16 
168 15 35 16 
16 35 169 36 
149 169 150 16 
16 35 168 169 
149 169 16 168 
150 16 169 17 
169 16 36 17 
17 36 170 37 
150 170 151 17 
17 36 169 170 
150 170 17 169 
151 17 170 18 
170 17 37 18 
19 38 172 39 
152 172 153 19 
19 38 171 172 
152 172 19 171 
153 19 172 20 
172 19 39 20 
20 39 173 40 
153 173 154 20 
20 39 172 173 
153 173 20 172 
154 20 173 21 
173 20 40 21 
21 40 174 41 
154 174 155 21 
21 40 173 174 
154 174 21 173 
155 21 174 22 
174 21 41 22 
22 41 175 42 
155 175 156 22 
22 41 174 175 
155 175 22 174 
156 22 175 23 
175 22 42 23 
23 42 176 43 
156 176 157 23 
23 42 175 176 
156 176 23 175 
157 23 176 24 
176 23 43 24 
24 43 177 44 
157 177 158 24 
24 43 176 177 
157 177 24 176 
158 24 177 25 
177 24 44 25 
25 44 178 45 
158 178 159 25 
25 44 177 178 
158 178 25 177 
159 25 178 26 
178 25 45 26 
26 45 179 46 
159 179 160 26 
26 45 178 179 
159 179 26 178 
160 26 179 27 
179 26 46 27 
27 46 180 47 
160 180 161 27 
27 46 179 180 
160 180 27 179 
161 27 180 28 
180 27 47 28 
28 47 181 48 
161 181 162 28 
28 47 180 181 
161 181 28 180 
162 28 181 29 
181 28 48 29 
29 48 182 49 
162 182 163 29 
29 48 181 182 
162 182 29 181 
163 29 182 30 
182 29 49 30 
30 49 183 50 
163 183 164 30 
30 49 182 183 
163 183 30 182 
164 30 183 31 
183 30 50 31 
31 50 184 51 
164 184 165 31 
31 50 183 184 
164 184 31 183 
165 31 184 32 
184 31 51 32 
32 51 185 52 
165 185 166 32 
32 51 184 185 
165 185 32 184 
166 32 185 33 
185 32 52 33 
33 52 186 53 
166 186 167 33 
33 52 185 186 
166 186 33 185 
167 33 186 34 
186 33 53 34 
34 53 187 54 
167 187 168 34 
34 53 186 187 
167 187 34 186 
168 34 187 35 
187 34 54 35 
35 54 188 55 
168 188 169 35 
35 54 187 188 
168 188 35 187 
169 35 188 36 
188 35 55 36 
36 55 189 56 
169 189 170 36 
36 55 188 189 
169 189 36 188 
170 36 189 37 
189 36 56 37 
38 57 191 58 
171 191 172 38 
38 57 190 191 
171 191 38 190 
172 38 191 39 
191 38 58 39 
39 58 192 59 
172 192 173 39 
39 58 191 192 
172 192 39 191 
173 39 192 40 
192 39 59 40 
40 59 193 60 
173 193 174 40 
40 59 192 193 
173 193 40 192 
174 40 193 41 
193 40 60 41 
41 60 194 61 
174 194 175 41 
41 60 193 194 
174 194 41 193 
175 41 194 42 
194 41 61 42 
42 61 195 62 
175 195 176 42 
42 61 194 195 
175 195 42 194 
176 42 195 43 
195 42 62 43 
43 62 196 63 
176 196 177 43 
43 62 195 196 
176 196 43 195 
177 43 196 44 
196 43 63 44 
44 63 197 64 
177 197 178 44 
44 63 196 197 
177 197 44 196 
178 44 197 45 
197 44 64 45 
45 64 198 65 
178 198 179 45 
45 64 197 198 
178 198 45 197 
179 45 198 46 
198 45 65 46 
46 65 199 66 
179 199 180 46 
46 65 198 199 
179 199 46 198 
180 46 199 47 
199 46 66 47 
47 66 200 67 
180 200 181 47 
47 66 199 200 
180 200 47 199 
181 47 200 48 
200 47 67 48 
48 67 201 68 
181 201 182 48 
48 67 200 201 
181 201 48 200 
182 48 201 49 
201 48 68 49 
49 68 202 69 
182 202 183 49 
49 68 201 202 
182 202 49 201 
183 49 202 50 
202 49 69 50 
50 69 203 70 
183 203 184 50 
50 69 202 203 
183 203 50 202 
184 50 203 51 
203 50 70 51 
51 70 204 71 
184 204 185 51 
51 70 203 204 
184 204 51 203 
185 51 204 52 
204 51 71 52 
52 71 205 72 
185 205 186 52 
52 71 204 205 
185 205 52 204 
186 52 205 53 
205 52 72 53 
53 72 206 73 
186 206 187 53 
53 72 205 206 
186 206 53 205 
187 53 206 54 
206 53 73 54 
54 73 207 74 
187 207 188 54 
54 73 206 207 
187 207 54 206 
188 54 207 55 
207 54 74 55 
55 74 208 75 
188 208 189 55 
55 74 207 208 
188 208 55 207 
189 55 208 56 
208 55 75 56 
57 76 210 77 
190 210 191 57 
57 76 209 210 
190 210 57 209 
191 57 210 58 
210 57 77 58 
58 77 211 78 
191 211 192 58 
58 77 210 211 
191 211 58 210 
192 58 211 59 
211 58 78 59 
59 78 212 79 
192 212 193 59 
59 78 211 212 
192 212 59 211 
193 59 212 60 
212 59 79 60 
60 79 213 80 
193 213 194 60 
60 79 212 213 
193 213 60 212 
194 60 213 61 
213 60 80 61 
61 80 214 81 
194 214 195 61 
61 80 213 214 
194 214 61 213 
195 61 214 62 
214 61 81 62 
62 81 215 82 
195 215 196 62 
62 81 214 215 
195 215 62 214 
196 62 215 63 
215 62 82 63 
63 82 216 83 
196 216 197 63 
63 82 215 216 
196 216 63 215 
197 63 216 64 
216 63 83 64 
64 83 217 84 
197 217 198 64 
64 83 216 217 
197 217 64 216 
198 64 217 65 
217 64 84 65 
65 84 218 85 
198 218 199 65 
65 84 217 218 
198 218 65 217 
199 65 218 66 
218 65 85 66 
66 85 219 86 
199 219 200 66 
66 85 218 219 
199 219 66 218 
200 66 219 67 
219 66 86 67 
67 86 220 87 
200 220 201 67 
67 86 219 220 
200 220 67 219 
201 67 220 68 
220 67 87 68 
68 87 221 88 
201 221 202 68 
68 87 220 221 
201 221 68 220 
202 68 221 69 
221 68 88 69 
69 88 222 89 
202 222 203 69 
69 88 221 222 
202 222 69 221 
203 69 222 70 
222 69 89 70 
70 89 223 90 
203 223 204 70 
70 89 222 223 
203 223 70 222 
204 70 223 71 
223 70 90 71 
71 90 224 91 
204 224 205 71 
71 90 223 224 
204 224 71 223 
205 71 224 72 
224 71 91 72 
72 91 225 92 
205 225 206 72 
72 91 224 225 
205 225 72 224 
206 72 225 73 
225 72 92 73 
73 92 226 93 
206 226 207 73 
73 92 225 226 
206 226 73 225 
207 73 226 74 
226 73 93 74 
74 93 227 94 
207 227 208 74 
74 93 226 227 
207 227 74 226 
208 74 227 75 
227 74 94 75 
76 95 229 96 
209 229 210 76 
76 95 228 229 
209 229 76 228 
210 76 229 77 
229 76 96 77 
77 96 230 97 
210 230 211 77 
77 96 229 230 
210 230 77 229 
211 77 230 78 
230 77 97 78 
78 97 231 98 
211 231 212 78 
78 97 230 231 
211 231 78 230 
212 78 231 79 
231 78 98 79 
79 98 232 99 
212 232 213 79 
79 98 231 232 
212 232 79 231 
213 79 232 80 
232 79 99 80 
80 99 233 100 
213 233 214 80 
80 99 232 233 
213 233 80 232 
214 80 233 81 
233 80 100 81 
81 100 234 101 
214 234 215 81 
81 100 233 234 
214 234 81 233 
215 81 234 82 
234 81 101 82 
82 101 235 102 
215 235 216 82 
82 101 234 235 
215 235 82 234 
216 82 235 83 
235 82 102 83 
83 102 236 103 
216 236 217 83 
83 102 235 236 
216 236 83 235 
217 83 236 84 
236 83 103 84 
84 103 237 104 
217 237 218 84 
84 103 236 237 
217 237 84 236 
218 84 237 85 
237 84 104 85 
85 104 238 105 
218 238 219 85 
85 104 237 238 
218 238 85 237 
219 85 238 86 
238 85 105 86 
86 105 239 106 
219 239 220 86 
86 105 238 239 
219 239 86 238 
220 86 239 87 
239 86 106 87 
87 106 240 107 
220 240 221 87 
87 106 239 240 
220 240 87 239 
221 87 240 88 
240 87 107 88 
88 107 241 108 
221 241 222 88 
88 107 240 241 
221 241 88 240 
222 88 241 89 
241 88 108 89 
89 108 242 109 
222 242 223 89 
89 108 241 242 
222 242 89 241 
223 89 242 90 
242 89 109 90 
90 109 243 110 
223 243 224 90 
90 109 242 243 
223 243 90 242 
224 90 243 91 
243 90 110 91 
91 110 244 111 
224 244 225 91 
91 110 243 244 
224 244 91 243 
225 91 244 92 
244 91 111 92 
92 111 245 112 
225 245 226 92 
92 111 244 245 
225 245 92 244 
226 92 245 93 
245 92 112 93 
93 112 246 113 
226 246 227 93 
93 112 245 246 
226 246 93 245 
227 93 246 94 
246 93 113 94 
95 114 248 115 
228 248 229 95 
95 114 247 248 
228 248 95 247 
229 95 248 96 
248 95 115 96 
96 115 249 116 
229 249 230 96 
96 115 248 249 
229 249 96 248 
230 96 249 97 
249 96 116 97 
97 116 250 117 
230 250 231 97 
97 116 249 250 
230 250 97 249 
231 97 250 98 
250 97 117 98 
98 117 251 118 
231 251 232 98 
98 117 250 251 
231 251 98 250 
232 98 251 99 
251 98 118 99 
99 118 252 119 
232 252 233 99 
99 118 251 252 
232 252 99 251 
233 99 252 100 
252 99 119 100 
100 119 253 120 
233 253 234 100 
100 119 252 253 
233 253 100 252 
234 100 253 101 
253 100 120 101 
101 120 254 121 
234 254 235 101 
101 120 253 254 
234 254 101 253 
235 101 254 102 
254 101 121 102 
102 121 255 122 
235 255 236 102 
102 121 254 255 
235 255 102 254 
236 102 255 103 
255 102 122 103 
103 122 256 123 
236 256 237 103 
103 122 255 256 
236 256 103 255 
237 103 256 104 
256 103 123 104 
104 123 257 124 
237 257 238 104 
104 123 256 257 
237 257 104 256 
238 104 257 105 
257 104 124 105 
105 124 258 125 
238 258 239 105 
105 124 257 258 
238 258 105 257 
239 105 258 106 
258 105 125 106 
106 125 259 126 
239 259 240 106 
106 125 258 259 
239 259 106 258 
240 106 259 107 
259 106 126 107 
107 126 260 127 
240 260 241 107 
107 126 259 260 
240 260 107 259 
241 107 260 108 
260 107 127 108 
108 127 261 128 
241 261 242 108 
108 127 260 261 
241 261 108 260 
242 108 261 109 
261 108 128 109 
109 128 262 129 
242 262 243 109 
109 128 261 262 
242 262 109 261 
243 109 262 110 
262 109 129 110 
110 129 263 130 
243 263 244 110 
110 129 262 263 
243 263 110 262 
244 110 263 111 
263 110 130 111 
111 130 264 131 
244 264 245 111 
111 130 263 264 
244 264 111 263 
245 111 264 112 
264 111 131 112 
112 131 265 132 
245 265 246 112 
112 131 264 265 
245 265 112 264 
246 112 265 113 
265 112 132 113 
133 152 286 153 
266 286 267 133 
133 152 285 286 
266 286 133 285 
267 133 286 134 
286 133 153 134 
134 153 287 154 
267 287 268 134 
134 153 286 287 
267 287 134 286 
268 134 287 135 
287 134 154 135 
135 154 288 155 
268 288 269 135 
135 154 287 288 
268 288 135 287 
269 135 288 136 
288 135 155 136 
136 155 289 156 
269 289 270 136 
136 155 288 289 
269 289 136 288 
270 136 289 137 
289 136 156 137 
137 156 290 157 
270 290 271 137 
137 156 289 290 
270 290 137 289 
271 137 290 138 
290 137 157 138 
138 157 291 158 
271 291 272 138 
138 157 290 291 
271 291 138 290 
272 138 291 139 
291 138 158 139 
139 158 292 159 
272 292 273 139 
139 158 291 292 
272 292 139 291 
273 139 292 140 
292 139 159 140 
140 159 293 160 
273 293 274 140 
140 159 292 293 
273 293 140 292 
274 140 293 141 
293 140 160 141 
141 160 294 161 
274 294 275 141 
141 160 293 294 
274 294 141 293 
275 141 294 142 
294 141 161 142 
142 161 295 162 
275 295 276 142 
142 161 294 295 
275 295 142 294 
276 142 295 143 
295 142 162 143 
143 162 296 163 
276 296 277 143 
143 162 295 296 
276 296 143 295 
277 143 296 144 
296 143 163 144 
144 163 297 164 
277 297 278 144 
144 163 296 297 
277 297 144 296 
278 144 297 145 
297 144 164 145 
145 164 298 165 
278 298 279 145 
145 164 297 298 
278 298 145 297 
279 145 298 146 
298 145 165 146 
146 165 299 166 
279 299 280 146 
146 165 298 299 
279 299 146 298 
280 146 299 147 
299 146 166 147 
147 166 300 167 
280 300 281 147 
147 166 299 300 
280 300 147 299 
281 147 300 148 
300 147 167 148 
148 167 301 168 
281 301 282 148 
148 167 300 301 
281 301 148 300 
282 148 301 149 
301 148 168 149 
149 168 302 169 
282 302 283 149 
149 168 301 302 
282 302 149 301 
283 149 302 150 
302 149 169 150 
150 169 303 170 
283 303 284 150 
150 169 302 303 
283 303 150 302 
284 150 303 151 
303 150 170 151 
152 171 305 172 
285 305 286 152 
152 171 304 305 
285 305 152 304 
286 152 305 153 
305 152 172 153 
153 172 306 173 
286 306 287 153 
153 172 305 306 
286 306 153 305 
287 153 306 154 
306 153 173 154 
154 173 307 174 
287 307 288 154 
154 173 306 307 
287 307 154 306 
288 154 307 155 
307 154 174 155 
155 174 308 175 
288 308 289 155 
155 174 307 308 
288 308 155 307 
289 155 308 156 
308 155 175 156 
156 175 309 176 
289 309 290 156 
156 175 308 309 
289 309 156 308 
290 156 309 157 
309 156 176 157 
157 176 310 177 
290 310 291 157 
157 176 309 310 
290 310 157 309 
291 157 310 158 
310 157 177 158 
158 177 311 178 
291 311 292 158 
158 177 310 311 
291 311 158 310 
292 158 311 159 
311 158 178 159 
159 178 312 179 
292 312 293 159 
159 178 311 312 
292 312 159 311 
293 159 312 160 
312 159 179 160 
160 179 313 180 
293 313 294 160 
160 179 312 313 
293 313 160 312 
294 160 313 161 
313 160 180 161 
161 180 314 181 
294 314 295 161 
161 180 313 314 
294 314 161 313 
295 161 314 162 
314 161 181 162 
162 181 315 182 
295 315 296 162 
162 181 314 315 
295 315 162 314 
296 162 315 163 
315 162 182 163 
163 182 316 183 
296 316 297 163 
163 182 315 316 
296 316 163 315 
297 163 316 164 
316 163 183 164 
164 183 317 184 
297 317 298 164 
164 183 316 317 
297 317 164 316 
298 164 317 165 
317 164 184 165 
165 184 318 185 
298 318 299 165 
165 184 317 318 
298 318 165 317 
299 165 318 166 
318 165 185 166 
166 185 319 186 
299 319 300 166 
166 185 318 319 
299 319 166 318 
300 166 319 167 
319 166 186 167 
167 186 320 187 
300 320 301 167 
167 186 319 320 
300 320 167 319 
301 167 320 168 
320 167 187 168 
168 187 321 188 
301 321 302 168 
168 187 320 321 
301 321 168 320 
302 168 321 169 
321 168 188 169 
169 188 322 189 
302 322 303 169 
169 188 321 322 
302 322 169 321 
303 169 322 170 
322 169 189 170 
171 190 324 191 
304 324 305 171 
171 190 323 324 
304 324 171 323 
305 171 324 172 
324 171 191 172 
172 191 325 192 
305 325 306 172 
172 191 324 325 
305 325 172 324 
306 172 325 173 
325 172 192 173 
173 192 326 193 
306 326 307 173 
173 192 325 326 
306 326 173 325 
307 173 326 174 
326 173 193 174 
174 193 327 194 
307 327 308 174 
174 193 326 327 
307 327 174 326 
308 174 327 175 
327 174 194 175 
175 194 328 195 
308 328 309 175 
175 194 327 328 
308 328 175 327 
309 175 328 176 
328 175 195 176 
176 195 329 196 
309 329 310 176 
176 195 328 329 
309 329 176 328 
310 176 329 177 
329 176 196 177 
177 196 330 197 
310 330 311 177 
177 196 329 330 
310 330 177 329 
311 177 330 178 
330 177 197 178 
178 197 331 198 
311 331 312 178 
178 197 330 331 
311 331 178 330 
312 178 331 179 
331 178 198 179 
179 198 332 199 
312 332 313 179 
179 198 331 332 
312 332 179 331 
313 179 332 180 
332 179 199 180 
180 199 333 200 
313 333 314 180 
180 199 332 333 
313 333 180 332 
314 180 333 181 
333 180 200 181 
181 200 334 201 
314 334 315 181 
181 200 333 334 
314 334 181 333 
315 181 334 182 
334 181 201 182 
182 201 335 202 
315 335 316 182 
182 201 334 335 
315 335 182 334 
316 182 335 183 
335 182 202 183 
183 202 336 203 
316 336 317 183 
183 202 335 336 
316 336 183 335 
317 183 336 184 
336 183 203 184 
184 203 337 204 
317 337 318 184 
184 203 336 337 
317 337 184 336 
318 184 337 185 
337 184 204 185 
185 204 338 205 
318 338 319 185 
185 204 337 338 
318 338 185 337 
319 185 338 186 
338 185 205 186 
186 205 339 206 
319 339 320 186 
186 205 338 339 
319 339 186 338 
320 186 339 187 
339 186 206 187 
187 206 340 207 
320 340 321 187 
187 206 339 340 
320 340 187 339 
321 187 340 188 
340 187 207 188 
188 207 341 208 
321 341 322 188 
188 207 340 341 
321 341 188 340 
322 188 341 189 
341 188 208 189 
190 209 343 210 
323 343 324 190 
190 209 342 343 
323 343 190 342 
324 190 343 191 
343 190 210 191 
191 210 344 211 
324 344 325 191 
191 210 343 344 
324 344 191 343 
325 191 344 192 
344 191 211 192 
192 211 345 212 
325 345 326 192 
192 211 344 345 
325 345 192 344 
326 192 345 193 
345 192 212 193 
193 212 346 213 
326 346 327 193 
193 212 345 346 
326 346 193 345 
327 193 346 194 
346 193 213 194 
194 213 347 214 
327 347 328 194 
194 213 346 347 
327 347 194 346 
328 194 347 195 
347 194 214 195 
195 214 348 215 
328 348 329 195 
195 214 347 348 
328 348 195 347 
329 195 348 196 
348 195 215 196 
196 215 349 216 
329 349 330 196 
196 215 348 349 
329 349 196 348 
330 196 349 197 
349 196 216 197 
197 216 350 217 
330 350 331 197 
197 216 349 350 
330 350 197 349 
331 197 350 198 
350 197 217 198 
198 217 351 218 
331 351 332 198 
198 217 350 351 
331 351 198 350 
332 198 351 199 
351 198 218 199 
199 218 352 219 
332 352 333 199 
199 218 351 352 
332 352 199 351 
333 199 352 200 
352 199 219 200 
200 219 353 220 
333 353 334 200 
200 219 352 353 
333 353 200 352 
334 200 353 201 
353 200 220 201 
201 220 354 221 
334 354 335 201 
201 220 353 354 
334 354 201 353 
335 201 354 202 
354 201 221 202 
202 221 355 222 
335 355 336 202 
202 221 354 355 
335 355 202 354 
336 202 355 203 
355 202 222 203 
203 222 356 223 
336 356 337 203 
203 222 355 356 
336 356 203 355 
337 203 356 204 
356 203 223 204 
204 223 357 224 
337 357 338 204 
204 223 356 357 
337 357 204 356 
338 204 357 205 
357 204 224 205 
205 224 358 225 
338 358 339 205 
205 224 357 358 
338 358 205 357 
339 205 358 206 
358 205 225 206 
206 225 359 226 
339 359 340 206 
206 225 358 359 
339 359 206 358 
340 206 359 207 
359 206 226 207 
207 226 360 227 
340 360 341 207 
207 226 359 360 
340 360 207 359 
341 207 360 208 
360 207 227 208 
209 228 362 229 
342 362 343 209 
209 228 361 362 
342 362 209 361 
343 209 362 210 
362 209 229 210 
210 229 363 230 
343 363 344 210 
210 229 362 363 
343 363 210 362 
344 210 363 211 
363 210 230 211 
211 230 364 231 
344 364 345 211 
211 230 363 364 
344 364 211 363 
345 211 364 212 
364 211 231 212 
212 231 365 232 
345 365 346 212 
212 231 364 365 
345 365 212 364 
346 212 365 213 
365 212 232 213 
213 232 366 233 
346 366 347 213 
213 232 365 366 
346 366 213 365 
347 213 366 214 
366 213 233 214 
214 233 367 234 
347 367 348 214 
214 233 366 367 
347 367 214 366 
348 214 367 215 
367 214 234 215 
215 234 368 235 
348 368 349 215 
215 234 367 368 
348 368 215 367 
349 215 368 216 
368 215 235 216 
216 235 369 236 
349 369 350 216 
216 235 368 369 
349 369 216 368 
350 216 369 217 
369 216 236 217 
217 236 370 237 
350 370 351 217 
217 236 369 370 
350 370 217 369 
351 217 370 218 
370 217 237 218 
218 237 371 238 
351 371 352 218 
218 237 370 371 
351 371 218 370 
352 218 371 219 
371 218 238 219 
219 238 372 239 
352 372 353 219 
219 238 371 372 
352 372 219 371 
353 219 372 220 
372 219 239 220 
220 239 373 240 
353 373 354 220 
220 239 372 373 
353 373 220 372 
354 220 373 221 
373 220 240 221 
221 240 374 241 
354 374 355 221 
221 240 373 374 
354 374 221 373 
355 221 374 222 
374 221 241 222 
222 241 375 242 
355 375 356 222 
222 241 374 375 
355 375 222 374 
356 222 375 223 
375 222 242 223 
223 242 376 243 
356 376 357 223 
223 242 375 376 
356 376 223 375 
357 223 376 224 
376 223 243 224 
224 243 377 244 
357 377 358 224 
224 243 376 377 
357 377 224 376 
358 224 377 225 
377 224 244 225 
225 244 378 245 
358 378 359 225 
225 244 377 378 
358 378 225 377 
359 225 378 226 
378 225 245 226 
226 245 379 246 
359 379 360 226 
226 245 378 379 
359 379 226 378 
360 226 379 227 
379 226 246 227 
228 247 381 248 
361 381 362 228 
228 247 380 381 
361 381 228 380 
362 228 381 229 
381 228 248 229 
229 248 382 249 
362 382 363 229 
229 248 381 382 
362 382 229 381 
363 229 382 230 
382 229 249 230 
230 249 383 250 
363 383 364 230 
230 249 382 383 
363 383 230 382 
364 230 383 231 
383 230 250 231 
231 250 384 251 
364 384 365 231 
231 250 383 384 
364 384 231 383 
365 231 384 232 
384 231 251 232 
232 251 385 252 
365 385 366 232 
232 251 384 385 
365 385 232 384 
366 232 385 233 
385 232 252 233 
233 252 386 253 
366 386 367 233 
233 252 385 386 
366 386 233 385 
367 233 386 234 
386 233 253 234 
234 253 387 254 
367 387 368 234 
234 253 386 387 
367 387 234 386 
368 234 387 235 
387 234 254 235 
235 254 388 255 
368 388 369 235 
235 254 387 388 
368 388 235 387 
369 235 388 236 
388 235 255 236 
236 255 389 256 
369 389 370 236 
236 255 388 389 
369 389 236 388 
370 236 389 237 
389 236 256 237 
237 256 390 257 
370 390 371 237 
237 256 389 390 
370 390 237 389 
371 237 390 238 
390 237 257 238 
238 257 391 258 
371 391 372 238 
238 257 390 391 
371 391 238 390 
372 238 391 239 
391 238 258 239 
239 258 392 259 
372 392 373 239 
239 258 391 392 
372 392 239 391 
373 239 392 240 
392 239 259 240 
240 259 393 260 
373 393 374 240 
240 259 392 393 
373 393 240 392 
374 240 393 241 
393 240 260 241 
241 260 394 261 
374 394 375 241 
241 260 393 394 
374 394 241 393 
375 241 394 242 
394 241 261 242 
242 261 395 262 
375 395 376 242 
242 261 394 395 
375 395 242 394 
376 242 395 243 
395 242 262 243 
243 262 396 263 
376 396 377 243 
243 262 395 396 
376 396 243 395 
377 243 396 244 
396 243 263 244 
244 263 397 264 
377 397 378 244 
244 263 396 397 
377 397 244 396 
378 244 397 245 
397 244 264 245 
245 264 398 265 
378 398 379 245 
245 264 397 398 
378 398 245 397 
379 245 398 246 
398 245 265 246 
266 285 419 286 
399 419 400 266 
266 285 418 419 
399 419 266 418 
400 266 419 267 
419 266 286 267 
267 286 420 287 
400 420 401 267 
267 286 419 420 
400 420 267 419 
401 267 420 268 
420 267 287 268 
268 287 421 288 
401 421 402 268 
268 287 420 421 
401 421 268 420 
402 268 421 269 
421 268 288 269 
269 288 422 289 
402 422 403 269 
269 288 421 422 
402 422 269 421 
403 269 422 270 
422 269 289 270 
270 289 423 290 
403 423 404 270 
270 289 422 423 
403 423 270 422 
404 270 423 271 
423 270 290 271 
271 290 424 291 
404 424 405 271 
271 290 423 424 
404 424 271 423 
405 271 424 272 
424 271 291 272 
272 291 425 292 
405 425 406 272 
272 291 424 425 
405 425 272 424 
406 272 425 273 
425 272 292 273 
273 292 426 293 
406 426 407 273 
273 292 425 426 
406 426 273 425 
407 273 426 274 
426 273 293 274 
274 293 427 294 
407 427 408 274 
274 293 426 427 
407 427 274 426 
408 274 427 275 
427 274 294 275 
275 294 428 295 
408 428 409 275 
275 294 427 428 
408 428 275 427 
409 275 428 276 
428 275 295 276 
276 295 429 296 
409 429 410 276 
276 295 428 429 
409 429 276 428 
410 276 429 277 
429 276 296 277 
277 296 430 297 
410 430 411 277 
277 296 429 430 
410 430 277 429 
411 277 430 278 
430 277 297 278 
278 297 431 298 
411 431 412 278 
278 297 430 431 
411 431 278 430 
412 278 431 279 
431 278 298 279 
279 298 432 299 
412 432 413 279 
279 298 431 432 
412 432 279 431 
413 279 432 280 
432 279 299 280 
280 299 433 300 
413 433 414 280 
280 299 432 433 
413 433 280 432 
414 280 433 281 
433 280 300 281 
281 300 434 301 
414 434 415 281 
281 300 433 434 
414 434 281 433 
415 281 434 282 
434 281 301 282 
282 301 435 302 
415 435 416 282 
282 301 434 435 
415 435 282 434 
416 282 435 283 
435 282 302 283 
283 302 436 303 
416 436 417 283 
283 302 435 436 
416 436 283 435 
417 283 436 284 
436 283 303 284 
285 304 438 305 
418 438 419 285 
285 304 437 438 
418 438 285 437 
419 285 438 286 
438 285 305 286 
286 305 439 306 
419 439 420 286 
286 305 438 439 
419 439 286 438 
420 286 439 287 
439 286 306 287 
287 306 440 307 
420 440 421 287 
287 306 439 440 
420 440 287 439 
421 287 440 288 
440 287 307 288 
288 307 441 308 
421 441 422 288 
288 307 440 441 
421 441 288 440 
422 288 441 289 
441 288 308 289 
289 308 442 309 
422 442 423 289 
289 308 441 442 
422 442 289 441 
423 289 442 290 
442 289 309 290 
290 309 443 310 
423 443 424 290 
290 309 442 443 
423 443 290 442 
424 290 443 291 
443 290 310 291 
291 310 444 311 
424 444 425 291 
291 310 443 444 
424 444 291 443 
425 291 444 292 
444 291 311 292 
292 311 445 312 
425 445 426 292 
292 311 444 445 
425 445 292 444 
426 292 445 293 
445 292 312 293 
293 312 446 313 
426 446 427 293 
293 312 445 446 
426 446 293 445 
427 293 446 294 
446 293 313 294 
294 313 447 314 
427 447 428 294 
294 313 446 447 
427 447 294 446 
428 294 447 295 
447 294 314 295 
295 314 448 315 
428 448 429 295 
295 314 447 448 
428 448 295 447 
429 295 448 296 
448 295 315 296 
296 315 449 316 
429 449 430 296 
296 315 448 449 
429 449 296 448 
430 296 449 297 
449 296 316 297 
297 316 450 317 
430 450 431 297 
297 316 449 450 
430 450 297 449 
431 297 450 298 
450 297 317 298 
298 317 451 318 
431 451 432 298 
298 317 450 451 
431 451 298 450 
432 298 451 299 
451 298 318 299 
299 318 452 319 
432 452 433 299 
299 318 451 452 
432 452 299 451 
433 299 452 300 
452 299 319 300 
300 319 453 320 
433 453 434 300 
300 319 452 453 
433 453 300 452 
434 300 453 301 
453 300 320 301 
301 320 454 321 
434 454 435 301 
301 320 453 454 
434 454 301 453 
435 301 454 302 
454 301 321 302 
302 321 455 322 
435 455 436 302 
302 321 454 455 
435 455 302 454 
436 302 455 303 
455 302 322 303 
304 323 457 324 
437 457 438 304 
304 323 456 457 
437 457 304 456 
438 304 457 305 
457 304 324 305 
305 324 458 325 
438 458 439 305 
305 324 457 458 
438 458 305 457 
439 305 458 306 
458 305 325 306 
306 325 459 326 
439 459 440 306 
306 325 458 459 
439 459 306 458 
440 306 459 307 
459 306 326 307 
307 326 460 327 
440 460 441 307 
307 326 459 460 
440 460 307 459 
441 307 460 308 
460 307 327 308 
308 327 461 328 
441 461 442 308 
308 327 460 461 
441 461 308 460 
442 308 461 309 
461 308 328 309 
309 328 462 329 
442 462 443 309 
309 328 461 462 
442 462 309 461 
443 309 462 310 
462 309 329 310 
310 329 463 330 
443 463 444 310 
310 329 462 463 
443 463 310 462 
444 310 463 311 
463 310 330 311 
311 330 464 331 
444 464 445 311 
311 330 463 464 
444 464 311 463 
445 311 464 312 
464 311 331 312 
312 331 465 332 
445 465 446 312 
312 331 464 465 
445 465 312 464 
446 312 465 313 
465 312 332 313 
313 332 466 333 
446 466 447 313 
313 332 465 466 
446 466 313 465 
447 313 466 314 
466 313 333 314 
314 333 467 334 
447 467 448 314 
314 333 466 467 
447 467 314 466 
448 314 467 315 
467 314 334 315 
315 334 468 335 
448 468 449 315 
315 334 467 468 
448 468 315 467 
449 315 468 316 
468 315 335 316 
316 335 469 336 
449 469 450 316 
316 335 468 469 
449 469 316 468 
450 316 469 317 
469 316 336 317 
317 336 470 337 
450 470 451 317 
317 336 469 470 
450 470 317 469 
451 317 470 318 
470 317 337 318 
318 337 471 338 
451 471 452 318 
318 337 470 471 
451 471 318 470 
452 318 471 319 
471 318 338 319 
319 338 472 339 
452 472 453 319 
319 338 471 472 
452 472 319 471 
453 319 472 320 
472 319 339 320 
320 339 473 340 
453 473 454 320 
320 339 472 473 
453 473 320 472 
454 320 473 321 
473 320 340 321 
321 340 474 341 
454 474 455 321 
321 340 473 474 
454 474 321 473 
455 321 474 322 
474 321 341 322 
323 342 476 343 
456 476 457 323 
323 342 475 476 
456 476 323 475 
457 323 476 324 
476 323 343 324 
324 343 477 344 
457 477 458 324 
324 343 476 477 
457 477 324 476 
458 324 477 325 
477 324 344 325 
325 344 478 345 
458 478 459 325 
325 344 477 478 
458 478 325 477 
459 325 478 326 
478 325 345 326 
326 345 479 346 
459 479 460 326 
326 345 478 479 
459 479 326 478 
460 326 479 327 
479 326 346 327 
327 346 480 347 
460 480 461 327 
327 346 479 480 
460 480 327 479 
461 327 480 328 
480 327 347 328 
328 347 481 348 
461 481 462 328 
328 347 480 481 
461 481 328 480 
462 328 481 329 
481 328 348 329 
329 348 482 349 
462 482 463 329 
329 348 481 482 
462 482 329 481 
463 329 482 330 
482 329 349 330 
330 349 483 350 
463 483 464 330 
330 349 482 483 
463 483 330 482 
464 330 483 331 
483 330 350 331 
331 350 484 351 
464 484 465 331 
331 350 483 484 
464 484 331 483 
465 331 484 332 
484 331 351 332 
332 351 485 352 
465 485 466 332 
332 351 484 485 
465 485 332 484 
466 332 485 333 
485 332 352 333 
333 352 486 353 
466 486 467 333 
333 352 485 486 
466 486 333 485 
467 333 486 334 
486 333 353 334 
334 353 487 354 
467 487 468 334 
334 353 486 487 
467 487 334 486 
468 334 487 335 
487 334 354 335 
335 354 488 355 
468 488 469 335 
335 354 487 488 
468 488 335 487 
469 335 488 336 
488 335 355 336 
336 355 489 356 
469 489 470 336 
336 355 488 489 
469 489 336 488 
470 336 489 337 
489 336 356 337 
337 356 490 357 
470 490 471 337 
337 356 489 490 
470 490 337 489 
471 337 490 338 
490 337 357 338 
338 357 491 358 
471 491 472 338 
338 357 490 491 
471 491 338 490 
472 338 491 339 
491 338 358 339 
339 358 492 359 
472 492 473 339 
339 358 491 492 
472 492 339 491 
473 339 492 340 
492 339 359 340 
340 359 493 360 
473 493 474 340 
340 359 492 493 
473 493 340 492 
474 340 493 341 
493 340 360 341 
342 361 495 362 
475 495 476 342 
342 361 494 495 
475 495 342 494 
476 342 495 343 
495 342 362 343 
343 362 496 363 
476 496 477 343 
343 362 495 496 
476 496 343 495 
477 343 496 344 
496 343 363 344 
344 363 497 364 
477 497 478 344 
344 363 496 497 
477 497 344 496 
478 344 497 345 
497 344 364 345 
345 364 498 365 
478 498 479 345 
345 364 497 498 
478 498 345 497 
479 345 498 346 
498 345 365 346 
346 365 499 366 
479 499 480 346 
346 365 498 499 
479 499 346 498 
480 346 499 347 
499 346 366 347 
347 366 500 367 
480 500 481 347 
347 366 499 500 
480 500 347 499 
481 347 500 348 
500 347 367 348 
348 367 501 368 
481 501 482 348 
348 367 500 501 
481 501 348 500 
482 348 501 349 
501 348 368 349 
349 368 502 369 
482 502 483 349 
349 368 501 502 
482 502 349 501 
483 349 502 350 
502 349 369 350 
350 369 503 370 
483 503 484 350 
350 369 502 503 
483 503 350 502 
484 350 503 351 
503 350 370 351 
351 370 504 371 
484 504 485 351 
351 370 503 504 
484 504 351 503 
485 351 504 352 
504 351 371 352 
352 371 505 372 
485 505 486 352 
352 371 504 505 
485 505 352 504 
486 352 505 353 
505 352 372 353 
353 372 506 373 
486 506 487 353 
353 372 505 506 
486 506 353 505 
487 353 506 354 
506 353 373 354 
354 373 507 374 
487 507 488 354 
354 373 506 507 
487 507 354 506 
488 354 507 355 
507 354 374 355 
355 374 508 375 
488 508 489 355 
355 374 507 508 
488 508 355 507 
489 355 508 356 
508 355 375 356 
356 375 509 376 
489 509 490 356 
356 375 508 509 
489 509 356 508 
490 356 509 357 
509 356 376 357 
357 376 510 377 
490 510 491 357 
357 376 509 510 
490 510 357 509 
491 357 510 358 
510 357 377 358 
358 377 511 378 
491 511 492 358 
358 377 510 511 
491 511 358 510 
492 358 511 359 
511 358 378 359 
359 378 512 379 
492 512 493 359 
359 378 511 512 
492 512 359 511 
493 359 512 360 
512 359 379 360 
361 380 514 381 
494 514 495 361 
361 380 513 514 
494 514 361 513 
495 361 514 362 
514 361 381 362 
362 381 515 382 
495 515 496 362 
362 381 514 515 
495 515 362 514 
496 362 515 363 
515 362 382 363 
363 382 516 383 
496 516 497 363 
363 382 515 516 
496 516 363 515 
497 363 516 364 
516 363 383 364 
364 383 517 384 
497 517 498 364 
364 383 516 517 
497 517 364 516 
498 364 517 365 
517 364 384 365 
365 384 518 385 
498 518 499 365 
365 384 517 518 
498 518 365 517 
499 365 518 366 
518 365 385 366 
366 385 519 386 
499 519 500 366 
366 385 518 519 
499 519 366 518 
500 366 519 367 
519 366 386 367 
367 386 520 387 
500 520 501 367 
367 386 519 520 
500 520 367 519 
501 367 520 368 
520 367 387 368 
368 387 521 388 
501 521 502 368 
368 387 520 521 
501 521 368 520 
502 368 521 369 
521 368 388 369 
369 388 522 389 
502 522 503 369 
369 388 521 522 
502 522 369 521 
503 369 522 370 
522 369 389 370 
370 389 523 390 
503 523 504 370 
370 389 522 523 
503 523 370 522 
504 370 523 371 
523 370 390 371 
371 390 524 391 
504 524 505 371 
371 390 523 524 
504 524 371 523 
505 371 524 372 
524 371 391 372 
372 391 525 392 
505 525 506 372 
372 391 524 525 
505 525 372 524 
506 372 525 373 
525 372 392 373 
373 392 526 393 
506 526 507 373 
373 392 525 526 
506 526 373 525 
507 373 526 374 
526 373 393 374 
374 393 527 394 
507 527 508 374 
374 393 526 527 
507 527 374 526 
508 374 527 375 
527 374 394 375 
375 394 528 395 
508 528 509 375 
375 394 527 528 
508 528 375 527 
509 375 528 376 
528 375 395 376 
376 395 529 396 
509 529 510 376 
376 395 528 529 
509 529 376 528 
510 376 529 377 
529 376 396 377 
377 396 530 397 
510 530 511 377 
377 396 529 530 
510 530 377 529 
511 377 530 378 
530 377 397 378 
378 397 531 398 
511 531 512 378 
378 397 530 531 
511 531 378 530 
512 378 531 379 
531 378 398 379 
399 418 552 419 
532 552 533 399 
399 418 551 552 
532 552 399 551 
533 399 552 400 
552 399 419 400 
400 419 553 420 
533 553 534 400 
400 419 552 553 
533 553 400 552 
534 400 553 401 
553 400 420 401 
401 420 554 421 
534 554 535 401 
401 420 553 554 
534 554 401 553 
535 401 554 402 
554 401 421 402 
402 421 555 422 
535 555 536 402 
402 421 554 555 
535 555 402 554 
536 402 555 403 
555 402 422 403 
403 422 556 423 
536 556 537 403 
403 422 555 556 
536 556 403 555 
537 403 556 404 
556 403 423 404 
404 423 557 424 
537 557 538 404 
404 423 556 557 
537 557 404 556 
538 404 557 405 
557 404 424 405 
405 424 558 425 
538 558 539 405 
405 424 557 558 
538 558 405 557 
539 405 558 406 
558 405 425 406 
406 425 559 426 
539 559 540 406 
406 425 558 559 
539 559 406 558 
540 406 559 407 
559 406 426 407 
407 426 560 427 
540 560 541 407 
407 426 559 560 
540 560 407 559 
541 407 560 408 
560 407 427 408 
408 427 561 428 
541 561 542 408 
408 427 560 561 
541 561 408 560 
542 408 561 409 
561 408 428 409 
409 428 562 429 
542 562 543 409 
409 428 561 562 
542 562 409 561 
543 409 562 410 
562 409 429 410 
410 429 563 430 
543 563 544 410 
410 429 562 563 
543 563 410 562 
544 410 563 411 
563 410 430 411 
411 430 564 431 
544 564 545 411 
411 430 563 564 
544 564 411 563 
545 411 564 412 
564 411 431 412 
412 431 565 432 
545 565 546 412 
412 431 564 565 
545 565 412 564 
546 412 565 413 
565 412 432 413 
413 432 566 433 
546 566 547 413 
413 432 565 566 
546 566 413 565 
547 413 566 414 
566 413 433 414 
414 433 567 434 
547 567 548 414 
414 433 566 567 
547 567 414 566 
548 414 567 415 
567 414 434 415 
415 434 568 435 
548 568 549 415 
415 434 567 568 
548 568 415 567 
549 415 568 416 
568 415 435 416 
416 435 569 436 
549 569 550 416 
416 435 568 569 
549 569 416 568 
550 416 569 417 
569 416 436 417 
418 437 571 438 
551 571 552 418 
418 437 570 571 
551 571 418 570 
552 418 571 419 
571 418 438 419 
419 438 572 439 
552 572 553 419 
419 438 571 572 
552 572 419 571 
553 419 572 420 
572 419 439 420 
420 439 573 440 
553 573 554 420 
420 439 572 573 
553 573 420 572 
554 420 573 421 
573 420 440 421 
421 440 574 441 
554 574 555 421 
421 440 573 574 
554 574 421 573 
555 421 574 422 
574 421 441 422 
422 441 575 442 
555 575 556 422 
422 441 574 575 
555 575 422 574 
556 422 575 423 
575 422 442 423 
423 442 576 443 
556 576 557 423 
423 442 575 576 
556 576 423 575 
557 423 576 424 
576 423 443 424 
424 443 577 444 
557 577 558 424 
424 443 576 577 
557 577 424 576 
558 424 577 425 
577 424 444 425 
425 444 578 445 
558 578 559 425 
425 444 577 578 
558 578 425 577 
559 425 578 426 
578 425 445 426 
426 445 579 446 
559 579 560 426 
426 445 578 579 
559 579 426 578 
560 426 579 427 
579 426 446 427 
427 446 580 447 
560 580 561 427 
427 446 579 580 
560 580 427 579 
561 427 580 428 
580 427 447 428 
428 447 581 448 
561 581 562 428 
428 447 580 581 
561 581 428 580 
562 428 581 429 
581 428 448 429 
429 448 582 449 
562 582 563 429 
429 448 581 582 
562 582 429 581 
563 429 582 430 
582 429 449 430 
430 449 583 450 
563 583 564 430 
430 449 582 583 
563 583 430 582 
564 430 583 431 
583 430 450 431 
431 450 584 451 
564 584 565 431 
431 450 583 584 
564 584 431 583 
565 431 584 432 
584 431 451 432 
432 451 585 452 
565 585 566 432 
432 451 584 585 
565 585 432 584 
566 432 585 433 
585 432 452 433 
433 452 586 453 
566 586 567 433 
433 452 585 586 
566 586 433 585 
567 433 586 434 
586 433 453 434 
434 453 587 454 
567 587 568 434 
434 453 586 587 
567 587 434 586 
568 434 587 435 
587 434 454 435 
435 454 588 455 
568 588 569 435 
435 454 587 588 
568 588 435 587 
569 435 588 436 
588 435 455 436 
437 456 590 457 
570 590 571 437 
437 456 589 590 
570 590 437 589 
571 437 590 438 
590 437 457 438 
438 457 591 458 
571 591 572 438 
438 457 590 591 
571 591 438 590 
572 438 591 439 
591 438 458 439 
439 458 592 459 
572 592 573 439 
439 458 591 592 
572 592 439 591 
573 439 592 440 
592 439 459 440 
440 459 593 460 
573 593 574 440 
440 459 592 593 
573 593 440 592 
574 440 593 441 
593 440 460 441 
441 460 594 461 
574 594 575 441 
441 460 593 594 
574 594 441 593 
575 441 594 442 
594 441 461 442 
442 461 595 462 
575 595 576 442 
442 461 594 595 
575 595 442 594 
576 442 595 443 
595 442 462 443 
443 462 596 463 
576 596 577 443 
443 462 595 596 
576 596 443 595 
577 443 596 444 
596 443 463 444 
444 463 597 464 
577 597 578 444 
444 463 596 597 
577 597 444 596 
578 444 597 445 
597 444 464 445 
445 464 598 465 
578 598 579 445 
445 464 597 598 
578 598 445 597 
579 445 598 446 
598 445 465 446 
446 465 599 466 
579 599 580 446 
446 465 598 599 
579 599 446 598 
580 446 599 447 
599 446 466 447 
447 466 600 467 
580 600 581 447 
447 466 599 600 
580 600 447 599 
581 447 600 448 
600 447 467 448 
448 467 601 468 
581 601 582 448 
448 467 600 601 
581 601 448 600 
582 448 601 449 
601 448 468 449 
449 468 602 469 
582 602 583 449 
449 468 601 602 
582 602 449 601 
583 449 602 450 
602 449 469 450 
450 469 603 470 
583 603 584 450 
450 469 602 603 
583 603 450 602 
584 450 603 451 
603 450 470 451 
451 470 604 471 
584 604 585 451 
451 470 603 604 
584 604 451 603 
585 451 604 452 
604 451 471 452 
452 471 605 472 
585 605 586 452 
452 471 604 605 
585 605 452 604 
586 452 605 453 
605 452 472 453 
453 472 606 473 
586 606 587 453 
453 472 605 606 
586 606 453 605 
587 453 606 454 
606 453 473 454 
454 473 607 474 
587 607 588 454 
454 473 606 607 
587 607 454 606 
588 454 607 455 
607 454 474 455 
456 475 609 476 
589 609 590 456 
456 475 608 609 
589 609 456 608 
590 456 609 457 
609 456 476 457 
457 476 610 477 
590 610 591 457 
457 476 609 610 
590 610 457 609 
591 457 610 458 
610 457 477 458 
458 477 611 478 
591 611 592 458 
458 477 610 611 
591 611 458 610 
592 458 611 459 
611 458 478 459 
459 478 612 479 
592 612 593 459 
459 478 611 612 
592 612 459 611 
593 459 612 460 
612 459 479 460 
460 479 613 480 
593 613 594 460 
460 479 612 613 
593 613 460 612 
594 460 613 461 
613 460 480 461 
461 480 614 481 
594 614 595 461 
461 480 613 614 
594 614 461 613 
595 461 614 462 
614 461 481 462 
462 481 615 482 
595 615 596 462 
462 481 614 615 
595 615 462 614 
596 462 615 463 
615 462 482 463 
463 482 616 483 
596 616 597 463 
463 482 615 616 
596 616 463 615 
597 463 616 464 
616 463 483 464 
464 483 617 484 
597 617 598 464 
464 483 616 617 
597 617 464 616 
598 464 617 465 
617 464 484 465 
465 484 618 485 
598 618 599 465 
465 484 617 618 
598 618 465 617 
599 465 618 466 
618 465 485 466 
466 485 619 486 
599 619 600 466 
466 485 618 619 
599 619 466 618 
600 466 619 467 
619 466 486 467 
467 486 620 487 
600 620 601 467 
467 486 619 620 
600 620 467 619 
601 467 620 468 
620 467 487 468 
468 487 621 488 
601 621 602 468 
468 487 620 621 
601 621 468 620 
602 468 621 469 
621 468 488 469 
469 488 622 489 
602 622 603 469 
469 488 621 622 
602 622 469 621 
603 469 622 470 
622 469 489 470 
470 489 623 490 
603 623 604 470 
470 489 622 623 
603 623 470 622 
604 470 623 471 
623 470 490 471 
471 490 624 491 
604 624 605 471 
471 490 623 624 
604 624 471 623 
605 471 624 472 
624 471 491 472 
472 491 625 492 
605 625 606 472 
472 491 624 625 
605 625 472 624 
606 472 625 473 
625 472 492 473 
473 492 626 493 
606 626 607 473 
473 492 625 626 
606 626 473 625 
607 473 626 474 
626 473 493 474 
475 494 628 495 
608 628 609 475 
475 494 627 628 
608 628 475 627 
609 475 628 476 
628 475 495 476 
476 495 629 496 
609 629 610 476 
476 495 628 629 
609 629 476 628 
610 476 629 477 
629 476 496 477 
477 496 630 497 
610 630 611 477 
477 496 629 630 
610 630 477 629 
611 477 630 478 
630 477 497 478 
478 497 631 498 
611 631 612 478 
478 497 630 631 
611 631 478 630 
612 478 631 479 
631 478 498 479 
479 498 632 499 
612 632 613 479 
479 498 631 632 
612 632 479 631 
613 479 632 480 
632 479 499 480 
480 499 633 500 
613 633 614 480 
480 499 632 633 
613 633 480 632 
614 480 633 481 
633 480 500 481 
481 500 634 501 
614 634 615 481 
481 500 633 634 
614 634 481 633 
615 481 634 482 
634 481 501 482 
482 501 635 502 
615 635 616 482 
482 501 634 635 
615 635 482 634 
616 482 635 483 
635 482 502 483 
483 502 636 503 
616 636 617 483 
483 502 635 636 
616 636 483 635 
617 483 636 484 
636 483 503 484 
484 503 637 504 
617 637 618 484 
484 503 636 637 
617 637 484 636 
618 484 637 485 
637 484 504 485 
485 504 638 505 
618 638 619 485 
485 504 637 638 
618 638 485 637 
619 485 638 486 
638 485 505 486 
486 505 639 506 
619 639 620 486 
486 505 638 639 
619 639 486 638 
620 486 639 487 
639 486 506 487 
487 506 640 507 
620 640 621 487 
487 506 639 640 
620 640 487 639 
621 487 640 488 
640 487 507 488 
488 507 641 508 
621 641 622 488 
488 507 640 641 
621 641 488 640 
622 488 641 489 
641 488 508 489 
489 508 642 509 
622 642 623 489 
489 508 641 642 
622 642 489 641 
623 489 642 490 
642 489 509 490 
490 509 643 510 
623 643 624 490 
490 509 642 643 
623 643 490 642 
624 490 643 491 
643 490 510 491 
491 510 644 511 
624 644 625 491 
491 510 643 644 
624 644 491 643 
625 491 644 492 
644 491 511 492 
492 511 645 512 
625 645 626 492 
492 511 644 645 
625 645 492 644 
626 492 645 493 
645 492 512 493 
494 513 647 514 
627 647 628 494 
494 513 646 647 
627 647 494 646 
628 494 647 495 
647 494 514 495 
495 514 648 515 
628 648 629 495 
495 514 647 648 
628 648 495 647 
629 495 648 496 
648 495 515 496 
496 515 649 516 
629 649 630 496 
496 515 648 649 
629 649 496 648 
630 496 649 497 
649 496 516 497 
497 516 650 517 
630 650 631 497 
497 516 649 650 
630 650 497 649 
631 497 650 498 
650 497 517 498 
498 517 651 518 
631 651 632 498 
498 517 650 651 
631 651 498 650 
632 498 651 499 
651 498 518 499 
499 518 652 519 
632 652 633 499 
499 518 651 652 
632 652 499 651 
633 499 652 500 
652 499 519 500 
500 519 653 520 
633 653 634 500 
500 519 652 653 
633 653 500 652 
634 500 653 501 
653 500 520 501 
501 520 654 521 
634 654 635 501 
501 520 653 654 
634 654 501 653 
635 501 654 502 
654 501 521 502 
502 521 655 522 
635 655 636 502 
502 521 654 655 
635 655 502 654 
636 502 655 503 
655 502 522 503 
503 522 656 523 
636 656 637 503 
503 522 655 656 
636 656 503 655 
637 503 656 504 
656 503 523 504 
504 523 657 524 
637 657 638 504 
504 523 656 657 
637 657 504 656 
638 504 657 505 
657 504 524 505 
505 524 658 525 
638 658 639 505 
505 524 657 658 
638 658 505 657 
639 505 658 506 
658 505 525 506 
506 525 659 526 
639 659 640 506 
506 525 658 659 
639 659 506 658 
640 506 659 507 
659 506 526 507 
507 526 660 527 
640 660 641 507 
507 526 659 660 
640 660 507 659 
641 507 660 508 
660 507 527 508 
508 527 661 528 
641 661 642 508 
508 527 660 661 
641 661 508 660 
642 508 661 509 
661 508 528 509 
509 528 662 529 
642 662 643 509 
509 528 661 662 
642 662 509 661 
643 509 662 510 
662 509 529 510 
510 529 663 530 
643 663 644 510 
510 529 662 663 
643 663 510 662 
644 510 663 511 
663 510 530 511 
511 530 664 531 
644 664 645 511 
511 530 663 664 
644 664 511 663 
645 511 664 512 
664 511 531 512 
532 551 685 552 
665 685 666 532 
532 551 684 685 
665 685 532 684 
666 532 685 533 
685 532 552 533 
533 552 686 553 
666 686 667 533 
533 552 685 686 
666 686 533 685 
667 533 686 534 
686 533 553 534 
534 553 687 554 
667 687 668 534 
534 553 686 687 
667 687 534 686 
668 534 687 535 
687 534 554 535 
535 554 688 555 
668 688 669 535 
535 554 687 688 
668 688 535 687 
669 535 688 536 
688 535 555 536 
536 555 689 556 
669 689 670 536 
536 555 688 689 
669 689 536 688 
670 536 689 537 
689 536 556 537 
537 556 690 557 
670 690 671 537 
537 556 689 690 
670 690 537 689 
671 537 690 538 
690 537 557 538 
538 557 691 558 
671 691 672 538 
538 557 690 691 
671 691 538 690 
672 538 691 539 
691 538 558 539 
539 558 692 559 
672 692 673 539 
539 558 691 692 
672 692 539 691 
673 539 692 540 
692 539 559 540 
540 559 693 560 
673 693 674 540 
540 559 692 693 
673 693 540 692 
674 540 693 541 
693 540 560 541 
541 560 694 561 
674 694 675 541 
541 560 693 694 
674 694 541 693 
675 541 694 542 
694 541 561 542 
542 561 695 562 
675 695 676 542 
542 561 694 695 
675 695 542 694 
676 542 695 543 
695 542 562 543 
543 562 696 563 
676 696 677 543 
543 562 695 696 
676 696 543 695 
677 543 696 544 
696 543 563 544 
544 563 697 564 
677 697 678 544 
544 563 696 697 
677 697 544 696 
678 544 697 545 
697 544 564 545 
545 564 698 565 
678 698 679 545 
545 564 697 698 
678 698 545 697 
679 545 698 546 
698 545 565 546 
546 565 699 566 
679 699 680 546 
546 565 698 699 
679 699 546 698 
680 546 699 547 
699 546 566 547 
547 566 700 567 
680 700 681 547 
547 566 699 700 
680 700 547 699 
681 547 700 548 
700 547 567 548 
548 567 701 568 
681 701 682 548 
548 567 700 701 
681 701 548 700 
682 548 701 549 
701 548 568 549 
549 568 702 569 
682 702 683 549 
549 568 701 702 
682 702 549 701 
683 549 702 550 
702 549 569 550 
551 570 704 571 
684 704 685 551 
551 570 703 704 
684 704 551 703 
685 551 704 552 
704 551 571 552 
552 571 705 572 
685 705 686 552 
552 571 704 705 
685 705 552 704 
686 552 705 553 
705 552 572 553 
553 572 706 573 
686 706 687 553 
553 572 705 706 
686 706 553 705 
687 553 706 554 
706 553 573 554 
554 573 707 574 
687 707 688 554 
554 573 706 707 
687 707 554 706 
688 554 707 555 
707 554 574 555 
555 574 708 575 
688 708 689 555 
555 574 707 708 
688 708 555 707 
689 555 708 556 
708 555 575 556 
556 575 709 576 
689 709 690 556 
556 575 708 709 
689 709 556 708 
690 556 709 557 
709 556 576 557 
557 576 710 577 
690 710 691 557 
557 576 709 710 
690 710 557 709 
691 557 710 558 
710 557 577 558 
558 577 711 578 
691 711 692 558 
558 577 710 711 
691 711 558 710 
692 558 711 559 
711 558 578 559 
559 578 712 579 
692 712 693 559 
559 578 711 712 
692 712 559 711 
693 559 712 560 
712 559 579 560 
560 579 713 580 
693 713 694 560 
560 579 712 713 
693 713 560 712 
694 560 713 561 
713 560 580 561 
561 580 714 581 
694 714 695 561 
561 580 713 714 
694 714 561 713 
695 561 714 562 
714 561 581 562 
562 581 715 582 
695 715 696 562 
562 581 714 715 
695 715 562 714 
696 562 715 563 
715 562 582 563 
563 582 716 583 
696 716 697 563 
563 582 715 716 
696 716 563 715 
697 563 716 564 
716 563 583 564 
564 583 717 584 
697 717 698 564 
564 583 716 717 
697 717 564 716 
698 564 717 565 
717 564 584 565 
565 584 718 585 
698 718 699 565 
565 584 717 718 
698 718 565 717 
699 565 718 566 
718 565 585 566 
566 585 719 586 
699 719 700 566 
566 585 718 719 
699 719 566 718 
700 566 719 567 
719 566 586 567 
567 586 720 587 
700 720 701 567 
567 586 719 720 
700 720 567 719 
701 567 720 568 
720 567 587 568 
568 587 721 588 
701 721 702 568 
568 587 720 721 
701 721 568 720 
702 568 721 569 
721 568 588 569 
570 589 723 590 
703 723 704 570 
570 589 722 723 
703 723 570 722 
704 570 723 571 
723 570 590 571 
571 590 724 591 
704 724 705 571 
571 590 723 724 
704 724 571 723 
705 571 724 572 
724 571 591 572 
572 591 725 592 
705 725 706 572 
572 591 724 725 
705 725 572 724 
706 572 725 573 
725 572 592 573 
573 592 726 593 
706 726 707 573 
573 592 725 726 
706 726 573 725 
707 573 726 574 
726 573 593 574 
574 593 727 594 
707 727 708 574 
574 593 726 727 
707 727 574 726 
708 574 727 575 
727 574 594 575 
575 594 728 595 
708 728 709 575 
575 594 727 728 
708 728 575 727 
709 575 728 576 
728 575 595 576 
576 595 729 596 
709 729 710 576 
576 595 728 729 
709 729 576 728 
710 576 729 577 
729 576 596 577 
577 596 730 597 
710 730 711 577 
577 596 729 730 
710 730 577 729 
711 577 730 578 
730 577 597 578 
578 597 731 598 
711 731 712 578 
578 597 730 731 
711 731 578 730 
712 578 731 579 
731 578 598 579 
579 598 732 599 
712 732 713 579 
579 598 731 732 
712 732 579 731 
713 579 732 580 
732 579 599 580 
580 599 733 600 
713 733 714 580 
580 599 732 733 
713 733 580 732 
714 580 733 581 
733 580 600 581 
581 600 734 601 
714 734 715 581 
581 600 733 734 
714 734 581 733 
715 581 734 582 
734 581 601 582 
582 601 735 602 
715 735 716 582 
582 601 734 735 
715 735 582 734 
716 582 735 583 
735 582 602 583 
583 602 736 603 
716 736 717 583 
583 602 735 736 
716 736 583 735 
717 583 736 584 
736 583 603 584 
584 603 737 604 
717 737 718 584 
584 603 736 737 
717 737 584 736 
718 584 737 585 
737 584 604 585 
585 604 738 605 
718 738 719 585 
585 604 737 738 
718 738 585 737 
719 585 738 586 
738 585 605 586 
586 605 739 606 
719 739 720 586 
586 605 738 739 
719 739 586 738 
720 586 739 587 
739 586 606 587 
587 606 740 607 
720 740 721 587 
587 606 739 740 
720 740 587 739 
721 587 740 588 
740 587 607 588 
589 608 742 609 
722 742 723 589 
589 608 741 742 
722 742 589 741 
723 589 742 590 
742 589 609 590 
590 609 743 610 
723 743 724 590 
590 609 742 743 
723 743 590 742 
724 590 743 591 
743 590 610 591 
591 610 744 611 
724 744 725 591 
591 610 743 744 
724 744 591 743 
725 591 744 592 
744 591 611 592 
592 611 745 612 
725 745 726 592 
592 611 744 745 
725 745 592 744 
726 592 745 593 
745 592 612 593 
593 612 746 613 
726 746 727 593 
593 612 745 746 
726 746 593 745 
727 593 746 594 
746 593 613 594 
594 613 747 614 
727 747 728 594 
594 613 746 747 
727 747 594 746 
728 594 747 595 
747 594 614 595 
595 614 748 615 
728 748 729 595 
595 614 747 748 
728 748 595 747 
729 595 748 596 
748 595 615 596 
596 615 749 616 
729 749 730 596 
596 615 748 749 
729 749 596 748 
730 596 749 597 
749 596 616 597 
597 616 750 617 
730 750 731 597 
597 616 749 750 
730 750 597 749 
731 597 750 598 
750 597 617 598 
598 617 751 618 
731 751 732 598 
598 617 750 751 
731 751 598 750 
732 598 751 599 
751 598 618 599 
599 618 752 619 
732 752 733 599 
599 618 751 752 
732 752 599 751 
733 599 752 600 
752 599 619 600 
600 619 753 620 
733 753 734 600 
600 619 752 753 
733 753 600 752 
734 600 753 601 
753 600 620 601 
601 620 754 621 
734 754 735 601 
601 620 753 754 
734 754 601 753 
735 601 754 602 
754 601 621 602 
602 621 755 622 
735 755 736 602 
602 621 754 755 
735 755 602 754 
736 602 755 603 
755 602 622 603 
603 622 756 623 
736 756 737 603 
603 622 755 756 
736 756 603 755 
737 603 756 604 
756 603 623 604 
604 623 757 624 
737 757 738 604 
604 623 756 757 
737 757 604 756 
738 604 757 605 
757 604 624 605 
605 624 758 625 
738 758 739 605 
605 624 757 758 
738 758 605 757 
739 605 758 606 
758 605 625 606 
606 625 759 626 
739 759 740 606 
606 625 758 759 
739 759 606 758 
740 606 759 607 
759 606 626 607 
608 627 761 628 
741 761 742 608 
608 627 760 761 
741 761 608 760 
742 608 761 609 
761 608 628 609 
609 628 762 629 
742 762 743 609 
609 628 761 762 
742 762 609 761 
743 609 762 610 
762 609 629 610 
610 629 763 630 
743 763 744 610 
610 629 762 763 
743 763 610 762 
744 610 763 611 
763 610 630 611 
611 630 764 631 
744 764 745 611 
611 630 763 764 
744 764 611 763 
745 611 764 612 
764 611 631 612 
612 631 765 632 
745 765 746 612 
612 631 764 765 
745 765 612 764 
746 612 765 613 
765 612 632 613 
613 632 766 633 
746 766 747 613 
613 632 765 766 
746 766 613 765 
747 613 766 614 
766 613 633 614 
614 633 767 634 
747 767 748 614 
614 633 766 767 
747 767 614 766 
748 614 767 615 
767 614 634 615 
615 634 768 635 
748 768 749 615 
615 634 767 768 
748 768 615 767 
749 615 768 616 
768 615 635 616 
616 635 769 636 
749 769 750 616 
616 635 768 769 
749 769 616 768 
750 616 769 617 
769 616 636 617 
617 636 770 637 
750 770 751 617 
617 636 769 770 
750 770 617 769 
751 617 770 618 
770 617 637 618 
618 637 771 638 
751 771 752 618 
618 637 770 771 
751 771 618 770 
752 618 771 619 
771 618 638 619 
619 638 772 639 
752 772 753 619 
619 638 771 772 
752 772 619 771 
753 619 772 620 
772 619 639 620 
620 639 773 640 
753 773 754 620 
620 639 772 773 
753 773 620 772 
754 620 773 621 
773 620 640 621 
621 640 774 641 
754 774 755 621 
621 640 773 774 
754 774 621 773 
755 621 774 622 
774 621 641 622 
622 641 775 642 
755 775 756 622 
622 641 774 775 
755 775 622 774 
756 622 775 623 
775 622 642 623 
623 642 776 643 
756 776 757 623 
623 642 775 776 
756 776 623 775 
757 623 776 624 
776 623 643 624 
624 643 777 644 
757 777 758 624 
624 643 776 777 
757 777 624 776 
758 624 777 625 
777 624 644 625 
625 644 778 645 
758 778 759 625 
625 644 777 778 
758 778 625 777 
759 625 778 626 
778 625 645 626 
627 646 780 647 
760 780 761 627 
627 646 779 780 
760 780 627 779 
761 627 780 628 
780 627 647 628 
628 647 781 648 
761 781 762 628 
628 647 780 781 
761 781 628 780 
762 628 781 629 
781 628 648 629 
629 648 782 649 
762 782 763 629 
629 648 781 782 
762 782 629 781 
763 629 782 630 
782 629 649 630 
630 649 783 650 
763 783 764 630 
630 649 782 783 
763 783 630 782 
764 630 783 631 
783 630 650 631 
631 650 784 651 
764 784 765 631 
631 650 783 784 
764 784 631 783 
765 631 784 632 
784 631 651 632 
632 651 785 652 
765 785 766 632 
632 651 784 785 
765 785 632 784 
766 632 785 633 
785 632 652 633 
633 652 786 653 
766 786 767 633 
633 652 785 786 
766 786 633 785 
767 633 786 634 
786 633 653 634 
634 653 787 654 
767 787 768 634 
634 653 786 787 
767 787 634 786 
768 634 787 635 
787 634 654 635 
635 654 788 655 
768 788 769 635 
635 654 787 788 
768 788 635 787 
769 635 788 636 
788 635 655 636 
636 655 789 656 
769 789 770 636 
636 655 788 789 
769 789 636 788 
770 636 789 637 
789 636 656 637 
637 656 790 657 
770 790 771 637 
637 656 789 790 
770 790 637 789 
771 637 790 638 
790 637 657 638 
638 657 791 658 
771 791 772 638 
638 657 790 791 
771 791 638 790 
772 638 791 639 
791 638 658 639 
639 658 792 659 
772 792 773 639 
639 658 791 792 
772 792 639 791 
773 639 792 640 
792 639 659 640 
640 659 793 660 
773 793 774 640 
640 659 792 793 
773 793 640 792 
774 640 793 641 
793 640 660 641 
641 660 794 661 
774 794 775 641 
641 660 793 794 
774 794 641 793 
775 641 794 642 
794 641 661 642 
642 661 795 662 
775 795 776 642 
642 661 794 795 
775 795 642 794 
776 642 795 643 
795 642 662 643 
643 662 796 663 
776 796 777 643 
643 662 795 796 
776 796 643 795 
777 643 796 644 
796 643 663 644 
644 663 797 664 
777 797 778 644 
644 663 796 797 
777 797 644 796 
778 644 797 645 
797 644 664 645 
665 684 818 685 
798 818 799 665 
665 684 817 818 
798 818 665 817 
799 665 818 666 
818 665 685 666 
666 685 819 686 
799 819 800 666 
666 685 818 819 
799 819 666 818 
800 666 819 667 
819 666 686 667 
667 686 820 687 
800 820 801 667 
667 686 819 820 
800 820 667 819 
801 667 820 668 
820 667 687 668 
668 687 821 688 
801 821 802 668 
668 687 820 821 
801 821 668 820 
802 668 821 669 
821 668 688 669 
669 688 822 689 
802 822 803 669 
669 688 821 822 
802 822 669 821 
803 669 822 670 
822 669 689 670 
670 689 823 690 
803 823 804 670 
670 689 822 823 
803 823 670 822 
804 670 823 671 
823 670 690 671 
671 690 824 691 
804 824 805 671 
671 690 823 824 
804 824 671 823 
805 671 824 672 
824 671 691 672 
672 691 825 692 
805 825 806 672 
672 691 824 825 
805 825 672 824 
806 672 825 673 
825 672 692 673 
673 692 826 693 
806 826 807 673 
673 692 825 826 
806 826 673 825 
807 673 826 674 
826 673 693 674 
674 693 827 694 
807 827 808 674 
674 693 826 827 
807 827 674 826 
808 674 827 675 
827 674 694 675 
675 694 828 695 
808 828 809 675 
675 694 827 828 
808 828 675 827 
809 675 828 676 
828 675 695 676 
676 695 829 696 
809 829 810 676 
676 695 828 829 
809 829 676 828 
810 676 829 677 
829 676 696 677 
677 696 830 697 
810 830 811 677 
677 696 829 830 
810 830 677 829 
811 677 830 678 
830 677 697 678 
678 697 831 698 
811 831 812 678 
678 697 830 831 
811 831 678 830 
812 678 831 679 
831 678 698 679 
679 698 832 699 
812 832 813 679 
679 698 831 832 
812 832 679 831 
813 679 832 680 
832 679 699 680 
680 699 833 700 
813 833 814 680 
680 699 832 833 
813 833 680 832 
814 680 833 681 
833 680 700 681 
681 700 834 701 
814 834 815 681 
681 700 833 834 
814 834 681 833 
815 681 834 682 
834 681 701 682 
682 701 835 702 
815 835 816 682 
682 701 834 835 
815 835 682 834 
816 682 835 683 
835 682 702 683 
684 703 837 704 
817 837 818 684 
684 703 836 837 
817 837 684 836 
818 684 837 685 
837 684 704 685 
685 704 838 705 
818 838 819 685 
685 704 837 838 
818 838 685 837 
819 685 838 686 
838 685 705 686 
686 705 839 706 
819 839 820 686 
686 705 838 839 
819 839 686 838 
820 686 839 687 
839 686 706 687 
687 706 840 707 
820 840 821 687 
687 706 839 840 
820 840 687 839 
821 687 840 688 
840 687 707 688 
688 707 841 708 
821 841 822 688 
688 707 840 841 
821 841 688 840 
822 688 841 689 
841 688 708 689 
689 708 842 709 
822 842 823 689 
689 708 841 842 
822 842 689 841 
823 689 842 690 
842 689 709 690 
690 709 843 710 
823 843 824 690 
690 709 842 843 
823 843 690 842 
824 690 843 691 
843 690 710 691 
691 710 844 711 
824 844 825 691 
691 710 843 844 
824 844 691 843 
825 691 844 692 
844 691 711 692 
692 711 845 712 
825 845 826 692 
692 711 844 845 
825 845 692 844 
826 692 845 693 
845 692 712 693 
693 712 846 713 
826 846 827 693 
693 712 845 846 
826 846 693 845 
827 693 846 694 
846 693 713 694 
694 713 847 714 
827 847 828 694 
694 713 846 847 
827 847 694 846 
828 694 847 695 
847 694 714 695 
695 714 848 715 
828 848 829 695 
695 714 847 848 
828 848 695 847 
829 695 848 696 
848 695 715 696 
696 715 849 716 
829 849 830 696 
696 715 848 849 
829 849 696 848 
830 696 849 697 
849 696 716 697 
697 716 850 717 
830 850 831 697 
697 716 849 850 
830 850 697 849 
831 697 850 698 
850 697 717 698 
698 717 851 718 
831 851 832 698 
698 717 850 851 
831 851 698 850 
832 698 851 699 
851 698 718 699 
699 718 852 719 
832 852 833 699 
699 718 851 852 
832 852 699 851 
833 699 852 700 
852 699 719 700 
700 719 853 720 
833 853 834 700 
700 719 852 853 
833 853 700 852 
834 700 853 701 
853 700 720 701 
701 720 854 721 
834 854 835 701 
701 720 853 854 
834 854 701 853 
835 701 854 702 
854 701 721 702 
703 722 856 723 
836 856 837 703 
703 722 855 856 
836 856 703 855 
837 703 856 704 
856 703 723 704 
704 723 857 724 
837 857 838 704 
704 723 856 857 
837 857 704 856 
838 704 857 705 
857 704 724 705 
705 724 858 725 
838 858 839 705 
705 724 857 858 
838 858 705 857 
839 705 858 706 
858 705 725 706 
706 725 859 726 
839 859 840 706 
706 725 858 859 
839 859 706 858 
840 706 859 707 
859 706 726 707 
707 726 860 727 
840 860 841 707 
707 726 859 860 
840 860 707 859 
841 707 860 708 
860 707 727 708 
708 727 861 728 
841 861 842 708 
708 727 860 861 
841 861 708 860 
842 708 861 709 
861 708 728 709 
709 728 862 729 
842 862 843 709 
709 728 861 862 
842 862 709 861 
843 709 862 710 
862 709 729 710 
710 729 863 730 
843 863 844 710 
710 729 862 863 
843 863 710 862 
844 710 863 711 
863 710 730 711 
711 730 864 731 
844 864 845 711 
711 730 863 864 
844 864 711 863 
845 711 864 712 
864 711 731 712 
712 731 865 732 
845 865 846 712 
712 731 864 865 
845 865 712 864 
846 712 865 713 
865 712 732 713 
713 732 866 733 
846 866 847 713 
713 732 865 866 
846 866 713 865 
847 713 866 714 
866 713 733 714 
714 733 867 734 
847 867 848 714 
714 733 866 867 
847 867 714 866 
848 714 867 715 
867 714 734 715 
715 734 868 735 
848 868 849 715 
715 734 867 868 
848 868 715 867 
849 715 868 716 
868 715 735 716 
716 735 869 736 
849 869 850 716 
716 735 868 869 
849 869 716 868 
850 716 869 717 
869 716 736 717 
717 736 870 737 
850 870 851 717 
717 736 869 870 
850 870 717 869 
851 717 870 718 
870 717 737 718 
718 737 871 738 
851 871 852 718 
718 737 870 871 
851 871 718 870 
852 718 871 719 
871 718 738 719 
719 738 872 739 
852 872 853 719 
719 738 871 872 
852 872 719 871 
853 719 872 720 
872 719 739 720 
720 739 873 740 
853 873 854 720 
720 739 872 873 
853 873 720 872 
854 720 873 721 
873 720 740 721 
722 741 875 742 
855 875 856 722 
722 741 874 875 
855 875 722 874 
856 722 875 723 
875 722 742 723 
723 742 876 743 
856 876 857 723 
723 742 875 876 
856 876 723 875 
857 723 876 724 
876 723 743 724 
724 743 877 744 
857 877 858 724 
724 743 876 877 
857 877 724 876 
858 724 877 725 
877 724 744 725 
725 744 878 745 
858 878 859 725 
725 744 877 878 
858 878 725 877 
859 725 878 726 
878 725 745 726 
726 745 879 746 
859 879 860 726 
726 745 878 879 
859 879 726 878 
860 726 879 727 
879 726 746 727 
727 746 880 747 
860 880 861 727 
727 746 879 880 
860 880 727 879 
861 727 880 728 
880 727 747 728 
728 747 881 748 
861 881 862 728 
728 747 880 881 
861 881 728 880 
862 728 881 729 
881 728 748 729 
729 748 882 749 
862 882 863 729 
729 748 881 882 
862 882 729 881 
863 729 882 730 
882 729 749 730 
730 749 883 750 
863 883 864 730 
730 749 882 883 
863 883 730 882 
864 730 883 731 
883 730 750 731 
731 750 884 751 
864 884 865 731 
731 750 883 884 
864 884 731 883 
865 731 884 732 
884 731 751 732 
732 751 885 752 
865 885 866 732 
732 751 884 885 
865 885 732 884 
866 732 885 733 
885 732 752 733 
733 752 886 753 
866 886 867 733 
733 752 885 886 
866 886 733 885 
867 733 886 734 
886 733 753 734 
734 753 887 754 
867 887 868 734 
734 753 886 887 
867 887 734 886 
868 734 887 735 
887 734 754 735 
735 754 888 755 
868 888 869 735 
735 754 887 888 
868 888 735 887 
869 735 888 736 
888 735 755 736 
736 755 889 756 
869 889 870 736 
736 755 888 889 
869 889 736 888 
870 736 889 737 
889 736 756 737 
737 756 890 757 
870 890 871 737 
737 756 889 890 
870 890 737 889 
871 737 890 738 
890 737 757 738 
738 757 891 758 
871 891 872 738 
738 757 890 891 
871 891 738 890 
872 738 891 739 
891 738 758 739 
739 758 892 759 
872 892 873 739 
739 758 891 892 
872 892 739 891 
873 739 892 740 
892 739 759 740 
741 760 894 761 
874 894 875 741 
741 760 893 894 
874 894 741 893 
875 741 894 742 
894 741 761 742 
742 761 895 762 
875 895 876 742 
742 761 894 895 
875 895 742 894 
876 742 895 743 
895 742 762 743 
743 762 896 763 
876 896 877 743 
743 762 895 896 
876 896 743 895 
877 743 896 744 
896 743 763 744 
744 763 897 764 
877 897 878 744 
744 763 896 897 
877 897 744 896 
878 744 897 745 
897 744 764 745 
745 764 898 765 
878 898 879 745 
745 764 897 898 
878 898 745 897 
879 745 898 746 
898 745 765 746 
746 765 899 766 
879 899 880 746 
746 765 898 899 
879 899 746 898 
880 746 899 747 
899 746 766 747 
747 766 900 767 
880 900 881 747 
747 766 899 900 
880 900 747 899 
881 747 900 748 
900 747 767 748 
748 767 901 768 
881 901 882 748 
748 767 900 901 
881 901 748 900 
882 748 901 749 
901 748 768 749 
749 768 902 769 
882 902 883 749 
749 768 901 902 
882 902 749 901 
883 749 902 750 
902 749 769 750 
750 769 903 770 
883 903 884 750 
750 769 902 903 
883 903 750 902 
884 750 903 751 
903 750 770 751 
751 770 904 771 
884 904 885 751 
751 770 903 904 
884 904 751 903 
885 751 904 752 
904 751 771 752 
752 771 905 772 
885 905 886 752 
752 771 904 905 
885 905 752 904 
886 752 905 753 
905 752 772 753 
753 772 906 773 
886 906 887 753 
753 772 905 906 
886 906 753 905 
887 753 906 754 
906 753 773 754 
754 773 907 774 
887 907 888 754 
754 773 906 907 
887 907 754 906 
888 754 907 755 
907 754 774 755 
755 774 908 775 
888 908 889 755 
755 774 907 908 
888 908 755 907 
889 755 908 756 
908 755 775 756 
756 775 909 776 
889 909 890 756 
756 775 908 909 
889 909 756 908 
890 756 909 757 
909 756 776 757 
757 776 910 777 
890 910 891 757 
757 776 909 910 
890 910 757 909 
891 757 910 758 
910 757 777 758 
758 777 911 778 
891 911 892 758 
758 777 910 911 
891 911 758 910 
892 758 911 759 
911 758 778 759 
760 779 913 780 
893 913 894 760 
760 779 912 913 
893 913 760 912 
894 760 913 761 
913 760 780 761 
761 780 914 781 
894 914 895 761 
761 780 913 914 
894 914 761 913 
895 761 914 762 
914 761 781 762 
762 781 915 782 
895 915 896 762 
762 781 914 915 
895 915 762 914 
896 762 915 763 
915 762 782 763 
763 782 916 783 
896 916 897 763 
763 782 915 916 
896 916 763 915 
897 763 916 764 
916 763 783 764 
764 783 917 784 
897 917 898 764 
764 783 916 917 
897 917 764 916 
898 764 917 765 
917 764 784 765 
765 784 918 785 
898 918 899 765 
765 784 917 918 
898 918 765 917 
899 765 918 766 
918 765 785 766 
766 785 919 786 
899 919 900 766 
766 785 918 919 
899 919 766 918 
900 766 919 767 
919 766 786 767 
767 786 920 787 
900 920 901 767 
767 786 919 920 
900 920 767 919 
901 767 920 768 
920 767 787 768 
768 787 921 788 
901 921 902 768 
768 787 920 921 
901 921 768 920 
902 768 921 769 
921 768 788 769 
769 788 922 789 
902 922 903 769 
769 788 921 922 
902 922 769 921 
903 769 922 770 
922 769 789 770 
770 789 923 790 
903 923 904 770 
770 789 922 923 
903 923 770 922 
904 770 923 771 
923 770 790 771 
771 790 924 791 
904 924 905 771 
771 790 923 924 
904 924 771 923 
905 771 924 772 
924 771 791 772 
772 791 925 792 
905 925 906 772 
772 791 924 925 
905 925 772 924 
906 772 925 773 
925 772 792 773 
773 792 926 793 
906 926 907 773 
773 792 925 926 
906 926 773 925 
907 773 926 774 
926 773 793 774 
774 793 927 794 
907 927 908 774 
774 793 926 927 
907 927 774 926 
908 774 927 775 
927 774 794 775 
775 794 928 795 
908 928 909 775 
775 794 927 928 
908 928 775 927 
909 775 928 776 
928 775 795 776 
776 795 929 796 
909 929 910 776 
776 795 928 929 
909 929 776 928 
910 776 929 777 
929 776 796 777 
777 796 930 797 
910 930 911 777 
777 796 929 930 
910 930 777 929 
911 777 930 778 
930 777 797 778 
CELL_TYPES 3888
10 10 10 10 10 10 10 10 10 10 10 10 10 10 10 10 10 10 10 10 10 10 10 10 10 10 10 10 10 10 10 10 10 10 10 10 10 10 10 10 10 10 10 10 10 10 10 10 10 10 10 10 10 10 10 10 10 10 10 10 10 10 10 10 10 10 10 10 10 10 10 10 10 10 10 10 10 10 10 10 10 10 10 10 10 10 10 10 10 10 10 10 10 10 10 10 10 10 10 10 10 10 10 10 10 10 10 10 10 10 10 10 10 10 10 10 10 10 10 10 10 10 10 10 10 10 10 10 10 10 10 10 10 10 10 10 10 10 10 10 10 10 10 10 10 10 10 10 10 10 10 10 10 10 10 10 10 10 10 10 10 10 10 10 10 10 10 10 10 10 10 10 10 10 10 10 10 10 10 10 10 10 10 10 10 10 10 10 10 10 10 10 10 10 10 10 10 10 10 10 10 10 10 10 10 10 10 10 10 10 10 10 10 10 10 10 10 10 10 10 10 10 10 10 10 10 10 10 10 10 10 10 10 10 10 10 10 10 10 10 10 10 10 10 10 10 10 10 10 10 10 10 10 10 10 10 10 10 10 10 10 10 10 10 10 10 10 10 10 10 10 10 10 10 10 10 10 10 10 10 10 10 10 10 10 10 10 10 10 10 10 10 10 10 10 10 10 10 10 10 10 10 10 10 10 10 10 10 10 10 10 10 10 10 10 10 10 10 10 10 10 10 10 10 10 10 10 10 10 10 10 10 10 10 10 10 10 10 10 10 10 10 10 10 10 10 10 10 10 10 10 10 10 10 10 10 10 10 10 10 10 10 10 10 10 10 10 10 10 10 10 10 10 10 10 10 10 10 10 10 10 10 10 10 10 10 10 10 10 10 10 10 10 10 10 10 10 10 10 10 10 10 10 10 10 10 10 10 10 10 10 10 10 10 10 10 10 10 10 10 10 10 10 10 10 10 10 10 10 10 10 10 10 10 10 10 10 10 10 10 10 10 10 10 10 10 10 10 10 10 10 10 10 10 10 10 10 10 10 10 10 10 10 10 10 10 10 10 10 10 10 10 10 10 10 10 10 10 10 10 10 10 10 10 10 10 10 10 10 10 10 10 10 10 10 10 10 10 10 10 10 10 10 10 10 10 10 10 10 10 10 10 10 10 10 10 10 10 10 10 10 10 10 10 10 10 10 10 10 10 10 10 10 10 10 10 10 10 10 10 10 10 10 10 10 10 10 10 10 10 10 10 10 10 10 10 10 10 10 10 10 10 10 10 10 10 10 10 10 10 10 10 10 10 10 10 10 10 10 10 10 10 10 10 10 10 10 10 10 10 10 10 10 10 10 10 10 10 10 10 10 10 10 10 10 10 10 10 10 10 10 10 10 10 10 10 10 10 10 10 10 10 10 10 10 10 10 10 10 10 10 10 10 10 10 10 10 10 10 10 10 10 10 10 10 10 10 10 10 10 10 10 10 10 10 10 10 10 10 10 10 10 10 10 10 10 10 10 10 10 10 10 10 10 10 10 10 10 10 10 10 10 10 10 10 10 10 10 10 10 10 10 10 10 10 10 10 10 10 10 10 10 10 10 10 10 10 10 10 10 10 10 10 10 10 10 10 10 10 10 10 10 10 10 10 10 10 10 10 10 10 10 10 10 10 10 10 10 10 10 10 10 10 10 10 10 10 10 10 10 10 10 10 10 10 10 10 10 10 10 10 10 10 10 10 10 10 10 10 10 10 10 10 10 10 10 10 10 10 10 10 10 10 10 10 10 10 10 10 10 10 10 10 10 10 10 10 10 10 10 10 10 10 10 10 10 10 10 10 10 10 10 10 10 10 10 10 10 10 10 10 10 10 10 10 10 10 10 10 10 10 10 10 10 10 10 10 10 10 10 10 10 10 10 10 10 10 10 10 10 10 10 10 10 10 10 10 10 10 10 10 10 10 10 10 10 10 10 10 10 10 10 10 10 10 10 10 10 10 10 10 10 10 10 10 10 10 10 10 10 10 10 10 10 10 10 10 10 10 10 10 10 10 10 10 10 10 10 10 10 10 10 10 10 10 10 10 10 10 10 10 10 10 10 10 10 10 10 10 10 10 10 10 10 10 10 10 10 10 10 10 10 10 10 10 10 10 10 10 10 10 10 10 10 10 10 10 10 10 10 10 10 10 10 10 10 10 10 10 10 10 10 10 10 10 10 10 10 10 10 10 10 10 10 10 10 10 10 10 10 10 10 10 10 10 10 10 10 10 10 10 10 10 10 10 10 10 10 10 10 10 10 10 10 10 10 10 10 10 10 10 10 10 10 10 10 10 10 10 10 10 10 10 10 10 10 10 10 10 10 10 10 10 10 10 10 10 10 10 10 10 10 10 10 10 10 10 10 10 10 10 10 10 10 10 10 10 10 10 10 10 10 10 10 10 10 10 10 10 10 10 10 10 10 10 10 10 10 10 10 10 10 10 10 10 10 10 10 10 10 10 10 10 10 10 10 10 10 10 10 10 10 10 10 10 10 10 10 10 10 10 10 10 10 10 10 10 10 10 10 10 10 10 10 10 10 10 10 10 10 10 10 10 10 10 10 10 10 10 10 10 10 10 10 10 10 10 10 10 10 10 10 10 10 10 10 10 10 10 10 10 10 10 10 10 10 10 10 10 10 10 10 10 10 10 10 10 10 10 10 10 10 10 10 10 10 10 10 10 10 10 10 10 10 10 10 10 10 10 10 10 10 10 10 10 10 10 10 10 10 10 10 10 10 10 10 10 10 10 10 10 10 10 10 10 10 10 10 10 10 10 10 10 10 10 10 10 10 10 10 10 10 10 10 10 10 10 10 10 10 10 10 10 10 10 10 10 10 10 10 10 10 10 10 10 10 10 10 10 10 10 10 10 10 10 10 10 10 10 10 10 10 10 10 10 10 10 10 10 10 10 10 10 10 10 10 10 10 10 10 10 10 10 10 10 10 10 10 10 10 10 10 10 10 10 10 10 10 10 10 10 10 10 10 10 10 10 10 10 10 10 10 10 10 10 10 10 10 10 10 10 10 10 10 10 10 10 10 10 10 10 10 10 10 10 10 10 10 10 10 10 10 10 10 10 10 10 10 10 10 10 10 10 10 10 10 10 10 10 10 10 10 10 10 10 10 10 10 10 10 10 10 10 10 10 10 10 10 10 10 10 10 10 10 10 10 10 10 10 10 10 10 10 10 10 10 10 10 10 10 10 10 10 10 10 10 10 10 10 10 10 10 10 10 10 10 10 10 10 10 10 10 10 10 10 10 10 10 10 10 10 10 10 10 10 10 10 10 10 10 10 10 10 10 10 10 10 10 10 10 10 10 10 10 10 10 10 10 10 10 10 10 10 10 10 10 10 10 10 10 10 10 10 10 10 10 10 10 10 10 10 10 10 10 10 10 10 10 10 10 10 10 10 10 10 10 10 10 10 10 10 10 10 10 10 10 10 10 10 10 10 10 10 10 10 10 10 10 10 10 10 10 10 10 10 10 10 10 10 10 10 10 10 10 10 10 10 10 10 10 10 10 10 10 10 10 10 10 10 10 10 10 10 10 10 10 10 10 10 10 10 10 10 10 10 10 10 10 10 10 10 10 10 10 10 10 10 10 10 10 10 10 10 10 10 10 10 10 10 10 10 10 10 10 10 10 10 10 10 10 10 10 10 10 10 10 10 10 10 10 10 10 10 10 10 10 10 10 10 10 10 10 10 10 10 10 10 10 10 10 10 10 10 10 10 10 10 10 10 10 10 10 10 10 10 10 10 10 10 10 10 10 10 10 10 10 10 10 10 10 10 10 10 10 10 10 10 10 10 10 10 10 10 10 10 10 10 10 10 10 10 10 10 10 10 10 10 10 10 10 10 10 10 10 10 10 10 10 10 10 10 10 10 10 10 10 10 10 10 10 10 10 10 10 10 10 10 10 10 10 10 10 10 10 10 10 10 10 10 10 10 10 10 10 10 10 10 10 10 10 10 10 10 10 10 10 10 10 10 10 10 10 10 10 10 10 10 10 10 10 10 10 10 10 10 10 10 10 10 10 10 10 10 10 10 10 10 10 10 10 10 10 10 10 10 10 10 10 10 10 10 10 10 10 10 10 10 10 10 10 10 10 10 10 10 10 10 10 10 10 10 10 10 10 10 10 10 10 10 10 10 10 10 10 10 10 10 10 10 10 10 10 10 10 10 10 10 10 10 10 10 10 10 10 10 10 10 10 10 10 10 10 10 10 10 10 10 10 10 10 10 10 10 10 10 10 10 10 10 10 10 10 10 10 10 10 10 10 10 10 10 10 10 10 10 10 10 10 10 10 10 10 10 10 10 10 10 10 10 10 10 10 10 10 10 10 10 10 10 10 10 10 10 10 10 10 10 10 10 10 10 10 10 10 10 10 10 10 10 10 10 10 10 10 10 10 10 10 10 10 10 10 10 10 10 10 10 10 10 10 10 10 10 10 10 10 10 10 10 10 10 10 10 10 10 10 10 10 10 10 10 10 10 10 10 10 10 10 10 10 10 10 10 10 10 10 10 10 10 10 10 10 10 10 10 10 10 10 10 10 10 10 10 10 10 10 10 10 10 10 10 10 10 10 10 10 10 10 10 10 10 10 10 10 10 10 10 10 10 10 10 10 10 10 10 10 10 10 10 10 10 10 10 10 10 10 10 10 10 10 10 10 10 10 10 10 10 10 10 10 10 10 10 10 10 10 10 10 10 10 10 10 10 10 10 10 10 10 10 10 10 10 10 10 10 10 10 10 10 10 10 10 10 10 10 10 10 10 10 10 10 10 10 10 10 10 10 10 10 10 10 10 10 10 10 10 10 10 10 10 10 10 10 10 10 10 10 10 10 10 10 10 10 10 10 10 10 10 10 10 10 10 10 10 10 10 10 10 10 10 10 10 10 10 10 10 10 10 10 10 10 10 10 10 10 10 10 10 10 10 10 10 10 10 10 10 10 10 10 10 10 10 10 10 10 10 10 10 10 10 10 10 10 10 10 10 10 10 10 10 10 10 10 10 10 10 10 10 10 10 10 10 10 10 10 10 10 10 10 10 10 10 10 10 10 10 10 10 10 10 10 10 10 10 10 10 10 10 10 10 10 10 10 10 10 10 10 10 10 10 10 10 10 10 10 10 10 10 10 10 10 10 10 10 10 10 10 10 10 10 10 10 10 10 10 10 10 10 10 10 10 10 10 10 10 10 10 10 10 10 10 10 10 10 10 10 10 10 10 10 10 10 10 10 10 10 10 10 10 10 10 10 10 10 10 10 10 10 10 10 10 10 10 10 10 10 10 10 10 10 10 10 10 10 10 10 10 10 10 10 10 10 10 10 10 10 10 10 10 10 10 10 10 10 10 10 10 10 10 10 10 10 10 10 10 10 10 10 10 10 10 10 10 10 10 10 10 10 10 10 10 10 10 10 10 10 10 10 10 10 10 10 10 10 10 10 10 10 10 10 10 10 10 10 10 10 10 10 10 10 10 10 10 10 10 10 10 10 10 10 10 10 10 10 10 10 10 10 10 10 10 10 10 10 10 10 10 10 10 10 10 10 10 10 10 10 10 10 10 10 10 10 10 10 10 10 10 10 10 10 10 10 10 10 10 10 10 10 10 10 10 10 10 10 10 10 10 10 10 10 10 10 10 10 10 10 10 10 10 10 10 10 10 10 10 10 10 10 10 10 10 10 10 10 10 10 10 10 10 10 10 10 10 10 10 10 10 10 10 10 10 10 10 10 10 10 10 10 10 10 10 10 10 10 10 10 10 10 10 10 10 10 10 10 10 10 10 10 10 10 10 10 10 10 10 10 10 10 10 10 10 10 10 10 10 10 10 10 10 10 10 10 10 10 10 10 10 10 10 10 10 10 10 10 10 10 10 10 10 10 10 10 10 10 10 10 10 10 10 10 10 10 10 10 10 10 10 10 10 10 10 10 10 10 10 10 10 10 10 10 10 10 10 10 10 10 10 10 10 10 10 10 10 10 10 10 10 10 10 10 10 10 10 10 10 10 10 10 10 10 10 10 10 10 10 10 10 10 10 10 10 10 10 10 10 10 10 10 10 10 10 10 10 10 10 10 10 10 10 10 10 10 10 10 10 10 10 10 10 10 10 10 10 10 10 10 10 10 10 10 10 10 10 10 10 10 10 10 10 10 10 10 10 10 10 10 10 10 10 10 10 10 10 10 10 10 10 10 10 10 10 10 10 10 10 10 10 10 10 10 10 10 10 10 10 10 10 10 10 10 10 10 10 10 10 10 10 10 10 10 10 10 10 10 10 10 10 10 10 10 10 10 10 10 10 10 10 10 10 10 10 10 10 10 10 10 10 10 10 10 10 10 10 10 10 10 10 10 10 10 10 10 10 10 10 10 10 10 10 10 10 10 10 10 10 10 10 10 10 10 10 10 10 10 10 10 10 10 10 10 10 10 10 10 10 10 10 10 10 10 10 10 10 10 10 10 10 10 10 10 10 10 10 10 10 10 10 10 10 10 10 10 10 10 10 10 10 10 10 10 10 10 10 10 10 10 10 10 10 10 10 10 10 10 10 10 10 10 10 10 10 10 10 10 10 10 10 10 10 10 10 10 10 10 10 10 10 10 10 10 10 10 10 10 10 10 10 10 10 10 10 10 10 10 10 10 10 10 10 10 10 10 10 10 10 10 10 10 10 10 10 10 10 10 10 10 10 10 10 10 10 10 10 10 10 10 10 10 10 10 10 10 10 10 10 10 10 10 10 10 10 10 10 10 10 10 10 10 10 10 10 10 10 10 10 10 10 10 10 10 10 10 10 10 10 10 10 10 10 10 10 10 10 10 10 10 10 10 10 10 10 10 10 10 10 10 10 10 10 10 10 10 10 10 10 10 10 10 10 10 10 10 10 10 10 10 10 10 10 10 10 10 10 10 10 10 10 10 10 10 10 10 10 10 10 10 10 10 10 10 10 10 10 10 10 10 10 10 10 10 10 10 10 10 10 10 10 10 10 10 10 10 10 10 10 10 10 10 10 10 10 10 10 10 10 10 10 10 10 10 10 10 10 10 10 10 10 10 10 10 10 10 10 10 10 10 10 10 10 10 10 10 10 10 10 10 10 10 10 10 10 10 10 10 10 10 10 10 10 10 10 10 10 10 10 10 10 10 10 10 10 10 10 10 10 10 10 10 10 10 10 10 10 10 10 10 10 10 10 10 10 10 10 10 10 10 10 10 10 10 10 10 10 10 10 10 10 10 10 10 10 10 10 10 10 10 10 10 10 10 10 10 10 10 10 10 10 10 10 10 10 10 10 10 10 10 10 10 10 10 10 10 10 10 10 10 10 10 10 10 10 10 10 10 10 10 10 10 10 10 10 10 10 10 10 10 10 10 10 10 10 10 10 10 10 10 10 10 10 10 10 10 10 10 10 10 10 10 10 10 10 10 10 10 10 10 10 10 10 10 10 10 10 10 10 10 10 10 10 10 10 10 10 10 10 10 10 10 10 10 10 10 10 10 10 10 10 10 10 10 10 10 10 10 10 10 10 10 10 10 10 10 10 10 10 10 10 10 10 10 10 10 10 10 10 10 10 10 10 10 10 10 10 10 10 10 10 10 10 10 10 10 10 10 10 10 10 10 10 10 10 10 10 10 10 10 10 10 10 10 10 10 10 10 10 10 10 10 10 10 10 10 10 10 10 10 10 10 10 10 10 10 10 10 10 10 10 10 10 10 10 10 10 10 10 10 10 10 10 10 10 10 10 10 10 10 10 10 10 10 10 10 10 10 10 10 10 10 10 10 10 10 10 10 10 10 10 10 10 10 10 10 10 10 10 10 10 10 10 10 10 10 10 10 10 10 10 10 10 10 10 10 10 10 10 10 10 10 10 10 10 10 10 10 10 10 10 10 10 10 10 10 10 10 10 10 10 10 10 10 10 10 10 10 10 10 10 10 10 10 10 10 10 10 10 10 10 10 10 10 10 10 10 10 10 10 10 10 10 10 10 10 10 10 10 10 10 10 10 10 10 10 10 10 10 10 10 10 10 10 10 10 10 10 10 10 10 10 10 10 10 10 10 10 10 10 10 10 10 10 10 10 10 10 10 10 10 10 10 10 10 10 10 10 10 10 10 10 10 10 10 10 10 10 10 10 10 10 10 10 10 10 10 10 10 10 10 10 10 10 10 10 10 10 10 10 10 10 10 10 10 10 10 10 10 10 10 10 10 10 10 10 10 10 10 10 10 10 10 10 10 10 10 10 10 10 10 10 10 10 10 10 10 10 10 10 10 10 10 10 10 10 10 10 10 10 10 10 10 10 10 10 10 10 10 10 10 10 10 10 10 10 10 10 10 10 10 10 10 10 10 10 10 10 10 10 10 10 10 10 10 10 10 10 10 10 10 10 10 10 10 10 10 10 10 10 10 10 10 10 10 10 10 10 10 10 10 10 10 10 10 10 10 10 10 10 10 10 10 10 10 10 10 10 10 10 10 10 10 10 10 10 10 10 10 10 10 10 10 10 10 10 10 10 10 10 10 10 10 10 10 10 10 10 10 10 10 10 10 10 10 10 10 10 10 10 10 10 10 10 10 10 10 10 10 10 10 10 10 10 10 10 10 10 10 10 10 10 10 10 10 10 10 10 10 10 10 10 10 10 10 10 10 10 10 10 10 10 10 10 10 10 10 10 10 10 10 10 10 10 10 10 10 10 10 10 10 10 10 10 10 10 10 10 10 10 10 10 10 10 10 10 10 10 10 10 10 10 

POINT_DATA 931
SCALARS weights float 1
LOOKUP_TABLE default
1.15741 1.54321 1.54321 1.54321 1.54321 1.54321 1.54321 1.54321 1.54321 1.54321 1.54321 1.54321 1.54321 1.54321 1.54321 1.54321 1.54321 1.54321 0.385802 1.54321 2.31481 2.31481 2.31481 2.31481 2.31481 2.31482 2.31481 2.31481 2.31482 2.31481 2.31481 2.31482 2.31482 2.31481 2.31481 2.31482 2.31481 0.771604 1.54321 2.31481 2.31481 2.31481 2.31481 2.31481 2.31481 2.31481 2.31481 2.31481 2.31481 2.31481 2.31481 2.31482 2.31481 2.31481 2.31482 2.31481 0.771604 1.54321 2.31481 2.31481 2.31481 2.31481 2.31481 2.31481 2.31481 2.31481 2.31481 2.31481 2.31481 2.31481 2.31482 2.31481 2.31481 2.31482 2.31481 0.771604 1.54321 2.31481 2.31481 2.31481 2.31481 2.31481 2.31482 2.31481 2.31481 2.31482 2.31481 2.31481 2.31482 2.31482 2.31481 2.31481 2.31482 2.31481 0.771604 1.54321 2.31481 2.31481 2.31481 2.31481 2.31481 2.31481 2.31481 2.31481 2.31481 2.31481 2.31481 2.31481 2.31482 2.31481 2.31481 2.31482 2.31481 0.771604 0.385802 0.771605 0.771605 0.771605 0.771605 0.771605 0.771605 0.771605 0.771604 0.771605 0.771605 0.771604 0.771605 0.771605 0.771604 0.771604 0.771605 0.771604 0.385802 1.54321 2.31482 2.31482 2.31482 2.31482 2.31482 2.31482 2.31482 2.31481 2.31482 2.31482 2.31481 2.31482 2.31482 2.31481 2.31482 2.31482 2.31481 0.771604 2.31482 4.62963 4.62963 4.62963 4.62963 4.62963 4.62963 4.62963 4.62963 4.62963 4.62963 4.62963 4.62963 4.62963 4.62963 4.62963 4.62963 4.62963 2.31481 2.31482 4.62963 4.62963 4.62963 4.62963 4.62963 4.62963 4.62963 4.62963 4.62963 4.62963 4.62963 4.62963 4.62963 4.62963 4.62963 4.62963 4.62963 2.31481 2.31482 4.62963 4.62963 4.62963 4.62963 4.62963 4.62963 4.62963 4.62963 4.62963 4.62963 4.62963 4.62963 4.62963 4.62963 4.62963 4.62963 4.62963 2.31481 2.31482 4.62963 4.62963 4.62963 4.62963 4.62963 4.62963 4.62963 4.62963 4.62963 4.62963 4.62963 4.62963 4.62963 4.62963 4.62963 4.62963 4.62963 2.31481 2.31482 4.62963 4.62963 4.62963 4.62963 4.62963 4.62963 4.62963 4.62963 4.62963 4.62963 4.62963 4.62963 4.62963 4.62963 4.62963 4.62963 4.62963 2.31481 0.771605 2.31481 2.31481 2.31481 2.31481 2.31481 2.31481 2.31481 2.31481 2.31481 2.31481 2.31481 2.31481 2.31482 2.31481 2.31481 2.31482 2.31481 1.54321 1.54321 2.31482 2.31481 2.31482 2.31482 2.31481 2.31482 2.31481 2.31481 2.31482 2.31481 2.31481 2.31482 2.31482 2.31481 2.31481 2.31482 2.31481 0.771604 2.31482 4.62963 4.62963 4.62963 4.62963 4.62963 4.62963 4.62963 4.62963 4.62963 4.62963 4.62963 4.62963 4.62963 4.62963 4.62963 4.62963 4.62963 2.31481 2.31481 4.62963 4.62963 4.62963 4.62963 4.62963 4.62963 4.62963 4.62963 4.62963 4.62963 4.62963 4.62963 4.62963 4.62963 4.62963 4.62963 4.62963 2.31481 2.31482 4.62963 4.62963 4.62963 4.62963 4.62963 4.62963 4.62963 4.62963 4.62963 4.62963 4.62963 4.62963 4.62963 4.62963 4.62963 4.62963 4.62963 2.31481 2.31482 4.62963 4.62963 4.62963 4.62963 4.62963 4.62963 4.62963 4.62963 4.62963 4.62963 4.62963 4.62963 4.62963 4.62963 4.62963 4.62963 4.62963 2.31481 2.31481 4.62963 4.62963 4.62963 4.62963 4.62963 4.62963 4.62963 4.62963 4.62963 4.62963 4.62963 4.62963 4.62963 4.62963 4.62963 4.62963 4.62963 2.31481 0.771605 2.31481 2.31481 2.31481 2.31481 2.31481 2.31481 2.31482 2.31481 2.31481 2.31482 2.31481 2.31481 2.31482 2.31482 2.31481 2.31482 2.31482 1.54321 1.54321 2.31482 2.31482 2.31482 2.31482 2.31482 2.31482 2.31482 2.31481 2.31482 2.31482 2.31481 2.31482 2.31482 2.31481 2.31482 2.31482 2.31481 0.771604 2.31482 4.62963 4.62963 4.62963 4.62963 4.62963 4.62963 4.62963 4.62963 4.62963 4.62963 4.62963 4.62963 4.62963 4.62963 4.62963 4.62963 4.62963 2.31481 2.31482 4.62963 4.62963 4.62963 4.62963 4.62963 4.62963 4.62963 4.62963 4.62963 4.62963 4.62963 4.62963 4.62963 4.62963 4.62963 4.62963 4.62963 2.31481 2.31482 4.62963 4.62963 4.62963 4.62963 4.62963 4.62963 4.62963 4.62963 4.62963 4.62963 4.62963 4.62963 4.62963 4.62963 4.62963 4.62963 4.62963 2.31481 2.31482 4.62963 4.62963 4.62963 4.62963 4.62963 4.62963 4.62963 4.62963 4.62963 4.62963 4.62963 4.62963 4.62963 4.62963 4.62963 4.62963 4.62963 2.31481 2.31482 4.62963 4.62963 4.62963 4.62963 4.62963 4.62963 4.62963 4.62963 4.62963 4.62963 4.62963 4.62963 4.62963 4.62963 4.62963 4.62963 4.62963 2.31481 0.771605 2.31481 2.31481 2.31481 2.31481 2.31481 2.31481 2.31481 2.31481 2.31481 2.31481 2.31481 2.31481 2.31482 2.31481 2.31481 2.31482 2.31481 1.54321 1.54321 2.31482 2.31482 2.31482 2.31482 2.31482 2.31482 2.31482 2.31482 2.31482 2.31482 2.31482 2.31482 2.31482 2.31481 2.31482 2.31482 2.31481 0.771605 2.31482 4.62963 4.62963 4.62963 4.62963 4.62963 4.62963 4.62963 4.62963 4.62963 4.62963 4.62963 4.62963 4.62963 4.62963 4.62963 4.62963 4.62963 2.31481 2.31482 4.62963 4.62963 4.62963 4.62963 4.62963 4.62963 4.62963 4.62963 4.62963 4.62963 4.62963 4.62963 4.62963 4.62963 4.62963 4.62963 4.62963 2.31481 2.31482 4.62963 4.62963 4.62963 4.62963 4.62963 4.62963 4.62963 4.62963 4.62963 4.62963 4.62963 4.62963 4.62963 4.62963 4.62963 4.62963 4.62963 2.31481 2.31482 4.62963 4.62963 4.62963 4.62963 4.62963 4.62963 4.62963 4.62963 4.62963 4.62963 4.62963 4.62963 4.62963 4.62963 4.62963 4.62963 4.62963 2.31481 2.31482 4.62963 4.62963 4.62963 4.62963 4.62963 4.62963 4.62963 4.62963 4.62963 4.62963 4.62963 4.62963 4.62963 4.62963 4.62963 4.62963 4.62963 2.31481 0.771605 2.31482 2.31482 2.31482 2.31482 2.31482 2.31482 2.31482 2.31481 2.31482 2.31482 2.31481 2.31482 2.31482 2.31482 2.31481 2.31482 2.31482 1.54321 1.54321 2.31481 2.31481 2.31481 2.31481 2.31481 2.31481 2.31481 2.31481 2.31481 2.31481 2.31481 2.31481 2.31481 2.31481 2.31481 2.31481 2.31481 0.771604 2.31481 4.62963 4.62963 4.62963 4.62963 4.62963 4.62963 4.62963 4.62963 4.62963 4.62963 4.62963 4.62963 4.62963 4.62963 4.62963 4.62963 4.62963 2.31481 2.31481 4.62963 4.62963 4.62963 4.62963 4.62963 4.62963 4.62963 4.62963 4.62963 4.62963 4.62963 4.62963 4.62963 4.62963 4.62963 4.62963 4.62963 2.31481 2.31481 4.62963 4.62963 4.62963 4.62963 4.62963 4.62963 4.62963 4.62963 4.62963 4.62963 4.62963 4.62963 4.62963 4.62963 4.62963 4.62963 4.62963 2.31481 2.31481 4.62963 4.62963 4.62963 4.62963 4.62963 4.62963 4.62963 4.62963 4.62963 4.62963 4.62963 4.62963 4.62963 4.62963 4.62963 4.62963 4.62963 2.31481 2.31481 4.62963 4.62963 4.62963 4.62963 4.62963 4.62963 4.62963 4.62963 4.62963 4.62963 4.62963 4.62963 4.62963 4.62963 4.62963 4.62963 4.62963 2.31481 0.771605 2.31481 2.31481 2.31481 2.31481 2.31481 2.31481 2.31482 2.31481 2.31481 2.31482 2.31481 2.31481 2.31482 2.31481 2.31481 2.31482 2.31481 1.54321 0.385802 0.771604 0.771604 0.771604 0.771604 0.771604 0.771604 0.771604 0.771604 0.771604 0.771604 0.771604 0.771604 0.771605 0.771604 0.771604 0.771605 0.771604 0.385802 0.771604 2.31481 2.31481 2.31481 2.31481 2.31481 2.31481 2.31481 2.31481 2.31481 2.31481 2.31481 2.31481 2.31481 2.31481 2.31481 2.31481 2.31481 1.54321 0.771604 2.31481 2.31481 2.31481 2.31481 2.31481 2.31481 2.31481 2.31481 2.31481 2.31481 2.31481 2.31481 2.31481 2.31481 2.31481 2.31481 2.31481 1.54321 0.771604 2.31481 2.31481 2.31481 2.31481 2.31481 2.31481 2.31481 2.31481 2.31481 2.31481 2.31481 2.31481 2.31481 2.31481 2.31481 2.31481 2.31481 1.54321 0.771604 2.31481 2.31481 2.31481 2.31481 2.31481 2.31481 2.31481 2.31481 2.31481 2.31481 2.31481 2.31481 2.31481 2.31481 2.31481 2.31481 2.31481 1.54321 0.771604 2.31481 2.31481 2.31481 2.31481 2.31481 2.31481 2.31481 2.31481 2.31481 2.31481 2.31481 2.31481 2.31481 2.31481 2.31481 2.31481 2.31481 1.54321 0.385802 1.54321 1.54321 1.54321 1.54321 1.54321 1.54321 1.54321 1.54321 1.54321 1.54321 1.54321 1.54321 1.54321 1.54321 1.54321 1.54321 1.54321 1.1574 
VECTORS u float
0 0 0  0.0192438 0.226355 -0.124027  0.0296508 0.465542 -0.170012  0.0362532 0.702273 -0.132217  0.0403503 0.910531 -0.0152285  0.0424011 1.06583 0.166579  0.0429666 1.14953 0.390912  0.0427874 1.15159 0.630219  0.0425678 1.07209 0.855193  0.0427179 0.921191 1.03853  0.043172 0.717652 1.15829  0.0433334 0.486393 1.2005  0.042186 0.255318 1.16065  0.0385492 0.0519213 1.0441  0.0309596 -0.0999979 0.865647  0.0188413 -0.18374 0.646902  0.00498533 -0.191534 0.411882  -0.0019834 -0.124391 0.185274  0 -3.57628e-07 -3.57628e-07  0 1.49012e-08 0  -0.00620756 0.184361 -0.0747771  -0.00606781 0.392843 -0.0840271  -0.00410098 0.592231 -0.0203865  -0.00230759 0.75796 0.108563  -0.00140977 0.869697 0.287437  -0.00136268 0.913529 0.49436  -0.00172055 0.884062 0.703757  -0.00199044 0.785197 0.889835  -0.00190926 0.629483 1.02998  -0.00159574 0.436288 1.10754  -0.00155199 0.229206 1.11363  -0.00250578 0.0331411 1.04794  -0.00511026 -0.128555 0.918488  -0.00982285 -0.236698 0.74067  -0.0160215 -0.27852 0.535205  -0.0201449 -0.248456 0.325614  -0.0141346 -0.148652 0.138002  0 -1.93715e-07 -3.57628e-07  0 0 0  -0.00827147 0.172291 -0.0252734  -0.00927156 0.349547 0.0129648  -0.0075134 0.507437 0.111553  -0.00558823 0.622909 0.260447  -0.00447887 0.68047 0.441365  -0.004197 0.672522 0.63165  -0.00432873 0.600091 0.807478  -0.00443661 0.472497 0.94712  -0.00430965 0.305863 1.03372  -0.00405562 0.120833 1.05722  -0.00404084 -0.0601045 1.01525  -0.00470591 -0.21525 0.913095  -0.00630331 -0.326023 0.762869  -0.00876546 -0.378991 0.582178  -0.0112262 -0.367314 0.392249  -0.0118289 -0.29219 0.216718  -0.00764775 -0.164009 0.0799675  0 -8.9407e-08 -3.57628e-07  0 0 0  0.000290394 0.167514 0.0319402  0.003795 0.315816 0.121837  0.00781178 0.427684 0.259912  0.0107682 0.4866 0.430478  0.0122325 0.483476 0.612247  0.0125839 0.418234 0.782176  0.0124459 0.299136 0.918933  0.0123175 0.141313 1.00573  0.0123935 -0.0354619 1.03231  0.0125535 -0.209435 0.995986  0.0124773 -0.359552 0.901575  0.0118341 -0.467832 0.760618  0.0104787 -0.521261 0.589925  0.00852418 -0.513278 0.409733  0.00642347 -0.444627 0.241719  0.00462627 -0.324271 0.107171  0.00197554 -0.171597 0.0238513  0 0 -3.57628e-07  0 0 0  0.0122099 0.161073 0.0961272  0.0211262 0.279369 0.239273  0.0266248 0.343039 0.416091  0.0292171 0.342955 0.60585  0.029723 0.277899 0.784984  0.0291491 0.155567 0.930932  0.0283656 -0.00875151 1.0255  0.0278758 -0.194484 1.05721  0.0277567 -0.378585 1.02255  0.0277437 -0.538501 0.926251  0.0274044 -0.654897 0.78037  0.0263402 -0.713853 0.60275  0.0243456 -0.708408 0.414842  0.0214467 -0.639409 0.239208  0.0179343 -0.515363 0.0969105  0.0142426 -0.3516 0.00514066  0.00848079 -0.173039 -0.0265554  0 1.19209e-07 -3.57628e-07  0 0 0  0.0201324 0.14952 0.162125  0.0300228 0.235753 0.355733  0.0334348 0.251832 0.567142  0.0331897 0.195266 0.772608  0.0312415 0.0719789 0.947206  0.0289754 -0.103406 1.06916  0.027249 -0.309371 1.12323  0.0263546 -0.520456 1.10276  0.0260855 -0.7106 1.01044  0.02591 -0.856464 0.857876  0.0252017 -0.940308 0.663982  0.0234725 -0.952127 0.452596  0.0205407 -0.890869 0.249508  0.0165741 -0.764608 0.0792068  0.0121217 -0.589362 -0.0382822  0.00822425 -0.386385 -0.090054  0.00672984 -0.17677 -0.0723354  0 2.38419e-07 -3.57628e-07  0 0 0  0.013019 0.130746 0.210118  0.0174178 0.190679 0.445038  0.0161301 0.169588 0.688687  0.0121896 0.0669185 0.913533  0.00767612 -0.106689 1.09158  0.00388563 -0.33083 1.20007  0.00143242 -0.578206 1.22499  0.000310898 -0.818361 1.163  0 -1.02166 1.02164  -0.000310898 -1.16301 0.818341  -0.00143337 -1.22499 0.578184  -0.00388741 -1.20005 0.33081  -0.00767827 -1.09156 0.106675  -0.0121915 -0.913511 -0.0669265  -0.0161314 -0.688669 -0.169589  -0.0174186 -0.445024 -0.190677  -0.0130193 -0.210111 -0.130744  0 3.57628e-07 -3.57628e-07  0 0 0  0.0263772 0.168557 -0.147819  0.0425428 0.364144 -0.226608  0.0515484 0.571012 -0.231846  0.0568975 0.76536 -0.164357  0.059807 0.9241 -0.0334079  0.0610042 1.02823 0.144412  0.0611888 1.06533 0.347027  0.0610285 1.03125 0.549507  0.0610027 0.930665 0.72721  0.0612482 0.776274 0.858824  0.061476 0.587099 0.928866  0.0609946 0.386038 0.929344  0.0588384 0.19712 0.860597  0.0540049 0.0427089 0.7316  0.0450127 -0.0593947 0.558795  0.0308232 -0.0994928 0.363479  0.0132105 -0.077377 0.168667  0 -3.57628e-07 -2.38419e-07  0 1.49012e-08 0  0.00391842 0.132455 -0.0871236  0.0106279 0.296225 -0.122378  0.0142118 0.459308 -0.100148  0.0165563 0.604144 -0.0221863  0.0178635 0.713263 0.10177  0.018279 0.773349 0.256159  0.0181359 0.777205 0.421759  0.0178417 0.724684 0.578159  0.0176989 0.622622 0.706343  0.0177714 0.48382 0.791  0.0178392 0.32532 0.822254  0.0174553 0.166283 0.796632  0.0161092 0.0257846 0.717298  0.0134482 -0.0792679 0.593826  0.00909257 -0.136449 0.441168  0.00348854 -0.139437 0.277548  -0.000765324 -0.0895289 0.123043  0 -2.23517e-07 -2.38419e-07  0 0 0  0.00115758 0.120672 -0.0302526  0.00128669 0.24772 -0.0195361  0.00334489 0.366605 0.0373667  0.00535804 0.458674 0.133296  0.00666571 0.512239 0.255745  0.0072062 0.520888 0.389339  0.00722444 0.483836 0.517572  0.0070492 0.405943 0.624795  0.00692248 0.29704 0.698115  0.00690591 0.170631 0.728901  0.00687635 0.0421821 0.713703  0.00659871 -0.0727411 0.65453  0.0058558 -0.160261 0.558513  0.00457644 -0.209753 0.437148  0.00274301 -0.215362 0.304913  0.00049758 -0.177122 0.177704  -0.00107098 -0.101315 0.0711367  0 -8.9407e-08 -2.38419e-07  0 0 0  0.00245528 0.110977 0.0250226  0.00411081 0.208836 0.0862259  0.00693941 0.282214 0.181442  0.00932628 0.319013 0.297658  0.0106952 0.31391 0.419881  0.011174 0.267755 0.532856  0.0111293 0.186536 0.622786  0.010909 0.0804629 0.678876  0.0107088 -0.0373139 0.69455  0.0105417 -0.152319 0.668168  0.0102834 -0.250501 0.603142  0.00976968 -0.319906 0.50747  0.00889993 -0.352096 0.39277  0.00769305 -0.343228 0.272932  0.00616169 -0.294799 0.162324  0.00436068 -0.213276 0.0739335  0.00188708 -0.110876 0.0181942  0 0 -2.38419e-07  0 0 0  0.00399223 0.0999324 0.0794553  0.00864092 0.170285 0.193121  0.0117567 0.198914 0.326338  0.0132825 0.180644 0.462232  0.0135677 0.117313 0.583926  0.0131482 0.0167937 0.676452  0.0125334 -0.108419 0.728619  0.012027 -0.24288 0.734253  0.0116829 -0.370075 0.692884  0.0113555 -0.474431 0.609748  0.0108147 -0.543192 0.495107  0.00987577 -0.567951 0.362998  0.00850749 -0.545685 0.22953  0.00687194 -0.479181 0.110944  0.00525069 -0.3768 0.0214579  0.00397086 -0.251364 -0.0286217  0.00263524 -0.119545 -0.0341742  0 1.19209e-07 -2.38419e-07  0 0 0  0.00272891 0.0870027 0.132306  0.00676063 0.129558 0.296665  0.00734502 0.11518 0.465401  0.00613189 0.0446452 0.619739  0.00424445 -0.07399 0.741329  0.00241983 -0.226563 0.815261  0.00109315 -0.394522 0.832398  0.00035584 -0.557322 0.790594  2.38419e-07 -0.694986 0.694979  -0.000355601 -0.790595 0.557312  -0.00109363 -0.832393 0.394511  -0.00242102 -0.815251 0.226551  -0.004246 -0.741314 0.0739813  -0.00613308 -0.619723 -0.0446498  -0.00734568 -0.465388 -0.115181  -0.00676084 -0.296656 -0.129557  -0.00272894 -0.1323 -0.0870014  0 2.38419e-07 -2.38419e-07  0 0 0  -0.00673003 0.0723364 0.176777  -0.00822476 0.0900537 0.386396  -0.0121228 0.0382787 0.589376  -0.0165758 -0.0792156 0.764625  -0.0205426 -0.249521 0.890884  -0.023474 -0.452612 0.952135  -0.0252023 -0.663999 0.940307  -0.02591 -0.85789 0.856456  -0.0260853 -1.01045 0.710585  -0.0263543 -1.10276 0.520438  -0.0272499 -1.12322 0.309354  -0.0289772 -1.06915 0.103391  -0.0312436 -0.947186 -0.0719891  -0.0331914 -0.772587 -0.19527  -0.0334358 -0.567124 -0.251832  -0.0300236 -0.355721 -0.23575  -0.0201325 -0.162119 -0.149517  0 3.57628e-07 -2.38419e-07  0 0 0  0.0129338 0.0978476 -0.164117  0.0270032 0.241647 -0.27772  0.0367122 0.414925 -0.332573  0.042742 0.595843 -0.323001  0.0463212 0.762111 -0.250957  0.0481178 0.893614 -0.125787  0.0487272 0.974522 0.036894  0.0487554 0.995251 0.217027  0.0487279 0.953673 0.392596  0.0489482 0.855298 0.542384  0.0493997 0.712428 0.648528  0.0497062 0.542526 0.698531  0.049118 0.366088 0.686667  0.0465262 0.204072 0.615006  0.0415092 0.0755023 0.493351  0.0315299 -0.0053122 0.337772  0.0149055 -0.0327403 0.16722  0 -3.57628e-07 -1.19209e-07  0 1.49012e-08 0  0.00132376 0.0764547 -0.0997921  0.0100086 0.189033 -0.163341  0.0148352 0.315046 -0.185436  0.0175084 0.440669 -0.162099  0.0190451 0.550536 -0.0960367  0.0197222 0.631219 0.00424314  0.0197892 0.673039 0.126134  0.0195656 0.671193 0.254596  0.0193594 0.626253 0.374004  0.0193553 0.544007 0.470026  0.0195391 0.434648 0.531285  0.0196857 0.311482 0.550598  0.0194249 0.189364 0.52567  0.0183539 0.0830743 0.459451  0.016046 0.00508519 0.360794  0.0117726 -0.0358835 0.241617  0.00537014 -0.0365349 0.115904  0 -2.23517e-07 -1.19209e-07  0 0 0  -9.59635e-05 0.0652673 -0.0419686  0.00224078 0.143315 -0.0579373  0.00523067 0.224327 -0.0440456  0.00712472 0.295797 -0.00272191  0.00832367 0.348888 0.0614215  0.00890696 0.377132 0.140269  0.00900924 0.377279 0.223969  0.00884593 0.349576 0.302271  0.00863457 0.297659 0.365749  0.00851679 0.22806 0.406876  0.00851643 0.149377 0.420875  0.00854492 0.0712035 0.40622  0.00845432 0.00299025 0.364721  0.00812888 -0.0469994 0.301292  0.00737524 -0.0729044 0.22377  0.00560689 -0.0723507 0.141355  0.00271821 -0.0462741 0.0633174  0 -1.19209e-07 -1.19209e-07  0 0 0  -0.000410423 0.0546094 0.0129676  0.00133184 0.103676 0.047099  0.00299257 0.139564 0.0974302  0.00459772 0.15654 0.158789  0.00561923 0.151733 0.222924  0.00604749 0.125882 0.28166  0.00605273 0.0823942 0.327813  0.00583375 0.026771 0.355893  0.00554502 -0.0340609 0.362665  0.00526893 -0.0925724 0.347488  0.00502527 -0.141535 0.31236  0.0048027 -0.174903 0.261672  0.00459814 -0.188583 0.20167  0.00442743 -0.180996 0.139695  0.00423813 -0.15342 0.0832013  0.00385308 -0.109549 0.038412  0.00247741 -0.0557852 0.0101881  0 0 -1.19209e-07  0 0 0  -0.0008699 0.0439912 0.0662128  0.000290006 0.0655566 0.149872  0.00112516 0.0580339 0.237867  0.00162375 0.0212528 0.319791  0.0016216 -0.0409008 0.384823  0.00128019 -0.120777 0.424751  0.000824332 -0.208477 0.434766  0.000389576 -0.293211 0.413805  7.15256e-07 -0.364578 0.364579  -0.000388503 -0.413801 0.29321  -0.000823498 -0.43476 0.208474  -0.00127983 -0.424743 0.120773  -0.00162148 -0.384812 0.0408977  -0.00162387 -0.31978 -0.0212543  -0.00112534 -0.237859 -0.0580344  -0.000290155 -0.149866 -0.0655564  0.000869751 -0.0662096 -0.0439911  0 1.19209e-07 -1.19209e-07  0 0 0  -0.00263511 0.034174 0.11955  -0.00397116 0.0286206 0.251371  -0.00525129 -0.0214607 0.37681  -0.00687283 -0.110949 0.479192  -0.00850844 -0.229538 0.545694  -0.00987637 -0.363006 0.567956  -0.0108148 -0.495114 0.543193  -0.011355 -0.609752 0.474429  -0.011682 -0.692884 0.370068  -0.0120265 -0.734247 0.242872  -0.0125333 -0.728609 0.108412  -0.0131487 -0.676438 -0.0168002  -0.0135682 -0.58391 -0.117316  -0.0132828 -0.462217 -0.180644  -0.0117569 -0.326326 -0.198913  -0.00864077 -0.193113 -0.170283  -0.00399208 -0.0794514 -0.0999308  0 2.38419e-07 -1.19209e-07  0 0 0  -0.00848073 0.0265547 0.173046  -0.0142427 -0.00514251 0.35161  -0.0179347 -0.0969158 0.515375  -0.0214477 -0.239218 0.639421  -0.0243468 -0.414855 0.708416  -0.0263408 -0.602764 0.713856  -0.0274043 -0.780382 0.654893  -0.0277429 -0.926259 0.538492  -0.0277555 -1.02256 0.37857  -0.0278749 -1.0572 0.194468  -0.0283657 -1.02549 0.00873792  -0.0291498 -0.930913 -0.155577  -0.0297239 -0.784962 -0.277904  -0.0292182 -0.60583 -0.342955  -0.0266256 -0.416076 -0.343036  -0.0211265 -0.239264 -0.279365  -0.0122097 -0.0961227 -0.16107  0 3.57628e-07 -1.19209e-07  0 0 0  -0.00374699 0.0289369 -0.17169  -0.000332803 0.117602 -0.316686  0.00585991 0.250679 -0.421324  0.0109467 0.412617 -0.473016  0.01435 0.583155 -0.465312  0.0162804 0.741334 -0.399165  0.0170608 0.867891 -0.282624  0.017159 0.947453 -0.129913  0.017099 0.970473 0.0403161  0.0173112 0.934421 0.207332  0.0180012 0.84401 0.350945  0.0190873 0.71047 0.453921  0.0200982 0.550106 0.504023  0.0198817 0.382097 0.495832  0.0171571 0.225643 0.430759  0.0145109 0.100154 0.317219  0.00726891 0.0198708 0.169439  0 -3.57628e-07 0  0 1.49012e-08 0  -0.00131784 0.0197852 -0.110181  0.00104025 0.0782523 -0.204254  0.00487387 0.165554 -0.271458  0.00759649 0.271248 -0.303946  0.00927234 0.382175 -0.297541  0.0101773 0.48466 -0.253095  0.0104561 0.566326 -0.176174  0.010334 0.617435 -0.0761845  0.0101075 0.63199 0.0347667  0.0100514 0.608436 0.143321  0.0103174 0.549809 0.236464  0.0108829 0.463324 0.303047  0.0115569 0.359497 0.335031  0.0119379 0.250916 0.328491  0.0112166 0.150485 0.284431  0.00943732 0.0692715 0.209432  0.00544643 0.0168556 0.111069  0 -2.23517e-07 0  0 0 0  -0.00164121 0.00942302 -0.0529162  -0.00148827 0.0375927 -0.0982233  0.00132185 0.0801274 -0.128074  0.00308406 0.131286 -0.141482  0.00414884 0.184617 -0.135842  0.00474632 0.233327 -0.111791  0.00493407 0.271539 -0.0724381  0.00482309 0.294791 -0.022627  0.00459087 0.30046 0.031657  0.00442529 0.288038 0.0839598  0.00445867 0.259169 0.128099  0.00472498 0.217424 0.158874  0.005162 0.167855 0.172614  0.00569415 0.116471 0.167501  0.00622702 0.069739 0.143857  0.00558567 0.0320194 0.105438  0.00343943 0.00788447 0.0556557  0 -1.19209e-07 0  0 0 0  -0.00225341 -0.000728369 0.00218487  -0.0026533 -0.00116765 0.00681114  -0.00177079 -0.00270623 0.0131354  -0.000695944 -0.00571585 0.0200326  -2.5034e-05 -0.0101417 0.0261652  0.000328302 -0.0156605 0.0308244  0.000402927 -0.0215726 0.0333581  0.000261188 -0.0270291 0.0334625  5.96046e-07 -0.0312099 0.0312181  -0.000259995 -0.0334533 0.0270369  -0.000401616 -0.0333499 0.021579  -0.000326991 -0.0308178 0.0156655  2.6226e-05 -0.0261587 0.0101447  0.000696659 -0.020027 0.00571823  0.00177097 -0.0131305 0.00270677  0.00265336 -0.00680777 0.00116706  0.00225329 -0.00218287 0.000728369  0 0 0  0 0 0  -0.00247747 -0.0101888 0.0557883  -0.0038535 -0.0384138 0.109554  -0.00423843 -0.0832034 0.153426  -0.00442708 -0.139697 0.181003  -0.00459713 -0.201673 0.188589  -0.00480157 -0.261673 0.174906  -0.00502408 -0.312358 0.141538  -0.00526798 -0.347484 0.0925748  -0.00554395 -0.362658 0.0340624  -0.00583267 -0.355882 -0.0267695  -0.0060519 -0.327801 -0.0823926  -0.00604689 -0.281648 -0.12588  -0.00561881 -0.222912 -0.151731  -0.00459743 -0.158779 -0.156538  -0.00299239 -0.0974227 -0.139562  -0.00133181 -0.0470942 -0.103675  0.000410557 -0.0129653 -0.0546087  0 1.19209e-07 0  0 0 0  -0.00188676 -0.0181952 0.11088  -0.00436074 -0.0739365 0.213282  -0.0061622 -0.162328 0.294806  -0.00769359 -0.272939 0.343235  -0.00890023 -0.392778 0.352101  -0.00976926 -0.507477 0.319906  -0.0102828 -0.603145 0.250498  -0.0105407 -0.668167 0.152314  -0.0107079 -0.694543 0.0373075  -0.0109079 -0.678863 -0.0804683  -0.0111288 -0.62277 -0.186539  -0.0111737 -0.532838 -0.267757  -0.0106952 -0.419864 -0.313908  -0.00932598 -0.297643 -0.31901  -0.00693893 -0.181431 -0.28221  -0.00411057 -0.0862197 -0.208832  -0.002455 -0.0250197 -0.110975  0 2.38419e-07 0  0 0 0  -0.00197563 -0.0238527 0.171603  -0.0046263 -0.107175 0.324279  -0.00642404 -0.241726 0.444635  -0.00852507 -0.409744 0.513286  -0.0104795 -0.589937 0.521264  -0.011834 -0.760629 0.467829  -0.0124766 -0.901582 0.359544  -0.0125523 -0.995987 0.209423  -0.0123919 -1.03231 0.0354471  -0.0123165 -1.00571 -0.141326  -0.0124459 -0.918913 -0.299145  -0.0125842 -0.782153 -0.418239  -0.0122333 -0.612224 -0.483476  -0.0107689 -0.430458 -0.486595  -0.00781202 -0.259899 -0.427678  -0.00379467 -0.121829 -0.315811  -0.000289917 -0.0319369 -0.167511  0 3.57628e-07 0  0 0 0  -0.0152506 -0.030696 -0.171882  -0.021633 0.00351298 -0.343972  -0.0218866 0.0938083 -0.494215  -0.0194945 0.230697 -0.604903  -0.0171137 0.398598 -0.661887  -0.0155772 0.577152 -0.657717  -0.0149796 0.744615 -0.592464  -0.0150715 0.88052 -0.473726  -0.0153835 0.968223 -0.315812  -0.0154014 0.997075 -0.137958  -0.0147426 0.96376 0.0381777  -0.0132687 0.872575 0.19127  -0.0112224 0.73475 0.302925  -0.0095799 0.566895 0.360024  -0.00961661 0.388384 0.355848  -0.0123246 0.21904 0.289891  -0.00538826 0.0831282 0.167691  0 -3.57628e-07 0  0 1.49012e-08 0  -0.00146164 -0.0368113 -0.11904  -0.005853 -0.0310356 -0.243136  -0.00585654 0.0178718 -0.355537  -0.00392205 0.102812 -0.443476  -0.00216174 0.213642 -0.496535  -0.0010165 0.336857 -0.508181  -0.000507832 0.457525 -0.476884  -0.000516772 0.561076 -0.406294  -0.000767231 0.634998 -0.304846  -0.000912189 0.670399 -0.184774  -0.000658154 0.663119 -0.0605967  0.000138521 0.614203 0.0526898  0.00144458 0.529709 0.141403  0.00290704 0.41989 0.194829  0.00331974 0.297677 0.206697  0.00144625 0.176971 0.17521  0.00118542 0.0726271 0.104419  0 -2.23517e-07 0  0 0 0  -0.00234334 -0.0469647 -0.0631564  -0.00375623 -0.0683838 -0.137851  -0.00353846 -0.0635258 -0.212832  -0.00220221 -0.0326087 -0.280487  -0.00101757 0.0206144 -0.332812  -0.000215411 0.0894143 -0.363358  0.00018239 0.165372 -0.368407  0.000205755 0.239363 -0.347304  5.96046e-07 0.302527 -0.302511  -0.000204563 0.347317 -0.239346  -0.00018084 0.368416 -0.165357  0.000216722 0.363363 -0.0894012  0.00101924 0.332814 -0.0206044  0.0022037 0.280488 0.0326152  0.00353956 0.212832 0.0635278  0.00375652 0.137851 0.068383  0.00234365 0.0631564 0.0469632  0 -1.19209e-07 2.38419e-07  0 0 0  -0.00343938 -0.0556577 -0.00788283  -0.0055854 -0.10544 -0.0320172  -0.0062269 -0.143858 -0.0697372  -0.0056935 -0.167499 -0.116469  -0.00516051 -0.17261 -0.167854  -0.00472307 -0.158866 -0.217423  -0.004457 -0.128088 -0.259165  -0.00442362 -0.0839451 -0.288031  -0.00458944 -0.0316408 -0.300452  -0.00482178 0.0226426 -0.294781  -0.00493276 0.0724513 -0.271528  -0.00474501 0.111801 -0.233317  -0.00414753 0.13585 -0.184609  -0.00308275 0.141488 -0.131279  -0.00132084 0.128078 -0.0801232  0.00148892 0.098225 -0.0375915  0.00164151 0.0529173 -0.00942206  0 0 2.38419e-07  0 0 0  -0.00271827 -0.0633199 0.0462768  -0.00560701 -0.141359 0.0723543  -0.00737524 -0.223774 0.0729074  -0.00812846 -0.301294 0.0470021  -0.00845343 -0.364722 -0.00299025  -0.00854349 -0.406217 -0.0712059  -0.00851464 -0.420868 -0.149378  -0.00851524 -0.406864 -0.228061  -0.00863314 -0.365733 -0.297657  -0.00884473 -0.302254 -0.349572  -0.00900829 -0.223952 -0.377273  -0.00890613 -0.140254 -0.377125  -0.00832272 -0.0614079 -0.348881  -0.00712395 0.00273204 -0.29579  -0.00523019 0.044052 -0.224322  -0.00224066 0.0579408 -0.143312  9.60827e-05 0.0419698 -0.0652661  0 1.19209e-07 2.38419e-07  0 0 0  0.00107118 -0.0711393 0.101318  -0.000497758 -0.177709 0.177127  -0.0027436 -0.304919 0.215366  -0.0045765 -0.437155 0.209757  -0.00585568 -0.55852 0.16026  -0.00659788 -0.654534 0.0727358  -0.00687504 -0.713701 -0.0421896  -0.00690484 -0.728891 -0.170639  -0.00692165 -0.698099 -0.297047  -0.00704837 -0.624775 -0.405946  -0.00722373 -0.517551 -0.483835  -0.00720596 -0.389318 -0.520885  -0.00666595 -0.255726 -0.512233  -0.00535774 -0.133282 -0.458666  -0.0033443 -0.0373579 -0.366597  -0.00128627 0.019541 -0.247715  -0.00115752 0.0302541 -0.120669  0 2.38419e-07 2.38419e-07  0 0 0  0.00764766 -0.0799706 0.164015  0.0118289 -0.216724 0.292197  0.0112256 -0.392258 0.36732  0.00876451 -0.582189 0.378995  0.00630307 -0.762881 0.326021  0.00470662 -0.913103 0.215242  0.00404227 -1.01525 0.0600917  0.00405717 -1.05721 -0.120847  0.00431085 -1.03371 -0.305878  0.00443721 -0.947098 -0.472507  0.00432897 -0.807453 -0.600096  0.00419688 -0.631623 -0.672522  0.00447845 -0.44134 -0.680464  0.00558782 -0.260428 -0.622899  0.00751376 -0.111542 -0.507427  0.00927258 -0.0129588 -0.349539  0.00827217 0.0252756 -0.172287  0 3.57628e-07 2.38419e-07  0 0 0  -0.0151612 -0.0830575 -0.174498  -0.0248581 -0.0993503 -0.372508  -0.0283397 -0.0489936 -0.56485  -0.0279343 0.063378 -0.729266  -0.026193 0.226091 -0.845908  -0.0247893 0.420301 -0.89992  -0.0242651 0.622647 -0.884155  -0.0245614 0.808542 -0.799992  -0.0252607 0.955237 -0.657312  -0.0257714 1.04478 -0.473378  -0.0255477 1.06634 -0.270604  -0.024272 1.01752 -0.0736239  -0.0220249 0.904446 0.0937731  -0.0195994 0.740934 0.211558  -0.0181968 0.546161 0.265807  -0.0182385 0.341929 0.248887  -0.0169387 0.151645 0.158332  0 -3.57628e-07 2.38419e-07  0 1.49012e-08 0  0.00397272 -0.093612 -0.129386  -0.00234652 -0.137208 -0.283292  -0.00452542 -0.124566 -0.440476  -0.00379771 -0.0588554 -0.582546  -0.00198263 0.0520292 -0.692994  -0.000486493 0.194971 -0.758537  0.000284076 0.352765 -0.771116  0.000355363 0.506336 -0.728976  2.38419e-07 0.637038 -0.637016  -0.000354648 0.728992 -0.50631  -0.000282764 0.771125 -0.352741  0.000488758 0.758539 -0.19495  0.00198555 0.692991 -0.0520134  0.00379992 0.582541 0.0588663  0.00452685 0.440471 0.124571  0.00234747 0.283288 0.137207  -0.00397253 0.129384 0.0936098  0 -2.23517e-07 2.38419e-07  0 0 0  -0.00118543 -0.104422 -0.0726278  -0.00144562 -0.175212 -0.176973  -0.00331858 -0.206697 -0.29768  -0.00290543 -0.194823 -0.419894  -0.00144297 -0.141392 -0.529713  -0.000136435 -0.0526738 -0.614205  0.000660062 0.0606171 -0.663114  0.00091362 0.184798 -0.670389  0.000767946 0.304869 -0.634983  0.000517368 0.406313 -0.561057  0.000508904 0.476898 -0.457506  0.00101781 0.508188 -0.336839  0.00216365 0.496538 -0.213627  0.00392365 0.443476 -0.1028  0.00585818 0.355535 -0.0178654  0.00585389 0.243134 0.0310369  0.00146222 0.119039 0.0368104  0 -1.49012e-07 2.38419e-07  0 0 0  -0.00544617 -0.111072 -0.0168543  -0.00943735 -0.209437 -0.0692713  -0.0112166 -0.284434 -0.150486  -0.0119371 -0.32849 -0.250918  -0.0115556 -0.335026 -0.359502  -0.010881 -0.303036 -0.463328  -0.0103157 -0.236448 -0.54981  -0.0100493 -0.1433 -0.608433  -0.0101061 -0.0347434 -0.631983  -0.0103329 0.0762068 -0.617423  -0.0104551 0.176192 -0.566312  -0.0101761 0.253109 -0.484645  -0.00927114 0.29755 -0.382161  -0.00759506 0.303951 -0.271236  -0.00487232 0.27146 -0.165546  -0.00103903 0.204254 -0.0782485  0.00131822 0.11018 -0.0197835  0 0 2.38419e-07  0 0 0  -0.00537032 -0.115907 0.0365372  -0.0117727 -0.241623 0.0358856  -0.0160456 -0.3608 -0.00508428  -0.0183535 -0.459454 -0.0830758  -0.0194244 -0.52567 -0.189369  -0.0196848 -0.550593 -0.311489  -0.0195374 -0.531274 -0.434654  -0.0193535 -0.470008 -0.544011  -0.0193577 -0.373981 -0.626253  -0.0195643 -0.254571 -0.671188  -0.0197881 -0.126111 -0.67303  -0.0197214 -0.00422382 -0.631206  -0.0190444 0.0960518 -0.550523  -0.0175076 0.162108 -0.440657  -0.0148339 0.185441 -0.315037  -0.0100079 0.163343 -0.189027  -0.00132346 0.0997921 -0.0764527  0 1.19209e-07 2.38419e-07  0 0 0  0.000765562 -0.123047 0.0895317  -0.00348893 -0.277555 0.13944  -0.0090929 -0.441176 0.136451  -0.0134479 -0.593834 0.0792673  -0.0161089 -0.717304 -0.0257909  -0.0174548 -0.796632 -0.166294  -0.017838 -0.822247 -0.325332  -0.0177701 -0.790985 -0.483831  -0.0176979 -0.70632 -0.62263  -0.0178407 -0.578133 -0.724686  -0.0181352 -0.421733 -0.7772  -0.0182786 -0.256134 -0.77334  -0.0178635 -0.101749 -0.713251  -0.0165555 0.0222008 -0.604131  -0.0142105 0.100156 -0.459297  -0.0106268 0.122382 -0.296217  -0.00391793 0.0871242 -0.132452  0 2.38419e-07 2.38419e-07  0 0 0  0.0141345 -0.138006 0.148656  0.0201449 -0.325622 0.248461  0.0160209 -0.535215 0.278524  0.00982195 -0.740682 0.236698  0.00511044 -0.918498 0.128548  0.00250649 -1.04794 -0.0331547  0.00155365 -1.11363 -0.229223  0.00159776 -1.10753 -0.436305  0.00191045 -1.02996 -0.629497  0.00199115 -0.889807 -0.785205  0.00172102 -0.703726 -0.884062  0.00136256 -0.49433 -0.913524  0.00140953 -0.287412 -0.869685  0.00230765 -0.108545 -0.757946  0.00410223 0.0203969 -0.592217  0.00606966 0.0840318 -0.392833  0.0062089 0.0747782 -0.184356  0 3.57628e-07 2.38419e-07  0 0 0  0.00207797 -0.142035 -0.196218  -0.00204846 -0.204707 -0.431001  -0.00451455 -0.183175 -0.668468  -0.00363231 -0.0829376 -0.883013  -0.00130016 0.0848722 -1.05056  0.00067699 0.301044 -1.15077  0.00148654 0.539703 -1.17089  0.0011071 0.77195 -1.10801  8.34465e-07 0.969449 -0.969419  -0.00110555 1.10803 -0.771915  -0.00148356 1.1709 -0.539668  -0.000672579 1.15077 -0.301015  0.0013051 1.05055 -0.0848501  0.00363588 0.883002 0.0829527  0.00451827 0.668458 0.183181  0.00204945 0.430992 0.204706  -0.00207829 0.196213 0.142033  0 -3.57628e-07 2.38419e-07  0 1.49012e-08 0  0.0169394 -0.158336 -0.151648  0.0182393 -0.248889 -0.341936  0.0181988 -0.265803 -0.54617  0.0196022 -0.211547 -0.740943  0.0220289 -0.0937553 -0.904453  0.0242761 0.073649 -1.01752  0.025551 0.270635 -1.06633  0.0257732 0.473411 -1.04476  0.025262 0.657341 -0.955214  0.0245628 0.800014 -0.808513  0.0242672 0.884168 -0.622618  0.0247922 0.899925 -0.420276  0.0261967 0.845906 -0.226071  0.0279377 0.72926 -0.0633631  0.028342 0.564842 0.0490007  0.0248597 0.372501 0.0993512  0.015161 0.174494 0.0830562  0 -2.23517e-07 4.76837e-07  0 0 0  0.00538848 -0.167696 -0.0831292  0.012325 -0.289895 -0.219044  0.00961798 -0.35585 -0.38839  0.00958151 -0.360018 -0.566904  0.0112251 -0.302912 -0.734759  0.0132722 -0.191251 -0.872581  0.0147456 -0.0381514 -0.96376  0.0154034 0.137989 -0.997067  0.0153848 0.315842 -0.968207  0.0150723 0.473751 -0.880499  0.0149806 0.592482 -0.744591  0.0155787 0.657727 -0.577128  0.0171163 0.66189 -0.398578  0.0194976 0.604901 -0.230681  0.021889 0.494211 -0.0937991  0.0216343 0.343968 -0.00350952  0.0152514 0.171879 0.0306962  0 -1.49012e-07 4.76837e-07  0 0 0  -0.00726913 -0.169443 -0.0198703  -0.014511 -0.317225 -0.100155  -0.0171567 -0.430764 -0.225646  -0.0198808 -0.495832 -0.382104  -0.0200965 -0.504018 -0.550116  -0.0190852 -0.453907 -0.710479  -0.0179986 -0.350924 -0.844016  -0.0173087 -0.207304 -0.93442  -0.0170971 -0.0402855 -0.970465  -0.0171577 0.129941 -0.947439  -0.0170597 0.282648 -0.867872  -0.016279 0.399181 -0.741313  -0.0143483 0.465322 -0.583135  -0.0109441 0.473019 -0.4126  -0.00585771 0.421323 -0.250667  0.00033474 0.316683 -0.117596  0.00374794 0.171687 -0.028934  0 0 4.76837e-07  0 0 0  -0.0149058 -0.167224 0.0327423  -0.0315303 -0.337779 0.0053134  -0.0415092 -0.493358 -0.0755045  -0.046526 -0.61501 -0.204077  -0.0491174 -0.686667 -0.366097  -0.0497049 -0.698523 -0.542539  -0.0493976 -0.648512 -0.712439  -0.0489461 -0.54236 -0.855305  -0.0487258 -0.392567 -0.953674  -0.0487542 -0.216996 -0.995245  -0.0487262 -0.0368657 -0.974509  -0.048117 0.12581 -0.893597  -0.0463202 0.250974 -0.762093  -0.0427406 0.32301 -0.595826  -0.0367105 0.332577 -0.414912  -0.0270016 0.27772 -0.241639  -0.0129328 0.164115 -0.0978441  0 1.19209e-07 4.76837e-07  0 0 0  -0.0132105 -0.168671 0.077379  -0.0308238 -0.363486 0.0994949  -0.0450132 -0.558804 0.0593941  -0.0540043 -0.731609 -0.0427127  -0.058838 -0.860602 -0.19713  -0.0609939 -0.929343 -0.386052  -0.0614746 -0.928855 -0.587116  -0.0612465 -0.858804 -0.776288  -0.0610015 -0.727183 -0.930673  -0.0610273 -0.549476 -1.03125  -0.0611879 -0.346995 -1.06532  -0.0610038 -0.144384 -1.02821  -0.0598068 0.0334309 -0.924084  -0.0568964 0.164371 -0.765342  -0.0515468 0.231853 -0.570997  -0.042541 0.226611 -0.364133  -0.026376 0.147818 -0.168552  0 2.38419e-07 4.76837e-07  0 0 0  0.00198314 -0.185278 0.124394  -0.00498554 -0.41189 0.191537  -0.0188422 -0.646913 0.183741  -0.0309606 -0.865659 0.0999949  -0.0385489 -1.04411 -0.0519319  -0.0421851 -1.16065 -0.255335  -0.043332 -1.20049 -0.486413  -0.0431699 -1.15827 -0.717671  -0.0427166 -1.0385 -0.921205  -0.0425668 -0.85516 -1.0721  -0.0427867 -0.630184 -1.15158  -0.0429666 -0.390879 -1.14952  -0.0424011 -0.166551 -1.06582  -0.0403497 0.0152479 -0.910513  -0.0362513 0.132227 -0.702256  -0.0296483 0.170017 -0.465529  -0.019242 0.124027 -0.226348  0 3.57628e-07 4.76837e-07  
SCALARS smooth_stress float 1
LOOKUP_TABLE default
4190.32 5573.39 5125.53 4971.39 4909.9 4880.57 4858.44 4833.36 4802.58 4766.61 4727.02 4686.1 4646.89 4605.83 4575.61 4641.91 4921.28 5144.08 1522.98 4329.98 7170.28 6954.17 6864.79 6842.04 6836.47 6823.94 6795.86 6753.15 6701.92 6651.02 6611.27 6595.58 6615.06 6688.4 6853.34 7117.06 7210.48 2796.5 3744.14 6302.99 6631.67 6778.14 6849.73 6879.29 6873.61 6840.33 6790.84 6738.62 6697.58 6680.76 6698.63 6754.87 6843.47 6920.46 6853.96 6639.97 2522.51 3831.12 6434.87 6793.88 6984.3 7052.78 7053.58 7015.44 6957.22 6894.79 6841.56 6807.64 6798.54 6813.19 6841.14 6860.42 6826.19 6601.96 6284.83 2343.69 4429.42 7076.61 7146.16 7180.73 7158.05 7102.01 7033.62 6966.29 6909.08 6867.87 6845.22 6839.42 6843.68 6846.03 6834.81 6812.77 6768.26 6477.33 2307.21 5250.14 7901.42 7553.26 7436.63 7374.62 7326.59 7284.71 7249.9 7223.96 7208.11 7202.43 7205.22 7213.06 7222.19 7235.82 7287.44 7496.32 7686.88 2447.21 1433.75 2937.78 2762.12 2713.04 2698.36 2691.63 2685.95 2680.98 2677.57 2676.35 2677.54 2680.96 2685.92 2691.58 2698.3 2712.95 2762.04 2937.67 1433.68 4800.9 7854.33 7283.31 7031.31 6923.23 6873.03 6838.94 6801.72 6755.44 6701.18 6642.42 6582.72 6524.99 6464.97 6378.95 6283.08 6295.45 6427.77 2561.26 5077.17 12799.8 12092.3 11602.8 11446 11390.3 11350 11293.3 11214.3 11119.8 11021.9 10934.5 10872 10843 10838.5 10891.5 11099.9 11367 6785.11 3847.48 9634.79 9863.21 9946.31 10005.7 10034.7 10021.3 9967.58 9886.4 9796.59 9718.44 9671.26 9670.98 9723.91 9820.54 9943.77 10008.8 9864.36 5782.81 3726.42 9072.52 9530.18 9868.73 9970.42 9966.4 9905.34 9813.81 9714.62 9628.19 9570.81 9552.92 9576.85 9632.69 9695.28 9724.52 9610.82 9196.19 5231.16 4578.37 10285.2 10549 10654 10614.9 10515.4 10396.9 10282.8 10188.9 10126 10099.9 10110.5 10151.4 10209.6 10268.4 10316.5 10320.6 9982.09 5309.42 6116.53 12780.7 12646.4 12431.9 12302.5 12202.7 12117.3 12049.5 12005.8 11990.6 12005.7 12049.5 12117.2 12202.6 12302.2 12431.5 12646 12780.2 6116.27 2447.33 7687.18 7496.54 7287.66 7236.01 7222.31 7213.15 7205.26 7202.49 7208.15 7223.9 7249.85 7284.66 7326.48 7374.45 7436.38 7553.04 7901.16 5249.92 4087.92 7059.97 7090.07 7070.46 7046.93 7038.86 7033.45 7017.8 6985.87 6938.29 6879.76 6815.56 6749.14 6680.18 6596.79 6427.84 6169.21 6026.02 2311.73 3914.7 10474.9 10432 10161.5 10037.7 9994.42 9971.93 9938.01 9880.48 9800.86 9708.23 9614.31 9530.3 9463.54 9398.13 9310.56 9217.19 9164.78 5502.2 2233.58 6361.31 6503.54 6432.16 6403.55 6409.68 6405.42 6375.93 6322.56 6255.03 6187.07 6133.01 6105.63 6112.66 6143.53 6186.29 6227.39 6199.91 3874.48 2041.69 5200.43 5360.86 5487.27 5515.31 5499.14 5455 5394.27 5329.9 5275.11 5241.18 5235.19 5258.87 5306.44 5359.21 5389.09 5379.15 5222.18 3018.11 3256.75 6690.66 6872.93 6930.61 6898.59 6819.75 6732.31 6657.18 6607.11 6589.56 6607.11 6657.21 6732.33 6819.68 6898.43 6930.44 6872.75 6690.45 3256.62 5309.65 9982.41 10320.9 10316.7 10268.6 10209.7 10151.5 10110.5 10099.9 10126 10188.8 10282.8 10396.8 10515.3 10614.6 10653.6 10548.7 10284.8 4578.2 2307.31 6477.57 6768.45 6812.93 6834.96 6846.12 6843.74 6839.44 6845.26 6867.91 6909.03 6966.24 7033.59 7101.93 7157.87 7180.5 7145.94 7076.41 4429.26 3857.15 6484.97 6800.92 7030.89 7146.77 7213.69 7257.67 7280.5 7279.87 7255.94 7212.96 7157.79 7096.04 7029.1 6962.79 6894.56 6668.69 6349 2296.25 3752.73 9295.27 9624.29 9829 9907.65 9951.9 9985.19 9999.04 9984.53 9939.64 9869.91 9785.97 9699.16 9617.14 9540.93 9465.21 9310.35 9027.48 5171.74 2085.69 5190.78 5326.99 5409.15 5439.56 5467.16 5494.14 5509.84 5505.74 5479.4 5434.72 5380.63 5328.77 5289.72 5266.51 5239.16 5231.37 5201.74 3050.99 1570.8 3183.68 3249.67 3285.75 3291.11 3279.88 3272.3 3267.45 3264.51 3263.53 3264.47 3267.39 3272.28 3279.81 3291 3285.68 3249.59 3183.61 1570.73 3018.25 5222.35 5379.27 5389.18 5359.31 5306.51 5258.85 5235.17 5241.18 5275.11 5329.88 5394.27 5454.99 5499.06 5515.13 5487.09 5360.7 5200.31 2041.63 5231.38 9196.47 9611.01 9724.68 9695.46 9632.81 9576.9 9552.9 9570.83 9628.16 9714.54 9813.78 9905.31 9966.25 9970.12 9868.42 9529.91 9072.28 3726.32 2343.79 6285.04 6602.11 6826.32 6860.54 6841.23 6813.26 6798.56 6807.67 6841.58 6894.74 6957.17 7015.4 7053.49 7052.6 6984.08 6793.7 6434.7 3831.01 4115.18 6379.32 6600.45 6801.41 6946.63 7036.77 7099.55 7142.87 7165.98 7167.85 7150.49 7120.13 7084.32 7046.31 7016.28 7027.53 7180.94 7273.56 2506.41 4663.17 9859.23 9956.53 10195.5 10376.7 10483.5 10560.5 10615.8 10643.8 10640.2 10606.4 10550.4 10485.1 10421.5 10359.8 10325.5 10411 10429 5586.78 3392.61 6757.54 6749.69 6795.58 6865.67 6919.51 6971.15 7019.37 7054.03 7066.6 7053.92 7019.23 6971.03 6919.37 6865.5 6795.46 6749.64 6757.44 3392.53 3051.09 5201.84 5231.39 5239.17 5266.59 5289.84 5328.83 5380.72 5434.8 5479.4 5505.64 5509.71 5494.01 5467.03 5439.41 5409.03 5326.91 5190.75 2085.66 3874.64 6200.12 6227.49 6186.35 6143.6 6112.74 6105.67 6133.03 6187.13 6255.04 6322.52 6375.85 6405.32 6409.54 6403.34 6431.96 6503.37 6361.21 2233.56 5783.04 9864.67 10008.9 9943.91 9820.73 9724.04 9671.04 9671.26 9718.46 9796.56 9886.33 9967.5 10021.2 10034.5 10005.4 9945.99 9862.92 9634.54 3847.41 2522.62 6640.19 6854.09 6920.57 6843.6 6754.99 6698.69 6680.79 6697.6 6738.63 6790.77 6840.26 6873.55 6879.18 6849.54 6777.93 6631.49 6302.82 3744.05 5102.65 7020.1 6915.29 6931.46 6993.35 7046.15 7083.5 7113.62 7134.49 7142.83 7138.27 7124.51 7107.17 7086.22 7068.69 7110.62 7340.17 8008.76 2952.63 6694.73 12348.4 11898.8 11891.1 11974.2 12056.6 12120.2 12175.3 12214.6 12228.8 12214.5 12175.1 12120 12056.4 11973.9 11890.9 11898.6 12348.1 6694.54 5586.92 10429.2 10411.1 10325.6 10360 10421.7 10485.3 10550.6 10606.4 10640.1 10643.6 10615.5 10560.2 10483.4 10376.5 10195.3 9956.36 9859.05 4663.07 5171.9 9027.7 9310.46 9465.26 9541.1 9617.35 9699.31 9786.11 9870.02 9939.62 9984.39 9998.82 9984.96 9951.69 9907.43 9828.79 9624.11 9295.14 3752.68 5502.39 9165.05 9217.34 9310.6 9398.22 9463.69 9530.45 9614.41 9708.34 9800.87 9880.37 9937.81 9971.72 9994.15 10037.4 10161.3 10431.7 10474.7 3914.67 6785.35 11367.4 11100.1 10891.7 10838.8 10843.1 10872.1 10934.6 11021.9 11119.8 11214.2 11293.1 11349.8 11390 11445.6 11602.4 12091.9 12799.4 5077.08 2796.61 7210.73 7117.2 6853.43 6688.54 6615.2 6595.65 6611.32 6651.03 6701.92 6753.09 6795.78 6823.84 6836.33 6841.83 6864.57 6953.95 7170.05 4329.87 1632.23 2932.72 2764.5 2688.68 2681.41 2690.43 2697.78 2703.63 2708.31 2710.13 2708.28 2703.58 2697.73 2690.38 2681.35 2688.62 2764.43 2932.64 1632.18 2952.72 8008.97 7340.31 7110.77 7068.84 7086.35 7107.3 7124.62 7138.34 7142.82 7134.42 7113.48 7083.36 7046.01 6993.19 6931.29 6915.14 7019.92 5102.49 2506.48 7273.74 7181.06 7027.64 7016.42 7046.44 7084.44 7120.24 7150.55 7167.8 7165.89 7142.73 7099.4 7036.63 6946.48 6801.23 6600.32 6379.18 4115.06 2296.32 6349.17 6668.8 6894.63 6962.92 7029.26 7096.15 7157.89 7213.05 7255.93 7279.79 7280.36 7257.51 7213.55 7146.62 7030.73 6800.78 6484.85 3857.07 2311.8 6026.2 6169.32 6427.88 6596.85 6680.31 6749.27 6815.66 6879.84 6938.32 6985.81 7017.68 7033.3 7038.7 7046.76 7070.29 7089.93 7059.83 4087.84 2561.34 6427.95 6295.58 6283.17 6379.04 6465.08 6525.08 6582.81 6642.47 6701.2 6755.41 6801.61 6838.79 6872.86 6923.02 7031.08 7283.1 7854.11 4800.77 1523.04 5144.25 4921.39 4641.97 4575.7 4605.94 4646.95 4686.15 4727.04 4766.61 4802.55 4833.29 4858.34 4880.46 4909.75 4971.22 5125.36 5573.2 4190.19 
CELL_DATA 3888
SCALARS stress float 1
LOOKUP_TABLE default
770.488 719.458 486.336 486.336 879.002 848.7 711.499 647.558 471.166 493.466 771.488 750.511 672.391 602.83 424.631 444.187 735.836 723.655 655.131 584.086 411.687 425.861 721.011 714.122 648.36 575.762 407.277 418.102 714.629 710.641 645.399 571.125 404.729 413.731 711.343 708.975 642.948 567.278 402.079 410.063 708.579 707.176 639.662 563.214 398.845 406.205 705.243 704.433 635.271 558.857 395.123 402.08 701.015 700.556 630.024 554.399 391.222 397.933 695.837 695.623 624.44 549.996 387.489 394.064 689.685 689.885 619.283 545.676 384.313 390.75 682.628 683.881 615.671 541.281 382.196 388.262 674.712 678.262 614.776 534.912 381.382 386.537 662.549 672.697 622.459 523.349 382.593 384.8 652.185 674.98 651.647 513.195 390.592 386.639 667.241 705.431 714.724 517.627 409.457 397.45 732.656 776.699 741.784 541.896 421.901 406.164 761.492 761.492 625.859 468.281 367.137 367.137 623.109 621.632 650.139 470.732 358.941 368.623 617.277 657.972 663.02 446.468 376.578 366.215 608.648 658.956 671.383 444.578 382.063 369.248 606.63 660.416 677.836 446.232 384.446 371.593 607.218 662.776 681.473 446.961 384.688 372.011 607.805 664.408 681.775 445.804 383.072 370.431 607.045 664.201 679.107 442.985 380.109 367.371 604.564 661.849 674.496 439.222 376.516 363.644 600.636 657.73 669.31 435.364 373.107 360.149 595.852 652.697 665.15 432.224 370.742 357.767 590.975 648.035 663.798 430.531 370.34 357.285 586.926 645.462 667.241 430.91 372.817 359.326 584.826 647.042 677.399 433.09 378.674 363.956 584.802 655.182 696.384 436.374 388.501 370.476 590.611 673.543 720.044 441.003 400.558 376.258 611.474 700.175 733.511 443.175 405.08 375.439 655.69 711.257 728.095 422.208 382.065 362.835 646.614 646.614 579.831 387.005 330.437 330.437 535.087 588.344 630.01 391.891 359.359 345.99 560.313 635.423 671.354 413.994 391.866 373.99 575.089 661.93 695.821 423.569 405.006 385.967 581.481 673.858 708.688 427.56 409.073 389.543 585.087 680.355 713.188 427.688 408.536 388.708 586.112 682.838 711.721 425.089 405.439 385.349 584.565 681.767 706.695 420.972 401.239 380.941 580.97 677.986 700.458 416.54 397.13 376.732 576.251 672.801 695.062 412.846 394.072 373.706 571.468 667.77 692.193 410.705 392.762 372.531 567.698 664.553 693.031 410.6 393.58 373.484 565.903 664.593 698.109 412.504 396.417 376.294 566.828 668.66 706.905 415.335 400.286 379.805 570.238 676.461 716.186 417.159 403.469 381.689 576.147 684.657 714.422 414.717 402.612 378.706 581.369 677.303 679.705 400.399 387.102 363.756 580.363 625.148 664.54 370.365 353.211 343.614 573.9 573.9 607.494 396.085 375.763 375.763 537.147 628.603 651.365 412 418.997 403.543 558.732 666.936 687.943 431.227 435.309 418.406 573.086 693.592 706.032 435.486 438.147 420.403 578.255 705.189 710.224 433.499 434.997 417.131 578.268 707.782 706.332 428.714 429.308 411.425 575.478 705.507 698.594 422.934 423.114 405.239 570.974 700.414 689.981 417.316 417.61 399.771 565.668 694.063 682.536 412.662 413.521 395.771 560.466 687.838 677.501 409.484 411.197 393.619 556.175 682.882 675.419 408.018 410.653 393.357 553.433 679.914 676.051 408.148 411.534 394.628 552.572 678.902 678.275 409.363 413.07 396.664 553.556 678.641 679.921 410.637 414.016 398.26 555.638 676.507 677.902 410.836 413.251 398.106 557.503 667.65 669.513 408.85 409.851 395.096 554.984 644.868 634.266 399.662 400.081 386.537 538.187 584.848 609.235 381.86 373.757 369.088 552.623 552.623 705.804 467.344 487.164 487.164 598.763 699.921 700.285 467.623 517.78 504.867 585.106 695.809 702.051 459.505 497.844 485.773 580.317 698.199 698.058 449.699 485.039 473.26 574.864 695.578 690.195 440.779 476.436 464.835 569.054 689.864 681.036 433.234 470.12 458.504 563.423 683.132 672.491 427.171 465.486 453.689 558.188 676.491 665.619 422.624 462.372 450.338 553.52 670.537 660.916 419.594 460.665 448.427 549.662 665.661 658.484 418.015 460.205 447.864 546.844 662.063 658.069 417.746 460.762 448.447 545.213 659.62 658.947 418.518 462.001 449.817 544.722 657.668 659.877 420.01 463.538 451.545 545.145 654.88 659.141 422.023 465.16 453.369 546.094 649.365 655.435 425.277 467.574 455.758 548.247 639.479 651.556 432.491 473.57 461.057 555.24 626.215 663.876 445.449 487.722 473.395 557.237 610.402 600.395 443.944 462.066 455.832 572.676 572.676 796.645 564.883 637.102 637.102 687.127 734.313 748.115 536.508 658.709 634.475 618.698 659.686 734.974 499.975 619.346 591.56 596.249 636.785 731.937 484.515 609.346 579.312 587.45 627.69 730.585 477.401 608.147 576.043 583.635 623.398 728.698 473.553 608.948 575.059 581.395 620.686 726.506 471.179 610.06 574.692 579.587 618.462 724.691 469.709 611.317 574.808 577.938 616.41 723.681 468.987 612.787 575.423 576.5 614.497 723.675 468.983 614.495 576.498 575.418 612.781 724.684 469.707 616.403 577.93 574.809 611.317 726.497 471.178 618.458 579.581 574.688 610.057 728.686 473.548 620.678 581.387 575.051 608.94 730.572 477.391 623.385 583.623 576.035 608.138 731.913 484.499 627.672 587.434 579.293 609.325 734.95 499.963 636.763 596.229 591.547 619.332 748.09 536.491 659.666 618.68 634.455 658.686 796.609 564.86 734.285 687.101 637.072 637.072 619.64 635.843 371.448 371.448 819.475 777.249 591.098 660.732 390.695 421.875 759.876 693.847 537.434 656.436 361.228 408.375 734.661 665.394 517.461 645.85 347.627 394.918 722.278 654.506 509.391 640.313 342.711 387.6 716.655 650.819 505.529 637.499 340.766 383.334 713.741 649.437 502.543 635.16 339.337 380.077 710.989 647.846 499.105 632.069 337.42 376.797 707.212 645.001 494.936 627.962 334.771 373.193 702.191 640.782 490.287 623.105 331.542 369.375 696.181 635.513 485.668 617.907 328.009 365.576 689.53 629.74 481.737 612.589 324.436 361.919 682.522 624.144 479.186 607.203 321.025 358.336 675.422 619.302 478.135 601.122 317.838 354.598 667.369 613.745 480.522 589.661 314.272 350.238 650.187 607.344 490.916 565.773 310.423 341.479 634.013 607.58 513.435 542.886 312.034 334.861 632.711 622.412 519.504 548.216 318.003 330.707 628.935 628.935 465.438 383.71 218.459 218.459 500.481 491.446 459.597 404.015 222.151 228.592 516.401 512.705 449.731 390.921 214.454 218.645 495.474 495.151 446.325 384.625 209.087 211.262 490.454 492.497 445.959 383.63 209.409 209.918 490.07 493.71 445.785 383.835 210.133 209.513 490.211 494.877 444.423 383.434 209.633 208.309 489.263 494.516 441.628 381.842 207.734 206.018 486.772 492.26 437.856 379.171 204.851 202.976 482.954 488.447 433.939 375.879 201.646 199.746 478.374 483.845 430.905 372.482 198.865 196.933 473.738 479.489 429.865 369.408 197.266 195.079 469.818 476.607 431.805 366.997 197.562 194.603 467.414 476.411 436.865 365.381 200.204 195.681 466.636 478.83 445.717 362.734 204.445 197.679 466.327 484.509 456.887 357.862 210.538 200.004 469.833 494.513 463.03 354.493 217.679 203.277 479.645 500.675 453.29 347.581 215.035 203.725 466.558 466.558 388.321 250.528 155.568 155.568 376.561 385.317 398.859 260.026 169.808 166.812 378.15 399.933 422.469 262.604 180.04 172.508 384.609 419.741 431.596 263.174 188.028 175.483 387.231 426.336 435.072 264.717 190.733 176.547 388.93 429.441 435.031 265.214 190.244 175.312 389.017 430.085 432.413 264.21 187.703 172.39 387.249 428.458 428.323 261.97 184.162 168.739 383.952 425.051 423.942 259.066 180.611 165.325 379.829 420.673 420.352 256.158 177.875 162.936 375.743 416.292 418.383 253.868 176.526 162.078 372.58 412.874 418.53 252.673 176.8 162.896 371.134 411.249 420.773 252.793 178.542 165.122 371.92 411.823 424.206 253.97 181.03 167.953 374.544 413.913 427.065 255.105 182.967 170.107 378.19 416.285 425.972 255.844 183.775 170.957 381.147 414.51 411.464 255.036 179.821 167.633 378.578 398.19 393.262 243.467 166.402 158.373 365.135 365.135 384.387 227.874 224.592 224.592 338.144 350.225 411.491 233.677 239.209 238.69 340.111 373.405 430.574 240.166 242.023 244.039 354.554 394.799 435.08 240.345 242.136 244.496 357.241 398.845 432.655 237.578 238.553 240.898 355.521 396.702 427.27 233.732 233.55 235.763 352.084 392.532 421 229.606 228.633 230.762 347.724 387.546 415.196 225.755 224.702 226.895 343.09 382.438 410.788 222.635 222.276 224.709 338.873 377.8 408.313 220.619 221.57 224.4 335.736 374.118 407.901 219.966 222.538 225.856 334.199 371.694 409.261 220.78 224.891 228.675 334.56 370.54 411.652 222.987 228.174 232.242 336.715 370.234 413.865 226.257 231.765 235.744 339.835 369.719 414.848 229.916 234.872 238.155 342.279 368.098 414.209 232.818 236.098 237.85 342.062 365.096 405.697 236.02 236.834 237.312 335.267 350.738 382.889 229.871 223.646 223.616 329.374 329.374 461.804 308.966 370.69 370.69 371.211 380.001 502.471 310.83 388.487 378.496 381.018 405.34 494.405 304.134 380.95 374.94 382.285 405.124 487.776 296.297 376.048 368.151 377.276 397.519 481.893 289.277 373.572 363.069 371.53 389.814 476.271 283.554 371.742 358.805 366.096 383.236 471.319 279.174 370.233 355.493 361.283 377.949 467.636 276.198 369.442 353.581 357.341 373.918 465.673 274.687 369.69 353.274 354.58 371.161 465.668 274.684 371.157 354.577 353.27 369.686 467.635 276.197 373.917 357.341 353.579 369.441 471.324 279.175 377.95 361.286 355.493 370.234 476.269 283.556 383.237 366.098 358.802 371.739 481.884 289.275 389.808 371.525 363.063 373.566 487.758 296.289 397.506 377.264 368.143 376.04 494.394 304.128 405.113 382.275 374.932 380.942 502.456 310.82 405.327 381.007 378.485 388.475 461.784 308.954 379.988 371.198 370.676 370.676 600.425 443.963 572.701 572.701 455.851 462.083 663.899 445.462 610.417 557.252 473.41 487.738 651.572 432.503 626.233 555.253 461.068 473.58 655.458 425.289 639.498 548.259 455.775 467.588 659.149 422.03 649.376 546.101 453.378 465.167 659.888 420.011 654.886 545.15 451.548 463.542 658.953 418.52 657.673 544.726 449.817 462.001 658.071 417.749 659.621 545.213 448.45 460.766 658.492 418.02 662.074 546.851 447.87 460.21 660.914 419.591 665.662 549.659 448.423 460.659 665.613 422.624 670.53 553.515 450.337 462.371 672.488 427.173 676.489 558.186 453.693 465.489 681.029 433.232 683.131 563.421 458.501 470.117 690.182 440.772 689.851 569.044 464.826 476.426 698.037 449.686 695.555 574.848 473.244 485.022 702.024 459.494 698.174 580.299 485.761 497.832 700.263 467.608 695.788 585.089 504.853 517.765 705.775 467.327 699.901 598.747 487.144 487.144 479.069 620.71 327.486 327.486 685.248 640.629 485.882 658.797 345.192 376.776 703.865 625.663 463.254 704.301 357.597 410.179 717.945 621.853 451.544 722.975 360.33 421.432 723.047 619.469 446.031 731.167 361.621 424.799 725.686 619.071 443.103 736.47 363.099 426.161 727.725 619.741 440.736 739.684 364.228 426.47 728.466 619.922 437.882 740.597 364.477 425.727 727.11 618.607 434.254 739.078 363.569 423.846 723.44 615.526 430.065 735.387 361.535 420.95 717.796 610.961 425.796 730.141 358.615 417.333 710.823 605.523 421.99 723.972 355.114 413.272 703.03 599.894 419.149 717.26 351.215 408.772 694.596 594.574 417.626 710.08 347.006 403.655 685.264 589.029 415.708 703.041 342.534 398.125 674.56 580.141 414.836 683.62 337.522 391.766 634.193 564.1 418.321 641.456 326.595 369.132 588.184 549.69 418.4 625.538 314.826 340.286 567.29 567.29 316.498 387.146 149.229 149.229 382.427 378.547 321.569 391.889 152.319 155.248 416.631 401.075 316.296 407.757 159.152 170.491 414.853 395.605 310.318 412.039 161.317 174.821 413.302 393.959 309.023 414.065 162.785 176.233 413.493 394.568 308.74 416.038 164.479 177.547 414.044 395.566 307.831 417.458 165.794 178.418 413.829 395.678 305.797 417.818 166.156 178.383 412.296 394.314 302.791 416.908 165.343 177.273 409.423 391.484 299.347 414.845 163.459 175.199 405.575 387.645 296.199 411.956 160.849 172.484 401.314 383.515 294.181 408.616 158.014 169.562 397.236 379.958 294.09 405.136 155.482 166.816 393.895 377.903 296.08 401.833 153.587 164.347 391.602 377.55 297.576 398.966 152.209 162.042 388.685 374.853 302.614 394.886 152.522 162.162 381.4 374.173 308.448 385.134 153.505 159.367 374.045 374.717 304.17 379.491 154.797 155.757 364.038 364.038 229.78 226.301 9.50094 9.50094 224.005 225.75 240.719 229.033 8.23562 8.94874 235.491 237.53 244.79 227.443 12.4195 11.6033 240.336 245.985 245.862 230.294 14.5605 13.7724 239.911 247.305 246.552 232.423 13.0205 12.279 241.222 249.5 246.046 234.193 12.013 10.6388 242.068 250.676 244.217 235.477 10.8221 9.41045 241.54 250.146 241.473 235.947 9.24977 9.11533 239.543 247.958 238.462 235.475 7.64096 9.81964 236.454 244.572 235.854 234.159 6.62307 11.075 232.907 240.673 234.224 232.292 6.75724 12.3869 229.655 237.06 233.977 230.259 7.91601 13.4329 227.464 234.564 235.262 228.38 9.42734 14.0546 226.951 233.891 237.637 226.751 10.8504 14.3406 228.159 235.103 239.218 225.601 12.5362 15.0862 229.173 235.789 240.616 227.517 11.5236 14.528 230.808 236.727 238.414 227.513 7.60761 10.8126 230.791 235.725 228.358 226.048 7.70228 11.2187 222.463 222.464 250.927 156.869 158.147 158.147 157.625 157.096 268.665 155.748 167.553 165.392 167.789 169.211 272.212 153.693 166.947 166.651 170.675 174.089 274.017 152.171 164.474 165.913 172.667 177.023 272.072 151.287 161.716 163.916 172.581 176.12 268.661 150.206 158.986 160.49 170.909 173.488 265.027 149.383 157.377 158 168.015 169.863 262.078 148.885 157.4 157.314 164.49 165.835 260.439 148.658 159.055 158.466 161.064 162.033 260.44 148.659 162.032 161.066 158.466 159.055 262.082 148.881 165.835 164.491 157.318 157.404 265.028 149.38 169.862 168.015 158.004 157.38 268.66 150.203 173.49 170.91 160.49 158.984 272.068 151.285 176.116 172.576 163.913 161.713 274.008 152.167 177.015 172.658 165.911 164.473 272.206 153.693 174.082 170.669 166.648 166.944 268.656 155.745 169.204 167.784 165.387 167.547 250.919 156.864 157.093 157.621 158.138 158.138 382.904 229.88 329.388 329.388 223.624 223.655 405.709 236.028 350.748 335.277 237.321 236.843 414.219 232.82 365.102 342.065 237.856 236.103 414.857 229.919 368.106 342.286 238.161 234.878 413.872 226.261 369.726 339.841 235.745 231.768 411.656 222.99 370.24 336.719 232.239 228.171 409.259 220.781 370.541 334.559 228.673 224.889 407.9 219.967 371.695 334.198 225.852 222.534 408.314 220.622 374.12 335.735 224.401 221.57 410.784 222.635 377.799 338.871 224.708 222.274 415.194 225.752 382.436 343.086 226.897 224.704 421.002 229.605 387.549 347.725 230.762 228.633 427.267 233.733 392.532 352.082 235.763 233.552 432.645 237.574 396.694 355.512 240.895 238.55 435.064 240.338 398.831 357.227 244.49 242.128 430.561 240.159 394.788 354.543 244.032 242.016 411.479 233.671 373.394 340.102 238.682 239.2 384.375 227.869 350.215 338.136 224.583 224.583 609.262 381.876 552.648 552.648 369.103 373.772 634.28 399.673 584.859 538.199 386.547 400.091 669.528 408.857 644.881 554.994 395.104 409.858 677.916 410.845 667.663 557.516 398.114 413.259 679.929 410.645 676.514 555.645 398.267 414.022 678.281 409.367 678.646 553.562 396.667 413.072 676.055 408.15 678.906 552.578 394.628 411.534 675.417 408.019 679.912 553.431 393.357 410.653 677.508 409.489 682.891 556.183 393.624 411.2 682.531 412.661 687.837 560.464 395.767 413.517 689.973 417.316 694.055 565.664 399.77 417.609 698.587 422.937 700.411 570.972 405.24 423.115 706.324 428.714 705.5 575.475 411.423 429.306 710.208 433.491 707.764 578.256 417.122 434.988 706.007 435.474 705.166 578.235 420.389 438.132 687.919 431.216 693.572 573.069 418.395 435.299 651.344 411.987 666.922 558.716 403.531 418.985 607.475 396.073 628.588 537.133 375.75 375.75 384.841 647.952 370.363 370.363 586.718 548.722 395.958 682.775 365.483 387.41 622.605 553.773 406.016 722.045 379.178 422.362 652.784 565.019 409.258 754.642 390.652 446.967 672.408 572.502 410.139 772.829 396.499 459.807 683.865 576.733 410.505 784.33 400.318 467.175 691.417 579.861 410.31 792.305 403.133 471.704 696.485 582.107 409.203 797.276 404.831 474.122 699.028 582.975 407.012 799.321 405.266 474.706 698.832 582.105 403.902 798.587 404.446 473.666 696.017 579.535 400.322 795.632 402.583 471.334 691.151 575.73 396.83 791.362 400.053 468.139 684.931 571.384 393.924 786.453 397.253 464.399 677.691 566.966 392.027 780.858 394.492 460.288 669.103 562.088 391.905 776.848 392 456.286 659.664 558.39 391.919 777.725 390.803 452.692 654.374 556.009 384.291 778.613 391.718 449.971 589.267 536.045 377.199 761.569 376.095 409.941 551.712 551.712 230.747 468.871 223.074 223.074 328.917 331.495 232.583 462.701 223.106 221.197 343.813 337.149 239.709 469.349 225.961 222.158 356.032 344.478 241.055 478.856 231.833 229.51 361.471 348.46 241.927 483.546 235.218 233.338 363.89 350.544 242.701 486.859 237.896 235.977 365.486 352.077 243.056 489.568 240.421 238.298 366.447 353.068 242.608 491.333 242.42 239.999 366.438 353.085 241.208 491.876 243.491 240.748 365.248 351.87 239.012 491.137 243.428 240.417 362.97 349.516 236.443 489.319 242.298 239.128 359.967 346.424 234.103 486.858 240.413 237.24 356.76 343.206 232.619 484.316 238.202 235.194 353.865 340.546 232.319 482.171 235.85 233.16 351.598 338.785 233.128 480.509 233.018 230.839 349.998 337.271 231.593 481.545 230.276 228.941 350.454 334.021 234.395 486.492 232.834 233.575 340.016 332.076 232.902 483.48 228.427 228.365 332.834 332.834 161.256 316.719 157.23 157.23 151.056 154.116 163.521 316.992 157.315 157.691 154.496 158.727 163.346 311.011 156.049 156.459 158.128 161.425 164.931 312.823 159.211 155.438 162.093 165.883 163.681 315.277 159.076 154.981 163.922 168.306 162.792 317.679 159.714 155.79 165.295 169.927 162.436 319.933 161.686 157.754 166.207 170.867 162.366 321.753 164.459 160.4 166.219 170.787 162.376 322.773 167.293 163.059 165.13 169.544 162.372 322.77 169.544 165.128 163.057 167.29 162.363 321.745 170.783 166.213 160.397 164.455 162.434 319.928 170.861 166.2 157.755 161.685 162.792 317.673 169.922 165.289 155.787 159.711 163.678 315.266 168.3 163.917 154.977 159.072 164.931 312.817 165.875 162.087 155.439 159.212 163.343 311.008 161.42 158.124 156.46 156.049 163.518 316.99 158.728 154.496 157.69 157.314 161.25 316.712 154.119 151.059 157.225 157.225 228.369 226.053 222.475 222.475 11.2211 7.70573 238.422 227.513 235.73 230.797 10.8134 7.61147 240.622 227.517 236.729 230.809 14.532 11.5271 239.22 225.603 235.789 229.17 15.0899 12.539 237.64 226.756 235.106 228.161 14.3429 10.8531 235.264 228.387 233.893 226.955 14.0536 9.42862 233.973 230.264 234.561 227.462 13.4361 7.91843 234.225 232.299 237.063 229.657 12.3877 6.75816 235.857 234.159 240.675 232.909 11.0757 6.62139 238.464 235.471 244.573 236.455 9.82016 7.6425 241.472 235.942 247.955 239.54 9.11507 9.24775 244.216 235.472 250.142 241.536 9.40896 10.8189 246.046 234.188 250.674 242.065 10.6395 12.0125 246.546 232.417 249.494 241.214 12.2769 13.0172 245.851 230.289 247.296 239.903 13.7713 14.5571 244.783 227.441 245.977 240.331 11.5997 12.4163 240.712 229.028 237.525 235.488 8.94542 8.23251 229.777 226.3 225.75 224.006 9.49765 9.49765 393.278 243.474 365.149 365.149 158.382 166.411 411.476 255.04 398.201 378.589 167.639 179.826 425.977 255.846 414.513 381.152 170.961 183.778 427.075 255.107 416.289 378.196 170.108 182.969 424.213 253.976 413.923 374.55 167.954 181.032 420.778 252.795 411.831 371.924 165.119 178.541 418.529 252.674 411.251 371.135 162.892 176.797 418.383 253.873 412.876 372.579 162.074 176.522 420.353 256.16 416.294 375.747 162.937 177.875 423.939 259.065 420.669 379.829 165.326 180.611 428.317 261.967 425.045 383.95 168.74 184.162 432.413 264.208 428.457 387.248 172.39 187.702 435.024 265.212 430.08 389.014 175.314 190.244 435.059 264.711 429.428 388.922 176.543 190.727 431.579 263.165 426.319 387.217 175.475 188.02 422.456 262.596 419.729 384.598 172.501 180.034 398.848 260.02 399.921 378.137 166.805 169.801 388.311 250.525 385.31 376.556 155.564 155.564 664.572 370.379 573.925 573.925 343.627 353.224 679.718 400.408 625.162 580.375 363.766 387.112 714.437 414.721 677.316 581.379 378.71 402.616 716.201 417.167 684.667 576.154 381.698 403.475 706.917 415.344 676.471 570.25 379.81 400.292 698.119 412.506 668.669 566.834 376.295 396.419 693.039 410.601 664.598 565.907 373.483 393.579 692.193 410.702 664.552 567.696 372.528 392.759 695.072 412.845 667.779 571.474 373.705 394.07 700.453 416.536 672.793 576.247 376.729 397.125 706.687 420.97 677.977 580.966 380.939 401.235 711.713 425.09 681.763 584.562 385.351 405.44 713.18 427.685 682.831 586.105 388.706 408.534 708.672 427.55 680.341 585.071 389.533 409.063 695.796 423.554 673.835 581.461 385.953 404.993 671.333 413.981 661.914 575.072 373.979 391.857 629.993 391.878 635.408 560.296 345.98 359.35 579.817 386.997 588.332 535.073 330.428 330.428 361.859 715.243 490.633 490.633 533.492 505.002 351.605 733.203 433.924 452.817 556.353 508.074 362.993 744.866 431.269 465.631 570.936 510.545 371.39 759.53 434.152 479.544 583.328 515.543 375.896 772.765 438.014 489.962 592.066 519.37 378.821 781.147 440.341 496.119 598.363 522.349 380.808 787.456 442.313 500.462 603.151 524.893 381.776 792.239 443.859 503.421 606.553 526.79 381.605 795.187 444.602 504.938 608.32 527.649 380.332 796.145 444.414 505.088 608.255 527.238 378.256 795.383 443.401 504.081 606.566 525.74 375.899 793.717 441.92 502.327 603.893 523.786 373.931 791.902 440.518 500.381 600.788 521.98 372.97 789.647 439.708 498.745 597.051 520.134 373.169 790.694 439.404 497.399 594.593 520.743 376.331 804.738 441.397 497.718 596.548 528.536 394.077 843.779 448.415 502.019 631.015 575.867 387.617 933.869 485.522 527.151 596.563 596.563 254.587 629.7 379.036 379.036 368.119 367.527 253.686 603.775 372.576 381.132 359.024 357.461 250.536 594.192 357.127 361.635 358.276 356.769 251.827 594.397 356 359.769 361.158 359.496 253.616 597.396 358.015 361.218 363.337 361.704 255.447 599.496 359.939 362.737 365.181 363.642 257.344 601.839 362.34 364.768 366.945 365.454 258.972 604.018 364.755 366.861 368.306 366.786 259.913 605.292 366.507 368.345 368.85 367.212 259.91 605.289 367.208 368.847 368.345 366.506 258.967 604.006 366.779 368.3 366.853 364.747 257.34 601.83 365.447 366.938 364.764 362.335 255.442 599.483 363.634 365.173 362.73 359.933 253.611 597.386 361.697 363.331 361.21 358.007 251.823 594.383 359.488 361.15 359.76 355.992 250.535 594.178 356.76 358.267 361.636 357.126 253.683 603.763 357.457 359.021 381.126 372.569 254.582 629.682 367.519 368.112 379.027 379.028 232.91 483.491 332.843 332.843 228.368 228.43 234.4 486.504 332.084 340.022 233.578 232.836 231.591 481.55 334.022 350.455 228.941 230.278 233.127 480.522 337.274 350.001 230.844 233.024 232.324 482.186 338.794 351.607 233.167 235.857 232.619 484.325 340.553 353.872 235.199 238.207 234.103 486.866 343.207 356.763 237.244 240.418 236.446 489.329 346.429 359.973 239.134 242.304 239.014 491.139 349.519 362.973 240.417 243.43 241.205 491.871 351.868 365.244 240.745 243.488 242.602 491.323 353.077 366.428 239.992 242.414 243.05 489.559 353.06 366.438 238.292 240.415 242.694 486.85 352.066 365.476 235.973 237.891 241.921 483.539 350.536 363.884 233.333 235.212 241.05 478.845 348.452 361.464 229.504 231.828 239.703 469.336 344.469 356.023 222.158 225.959 232.58 462.697 337.143 343.809 221.196 223.105 230.743 468.86 331.493 328.915 223.071 223.071 304.183 379.502 364.052 364.052 155.764 154.802 308.457 385.142 374.726 374.056 159.368 153.506 302.618 394.886 374.176 381.402 162.16 152.521 297.577 398.971 374.853 388.683 162.039 152.207 296.082 401.843 377.558 391.61 164.35 153.59 294.094 405.148 377.91 393.902 166.822 155.488 294.178 408.624 379.962 397.24 169.564 158.016 296.2 411.965 383.518 401.319 172.489 160.854 299.349 414.848 387.649 405.579 175.201 163.461 302.792 416.904 391.483 409.42 177.271 165.342 305.795 417.808 394.308 412.288 178.377 166.15 307.828 417.45 395.671 413.821 178.411 165.788 308.735 416.029 395.558 414.036 177.542 164.473 309.014 414.057 394.556 413.481 176.229 162.781 310.309 412.03 393.949 413.292 174.816 161.312 316.289 407.749 395.596 414.842 170.488 159.15 321.561 391.881 401.068 416.623 155.249 152.32 316.498 387.141 378.544 382.424 149.232 149.232 453.307 347.591 466.575 466.575 203.735 215.046 463.045 354.501 500.689 479.658 203.283 217.684 456.894 357.865 494.517 469.839 200.006 210.54 445.726 362.736 484.516 466.335 197.675 204.443 436.874 365.389 478.841 466.645 195.682 200.208 431.809 367.003 476.418 467.417 194.604 197.564 429.866 369.414 476.612 469.822 195.075 197.262 430.903 372.488 479.492 473.74 196.935 198.866 433.94 375.886 483.849 478.378 199.748 201.648 437.852 379.17 488.446 482.953 202.975 204.851 441.623 381.835 492.255 486.767 206.016 207.731 444.421 383.427 494.51 489.258 208.304 209.629 445.78 383.827 494.87 490.203 209.509 210.13 445.947 383.617 493.697 490.054 209.91 209.403 446.309 384.613 492.482 490.437 211.255 209.079 449.719 390.909 495.137 495.461 218.638 214.447 459.584 404.007 512.69 516.387 228.586 222.146 465.429 383.705 491.436 500.47 218.458 218.458 728.128 422.224 646.639 646.639 362.849 382.078 733.525 443.186 711.275 655.706 375.449 405.09 720.06 441.006 700.183 611.48 376.263 400.561 696.396 436.383 673.552 590.62 370.483 388.506 677.418 433.099 655.199 584.82 363.962 378.682 667.251 430.913 647.051 584.832 359.327 372.82 663.806 430.533 645.469 586.93 357.285 370.34 665.151 432.223 648.038 590.975 357.764 370.741 669.317 435.367 652.701 595.854 360.15 373.107 674.491 439.22 657.725 600.632 363.64 376.513 679.1 442.981 661.844 604.56 367.368 380.105 681.766 445.799 664.195 607.038 370.43 383.07 681.462 446.954 664.398 607.796 372.008 384.685 677.819 446.219 662.757 607.201 371.584 384.437 671.36 444.564 660.395 606.612 369.235 382.05 663.001 446.453 658.939 608.63 366.205 376.568 650.123 470.717 657.954 617.259 368.611 358.931 625.842 468.271 621.616 623.09 367.131 367.131 466.22 921.111 711.122 711.122 557.523 529.671 405.223 850.772 573.001 603.314 550.736 515.1 402.083 797.111 529.151 565.882 548.527 506.646 405.129 784.996 515.527 558.045 551.457 506.253 408.586 785.833 513.466 559.125 555.075 507.965 410.669 788.221 513.871 561.299 557.604 509.343 412.533 789.535 513.929 562.419 559.872 510.842 414.076 790.896 514.132 563.327 561.848 512.358 414.935 791.859 514.122 563.703 563.209 513.536 414.933 791.855 513.531 563.204 563.704 514.122 414.067 790.886 512.349 561.839 563.318 514.124 412.527 789.52 510.833 559.861 562.41 513.922 410.662 788.208 509.334 557.593 561.288 513.861 408.578 785.819 507.958 555.068 559.114 513.456 405.118 784.98 506.238 551.441 558.034 515.517 402.075 797.09 506.636 548.516 565.869 529.14 405.215 850.752 515.088 550.722 603.304 572.993 466.208 921.08 529.657 557.508 711.101 711.1 387.626 933.901 596.579 596.579 527.164 485.532 394.085 843.794 575.877 631.029 502.028 448.423 376.333 804.756 528.539 596.552 497.727 441.405 373.173 790.71 520.753 594.604 497.409 439.413 372.976 789.66 520.144 597.063 498.754 439.714 373.939 791.918 521.987 600.798 500.392 440.525 375.903 793.729 523.792 603.903 502.333 441.924 378.262 795.391 525.747 606.576 504.089 443.407 380.331 796.143 527.234 608.252 505.088 444.414 381.6 795.18 527.641 608.312 504.936 444.599 381.769 792.225 526.782 606.546 503.41 443.849 380.799 787.437 524.881 603.137 500.452 442.306 378.814 781.127 522.338 598.349 496.107 440.332 375.89 772.751 519.362 592.056 489.952 438.005 371.38 759.506 515.527 583.31 479.532 434.142 362.983 744.853 510.533 570.923 465.621 431.26 351.6 733.183 508.065 556.345 452.807 433.914 361.852 715.216 504.986 533.475 490.621 490.621 377.211 761.591 551.728 551.728 409.95 376.102 384.297 778.632 536.055 589.279 449.979 391.725 391.921 777.736 556.016 654.381 452.694 390.805 391.908 776.864 558.398 659.672 456.294 392.009 392.035 780.877 562.101 669.118 460.298 394.499 393.927 786.466 566.976 677.703 464.407 397.258 396.833 791.376 571.391 684.941 468.145 400.057 400.328 795.645 575.738 691.162 471.342 402.589 403.904 798.584 579.535 696.02 473.667 404.446 407.006 799.31 582.096 698.823 474.701 405.261 409.194 797.263 582.964 699.016 474.112 404.821 410.3 792.288 582.092 696.468 471.694 403.123 410.495 784.314 579.846 691.401 467.167 400.31 410.131 772.813 576.722 683.854 459.799 396.49 409.248 754.62 572.485 672.39 446.957 390.644 406.005 722.03 565.008 652.771 422.35 379.169 395.952 682.762 553.762 622.592 387.405 365.479 384.833 647.93 548.712 586.705 370.356 370.356 418.415 625.557 567.309 567.309 340.295 314.835 418.332 641.471 549.705 588.198 369.139 326.601 414.839 683.627 564.106 634.2 391.767 337.521 415.707 703.052 580.142 674.564 398.126 342.536 417.634 710.098 589.041 685.279 403.664 347.014 419.157 717.278 594.587 694.611 408.78 351.224 421.993 723.985 599.904 703.04 413.277 355.118 425.801 730.156 605.53 710.834 417.34 358.622 430.068 735.39 610.965 717.802 420.955 361.538 434.25 739.073 615.522 723.437 423.845 363.566 437.874 740.589 618.599 727.104 425.72 364.468 440.725 739.669 619.906 728.451 426.462 364.22 443.091 736.456 619.727 727.712 426.153 363.09 446.018 731.157 619.056 725.671 424.794 361.613 451.532 722.957 619.451 723.031 421.426 360.323 463.242 704.29 621.839 717.932 410.172 357.59 485.871 658.782 625.652 703.853 376.772 345.188 479.062 620.695 640.614 685.233 327.483 327.483 519.522 548.23 628.954 628.954 330.718 318.014 513.449 542.898 622.428 632.727 334.869 312.042 490.924 565.782 607.592 634.024 341.481 310.426 480.531 589.661 607.351 650.193 350.235 314.271 478.143 601.134 613.756 667.378 354.603 317.844 479.189 607.216 619.312 675.43 358.341 321.031 481.742 612.6 624.155 682.532 361.921 324.439 485.67 617.916 629.748 689.538 365.58 328.015 490.289 623.112 635.516 696.183 369.38 331.547 494.932 627.959 640.782 702.19 373.19 334.77 499.099 632.063 644.997 707.205 376.789 337.413 502.535 635.145 647.832 710.974 380.069 339.329 505.517 637.486 649.423 713.727 383.325 340.757 509.374 640.297 650.8 716.635 387.589 342.699 517.441 645.829 654.483 722.254 394.908 347.617 537.418 656.42 665.376 734.643 408.364 361.216 591.08 660.719 693.827 759.857 421.866 390.686 619.623 635.827 777.224 819.452 371.443 371.443 741.811 541.914 761.518 761.518 406.178 421.916 714.741 517.639 776.72 732.675 397.46 409.468 651.657 513.206 705.44 667.249 386.643 390.595 622.47 523.358 674.987 652.193 384.808 382.6 614.796 534.923 672.717 662.571 386.546 381.391 615.678 541.29 678.275 674.724 388.264 382.199 619.289 545.685 683.887 682.633 390.755 384.317 624.442 550 689.892 689.694 394.066 387.49 630.026 554.4 695.622 695.838 397.934 391.223 635.266 558.857 700.553 701.012 402.076 395.12 639.653 563.21 704.428 705.237 406.198 398.837 642.935 567.264 707.16 708.564 410.056 402.072 645.384 571.112 708.961 711.329 413.722 404.72 648.338 575.746 710.623 714.609 418.087 407.262 655.108 584.065 714.1 720.986 425.845 411.673 672.368 602.811 723.634 735.812 444.172 424.616 711.476 647.539 750.486 771.463 493.45 471.15 770.463 719.437 848.665 878.969 486.325 486.325 
SCALARS volume float 1
LOOKUP_TABLE default
0.000708868 0.000805285 0.000789746 0.000789746 0.000816512 0.00084112 0.000718498 0.000771392 0.000750284 0.000737652 0.000811245 0.000826536 0.000738333 0.000765662 0.000748434 0.000747584 0.000809419 0.000817802 0.000748808 0.000762141 0.00074765 0.000752531 0.000808764 0.000813318 0.00075352 0.000760216 0.000747639 0.000755258 0.000808292 0.000811009 0.000755527 0.000759363 0.000748034 0.000756828 0.000807877 0.000809776 0.000756416 0.00075913 0.000748478 0.000757705 0.000807596 0.000809119 0.000756893 0.000759174 0.000748765 0.000758128 0.000807513 0.000808818 0.000757214 0.000759252 0.000748826 0.000758254 0.000807648 0.000808761 0.00075742 0.000759191 0.000748684 0.000758213 0.000807979 0.000808809 0.000757502 0.000758855 0.000748427 0.000758162 0.000808442 0.000808715 0.000757496 0.000758081 0.000748203 0.000758315 0.000808914 0.000808073 0.000757503 0.000756685 0.000748218 0.000758941 0.00080911 0.000806383 0.000757654 0.000754882 0.000748662 0.000760113 0.00080959 0.00080226 0.000758492 0.00075124 0.000749425 0.000762417 0.000809999 0.000793444 0.000760459 0.000743811 0.000750575 0.000767486 0.000808605 0.000778701 0.000762508 0.000731414 0.000752069 0.000777284 0.000803423 0.000762006 0.000765371 0.000710842 0.000752713 0.000789449 0.000780788 0.000780788 0.000718023 0.000744068 0.000776964 0.000776964 0.000766695 0.000778255 0.000726437 0.000753113 0.000780454 0.000765179 0.000800721 0.000786763 0.000724618 0.000745919 0.000762737 0.000753407 0.000810415 0.000788808 0.000721838 0.000740574 0.000755543 0.000749156 0.000813399 0.000789082 0.000719392 0.00073761 0.000753249 0.00074762 0.000814182 0.000788882 0.000717829 0.000736272 0.000753046 0.00074716 0.000814231 0.000788615 0.000717189 0.000735924 0.00075352 0.000747069 0.000814154 0.00078851 0.000717201 0.000736079 0.000753997 0.000747014 0.000814172 0.00078864 0.000717476 0.000736372 0.000754228 0.000746883 0.000814303 0.000788937 0.000717652 0.000736547 0.00075421 0.000746704 0.000814457 0.000789174 0.000717467 0.000736444 0.000754092 0.000746596 0.000814526 0.000788982 0.000716817 0.000735987 0.000754109 0.000746754 0.000814412 0.000787888 0.000715718 0.000735174 0.00075451 0.00074736 0.000814014 0.000785485 0.000714332 0.000734397 0.00075545 0.000748368 0.00081404 0.000781111 0.000713238 0.000733746 0.000756596 0.00074991 0.000815179 0.00077505 0.000712627 0.000733313 0.000757026 0.000752116 0.000817119 0.000772044 0.000710105 0.000735616 0.000756147 0.000755043 0.000819082 0.000787045 0.000703097 0.000751273 0.000752611 0.000756501 0.000837044 0.000837043 0.000738947 0.000727421 0.000782972 0.000782972 0.000760805 0.00073592 0.000733561 0.000735155 0.000787463 0.000781358 0.000782083 0.000743881 0.000719734 0.00073184 0.00077781 0.000771579 0.000792577 0.000746638 0.000709413 0.000729091 0.000773265 0.000766525 0.000796574 0.000747231 0.000703361 0.000727834 0.000772536 0.000765179 0.000797389 0.00074679 0.000700738 0.000727516 0.000773396 0.000765164 0.000797138 0.000746213 0.000700412 0.000727684 0.000774542 0.00076552 0.000796788 0.000745963 0.000701265 0.000728044 0.000775387 0.000765796 0.000796648 0.000746125 0.000702362 0.000728424 0.000775773 0.000765831 0.000796702 0.000746531 0.000703051 0.000728725 0.000775802 0.000765637 0.000796806 0.000746851 0.000702976 0.000728898 0.000775685 0.000765314 0.00079683 0.000746702 0.000702064 0.000728937 0.000775649 0.000765011 0.000796759 0.000745835 0.000700456 0.000728903 0.000775832 0.000764849 0.000796743 0.000744408 0.000698451 0.000729063 0.000776166 0.000764801 0.000797627 0.000742933 0.000696627 0.000729543 0.000775983 0.000764872 0.000800073 0.000743277 0.000695813 0.000730847 0.000774291 0.000765043 0.00080347 0.000751948 0.000692984 0.000734805 0.000769888 0.000763251 0.000802508 0.000779721 0.000681878 0.000748413 0.000766648 0.00075967 0.000807011 0.000807011 0.000767236 0.000726346 0.000790087 0.000790087 0.000771583 0.000716434 0.000742553 0.000730231 0.000782243 0.000788171 0.000778835 0.00071659 0.000723825 0.000730776 0.000783736 0.000784383 0.000784043 0.000715183 0.00071324 0.000731172 0.000785511 0.000784425 0.000785457 0.000713409 0.000709098 0.000731159 0.000787501 0.000785383 0.000784967 0.000711805 0.000709013 0.00073122 0.000789337 0.000786816 0.000784085 0.000710758 0.000710968 0.000731295 0.000790596 0.000788041 0.000783484 0.000710413 0.00071349 0.000731371 0.000791179 0.000788769 0.000783303 0.000710659 0.000715603 0.000731479 0.000791208 0.000788963 0.000783432 0.000711253 0.000716748 0.00073165 0.000790912 0.000788718 0.000783687 0.000711899 0.000716713 0.000731861 0.00079052 0.000788206 0.000783927 0.000712387 0.000715573 0.000732062 0.00079018 0.000787633 0.000784123 0.000712762 0.000713599 0.000732146 0.000789909 0.000787189 0.000784355 0.000713513 0.000711153 0.000731998 0.000789541 0.000786994 0.000785015 0.000715525 0.00070874 0.000731596 0.000788656 0.000787374 0.000786067 0.000720603 0.000706704 0.000731733 0.000787259 0.000788821 0.000786003 0.000731557 0.000705892 0.000733341 0.000784823 0.000788154 0.000778554 0.000754986 0.000694734 0.00073693 0.000784873 0.00078043 0.000762459 0.000762459 0.000788457 0.000732301 0.000784239 0.000784239 0.000798713 0.000731212 0.000752329 0.000735238 0.000765826 0.000782959 0.000796078 0.000722838 0.000738173 0.000740001 0.000776529 0.000790473 0.000794868 0.000716951 0.000734142 0.000741596 0.000782529 0.000796969 0.000793324 0.000713314 0.000735157 0.000742024 0.000785564 0.000801304 0.000791733 0.000711223 0.000738303 0.000741922 0.000786906 0.000804081 0.000790522 0.000710196 0.000741861 0.000741642 0.000787246 0.000805697 0.00078992 0.000709982 0.000744856 0.000741357 0.000786965 0.000806388 0.000789884 0.000710373 0.000746778 0.000741178 0.000786365 0.000806407 0.000790231 0.000711166 0.00074742 0.000741166 0.000785683 0.00080601 0.000790727 0.000712176 0.000746777 0.000741307 0.000785087 0.000805455 0.000791149 0.000713302 0.000745021 0.000741512 0.000784662 0.000804991 0.000791291 0.000714588 0.000742461 0.000741601 0.000784407 0.000804838 0.00079088 0.00071624 0.000739484 0.000741273 0.000784272 0.000805171 0.000789526 0.000718471 0.000736692 0.00074008 0.000784254 0.000806339 0.000785988 0.000721461 0.000734819 0.000737475 0.000785172 0.000809147 0.000777591 0.000725402 0.000734694 0.000736186 0.000790356 0.000815452 0.000763602 0.000731844 0.000732471 0.000730239 0.000793329 0.000805405 0.000732342 0.000732342 0.000780731 0.000738087 0.000740447 0.000740447 0.00083458 0.000791317 0.000765074 0.000744426 0.000736535 0.000763769 0.000823001 0.000779142 0.000761562 0.000754984 0.00075651 0.00078769 0.000816412 0.00077162 0.000762719 0.00075826 0.000765678 0.000800287 0.000812471 0.000767627 0.000765585 0.000759324 0.000769143 0.000806502 0.000810108 0.000765614 0.000768818 0.000759476 0.000769834 0.000809273 0.000808856 0.000764709 0.000771683 0.000759242 0.000769242 0.000810251 0.000808432 0.000764551 0.000773771 0.000758934 0.000768133 0.000810252 0.000808605 0.000764956 0.000774865 0.000758736 0.000766902 0.00080977 0.000809134 0.000765787 0.000774867 0.000758736 0.000765787 0.000809135 0.000809772 0.000766904 0.000773772 0.000758933 0.000764955 0.000808604 0.000810252 0.000768133 0.000771683 0.000759242 0.000764549 0.00080843 0.00081025 0.000769241 0.000768819 0.000759477 0.00076471 0.000808856 0.000809274 0.000769834 0.000765585 0.000759324 0.000765614 0.000810109 0.000806501 0.000769143 0.00076272 0.000758259 0.000767626 0.000812468 0.000800285 0.000765677 0.000761563 0.000754985 0.000771621 0.000816411 0.00078769 0.000756511 0.000765076 0.000744425 0.000779142 0.000823 0.00076377 0.000736537 0.000780733 0.000738087 0.000791317 0.000834579 0.000740448 0.000740448 0.000723438 0.000756313 0.000777734 0.000777734 0.000805578 0.000809677 0.000723665 0.000732831 0.000731989 0.000758492 0.000784008 0.000801647 0.000743872 0.000729683 0.000744207 0.00076688 0.000771991 0.000790143 0.000753638 0.000729429 0.000748605 0.000774112 0.000767339 0.000783957 0.000758621 0.000728111 0.000750426 0.000778112 0.00076507 0.000780343 0.000761065 0.000727093 0.000751406 0.000780629 0.00076362 0.000778076 0.000762218 0.000726656 0.000752024 0.000782253 0.000762655 0.000776687 0.000762726 0.00072672 0.000752418 0.00078324 0.000762154 0.000775969 0.000762902 0.00072708 0.000752649 0.000783741 0.000762121 0.000775769 0.000762884 0.000727508 0.000752761 0.000783901 0.000762474 0.000775886 0.000762721 0.000727814 0.000752833 0.000783886 0.000763069 0.000775998 0.000762471 0.000727808 0.000752982 0.00078392 0.000763713 0.000775647 0.000762265 0.000727206 0.000753417 0.00078432 0.000763996 0.000774353 0.000762195 0.000725929 0.000754444 0.000785356 0.000762856 0.000772154 0.000761554 0.000726269 0.000755845 0.000785908 0.000763389 0.000766249 0.000761287 0.000723758 0.000757664 0.000788422 0.000763205 0.000754342 0.000759689 0.000717803 0.000761192 0.000795017 0.00075367 0.000734424 0.000753388 0.00070437 0.000772128 0.000807599 0.000710446 0.000710446 0.000721294 0.000728544 0.000771161 0.000771161 0.0007673 0.000774732 0.000726226 0.000726239 0.000768459 0.00076524 0.000785349 0.000778527 0.000724864 0.000725615 0.000751661 0.000763786 0.000782746 0.000771532 0.000728461 0.000724514 0.000750617 0.000766239 0.000782486 0.000769785 0.000730783 0.000723029 0.000751263 0.00076697 0.000782029 0.000768728 0.00073194 0.000722061 0.000752131 0.000767371 0.000781443 0.000767859 0.000732491 0.000721725 0.000752871 0.000767698 0.000780974 0.000767276 0.000732724 0.000721872 0.000753365 0.000767901 0.000780747 0.000767083 0.000732739 0.000722282 0.000753633 0.00076794 0.000780757 0.000767246 0.000732547 0.000722732 0.000753768 0.000767846 0.000780905 0.00076759 0.000732136 0.000723067 0.000753923 0.000767716 0.000781055 0.000767804 0.000731533 0.000723187 0.000754262 0.000767701 0.000781074 0.000767499 0.00073084 0.000722982 0.000754947 0.000767972 0.000780751 0.00076636 0.000730299 0.000722438 0.000756136 0.000768549 0.00077979 0.000764812 0.000729706 0.00072319 0.000757493 0.00076836 0.000780499 0.000762314 0.000729034 0.000724606 0.000757725 0.000768608 0.000782467 0.00075859 0.00072781 0.000726449 0.000756478 0.000770259 0.000782327 0.000757605 0.000722506 0.000734508 0.000755547 0.000772617 0.000775149 0.000775149 0.000728332 0.000722417 0.000769705 0.000769705 0.00075981 0.000756872 0.000722562 0.000717896 0.000767868 0.000764989 0.00076234 0.000748486 0.000718209 0.000720768 0.000765808 0.000765831 0.000773016 0.000750246 0.000715417 0.000719533 0.000762745 0.000763319 0.000774552 0.000749965 0.000713897 0.000718354 0.000762497 0.000762284 0.000773952 0.000749107 0.000713296 0.000717732 0.000763122 0.00076218 0.000773035 0.000748124 0.000713345 0.000717567 0.000763799 0.000762471 0.00077235 0.000747373 0.000713677 0.000717715 0.000764236 0.000762778 0.000772026 0.000747059 0.000713955 0.000718036 0.000764433 0.000762908 0.000771988 0.000747201 0.000713937 0.000718398 0.00076451 0.000762824 0.000772063 0.000747661 0.000713518 0.000718691 0.000764639 0.000762604 0.000772067 0.000748211 0.000712722 0.000718826 0.000764957 0.000762397 0.000771893 0.000748606 0.000711709 0.000718744 0.000765495 0.000762376 0.000771527 0.000748743 0.00071073 0.000718422 0.000766076 0.000762551 0.000771033 0.00074895 0.000710003 0.000718316 0.000766179 0.000762316 0.000771551 0.00074928 0.000709755 0.000718989 0.000765275 0.000762678 0.000773937 0.000751216 0.00071034 0.000720704 0.000761787 0.000763233 0.00077613 0.000758572 0.000709998 0.000730075 0.000757151 0.00076267 0.000776564 0.000776564 0.000738043 0.000721365 0.000767578 0.000767578 0.000765129 0.000752367 0.000725179 0.000721791 0.000760567 0.00076511 0.000765399 0.000740036 0.000718583 0.000721665 0.0007645 0.000766446 0.000769385 0.000740656 0.000714141 0.000721356 0.000764936 0.000764881 0.000769678 0.000740228 0.00071253 0.000721131 0.0007653 0.00076472 0.000768683 0.000739105 0.000712775 0.000721094 0.000765828 0.000765639 0.00076765 0.000737864 0.000713897 0.000721138 0.000766136 0.000766735 0.000767009 0.000736924 0.000715157 0.000721225 0.000766155 0.00076755 0.00076679 0.000736493 0.000716037 0.000721359 0.000765996 0.000767934 0.000766818 0.000736587 0.000716239 0.000721513 0.000765834 0.000767923 0.000766851 0.000737102 0.000715688 0.000721635 0.000765844 0.000767685 0.000766669 0.000737862 0.000714496 0.000721648 0.000766124 0.00076746 0.000766152 0.00073871 0.000712944 0.000721463 0.000766645 0.0007675 0.000765359 0.000739598 0.000711458 0.000721052 0.000767191 0.000767987 0.000764626 0.000740731 0.000710384 0.000720625 0.000767272 0.000768845 0.000764734 0.00074208 0.000709648 0.000720581 0.000766258 0.000770027 0.000765122 0.000743503 0.000711575 0.000721846 0.00076636 0.000772133 0.000765544 0.000751215 0.000717418 0.000723789 0.000764035 0.000768617 0.000762869 0.000762869 0.000743932 0.000724522 0.000759406 0.000759406 0.000780936 0.000762752 0.000728377 0.000728246 0.000748605 0.000764231 0.000785872 0.000753707 0.000723094 0.000727511 0.000749024 0.000769005 0.000782635 0.000750781 0.000721705 0.000728403 0.000749903 0.000771683 0.000780424 0.000749345 0.000722724 0.000729077 0.000749654 0.000773918 0.000778974 0.000748201 0.000724896 0.000729344 0.000749055 0.00077586 0.000778104 0.000747246 0.000727284 0.00072938 0.000748433 0.000777315 0.000777829 0.000746639 0.000729215 0.000729316 0.000747772 0.000778147 0.000777977 0.000746452 0.000730282 0.000729258 0.000747138 0.000778409 0.000778269 0.000746654 0.000730283 0.000729259 0.000746652 0.000778266 0.00077841 0.00074714 0.000729215 0.000729319 0.000746453 0.000777975 0.000778149 0.000747774 0.000727281 0.00072938 0.000746639 0.000777827 0.000777315 0.000748434 0.000724896 0.000729342 0.000747246 0.000778103 0.000775861 0.000749057 0.000722727 0.000729079 0.000748202 0.000778974 0.00077392 0.000749657 0.00072171 0.000728405 0.000749344 0.000780423 0.000771684 0.000749903 0.000723096 0.000727512 0.000750782 0.000782636 0.000769006 0.000749027 0.00072838 0.000728247 0.000753709 0.000785871 0.000764233 0.000748608 0.000743936 0.000724525 0.00076275 0.000780935 0.000759406 0.000759406 0.000732467 0.000730238 0.000732342 0.000732342 0.000805406 0.000793332 0.00073469 0.000736185 0.000731844 0.000763601 0.000815453 0.000790355 0.000734817 0.000737473 0.000725398 0.000777592 0.000809148 0.000785173 0.00073669 0.000740079 0.000721458 0.00078599 0.000806339 0.000784255 0.000739483 0.000741271 0.000718468 0.000789525 0.00080517 0.000784273 0.000742457 0.000741602 0.00071624 0.000790879 0.000804839 0.000784407 0.00074502 0.000741512 0.000714588 0.000791292 0.000804992 0.000784663 0.000746776 0.000741306 0.000713301 0.00079115 0.000805456 0.000785087 0.000747418 0.000741166 0.000712172 0.000790727 0.000806012 0.000785685 0.000746779 0.00074118 0.000711163 0.000790231 0.00080641 0.000786368 0.000744855 0.000741359 0.000710373 0.000789885 0.000806389 0.000786966 0.00074186 0.000741643 0.00070998 0.000789919 0.000805696 0.000787245 0.000738305 0.000741924 0.000710195 0.000790522 0.000804082 0.000786909 0.000735159 0.000742025 0.000711224 0.00079173 0.000801305 0.000785567 0.000734144 0.000741595 0.000713314 0.00079332 0.00079697 0.000782529 0.000738178 0.000740002 0.000716954 0.000794869 0.000790475 0.000776531 0.000752332 0.00073524 0.00072284 0.000796078 0.000782959 0.000765827 0.000788461 0.000732301 0.000731211 0.000798711 0.000784239 0.000784239 0.000721934 0.000710889 0.000765504 0.000765504 0.000786675 0.000787022 0.000731315 0.000713821 0.000741947 0.000773022 0.000769325 0.000785339 0.000742923 0.000706499 0.000751259 0.000773985 0.000754552 0.00077756 0.000748164 0.000706128 0.000756985 0.00077969 0.000745608 0.00077063 0.000751327 0.000705711 0.000759623 0.000784131 0.000740721 0.000766052 0.00075333 0.00070466 0.000760821 0.00078707 0.000737617 0.000762898 0.00075453 0.000703894 0.000761459 0.000789168 0.000735516 0.000760765 0.000755218 0.000703687 0.000761887 0.000790649 0.000734206 0.000759475 0.000755582 0.000704001 0.000762239 0.000791609 0.000733636 0.000758904 0.000755726 0.000704657 0.000762558 0.000792122 0.000733716 0.000758869 0.000755677 0.000705446 0.000762869 0.000792283 0.000734248 0.000759096 0.000755461 0.000706197 0.00076325 0.000792247 0.000734978 0.000759182 0.000755111 0.000706698 0.00076387 0.000792284 0.000735648 0.000758675 0.00075451 0.00070671 0.000764862 0.000792642 0.000735759 0.000757416 0.000753434 0.000706538 0.000766229 0.000793052 0.000731781 0.000756084 0.000750822 0.000714611 0.000769202 0.000792175 0.000734237 0.000748827 0.000747391 0.000718203 0.000774043 0.00079451 0.000731707 0.000735435 0.000739419 0.000711836 0.000787184 0.000801684 0.000702598 0.000702598 0.000718705 0.000718088 0.000764007 0.000764007 0.00076632 0.000764645 0.000723254 0.00071767 0.000761132 0.000765646 0.000779572 0.000769971 0.000719189 0.000716909 0.000744367 0.000767865 0.000770996 0.000761003 0.000722384 0.000719271 0.000746812 0.000772888 0.000768179 0.000756729 0.00072433 0.000720436 0.000748507 0.00077564 0.000767326 0.000754862 0.000725405 0.000720627 0.000749381 0.000776896 0.000766746 0.000753669 0.000725968 0.00072066 0.000749909 0.000777588 0.000766262 0.000752848 0.000726215 0.000720819 0.000750232 0.000778018 0.000765914 0.000752409 0.000726262 0.00072112 0.000750451 0.00077826 0.00076574 0.00075236 0.000726152 0.000721479 0.000750654 0.000778343 0.000765715 0.000752604 0.0007259 0.000721797 0.000750908 0.000778297 0.000765752 0.000752931 0.000725513 0.000722007 0.000751282 0.000778178 0.000765725 0.000753032 0.000725019 0.000722018 0.000751855 0.000778069 0.000765419 0.000752507 0.000724651 0.000721725 0.00075285 0.000778166 0.000764543 0.000751453 0.000725314 0.000721429 0.000754615 0.00077857 0.000762864 0.00075299 0.000724203 0.00072438 0.000755266 0.000775161 0.00076387 0.000751183 0.00072283 0.000726901 0.000755785 0.000774862 0.000763148 0.000747903 0.000718075 0.000724973 0.000758169 0.000775433 0.000746743 0.000746743 0.000720571 0.000717632 0.000761172 0.000761172 0.000760227 0.000756842 0.000717321 0.000714958 0.000758396 0.000760868 0.000763327 0.000756823 0.000716398 0.000716808 0.000756527 0.000762189 0.00076945 0.00075493 0.000714103 0.000718417 0.000752382 0.000763989 0.000768319 0.000752192 0.000714453 0.000718904 0.000753361 0.000765304 0.00076758 0.000751146 0.000715085 0.000718914 0.000754397 0.000765927 0.000766914 0.000750328 0.000715647 0.000718916 0.000755007 0.000766382 0.000766382 0.000749656 0.000716064 0.000718998 0.000755261 0.000766715 0.000766046 0.000749276 0.000716264 0.000719151 0.000755329 0.000766908 0.000765883 0.000749254 0.000716198 0.00071933 0.000755377 0.000766978 0.000765795 0.000749536 0.000715853 0.000719469 0.00075554 0.000766986 0.000765658 0.000749956 0.000715273 0.000719516 0.000755893 0.000767023 0.000765365 0.000750259 0.000714572 0.000719417 0.000756424 0.000767181 0.000764835 0.000750176 0.000714021 0.000719021 0.00075709 0.000767542 0.000763905 0.000749735 0.000714555 0.00071801 0.000758142 0.000768111 0.000762375 0.00075087 0.000715085 0.000717835 0.000758706 0.000765965 0.000762672 0.000751554 0.000715699 0.000718998 0.000757686 0.000765082 0.000763833 0.000752044 0.00071713 0.000722058 0.00075505 0.000763908 0.000759021 0.000759021 0.000722525 0.000717962 0.000760135 0.000760135 0.00076131 0.000755999 0.000715433 0.000716848 0.000753677 0.000759824 0.000762973 0.000757032 0.000713156 0.000715535 0.000753128 0.000758429 0.00076268 0.00075531 0.000711904 0.000716537 0.00075354 0.000758612 0.000763926 0.000755593 0.000711816 0.00071682 0.000753404 0.000758795 0.000762985 0.000754956 0.000712445 0.000716893 0.000753588 0.00075938 0.000762014 0.000754036 0.000713321 0.000716933 0.000753528 0.000760096 0.000761429 0.000753222 0.000714113 0.000716944 0.000753218 0.000760657 0.000761175 0.000752735 0.000714577 0.000716946 0.000752852 0.000760966 0.000761085 0.000752635 0.000714576 0.000716946 0.000752637 0.000761085 0.000760966 0.000752853 0.000714111 0.000716945 0.000752735 0.000761174 0.000760658 0.000753219 0.000713321 0.000716934 0.00075322 0.000761427 0.000760097 0.000753529 0.000712447 0.000716895 0.000754035 0.000762014 0.00075938 0.000753591 0.000711817 0.00071682 0.000754957 0.000762983 0.000758796 0.000753405 0.000711909 0.000716537 0.000755593 0.000763927 0.000758611 0.000753539 0.000713158 0.000715537 0.000755312 0.000762682 0.000758429 0.000753129 0.000715436 0.000716851 0.000757033 0.000762973 0.000759828 0.000753679 0.000722526 0.000717965 0.000755998 0.00076131 0.000760136 0.000760136 0.000717416 0.000723787 0.00076287 0.00076287 0.000768617 0.000764034 0.000711571 0.000721844 0.000751212 0.000765543 0.000772133 0.00076636 0.000709643 0.00072058 0.000743499 0.000765122 0.000770024 0.000766257 0.000710382 0.000720626 0.000742079 0.000764732 0.000768846 0.000767272 0.000711455 0.00072105 0.000740728 0.000764624 0.000767989 0.000767191 0.000712941 0.00072146 0.000739595 0.000765358 0.000767502 0.000766647 0.000714498 0.000721645 0.000738708 0.000766152 0.00076746 0.000766126 0.000715688 0.000721631 0.000737859 0.000766666 0.000767685 0.000765845 0.000716239 0.00072151 0.000737099 0.00076685 0.000767922 0.000765834 0.000716038 0.000721358 0.000736585 0.000766818 0.000767933 0.000765997 0.000715157 0.000721227 0.00073649 0.000766788 0.00076755 0.000766155 0.000713896 0.000721137 0.000736921 0.000767008 0.000766735 0.000766136 0.000712778 0.000721094 0.000737862 0.000767651 0.00076564 0.000765826 0.000712533 0.000721133 0.000739103 0.000768684 0.000764719 0.000765299 0.000714142 0.000721356 0.000740227 0.000769678 0.00076488 0.000764936 0.000718587 0.000721666 0.000740655 0.000769385 0.000766446 0.0007645 0.00072518 0.000721793 0.000740036 0.000765398 0.000765111 0.000760567 0.000738044 0.000721366 0.000752366 0.000765127 0.000767579 0.000767579 0.000694732 0.000736929 0.000762458 0.000762458 0.000780431 0.000784874 0.000705889 0.000733339 0.000754986 0.000778552 0.000788155 0.000784821 0.0007067 0.000731732 0.000731554 0.000786003 0.000788821 0.000787258 0.000708738 0.000731596 0.000720603 0.000786068 0.000787376 0.000788656 0.00071115 0.000731996 0.000715524 0.000785016 0.000786993 0.000789539 0.000713596 0.000732144 0.000713512 0.000784355 0.000787189 0.000789909 0.000715573 0.000732061 0.000712762 0.000784122 0.000787636 0.000790181 0.000716713 0.000731861 0.000712386 0.000783928 0.000788208 0.000790519 0.000716746 0.000731647 0.000711895 0.000783686 0.000788717 0.000790912 0.000715604 0.000731479 0.000711252 0.000783429 0.000788965 0.00079121 0.00071349 0.000731369 0.000710659 0.0007833 0.00078877 0.000791179 0.000710969 0.000731295 0.000710411 0.000783482 0.00078804 0.000790595 0.000709016 0.000731221 0.000710759 0.000784084 0.000786818 0.000789338 0.000709099 0.000731159 0.000711807 0.000784965 0.000785385 0.000787502 0.000713241 0.00073117 0.000713408 0.000785455 0.000784425 0.00078551 0.00072383 0.000730777 0.000715183 0.000784044 0.000784385 0.000783736 0.000742558 0.000730233 0.000716588 0.000778836 0.000788172 0.000782243 0.000767236 0.000726347 0.000716431 0.00077158 0.000790087 0.000790087 0.000724371 0.000687037 0.000764839 0.000764839 0.000767983 0.000770868 0.000736373 0.000709997 0.000768428 0.000784109 0.000759366 0.00077786 0.000738401 0.000708892 0.000771844 0.000776637 0.000753135 0.000779992 0.000739191 0.000705693 0.000774593 0.000774596 0.000746241 0.000777357 0.000739678 0.00070531 0.000776807 0.000776059 0.000741061 0.000774303 0.000740249 0.000704875 0.000778174 0.000777631 0.000737444 0.000771785 0.000740822 0.000704253 0.000778993 0.000778953 0.000734801 0.0007698 0.000741303 0.000703931 0.00077959 0.000780124 0.000732918 0.000768382 0.000741691 0.000704055 0.000780109 0.000781097 0.000731767 0.000767564 0.000742006 0.000704566 0.000780568 0.000781802 0.000731336 0.000767309 0.000742245 0.000705305 0.000780943 0.000782199 0.000731519 0.000767493 0.000742389 0.000706131 0.000781256 0.000782324 0.00073212 0.000767877 0.000742392 0.000706948 0.000781595 0.000782326 0.00073302 0.00076822 0.000742109 0.000707674 0.000781951 0.000782285 0.000734291 0.000768664 0.000741107 0.000708482 0.00078187 0.000781412 0.000735601 0.000768607 0.000738537 0.00071011 0.000782001 0.000779924 0.000728822 0.000766699 0.000736134 0.000728262 0.000787706 0.000780716 0.000735536 0.000760407 0.000732033 0.000729241 0.00079512 0.000782501 0.000737953 0.000737953 0.000716034 0.000717343 0.000760756 0.000760756 0.00076692 0.000760471 0.00071746 0.000714832 0.000760718 0.000766006 0.000769598 0.000759607 0.000714727 0.000719174 0.000750928 0.000770584 0.000767518 0.000758364 0.000714878 0.000720943 0.000750768 0.000771961 0.000764716 0.000754878 0.000714383 0.000723018 0.000751371 0.000774056 0.000763629 0.000752723 0.000714127 0.000724256 0.000751488 0.000775414 0.000763232 0.000751523 0.000714023 0.000724819 0.000751354 0.000776109 0.000762884 0.000750667 0.000713977 0.000725129 0.000751246 0.000776566 0.000762526 0.000750077 0.000713967 0.000725365 0.000751263 0.000776931 0.000762216 0.000749805 0.000713995 0.000725556 0.000751437 0.000777202 0.000762018 0.00074986 0.000714057 0.000725666 0.000751735 0.000777328 0.000761935 0.000750177 0.000714153 0.000725637 0.000752119 0.000777254 0.000761879 0.000750597 0.000714294 0.000725373 0.000752595 0.00077697 0.000761651 0.000750849 0.00071459 0.000724809 0.000753403 0.000776692 0.000761113 0.000750894 0.000715083 0.000724207 0.000754754 0.000776563 0.000760511 0.000751517 0.000716507 0.000723503 0.000755315 0.000775188 0.000757147 0.00075622 0.000715875 0.000727429 0.00075714 0.0007708 0.000756312 0.000754151 0.000714567 0.000723191 0.000761684 0.000770282 0.00074639 0.000746391 0.000715265 0.000719647 0.000755682 0.000755682 0.000764074 0.000755493 0.000714087 0.000719597 0.000753927 0.000761252 0.000765915 0.000754632 0.000714171 0.000720857 0.00075341 0.000762952 0.000772993 0.00075477 0.000710748 0.000722585 0.000746343 0.000765484 0.00077106 0.000751032 0.000710698 0.000724365 0.000747187 0.000767913 0.000770608 0.000749388 0.000711037 0.000725226 0.000747885 0.000769157 0.000770631 0.00074866 0.000711338 0.000725602 0.000748014 0.000769723 0.000770601 0.000748158 0.00071155 0.000725774 0.000747886 0.000770024 0.0007705 0.000747816 0.00071166 0.000725845 0.000747721 0.000770217 0.00077037 0.000747672 0.000711664 0.000725847 0.000747671 0.00077037 0.000770219 0.000747723 0.000711552 0.000725776 0.000747815 0.000770501 0.000770025 0.000747886 0.000711339 0.000725601 0.000748157 0.000770601 0.000769722 0.000748015 0.000711037 0.000725229 0.00074866 0.00077063 0.000769157 0.000747885 0.000710699 0.000724369 0.000749389 0.000770609 0.000767913 0.000747189 0.00071075 0.000722584 0.000751035 0.00077106 0.000765483 0.000746344 0.000714174 0.00072086 0.000754771 0.000772992 0.000762953 0.000753412 0.000714089 0.000719598 0.000754631 0.000765914 0.000761253 0.000753928 0.000715268 0.000719648 0.000755492 0.000764072 0.000755683 0.000755683 0.000717129 0.000722056 0.000759021 0.000759021 0.00076391 0.00075505 0.000715696 0.000719 0.000752043 0.000763834 0.000765085 0.000757688 0.000715082 0.000717833 0.000751555 0.000762672 0.000765964 0.000758703 0.000714554 0.000718012 0.000750869 0.000762377 0.000768112 0.000758143 0.000714017 0.000719019 0.000749734 0.000763905 0.000767543 0.00075709 0.00071457 0.000719414 0.000750177 0.000764834 0.00076718 0.000756422 0.000715273 0.000719516 0.000750259 0.000765365 0.000767025 0.000755894 0.000715852 0.000719467 0.000749954 0.000765658 0.000766986 0.000755542 0.000716198 0.00071933 0.000749537 0.000765794 0.000766977 0.000755378 0.000716267 0.000719154 0.000749255 0.000765882 0.00076691 0.000755331 0.000716065 0.000718999 0.000749277 0.000766047 0.000766716 0.000755263 0.000715647 0.000718915 0.000749656 0.000766381 0.000766382 0.000755008 0.000715087 0.000718917 0.00075033 0.000766916 0.00076593 0.0007544 0.000714457 0.000718908 0.000751146 0.000767581 0.000765306 0.000753364 0.000714109 0.000718419 0.000752194 0.000768319 0.00076399 0.000752382 0.000716402 0.000716811 0.000754932 0.000769451 0.000762192 0.000756529 0.000717324 0.000714962 0.000756825 0.000763328 0.000760871 0.000758397 0.000720573 0.000717636 0.000756842 0.000760228 0.000761174 0.000761174 0.000709995 0.000730075 0.000776565 0.000776565 0.000762671 0.00075715 0.000710337 0.000720704 0.000758569 0.000776129 0.000763233 0.000761786 0.000709753 0.000718987 0.000751217 0.000773937 0.000762677 0.000765273 0.000709999 0.000718316 0.000749282 0.000771551 0.000762319 0.000766182 0.000710728 0.000718418 0.000748946 0.000771032 0.000762551 0.000766077 0.000711707 0.000718743 0.00074874 0.000771525 0.000762376 0.000765493 0.000712724 0.000718824 0.000748604 0.000771893 0.000762398 0.000764958 0.000713516 0.000718687 0.000748207 0.000772064 0.000762605 0.000764639 0.000713938 0.000718396 0.00074766 0.000772061 0.000762824 0.00076451 0.000713957 0.000718036 0.000747202 0.000771986 0.000762909 0.000764434 0.000713678 0.000717715 0.000747059 0.000772024 0.000762778 0.000764238 0.000713346 0.000717567 0.000747372 0.000772347 0.000762472 0.000763799 0.0007133 0.000717733 0.000748123 0.000773034 0.000762181 0.000763122 0.000713899 0.000718355 0.000749109 0.000773952 0.000762285 0.000762497 0.000715419 0.000719533 0.000749967 0.000774552 0.000763319 0.000762745 0.000718211 0.000720771 0.000750247 0.000773017 0.000765833 0.000765809 0.000722563 0.0007179 0.000748488 0.000762341 0.000764989 0.000767868 0.000728333 0.000722419 0.000756871 0.000759809 0.000769706 0.000769706 0.000681873 0.000748412 0.000807011 0.000807011 0.000759672 0.000766649 0.000692983 0.000734805 0.000779719 0.000802507 0.000763251 0.000769888 0.00069581 0.000730846 0.000751948 0.000803471 0.000765044 0.000774291 0.000696624 0.000729544 0.000743278 0.000800076 0.000764871 0.000775983 0.000698449 0.000729059 0.000742935 0.000797628 0.000764801 0.000776165 0.000700455 0.000728904 0.000744408 0.000796746 0.00076485 0.000775832 0.000702061 0.000728937 0.000745836 0.00079676 0.000765012 0.000775651 0.000702974 0.000728899 0.000746702 0.000796831 0.000765316 0.000775686 0.000703049 0.000728726 0.000746847 0.000796805 0.000765638 0.000775803 0.000702363 0.000728427 0.000746533 0.000796702 0.000765834 0.000775778 0.000701265 0.000728044 0.000746127 0.000796646 0.000765796 0.000775388 0.000700415 0.000727682 0.000745961 0.000796786 0.000765519 0.000774543 0.000700739 0.000727516 0.000746213 0.000797138 0.000765165 0.000773396 0.000703363 0.000727836 0.000746789 0.00079739 0.000765181 0.000772538 0.000709416 0.000729093 0.000747232 0.000796574 0.000766525 0.000773265 0.000719739 0.000731844 0.000746638 0.000792579 0.00077158 0.00077781 0.000733564 0.000735159 0.000743881 0.000782084 0.000781359 0.000787465 0.000738947 0.000727423 0.000735917 0.000760803 0.000782972 0.000782972 0.000735333 0.000701141 0.000789998 0.000789998 0.000751054 0.000766097 0.0007415 0.000724329 0.000806981 0.000796389 0.000755598 0.000784483 0.00073487 0.000728312 0.000804285 0.000781983 0.000759175 0.000796784 0.000732489 0.000727681 0.000802564 0.000772338 0.000760706 0.000802671 0.000731324 0.000726543 0.000801733 0.00076781 0.000760038 0.000804474 0.000730582 0.00072635 0.000801919 0.00076621 0.000758752 0.000804751 0.000730261 0.000726109 0.000802424 0.00076566 0.000757471 0.000804419 0.000730211 0.000725854 0.000802996 0.000765679 0.000756331 0.00080385 0.000730295 0.000725809 0.000803583 0.000766038 0.000755443 0.000803299 0.000730457 0.000726025 0.000804108 0.000766514 0.000754931 0.000802938 0.000730676 0.000726433 0.000804461 0.000766932 0.000754878 0.000802852 0.000730949 0.000726912 0.000804541 0.000767173 0.000755322 0.000803053 0.000731255 0.000727406 0.00080426 0.000767165 0.000756357 0.000803557 0.000731563 0.000727985 0.000803375 0.000766702 0.000758334 0.000804669 0.0007322 0.000728398 0.000801082 0.000764958 0.000761511 0.000806492 0.000733291 0.000728515 0.000796986 0.000761515 0.000765527 0.000809323 0.000729343 0.000733255 0.000792545 0.000755944 0.000762777 0.000799955 0.000731109 0.000751491 0.000791014 0.00076014 0.000796552 0.000796552 0.000719555 0.000725347 0.000766117 0.000766117 0.000763755 0.000767181 0.000716706 0.000714965 0.00077128 0.00076161 0.000757086 0.000761079 0.000717542 0.000720681 0.000772577 0.00076674 0.00076296 0.000766589 0.000715981 0.000721905 0.000770043 0.000764753 0.000764821 0.000768362 0.000714425 0.000722151 0.000768 0.000763249 0.00076469 0.000768027 0.000713314 0.000722698 0.000767119 0.000762899 0.000764492 0.000767532 0.000712612 0.000722993 0.000766478 0.000762775 0.000764239 0.000767047 0.000712207 0.000723039 0.000766042 0.00076277 0.000763832 0.000766534 0.00071202 0.00072302 0.000765922 0.000762976 0.000763366 0.000766115 0.00071202 0.000723021 0.000766115 0.000763366 0.000762978 0.000765924 0.000712208 0.00072304 0.000766535 0.000763832 0.000762771 0.000766043 0.000712612 0.000722994 0.000767047 0.000764239 0.000762774 0.000766478 0.000713315 0.000722702 0.000767534 0.000764493 0.000762899 0.00076712 0.000714426 0.000722152 0.000768028 0.00076469 0.00076325 0.000768001 0.000715983 0.000721906 0.000768362 0.000764821 0.000764753 0.000770042 0.000717543 0.000720683 0.000766587 0.00076296 0.000766739 0.000772579 0.000716708 0.000714966 0.00076108 0.000757086 0.000761608 0.000771279 0.000719557 0.000725349 0.00076718 0.000763754 0.000766118 0.000766117 0.000714565 0.00072319 0.000746392 0.000746392 0.000770284 0.000761687 0.000715872 0.000727426 0.00075415 0.000756311 0.000770799 0.000757138 0.000716508 0.0007235 0.000756219 0.000757145 0.00077519 0.000755314 0.000715082 0.000724207 0.000751516 0.000760511 0.000776563 0.000754754 0.000714589 0.000724804 0.000750892 0.000761111 0.00077669 0.000753402 0.000714295 0.000725371 0.00075085 0.000761651 0.000776968 0.000752594 0.000714153 0.000725636 0.000750599 0.00076188 0.000777254 0.000752119 0.000714057 0.000725665 0.000750177 0.000761934 0.000777329 0.000751735 0.000713993 0.000725554 0.000749858 0.000762018 0.000777202 0.000751436 0.000713967 0.000725366 0.000749804 0.000762217 0.000776932 0.000751265 0.000713977 0.00072513 0.000750078 0.000762527 0.000776567 0.000751246 0.000714023 0.000724819 0.000750665 0.000762884 0.000776107 0.000751353 0.000714128 0.000724258 0.000751525 0.000763232 0.000775414 0.000751492 0.000714385 0.000723019 0.000752725 0.000763627 0.000774056 0.000751373 0.000714879 0.000720944 0.00075488 0.000764716 0.000771962 0.000750768 0.000714729 0.000719176 0.000758365 0.000767519 0.000770584 0.000750931 0.000717463 0.000714833 0.000759609 0.000769597 0.000766007 0.00076072 0.000716037 0.000717343 0.00076047 0.000766917 0.000760755 0.000760755 0.000718074 0.000724972 0.000746743 0.000746743 0.000775434 0.00075817 0.000722828 0.000726899 0.000747902 0.000763147 0.000774862 0.000755785 0.000724202 0.00072438 0.000751184 0.000763871 0.000775161 0.000755266 0.000725313 0.000721431 0.00075299 0.000762867 0.000778573 0.000754618 0.000724652 0.000721723 0.000751452 0.000764543 0.000778168 0.000752852 0.000725018 0.000722015 0.000752506 0.000765417 0.000778069 0.000751853 0.000725513 0.000722005 0.000753032 0.000765726 0.000778178 0.000751283 0.000725901 0.000721795 0.000752934 0.000765752 0.000778298 0.000750908 0.000726151 0.000721478 0.000752603 0.000765714 0.000778344 0.000750654 0.000726262 0.000721123 0.000752361 0.000765742 0.000778263 0.000750454 0.000726216 0.000720821 0.00075241 0.000765916 0.000778018 0.000750234 0.000725967 0.00072066 0.000752847 0.000766261 0.000777587 0.00074991 0.000725407 0.000720628 0.00075367 0.000766746 0.000776896 0.000749383 0.000724331 0.000720439 0.000754865 0.000767326 0.000775641 0.000748508 0.000722386 0.000719275 0.00075673 0.00076818 0.00077289 0.000746814 0.000719192 0.000716913 0.000761003 0.000770997 0.000767868 0.00074437 0.000723258 0.000717675 0.000769972 0.000779573 0.000765648 0.000761133 0.000718705 0.00071809 0.000764645 0.00076632 0.000764006 0.000764006 0.000722506 0.000734509 0.00077515 0.00077515 0.000772618 0.000755548 0.000727806 0.000726448 0.000757603 0.000782326 0.000770258 0.000756478 0.000729031 0.000724605 0.00075859 0.000782466 0.000768607 0.000757724 0.000729704 0.000723188 0.000762315 0.0007805 0.000768361 0.000757495 0.000730297 0.000722434 0.00076481 0.000779789 0.00076855 0.000756135 0.000730838 0.000722981 0.000766356 0.000780751 0.000767971 0.000754947 0.000731535 0.000723186 0.000767499 0.000781075 0.000767702 0.000754263 0.000732139 0.000723067 0.000767804 0.000781054 0.000767717 0.000753923 0.000732548 0.000722731 0.000767588 0.000780904 0.000767847 0.000753767 0.000732741 0.000722283 0.000767245 0.000780758 0.000767942 0.000753633 0.000732724 0.000721874 0.000767082 0.000780748 0.000767902 0.000753367 0.00073249 0.000721724 0.000767276 0.000780973 0.000767698 0.000752872 0.000731941 0.000722062 0.000767859 0.000781443 0.000767372 0.000752134 0.000730785 0.000723033 0.000768729 0.000782031 0.00076697 0.000751263 0.000728463 0.000724518 0.000769785 0.000782487 0.000766239 0.000750617 0.000724865 0.000725618 0.000771533 0.000782747 0.000763787 0.000751663 0.000726227 0.000726241 0.000778528 0.00078535 0.000765241 0.000768462 0.000721294 0.000728546 0.000774731 0.000767299 0.00077116 0.00077116 0.000703092 0.000751272 0.000837043 0.000837043 0.000756503 0.000752611 0.000710105 0.000735616 0.000787043 0.000819082 0.000755043 0.000756147 0.000712623 0.000733314 0.000772045 0.00081712 0.000752116 0.000757025 0.000713235 0.000733745 0.000775051 0.00081518 0.000749911 0.000756597 0.00071433 0.000734396 0.000781113 0.000814042 0.000748368 0.000755449 0.000715717 0.000735173 0.000785484 0.000814015 0.00074736 0.000754509 0.000716815 0.000735988 0.00078789 0.000814414 0.000746755 0.00075411 0.000717466 0.000736446 0.000788982 0.000814528 0.000746596 0.000754094 0.000717649 0.000736547 0.000789173 0.000814456 0.000746704 0.00075421 0.000717476 0.000736373 0.000788937 0.000814302 0.000746886 0.00075423 0.000717201 0.000736078 0.000788639 0.000814171 0.000747015 0.000753999 0.000717191 0.000735924 0.000788507 0.000814152 0.000747068 0.000753519 0.00071783 0.000736274 0.000788616 0.000814231 0.00074716 0.000753045 0.000719393 0.000737612 0.000788883 0.000814183 0.000747621 0.00075325 0.000721839 0.000740575 0.000789081 0.000813398 0.000749156 0.000755542 0.00072462 0.000745923 0.000788807 0.000810416 0.000753408 0.000762738 0.000726438 0.000753118 0.000786762 0.000800722 0.000765182 0.000780455 0.000718023 0.00074407 0.000778252 0.000766693 0.000776964 0.000776964 0.000731076 0.000763453 0.000850027 0.000850027 0.000736783 0.000768005 0.000730838 0.000767371 0.00084917 0.000814649 0.000755301 0.000796784 0.000722104 0.000773169 0.000840635 0.00079686 0.000764739 0.000814535 0.000717129 0.000775311 0.000836453 0.000785422 0.000770052 0.000824094 0.000714237 0.000775869 0.000833973 0.000779415 0.000772814 0.000829151 0.000712636 0.00077597 0.000832781 0.000776343 0.000773907 0.000831598 0.000711681 0.000776053 0.000832475 0.000774846 0.000774202 0.000832729 0.000711136 0.000776051 0.000832597 0.000774167 0.00077417 0.000833129 0.000710891 0.00077602 0.000832869 0.000773975 0.000774038 0.000833106 0.000710891 0.00077602 0.000833105 0.000774038 0.000773976 0.000832871 0.000711137 0.00077605 0.000833128 0.000774169 0.000774168 0.000832598 0.000711682 0.000776051 0.000832726 0.0007742 0.000774846 0.000832473 0.000712638 0.00077597 0.000831596 0.000773907 0.000776343 0.00083278 0.000714238 0.000775869 0.000829151 0.000772814 0.000779415 0.000833972 0.000717131 0.00077531 0.000824093 0.000770051 0.000785422 0.000836452 0.000722106 0.00077317 0.000814534 0.000764739 0.000796861 0.000840636 0.000730839 0.000767372 0.000796783 0.0007553 0.000814649 0.000849169 0.00073108 0.000763453 0.000768002 0.000736781 0.000850024 0.000850025 0.000731107 0.000751489 0.000796551 0.000796551 0.000760139 0.000791014 0.000729339 0.000733252 0.000799955 0.000762776 0.000755943 0.000792543 0.000733287 0.000728512 0.000809322 0.000765527 0.000761515 0.000796985 0.000732199 0.000728396 0.000806492 0.000761511 0.000764958 0.000801081 0.000731563 0.000727983 0.000804668 0.000758333 0.000766701 0.000803375 0.000731252 0.000727403 0.000803556 0.000756354 0.000767162 0.000804259 0.000730947 0.00072691 0.000803055 0.000755321 0.000767172 0.000804541 0.000730673 0.00072643 0.000802852 0.000754876 0.00076693 0.00080446 0.000730456 0.000726022 0.000802936 0.000754928 0.000766513 0.000804107 0.000730295 0.000725808 0.000803298 0.000755441 0.000766038 0.000803583 0.00073021 0.000725853 0.000803848 0.000756329 0.000765679 0.000802994 0.00073026 0.000726108 0.000804417 0.00075747 0.000765659 0.000802422 0.000730582 0.00072635 0.000804749 0.00075875 0.00076621 0.000801919 0.000731322 0.000726544 0.000804471 0.000760036 0.000767809 0.000801733 0.00073249 0.000727681 0.000802669 0.000760704 0.000772336 0.000802562 0.000734872 0.000728309 0.000796782 0.000759173 0.000781982 0.000804283 0.000741501 0.000724329 0.00078448 0.000755595 0.000796389 0.00080698 0.000735332 0.000701142 0.000766095 0.000751052 0.000789996 0.000789996 0.00073203 0.000729238 0.000737951 0.000737951 0.000782502 0.000795119 0.000736131 0.000728259 0.000760406 0.000735536 0.000780716 0.000787704 0.000738535 0.000710107 0.000766696 0.000728821 0.000779923 0.000782 0.000741104 0.000708481 0.000768605 0.000735601 0.000781413 0.00078187 0.000742108 0.00070767 0.000768662 0.00073429 0.000782284 0.000781949 0.000742392 0.000706944 0.00076822 0.000733019 0.000782324 0.000781594 0.000742387 0.000706128 0.000767877 0.000732118 0.000782323 0.000781255 0.000742242 0.000705302 0.000767491 0.000731515 0.000782197 0.000780943 0.000742005 0.000704562 0.000767308 0.000731334 0.000781798 0.000780565 0.000741692 0.000704054 0.000767564 0.000731767 0.000781096 0.000780109 0.000741302 0.00070393 0.000768382 0.000732917 0.000780123 0.00077959 0.000740821 0.000704253 0.000769798 0.000734799 0.000778951 0.000778991 0.000740249 0.000704875 0.000771786 0.000737444 0.000777631 0.000778174 0.000739677 0.000705312 0.000774302 0.00074106 0.000776059 0.000776808 0.000739192 0.000705692 0.000777356 0.000746239 0.000774595 0.000774592 0.000738403 0.000708891 0.00077999 0.000753133 0.000776638 0.000771843 0.000736373 0.000709998 0.000777857 0.000759365 0.000784111 0.000768428 0.000724373 0.000687037 0.000770864 0.00076798 0.000764836 0.000764836 0.000739417 0.000711833 0.000702596 0.000702596 0.000801686 0.000787185 0.000747389 0.0007182 0.000735432 0.000731705 0.000794508 0.000774041 0.00075082 0.000714609 0.000748827 0.000734238 0.000792173 0.0007692 0.000753434 0.000706538 0.000756085 0.000731781 0.000793056 0.00076623 0.000754509 0.000706707 0.000757415 0.000735757 0.000792642 0.000764861 0.000755107 0.000706693 0.000758672 0.000735645 0.000792283 0.000763868 0.000755461 0.000706194 0.00075918 0.000734977 0.000792247 0.00076325 0.000755676 0.000705442 0.000759095 0.000734245 0.000792282 0.000762868 0.000755724 0.000704656 0.000758866 0.000733713 0.00079212 0.000762555 0.000755583 0.000704 0.000758902 0.000733636 0.000791608 0.000762239 0.000755218 0.000703685 0.000759476 0.000734205 0.000790647 0.000761886 0.00075453 0.000703893 0.000760765 0.000735514 0.000789167 0.000761457 0.000753331 0.00070466 0.000762898 0.000737617 0.000787069 0.00076082 0.000751326 0.000705713 0.000766051 0.000740721 0.000784131 0.000759624 0.000748163 0.000706128 0.000770629 0.000745606 0.000779689 0.000756985 0.000742923 0.000706499 0.00077756 0.000754551 0.000773986 0.000751259 0.000731316 0.000713823 0.000785337 0.000769325 0.000773022 0.000741947 0.000721935 0.000710889 0.00078702 0.000786673 0.000765502 0.000765502 0.000753386 0.00070437 0.000710444 0.000710444 0.0008076 0.000772128 0.000759686 0.0007178 0.000734422 0.000753669 0.000795017 0.000761191 0.000761284 0.000723753 0.000754339 0.000763203 0.000788419 0.000757663 0.000761552 0.000726269 0.00076625 0.000763389 0.000785909 0.000755843 0.000762193 0.000725927 0.000772152 0.000762856 0.000785355 0.000754441 0.000762263 0.000727204 0.00077435 0.000763995 0.00078432 0.000753414 0.000762469 0.000727805 0.000775645 0.000763713 0.000783921 0.000752981 0.000762719 0.000727812 0.000775995 0.000763066 0.000783887 0.000752833 0.000762882 0.000727506 0.000775882 0.000762471 0.000783901 0.00075276 0.000762903 0.000727077 0.000775767 0.000762121 0.000783742 0.000752648 0.000762726 0.000726719 0.000775967 0.000762155 0.000783239 0.000752418 0.000762218 0.000726654 0.000776684 0.000762653 0.000782251 0.000752022 0.000761066 0.000727092 0.000778075 0.000763619 0.000780628 0.000751405 0.00075862 0.000728111 0.000780341 0.00076507 0.000778111 0.000750425 0.000753638 0.000729429 0.000783957 0.000767339 0.000774109 0.000748603 0.000743872 0.000729683 0.000790143 0.000771989 0.000766877 0.000744207 0.000723666 0.000732831 0.000801647 0.000784007 0.000758491 0.000731989 0.000723438 0.000756312 0.000809675 0.000805575 0.000777732 0.000777732 0.000765369 0.00071084 0.000780785 0.000780785 0.00078945 0.000752713 0.000762507 0.000731413 0.000762004 0.000803422 0.000777283 0.000752068 0.000760456 0.00074381 0.0007787 0.000808604 0.000767486 0.000750575 0.00075849 0.00075124 0.000793445 0.000809999 0.000762417 0.000749426 0.000757653 0.000754881 0.00080226 0.000809588 0.000760112 0.000748659 0.000757502 0.000756684 0.000806381 0.00080911 0.00075894 0.000748216 0.000757495 0.000758082 0.000808073 0.000808915 0.000758315 0.000748202 0.0007575 0.000758855 0.000808713 0.000808441 0.000758161 0.000748426 0.000757418 0.000759189 0.000808807 0.000807976 0.000758212 0.000748683 0.000757212 0.00075925 0.00080876 0.000807648 0.000758254 0.000748826 0.000756893 0.000759172 0.000808817 0.000807512 0.000758128 0.000748765 0.000756415 0.000759128 0.000809116 0.000807594 0.000757704 0.000748476 0.000755528 0.000759363 0.000809775 0.000807878 0.000756828 0.000748032 0.00075352 0.000760215 0.000811008 0.000808292 0.000755257 0.000747638 0.000748807 0.000762139 0.000813316 0.000808763 0.000752529 0.000747648 0.000738334 0.000765663 0.0008178 0.000809419 0.000747583 0.000748434 0.000718498 0.000771393 0.000826535 0.000811244 0.000737652 0.000750287 0.000708867 0.000805284 0.000841119 0.000816508 0.000789744 0.000789744 
SCALARS volume_diff float 1
LOOKUP_TABLE default
-6.27363e-05 3.36802e-05 1.81409e-05 1.81409e-05 4.49067e-05 6.95153e-05 -5.31066e-05 -2.12901e-07 -2.13205e-05 -3.39529e-05 3.96406e-05 5.49313e-05 -3.32719e-05 -5.94251e-06 -2.31711e-05 -2.4021e-05 3.78139e-05 4.61968e-05 -2.27971e-05 -9.46425e-06 -2.39546e-05 -1.90739e-05 3.71593e-05 4.17134e-05 -1.80847e-05 -1.13886e-05 -2.39657e-05 -1.63473e-05 3.66871e-05 3.94044e-05 -1.6078e-05 -1.22412e-05 -2.35705e-05 -1.47764e-05 3.62725e-05 3.8171e-05 -1.51889e-05 -1.24757e-05 -2.31277e-05 -1.39003e-05 3.59911e-05 3.75133e-05 -1.4712e-05 -1.24304e-05 -2.28393e-05 -1.34764e-05 3.59083e-05 3.72134e-05 -1.43911e-05 -1.23531e-05 -2.27784e-05 -1.33505e-05 3.60434e-05 3.7156e-05 -1.4185e-05 -1.24142e-05 -2.29208e-05 -1.33918e-05 3.63742e-05 3.7204e-05 -1.41026e-05 -1.27498e-05 -2.31781e-05 -1.3443e-05 3.68378e-05 3.711e-05 -1.41087e-05 -1.35234e-05 -2.34016e-05 -1.32897e-05 3.73096e-05 3.64686e-05 -1.41026e-05 -1.49198e-05 -2.33876e-05 -1.26643e-05 3.75049e-05 3.47782e-05 -1.39508e-05 -1.67227e-05 -2.29437e-05 -1.1492e-05 3.79848e-05 3.06547e-05 -1.31126e-05 -2.03644e-05 -2.21788e-05 -9.1872e-06 3.83948e-05 2.18401e-05 -1.1146e-05 -2.77937e-05 -2.10301e-05 -4.11898e-06 3.70003e-05 7.09608e-06 -9.09714e-06 -4.01916e-05 -1.95365e-05 5.67837e-06 3.1818e-05 -9.59889e-06 -6.23266e-06 -6.07625e-05 -1.88909e-05 1.78447e-05 9.18352e-06 9.18368e-06 -5.35819e-05 -2.75368e-05 5.35905e-06 5.35905e-06 -4.90987e-06 6.65009e-06 -4.51675e-05 -1.84914e-05 8.84887e-06 -6.42544e-06 2.91165e-05 1.51578e-05 -4.69871e-05 -2.56857e-05 -8.86757e-06 -1.81977e-05 3.88103e-05 1.72029e-05 -4.97672e-05 -3.10313e-05 -1.60623e-05 -2.24491e-05 4.17943e-05 1.7477e-05 -5.22124e-05 -3.39952e-05 -1.83557e-05 -2.39854e-05 4.25774e-05 1.72768e-05 -5.37756e-05 -3.53326e-05 -1.85591e-05 -2.44447e-05 4.26268e-05 1.70107e-05 -5.44161e-05 -3.56817e-05 -1.80853e-05 -2.45361e-05 4.2549e-05 1.69045e-05 -5.44041e-05 -3.55254e-05 -1.76074e-05 -2.45909e-05 4.25671e-05 1.70355e-05 -5.41285e-05 -3.52326e-05 -1.73763e-05 -2.47213e-05 4.26979e-05 1.73318e-05 -5.39534e-05 -3.50578e-05 -1.73951e-05 -2.49014e-05 4.28518e-05 1.75689e-05 -5.41381e-05 -3.51608e-05 -1.75123e-05 -2.50086e-05 4.29215e-05 1.73769e-05 -5.47878e-05 -3.56177e-05 -1.74956e-05 -2.48509e-05 4.28069e-05 1.62837e-05 -5.58869e-05 -3.64311e-05 -1.70953e-05 -2.42452e-05 4.24091e-05 1.38794e-05 -5.72732e-05 -3.72078e-05 -1.6155e-05 -2.32371e-05 4.2435e-05 9.50603e-06 -5.83663e-05 -3.78586e-05 -1.50077e-05 -2.1694e-05 4.35749e-05 3.4458e-06 -5.8978e-05 -3.82924e-05 -1.45794e-05 -1.94889e-05 4.55138e-05 4.38909e-07 -6.15003e-05 -3.59888e-05 -1.54584e-05 -1.65623e-05 4.74771e-05 1.54393e-05 -6.85075e-05 -2.03308e-05 -1.89932e-05 -1.51027e-05 6.54394e-05 6.54392e-05 -3.2658e-05 -4.41835e-05 1.1367e-05 1.1367e-05 -1.07994e-05 -3.56846e-05 -3.80437e-05 -3.64498e-05 1.58585e-05 9.75283e-06 1.04779e-05 -2.77237e-05 -5.18706e-05 -3.97644e-05 6.20486e-06 -2.5763e-08 2.09725e-05 -2.49671e-05 -6.21916e-05 -4.25134e-05 1.66061e-06 -5.07968e-06 2.49694e-05 -2.43739e-05 -6.82439e-05 -4.3771e-05 9.31152e-07 -6.42552e-06 2.57843e-05 -2.4815e-05 -7.08668e-05 -4.40883e-05 1.79165e-06 -6.44038e-06 2.55339e-05 -2.53916e-05 -7.11929e-05 -4.39214e-05 2.9373e-06 -6.08551e-06 2.51828e-05 -2.56424e-05 -7.03399e-05 -4.35602e-05 3.7822e-06 -5.80864e-06 2.50435e-05 -2.54794e-05 -6.9243e-05 -4.31804e-05 4.16886e-06 -5.77325e-06 2.50973e-05 -2.50731e-05 -6.85541e-05 -4.28796e-05 4.19738e-06 -5.9684e-06 2.5201e-05 -2.4754e-05 -6.86286e-05 -4.27067e-05 4.081e-06 -6.29021e-06 2.52258e-05 -2.49025e-05 -6.95406e-05 -4.26677e-05 4.04499e-06 -6.59374e-06 2.51543e-05 -2.57693e-05 -7.11486e-05 -4.27016e-05 4.22671e-06 -6.75653e-06 2.5138e-05 -2.71967e-05 -7.31543e-05 -4.25417e-05 4.56075e-06 -6.80387e-06 2.60225e-05 -2.86717e-05 -7.49774e-05 -4.20606e-05 4.37924e-06 -6.73198e-06 2.84694e-05 -2.83266e-05 -7.57924e-05 -4.07584e-05 2.68615e-06 -6.56188e-06 3.18651e-05 -1.96569e-05 -7.86216e-05 -3.67996e-05 -1.71753e-06 -8.35429e-06 3.09029e-05 8.11584e-06 -8.97258e-05 -2.31913e-05 -4.95634e-06 -1.19342e-05 3.54073e-05 3.54073e-05 -4.36937e-06 -4.52587e-05 1.84826e-05 1.84826e-05 -2.21929e-08 -5.51714e-05 -2.90521e-05 -4.13742e-05 1.06376e-05 1.65666e-05 7.23048e-06 -5.50145e-05 -4.77793e-05 -4.08283e-05 1.21309e-05 1.27785e-05 1.24386e-05 -5.64218e-05 -5.83647e-05 -4.04334e-05 1.39061e-05 1.28205e-05 1.38522e-05 -5.81963e-05 -6.25072e-05 -4.04459e-05 1.58965e-05 1.37778e-05 1.3362e-05 -5.98001e-05 -6.25918e-05 -4.03843e-05 1.77323e-05 1.52115e-05 1.24804e-05 -6.08466e-05 -6.06375e-05 -4.03098e-05 1.8991e-05 1.64355e-05 1.18786e-05 -6.11925e-05 -5.81144e-05 -4.02337e-05 1.95746e-05 1.71646e-05 1.16984e-05 -6.09452e-05 -5.60018e-05 -4.01253e-05 1.96033e-05 1.73581e-05 1.18273e-05 -6.03512e-05 -5.48567e-05 -3.99553e-05 1.93067e-05 1.71127e-05 1.20817e-05 -5.97066e-05 -5.48918e-05 -3.9744e-05 1.89151e-05 1.66016e-05 1.23221e-05 -5.9218e-05 -5.60322e-05 -3.95424e-05 1.85752e-05 1.60283e-05 1.25186e-05 -5.88422e-05 -5.80065e-05 -3.94593e-05 1.83038e-05 1.55842e-05 1.27498e-05 -5.80924e-05 -6.04524e-05 -3.9607e-05 1.79357e-05 1.53888e-05 1.341e-05 -5.60802e-05 -6.28637e-05 -4.00077e-05 1.70516e-05 1.57702e-05 1.44629e-05 -5.10012e-05 -6.49013e-05 -3.9872e-05 1.56536e-05 1.72156e-05 1.43983e-05 -4.00486e-05 -6.57136e-05 -3.82638e-05 1.32175e-05 1.65491e-05 6.94885e-06 -1.6619e-05 -7.68701e-05 -3.46743e-05 1.3269e-05 8.82551e-06 -9.14491e-06 -9.14491e-06 1.68521e-05 -3.93041e-05 1.26339e-05 1.26339e-05 2.71086e-05 -4.03925e-05 -1.92758e-05 -3.63664e-05 -5.77854e-06 1.13544e-05 2.44729e-05 -4.87666e-05 -3.34315e-05 -3.16039e-05 4.92459e-06 1.88681e-05 2.32636e-05 -5.46534e-05 -3.74634e-05 -3.0009e-05 1.09239e-05 2.53637e-05 2.17194e-05 -5.82913e-05 -3.64478e-05 -2.9581e-05 1.39594e-05 2.9699e-05 2.01279e-05 -6.03819e-05 -3.33014e-05 -2.96831e-05 1.53012e-05 3.2476e-05 1.89176e-05 -6.14088e-05 -2.97439e-05 -2.9963e-05 1.56404e-05 3.40921e-05 1.83143e-05 -6.1623e-05 -2.6749e-05 -3.02472e-05 1.53608e-05 3.47835e-05 1.82794e-05 -6.12319e-05 -2.48264e-05 -3.04262e-05 1.47603e-05 3.48025e-05 1.86267e-05 -6.04383e-05 -2.41851e-05 -3.04387e-05 1.40778e-05 3.44052e-05 1.91216e-05 -5.94288e-05 -2.48277e-05 -3.02975e-05 1.34821e-05 3.38502e-05 1.95444e-05 -5.8303e-05 -2.65837e-05 -3.00923e-05 1.30572e-05 3.33861e-05 1.96859e-05 -5.70166e-05 -2.91446e-05 -3.00046e-05 1.28023e-05 3.32333e-05 1.92744e-05 -5.53647e-05 -3.21208e-05 -3.03323e-05 1.26666e-05 3.35661e-05 1.79208e-05 -5.31338e-05 -3.4912e-05 -3.15245e-05 1.26496e-05 3.47347e-05 1.43836e-05 -5.01436e-05 -3.67866e-05 -3.41305e-05 1.35669e-05 3.75423e-05 5.98625e-06 -4.62034e-05 -3.69112e-05 -3.5419e-05 1.87508e-05 4.38473e-05 -8.00275e-06 -3.97613e-05 -3.91335e-05 -4.1365e-05 2.17252e-05 3.38009e-05 -3.92619e-05 -3.92619e-05 9.12627e-06 -3.35175e-05 -3.11575e-05 -3.11575e-05 6.29756e-05 1.97128e-05 -6.5302e-06 -2.71788e-05 -3.50693e-05 -7.83529e-06 5.13964e-05 7.53751e-06 -1.00429e-05 -1.66205e-05 -1.50947e-05 1.60849e-05 4.48072e-05 1.58167e-08 -8.88534e-06 -1.33449e-05 -5.92637e-06 2.8682e-05 4.08658e-05 -3.97742e-06 -6.01943e-06 -1.22811e-05 -2.46162e-06 3.48975e-05 3.85037e-05 -5.99055e-06 -2.78628e-06 -1.21282e-05 -1.77021e-06 3.76688e-05 3.72517e-05 -6.89504e-06 7.77108e-08 -1.23631e-05 -2.36321e-06 3.86457e-05 3.68268e-05 -7.05405e-06 2.16688e-06 -1.26703e-05 -3.47119e-06 3.86479e-05 3.70002e-05 -6.64809e-06 3.26095e-06 -1.28686e-05 -4.70263e-06 3.81656e-05 3.753e-05 -5.81774e-06 3.26229e-06 -1.28685e-05 -5.81842e-06 3.75297e-05 3.81669e-05 -4.70145e-06 2.16758e-06 -1.26716e-05 -6.64941e-06 3.69997e-05 3.86477e-05 -3.47166e-06 7.84675e-08 -1.23622e-05 -7.05539e-06 3.6826e-05 3.86459e-05 -2.36369e-06 -2.78556e-06 -1.21276e-05 -6.89526e-06 3.72515e-05 3.76692e-05 -1.77089e-06 -6.01989e-06 -1.2281e-05 -5.99055e-06 3.85038e-05 3.48965e-05 -2.46201e-06 -8.88437e-06 -1.33452e-05 -3.97769e-06 4.08642e-05 2.86812e-05 -5.92656e-06 -1.00419e-05 -1.66203e-05 1.58555e-08 4.4806e-05 1.60853e-05 -1.50943e-05 -6.52878e-06 -2.71795e-05 7.53691e-06 5.13947e-05 -7.83504e-06 -3.50684e-05 9.12881e-06 -3.35166e-05 1.97127e-05 6.29747e-05 -3.11556e-05 -3.11556e-05 -4.81677e-05 -1.52921e-05 6.12865e-06 6.12865e-06 3.39726e-05 3.80717e-05 -4.79408e-05 -3.87744e-05 -3.96168e-05 -1.31135e-05 1.24026e-05 3.00418e-05 -2.77329e-05 -4.19227e-05 -2.73978e-05 -4.72562e-06 3.86173e-07 1.85379e-05 -1.7967e-05 -4.21761e-05 -2.30006e-05 2.50699e-06 -4.26613e-06 1.23517e-05 -1.29844e-05 -4.34944e-05 -2.1179e-05 6.50694e-06 -6.53584e-06 8.73715e-06 -1.05401e-05 -4.45119e-05 -2.01988e-05 9.02421e-06 -7.98554e-06 6.47076e-06 -9.3874e-06 -4.495e-05 -1.95813e-05 1.06478e-05 -8.95022e-06 5.08124e-06 -8.87884e-06 -4.48852e-05 -1.91866e-05 1.1635e-05 -9.45075e-06 4.3641e-06 -8.70297e-06 -4.45254e-05 -1.89558e-05 1.21361e-05 -9.48435e-06 4.16348e-06 -8.72181e-06 -4.40981e-05 -1.88443e-05 1.22957e-05 -9.13206e-06 4.28007e-06 -8.88419e-06 -4.37915e-05 -1.87723e-05 1.22809e-05 -8.53588e-06 4.39329e-06 -9.13418e-06 -4.37968e-05 -1.8623e-05 1.23148e-05 -7.89218e-06 4.0421e-06 -9.34044e-06 -4.43994e-05 -1.81883e-05 1.27147e-05 -7.60974e-06 2.7475e-06 -9.41091e-06 -4.56769e-05 -1.7162e-05 1.37499e-05 -8.74968e-06 5.48339e-07 -1.00505e-05 -4.53352e-05 -1.57598e-05 1.43032e-05 -8.21607e-06 -5.35566e-06 -1.03186e-05 -4.7848e-05 -1.39413e-05 1.68165e-05 -8.40105e-06 -1.72635e-05 -1.19164e-05 -5.3803e-05 -1.04136e-05 2.34115e-05 -1.79352e-05 -3.71819e-05 -1.82168e-05 -6.72347e-05 5.23465e-07 3.59946e-05 -6.11588e-05 -6.11588e-05 -5.03118e-05 -4.30616e-05 -4.44315e-07 -4.44315e-07 -4.30527e-06 3.127e-06 -4.53797e-05 -4.53665e-05 -3.14631e-06 -6.36574e-06 1.37438e-05 6.92206e-06 -4.67414e-05 -4.59902e-05 -1.99445e-05 -7.81979e-06 1.11405e-05 -7.31246e-08 -4.31446e-05 -4.70914e-05 -2.09885e-05 -5.36641e-06 1.08801e-05 -1.82001e-06 -4.08223e-05 -4.85764e-05 -2.03421e-05 -4.63556e-06 1.04235e-05 -2.87784e-06 -3.96653e-05 -4.95436e-05 -1.94738e-05 -4.23402e-06 9.83795e-06 -3.74593e-06 -3.91144e-05 -4.98805e-05 -1.87348e-05 -3.90773e-06 9.36812e-06 -4.3297e-06 -3.88812e-05 -4.97327e-05 -1.82396e-05 -3.70433e-06 9.14218e-06 -4.5218e-06 -3.88662e-05 -4.93235e-05 -1.79719e-05 -3.66498e-06 9.15203e-06 -4.35874e-06 -3.90589e-05 -4.88736e-05 -1.78374e-05 -3.75988e-06 9.2992e-06 -4.0153e-06 -3.94687e-05 -4.85383e-05 -1.76824e-05 -3.88904e-06 9.44959e-06 -3.80088e-06 -4.0072e-05 -4.84177e-05 -1.73433e-05 -3.90418e-06 9.46899e-06 -4.10573e-06 -4.0766e-05 -4.86234e-05 -1.66582e-05 -3.63392e-06 9.14553e-06 -5.2455e-06 -4.1307e-05 -4.91678e-05 -1.54696e-05 -3.05681e-06 8.18433e-06 -6.79343e-06 -4.18983e-05 -4.84148e-05 -1.41118e-05 -3.24482e-06 8.89404e-06 -9.29058e-06 -4.25715e-05 -4.69997e-05 -1.38803e-05 -2.99752e-06 1.08617e-05 -1.3016e-05 -4.37954e-05 -4.51565e-05 -1.51277e-05 -1.34706e-06 1.07214e-05 -1.40005e-05 -4.90983e-05 -3.70969e-05 -1.60577e-05 1.01233e-06 3.54421e-06 3.54437e-06 -4.32736e-05 -4.9188e-05 -1.90007e-06 -1.90007e-06 -1.17948e-05 -1.47332e-05 -4.90431e-05 -5.37089e-05 -3.73765e-06 -6.61675e-06 -9.26512e-06 -2.31188e-05 -5.3396e-05 -5.08376e-05 -5.79762e-06 -5.7741e-06 1.41098e-06 -2.13592e-05 -5.61887e-05 -5.20727e-05 -8.8599e-06 -8.28659e-06 2.94694e-06 -2.16403e-05 -5.77088e-05 -5.3251e-05 -9.10825e-06 -9.32184e-06 2.34701e-06 -2.24986e-05 -5.8309e-05 -5.38734e-05 -8.48264e-06 -9.42545e-06 1.42951e-06 -2.34808e-05 -5.82611e-05 -5.40386e-05 -7.80687e-06 -9.1347e-06 7.44072e-07 -2.42331e-05 -5.79279e-05 -5.38906e-05 -7.36909e-06 -8.82754e-06 4.21117e-07 -2.45466e-05 -5.76501e-05 -5.35696e-05 -7.17219e-06 -8.69661e-06 3.8301e-07 -2.44038e-05 -5.76682e-05 -5.32076e-05 -7.09541e-06 -8.7815e-06 4.56914e-07 -2.39449e-05 -5.80869e-05 -5.29145e-05 -6.96582e-06 -9.00092e-06 4.62172e-07 -2.33941e-05 -5.88827e-05 -5.27787e-05 -6.64809e-06 -9.20791e-06 2.87549e-07 -2.29996e-05 -5.98971e-05 -5.28612e-05 -6.11108e-06 -9.22931e-06 -7.86738e-08 -2.28629e-05 -6.08755e-05 -5.31835e-05 -5.52924e-06 -9.05414e-06 -5.72508e-07 -2.26554e-05 -6.16012e-05 -5.32881e-05 -5.4252e-06 -9.28856e-06 -5.36445e-08 -2.23241e-05 -6.18502e-05 -5.2617e-05 -6.33095e-06 -8.92771e-06 2.33174e-06 -2.03893e-05 -6.12652e-05 -5.0902e-05 -9.81883e-06 -8.37303e-06 4.52416e-06 -1.30339e-05 -6.1607e-05 -4.15294e-05 -1.44532e-05 -8.93458e-06 4.95928e-06 4.9592e-06 -3.35625e-05 -5.02402e-05 -4.02725e-06 -4.02725e-06 -6.47671e-06 -1.92385e-05 -4.64264e-05 -4.98141e-05 -1.10384e-05 -6.49502e-06 -6.20662e-06 -3.15699e-05 -5.30222e-05 -4.99403e-05 -7.10552e-06 -5.15921e-06 -2.22019e-06 -3.09497e-05 -5.74647e-05 -5.02496e-05 -6.66945e-06 -6.7244e-06 -1.92754e-06 -3.13774e-05 -5.9075e-05 -5.04747e-05 -6.30507e-06 -6.88583e-06 -2.92289e-06 -3.25007e-05 -5.88302e-05 -5.05111e-05 -5.77771e-06 -5.96599e-06 -3.95534e-06 -3.37412e-05 -5.77085e-05 -5.04677e-05 -5.46934e-06 -4.87035e-06 -4.59646e-06 -3.46818e-05 -5.6448e-05 -5.03805e-05 -5.45035e-06 -4.05538e-06 -4.81519e-06 -3.51127e-05 -5.55684e-05 -5.02463e-05 -5.60922e-06 -3.67129e-06 -4.78709e-06 -3.50181e-05 -5.53666e-05 -5.00923e-05 -5.77171e-06 -3.68291e-06 -4.75502e-06 -3.45039e-05 -5.59176e-05 -4.99701e-05 -5.76149e-06 -3.9205e-06 -4.93665e-06 -3.37436e-05 -5.71093e-05 -4.99574e-05 -5.48093e-06 -4.14557e-06 -5.45306e-06 -3.28954e-05 -5.86619e-05 -5.01429e-05 -4.96084e-06 -4.10628e-06 -6.24692e-06 -3.20078e-05 -6.01478e-05 -5.05534e-05 -4.41485e-06 -3.61865e-06 -6.97941e-06 -3.08744e-05 -6.12202e-05 -5.09793e-05 -4.33311e-06 -2.75964e-06 -6.8712e-06 -2.95245e-05 -6.19578e-05 -5.10245e-05 -5.34742e-06 -1.57921e-06 -6.4834e-06 -2.8103e-05 -6.00306e-05 -4.97597e-05 -5.2459e-06 5.27132e-07 -6.06135e-06 -2.03903e-05 -5.41866e-05 -4.78162e-05 -7.56938e-06 -2.98789e-06 -8.73547e-06 -8.73547e-06 -2.76733e-05 -4.70832e-05 -1.21995e-05 -1.21995e-05 9.33017e-06 -8.8536e-06 -4.32281e-05 -4.33598e-05 -2.30005e-05 -7.37419e-06 1.42662e-05 -1.78981e-05 -4.85117e-05 -4.40943e-05 -2.25816e-05 -2.59994e-06 1.10299e-05 -2.08243e-05 -4.99007e-05 -4.32021e-05 -2.17029e-05 7.7672e-08 8.81876e-06 -2.22606e-05 -4.88816e-05 -4.2528e-05 -2.19514e-05 2.31246e-06 7.36822e-06 -2.34041e-05 -4.67097e-05 -4.22618e-05 -2.25506e-05 4.25442e-06 6.49883e-06 -2.43591e-05 -4.43213e-05 -4.22257e-05 -2.31724e-05 5.70932e-06 6.22364e-06 -2.49666e-05 -4.23902e-05 -4.2289e-05 -2.38333e-05 6.54128e-06 6.37163e-06 -2.51533e-05 -4.13235e-05 -4.2347e-05 -2.44672e-05 6.80384e-06 6.66352e-06 -2.49509e-05 -4.1323e-05 -4.23468e-05 -2.49535e-05 6.66043e-06 6.80432e-06 -2.44655e-05 -4.23904e-05 -4.22864e-05 -2.51519e-05 6.37015e-06 6.54346e-06 -2.38313e-05 -4.43241e-05 -4.22254e-05 -2.49665e-05 6.22215e-06 5.70969e-06 -2.31718e-05 -4.67095e-05 -4.2264e-05 -2.43596e-05 6.49714e-06 4.2556e-06 -2.2549e-05 -4.88784e-05 -4.2527e-05 -2.34039e-05 7.3677e-06 2.31465e-06 -2.19491e-05 -4.98951e-05 -4.31994e-05 -2.22611e-05 8.81872e-06 7.8875e-08 -2.17018e-05 -4.851e-05 -4.40942e-05 -2.08241e-05 1.10304e-05 -2.59971e-06 -2.25793e-05 -4.32259e-05 -4.3359e-05 -1.78972e-05 1.42655e-05 -7.37312e-06 -2.29982e-05 -2.76692e-05 -4.708e-05 -8.85445e-06 9.33009e-06 -1.21991e-05 -1.21991e-05 -3.91381e-05 -4.13671e-05 -3.92626e-05 -3.92626e-05 3.3801e-05 2.17274e-05 -3.69155e-05 -3.54199e-05 -3.97613e-05 -8.00409e-06 4.38477e-05 1.87504e-05 -3.67883e-05 -3.41321e-05 -4.62067e-05 5.98668e-06 3.75428e-05 1.35677e-05 -3.49154e-05 -3.15259e-05 -5.01472e-05 1.43845e-05 3.4734e-05 1.26499e-05 -3.21219e-05 -3.03338e-05 -5.3137e-05 1.79198e-05 3.35648e-05 1.26673e-05 -2.9148e-05 -3.00032e-05 -5.53646e-05 1.92745e-05 3.32337e-05 1.28025e-05 -2.65851e-05 -3.00935e-05 -5.70178e-05 1.96864e-05 3.33862e-05 1.30575e-05 -2.48286e-05 -3.02985e-05 -5.8304e-05 1.95448e-05 3.3851e-05 1.34819e-05 -2.41865e-05 -3.04387e-05 -5.94333e-05 1.91216e-05 3.44071e-05 1.40797e-05 -2.48267e-05 -3.04256e-05 -6.04423e-05 1.86257e-05 3.48045e-05 1.47625e-05 -2.67497e-05 -3.02459e-05 -6.12323e-05 1.828e-05 3.47838e-05 1.53608e-05 -2.97445e-05 -2.99615e-05 -6.16245e-05 1.83137e-05 3.40912e-05 1.56398e-05 -3.33002e-05 -2.96819e-05 -6.1411e-05 1.89163e-05 3.24761e-05 1.53033e-05 -3.64462e-05 -2.95806e-05 -6.03819e-05 2.01248e-05 2.96999e-05 1.39614e-05 -3.74607e-05 -3.00098e-05 -5.82905e-05 2.17158e-05 2.53658e-05 1.0925e-05 -3.34278e-05 -3.1604e-05 -5.46513e-05 2.32636e-05 1.88694e-05 4.92583e-06 -1.92736e-05 -3.63657e-05 -4.87659e-05 2.44727e-05 1.13537e-05 -5.77887e-06 1.68569e-05 -3.93031e-05 -4.03936e-05 2.71064e-05 1.26351e-05 1.26351e-05 -4.96708e-05 -6.07163e-05 -6.10103e-06 -6.10103e-06 1.50697e-05 1.54173e-05 -4.02897e-05 -5.7784e-05 -2.96577e-05 1.41746e-06 -2.27982e-06 1.37337e-05 -2.86818e-05 -6.51059e-05 -2.0346e-05 2.37986e-06 -1.70523e-05 5.95552e-06 -2.34413e-05 -6.54769e-05 -1.46202e-05 8.0852e-06 -2.59968e-05 -9.74781e-07 -2.02781e-05 -6.58937e-05 -1.19815e-05 1.25263e-05 -3.08839e-05 -5.55316e-06 -1.82743e-05 -6.69449e-05 -1.07836e-05 1.54651e-05 -3.39878e-05 -8.70623e-06 -1.70747e-05 -6.77115e-05 -1.01464e-05 1.75626e-05 -3.60891e-05 -1.084e-05 -1.63868e-05 -6.79173e-05 -9.71757e-06 1.90442e-05 -3.73988e-05 -1.21292e-05 -1.60222e-05 -6.76032e-05 -9.36545e-06 2.00047e-05 -3.79687e-05 -1.27006e-05 -1.58794e-05 -6.69485e-05 -9.04762e-06 2.05171e-05 -3.78896e-05 -1.2736e-05 -1.59277e-05 -6.61589e-05 -8.73526e-06 2.06781e-05 -3.73567e-05 -1.25086e-05 -1.61437e-05 -6.54081e-05 -8.35419e-06 2.06424e-05 -3.66269e-05 -1.24222e-05 -1.64944e-05 -6.49069e-05 -7.73508e-06 2.06789e-05 -3.5957e-05 -1.29298e-05 -1.7095e-05 -6.4895e-05 -6.74361e-06 2.1037e-05 -3.58465e-05 -1.41895e-05 -1.81698e-05 -6.50666e-05 -5.3753e-06 2.1448e-05 -3.98228e-05 -1.55197e-05 -2.07827e-05 -5.69943e-05 -2.40294e-06 2.05694e-05 -3.73678e-05 -2.27787e-05 -2.42144e-05 -5.34022e-05 2.4376e-06 2.29048e-05 -3.98985e-05 -3.61704e-05 -3.21856e-05 -5.97677e-05 1.55803e-05 3.008e-05 -6.90057e-05 -6.90057e-05 -5.28999e-05 -5.35172e-05 -7.59829e-06 -7.59829e-06 -5.28519e-06 -6.95956e-06 -4.83511e-05 -5.39351e-05 -1.04724e-05 -5.95846e-06 7.96714e-06 -1.63348e-06 -5.24159e-05 -5.46955e-05 -2.72372e-05 -3.7397e-06 -6.0914e-07 -1.06017e-05 -4.92208e-05 -5.23342e-05 -2.47926e-05 1.28306e-06 -3.42594e-06 -1.48763e-05 -4.7275e-05 -5.11687e-05 -2.3098e-05 4.03527e-06 -4.27911e-06 -1.67426e-05 -4.61993e-05 -5.09778e-05 -2.22238e-05 5.29162e-06 -4.8584e-06 -1.79353e-05 -4.56376e-05 -5.09447e-05 -2.16961e-05 5.98253e-06 -5.34321e-06 -1.87571e-05 -4.53892e-05 -5.07859e-05 -2.13724e-05 6.41325e-06 -5.69038e-06 -1.91959e-05 -4.5343e-05 -5.04843e-05 -2.11537e-05 6.6557e-06 -5.86438e-06 -1.92442e-05 -4.54532e-05 -5.01263e-05 -2.09516e-05 6.73806e-06 -5.8902e-06 -1.90015e-05 -4.57049e-05 -4.98078e-05 -2.06969e-05 6.6928e-06 -5.85297e-06 -1.86732e-05 -4.60918e-05 -4.95978e-05 -2.03227e-05 6.57382e-06 -5.87982e-06 -1.85726e-05 -4.6586e-05 -4.95874e-05 -1.97497e-05 6.46387e-06 -6.18605e-06 -1.90981e-05 -4.69544e-05 -4.98799e-05 -1.87556e-05 6.56111e-06 -7.06173e-06 -2.01522e-05 -4.62898e-05 -5.01747e-05 -1.69888e-05 6.9655e-06 -8.73962e-06 -1.86141e-05 -4.74024e-05 -4.72247e-05 -1.63389e-05 3.55542e-06 -7.73554e-06 -2.04222e-05 -4.87751e-05 -4.47037e-05 -1.58201e-05 3.25725e-06 -8.45724e-06 -2.37025e-05 -5.35289e-05 -4.66314e-05 -1.34347e-05 3.82865e-06 -2.48608e-05 -2.48608e-05 -5.10333e-05 -5.39723e-05 -1.04324e-05 -1.04324e-05 -1.1378e-05 -1.47628e-05 -5.42836e-05 -5.66467e-05 -1.32087e-05 -1.07363e-05 -8.27804e-06 -1.47812e-05 -5.52062e-05 -5.47967e-05 -1.50778e-05 -9.4152e-06 -2.15422e-06 -1.66745e-05 -5.75017e-05 -5.31879e-05 -1.92227e-05 -7.61591e-06 -3.2858e-06 -1.94123e-05 -5.71521e-05 -5.27005e-05 -1.82437e-05 -6.30065e-06 -4.02519e-06 -2.04588e-05 -5.65195e-05 -5.26902e-05 -1.72072e-05 -5.67732e-06 -4.69004e-06 -2.12767e-05 -5.5958e-05 -5.26895e-05 -1.65985e-05 -5.22357e-06 -5.22264e-06 -2.19488e-05 -5.55408e-05 -5.26069e-05 -1.63431e-05 -4.88934e-06 -5.55858e-06 -2.23288e-05 -5.53402e-05 -5.24537e-05 -1.62757e-05 -4.69695e-06 -5.72179e-06 -2.23506e-05 -5.54071e-05 -5.22754e-05 -1.62284e-05 -4.62752e-06 -5.80984e-06 -2.20689e-05 -5.57518e-05 -5.21359e-05 -1.60647e-05 -4.61833e-06 -5.94608e-06 -2.16487e-05 -5.63312e-05 -5.20885e-05 -1.57119e-05 -4.58162e-06 -6.23976e-06 -2.1346e-05 -5.70329e-05 -5.21882e-05 -1.51814e-05 -4.42411e-06 -6.77011e-06 -2.14287e-05 -5.75842e-05 -5.2584e-05 -1.45155e-05 -4.06322e-06 -7.70011e-06 -2.18701e-05 -5.70486e-05 -5.35941e-05 -1.34617e-05 -3.49331e-06 -9.22863e-06 -2.0734e-05 -5.65203e-05 -5.37704e-05 -1.28995e-05 -5.64026e-06 -8.93342e-06 -2.00506e-05 -5.59065e-05 -5.26065e-05 -1.39194e-05 -6.52261e-06 -7.77159e-06 -1.95611e-05 -5.44741e-05 -4.95464e-05 -1.65539e-05 -7.69598e-06 -1.25832e-05 -1.25832e-05 -4.90803e-05 -5.36432e-05 -1.14698e-05 -1.14698e-05 -1.02953e-05 -1.56057e-05 -5.61722e-05 -5.47567e-05 -1.79282e-05 -1.17805e-05 -8.63181e-06 -1.4573e-05 -5.84493e-05 -5.60694e-05 -1.84767e-05 -1.31757e-05 -8.92434e-06 -1.62951e-05 -5.9701e-05 -5.50677e-05 -1.80651e-05 -1.29926e-05 -7.67912e-06 -1.60122e-05 -5.97893e-05 -5.4785e-05 -1.82012e-05 -1.28103e-05 -8.61999e-06 -1.66486e-05 -5.91599e-05 -5.4712e-05 -1.80164e-05 -1.22251e-05 -9.59037e-06 -1.75686e-05 -5.82843e-05 -5.46724e-05 -1.80767e-05 -1.15087e-05 -1.01758e-05 -1.83836e-05 -5.74916e-05 -5.46609e-05 -1.83864e-05 -1.09478e-05 -1.04296e-05 -1.88699e-05 -5.70274e-05 -5.46587e-05 -1.87523e-05 -1.0639e-05 -1.05195e-05 -1.89692e-05 -5.70287e-05 -5.4659e-05 -1.89686e-05 -1.05197e-05 -1.06393e-05 -1.87522e-05 -5.74935e-05 -5.46594e-05 -1.88698e-05 -1.04309e-05 -1.09465e-05 -1.83853e-05 -5.82837e-05 -5.46711e-05 -1.83851e-05 -1.01776e-05 -1.15073e-05 -1.80759e-05 -5.91578e-05 -5.47099e-05 -1.75701e-05 -9.59074e-06 -1.22249e-05 -1.80139e-05 -5.97886e-05 -5.47852e-05 -1.66485e-05 -8.62185e-06 -1.28094e-05 -1.82007e-05 -5.96953e-05 -5.50674e-05 -1.60107e-05 -7.67683e-06 -1.2993e-05 -1.80654e-05 -5.84472e-05 -5.60685e-05 -1.62935e-05 -8.92306e-06 -1.31765e-05 -1.84766e-05 -5.61693e-05 -5.47547e-05 -1.45717e-05 -8.63233e-06 -1.17774e-05 -1.79261e-05 -4.90785e-05 -5.36388e-05 -1.56065e-05 -1.02939e-05 -1.14684e-05 -1.14684e-05 -5.41888e-05 -4.78179e-05 -8.73495e-06 -8.73495e-06 -2.98799e-06 -7.57087e-06 -6.00335e-05 -4.97611e-05 -2.03926e-05 -6.06174e-06 5.28141e-07 -5.24536e-06 -6.19616e-05 -5.10252e-05 -2.81055e-05 -6.48311e-06 -1.5807e-06 -5.34744e-06 -6.12226e-05 -5.09787e-05 -2.95258e-05 -6.87283e-06 -2.75933e-06 -4.33327e-06 -6.01503e-05 -5.05545e-05 -3.0877e-05 -6.98117e-06 -3.61576e-06 -4.41437e-06 -5.86633e-05 -5.01448e-05 -3.201e-05 -6.24684e-06 -4.10309e-06 -4.95812e-06 -5.71071e-05 -4.99602e-05 -3.28973e-05 -5.45341e-06 -4.14522e-06 -5.47872e-06 -5.59164e-05 -4.99734e-05 -3.3746e-05 -4.9388e-06 -3.91931e-06 -5.75976e-06 -5.53658e-05 -5.00948e-05 -3.45059e-05 -4.7544e-06 -3.68276e-06 -5.77078e-06 -5.55673e-05 -5.02469e-05 -3.502e-05 -4.7876e-06 -3.67172e-06 -5.60848e-06 -5.64478e-05 -5.0378e-05 -3.51147e-05 -4.81641e-06 -4.0549e-06 -5.44994e-06 -5.77091e-05 -5.04681e-05 -3.46835e-05 -4.59654e-06 -4.86934e-06 -5.46896e-06 -5.88274e-05 -5.05108e-05 -3.37429e-05 -3.95453e-06 -5.96502e-06 -5.7793e-06 -5.90724e-05 -5.04723e-05 -3.25017e-05 -2.9213e-06 -6.88579e-06 -6.30627e-06 -5.74618e-05 -5.02478e-05 -3.13771e-05 -1.9263e-06 -6.72378e-06 -6.66813e-06 -5.30186e-05 -4.99387e-05 -3.09498e-05 -2.22017e-06 -5.15966e-06 -7.10543e-06 -4.64252e-05 -4.98122e-05 -3.15687e-05 -6.2067e-06 -6.49448e-06 -1.10377e-05 -3.35604e-05 -5.02382e-05 -1.92384e-05 -6.47744e-06 -4.02558e-06 -4.02558e-06 -7.68723e-05 -3.46758e-05 -9.14644e-06 -9.14644e-06 8.82646e-06 1.32697e-05 -6.57159e-05 -3.82652e-05 -1.66191e-05 6.94783e-06 1.65505e-05 1.32165e-05 -6.49046e-05 -3.9873e-05 -4.00507e-05 1.43986e-05 1.72163e-05 1.56531e-05 -6.28664e-05 -4.00083e-05 -5.10021e-05 1.44632e-05 1.57716e-05 1.70513e-05 -6.04542e-05 -3.96088e-05 -5.60809e-05 1.34115e-05 1.53881e-05 1.79341e-05 -5.8008e-05 -3.94601e-05 -5.80922e-05 1.27508e-05 1.55848e-05 1.83042e-05 -5.60319e-05 -3.95437e-05 -5.8843e-05 1.25173e-05 1.6031e-05 1.85757e-05 -5.48913e-05 -3.97435e-05 -5.92186e-05 1.23234e-05 1.66035e-05 1.8915e-05 -5.48582e-05 -3.99574e-05 -5.9709e-05 1.2082e-05 1.71124e-05 1.93077e-05 -5.60013e-05 -4.01255e-05 -6.03534e-05 1.18246e-05 1.73596e-05 1.96052e-05 -5.81141e-05 -4.02351e-05 -6.09454e-05 1.16952e-05 1.71658e-05 1.95744e-05 -6.06359e-05 -4.03097e-05 -6.11938e-05 1.18775e-05 1.64358e-05 1.89911e-05 -6.25894e-05 -4.03841e-05 -6.08461e-05 1.24788e-05 1.52127e-05 1.77328e-05 -6.2506e-05 -4.04461e-05 -5.97984e-05 1.33605e-05 1.37796e-05 1.5897e-05 -5.83627e-05 -4.04336e-05 -5.81962e-05 1.38511e-05 1.28216e-05 1.3906e-05 -4.77754e-05 -4.08283e-05 -5.64217e-05 1.24388e-05 1.27796e-05 1.21306e-05 -2.90473e-05 -4.13717e-05 -5.50169e-05 7.23112e-06 1.65667e-05 1.06381e-05 -4.36784e-06 -4.52572e-05 -5.51724e-05 -2.39974e-08 1.84829e-05 1.84829e-05 -4.72347e-05 -8.45687e-05 -6.76675e-06 -6.76675e-06 -3.62245e-06 -7.37449e-07 -3.52326e-05 -6.1608e-05 -3.17782e-06 1.25041e-05 -1.22392e-05 6.25469e-06 -3.32039e-05 -6.27129e-05 2.39024e-07 5.03215e-06 -1.84702e-05 8.38639e-06 -3.24142e-05 -6.59127e-05 2.98802e-06 2.9905e-06 -2.53645e-05 5.75141e-06 -3.19277e-05 -6.62954e-05 5.20169e-06 4.454e-06 -3.05445e-05 2.69721e-06 -3.13557e-05 -6.67299e-05 6.5687e-06 6.02574e-06 -3.41611e-05 1.80215e-07 -3.0784e-05 -6.73531e-05 7.38689e-06 7.34692e-06 -3.6805e-05 -1.80604e-06 -3.03022e-05 -6.76738e-05 7.98516e-06 8.51889e-06 -3.86875e-05 -3.22276e-06 -2.99138e-05 -6.75501e-05 8.50399e-06 9.49173e-06 -3.98378e-05 -4.04132e-06 -2.95992e-05 -6.70398e-05 8.96191e-06 1.01965e-05 -4.027e-05 -4.29687e-06 -2.936e-05 -6.63005e-05 9.33822e-06 1.0594e-05 -4.00864e-05 -4.11186e-06 -2.92165e-05 -6.54738e-05 9.65107e-06 1.07189e-05 -3.94851e-05 -3.72785e-06 -2.92138e-05 -6.46581e-05 9.98947e-06 1.07205e-05 -3.85856e-05 -3.38526e-06 -2.94967e-05 -6.39321e-05 1.03451e-05 1.06796e-05 -3.73145e-05 -2.94195e-06 -3.0498e-05 -6.3123e-05 1.02656e-05 9.80712e-06 -3.60034e-05 -2.99717e-06 -3.30684e-05 -6.14955e-05 1.03958e-05 8.31821e-06 -4.27837e-05 -4.90649e-06 -3.54719e-05 -4.33439e-05 1.60999e-05 9.1103e-06 -3.60692e-05 -1.11991e-05 -3.95716e-05 -4.23632e-05 2.3515e-05 1.08968e-05 -3.36517e-05 -3.36517e-05 -5.55718e-05 -5.42626e-05 -1.08489e-05 -1.08489e-05 -4.68548e-06 -1.11345e-05 -5.41452e-05 -5.67732e-05 -1.08873e-05 -5.59887e-06 -2.00777e-06 -1.19987e-05 -5.68784e-05 -5.24315e-05 -2.06769e-05 -1.02129e-06 -4.08767e-06 -1.32409e-05 -5.67276e-05 -5.06621e-05 -2.0837e-05 3.55323e-07 -6.88936e-06 -1.67272e-05 -5.72223e-05 -4.85877e-05 -2.02346e-05 2.45033e-06 -7.97668e-06 -1.88826e-05 -5.74782e-05 -4.73491e-05 -2.0117e-05 3.80919e-06 -8.3736e-06 -2.00819e-05 -5.75822e-05 -4.67864e-05 -2.02518e-05 4.50328e-06 -8.72119e-06 -2.09387e-05 -5.76278e-05 -4.64766e-05 -2.03593e-05 4.96116e-06 -9.07931e-06 -2.15281e-05 -5.76382e-05 -4.62402e-05 -2.03417e-05 5.32624e-06 -9.38905e-06 -2.18006e-05 -5.76109e-05 -4.60495e-05 -2.01689e-05 5.59611e-06 -9.58724e-06 -2.17459e-05 -5.75479e-05 -4.59395e-05 -1.987e-05 5.72321e-06 -9.66992e-06 -2.14277e-05 -5.74522e-05 -4.59678e-05 -1.94864e-05 5.64894e-06 -9.72603e-06 -2.10082e-05 -5.73119e-05 -4.6233e-05 -1.90101e-05 5.36398e-06 -9.95457e-06 -2.07564e-05 -5.70159e-05 -4.67962e-05 -1.82025e-05 5.08621e-06 -1.04926e-05 -2.0712e-05 -5.65216e-05 -4.73972e-05 -1.68508e-05 4.95819e-06 -1.10941e-05 -2.00874e-05 -5.50983e-05 -4.81029e-05 -1.62909e-05 3.58274e-06 -1.44591e-05 -1.53856e-05 -5.57309e-05 -4.41766e-05 -1.44661e-05 -8.06114e-07 -1.52933e-05 -1.74541e-05 -5.70375e-05 -4.8414e-05 -9.92031e-06 -1.32296e-06 -2.52145e-05 -2.52134e-05 -5.63401e-05 -5.1958e-05 -1.59231e-05 -1.59231e-05 -7.53131e-06 -1.61121e-05 -5.75184e-05 -5.20083e-05 -1.76783e-05 -1.0353e-05 -5.69016e-06 -1.69732e-05 -5.74337e-05 -5.07481e-05 -1.81955e-05 -8.65359e-06 1.38762e-06 -1.68357e-05 -6.08577e-05 -4.90205e-05 -2.52619e-05 -6.12104e-06 -5.45596e-07 -2.05731e-05 -6.09078e-05 -4.72405e-05 -2.44181e-05 -3.69207e-06 -9.97365e-07 -2.22174e-05 -6.05682e-05 -4.63786e-05 -2.37197e-05 -2.44852e-06 -9.74548e-07 -2.29447e-05 -6.0268e-05 -4.60039e-05 -2.35915e-05 -1.88249e-06 -1.00441e-06 -2.34475e-05 -6.00551e-05 -4.58313e-05 -2.37193e-05 -1.58076e-06 -1.10509e-06 -2.37888e-05 -5.99448e-05 -4.57604e-05 -2.38838e-05 -1.38813e-06 -1.2354e-06 -2.39336e-05 -5.99417e-05 -4.57585e-05 -2.39343e-05 -1.23553e-06 -1.38664e-06 -2.38831e-05 -6.00536e-05 -4.58294e-05 -2.37897e-05 -1.10369e-06 -1.58022e-06 -2.37195e-05 -6.02665e-05 -4.60041e-05 -2.34481e-05 -1.0042e-06 -1.88305e-06 -2.35906e-05 -6.05685e-05 -4.63762e-05 -2.29456e-05 -9.75305e-07 -2.44897e-06 -2.37203e-05 -6.09065e-05 -4.72362e-05 -2.22168e-05 -9.96647e-07 -3.69221e-06 -2.44167e-05 -6.0855e-05 -4.90205e-05 -2.05698e-05 -5.44451e-07 -6.12137e-06 -2.52603e-05 -5.74315e-05 -5.07458e-05 -1.68343e-05 1.38668e-06 -8.65282e-06 -1.81938e-05 -5.75165e-05 -5.20078e-05 -1.6975e-05 -5.69121e-06 -1.0353e-05 -1.76774e-05 -5.6337e-05 -5.19564e-05 -1.61123e-05 -7.53232e-06 -1.59217e-05 -1.59217e-05 -5.44767e-05 -4.95494e-05 -1.25846e-05 -1.25846e-05 -7.69581e-06 -1.65551e-05 -5.59091e-05 -5.26056e-05 -1.95619e-05 -7.77155e-06 -6.52087e-06 -1.39174e-05 -5.65234e-05 -5.37721e-05 -2.00502e-05 -8.93317e-06 -5.64102e-06 -1.29019e-05 -5.70518e-05 -5.35938e-05 -2.07365e-05 -9.22826e-06 -3.49325e-06 -1.34623e-05 -5.7588e-05 -5.25864e-05 -2.18717e-05 -7.70058e-06 -4.0626e-06 -1.45155e-05 -5.70348e-05 -5.21909e-05 -2.14287e-05 -6.77089e-06 -4.42504e-06 -1.51831e-05 -5.63324e-05 -5.209e-05 -2.13471e-05 -6.2411e-06 -4.58094e-06 -1.57122e-05 -5.57533e-05 -5.2138e-05 -2.16512e-05 -5.9469e-06 -4.61938e-06 -1.60629e-05 -5.54076e-05 -5.22748e-05 -2.20682e-05 -5.81147e-06 -4.62838e-06 -1.6227e-05 -5.53393e-05 -5.2452e-05 -2.23508e-05 -5.72406e-06 -4.69572e-06 -1.62743e-05 -5.55404e-05 -5.26065e-05 -2.23286e-05 -5.55846e-06 -4.88899e-06 -1.63421e-05 -5.59582e-05 -5.26902e-05 -2.19497e-05 -5.22396e-06 -5.22311e-06 -1.65969e-05 -5.65186e-05 -5.26887e-05 -2.1276e-05 -4.68967e-06 -5.67586e-06 -1.72058e-05 -5.71491e-05 -5.26976e-05 -2.04598e-05 -4.02471e-06 -6.29985e-06 -1.82418e-05 -5.74959e-05 -5.31856e-05 -1.94109e-05 -3.28592e-06 -7.6147e-06 -1.92225e-05 -5.52036e-05 -5.47952e-05 -1.66739e-05 -2.15438e-06 -9.41419e-06 -1.50773e-05 -5.42821e-05 -5.66435e-05 -1.47803e-05 -8.27814e-06 -1.07343e-05 -1.32089e-05 -5.10316e-05 -5.39689e-05 -1.47622e-05 -1.13766e-05 -1.04303e-05 -1.04303e-05 -6.16107e-05 -4.15301e-05 4.95924e-06 4.95924e-06 -8.934e-06 -1.4455e-05 -6.12684e-05 -5.0901e-05 -1.30361e-05 4.52384e-06 -8.37241e-06 -9.81907e-06 -6.18519e-05 -5.26179e-05 -2.03888e-05 2.33165e-06 -8.92874e-06 -6.33206e-06 -6.16061e-05 -5.32894e-05 -2.2324e-05 -5.44206e-08 -9.28631e-06 -5.42342e-06 -6.08777e-05 -5.31878e-05 -2.26591e-05 -5.73322e-07 -9.0541e-06 -5.52811e-06 -5.9898e-05 -5.2862e-05 -2.28656e-05 -7.97991e-08 -9.22919e-06 -6.11244e-06 -5.8882e-05 -5.27815e-05 -2.30014e-05 2.87549e-07 -9.20775e-06 -6.64785e-06 -5.80891e-05 -5.29187e-05 -2.33981e-05 4.59204e-07 -9.00078e-06 -6.96623e-06 -5.76677e-05 -5.3209e-05 -2.39457e-05 4.55246e-07 -8.78161e-06 -7.09514e-06 -5.76493e-05 -5.35699e-05 -2.4404e-05 3.80216e-07 -8.69676e-06 -7.17203e-06 -5.7927e-05 -5.38903e-05 -2.45461e-05 4.19157e-07 -8.82763e-06 -7.36693e-06 -5.82593e-05 -5.40388e-05 -2.42333e-05 7.42171e-07 -9.13365e-06 -7.80644e-06 -5.83059e-05 -5.38732e-05 -2.34824e-05 1.4278e-06 -9.42521e-06 -8.48388e-06 -5.7707e-05 -5.32506e-05 -2.24969e-05 2.34655e-06 -9.32129e-06 -9.10841e-06 -5.61857e-05 -5.20713e-05 -2.16381e-05 2.94727e-06 -8.28595e-06 -8.85973e-06 -5.33944e-05 -5.08352e-05 -2.13587e-05 1.41111e-06 -5.77319e-06 -5.79655e-06 -4.90427e-05 -5.37057e-05 -2.31182e-05 -9.26464e-06 -6.61658e-06 -3.73794e-06 -4.32713e-05 -4.91857e-05 -1.47335e-05 -1.17953e-05 -1.8991e-06 -1.8991e-06 -8.9732e-05 -2.31933e-05 3.54059e-05 3.54059e-05 -1.19335e-05 -4.95572e-06 -7.86223e-05 -3.68004e-05 8.11423e-06 3.09021e-05 -8.3545e-06 -1.71728e-06 -7.5795e-05 -4.07587e-05 -1.96572e-05 3.18657e-05 -6.56149e-06 2.68638e-06 -7.49814e-05 -4.20615e-05 -2.83271e-05 2.84706e-05 -6.73375e-06 4.37809e-06 -7.31565e-05 -4.25457e-05 -2.86707e-05 2.60226e-05 -6.80383e-06 4.55955e-06 -7.11495e-05 -4.27005e-05 -2.71967e-05 2.51408e-05 -6.75501e-06 4.22753e-06 -6.9544e-05 -4.26686e-05 -2.57698e-05 2.51549e-05 -6.59316e-06 4.04503e-06 -6.8631e-05 -4.27064e-05 -2.49033e-05 2.52262e-05 -6.2892e-06 4.08123e-06 -6.85563e-05 -4.28785e-05 -2.47579e-05 2.52e-05 -5.96719e-06 4.19811e-06 -6.92428e-05 -4.31782e-05 -2.50725e-05 2.50964e-05 -5.77173e-06 4.17208e-06 -7.03401e-05 -4.35612e-05 -2.54781e-05 2.50413e-05 -5.80887e-06 3.78274e-06 -7.11897e-05 -4.39232e-05 -2.56435e-05 2.51813e-05 -6.08578e-06 2.93811e-06 -7.08661e-05 -4.40896e-05 -2.53927e-05 2.55321e-05 -6.44081e-06 1.79068e-06 -6.82425e-05 -4.37692e-05 -2.48161e-05 2.57848e-05 -6.42498e-06 9.32393e-07 -6.21885e-05 -4.25118e-05 -2.43728e-05 2.49692e-05 -5.07951e-06 1.66102e-06 -5.18664e-05 -3.97617e-05 -2.49675e-05 2.09732e-05 -2.586e-08 6.20422e-06 -3.80418e-05 -3.64463e-05 -2.7725e-05 1.04784e-05 9.75303e-06 1.58591e-05 -3.26574e-05 -4.41814e-05 -3.56873e-05 -1.08012e-05 1.13673e-05 1.13673e-05 -3.62727e-05 -7.04643e-05 1.83924e-05 1.83924e-05 -2.05513e-05 -5.50792e-06 -3.01052e-05 -4.72761e-05 3.53757e-05 2.47841e-05 -1.60078e-05 1.28775e-05 -3.67351e-05 -4.32936e-05 3.26792e-05 1.03773e-05 -1.24305e-05 2.51784e-05 -3.91164e-05 -4.39249e-05 3.09584e-05 7.32431e-07 -1.08996e-05 3.10656e-05 -4.02819e-05 -4.50629e-05 3.0128e-05 -3.79535e-06 -1.15675e-05 3.2869e-05 -4.10234e-05 -4.52556e-05 3.03144e-05 -5.39507e-06 -1.28533e-05 3.31459e-05 -4.13449e-05 -4.54969e-05 3.08187e-05 -5.94523e-06 -1.41347e-05 3.28136e-05 -4.13939e-05 -4.57507e-05 3.13905e-05 -5.92616e-06 -1.52742e-05 3.2245e-05 -4.13103e-05 -4.5796e-05 3.19784e-05 -5.56674e-06 -1.61622e-05 3.16943e-05 -4.1149e-05 -4.55805e-05 3.25023e-05 -5.09175e-06 -1.66749e-05 3.1332e-05 -4.09295e-05 -4.51724e-05 3.28557e-05 -4.6733e-06 -1.67267e-05 3.1247e-05 -4.06559e-05 -4.46929e-05 3.29358e-05 -4.43201e-06 -1.62836e-05 3.14484e-05 -4.03508e-05 -4.41997e-05 3.26545e-05 -4.4406e-06 -1.52491e-05 3.19513e-05 -4.00427e-05 -4.3621e-05 3.17695e-05 -4.90355e-06 -1.32719e-05 3.30631e-05 -3.94047e-05 -4.32069e-05 2.94771e-05 -6.64624e-06 -1.00941e-05 3.48877e-05 -3.83142e-05 -4.3091e-05 2.53801e-05 -1.00902e-05 -6.0788e-06 3.77174e-05 -4.22626e-05 -3.83508e-05 2.09389e-05 -1.56614e-05 -8.82861e-06 2.83495e-05 -4.04954e-05 -2.01136e-05 1.94091e-05 -1.14649e-05 2.49475e-05 2.49475e-05 -5.20501e-05 -4.62586e-05 -5.4882e-06 -5.4882e-06 -7.84996e-06 -4.42424e-06 -5.48989e-05 -5.66407e-05 -3.25804e-07 -9.9958e-06 -1.4519e-05 -1.05265e-05 -5.40632e-05 -5.09243e-05 9.72207e-07 -4.86517e-06 -8.64541e-06 -5.01674e-06 -5.5624e-05 -4.97e-05 -1.56274e-06 -6.85226e-06 -6.78396e-06 -3.24331e-06 -5.718e-05 -4.94546e-05 -3.60505e-06 -8.35627e-06 -6.91528e-06 -3.57866e-06 -5.82916e-05 -4.89069e-05 -4.48594e-06 -8.70639e-06 -7.11336e-06 -4.0729e-06 -5.89939e-05 -4.86124e-05 -5.1273e-06 -8.83062e-06 -7.3662e-06 -4.55849e-06 -5.93982e-05 -4.85661e-05 -5.56325e-06 -8.8353e-06 -7.77281e-06 -5.07066e-06 -5.95856e-05 -4.85852e-05 -5.683e-06 -8.62886e-06 -8.23886e-06 -5.48991e-06 -5.95851e-05 -4.85843e-05 -5.4902e-06 -8.23916e-06 -8.62814e-06 -5.68136e-06 -5.9397e-05 -4.85649e-05 -5.06996e-06 -7.77281e-06 -8.83421e-06 -5.56209e-06 -5.89932e-05 -4.86114e-05 -4.55828e-06 -7.3659e-06 -8.83103e-06 -5.12755e-06 -5.82908e-05 -4.89041e-05 -4.0718e-06 -7.11264e-06 -8.70621e-06 -4.486e-06 -5.71793e-05 -4.94533e-05 -3.57812e-06 -6.9159e-06 -8.35542e-06 -3.60482e-06 -5.56221e-05 -4.96989e-05 -3.24304e-06 -6.78377e-06 -6.8516e-06 -1.56246e-06 -5.40629e-05 -5.09228e-05 -5.01825e-06 -8.64607e-06 -4.86699e-06 9.73022e-07 -5.48972e-05 -5.66401e-05 -1.05253e-05 -1.45201e-05 -9.99726e-06 -3.26328e-07 -5.20478e-05 -4.62556e-05 -4.42442e-06 -7.85091e-06 -5.48659e-06 -5.48752e-06 -5.70399e-05 -4.84151e-05 -2.52137e-05 -2.52137e-05 -1.3211e-06 -9.91845e-06 -5.57332e-05 -4.41789e-05 -1.74557e-05 -1.52938e-05 -8.06696e-07 -1.4467e-05 -5.50975e-05 -4.81056e-05 -1.5386e-05 -1.44602e-05 3.58499e-06 -1.62907e-05 -5.65236e-05 -4.7398e-05 -2.00892e-05 -1.10941e-05 4.95798e-06 -1.68517e-05 -5.70163e-05 -4.68012e-05 -2.07132e-05 -1.04939e-05 5.08495e-06 -1.82033e-05 -5.73102e-05 -4.62343e-05 -2.07555e-05 -9.95436e-06 5.36318e-06 -1.90111e-05 -5.74531e-05 -4.59693e-05 -2.1007e-05 -9.72601e-06 5.64849e-06 -1.94866e-05 -5.75486e-05 -4.59405e-05 -2.1428e-05 -9.67124e-06 5.72383e-06 -1.98704e-05 -5.76119e-05 -4.60513e-05 -2.17468e-05 -9.58719e-06 5.59686e-06 -2.01692e-05 -5.76386e-05 -4.62395e-05 -2.18021e-05 -9.38825e-06 5.32602e-06 -2.03408e-05 -5.76276e-05 -4.64746e-05 -2.15272e-05 -9.07861e-06 4.96155e-06 -2.03596e-05 -5.75822e-05 -4.67865e-05 -2.09396e-05 -8.72113e-06 4.50171e-06 -2.02522e-05 -5.74773e-05 -4.73476e-05 -2.00808e-05 -8.37396e-06 3.80859e-06 -2.01138e-05 -5.72204e-05 -4.85868e-05 -1.88804e-05 -7.97877e-06 2.4501e-06 -2.0233e-05 -5.67253e-05 -5.06606e-05 -1.67246e-05 -6.88847e-06 3.56991e-07 -2.08369e-05 -5.68768e-05 -5.24292e-05 -1.32409e-05 -4.08616e-06 -1.02187e-06 -2.06747e-05 -5.41423e-05 -5.67725e-05 -1.19966e-05 -2.00876e-06 -5.59823e-06 -1.08855e-05 -5.55681e-05 -5.42616e-05 -1.11347e-05 -4.68713e-06 -1.08496e-05 -1.08498e-05 -5.3531e-05 -4.66336e-05 -2.48626e-05 -2.48626e-05 3.82846e-06 -1.34353e-05 -4.87778e-05 -4.47067e-05 -2.37029e-05 -8.45817e-06 3.25694e-06 -1.58199e-05 -4.74031e-05 -4.72252e-05 -2.04217e-05 -7.7344e-06 3.55564e-06 -1.63395e-05 -4.62923e-05 -5.01747e-05 -1.86151e-05 -8.73823e-06 6.96752e-06 -1.69877e-05 -4.69531e-05 -4.98821e-05 -2.01531e-05 -7.0627e-06 6.56286e-06 -1.8754e-05 -4.65875e-05 -4.959e-05 -1.90997e-05 -6.18788e-06 6.46375e-06 -1.9752e-05 -4.60929e-05 -4.96008e-05 -1.8574e-05 -5.87998e-06 6.57204e-06 -2.03229e-05 -4.57041e-05 -4.98099e-05 -1.86713e-05 -5.85369e-06 6.69317e-06 -2.0697e-05 -4.54541e-05 -5.01269e-05 -1.90023e-05 -5.89102e-06 6.73826e-06 -2.09515e-05 -4.53439e-05 -5.04829e-05 -1.92447e-05 -5.86391e-06 6.65671e-06 -2.11521e-05 -4.53888e-05 -5.07843e-05 -1.9195e-05 -5.689e-06 6.41253e-06 -2.13718e-05 -4.56382e-05 -5.09454e-05 -1.87583e-05 -5.34441e-06 5.98218e-06 -2.16954e-05 -4.61986e-05 -5.09779e-05 -1.79358e-05 -4.85979e-06 5.29061e-06 -2.22225e-05 -4.72747e-05 -5.11667e-05 -1.67412e-05 -4.28028e-06 4.0348e-06 -2.30981e-05 -4.92191e-05 -5.23298e-05 -1.48751e-05 -3.42492e-06 1.28533e-06 -2.47909e-05 -5.24143e-05 -5.46928e-05 -1.06026e-05 -6.08538e-07 -3.7377e-06 -2.72361e-05 -4.83482e-05 -5.39309e-05 -1.63423e-06 7.96762e-06 -5.95798e-06 -1.04724e-05 -5.29e-05 -5.35149e-05 -6.9596e-06 -5.28446e-06 -7.5991e-06 -7.5991e-06 -4.90994e-05 -3.70968e-05 3.54433e-06 3.54433e-06 1.01307e-06 -1.60578e-05 -4.37995e-05 -4.51576e-05 -1.40025e-05 1.07207e-05 -1.34752e-06 -1.51274e-05 -4.25748e-05 -4.70007e-05 -1.3015e-05 1.08607e-05 -2.99792e-06 -1.38817e-05 -4.1902e-05 -4.84178e-05 -9.29073e-06 8.89435e-06 -3.24412e-06 -1.4111e-05 -4.13088e-05 -4.91713e-05 -6.79572e-06 8.18344e-06 -3.05514e-06 -1.54701e-05 -4.07673e-05 -4.86248e-05 -5.24918e-06 9.14557e-06 -3.63388e-06 -1.66587e-05 -4.0071e-05 -4.842e-05 -4.10674e-06 9.46892e-06 -3.9034e-06 -1.73425e-05 -3.94667e-05 -4.85381e-05 -3.80167e-06 9.44856e-06 -3.88805e-06 -1.76828e-05 -3.90577e-05 -4.88741e-05 -4.0172e-06 9.29854e-06 -3.75782e-06 -1.78381e-05 -3.8865e-05 -4.93231e-05 -4.36053e-06 9.15265e-06 -3.66366e-06 -1.79727e-05 -3.8881e-05 -4.97314e-05 -4.5236e-06 9.14255e-06 -3.70373e-06 -1.82383e-05 -3.91156e-05 -4.9881e-05 -4.32927e-06 9.36746e-06 -3.90691e-06 -1.87333e-05 -3.96648e-05 -4.95441e-05 -3.74686e-06 9.83671e-06 -4.23356e-06 -1.94722e-05 -4.08204e-05 -4.85724e-05 -2.87716e-06 1.04249e-05 -4.63612e-06 -2.03428e-05 -4.31419e-05 -4.70866e-05 -1.81939e-06 1.08824e-05 -5.3661e-06 -2.09881e-05 -4.67405e-05 -4.59875e-05 -7.27172e-08 1.11409e-05 -7.8186e-06 -1.99433e-05 -4.53784e-05 -4.53645e-05 6.92221e-06 1.37442e-05 -6.36458e-06 -3.14406e-06 -5.03107e-05 -4.30587e-05 3.12671e-06 -4.30579e-06 -4.44295e-07 -4.44295e-07 -6.85134e-05 -2.03329e-05 6.54375e-05 6.54375e-05 -1.51022e-05 -1.89939e-05 -6.14999e-05 -3.59891e-05 1.54375e-05 4.74767e-05 -1.6562e-05 -1.54582e-05 -5.89823e-05 -3.82906e-05 4.39879e-07 4.55153e-05 -1.94896e-05 -1.45803e-05 -5.83702e-05 -3.78602e-05 3.44607e-06 4.35751e-05 -2.16942e-05 -1.50081e-05 -5.72753e-05 -3.7209e-05 9.50751e-06 4.24367e-05 -2.32373e-05 -1.61563e-05 -5.58879e-05 -3.6432e-05 1.38789e-05 4.24101e-05 -2.42453e-05 -1.70957e-05 -5.47903e-05 -3.56175e-05 1.6284e-05 4.28084e-05 -2.4851e-05 -1.74958e-05 -5.41388e-05 -3.51586e-05 1.73766e-05 4.2923e-05 -2.50086e-05 -1.75113e-05 -5.39558e-05 -3.50583e-05 1.75679e-05 4.2851e-05 -2.49011e-05 -1.73951e-05 -5.41293e-05 -3.52327e-05 1.7331e-05 4.26967e-05 -2.47196e-05 -1.73755e-05 -5.44037e-05 -3.55264e-05 1.70341e-05 4.25665e-05 -2.45898e-05 -1.76064e-05 -5.4414e-05 -3.5681e-05 1.69017e-05 4.25474e-05 -2.45364e-05 -1.80861e-05 -5.3775e-05 -3.53314e-05 1.70104e-05 4.26259e-05 -2.44454e-05 -1.85603e-05 -5.22126e-05 -3.39933e-05 1.72777e-05 4.25773e-05 -2.3985e-05 -1.83554e-05 -4.97658e-05 -3.10298e-05 1.7477e-05 4.17936e-05 -2.24483e-05 -1.60627e-05 -4.69858e-05 -2.56824e-05 1.72018e-05 3.88106e-05 -1.81972e-05 -8.86791e-06 -4.51678e-05 -1.84877e-05 1.51565e-05 2.91164e-05 -6.4235e-06 8.84995e-06 -5.35814e-05 -2.7534e-05 6.64709e-06 -4.91133e-06 5.35945e-06 5.35945e-06 -4.0528e-05 -8.15138e-06 7.84231e-05 7.84231e-05 -3.48214e-05 -3.59931e-06 -4.07665e-05 -4.23338e-06 7.75662e-05 4.30448e-05 -1.63037e-05 2.518e-05 -4.94999e-05 1.56525e-06 6.9031e-05 2.52555e-05 -6.86509e-06 4.2931e-05 -5.4475e-05 3.70618e-06 6.48488e-05 1.38176e-05 -1.55199e-06 5.24899e-05 -5.73674e-05 4.26498e-06 6.23684e-05 7.81106e-06 1.20923e-06 5.75467e-05 -5.89677e-05 4.36591e-06 6.11767e-05 4.73914e-06 2.30256e-06 5.99941e-05 -5.9924e-05 4.44806e-06 6.08703e-05 3.2413e-06 2.59705e-06 6.11244e-05 -6.04683e-05 4.44701e-06 6.09934e-05 2.56279e-06 2.56605e-06 6.15246e-05 -6.07133e-05 4.41589e-06 6.12652e-05 2.37055e-06 2.43388e-06 6.15019e-05 -6.07136e-05 4.41531e-06 6.15008e-05 2.43291e-06 2.37129e-06 6.12662e-05 -6.04666e-05 4.44608e-06 6.15238e-05 2.56504e-06 2.56442e-06 6.0994e-05 -5.99222e-05 4.44693e-06 6.11223e-05 2.59601e-06 3.24196e-06 6.08693e-05 -5.89662e-05 4.36556e-06 5.99919e-05 2.30206e-06 4.73871e-06 6.11758e-05 -5.73665e-05 4.2649e-06 5.75463e-05 1.20938e-06 7.81044e-06 6.23674e-05 -5.44721e-05 3.70643e-06 5.24892e-05 -1.5522e-06 1.3818e-05 6.48482e-05 -4.94989e-05 1.56523e-06 4.29297e-05 -6.86526e-06 2.52566e-05 6.90312e-05 -4.07655e-05 -4.23295e-06 2.5178e-05 -1.63045e-05 4.30439e-05 7.75646e-05 -4.05238e-05 -8.15016e-06 -3.60134e-06 -3.48223e-05 7.84205e-05 7.84216e-05 -4.04975e-05 -2.01157e-05 2.49467e-05 2.49467e-05 -1.14649e-05 1.94102e-05 -4.22653e-05 -3.83525e-05 2.8351e-05 -8.82798e-06 -1.56615e-05 2.09384e-05 -3.83172e-05 -4.30926e-05 3.77179e-05 -6.07734e-06 -1.00889e-05 2.5381e-05 -3.94057e-05 -4.3208e-05 3.48876e-05 -1.00938e-05 -6.64593e-06 2.94771e-05 -4.00414e-05 -4.36216e-05 3.30641e-05 -1.32712e-05 -4.90374e-06 3.17703e-05 -4.03519e-05 -4.42005e-05 3.19515e-05 -1.52498e-05 -4.44169e-06 3.26554e-05 -4.06572e-05 -4.46943e-05 3.14502e-05 -1.62834e-05 -4.43257e-06 3.29361e-05 -4.09309e-05 -4.51737e-05 3.12478e-05 -1.67277e-05 -4.67382e-06 3.28564e-05 -4.1148e-05 -4.55816e-05 3.13317e-05 -1.66762e-05 -5.09136e-06 3.2503e-05 -4.13096e-05 -4.57963e-05 3.16934e-05 -1.61634e-05 -5.56653e-06 3.19788e-05 -4.13939e-05 -4.57513e-05 3.22443e-05 -1.52755e-05 -5.92536e-06 3.13902e-05 -4.13443e-05 -4.54965e-05 3.28134e-05 -1.41341e-05 -5.94469e-06 3.0818e-05 -4.10231e-05 -4.52544e-05 3.31442e-05 -1.28542e-05 -5.39416e-06 3.03141e-05 -4.02821e-05 -4.50605e-05 3.28669e-05 -1.1569e-05 -3.79531e-06 3.01285e-05 -3.91137e-05 -4.39223e-05 3.10656e-05 -1.08993e-05 7.33032e-07 3.09586e-05 -3.67329e-05 -4.32954e-05 2.5177e-05 -1.24319e-05 1.03773e-05 3.26789e-05 -3.01039e-05 -4.72751e-05 1.28757e-05 -1.60101e-05 2.47847e-05 3.53757e-05 -3.62714e-05 -7.04611e-05 -5.50877e-06 -2.05514e-05 1.83928e-05 1.83928e-05 -3.95738e-05 -4.23661e-05 -3.36533e-05 -3.36533e-05 1.0898e-05 2.35152e-05 -3.54728e-05 -4.33451e-05 -1.11982e-05 -3.60682e-05 9.11175e-06 1.60999e-05 -3.30693e-05 -6.14971e-05 -4.9077e-06 -4.27827e-05 8.31895e-06 1.03954e-05 -3.05006e-05 -6.31235e-05 -2.99946e-06 -3.60032e-05 9.80863e-06 1.02654e-05 -2.94962e-05 -6.39347e-05 -2.94195e-06 -3.73141e-05 1.06793e-05 1.0345e-05 -2.92118e-05 -6.466e-05 -3.38417e-06 -3.85853e-05 1.07201e-05 9.9904e-06 -2.92172e-05 -6.54763e-05 -3.72748e-06 -3.9487e-05 1.0718e-05 9.65089e-06 -2.93623e-05 -6.6302e-05 -4.11254e-06 -4.00888e-05 1.05934e-05 9.33863e-06 -2.95987e-05 -6.70421e-05 -4.29562e-06 -4.02701e-05 1.01942e-05 8.96067e-06 -2.99125e-05 -6.75502e-05 -4.0404e-06 -3.98372e-05 9.4914e-06 8.50397e-06 -3.03018e-05 -6.76741e-05 -3.22243e-06 -3.8687e-05 8.51868e-06 7.98611e-06 -3.07827e-05 -6.73514e-05 -1.80558e-06 -3.68048e-05 7.34699e-06 7.38743e-06 -3.13558e-05 -6.67292e-05 1.81204e-07 -3.41608e-05 6.02595e-06 6.56907e-06 -3.19279e-05 -6.62928e-05 2.69772e-06 -3.05444e-05 4.45411e-06 5.20305e-06 -3.24116e-05 -6.59113e-05 5.75263e-06 -2.53643e-05 2.9911e-06 2.98815e-06 -3.32018e-05 -6.27133e-05 8.38491e-06 -1.84713e-05 5.03371e-06 2.3817e-07 -3.52315e-05 -6.16066e-05 6.25281e-06 -1.22398e-05 1.25066e-05 -3.17668e-06 -4.72309e-05 -8.45666e-05 -7.39855e-07 -3.62307e-06 -6.76784e-06 -6.76784e-06 -3.21878e-05 -5.97709e-05 -6.90085e-05 -6.90085e-05 3.00812e-05 1.55807e-05 -2.42149e-05 -5.34042e-05 -3.61724e-05 -3.98989e-05 2.29041e-05 2.43702e-06 -2.07838e-05 -5.69956e-05 -2.27775e-05 -3.73661e-05 2.05687e-05 -2.40411e-06 -1.81704e-05 -6.50665e-05 -1.55191e-05 -3.98236e-05 2.14512e-05 -5.37427e-06 -1.70955e-05 -6.48973e-05 -1.41895e-05 -3.58478e-05 2.10374e-05 -6.74363e-06 -1.64971e-05 -6.49107e-05 -1.29321e-05 -3.5959e-05 2.06784e-05 -7.73643e-06 -1.61432e-05 -6.54103e-05 -1.24242e-05 -3.66274e-05 2.0642e-05 -8.35419e-06 -1.59282e-05 -6.61618e-05 -1.25095e-05 -3.73594e-05 2.0678e-05 -8.73574e-06 -1.58802e-05 -6.69485e-05 -1.27376e-05 -3.78913e-05 2.05162e-05 -9.04898e-06 -1.60214e-05 -6.76042e-05 -1.27023e-05 -3.79687e-05 2.00035e-05 -9.36553e-06 -1.63866e-05 -6.79191e-05 -1.21281e-05 -3.73988e-05 1.90431e-05 -9.71775e-06 -1.70746e-05 -6.77112e-05 -1.08395e-05 -3.60898e-05 1.75628e-05 -1.01472e-05 -1.8274e-05 -6.69449e-05 -8.70631e-06 -3.39878e-05 1.54639e-05 -1.07842e-05 -2.02785e-05 -6.58916e-05 -5.5534e-06 -3.0884e-05 1.25259e-05 -1.19808e-05 -2.344e-05 -6.54754e-05 -9.74373e-07 -2.59975e-05 8.08546e-06 -1.4619e-05 -2.86812e-05 -6.51061e-05 5.95573e-06 -1.70531e-05 2.38155e-06 -2.0346e-05 -4.02885e-05 -5.77813e-05 1.37326e-05 -2.27933e-06 1.4174e-06 -2.96574e-05 -4.9669e-05 -6.07146e-05 1.54168e-05 1.50699e-05 -6.10123e-06 -6.10123e-06 -1.82182e-05 -6.72348e-05 -6.116e-05 -6.116e-05 3.59957e-05 5.23698e-07 -1.19188e-05 -5.38042e-05 -3.71828e-05 -1.79353e-05 2.34125e-05 -1.04134e-05 -1.03204e-05 -4.78509e-05 -1.72654e-05 -8.40167e-06 1.6815e-05 -1.39412e-05 -1.0052e-05 -4.53353e-05 -5.35456e-06 -8.21566e-06 1.43043e-05 -1.5761e-05 -9.41101e-06 -4.56772e-05 5.47388e-07 -8.74892e-06 1.37509e-05 -1.7163e-05 -9.34103e-06 -4.43997e-05 2.74545e-06 -7.60954e-06 1.27158e-05 -1.81897e-05 -9.13542e-06 -4.37992e-05 4.04039e-06 -7.89179e-06 1.23168e-05 -1.86232e-05 -8.88476e-06 -4.37924e-05 4.3907e-06 -8.53807e-06 1.22824e-05 -1.87711e-05 -8.7217e-06 -4.40985e-05 4.27825e-06 -9.13334e-06 1.22971e-05 -1.88443e-05 -8.70127e-06 -4.45275e-05 4.16278e-06 -9.4835e-06 1.2137e-05 -1.8957e-05 -8.87847e-06 -4.48856e-05 4.36323e-06 -9.4489e-06 1.16347e-05 -1.91863e-05 -9.38658e-06 -4.49502e-05 5.08027e-06 -8.9508e-06 1.06472e-05 -1.95826e-05 -1.05391e-05 -4.45127e-05 6.47006e-06 -7.98531e-06 9.02336e-06 -2.02001e-05 -1.29843e-05 -4.34932e-05 8.73682e-06 -6.53439e-06 6.5063e-06 -2.11794e-05 -1.79651e-05 -4.21745e-05 1.23532e-05 -4.26474e-06 2.50575e-06 -2.30001e-05 -2.77323e-05 -4.19221e-05 1.85381e-05 3.8464e-07 -4.72723e-06 -2.73975e-05 -4.79388e-05 -3.87737e-05 3.00428e-05 1.24021e-05 -1.31133e-05 -3.96153e-05 -4.81657e-05 -1.52913e-05 3.80719e-05 3.39716e-05 6.12882e-06 6.12882e-06 -6.2351e-06 -6.07645e-05 9.18123e-06 9.18123e-06 1.7846e-05 -1.88907e-05 -9.09714e-06 -4.01912e-05 -9.60005e-06 3.18181e-05 5.67884e-06 -1.95356e-05 -1.11484e-05 -2.77941e-05 7.09629e-06 3.70001e-05 -4.1183e-06 -2.10289e-05 -1.3114e-05 -2.0364e-05 2.18411e-05 3.83945e-05 -9.18674e-06 -2.21783e-05 -1.39509e-05 -1.67232e-05 3.06554e-05 3.79841e-05 -1.14918e-05 -2.29454e-05 -1.41016e-05 -1.49203e-05 3.47775e-05 3.75057e-05 -1.26641e-05 -2.33879e-05 -1.41092e-05 -1.35226e-05 3.64684e-05 3.73103e-05 -1.32893e-05 -2.34025e-05 -1.41035e-05 -1.2749e-05 3.71095e-05 3.68371e-05 -1.3443e-05 -2.31777e-05 -1.41859e-05 -1.24147e-05 3.72032e-05 3.63726e-05 -1.33918e-05 -2.29209e-05 -1.43923e-05 -1.23547e-05 3.71557e-05 3.60433e-05 -1.33505e-05 -2.27781e-05 -1.47108e-05 -1.24315e-05 3.72129e-05 3.59079e-05 -1.34759e-05 -2.2839e-05 -1.51886e-05 -1.24762e-05 3.75119e-05 3.599e-05 -1.38995e-05 -2.3128e-05 -1.60767e-05 -1.22415e-05 3.81701e-05 3.62733e-05 -1.47768e-05 -2.35722e-05 -1.80841e-05 -1.13895e-05 3.94034e-05 3.66878e-05 -1.63476e-05 -2.3966e-05 -2.27964e-05 -9.46423e-06 4.1713e-05 3.71602e-05 -1.90747e-05 -2.39557e-05 -3.32708e-05 -5.94098e-06 4.6196e-05 3.78147e-05 -2.40216e-05 -2.31704e-05 -5.3106e-05 -2.10941e-07 5.4931e-05 3.96398e-05 -3.39521e-05 -2.13175e-05 -6.27366e-05 3.36809e-05 6.95156e-05 4.49044e-05 1.81402e-05 1.81402e-05 
